# x y z rho theta phi s1 s2 stress_xx np intf bulk
-0.763490 -10.723761 -14.362202 17.940312 1.499720 2.499017 0.005435 0.002498 -423795.000000 1 0 0
2.150710 -13.537261 -12.959102 18.863226 -1.413240 2.328154 0.010443 0.001039 952520.000000 1 0 0
2.100810 -11.277761 -14.698002 18.644906 -1.386628 2.478857 0.003503 0.004370 248799.000000 1 0 0
-5.636490 -6.315861 -16.370902 18.430044 0.842177 2.664367 0.022710 -0.010024 -1035250.000000 1 0 0
4.524110 -14.059861 -11.452302 18.689635 -1.259484 2.230347 0.011660 -0.002018 353153.000000 1 0 0
13.976210 -10.622661 -7.847202 19.228987 -0.649904 1.991160 0.049972 -0.013781 -1071420.000000 1 0 0
7.092610 10.807039 -10.874802 16.892559 0.990008 2.270202 0.028883 -0.015115 -51917.800000 1 0 0
5.624010 -4.198161 -12.475202 14.313794 -0.641239 2.629153 0.004241 -0.006672 1621270.000000 1 0 0
13.705010 0.564639 -9.926602 16.931732 0.041176 2.197246 0.034724 -0.006378 2253740.000000 1 0 0
14.146410 5.134339 -10.308302 18.241257 0.348158 2.171362 0.043930 -0.008454 -1286850.000000 1 0 0
4.127610 4.318539 -13.424302 14.693496 0.808000 2.722902 0.006846 -0.001892 2260520.000000 1 0 0
10.389610 -4.995261 -13.669302 17.881455 -0.448165 2.440969 0.043263 -0.009878 -149408.000000 1 0 0
2.517610 -7.654061 -11.980402 14.437902 -1.253019 2.549524 -0.001543 0.000187 -100395.000000 1 0 0
-5.608690 -2.036961 -15.176202 16.307167 0.348367 2.766971 0.019918 -0.008549 1217920.000000 1 0 0
10.658110 0.044539 -9.635902 14.368295 0.004179 2.305863 0.012583 -0.002840 1878530.000000 1 0 0
-1.666090 -9.560861 -16.849602 19.444665 1.398267 2.619026 0.022749 -0.003535 1254230.000000 1 0 0
8.771710 1.676539 -17.939602 20.039536 0.188853 2.679700 0.054476 -0.013596 673596.000000 1 0 0
16.460210 -5.939361 -8.716602 19.549774 -0.346291 2.032939 0.064598 -0.019249 -1033870.000000 1 0 0
10.101110 7.549639 -9.962502 16.071121 0.641839 2.239413 0.032671 -0.006864 1087150.000000 1 0 0
13.837710 -2.276661 -10.481202 17.507741 -0.163065 2.212625 0.041070 -0.012237 -2780580.000000 1 0 0
7.174810 -1.850061 -13.573202 15.463907 -0.252358 2.641909 0.016015 -0.008364 -245810.000000 1 0 0
-2.806590 6.635539 -13.814002 15.579922 -1.170652 2.660855 0.015378 -0.008087 2046600.000000 1 0 0
11.288710 1.732539 -13.809502 17.920352 0.152287 2.450585 0.035509 -0.009380 1870660.000000 1 0 0
-2.334790 10.769639 -12.984602 17.030451 -1.357306 2.437863 0.014879 -0.003039 -995341.000000 1 0 0
2.862610 -1.060161 -15.249802 15.552329 -0.354686 2.944030 0.012749 -0.005765 -204887.000000 1 0 0
-9.115090 0.355839 -15.275302 17.791749 -0.039019 2.603253 0.017288 -0.005582 -1887620.000000 1 0 0
2.365610 -1.803061 -17.999702 18.243804 -0.651261 2.977825 0.025820 -0.013825 84673.600000 1 0 0
0.961810 7.872539 -13.167402 15.371481 1.449226 2.599464 0.009790 -0.006877 204778.000000 1 0 0
9.297110 -9.043261 -9.901402 16.317309 -0.771558 2.222829 0.025712 -0.006270 -1220690.000000 1 0 0
3.875610 7.270039 -13.443802 15.767360 1.081026 2.591804 0.006600 -0.003102 1483790.000000 1 0 0
-2.782190 9.108839 -15.515702 18.205728 -1.274358 2.591054 0.018845 -0.007901 1793540.000000 1 0 0
5.361310 -7.707461 -15.192902 17.859811 -0.963029 2.588065 0.021711 -0.006372 964209.000000 1 0 0
4.172810 7.289839 -16.361702 18.391829 1.050907 2.667304 0.017594 -0.002078 23868.600000 1 0 0
-0.233190 5.095439 -13.464802 14.398568 -1.525064 2.779475 0.014940 -0.010066 1359030.000000 1 0 0
8.878610 4.217139 -16.558902 19.256459 0.443430 2.605898 0.043029 -0.005676 -903675.000000 1 0 0
5.341310 0.241739 -14.379102 15.341010 0.045228 2.785592 0.005955 -0.002701 258296.000000 1 0 0
6.266010 7.977539 -11.636602 15.437439 0.904986 2.424609 0.007413 -0.004645 648299.000000 1 0 0
2.612510 -8.419961 -15.001302 17.400000 -1.269939 2.610282 0.010068 -0.003905 -1172210.000000 1 0 0
4.040110 11.429839 -13.757402 18.336571 1.231033 2.419269 0.025509 -0.015333 -736432.000000 1 0 0
0.599510 -4.549161 -13.693002 14.441349 -1.439767 2.818255 0.004956 -0.002236 531099.000000 1 0 0
8.508010 -0.119561 -11.623202 14.404838 -0.014052 2.509674 0.005992 -0.003538 -1138470.000000 1 0 0
-0.967990 -5.163361 -16.231602 17.060545 1.385475 2.828585 0.013667 -0.009721 193746.000000 1 0 0
4.517010 0.872839 -11.720702 12.591270 0.190881 2.767554 0.002807 -0.004489 803989.000000 1 0 0
-2.979590 -7.212961 -15.564502 17.411446 1.179058 2.676820 0.007972 -0.002819 3180740.000000 1 0 0
11.425410 -3.712361 -11.391502 16.555601 -0.314161 2.329630 0.033700 -0.010847 -221864.000000 1 0 0
6.432810 -7.013161 -12.502602 15.712432 -0.828533 2.490982 0.018296 -0.005195 -800958.000000 1 0 0
3.352510 -4.006461 -14.575702 15.483608 -0.874030 2.797445 0.013253 -0.006890 3001660.000000 1 0 0
-0.554290 -1.564661 -18.305302 18.380410 1.230335 3.051159 0.034858 -0.019943 923972.000000 1 0 0
14.879610 2.928339 -8.373402 17.323159 0.194319 2.075290 0.025452 -0.009794 -2120790.000000 1 0 0
6.913710 4.332939 -14.394702 16.546335 0.559833 2.625924 0.016202 0.000470 2430510.000000 1 0 0
10.076110 -9.589761 -13.984502 19.724548 -0.760673 2.358861 0.061676 -0.014010 -977648.000000 1 0 0
8.996710 -3.248261 -15.481902 18.198386 -0.346485 2.588168 0.043259 -0.017995 -546629.000000 1 0 0
-5.319490 -2.200761 -18.068602 18.963509 0.392275 2.833155 0.013504 -0.002211 -450089.000000 1 0 0
5.035210 -9.119461 -11.123802 15.239976 -1.066312 2.388986 -0.003446 -0.000433 1894280.000000 1 0 0
-2.431090 4.015339 -17.095602 17.728303 -1.026379 2.873626 0.017157 -0.001834 889815.000000 1 0 0
9.439410 9.498039 -14.477202 19.720664 0.788494 2.395156 0.074234 -0.012943 -1388630.000000 1 0 0
9.885610 9.991139 -11.564202 18.201069 0.790707 2.259269 0.052203 -0.021138 -470729.000000 1 0 0
11.962210 -5.916661 -9.656502 16.472686 -0.459328 2.197173 0.029411 -0.011799 -574764.000000 1 0 0
8.095810 7.015339 -13.762902 17.440602 0.714018 2.480188 0.019653 -0.001769 -636350.000000 1 0 0
3.987510 -4.132761 -17.454102 18.374591 -0.803284 2.823726 0.036105 -0.019860 -307129.000000 1 0 0
9.298610 -7.385961 -12.377902 17.153105 -0.671261 2.376926 0.035454 -0.009972 113892.000000 1 0 0
11.872110 -8.746861 -8.800702 17.172854 -0.634972 2.108864 0.034246 -0.010964 918614.000000 1 0 0
-3.032490 -2.556661 -13.883902 14.439364 0.700469 2.863320 0.010485 -0.006361 -3445390.000000 1 0 0
-0.411390 6.153439 -17.624602 18.672457 -1.504040 2.804990 0.025661 -0.004491 813066.000000 1 0 0
1.046110 -8.436761 -17.403202 19.368652 -1.447432 2.687192 0.019856 -0.010310 438836.000000 1 0 0
0.048710 8.594439 -15.977602 18.142506 1.565129 2.648076 0.020521 -0.006512 1007080.000000 1 0 0
1.769010 3.380539 -14.904002 15.384626 1.088689 2.890975 0.016893 -0.005722 1215490.000000 1 0 0
-1.961890 -0.417461 -15.845002 15.971454 0.209658 3.015673 0.018486 -0.009322 1350520.000000 1 0 0
14.090610 -4.359461 -8.400102 16.973859 -0.300047 2.088498 0.031837 -0.013001 588350.000000 1 0 0
0.528810 0.617639 -14.556502 14.579193 0.862725 3.085793 0.009244 -0.005049 1539010.000000 1 0 0
8.796910 2.789339 -12.589602 15.609744 0.307053 2.509042 0.013074 0.000503 3234610.000000 1 0 0
5.985210 0.967539 -17.134202 18.175251 0.160269 2.801494 0.024949 -0.002361 -717580.000000 1 0 0
15.427410 1.628039 -12.205802 19.739227 0.105140 2.237441 0.065850 -0.016128 5166.460000 1 0 0
8.681910 -11.192861 -11.904602 18.503384 -0.911071 2.269694 0.044331 -0.008909 903169.000000 1 0 0
-4.606390 0.728039 -15.160102 15.861196 -0.156753 2.843159 0.015357 -0.009648 -232454.000000 1 0 0
2.322010 5.113639 -17.216802 18.109647 1.144553 2.826275 0.024425 -0.005149 801418.000000 1 0 0
5.797510 -11.677861 -12.382802 17.981027 -1.109990 2.330435 0.012791 -0.004171 -478764.000000 1 0 0
12.766710 7.259039 -8.665102 17.051878 0.517005 2.103845 0.029061 -0.007310 -158352.000000 1 0 0
-5.111990 3.668439 -15.752802 16.962920 -0.622450 2.761583 0.010853 -0.004383 146706.000000 1 0 0
-0.575790 -4.454161 -19.085502 19.606821 1.442239 2.910476 0.032699 -0.016209 195082.000000 1 0 0
9.771110 4.399539 -10.302902 14.865407 0.423070 2.336548 0.003726 -0.000881 849321.000000 1 0 0
13.330610 3.601839 -12.722302 18.775926 0.263892 2.315271 0.054791 -0.017080 803180.000000 1 0 0
-6.346690 5.755039 -17.253502 19.263548 -0.736547 2.680699 0.016740 -0.001634 462277.000000 1 0 0
-10.120790 3.122839 -15.539402 18.805731 -0.299289 2.543324 0.019731 -0.006759 -2462480.000000 1 0 0
10.733610 13.631239 -8.360802 19.259390 0.903769 2.019853 0.070525 -0.012593 -1259870.000000 1 0 0
7.447110 13.425439 -12.329602 19.690631 1.064351 2.247422 0.066208 -0.019736 -107106.000000 1 0 0
5.311210 15.118639 -11.286202 19.600014 1.232962 2.184411 0.042557 -0.019191 308220.000000 1 0 0
14.178810 9.360439 -10.083402 19.756808 0.583492 2.106418 0.080979 -0.022015 -1246980.000000 1 0 0
8.389210 -17.179761 -2.086802 19.232206 -1.116537 1.679516 0.036273 -0.010685 -412061.000000 1 0 0
0.722310 -16.086061 0.041798 16.102324 -1.525924 1.568201 0.017531 -0.005254 3058890.000000 1 0 0
-9.106890 -11.623061 7.606898 16.610114 0.906186 1.095088 0.013951 -0.001762 194565.000000 1 0 0
2.059810 -15.930361 -2.584402 16.269552 -1.442209 1.730321 0.015581 -0.006645 928332.000000 1 0 0
-1.333990 -11.138361 -9.426702 14.652826 1.451599 2.269645 -0.000658 -0.000535 -120854.000000 1 0 0
-4.846390 -12.726861 -13.020702 18.841421 1.206950 2.333762 0.007552 -0.001258 1906790.000000 1 0 0
-8.283890 -17.750561 -1.709602 19.662857 1.134156 1.657852 0.032874 -0.014851 -1899060.000000 1 0 0
-11.397890 -7.039161 -8.822402 16.040462 0.553249 2.153172 0.024165 -0.007568 2710580.000000 1 0 0
-13.649290 -11.511061 -4.659002 18.453019 0.700618 1.826038 0.031520 -0.008405 -1756230.000000 1 0 0
-5.862690 -13.307061 9.883698 17.582278 1.155812 0.973825 0.018462 -0.004794 1340670.000000 1 0 0
0.144710 -14.015861 -3.592002 14.469546 -1.560472 1.821665 0.008152 0.001316 -138452.000000 1 0 0
-14.852690 -11.564661 1.966998 18.926512 0.661570 1.466680 0.018495 0.000357 2090810.000000 1 0 0
-3.950590 -16.500861 -7.431002 18.523103 1.335802 1.983595 0.016805 -0.012757 -448922.000000 1 0 0
0.492310 -15.399561 -9.243602 17.967554 -1.538838 2.111175 0.008138 0.001224 606260.000000 1 0 0
4.552310 -14.189161 -2.594202 15.125663 -1.260341 1.743158 0.011694 -0.002591 183401.000000 1 0 0
-3.540890 -18.204861 -2.443802 18.706336 1.378692 1.701811 0.017853 -0.006558 -258110.000000 1 0 0
-0.915090 -13.480461 0.683298 13.528751 1.503018 1.520268 0.012289 -0.003241 4067140.000000 1 0 0
-8.518390 -11.373661 -10.458202 17.643613 0.927963 2.205262 0.018360 -0.006513 2518150.000000 1 0 0
-3.706790 -14.106361 -0.443902 14.592010 1.313831 1.601222 0.008930 -0.001166 4856040.000000 1 0 0
-1.512390 -14.994961 -7.236002 16.718130 1.470276 2.018419 0.008096 -0.002693 -175383.000000 1 0 0
-14.265790 -7.817461 -1.841302 16.371189 0.501296 1.683507 0.009432 -0.003965 1818480.000000 1 0 0
-10.817890 -7.379661 -11.630802 17.514613 0.598660 2.297036 0.031941 -0.007689 -1843690.000000 1 0 0
-9.515690 -14.617661 6.917298 18.763618 0.993738 1.193235 0.008317 -0.000270 636827.000000 1 0 0
-2.547890 -14.513061 -12.265002 19.171618 1.397009 2.264966 0.013794 -0.000641 967994.000000 1 0 0
2.372210 -17.897161 -4.701202 18.655751 -1.439018 1.825540 0.024435 -0.011535 778002.000000 1 0 0
-6.603890 -9.657661 -9.208102 14.888616 0.971027 2.237585 0.011786 -0.009124 725644.000000 1 0 0
-11.035890 -15.317561 0.493098 18.885488 0.946462 1.544683 0.030801 -0.007772 -242326.000000 1 0 0
-12.668990 -10.989361 4.143498 17.275356 0.714522 1.328585 0.021552 -0.000675 2224860.000000 1 0 0
-17.045190 -8.769961 -1.550602 19.231616 0.475190 1.651512 0.011214 -0.005837 215421.000000 1 0 0
-1.334690 -19.401161 -3.961502 19.846408 1.502110 1.771754 0.022561 -0.004310 -933941.000000 1 0 0
3.199210 -14.316361 -8.762902 17.087468 -1.350943 2.109270 0.010775 -0.000966 768333.000000 1 0 0
-4.400190 -8.127961 -13.002402 15.952676 1.074607 2.523631 0.009373 -0.000521 1145000.000000 1 0 0
5.594810 -16.612661 1.360898 17.582219 -1.245947 1.493317 0.031636 -0.008571 3488480.000000 1 0 0
-2.764190 -13.840861 -3.234902 14.480150 1.373677 1.796100 0.006285 -0.000468 -1653940.000000 1 0 0
-0.440290 -13.979961 3.722598 14.473800 1.539312 1.310677 0.020275 -0.002879 -2866930.000000 1 0 0
1.375810 -16.124361 7.101398 17.672513 -1.485678 1.157279 0.027089 -0.011259 2089070.000000 1 0 0
-5.522490 -10.478461 -14.631102 18.824589 1.085757 2.461053 0.017258 -0.000094 364840.000000 1 0 0
-0.313690 -17.354861 -5.846202 18.315776 1.552723 1.895670 0.018812 -0.009186 1133940.000000 1 0 0
-6.533290 -13.406861 -1.312602 14.971663 1.117353 1.658581 0.008207 -0.003729 2345030.000000 1 0 0
-1.829490 -17.683461 -0.157302 17.778542 1.467705 1.579644 0.014870 -0.012795 969160.000000 1 0 0
-9.499390 -9.714061 -4.866402 14.432021 0.796571 1.914732 0.019147 -0.007507 829603.000000 1 0 0
-0.759390 -16.648561 5.022198 17.406140 1.525215 1.278105 0.038421 -0.011730 2239550.000000 1 0 0
-6.818590 -9.883561 -6.283902 13.552319 0.966887 2.052937 0.018356 -0.009120 2223750.000000 1 0 0
-6.116290 -14.605361 -8.575202 18.007211 1.174214 2.067135 0.014456 -0.011669 -1301730.000000 1 0 0
-5.764890 -12.193261 -10.249002 16.939645 1.129150 2.220600 0.010690 -0.009154 51957.000000 1 0 0
-10.697890 -12.075661 -8.660202 18.310257 0.845823 2.063455 0.031522 -0.021847 -176973.000000 1 0 0
4.075010 -17.055361 6.702298 18.772635 -1.336265 1.205715 0.042997 -0.011545 -185875.000000 1 0 0
-6.689690 -14.406961 -4.137302 16.414315 1.136084 1.825599 0.017999 -0.014775 -312119.000000 1 0 0
-2.776590 -12.284361 -7.060702 14.438437 1.348505 2.081764 0.006812 -0.003486 2898600.000000 1 0 0
-7.103890 -12.873961 4.392498 15.345949 1.066570 1.280505 0.004256 -0.000742 3123810.000000 1 0 0
2.604410 -16.426261 2.424298 16.807207 -1.413554 1.426050 0.025440 -0.010489 2792160.000000 1 0 0
-6.180690 -11.937461 7.220498 15.259079 1.093045 1.077884 0.002319 -0.001072 716639.000000 1 0 0
-11.343790 -12.815761 -0.961902 17.142069 0.846250 1.626939 0.028172 -0.004214 -696273.000000 1 0 0
-14.323490 -8.667861 4.642598 17.373770 0.544198 1.300291 0.020067 -0.005624 -812432.000000 1 0 0
-8.080690 -15.559361 4.493698 18.099297 1.091792 1.319892 0.013574 0.002005 715362.000000 1 0 0
-16.498390 -9.160961 1.186698 18.908419 0.506876 1.507995 0.008257 -0.000862 -1251810.000000 1 0 0
-6.751990 -17.024561 2.377398 18.468271 1.193222 1.441709 0.018150 -0.005322 3336820.000000 1 0 0
-11.594990 -14.896561 -4.702702 19.454221 0.909386 1.814946 0.048032 -0.013170 -1590640.000000 1 0 0
-10.115090 -10.040361 -12.566802 19.001273 0.781691 2.293435 0.022961 -0.004885 1269140.000000 1 0 0
-4.375190 -16.136761 -4.495902 17.313303 1.306030 1.833486 0.014079 -0.005072 911341.000000 1 0 0
-11.794190 -8.215661 0.001598 14.373586 0.608431 1.570685 0.000898 0.000120 3041150.000000 1 0 0
-9.672990 -11.140361 3.457098 15.153412 0.855783 1.340630 0.007436 0.001873 2400010.000000 1 0 0
-14.229390 -12.973861 -0.641702 19.266768 0.739277 1.604109 0.024163 0.000810 -963574.000000 1 0 0
5.544710 -14.924861 -7.063202 17.417924 -1.215090 1.988337 0.010593 -0.008051 843780.000000 1 0 0
-7.496490 -10.536861 -1.316302 12.998286 0.952425 1.672238 0.007716 -0.001266 922471.000000 1 0 0
-11.665590 -8.160261 -6.092502 15.485296 0.610401 1.975164 0.017685 -0.008660 1559050.000000 1 0 0
-14.389090 -6.596261 -9.228002 18.322461 0.429835 2.098608 0.037657 -0.007413 1911240.000000 1 0 0
-3.964190 -16.413561 1.389798 16.942589 1.333815 1.488674 0.015070 -0.009754 1249210.000000 1 0 0
-8.002890 -15.529361 0.138398 17.470731 1.094953 1.562875 0.024593 -0.009061 1010530.000000 1 0 0
1.075810 -18.538461 3.833998 18.961314 -1.512830 1.367191 0.036420 -0.015034 -332712.000000 1 0 0
-14.168090 -8.665761 -4.578502 17.227677 0.548934 1.839793 0.019238 -0.007879 -594971.000000 1 0 0
-3.354390 -14.431561 11.206498 18.577069 1.342417 0.923234 0.015590 -0.006813 834401.000000 1 0 0
-10.899290 -12.072361 -3.856302 16.715486 0.836420 1.803596 0.030711 -0.013300 1937460.000000 1 0 0
-9.985890 -10.647361 0.454698 14.604487 0.817446 1.539657 0.009344 0.000943 479214.000000 1 0 0
-0.087490 -13.318761 -11.142702 17.365392 1.564228 2.267459 0.008192 -0.001508 1412190.000000 1 0 0
-5.822590 -12.629861 -6.309002 15.271523 1.138818 1.996676 0.007444 -0.011333 1355430.000000 1 0 0
1.951510 -15.918761 10.026298 18.914069 -1.448813 1.012081 0.029701 -0.006257 -47449.600000 1 0 0
-9.021290 -15.609961 -5.535602 18.859942 1.046771 1.868694 0.047766 -0.020164 -348710.000000 1 0 0
-3.405590 -15.481161 5.864698 16.901451 1.354262 1.216433 0.024743 -0.006076 -1948290.000000 1 0 0
-17.443990 -5.367061 -6.521302 19.381060 0.298482 1.913971 0.022721 -0.006738 -578713.000000 1 0 0
18.678210 5.447939 -3.105002 19.702706 0.283800 1.729049 0.007215 0.001505 -537573.000000 1 0 0
12.914410 -12.545561 -5.747802 18.900008 -0.770912 1.879807 0.049634 -0.003771 -647165.000000 1 0 0
11.050010 -13.507161 -1.595802 17.524061 -0.885125 1.661986 0.033232 -0.011233 1735840.000000 1 0 0
18.759510 -2.781061 4.571898 19.507839 -0.147176 1.334234 0.057907 -0.016730 -264579.000000 1 0 0
8.756610 -16.868661 5.055698 19.666978 -1.091982 1.310812 0.035404 -0.023321 -909389.000000 1 0 0
18.235210 -0.919361 6.726598 19.458038 -0.050374 1.217814 0.082530 -0.019542 -171600.000000 1 0 0
18.071810 -4.214561 -4.911202 19.195644 -0.229117 1.829523 0.087737 -0.026502 961897.000000 1 0 0
5.503810 -11.689561 14.750098 19.608752 -1.130755 0.719371 0.008138 0.000260 -307018.000000 1 0 0
16.019910 -8.860961 -0.773502 18.323549 -0.505237 1.613022 0.048524 -0.013010 600518.000000 1 0 0
13.851410 -12.516461 -1.382802 18.719922 -0.734813 1.644732 0.045308 -0.009836 -342628.000000 1 0 0
11.224010 -2.017361 13.848698 17.939749 -0.177837 0.688884 0.041114 -0.008364 279166.000000 1 0 0
17.031510 -6.071361 -1.387302 18.134453 -0.342434 1.647372 0.061561 -0.018400 -1435610.000000 1 0 0
17.763010 3.651739 -0.976902 18.160784 0.202756 1.624614 0.010497 0.002087 1077970.000000 1 0 0
9.840310 -11.125561 9.460498 17.609964 -0.846624 1.003654 0.019694 -0.005664 -56359.400000 1 0 0
9.132010 -11.145061 4.354798 15.052251 -0.884351 1.277288 0.010087 -0.008021 -974094.000000 1 0 0
14.134610 -10.052961 6.721698 18.601894 -0.618223 1.201087 0.036340 -0.013978 96839.700000 1 0 0
16.196610 -0.607361 -4.657602 16.863936 -0.037482 1.850621 0.024932 -0.011639 -1321710.000000 1 0 0
15.826210 -0.478361 -1.653202 15.919511 -0.030217 1.674831 0.024446 -0.006420 467583.000000 1 0 0
12.914510 -5.157761 -0.269002 13.908970 -0.379969 1.590138 0.014326 -0.009223 1356400.000000 1 0 0
14.334110 -7.496461 1.091998 16.212838 -0.481863 1.503391 0.029230 -0.008383 3493930.000000 1 0 0
15.523410 2.455839 3.590998 16.121498 0.156902 1.346166 0.016869 -0.005880 2194910.000000 1 0 0
15.933010 -7.079861 4.951898 18.124750 -0.418147 1.294066 0.047128 -0.013738 -2045530.000000 1 0 0
13.851410 -12.164561 3.149698 18.701837 -0.720650 1.401573 0.029209 -0.007077 940814.000000 1 0 0
13.993110 -1.003261 9.179298 16.765238 -0.071574 0.991399 0.044020 -0.012601 -26167.700000 1 0 0
14.224710 -2.852761 -1.538402 14.589287 -0.197924 1.676440 0.007957 -0.008476 618602.000000 1 0 0
14.974810 1.849639 9.214498 17.679737 0.122894 1.022552 0.048625 -0.013086 -689960.000000 1 0 0
14.362710 -10.057561 -2.945602 17.779723 -0.610897 1.737236 0.056469 -0.015470 -372295.000000 1 0 0
7.387910 -12.712861 6.217898 15.964345 -1.044362 1.170722 0.005644 -0.006748 175037.000000 1 0 0
12.499210 -4.590061 6.866298 14.981488 -0.351940 1.094694 0.025759 -0.006384 3299770.000000 1 0 0
14.875910 -8.836061 -5.631402 18.195641 -0.535985 1.885455 0.065779 -0.017413 139479.000000 1 0 0
14.315410 -4.529361 4.527698 15.682670 -0.306432 1.277920 0.021476 -0.011388 1005290.000000 1 0 0
17.180210 -4.147961 0.939898 17.698831 -0.236904 1.517666 0.038356 -0.016851 -1769150.000000 1 0 0
10.265810 -14.470361 1.166598 17.780302 -0.953765 1.505137 0.031733 -0.011400 -585917.000000 1 0 0
16.501010 -2.540161 8.623298 18.790876 -0.152741 1.094030 0.073334 -0.016880 2235490.000000 1 0 0
16.108510 -2.548261 3.214698 16.622636 -0.156893 1.376177 0.021724 -0.009424 2912680.000000 1 0 0
7.905810 -15.246661 2.790198 17.399647 -1.092437 1.409741 0.019824 -0.011887 2761110.000000 1 0 0
16.603310 -6.941761 7.842598 19.630698 -0.396008 1.159817 0.061206 -0.013324 -1305510.000000 1 0 0
10.252310 -8.519061 5.180698 14.301185 -0.693324 1.200109 0.010035 -0.008204 1170060.000000 1 0 0
11.030910 -11.823861 2.231098 16.323678 -0.820079 1.433688 0.020101 -0.013170 1229080.000000 1 0 0
12.325910 -7.323961 12.098398 18.760056 -0.536138 0.869901 0.051029 -0.018466 746483.000000 1 0 0
15.388310 -9.907961 4.193298 18.776356 -0.572049 1.345568 0.034214 -0.011752 -1129310.000000 1 0 0
7.395010 -10.292361 7.847198 14.906287 -0.947765 1.016394 0.005507 -0.003320 248704.000000 1 0 0
15.260610 -3.390461 -4.294302 16.211801 -0.218620 1.838883 0.039991 -0.012221 -160140.000000 1 0 0
11.818910 -8.918961 9.728398 17.716553 -0.646461 0.989493 0.038668 -0.012110 -1802230.000000 1 0 0
17.061110 -6.615761 2.426298 18.459055 -0.369918 1.438973 0.051651 -0.014634 2144510.000000 1 0 0
17.624910 3.984839 1.999098 18.180011 0.222353 1.460612 0.012131 0.001349 614959.000000 1 0 0
14.792010 -4.877961 8.722498 17.851612 -0.318540 1.060299 0.060278 -0.015843 2239420.000000 1 0 0
12.977110 -12.585661 5.949298 19.031511 -0.770086 1.252865 0.030332 -0.015936 -641182.000000 1 0 0
18.193710 0.746039 -0.849602 18.228810 0.040982 1.617421 0.024934 -0.004464 581457.000000 1 0 0
11.584710 -2.149661 10.883698 16.039995 -0.183473 0.825030 0.021182 -0.007668 1602860.000000 1 0 0
5.784410 -12.439661 10.579998 17.324576 -1.135541 0.913861 -0.001313 -0.001261 -1735310.000000 1 0 0
10.669310 -5.029161 11.160298 16.238193 -0.440480 0.813049 0.025464 -0.005726 -158889.000000 1 0 0
17.857410 1.378139 5.047998 18.608296 0.077022 1.296077 0.040420 -0.008305 -498560.000000 1 0 0
12.311610 -7.642261 7.148298 16.157910 -0.555527 1.112521 0.028777 -0.009818 1037960.000000 1 0 0
10.499410 -7.985161 14.265698 19.429631 -0.650209 0.746274 0.046378 -0.018213 590293.000000 1 0 0
14.218110 -0.231761 3.695398 14.692323 -0.016299 1.316547 0.010812 -0.006398 2196280.000000 1 0 0
11.687510 -7.695861 2.559898 14.225936 -0.582306 1.389865 0.013605 -0.004571 1964810.000000 1 0 0
9.309310 6.037739 3.517798 11.640123 0.575369 1.263783 0.006485 -0.000229 1353290.000000 1 0 0
-4.086990 14.811939 -9.948002 18.304638 -1.301570 2.145360 0.002863 0.005033 410030.000000 1 0 0
8.812010 -6.434361 9.338798 14.361953 -0.630696 0.862888 0.003461 -0.003895 -899393.000000 1 0 0
5.796810 -10.634361 -8.459802 14.773655 -1.071721 2.180504 0.000361 -0.001872 921255.000000 1 0 0
5.282410 1.010339 0.494798 5.400877 0.188982 1.479053 0.000005 -0.000942 2964200.000000 1 0 0
-0.479790 9.898639 10.818598 14.671583 -1.522364 0.741606 -0.006746 -0.000615 417108.000000 1 0 0
-6.305590 -5.171261 1.081898 8.226354 0.686882 1.438898 0.004065 -0.002282 2695620.000000 1 0 0
-1.082090 3.928139 -10.896702 11.633542 -1.301992 2.783772 0.014063 -0.007706 2224050.000000 1 0 0
11.018310 5.853139 1.133198 12.527831 0.488310 1.480218 0.007142 0.000277 1890150.000000 1 0 0
-10.179890 -1.821561 -13.578002 17.067816 0.177063 2.490682 0.020975 -0.008715 1664560.000000 1 0 0
7.468210 10.826539 -6.165302 14.525807 0.966945 2.009137 0.003090 -0.002891 202423.000000 1 0 0
-12.554890 -2.916461 -9.605602 16.074781 0.228249 2.211247 0.024182 -0.006430 1742020.000000 1 0 0
-3.975990 -8.731861 2.414798 9.893692 1.143508 1.324231 0.009283 -0.000797 -1065330.000000 1 0 0
7.986210 -6.652361 -5.938002 11.970519 -0.694530 2.089842 0.001111 -0.007917 1176320.000000 1 0 0
14.397110 3.126439 -4.171302 15.311798 0.213837 1.846708 0.015100 -0.000113 1412790.000000 1 0 0
-2.494690 -4.947861 9.848698 11.300516 1.103798 0.512490 -0.001970 -0.002854 929815.000000 1 0 0
3.481310 -1.909161 -4.608002 6.082606 -0.501616 2.430379 0.001897 -0.002758 -2545520.000000 1 0 0
-4.020890 8.416039 -3.462502 9.949180 -1.125094 1.926253 0.000239 0.000678 1106730.000000 1 0 0
5.918810 0.065339 11.608498 13.030496 0.011039 0.471536 0.000914 -0.002901 2497420.000000 1 0 0
7.113910 4.685539 12.331598 14.987672 0.582428 0.604506 0.007742 0.000066 1276960.000000 1 0 0
1.222510 -14.420161 12.511598 19.130490 -1.486221 0.857919 0.012887 -0.002541 1117210.000000 1 0 0
2.987010 8.678339 -9.172102 12.975487 1.239305 2.355873 0.008148 -0.005248 2255710.000000 1 0 0
-4.459390 -8.892361 -4.530802 10.931075 1.105961 1.998177 0.010127 -0.004130 2451180.000000 1 0 0
5.636110 -6.638761 -4.058802 9.607953 -0.866900 2.006934 0.001955 -0.006221 2569930.000000 1 0 0
-3.154790 3.495839 8.635498 9.835925 -0.836634 0.499223 -0.002336 -0.001314 1875110.000000 1 0 0
-3.825290 3.152239 -11.203902 12.251403 -0.689236 2.725065 0.011841 -0.011400 286080.000000 1 0 0
3.013710 -6.108661 8.552198 10.933356 -1.112482 0.672588 -0.003415 -0.002872 -987397.000000 1 0 0
-5.125690 -8.617961 10.537298 14.545673 1.034233 0.760591 -0.000106 -0.002952 1315590.000000 1 0 0
-13.150490 -2.448061 6.516898 14.879460 0.184051 1.117446 0.018304 -0.004073 -128595.000000 1 0 0
3.953210 -5.933961 -8.304502 10.945524 -0.983116 2.432130 -0.001732 -0.005418 2829510.000000 1 0 0
2.985510 -0.558061 12.293298 12.662934 -0.184790 0.242213 0.002944 -0.005435 594779.000000 1 0 0
1.491810 -1.418761 -7.636302 7.908949 -0.760305 2.878255 0.003531 -0.006336 -567082.000000 1 0 0
3.631110 -3.564161 3.424098 6.132916 -0.776094 0.978443 0.001883 -0.002738 1124200.000000 1 0 0
1.556510 0.377539 -11.852502 11.960228 0.237959 3.007275 0.009304 -0.006753 90601.600000 1 0 0
4.172310 3.513639 -10.605602 11.926132 0.699909 2.666552 0.000282 -0.001494 1882790.000000 1 0 0
2.894410 3.246639 3.355498 5.493419 0.842692 0.913699 -0.005469 0.001198 -976670.000000 1 0 0
-5.261990 0.876339 2.498698 5.890670 -0.165027 1.132741 0.001651 -0.004227 1079350.000000 1 0 0
-9.508390 -9.224761 5.718198 14.429257 0.770259 1.163322 0.008017 0.001242 -2611270.000000 1 0 0
-3.029090 3.724139 -0.607402 4.838753 -0.887958 1.696657 0.000852 -0.006422 -855000.000000 1 0 0
-15.969290 -6.441961 4.938398 17.913817 0.383431 1.291504 0.038156 -0.009340 93680.900000 1 0 0
0.986010 6.661139 -8.106102 10.538116 1.423839 2.448412 0.008527 -0.003264 -97862.300000 1 0 0
-1.636990 6.498839 -9.432702 11.571107 -1.324040 2.523861 0.009696 -0.004704 398047.000000 1 0 0
2.111610 -0.418561 5.231598 5.657183 -0.195682 0.390363 -0.000717 -0.000564 3508950.000000 1 0 0
-3.374490 -0.611161 -6.287202 7.161676 0.179170 2.642245 0.008660 -0.008496 37808.400000 1 0 0
1.885610 -1.155661 -2.510202 3.345473 -0.549839 2.419354 0.003840 -0.001488 1898000.000000 1 0 0
2.426410 -8.615461 -7.690802 11.800935 -1.296273 2.280635 -0.005313 0.000061 3463550.000000 1 0 0
-2.555690 14.060439 -5.547602 15.329820 -1.390995 1.941083 0.003502 0.003866 2047600.000000 1 0 0
6.888510 -5.103961 -8.210202 11.870526 -0.637676 2.334562 0.001512 -0.007354 3372490.000000 1 0 0
-14.208690 -4.938361 -2.118402 15.190849 0.334499 1.710705 0.003136 -0.001722 690336.000000 1 0 0
-2.763290 6.816839 -6.814902 10.027360 -1.185676 2.318055 0.004053 -0.000748 -2528870.000000 1 0 0
-5.646590 -1.073361 -8.096902 9.929546 0.187849 2.524277 0.014402 -0.010403 -537746.000000 1 0 0
-5.722590 -10.652261 3.471198 12.580457 1.077819 1.291250 0.004317 0.000605 -3250600.000000 1 0 0
8.116510 -7.569761 6.748498 12.989274 -0.750557 1.024479 0.005571 -0.005335 1513120.000000 1 0 0
8.718710 -5.958661 13.234398 16.931357 -0.599521 0.673489 0.024827 -0.007109 885327.000000 1 0 0
-4.742990 9.520739 -0.795502 10.666455 -1.108610 1.645445 -0.000585 0.000721 -7576.950000 1 0 0
2.773910 6.584539 12.033798 13.995108 1.172084 0.535806 0.001197 -0.000420 605154.000000 1 0 0
6.131610 -2.850661 10.899798 12.826867 -0.435185 0.555261 0.006156 -0.001734 332054.000000 1 0 0
-9.692090 -6.439561 -1.095502 11.687800 0.586441 1.664664 0.008388 -0.003182 -617250.000000 1 0 0
0.922810 -13.315661 6.315798 14.766438 -1.501604 1.128835 0.016185 -0.002379 -189596.000000 1 0 0
-0.508490 -3.196761 8.665298 9.250148 1.413054 0.357502 -0.000995 -0.003957 1909240.000000 1 0 0
4.221110 0.715639 3.303398 5.407620 0.167941 0.913627 -0.003675 0.000549 1402840.000000 1 0 0
-10.229890 5.602239 8.281398 14.304450 -0.501025 0.953370 0.007062 -0.009603 1128940.000000 1 0 0
9.357510 7.952539 -0.030502 12.280343 0.704411 1.573280 0.003956 0.001007 -580728.000000 1 0 0
4.301310 2.771339 8.148898 9.622169 0.572359 0.560691 -0.003224 0.001074 3621060.000000 1 0 0
1.352710 2.667539 -9.820402 10.265762 1.101485 2.845956 0.012167 -0.006203 3299130.000000 1 0 0
-1.431790 -10.207661 3.102398 10.764350 1.431439 1.278439 0.011458 -0.002699 -2900120.000000 1 0 0
-9.859790 9.567539 8.997698 16.422906 -0.770356 0.990974 0.018025 -0.017705 1271060.000000 1 0 0
9.889510 -2.107361 -7.656102 12.683031 -0.209950 2.218867 0.010320 -0.005758 939702.000000 1 0 0
-5.209890 -1.833861 6.671998 8.661499 0.338452 0.691477 -0.001830 -0.001535 -143746.000000 1 0 0
3.109410 -7.897961 -4.945902 9.823856 -1.195735 2.098393 -0.002733 -0.004330 940467.000000 1 0 0
-5.148790 4.933139 -13.135002 14.945707 -0.764012 2.644238 0.004790 -0.010957 2419530.000000 1 0 0
-5.607890 9.611339 5.426098 12.380178 -1.042623 1.117102 0.002526 -0.003738 53437.200000 1 0 0
-0.478690 -1.778761 -9.442902 9.620890 1.307910 2.948940 0.009162 -0.008849 -346484.000000 1 0 0
-16.771090 0.232939 6.498498 17.987612 -0.013888 1.201160 0.044646 -0.015869 -1574430.000000 1 0 0
-5.863090 -2.876461 4.082398 7.701677 0.456103 1.012118 -0.000056 -0.000768 3570270.000000 1 0 0
1.051710 -5.761861 -5.162502 7.807468 -1.390254 2.293248 0.003028 -0.004060 702681.000000 1 0 0
-7.058790 1.375339 -8.533302 11.159539 -0.192430 2.441317 0.006722 -0.007421 -88874.200000 1 0 0
8.078510 1.913139 4.706398 9.543198 0.232534 1.055069 -0.000305 -0.000329 -1154850.000000 1 0 0
0.507710 -8.065561 -0.492902 8.096542 -1.507931 1.631712 0.007774 -0.001072 1255100.000000 1 0 0
5.439210 5.448839 -3.407502 8.419378 0.786283 1.987470 -0.000077 0.001123 1350170.000000 1 0 0
-0.726190 -0.342861 -1.254002 1.489102 0.441109 2.571997 0.001476 -0.003791 946902.000000 1 0 0
9.048910 6.437139 -6.311202 12.773050 0.618317 2.087599 0.004017 -0.003461 318135.000000 1 0 0
-14.974890 -7.099161 2.463598 16.754543 0.442690 1.423221 0.002333 -0.002484 735338.000000 1 0 0
-6.458590 6.799239 8.841398 12.888497 -0.811087 0.814831 0.003382 -0.002819 632625.000000 1 0 0
-9.534090 -3.259261 -9.671102 13.966096 0.329399 2.335703 0.011856 -0.006305 1236670.000000 1 0 0
14.879610 3.463239 -1.231902 15.326918 0.228679 1.651258 -0.001143 0.001175 -171696.000000 1 0 0
12.084410 1.674439 -5.715102 13.472161 0.137685 2.008892 0.009748 -0.000745 63272.400000 1 0 0
1.715010 -9.383961 12.764498 15.935256 -1.390032 0.641795 -0.004875 -0.002102 753395.000000 1 0 0
-3.618490 6.385739 7.756398 10.678617 -1.055259 0.757802 -0.001898 0.000801 1281920.000000 1 0 0
-4.181690 13.001139 -12.406002 18.450611 -1.259606 2.308229 0.010711 -0.001902 328170.000000 1 0 0
-10.245490 7.810839 6.427498 14.397639 -0.651370 1.108028 0.008909 -0.010711 178656.000000 1 0 0
8.023010 -9.297761 -7.115702 14.193317 -0.858862 2.095945 0.004873 -0.005838 555037.000000 1 0 0
5.870010 -3.884161 -0.285002 7.044498 -0.584553 1.611265 0.003175 -0.003776 -1458720.000000 1 0 0
-1.651890 -4.425561 4.106998 6.259534 1.213551 0.855132 0.001885 0.000178 1266520.000000 1 0 0
9.914910 -2.064961 -2.663102 10.471944 -0.205333 1.827929 0.005073 -0.004981 -1671010.000000 1 0 0
13.627510 7.124339 1.389998 15.440121 0.481714 1.480649 0.008660 0.001749 -273000.000000 1 0 0
5.389110 -3.775261 -3.255402 7.341168 -0.611085 2.030235 0.003976 -0.006426 -1291760.000000 1 0 0
-12.260690 -5.933961 1.951898 13.760316 0.450752 1.428466 0.003875 0.001161 -109467.000000 1 0 0
3.824210 -5.716761 -0.306302 6.884748 -0.981217 1.615301 0.006105 -0.003549 -434494.000000 1 0 0
-5.306090 3.693739 -8.730502 10.863699 -0.608125 2.504183 0.007650 -0.007164 1577070.000000 1 0 0
-1.670890 -9.315261 7.279098 11.939482 1.393313 0.915157 0.009069 -0.003067 2399600.000000 1 0 0
-7.430190 -7.445261 2.554298 10.824235 0.786411 1.332570 0.008347 -0.000242 -4232140.000000 1 0 0
-5.798690 12.983639 -8.468802 16.550538 -1.150761 2.107951 0.001232 -0.003095 -342316.000000 1 0 0
9.226110 -13.878361 -4.151202 17.174472 -0.984098 1.814922 0.025005 -0.005420 2508450.000000 1 0 0
-6.421090 -5.096861 -6.773102 10.634062 0.670930 2.261299 0.013700 -0.006179 1990660.000000 1 0 0
3.386210 0.388639 -6.252702 7.121358 0.114271 2.642508 0.003395 -0.005159 2494300.000000 1 0 0
-3.607190 5.805539 4.900198 8.409997 -1.014836 0.948794 0.002256 -0.000825 265846.000000 1 0 0
-2.618790 -10.870461 -2.868802 11.543613 1.334392 1.821947 0.010932 -0.001795 1940110.000000 1 0 0
-12.526490 -0.374461 1.805898 12.661533 0.029885 1.427680 0.007878 -0.005535 228678.000000 1 0 0
8.387410 -11.936461 -6.069302 15.800765 -0.958280 1.965045 0.017332 -0.008208 -1040080.000000 1 0 0
6.046910 3.886139 1.006698 7.258144 0.571202 1.431649 0.000334 -0.000732 -2331630.000000 1 0 0
3.412010 -4.883461 -10.922002 12.441066 -0.960952 2.642253 0.000579 -0.004007 -2410880.000000 1 0 0
-7.709590 4.124639 8.558698 12.235266 -0.491255 0.796084 -0.000971 -0.001012 687231.000000 1 0 0
8.195510 8.762939 4.054298 12.664629 0.818846 1.244932 0.007810 0.001416 1160870.000000 1 0 0
0.210210 10.612039 -6.451902 12.421216 1.550990 2.116975 0.003382 0.000906 1475140.000000 1 0 0
5.449410 8.060339 3.271898 10.265012 0.976307 1.246394 -0.000203 0.002167 1793220.000000 1 0 0
8.096810 6.668339 -3.768602 11.145737 0.688952 1.915715 0.002683 -0.001195 955019.000000 1 0 0
10.552710 2.542239 -8.188402 13.596786 0.236404 2.217089 0.005557 -0.001073 715031.000000 1 0 0
3.343710 -12.479761 -0.271802 12.922798 -1.309014 1.591831 0.009071 -0.001588 -2225400.000000 1 0 0
0.642210 2.061539 5.207798 5.637690 1.268805 0.393045 0.000683 0.000678 -234694.000000 1 0 0
-4.872390 13.474139 1.494398 14.405757 -1.223816 1.466873 0.000091 0.000758 3044060.000000 1 0 0
8.233710 4.086039 -8.041802 12.213119 0.460649 2.289562 0.002764 0.000581 2172370.000000 1 0 0
-13.892690 -0.505361 -3.526502 14.342190 0.036360 1.819227 0.006386 -0.006180 266067.000000 1 0 0
-8.566990 0.068239 -0.498502 8.581752 -0.007965 1.628918 0.001783 -0.005233 -327555.000000 1 0 0
1.717010 -3.841761 -1.205502 4.377269 -1.150496 1.849803 0.006366 -0.002121 -420490.000000 1 0 0
8.131110 -5.694461 -0.217202 9.929200 -0.610947 1.592673 0.006366 -0.005648 2216870.000000 1 0 0
-2.347790 -1.189461 7.346298 7.803527 0.468937 0.344017 0.001624 -0.002059 1833020.000000 1 0 0
-5.886590 8.768239 -11.689302 15.753531 -0.979556 2.406862 0.001433 -0.003264 -1008180.000000 1 0 0
-6.242090 9.066939 -8.896302 14.153348 -0.967868 2.250503 0.000378 -0.000934 -677868.000000 1 0 0
-1.723990 13.915439 -8.366902 16.328400 -1.447534 2.108790 0.011335 0.001051 1113020.000000 1 0 0
-1.504990 7.196539 9.694898 12.167425 -1.364641 0.648830 -0.006640 -0.001997 -205753.000000 1 0 0
10.024810 2.180839 -3.921802 10.983324 0.214207 1.935924 0.004662 0.000681 -1818490.000000 1 0 0
-3.042890 -7.530061 -6.991102 10.716179 1.186761 2.281527 0.008574 -0.003843 889912.000000 1 0 0
-5.583690 -5.029161 -1.634202 7.690296 0.733195 1.784931 0.006088 -0.002214 221935.000000 1 0 0
5.613510 7.428139 -8.827102 12.829906 0.923652 2.329539 0.001905 0.000301 -1805440.000000 1 0 0
-9.653290 5.178339 -7.525602 13.290443 -0.492367 2.172735 0.000917 0.000392 531406.000000 1 0 0
-0.438690 6.121339 -5.308002 8.114070 -1.499253 2.283884 0.005611 -0.001475 -2470340.000000 1 0 0
-8.267490 2.765039 -6.386802 10.806852 -0.322753 2.203089 0.005398 -0.003782 873816.000000 1 0 0
3.631110 1.392539 -2.084902 4.412589 0.366204 2.062910 -0.000424 -0.002808 1643120.000000 1 0 0
-6.752790 12.430139 -3.474402 14.566400 -1.073143 1.811640 0.005710 0.003776 584224.000000 1 0 0
-6.574890 3.159239 -2.434502 7.690043 -0.447927 1.892917 0.003032 -0.004694 -1456880.000000 1 0 0
12.110810 4.027039 -0.889702 12.793762 0.321015 1.640394 0.006094 -0.000746 -334966.000000 1 0 0
2.237310 12.365639 -5.567502 13.744514 1.391803 1.987853 0.008353 -0.002110 -614563.000000 1 0 0
-9.181990 -1.468261 -4.330702 10.257665 0.158564 2.006658 0.004669 -0.003653 -164011.000000 1 0 0
-1.107490 5.752039 3.377298 6.761556 -1.380585 1.047792 -0.000231 -0.001214 1619250.000000 1 0 0
11.466910 2.600339 12.086698 16.862387 0.222998 0.771616 0.029420 -0.001145 130862.000000 1 0 0
-6.998690 -2.307761 -5.733002 9.336740 0.318515 2.231948 0.011523 -0.006496 -323404.000000 1 0 0
7.449410 -7.388261 10.891198 15.122775 -0.781277 0.766727 0.003555 -0.003559 -1462690.000000 1 0 0
-5.530290 -1.979161 -10.972802 12.446026 0.343674 2.650103 0.013473 -0.006403 -136309.000000 1 0 0
0.764210 -6.125661 4.362298 7.558927 -1.446682 0.955616 0.000038 -0.001427 666920.000000 1 0 0
-4.763990 -9.278661 7.416198 12.798013 1.096459 0.952705 -0.001733 0.000597 1775760.000000 1 0 0
-8.797090 9.330039 1.667898 12.931369 -0.814790 1.441455 0.002002 -0.002733 1008090.000000 1 0 0
-8.184890 7.090439 -9.098302 14.143756 -0.713872 2.269562 0.000551 -0.003418 -578219.000000 1 0 0
-1.316090 -10.624861 -0.036802 10.706125 1.447555 1.574234 0.012981 -0.001096 534178.000000 1 0 0
-3.899290 10.264839 7.695598 13.408714 -1.207764 0.959505 0.002983 -0.004920 2378120.000000 1 0 0
-7.430990 12.005039 2.058098 14.268018 -1.016531 1.426046 0.001216 -0.003236 1153410.000000 1 0 0
-8.221190 -8.206261 -2.858902 11.962608 0.784489 1.812118 0.015936 -0.006435 -296073.000000 1 0 0
5.426410 4.628039 -8.011002 10.725709 0.706160 2.414180 0.003109 0.000427 2030310.000000 1 0 0
-8.995590 -0.145961 -10.241802 13.632184 0.016224 2.420820 0.011130 -0.007634 -28872.700000 1 0 0
-15.193490 -2.155561 -1.443402 15.413370 0.140933 1.664580 0.001338 -0.002114 174687.000000 1 0 0
-7.147890 -5.679461 8.737998 12.637295 0.671418 0.807309 -0.002148 -0.000457 -1167630.000000 1 0 0
8.068410 3.446539 -0.946702 8.824632 0.403703 1.678283 0.002138 0.000830 3019410.000000 1 0 0
11.865110 7.251839 -5.891502 15.102312 0.548607 1.971543 0.006752 -0.000985 333821.000000 1 0 0
3.771810 13.245639 -9.594202 16.784583 1.293380 2.179261 0.009937 -0.008933 326212.000000 1 0 0
-9.791290 5.447439 -0.451502 11.213733 -0.507710 1.611070 0.001173 -0.002625 2852420.000000 1 0 0
11.348810 -1.300661 -5.150302 12.530476 -0.114110 1.994371 0.011695 -0.006305 -562002.000000 1 0 0
10.553210 1.667339 -1.186102 10.749749 0.156698 1.681359 0.005252 -0.001776 1220170.000000 1 0 0
14.522410 5.094139 4.712898 16.095405 0.337368 1.273632 0.011712 -0.005809 1554360.000000 1 0 0
0.871210 -0.875061 10.287498 10.361340 -0.787603 0.119458 0.000774 -0.002705 2230760.000000 1 0 0
-8.021590 1.378139 -12.649502 15.041777 -0.170143 2.569847 0.005616 -0.009813 -478761.000000 1 0 0
3.081810 -11.572461 -7.766402 14.273626 -1.310531 2.146123 -0.005566 0.001736 -106861.000000 1 0 0
2.888110 5.074839 -6.778602 8.946766 1.053404 2.430516 0.003314 -0.001920 -529424.000000 1 0 0
6.474110 7.926439 0.536298 10.248423 0.885911 1.518443 0.003916 0.000063 -51824.600000 1 0 0
-8.988090 -5.355761 6.678498 12.412585 0.537379 1.002683 0.002199 0.000463 -2793170.000000 1 0 0
-0.265390 -6.851161 -11.687302 13.549976 1.532079 2.611051 -0.003807 0.001551 3208790.000000 1 0 0
6.427410 -13.369861 -4.582102 15.526121 -1.122676 1.870380 0.009739 -0.005360 1544610.000000 1 0 0
-3.248490 -0.278861 9.942498 10.463447 0.085633 0.316879 -0.003820 -0.001079 144730.000000 1 0 0
8.644910 8.456139 6.918098 13.932008 0.774360 1.051164 0.004722 0.000022 -1058650.000000 1 0 0
-7.984390 5.697539 -2.649502 10.160329 -0.619785 1.834615 0.003102 -0.003780 260012.000000 1 0 0
-5.399290 5.786739 -6.447602 10.208342 -0.820021 2.254413 0.003287 -0.001550 -208491.000000 1 0 0
3.298510 -13.604361 2.634698 14.244312 -1.332927 1.384760 0.015833 -0.006387 -1362070.000000 1 0 0
-11.228590 -6.951061 6.476198 14.708488 0.554309 1.114860 0.013505 -0.000963 -259434.000000 1 0 0
-12.923090 -3.682661 -6.715102 15.022011 0.277609 2.034225 0.012379 -0.007479 -1340720.000000 1 0 0
6.087210 0.276939 -7.238302 9.461704 0.045464 2.441854 0.000802 -0.001242 -362987.000000 1 0 0
-1.447890 2.173139 -2.587602 3.676221 -0.983071 2.351635 0.001622 -0.006464 2627800.000000 1 0 0
7.564810 0.865139 -4.934502 9.073265 0.113869 2.145815 0.003502 -0.000429 95173.900000 1 0 0
3.729310 -4.453361 10.860698 12.316450 -0.873654 0.491122 -0.001895 -0.002570 -76365.000000 1 0 0
6.114110 -2.581661 2.079798 6.955061 -0.399536 1.267116 0.005291 -0.003627 676101.000000 1 0 0
-6.333490 7.739539 1.007798 10.051329 -0.884979 1.470362 0.000948 -0.001898 1762490.000000 1 0 0
6.104410 -3.533061 7.968598 10.641659 -0.524664 0.724529 0.003292 -0.006060 103395.000000 1 0 0
6.841810 -2.296461 -7.798202 10.625255 -0.323835 2.394887 -0.000128 -0.005386 905527.000000 1 0 0
11.995910 -8.122661 -5.877502 15.634082 -0.595204 1.956209 0.028312 -0.013099 -466887.000000 1 0 0
5.634410 -9.610261 10.017798 14.981988 -1.040518 0.838396 -0.005251 0.000222 2082450.000000 1 0 0
-6.630790 7.502339 -4.471302 10.965628 -0.846987 1.990792 0.000007 -0.000639 955420.000000 1 0 0
-1.313990 -7.538561 9.745398 12.390692 1.398228 0.665660 0.002477 -0.003088 -1027500.000000 1 0 0
10.202210 -9.279561 0.762398 13.812190 -0.738074 1.515571 0.008925 -0.004524 983397.000000 1 0 0
11.072210 6.087839 9.851298 16.021976 0.502713 0.908586 0.003892 0.000046 1686200.000000 1 0 0
-15.324890 -4.124761 -4.926002 16.617201 0.262923 1.871759 0.011564 -0.005978 1678790.000000 1 0 0
-4.647590 -4.586361 7.816198 10.184682 0.778767 0.695948 0.001191 -0.001573 -965901.000000 1 0 0
2.900910 10.872439 -11.095602 15.803088 1.310057 2.349161 0.009910 -0.005816 -522119.000000 1 0 0
9.952410 -1.348161 1.497798 10.154379 -0.134641 1.422753 0.005451 -0.005946 -697127.000000 1 0 0
-1.576990 -2.678961 0.572198 3.160876 1.038759 1.388767 0.003360 -0.003646 -811597.000000 1 0 0
1.636710 2.958939 0.805598 3.476080 1.065545 1.336915 -0.005862 -0.001308 -699310.000000 1 0 0
-8.883490 -2.295361 4.292598 10.129732 0.252855 1.133201 -0.003619 -0.001900 4181550.000000 1 0 0
9.913410 4.835939 -2.722502 11.361075 0.453855 1.812785 0.004803 0.000461 2089770.000000 1 0 0
2.617610 8.426039 2.530798 9.179050 1.269591 1.291463 -0.003697 -0.000139 1724220.000000 1 0 0
-8.122390 -0.087661 2.433698 8.479610 0.010792 1.279697 -0.000511 -0.005819 1252790.000000 1 0 0
7.002310 1.994939 13.676798 15.494094 0.277544 0.489197 0.019652 -0.003683 -387302.000000 1 0 0
6.851110 4.264639 3.712798 8.883115 0.556781 1.139596 -0.002296 0.000828 759389.000000 1 0 0
-0.376490 3.373939 7.720498 8.433938 -1.459669 0.414275 -0.000075 -0.000679 281140.000000 1 0 0
2.724910 -10.164761 9.250798 14.011594 -1.308880 0.849679 0.002872 -0.002191 2689060.000000 1 0 0
1.331110 -4.622161 6.829498 8.353339 -1.290399 0.613606 -0.001476 -0.003625 375153.000000 1 0 0
-0.137090 10.862839 -1.982002 11.043025 -1.558177 1.751254 0.003926 -0.001525 2483090.000000 1 0 0
8.793610 5.510739 8.017898 13.114211 0.559803 0.912980 -0.000900 0.001071 -523653.000000 1 0 0
2.609610 11.441539 -2.967002 12.104627 1.346550 1.818433 0.005725 -0.003343 1889290.000000 1 0 0
1.448210 2.473339 -6.743902 7.327682 1.041086 2.739725 0.006241 -0.005264 1803620.000000 1 0 0
-13.588090 -2.171461 3.613198 14.226968 0.158466 1.314015 0.010782 -0.003789 1489980.000000 1 0 0
-0.927790 -10.612461 -5.270102 11.885246 1.483593 2.030202 0.004968 -0.000042 -105042.000000 1 0 0
-5.659190 2.771739 0.361398 6.311860 -0.455436 1.513508 0.004568 -0.005293 500518.000000 1 0 0
3.714310 7.236039 -5.023402 9.559861 1.096560 2.124062 0.001905 -0.000817 -2212500.000000 1 0 0
2.907410 9.726039 -6.509302 12.059017 1.280321 2.140980 0.006346 -0.002521 775230.000000 1 0 0
-12.197690 1.743439 -2.475602 12.567888 -0.141970 1.769071 0.006986 -0.005627 789044.000000 1 0 0
-2.528790 9.538339 -5.765302 11.428622 -1.311640 2.099555 0.000426 0.001456 1587490.000000 1 0 0
-1.268390 3.334039 1.673498 3.940207 -1.207268 1.132140 -0.003713 -0.002334 -502800.000000 1 0 0
12.827610 3.736639 9.762098 16.547164 0.283453 0.939792 0.027882 -0.006933 -1182840.000000 1 0 0
-2.555290 -9.555361 11.593298 15.239389 1.309491 0.706335 0.002373 -0.007173 1524920.000000 1 0 0
-0.530390 -8.965461 -7.546802 11.730942 1.511706 2.269629 0.001454 -0.001696 2440300.000000 1 0 0
2.351310 7.621139 -0.501502 7.991366 1.271537 1.633593 -0.001716 -0.000448 1839440.000000 1 0 0
-11.854990 -1.336761 -5.513802 13.142668 0.112285 2.003729 0.009484 -0.003082 -1577090.000000 1 0 0
-6.218690 -7.112961 -10.907602 14.430595 0.852377 2.427773 0.009543 -0.003519 915562.000000 1 0 0
-4.771890 -2.266861 -1.331902 5.448261 0.443485 1.817763 0.003077 -0.004064 -2134410.000000 1 0 0
-10.458590 3.785739 4.428898 11.972012 -0.347302 1.191854 0.002592 -0.008498 3264100.000000 1 0 0
6.689410 9.335039 -3.679102 12.059310 0.949022 1.880823 0.001649 0.000241 1651890.000000 1 0 0
1.287810 -2.688361 -11.536002 11.914910 -1.124063 2.888724 0.006024 -0.005831 -467984.000000 1 0 0
1.419410 8.755839 7.454898 11.586844 1.410084 0.871874 -0.003977 0.003289 1536450.000000 1 0 0
10.370710 0.372339 10.406698 14.696586 0.035888 0.783988 0.009630 -0.000858 821405.000000 1 0 0
-5.188090 -0.892461 -3.913502 6.559592 0.170354 2.210063 0.008248 -0.006804 -461232.000000 1 0 0
11.725010 5.652139 5.384398 14.085961 0.449192 1.178563 0.005606 -0.001325 923201.000000 1 0 0
9.932610 -3.476961 3.602398 11.123097 -0.336724 1.240983 0.012521 -0.008597 -2542130.000000 1 0 0
7.319710 -1.775661 -3.454702 8.286501 -0.237989 2.000836 0.004559 -0.001994 -4042440.000000 1 0 0
2.425510 9.191439 10.343898 14.048555 1.312790 0.743216 -0.003291 0.001443 2166190.000000 1 0 0
2.486610 -10.787961 6.378998 12.777126 -1.344254 1.048062 0.002135 0.000005 1580990.000000 1 0 0
5.968810 -7.605861 -1.224802 9.745561 -0.905415 1.696807 0.001122 -0.005521 1837090.000000 1 0 0
-0.312890 -5.632961 -2.332202 6.104696 1.515307 1.962793 0.005690 -0.001223 1236140.000000 1 0 0
7.723510 -5.157861 2.704798 9.673266 -0.588796 1.287402 0.004841 -0.007942 2797990.000000 1 0 0
-2.732490 -12.505961 4.685098 13.631423 1.355682 1.219944 0.013840 -0.001247 -1224520.000000 1 0 0
4.892210 -10.266461 -1.139902 11.429493 -1.126106 1.670696 0.005748 -0.002286 521747.000000 1 0 0
0.937510 0.174739 1.092898 1.450478 0.184272 0.717465 -0.003102 -0.001959 -2220580.000000 1 0 0
-1.652890 8.565239 2.366998 9.038698 -1.380163 1.305833 0.001478 0.000188 224378.000000 1 0 0
-7.551790 0.651139 -3.075002 8.179801 -0.086010 1.956192 0.003350 -0.004253 492325.000000 1 0 0
4.436110 -6.292061 12.896998 15.020042 -0.956700 0.538161 0.006752 -0.005845 -2472920.000000 1 0 0
-5.086590 12.957039 8.310098 16.211601 -1.196709 1.032584 0.007273 -0.010781 1660040.000000 1 0 0
0.666910 6.067239 8.160898 10.190997 1.461316 0.642175 -0.002328 0.002519 1921070.000000 1 0 0
7.908810 -0.549861 -0.797502 7.967913 -0.069413 1.671053 0.003820 -0.004422 3519410.000000 1 0 0
2.438210 -9.192161 -2.404202 9.809224 -1.311518 1.818415 0.002228 -0.001958 1973870.000000 1 0 0
-7.176290 12.168239 4.884498 14.947358 -1.037943 1.237902 0.002490 -0.004351 61204.200000 1 0 0
-14.968690 0.333839 0.258598 14.974645 -0.022299 1.553526 0.011140 -0.006943 1541990.000000 1 0 0
6.868010 -0.560461 3.889698 7.912865 -0.081424 1.056909 0.001562 -0.001464 1815240.000000 1 0 0
-4.123390 -5.077161 5.093598 8.290033 0.888694 0.909140 0.003563 -0.000500 -107706.000000 1 0 0
2.909910 4.999739 6.842798 8.960405 1.043708 0.701817 -0.005302 0.001524 -542745.000000 1 0 0
2.126310 -7.249061 1.778098 7.760909 -1.285477 1.339634 0.003481 -0.002373 2645630.000000 1 0 0
-2.482290 6.434539 -1.746502 7.114445 -1.202612 1.818818 0.001486 -0.001545 984740.000000 1 0 0
2.731110 -3.827061 -6.569002 8.078189 -0.950980 2.520387 0.000059 -0.006984 -242025.000000 1 0 0
-5.166690 0.880739 -12.241502 13.316334 -0.168842 2.737056 0.011650 -0.008239 335627.000000 1 0 0
-7.501090 6.377139 -11.920202 15.460448 -0.704588 2.451226 0.003022 -0.007858 1870140.000000 1 0 0
-1.040890 11.240739 -9.090002 14.493647 -1.478460 2.248713 0.007225 0.001692 2659580.000000 1 0 0
4.623310 5.858539 -0.629402 7.489568 0.902702 1.654933 -0.000701 -0.000023 -909577.000000 1 0 0
-2.634490 13.429039 3.586398 14.147151 -1.377078 1.314493 0.001284 0.000957 1706200.000000 1 0 0
1.422310 -7.864661 10.321198 13.053850 -1.391882 0.658905 -0.002920 -0.003954 -466470.000000 1 0 0
12.988810 -0.308161 -1.077102 13.037036 -0.023721 1.653509 0.011275 -0.005458 390672.000000 1 0 0
-1.115490 3.073839 -5.467002 6.370315 -1.222678 2.602548 0.007297 -0.005958 1086750.000000 1 0 0
6.611110 1.001739 7.246398 9.860048 0.150380 0.745240 -0.000280 -0.000325 992157.000000 1 0 0
5.456310 -6.214461 6.852598 10.740063 -0.850268 0.878845 -0.001268 -0.003342 1758140.000000 1 0 0
12.233910 -4.841261 2.552398 13.402280 -0.376815 1.379181 0.015250 -0.007019 -1420910.000000 1 0 0
4.429710 -9.143461 13.963898 17.268922 -1.119652 0.629003 0.001318 -0.001326 730983.000000 1 0 0
-2.785390 -4.352661 -1.442502 5.365152 1.001534 1.843011 0.008542 -0.003487 2022720.000000 1 0 0
-9.258690 -5.190661 -7.557602 13.030105 0.510965 2.189538 0.017476 -0.007393 -443590.000000 1 0 0
-10.475790 -3.042861 7.784198 13.401303 0.282687 0.951019 0.004302 -0.002199 43253.500000 1 0 0
12.073910 -0.594361 1.654898 12.201281 -0.049187 1.434744 0.009928 -0.007316 -114171.000000 1 0 0
-7.551290 4.701339 4.336898 9.896123 -0.556863 1.117154 0.002926 -0.006063 1060240.000000 1 0 0
-0.981490 10.564439 6.861798 12.635465 -1.478157 0.996721 -0.002217 0.000527 2007410.000000 1 0 0
7.470910 -9.986861 2.009398 12.632876 -0.928529 1.411057 0.006121 -0.003680 3775020.000000 1 0 0
-4.292490 -1.678461 1.667898 4.901488 0.372743 1.223577 -0.000453 -0.002921 1268950.000000 1 0 0
6.724910 -14.949961 -0.906202 16.417885 -1.148085 1.626020 0.025730 -0.007723 -2495770.000000 1 0 0
-10.398790 1.782939 2.292298 10.796681 -0.169805 1.356853 0.001060 -0.004447 1124970.000000 1 0 0
-3.006990 8.304139 -11.423802 14.439666 -1.223376 2.483467 0.004756 -0.003760 187605.000000 1 0 0
-1.299090 -5.210861 -6.852302 8.706017 1.326473 2.476852 0.000911 -0.004960 188939.000000 1 0 0
12.886610 -0.384061 6.385498 14.387037 -0.029794 1.110920 0.013898 -0.007561 3141110.000000 1 0 0
5.955910 -13.367661 3.885698 15.141528 -1.151652 1.311267 0.009262 -0.005288 1952460.000000 1 0 0
-5.601790 3.451939 -4.999402 8.263773 -0.552261 2.220535 0.003976 -0.005200 2698650.000000 1 0 0
-4.451190 8.124039 3.345098 9.848999 -1.069564 1.224264 0.003823 -0.001666 499095.000000 1 0 0
14.027610 6.205839 -4.018502 15.856691 0.416517 1.827017 0.020534 -0.000716 943054.000000 1 0 0
-6.768190 -8.526161 5.322798 12.117590 0.899838 1.116019 0.001849 0.001558 793046.000000 1 0 0
1.737010 11.257739 2.712398 11.709441 1.417709 1.337031 0.001848 -0.001539 1330090.000000 1 0 0
-7.400590 7.255139 5.985298 11.967856 -0.775474 1.047065 0.003487 -0.005636 -1214200.000000 1 0 0
-17.353590 -3.943961 5.310598 18.571601 0.223475 1.280796 0.038111 -0.013118 189447.000000 1 0 0
7.451610 -13.128961 -8.468002 17.309048 -1.054563 2.081996 0.021534 -0.004631 -1726830.000000 1 0 0
-2.331590 12.800739 -2.726502 13.293948 -1.390627 1.777356 -0.000162 0.004056 2075140.000000 1 0 0
-5.520190 13.951439 -5.749102 16.067586 -1.194027 1.936715 0.005051 0.006171 834427.000000 1 0 0
-5.610590 2.474939 7.351298 9.573172 -0.415444 0.695230 -0.001221 -0.001614 860950.000000 1 0 0
-7.312190 5.047739 1.369998 8.990255 -0.604199 1.417813 0.004487 -0.003456 2028900.000000 1 0 0
10.646810 -5.697461 -5.050902 13.089203 -0.491357 1.966961 0.010163 -0.008061 2143070.000000 1 0 0
-9.468290 -0.665461 6.783098 11.666266 0.070168 0.950313 -0.003383 -0.003907 846332.000000 1 0 0
-11.294090 -4.557061 -2.562002 12.445365 0.383512 1.778139 0.005581 -0.004245 -641716.000000 1 0 0
6.490710 -4.240861 13.564598 15.624102 -0.578743 0.519265 0.018143 -0.010575 -919896.000000 1 0 0
0.217410 10.331639 -11.698902 15.609431 1.549756 2.418067 0.013237 -0.002412 -1956010.000000 1 0 0
-11.800890 -3.155661 1.496898 12.306904 0.261295 1.448864 0.003076 -0.002087 2137700.000000 1 0 0
5.265310 5.865539 5.420298 9.565965 0.839271 0.968394 -0.003700 0.002944 -4011410.000000 1 0 0
-7.107890 0.010039 8.080498 10.761814 -0.001412 0.721450 -0.003499 -0.001774 -24494.400000 1 0 0
1.704710 2.005139 9.524198 9.881143 0.866203 0.269605 0.002182 -0.002310 983378.000000 1 0 0
10.589110 -4.976961 -2.046502 11.878029 -0.439367 1.743953 0.004281 -0.008774 1458030.000000 1 0 0
-9.681290 -2.348561 -1.662202 10.099803 0.237990 1.736126 0.003982 -0.004156 -1751220.000000 1 0 0
-1.982690 -5.209761 -9.831702 11.301992 1.207149 2.625814 0.009559 -0.004747 -116796.000000 1 0 0
7.647510 -1.655361 6.518398 10.184015 -0.213169 0.876218 0.002868 -0.004457 1791960.000000 1 0 0
1.510410 -11.866461 -2.553402 12.231684 -1.444193 1.781096 0.006141 0.001337 -4188190.000000 1 0 0
-0.743390 -1.488461 4.756898 5.039467 1.107601 0.336461 0.000682 -0.002091 1982120.000000 1 0 0
7.629710 1.526839 9.841598 12.545947 0.197509 0.668996 -0.003212 0.002726 -360911.000000 1 0 0
-3.877790 10.629639 -8.021002 13.869497 -1.220990 2.187464 0.001324 0.003760 4058940.000000 1 0 0
-9.609990 12.662239 6.425498 17.145589 -0.921593 1.186657 0.013354 -0.008439 2004450.000000 1 0 0
-2.577190 -2.472961 -11.065202 11.627387 0.764762 2.829359 0.013211 -0.006994 -1137760.000000 1 0 0
1.232510 -11.814961 11.149198 16.291624 -1.466854 0.817082 0.003643 0.001603 2019080.000000 1 0 0
1.369310 3.411539 -2.025702 4.197270 1.189104 2.074444 -0.001936 -0.002448 2018940.000000 1 0 0
-1.875890 -9.414661 -12.001502 15.368501 1.374120 2.466927 -0.001249 0.000320 2089780.000000 1 0 0
1.328510 -2.708561 1.527298 3.381402 -1.114789 1.102153 0.004492 -0.001760 3457660.000000 1 0 0
-1.057990 -2.279361 -6.628402 7.088761 1.136229 2.779218 0.005960 -0.008919 1696820.000000 1 0 0
1.836810 5.880039 4.028098 7.360320 1.268020 0.991695 -0.005828 0.001150 -646231.000000 1 0 0
-10.981590 8.647539 3.617698 14.438247 -0.667046 1.317534 0.005178 -0.007263 2024710.000000 1 0 0
-16.340990 -1.413961 4.063098 16.897810 0.086313 1.327966 0.029218 -0.009951 -29941.900000 1 0 0
-12.243690 0.359739 6.804398 14.012037 -0.029373 1.063734 0.005471 -0.004299 130764.000000 1 0 0
-5.120690 3.080639 4.638398 7.564823 -0.541600 0.910750 0.000448 -0.002601 687730.000000 1 0 0
5.187310 -6.159061 3.966098 8.976199 -0.870834 1.113141 0.001817 -0.005392 729238.000000 1 0 0
9.949210 3.466439 6.267198 12.258906 0.335261 1.034174 -0.000673 0.000674 930969.000000 1 0 0
-12.212490 5.877739 3.183398 13.922168 -0.448567 1.340099 0.007057 -0.005545 658904.000000 1 0 0
-4.947590 12.397139 -1.256302 13.406939 -1.191074 1.664639 -0.003072 0.003891 234965.000000 1 0 0
-1.686390 -12.161961 10.285798 16.017329 1.433014 0.873475 0.010351 -0.000248 1429310.000000 1 0 0
5.176210 6.322739 13.840098 16.072290 0.884777 0.533337 0.011444 -0.001412 333015.000000 1 0 0
12.964310 -3.744161 -5.836202 14.702154 -0.281155 1.979001 0.009188 -0.010198 1778300.000000 1 0 0
3.618610 -2.678761 6.346498 7.781269 -0.637247 0.617010 -0.000396 -0.001690 1206010.000000 1 0 0
7.268610 -11.818661 -0.593702 13.887617 -1.019412 1.613560 0.009584 -0.003612 -1141800.000000 1 0 0
-6.168490 -6.599661 -4.142102 9.937947 0.819155 2.000715 0.010328 -0.005631 -257241.000000 1 0 0
0.326110 -8.915161 5.074298 10.263281 -1.534233 1.053637 0.007539 -0.003582 1928890.000000 1 0 0
-10.210490 2.515339 -0.422902 10.524252 -0.241539 1.610991 0.001691 -0.003418 -1348260.000000 1 0 0
-1.875690 9.001039 -0.440602 9.204947 -1.365351 1.618680 0.001975 -0.001195 482671.000000 1 0 0
-3.509590 2.298639 -6.671302 7.880814 -0.579854 2.580219 0.011338 -0.009133 634363.000000 1 0 0
-12.639190 3.098139 6.365398 14.486748 -0.240382 1.115872 0.010381 -0.010420 813853.000000 1 0 0
11.443610 1.652839 7.917198 14.013213 0.143441 0.970386 0.006698 -0.006033 -1453820.000000 1 0 0
5.994410 2.583539 -3.236002 7.285557 0.406934 2.031040 0.002032 -0.000526 84248.800000 1 0 0
10.524310 -2.335561 6.315998 12.494310 -0.218381 1.040823 0.011406 -0.004938 3828400.000000 1 0 0
-0.966990 11.000139 3.994998 11.743004 -1.483115 1.223664 0.004889 -0.000974 1410770.000000 1 0 0
-1.534190 -12.229761 7.441598 14.397853 1.446001 1.027624 0.010251 0.002183 -433385.000000 1 0 0
8.003510 8.651839 -7.945402 14.214074 0.824305 2.163953 0.004743 -0.003700 1174760.000000 1 0 0
-4.684790 -5.904961 -8.748702 11.547969 0.900114 2.430419 0.012166 -0.005558 897036.000000 1 0 0
-8.566190 -5.366861 -11.683102 15.449196 0.559689 2.428324 0.015091 -0.003454 2939170.000000 1 0 0
6.103210 -0.696161 -9.921002 11.668766 -0.113574 2.587197 0.001805 -0.002913 -637654.000000 1 0 0
-11.104690 -5.385561 -5.381202 13.463867 0.451560 1.981961 0.010342 -0.008809 -1105490.000000 1 0 0
3.813810 8.923139 -2.787002 10.096284 1.166889 1.850470 0.003663 -0.002255 255624.000000 1 0 0
11.691110 -10.404061 -3.981102 16.148551 -0.727214 1.819894 0.022191 -0.009892 -201556.000000 1 0 0
4.069210 -11.271261 4.000498 12.633439 -1.224333 1.248591 0.007049 -0.004004 698097.000000 1 0 0
-0.968590 0.870039 3.125298 3.385650 -0.731850 0.394727 -0.001233 -0.001439 -1447830.000000 1 0 0
-10.535890 -5.059961 4.471798 12.514198 0.447731 1.205380 0.006588 -0.000343 1854200.000000 1 0 0
4.680610 -8.679761 2.796398 10.250181 -1.076239 1.294479 0.004337 -0.003047 3765440.000000 1 0 0
-3.742190 -5.747861 2.641698 7.349861 0.993678 1.203148 0.005710 -0.000633 1312600.000000 1 0 0
10.002810 5.096139 12.326698 16.672563 0.471195 0.738706 0.023200 0.002173 -991098.000000 1 0 0
1.617810 -12.323461 -5.257202 13.495301 -1.440264 1.970948 0.002154 0.001631 657431.000000 1 0 0
9.870210 -10.712161 -1.747002 14.670496 -0.826282 1.690162 0.011010 -0.005840 607650.000000 1 0 0
9.607410 -4.485561 -9.282302 14.091973 -0.436807 2.289878 0.015947 -0.011056 2024610.000000 1 0 0
-7.505190 -3.113761 -13.097102 15.412899 0.393269 2.586306 0.013643 -0.005992 2221380.000000 1 0 0
0.386410 6.176139 -2.489902 6.670354 1.508313 1.953337 0.000625 -0.002411 2017230.000000 1 0 0
-6.004990 -9.537361 0.960898 11.311254 1.008876 1.485743 0.009046 -0.001051 -687498.000000 1 0 0
-9.005890 -4.043061 0.607498 9.890472 0.421968 1.509335 0.000122 -0.002617 3593660.000000 1 0 0
1.827110 3.790039 12.001798 12.717936 1.121585 0.337182 0.001201 -0.005778 1144550.000000 1 0 0
6.634610 4.330239 9.508698 12.376768 0.578253 0.694662 -0.007398 0.003412 2221220.000000 1 0 0
-8.300990 9.853339 -3.648202 13.390448 -0.870699 1.846733 0.001999 0.002555 1731250.000000 1 0 0
16.408110 2.000039 -6.006902 17.587186 0.121295 1.919362 0.038849 -0.006698 -633641.000000 1 0 0
-10.940890 2.586039 -5.093702 12.342466 -0.232105 1.996210 0.005303 -0.003241 49283.000000 1 0 0
-13.784690 4.031739 1.541798 14.444713 -0.284543 1.463855 0.009250 -0.003517 230833.000000 1 0 0
-17.492990 10.478139 3.333598 20.661776 -0.539677 1.408747 0.038181 -0.014350 -1044270.000000 1 0 0
-14.331690 2.950139 -1.124602 14.675332 -0.203012 1.647504 0.006544 -0.002057 904101.000000 1 0 0
-14.433790 5.129639 5.191298 16.173962 -0.341469 1.244047 0.016450 -0.011381 1209020.000000 1 0 0
-17.590690 7.585039 3.234098 19.427418 -0.407107 1.403547 0.036473 -0.007564 203013.000000 1 0 0
-15.326590 12.610639 -3.210402 20.105702 -0.688487 1.731159 0.052206 -0.014006 -1088310.000000 1 0 0
-8.494890 12.448239 -9.475002 17.801614 -0.971969 2.132059 0.007803 -0.011136 1297310.000000 1 0 0
-12.477890 8.668839 -9.789502 18.074315 -0.607184 2.143165 0.011819 0.000458 -530136.000000 1 0 0
-13.956890 -3.577361 -12.199102 18.878833 0.250913 2.273363 0.036012 -0.000181 -1263190.000000 1 0 0
-14.899190 5.591639 -7.613102 17.641190 -0.359032 2.017010 0.036524 0.003857 -106599.000000 1 0 0
-10.907290 13.470739 -8.275202 19.206997 -0.890167 2.016223 0.014100 -0.013587 2601320.000000 1 0 0
-10.957490 13.573639 4.013098 17.900146 -0.891643 1.344681 0.012568 -0.000913 -573022.000000 1 0 0
-15.244390 3.296039 3.096898 15.901134 -0.212936 1.374784 0.016647 -0.005557 584567.000000 1 0 0
-11.221090 9.346439 -12.382602 19.146739 -0.694503 2.274074 0.004611 -0.005014 253957.000000 1 0 0
-13.120790 11.506239 -9.168902 19.713382 -0.719932 2.054556 0.022157 -0.013119 412736.000000 1 0 0
-8.827190 14.518639 -3.405602 17.329405 -1.024522 1.768605 0.013759 -0.006851 -283400.000000 1 0 0
-16.616790 8.276739 -4.044202 18.999413 -0.462122 1.785297 0.029087 -0.003495 -2133050.000000 1 0 0
-16.976590 6.670839 0.480098 18.246512 -0.374408 1.544481 0.028903 -0.002486 81540.600000 1 0 0
-10.583890 2.699839 -12.669602 16.728020 -0.249763 2.430100 0.016304 -0.010747 222662.000000 1 0 0
-16.967790 0.942139 2.423698 17.165891 -0.055468 1.429130 0.035881 -0.008450 1007560.000000 1 0 0
-12.683690 1.201539 -6.979802 14.527123 -0.094449 2.071983 0.011021 -0.003579 370984.000000 1 0 0
-12.269790 8.928739 -5.511002 16.144388 -0.629076 1.919157 0.016000 -0.000755 -170642.000000 1 0 0
-9.583290 13.954139 1.399898 16.985793 -0.969005 1.488287 0.013441 -0.002872 276178.000000 1 0 0
-12.237090 11.211339 2.761198 16.824527 -0.741681 1.405933 0.014823 -0.003358 -553499.000000 1 0 0
-12.549090 6.824939 -3.636702 14.740592 -0.498116 1.820084 0.005454 0.002339 87686.300000 1 0 0
-16.024890 3.581539 -9.323402 18.882540 -0.219885 2.087202 0.053293 -0.008174 -1697490.000000 1 0 0
-15.105990 5.806639 -4.602502 16.825308 -0.366980 1.847874 0.018291 0.003132 1313790.000000 1 0 0
-17.998990 5.277039 7.716698 20.281967 -0.285193 1.180491 0.039675 -0.019857 -1583880.000000 1 0 0
-15.889790 10.039739 -1.921602 18.893764 -0.563500 1.672678 0.029527 -0.006303 -878633.000000 1 0 0
-8.848290 9.828439 -8.388402 15.660643 -0.837830 2.136057 0.002546 -0.001886 283164.000000 1 0 0
-17.052690 4.217539 -1.125102 17.602492 -0.242458 1.634757 0.024484 -0.002722 775130.000000 1 0 0
-10.237290 5.393039 -4.607902 12.454707 -0.484860 1.949776 0.002311 -0.001137 421682.000000 1 0 0
-18.223890 2.783839 6.196798 19.448913 -0.151586 1.246524 0.047677 -0.023201 587444.000000 1 0 0
-10.388090 10.080639 -5.770302 15.582942 -0.770379 1.950124 0.005232 0.000024 238957.000000 1 0 0
-15.298890 0.542739 -5.896802 16.404964 -0.035461 1.938477 0.012908 -0.004614 -1130520.000000 1 0 0
-16.464390 -4.095561 -8.897502 19.157643 0.243804 2.053794 0.042207 -0.011826 -1362280.000000 1 0 0
-9.992590 9.699739 -1.071402 13.967272 -0.770528 1.647580 0.005093 0.001899 3031470.000000 1 0 0
-17.368790 -2.914661 -3.123102 17.886415 0.166261 1.746303 0.023864 -0.005556 -498207.000000 1 0 0
-12.024190 4.986839 -11.654902 17.472448 -0.393143 2.301031 0.013852 -0.006207 -329710.000000 1 0 0
-16.457490 7.036539 5.980798 18.871455 -0.404036 1.248313 0.034087 -0.016554 537796.000000 1 0 0
-12.248390 5.821839 -8.862302 16.200532 -0.443705 2.149618 0.010716 -0.002627 1329780.000000 1 0 0
-14.590090 8.260939 0.007398 16.766451 -0.515197 1.570355 0.021912 -0.001914 276737.000000 1 0 0
-14.910690 11.746039 3.975498 19.393367 -0.667233 1.364340 0.020362 -0.016100 1285300.000000 1 0 0
-17.408590 4.063939 -3.962302 18.310500 -0.229337 1.788917 0.033844 -0.006411 -453740.000000 1 0 0
-13.762290 13.606139 -0.805602 19.369477 -0.779693 1.612400 0.026703 -0.001875 -834416.000000 1 0 0
-10.126390 6.809639 -13.093902 17.898749 -0.592006 2.391395 -0.000602 -0.012611 2174280.000000 1 0 0
-15.915390 -1.132761 -8.250902 17.962743 0.071054 2.048042 0.027416 -0.011405 -1660620.000000 1 0 0
-11.439790 12.038839 -0.031402 16.607331 -0.810907 1.572687 0.016023 -0.000695 429010.000000 1 0 0
-12.016190 7.447339 -0.916502 14.166568 -0.554834 1.635536 0.006916 0.002414 2320400.000000 1 0 0
-11.488090 0.052739 -11.665602 16.372698 -0.004591 2.363856 0.017766 -0.010338 -1126590.000000 1 0 0
-19.136890 -1.156761 -4.654802 19.728807 0.060373 1.808981 0.036186 -0.011109 -2048570.000000 1 0 0
-17.927290 1.406239 -5.118702 18.696693 -0.078281 1.848113 0.018594 -0.003849 648685.000000 1 0 0
-13.369590 -0.150661 -9.490002 16.395998 0.011268 2.188053 0.019698 -0.007705 387328.000000 1 0 0
-6.280990 11.167039 -13.270402 18.446061 -1.058439 2.373758 -0.003136 -0.002298 -233097.000000 1 0 0
16.381610 5.709539 6.952298 18.689314 0.335368 1.189641 0.037357 -0.015742 1082700.000000 1 0 0
14.723410 10.129439 -5.570502 18.719371 0.602614 1.872953 0.048881 -0.016011 7716.990000 1 0 0
2.460410 16.936239 4.237598 17.630856 1.426531 1.328069 0.019462 -0.010337 970643.000000 1 0 0
-3.858390 18.252639 -5.838902 19.548371 -1.362475 1.874116 0.006700 -0.000623 427682.000000 1 0 0
5.465910 14.683739 5.617898 16.644794 1.214445 1.226519 0.015577 -0.007802 -1250090.000000 1 0 0
9.896210 5.934239 15.145298 19.040227 0.540160 0.651068 0.037732 0.001719 -349238.000000 1 0 0
4.660110 12.690739 -1.114702 13.565178 1.218877 1.653063 0.004567 -0.004718 465544.000000 1 0 0
3.490010 13.830639 12.824398 19.181553 1.323617 0.838499 0.019498 -0.003014 -1052050.000000 1 0 0
-0.734090 12.348839 9.085598 15.348642 -1.511420 0.937323 0.000048 -0.001048 847497.000000 1 0 0
-7.724390 13.862239 8.399298 17.954835 -1.062423 1.083995 0.013455 -0.018589 1920660.000000 1 0 0
11.459710 12.742139 -4.217102 17.648542 0.838338 1.812080 0.041514 -0.010123 1409740.000000 1 0 0
-5.827390 16.245239 0.849098 17.279677 -1.226380 1.521638 0.008014 0.003021 350262.000000 1 0 0
3.323210 10.626439 6.630298 12.958619 1.267702 1.033690 -0.002052 0.003547 2016060.000000 1 0 0
-1.163490 15.580739 2.572398 15.834468 -1.496260 1.407617 0.006485 -0.003912 -275805.000000 1 0 0
9.890410 8.858839 9.418098 16.278816 0.730434 0.953847 0.015942 -0.003343 1549180.000000 1 0 0
7.222010 12.362639 6.206398 15.604861 1.042090 1.161763 0.014250 -0.004467 -586991.000000 1 0 0
11.888810 13.963639 -1.598202 18.408729 0.865483 1.657723 0.031742 -0.005154 -578241.000000 1 0 0
9.634610 15.787039 -1.222002 18.535092 1.022848 1.636773 0.014952 -0.004444 716856.000000 1 0 0
10.188410 13.819439 2.994998 17.428443 0.935504 1.398094 0.020763 -0.003567 3069010.000000 1 0 0
-6.076590 14.577539 6.267698 16.991576 -1.175852 1.193002 0.000525 -0.007411 1703.530000 1 0 0
-0.961390 18.181939 -6.284202 19.261318 -1.517969 1.903141 0.026697 0.001799 767886.000000 1 0 0
-3.507290 15.798539 5.461398 17.079865 -1.352338 1.245324 -0.005304 -0.001762 2471260.000000 1 0 0
7.039110 12.308939 10.518098 17.654729 1.051318 0.932576 0.013402 -0.000588 3674020.000000 1 0 0
1.558910 14.732139 6.097398 16.020125 1.465372 1.180342 0.006957 -0.005833 1750130.000000 1 0 0
17.459710 7.769339 -1.681302 19.184131 0.418677 1.658549 0.019659 0.004065 1184750.000000 1 0 0
2.086510 16.185839 -3.325602 16.655166 1.442594 1.771821 0.010521 -0.004358 1482890.000000 1 0 0
6.731110 11.067939 0.550798 12.965744 1.024396 1.528302 0.008214 -0.001257 2420460.000000 1 0 0
12.774010 9.253839 3.146598 16.084464 0.626933 1.373897 0.016058 0.001811 -2445640.000000 1 0 0
5.995810 14.231439 -3.406402 15.814145 1.172058 1.787900 0.004101 -0.002436 -364640.000000 1 0 0
3.090510 16.576539 1.503998 16.929115 1.386474 1.481838 0.015359 -0.013749 -1037040.000000 1 0 0
2.860310 18.848539 -2.392202 19.213835 1.420193 1.695624 0.022808 -0.018406 1279410.000000 1 0 0
3.928910 11.944839 10.616098 16.456521 1.253022 0.869642 0.008538 -0.000233 2318010.000000 1 0 0
8.027310 11.578139 3.358198 14.483388 0.964570 1.336801 0.012358 0.001557 2231720.000000 1 0 0
0.829210 12.492839 0.210498 12.522098 1.504519 1.553985 0.004217 -0.003444 -1416360.000000 1 0 0
11.927210 9.828039 -4.644502 16.137537 0.689206 1.862733 0.023647 -0.005089 -328614.000000 1 0 0
-1.299090 16.401839 9.911598 19.208013 -1.491757 1.028606 0.008268 -0.008276 -1070420.000000 1 0 0
8.195410 14.766639 -7.971002 18.674990 1.064126 2.011778 0.040612 -0.007557 245293.000000 1 0 0
14.558710 7.766239 -1.429102 16.562393 0.490043 1.657190 0.016608 -0.000118 -376419.000000 1 0 0
12.552110 8.300139 5.991398 16.197057 0.584246 1.191888 0.013954 -0.002123 -1439780.000000 1 0 0
-3.029090 14.188939 10.088998 17.671708 -1.360471 0.963180 0.003606 -0.014163 999920.000000 1 0 0
-4.575590 17.114739 -3.076902 17.981036 -1.309558 1.742762 0.014195 -0.001479 1111620.000000 1 0 0
-7.179990 16.492039 -1.845702 18.081655 -1.160183 1.673050 0.010505 0.000142 734659.000000 1 0 0
8.300810 11.256639 -1.902302 14.115032 0.935399 1.705979 0.006047 -0.000217 -888967.000000 1 0 0
8.534410 12.885839 -4.215202 16.020267 0.985816 1.837048 0.019321 -0.001631 2974020.000000 1 0 0
2.625210 14.791239 -7.343502 16.721229 1.395141 2.025474 0.008357 -0.002912 -445772.000000 1 0 0
11.412110 11.356039 9.657798 18.774157 0.782935 1.030465 0.027049 -0.005759 1350070.000000 1 0 0
8.570910 15.855239 1.462298 18.082794 1.075220 1.489841 0.006491 -0.002073 1009220.000000 1 0 0
6.071210 10.011239 7.630398 13.975246 1.025655 0.993221 0.005818 0.004480 1375930.000000 1 0 0
14.475210 11.352139 2.555398 18.572368 0.665061 1.432767 0.023170 -0.002771 2027620.000000 1 0 0
12.150310 12.595239 1.116298 17.536141 0.803376 1.507096 0.027613 -0.001985 869493.000000 1 0 0
5.304710 15.853039 8.267998 18.649896 1.247890 1.111490 0.026028 -0.008048 -1797370.000000 1 0 0
11.798810 14.944639 5.121098 19.717501 0.902490 1.308060 0.031506 -0.005125 806353.000000 1 0 0
5.971010 16.828039 1.757498 17.942260 1.229829 1.472686 0.002018 -0.014134 -67719.200000 1 0 0
-0.650090 16.125739 -4.174102 16.669889 -1.530504 1.823887 0.009512 0.001138 2340590.000000 1 0 0
16.058610 6.460939 2.498898 17.489060 0.382518 1.427422 0.001743 -0.000356 -804226.000000 1 0 0
7.644110 16.670939 -3.120902 18.603566 1.140872 1.739352 0.011664 -0.005313 -260304.000000 1 0 0
14.869810 8.035439 7.388998 18.446595 0.495432 1.158667 0.031482 -0.012190 -984100.000000 1 0 0
2.134610 12.948939 8.410098 15.587218 1.407417 1.000893 0.006564 -0.003320 1045470.000000 1 0 0
15.921110 7.446339 -5.992802 18.569960 0.437477 1.899393 0.035509 -0.009785 -141085.000000 1 0 0
-2.983090 16.996739 0.750798 17.272859 -1.397056 1.527316 0.003664 -0.002003 482846.000000 1 0 0
-2.916390 18.659839 4.721898 19.467698 -1.415758 1.325802 0.003455 0.000803 1247530.000000 1 0 0
-0.941590 19.101639 0.844798 19.143482 -1.521543 1.526652 0.015936 -0.008291 -803474.000000 1 0 0
6.927010 16.777239 -6.061702 19.136443 1.179235 1.893110 0.020851 -0.004444 2104270.000000 1 0 0
10.994110 10.031639 0.721898 14.900517 0.739654 1.522329 0.013681 0.001054 -939731.000000 1 0 0
9.135610 8.572939 14.188098 18.927673 0.753635 0.723346 0.033528 -0.007229 501619.000000 1 0 0
6.437210 12.405739 -8.435902 16.324965 1.092151 2.113845 0.025352 -0.010575 1281000.000000 1 0 0
6.359310 8.961539 13.225798 17.195109 0.953641 0.693270 0.013139 -0.002511 867266.000000 1 0 0
16.742410 9.468439 2.861198 19.445979 0.514693 1.423124 0.021125 0.000604 234691.000000 1 0 0
2.655110 14.765639 -0.794202 15.023464 1.392881 1.623685 0.009242 -0.006107 1517360.000000 1 0 0
9.146010 12.936239 8.283098 17.877514 0.955383 1.089053 0.023328 -0.005649 1746040.000000 1 0 0
7.165010 9.395439 10.407498 15.745719 0.919277 0.848681 0.004315 -0.000047 545016.000000 1 0 0
4.286210 15.707139 -5.301202 17.122750 1.304399 1.885569 0.016459 -0.005104 1785800.000000 1 0 0
0.239510 16.170739 -8.143302 18.107003 1.555986 2.037262 0.012243 -0.003147 -7026.570000 1 0 0
-2.433690 15.643739 -1.916202 15.947453 -1.416464 1.691245 0.000842 0.002519 73166.200000 1 0 0
13.406410 10.413339 7.693998 18.637787 0.660398 1.145251 0.033145 -0.006529 2834700.000000 1 0 0
-0.990090 15.905939 7.026798 17.417092 -1.508630 1.155520 0.008042 -0.003766 2341070.000000 1 0 0
13.633410 13.173939 6.601098 20.074787 0.768260 1.235737 0.042425 -0.010162 282129.000000 1 0 0
5.410110 17.502739 4.535798 18.872961 1.271011 1.328087 0.021395 -0.014912 1235870.000000 1 0 0
10.718710 9.476539 -1.959202 14.440707 0.723967 1.706888 0.008396 0.001409 171311.000000 1 0 0
3.290910 12.802439 4.589698 13.992780 1.319190 1.236606 0.002631 0.002174 1478250.000000 1 0 0
-0.188490 18.069439 3.567998 18.419305 -1.560365 1.375854 0.015315 -0.008361 2905780.000000 1 0 0
-7.745490 15.911939 -5.767802 18.613166 -1.117787 1.885861 0.027129 -0.011685 -724090.000000 1 0 0
-12.360790 -9.027261 8.363598 17.442200 0.630783 1.070707 0.017551 -0.002991 -1592440.000000 1 0 0
-13.103990 -11.649561 6.925798 18.851883 0.726709 1.194606 0.021953 -0.004041 -2887200.000000 1 0 0
-6.481290 -12.171661 12.456598 18.582876 1.081496 0.836147 0.014268 -0.002833 -1020030.000000 1 0 0
-1.859890 -10.622361 14.425598 18.010875 1.397461 0.641936 0.010619 -0.009985 787877.000000 1 0 0
-8.771790 2.853339 11.051198 14.394958 -0.314490 0.695532 0.001954 -0.003055 897145.000000 1 0 0
0.523810 9.953439 15.079598 18.075940 1.518219 0.584051 -0.003628 -0.007134 -469496.000000 1 0 0
0.972310 -6.694561 16.615598 17.939917 -1.426566 0.386643 0.014156 -0.014854 1396170.000000 1 0 0
6.058110 2.360639 17.683398 18.840804 0.371566 0.352336 0.047170 -0.017063 2203430.000000 1 0 0
-4.945690 -2.934961 17.630298 18.544575 0.535581 0.315316 0.013352 -0.017474 270319.000000 1 0 0
-4.182090 8.183939 13.024698 15.940813 -1.098378 0.614492 -0.005730 -0.000150 404980.000000 1 0 0
0.128310 -4.830461 18.611598 19.228661 -1.544240 0.254023 0.016873 -0.018856 -495680.000000 1 0 0
-11.608890 2.120339 11.188498 16.261754 -0.180657 0.812032 0.028334 -0.008797 343567.000000 1 0 0
-3.420790 -6.050861 14.302298 15.901901 1.056253 0.452383 0.005850 -0.014784 1095040.000000 1 0 0
-7.453290 -2.197161 14.672398 16.602961 0.286671 0.487041 0.014727 -0.006597 1876200.000000 1 0 0
-6.111590 -1.059961 10.573298 12.258454 0.171726 0.530545 0.000485 -0.003863 2317000.000000 1 0 0
-3.911190 2.507739 11.145198 12.074834 -0.570143 0.394964 -0.003160 0.002897 1237580.000000 1 0 0
-6.360490 6.346839 13.521498 16.234812 -0.784324 0.586522 -0.008673 0.000154 539804.000000 1 0 0
-8.905490 5.479339 12.490398 16.289290 -0.551577 0.696977 0.010099 -0.006017 1355880.000000 1 0 0
-12.324690 -2.287461 15.812698 20.178500 0.183512 0.670291 0.045831 -0.001872 1249490.000000 1 0 0
-3.447790 -7.573761 16.950998 18.883470 1.143603 0.456358 0.018243 -0.017410 -220179.000000 1 0 0
-0.532090 -5.368361 14.392298 15.370123 1.472003 0.358622 0.004749 -0.007346 1912640.000000 1 0 0
-14.348190 -2.224261 13.611198 19.901824 0.153796 0.817678 0.063483 -0.011601 411284.000000 1 0 0
-6.397390 1.529739 12.175698 13.838870 -0.234712 0.495315 -0.000239 -0.001590 393003.000000 1 0 0
2.138410 -2.217061 14.513198 14.836478 -0.803454 0.209137 0.001480 -0.006217 142827.000000 1 0 0
-12.534990 4.060839 9.212498 16.077516 -0.313291 0.960628 0.018823 -0.012484 -2797730.000000 1 0 0
-9.055590 -2.898561 12.608498 15.791757 0.309780 0.646125 0.004547 -0.001472 1983070.000000 1 0 0
-7.053990 -7.171261 15.243398 18.263268 0.793642 0.583303 0.012265 -0.013044 -1503260.000000 1 0 0
-3.109790 5.872639 19.464698 20.567770 -1.083798 0.328991 0.024963 -0.018592 394138.000000 1 0 0
0.685210 5.436339 16.010098 16.921777 1.445415 0.329748 0.003357 -0.008348 -41371.500000 1 0 0
3.375810 1.660539 16.683198 17.102123 0.457141 0.221793 0.021160 -0.010396 471196.000000 1 0 0
-11.767190 11.409339 7.886998 18.189132 -0.769959 1.122301 0.022262 -0.019443 253536.000000 1 0 0
0.631810 -9.457861 15.504698 18.172671 -1.504093 0.548730 0.002266 -0.004498 829399.000000 1 0 0
-2.437790 -3.606561 18.908398 19.403031 0.976407 0.226281 0.014719 -0.020651 1111140.000000 1 0 0
-12.766590 2.430739 13.825898 18.974977 -0.188147 0.754464 0.043482 -0.019479 -443444.000000 1 0 0
-5.325190 -0.584061 15.715498 16.603483 0.109242 0.328528 0.005758 -0.006101 104913.000000 1 0 0
-4.498490 -5.959761 11.677898 13.861041 0.924224 0.568893 0.000272 -0.003333 -157509.000000 1 0 0
2.394910 1.802239 13.886598 14.206382 0.645118 0.212578 0.005045 -0.006160 780794.000000 1 0 0
0.062310 3.328639 14.231298 14.615525 1.552079 0.229804 0.001537 -0.005526 -173965.000000 1 0 0
-13.036990 7.134039 12.155498 19.199317 -0.500703 0.885217 0.046638 -0.019124 951602.000000 1 0 0
0.827110 1.719039 18.081598 18.181953 1.122345 0.105115 0.011172 -0.013850 1929000.000000 1 0 0
-1.979190 6.425039 12.384398 14.091545 -1.271977 0.497343 -0.009339 0.000802 466657.000000 1 0 0
-13.426390 -2.541161 10.883198 17.469100 0.187054 0.898228 0.039587 -0.011496 -3819.760000 1 0 0
-2.562090 3.660339 13.435998 14.159394 -0.960098 0.321031 -0.005328 -0.001130 -630083.000000 1 0 0
3.527110 6.056239 16.256298 17.702706 1.043424 0.407045 0.014100 -0.007609 224243.000000 1 0 0
-3.688990 12.354939 12.204098 17.753681 -1.280639 0.812876 0.004761 -0.012927 489674.000000 1 0 0
3.561210 -1.284761 17.069498 17.484296 -0.346233 0.218259 0.024138 -0.015649 367157.000000 1 0 0
-15.781790 0.543739 9.183698 18.267481 -0.034440 1.044037 0.051944 -0.018724 413630.000000 1 0 0
-4.627190 4.679639 15.163698 16.530204 -0.791034 0.409468 -0.003597 -0.005254 476896.000000 1 0 0
-8.008090 -8.043861 10.448898 15.427659 0.787627 0.826732 0.002499 -0.005531 2781090.000000 1 0 0
-2.653390 -0.472861 14.632798 14.878940 0.176359 0.182147 0.003702 -0.003371 1655900.000000 1 0 0
-1.907190 0.878339 17.228098 17.355582 -0.431585 0.121280 0.004531 -0.011057 50701.400000 1 0 0
-0.767090 -2.487161 14.311198 14.545955 1.271633 0.179903 0.002876 -0.004525 -1068300.000000 1 0 0
5.093510 -8.205161 16.588798 19.195227 -1.015245 0.527209 0.010401 -0.004715 -805570.000000 1 0 0
-4.406690 9.947639 10.597898 15.188479 -1.153788 0.798532 -0.000485 -0.007820 -2536380.000000 1 0 0
-6.169290 2.171939 15.205098 16.552114 -0.338506 0.406223 0.000109 0.001715 446304.000000 1 0 0
-4.827290 6.912539 17.274298 19.222053 -0.961187 0.454067 0.001330 -0.002434 189893.000000 1 0 0
-3.987590 9.242939 15.689098 18.640832 -1.163500 0.570461 -0.001614 -0.003389 -214857.000000 1 0 0
-4.791890 -9.840061 18.345298 21.362092 1.117621 0.537916 0.045458 -0.020139 -539394.000000 1 0 0
-6.823890 -4.008961 11.179798 13.697632 0.531169 0.616020 0.006408 -0.001511 995038.000000 1 0 0
-2.227690 -0.892561 19.571398 19.717984 0.381081 0.122011 0.013311 -0.015635 -251191.000000 1 0 0
-5.652690 -4.487861 15.277398 16.896529 0.671031 0.441355 0.009395 -0.011626 1842010.000000 1 0 0
-12.898490 0.107739 9.690098 16.133216 -0.008353 0.926507 0.026284 -0.007889 1838650.000000 1 0 0
-14.519790 8.869439 10.417798 19.950483 -0.548361 1.021388 0.039798 -0.020646 -720299.000000 1 0 0
-8.232690 10.583439 12.733798 18.491511 -0.909687 0.811199 0.023606 -0.022368 -2129470.000000 1 0 0
-10.451690 7.239839 10.714098 16.626635 -0.605807 0.870566 0.028145 -0.013203 -447635.000000 1 0 0
-9.718590 -6.446561 14.691098 18.757332 0.585684 0.670970 0.027744 -0.018833 -733136.000000 1 0 0
-0.641590 -13.412461 14.547198 19.797139 1.522997 0.745405 0.011677 -0.007520 1244830.000000 1 0 0
3.800910 -5.621161 16.983198 18.288614 -0.976237 0.380117 0.021139 -0.009989 1355990.000000 1 0 0
-7.240790 9.303339 10.308398 15.660276 -0.909428 0.852303 0.012036 -0.012233 1762720.000000 1 0 0
-10.330590 -6.504361 11.706898 16.913878 0.561916 0.806336 0.026553 -0.015667 2196680.000000 1 0 0
-10.858290 -3.692661 10.664898 15.661362 0.327808 0.821712 0.016882 -0.002416 -2456350.000000 1 0 0
-10.025890 -10.138961 9.855198 17.333260 0.791005 0.966028 0.008460 -0.007203 1507450.000000 1 0 0
-9.876090 -3.595061 15.250498 18.521320 0.349107 0.603415 0.028089 -0.013076 1258890.000000 1 0 0
5.532510 -3.246261 16.129098 17.357842 -0.530628 0.378524 0.026148 -0.011860 167545.000000 1 0 0
-11.433690 0.432439 15.301898 19.106657 -0.037803 0.642054 0.040252 -0.010126 39647.800000 1 0 0
-3.328990 2.972739 18.793698 19.316378 -0.728926 0.233160 0.017945 -0.015799 -540241.000000 1 0 0
0.506410 7.351539 13.737098 15.588761 1.502020 0.492363 -0.004969 -0.005084 176360.000000 1 0 0
-13.104290 -7.310361 12.221898 19.352999 0.508858 0.887278 0.033370 -0.010662 -87183.900000 1 0 0
-1.522690 -1.095661 12.045698 12.190894 0.623731 0.154492 -0.001002 -0.002557 155491.000000 1 0 0
2.041610 -4.826561 13.122698 14.130431 -1.170625 0.379949 0.000454 -0.005001 594583.000000 1 0 0
-14.535790 -4.016961 8.614198 17.367486 0.269621 1.051815 0.030166 -0.010186 -1315300.000000 1 0 0
8.031010 0.856239 16.123098 18.032875 0.106215 0.464390 0.048537 -0.012221 -97665.700000 1 0 0
-1.235190 11.303539 13.304498 17.501582 -1.461954 0.707193 -0.000723 -0.002485 -655725.000000 1 0 0
2.823910 -12.367561 -13.826802 18.764633 -1.346313 2.399202 0.008157 0.003671 -1034430.000000 1 0 0
0.763310 -10.732461 -13.974702 17.636911 -1.499794 2.485457 0.001641 0.004035 -1916410.000000 1 0 0
3.264610 -14.486961 -12.353802 19.316990 -1.349150 2.264684 0.017265 0.000126 -381320.000000 1 0 0
-5.107390 -10.305061 -16.184802 19.855163 1.110659 2.523773 0.014716 -0.005864 -471084.000000 1 0 0
-1.091190 -12.185661 -14.902902 19.281532 1.481488 2.454212 0.015726 -0.002314 -287064.000000 1 0 0
5.782010 -14.925661 -11.867902 19.926216 -1.201210 2.208799 0.022575 -0.007829 -345969.000000 1 0 0
1.827610 -12.001261 -16.086602 20.153143 -1.419673 2.495127 0.008642 0.004766 -869987.000000 1 0 0
1.273810 -14.451761 -13.968902 20.139667 -1.482881 2.337273 0.027234 0.002733 -340090.000000 1 0 0
-1.137090 -10.733261 -15.912102 19.227346 1.465249 2.545573 0.015989 -0.001429 -422486.000000 1 0 0
-5.908690 -5.589661 -14.996402 17.060158 0.757660 2.644622 0.019025 -0.007648 -125956.000000 1 0 0
-6.457390 -7.689461 -16.404102 19.233310 0.872271 2.592313 0.018767 -0.007409 241808.000000 1 0 0
4.843610 -12.510061 -11.415302 17.614519 -1.201393 2.275833 0.005833 -0.002023 -259747.000000 1 0 0
-1.970390 -15.724861 -13.173602 20.608189 1.446142 2.264307 0.020142 0.000713 164885.000000 1 0 0
15.712710 -7.368961 -8.854602 19.483193 -0.438526 2.042578 0.042509 -0.009347 393823.000000 1 0 0
19.352310 -3.617061 -4.105502 20.110947 -0.184774 1.776384 0.096163 -0.033924 1243910.000000 1 0 0
14.828910 -11.647461 -8.725202 20.777128 -0.665810 2.004178 0.059395 -0.014066 -181035.000000 1 0 0
18.008410 -3.485861 -6.367802 19.416564 -0.191204 1.904937 0.093422 -0.022024 677819.000000 1 0 0
9.573710 -9.149061 -15.422202 20.327458 -0.762721 2.432093 0.083729 -0.021627 64068.800000 1 0 0
1.201410 1.907739 -15.249702 15.415455 1.008784 2.994816 0.013481 -0.005660 172873.000000 1 0 0
4.754710 -4.374361 -13.811702 15.248128 -0.743759 2.704052 0.010444 -0.005414 801572.000000 1 0 0
13.133510 -5.620061 -8.643802 16.696990 -0.404339 2.114941 0.030244 -0.011207 -842362.000000 1 0 0
2.987910 0.948439 -12.205202 12.601353 0.307366 2.890183 0.006444 -0.005683 -1846090.000000 1 0 0
0.558710 6.326539 -12.849602 14.333510 1.482713 2.682540 0.013960 -0.007363 -15391.200000 1 0 0
3.152210 -1.206961 -16.783302 17.119357 -0.365673 2.943125 0.022374 -0.007922 -559994.000000 1 0 0
13.229110 4.436039 -11.364102 17.995294 0.323541 2.254288 0.035380 -0.009950 213120.000000 1 0 0
-3.948890 9.558339 -16.542002 19.508803 -1.179018 2.582855 0.023496 -0.004566 31240.700000 1 0 0
-0.248090 -5.132661 -17.660902 18.393292 1.522498 2.858448 0.020276 -0.010694 437718.000000 1 0 0
-0.519690 -8.639561 -17.482302 19.507510 1.510716 2.681887 0.020907 -0.006781 -1647830.000000 1 0 0
5.536910 -10.152561 -12.189102 16.801966 -1.071514 2.382494 0.006791 -0.003038 22818.800000 1 0 0
1.764810 -9.745261 -17.990202 20.536115 -1.391644 2.638359 0.032057 -0.012585 -208858.000000 1 0 0
10.834410 8.850139 -14.797902 20.363873 0.684934 2.384265 0.080495 -0.019807 -1404870.000000 1 0 0
11.139910 -3.738761 -12.956202 17.491115 -0.323806 2.404953 0.039849 -0.010577 920770.000000 1 0 0
4.835610 7.467739 -12.176102 15.080043 0.996157 2.510582 0.004604 -0.003076 545196.000000 1 0 0
9.626810 -5.880861 -12.594202 16.907806 -0.548384 2.411144 0.032927 -0.011279 -1119470.000000 1 0 0
-3.349590 0.357939 -15.989702 16.340698 -0.106457 2.933952 0.018641 -0.008007 -2404660.000000 1 0 0
-0.769890 10.800439 -12.851502 16.804860 -1.499634 2.441448 0.016699 -0.004024 -1948280.000000 1 0 0
6.652110 -5.433561 -12.330902 15.027484 -0.684912 2.533180 0.014320 -0.007258 383546.000000 1 0 0
17.855210 -6.183561 -7.988902 20.515056 -0.333390 1.970794 0.073605 -0.024161 86081.100000 1 0 0
13.110710 4.560039 -13.954502 19.682805 0.334723 2.358832 0.055589 -0.018757 418616.000000 1 0 0
14.388710 0.776639 -11.352702 18.344536 0.053923 2.238087 0.046715 -0.006411 -73113.800000 1 0 0
15.200810 6.069439 -11.038302 19.742007 0.379889 2.164130 0.069606 -0.017515 -65090.200000 1 0 0
8.297210 1.502039 -11.738502 14.453105 0.179090 2.518673 0.000717 0.001987 835707.000000 1 0 0
9.999810 1.234839 -8.862102 13.418565 0.122864 2.292195 0.002604 -0.001330 -59890.000000 1 0 0
-0.137690 -5.786761 -12.887202 14.127474 1.547007 2.719439 0.001937 -0.002685 565197.000000 1 0 0
10.510710 -5.758261 -9.019202 14.999286 -0.501189 2.215934 0.018419 -0.013134 -825939.000000 1 0 0
10.196610 8.431939 -11.281302 17.387819 0.690951 2.276809 0.046271 -0.020055 424543.000000 1 0 0
8.269010 8.390939 -14.519202 18.697369 0.792717 2.459947 0.041214 -0.010997 724914.000000 1 0 0
8.651610 10.511439 -10.711202 17.322545 0.882148 2.237424 0.056197 -0.019788 -1156740.000000 1 0 0
7.165810 1.612939 -17.979402 19.421877 0.221398 2.753756 0.042663 -0.002136 -779091.000000 1 0 0
12.213010 2.449639 -12.717302 17.801352 0.197950 2.366564 0.039385 -0.012234 -445403.000000 1 0 0
2.640210 -0.927261 -19.304602 19.506362 -0.337750 2.997640 0.036075 -0.016875 -435577.000000 1 0 0
10.169110 -2.171661 -15.434202 18.610252 -0.210394 2.548719 0.043157 -0.017507 -377459.000000 1 0 0
8.298310 -0.852461 -13.015002 15.458943 -0.102368 2.571605 0.011007 -0.005741 431323.000000 1 0 0
0.588410 4.391339 -14.606102 15.263299 1.437596 2.847076 0.014018 -0.006534 -738734.000000 1 0 0
3.806710 -7.526661 -15.525602 17.668785 -1.102549 2.643933 0.022747 -0.013386 -1116680.000000 1 0 0
11.558810 -5.815561 -14.351402 19.323291 -0.466147 2.407889 0.059580 -0.013570 -785695.000000 1 0 0
-5.844090 4.267039 -17.008102 18.483412 -0.630673 2.739341 0.017832 -0.004708 -225026.000000 1 0 0
11.380610 7.905439 -9.070102 16.561431 0.607120 2.150366 0.040111 -0.011281 -1396790.000000 1 0 0
9.512410 6.302839 -13.597502 17.751163 0.585176 2.443402 0.025555 0.002703 -869101.000000 1 0 0
12.094910 0.566539 -10.171802 15.813708 0.046807 2.269502 0.017119 -0.001948 914450.000000 1 0 0
5.415810 -7.283761 -13.703102 16.436519 -0.931439 2.556568 0.019176 -0.005137 -307717.000000 1 0 0
8.462610 -10.132461 -10.719402 17.005531 -0.874959 2.252798 0.024537 -0.005598 30901.100000 1 0 0
10.162910 4.454539 -15.694102 19.220627 0.413093 2.526160 0.054712 -0.014755 -1322150.000000 1 0 0
9.882410 -0.440661 -10.930202 14.741965 -0.044561 2.406002 0.009480 -0.002946 -1635200.000000 1 0 0
-1.715290 5.455339 -13.983802 15.107933 -1.266160 2.753396 0.016683 -0.009688 852138.000000 1 0 0
1.343310 -0.734761 -14.967202 15.045314 -0.500520 3.039648 0.010159 -0.006065 -896279.000000 1 0 0
11.415210 -10.486261 -14.158702 20.993750 -0.743009 2.310981 0.085033 -0.023276 273024.000000 1 0 0
9.332910 -7.776861 -10.826102 16.272285 -0.694703 2.298704 0.028715 -0.007883 -416637.000000 1 0 0
14.021610 -0.984161 -9.525902 16.979898 -0.070074 2.166402 0.027074 -0.004782 921463.000000 1 0 0
3.962110 11.143339 -12.221502 17.006982 1.229178 2.372607 0.018932 -0.012136 -989923.000000 1 0 0
-1.231390 3.039539 -16.780302 17.097767 -1.185881 2.948588 0.019075 -0.007826 -773011.000000 1 0 0
5.936910 -0.552461 -17.636202 18.616867 -0.092788 2.815570 0.014644 -0.003207 127156.000000 1 0 0
6.319210 -6.730661 -16.067702 18.531197 -0.816917 2.620071 0.032360 -0.005555 484168.000000 1 0 0
-1.817390 -5.203561 -19.843502 20.594769 1.234782 2.870659 0.042565 -0.019300 260094.000000 1 0 0
-0.007690 -4.379061 -15.175702 15.794877 1.569040 2.860666 0.005234 -0.006854 399424.000000 1 0 0
0.502610 0.725939 -12.977502 13.007504 0.965217 3.073660 0.010194 -0.006884 418191.000000 1 0 0
15.891410 0.739039 -13.464602 20.841751 0.046472 2.273181 0.081265 -0.018004 467034.000000 1 0 0
0.001210 7.074339 -16.397602 17.858545 1.570625 2.734292 0.020512 -0.003816 -715972.000000 1 0 0
-4.946190 -0.690261 -18.286502 18.956197 0.138658 2.874990 0.015219 -0.006792 -225317.000000 1 0 0
10.365610 -8.316961 -13.110302 18.668094 -0.676179 2.349397 0.039828 -0.016727 356083.000000 1 0 0
4.226010 8.733739 -17.070802 19.635418 1.120134 2.624759 0.033330 -0.012772 -102684.000000 1 0 0
9.290010 0.790839 -16.715702 19.140125 0.084923 2.632799 0.046234 -0.016608 -226608.000000 1 0 0
3.290210 4.838539 -18.470402 19.375053 0.973619 2.834804 0.035488 -0.004838 -220281.000000 1 0 0
1.321010 -8.250261 -15.876702 17.941057 -1.412027 2.657155 0.003844 -0.005185 -745368.000000 1 0 0
4.626510 7.594339 -14.837702 17.298439 1.023636 2.601669 0.014053 -0.006896 906540.000000 1 0 0
-5.741990 -0.396961 -15.238102 16.288885 0.069023 2.780442 0.014408 -0.007051 -668578.000000 1 0 0
2.933810 3.311039 -13.818202 14.509063 0.845731 2.831758 0.008374 -0.003797 262641.000000 1 0 0
-2.439890 -10.249961 -18.115902 20.957114 1.337106 2.614806 0.032045 -0.004041 423020.000000 1 0 0
5.898410 -9.226161 -15.247902 18.772634 -1.001970 2.518780 0.020308 -0.011836 -61738.000000 1 0 0
-1.808690 5.485339 -17.287702 18.227038 -1.252291 2.819151 0.019748 -0.006814 250356.000000 1 0 0
9.832210 -12.254761 -11.575402 19.515159 -0.894644 2.205761 0.067068 -0.012402 -338170.000000 1 0 0
10.846410 3.537739 -9.448802 14.813510 0.315287 2.262500 0.004773 -0.003591 -1166940.000000 1 0 0
4.858910 -0.454461 -10.946502 11.985051 -0.093260 2.722224 0.004441 -0.005465 1107010.000000 1 0 0
6.288210 9.562439 -11.444802 16.185343 0.989101 2.356198 0.015620 -0.011130 143278.000000 1 0 0
10.717910 -9.593461 -9.544702 17.262949 -0.730094 2.156638 0.035991 -0.010191 -1747020.000000 1 0 0
3.140710 -2.415761 -14.449702 14.983118 -0.655661 2.873957 0.008556 -0.004914 -102265.000000 1 0 0
9.371710 -4.645261 -14.849902 18.163892 -0.460176 2.527941 0.044597 -0.009694 304252.000000 1 0 0
-4.109590 -6.644561 -16.578802 18.327454 1.016893 2.701209 0.016950 -0.005324 -1010650.000000 1 0 0
5.888710 -7.722061 -11.172002 14.802728 -0.919291 2.426032 0.004725 -0.003564 604700.000000 1 0 0
5.403310 6.406839 -16.891902 18.856821 0.870166 2.681020 0.035582 -0.006748 -711569.000000 1 0 0
9.428310 1.077639 -19.292502 21.500115 0.113804 2.684458 0.080362 -0.024906 483170.000000 1 0 0
13.091310 5.871539 -9.403102 17.154466 0.421611 2.150939 0.026112 -0.007411 231177.000000 1 0 0
-1.525190 -0.763961 -17.323402 17.407185 0.464364 3.043440 0.023938 -0.011605 192171.000000 1 0 0
-0.547190 -0.659461 -19.653702 19.672374 0.878175 3.098020 0.036351 -0.015432 -155760.000000 1 0 0
2.805810 6.486439 -16.534902 17.981920 1.162535 2.737677 0.016052 -0.000900 -949909.000000 1 0 0
7.619510 3.756939 -15.665402 17.820672 0.458087 2.644679 0.026304 -0.001309 -44017.000000 1 0 0
2.973910 -9.999961 -14.917402 18.203632 -1.281734 2.531289 0.010311 0.001202 -625765.000000 1 0 0
8.981310 -10.485961 -13.331302 19.192262 -0.862536 2.338686 0.057273 -0.012311 -725111.000000 1 0 0
3.811310 0.094139 -14.770202 15.254304 0.024695 2.888987 0.010115 -0.005407 -1904520.000000 1 0 0
-1.071290 -2.962361 -18.834902 19.096512 1.223795 2.975877 0.037507 -0.013999 114840.000000 1 0 0
9.489010 10.260639 -13.098902 19.154719 0.824449 2.323819 0.072224 -0.022014 375364.000000 1 0 0
4.699710 2.044239 -10.663202 11.830894 0.410286 2.693561 0.001770 -0.001356 -16879.200000 1 0 0
-0.580590 7.088939 -18.883602 20.178715 -1.489078 2.781368 0.032905 -0.007095 -6402.170000 1 0 0
0.856710 -1.784261 -17.578302 17.689382 -1.123155 3.029467 0.029875 -0.015332 -2689020.000000 1 0 0
-4.514590 -2.276561 -14.051402 14.933390 0.467056 2.796188 0.013607 -0.008428 -5134480.000000 1 0 0
10.128210 5.970039 -10.402702 15.698351 0.532624 2.295164 0.015712 -0.001327 -31949.300000 1 0 0
8.488910 5.634239 -17.201602 19.992532 0.585958 2.606853 0.067120 -0.015072 5933.510000 1 0 0
11.337710 0.156639 -13.478102 17.613274 0.013815 2.442186 0.029683 -0.003590 249379.000000 1 0 0
6.869510 12.056539 -11.861102 18.254754 1.052898 2.278057 0.044252 -0.016738 -274290.000000 1 0 0
-0.943890 0.525739 -15.093402 15.132022 -0.508196 3.070132 0.016266 -0.007501 -1460900.000000 1 0 0
-4.241890 -3.048261 -18.926002 19.633620 0.623106 2.872298 0.019806 -0.008420 220420.000000 1 0 0
5.607710 -12.072661 -13.956702 19.286914 -1.135953 2.379852 0.016465 -0.005834 -797308.000000 1 0 0
2.132110 -4.842961 -13.970602 14.939139 -1.156081 2.779529 0.004818 -0.004325 -1616190.000000 1 0 0
11.881810 1.819639 -15.306402 19.462128 0.151964 2.475871 0.066177 -0.015693 229954.000000 1 0 0
9.731010 2.229139 -13.813202 17.043068 0.225190 2.515781 0.023675 -0.005516 1786130.000000 1 0 0
-2.217590 -4.208561 -16.377602 17.054487 1.085843 2.858909 0.009460 -0.012206 -1810940.000000 1 0 0
-2.939490 10.108339 -14.298602 17.755820 -1.287803 2.506962 0.019670 -0.008098 330251.000000 1 0 0
3.468410 5.759739 -13.483502 15.066827 1.028774 2.679033 0.010582 -0.003848 -98093.200000 1 0 0
-5.169790 -2.729161 -16.554702 17.556571 0.485722 2.802133 0.017616 -0.005671 372377.000000 1 0 0
-4.364890 6.213539 -13.640402 15.611563 -0.958408 2.633630 0.008013 -0.009580 926506.000000 1 0 0
6.029310 -1.118161 -14.304302 15.563287 -0.183371 2.736600 0.011291 -0.000653 -2052030.000000 1 0 0
6.496810 -2.825661 -12.500902 14.368905 -0.410252 2.625992 0.006454 -0.008669 1115740.000000 1 0 0
2.941310 -3.256761 -18.286002 18.805203 -0.836249 2.906062 0.032385 -0.017666 947.689000 1 0 0
7.310210 -11.986661 -12.089602 18.527754 -1.023157 2.281692 0.026174 -0.005409 -1977880.000000 1 0 0
-6.247890 -5.418861 -17.558602 19.408881 0.714458 2.701397 0.039136 -0.012940 366420.000000 1 0 0
0.459410 8.727639 -11.922202 14.782477 1.518206 2.509020 0.012645 -0.004479 -233727.000000 1 0 0
0.239810 8.554739 -14.420802 16.769037 1.542771 2.605999 0.011659 -0.006932 -164255.000000 1 0 0
7.671410 -2.675961 -14.820402 16.901349 -0.335625 2.640123 0.023383 -0.020749 -257833.000000 1 0 0
14.265910 1.557039 -8.840502 16.855119 0.108714 2.122923 0.024009 -0.004155 -38811.300000 1 0 0
2.803910 10.735839 -14.510502 18.266768 1.315330 2.488760 0.018711 -0.006133 -69836.600000 1 0 0
6.136710 0.999039 -15.565702 16.761514 0.161381 2.761573 0.014188 -0.002785 627377.000000 1 0 0
16.741310 -5.478461 -10.208402 20.359186 -0.316258 2.096030 0.083634 -0.024182 325304.000000 1 0 0
4.792510 -4.207861 -11.110302 12.810661 -0.720531 2.620488 0.001606 -0.005377 -2858960.000000 1 0 0
8.672710 -3.420161 -16.998402 19.387085 -0.375634 2.639942 0.038722 -0.020060 353092.000000 1 0 0
13.203710 -9.631161 -8.735502 18.531223 -0.630205 2.061667 0.055492 -0.012784 -647622.000000 1 0 0
2.224410 -7.941361 -13.521902 15.838404 -1.297691 2.593925 -0.000620 0.000200 87759.100000 1 0 0
-6.825790 -2.521161 -18.496602 19.876416 0.353815 2.766791 0.016803 -0.006287 -727823.000000 1 0 0
-1.513590 -6.538761 -15.728202 17.100370 1.343323 2.738260 0.005202 -0.005118 857552.000000 1 0 0
1.572010 -7.246361 -18.284702 19.730972 -1.357169 2.756332 0.038901 -0.019666 -309561.000000 1 0 0
5.417110 10.860039 -14.386602 18.821792 1.108100 2.440843 0.036351 -0.023962 306186.000000 1 0 0
5.405310 -3.422261 -17.256202 18.403960 -0.564424 2.786560 0.031102 -0.018613 -617230.000000 1 0 0
3.920310 12.986239 -14.061402 19.538021 1.277614 2.374158 0.032048 -0.016674 167810.000000 1 0 0
9.149010 10.578839 -15.632202 20.975747 0.857749 2.411708 0.086703 -0.021513 181559.000000 1 0 0
2.468810 3.861139 -16.254102 16.887843 1.001909 2.866771 0.020593 -0.006683 481649.000000 1 0 0
16.730910 1.934039 -11.307302 20.285930 0.115086 2.162043 0.083182 -0.016280 444246.000000 1 0 0
10.095110 -3.648961 -10.542802 15.045824 -0.346846 2.347192 0.023878 -0.009623 -1058180.000000 1 0 0
14.769210 -2.154261 -11.770402 19.008229 -0.144840 2.238554 0.066363 -0.017413 255428.000000 1 0 0
-2.780590 -8.747261 -16.052702 18.491497 1.263017 2.622183 0.013317 0.004246 -212580.000000 1 0 0
13.900510 8.325239 -8.910302 18.491276 0.539622 2.073578 0.058476 -0.016270 -218062.000000 1 0 0
-8.356490 -0.402261 -16.433802 18.440785 0.048100 2.670705 0.016427 -0.010253 -1199250.000000 1 0 0
-3.568290 3.995239 -15.948102 16.823691 -0.841787 2.817547 0.011638 -0.005810 -466894.000000 1 0 0
14.982710 3.984239 -9.589502 18.229490 0.259907 2.124738 0.035787 -0.010812 281161.000000 1 0 0
5.446410 1.053839 -13.000202 14.134327 0.191131 2.738267 0.006030 -0.002413 89228.700000 1 0 0
7.827810 -7.632061 -12.891502 16.903070 -0.772737 2.438231 0.039418 -0.008552 -2916800.000000 1 0 0
3.197010 -6.194061 -11.853202 13.750842 -1.094319 2.609995 0.001287 -0.003071 -1124820.000000 1 0 0
-3.173090 3.564839 -18.422102 19.030250 -0.843474 2.888103 0.010734 -0.005506 -125006.000000 1 0 0
0.828110 5.164139 -17.763902 18.517837 1.411792 2.855259 0.026402 -0.009468 -848984.000000 1 0 0
6.302310 7.170839 -10.219402 13.984857 0.849773 2.390213 0.003550 -0.002235 23105.300000 1 0 0
9.697510 3.821839 -11.791402 15.738021 0.375414 2.417695 0.015306 -0.001490 -15551.400000 1 0 0
4.660810 1.718539 -17.580302 18.268649 0.353255 2.866209 0.023123 -0.001155 -822096.000000 1 0 0
2.551810 8.118939 -13.264402 15.759862 1.266269 2.571141 0.010541 -0.004801 -357366.000000 1 0 0
14.318710 -3.567061 -9.734702 17.678060 -0.244149 2.153958 0.042638 -0.011556 120123.000000 1 0 0
-1.351590 9.334239 -16.246002 18.785297 -1.426997 2.615599 0.021592 -0.005840 -211268.000000 1 0 0
-5.208090 2.055539 -15.818002 16.779708 -0.375914 2.801388 0.015619 -0.008703 486759.000000 1 0 0
4.613910 4.264139 -11.897902 13.454780 0.746021 2.655763 0.003257 -0.002292 257666.000000 1 0 0
9.194710 3.219539 -17.748102 20.246067 0.336810 2.639588 0.053132 -0.006219 800691.000000 1 0 0
-4.576390 14.216839 -13.426402 20.083081 -1.259372 2.303044 0.027618 -0.000550 -86528.400000 1 0 0
15.526410 -4.879161 -7.948802 18.112401 -0.304478 2.025125 0.048516 -0.015072 98297.700000 1 0 0
1.213610 9.447839 -16.733602 19.254816 1.443042 2.624097 0.018347 -0.002308 177990.000000 1 0 0
0.506610 -3.196461 -12.816102 13.218414 -1.413613 2.894241 0.005874 -0.003432 35655.500000 1 0 0
7.472010 3.626739 -13.096702 15.508313 0.451881 2.576419 0.008253 -0.000591 1110750.000000 1 0 0
-2.930490 7.580839 -15.102102 17.150229 -1.201925 2.647875 0.015442 -0.008674 321370.000000 1 0 0
12.156010 -5.105661 -10.999702 17.170608 -0.397638 2.266092 0.040376 -0.013177 -970081.000000 1 0 0
0.739410 -4.495461 -20.034802 20.546269 -1.407777 2.917997 0.048736 -0.019372 -116967.000000 1 0 0
3.397610 -4.501161 -16.074902 17.035453 -0.924211 2.804181 0.025975 -0.013890 64394.900000 1 0 0
-5.792690 4.222239 -14.396902 16.082703 -0.629854 2.679629 0.006758 -0.005291 643709.000000 1 0 0
12.178110 -7.498761 -9.812402 17.344192 -0.551925 2.172134 0.025932 -0.009476 312164.000000 1 0 0
-2.148790 -1.772961 -14.992302 15.248928 0.689858 2.957873 0.016171 -0.005218 814357.000000 1 0 0
7.046210 5.927439 -14.233702 16.952341 0.699377 2.567399 0.020563 -0.001207 -482975.000000 1 0 0
4.313610 -5.509961 -18.228002 19.525034 -0.906585 2.775047 0.047055 -0.024089 229114.000000 1 0 0
7.612610 7.506039 -12.339102 16.326233 0.778349 2.427646 0.015710 -0.007836 -274955.000000 1 0 0
12.407610 -2.500961 -11.061602 16.809599 -0.198902 2.289026 0.030979 -0.006029 -1996210.000000 1 0 0
7.477110 -0.679661 -10.603202 12.992190 -0.090650 2.525463 0.000186 -0.002653 -3407800.000000 1 0 0
5.329110 4.069239 -14.473402 15.951097 0.652140 2.707759 0.008428 -0.000382 118822.000000 1 0 0
14.780710 2.933639 -12.861802 19.811653 0.195931 2.277334 0.058513 -0.019987 -43723.800000 1 0 0
-6.770490 6.457839 -15.833802 18.391642 -0.761768 2.607879 0.014925 -0.005363 320819.000000 1 0 0
-10.947690 3.822339 -16.688602 20.321703 -0.335914 2.534343 0.027188 -0.019360 -246153.000000 1 0 0
-5.124090 6.623939 -17.846702 19.713894 -0.912379 2.702848 0.014742 0.001282 37825.700000 1 0 0
-9.958090 1.574239 -15.865502 18.797764 -0.156789 2.575513 0.030258 -0.009875 61358.900000 1 0 0
-7.678490 5.711839 -18.204502 20.566677 -0.639570 2.657603 0.020221 0.002068 1106870.000000 1 0 0
-8.695390 3.738039 -15.498002 18.159592 -0.406003 2.593334 0.014298 -0.006439 -2341260.000000 1 0 0
9.038510 13.361639 -12.081602 20.154235 0.976050 2.213619 0.091566 -0.031063 -386597.000000 1 0 0
13.565910 8.897039 -11.500202 19.885821 0.580468 2.187454 0.058902 -0.021849 107983.000000 1 0 0
8.222910 15.881339 -9.145802 20.086784 1.093033 2.043522 0.050676 -0.016136 -387642.000000 1 0 0
7.169310 13.718539 -13.899602 20.803756 1.089233 2.302488 0.071692 -0.016592 137737.000000 1 0 0
4.846110 15.866639 -12.656202 20.866587 1.274368 2.222485 0.055745 -0.022141 200976.000000 1 0 0
11.151210 10.898539 -11.286202 19.248532 0.773940 2.197331 0.094231 -0.032987 -969403.000000 1 0 0
15.772910 9.436139 -10.179602 21.010705 0.539132 2.076583 0.097149 -0.012134 -383517.000000 1 0 0
13.568510 10.739539 -9.622902 19.800061 0.669539 2.078308 0.112060 -0.023518 -355798.000000 1 0 0
10.382510 12.041139 -8.314002 17.941800 0.859232 2.052610 0.047413 -0.006946 258138.000000 1 0 0
5.357710 16.117139 -10.031202 19.725421 1.249865 2.104287 0.042960 -0.017831 -422924.000000 1 0 0
6.803710 14.561439 -11.482202 19.752644 1.133697 2.191121 0.053995 -0.015656 -485596.000000 1 0 0
10.715110 14.196639 -9.881302 20.346948 0.924253 2.077892 0.080207 -0.011095 -824205.000000 1 0 0
8.223610 -18.530561 -1.296502 20.314782 -1.153122 1.634660 0.058860 -0.009590 96750.000000 1 0 0
7.428310 -17.361861 -3.363802 19.181480 -1.166512 1.747075 0.044580 -0.009794 453925.000000 1 0 0
4.791910 -17.861561 5.507498 19.295862 -1.308688 1.281348 0.048129 -0.019256 427722.000000 1 0 0
9.932110 -16.985861 -2.501402 19.834901 -1.041682 1.697244 0.052362 -0.009511 -188884.000000 1 0 0
-9.759090 -12.235361 -9.918502 18.528911 0.897512 2.135658 0.030569 -0.009581 -101873.000000 1 0 0
-5.189590 -7.023661 -12.143302 14.957387 0.934455 2.518127 0.008575 -0.001194 445052.000000 1 0 0
-10.854690 -9.442161 -5.590102 15.434634 0.715917 1.941401 0.016954 -0.007048 -1392090.000000 1 0 0
-4.538890 -11.619561 -14.087902 18.817138 1.198398 2.416856 0.009543 0.000383 618267.000000 1 0 0
-3.080090 -15.483161 7.427698 17.446659 1.374428 1.131019 0.023639 -0.001643 361046.000000 1 0 0
-4.904690 -12.060361 -11.551802 17.405528 1.184546 2.296532 0.009323 -0.002357 194753.000000 1 0 0
-14.307090 -12.841161 -4.161702 19.669976 0.731453 1.783984 0.041197 -0.015593 -558753.000000 1 0 0
-3.086290 -12.301761 -3.366702 13.122240 1.324988 1.830262 0.011089 -0.001390 581740.000000 1 0 0
-2.569390 -17.429561 -1.514702 17.682920 1.424435 1.656560 0.008454 -0.006906 -1502730.000000 1 0 0
-5.862290 -12.212761 3.629998 14.024794 1.123265 1.308988 0.004032 -0.000492 692633.000000 1 0 0
-8.839690 -10.803661 -11.884602 18.333111 0.885048 2.276092 0.015133 -0.003534 1279860.000000 1 0 0
-9.737390 -11.752861 -7.421402 16.971261 0.878910 2.023382 0.029308 -0.019845 -15230.700000 1 0 0
-10.938490 -14.957861 6.218498 19.546301 0.939379 1.247027 0.035904 -0.012364 38513.600000 1 0 0
-9.513590 -15.718561 0.586898 18.382763 1.026529 1.538864 0.027495 -0.002072 -2174890.000000 1 0 0
-14.813190 -7.781761 -8.235702 18.649750 0.483703 2.028176 0.029210 -0.006420 -169012.000000 1 0 0
-2.340390 -16.453861 5.193898 17.412166 1.429505 1.267894 0.033341 -0.012295 -335873.000000 1 0 0
4.654010 -15.551561 6.677198 17.552659 -1.280016 1.180557 0.033348 -0.007415 -494983.000000 1 0 0
4.126710 -14.612161 -10.015202 18.189262 -1.295549 2.153892 0.011822 -0.004017 -191159.000000 1 0 0
-7.559690 -14.056161 -0.269002 15.962359 1.077352 1.587649 0.009108 -0.000648 993548.000000 1 0 0
3.164610 -14.911361 9.826598 18.136303 -1.361671 0.998196 0.027250 -0.005917 -554483.000000 1 0 0
2.682010 -17.275061 10.556198 20.421905 -1.416773 1.027564 0.049741 -0.009216 113816.000000 1 0 0
-8.252290 -17.035661 -5.833802 19.807757 1.119696 1.869751 0.046727 -0.017157 207790.000000 1 0 0
-6.491390 -9.183261 -7.678502 13.617261 0.955473 2.169873 0.018082 -0.008859 333698.000000 1 0 0
-6.029790 -13.094861 -4.782202 15.188917 1.139270 1.891093 0.009426 -0.011930 532564.000000 1 0 0
2.258810 -19.494261 -4.768902 20.195812 -1.455440 1.809181 0.024753 -0.013409 98144.700000 1 0 0
-5.509390 -12.842361 8.385598 16.297173 1.165541 1.030322 0.010625 -0.001374 1481010.000000 1 0 0
2.153710 -17.364561 3.586198 17.861334 -1.447397 1.368642 0.025761 -0.013698 82357.600000 1 0 0
-17.688790 -9.789861 -2.572102 20.380146 0.505488 1.697340 0.035334 -0.016441 583278.000000 1 0 0
-3.586690 -15.422261 2.561998 16.039772 1.342292 1.410381 0.017172 -0.005113 149972.000000 1 0 0
-10.189390 -10.330361 -14.137502 20.258553 0.792268 2.343193 0.032802 -0.009265 -107661.000000 1 0 0
6.020710 -14.574361 -5.572702 16.724710 -1.179046 1.910494 0.005697 -0.008678 519939.000000 1 0 0
-7.292590 -12.393961 -10.640902 17.889128 1.038951 2.207844 0.014980 -0.009493 -1483550.000000 1 0 0
-7.183690 -14.356661 3.956398 16.533971 1.106850 1.329163 0.007187 0.000868 1177070.000000 1 0 0
3.299410 -15.029061 -3.066302 15.689518 -1.354689 1.767499 0.012343 -0.004922 -545696.000000 1 0 0
-7.543690 -11.318061 7.718798 15.639233 0.982897 1.054625 0.004129 -0.006537 -1809520.000000 1 0 0
-12.848090 -12.412461 -1.124002 17.899887 0.768154 1.633631 0.023950 0.001195 -2934150.000000 1 0 0
-1.958490 -13.627561 3.987598 14.333423 1.428058 1.288874 0.018776 -0.001089 -2520080.000000 1 0 0
-3.255990 -13.953261 5.281098 15.270394 1.341549 1.217663 0.014560 -0.001148 440419.000000 1 0 0
-14.549690 -10.219061 -4.395402 18.315082 0.612305 1.813150 0.027260 -0.007894 796520.000000 1 0 0
-6.169590 -8.599161 -10.277802 14.752715 0.948445 2.341544 0.006539 -0.005080 172079.000000 1 0 0
0.682010 -19.370661 2.494298 19.542496 -1.535602 1.442813 0.036171 -0.019997 266719.000000 1 0 0
6.327210 -14.141161 -8.180002 17.519088 -1.150080 2.056600 0.017119 -0.003644 -2949250.000000 1 0 0
-3.892190 -16.828761 -5.854402 18.238156 1.343511 1.897579 0.014472 -0.008130 -322146.000000 1 0 0
-3.717690 -13.820961 -13.117802 19.414347 1.308027 2.312677 0.012183 -0.000519 -582067.000000 1 0 0
-8.222190 -14.633661 -4.531102 17.386181 1.058887 1.834456 0.024512 -0.017435 -362593.000000 1 0 0
-4.707490 -14.319361 10.372298 18.297243 1.253176 0.968086 0.024473 0.002114 -121066.000000 1 0 0
-0.384290 -12.308161 -9.920502 15.813123 1.539584 2.248953 0.002056 0.000087 122350.000000 1 0 0
2.504210 -17.127761 6.637698 18.538886 -1.425617 1.204626 0.031899 -0.017024 -2072970.000000 1 0 0
-2.792590 -19.262361 -3.368702 19.753107 1.426823 1.742174 0.021944 -0.007919 -1230670.000000 1 0 0
0.681810 -15.396761 -3.069802 15.714604 -1.526543 1.767408 0.005564 -0.002807 -1306960.000000 1 0 0
5.980710 -17.978561 0.638098 18.957972 -1.249654 1.537131 0.032523 -0.010396 -56559.800000 1 0 0
-7.126190 -16.726061 3.925798 18.599881 1.168034 1.358131 0.016959 -0.000811 669290.000000 1 0 0
-5.361990 -13.523961 -9.488602 17.368995 1.193327 2.148731 0.010050 -0.009864 -164680.000000 1 0 0
5.716010 -15.164961 -2.099702 16.341896 -1.210341 1.699638 0.022682 -0.007417 -857349.000000 1 0 0
-8.883690 -10.228361 -0.558802 13.559187 0.855640 1.612020 0.006507 0.000368 -865453.000000 1 0 0
-7.394690 -18.133161 -2.936902 19.801978 1.183585 1.719659 0.032371 -0.020162 -507522.000000 1 0 0
7.878210 -15.986661 -1.168102 17.860682 -1.112926 1.636244 0.023523 -0.006711 -696388.000000 1 0 0
-8.109390 -10.148761 -9.509502 16.099384 0.896634 2.202691 0.017271 -0.006641 -360651.000000 1 0 0
-9.135690 -14.855161 -6.960802 18.777363 1.019432 1.950561 0.043969 -0.024189 -608008.000000 1 0 0
-11.514590 -10.575561 -11.921302 19.660765 0.742915 2.222259 0.043883 -0.000940 725880.000000 1 0 0
6.702210 -16.285761 2.493298 17.786572 -1.180383 1.430154 0.030755 -0.011507 697197.000000 1 0 0
-2.192790 -11.162761 -6.080402 12.899102 1.376828 2.061653 0.008779 -0.001852 -203380.000000 1 0 0
-12.298190 -15.346161 -3.324202 19.944935 0.895211 1.738247 0.039658 -0.015840 -168301.000000 1 0 0
-0.244590 -19.740961 -2.873702 19.950526 1.558407 1.715341 0.031312 -0.011106 -686833.000000 1 0 0
-5.886990 -15.676961 -4.715502 17.397117 1.211571 1.845281 0.013239 -0.010688 -1374180.000000 1 0 0
1.959210 -16.018861 -1.008402 16.169702 -1.449094 1.633200 0.019413 -0.006374 1484430.000000 1 0 0
-13.029190 -11.901861 5.358898 18.442664 0.740211 1.275973 0.018105 -0.002988 489424.000000 1 0 0
2.029110 -15.368461 -8.877802 17.863992 -1.439525 2.090896 0.013649 0.001548 -2196040.000000 1 0 0
-11.803490 -16.684761 0.190898 20.438690 0.955094 1.561456 0.065572 -0.017074 390622.000000 1 0 0
-7.568690 -16.603761 -0.950902 18.272223 1.143095 1.622861 0.028703 -0.011025 351675.000000 1 0 0
-2.933690 -14.478261 -1.785302 14.879982 1.370876 1.691066 0.008063 -0.001073 550016.000000 1 0 0
-1.822390 -10.501961 -13.158502 16.933943 1.398979 2.460760 0.003490 0.000337 503942.000000 1 0 0
1.686610 -19.476361 4.940298 20.163825 -1.484414 1.323268 0.053765 -0.022028 -318966.000000 1 0 0
-17.492390 -9.383261 2.420298 19.997178 0.492357 1.449467 0.035109 -0.010792 -81073.700000 1 0 0
-2.754690 -15.661361 -7.934002 17.771182 1.396686 2.033594 0.008534 -0.008281 -2134600.000000 1 0 0
-10.535890 -12.129261 0.187098 16.067325 0.855583 1.559151 0.012497 -0.000327 543359.000000 1 0 0
-6.886690 -11.456161 -6.498102 14.862551 1.029543 2.023294 0.012911 -0.009038 461613.000000 1 0 0
-2.131490 -13.670261 -6.698602 15.371745 1.416120 2.021694 0.005721 -0.002343 421418.000000 1 0 0
-14.343390 -14.503161 -1.098802 20.427478 0.790937 1.624613 0.048066 -0.003356 54316.900000 1 0 0
-9.595290 -11.227461 -4.388502 15.407284 0.863622 1.859628 0.020576 -0.009658 1962880.000000 1 0 0
9.499510 -15.153061 -5.054802 18.585127 -1.010829 1.846247 0.031388 -0.004320 269470.000000 1 0 0
-5.594790 -10.877361 -9.389402 15.420101 1.095733 2.225478 0.010153 -0.007802 -573945.000000 1 0 0
-10.453990 -15.955061 -4.999802 19.719226 0.990764 1.827144 0.054513 -0.015505 -2270130.000000 1 0 0
2.216910 -17.420061 -3.178302 17.845862 -1.444215 1.749849 0.016727 -0.007281 657021.000000 1 0 0
-0.336790 -14.586061 -8.169002 16.721219 1.547711 2.081213 0.008818 -0.000774 -1297620.000000 1 0 0
-0.680290 -18.336161 -7.101902 19.675228 1.533712 1.940090 0.020049 -0.008433 120401.000000 1 0 0
-1.886190 -10.210461 -10.599402 14.837740 1.388125 2.366497 0.001253 0.001107 266552.000000 1 0 0
-5.170090 -17.313861 1.992298 18.178802 1.280615 1.460981 0.020850 -0.006974 1971080.000000 1 0 0
0.255110 -12.780961 -2.582002 13.041655 -1.550839 1.770094 0.007496 -0.000203 -2354930.000000 1 0 0
2.535610 -14.929761 3.051798 15.447995 -1.402566 1.371935 0.022468 -0.004437 -1215090.000000 1 0 0
-9.423690 -13.032861 6.922098 17.509335 0.944753 1.164361 0.008966 -0.002327 -315801.000000 1 0 0
-1.045190 -17.978161 -4.584302 18.582855 1.512725 1.820065 0.015669 -0.008014 -174259.000000 1 0 0
-9.723590 -17.357961 -2.278502 20.025947 1.060171 1.684821 0.054765 -0.025624 -467833.000000 1 0 0
1.427110 -16.460861 1.390098 16.580981 -1.484315 1.486861 0.016514 -0.010832 -205640.000000 1 0 0
-0.303890 -18.037461 4.409698 18.571154 1.553950 1.331058 0.041017 -0.015667 -674797.000000 1 0 0
-17.436190 -9.249961 -0.101602 19.738105 0.487752 1.575944 0.013338 -0.004099 1079000.000000 1 0 0
-14.777090 -7.073761 -10.695902 19.565346 0.446461 2.149185 0.057442 -0.014297 699737.000000 1 0 0
2.730010 -12.773561 -8.820602 15.761339 -1.360241 2.164742 -0.002503 0.001473 574981.000000 1 0 0
-11.645490 -14.664161 1.835598 18.815538 0.899635 1.473083 0.030451 -0.003079 256427.000000 1 0 0
-2.409690 -15.550761 10.515898 18.926618 1.417063 0.981695 0.027948 -0.004323 546331.000000 1 0 0
-7.197090 -15.806661 1.480898 17.431055 1.143527 1.485736 0.018496 -0.005565 -608542.000000 1 0 0
-12.646390 -15.049561 -5.853002 20.510438 0.871951 1.860186 0.054087 -0.018571 -499472.000000 1 0 0
0.932010 -13.740961 -4.978402 14.644696 -1.503073 1.917655 0.007109 0.001988 476245.000000 1 0 0
5.965910 -16.445661 -7.294902 18.954351 -1.222795 1.965860 0.038048 -0.016777 -24584.600000 1 0 0
-6.473890 -12.837761 5.864298 15.527696 1.103727 1.183521 0.006851 -0.000747 791574.000000 1 0 0
-2.560690 -13.616861 0.593698 13.868255 1.384914 1.527973 0.012072 -0.003154 2692390.000000 1 0 0
-4.318790 -15.520661 0.116198 16.110753 1.299401 1.563584 0.008260 -0.005663 505354.000000 1 0 0
-17.727790 -7.346761 -1.919802 19.285618 0.392876 1.670507 0.011980 -0.005381 600633.000000 1 0 0
1.237210 -12.760661 -11.837902 17.449959 -1.474143 2.316367 0.005932 -0.000300 414589.000000 1 0 0
1.278910 -17.210361 -5.666702 18.164350 -1.496622 1.888060 0.019368 -0.006903 -47236.300000 1 0 0
-12.816490 -6.303461 -9.104602 16.937821 0.457086 2.138303 0.029037 -0.005102 1161360.000000 1 0 0
-11.516690 -13.462361 -8.490002 19.645595 0.863133 2.017681 0.043078 -0.022106 564916.000000 1 0 0
-4.306990 -9.924761 3.489798 11.367925 1.161358 1.258771 0.009641 0.000008 -4919480.000000 1 0 0
-7.285590 -14.085361 9.790798 18.636977 1.093448 1.017679 0.020759 -0.007710 -292659.000000 1 0 0
-5.309890 -15.817861 -7.949302 18.482182 1.246927 2.015407 0.011609 -0.018847 -512739.000000 1 0 0
-0.239690 -13.452661 2.199498 13.633390 1.552981 1.408756 0.017070 -0.005225 1037210.000000 1 0 0
-11.127390 -13.393361 -4.741602 18.046709 0.877547 1.836658 0.044399 -0.013999 -1121040.000000 1 0 0
-9.681790 -10.500061 6.645998 15.753019 0.825921 1.135270 0.015178 0.000216 -426209.000000 1 0 0
-15.545090 -7.990261 -4.947802 18.165209 0.474789 1.846660 0.026034 -0.006629 -958713.000000 1 0 0
-14.637890 -7.258761 5.375898 17.200514 0.460353 1.252927 0.028146 -0.006727 484640.000000 1 0 0
-1.661790 -19.268361 0.054998 19.339966 1.484765 1.567953 0.025676 -0.014111 80606.500000 1 0 0
-15.348790 -12.147161 -1.455402 19.627966 0.669480 1.645014 0.028466 -0.000371 532289.000000 1 0 0
-4.374190 -12.240461 -6.835402 14.686222 1.227584 2.054916 0.008426 -0.005747 -295646.000000 1 0 0
-7.575090 -18.359761 1.986198 19.960155 1.179482 1.471123 0.030928 -0.006213 267825.000000 1 0 0
-2.467990 -11.860361 -8.573902 14.841527 1.365637 2.186700 0.003498 -0.001525 -144886.000000 1 0 0
-1.286390 -20.581461 -5.039802 21.228540 1.508375 1.810492 0.037554 -0.005696 -346380.000000 1 0 0
-5.383190 -9.082561 -13.805902 17.380292 1.035765 2.488720 0.009869 -0.003557 334007.000000 1 0 0
-8.561190 -19.060361 -0.778702 20.909273 1.148640 1.608047 0.040735 -0.005626 472838.000000 1 0 0
-17.207890 -7.279161 5.529298 19.485143 0.400186 1.283073 0.049542 -0.014805 -439233.000000 1 0 0
-3.591790 -14.739561 -4.234902 15.750873 1.331771 1.843014 0.007362 -0.004728 -2145240.000000 1 0 0
-3.110790 -14.921861 -10.828002 18.697180 1.365268 2.188451 0.016584 -0.007521 5036.590000 1 0 0
-0.041690 -16.479161 6.431598 17.689826 1.568266 1.198692 0.042890 -0.017352 -238708.000000 1 0 0
-11.205490 -11.523361 3.641398 16.480613 0.799383 1.348007 0.014918 0.001093 223310.000000 1 0 0
-0.189190 -14.765161 -0.061802 14.766502 1.557984 1.574982 0.009420 -0.003775 1464290.000000 1 0 0
-7.331190 -9.467161 -2.481302 12.228259 0.911873 1.775131 0.011757 -0.002438 -156819.000000 1 0 0
-11.228290 -14.379461 -0.767402 18.260128 0.907838 1.612835 0.038961 -0.010443 265913.000000 1 0 0
0.215910 -14.778161 -10.619402 18.199240 -1.556187 2.193838 0.008633 0.000448 -225453.000000 1 0 0
-1.390890 -14.137261 -3.876302 14.724891 1.472727 1.837184 0.005756 0.001173 -4049530.000000 1 0 0
-11.528490 -8.109061 -7.662802 16.043113 0.613000 2.068761 0.020699 -0.006325 620292.000000 1 0 0
-0.291790 -17.283661 -0.215202 17.287463 1.553916 1.583245 0.016395 -0.010937 -101379.000000 1 0 0
-12.914590 -9.430661 4.592898 16.637869 0.630730 1.291113 0.016881 -0.001906 -543430.000000 1 0 0
4.084810 -16.878161 1.873998 17.466249 -1.333345 1.463297 0.027103 -0.012099 1924680.000000 1 0 0
-3.854090 -17.886061 -8.159502 20.033538 1.358561 1.990283 0.035709 -0.018811 67348.600000 1 0 0
-13.452190 -11.263261 2.769398 17.762095 0.697063 1.414241 0.017220 0.000933 1256040.000000 1 0 0
-8.599790 -12.219661 4.114898 15.498673 0.957547 1.302074 0.011553 -0.000729 2891420.000000 1 0 0
-8.288690 -9.387961 -5.877702 13.834144 0.847506 2.009614 0.019071 -0.010103 128889.000000 1 0 0
3.840210 -17.504261 -5.227102 18.667323 -1.354831 1.854604 0.014396 -0.002351 -335372.000000 1 0 0
-2.592090 -13.018061 11.282098 17.420522 1.374252 0.866323 0.010703 -0.002871 676710.000000 1 0 0
0.094410 -16.937061 -9.458502 19.399386 -1.565222 2.080097 0.022150 -0.001208 -145108.000000 1 0 0
-7.099490 -10.848761 -14.646202 19.560408 0.991330 2.416997 0.013456 0.007061 70061.300000 1 0 0
-4.514890 -19.074361 -1.535202 19.661442 1.338375 1.648958 0.029682 -0.010768 -534076.000000 1 0 0
-2.578790 -17.146261 1.119698 17.375216 1.421516 1.506309 0.023005 -0.015775 -215629.000000 1 0 0
3.995210 -14.683261 -7.394302 16.918497 -1.305135 2.023117 0.012098 -0.002665 31421.500000 1 0 0
-0.954690 -15.936061 -6.102602 17.091261 1.510960 1.935915 0.011626 -0.002602 -421750.000000 1 0 0
-9.544490 -15.149561 8.447898 19.798319 1.008597 1.129958 0.018966 -0.005544 -501797.000000 1 0 0
-7.298890 -12.035661 -1.748202 14.184045 1.025656 1.694362 0.008906 -0.003822 1410920.000000 1 0 0
-7.386990 -15.170061 -9.345902 19.288448 1.117647 2.076626 0.025403 -0.014798 -659626.000000 1 0 0
-5.056790 -13.191761 -0.666102 14.143456 1.204743 1.617910 0.010495 -0.002340 2862300.000000 1 0 0
-6.432890 -13.756261 -7.271002 16.836990 1.133375 2.017336 0.011292 -0.015301 118345.000000 1 0 0
5.775910 -15.434561 0.309598 16.482799 -1.212710 1.552012 0.023802 -0.006057 746232.000000 1 0 0
-14.467790 -12.761061 0.943698 19.314558 0.722799 1.521917 0.015082 -0.002130 949479.000000 1 0 0
1.061010 -15.409661 11.270698 19.120984 -1.502051 0.940429 0.028146 -0.002187 160209.000000 1 0 0
-9.311990 -10.815361 1.924098 14.400949 0.859953 1.436786 0.007565 0.002733 645989.000000 1 0 0
-9.548890 -8.798861 -3.521802 13.453785 0.744542 1.835652 0.014084 -0.006466 -146847.000000 1 0 0
-12.262890 -7.246761 -12.265502 18.797248 0.533739 2.281696 0.047540 -0.008606 -1069340.000000 1 0 0
-13.265490 -8.385461 -0.747302 15.711385 0.563707 1.618379 0.005979 -0.003276 1717140.000000 1 0 0
-11.259290 -9.685961 0.415498 14.858064 0.710423 1.542828 0.002841 0.002046 840947.000000 1 0 0
-16.035390 -12.150561 2.896998 20.326398 0.648433 1.427785 0.047964 -0.003215 503662.000000 1 0 0
-10.585490 -12.614561 -2.353502 16.634864 0.872636 1.712753 0.033614 -0.010869 788846.000000 1 0 0
-3.399790 -8.848461 -12.022602 15.310022 1.203964 2.473939 0.005659 -0.000306 620909.000000 1 0 0
-0.293890 -15.553561 3.924798 16.043804 1.551903 1.323658 0.029223 -0.009585 -684927.000000 1 0 0
-15.667390 -7.755061 1.189398 17.522064 0.459624 1.502864 0.001305 -0.000344 888948.000000 1 0 0
-6.274690 -13.510161 -13.344002 19.998964 1.135997 2.301286 0.015602 -0.001871 1449680.000000 1 0 0
-15.446790 -10.370661 1.132098 18.639623 0.591258 1.510023 0.015917 -0.000087 344832.000000 1 0 0
-10.019590 -8.478161 -12.387602 18.047827 0.702260 2.327291 0.021845 -0.006715 236862.000000 1 0 0
-13.495590 -11.640961 -6.247402 18.885786 0.711749 1.907947 0.049179 -0.011178 140694.000000 1 0 0
-12.279490 -11.291661 -3.929102 17.138416 0.743514 1.802111 0.024789 -0.007035 -2377810.000000 1 0 0
-11.767290 -10.906161 -8.901702 18.348126 0.747437 2.077338 0.041586 -0.018096 348860.000000 1 0 0
-13.237790 -8.435861 -5.878702 16.761920 0.567364 1.929134 0.018864 -0.008645 86048.600000 1 0 0
-13.520690 -8.067561 -3.262102 16.079051 0.537977 1.775093 0.011894 -0.006385 844766.000000 1 0 0
-4.410590 -17.134661 -3.241402 17.987678 1.318858 1.751987 0.018835 -0.006504 176364.000000 1 0 0
-15.455590 -8.891861 -1.747502 17.916311 0.522072 1.668489 0.013605 -0.004120 -908170.000000 1 0 0
-9.487090 -15.676761 3.720698 18.697842 1.026585 1.370468 0.021345 -0.003692 -786333.000000 1 0 0
4.602110 -17.709261 8.078298 20.001406 -1.316550 1.155035 0.046129 -0.003615 226100.000000 1 0 0
-8.355690 -15.419361 6.098198 18.567775 1.074196 1.236156 0.009370 0.002525 507640.000000 1 0 0
1.112510 -16.157261 8.676198 18.373110 -1.502050 1.078986 0.023696 -0.007452 330644.000000 1 0 0
-10.966290 -7.858361 -10.122702 16.866607 0.621775 2.214500 0.026390 -0.007451 1105570.000000 1 0 0
-4.850190 -16.055961 5.699898 17.714600 1.277432 1.243206 0.022560 -0.007462 -1945250.000000 1 0 0
-1.364290 -13.457261 -12.073302 18.130741 1.469762 2.299499 0.004794 0.001871 -538785.000000 1 0 0
-6.445390 -14.414561 -2.560002 15.996131 1.150320 1.731526 0.016508 -0.009286 587765.000000 1 0 0
-17.749890 -6.887361 -7.026802 20.294587 0.370139 1.924357 0.048952 -0.017308 199889.000000 1 0 0
-17.310790 -3.826661 -10.254502 20.480761 0.217558 2.095191 0.063576 -0.016935 1103490.000000 1 0 0
-15.424090 -5.339261 -9.063502 18.669689 0.333253 2.077693 0.037172 -0.011181 1247020.000000 1 0 0
-16.067890 -5.275461 -5.722602 17.853731 0.317235 1.897082 0.016322 -0.005815 -310758.000000 1 0 0
-15.269290 -4.440261 -12.467202 20.206391 0.282992 2.235712 0.056008 -0.008401 -737205.000000 1 0 0
-18.630090 -4.933261 -5.555302 20.056886 0.258859 1.851443 0.035692 -0.012765 -513206.000000 1 0 0
-17.552190 -4.466161 -7.808202 19.722930 0.249163 1.977838 0.040851 -0.012427 511258.000000 1 0 0
12.297710 -7.738461 8.749898 16.961078 -0.561657 1.028761 0.040470 -0.010494 301171.000000 1 0 0
16.081110 -3.301861 1.779498 16.512753 -0.202511 1.462822 0.025134 -0.011238 475377.000000 1 0 0
11.966210 -2.033461 12.441298 17.381342 -0.168326 0.773049 0.046620 -0.012164 436829.000000 1 0 0
9.713710 -10.000861 5.282498 14.908996 -0.799963 1.208614 0.008028 -0.008576 282366.000000 1 0 0
17.051410 -1.796761 7.332898 18.648065 -0.104986 1.166659 0.065324 -0.020078 583045.000000 1 0 0
5.199810 -12.824061 9.130698 16.579029 -1.185581 0.987548 0.009501 -0.001073 70890.500000 1 0 0
15.085610 -8.945461 -2.072402 17.660457 -0.535242 1.688414 0.043509 -0.017084 378556.000000 1 0 0
11.152810 -8.512161 6.518498 15.470387 -0.651915 1.135859 0.017253 -0.009805 -2197770.000000 1 0 0
20.051410 -3.019161 3.650398 20.603393 -0.149448 1.392681 0.094701 -0.024096 1067.460000 1 0 0
13.649210 -8.517061 6.677498 17.419249 -0.557877 1.177386 0.033248 -0.009614 464661.000000 1 0 0
8.355610 -10.964461 8.953098 16.437566 -0.919619 0.994797 0.008925 -0.004754 -1862640.000000 1 0 0
16.738210 0.181239 -0.555702 16.748413 0.010827 1.603982 0.019691 -0.004907 -1709450.000000 1 0 0
12.515810 -12.414361 2.303598 17.778313 -0.781329 1.440857 0.024136 -0.012329 -1194330.000000 1 0 0
10.429910 -11.593561 3.650898 16.016327 -0.838186 1.340826 0.011874 -0.011025 -1166560.000000 1 0 0
16.434610 2.938339 2.333198 16.857463 0.176920 1.431943 0.008659 -0.000667 409685.000000 1 0 0
18.381810 -3.208861 0.474998 18.665834 -0.172826 1.545346 0.063989 -0.016693 -18622.100000 1 0 0
13.487710 -11.542461 -0.157002 17.753067 -0.707838 1.579640 0.042849 -0.012000 -623051.000000 1 0 0
16.979310 -7.553861 -0.862202 18.603795 -0.418593 1.617158 0.061620 -0.016326 531198.000000 1 0 0
10.157910 -5.779361 9.835298 15.274726 -0.517277 0.871220 0.018564 -0.006387 -651221.000000 1 0 0
11.527310 -13.301361 5.894498 18.562063 -0.856729 1.247645 0.024686 -0.016216 101699.000000 1 0 0
12.953310 -1.813061 10.080798 16.513568 -0.139065 0.914161 0.038472 -0.010890 782991.000000 1 0 0
15.602310 -2.041061 -1.354402 15.793430 -0.130079 1.656659 0.023343 -0.012045 -90530.900000 1 0 0
10.517810 -12.426061 8.755498 18.484861 -0.868378 1.077357 0.035084 -0.019084 373463.000000 1 0 0
14.463810 1.288939 3.345598 14.901550 0.088880 1.344353 0.012404 -0.005569 823268.000000 1 0 0
14.844310 -5.926161 5.106498 16.779430 -0.379835 1.261560 0.033742 -0.013673 -677088.000000 1 0 0
14.413310 -3.519061 -2.953702 15.127844 -0.239469 1.767308 0.018331 -0.011494 679107.000000 1 0 0
14.136710 0.529539 9.644198 17.121260 0.037441 0.972437 0.043581 -0.008935 773604.000000 1 0 0
15.486410 -3.441361 4.414998 16.467061 -0.218665 1.299365 0.025668 -0.010862 -557444.000000 1 0 0
18.242910 4.606339 -4.392202 19.321324 0.247330 1.800125 0.006534 -0.002482 187306.000000 1 0 0
18.340710 -5.769361 -5.163702 19.908064 -0.304766 1.833174 0.102152 -0.023962 655830.000000 1 0 0
17.397210 0.163839 5.938098 18.383438 0.009417 1.241884 0.056716 -0.011838 867817.000000 1 0 0
17.124510 -6.630061 4.044998 18.803419 -0.369396 1.353981 0.058393 -0.017094 -478067.000000 1 0 0
9.676710 -6.640761 14.313298 18.509698 -0.601446 0.686788 0.040038 -0.010814 -713348.000000 1 0 0
8.640610 -12.404261 5.256998 16.005057 -0.962367 1.236125 0.010169 -0.009506 -650540.000000 1 0 0
16.891010 -10.158161 -0.505102 19.716734 -0.541444 1.596417 0.057204 -0.010908 -130405.000000 1 0 0
15.048010 -8.798161 0.514098 17.438880 -0.529073 1.541312 0.043733 -0.012643 533917.000000 1 0 0
10.076010 -12.909261 1.538898 16.448198 -0.908043 1.477099 0.020309 -0.013699 452607.000000 1 0 0
16.809610 -8.164861 8.850098 20.677335 -0.452163 1.128507 0.062341 -0.017105 411580.000000 1 0 0
18.979410 -0.332961 -1.804402 19.067898 -0.017541 1.665568 0.052082 -0.009928 -566788.000000 1 0 0
13.474010 -1.149561 7.661298 15.542392 -0.085111 1.055343 0.023896 -0.012375 406566.000000 1 0 0
12.828110 -9.738861 -3.071202 16.396283 -0.649351 1.759220 0.029851 -0.010577 -2179970.000000 1 0 0
8.853710 -15.173661 1.470298 17.629235 -1.042603 1.487298 0.026712 -0.012561 99174.500000 1 0 0
11.442810 -8.174861 11.127598 17.932922 -0.620332 0.901401 0.047257 -0.014992 -453468.000000 1 0 0
13.939010 -3.946661 -0.410102 14.492768 -0.275916 1.599097 0.011619 -0.010605 -930588.000000 1 0 0
7.160210 -13.203861 10.925498 18.573558 -1.073898 0.941930 0.015365 0.003549 320821.000000 1 0 0
15.528610 -6.688861 1.843698 17.008169 -0.406726 1.462182 0.035840 -0.013131 1276320.000000 1 0 0
15.840910 -6.043361 -2.452302 17.130979 -0.364460 1.714440 0.063220 -0.017197 76529.100000 1 0 0
11.093310 -8.492561 3.815998 14.482644 -0.653383 1.304160 0.013667 -0.009412 368881.000000 1 0 0
10.692410 -14.516561 -0.391502 18.033620 -0.935948 1.592508 0.039159 -0.015604 617749.000000 1 0 0
13.711910 -12.853861 4.570098 19.342286 -0.753110 1.332266 0.029534 -0.011887 241379.000000 1 0 0
12.946510 -11.049961 6.331598 18.160476 -0.706528 1.214669 0.027372 -0.011861 9525.620000 1 0 0
11.058710 -10.483561 1.384998 15.300926 -0.758706 1.480155 0.015896 -0.008996 352842.000000 1 0 0
13.911710 -7.532561 11.765898 19.715768 -0.496259 0.931319 0.068219 -0.026382 857031.000000 1 0 0
15.342810 -1.928761 -4.833102 16.201260 -0.125055 1.873725 0.031461 -0.011844 -1039120.000000 1 0 0
12.981210 -11.571961 -7.038802 18.760779 -0.728065 1.955395 0.054110 -0.005879 145613.000000 1 0 0
17.732910 -5.269661 1.908198 18.597491 -0.288857 1.468010 0.076455 -0.016624 423058.000000 1 0 0
10.677710 -9.838761 9.091398 17.130915 -0.744529 1.011369 0.027769 -0.009255 -695912.000000 1 0 0
16.430110 1.959739 9.950498 19.308069 0.118716 1.029375 0.076439 -0.011134 1159930.000000 1 0 0
18.221410 3.762139 0.547898 18.613804 0.203607 1.541357 0.006388 0.004238 653744.000000 1 0 0
13.315210 -3.921661 5.613298 14.972754 -0.286426 1.186506 0.025110 -0.012217 -954571.000000 1 0 0
12.233410 -6.156061 6.580098 15.193785 -0.466218 1.122891 0.023819 -0.010443 -305450.000000 1 0 0
16.805910 -10.292361 3.586798 20.030887 -0.549506 1.390762 0.042637 -0.009321 -620605.000000 1 0 0
16.185610 -7.878661 -5.533202 18.832514 -0.453007 1.869008 0.068543 -0.019821 916408.000000 1 0 0
14.073510 -0.354761 5.282898 15.036574 -0.025202 1.211798 0.017701 -0.008825 951173.000000 1 0 0
18.350410 -4.124561 5.295298 19.539441 -0.221092 1.296359 0.069949 -0.017742 63553.200000 1 0 0
13.852410 -13.341561 7.048798 20.483458 -0.766615 1.219493 0.049833 -0.018289 97209.300000 1 0 0
14.963810 -13.519561 -0.783202 20.181862 -0.734737 1.609613 0.047087 -0.009369 470427.000000 1 0 0
17.880310 -5.977161 8.044098 20.497304 -0.322609 1.167506 0.079325 -0.012539 6639.050000 1 0 0
14.252810 3.286639 9.315798 17.341531 0.226634 1.003687 0.033690 -0.012959 -1829610.000000 1 0 0
18.889710 3.770939 2.940298 19.485546 0.197039 1.419321 0.040046 -0.002441 -130839.000000 1 0 0
14.794010 -10.397261 8.163898 19.839733 -0.612604 1.146705 0.033509 -0.017601 -245469.000000 1 0 0
14.675010 -4.769561 10.317498 18.562204 -0.314243 0.981431 0.068498 -0.018376 292275.000000 1 0 0
17.938610 -7.836661 1.830298 19.661053 -0.411873 1.477569 0.097150 -0.021232 44638.300000 1 0 0
18.483210 -5.887161 -2.023302 19.503371 -0.308354 1.674724 0.076312 -0.020353 -260385.000000 1 0 0
14.389910 -12.926561 -5.305602 20.057789 -0.731879 1.838498 0.074430 -0.008741 -1041170.000000 1 0 0
15.434210 -1.573061 9.416998 18.148532 -0.101570 1.025250 0.079970 -0.015193 -132412.000000 1 0 0
13.030010 -9.841461 10.137598 19.219948 -0.646879 1.015198 0.038050 -0.023170 -2180540.000000 1 0 0
16.476710 2.131339 4.827598 17.301165 0.128640 1.288009 0.027257 -0.006474 -881118.000000 1 0 0
14.810710 2.428239 -0.012602 15.008453 0.162506 1.571636 0.001513 0.001991 -1106010.000000 1 0 0
14.971910 -9.771861 -6.930102 19.174819 -0.578257 1.940583 0.066323 -0.016326 811670.000000 1 0 0
16.149810 -0.078961 -3.149302 16.454200 -0.004889 1.763383 0.025529 -0.007685 -155344.000000 1 0 0
11.686710 2.470839 13.689498 18.168286 0.208355 0.717452 0.037343 -0.000184 -192648.000000 1 0 0
17.751910 -2.974161 9.567198 20.383995 -0.165999 1.082243 0.081697 -0.019282 712416.000000 1 0 0
7.990710 -18.203161 4.513198 20.385668 -1.157150 1.347556 0.052155 -0.022058 -47178.700000 1 0 0
6.858510 -11.307361 6.742398 14.844376 -1.025573 1.099316 0.008239 -0.006681 269764.000000 1 0 0
18.035610 2.175239 -1.505802 18.228613 0.120028 1.653497 0.019811 0.000289 484608.000000 1 0 0
17.637210 -2.164561 3.595098 18.129568 -0.122116 1.371173 0.030945 -0.010659 8192.230000 1 0 0
12.615610 -13.353861 -1.906602 18.469281 -0.813818 1.674212 0.039046 -0.007903 -1211910.000000 1 0 0
15.234010 -8.296661 4.214498 17.851377 -0.498699 1.332458 0.032594 -0.007605 -838341.000000 1 0 0
11.867910 -3.191161 14.760698 19.207005 -0.262677 0.694293 0.080944 -0.019246 364081.000000 1 0 0
12.115010 -13.841561 -6.245902 19.426105 -0.851817 1.898132 0.038523 -0.007835 -96570.100000 1 0 0
10.697010 -11.972461 -1.276802 16.105777 -0.841602 1.650156 0.025529 -0.011318 -1410830.000000 1 0 0
13.237010 -7.910861 2.236798 15.582151 -0.538676 1.426750 0.021374 -0.008035 -1293.210000 1 0 0
8.685610 -7.873061 10.022798 15.423404 -0.736367 0.863418 0.006278 -0.004921 -1542890.000000 1 0 0
15.765210 -3.773661 8.082798 18.113917 -0.234946 1.108259 0.069274 -0.019349 -724880.000000 1 0 0
10.250810 -17.184461 5.522798 20.757796 -1.032942 1.301494 0.041781 -0.021968 -667319.000000 1 0 0
15.226110 -6.338661 8.273598 18.451707 -0.394480 1.105831 0.058015 -0.010279 -1318120.000000 1 0 0
16.612910 -4.944161 -0.327202 17.336106 -0.289262 1.589671 0.044835 -0.014262 -432946.000000 1 0 0
14.253810 -10.604961 3.317098 18.073169 -0.639656 1.386213 0.033178 -0.010265 91050.400000 1 0 0
14.934810 -9.889461 -4.462702 18.459840 -0.584887 1.814967 0.067290 -0.022336 370918.000000 1 0 0
13.640910 -6.602561 -0.068502 15.154964 -0.450787 1.575316 0.026800 -0.009461 364298.000000 1 0 0
17.749110 -0.927461 -4.854102 18.424261 -0.052206 1.837406 0.056908 -0.017638 -252740.000000 1 0 0
14.398710 0.223039 -1.540502 14.482602 0.015489 1.677367 0.011971 -0.003342 -1973100.000000 1 0 0
4.764410 -12.794761 11.727898 17.998586 -1.214332 0.861103 -0.001538 0.000147 -1022870.000000 1 0 0
11.936210 -7.658661 13.594598 19.645389 -0.570470 0.806541 0.053511 -0.017527 1154400.000000 1 0 0
11.930710 -5.767861 11.763998 17.720094 -0.450317 0.844802 0.040217 -0.010043 229680.000000 1 0 0
13.302310 -4.458261 8.244498 16.272655 -0.323384 1.039505 0.042450 -0.013423 3069.750000 1 0 0
15.433210 -1.118261 3.116398 15.784373 -0.072332 1.372055 0.017427 -0.006635 140625.000000 1 0 0
15.360610 -10.327861 5.750298 19.382440 -0.591934 1.269587 0.040668 -0.013867 -137029.000000 1 0 0
13.565010 -7.952161 -5.787202 16.755240 -0.530230 1.923458 0.047042 -0.015523 -1919020.000000 1 0 0
9.613810 -2.088761 13.627698 16.807809 -0.213942 0.625286 0.023639 -0.008228 523389.000000 1 0 0
9.693310 -9.216061 13.657198 19.115834 -0.760165 0.774967 0.050941 -0.009935 -356765.000000 1 0 0
20.135910 6.124439 -3.389302 21.317857 0.295264 1.730463 0.065097 -0.004644 447893.000000 1 0 0
11.184410 -3.619261 10.531498 15.782983 -0.312964 0.840260 0.022017 -0.004702 882137.000000 1 0 0
10.395110 -13.939461 -3.006302 17.646663 -0.930032 1.741992 0.032232 -0.008899 1397460.000000 1 0 0
14.947910 -12.895061 2.276798 19.872253 -0.711802 1.455972 0.030496 -0.004478 -384094.000000 1 0 0
11.641410 -0.654361 14.552598 18.647486 -0.056151 0.675482 0.069675 -0.002604 -3590.080000 1 0 0
19.154310 -1.765161 5.738898 20.073324 -0.091895 1.280854 0.089176 -0.022478 782382.000000 1 0 0
19.158610 -0.251961 7.834598 20.700164 -0.013151 1.182643 0.102934 -0.020029 278187.000000 1 0 0
18.936910 0.826539 0.609798 18.964746 0.043619 1.538636 0.039874 -0.007462 323820.000000 1 0 0
18.427910 0.775439 3.687298 18.809183 0.042055 1.373481 0.027545 -0.011219 -193188.000000 1 0 0
16.714910 -3.963161 -4.073302 17.654650 -0.232804 1.803615 0.058318 -0.019183 -692898.000000 1 0 0
10.894510 -8.327961 15.798098 20.919493 -0.652665 0.714859 0.077462 -0.016927 509229.000000 1 0 0
16.525610 -7.479461 6.358098 19.221435 -0.425012 1.233665 0.050449 -0.012184 299985.000000 1 0 0
18.862010 2.372739 5.792698 19.873618 0.125137 1.275026 0.052868 -0.012089 165728.000000 1 0 0
15.379510 1.795239 7.673798 17.281187 0.116203 1.110677 0.051535 -0.014705 207752.000000 1 0 0
8.848310 -15.775461 3.928898 18.509295 -1.059630 1.356903 0.025757 -0.017128 425004.000000 1 0 0
11.394510 -15.057261 2.077598 18.996641 -0.922992 1.461211 0.033475 -0.012902 -805712.000000 1 0 0
8.032310 -16.081361 6.221798 19.022065 -1.107565 1.237581 0.025876 -0.015558 -458629.000000 1 0 0
14.510110 -11.519761 -2.508602 18.696023 -0.671018 1.705381 0.052633 -0.012050 532735.000000 1 0 0
13.671010 -4.743361 3.094798 14.797762 -0.333968 1.360101 0.013122 -0.005024 -3215320.000000 1 0 0
-1.148490 10.329539 -5.648702 11.829042 -1.460066 2.068636 0.001313 0.001250 -554326.000000 1 0 0
8.359310 -1.786961 -7.902002 11.641002 -0.210599 2.316934 0.001112 -0.005194 -2505490.000000 1 0 0
2.926910 -9.992061 7.683798 12.940202 -1.285844 0.935032 0.003609 -0.002748 888312.000000 1 0 0
-6.157190 1.282239 8.219198 10.349413 -0.205316 0.653155 -0.003901 -0.000862 -43099.100000 1 0 0
7.358010 -6.283761 -7.320402 12.133188 -0.706813 2.218475 -0.000182 -0.006120 -162104.000000 1 0 0
-11.256090 -4.455261 -4.132302 12.791592 0.376888 1.899745 0.008812 -0.005161 349460.000000 1 0 0
2.153210 -3.247161 2.832598 4.817051 -0.985263 0.942168 0.002399 -0.001673 1398960.000000 1 0 0
-3.606690 -4.254861 8.946398 10.542774 0.867660 0.557499 -0.003118 -0.001673 -1850430.000000 1 0 0
-4.757790 -1.070861 -2.378802 5.426048 0.221386 2.024619 0.003077 -0.005146 172507.000000 1 0 0
4.917310 -5.250161 -3.689802 8.084477 -0.818123 2.044748 0.006781 -0.004773 265856.000000 1 0 0
2.727210 14.192239 -8.842702 16.942571 1.380948 2.119899 0.015821 -0.007129 -141468.000000 1 0 0
5.431810 -5.429161 13.694698 15.701118 -0.785154 0.511090 0.014373 -0.009704 -1841220.000000 1 0 0
-4.701490 -0.895061 9.780798 10.888946 0.188127 0.455066 -0.000181 -0.002460 -1740670.000000 1 0 0
-0.945690 12.030939 -2.665802 12.358978 -1.492353 1.788202 -0.000602 0.000765 -224172.000000 1 0 0
3.001010 9.341839 -10.611202 14.452461 1.259965 2.395305 0.010590 -0.005879 -764900.000000 1 0 0
-10.580790 2.776239 1.065998 10.990767 -0.256601 1.473653 0.001390 -0.004129 74290.100000 1 0 0
5.662610 -9.018961 -0.595002 10.665872 -1.010146 1.626611 0.002578 -0.004431 355983.000000 1 0 0
-7.103590 5.382739 9.308198 12.887103 -0.648442 0.763692 -0.000226 -0.001070 36657.500000 1 0 0
-5.402990 -1.733561 5.105598 7.633129 0.310476 0.838104 0.000359 -0.002786 880771.000000 1 0 0
6.761610 -3.827961 -7.327702 10.680256 -0.515144 2.326908 0.000864 -0.005114 428212.000000 1 0 0
6.257310 4.755539 11.004998 13.523279 0.649869 0.620166 -0.000642 0.002625 394735.000000 1 0 0
3.911210 -10.026661 3.063598 11.190046 -1.198870 1.293476 0.003178 -0.001997 1073480.000000 1 0 0
-6.625390 6.620139 -5.773202 11.002358 -0.785002 2.123187 0.000460 -0.002261 523950.000000 1 0 0
-11.099990 8.532539 5.234198 14.946934 -0.655361 1.213027 0.007983 -0.008158 729290.000000 1 0 0
-9.127090 -5.526461 5.044298 11.802139 0.544454 1.129175 0.000343 0.000769 -2060020.000000 1 0 0
3.273810 9.766139 -8.050802 13.073283 1.247348 2.234224 0.008337 -0.004424 765819.000000 1 0 0
-8.163390 -8.529861 6.083598 13.281928 0.807348 1.095012 0.002343 0.002220 -2637840.000000 1 0 0
-7.760390 -5.629561 -7.503802 12.174672 0.627585 2.234889 0.016190 -0.009041 -1222840.000000 1 0 0
9.246410 -1.498961 6.882598 11.623818 -0.160715 0.937120 0.006216 -0.004597 2823900.000000 1 0 0
-4.048590 -0.493261 -4.863002 6.346902 0.121238 2.443704 0.007774 -0.008229 -1733630.000000 1 0 0
9.049610 1.069139 -4.486002 10.156905 0.117597 2.028256 0.003305 -0.000350 -3347420.000000 1 0 0
-1.931490 -10.617161 10.555598 15.095543 1.390843 0.796445 0.002521 -0.003890 729687.000000 1 0 0
-12.893990 0.355439 -2.639202 13.166119 -0.027559 1.772618 0.008434 -0.006330 -491234.000000 1 0 0
-9.710490 -5.092761 -6.047302 12.521968 0.483023 2.074800 0.014640 -0.008448 -1238040.000000 1 0 0
-5.658190 8.329539 -0.263502 10.073022 -0.974104 1.596958 0.000041 0.000296 309556.000000 1 0 0
6.278010 9.500739 0.424898 11.395526 0.986872 1.533501 0.006931 -0.001306 490954.000000 1 0 0
-0.564390 -12.049261 0.028798 12.062506 1.523990 1.568409 0.013607 0.000184 -115396.000000 1 0 0
6.157910 4.621839 2.358398 8.052534 0.643855 1.273562 0.000057 -0.000419 237211.000000 1 0 0
3.487910 -7.512761 -8.257302 11.695731 -1.136143 2.354644 -0.004113 -0.004154 998475.000000 1 0 0
-6.581290 -9.904761 4.561998 12.736934 0.984325 1.204488 0.003863 0.001320 -1884950.000000 1 0 0
-0.078590 6.464139 -9.236002 11.273642 -1.558639 2.530909 0.010225 -0.003436 -2428520.000000 1 0 0
-17.244590 -2.696861 4.371898 17.993399 0.155132 1.325367 0.044798 -0.012268 737231.000000 1 0 0
-8.375090 0.773139 -9.123302 12.408646 -0.092053 2.396813 0.008963 -0.006372 -459394.000000 1 0 0
-10.068890 -6.002861 -11.864302 16.678685 0.537605 2.362207 0.017847 0.000436 1051010.000000 1 0 0
2.258010 9.455139 6.275698 11.570768 1.336374 0.997535 -0.004481 0.002760 238349.000000 1 0 0
-11.358690 1.643639 -1.138802 11.533354 -0.143706 1.669697 0.004687 -0.006226 -1190120.000000 1 0 0
-6.169890 -5.423761 -3.080902 8.773635 0.721130 1.929600 0.011030 -0.004705 850003.000000 1 0 0
-6.987390 -8.320861 1.279998 10.940691 0.872287 1.453533 0.009305 0.000050 -65262.200000 1 0 0
0.108710 11.073839 -7.970902 13.644670 1.560980 2.194662 0.007629 -0.000698 882327.000000 1 0 0
-2.859990 9.186739 -4.214902 10.504338 -1.268989 1.983681 0.000974 -0.000061 -60099.000000 1 0 0
3.410910 -4.751061 9.344198 11.023653 -0.948140 0.559256 -0.000963 -0.004816 -761942.000000 1 0 0
-8.906590 1.621339 -0.376302 9.060777 -0.180066 1.612339 0.002139 -0.003737 -2051960.000000 1 0 0
2.550110 3.478239 -10.503002 11.354041 0.938159 2.751951 0.006663 -0.003259 800064.000000 1 0 0
-13.694890 0.524439 1.183698 13.755951 -0.038276 1.484640 0.008580 -0.005373 -388881.000000 1 0 0
9.410910 -12.587161 -5.055002 16.509236 -0.928795 1.881987 0.030266 -0.006944 -2021620.000000 1 0 0
-4.797090 9.279539 -8.304802 13.345098 -1.093678 2.242488 0.000926 -0.000141 -395159.000000 1 0 0
-2.356590 7.234639 8.304398 11.263062 -1.255898 0.741713 -0.001419 -0.000461 354654.000000 1 0 0
-10.714890 -1.226861 -4.502402 11.686987 0.114004 1.966274 0.005630 -0.004830 -4214120.000000 1 0 0
2.633110 -7.103161 9.696698 12.305045 -1.215805 0.663200 -0.004397 -0.001877 -1469860.000000 1 0 0
-16.224690 -6.584161 3.347898 17.826950 0.385506 1.381875 0.028921 -0.007177 460221.000000 1 0 0
-10.818390 0.005839 6.197098 12.467623 -0.000540 1.050594 0.000641 -0.005386 -473883.000000 1 0 0
-8.348090 9.943139 9.319398 15.981483 -0.872381 0.948211 0.013353 -0.014381 23906.200000 1 0 0
0.306810 -6.159861 -3.771102 7.229054 -1.521029 2.119591 0.003912 -0.001639 1087840.000000 1 0 0
4.848710 1.463239 -3.099102 5.937634 0.293088 2.119923 0.001270 -0.001192 -243683.000000 1 0 0
0.391810 5.358939 3.657998 6.500208 1.497813 0.973086 -0.001465 0.000513 -2532560.000000 1 0 0
6.079910 -11.248461 -1.514002 12.875767 -1.075268 1.688654 0.000901 -0.005345 -1382000.000000 1 0 0
6.291610 -13.581261 5.430898 15.922615 -1.136973 1.222730 0.010095 -0.006803 -95239.000000 1 0 0
8.212410 -8.225561 -5.934902 13.050923 -0.786198 2.042887 0.002847 -0.006420 614252.000000 1 0 0
-13.086590 -1.353761 -4.553102 13.922005 0.103080 1.903970 0.007900 -0.003452 -2698330.000000 1 0 0
-6.755490 -1.436761 -7.048502 9.868247 0.209558 2.366364 0.010868 -0.007566 -671710.000000 1 0 0
-5.636990 12.987339 -4.470702 14.847014 -1.161296 1.876661 -0.000377 0.003951 25467.300000 1 0 0
-4.295190 6.867239 -6.725002 10.527738 -1.011866 2.263719 0.002389 -0.000396 -4119130.000000 1 0 0
-9.296190 -3.721161 -8.161102 12.917808 0.380755 2.254633 0.013536 -0.004419 983284.000000 1 0 0
-2.168890 -6.348061 9.185398 11.374247 1.241569 0.630791 0.000335 -0.001978 -572184.000000 1 0 0
7.432410 -6.014961 10.057598 13.877167 -0.680379 0.760112 0.002350 -0.004161 165636.000000 1 0 0
9.515010 -4.973161 12.211998 16.260401 -0.481615 0.721180 0.018532 -0.006936 -1269520.000000 1 0 0
-6.597990 2.786739 -9.069302 11.556453 -0.399634 2.473141 0.005293 -0.006424 94175.200000 1 0 0
7.394510 5.581239 8.783898 12.766593 0.646554 0.812015 -0.007084 0.001540 50169.000000 1 0 0
12.654110 3.301239 11.316598 17.294221 0.255195 0.857464 0.029479 -0.001958 -892691.000000 1 0 0
-7.587690 -7.283661 -4.011802 11.256966 0.764957 1.935191 0.014401 -0.009078 -931124.000000 1 0 0
2.203710 1.392139 -5.890702 6.441642 0.563421 2.724997 0.004746 -0.002547 234805.000000 1 0 0
12.760910 6.820439 -7.161902 16.144722 0.490849 2.030415 0.017245 -0.004039 278816.000000 1 0 0
0.865110 -7.889361 1.031498 8.003400 -1.461577 1.441554 0.003390 -0.002731 976930.000000 1 0 0
-10.109290 -6.151261 -8.535402 14.590710 0.546629 2.195663 0.016257 -0.004213 210931.000000 1 0 0
-6.655790 0.229039 3.033798 7.318191 -0.034398 1.143342 0.001139 -0.005020 809754.000000 1 0 0
10.761510 -7.887761 1.240698 13.400232 -0.632506 1.478076 0.008730 -0.006534 267186.000000 1 0 0
6.287810 1.172539 10.537198 12.326555 0.184361 0.545559 0.001391 -0.001109 -1453320.000000 1 0 0
-12.948790 5.357639 1.880898 14.139068 -0.392308 1.437372 0.010191 -0.003917 -25866.000000 1 0 0
2.093710 7.387939 3.653098 8.503552 1.294642 1.126750 -0.005861 0.001718 -77350.200000 1 0 0
10.172610 -9.443161 -0.843002 13.905608 -0.748228 1.631457 0.006283 -0.005048 734498.000000 1 0 0
6.842010 -11.734261 -8.951402 16.267562 -1.042911 2.153473 0.003193 -0.004951 -498530.000000 1 0 0
10.165510 3.539139 11.955798 16.087393 0.335027 0.732989 0.014542 0.000374 -999911.000000 1 0 0
-11.043690 -3.099761 -1.923402 11.630609 0.273641 1.736934 0.002504 -0.002760 -790904.000000 1 0 0
12.499010 1.129039 6.817498 14.282096 0.090086 1.073165 0.009503 -0.007977 -127473.000000 1 0 0
-9.517290 9.071339 3.084698 13.504939 -0.761412 1.340349 0.002815 -0.005854 738576.000000 1 0 0
-6.687590 7.562139 -8.890102 13.451532 -0.846694 2.292812 0.001053 -0.004596 -1402030.000000 1 0 0
8.500610 5.477839 12.156298 15.812738 0.572432 0.693887 0.008662 0.003285 -2552200.000000 1 0 0
1.343110 4.884939 -2.714002 5.747381 1.302477 2.062599 -0.002217 -0.001869 852186.000000 1 0 0
1.194410 0.459739 9.471698 9.557774 0.367430 0.134309 0.004548 -0.002423 815763.000000 1 0 0
2.548910 12.698039 -4.005602 13.556622 1.372696 1.870746 0.006772 -0.000077 233210.000000 1 0 0
2.083110 0.568639 12.924598 13.103738 0.266484 0.165542 0.005563 -0.006144 -244595.000000 1 0 0
-12.228390 -1.724161 0.886398 12.381112 0.140073 1.499142 0.002849 -0.002654 -19585.300000 1 0 0
3.219110 8.718539 -1.298502 9.384120 1.217097 1.709614 0.000904 -0.000867 270390.000000 1 0 0
3.701810 -2.821661 -5.876502 7.496562 -0.651288 2.471707 0.000069 -0.004628 -1156660.000000 1 0 0
-7.710290 -7.074561 9.226798 13.951049 0.742426 0.848153 -0.001768 -0.001589 -109201.000000 1 0 0
-7.060190 10.845939 -3.580902 13.427715 -0.993752 1.840743 0.006520 0.004297 -21471.000000 1 0 0
0.441410 0.538239 2.491298 2.586719 0.883919 0.272461 -0.002771 -0.001914 -2466280.000000 1 0 0
-7.051690 4.616039 -2.016102 8.665957 -0.579603 1.805594 0.002400 -0.004363 -428456.000000 1 0 0
-6.849690 -3.841761 -5.961102 9.859620 0.511148 2.220057 0.010460 -0.006658 52002.800000 1 0 0
2.997410 -6.042961 13.435898 15.034135 -1.110340 0.465287 -0.000445 -0.006992 -2637200.000000 1 0 0
-5.556290 -0.585361 -11.727502 12.990354 0.104964 2.696999 0.014519 -0.007599 -649675.000000 1 0 0
11.872010 2.437339 -0.698302 12.139723 0.202488 1.628350 0.005627 -0.002183 -834893.000000 1 0 0
6.152510 -10.894161 10.735798 16.486160 -1.056697 0.861631 0.000085 -0.001147 207237.000000 1 0 0
-8.213090 6.232239 -10.470002 14.694100 -0.649121 2.363895 0.001205 -0.005938 719299.000000 1 0 0
2.977910 7.857539 11.071098 13.898852 1.208534 0.649233 -0.000083 0.000633 1012380.000000 1 0 0
-6.239990 -10.174061 -0.444602 11.943477 1.020638 1.608030 0.013440 0.000048 -80475.100000 1 0 0
11.282610 4.329739 6.096898 13.535735 0.366423 1.103550 0.004017 -0.003462 -203655.000000 1 0 0
-7.803490 10.618439 1.479898 13.260309 -0.937030 1.458960 -0.000227 -0.000148 1439500.000000 1 0 0
4.312710 -2.709361 -3.535602 6.200047 -0.560916 2.177611 0.003302 -0.004371 -4435300.000000 1 0 0
6.471610 6.362639 6.267898 11.029573 0.776908 0.966381 -0.000360 0.002599 -4789680.000000 1 0 0
-0.485590 10.385539 -10.277002 14.618892 -1.524074 2.350396 0.009994 -0.002033 -448404.000000 1 0 0
14.162110 6.603239 -2.466502 15.819348 0.436294 1.727352 0.019618 0.000606 548615.000000 1 0 0
1.327510 9.494039 -6.332602 11.489165 1.431871 2.154574 0.007178 -0.001522 -396691.000000 1 0 0
0.796710 7.319739 7.120498 10.242794 1.462379 0.802138 -0.003087 0.002811 187326.000000 1 0 0
12.317810 6.376539 1.860298 13.994621 0.477682 1.437472 0.012068 -0.000286 -1620180.000000 1 0 0
-6.869790 6.665039 -3.157702 10.079079 -0.770272 1.889455 -0.000012 -0.002321 148190.000000 1 0 0
1.105910 9.798239 11.003098 14.774868 1.458404 0.730685 -0.006105 -0.000685 -764975.000000 1 0 0
-3.767690 13.665539 -11.017702 17.953612 -1.301773 2.231504 0.004978 0.004247 -67452.300000 1 0 0
-10.090890 -5.467961 -2.248402 11.695296 0.496581 1.764249 0.006379 -0.003559 -1261330.000000 1 0 0
-4.110190 3.858039 -12.609002 13.811772 -0.753764 2.721171 0.008697 -0.009662 -421931.000000 1 0 0
-3.236690 8.576539 2.455698 9.490187 -1.209933 1.309056 0.003946 0.000939 -2427380.000000 1 0 0
7.115010 8.930639 7.035098 13.411648 0.898073 1.018608 0.008520 0.002319 -289055.000000 1 0 0
-1.323390 -2.306161 -8.195502 8.616031 1.049827 2.827873 0.008426 -0.008636 -1509940.000000 1 0 0
0.861410 -1.374361 4.880798 5.143257 -1.010924 0.320841 0.001162 -0.001021 263270.000000 1 0 0
2.703910 -8.825861 -6.149402 11.091532 -1.273513 2.158466 -0.005446 -0.002673 418964.000000 1 0 0
5.256010 3.887839 8.817698 10.976919 0.636873 0.637990 -0.001822 0.002421 292392.000000 1 0 0
6.127710 -7.498361 -2.807202 10.082392 -0.885651 1.852951 0.001978 -0.006493 842978.000000 1 0 0
1.818710 2.372139 -8.310302 8.831527 0.916695 2.796314 0.007757 -0.005567 463397.000000 1 0 0
-5.452590 10.936139 -0.717102 12.241083 -1.108282 1.629411 -0.001733 0.002667 896101.000000 1 0 0
-5.428790 3.257439 -3.464202 7.216880 -0.540442 2.071467 0.002975 -0.003930 -560999.000000 1 0 0
1.992710 13.681039 -6.438902 15.251268 1.426159 2.006654 0.004101 -0.001403 283725.000000 1 0 0
-5.060290 -2.587861 2.689298 6.287756 0.472730 1.128845 0.001031 -0.002244 433996.000000 1 0 0
10.500110 -3.386261 -1.939602 11.201836 -0.311967 1.744824 0.004859 -0.006297 153486.000000 1 0 0
2.359210 -3.412061 6.920198 8.068282 -0.965843 0.540009 -0.000731 -0.003179 -1389000.000000 1 0 0
-2.881790 9.877539 -11.757102 15.623698 -1.286924 2.422672 0.006337 -0.002687 -2039290.000000 1 0 0
0.566010 -2.100861 9.297998 9.549176 -1.307627 0.229868 0.001282 -0.003553 1028580.000000 1 0 0
9.436710 2.615339 4.978398 10.985261 0.270360 1.100457 0.000257 -0.001219 -1864650.000000 1 0 0
13.491710 2.013539 -4.998902 14.528235 0.148149 1.922057 0.013864 -0.003068 -1075130.000000 1 0 0
-6.456290 3.776839 7.660398 10.706535 -0.529307 0.773474 -0.000029 -0.001720 -358317.000000 1 0 0
10.630410 0.077339 1.905098 10.800047 0.007275 1.393471 0.004814 -0.002581 1195040.000000 1 0 0
15.360210 6.588639 -4.798902 17.388953 0.405205 1.850399 0.021826 -0.000656 -228790.000000 1 0 0
8.044410 -4.881961 -9.324602 13.247425 -0.545460 2.351642 0.005611 -0.009004 1039230.000000 1 0 0
4.393210 5.559539 -2.169502 7.410500 0.902053 1.867909 0.000598 -0.000657 763558.000000 1 0 0
-1.690290 -10.576461 1.532798 10.819800 1.412320 1.428652 0.013122 -0.001760 -944329.000000 1 0 0
-2.914690 12.212539 -12.913702 18.011253 -1.336515 2.370256 0.017106 -0.003954 -671062.000000 1 0 0
8.328910 4.199639 -9.622302 13.401358 0.467021 2.371735 0.003996 -0.000785 -660884.000000 1 0 0
4.085610 7.526239 -8.994202 12.419024 1.073460 2.380710 0.006035 -0.004502 -3358970.000000 1 0 0
-1.749190 -4.955461 -2.455502 5.800495 1.231467 2.007910 0.007645 -0.002929 -1092790.000000 1 0 0
-3.248890 -9.151861 6.985098 11.962585 1.229676 0.947257 0.004760 0.000486 -580322.000000 1 0 0
1.040310 7.202239 -1.386002 7.407800 1.427346 1.759006 -0.000190 -0.001585 1358210.000000 1 0 0
0.416210 -0.566261 -2.353302 2.455995 -0.936954 2.851393 0.001332 -0.002852 -994264.000000 1 0 0
4.102710 -6.720661 7.573098 10.924803 -1.022719 0.804874 0.000247 -0.002346 -188968.000000 1 0 0
-13.967390 3.900939 6.043398 15.710760 -0.272349 1.175950 0.013440 -0.010531 -300055.000000 1 0 0
4.205610 6.263439 12.618398 14.701762 0.979487 0.538865 0.006076 0.001462 -2130580.000000 1 0 0
8.296710 10.054239 -7.308702 14.944573 0.880880 2.081801 0.018096 -0.004479 -89988.800000 1 0 0
12.484810 5.328939 9.599998 16.626126 0.403423 0.955250 0.022482 -0.004117 494650.000000 1 0 0
7.461110 4.038739 0.413698 8.494159 0.496143 1.522073 0.004198 0.000586 -2331910.000000 1 0 0
-10.821590 -7.552761 -1.026902 13.236522 0.609338 1.648455 0.010489 -0.002504 -1685250.000000 1 0 0
10.417210 6.825339 0.101798 12.454473 0.580021 1.562623 0.005987 0.000556 -1258660.000000 1 0 0
14.583310 3.626639 4.103498 15.577681 0.243740 1.304229 0.010892 -0.004676 647053.000000 1 0 0
2.197210 5.526139 8.181298 10.114326 1.192358 0.628548 -0.004791 0.003068 656189.000000 1 0 0
4.311110 0.090139 11.727398 12.495026 0.020906 0.352347 0.004744 -0.003106 -627523.000000 1 0 0
-1.340190 -1.650361 -0.674302 2.230354 0.888746 1.877932 0.002485 -0.004747 -1047250.000000 1 0 0
3.057010 -5.317661 -9.478102 11.289696 -1.049053 2.567224 -0.002701 -0.004645 481759.000000 1 0 0
-4.028990 -5.409361 -1.521502 6.914398 0.930620 1.792660 0.006836 -0.003526 286342.000000 1 0 0
-1.291090 -8.643261 8.641298 12.290033 1.422517 0.791028 0.003767 0.000037 -60452.500000 1 0 0
3.851510 8.527439 -5.957302 11.092376 1.146562 2.137747 0.006858 -0.001182 416945.000000 1 0 0
-14.265290 -1.746461 -2.624702 14.609506 0.121821 1.751434 0.004394 -0.004786 -1117590.000000 1 0 0
8.875510 -10.574361 -6.669902 15.332298 -0.872522 2.020860 0.004565 -0.005975 349244.000000 1 0 0
14.879810 6.141439 1.485098 16.165753 0.391438 1.478800 -0.000321 0.001455 -670082.000000 1 0 0
-5.747990 0.433339 -8.560802 10.320586 -0.075247 2.548987 0.011565 -0.008932 351195.000000 1 0 0
-8.136590 -4.561861 -13.020802 16.017364 0.510991 2.519941 0.014112 -0.003795 356405.000000 1 0 0
0.898310 -10.570161 12.095298 16.088241 -1.486015 0.719994 0.002095 -0.000310 -186220.000000 1 0 0
0.300410 11.666639 3.304498 12.129321 1.545052 1.294869 0.003025 -0.000921 -427869.000000 1 0 0
5.144510 -13.173661 -3.676402 14.612572 -1.198493 1.825121 0.007594 -0.002634 22340.000000 1 0 0
-7.480090 1.562939 -7.036702 10.387959 -0.205983 2.315005 0.005533 -0.004428 576455.000000 1 0 0
1.524410 2.745839 4.068098 5.139347 1.063992 0.657440 -0.002277 0.000765 -461826.000000 1 0 0
17.312610 5.554139 2.198598 18.314169 0.310442 1.450457 0.006388 -0.000355 -246163.000000 1 0 0
2.410710 -8.271361 -3.618502 9.344543 -1.287199 1.968423 0.000009 -0.001134 195079.000000 1 0 0
-0.281790 -9.441861 -0.580202 9.463866 1.540960 1.632142 0.013249 -0.000187 169550.000000 1 0 0
0.766010 11.812239 -5.632502 13.108808 1.506038 2.014927 0.004126 0.001211 -1867710.000000 1 0 0
5.975810 -5.088861 7.817998 11.078263 -0.705409 0.787377 -0.000693 -0.004092 -1165840.000000 1 0 0
-6.032690 -1.920561 -9.420102 11.349899 0.308214 2.549854 0.013774 -0.007852 225759.000000 1 0 0
2.218010 -1.272161 11.136498 11.426266 -0.520751 0.225689 -0.000624 -0.004599 465961.000000 1 0 0
17.974410 1.998739 -5.653802 18.948347 0.110744 1.873791 0.051186 -0.011439 -511585.000000 1 0 0
-8.939190 4.727839 7.756498 12.744601 -0.486491 0.916488 0.003270 -0.006027 125374.000000 1 0 0
11.336310 -7.083261 -4.891902 14.234297 -0.558477 1.921619 0.014344 -0.011887 -117193.000000 1 0 0
10.939910 0.532439 8.924898 14.128657 0.048631 0.887068 0.002683 -0.005239 -76062.900000 1 0 0
-8.451890 -7.333661 -1.564602 11.298893 0.714678 1.709717 0.012141 -0.004425 -704322.000000 1 0 0
10.271110 -10.479161 -3.252402 15.029525 -0.795424 1.788923 0.014773 -0.008358 339275.000000 1 0 0
7.669610 -13.847261 -3.703302 16.256814 -1.064985 1.800614 0.020474 -0.010999 -545787.000000 1 0 0
1.846910 -1.176961 -11.657702 11.861632 -0.567366 2.955894 0.005835 -0.006039 350552.000000 1 0 0
-11.796990 -2.683761 -6.331402 13.654969 0.223688 2.052929 0.010424 -0.006421 -716303.000000 1 0 0
2.730710 -12.164261 -6.337002 13.985121 -1.349971 2.041064 -0.001172 0.001545 -117944.000000 1 0 0
-5.550490 1.357439 1.039698 5.807887 -0.239854 1.390811 0.002495 -0.005619 355271.000000 1 0 0
0.102810 6.852939 -3.942302 7.906649 1.555795 2.092786 0.004924 -0.002753 1046480.000000 1 0 0
5.554910 -11.818561 3.772598 13.592936 -1.131422 1.289563 0.004064 -0.007148 -2014510.000000 1 0 0
-4.450590 -9.262861 0.993898 10.324542 1.122889 1.474381 0.011066 -0.000996 -1070170.000000 1 0 0
6.968510 -6.152761 -4.824702 10.473507 -0.723308 2.049532 0.000437 -0.007196 133029.000000 1 0 0
-6.966490 -6.033561 2.214198 9.478318 0.713757 1.335011 0.003641 -0.000981 -109970.000000 1 0 0
-6.327790 -0.770261 6.988998 9.459404 0.121131 0.739447 -0.004181 -0.002241 -2094100.000000 1 0 0
4.198710 -5.072161 3.275398 7.354197 -0.879335 1.109200 -0.000414 -0.002112 -312636.000000 1 0 0
-2.453090 10.492039 -8.766302 13.890593 -1.341117 2.253762 0.002553 0.000512 1085480.000000 1 0 0
-2.360390 -4.863161 2.712798 6.048227 1.118928 1.105679 0.004445 0.001110 587556.000000 1 0 0
15.051210 5.080039 6.277198 17.080660 0.325511 1.194473 0.023639 -0.010374 786415.000000 1 0 0
6.647710 0.156239 0.029898 6.649613 0.023498 1.566300 -0.001168 -0.002542 4535320.000000 1 0 0
-9.794190 9.328739 0.479898 13.534468 -0.761063 1.535331 0.003055 -0.001754 -2055910.000000 1 0 0
7.119610 10.407139 -2.582102 12.871078 0.970816 1.772780 0.002275 0.002499 258535.000000 1 0 0
1.682410 -4.301861 -5.411802 7.115062 -1.197995 2.435052 0.002062 -0.005254 131531.000000 1 0 0
0.850610 -8.180961 -7.910302 11.411596 -1.467194 2.336689 -0.002653 -0.000891 2733680.000000 1 0 0
-10.508690 0.332439 -10.488602 14.851055 -0.031624 2.354988 0.014613 -0.007498 -2985660.000000 1 0 0
5.831410 -2.531161 0.535798 6.379593 -0.409516 1.486711 0.002369 -0.003419 318904.000000 1 0 0
-3.297990 5.244339 -0.993402 6.274287 -1.009421 1.729794 0.003168 -0.004783 1160360.000000 1 0 0
-0.434790 4.516239 -5.114602 6.837003 -1.474820 2.415955 0.004116 -0.003855 -427193.000000 1 0 0
4.017410 -9.629261 10.060898 14.494272 -1.175544 0.803587 -0.003680 -0.000999 -100729.000000 1 0 0
7.268310 -13.443461 -0.652502 15.296429 -1.075154 1.613466 0.017638 -0.007593 480569.000000 1 0 0
13.030010 -0.183961 0.510698 13.041312 -0.014117 1.531626 0.005338 -0.004817 -274074.000000 1 0 0
9.229310 2.356439 -0.579502 9.542997 0.249981 1.631559 0.004507 -0.000972 1400780.000000 1 0 0
-0.798490 -5.781161 4.438598 7.332159 1.433545 0.920578 0.001373 -0.000393 -169409.000000 1 0 0
11.441410 -3.693061 3.340398 12.478094 -0.312223 1.299790 0.012733 -0.008056 -3004220.000000 1 0 0
1.660610 -8.081761 11.858798 14.446577 -1.368141 0.607859 -0.003271 -0.002425 178626.000000 1 0 0
9.347710 -5.846361 -5.956102 12.531351 -0.558910 2.066097 0.000925 -0.010052 -1339180.000000 1 0 0
3.274410 6.370239 -0.069802 7.162862 1.095998 1.580541 -0.002562 0.000092 -1754440.000000 1 0 0
6.501210 -1.359661 11.237398 13.053488 -0.206168 0.533813 0.003773 -0.003933 224225.000000 1 0 0
-4.949590 -7.557261 -3.802902 9.801667 0.990953 1.969241 0.010921 -0.005581 265203.000000 1 0 0
-3.511990 -8.516261 -5.821702 10.897384 1.179658 2.134392 0.010223 -0.003714 162551.000000 1 0 0
9.889710 5.382639 2.190698 11.470760 0.498431 1.378635 0.002779 -0.001139 642655.000000 1 0 0
8.946910 -1.332661 0.188698 9.047585 -0.147865 1.549939 0.005787 -0.005412 1366190.000000 1 0 0
-3.898390 9.592739 9.123898 13.800856 -1.184794 0.848498 0.000278 -0.004929 58438.700000 1 0 0
-14.292290 -3.410461 -5.949802 15.852474 0.234242 1.955542 0.013376 -0.006114 -466203.000000 1 0 0
10.618610 6.301039 -6.085102 13.765408 0.535549 2.028687 0.005614 -0.002528 -1812430.000000 1 0 0
-1.779490 4.512239 2.610298 5.508225 -1.195153 1.077092 -0.001045 -0.002030 473940.000000 1 0 0
6.890010 -3.785561 2.725798 8.320618 -0.502403 1.237039 0.004804 -0.005354 -1919150.000000 1 0 0
8.384910 -11.222061 -1.522702 14.091131 -0.929102 1.679069 0.011438 -0.007347 -2375210.000000 1 0 0
4.428410 0.399239 1.718498 4.766912 0.089911 1.201986 0.000091 -0.000772 -122415.000000 1 0 0
-10.874490 2.447239 3.649298 11.728635 -0.221356 1.254399 0.001903 -0.005042 87610.900000 1 0 0
-0.812990 -3.052261 4.338398 5.366465 1.310483 0.629321 0.001128 -0.000929 726688.000000 1 0 0
8.586810 -8.689961 -8.478302 14.870451 -0.791369 2.177478 0.010572 -0.006188 -454321.000000 1 0 0
11.968110 -4.737961 0.982598 12.909277 -0.376951 1.494607 0.011664 -0.007005 595564.000000 1 0 0
2.927810 4.848339 3.410898 6.611558 1.027529 1.028739 -0.005657 -0.000017 -63979.100000 1 0 0
6.079810 7.380739 1.999898 9.769289 0.881746 1.364626 0.000393 0.001025 -283702.000000 1 0 0
-1.640890 -1.341761 -10.420302 10.633698 0.685443 2.940917 0.014121 -0.009251 620436.000000 1 0 0
-0.844390 -8.607761 6.127498 10.599659 1.473013 0.954417 0.005787 -0.002880 -50926.600000 1 0 0
-4.163290 -0.212261 2.300098 4.761143 0.050940 1.066607 -0.000486 -0.002830 -268941.000000 1 0 0
-8.516790 6.153039 -7.909802 13.151447 -0.625641 2.216098 0.000633 -0.002227 -1101420.000000 1 0 0
6.515210 11.192539 -9.434202 16.022642 1.043640 2.200375 0.013705 -0.009322 84345.400000 1 0 0
-11.150690 -5.728361 3.124998 12.919660 0.474565 1.326494 0.004955 0.002294 1200920.000000 1 0 0
1.528710 -6.263161 2.922198 7.078374 -1.331397 1.145232 0.002900 -0.002084 912518.000000 1 0 0
10.162710 2.296339 7.245298 12.690477 0.222226 0.963165 0.000296 -0.002251 -920898.000000 1 0 0
-4.089390 -2.509761 -10.641102 11.672834 0.550450 2.717986 0.012849 -0.008953 -2843020.000000 1 0 0
-8.353590 11.779939 5.923398 15.608846 -0.953965 1.181552 0.010733 -0.008294 1008720.000000 1 0 0
6.891110 5.962839 -2.984402 9.589031 0.713307 1.887284 0.005128 0.000686 -1872610.000000 1 0 0
3.919710 -9.848761 -2.296202 10.845956 -1.192024 1.784121 0.000471 -0.002949 -671899.000000 1 0 0
8.457510 -12.952061 -7.287602 17.099547 -0.992325 2.011070 0.017555 -0.004416 103384.000000 1 0 0
-1.141790 9.458139 3.582398 10.178097 -1.450657 1.211120 0.002897 -0.000270 -107542.000000 1 0 0
0.468310 -13.224561 4.798198 14.075902 -1.535399 1.222943 0.018077 -0.002263 -1101590.000000 1 0 0
-11.238790 -6.933861 -5.169802 14.181525 0.552795 1.943940 0.011325 -0.008490 330052.000000 1 0 0
3.576510 10.295839 -3.487002 11.443554 1.236463 1.880434 0.005707 -0.003674 -379776.000000 1 0 0
11.440410 -8.163761 -7.364402 15.867085 -0.619789 2.053449 0.030911 -0.011430 -65298.200000 1 0 0
11.734810 -4.773761 -5.759702 13.916491 -0.386358 1.997504 0.009594 -0.011424 159090.000000 1 0 0
1.322810 -10.306761 -2.684302 10.732410 -1.443150 1.823592 0.001456 0.001725 -766658.000000 1 0 0
2.366010 -12.079961 -3.880802 12.906745 -1.377382 1.876202 0.002477 0.002049 -1975610.000000 1 0 0
-7.560590 -5.517761 7.212598 11.816504 0.630451 0.914252 0.000693 0.002883 -3614650.000000 1 0 0
-7.257190 -0.792961 9.463998 11.952525 0.108834 0.657047 -0.001148 -0.002957 566938.000000 1 0 0
16.153310 2.625539 -7.461102 17.985854 0.161130 1.998554 0.046111 -0.010498 -659457.000000 1 0 0
-1.974190 6.317739 -5.494002 8.602053 -1.267926 2.263584 0.004572 0.000487 -1559070.000000 1 0 0
7.633810 1.127939 8.366898 11.382104 0.146694 0.744993 0.001757 -0.001094 -1089670.000000 1 0 0
7.857310 8.272739 -3.849402 12.041322 0.811147 1.896191 0.004057 0.001824 -209532.000000 1 0 0
8.081410 0.527039 3.895898 8.986934 0.065124 1.122416 0.001400 -0.003603 1081270.000000 1 0 0
-6.963690 5.804739 5.354398 10.528891 -0.694879 1.037304 0.005415 -0.007430 54100.700000 1 0 0
-5.982590 -2.120861 -4.533002 7.799842 0.340683 2.190957 0.009258 -0.006527 -606040.000000 1 0 0
-15.138690 -2.016161 3.183698 15.600665 0.132400 1.365278 0.016142 -0.006923 -200306.000000 1 0 0
1.223910 1.264439 -10.564502 10.710063 0.801684 2.976535 0.010652 -0.008156 395808.000000 1 0 0
1.450310 -9.206961 9.473798 13.290011 -1.414557 0.777241 0.000577 -0.004204 -181915.000000 1 0 0
-0.250690 -6.747961 -1.110802 6.843369 1.533663 1.733836 0.008019 -0.000259 737990.000000 1 0 0
-0.423490 -10.246961 -8.482102 13.308854 1.529492 2.261822 -0.000095 -0.000055 -353067.000000 1 0 0
-4.328090 6.582739 3.714698 8.709983 -0.989173 1.130191 0.003675 -0.002538 -42713.200000 1 0 0
10.829110 -1.164161 -8.573802 13.861276 -0.107092 2.237684 0.012826 -0.005015 694338.000000 1 0 0
3.124010 -1.175961 6.234198 7.071602 -0.360021 0.491593 -0.001207 -0.000999 950590.000000 1 0 0
2.031210 -12.268461 6.760898 14.154529 -1.406721 1.072819 0.010284 -0.002110 265886.000000 1 0 0
2.908610 -4.915361 -1.365302 5.872379 -1.036473 1.805439 0.008376 -0.003886 -407782.000000 1 0 0
-1.031690 9.537239 -1.669402 9.737054 -1.463040 1.743096 0.002619 -0.001188 463345.000000 1 0 0
4.576410 -2.643961 2.595498 5.888181 -0.523889 1.114309 0.001654 -0.001112 -166184.000000 1 0 0
17.676310 6.624539 -2.830202 19.087863 0.358568 1.719617 0.008793 0.004622 -194755.000000 1 0 0
-7.176490 3.464039 -5.476602 9.669268 -0.449706 2.172918 0.002684 -0.004425 697148.000000 1 0 0
-13.772890 -6.069561 2.380298 15.238040 0.415084 1.413946 -0.000623 -0.001524 -845715.000000 1 0 0
6.657710 -6.169561 3.324298 9.666413 -0.747361 1.219727 0.003611 -0.006624 -17974.900000 1 0 0
-4.706690 2.058439 3.464798 6.196364 -0.412279 0.977416 0.002190 -0.004285 475971.000000 1 0 0
6.938010 -12.089461 -5.409802 14.951823 -1.049797 1.941011 0.011167 -0.006428 -679730.000000 1 0 0
2.959310 -12.312561 3.479298 13.132486 -1.334921 1.302656 0.010729 -0.006252 -257983.000000 1 0 0
3.209410 11.223539 -6.120302 13.180525 1.292276 2.053690 0.005058 -0.001718 -1307100.000000 1 0 0
-5.606790 -8.355061 6.410098 11.930318 0.979755 1.003570 0.003339 0.002250 -228418.000000 1 0 0
-4.009990 6.599239 6.245898 9.931829 -1.024775 0.890688 0.001751 -0.001491 393612.000000 1 0 0
4.354010 4.411139 -6.840002 9.230449 0.791916 2.405393 0.002775 -0.000077 -362370.000000 1 0 0
-0.289890 -2.856561 1.502398 3.240552 1.469661 1.088715 0.001216 -0.001345 132052.000000 1 0 0
-13.176990 -0.895161 6.568098 14.750399 0.067829 1.109306 0.015911 -0.004710 -192744.000000 1 0 0
-0.610790 -9.247861 -5.973202 11.026111 1.504846 2.143293 0.001903 -0.000475 104531.000000 1 0 0
2.057110 -1.735161 -3.979302 4.803887 -0.700705 2.546953 0.002420 -0.002732 -1676460.000000 1 0 0
11.382810 -1.952161 1.092698 11.600573 -0.169848 1.476463 0.008900 -0.008642 -9856.980000 1 0 0
0.464210 -4.298261 -2.082502 4.798682 -1.463214 2.019695 0.004260 -0.001101 -1339910.000000 1 0 0
1.189710 -7.395661 -11.172702 13.451411 -1.411297 2.550975 -0.004703 -0.000792 -510164.000000 1 0 0
-4.514890 4.085239 -10.070502 11.768110 -0.735481 2.597785 0.008888 -0.009562 503209.000000 1 0 0
-1.094290 5.771139 -2.093402 6.235852 -1.383407 1.913149 0.002347 -0.003065 -2083510.000000 1 0 0
-11.296090 1.738739 -3.809002 12.047130 -0.152725 1.892491 0.006718 -0.005058 181796.000000 1 0 0
-1.842590 -11.278861 4.194998 12.173982 1.408860 1.218997 0.015957 -0.002068 -475539.000000 1 0 0
-3.537190 -5.381861 -9.712302 11.653537 0.989346 2.556066 0.008258 -0.001962 -2111610.000000 1 0 0
-13.010590 -3.694861 -8.324602 15.881638 0.276704 2.122531 0.023807 -0.005331 109990.000000 1 0 0
11.350910 4.476839 0.439998 12.209785 0.375673 1.534752 0.006792 -0.000183 315223.000000 1 0 0
-8.912890 -2.318661 -3.015102 9.690543 0.254506 1.887187 0.006384 -0.005523 -394933.000000 1 0 0
-2.521390 -6.176061 -6.360202 9.217011 1.183196 2.332355 0.004400 -0.005194 572260.000000 1 0 0
-0.086790 2.785039 -1.935902 3.392888 -1.539644 2.178004 -0.000658 -0.004474 -750411.000000 1 0 0
8.134210 6.018439 -5.162502 11.359508 0.637001 2.042568 0.005308 -0.000470 -1056840.000000 1 0 0
-9.761690 -0.893361 -1.016702 9.855068 0.091263 1.674146 0.002119 -0.004379 -86223.600000 1 0 0
6.177410 0.510139 -8.804602 10.767620 0.082394 2.528187 0.001702 -0.002077 605756.000000 1 0 0
-4.091890 2.550339 7.753798 9.130673 -0.557352 0.556321 -0.004145 -0.000652 -1606250.000000 1 0 0
-10.176190 -3.252061 1.450698 10.781246 0.309318 1.435829 -0.000343 -0.001117 1795670.000000 1 0 0
-1.867090 -8.158761 -7.865502 11.485535 1.345825 2.325150 0.005941 -0.003876 -606358.000000 1 0 0
-9.503190 -9.754961 4.211698 14.255114 0.798471 1.270868 0.005684 -0.000786 -221003.000000 1 0 0
-1.070890 -10.754761 7.279898 13.031063 1.471550 0.978030 0.010918 -0.002420 -46794.100000 1 0 0
9.476610 3.641739 -3.700602 10.805687 0.366888 1.920339 0.004265 0.002091 -864933.000000 1 0 0
12.853310 -0.816361 3.069098 13.239841 -0.063428 1.336861 0.008854 -0.005849 254087.000000 1 0 0
6.535510 11.852139 -6.906702 15.195020 1.066863 2.042649 0.010059 -0.003524 7605.630000 1 0 0
-11.909190 -0.141561 -6.537802 13.586452 0.011886 2.072819 0.009743 -0.003067 652453.000000 1 0 0
-7.647290 -6.657661 -11.419402 15.271156 0.716327 2.415502 0.015158 -0.004331 -1605360.000000 1 0 0
4.169510 5.912439 6.548998 9.758644 0.956582 0.835109 -0.005586 0.003688 -1818630.000000 1 0 0
-4.256990 -1.416661 -7.404302 8.657515 0.321257 2.596821 0.010068 -0.009716 -661293.000000 1 0 0
9.560410 9.303739 0.839898 13.366617 0.771793 1.507919 0.011321 -0.000098 -1020390.000000 1 0 0
-8.879390 3.932439 4.747398 10.809507 -0.416911 1.116102 0.002702 -0.005790 242329.000000 1 0 0
-7.036790 7.820239 -12.167302 16.084644 -0.838082 2.428671 0.001584 -0.005680 -1283230.000000 1 0 0
11.235010 -3.531561 7.106498 13.754988 -0.304556 1.027864 0.015674 -0.005962 1116690.000000 1 0 0
11.918610 6.875239 6.388898 15.170373 0.523223 1.136091 0.012648 -0.003938 -18341.800000 1 0 0
-10.107590 -0.716461 -14.664702 17.824987 0.070765 2.536949 0.021831 -0.007024 -190712.000000 1 0 0
1.835510 -13.001261 12.071298 17.835866 -1.430544 0.827390 0.009152 0.002520 57986.100000 1 0 0
2.915510 3.001439 12.948598 13.607904 0.799920 0.312559 0.002010 -0.004742 981.197000 1 0 0
-2.571990 -1.372261 10.886498 11.270052 0.490119 0.261640 -0.000821 -0.003880 -409586.000000 1 0 0
2.514110 -10.127861 -8.235402 13.293463 -1.327478 2.238912 -0.008299 0.001106 -932438.000000 1 0 0
13.944710 3.692239 -7.345802 16.187909 0.258837 2.041803 0.018990 -0.006046 -2860060.000000 1 0 0
7.344010 -1.612961 4.963898 9.009796 -0.216197 0.987301 0.001962 -0.003490 92999.700000 1 0 0
-1.237790 8.734239 10.031698 13.358669 -1.430017 0.721296 -0.003615 -0.001165 80935.900000 1 0 0
-12.226990 -4.631461 0.951398 13.109342 0.362089 1.498158 0.003563 -0.002138 11003.900000 1 0 0
-4.942990 4.854439 -5.218902 8.673849 -0.776360 2.216402 0.003066 -0.003742 -174239.000000 1 0 0
-11.185990 0.417439 1.956498 11.363472 -0.037301 1.397760 0.000583 -0.004150 -2537700.000000 1 0 0
-1.381790 2.089839 -4.224802 4.911794 -0.986592 2.606329 0.004109 -0.005971 514658.000000 1 0 0
3.204010 -9.810761 13.204598 16.759419 -1.255135 0.663419 -0.004211 0.001365 -1334510.000000 1 0 0
8.945810 4.616739 -1.477902 10.174773 0.476427 1.716564 0.004178 -0.001698 -1106400.000000 1 0 0
4.074510 2.274839 3.687698 5.947743 0.509201 0.902033 -0.005027 0.001143 -938188.000000 1 0 0
-5.469190 -3.238561 7.431898 9.779234 0.534625 0.707533 -0.000603 -0.001501 276603.000000 1 0 0
1.726510 -5.874361 7.729198 9.860500 -1.284940 0.669947 -0.002530 -0.004737 -1503640.000000 1 0 0
-5.868590 -6.056261 -9.809902 12.936491 0.801135 2.431517 0.014022 -0.005380 -336176.000000 1 0 0
-11.652190 -5.674561 5.496298 14.077765 0.453190 1.169704 0.009608 -0.000535 -1520060.000000 1 0 0
10.562910 6.170039 4.462698 13.021526 0.528663 1.220989 0.005099 -0.000174 -1497400.000000 1 0 0
1.436910 -3.780261 0.344598 4.058797 -1.207554 1.485792 0.007908 -0.001586 -974791.000000 1 0 0
8.778610 4.371139 6.942698 12.015487 0.461991 0.954750 0.000832 0.001874 486642.000000 1 0 0
-7.963390 12.011539 3.549298 14.842175 -0.985352 1.329320 0.001702 -0.002699 189784.000000 1 0 0
-6.192290 13.223239 -6.980502 16.184125 -1.132838 2.016749 0.006861 0.000225 117737.000000 1 0 0
4.528510 -6.930461 -0.964002 8.334746 -0.992020 1.686716 0.005907 -0.006290 118600.000000 1 0 0
-1.885890 -8.150361 11.158198 13.945980 1.343411 0.643332 0.000339 -0.004813 49689.100000 1 0 0
11.518510 8.831839 -5.839102 15.645209 0.654136 1.953273 0.020798 -0.006615 243323.000000 1 0 0
-3.419690 -2.925561 -1.853802 4.867213 0.707681 1.961539 0.007670 -0.004529 -2866350.000000 1 0 0
-2.020290 5.969039 4.707498 7.865847 -1.244438 0.929202 0.000261 -0.000564 542735.000000 1 0 0
0.416210 -11.357261 -5.618902 12.678038 -1.534166 2.029961 -0.000196 -0.001156 -1027570.000000 1 0 0
-8.904290 6.298839 -1.512002 11.011262 -0.615671 1.708546 0.003194 -0.003316 -141392.000000 1 0 0
2.894110 -0.005861 3.871498 4.833675 -0.002025 0.641928 -0.002408 0.000545 -73194.600000 1 0 0
-10.108090 4.001739 -1.044402 10.921454 -0.376962 1.666571 0.005362 -0.004051 -216438.000000 1 0 0
6.478110 5.444339 13.580598 16.001231 0.698907 0.557232 0.017148 -0.000496 -637923.000000 1 0 0
-8.675290 -1.499261 5.642598 10.456928 0.171129 1.000830 -0.004917 -0.002132 -346979.000000 1 0 0
12.968410 -1.833461 -1.530302 13.186473 -0.140448 1.687109 0.009013 -0.008690 -1000250.000000 1 0 0
5.119910 -5.591961 5.433798 9.327897 -0.829438 0.948956 0.002020 -0.006014 232638.000000 1 0 0
-9.070890 -1.180861 3.126798 9.667075 0.129453 1.241425 -0.001901 -0.004011 576475.000000 1 0 0
1.998110 5.360239 5.552898 7.972408 1.213986 0.800268 -0.002431 0.000557 -871647.000000 1 0 0
9.290410 3.077439 -7.353102 12.241342 0.319874 2.215145 0.005143 -0.000878 -343935.000000 1 0 0
2.178510 -2.345161 -1.536402 3.550523 -0.822221 2.018310 0.004666 -0.002673 307265.000000 1 0 0
-6.229790 0.306139 -3.894002 7.353043 -0.049102 2.128898 0.003273 -0.004804 -1336570.000000 1 0 0
-4.061590 4.272139 4.936698 7.688867 -0.810658 0.873617 0.001292 -0.002176 437226.000000 1 0 0
-6.518390 1.744939 -12.389602 14.108028 -0.261562 2.642872 0.008156 -0.007922 -1858750.000000 1 0 0
-0.233390 2.922639 6.196798 6.855407 -1.491110 0.441928 0.001044 -0.001319 1372270.000000 1 0 0
-8.742290 9.524839 -2.116902 13.100819 -0.828211 1.733093 0.000883 0.005058 985716.000000 1 0 0
-1.303890 -3.784161 -6.103902 7.299152 1.238971 2.561201 0.002197 -0.005429 440663.000000 1 0 0
-3.341990 7.033339 -2.938502 8.322953 -1.127214 1.931636 0.002426 0.001805 787927.000000 1 0 0
6.998910 -0.490661 -4.311202 8.234801 -0.069991 2.121790 0.003913 -0.000880 -238828.000000 1 0 0
-5.089790 -10.819261 6.975798 13.842836 1.131077 1.042655 0.000655 0.000410 444209.000000 1 0 0
9.676310 8.364839 -1.522102 12.880928 0.712832 1.689240 0.005104 0.002070 -40215.800000 1 0 0
13.816310 4.611739 -4.277202 15.180679 0.322161 1.856417 0.008776 -0.001068 526416.000000 1 0 0
4.764010 1.033239 -6.804502 8.370461 0.213577 2.519942 -0.001300 -0.001356 1606.290000 1 0 0
8.994210 -4.770961 3.611698 10.802882 -0.487708 1.229905 0.006948 -0.006639 189912.000000 1 0 0
-8.814390 -3.238161 -0.710502 9.417216 0.352066 1.646315 0.001101 -0.003275 132270.000000 1 0 0
-8.629290 -4.316461 -10.472002 14.239357 0.463816 2.397092 0.011293 -0.006680 197198.000000 1 0 0
10.328510 -1.222361 10.559298 14.821305 -0.117800 0.777826 0.012927 -0.002172 643920.000000 1 0 0
2.223210 -11.553861 9.925498 15.393176 -1.380698 0.870037 0.003937 -0.000957 431744.000000 1 0 0
-6.378890 -10.628861 2.021398 12.559815 1.030268 1.409152 0.010111 0.000849 -854606.000000 1 0 0
-3.776590 -1.230361 6.700398 7.789208 0.314943 0.535104 0.001479 0.000042 -3038110.000000 1 0 0
4.691310 -7.657861 4.021198 9.839779 -1.021154 1.149803 0.001144 -0.003839 209677.000000 1 0 0
11.577510 -9.546061 -5.289802 15.910626 -0.689523 1.909717 0.024201 -0.008735 431142.000000 1 0 0
11.302210 1.123239 11.453198 16.130015 0.099057 0.781220 0.018110 -0.001711 -222165.000000 1 0 0
-10.145090 -3.435261 4.328498 11.552478 0.326495 1.186743 0.005127 -0.000437 2241460.000000 1 0 0
2.212510 8.672939 8.852498 12.588956 1.321019 0.790914 -0.006990 0.003877 -269937.000000 1 0 0
6.586310 8.822239 4.106598 11.750555 0.929502 1.213779 0.003240 0.002137 -31857.000000 1 0 0
-4.210390 3.409539 0.401498 5.432637 -0.680683 1.496824 0.003411 -0.004437 -1533020.000000 1 0 0
4.883310 6.968639 4.319098 9.542708 0.959564 1.101109 -0.001950 0.001995 -776045.000000 1 0 0
-8.255990 13.065839 1.242198 15.505502 -1.007268 1.490597 0.003763 -0.000628 83662.300000 1 0 0
8.800910 8.135039 -9.220202 15.121078 0.746101 2.226552 0.011688 -0.006399 -1325040.000000 1 0 0
7.252610 1.841439 6.069698 9.634962 0.248646 0.889287 -0.000474 0.001083 -1056350.000000 1 0 0
11.585510 -6.196761 3.044998 13.486879 -0.491154 1.343058 0.013779 -0.005643 206175.000000 1 0 0
11.431310 4.731739 -2.162502 12.559484 0.392455 1.743839 0.006879 0.000051 516481.000000 1 0 0
-4.052090 14.465139 -5.895902 16.137576 -1.297669 1.944808 -0.001529 0.006720 -2348080.000000 1 0 0
7.260110 -3.086261 7.018598 10.559116 -0.401954 0.843710 0.003379 -0.006100 -1108720.000000 1 0 0
-7.997490 -0.445361 0.895898 8.059827 0.055630 1.459410 0.001189 -0.004119 290469.000000 1 0 0
-3.249190 1.100039 10.730098 11.265094 -0.326445 0.309426 -0.002189 0.000951 -173185.000000 1 0 0
7.100410 -1.393061 -1.917902 7.485639 -0.193734 1.829896 0.006671 -0.003577 -1826460.000000 1 0 0
-7.675190 5.321339 2.910198 9.782354 -0.606227 1.268729 0.004815 -0.004058 895341.000000 1 0 0
9.467210 -2.190561 2.773598 10.105418 -0.227382 1.292762 0.003176 -0.006680 -1859560.000000 1 0 0
0.292110 3.394039 1.569098 3.750587 1.484942 1.139157 -0.003335 -0.000201 -3410400.000000 1 0 0
-7.483890 -2.994661 3.941898 8.973024 0.380634 1.115971 -0.004571 -0.000460 1266680.000000 1 0 0
-2.253590 8.298039 -6.727302 10.917541 -1.305612 2.234695 0.002384 -0.001188 -503161.000000 1 0 0
4.575610 9.794239 7.202998 12.990247 1.133753 0.983043 -0.001040 0.006755 -1174970.000000 1 0 0
-11.728090 -3.108361 6.805498 13.911319 0.259079 1.059617 0.013104 -0.004179 -1063710.000000 1 0 0
-4.767790 2.270739 -5.668602 7.747330 -0.444481 2.391586 0.007594 -0.006969 84398.900000 1 0 0
-2.748390 2.911639 -2.028402 4.488396 -0.814233 2.039714 0.001633 -0.003478 458606.000000 1 0 0
2.250210 5.214439 11.361698 12.702048 1.163404 0.463535 0.002509 -0.004298 198824.000000 1 0 0
-0.626690 1.584539 4.454998 4.769750 -1.194173 0.365316 -0.000401 -0.001557 -722526.000000 1 0 0
5.119310 1.545039 7.514098 9.222590 0.293113 0.618500 -0.002067 -0.000727 383733.000000 1 0 0
3.519610 -8.085761 1.850598 9.010655 -1.160247 1.363945 0.005231 -0.002979 2537710.000000 1 0 0
5.009110 6.405939 -4.621302 9.353271 0.907160 2.087577 0.003494 0.000058 -1867340.000000 1 0 0
-4.152290 2.795039 -8.048402 9.477896 -0.592465 2.585219 0.011191 -0.008389 502133.000000 1 0 0
-8.733790 -2.117661 -12.936802 15.751965 0.237877 2.534450 0.013606 -0.007776 -107361.000000 1 0 0
-7.860890 8.153939 1.271198 11.397204 -0.803695 1.459028 0.001705 -0.002192 -776117.000000 1 0 0
7.396010 0.807839 -6.510202 9.886167 0.108795 2.289642 0.000953 -0.000041 65116.300000 1 0 0
8.950610 8.863439 5.449498 13.724832 0.780505 1.162492 0.011130 0.001315 453161.000000 1 0 0
9.297910 -1.193661 -1.423702 9.481713 -0.127681 1.721519 0.003675 -0.004946 34250.100000 1 0 0
5.416110 0.072639 4.171398 6.836673 0.013411 0.914546 -0.001884 -0.000034 -426925.000000 1 0 0
-4.241690 -7.267961 -8.032102 11.633135 1.042512 2.332908 0.014327 -0.008074 -122306.000000 1 0 0
-2.145190 7.428739 -0.582502 7.754181 -1.289675 1.645988 0.002067 -0.000857 230518.000000 1 0 0
13.277210 -3.428161 -7.372702 15.568986 -0.252680 2.064114 0.017365 -0.010633 1070850.000000 1 0 0
-4.792790 -5.080661 1.613498 7.168495 0.814546 1.343769 0.006088 -0.002274 233475.000000 1 0 0
-8.866790 1.324639 2.531598 9.315772 -0.148297 1.295581 0.001521 -0.005199 -12608.000000 1 0 0
-0.968790 11.203139 10.135898 15.138868 -1.484536 0.837223 -0.006196 -0.002981 403355.000000 1 0 0
-8.522090 0.388539 7.455398 11.329605 -0.045560 0.852576 -0.003327 -0.003680 -817883.000000 1 0 0
-6.248590 12.880439 -2.023202 14.458352 -1.119121 1.711190 0.003471 0.002685 338033.000000 1 0 0
-12.948290 -0.761761 3.302398 13.384480 0.058763 1.321488 0.008775 -0.004936 441748.000000 1 0 0
-6.651790 12.664339 8.655998 16.719991 -1.087163 1.026632 0.010990 -0.016449 1361280.000000 1 0 0
-8.131390 0.800739 -14.146302 16.336417 -0.098159 2.617816 0.011291 -0.007364 -976973.000000 1 0 0
7.284710 2.758139 3.683798 8.616537 0.361941 1.129041 -0.001171 -0.000053 -969782.000000 1 0 0
-1.695490 0.725839 -1.975202 2.702397 -0.404494 2.390447 0.002064 -0.005315 695895.000000 1 0 0
-6.264590 9.615639 -10.381402 15.475112 -0.993367 2.306144 -0.001936 -0.001606 -79851.000000 1 0 0
-10.073590 13.746739 5.305498 17.849324 -0.938395 1.268998 0.008100 -0.002402 636587.000000 1 0 0
-5.680490 8.289139 2.333898 10.316243 -0.970009 1.342585 0.002780 -0.001692 -1004640.000000 1 0 0
-2.398290 -10.732161 -1.259502 11.068758 1.350941 1.684832 0.011074 -0.000322 330651.000000 1 0 0
-2.221290 -12.430661 8.819198 15.402393 1.393968 0.961139 0.007749 0.002722 438901.000000 1 0 0
-14.812390 -6.309061 -1.596202 16.178967 0.402659 1.669616 0.010701 -0.001587 540899.000000 1 0 0
-2.750690 -9.340461 3.252498 10.265926 1.284401 1.248417 0.007710 -0.000562 -119519.000000 1 0 0
4.786310 -2.755261 7.476598 9.295147 -0.522326 0.636207 -0.000034 -0.001512 -663243.000000 1 0 0
-14.958990 -1.228761 -0.215002 15.010911 0.081958 1.585120 0.002427 -0.006780 8513.590000 1 0 0
5.374510 8.690139 -2.933302 10.630529 1.016913 1.850355 0.002551 -0.000936 -969692.000000 1 0 0
-5.587590 -5.601361 8.571998 11.665143 0.786629 0.745367 0.000112 0.000933 -3210040.000000 1 0 0
3.464110 3.500139 6.971398 8.535305 0.790572 0.615002 -0.002709 0.000753 544244.000000 1 0 0
3.240210 2.091939 9.174698 9.952400 0.573289 0.397949 0.002957 -0.004185 -479579.000000 1 0 0
9.855310 -3.146461 5.117198 11.541797 -0.309037 1.111450 0.011859 -0.006210 -807301.000000 1 0 0
6.525010 9.954939 -5.141802 12.965905 0.990596 1.978566 0.001611 -0.002182 773761.000000 1 0 0
-4.578990 11.996039 -8.474402 15.384654 -1.206157 2.154160 0.000715 0.001094 -1066580.000000 1 0 0
-3.428790 -7.220261 2.205598 8.291768 1.127442 1.301557 0.007645 -0.002686 1187540.000000 1 0 0
-7.451690 -4.001761 1.132798 8.533756 0.492829 1.437660 0.002170 -0.002142 3548470.000000 1 0 0
-1.980490 -4.010961 -10.898302 11.780625 1.112146 2.752105 0.009676 -0.005543 -622170.000000 1 0 0
-5.266790 8.304939 -4.444102 10.791716 -1.005626 1.995232 0.000520 -0.000637 -1222600.000000 1 0 0
-11.074890 -3.430661 -10.071302 15.357530 0.300395 2.286024 0.022202 -0.002366 883583.000000 1 0 0
4.649610 -11.458361 -7.702702 14.568614 -1.185314 2.127887 -0.001355 -0.000029 -1981350.000000 1 0 0
-9.281990 -3.891061 7.164098 12.353946 0.396952 0.952186 0.000393 -0.000328 -581788.000000 1 0 0
-5.812490 -9.606761 -5.072002 12.320718 1.026678 1.995076 0.013539 -0.007698 450102.000000 1 0 0
4.897610 4.353139 -9.512002 11.550523 0.726609 2.538372 0.003023 0.001808 36539.900000 1 0 0
-3.476990 -7.286661 -14.037402 16.193626 1.125577 2.619640 0.007875 -0.001382 498772.000000 1 0 0
0.585710 -0.811061 -8.809702 8.866325 -0.945356 3.028516 0.009017 -0.010188 -251713.000000 1 0 0
-7.773890 2.226439 -2.971902 8.615253 -0.278933 1.922990 0.003569 -0.003729 42383.400000 1 0 0
-2.320390 7.579239 -12.649502 14.927792 -1.273706 2.581826 0.010567 -0.007174 -472129.000000 1 0 0
-9.743290 8.867039 7.573598 15.195903 -0.738349 1.049047 0.010426 -0.015137 -88202.300000 1 0 0
-10.744990 -3.122361 -14.340302 18.189233 0.282799 2.478992 0.028795 -0.002649 -62988.800000 1 0 0
-3.206090 4.864939 7.913398 9.826928 -0.988107 0.634654 -0.001715 -0.001007 -346843.000000 1 0 0
8.718510 -2.427661 -3.586202 9.734824 -0.271570 1.948072 0.004266 -0.002501 -5003380.000000 1 0 0
1.938410 -8.248561 -1.207302 8.558841 -1.339985 1.712327 0.005072 -0.000798 -110975.000000 1 0 0
-13.518790 -2.831661 5.038998 14.702635 0.206476 1.220978 0.022155 -0.007549 610502.000000 1 0 0
6.957710 2.730639 -1.954902 7.725786 0.373992 1.826613 0.004670 -0.001915 1372810.000000 1 0 0
-11.090490 4.516239 9.038898 15.003235 -0.386713 0.924213 0.011195 -0.009369 -4150650.000000 1 0 0
-1.741490 -2.514361 7.948698 8.516842 0.965042 0.367324 -0.002392 -0.003204 -677325.000000 1 0 0
3.105210 11.846539 -9.859402 15.722297 1.314444 2.248617 0.008501 -0.011083 562970.000000 1 0 0
3.749210 -5.017161 -7.025302 9.411872 -0.929040 2.413477 -0.002689 -0.006611 426357.000000 1 0 0
8.266710 -13.733561 -9.702802 18.737490 -1.028955 2.115107 0.029956 -0.005458 21294.900000 1 0 0
-6.306390 -5.798961 -0.400802 8.576662 0.743505 1.617545 0.008500 -0.003107 87338.800000 1 0 0
-1.146290 -4.113461 9.871798 10.755786 1.299023 0.408261 -0.001703 -0.003257 492110.000000 1 0 0
2.795310 3.312639 1.792998 4.690649 0.869894 1.178567 -0.005279 0.000514 -1163010.000000 1 0 0
-9.143490 13.362239 7.773898 17.960689 -0.970700 1.123168 0.018307 -0.020130 1044720.000000 1 0 0
4.074210 -11.053961 -0.035002 11.780936 -1.217671 1.573767 0.005922 -0.000412 -230958.000000 1 0 0
-12.542190 -1.444261 -9.047702 15.532331 0.114647 2.192607 0.018111 -0.007189 321648.000000 1 0 0
-4.319690 0.833039 -13.590502 14.284796 -0.190508 2.828535 0.014088 -0.009294 253196.000000 1 0 0
4.062410 -3.136461 4.912398 7.104380 -0.657476 0.807288 0.000568 -0.000536 127416.000000 1 0 0
1.760910 -1.222661 1.122198 2.419718 -0.606913 1.088548 0.000803 -0.001982 801600.000000 1 0 0
8.198310 -9.036461 7.337398 14.237532 -0.833991 1.029373 0.009537 -0.005316 -1540000.000000 1 0 0
-0.140290 2.375339 -6.515802 6.936684 -1.511804 2.791454 0.005951 -0.008156 -415920.000000 1 0 0
-3.802590 -9.827261 -3.360002 11.060034 1.201596 1.879471 0.011506 -0.001977 1625300.000000 1 0 0
-9.474690 2.195639 -5.505502 11.175917 -0.227718 2.085896 0.004795 -0.004033 -1264530.000000 1 0 0
8.874210 -7.689261 5.301298 12.883327 -0.713980 1.146713 0.007426 -0.008624 1294700.000000 1 0 0
-5.479090 -4.325661 4.692998 8.411658 0.668297 0.978924 0.000351 -0.000920 -217096.000000 1 0 0
-0.117390 -12.398461 10.477298 16.232972 1.561329 0.869206 0.010060 0.002291 -356814.000000 1 0 0
-14.379190 -8.369261 3.129198 16.929191 0.527109 1.384887 0.011524 -0.004273 -1657400.000000 1 0 0
10.920710 -1.225761 -3.605002 11.565485 -0.111774 1.887782 0.009509 -0.004002 -91364.100000 1 0 0
-13.671590 3.044939 2.810298 14.285720 -0.219143 1.372784 0.011413 -0.006348 -630806.000000 1 0 0
-6.329690 6.168139 0.913198 8.885091 -0.772473 1.467836 0.002470 -0.003453 -219140.000000 1 0 0
7.237810 -6.995261 -0.469602 10.076711 -0.768359 1.617416 0.004265 -0.005927 105414.000000 1 0 0
-6.820190 7.790839 10.012998 14.403899 -0.851733 0.802155 0.002838 -0.005930 477038.000000 1 0 0
-12.626590 -5.066361 -1.890902 13.735876 0.381580 1.708896 0.004166 -0.003862 -1657100.000000 1 0 0
-9.466590 -5.582661 0.243298 10.992798 0.532828 1.548662 0.005940 -0.002394 -841669.000000 1 0 0
-1.750490 1.854839 2.133898 3.325382 -0.814333 0.874083 -0.000303 -0.002254 -224640.000000 1 0 0
-7.201290 7.354839 7.563198 12.773183 -0.795947 0.937115 0.004457 -0.006537 -562612.000000 1 0 0
5.627110 7.081939 -0.535102 9.061157 0.899374 1.629885 0.002117 -0.000813 -1472730.000000 1 0 0
-0.050890 -4.105661 7.411398 8.472772 1.558402 0.505915 -0.000386 -0.003331 -745955.000000 1 0 0
6.534610 0.573339 12.984198 14.547139 0.087515 0.467805 0.010763 -0.005000 583420.000000 1 0 0
5.831010 6.165539 -7.895902 11.591368 0.813276 2.320181 0.000493 0.000250 -449894.000000 1 0 0
9.977310 5.238339 9.077198 14.470054 0.483467 0.892703 0.000528 -0.000196 -1260090.000000 1 0 0
-1.201590 -5.033661 -8.462002 9.919023 1.336471 2.592711 0.009229 -0.005223 538791.000000 1 0 0
10.115710 -3.619661 -8.004302 13.397701 -0.343629 2.211099 0.013535 -0.012596 742539.000000 1 0 0
8.410510 -5.636461 1.315698 10.209674 -0.590423 1.441569 0.006952 -0.007187 1395690.000000 1 0 0
15.785410 3.066939 -4.951502 16.825655 0.191899 1.869501 0.021499 -0.002118 -947208.000000 1 0 0
-6.845890 3.559739 1.100098 7.794111 -0.479505 1.429179 0.004642 -0.005742 304261.000000 1 0 0
-1.683790 3.644439 0.201298 4.019653 -1.137995 1.520697 0.000132 -0.006900 -1303720.000000 1 0 0
-2.486890 9.988339 6.961898 12.426567 -1.326779 0.976117 0.001486 -0.000827 969105.000000 1 0 0
5.488310 -5.719661 -8.736302 11.796569 -0.806037 2.404729 -0.002005 -0.006953 -173514.000000 1 0 0
-1.282090 -0.907261 6.163698 6.360665 0.615836 0.249509 0.001479 -0.002711 717809.000000 1 0 0
-5.739590 4.949039 -7.778302 10.859920 -0.711571 2.369195 0.005034 -0.004198 31647.800000 1 0 0
6.809310 -1.205461 2.488798 7.349419 -0.175216 1.225326 0.001624 -0.001802 -1286750.000000 1 0 0
8.773310 7.527339 3.224898 12.001324 0.709110 1.298741 0.005202 0.001024 -11693.100000 1 0 0
-5.125590 -4.791061 -7.704502 10.420426 0.751677 2.402924 0.015774 -0.008117 1570930.000000 1 0 0
-2.269390 7.854639 -10.077802 12.977194 -1.289532 2.460012 0.009490 -0.004214 577927.000000 1 0 0
-2.768890 -2.176261 1.504498 3.829670 0.666127 1.167064 0.001060 -0.001692 233866.000000 1 0 0
6.141210 -2.170561 -9.272502 11.331597 -0.339738 2.529221 -0.001831 -0.004231 1306080.000000 1 0 0
1.125610 -7.555261 5.059998 9.162562 -1.422900 0.985739 0.001194 -0.001837 529958.000000 1 0 0
1.778310 11.715939 1.222998 11.913075 1.420161 1.467955 0.002433 -0.001058 289353.000000 1 0 0
-1.204390 7.006339 2.374198 7.495076 -1.400560 1.248477 0.000776 0.000436 716848.000000 1 0 0
8.636910 7.907439 -6.672302 13.477516 0.741335 2.088711 0.006311 -0.003288 166103.000000 1 0 0
3.854810 -10.792661 5.553898 12.735261 -1.227749 1.119532 0.009255 0.000369 604968.000000 1 0 0
7.825410 -7.077661 12.440598 16.312536 -0.735266 0.703411 0.014421 -0.006881 195978.000000 1 0 0
-8.692090 0.009239 -4.020902 9.577064 -0.001063 2.004073 0.004478 -0.003686 -239391.000000 1 0 0
-3.251490 -5.081561 11.243498 12.759730 1.001582 0.492464 -0.000330 -0.004157 61626.900000 1 0 0
-8.273490 0.196839 -11.626602 14.271203 -0.023787 2.522990 0.006967 -0.006752 -1888080.000000 1 0 0
1.431810 -5.080261 5.312798 7.488989 -1.296084 0.782129 -0.000853 -0.001571 -490000.000000 1 0 0
6.708510 3.722039 -7.660002 10.841278 0.506539 2.355420 0.001204 0.000988 412238.000000 1 0 0
16.274910 4.218939 -1.241802 16.858655 0.253646 1.644523 0.004431 0.007445 -667453.000000 1 0 0
7.905610 7.400539 0.189298 10.830628 0.752412 1.553317 0.005412 -0.000347 -3157790.000000 1 0 0
5.532810 -10.347661 13.908998 18.197426 -1.079782 0.700781 0.001991 -0.002321 684310.000000 1 0 0
-5.106790 -9.160161 8.979998 13.806818 1.062213 0.862681 -0.003008 -0.002742 570516.000000 1 0 0
-12.613290 -3.169561 2.872498 13.318875 0.246190 1.353417 0.007575 -0.002983 -155670.000000 1 0 0
-2.089990 -1.384561 -5.877902 6.390211 0.585093 2.738441 0.007756 -0.008687 -1905300.000000 1 0 0
-2.607390 13.061939 -4.273502 13.988408 -1.373769 1.881263 0.004099 0.005132 281762.000000 1 0 0
3.886710 -0.437161 -4.970102 6.324519 -0.112005 2.474860 0.003441 -0.002119 -121933.000000 1 0 0
-8.857690 3.773839 -7.408502 12.148515 -0.402762 2.226640 0.004445 -0.002295 460918.000000 1 0 0
-4.568190 7.931439 -11.430502 14.643512 -1.048241 2.466397 0.005436 -0.005003 -1499060.000000 1 0 0
-9.980890 -6.398861 7.328698 13.938199 0.570101 1.017142 0.001290 0.001328 -1808740.000000 1 0 0
8.135610 5.176039 4.046798 10.457348 0.566627 1.173441 -0.002227 0.000454 -1542700.000000 1 0 0
-6.731690 -7.607261 4.019698 10.924469 0.846385 1.193989 0.006148 0.001376 -164083.000000 1 0 0
-4.077990 11.809339 7.986398 14.828117 -1.238298 1.002024 0.000110 -0.004611 -537911.000000 1 0 0
-7.304490 9.824639 -7.986602 14.617281 -0.931477 2.148833 0.001920 -0.002247 -1264540.000000 1 0 0
12.988810 5.396939 4.499798 14.767679 0.393802 1.261167 0.002425 -0.002387 -2111960.000000 1 0 0
5.428710 3.911439 -3.761802 7.676028 0.624359 2.082968 0.001407 -0.000448 265549.000000 1 0 0
-2.808390 -4.210761 5.178398 7.241089 0.982594 0.773971 0.001049 0.000356 -1702370.000000 1 0 0
12.568410 -2.299461 -5.215402 13.800466 -0.180954 1.958339 0.007715 -0.011881 -2420970.000000 1 0 0
-5.175790 9.636539 6.929598 12.948785 -1.077911 1.006106 0.002115 -0.004460 332566.000000 1 0 0
1.870710 3.741339 -0.547602 4.218655 1.107140 1.700968 -0.006699 -0.001239 448409.000000 1 0 0
0.079710 9.647139 7.602198 12.282796 1.562534 0.903416 -0.003419 0.000843 -121854.000000 1 0 0
-5.578690 2.111539 5.805498 8.323712 -0.361836 0.798942 -0.001684 -0.002343 694959.000000 1 0 0
8.919710 1.016739 10.602598 13.892807 0.113498 0.702589 0.008568 -0.000100 -1340750.000000 1 0 0
0.409110 -2.880361 -10.217602 10.623711 -1.429706 2.864202 0.005557 -0.006711 -2124300.000000 1 0 0
1.191710 10.672839 -2.846902 11.110109 1.459599 1.829931 0.004978 -0.002006 -369769.000000 1 0 0
2.377710 -4.235461 11.676598 12.646564 -1.059257 0.394205 0.000463 -0.004616 -419373.000000 1 0 0
6.706910 -3.299061 9.485898 12.076784 -0.457138 0.667348 0.002906 -0.003525 772692.000000 1 0 0
-10.693790 -8.195861 5.643598 14.607514 0.653923 1.174126 0.009039 0.002052 -1479590.000000 1 0 0
-2.951490 0.803739 -6.945902 7.589653 -0.265870 2.726752 0.010661 -0.008090 549789.000000 1 0 0
11.054710 2.577039 -4.989102 12.399149 0.229027 1.984905 0.006235 -0.000370 -3016140.000000 1 0 0
-2.075190 -4.127461 -0.034502 4.619906 1.104930 1.578264 0.004455 -0.001967 1027080.000000 1 0 0
-1.237490 -6.439961 -10.470802 12.354843 1.380952 2.582065 0.003974 -0.000446 723885.000000 1 0 0
0.340610 6.828039 -6.615002 9.512959 1.520954 2.339727 0.006757 -0.000730 -2170340.000000 1 0 0
2.013110 3.879839 -6.245302 7.622963 1.092171 2.530942 0.002218 -0.002674 -1080430.000000 1 0 0
1.655810 -14.708661 6.430198 16.137963 -1.458694 1.160968 0.020271 -0.004874 -171347.000000 1 0 0
-1.819690 5.345739 -10.528002 11.946841 -1.242699 2.649270 0.012532 -0.007344 55751.400000 1 0 0
13.653610 4.330739 -0.897502 14.352069 0.307149 1.633372 0.004550 0.000404 -2712550.000000 1 0 0
-2.466590 3.403539 -6.237002 7.521192 -0.943676 2.548573 0.009311 -0.007849 -1475090.000000 1 0 0
5.582810 7.823739 14.073398 17.042277 0.951019 0.599189 0.013975 -0.001746 608533.000000 1 0 0
15.845510 0.485839 -5.790802 16.877489 0.030651 1.921020 0.015077 -0.007127 134371.000000 1 0 0
6.127110 -8.254361 10.620898 14.781050 -0.932249 0.769084 -0.002397 0.000581 85631.000000 1 0 0
0.028110 -5.932761 -6.399902 8.726808 -1.566058 2.394049 0.000894 -0.004620 -694009.000000 1 0 0
8.714310 5.552939 -7.564102 12.805857 0.567339 2.202692 0.002914 0.000390 -99288.200000 1 0 0
-15.967390 -0.675561 5.432998 16.879911 0.042284 1.243101 0.030763 -0.014362 169488.000000 1 0 0
-0.378890 4.007339 -12.337702 12.977720 -1.476528 2.826228 0.012613 -0.007663 677173.000000 1 0 0
-11.295990 3.775539 5.795598 13.245491 -0.322564 1.117921 0.004852 -0.009006 140852.000000 1 0 0
5.105010 -9.774461 -9.647602 14.651874 -1.089484 2.289561 -0.006917 -0.001455 246051.000000 1 0 0
1.473310 11.242439 -11.703502 16.295246 1.440490 2.372031 0.013358 -0.001561 -2676930.000000 1 0 0
5.829110 2.335539 1.200198 6.393258 0.381082 1.381947 -0.000007 0.000428 -578049.000000 1 0 0
5.741210 4.491939 4.840098 8.750175 0.663918 0.984664 -0.004195 0.001289 -10472.000000 1 0 0
0.463210 -1.652061 -6.447802 6.672182 -1.297432 2.881518 0.002561 -0.006591 799420.000000 1 0 0
12.672810 6.814739 -4.624202 15.113704 0.493386 1.881744 0.010786 -0.003189 28346.600000 1 0 0
7.427510 3.152939 12.717398 15.061247 0.401443 0.565392 0.011424 -0.000027 -872689.000000 1 0 0
-2.405990 -0.182261 8.586398 8.918982 0.075608 0.273947 -0.002921 -0.001637 867249.000000 1 0 0
2.260110 -15.053061 13.609298 20.418514 -1.421767 0.841269 0.020259 -0.001465 459774.000000 1 0 0
18.794310 4.510939 -1.818702 19.413458 0.235560 1.664616 0.007650 0.000712 580345.000000 1 0 0
-0.268890 -13.205461 7.314098 15.098097 1.550437 1.065075 0.011692 -0.001671 -1636350.000000 1 0 0
4.309210 1.623639 -0.637302 4.648834 0.360333 1.708318 0.000824 -0.002366 -70848.300000 1 0 0
2.739610 -0.462761 -7.406502 7.910492 -0.167335 2.782706 0.002440 -0.004360 158862.000000 1 0 0
7.247410 -11.256461 0.979098 13.423543 -0.998761 1.497793 0.005248 -0.001347 459366.000000 1 0 0
-11.779290 -7.310561 1.288698 13.923243 0.555449 1.478106 0.004182 0.002699 368822.000000 1 0 0
0.122410 -6.959961 10.094998 12.262342 -1.553210 0.603680 0.000314 -0.003705 -1761590.000000 1 0 0
-4.675390 -7.084961 10.563298 13.551354 0.987491 0.676927 0.000344 -0.001294 -1370960.000000 1 0 0
11.860310 0.756239 -1.584102 11.989505 0.063676 1.703308 0.005343 -0.003051 1227970.000000 1 0 0
6.484710 -9.655261 -7.392502 13.781314 -0.979369 2.136980 -0.004313 -0.004707 -128606.000000 1 0 0
-10.967390 4.984239 3.564998 12.563260 -0.426557 1.283079 0.002786 -0.006554 -171345.000000 1 0 0
6.156110 -8.986361 2.199198 11.112553 -0.970174 1.371579 0.006502 -0.002790 2518210.000000 1 0 0
11.600810 -1.230761 5.831398 13.042192 -0.105697 1.107256 0.013765 -0.007953 866083.000000 1 0 0
-6.463390 3.614539 4.028698 8.430345 -0.509904 1.072556 0.001140 -0.004387 -2155450.000000 1 0 0
9.518710 6.299039 -3.191202 11.851899 0.584593 1.843417 0.005492 -0.000638 -586105.000000 1 0 0
-2.373990 6.613839 10.857798 12.933309 -1.226177 0.574393 -0.010802 -0.001948 -291619.000000 1 0 0
1.877610 9.712139 3.008298 10.339291 1.379826 1.275568 -0.002390 -0.001368 -452760.000000 1 0 0
2.780810 6.083439 -5.559302 8.697527 1.142044 2.264230 0.001343 -0.000878 -2147200.000000 1 0 0
11.879110 0.092439 -5.713802 13.182160 0.007782 2.019113 0.010898 -0.005426 315626.000000 1 0 0
-2.551690 -12.564061 6.262398 14.268299 1.370427 1.116419 0.013751 0.002371 686.760000 1 0 0
10.839710 1.697139 -2.694702 11.297833 0.155306 1.811633 0.008461 -0.001289 146884.000000 1 0 0
-8.825190 5.306739 0.815298 10.330061 -0.541388 1.491789 0.001351 -0.004043 1227580.000000 1 0 0
1.282210 -10.097061 5.586298 11.610402 -1.444484 1.068835 0.005013 -0.002766 -255821.000000 1 0 0
9.497710 -5.719861 -1.073602 11.138937 -0.542062 1.667329 0.007090 -0.007588 1375720.000000 1 0 0
-7.843590 8.540139 -4.429502 12.412750 -0.827887 1.935691 0.004102 0.000063 -128780.000000 1 0 0
-7.424690 -0.040461 -1.596702 7.594545 0.005449 1.782620 0.002358 -0.004734 -1262510.000000 1 0 0
4.187610 8.831439 2.718298 10.144927 1.128025 1.299535 -0.000763 0.000626 143915.000000 1 0 0
-1.294890 -10.511061 -3.729402 11.227981 1.448221 1.909381 0.009617 0.000560 -437877.000000 1 0 0
3.088110 7.855339 -3.703602 9.217345 1.196233 1.984287 0.004844 -0.001341 -158600.000000 1 0 0
-4.424790 1.715339 -11.156302 12.123705 -0.369828 2.739402 0.012385 -0.011932 -669670.000000 1 0 0
1.288710 2.785039 10.890198 11.314311 1.137410 0.274668 0.003405 -0.004505 437242.000000 1 0 0
2.138810 5.574939 -8.125602 10.083643 1.204466 2.507855 0.005090 -0.001512 -65016.300000 1 0 0
15.436010 6.158739 3.942098 17.080417 0.379631 1.337900 0.004395 -0.004634 52011.200000 1 0 0
-4.420290 9.076939 4.599798 11.094500 -1.117619 1.143291 0.003911 -0.002177 -1031650.000000 1 0 0
-0.821190 -8.268961 -12.253802 14.805597 1.471811 2.545698 -0.003952 -0.001198 -481224.000000 1 0 0
14.381610 -4.286761 -5.278402 15.908129 -0.289687 1.909013 0.027112 -0.011531 1160630.000000 1 0 0
-5.922690 -6.144561 -5.643202 10.231305 0.803782 2.155032 0.013904 -0.006700 667151.000000 1 0 0
-9.024790 2.612139 -12.445902 15.593927 -0.281741 2.494973 0.010274 -0.009086 -1223160.000000 1 0 0
10.474210 5.235239 13.828698 18.120423 0.463505 0.702614 0.024513 -0.001239 703847.000000 1 0 0
-0.446190 10.881039 5.446598 12.176270 -1.529813 1.107038 0.000969 0.002878 511864.000000 1 0 0
0.448810 11.234939 -0.606102 11.260224 1.530870 1.624649 0.003413 -0.002995 -152591.000000 1 0 0
-1.403690 -0.560061 3.640698 3.941915 0.379637 0.393465 -0.000182 -0.001318 -13378.200000 1 0 0
-4.867390 6.635139 8.686798 11.965660 -0.937889 0.758342 -0.000705 -0.000241 -706745.000000 1 0 0
3.469610 -8.760461 -11.349502 14.751103 -1.193697 2.448698 -0.006675 0.000032 534163.000000 1 0 0
6.777310 -3.735561 12.083798 14.349374 -0.503754 0.569606 0.013532 -0.002433 -139566.000000 1 0 0
-2.496190 -2.002361 -12.529102 12.931311 0.676061 2.891528 0.012283 -0.007131 953492.000000 1 0 0
-16.071790 -4.886761 5.257498 17.601822 0.295176 1.267476 0.027465 -0.010889 231875.000000 1 0 0
-8.939890 7.309939 5.748198 12.899559 -0.685427 1.108939 0.004478 -0.007580 -4274380.000000 1 0 0
-12.853390 1.587039 5.972198 14.261678 -0.122851 1.138719 0.008838 -0.009042 617339.000000 1 0 0
-3.526090 3.744439 10.149298 11.378154 -0.815421 0.469049 -0.002395 -0.001257 289118.000000 1 0 0
2.054210 -12.213861 -1.086502 12.432966 -1.404169 1.658297 0.010275 -0.001819 -3173950.000000 1 0 0
10.197010 -5.277561 -3.556802 12.020088 -0.477596 1.871199 0.010930 -0.007121 778246.000000 1 0 0
3.111510 -13.339961 1.018198 13.735821 -1.341646 1.496601 0.011976 -0.004174 555876.000000 1 0 0
10.169310 -1.797061 -6.117402 12.002787 -0.174908 2.105592 0.009169 -0.003772 43071.800000 1 0 0
12.059510 -5.317661 -1.592902 13.275792 -0.415304 1.691072 0.014047 -0.010116 -1661940.000000 1 0 0
1.397110 0.857939 5.898498 6.122113 0.550709 0.271110 0.000980 -0.001823 338569.000000 1 0 0
-10.864290 11.680739 6.630998 17.275491 -0.821597 1.176847 0.015708 -0.013298 41871.900000 1 0 0
4.714810 -14.110561 3.150598 15.207354 -1.248326 1.362109 0.012478 -0.004711 -2146950.000000 1 0 0
5.316210 -3.474961 -1.672902 6.567804 -0.578939 1.828347 0.004115 -0.004207 -1800870.000000 1 0 0
2.081310 -2.974361 -7.781802 8.586915 -0.960238 2.705099 -0.000638 -0.005768 311029.000000 1 0 0
-2.927090 14.916539 -8.833602 17.581340 -1.377027 2.097217 0.008359 0.004251 -60028.700000 1 0 0
-2.347490 6.015439 -8.095702 10.355511 -1.198728 2.468307 0.008686 -0.004367 -330026.000000 1 0 0
2.587510 -3.602961 -11.319302 12.157431 -0.947985 2.768105 0.001911 -0.003534 -1400590.000000 1 0 0
14.664610 2.774939 -2.659102 15.159878 0.187016 1.747112 0.011131 0.002257 513460.000000 1 0 0
-3.435590 13.269939 2.243498 13.889847 -1.317459 1.408565 -0.001190 -0.000209 346034.000000 1 0 0
7.798810 -4.975761 14.039898 16.813637 -0.567904 0.582608 0.023923 -0.010100 -1671780.000000 1 0 0
-11.578490 7.332239 2.922798 14.013062 -0.564520 1.360677 0.004704 -0.005419 1278840.000000 1 0 0
-2.300390 11.916839 4.021898 12.785872 -1.380105 1.250805 0.003944 -0.000846 809320.000000 1 0 0
1.800010 1.377439 0.594198 2.343171 0.653183 1.314409 -0.003653 -0.001589 -1845190.000000 1 0 0
-6.839490 8.616539 5.322398 12.220937 -0.899870 1.120186 0.003683 -0.004713 -1049460.000000 1 0 0
-1.144290 9.173439 0.992998 9.297711 -1.446698 1.463792 0.001368 0.000188 532761.000000 1 0 0
4.958110 12.983939 -8.623002 16.356091 1.206021 2.126103 0.018675 -0.015482 -1944310.000000 1 0 0
8.988310 6.894039 7.227398 13.436993 0.654293 1.002884 0.001686 0.000942 -1376110.000000 1 0 0
7.220410 -13.784361 2.982698 15.844223 -1.088281 1.381415 0.017585 -0.010064 434537.000000 1 0 0
4.205410 -13.364361 -1.264102 14.067322 -1.265933 1.660779 0.006877 0.001757 -2777870.000000 1 0 0
12.102410 -11.819761 -4.540002 17.515327 -0.773583 1.832992 0.029646 -0.004720 -674046.000000 1 0 0
3.061510 -0.091961 -2.048202 3.684621 -0.030029 2.160216 0.000137 -0.002524 1741540.000000 1 0 0
-13.746790 -3.155561 -10.667502 17.684099 0.225640 2.218336 0.034641 -0.006509 658034.000000 1 0 0
-6.680290 13.694639 5.049698 16.052068 -1.116954 1.250780 0.006206 -0.004544 318909.000000 1 0 0
7.341810 -4.389961 -0.564002 8.572749 -0.538903 1.636634 0.003315 -0.003361 -1548030.000000 1 0 0
11.778810 2.125339 -7.235702 13.986165 0.178517 2.114544 0.013643 -0.001824 -1178580.000000 1 0 0
-7.471390 -4.437861 9.764398 13.071333 0.535982 0.727245 0.002986 -0.002382 478591.000000 1 0 0
0.928810 2.796739 8.418298 8.919203 1.250152 0.336731 0.003134 -0.001472 -1362770.000000 1 0 0
1.559810 7.967639 -8.820002 11.987857 1.377473 2.397562 0.008399 -0.002918 834199.000000 1 0 0
-8.572890 -2.136461 -5.632402 10.477731 0.244236 2.138336 0.009572 -0.005948 -599476.000000 1 0 0
6.630710 -0.568061 7.045398 9.691576 -0.085462 0.756910 0.001420 -0.002259 -210300.000000 1 0 0
-10.904790 6.526839 7.141198 14.577750 -0.539338 1.058856 0.008066 -0.009622 244168.000000 1 0 0
-6.008390 11.119639 5.054898 13.612462 -1.075400 1.190341 0.000155 -0.002416 -411113.000000 1 0 0
6.045310 -1.301361 -6.871402 9.244213 -0.212032 2.408815 0.001023 -0.001657 -696895.000000 1 0 0
4.500110 -5.757761 11.424298 13.561615 -0.907393 0.569075 -0.000236 -0.002870 -1365650.000000 1 0 0
-8.997190 -7.431661 2.635898 11.963568 0.690394 1.348647 0.005934 0.002758 -2469740.000000 1 0 0
-1.335590 12.799539 -9.425902 15.951791 -1.466826 2.202969 0.017099 0.002466 746954.000000 1 0 0
-4.636290 9.342939 -2.335002 10.688215 -1.110166 1.791038 -0.000507 -0.000280 570295.000000 1 0 0
-3.293490 9.692739 -0.220002 10.239369 -1.243247 1.592284 0.002528 -0.000624 -2079420.000000 1 0 0
-3.580590 10.550939 -6.447402 12.872915 -1.243630 2.095377 0.004343 0.004012 536725.000000 1 0 0
4.951610 -4.930861 0.383498 6.998493 -0.783298 1.515972 0.002664 -0.004152 -2652400.000000 1 0 0
-2.267890 2.907139 -10.993302 11.595148 -0.908301 2.817987 0.014590 -0.008053 -1180420.000000 1 0 0
-3.648290 12.117539 -2.083302 12.825168 -1.278353 1.733958 -0.001409 0.004749 -548386.000000 1 0 0
-0.155890 0.376339 -0.001902 0.407353 -1.178087 1.575464 -0.004470 -0.002357 -2034470.000000 1 0 0
-4.930890 -1.785161 0.206098 5.248137 0.347357 1.531515 -0.001075 -0.002916 296050.000000 1 0 0
2.465510 2.370239 -2.590202 4.290212 0.765699 2.218989 -0.003904 -0.001528 1071050.000000 1 0 0
6.100110 -9.696061 8.485798 14.256006 -1.009231 0.933227 0.000698 -0.000585 -965677.000000 1 0 0
-4.082990 -5.450161 6.628698 9.503404 0.927839 0.798883 0.003594 -0.000805 268277.000000 1 0 0
-6.325490 5.281839 -12.035402 14.586313 -0.695726 2.541204 0.002006 -0.009518 1149490.000000 1 0 0
-12.851690 3.180139 7.944698 15.440125 -0.242576 1.030315 0.014963 -0.011834 804870.000000 1 0 0
4.665810 -7.545761 -4.964702 10.166442 -1.017004 2.080985 -0.000809 -0.005710 -62090.900000 1 0 0
-5.892890 2.477439 -1.176202 6.499793 -0.397978 1.752759 0.003456 -0.006097 -738583.000000 1 0 0
-6.910990 -2.743061 -14.524502 16.317086 0.377842 2.668450 0.016104 -0.005764 310097.000000 1 0 0
2.787010 -6.128761 0.869398 6.788592 -1.144005 1.442376 0.004043 -0.002714 961734.000000 1 0 0
4.858910 -7.852261 13.127898 16.050194 -1.016674 0.612997 0.004008 -0.004804 38959.800000 1 0 0
-9.970090 -1.612661 7.952798 12.854974 0.160361 0.903766 0.004224 -0.001900 -303355.000000 1 0 0
-4.534790 13.300939 -0.041402 14.052794 -1.242218 1.573742 -0.002401 0.004597 648739.000000 1 0 0
6.818510 2.198539 -4.445702 8.431484 0.311912 2.126185 0.003633 0.001554 -1992540.000000 1 0 0
4.952710 4.511239 0.098698 6.700027 0.738784 1.556065 -0.002173 -0.000196 -1408350.000000 1 0 0
-5.855890 12.282839 1.988598 13.751877 -1.125918 1.425682 0.000317 -0.000238 67994.400000 1 0 0
6.532110 -7.334561 6.600498 11.833462 -0.843203 0.979085 0.002847 -0.004387 -761461.000000 1 0 0
-0.269990 4.927839 7.568898 9.035747 -1.516062 0.577808 -0.001882 -0.000430 -868610.000000 1 0 0
-5.820490 -3.410161 -1.632702 6.940678 0.529979 1.808258 0.003686 -0.004060 -965291.000000 1 0 0
2.335410 -6.587661 -5.320202 8.783846 -1.230107 2.221417 0.000232 -0.003526 -2088730.000000 1 0 0
-14.465790 -4.837061 -3.726102 15.701594 0.322692 1.810389 0.005497 -0.005913 761908.000000 1 0 0
-12.306190 -5.025161 -6.317902 14.717691 0.387679 2.014484 0.015247 -0.011874 -1281380.000000 1 0 0
-14.768690 -3.699061 -1.220702 15.273747 0.245418 1.650803 0.002075 -0.004082 519009.000000 1 0 0
11.863410 2.891039 8.835198 15.071806 0.239035 0.944427 0.010089 -0.004450 -1535760.000000 1 0 0
8.789710 -6.534661 7.757098 13.421378 -0.639292 0.954562 0.006953 -0.006644 204475.000000 1 0 0
-8.930390 -1.745861 -9.945102 13.479797 0.193062 2.400570 0.008914 -0.007716 560827.000000 1 0 0
-8.843090 5.055939 -3.881702 10.900934 -0.519380 1.934875 0.004543 -0.005362 -448202.000000 1 0 0
-3.975090 -6.378061 4.155398 8.587685 1.013461 1.065715 0.008561 -0.000626 -1006520.000000 1 0 0
-0.243590 -9.245261 3.563598 9.911277 1.544455 1.203011 0.006169 -0.002708 308189.000000 1 0 0
7.984210 -10.528461 3.420898 13.649126 -0.921975 1.317464 0.007078 -0.007001 -199258.000000 1 0 0
-0.074890 6.524339 9.565998 11.579332 -1.559318 0.598597 -0.003644 -0.002130 -21717.100000 1 0 0
-0.047490 3.528439 -9.701802 10.323618 -1.557338 2.792746 0.011796 -0.005355 1734490.000000 1 0 0
4.555710 -3.085961 10.949698 12.254532 -0.595385 0.465667 0.003873 -0.004692 -1728600.000000 1 0 0
8.746510 -9.193961 1.429798 12.770070 -0.810334 1.458596 0.005389 -0.004186 -187650.000000 1 0 0
-0.209790 -0.482661 11.371198 11.383371 1.160779 0.046249 0.002835 -0.003539 -1899500.000000 1 0 0
10.850110 6.048939 11.420798 16.874513 0.508583 0.827379 0.021473 0.001760 -268737.000000 1 0 0
-6.328490 -3.039461 -11.933802 13.845711 0.447749 2.609827 0.011923 -0.006094 1388620.000000 1 0 0
-1.671290 2.898139 8.541598 9.173403 -1.047703 0.373307 -0.000353 -0.003584 -347075.000000 1 0 0
-1.987790 13.361539 -6.881002 15.160153 -1.423110 2.041919 0.001133 0.000713 488522.000000 1 0 0
7.644110 3.097639 9.664798 12.705752 0.385009 0.706462 -0.001500 0.002188 248009.000000 1 0 0
6.412410 8.554439 -8.058102 13.387697 0.927551 2.216679 0.003544 -0.004900 -341204.000000 1 0 0
6.688610 -3.127761 -3.943502 8.370878 -0.437414 2.061331 0.005314 -0.003814 -1142170.000000 1 0 0
2.024210 8.160439 0.986798 8.465458 1.327652 1.453963 -0.003070 0.001036 1092040.000000 1 0 0
-17.718590 6.218039 6.456498 19.856959 -0.337506 1.239626 0.038873 -0.019903 -288862.000000 1 0 0
-14.712090 3.046139 -10.076802 18.090508 -0.204165 2.161591 0.041426 -0.008249 -634193.000000 1 0 0
-18.137190 0.036339 -4.395502 18.662245 -0.002004 1.808559 0.031101 -0.009476 -360492.000000 1 0 0
-13.042790 7.971839 0.192498 15.287303 -0.548619 1.558204 0.009355 -0.002719 -1109210.000000 1 0 0
-12.731690 -4.422361 -12.738802 18.545357 0.334313 2.328011 0.040641 -0.000247 -523575.000000 1 0 0
-17.370790 -0.588761 -8.534302 19.362987 0.033881 2.027234 0.045382 -0.017921 -1101550.000000 1 0 0
-16.689590 -1.977861 -2.013902 16.926610 0.117958 1.690057 0.020885 -0.005148 385219.000000 1 0 0
-15.382890 4.166739 1.755598 16.033625 -0.264521 1.461082 0.016288 -0.003513 -518288.000000 1 0 0
-13.242690 5.909739 4.394998 15.152883 -0.419743 1.276524 0.010328 -0.007322 463200.000000 1 0 0
-9.994890 14.190539 2.911998 17.599686 -0.957167 1.404575 0.010205 -0.003844 266693.000000 1 0 0
-11.911990 2.403339 -6.332002 13.702765 -0.199085 2.051154 0.005927 -0.000895 -394416.000000 1 0 0
-15.977990 10.533239 3.848298 19.520622 -0.582839 1.372356 0.022689 -0.012111 288865.000000 1 0 0
-12.845090 1.094439 -8.562102 15.475907 -0.084998 2.157061 0.017523 -0.004732 754691.000000 1 0 0
-12.371290 14.338339 4.139798 19.384909 -0.858911 1.355581 0.033317 -0.008471 373146.000000 1 0 0
-10.587490 11.200339 -1.089902 15.450904 -0.813519 1.641395 0.011042 0.002430 302950.000000 1 0 0
-17.122590 5.689339 9.007198 20.166340 -0.320794 1.107784 0.043266 -0.022367 281907.000000 1 0 0
-11.825390 12.486439 -9.199402 19.503333 -0.812582 2.061995 0.017206 -0.008564 769977.000000 1 0 0
-17.213490 -0.423661 3.183698 17.510558 0.024607 1.387963 0.039107 -0.008501 807352.000000 1 0 0
-13.071690 15.052539 -0.666002 19.947220 -0.855714 1.604191 0.030849 -0.005419 139996.000000 1 0 0
-16.853890 4.560639 -10.263902 20.253412 -0.264270 2.102235 0.084458 -0.012049 517141.000000 1 0 0
-12.026390 7.410739 -8.920802 16.707298 -0.552251 2.134057 0.008260 -0.000587 101481.000000 1 0 0
-14.622490 13.548139 -2.172102 20.052115 -0.747279 1.679332 0.029461 -0.014133 553360.000000 1 0 0
-11.899190 10.511039 -5.511202 16.806130 -0.723535 1.904906 0.017334 -0.004513 -11069.500000 1 0 0
-17.635690 2.824839 -0.641102 17.871997 -0.158828 1.606676 0.030331 -0.006220 -669736.000000 1 0 0
-9.207490 15.373739 0.760898 17.936240 -1.031179 1.528361 0.012676 -0.007963 138333.000000 1 0 0
-8.118790 13.137739 -3.762102 15.895545 -1.017265 1.809740 0.006152 0.001047 -1519390.000000 1 0 0
-17.904390 11.600039 2.215898 21.448503 -0.574889 1.467299 0.063281 -0.006877 74358.000000 1 0 0
-8.286890 15.698339 -7.250802 19.175102 -1.085092 1.958579 0.043790 -0.018933 -60024.800000 1 0 0
-6.301190 15.345239 -5.517702 17.482174 -1.181161 1.891905 0.009347 0.003819 -1490020.000000 1 0 0
-17.469690 5.289839 -0.029502 18.253036 -0.294025 1.572413 0.040906 -0.002409 467526.000000 1 0 0
-5.453990 12.072539 -12.211802 18.017223 -1.146473 2.315542 -0.004873 -0.007046 -328390.000000 1 0 0
-11.268190 3.580339 -11.496002 16.490876 -0.307650 2.342159 0.013557 -0.009894 517534.000000 1 0 0
-11.933390 11.194639 1.209298 16.406954 -0.753467 1.497023 0.014356 -0.001514 512139.000000 1 0 0
-12.957890 0.161039 -11.028602 17.016547 -0.012427 2.275897 0.020442 -0.010821 595327.000000 1 0 0
-14.042190 -2.300761 -13.172002 19.390158 0.162403 2.317623 0.039529 -0.005763 139536.000000 1 0 0
-18.743390 -2.293261 -3.598102 19.222904 0.121745 1.759085 0.032051 -0.007493 292835.000000 1 0 0
-18.498190 4.717939 -4.948702 19.721349 -0.249725 1.824438 0.070476 -0.012570 672746.000000 1 0 0
-8.197090 15.292639 -2.232502 17.494032 -1.078753 1.698760 0.016710 -0.006404 61350.500000 1 0 0
-15.984890 9.149839 -5.236502 19.148295 -0.519882 1.847796 0.029408 -0.003255 98294.100000 1 0 0
-18.410190 1.668539 2.268698 18.624341 -0.090384 1.448679 0.059954 -0.011494 876903.000000 1 0 0
-15.776090 -2.713961 -8.499302 18.124257 0.170362 2.058894 0.024539 -0.011141 -481235.000000 1 0 0
-9.775890 10.474939 -7.188602 16.030233 -0.819904 2.035816 0.008846 -0.004248 658802.000000 1 0 0
-14.041790 11.907939 -7.911802 20.039149 -0.703353 1.976665 0.041709 -0.017116 -154879.000000 1 0 0
-10.987290 6.579139 -3.870602 13.378608 -0.539533 1.864305 0.003387 -0.000108 -928691.000000 1 0 0
-13.152390 4.896639 -12.788602 18.987121 -0.356402 2.309785 0.038851 -0.016390 276061.000000 1 0 0
-17.742790 9.052139 2.700098 20.100705 -0.471764 1.436060 0.035139 -0.013007 895054.000000 1 0 0
-13.312290 8.396539 -6.578902 17.058748 -0.562713 1.966721 0.014115 -0.006147 -738333.000000 1 0 0
-15.710690 6.999639 -3.725702 17.598340 -0.419133 1.784118 0.014977 0.004678 -906817.000000 1 0 0
-14.946090 -0.353061 -9.239402 17.574891 0.023618 2.124353 0.032194 -0.015584 -54734.300000 1 0 0
-10.191190 5.713439 -6.133802 13.195729 -0.510964 2.054242 0.000750 -0.001527 342103.000000 1 0 0
-12.759890 12.408839 -0.836302 17.818347 -0.771451 1.617748 0.019805 -0.001896 -1030920.000000 1 0 0
-10.897190 3.280939 -14.127702 18.141258 -0.292448 2.463484 0.026317 -0.007195 717384.000000 1 0 0
-10.979190 6.155339 -11.900802 17.322237 -0.510973 2.328183 -0.000404 -0.009834 -776680.000000 1 0 0
-5.956190 11.460939 -14.810002 19.651093 -1.091517 2.424391 0.012203 -0.012368 -299594.000000 1 0 0
-15.627690 13.167139 3.596098 20.749221 -0.700154 1.396604 0.027109 -0.018882 548696.000000 1 0 0
-15.068490 11.063739 -2.822902 18.905938 -0.633332 1.720670 0.028646 -0.005622 925876.000000 1 0 0
-17.982490 7.711539 -4.590502 20.097524 -0.405115 1.801242 0.028259 -0.005450 -1379660.000000 1 0 0
-4.332990 16.249339 -10.642702 19.901832 -1.310204 2.135020 0.016234 0.001820 -309758.000000 1 0 0
-15.890890 4.441539 -4.301202 17.051334 -0.272547 1.825801 0.024872 -0.000912 228252.000000 1 0 0
-18.846190 -1.830161 -6.085402 19.888702 0.096807 1.881756 0.042694 -0.008178 587959.000000 1 0 0
-10.712390 8.535439 -5.831302 14.886675 -0.672776 1.973289 0.003825 0.001366 1106500.000000 1 0 0
-11.459290 13.349139 -6.760602 18.847296 -0.861429 1.937676 0.024450 -0.015080 549223.000000 1 0 0
-9.466590 10.534739 -4.507702 14.863258 -0.838751 1.878927 -0.000481 0.004109 -197484.000000 1 0 0
-11.086490 6.365339 -0.129402 12.784543 -0.521197 1.580918 0.003811 -0.001081 319189.000000 1 0 0
-14.770490 9.135239 -1.272702 17.413780 -0.553896 1.643947 0.021690 -0.000256 -138311.000000 1 0 0
-18.690690 3.490939 4.847498 19.622099 -0.184647 1.321169 0.049559 -0.018778 524416.000000 1 0 0
-14.768890 13.487139 0.410298 20.004784 -0.740067 1.550285 0.019832 0.003591 -368494.000000 1 0 0
-16.911290 2.274939 -9.190102 19.381048 -0.133719 2.064829 0.056004 -0.009516 258766.000000 1 0 0
-9.186190 8.351739 -8.933802 15.295439 -0.737854 2.194546 0.003658 -0.002610 -1977270.000000 1 0 0
-17.722890 4.596639 -2.525102 18.482588 -0.253770 1.707846 0.035658 -0.004707 942845.000000 1 0 0
-13.531990 5.804839 -4.367202 15.358494 -0.405230 1.859126 0.009278 0.003915 -846832.000000 1 0 0
-12.139490 9.699039 3.197198 15.863816 -0.674110 1.367866 0.009915 -0.005290 1346420.000000 1 0 0
-17.638690 2.481739 -3.906502 18.235766 -0.139781 1.786692 0.036757 -0.007129 1099450.000000 1 0 0
-11.311990 1.237939 -12.657202 17.020527 -0.109002 2.409300 0.020330 -0.005009 338362.000000 1 0 0
-11.161790 12.055639 3.576898 16.814226 -0.823878 1.356428 0.011891 -0.005819 169618.000000 1 0 0
-16.882690 12.951939 -3.412402 21.550462 -0.654401 1.729810 0.071797 -0.021148 217415.000000 1 0 0
-11.045790 4.042739 -4.525602 12.602947 -0.350855 1.938090 -0.000385 -0.001285 -343728.000000 1 0 0
-11.193690 14.997439 -8.795102 20.677903 -0.929620 2.010132 0.040433 -0.019895 477379.000000 1 0 0
-15.458490 6.960339 0.055298 16.953297 -0.423070 1.567535 0.017740 0.001592 -480671.000000 1 0 0
-12.721990 8.349839 -4.104802 15.761289 -0.580813 1.834270 0.010312 0.003273 717527.000000 1 0 0
-19.296590 1.887939 -5.917602 20.271672 -0.097528 1.867025 0.066095 -0.015020 1906670.000000 1 0 0
-12.739390 9.981039 -8.934402 18.486123 -0.664585 2.075220 0.017905 -0.009247 651648.000000 1 0 0
-16.737490 10.779939 -0.755602 19.922891 -0.572188 1.608732 0.032377 -0.014037 670654.000000 1 0 0
-10.787290 6.507839 -14.590102 19.276635 -0.542833 2.429322 0.016762 -0.018163 514046.000000 1 0 0
-14.616390 12.765139 -4.627102 19.949880 -0.717891 1.804864 0.051004 -0.012133 197632.000000 1 0 0
-17.976190 7.845939 -0.043102 19.613873 -0.411540 1.572994 0.041904 -0.007505 373930.000000 1 0 0
-12.789490 6.682739 -2.098002 14.581895 -0.481499 1.715175 0.005092 0.003324 464302.000000 1 0 0
-13.829290 8.267739 -10.594702 19.283477 -0.538832 2.152465 0.027296 -0.006217 -205093.000000 1 0 0
-14.956890 1.474239 -0.886002 15.055462 -0.098249 1.629680 0.008392 -0.004257 -804716.000000 1 0 0
-13.388190 2.827839 -2.399502 13.892369 -0.208159 1.744388 0.004398 -0.002636 461332.000000 1 0 0
-11.309790 8.982539 -10.836702 18.056341 -0.671211 2.214498 0.006202 -0.009530 -117253.000000 1 0 0
-15.725090 4.236639 -7.899702 18.100631 -0.263170 2.022426 0.048737 -0.002677 1033720.000000 1 0 0
-18.405990 10.577339 4.619398 21.725547 -0.521585 1.356536 0.059238 -0.028872 -189768.000000 1 0 0
-15.344390 6.111139 -6.152702 17.625324 -0.379010 1.927389 0.027491 0.003610 915098.000000 1 0 0
-7.867590 11.330539 -13.116302 19.034638 -0.963859 2.331009 -0.004231 0.000952 -466011.000000 1 0 0
-16.924090 9.208539 -2.802402 19.469860 -0.498309 1.715233 0.039968 -0.006828 811529.000000 1 0 0
-20.637390 -0.662161 -4.546902 21.142720 0.032074 1.787547 0.066527 -0.020731 -351551.000000 1 0 0
-15.466190 4.366539 4.275698 16.629831 -0.275166 1.310766 0.021795 -0.009208 -276920.000000 1 0 0
-6.899590 12.465139 -9.426502 17.083412 -1.065262 2.155309 0.000568 -0.004664 -1724230.000000 1 0 0
-17.184190 1.611239 5.830698 18.217835 -0.093490 1.245009 0.040566 -0.023819 487255.000000 1 0 0
-10.358490 14.203139 -3.084102 17.847665 -0.940669 1.744469 0.029848 -0.013066 -129525.000000 1 0 0
-10.053590 8.408339 -12.963202 18.434192 -0.696517 2.350706 -0.006265 -0.004831 312060.000000 1 0 0
-13.739790 11.638339 2.933998 18.243934 -0.702781 1.409274 0.021473 -0.012231 -1866000.000000 1 0 0
-16.925590 6.658439 2.062498 18.304762 -0.374799 1.457881 0.024620 -0.004418 1289800.000000 1 0 0
-9.305890 13.156839 -8.302002 18.128023 -0.955185 2.046501 0.014372 -0.014626 1083400.000000 1 0 0
-5.766890 9.677239 -13.001602 17.203128 -1.033380 2.427625 0.009451 -0.005124 413762.000000 1 0 0
-15.973590 1.884339 3.246998 16.408818 -0.117423 1.371600 0.019840 -0.007168 -286521.000000 1 0 0
-18.742690 -4.688861 4.821798 19.912899 0.245139 1.326221 0.064421 -0.011797 1860310.000000 1 0 0
-5.337290 14.372439 -9.100202 17.828835 -1.215224 2.106470 0.002008 -0.000228 -962045.000000 1 0 0
-15.458790 -0.772461 -6.770602 16.894138 0.049927 1.983149 0.021079 -0.007213 868577.000000 1 0 0
-8.955990 10.894839 -9.545402 17.030031 -0.882760 2.165791 -0.001557 -0.006697 576876.000000 1 0 0
-16.668190 1.330539 -6.078202 17.791667 -0.079656 1.919449 0.018312 -0.004902 -657781.000000 1 0 0
-11.175590 8.695239 -1.544802 14.243855 -0.661217 1.679464 0.008424 -0.000450 85990.900000 1 0 0
-10.873190 10.875339 -12.558402 19.854791 -0.785497 2.255589 0.005560 -0.005172 -296619.000000 1 0 0
-13.953590 11.636039 -10.546502 21.007826 -0.695079 2.096738 0.039437 -0.016999 239259.000000 1 0 0
-13.320590 5.442139 -7.721002 16.329999 -0.387856 2.063274 0.016096 0.005709 -386661.000000 1 0 0
-8.850390 15.392339 -4.732002 18.375129 -1.048972 1.831253 0.023242 -0.013573 791771.000000 1 0 0
-8.661290 6.124039 -12.968202 16.753986 -0.615448 2.455989 0.003678 -0.008924 203338.000000 1 0 0
-16.582490 7.528639 4.474098 18.753051 -0.426185 1.329893 0.037447 -0.005470 441139.000000 1 0 0
-12.748790 5.274039 -10.263702 17.195659 -0.392252 2.210400 0.018763 -0.002069 407400.000000 1 0 0
-12.589890 9.041039 -13.176202 20.343500 -0.622783 2.275340 0.032232 -0.013889 -722434.000000 1 0 0
-10.855590 5.090839 -8.564902 14.734925 -0.438509 2.191079 0.001999 0.001317 -444393.000000 1 0 0
-17.647590 -4.320361 -2.469502 18.335795 0.240091 1.705889 0.014786 -0.008239 139705.000000 1 0 0
-8.942790 13.107539 -10.870702 19.234168 -0.972074 2.171444 0.025571 -0.016007 208948.000000 1 0 0
-15.082590 6.184739 6.205098 17.442441 -0.389147 1.207083 0.027741 -0.016931 936621.000000 1 0 0
-16.348790 -3.082761 -4.380002 17.203800 0.186374 1.828225 0.010635 -0.005672 -624060.000000 1 0 0
-11.235290 -1.349761 -12.417302 16.800088 0.119563 2.402561 0.019544 -0.008117 630032.000000 1 0 0
-15.341790 6.742739 -8.618702 18.844550 -0.414089 2.045818 0.029378 0.002923 -418392.000000 1 0 0
-14.884890 9.068439 1.325398 17.480080 -0.547184 1.494900 0.020777 -0.008058 -174752.000000 1 0 0
-19.513190 5.245139 8.157598 21.790421 -0.262593 1.187083 0.069122 -0.035298 -1318850.000000 1 0 0
-16.370890 0.586139 1.011998 16.412609 -0.035788 1.509097 0.027885 -0.005965 604593.000000 1 0 0
-17.509690 3.806139 7.205798 19.313194 -0.214044 1.188446 0.035406 -0.020314 1071990.000000 1 0 0
-15.446590 4.080439 -1.337302 16.032326 -0.258265 1.654306 0.012267 -0.002451 252331.000000 1 0 0
-10.720290 13.355539 0.477898 17.132525 -0.894420 1.542898 0.018595 -0.006860 -1189250.000000 1 0 0
-13.431690 3.336639 0.151798 13.840755 -0.243487 1.559829 0.006089 -0.001921 -186128.000000 1 0 0
-15.100690 0.173839 -4.319802 15.707378 -0.011512 1.849404 0.013078 -0.004426 -497015.000000 1 0 0
-19.061490 7.020439 3.720698 20.651163 -0.352888 1.389638 0.050895 -0.009738 1837360.000000 1 0 0
-14.128690 1.414839 -6.365702 15.560970 -0.099807 1.992243 0.017284 -0.002736 -2463480.000000 1 0 0
-14.371890 11.877439 5.453798 19.425980 -0.690654 1.286223 0.024684 -0.016522 98353.100000 1 0 0
17.630710 5.495639 5.925398 19.394699 0.302163 1.260316 0.031063 -0.013566 274663.000000 1 0 0
18.667110 7.724039 -0.586202 20.210528 0.392327 1.599805 0.036245 0.005972 873649.000000 1 0 0
16.820410 4.934439 8.326398 19.406283 0.285354 1.127348 0.059232 -0.017095 629087.000000 1 0 0
11.726910 12.241439 10.986598 20.200956 0.806862 0.995760 0.033933 -0.006575 721518.000000 1 0 0
-2.320490 16.246339 -0.481602 16.418287 -1.428924 1.600134 0.000896 -0.000907 -304.041000 1 0 0
15.214710 12.609639 3.284398 20.031917 0.692045 1.406094 0.039228 -0.004970 715276.000000 1 0 0
13.717810 11.578539 6.688698 19.156711 0.701031 1.214125 0.036678 -0.005698 676466.000000 1 0 0
-0.691990 15.883139 8.573198 18.062467 -1.527256 1.076240 0.007064 -0.003565 -414673.000000 1 0 0
0.733410 12.911839 9.161798 15.849039 1.514056 0.954439 0.000269 -0.004512 -1660980.000000 1 0 0
0.775510 15.422239 -3.846502 15.913594 1.520553 1.814926 0.011666 0.001575 248792.000000 1 0 0
5.561910 10.295339 13.492598 17.859985 1.075481 0.714432 0.019489 -0.004097 -31262.800000 1 0 0
-1.364690 16.350339 -2.758802 16.637517 -1.487524 1.737384 0.002453 0.000880 -1516070.000000 1 0 0
8.595210 10.081139 3.273498 13.646348 0.864793 1.328553 0.013320 -0.000890 411214.000000 1 0 0
12.662210 13.539539 -4.883502 19.170271 0.818869 1.828379 0.060894 -0.020175 -346436.000000 1 0 0
2.456210 11.613039 7.593698 14.091129 1.362364 1.001667 0.004238 0.001223 816815.000000 1 0 0
-0.396190 14.782439 -8.446002 17.029751 -1.544001 2.089731 0.016837 -0.004874 -1390220.000000 1 0 0
2.490610 16.029939 0.166498 16.223126 1.416656 1.560533 0.014610 -0.008122 -192367.000000 1 0 0
1.956810 13.516139 5.114798 14.583425 1.427019 1.212449 0.006620 -0.000782 338822.000000 1 0 0
17.495510 9.256639 -2.306202 19.927288 0.486645 1.686787 0.016081 0.004075 288281.000000 1 0 0
-7.171490 14.966339 7.357898 18.153794 -1.123947 1.153479 0.008917 -0.013318 -977746.000000 1 0 0
8.476510 15.791239 -0.130402 17.922932 1.078155 1.578072 0.007500 -0.009173 -290402.000000 1 0 0
15.661910 10.388039 2.027298 18.902824 0.585646 1.463341 0.021931 -0.001504 920541.000000 1 0 0
14.099410 7.261739 8.545898 18.015510 0.475606 1.076556 0.031033 -0.014876 -1718660.000000 1 0 0
4.340510 18.248639 -2.001302 18.864201 1.337282 1.677086 0.024763 -0.020891 582372.000000 1 0 0
-0.446190 17.513939 -4.909802 18.194596 -1.545326 1.844033 0.015976 -0.001619 310391.000000 1 0 0
1.411910 13.733139 -0.650702 13.820855 1.468346 1.617895 0.005666 -0.004599 28404.500000 1 0 0
10.444310 14.811639 4.269198 18.619730 0.956628 1.339455 0.023434 -0.003118 798234.000000 1 0 0
-1.526890 15.223339 -5.194902 16.157613 -1.470831 1.898124 0.007849 0.002616 301321.000000 1 0 0
15.028710 8.752339 -6.241002 18.477437 0.527359 1.915336 0.046104 -0.014495 92782.000000 1 0 0
-2.376490 18.460739 0.913898 18.635499 -1.442768 1.521736 0.010987 -0.005834 -1368450.000000 1 0 0
-3.745290 19.366839 3.534498 20.039819 -1.379768 1.393495 0.013040 -0.011111 -38367.500000 1 0 0
1.862410 17.598639 -2.642702 17.893143 1.465362 1.719032 0.013674 -0.008798 -211378.000000 1 0 0
2.899210 12.234139 3.175598 12.967807 1.338112 1.323397 0.002246 0.002431 48453.200000 1 0 0
-2.587590 16.145239 2.042198 16.478318 -1.411878 1.446544 0.004199 -0.005998 121465.000000 1 0 0
11.756510 12.751739 -2.652902 17.545948 0.825984 1.722576 0.020306 -0.001878 219555.000000 1 0 0
7.183710 11.699739 4.755398 14.529398 1.020142 1.237357 0.011080 0.000055 437356.000000 1 0 0
7.095810 15.770239 2.054998 17.414764 1.147984 1.452518 0.000582 -0.007650 -1301940.000000 1 0 0
5.448910 12.281139 10.165298 16.847858 1.153210 0.923090 0.008036 0.004833 1249840.000000 1 0 0
-1.273490 14.162839 3.221798 14.580390 -1.481120 1.347990 0.001696 -0.001814 -513856.000000 1 0 0
4.590310 16.082939 1.595898 16.801154 1.292773 1.475665 0.005416 -0.014484 -2522230.000000 1 0 0
7.263610 13.053639 11.882498 19.087989 1.063020 0.898848 0.024250 -0.004394 393087.000000 1 0 0
0.795810 16.830639 -9.469702 19.328192 1.523548 2.082820 0.021593 -0.009083 192766.000000 1 0 0
9.805910 9.575039 15.251798 20.504990 0.773486 0.732045 0.043131 -0.011158 -149821.000000 1 0 0
13.669510 7.712139 -0.089602 15.695243 0.513669 1.576505 0.010415 0.002095 225192.000000 1 0 0
12.431110 13.583139 -0.126202 18.413313 0.829654 1.577650 0.032626 -0.006451 346281.000000 1 0 0
9.316710 12.565139 3.442498 16.016698 0.932775 1.354174 0.014763 0.005047 1098370.000000 1 0 0
-0.619690 12.865139 0.761698 12.902558 -1.522665 1.511727 0.005685 -0.003436 -438095.000000 1 0 0
16.049510 7.563239 -0.953002 17.767881 0.440380 1.624458 0.014845 0.003496 -1551390.000000 1 0 0
-4.214490 18.479439 -2.257302 19.087876 -1.346568 1.689332 0.015651 -0.001476 186599.000000 1 0 0
11.554710 9.094139 -3.271302 15.063735 0.666795 1.789705 0.014555 -0.003329 293883.000000 1 0 0
14.776510 9.539539 7.980298 19.314068 0.573267 1.144847 0.034167 -0.005230 1268080.000000 1 0 0
4.489910 13.856239 4.616198 15.279527 1.257437 1.263884 0.009778 -0.000377 -117062.000000 1 0 0
2.208410 16.052839 5.528698 17.121251 1.434083 1.241989 0.010500 -0.004285 137085.000000 1 0 0
6.174210 18.620339 5.428598 20.354547 1.250621 1.300827 0.031576 -0.019045 79623.700000 1 0 0
10.610810 17.032239 -0.909502 20.087650 1.013648 1.616088 0.025692 -0.010879 -869378.000000 1 0 0
10.010510 13.473439 -4.494302 17.376497 0.931802 1.832413 0.034215 -0.009703 1972130.000000 1 0 0
16.656410 7.947239 2.303298 18.598382 0.445183 1.446634 0.010010 0.002294 472624.000000 1 0 0
4.009010 13.985639 -0.387602 14.554055 1.291630 1.597431 0.005282 -0.007497 734813.000000 1 0 0
5.581810 13.146339 -2.339802 14.472647 1.169273 1.733180 0.002549 -0.002386 -546198.000000 1 0 0
-6.168890 16.918639 -3.001702 18.256664 -1.221156 1.735963 0.007054 0.000253 -482774.000000 1 0 0
18.247510 10.017039 2.562398 20.973283 0.502040 1.448316 0.039614 -0.004061 961342.000000 1 0 0
7.989610 13.028739 9.412098 17.949081 1.020706 1.018812 0.023960 -0.000321 986715.000000 1 0 0
-2.557890 15.740039 6.735898 17.310805 -1.409696 1.171125 0.002666 -0.002533 -471129.000000 1 0 0
11.313310 15.880339 6.323198 20.497781 0.951790 1.257199 0.034880 -0.011563 164542.000000 1 0 0
13.513710 11.868539 1.368098 18.037580 0.720673 1.494876 0.027468 -0.003706 -1029000.000000 1 0 0
17.458110 7.909439 -5.679302 19.989980 0.425389 1.858872 0.039930 0.003254 995590.000000 1 0 0
9.401310 9.382439 7.949698 15.479422 0.784394 1.031461 0.012739 -0.001225 -454108.000000 1 0 0
-1.991790 14.111639 -1.889902 14.376276 -1.430577 1.702638 -0.001998 0.003028 889070.000000 1 0 0
10.924310 11.624639 0.812698 15.972892 0.816446 1.519894 0.014794 0.002586 186245.000000 1 0 0
11.651910 9.739039 -0.714602 15.202847 0.696211 1.617818 0.011015 0.002299 -1802070.000000 1 0 0
-0.342690 15.893239 11.101898 19.389808 -1.549238 0.961167 0.013630 -0.011767 -413589.000000 1 0 0
2.383310 19.968739 -1.319702 20.153718 1.452006 1.636325 0.038123 -0.018777 -334452.000000 1 0 0
9.342210 14.527639 1.863698 17.372466 0.999312 1.463311 0.014512 -0.004336 6877.930000 1 0 0
8.456510 11.601739 -5.194502 15.267474 0.940936 1.917961 0.015120 -0.003216 -942715.000000 1 0 0
10.644810 10.049239 10.178098 17.829551 0.756626 0.963249 0.018422 -0.004636 577758.000000 1 0 0
-5.082490 15.812839 5.899798 17.626265 -1.259810 1.229492 -0.004082 -0.003194 2023080.000000 1 0 0
14.447910 9.174639 -2.120202 17.245619 0.565769 1.694050 0.029635 0.001724 -590517.000000 1 0 0
12.236410 9.497039 6.988398 16.992975 0.660015 1.146969 0.019630 -0.002700 -462828.000000 1 0 0
3.164410 12.913239 9.610698 16.405206 1.330480 0.944890 0.007204 -0.002455 -693234.000000 1 0 0
8.517610 12.595439 -2.659002 15.435837 0.976191 1.743921 0.011535 -0.000108 -773589.000000 1 0 0
9.429610 17.100639 2.001898 19.630513 1.066865 1.468640 0.011843 -0.004713 44968.900000 1 0 0
9.665110 14.486239 -7.499702 18.960776 0.982430 1.977450 0.052565 -0.006549 -1270820.000000 1 0 0
6.426910 11.550639 7.380198 15.139015 1.063044 1.061578 0.010358 0.002541 -771219.000000 1 0 0
5.380910 16.873039 -5.582402 18.569245 1.262086 1.876145 0.027270 -0.001915 288943.000000 1 0 0
-3.968290 17.331139 -4.553502 18.353476 -1.345708 1.821515 0.004829 0.004921 461686.000000 1 0 0
-0.181590 18.575239 -0.497102 18.582777 -1.561021 1.597550 0.013193 -0.007253 15116.800000 1 0 0
6.491210 15.589739 -2.751002 17.109757 1.176252 1.732283 0.010329 -0.001941 660223.000000 1 0 0
-0.982790 20.675639 0.879498 20.717661 -1.523298 1.528332 0.020776 -0.010249 -127960.000000 1 0 0
-1.345590 18.844839 4.355198 19.388304 -1.499514 1.344233 0.014491 -0.008084 537339.000000 1 0 0
7.184310 13.739939 -4.320002 16.095424 1.089014 1.842527 0.016599 0.000325 -522761.000000 1 0 0
-0.983090 12.002739 7.570598 14.224844 -1.489073 1.009588 0.000722 0.000903 513520.000000 1 0 0
7.613710 10.848239 10.786498 17.088050 0.958838 0.887658 0.011936 -0.001310 461022.000000 1 0 0
1.564510 15.997739 -7.283702 17.647313 1.473311 1.996253 0.013720 -0.003017 29967.900000 1 0 0
8.872310 7.153039 14.902698 18.760978 0.678523 0.652867 0.035346 0.001119 618851.000000 1 0 0
11.358410 11.271739 -4.824902 16.713625 0.781568 1.863645 0.036109 -0.006652 -621252.000000 1 0 0
-3.334590 17.145939 4.577098 18.056926 -1.378711 1.314519 -0.002741 0.000007 -180379.000000 1 0 0
4.044810 15.131339 -6.755002 17.057197 1.309590 1.977975 0.021049 -0.011317 -1119080.000000 1 0 0
-4.430290 13.952239 9.372998 17.382334 -1.263333 1.001279 0.011625 -0.018544 -659071.000000 1 0 0
6.185810 17.780039 0.474398 18.831333 1.235987 1.545602 0.001475 -0.016641 -627454.000000 1 0 0
9.725010 10.673839 -2.174702 14.602603 0.831879 1.720278 0.011834 -0.000071 -1823170.000000 1 0 0
7.364110 18.063639 -2.387802 19.652654 1.183690 1.692597 0.024388 -0.005620 -53720.800000 1 0 0
3.544110 10.390839 10.381898 15.110066 1.242090 0.813327 0.003109 0.001557 1162090.000000 1 0 0
-0.094390 18.537839 2.055098 18.651644 -1.565705 1.460389 0.018453 -0.013799 101726.000000 1 0 0
-0.825390 17.130939 -7.501602 18.719626 -1.522652 1.983115 0.024212 0.002932 -375129.000000 1 0 0
10.067410 8.448239 12.867098 18.392600 0.698171 0.795987 0.026101 -0.008634 -57662.000000 1 0 0
3.759610 11.496039 5.376198 13.236204 1.254725 1.152533 0.000659 0.000726 543848.000000 1 0 0
13.456810 13.812439 8.070798 20.904713 0.798439 1.174423 0.048568 -0.014590 167831.000000 1 0 0
-0.584890 17.420039 6.690098 18.669689 -1.537233 1.204307 0.012828 -0.004441 -379026.000000 1 0 0
12.322310 13.548439 5.743598 19.193449 0.832757 1.266892 0.029352 -0.004025 349650.000000 1 0 0
4.829610 14.501539 -4.438702 15.916088 1.249309 1.853425 0.010401 -0.004081 -1298560.000000 1 0 0
3.817210 17.720239 4.525198 18.683024 1.358623 1.326154 0.019906 -0.010790 -707011.000000 1 0 0
7.030310 11.556639 2.063198 13.683493 1.024271 1.419439 0.011516 0.001116 944882.000000 1 0 0
6.418610 8.734539 11.631598 15.899208 0.937059 0.750155 0.006181 0.000806 267066.000000 1 0 0
-5.519990 14.917439 1.720598 15.998773 -1.216385 1.463042 0.006125 0.001759 190903.000000 1 0 0
6.764910 13.853239 5.908298 16.510126 1.116531 1.204822 0.017079 -0.002210 -973348.000000 1 0 0
5.901510 16.050139 4.930898 17.797431 1.218448 1.290067 0.013112 -0.009114 603656.000000 1 0 0
1.319910 18.074239 4.191298 18.600733 1.497899 1.343515 0.024425 -0.009466 1067730.000000 1 0 0
7.348310 18.045339 -6.945902 20.685200 1.184087 1.913241 0.026045 -0.006011 462440.000000 1 0 0
-2.381290 18.809539 -6.012802 19.890276 -1.444866 1.877899 0.017279 0.006688 -2351620.000000 1 0 0
13.488710 9.973039 -4.587602 17.391173 0.636658 1.837745 0.029691 -0.007702 -2553160.000000 1 0 0
-1.448190 17.982439 9.883298 20.570488 -1.490436 1.069617 0.019783 -0.008923 -335138.000000 1 0 0
3.436710 11.843539 -1.648202 12.441743 1.288377 1.703660 0.004504 -0.004085 -308500.000000 1 0 0
4.345010 13.922639 -10.936202 18.229633 1.268292 2.214189 0.021914 -0.019602 -277793.000000 1 0 0
11.625110 13.397139 2.371098 17.895492 0.856098 1.437909 0.027639 -0.002887 842462.000000 1 0 0
15.969410 6.467739 -7.262102 18.697375 0.384816 1.969693 0.036431 -0.007185 373211.000000 1 0 0
2.411810 16.107239 2.888698 16.540997 1.422166 1.395257 0.014839 -0.011184 -350943.000000 1 0 0
13.530710 10.574039 3.556598 17.536814 0.663349 1.366572 0.020785 0.003352 -469157.000000 1 0 0
-4.936190 19.453539 -5.898902 20.918968 -1.322298 1.856662 0.008484 -0.005782 245288.000000 1 0 0
5.430310 11.919839 0.031598 13.098544 1.143321 1.568384 0.004625 -0.003147 1081920.000000 1 0 0
4.670010 15.422639 9.638598 18.776831 1.276771 1.031743 0.019096 -0.004551 -578120.000000 1 0 0
7.812910 9.320139 13.768698 18.370727 0.873144 0.723503 0.021011 -0.007218 -1899980.000000 1 0 0
-5.027590 13.625339 6.922898 16.088911 -1.217307 1.125982 0.000938 -0.004005 -1822480.000000 1 0 0
-4.544990 17.090939 0.508398 17.692247 -1.310882 1.542057 0.008874 -0.003774 -2281590.000000 1 0 0
-0.577990 16.559639 3.660998 16.969344 -1.535907 1.353345 0.011830 -0.006580 -1687110.000000 1 0 0
7.841410 16.827439 -4.699802 19.150420 1.134725 1.818744 0.020257 -0.007941 1194300.000000 1 0 0
3.045710 16.403939 -4.603402 17.307712 1.387217 1.840011 0.011216 -0.003189 -421041.000000 1 0 0
9.667110 14.470039 8.226798 19.248773 0.981818 1.129189 0.037061 -0.005113 461459.000000 1 0 0
12.868810 10.979239 9.087198 19.202270 0.706330 1.077836 0.031852 -0.009111 611688.000000 1 0 0
3.664510 12.420139 12.110098 17.729720 1.283891 0.818880 0.013498 0.001466 693301.000000 1 0 0
-3.423590 19.221239 6.135898 20.465245 -1.394530 1.266292 0.012215 -0.001078 202953.000000 1 0 0
-2.720990 15.736039 10.063998 18.876196 -1.399575 1.008467 0.011374 -0.017674 -1055060.000000 1 0 0
2.126110 14.366939 7.553298 16.370144 1.423876 1.091216 0.008090 -0.005031 -155176.000000 1 0 0
4.854210 17.363839 7.991998 19.721519 1.298197 1.153552 0.038262 -0.009665 241946.000000 1 0 0
-1.924990 13.405839 9.248098 16.399678 -1.428178 0.971672 0.001568 -0.006553 -738416.000000 1 0 0
5.999710 17.810539 3.071198 19.043217 1.245873 1.408814 0.011483 -0.016272 963812.000000 1 0 0
7.272310 15.376339 -6.795202 18.316470 1.129018 1.950870 0.023752 -0.003886 79935.000000 1 0 0
10.973410 7.655739 9.408398 16.356774 0.609156 0.957949 0.013282 -0.002903 805039.000000 1 0 0
9.055610 16.164739 -2.654202 18.717576 1.060150 1.713079 0.020944 -0.010283 -1179090.000000 1 0 0
14.337510 11.282139 -6.625202 19.409899 0.666700 1.919129 0.064492 -0.017864 376234.000000 1 0 0
11.183010 6.409639 15.981998 20.532108 0.520449 0.678698 0.061359 -0.013392 25519.100000 1 0 0
8.552210 8.599139 10.249698 15.878974 0.788134 0.869133 0.004178 0.003312 -145415.000000 1 0 0
16.433410 9.437339 4.439998 19.463657 0.521291 1.340653 0.028295 -0.003453 74047.300000 1 0 0
-3.434990 14.374339 4.653598 15.494411 -1.336229 1.265747 -0.002532 0.001287 -725973.000000 1 0 0
4.837510 14.655139 12.785798 20.041239 1.251968 0.878931 0.026105 0.003645 -1187220.000000 1 0 0
15.968010 10.741239 -4.771802 19.827296 0.592149 1.813851 0.048842 -0.012480 169277.000000 1 0 0
14.981910 13.799839 6.001098 21.234557 0.744351 1.284282 0.057068 -0.011654 -343258.000000 1 0 0
6.200610 9.475139 9.139798 14.552036 0.991328 0.891717 0.000279 0.002056 661347.000000 1 0 0
10.534910 12.223939 8.629798 18.299794 0.859477 1.079716 0.029605 -0.005416 761599.000000 1 0 0
8.030710 11.401039 -0.341802 13.949654 0.957134 1.595301 0.007778 -0.001232 158414.000000 1 0 0
7.488510 13.543439 -8.706602 17.756899 1.065710 2.083256 0.040558 -0.011553 -1359370.000000 1 0 0
2.876210 15.281539 -2.284602 15.716788 1.384758 1.716674 0.008083 -0.006413 138629.000000 1 0 0
12.141110 13.880839 -7.750202 20.003747 0.852155 1.968647 0.073651 -0.019117 -2097180.000000 1 0 0
-7.904190 14.589639 9.838998 19.290922 -1.074296 1.035574 0.028630 -0.028260 349921.000000 1 0 0
11.638610 9.480039 2.082098 15.154654 0.683540 1.432970 0.019038 0.002194 -1963210.000000 1 0 0
12.157910 8.632839 4.453298 15.561895 0.617445 1.280572 0.012523 0.001231 315142.000000 1 0 0
14.117210 8.061139 5.967598 17.317328 0.518834 1.218981 0.017048 -0.005923 -2299380.000000 1 0 0
16.235910 7.235639 7.249498 19.196731 0.419236 1.183548 0.041875 -0.010504 -120877.000000 1 0 0
13.716710 8.288239 2.401598 16.205269 0.543534 1.422050 0.012022 0.001122 -3754760.000000 1 0 0
-4.209290 17.260339 -7.051602 19.114458 -1.331595 1.948637 0.006907 -0.008639 220531.000000 1 0 0
3.110310 19.598739 -3.785902 20.201922 1.413409 1.759314 0.026833 -0.009353 546344.000000 1 0 0
-0.071290 14.912939 6.134798 16.125650 -1.566016 1.180527 0.008093 -0.002557 1712880.000000 1 0 0
6.886810 15.882739 8.436798 19.257963 1.161661 1.117319 0.044926 -0.017657 -1253860.000000 1 0 0
12.684810 15.204739 -2.239602 19.927477 0.875507 1.683422 0.047580 -0.015022 -623818.000000 1 0 0
12.912810 15.732639 4.266898 20.795746 0.883521 1.364147 0.036928 -0.007182 60176.300000 1 0 0
3.043710 18.162339 1.340298 18.464321 1.404756 1.498144 0.023913 -0.013118 -423087.000000 1 0 0
10.415910 14.408739 -1.267802 17.824429 0.944874 1.641984 0.021190 0.000542 -2000410.000000 1 0 0
-6.393290 15.933039 -0.594602 17.178168 -1.189204 1.605417 0.007198 0.001206 -425969.000000 1 0 0
-3.929490 15.776439 -2.521802 16.452854 -1.326690 1.724677 0.008380 0.000465 135789.000000 1 0 0
-6.874190 17.231039 1.579298 18.618738 -1.191202 1.485871 0.011286 0.002348 177979.000000 1 0 0
0.026610 19.418939 -6.648002 20.525395 1.569426 1.900636 0.032011 -0.001384 390076.000000 1 0 0
4.849710 14.993039 7.022098 17.251690 1.257954 1.151587 0.020086 -0.006871 -1004710.000000 1 0 0
8.664310 12.473639 6.806198 16.642905 0.963697 1.149488 0.022283 -0.003237 -1490860.000000 1 0 0
-7.747690 17.526839 -5.541702 19.948114 -1.154576 1.852306 0.035268 -0.014800 235110.000000 1 0 0
-7.970190 17.801639 -1.433402 19.557017 -1.149838 1.644156 0.030537 -0.007376 180435.000000 1 0 0
-13.637990 -9.019161 9.306498 18.813584 0.584296 1.053342 0.038307 -0.013131 -509180.000000 1 0 0
-12.439590 -12.887861 7.636798 19.472058 0.803095 1.167782 0.026025 -0.008264 -668525.000000 1 0 0
-3.751890 -15.006261 12.641198 19.976597 1.325797 0.885632 0.021007 -0.006499 401612.000000 1 0 0
-1.998390 -14.037461 15.106698 20.718499 1.429385 0.753731 0.041456 -0.004165 -442772.000000 1 0 0
-6.971090 -13.637061 12.977698 20.074515 1.098239 0.867840 0.016699 -0.005264 126690.000000 1 0 0
-9.880790 -11.484861 9.027298 17.635877 0.860335 1.033435 0.012715 -0.002535 891483.000000 1 0 0
-10.650390 -10.609461 11.286798 18.798491 0.783473 0.926783 0.035239 -0.013406 713209.000000 1 0 0
-6.084490 -12.119261 10.910398 17.405007 1.105509 0.893288 0.011771 -0.003408 937621.000000 1 0 0
-12.436890 -10.275761 7.329698 17.719818 0.690533 1.144343 0.014878 -0.004425 -606737.000000 1 0 0
-7.618790 -11.046761 12.760698 18.517891 0.967027 0.810549 0.015376 -0.005950 665311.000000 1 0 0
-14.625290 -11.567061 7.355998 20.045117 0.669164 1.195044 0.028883 -0.004516 -1027330.000000 1 0 0
-11.052190 -9.122661 9.229898 17.045963 0.690048 0.998610 0.010973 -0.003936 -1405680.000000 1 0 0
-5.200590 -11.842361 13.324498 18.569596 1.157001 0.770527 0.019545 -0.010728 -1256960.000000 1 0 0
4.014310 -12.281761 14.890698 19.715203 -1.254891 0.714700 0.002652 -0.003322 -503958.000000 1 0 0
6.445510 -12.891261 14.264498 20.278193 -1.107156 0.790570 0.016728 0.004787 -11879.400000 1 0 0
6.591310 -8.456161 16.188098 19.416657 -0.908701 0.584982 0.011946 -0.006500 -1860970.000000 1 0 0
0.640110 -1.793161 14.284898 14.411228 -1.227923 0.132506 0.001368 -0.006539 -3023990.000000 1 0 0
-0.167790 -6.278561 15.640698 16.854671 1.544078 0.381857 0.007997 -0.010180 -840967.000000 1 0 0
-1.444790 -4.701961 18.419498 19.064988 1.272680 0.260960 0.014924 -0.021372 -2113030.000000 1 0 0
-5.118890 12.759639 12.825798 18.801929 -1.189275 0.820093 0.009346 -0.015849 161425.000000 1 0 0
-3.878990 8.909339 11.672298 15.187674 -1.160163 0.694244 -0.004743 0.001600 -635167.000000 1 0 0
-0.672790 -3.909161 14.965998 15.482742 1.400360 0.259086 0.002570 -0.007901 -168339.000000 1 0 0
-4.360690 9.264239 14.174498 17.485942 -1.130861 0.625582 -0.002720 -0.005888 263995.000000 1 0 0
-13.494390 -2.650861 16.830398 21.734487 0.193972 0.685087 0.064545 -0.003114 -476842.000000 1 0 0
-0.337390 0.981039 17.281898 17.313009 -1.239557 0.059958 0.007853 -0.009565 -1441990.000000 1 0 0
-3.481790 -7.226561 15.409798 17.372620 1.121811 0.479954 0.009565 -0.015679 216744.000000 1 0 0
-7.301190 5.581539 12.551298 15.556222 -0.652698 0.632022 -0.004860 0.000328 -970665.000000 1 0 0
-9.712290 10.267339 13.240098 19.366131 -0.813172 0.818013 0.040835 -0.022447 -278543.000000 1 0 0
-5.517390 2.375539 11.147498 12.662997 -0.406566 0.494259 -0.001955 0.001722 -809284.000000 1 0 0
-7.221390 -7.389661 16.824998 19.744268 0.796914 0.550724 0.014469 -0.019352 -90036.300000 1 0 0
-4.911090 2.659739 18.724998 19.540179 -0.496354 0.289867 0.004003 -0.005083 -146055.000000 1 0 0
0.992210 -8.295061 16.554698 18.543208 -1.451747 0.467354 0.014114 -0.013316 614288.000000 1 0 0
-15.147690 -3.628061 13.765098 20.786853 0.235084 0.847043 0.075183 -0.014421 502687.000000 1 0 0
-14.217590 2.530939 13.159198 19.537400 -0.176169 0.831810 0.050648 -0.013082 -473022.000000 1 0 0
-5.379590 0.989839 15.934798 16.847480 -0.181964 0.330664 0.007181 -0.006932 408039.000000 1 0 0
4.554810 5.647339 15.126998 16.776913 0.892080 0.447214 0.015410 -0.005660 -418366.000000 1 0 0
-1.112190 -11.981761 13.999998 18.460756 1.478238 0.709995 0.009186 -0.006865 559797.000000 1 0 0
-5.826590 -4.015061 16.823498 18.251026 0.603368 0.398140 0.017227 -0.017983 393362.000000 1 0 0
-12.975790 -1.472061 9.842098 16.352522 0.112964 0.924955 0.025053 -0.005760 -932700.000000 1 0 0
-14.634290 10.463039 10.219998 20.690239 -0.620701 1.054166 0.033021 -0.014772 466735.000000 1 0 0
-3.410590 -3.329461 17.666298 18.297965 0.773362 0.263521 0.010127 -0.018189 -1333710.000000 1 0 0
-7.769990 9.357839 11.804498 16.949575 -0.877840 0.800360 0.006581 -0.014824 222883.000000 1 0 0
-4.003490 10.713139 16.298598 19.910891 -1.213167 0.611867 -0.012940 -0.006248 251024.000000 1 0 0
-12.523690 12.774439 8.309898 19.725200 -0.795310 1.135936 0.035657 -0.018723 16242.600000 1 0 0
-12.575590 3.194739 10.523298 16.706036 -0.248780 0.889359 0.029828 -0.012740 371615.000000 1 0 0
-10.178790 -3.250761 13.724898 17.393908 0.309128 0.661513 0.022806 -0.004637 -1026810.000000 1 0 0
-4.059690 -6.317161 17.784798 19.305094 0.999609 0.399517 0.022935 -0.018456 -244969.000000 1 0 0
0.782710 -3.703461 17.689998 18.090448 -1.362516 0.210799 0.015088 -0.022572 -348293.000000 1 0 0
-5.911490 1.968039 13.651798 15.006348 -0.321376 0.428151 -0.001237 0.000182 -1138170.000000 1 0 0
-10.548190 8.730839 10.172098 17.057651 -0.691410 0.931867 0.028425 -0.020956 350456.000000 1 0 0
4.580110 2.565639 17.110898 17.898122 0.510618 0.297691 0.033434 -0.015098 -1444030.000000 1 0 0
0.566610 -5.426461 13.170898 14.256230 -1.466757 0.392725 0.000052 -0.006570 59771.600000 1 0 0
-4.082390 5.753539 20.721998 21.889960 -0.953694 0.328138 0.037265 -0.019628 -496931.000000 1 0 0
-10.747990 10.908639 8.984098 17.754766 -0.792816 1.040243 0.027971 -0.022954 291764.000000 1 0 0
0.647610 4.170739 13.009298 13.676853 1.416752 0.313724 0.002983 -0.004257 -2677280.000000 1 0 0
-3.004290 7.146239 13.371598 15.456201 -1.172827 0.525390 -0.008863 0.005248 -362122.000000 1 0 0
0.763010 8.857539 13.961998 16.552208 1.484866 0.567006 -0.004497 -0.003077 90726.400000 1 0 0
-4.214890 -6.660161 13.067698 15.260661 1.006571 0.542734 0.005642 -0.007963 -144954.000000 1 0 0
-4.977390 8.370639 16.603898 19.249194 -1.034339 0.530456 0.001542 0.001854 155338.000000 1 0 0
1.633710 -10.695161 15.819598 19.165468 -1.419216 0.599847 0.004818 -0.003851 36684.500000 1 0 0
-15.195490 -1.001861 14.245298 20.852701 0.065836 0.818744 0.075784 -0.012920 659948.000000 1 0 0
-13.480090 -5.239761 8.438998 16.744689 0.370730 1.042595 0.028977 -0.008685 -294671.000000 1 0 0
-14.180490 -1.850261 12.082298 18.721423 0.129746 0.869285 0.051812 -0.012806 434164.000000 1 0 0
9.332810 1.102739 17.014398 19.437262 0.117612 0.504638 0.063668 -0.008734 -547073.000000 1 0 0
4.981410 -6.648061 16.887798 18.820438 -0.927742 0.457156 0.020104 -0.010037 -234061.000000 1 0 0
-6.092590 -2.563061 11.077698 12.899780 0.398210 0.537969 0.001567 -0.003646 404844.000000 1 0 0
0.575210 -6.279261 18.061098 19.130166 -1.479446 0.335894 0.021748 -0.019833 173716.000000 1 0 0
-8.294490 11.971139 11.874498 18.791233 -0.964869 0.886772 0.020150 -0.023275 266885.000000 1 0 0
-6.634890 -5.677561 14.845298 17.223221 0.707801 0.531722 0.017480 -0.012451 -1318090.000000 1 0 0
-4.465090 -8.817761 17.163598 19.806035 1.102062 0.522480 0.030013 -0.018407 580210.000000 1 0 0
2.447310 -6.093061 16.258398 17.534259 -1.188864 0.383833 0.013181 -0.011511 705404.000000 1 0 0
2.227910 5.200039 15.974298 16.946451 1.166015 0.340362 0.011765 -0.006347 -3349210.000000 1 0 0
0.970010 -8.876561 14.058298 16.654429 -1.461950 0.565879 -0.000426 -0.004386 -311168.000000 1 0 0
-9.851090 -2.587461 11.260098 15.183173 0.256855 0.735319 0.000042 -0.002547 188519.000000 1 0 0
-1.207890 10.052839 12.261298 15.901510 -1.451216 0.690265 -0.008986 -0.003621 -154590.000000 1 0 0
-12.236690 -3.525761 11.354298 17.061291 0.280532 0.842632 0.023382 -0.004528 -2190800.000000 1 0 0
-1.647190 6.323239 19.976098 21.017638 -1.315962 0.316134 0.026005 -0.018652 -230145.000000 1 0 0
0.410710 -13.394061 15.806898 20.722634 -1.540142 0.703188 0.012281 -0.007554 -62833.900000 1 0 0
4.080510 -8.644661 15.410398 18.134528 -1.129777 0.555224 0.006649 -0.007718 -128929.000000 1 0 0
4.388410 -4.311461 16.293198 17.415945 -0.776553 0.361030 0.023498 -0.009032 -852033.000000 1 0 0
8.143810 1.685839 14.780398 16.959478 0.204126 0.512518 0.026058 -0.002409 627945.000000 1 0 0
-6.236890 -0.041861 11.842098 13.384164 0.006712 0.484765 0.002737 -0.001612 118520.000000 1 0 0
-3.562890 -10.853561 18.473498 21.720131 1.253610 0.553815 0.051354 -0.017692 -219372.000000 1 0 0
3.238410 -1.585061 13.507198 13.980133 -0.455177 0.260851 0.005549 -0.005896 1068350.000000 1 0 0
-2.501590 8.621739 15.880098 18.241981 -1.288401 0.514528 -0.001082 -0.001303 -996873.000000 1 0 0
-3.227390 4.067539 14.821898 15.705082 -0.900062 0.336959 -0.000060 -0.002467 -1633660.000000 1 0 0
-4.984690 -9.074661 19.746898 22.296560 1.068493 0.482909 0.057771 -0.018439 231338.000000 1 0 0
-5.610390 -2.928961 19.096198 20.117656 0.481140 0.320030 0.012950 -0.023293 -1177520.000000 1 0 0
-6.637190 -8.539661 11.056898 15.467162 0.910101 0.774368 0.006407 -0.007309 -1345660.000000 1 0 0
-11.619490 2.453239 12.733598 17.411934 -0.208076 0.750549 0.044460 -0.020495 -269609.000000 1 0 0
-11.719090 -7.283961 11.418498 17.910200 0.556112 0.879493 0.031057 -0.013220 -179133.000000 1 0 0
-10.893190 -7.143761 15.550098 20.285474 0.580442 0.697324 0.042609 -0.030553 143454.000000 1 0 0
0.211110 5.788439 17.511898 18.444977 1.534341 0.319435 0.006610 -0.013487 43968.000000 1 0 0
-2.144290 -0.126261 13.151798 13.326054 0.058814 0.161895 0.000069 -0.001509 -232444.000000 1 0 0
-6.170390 -10.638261 18.081698 21.867650 1.045199 0.597278 0.058335 -0.023745 136600.000000 1 0 0
0.094510 2.870039 18.989098 19.204997 1.537878 0.150086 0.021354 -0.023525 -411695.000000 1 0 0
-0.802790 10.749939 14.763298 18.280062 -1.496256 0.630696 0.002028 -0.006120 -527485.000000 1 0 0
-12.880690 -2.255961 14.280798 19.363438 0.173384 0.741415 0.047526 -0.005295 -20017.200000 1 0 0
-13.578190 8.594439 11.709398 19.883200 -0.564302 0.941088 0.036331 -0.019085 727744.000000 1 0 0
-18.061490 -0.480361 7.042098 19.391733 0.026590 1.199150 0.071436 -0.024044 -869960.000000 1 0 0
-1.990190 -7.958261 17.513198 19.339258 1.325744 0.438057 0.015490 -0.020788 -1021970.000000 1 0 0
5.744710 2.583739 14.393898 15.711834 0.422654 0.412508 0.021046 -0.004934 -3060410.000000 1 0 0
-14.214190 -6.644461 11.250098 19.306910 0.437272 0.948752 0.055242 -0.010249 748933.000000 1 0 0
3.325610 7.649839 16.281798 18.294171 1.160714 0.473453 0.014850 -0.013870 -324823.000000 1 0 0
0.941510 2.048439 14.472698 14.647237 1.139969 0.154531 0.004547 -0.007677 -1861630.000000 1 0 0
-14.320090 0.858139 9.732298 17.335484 -0.059854 0.974709 0.038180 -0.014158 -1260170.000000 1 0 0
-9.461990 -5.090261 15.469698 18.834850 0.493560 0.607051 0.028501 -0.010800 -526114.000000 1 0 0
-2.409090 -0.322661 18.082498 18.245125 0.133142 0.133616 0.009373 -0.015197 -298116.000000 1 0 0
6.880110 3.788939 17.468398 19.152987 0.503387 0.422551 0.051472 -0.014242 -219365.000000 1 0 0
-4.211190 -0.827661 14.618498 15.235473 0.194065 0.285560 0.007103 -0.003820 -1125700.000000 1 0 0
4.792510 -9.013761 17.950598 20.650424 -1.082121 0.517092 0.019398 -0.002341 -168819.000000 1 0 0
1.970910 6.874339 13.376798 15.168381 1.291581 0.490946 0.000350 -0.000506 -1804090.000000 1 0 0
-3.614590 -0.799161 20.352698 20.686620 0.217593 0.179920 0.017305 -0.016884 -1466220.000000 1 0 0
-10.574990 1.427939 16.241298 19.433198 -0.134218 0.581299 0.038187 -0.010347 -52997.400000 1 0 0
-3.668290 6.940639 18.404998 20.009318 -1.084591 0.403171 0.004498 -0.012334 634349.000000 1 0 0
-12.753290 1.155939 14.729998 19.518080 -0.090392 0.715623 0.058647 -0.015672 526305.000000 1 0 0
-15.928990 -4.782061 8.506198 18.680370 0.291651 1.098026 0.045708 -0.013851 -1383080.000000 1 0 0
-2.254090 0.679639 15.667298 15.843203 -0.292845 0.149154 0.006213 -0.004580 -6731.870000 1 0 0
-13.485590 -8.844861 12.504398 20.407172 0.580494 0.911267 0.038843 -0.024295 676045.000000 1 0 0
6.104510 -3.089561 14.640498 16.160279 -0.468525 0.437164 0.021137 -0.009440 941291.000000 1 0 0
-15.718490 0.570639 7.612398 17.474128 -0.036288 1.120049 0.042387 -0.018347 293568.000000 1 0 0
-14.238790 6.070839 12.142598 19.673356 -0.403021 0.905604 0.060364 -0.029894 -35678.400000 1 0 0
0.380010 9.323539 16.565398 19.012765 1.530061 0.512997 0.003548 -0.012315 -441128.000000 1 0 0
-10.271590 -5.175261 10.793198 15.772825 0.466717 0.817166 0.015132 -0.014844 -182054.000000 1 0 0
-3.257990 -10.896261 15.158598 18.950623 1.280257 0.643668 0.023287 -0.012438 -896544.000000 1 0 0
-3.504290 2.660439 12.625598 13.370255 -0.649360 0.335320 -0.002776 0.001352 -2370870.000000 1 0 0
-12.232490 -7.618461 7.568298 16.277404 0.557020 1.087210 0.020561 0.000670 477820.000000 1 0 0
-8.121690 -1.748661 13.260298 15.647849 0.212070 0.559690 0.010541 -0.003603 -238954.000000 1 0 0
-9.777490 6.492039 9.480198 15.087082 -0.586139 0.891346 0.007845 -0.008504 -908413.000000 1 0 0
-17.760190 -3.369561 6.768398 19.302577 0.187497 1.212534 0.052826 -0.017632 279346.000000 1 0 0
-1.147890 0.004839 20.409098 20.441354 -0.004216 0.056185 0.022118 -0.019559 -403315.000000 1 0 0
-2.822890 2.521339 20.224198 20.575327 -0.729033 0.185009 0.027472 -0.016782 -1041380.000000 1 0 0
-3.828390 11.356539 10.981298 16.254737 -1.245652 0.829052 0.003272 -0.010130 -500713.000000 1 0 0
-4.109990 -4.705461 14.865098 16.124656 0.852844 0.397875 0.006826 -0.014101 538085.000000 1 0 0
-0.193490 -14.283661 13.284998 19.507731 1.557251 0.821653 0.013575 -0.005246 174219.000000 1 0 0
-12.122990 0.575439 8.353698 14.733712 -0.047431 0.967963 0.009142 -0.004451 -99776.100000 1 0 0
-7.760990 2.165139 15.489798 17.460087 -0.272060 0.479654 0.003711 0.003880 124625.000000 1 0 0
3.266810 -1.925361 18.506698 18.891187 -0.532567 0.202100 0.028883 -0.011536 -56142.200000 1 0 0
-2.072990 4.862939 12.538198 13.607053 -1.167839 0.399004 -0.008034 0.000949 -750578.000000 1 0 0
-10.266190 -6.054561 13.230798 17.807481 0.532854 0.733268 0.020112 -0.018263 -331374.000000 1 0 0
2.274910 -3.784161 14.326298 14.991261 -1.029520 0.298960 0.001978 -0.004373 -632551.000000 1 0 0
6.705510 1.128839 16.940198 18.253999 0.166781 0.381716 0.040827 -0.013213 -1454610.000000 1 0 0
-1.912290 -5.831361 13.842798 15.142149 1.253915 0.417292 0.002261 -0.009219 -2342630.000000 1 0 0
-12.518390 3.758539 14.700598 19.670900 -0.291678 0.726766 0.028875 -0.011359 243621.000000 1 0 0
-13.172290 -6.404961 13.555498 19.957061 0.452583 0.824079 0.033695 -0.016663 -565722.000000 1 0 0
-9.528890 6.897439 11.993098 16.799072 -0.626551 0.775724 0.024023 -0.007616 289712.000000 1 0 0
-1.164790 -2.496561 12.744498 13.038857 1.134259 0.212889 -0.000146 -0.001357 546735.000000 1 0 0
0.123310 6.659839 15.099998 16.503897 1.552283 0.415449 -0.000245 -0.006913 615338.000000 1 0 0
-16.423590 -0.778961 9.798698 19.140417 0.047394 1.033358 0.062995 -0.015443 227137.000000 1 0 0
-1.318490 2.780839 13.752198 14.092354 -1.128055 0.220161 -0.002958 -0.003035 -3323100.000000 1 0 0
-11.217190 -3.461761 16.075398 19.905466 0.299339 0.630747 0.035342 -0.008377 90340.700000 1 0 0
-5.065090 -1.383461 17.079898 17.868744 0.266633 0.298246 0.014427 -0.009423 149930.000000 1 0 0
-11.919090 6.780439 11.060598 17.617488 -0.517217 0.892048 0.043858 -0.014871 -1466870.000000 1 0 0
-2.969990 4.472939 18.694298 19.450060 -0.984649 0.279681 0.024153 -0.012709 224706.000000 1 0 0
4.955010 -1.815661 16.503298 17.326500 -0.351235 0.309491 0.026486 -0.011338 -456212.000000 1 0 0
-8.042590 -4.105661 12.204298 15.181719 0.472004 0.637004 0.010629 -0.006492 -1247240.000000 1 0 0
-11.695290 -0.869461 16.155698 19.963526 0.074206 0.627904 0.052521 -0.009334 199038.000000 1 0 0
2.043210 2.305539 17.223098 17.496438 0.845648 0.176994 0.010101 -0.016427 -1121020.000000 1 0 0
-9.075990 -7.489361 11.515498 16.464228 0.689909 0.796203 0.013089 -0.010146 647654.000000 1 0 0
-7.144290 6.972639 14.830198 17.877174 -0.773240 0.592476 0.008113 -0.006022 -61045.900000 1 0 0
-5.519090 3.465939 15.828798 17.117942 -0.560747 0.390574 -0.005943 0.000112 488452.000000 1 0 0
-9.203390 4.277039 11.497698 15.335988 -0.435031 0.723157 0.002290 -0.008656 -160663.000000 1 0 0
-10.480490 -0.038261 14.111198 17.577487 0.003651 0.638821 0.021513 -0.002543 -433706.000000 1 0 0
8.145010 -0.703661 15.780798 17.772730 -0.086178 0.477988 0.040437 -0.011697 278837.000000 1 0 0
-8.485290 -7.433561 14.619798 18.466090 0.719426 0.657192 0.028528 -0.014888 -2249840.000000 1 0 0
-0.080090 4.144339 15.587798 16.129520 -1.551474 0.259906 -0.002143 -0.008265 -273880.000000 1 0 0
-8.076690 3.008339 9.627898 12.922053 -0.356552 0.730149 -0.002641 -0.001708 -597959.000000 1 0 0
-2.063890 -9.766961 13.124698 16.489720 1.362547 0.650251 0.004212 -0.005827 549973.000000 1 0 0
-5.933690 10.214639 10.456398 15.776051 -1.044539 0.846242 0.013417 -0.011232 -3051990.000000 1 0 0
-8.605890 -2.727461 15.713898 18.122554 0.306915 0.521464 0.017941 -0.012601 1145160.000000 1 0 0
4.046810 5.645939 17.742598 19.053953 0.948907 0.373169 0.026588 -0.015124 219357.000000 1 0 0
-6.759990 -0.906561 15.169398 16.632196 0.133311 0.422540 0.005795 -0.003057 -1296500.000000 1 0 0
-0.925590 -9.851861 15.481098 18.373358 1.477121 0.568733 0.001606 -0.009684 35370.000000 1 0 0
-4.352690 5.821039 16.161198 17.720461 -0.928736 0.422644 0.002009 -0.006733 303777.000000 1 0 0
3.564410 0.248639 17.370098 17.733786 0.069643 0.202873 0.024172 -0.013623 -1251780.000000 1 0 0
1.422710 0.673539 19.172598 19.237107 0.442158 0.081917 0.017488 -0.015974 -657465.000000 1 0 0
-6.273190 6.449139 17.813398 19.956489 -0.799227 0.467691 0.004103 -0.006762 -174393.000000 1 0 0
-12.068490 0.632739 10.945398 16.304924 -0.052381 0.834843 0.025416 -0.009320 -123344.000000 1 0 0
-5.342690 5.218539 13.876798 15.758903 -0.773643 0.493735 -0.008441 0.000441 -1681490.000000 1 0 0
-8.570390 -9.475061 9.990098 16.218212 0.835489 0.907167 0.008193 -0.003097 244633.000000 1 0 0
6.781310 -3.598361 17.115398 18.758231 -0.487850 0.421636 0.034080 -0.010971 430126.000000 1 0 0
-16.679490 1.829639 9.624698 19.343934 -0.109257 1.050017 0.064492 -0.023929 595355.000000 1 0 0
-4.165590 -9.482761 11.486598 15.466636 1.156893 0.733748 0.001909 -0.008059 601952.000000 1 0 0
-11.057790 -3.655061 9.120998 14.792795 0.319236 0.906400 0.010650 -0.003442 -280001.000000 1 0 0
3.617010 -5.270961 18.540898 19.612004 -0.969382 0.332022 0.022585 -0.011206 -368902.000000 1 0 0
2.398210 -1.706561 16.031398 16.299371 -0.618467 0.181582 0.008959 -0.009704 271069.000000 1 0 0
-3.206090 -4.230861 20.202898 20.888664 0.922330 0.256947 0.017050 -0.021176 -991723.000000 1 0 0
-6.292390 -3.293261 14.414098 16.068789 0.482170 0.457805 0.009111 -0.005241 610197.000000 1 0 0
-9.540790 5.135439 13.931498 17.648967 -0.493786 0.661020 0.034619 -0.010138 284033.000000 1 0 0
-5.829090 -5.093461 11.842298 14.147850 0.718150 0.578948 0.003803 -0.002645 -151730.000000 1 0 0
5.968310 1.981339 19.217198 20.219969 0.320529 0.316255 0.066567 -0.026567 -11112.200000 1 0 0
-2.704090 11.837039 13.331798 18.032317 -1.346207 0.738724 0.004263 -0.018110 -1937610.000000 1 0 0
3.380310 1.468439 15.103998 15.547141 0.409814 0.239331 0.011270 -0.007216 -773670.000000 1 0 0
-5.561690 7.456339 12.727998 15.764877 -0.929924 0.631125 -0.011319 -0.006637 -705573.000000 1 0 0
-1.898190 -1.792061 15.142498 15.365867 0.756647 0.170716 0.002967 -0.005518 -319262.000000 1 0 0
-7.282290 10.621839 13.975198 19.004247 -0.969803 0.744580 0.028131 -0.024026 -722790.000000 1 0 0
-10.101490 2.070839 10.707798 14.865578 -0.202202 0.766550 0.005492 -0.003677 -1748920.000000 1 0 0
-13.692690 5.120839 9.204898 17.275500 -0.357879 1.008855 0.024621 -0.017039 -412326.000000 1 0 0
0.719110 -4.664561 20.073198 20.620585 -1.417836 0.230928 0.034538 -0.023717 -142934.000000 1 0 0
-14.346390 -3.015061 7.405498 16.424095 0.207147 1.103032 0.028477 -0.008292 732632.000000 1 0 0
-2.577790 2.256039 17.616098 17.946076 -0.718934 0.192061 0.007070 -0.010700 -655219.000000 1 0 0
-6.199990 -8.305761 14.526098 17.844693 0.929559 0.619741 0.005539 -0.011407 -722195.000000 1 0 0
-7.904490 2.029739 12.131398 14.620931 -0.251353 0.592176 -0.000968 -0.002525 -587487.000000 1 0 0
-14.500390 -3.415161 10.087198 17.991003 0.231307 0.975589 0.033998 -0.009357 685967.000000 1 0 0
-0.495190 6.914239 12.646898 14.422065 -1.499300 0.501395 -0.006059 -0.001406 -2148100.000000 1 0 0
-1.683090 -2.349261 19.516698 19.729504 0.949126 0.147008 0.014367 -0.012011 -329201.000000 1 0 0
-12.842190 10.241539 7.512498 18.062353 -0.673210 1.141842 0.019707 -0.019638 510961.000000 1 0 0
-19.562990 2.175539 6.941398 20.871668 -0.110752 1.231763 0.076358 -0.029541 1521400.000000 1 0 0
-16.301890 8.344439 6.918798 19.576799 -0.473098 1.209574 0.034922 -0.012351 414107.000000 1 0 0
-12.367790 7.194739 13.590198 19.733727 -0.526879 0.811131 0.051482 -0.015604 322939.000000 1 0 0
-15.996490 8.282839 10.684598 20.944062 -0.477779 1.035438 0.038977 -0.013193 -285794.000000 1 0 0
1.810610 10.934839 15.000798 18.651353 1.406703 0.636344 0.004183 -0.004334 93294.100000 1 0 0
2.269810 14.530739 12.040298 19.006925 1.415841 0.884768 0.010921 -0.008937 -325300.000000 1 0 0
-3.028390 13.687539 11.588698 18.188398 -1.353053 0.880004 -0.007934 -0.015734 434648.000000 1 0 0
9.126510 4.835039 16.006498 19.049378 0.487187 0.573027 0.041619 0.009271 -283781.000000 1 0 0
-0.210190 12.443739 12.875298 17.907098 -1.553907 0.768426 -0.001752 -0.005812 -197098.000000 1 0 0
3.193910 13.622139 14.408798 20.084253 1.340492 0.770708 0.017815 -0.001937 -357600.000000 1 0 0
-2.980690 -4.178761 -13.752602 14.679257 0.951203 2.784374 0.007021 -0.005941 -180757.000000 1 0 0
5.955010 -11.447961 16.226198 20.731798 -1.091135 0.671849 0.024457 -0.011818 122076.000000 1 0 0
7.993610 -13.562561 7.389998 17.391174 -1.038216 1.131914 0.003726 -0.006473 -218310.000000 1 0 0
-0.099890 15.569839 1.371098 15.630412 -1.564381 1.482964 0.006664 -0.004778 -1486770.000000 1 0 0
-13.956490 8.145139 9.127598 18.559093 -0.528280 1.056626 0.030769 -0.015397 287064.000000 1 0 0
-15.444090 -9.710961 5.139498 18.953551 0.561314 1.296195 0.026275 -0.006944 -892177.000000 1 0 0
9.715010 -11.143161 11.032498 18.446340 -0.853761 0.929686 0.035784 -0.008413 43900.000000 1 0 0
-5.728690 -10.525961 -16.868602 20.692111 1.072383 2.523904 0.021862 -0.004042 48421.300000 1 0 0
-1.792790 -12.679761 -14.495302 19.341773 1.430338 2.417997 0.019841 -0.004378 -117563.000000 1 0 0
5.460310 -15.619761 -12.431102 20.695995 -1.234498 2.215113 0.038791 -0.015130 261577.000000 1 0 0
1.030110 -12.517461 -16.080902 20.404493 -1.488687 2.478522 0.019098 -0.004543 157197.000000 1 0 0
0.335510 -14.313161 -14.023202 20.040691 -1.547360 2.345825 0.027952 0.004387 473037.000000 1 0 0
-6.685390 -6.019861 -14.658502 17.198977 0.733064 2.591142 0.018931 -0.002718 -38546.700000 1 0 0
-6.131390 -8.251561 -17.097102 19.949764 0.931753 2.600231 0.013936 -0.009067 5124.880000 1 0 0
-2.379190 -16.560461 -12.981102 21.175892 1.428106 2.230665 0.020905 -0.007282 205383.000000 1 0 0
15.823910 -7.645361 -9.756602 20.100720 -0.450079 2.077601 0.049826 -0.011976 65088.100000 1 0 0
19.251110 -2.736861 -3.762802 19.805412 -0.141220 1.761947 0.094270 -0.031598 94626.400000 1 0 0
15.705710 -11.294261 -8.820102 21.260853 -0.623442 1.998576 0.075328 -0.021690 41234.400000 1 0 0
18.601810 -3.833361 -7.023302 20.249661 -0.203230 1.924991 0.185982 -0.022687 -264322.000000 1 0 0
8.777410 -9.577761 -15.713202 20.388260 -0.828974 2.450733 0.075178 -0.012338 218388.000000 1 0 0
-4.817890 9.677339 -16.177202 19.456742 -1.108868 2.552499 0.018293 -0.006941 521525.000000 1 0 0
2.659910 -9.807661 -18.302302 20.934172 -1.305959 2.634744 0.038538 -0.004641 472310.000000 1 0 0
10.836410 7.905839 -14.901302 20.049411 0.630292 2.408680 0.094561 -0.046996 187256.000000 1 0 0
17.842010 -6.781661 -7.250902 20.418223 -0.363230 1.933838 0.045757 -0.028952 -17239.400000 1 0 0
13.287710 5.484339 -13.825002 19.944220 0.391439 2.336693 0.094076 -0.012863 13587.900000 1 0 0
16.069610 6.237439 -10.692702 20.284770 0.370250 2.126015 0.066315 -0.020920 325198.000000 1 0 0
3.438410 -0.421561 -19.206902 19.516799 -0.121994 2.963151 0.043006 -0.010734 208035.000000 1 0 0
10.509510 -1.983761 -14.567402 18.071920 -0.186564 2.508293 0.043140 -0.013183 244022.000000 1 0 0
12.453510 -5.633361 -14.088902 19.629616 -0.424807 2.371343 0.064580 -0.011165 433696.000000 1 0 0
10.152510 6.603339 -12.963002 17.740264 0.576667 2.390159 0.047874 -0.007748 562506.000000 1 0 0
10.940910 4.835639 -16.083902 20.044421 0.416163 2.502124 0.085472 -0.030572 587864.000000 1 0 0
11.953910 -10.321161 -14.923602 21.728696 -0.712230 2.327895 0.095653 -0.018447 439437.000000 1 0 0
-0.746390 2.805439 -17.563002 17.801309 -1.310769 2.977781 0.024775 -0.004827 337737.000000 1 0 0
6.361010 -1.128361 -17.010802 18.196236 -0.175561 2.778640 0.026534 -0.003390 20598.300000 1 0 0
6.906310 -6.150161 -15.597802 18.133202 -0.727549 2.606417 0.029273 -0.011388 377556.000000 1 0 0
-2.474790 -4.577961 -20.124602 20.786580 1.075208 2.888544 0.060493 -0.032598 351757.000000 1 0 0
16.057410 -0.180661 -13.294302 20.847339 -0.011250 2.262302 0.066641 -0.014068 113339.000000 1 0 0
-4.043590 -0.563661 -18.554702 18.998560 0.138504 2.925009 0.019473 -0.010805 206202.000000 1 0 0
4.569010 8.818239 -17.952702 20.516742 1.092749 2.636288 0.050292 -0.013804 150462.000000 1 0 0
9.668810 -0.030361 -17.006702 19.563096 -0.003140 2.624633 0.058178 -0.025859 -70642.500000 1 0 0
4.151610 4.482939 -18.285802 19.279605 0.823752 2.819115 0.036381 -0.006547 458660.000000 1 0 0
-2.762390 -11.086461 -17.801802 21.152885 1.326601 2.570994 0.037466 -0.019557 39657.300000 1 0 0
5.649610 -9.743461 -16.004902 19.570641 -1.045335 2.528377 0.025851 -0.006989 38197.900000 1 0 0
10.079010 -12.307261 -10.659602 19.148948 -0.884608 2.161165 0.042948 -0.009228 240260.000000 1 0 0
6.225010 6.882739 -16.862702 19.247690 0.835535 2.638487 0.054539 -0.018804 454710.000000 1 0 0
9.111710 1.433939 -20.114302 22.128366 0.156093 2.711633 0.093883 -0.024935 93661.500000 1 0 0
-0.947990 -1.008961 -20.440902 20.487731 0.816544 3.073967 0.044215 -0.009587 111827.000000 1 0 0
-0.910090 6.655339 -19.662102 20.777874 -1.434893 2.812389 0.034190 -0.008051 7705.910000 1 0 0
8.810110 5.855839 -18.067702 20.936827 0.586621 2.611901 0.080995 -0.023282 163662.000000 1 0 0
11.594710 -0.007861 -12.578502 17.107194 -0.000678 2.396870 -0.003487 -0.013715 -294565.000000 1 0 0
-3.952390 -2.634261 -19.730502 20.294172 0.587886 2.905353 0.007069 -0.014485 420192.000000 1 0 0
6.146010 -11.568961 -14.555902 19.582864 -1.082462 2.408783 0.033084 -0.007203 133910.000000 1 0 0
11.310910 2.343839 -15.855802 19.617256 0.204328 2.511984 0.056389 -0.010366 -133497.000000 1 0 0
-2.839590 -4.507461 -17.030602 17.844379 1.008627 2.838426 0.012954 -0.012550 274808.000000 1 0 0
-6.930990 -4.825261 -17.269602 19.223967 0.608162 2.686766 0.027099 -0.019356 111855.000000 1 0 0
2.736810 10.991139 -15.423002 19.135419 1.326758 2.508146 0.012482 -0.006637 233032.000000 1 0 0
17.283310 -6.096861 -10.684202 21.214068 -0.339131 2.098601 0.094702 -0.024572 -188530.000000 1 0 0
9.456510 -3.211161 -17.492902 20.142958 -0.327354 2.622839 0.036892 -0.022804 141702.000000 1 0 0
-7.097790 -1.855561 -19.117402 20.476737 0.255705 2.775172 0.010385 0.003273 477519.000000 1 0 0
1.728310 -7.543561 -19.173302 20.676263 -1.345573 2.757957 0.050989 -0.025119 290734.000000 1 0 0
5.300210 9.962039 -14.673702 18.510861 1.081846 2.486034 0.032508 -0.014212 475551.000000 1 0 0
6.028610 -3.662161 -17.931902 19.269371 -0.545889 2.766820 0.041547 -0.022770 448066.000000 1 0 0
4.681810 13.237239 -14.571002 20.235067 1.230843 2.374723 0.039841 -0.021441 123900.000000 1 0 0
9.725110 11.332239 -15.577202 21.578847 0.861572 2.377302 0.109655 -0.022215 68691.300000 1 0 0
17.181210 1.111639 -11.154402 20.514639 0.064611 2.145670 0.092328 -0.013542 121376.000000 1 0 0
14.562210 -2.892261 -12.331602 19.300040 -0.196063 2.263918 0.060018 -0.015482 -26821.300000 1 0 0
-8.332490 0.102639 -17.238202 19.146710 -0.012317 2.691305 0.016555 -0.018596 420242.000000 1 0 0
-3.291890 4.399739 -18.859602 19.643798 -0.928448 2.858081 0.019138 -0.007049 -41949.000000 1 0 0
4.322310 2.160139 -16.810302 17.490992 0.463460 2.861694 0.022115 -0.009737 354391.000000 1 0 0
-5.260790 14.121239 -14.078302 20.622412 -1.214180 2.322207 0.029726 -0.002355 368254.000000 1 0 0
1.057310 9.419839 -17.670302 20.052203 1.459021 2.649223 0.024494 -0.011112 560923.000000 1 0 0
1.297310 -5.226761 -19.797102 20.516512 -1.327507 2.875992 0.041325 -0.010745 480222.000000 1 0 0
4.011710 -6.335561 -17.867702 19.377510 -1.006318 2.744229 0.044326 -0.027919 157137.000000 1 0 0
-7.424190 6.114739 -15.235802 18.017721 -0.688981 2.578486 0.014010 -0.024562 -121842.000000 1 0 0
-11.713290 3.280839 -16.840602 20.774285 -0.273097 2.516052 0.050890 -0.026647 126561.000000 1 0 0
-4.436690 6.708339 -17.196402 18.984263 -0.986470 2.704117 0.011881 -0.003349 396305.000000 1 0 0
-8.425390 5.223039 -17.879302 20.443502 -0.554936 2.635348 0.030352 -0.005412 551693.000000 1 0 0
-8.530990 4.301139 -14.750702 17.574435 -0.466985 2.566841 0.002482 -0.027665 294758.000000 1 0 0
9.581310 13.564939 -12.834302 20.988768 0.955835 2.228731 0.099755 -0.039185 418254.000000 1 0 0
14.151110 8.915939 -12.248302 20.730866 0.562224 2.202877 0.109244 -0.026269 59224.100000 1 0 0
8.532610 15.543239 -9.977802 20.345866 1.068752 2.083356 0.056430 -0.021236 3165.620000 1 0 0
7.836810 13.420639 -14.506402 21.259465 1.042271 2.321769 0.084987 -0.030270 86507.600000 1 0 0
4.562910 15.228639 -13.300602 20.727702 1.279682 2.267486 0.037746 -0.017686 167935.000000 1 0 0
10.991410 11.817439 -11.466702 19.797682 0.821598 2.188536 0.094749 -0.026519 358436.000000 1 0 0
16.105110 10.326139 -10.186802 21.674286 0.570144 2.060081 0.105402 -0.026610 391915.000000 1 0 0
12.797410 10.712839 -9.068702 18.994209 0.696963 2.068542 0.081016 -0.040652 281293.000000 1 0 0
10.433010 11.667339 -7.442102 17.330880 0.841191 2.014639 0.047313 -0.016383 94714.200000 1 0 0
5.806510 16.941439 -10.178002 20.599021 1.240604 2.087597 0.067735 -0.010246 222156.000000 1 0 0
11.203110 13.683639 -10.514702 20.574514 0.884743 2.107208 0.104159 -0.042384 216112.000000 1 0 0
8.541110 -19.282561 -1.782502 21.164712 -1.153825 1.655117 0.061503 -0.013718 196294.000000 1 0 0
7.971210 -17.470961 -4.135702 19.643795 -1.142753 1.782918 0.050117 0.002520 196535.000000 1 0 0
4.144110 -18.118861 4.861998 19.212126 -1.345946 1.314945 0.053389 -0.041171 70959.700000 1 0 0
10.613110 -17.398061 -1.982902 20.475901 -1.023044 1.667789 0.059469 -0.026575 675528.000000 1 0 0
-3.511690 -14.792861 7.917298 17.141887 1.337720 1.090696 0.042973 -0.029214 76071.000000 1 0 0
-15.234090 -12.959561 -4.332502 20.464561 0.704897 1.784118 0.042518 -0.012800 119183.000000 1 0 0
-9.452690 -12.532761 -6.959702 17.171513 0.924588 1.988109 0.032072 -0.019196 231532.000000 1 0 0
-11.165190 -15.859461 6.413798 20.428430 0.957385 1.251431 0.025130 -0.000531 365609.000000 1 0 0
-15.655790 -7.596761 -7.837902 19.085262 0.451767 1.993994 0.104313 -0.019168 -370426.000000 1 0 0
5.599910 -15.624561 6.726898 17.909133 -1.226654 1.185738 0.040020 -0.009435 46735.400000 1 0 0
2.925110 -14.070461 9.454998 17.202649 -1.365826 0.988882 0.019702 -0.003362 276581.000000 1 0 0
3.204010 -17.712161 9.893698 20.539513 -1.391838 1.068213 0.040677 -0.000881 22967.000000 1 0 0
-8.418390 -17.754761 -5.235602 20.335002 1.128043 1.831197 0.038372 -0.010462 -46653.700000 1 0 0
2.504010 -19.975961 -3.987702 20.523422 -1.446096 1.766340 0.036583 -0.012229 38621.600000 1 0 0
-17.173490 -10.553861 -2.802902 20.351142 0.551045 1.708962 -0.051487 -0.019068 -119950.000000 1 0 0
-4.251790 -14.789361 2.806198 15.642175 1.290856 1.390420 0.013516 -0.003368 111119.000000 1 0 0
-11.028590 -10.045761 -14.479902 20.789772 0.738796 2.341293 0.051741 -0.008855 -7033.010000 1 0 0
0.698010 -20.310761 2.630198 20.492246 -1.536443 1.442090 0.046833 -0.019971 241826.000000 1 0 0
6.083210 -17.941561 -0.305602 18.947254 -1.243903 1.586926 0.032910 -0.024026 -194922.000000 1 0 0
-6.630990 -18.655961 -2.722602 19.985681 1.229287 1.707449 -0.016579 -0.026903 -168442.000000 1 0 0
-9.305790 -15.529161 -7.608302 19.637688 1.030931 1.968643 0.051189 -0.023012 -8263.030000 1 0 0
-11.726090 -11.487761 -12.081802 20.382339 0.775132 2.205276 0.029696 0.002839 312335.000000 1 0 0
-13.221290 -15.134161 -3.397902 20.381144 0.852757 1.738296 0.044752 -0.013669 42883.300000 1 0 0
-0.202890 -20.671861 -2.689002 20.847007 1.560982 1.700144 0.043148 -0.006588 311049.000000 1 0 0
-11.804090 -16.821361 -0.749302 20.563466 0.958909 1.607243 0.056350 -0.012211 93728.300000 1 0 0
1.074410 -19.780161 5.600198 20.585707 -1.516532 1.295281 0.065842 -0.032843 131664.000000 1 0 0
-18.204290 -8.755461 2.379598 20.340028 0.448297 1.453537 0.054981 -0.007986 -544690.000000 1 0 0
-15.037590 -15.005561 -0.688802 21.254891 0.784332 1.603209 0.058077 -0.005196 -4698.870000 1 0 0
10.228510 -15.703361 -4.793602 19.344161 -0.993467 1.821211 0.035014 0.001295 -82392.300000 1 0 0
-0.250490 -19.182961 -7.074802 20.447531 1.557739 1.924098 0.031283 -0.008335 222527.000000 1 0 0
-10.107190 -17.843061 -2.999602 20.725050 1.055412 1.716040 0.052510 0.014612 542909.000000 1 0 0
-14.455590 -6.455661 -11.341802 19.475012 0.420011 2.192446 0.050864 -0.013845 -94868.800000 1 0 0
-12.579590 -14.490861 1.832198 19.276620 0.855885 1.475605 0.051278 -0.024882 153806.000000 1 0 0
-2.926790 -16.167961 10.011698 19.240664 1.391712 1.023547 0.035194 -0.016275 268274.000000 1 0 0
-12.680390 -14.222961 -6.319802 20.075477 0.842673 1.891044 0.057704 -0.021953 62389.600000 1 0 0
5.283410 -17.106361 -7.279802 19.327118 -1.271234 1.956987 0.032880 -0.012097 74185.100000 1 0 0
-17.430790 -6.951561 -2.731002 18.963517 0.379479 1.715312 -0.004429 -0.010501 -153356.000000 1 0 0
-12.070590 -13.802661 -9.182802 20.506984 0.852243 2.035087 0.050398 -0.025422 184072.000000 1 0 0
-8.024390 -13.493861 9.873498 18.546187 1.034305 1.009394 0.033112 -0.010000 425194.000000 1 0 0
-15.940990 -8.465861 -5.668602 18.918747 0.488197 1.875100 0.043929 -0.001340 330737.000000 1 0 0
-0.887490 -19.600161 0.494198 19.626466 1.525548 1.545613 0.026374 -0.012165 -24346.200000 1 0 0
-15.112790 -11.265661 -1.719402 18.927965 0.640576 1.661761 0.022362 -0.007407 -5486.040000 1 0 0
-7.258690 -18.815361 1.214998 20.203529 1.202604 1.510622 0.035842 -0.021452 71702.200000 1 0 0
-1.999590 -21.205861 -4.977302 21.873738 1.476780 1.800354 0.037203 -0.003428 134209.000000 1 0 0
-9.274290 -19.584661 -1.123802 21.698717 1.128533 1.622611 0.052293 -0.009278 67319.000000 1 0 0
-17.888390 -7.390261 4.875798 19.959555 0.391775 1.324015 0.059949 -0.014613 -43311.300000 1 0 0
-2.872190 -15.826861 -10.665202 19.299884 1.391274 2.156282 0.018750 -0.005297 146579.000000 1 0 0
-3.044590 -18.051561 -8.628402 20.238025 1.403708 2.011246 0.026216 -0.013697 181726.000000 1 0 0
4.535110 -17.213761 -4.648102 18.397979 -1.313192 1.826206 0.027254 -0.022967 796872.000000 1 0 0
0.808410 -17.563461 -9.442102 19.957003 -1.524801 2.063628 0.029771 0.001497 -66013.900000 1 0 0
-7.664290 -10.084961 -14.636202 19.356295 0.920944 2.428201 0.010192 -0.009169 445104.000000 1 0 0
-4.087490 -19.835161 -1.159502 20.285108 1.367568 1.627988 0.020270 -0.005632 237501.000000 1 0 0
-10.451790 -15.317661 8.673898 20.472106 0.972024 1.133277 0.030158 -0.022542 264570.000000 1 0 0
-7.464090 -14.940261 -10.264402 19.603111 1.107472 2.121880 0.028604 -0.019390 191208.000000 1 0 0
-12.842290 -7.999461 -12.281002 19.486887 0.557088 2.252631 0.056960 -0.014105 439950.000000 1 0 0
-16.227790 -13.047061 2.648498 20.990033 0.677172 1.444280 0.059989 -0.003618 102237.000000 1 0 0
-6.424890 -14.314061 -12.860502 20.287041 1.148898 2.257417 0.010578 -0.003728 362223.000000 1 0 0
-14.304990 -11.417161 -6.691602 19.487478 0.673596 1.921309 0.065628 -0.022678 -21158.200000 1 0 0
-11.939090 -10.459161 -8.081202 17.811281 0.719421 2.041723 0.038350 -0.009986 291267.000000 1 0 0
-9.863190 -14.808261 3.638098 18.160475 0.983214 1.369101 0.010862 -0.002492 448698.000000 1 0 0
5.325710 -18.305361 7.924798 20.645868 -1.287675 1.176840 0.064342 -0.023426 146949.000000 1 0 0
-4.854190 -17.002761 5.621598 18.554228 1.292700 1.262976 0.018258 0.012258 508859.000000 1 0 0
-18.641490 -7.167161 -6.856002 21.115825 0.367050 1.901475 0.057653 -0.022173 164136.000000 1 0 0
-17.224390 -4.579361 -10.827602 20.853947 0.259854 2.116724 0.077585 -0.007484 -179271.000000 1 0 0
-15.978490 -4.015161 -12.934902 20.946248 0.246188 2.236393 0.069636 -0.016061 300853.000000 1 0 0
-19.425290 -4.617961 -5.968402 20.839608 0.233397 1.861261 0.057028 -0.014020 163281.000000 1 0 0
5.567010 -13.595961 8.716198 17.082560 -1.182161 1.035333 0.029248 -0.004490 133709.000000 1 0 0
19.898710 -3.283361 2.750698 20.354495 -0.163530 1.435242 0.077843 -0.020144 7769.260000 1 0 0
18.205710 -2.519361 -0.154302 18.379850 -0.137510 1.579192 0.054189 -0.016516 194599.000000 1 0 0
14.262910 -11.179861 0.255298 18.124157 -0.664810 1.556710 0.043110 -0.009292 61731.600000 1 0 0
11.628510 -14.196661 5.593398 19.184721 -0.884516 1.274944 0.042362 0.002290 578374.000000 1 0 0
10.554210 -12.287761 7.816298 17.985409 -0.861146 1.121212 0.044727 -0.040797 -126152.000000 1 0 0
18.950010 4.076939 -4.742002 19.955223 0.211912 1.810724 0.078472 0.004712 75768.200000 1 0 0
18.933810 -6.051061 -4.477202 20.375226 -0.309331 1.792342 0.093327 -0.029756 -54453.700000 1 0 0
17.693010 -10.055961 -0.006102 20.351044 -0.516828 1.571096 0.072908 -0.012372 382114.000000 1 0 0
17.671010 -8.558761 8.776998 21.507038 -0.451041 1.150426 0.102037 -0.023077 37177.000000 1 0 0
19.688710 -0.055461 -2.372202 19.831181 -0.002817 1.690703 0.068364 -0.008359 203591.000000 1 0 0
7.260710 -13.469961 11.831898 19.342998 -1.076415 0.912603 0.010547 0.004567 288153.000000 1 0 0
16.183010 -6.452761 -3.238302 17.720455 -0.379417 1.754573 0.063853 -0.017617 388571.000000 1 0 0
14.407910 -6.735361 11.621698 19.698143 -0.437292 0.939750 0.082008 -0.042167 427389.000000 1 0 0
17.015810 1.269539 9.662098 19.608816 0.074471 1.055558 0.125448 -0.036367 386332.000000 1 0 0
16.697710 -10.254661 2.643798 19.772741 -0.550749 1.436685 0.030186 -0.011655 287400.000000 1 0 0
15.971510 -6.982661 -5.765202 18.359854 -0.412154 1.890211 0.059699 -0.018936 257853.000000 1 0 0
18.534710 -4.122361 6.227298 19.982707 -0.218851 1.253884 0.123714 -0.018008 25879.800000 1 0 0
13.532710 -13.207861 7.933298 20.506561 -0.773251 1.173565 0.050488 -0.025298 160147.000000 1 0 0
15.239610 -14.214461 -1.369302 20.884722 -0.750607 1.636408 0.053259 -0.009617 189111.000000 1 0 0
18.668610 -6.200261 7.563098 21.075121 -0.320660 1.203746 0.107793 -0.027066 368941.000000 1 0 0
19.761010 3.785139 2.561698 20.282680 0.189254 1.444158 0.055334 0.001538 354475.000000 1 0 0
15.739610 -10.380061 8.254098 20.581816 -0.583015 1.158146 0.060758 -0.032516 232497.000000 1 0 0
13.904710 -4.318661 10.642698 18.034934 -0.301144 0.939594 0.058723 -0.017393 -142004.000000 1 0 0
18.857110 -7.684361 2.018898 20.462550 -0.386959 1.471972 0.105051 -0.023375 34363.800000 1 0 0
19.114610 -5.930361 -1.314702 20.056569 -0.300836 1.636393 0.090847 -0.025318 122479.000000 1 0 0
15.014410 -13.244161 -5.947302 20.885658 -0.722835 1.859547 0.096689 -0.016058 329370.000000 1 0 0
13.878310 -9.431961 10.014198 19.541073 -0.596916 1.032738 0.049299 -0.025667 337189.000000 1 0 0
14.150710 2.390039 0.669598 14.366741 0.167320 1.524172 -0.005220 -0.000572 -86817.000000 1 0 0
12.396110 1.922139 14.002898 18.799982 0.153835 0.730508 0.004803 0.002533 176850.000000 1 0 0
18.433210 -2.312261 9.579998 20.902301 -0.124788 1.094689 0.099477 -0.020636 299249.000000 1 0 0
7.254810 -18.518261 5.024698 20.513553 -1.197409 1.323333 0.041471 -0.029511 288533.000000 1 0 0
12.709510 -2.928961 15.114898 19.964234 -0.226500 0.711935 0.079244 -0.002223 311492.000000 1 0 0
11.543810 -13.787761 -7.003102 19.297806 -0.873751 1.942170 0.043928 -0.005603 284003.000000 1 0 0
10.850810 -17.241661 4.788398 20.927105 -1.009085 1.339938 0.039818 -0.025515 483411.000000 1 0 0
17.843210 -1.143661 -5.774302 18.789111 -0.064007 1.883174 0.052778 -0.014216 306334.000000 1 0 0
4.109510 -13.420861 11.441998 18.108752 -1.273658 0.886860 0.002526 -0.008845 -312952.000000 1 0 0
9.207510 -2.885961 13.946998 16.959534 -0.303737 0.605234 0.029727 -0.015447 325867.000000 1 0 0
8.950910 -9.404161 14.219298 19.254752 -0.810087 0.739979 0.039448 -0.005418 328156.000000 1 0 0
20.803210 5.580939 -2.987202 21.744972 0.262101 1.708606 0.081735 -0.003018 413170.000000 1 0 0
14.576210 -13.708361 1.955998 20.104999 -0.754725 1.473353 0.024971 -0.006414 210569.000000 1 0 0
11.440710 -0.514361 15.470498 19.248136 -0.044929 0.637241 0.072318 -0.003549 102636.000000 1 0 0
19.775510 0.413139 7.552498 21.172665 0.020888 1.206053 0.129538 -0.022937 222996.000000 1 0 0
19.875810 0.718239 0.705498 19.901292 0.036121 1.535339 0.062062 -0.012426 252548.000000 1 0 0
17.844610 0.180839 3.230398 18.135553 0.010134 1.391716 0.025467 -0.005942 -43677.900000 1 0 0
10.141110 -8.366561 16.375498 20.999962 -0.689809 0.676471 0.056405 -0.010150 188411.000000 1 0 0
18.732210 3.263539 5.489098 19.790821 0.172489 1.289756 0.028625 -0.003201 122733.000000 1 0 0
16.029310 2.424739 7.383798 17.814001 0.150131 1.143409 0.060267 -0.014829 113987.000000 1 0 0
11.357310 -16.005961 2.044198 19.732157 -0.953678 1.467013 0.014371 -0.005907 239372.000000 1 0 0
8.379310 -16.214961 7.096098 19.582962 -1.093828 1.199997 0.019217 -0.007141 260033.000000 1 0 0
6.295810 6.714639 7.132598 11.644637 0.817579 0.911549 -0.000018 0.002195 -846639.000000 1 0 0
18.643210 2.026939 -6.328002 19.791952 0.108297 1.896237 0.077323 -0.012488 388380.000000 1 0 0
14.133410 4.575639 -7.051802 16.444381 0.313098 2.013991 0.022431 -0.009791 255482.000000 1 0 0
-10.505290 -3.947661 -13.935502 17.892550 0.359453 2.463617 0.020710 -0.004765 -180250.000000 1 0 0
7.700710 -14.079561 -10.382702 19.113750 -1.070304 2.145047 0.027717 -0.004871 25920.500000 1 0 0
1.944810 -15.829861 14.056198 21.258962 -1.448552 0.848393 0.016375 -0.006293 325829.000000 1 0 0
-9.418490 -8.171161 2.213798 12.663993 0.714604 1.395083 0.011354 0.001810 326813.000000 1 0 0
-13.891090 3.024839 -9.599202 17.153912 -0.214407 2.164690 0.030078 -0.005511 407014.000000 1 0 0
-13.124490 -5.111861 -13.260902 19.345151 0.371414 2.326072 0.053051 -0.002480 95904.600000 1 0 0
-18.041390 -1.167761 -8.191502 19.848327 0.064637 1.996218 0.081933 -0.035311 304272.000000 1 0 0
-12.729790 14.391439 5.017898 19.858005 -0.846589 1.315338 0.044794 -0.030445 362320.000000 1 0 0
-17.520290 6.173739 9.721198 20.966099 -0.338790 1.088672 0.050069 -0.027643 87345.500000 1 0 0
-13.664790 15.684739 -0.277502 20.804195 -0.854114 1.584135 0.047468 -0.017053 175430.000000 1 0 0
-16.359890 5.213039 -10.746302 20.255981 -0.308476 2.130016 0.074340 -0.006020 -3296.630000 1 0 0
-18.406690 2.972739 -0.106302 18.645501 -0.160121 1.576498 0.066545 -0.007056 -38996.000000 1 0 0
-9.750990 15.568139 0.006398 18.369780 -1.011232 1.570448 0.015351 -0.008409 28941.700000 1 0 0
-18.760790 11.480639 1.822398 22.070194 -0.549159 1.488129 0.101257 -0.039146 80346.300000 1 0 0
-8.872190 16.428539 -7.414202 20.089376 -1.075626 1.948795 0.058528 -0.027252 45765.300000 1 0 0
-14.854190 -1.819461 -13.065302 19.866039 0.121881 2.288518 0.043019 -0.023332 149717.000000 1 0 0
-18.929690 5.503039 -4.632502 20.250350 -0.282912 1.801602 0.068937 -0.010470 -11698.600000 1 0 0
-16.505490 9.889639 -5.526402 20.019422 -0.539811 1.850480 0.041855 0.012208 58523.700000 1 0 0
-19.138090 1.406839 2.820298 19.395869 -0.073378 1.424872 0.068343 -0.020603 338807.000000 1 0 0
-13.863790 12.780039 -7.579702 20.322056 -0.744745 1.953014 0.037141 0.009319 -143059.000000 1 0 0
-12.995290 5.195539 -13.676502 19.568287 -0.380335 2.344671 0.049951 -0.023702 -136020.000000 1 0 0
-14.050690 8.970939 -6.744402 17.982953 -0.568227 1.955241 0.027072 -0.013030 208588.000000 1 0 0
-6.608790 11.096139 -15.396102 20.095780 -1.033623 2.443604 0.015672 -0.031598 -138561.000000 1 0 0
-15.088390 13.667739 2.995298 20.577619 -0.736035 1.424716 0.041502 -0.025619 -38818.900000 1 0 0
-18.394190 8.338939 -5.173002 20.848119 -0.425633 1.821544 0.051104 -0.010091 168390.000000 1 0 0
-4.859490 16.041739 -11.405702 20.274173 -1.276656 2.168291 0.009369 0.001670 169439.000000 1 0 0
-19.375490 -2.506961 -6.490702 20.586978 0.128673 1.891550 0.043394 -0.013276 -256643.000000 1 0 0
-10.839590 13.748839 -6.161702 18.560546 -0.903168 1.909197 0.028927 -0.020237 168069.000000 1 0 0
-19.447390 3.113139 4.414798 20.183732 -0.158733 1.350283 0.072527 -0.017222 151106.000000 1 0 0
-15.219590 12.650939 0.400298 19.795010 -0.693494 1.550573 0.018048 -0.003479 163870.000000 1 0 0
-17.274090 2.079639 -8.334002 19.291829 -0.119814 2.017502 0.036255 -0.016541 -37764.300000 1 0 0
-17.033490 13.868039 -3.211102 22.198501 -0.683318 1.715960 0.067207 0.023260 325481.000000 1 0 0
-10.351090 15.417539 -8.921502 20.601912 -0.979535 2.018662 0.031338 -0.023949 201289.000000 1 0 0
-19.300890 2.112239 -6.840702 20.585944 -0.109004 1.909537 0.076889 -0.022614 66942.500000 1 0 0
-17.473590 10.304739 -0.388302 20.289524 -0.532835 1.589936 0.052810 -0.009625 8282.110000 1 0 0
-11.621090 6.936139 -14.744702 20.014144 -0.538106 2.398994 0.028061 -0.016650 366376.000000 1 0 0
-13.832590 12.228339 -4.634502 19.035531 -0.723918 1.816734 0.035381 -0.016654 89014.500000 1 0 0
-18.905590 7.692439 0.079998 20.410814 -0.386429 1.566877 0.057954 -0.012365 182694.000000 1 0 0
-14.615490 8.762739 -10.396002 19.961838 -0.540090 2.118577 0.036155 -0.002085 518109.000000 1 0 0
-18.625690 11.464039 4.880098 22.408835 -0.551736 1.351261 0.059949 -0.029223 77871.200000 1 0 0
-8.269590 11.996739 -13.661302 19.973458 -0.967274 2.323991 -0.004084 0.001608 421587.000000 1 0 0
-21.067190 -0.480561 -5.374402 21.747221 0.022807 1.820514 0.077529 -0.019407 154788.000000 1 0 0
-10.551790 13.273439 -3.057302 17.229961 -0.899139 1.749182 0.020114 -0.001388 381536.000000 1 0 0
-18.676090 -4.939261 3.907798 19.709478 0.258550 1.371204 0.053052 -0.013259 -40632.500000 1 0 0
-11.459090 11.502339 -12.150902 20.279521 -0.787282 2.213262 0.019940 -0.014601 185755.000000 1 0 0
-14.839390 11.314239 -10.426402 21.375906 -0.651419 2.080323 0.055482 -0.014744 154207.000000 1 0 0
-12.610190 9.523539 -13.994202 21.108111 -0.646837 2.295585 0.038928 -0.014175 308776.000000 1 0 0
-18.259890 -4.844361 -2.972402 19.123979 0.259327 1.726857 0.012300 -0.009497 -473278.000000 1 0 0
-9.285190 12.455539 -11.470902 19.311571 -0.930203 2.206807 0.013608 -0.014374 -34984.800000 1 0 0
-15.309790 7.584239 -8.179102 18.942229 -0.459949 2.017275 0.016583 0.000279 -21673.800000 1 0 0
-14.298990 9.000739 2.070098 17.022330 -0.561805 1.448884 0.019377 -0.007212 -215185.000000 1 0 0
-19.904790 6.103239 8.043998 22.319411 -0.297521 1.202096 0.074342 -0.031894 220909.000000 1 0 0
-18.979790 6.115239 3.997198 20.337310 -0.311695 1.372963 0.042453 -0.009601 209129.000000 1 0 0
-14.334790 12.792339 5.706798 20.042397 -0.728599 1.282065 0.030689 -0.016222 40193.200000 1 0 0
18.190310 6.263039 5.950598 20.137594 0.331594 1.270821 0.039384 -0.008954 59665.100000 1 0 0
18.355510 8.063339 0.244598 20.049988 0.413909 1.558597 0.035798 0.006370 147199.000000 1 0 0
16.106310 4.872639 8.949998 19.059337 0.293776 1.081974 0.034297 -0.004761 -38698.100000 1 0 0
12.338010 12.966139 10.924098 20.968624 0.810216 1.022805 0.049093 -0.008871 154660.000000 1 0 0
15.740510 12.337839 4.027398 20.401125 0.664801 1.372080 0.042605 -0.005943 226853.000000 1 0 0
5.446810 10.460739 14.420998 18.629547 1.090733 0.685515 0.024944 0.001713 217587.000000 1 0 0
12.423010 14.316539 -5.375002 19.702414 0.856094 1.847108 0.043851 0.017964 322794.000000 1 0 0
18.204010 9.405939 -2.921202 20.697611 0.476915 1.712406 0.051688 0.002226 -51442.600000 1 0 0
14.319910 7.472239 9.445598 18.711321 0.480941 1.041638 0.034652 -0.013583 77365.100000 1 0 0
5.025410 18.906439 -2.026402 19.667600 1.310999 1.674012 0.026647 -0.017573 450784.000000 1 0 0
-4.648190 19.496839 3.799898 20.400285 -1.336758 1.383435 0.007075 0.003825 168391.000000 1 0 0
7.101910 12.404539 12.557098 19.026047 1.050824 0.849984 0.039805 -0.008056 56523.500000 1 0 0
0.106610 17.070839 -10.077802 19.823900 1.564551 2.104083 0.019472 0.004152 184296.000000 1 0 0
10.617110 9.262139 15.634598 21.046399 0.717343 0.733459 0.049818 -0.013213 208900.000000 1 0 0
-1.182390 12.127939 0.967398 12.223781 -1.473610 1.491573 0.001584 -0.001257 525754.000000 1 0 0
-4.978090 19.044639 -2.255202 19.813268 -1.315126 1.684866 0.019772 -0.001008 187391.000000 1 0 0
6.327610 18.434339 6.347498 20.497665 1.240146 1.255951 0.041824 -0.021894 121605.000000 1 0 0
10.821610 17.617639 -1.627302 20.739734 1.019966 1.649340 0.021577 -0.004556 305756.000000 1 0 0
18.683610 10.432439 3.297098 21.651419 0.509250 1.417921 0.051033 -0.005794 260221.000000 1 0 0
12.032810 16.207339 6.850298 21.316495 0.932158 1.243630 0.052762 -0.000918 60180.000000 1 0 0
18.071210 7.214139 -5.886902 20.328996 0.379822 1.864586 0.042015 -0.000972 365753.000000 1 0 0
-0.166090 14.962139 11.035098 18.592111 -1.559696 0.935350 0.008408 -0.011722 173973.000000 1 0 0
1.593110 20.397939 -1.626002 20.524566 1.492853 1.650102 0.034276 -0.001495 225834.000000 1 0 0
14.173710 9.790939 -1.451202 17.287642 0.604512 1.654840 0.022206 -0.005493 -93873.900000 1 0 0
10.365410 17.138039 1.842198 20.113374 1.026841 1.479077 0.038040 -0.019561 253319.000000 1 0 0
0.061310 17.657039 -0.480902 17.663694 1.567324 1.598025 0.011721 -0.005682 85631.900000 1 0 0
-0.145290 21.096739 1.033598 21.122544 -1.563910 1.521843 0.031279 -0.006897 166754.000000 1 0 0
5.630310 18.548639 0.418598 19.388854 1.276092 1.549205 -0.000832 0.002207 -85494.400000 1 0 0
7.456010 17.995939 -1.444702 19.532872 1.178010 1.644827 0.018788 -0.020013 -136619.000000 1 0 0
10.565510 9.246839 12.737798 18.957467 0.718938 0.834005 0.042925 -0.004898 -62093.100000 1 0 0
13.569010 14.754639 8.115898 21.626032 0.827234 1.186093 0.056361 -0.012217 207566.000000 1 0 0
0.241110 17.745339 7.028398 19.088048 1.557210 1.193714 0.013320 -0.000706 184825.000000 1 0 0
6.770910 18.112839 -7.697302 20.812704 1.213062 1.949630 0.023379 -0.007739 205089.000000 1 0 0
-1.412190 18.452639 9.058598 20.604669 -1.494415 1.115601 0.051486 -0.019532 185911.000000 1 0 0
16.288310 6.823739 -8.083002 19.421828 0.396722 2.000038 0.076882 -0.008597 -261381.000000 1 0 0
-5.297290 19.615339 -6.762602 21.413911 -1.307030 1.892100 0.011653 -0.010457 381788.000000 1 0 0
3.742710 15.621339 9.694798 18.762283 1.335639 1.027784 0.021249 -0.007681 309077.000000 1 0 0
9.154310 15.007339 7.634598 19.165300 1.023064 1.161073 0.030688 -0.000865 119374.000000 1 0 0
-2.699890 19.124339 6.743698 20.457449 -1.430548 1.234869 0.019989 -0.003631 268888.000000 1 0 0
5.108410 17.918139 8.720498 20.571890 1.293067 1.133045 0.039699 -0.010981 40129.700000 1 0 0
14.548010 12.173539 -6.373102 20.011399 0.696771 1.894915 0.044388 -0.012459 156816.000000 1 0 0
11.964510 6.660339 15.503498 20.684973 0.507953 0.723482 0.068216 -0.015574 331162.000000 1 0 0
17.213710 9.425739 4.981698 20.247808 0.500977 1.322207 0.033461 -0.007899 117923.000000 1 0 0
5.192310 14.824639 11.920998 19.719032 1.233900 0.921605 0.019030 -0.019437 454180.000000 1 0 0
15.839310 10.652539 -3.834702 19.469599 0.592056 1.769051 0.048243 -0.015060 235028.000000 1 0 0
15.838610 13.539439 6.318498 21.773870 0.707296 1.276374 0.061707 -0.006375 217330.000000 1 0 0
12.789810 13.779639 -8.436802 20.606730 0.822635 1.992614 0.123766 -0.043043 318483.000000 1 0 0
-8.391890 15.403239 9.787798 20.086926 -1.071944 1.061833 0.039274 -0.021258 117685.000000 1 0 0
-3.828890 17.516939 -7.883402 19.587026 -1.355599 1.985022 -0.006193 0.037877 66288.700000 1 0 0
2.394910 19.454139 -4.394002 20.087468 1.448307 1.791323 0.026469 -0.020541 159626.000000 1 0 0
7.072910 16.039439 9.355098 19.869765 1.155477 1.080575 0.041627 -0.025094 404833.000000 1 0 0
13.317410 15.566339 -1.630102 20.550464 0.863103 1.650202 0.057299 -0.018417 187662.000000 1 0 0
12.946810 16.678739 4.345898 21.556602 0.910708 1.367801 0.047770 -0.018844 279431.000000 1 0 0
2.319210 18.475439 0.811498 18.638110 1.445920 1.527243 0.015600 -0.014343 -132846.000000 1 0 0
-6.844990 18.169439 1.434298 19.468940 -1.210509 1.497058 -0.015120 0.024770 199354.000000 1 0 0
-0.032590 20.097239 -5.985502 20.969653 -1.569175 1.860258 0.037307 0.009183 196532.000000 1 0 0
-6.977090 17.822039 -6.012402 20.061252 -1.197651 1.875177 0.024660 -0.028427 -49540.900000 1 0 0
-7.476290 18.278039 -0.776502 19.763213 -1.182529 1.610097 0.029192 -0.014902 60066.100000 1 0 0
-14.389890 -9.405161 8.872498 19.345470 0.578898 1.094338 0.041056 -0.008219 247162.000000 1 0 0
-12.959190 -13.599861 7.991198 20.414604 0.809516 1.168595 0.025044 -0.005362 -65600.800000 1 0 0
-3.544090 -15.928861 12.731598 20.697410 1.351868 0.908245 0.034457 -0.001068 23969.300000 1 0 0
-1.740390 -14.937261 15.268698 21.430909 1.454806 0.777796 0.036195 -0.008383 620554.000000 1 0 0
-7.307490 -13.730761 13.861098 20.834184 1.081723 0.842893 0.010005 0.000522 159227.000000 1 0 0
-10.098290 -11.273661 11.682398 19.119344 0.840339 0.913441 0.038772 -0.005284 94958.700000 1 0 0
-7.255690 -10.455661 13.409698 18.487452 0.964143 0.759267 0.017080 -0.001270 421969.000000 1 0 0
-15.243190 -12.181361 6.977498 20.722593 0.674213 1.227376 0.043323 -0.016212 340584.000000 1 0 0
-4.699790 -12.629161 13.505098 19.078035 1.214537 0.784294 0.026294 -0.007542 288053.000000 1 0 0
3.707910 -12.815661 14.167098 19.460124 -1.289160 0.755387 0.003204 0.015161 506492.000000 1 0 0
6.878910 -13.336661 14.983098 21.205640 -1.094597 0.786168 0.039780 0.004141 244623.000000 1 0 0
7.070910 -8.948761 16.843698 20.341786 -0.902087 0.595204 0.037372 -0.007496 522032.000000 1 0 0
-5.181590 13.665739 13.104398 19.629737 -1.208378 0.839844 0.007168 -0.016196 284941.000000 1 0 0
-13.579090 -2.184061 17.653498 22.378735 0.159474 0.661858 0.073044 -0.008556 235573.000000 1 0 0
-10.007090 9.364239 13.237498 19.054191 -0.752225 0.802753 0.037951 -0.018098 388344.000000 1 0 0
-7.259890 -8.310161 17.056598 20.314830 0.852751 0.574226 0.023835 -0.018724 147748.000000 1 0 0
-5.194590 1.773439 18.916598 19.696866 -0.328994 0.282412 0.015203 0.001934 395622.000000 1 0 0
-16.072190 -3.565961 13.974898 21.594655 0.218335 0.866961 0.103480 -0.022651 135630.000000 1 0 0
-14.497590 3.324439 12.718198 19.569992 -0.225413 0.863366 0.051193 -0.006423 394967.000000 1 0 0
-14.808090 10.795839 9.347298 20.571866 -0.629958 1.099128 0.016225 -0.009879 -95056.900000 1 0 0
-3.631090 11.390939 15.746898 19.771270 -1.262210 0.649389 -0.030791 -0.003512 163612.000000 1 0 0
-13.448390 12.634039 8.476198 20.305765 -0.754186 1.140183 0.044308 -0.032659 109068.000000 1 0 0
-3.796290 -6.287661 18.697098 20.088006 1.027611 0.374312 0.020180 -0.016459 201480.000000 1 0 0
0.284110 -2.900161 17.597098 17.836746 -1.473144 0.164109 0.003523 -0.026862 -62476.700000 1 0 0
-4.003090 6.540539 21.248298 22.589678 -1.021569 0.346345 0.033348 -0.010599 399187.000000 1 0 0
2.209110 -10.442061 16.531898 19.677918 -1.362312 0.573284 0.013408 -0.011029 209760.000000 1 0 0
-15.080890 -0.255961 13.668198 20.354813 0.016971 0.834569 0.055189 -0.013451 68564.200000 1 0 0
-13.051990 -5.511661 9.242298 16.916055 0.399569 0.992781 0.011057 0.004701 257146.000000 1 0 0
10.102910 1.036839 16.462098 19.342816 0.102270 0.552776 0.062564 -0.001056 394692.000000 1 0 0
-7.601490 12.546639 12.176398 19.064771 -1.026080 0.878007 0.021748 -0.009010 14333.400000 1 0 0
-1.626690 7.247839 20.193398 21.516288 -1.350017 0.352488 0.030692 -0.016701 519706.000000 1 0 0
1.307310 -13.281061 15.513998 20.464109 -1.472678 0.710390 0.002721 -0.012128 462818.000000 1 0 0
-3.420290 -11.395061 17.706098 21.331941 1.279197 0.591639 0.043491 -0.025490 413529.000000 1 0 0
-2.058790 8.633539 16.720498 18.930179 -1.336704 0.488001 0.000140 -0.009091 490607.000000 1 0 0
-5.818190 -9.283761 20.151998 22.937798 1.010971 0.497979 0.113505 -0.030587 175430.000000 1 0 0
-6.412290 -3.437461 19.125098 20.462233 0.492088 0.363513 0.012856 -0.021999 20273.600000 1 0 0
-10.596190 -7.937761 15.978698 20.751050 0.642934 0.691926 0.052005 -0.029218 247422.000000 1 0 0
-0.632090 6.221439 17.575498 18.654865 -1.469545 0.341838 0.016288 -0.020595 136646.000000 1 0 0
-6.213490 -11.356761 18.701598 22.744961 1.070168 0.605478 0.071160 -0.029883 363889.000000 1 0 0
-0.267890 3.570139 18.458998 18.802986 -1.495901 0.191574 0.014373 -0.023730 76205.300000 1 0 0
-18.499790 -0.203761 7.838298 20.092851 0.011014 1.170052 0.071651 -0.027744 104218.000000 1 0 0
-1.899390 -8.897461 17.623898 19.833665 1.360478 0.476545 0.012754 -0.013850 195884.000000 1 0 0
5.964410 3.391739 14.842598 16.351783 0.517059 0.433014 0.021605 -0.007320 452545.000000 1 0 0
-14.572790 -7.237961 10.600798 19.419866 0.460985 0.993365 0.082677 0.004145 73764.300000 1 0 0
3.820210 8.074239 16.972998 19.179938 1.128870 0.484442 0.024544 -0.005826 238435.000000 1 0 0
6.343910 4.493239 17.813498 19.435924 0.616259 0.411494 0.055873 -0.027275 450683.000000 1 0 0
4.809110 -9.963561 17.966198 21.099393 -1.121109 0.551951 0.004577 -0.000908 332721.000000 1 0 0
-4.279090 -0.652961 19.689798 20.159988 0.151425 0.216398 0.013758 -0.020191 545298.000000 1 0 0
-11.125290 1.977939 16.786298 20.235220 -0.175949 0.592480 0.050205 -0.015805 299392.000000 1 0 0
-16.614290 -4.124961 8.472698 19.100695 0.243357 1.111206 0.048430 -0.024192 -178929.000000 1 0 0
-12.736090 -9.399361 12.322098 20.059663 0.635783 0.909333 0.030877 -0.030139 -9638.270000 1 0 0
-14.999690 6.274139 12.673898 20.615121 -0.396169 0.908681 0.071012 -0.033190 424656.000000 1 0 0
1.143610 8.914039 16.954798 19.189402 1.443200 0.487407 0.009360 -0.022207 195219.000000 1 0 0
-3.724490 -10.074061 15.064898 18.501613 1.216671 0.619364 0.023018 -0.018318 471553.000000 1 0 0
-18.693690 -3.203161 6.826998 20.157435 0.169702 1.225279 0.121385 -0.019062 -293851.000000 1 0 0
-0.577190 -0.438761 21.025598 21.038095 0.649976 0.034469 0.032789 -0.020847 465906.000000 1 0 0
-1.882490 2.411839 20.145498 20.376502 -0.908047 0.150720 0.018206 -0.027318 -177437.000000 1 0 0
-7.964790 2.124339 16.416798 18.370138 -0.260649 0.465343 0.007616 0.011614 643274.000000 1 0 0
3.150010 -2.859361 18.378598 18.864554 -0.737070 0.227471 0.031857 -0.019803 85562.200000 1 0 0
-11.641090 3.825139 15.058798 19.414275 -0.317475 0.683043 0.005793 -0.002750 220294.000000 1 0 0
-13.511090 -5.546561 13.329698 19.773587 0.389542 0.831029 0.053436 -0.007844 -16422.500000 1 0 0
-17.352090 -0.941161 9.680098 19.891835 0.054186 1.062561 0.074487 -0.027149 162886.000000 1 0 0
-7.333190 7.896939 14.718498 18.242026 -0.822397 0.632003 0.017642 -0.008717 -133595.000000 1 0 0
-9.625690 0.358039 13.989898 16.985269 -0.037179 0.602981 0.017247 -0.002374 357956.000000 1 0 0
7.898910 -0.778161 14.866198 16.852364 -0.098198 0.490403 0.041710 -0.013748 95585.600000 1 0 0
3.818410 6.208339 18.473298 19.859166 1.019387 0.375798 0.028500 -0.013731 87044.700000 1 0 0
1.875210 1.065439 19.910198 20.026672 0.516687 0.107903 0.029489 -0.017879 232231.000000 1 0 0
-6.988490 7.042339 17.616098 20.217825 -0.789236 0.512920 0.012603 -0.009932 495207.000000 1 0 0
7.601210 -3.227661 16.810898 18.729722 -0.401553 0.456611 0.039912 -0.005021 407001.000000 1 0 0
-16.348790 2.654439 9.288598 18.989656 -0.160958 1.059693 0.051772 -0.025399 173856.000000 1 0 0
3.831710 -5.991261 19.121998 20.401667 -1.001802 0.356064 0.030506 -0.018571 -6723.040000 1 0 0
-3.926090 -3.742361 20.584198 21.286819 0.761444 0.257645 0.018113 -0.020145 361701.000000 1 0 0
-9.930890 5.886139 14.363798 18.427911 -0.535042 0.676995 0.042158 -0.012432 101687.000000 1 0 0
6.500310 2.525239 19.786198 20.979145 0.370536 0.338853 0.081943 -0.028033 63733.500000 1 0 0
-6.885590 11.454039 14.204398 19.503110 -1.029532 0.754937 0.014874 -0.029717 286595.000000 1 0 0
-14.326990 4.861739 9.862998 18.060395 -0.327148 0.993080 0.026318 -0.016257 201290.000000 1 0 0
1.565210 -5.091761 20.136298 20.828980 -1.272564 0.258618 0.048634 -0.030531 211364.000000 1 0 0
-6.388190 -8.402861 13.599998 17.215603 0.920774 0.660018 0.012364 -0.005667 207712.000000 1 0 0
-12.795690 9.873839 6.637798 17.472342 -0.657216 1.181105 0.005786 -0.028867 76620.400000 1 0 0
-19.914290 2.798339 7.566898 21.486451 -0.139605 1.210907 0.079497 -0.035232 -110854.000000 1 0 0
-15.520490 8.855239 6.742698 19.098818 -0.518485 1.209975 0.013225 -0.024408 56479.300000 1 0 0
-12.991590 7.041939 14.290098 20.556683 -0.496710 0.802160 0.060052 -0.022081 101593.000000 1 0 0
-16.538290 8.916339 11.140098 21.843029 -0.494462 1.035603 0.044023 -0.016111 345418.000000 1 0 0
2.333710 10.659839 14.256998 17.953840 1.355271 0.653284 0.003476 -0.040586 256102.000000 1 0 0
1.632310 14.847539 12.669398 19.586412 1.461298 0.867354 0.017144 -0.016682 390477.000000 1 0 0
8.878210 5.188739 16.852498 19.742146 0.528896 0.547880 0.048910 -0.002265 154633.000000 1 0 0
-0.291190 13.264539 13.346798 18.819400 -1.548847 0.782427 0.001913 0.005744 238216.000000 1 0 0
3.831010 13.086639 14.866898 20.173285 1.286011 0.742235 0.025671 0.008318 144070.000000 1 0 0
-3.732690 -4.672961 -13.447902 14.717866 0.896797 2.723125 0.007055 -0.007826 118438.000000 1 0 0
5.588710 -12.126461 16.781098 21.445046 -1.138941 0.672099 0.000487 0.005070 156862.000000 1 0 0
8.862310 -13.923661 7.257598 18.030020 -1.003975 1.156519 0.009720 -0.004825 242338.000000 1 0 0
-0.434990 15.173739 0.575198 15.190867 -1.542137 1.532923 0.005512 -0.002185 -238874.000000 1 0 0
-14.543790 7.491939 8.765798 18.560447 -0.475678 1.078916 0.041220 -0.013189 34079.500000 1 0 0
-16.128190 -9.812361 4.488098 19.404740 0.546572 1.337394 0.036306 -0.007692 173815.000000 1 0 0
8.834010 -10.863061 11.251198 17.962051 -0.888049 0.893887 0.004705 0.000847 95195.500000 1 0 0
-26.577700 5.855339 31.054770 41.292346 -0.216846 0.719598 0.060219 -0.028440 -464421.000000 0 0 1
-25.375430 5.208739 30.782930 40.232228 -0.202455 0.699551 0.057434 -0.029285 -686753.000000 0 0 1
-24.404190 5.426439 31.753300 40.413893 -0.218797 0.666965 0.051909 -0.020683 -277569.000000 0 0 1
-23.052990 4.804839 31.358040 39.215475 -0.205484 0.644110 0.053267 -0.022843 -255731.000000 0 0 1
-23.093290 3.393039 31.388510 39.115870 -0.145884 0.639407 0.057026 -0.025053 -856390.000000 0 0 1
-21.874990 3.027539 30.870770 37.956364 -0.137528 0.620956 0.053226 -0.022997 -717851.000000 0 0 1
-21.272290 1.792539 31.623020 38.154146 -0.084068 0.593796 0.043465 -0.016367 -136609.000000 0 0 1
-21.891890 0.586839 31.269710 38.175830 -0.026800 0.610961 0.048717 -0.012109 38953.900000 0 0 1
-21.773490 -0.321061 32.333520 38.982617 0.014744 0.592702 0.041023 -0.008322 295262.000000 0 0 1
-22.602090 -1.631961 32.094420 39.288288 0.072079 0.614789 0.047887 -0.028382 228232.000000 0 0 1
-21.819090 -2.494461 31.276390 38.216588 0.113830 0.612178 0.080753 -0.041275 284238.000000 0 0 1
-21.760490 -3.825861 31.684980 38.627634 0.174038 0.608918 0.085637 -0.050346 -1222770.000000 0 0 1
-23.014790 -4.616761 31.418960 39.219205 0.197972 0.641646 0.069859 -0.042143 -430820.000000 0 0 1
-24.148990 -4.312761 32.216291 40.492752 0.176727 0.650789 0.057696 -0.035383 342554.000000 0 0 1
-24.085190 -4.869961 33.532108 41.571807 0.199507 0.632407 0.069174 -0.033607 -527590.000000 0 0 1
-25.346670 -4.437361 -33.505242 42.246243 0.173310 2.486668 0.076830 -0.027192 36896.600000 0 0 1
-25.343100 -4.656161 -32.093842 41.157833 0.181699 2.465102 0.083704 -0.031204 671822.000000 0 0 1
-26.595830 -4.113161 -31.640832 41.537916 0.153439 2.436781 0.088528 -0.026772 555903.000000 0 0 1
-26.942660 -4.547261 -30.204042 40.729211 0.167200 2.406221 0.081135 -0.014737 -299885.000000 0 0 1
-27.312470 -5.887561 -30.168312 41.118869 0.212314 2.394526 0.077267 -0.021788 446670.000000 0 0 1
-27.332560 -6.345261 -28.836962 40.235575 0.228110 2.369860 0.055064 -0.010041 -90975.000000 0 0 1
-27.246100 -7.916261 -28.674892 40.339392 0.282762 2.361489 0.066121 -0.008201 56374.500000 0 0 1
-28.519120 -8.546761 -28.644622 41.314666 0.291168 2.336894 0.079855 -0.009090 -16940.400000 0 0 1
-28.612350 -9.904961 -28.212992 41.385356 0.333266 2.320900 0.077881 -0.009725 -779529.000000 0 0 1
-30.012510 -10.346761 -27.855402 42.234223 0.331989 2.291011 0.097478 -0.009813 -506051.000000 0 0 1
-30.073880 -11.396961 -26.938922 41.952764 0.362243 2.268063 0.107418 -0.013113 -427106.000000 0 0 1
-31.323520 -11.386861 -26.295502 42.453232 0.348672 2.238774 0.102052 -0.011723 -44520.000000 0 0 1
-31.430800 -12.301961 -25.078162 42.049347 0.373069 2.209803 0.111506 -0.019641 -146463.000000 0 0 1
-30.698790 -11.767961 -23.997902 40.703806 0.366059 2.201328 0.117708 -0.021083 91210.900000 0 0 1
-30.806970 -12.402061 -22.730202 40.243540 0.382723 2.171007 0.132974 -0.024592 -495141.000000 0 0 1
-30.134970 -11.517761 -21.649402 38.851921 0.365073 2.161841 0.147818 -0.029281 93888.300000 0 0 1
-30.039300 -12.103961 -20.380902 38.265474 0.383036 2.132488 0.156664 -0.031106 381883.000000 0 0 1
-29.002860 -13.079261 -20.318002 37.749889 0.423656 2.139128 0.153153 -0.029205 -179967.000000 0 0 1
-28.639460 -13.553961 -18.853302 36.869709 0.442029 2.107551 0.143235 -0.031912 -116119.000000 0 0 1
-28.102380 -12.470161 -18.159902 35.707572 0.417636 2.104323 0.125971 -0.036756 14844.200000 0 0 1
-27.813340 -12.809061 -16.805602 34.929674 0.431582 2.072736 0.132848 -0.031020 25104.800000 0 0 1
-27.569980 -11.511661 -16.036102 33.908386 0.395538 2.063403 0.121153 -0.034991 427076.000000 0 0 1
-26.280470 -10.906861 -16.195602 32.740192 0.393385 2.088252 0.105683 -0.036003 745862.000000 0 0 1
-26.281730 -9.622861 -15.655802 32.069189 0.350983 2.080809 0.104001 -0.039636 -352895.000000 0 0 1
-24.897890 -8.961761 -15.723802 30.780773 0.345503 2.106949 0.093702 -0.037535 -122552.000000 0 0 1
-24.037190 -9.390861 -14.676302 29.687852 0.372447 2.087888 0.077739 -0.038191 -125975.000000 0 0 1
-22.866690 -8.604361 -14.713402 28.520251 0.359896 2.112846 0.113777 -0.052647 26571.700000 0 0 1
-21.738390 -9.222361 -13.852502 27.377022 0.401229 2.101326 0.117357 -0.031743 83124.300000 0 0 1
-20.995690 -10.359361 -14.372002 27.471617 0.458357 2.121349 0.105708 -0.027936 1407930.000000 0 0 1
-19.722190 -10.277461 -13.687102 26.113745 0.480394 2.122494 0.120789 -0.018888 204323.000000 0 0 1
-18.749290 -11.365061 -14.042002 26.036095 0.544936 2.140436 0.115044 -0.017514 -631111.000000 0 0 1
-17.921890 -11.084761 -15.144302 25.950258 0.553914 2.193938 0.131838 -0.029503 153014.000000 0 0 1
-18.536890 -11.183461 -16.433802 27.180064 0.542849 2.220094 0.115676 -0.040808 -82967.800000 0 0 1
-17.741590 -10.491861 -17.538002 27.063345 0.534050 2.275798 0.119195 -0.035791 90121.000000 0 0 1
-18.485490 -10.821861 -18.714902 28.444218 0.529633 2.288891 0.095174 -0.034402 959734.000000 0 0 1
-17.872190 -10.411261 -19.954502 28.740070 0.527482 2.338256 0.096244 -0.040771 -413887.000000 0 0 1
-18.830490 -10.714861 -21.060802 30.215111 0.517326 2.342042 0.109034 -0.040990 -837032.000000 0 0 1
-20.044790 -10.046061 -20.961902 30.693945 0.464592 2.322566 0.103834 -0.047141 -394720.000000 0 0 1
-20.992790 -10.686261 -21.797902 32.094266 0.470857 2.317446 0.123234 -0.033662 360541.000000 0 0 1
-22.188190 -9.840161 -22.260302 32.934261 0.417424 2.312983 0.096532 -0.032232 204222.000000 0 0 1
-21.642490 -8.872661 -23.137402 32.900772 0.389067 2.350752 0.104437 -0.038211 1005520.000000 0 0 1
-22.662490 -8.208361 -23.925802 33.961884 0.347502 2.352500 0.089855 -0.033985 427896.000000 0 0 1
-22.100590 -7.407461 -25.087502 34.244551 0.323403 2.392928 0.077450 -0.033326 -230639.000000 0 0 1
-21.511290 -8.299861 -26.030092 34.773394 0.368238 2.416689 0.094105 -0.034093 -3091.750000 0 0 1
-20.637290 -7.581561 -26.858052 34.709260 0.352066 2.455616 0.081885 -0.035505 318853.000000 0 0 1
-19.456290 -8.473861 -27.399632 34.656793 0.410758 2.482583 0.101594 -0.033953 381994.000000 0 0 1
-19.874090 -9.422461 -28.352432 35.883458 0.442720 2.481810 0.117569 -0.034367 562327.000000 0 0 1
-18.752890 -10.110761 -28.916692 35.917592 0.494481 2.506614 0.081084 -0.028152 411558.000000 0 0 1
-19.157990 -11.261761 -29.902422 37.256015 0.531428 2.502471 0.093363 -0.023921 -130611.000000 0 0 1
-19.462390 -10.943061 -31.219952 38.382555 0.512212 2.520751 0.084244 -0.015383 98981.800000 0 0 1
-19.628090 -12.114261 -32.003762 39.449435 0.552963 2.517101 0.075910 -0.018610 -70508.000000 0 0 1
-19.803190 -11.840061 -33.494142 40.671991 0.538864 2.538382 0.083088 -0.017831 154974.000000 0 0 1
-18.895990 -10.918561 33.700094 40.149343 0.523954 0.574676 0.074611 -0.011547 37462.000000 0 0 1
-19.014490 -10.657461 32.318680 38.982424 0.510862 0.593376 0.065828 -0.019441 -120691.000000 0 0 1
-18.709290 -11.814561 31.288000 38.321799 0.563246 0.615553 0.058729 -0.016051 -595468.000000 0 0 1
-17.348290 -12.096461 31.199220 37.691893 0.608892 0.595722 0.049185 -0.012787 -398126.000000 0 0 1
-16.896490 -13.060161 30.248210 37.027198 0.658029 0.614748 0.062874 -0.014000 10010.300000 0 0 1
-17.228090 -14.541561 30.486110 37.916579 0.701036 0.636752 0.056982 -0.007669 608208.000000 0 0 1
-18.627990 -14.828961 30.164420 38.429055 0.672333 0.668201 0.066224 -0.016189 1461940.000000 0 0 1
-19.029090 -16.038161 30.780070 39.582086 0.700313 0.679915 0.078372 -0.021763 9705.970000 0 0 1
-19.222690 -16.033861 32.329304 40.887411 0.695197 0.658860 0.051684 -0.025603 -1138540.000000 0 0 1
-18.042190 -16.192861 33.023235 40.966613 0.731432 0.633262 0.059313 -0.020335 -812483.000000 0 0 1
-18.215590 -15.872261 -33.393332 41.217120 0.716762 2.515257 0.058008 -0.025310 181244.000000 0 0 1
-16.910290 -15.328061 -32.784132 39.946297 0.736358 2.533440 0.053875 -0.018166 -107610.000000 0 0 1
-16.707390 -13.993461 -32.974142 39.525281 0.697228 2.557576 0.051247 -0.010042 -252006.000000 0 0 1
-15.491090 -13.457961 -32.509492 38.444214 0.715282 2.578536 0.045634 -0.007380 -6138.340000 0 0 1
-15.509990 -13.028061 -31.049542 37.072418 0.698647 2.563557 0.071750 -0.016278 4070.520000 0 0 1
-15.761390 -14.150861 -30.199152 36.887085 0.731608 2.529925 0.063844 -0.023226 -207334.000000 0 0 1
-16.387590 -13.828161 -28.983312 36.052787 0.700895 2.504642 0.059537 -0.016579 -520490.000000 0 0 1
-16.511590 -15.049461 -28.035652 35.848523 0.739104 2.468759 0.074414 -0.026570 -678579.000000 0 0 1
-15.353590 -15.590761 -27.528902 35.165963 0.793062 2.469994 0.076899 -0.040593 -687496.000000 0 0 1
-14.511990 -16.225361 -28.489952 35.854393 0.841083 2.489147 0.061289 -0.040425 180547.000000 0 0 1
-13.183990 -16.828861 -27.923042 35.167092 0.906250 2.488174 0.084409 -0.031379 656797.000000 0 0 1
-12.169590 -15.857461 -27.737102 34.189249 0.916229 2.517137 0.065725 -0.022527 -320293.000000 0 0 1
-10.942290 -16.382261 -27.322162 33.684012 0.981916 2.516880 0.101336 -0.031019 536742.000000 0 0 1
-9.679490 -15.624761 -27.855682 33.373113 1.016164 2.558338 0.073968 -0.034410 510600.000000 0 0 1
-9.560590 -14.267761 -27.561622 32.474865 0.980432 2.584331 0.066706 -0.030190 111125.000000 0 0 1
-8.252990 -13.748861 -27.769962 32.067332 1.030180 2.617921 0.084202 -0.029271 421272.000000 0 0 1
-8.103790 -12.215861 -27.882712 31.501496 0.985071 2.657555 0.058283 -0.032925 -274036.000000 0 0 1
-8.847290 -11.732861 -28.959822 32.474695 0.924701 2.672029 0.080400 -0.032576 237569.000000 0 0 1
-8.396990 -10.445061 -29.413412 32.322709 0.893670 2.714061 0.052708 -0.023248 178634.000000 0 0 1
-7.147890 -10.398661 -30.312992 32.834462 0.968587 2.747139 0.057255 -0.014306 9958.270000 0 0 1
-5.842690 -10.629761 -29.801852 32.175755 1.068219 2.755057 0.063245 -0.017937 1746330.000000 0 0 1
-4.724690 -10.440661 -30.717342 32.785441 1.145842 2.784509 0.074581 -0.018823 990946.000000 0 0 1
-4.522890 -8.948761 -31.094822 32.671467 1.102822 2.829661 0.064109 -0.016359 -975287.000000 0 0 1
-3.346490 -8.621861 -31.803952 33.121395 1.200556 2.858599 0.077673 -0.025693 -46163.700000 0 0 1
-3.249890 -7.252961 -32.003602 32.975714 1.149542 2.898177 0.069543 -0.024136 399453.000000 0 0 1
-1.915790 -6.735361 -32.627592 33.370572 1.293677 2.930180 0.090548 -0.026698 456816.000000 0 0 1
-1.667290 -7.112261 33.838940 34.618463 1.340530 0.212615 0.102064 -0.031624 -354374.000000 0 0 1
-0.458090 -6.512161 33.436123 34.067468 1.500568 0.192820 0.118087 -0.032988 149616.000000 0 0 1
0.200510 -7.255861 32.243739 33.050664 -1.543169 0.221426 0.108682 -0.026963 -235477.000000 0 0 1
-0.390290 -6.969461 31.021790 31.797440 1.514855 0.221329 0.101455 -0.024531 52262.300000 0 0 1
0.395010 -7.493461 29.962790 30.888133 -1.518131 0.245392 0.090519 -0.026726 101156.000000 0 0 1
-0.104390 -7.085061 28.553590 29.419661 1.556064 0.243245 0.084590 -0.020422 -78367.800000 0 0 1
0.042710 -5.755061 28.283970 28.863567 -1.563375 0.200739 0.090900 -0.026170 -28280.600000 0 0 1
-0.160590 -5.495961 26.941060 27.496401 1.541585 0.201322 0.096976 -0.020841 -387739.000000 0 0 1
-1.284890 -4.473861 26.749110 27.151082 1.291124 0.172289 0.065173 -0.016888 20043.000000 0 0 1
-2.579890 -5.006061 26.889100 27.472535 1.094942 0.206459 0.035387 -0.002363 -279329.000000 0 0 1
-3.621290 -4.043161 26.870440 27.413162 0.840385 0.199316 0.023689 -0.009405 848439.000000 0 0 1
-5.018290 -4.697861 27.128710 27.986068 0.752431 0.248165 0.008693 -0.003199 378040.000000 0 0 1
-5.436790 -5.671461 26.270990 27.420596 0.806521 0.290590 0.006605 -0.002004 -706258.000000 0 0 1
-6.716890 -6.072461 26.684910 28.179351 0.735053 0.327135 0.003510 -0.003189 116352.000000 0 0 1
-6.865090 -7.663261 26.769960 28.679013 0.840282 0.366928 0.015645 -0.002991 56608.600000 0 0 1
-6.072190 -8.214761 27.773950 29.593007 0.934256 0.352447 0.023800 -0.002330 -403795.000000 0 0 1
-6.138790 -9.609761 27.785340 30.034270 1.002329 0.389442 0.032524 -0.010205 28591.200000 0 0 1
-5.386290 -10.319861 28.919020 31.174049 1.089756 0.382691 0.027034 -0.014390 -107149.000000 0 0 1
-5.352990 -11.730961 28.682530 31.447694 1.142705 0.422489 0.050773 -0.024496 -18322.400000 0 0 1
-4.785390 -12.543961 29.707020 32.599968 1.206348 0.424465 0.069253 -0.028096 5817.170000 0 0 1
-5.053490 -14.050261 29.600730 33.153443 1.225531 0.467184 0.100047 -0.042884 732386.000000 0 0 1
-6.404690 -14.490561 29.364300 33.365529 1.154623 0.494768 0.105223 -0.040555 550945.000000 0 0 1
-6.525690 -15.920461 29.478670 34.132648 1.181790 0.528330 0.097449 -0.041661 224406.000000 0 0 1
-6.727390 -16.497561 30.917970 35.684004 1.183600 0.522773 0.104941 -0.042716 -140373.000000 0 0 1
-8.061490 -16.503161 31.354340 36.337812 1.116406 0.529901 0.103652 -0.043497 -545086.000000 0 0 1
-8.262190 -16.773761 32.706330 37.673954 1.113113 0.519351 0.091383 -0.035210 -339481.000000 0 0 1
-9.743490 -16.942461 33.087358 38.428581 1.048892 0.533546 0.092095 -0.026525 148875.000000 0 0 1
-10.340690 -18.163761 32.686146 38.797373 1.053254 0.568920 0.094599 -0.031367 141852.000000 0 0 1
-10.783790 -18.202861 31.307530 37.786184 1.035967 0.594293 0.088636 -0.035611 -372585.000000 0 0 1
-11.455290 -19.618861 31.129300 38.537730 1.042305 0.630451 0.085097 -0.030352 196255.000000 0 0 1
-12.564590 -19.814561 32.002029 39.681426 1.005674 0.632633 0.082647 -0.024370 35160.600000 0 0 1
-12.908590 -21.162261 32.250438 40.676329 1.023070 0.655316 0.087296 -0.030249 -531333.000000 0 0 1
-12.214690 -21.993161 33.316021 41.747515 1.063828 0.646767 0.093961 -0.028738 -1368730.000000 0 0 1
-10.859290 -22.072961 33.038643 41.190918 1.113591 0.640017 0.077395 -0.029463 -1179600.000000 0 0 1
-10.066790 -22.846561 33.895130 42.097333 1.155765 0.634849 0.099518 -0.038283 -63294.800000 0 0 1
-10.428890 -24.313961 -33.582232 42.751569 1.165605 2.474333 0.100349 -0.029495 -551614.000000 0 0 1
-10.210490 -25.158471 33.152533 42.851992 1.185260 0.686211 0.099659 -0.025809 31316.400000 0 0 1
-10.195290 -26.502251 33.598969 43.990953 1.203553 0.701663 0.127491 -0.031324 -887934.000000 0 0 1
-9.480290 -27.327481 32.512040 43.516661 1.236873 0.727082 0.113265 -0.033215 1106500.000000 0 0 1
-8.070290 -27.085161 32.296374 42.916096 1.281212 0.718875 0.121812 -0.037537 1026280.000000 0 0 1
-7.325390 -27.893771 33.197479 43.974952 1.313978 0.715267 0.123210 -0.036369 -287711.000000 0 0 1
-5.804590 -27.652471 33.397419 43.746314 1.363888 0.702183 0.121056 -0.044032 416114.000000 0 0 1
-5.471190 -26.478921 -33.735782 43.233900 1.367039 2.465955 0.117966 -0.031443 -20894.200000 0 0 1
-5.440190 -25.363171 33.184802 42.120270 1.359506 0.663473 0.129535 -0.034967 -147676.000000 0 0 1
-4.883790 -24.078461 33.892310 41.860630 1.370683 0.627247 0.125403 -0.035171 -281133.000000 0 0 1
-3.554590 -24.078461 -33.478002 41.390626 1.424230 2.512957 0.121543 -0.043198 -245552.000000 0 0 1
-3.218390 -22.726061 -33.148822 40.319675 1.430115 2.535974 0.108203 -0.041617 -8160.790000 0 0 1
34.841812 -16.036961 2.072298 38.411332 -0.431369 1.516820 0.200730 -0.063257 -536909.000000 0 0 1
35.805102 -16.099161 3.045498 39.375924 -0.422549 1.493375 0.198024 -0.059118 -290601.000000 0 0 1
35.235162 -16.339761 4.372498 39.084820 -0.434217 1.458690 0.178142 -0.060859 418520.000000 0 0 1
36.217002 -16.358161 5.614298 40.134537 -0.424242 1.430449 0.152578 -0.044118 57006.400000 0 0 1
37.218302 -17.329161 5.470398 41.417715 -0.435758 1.438331 0.147641 -0.043735 -398153.000000 0 0 1
-36.854030 -17.358261 6.678498 41.281122 0.440180 1.408301 0.128091 -0.028521 -489485.000000 0 0 1
-35.537204 -18.153061 6.719898 40.467067 0.472265 1.403965 0.092782 -0.029910 -149226.000000 0 0 1
-35.697089 -19.587961 6.711598 41.267613 0.501865 1.407435 0.086223 -0.031279 810029.000000 0 0 1
-34.395398 -20.173861 6.843598 40.458162 0.530455 1.400827 0.076180 -0.027193 600228.000000 0 0 1
-34.499128 -21.688761 6.952298 41.339165 0.561238 1.401816 0.096071 -0.022976 -111989.000000 0 0 1
-34.611373 -22.360161 5.698898 41.598093 0.573583 1.433365 0.105608 -0.025022 191464.000000 0 0 1
-34.765885 -23.739061 5.903298 42.509513 0.599107 1.431476 0.126736 -0.027293 -136366.000000 0 0 1
-34.132160 -24.666561 4.853798 42.391071 0.625785 1.456044 0.119453 -0.025990 -235460.000000 0 0 1
-34.621092 -24.536661 3.574198 42.584535 0.616554 1.486766 0.108799 -0.024132 7243.830000 0 0 1
-33.903260 -25.384361 2.689798 42.438565 0.642687 1.507373 0.097941 -0.017856 41036.400000 0 0 1
-34.300932 -25.252641 1.189898 42.610628 0.634616 1.542868 0.095668 -0.018241 -53774.100000 0 0 1
-35.577686 -25.810571 0.918398 43.963629 0.627617 1.549905 0.083168 -0.013597 409754.000000 0 0 1
-36.254560 -25.318991 -0.223402 44.220971 0.609629 1.575848 0.073024 -0.020120 -365768.000000 0 0 1
-37.083470 -24.074961 -0.053802 44.213011 0.575820 1.572013 0.076409 -0.030106 -1932360.000000 0 0 1
36.335722 -24.308661 0.255398 43.717970 -0.589617 1.564954 0.057349 -0.018306 -1177350.000000 0 0 1
35.676522 -23.105561 0.545298 42.508570 -0.574715 1.557968 0.085244 -0.027597 90435.000000 0 0 1
34.138982 -23.207761 0.696298 41.286258 -0.597041 1.553930 0.087893 -0.022966 -1419.980000 0 0 1
33.523782 -23.267861 -0.540402 40.810897 -0.606735 1.584038 0.084073 -0.032565 -1327500.000000 0 0 1
32.186682 -22.948161 -0.425702 39.532035 -0.619378 1.581565 0.091593 -0.028248 -983727.000000 0 0 1
31.636672 -22.663761 -1.826402 38.959733 -0.621632 1.617693 0.095329 -0.030698 -147139.000000 0 0 1
32.201532 -21.507061 -2.422402 38.798974 -0.588849 1.633272 0.123458 -0.041417 282670.000000 0 0 1
31.698002 -21.408261 -3.737602 38.432364 -0.594012 1.668202 0.117301 -0.053398 68596.200000 0 0 1
31.627552 -19.976461 -4.366202 37.661980 -0.563343 1.686989 0.128453 -0.055279 318663.000000 0 0 1
30.837062 -19.151661 -3.502402 36.468854 -0.555761 1.666983 0.139986 -0.057140 198504.000000 0 0 1
30.537502 -17.880261 -4.075102 35.620910 -0.529703 1.685449 0.136947 -0.053276 70611.400000 0 0 1
29.448802 -17.214461 -3.180002 34.259043 -0.528986 1.663752 0.146388 -0.041521 -173139.000000 0 0 1
29.797592 -16.721161 -1.890702 34.220878 -0.511370 1.626074 0.147343 -0.038604 -30712.400000 0 0 1
30.331942 -17.652861 -0.948202 35.107682 -0.527071 1.597808 0.136053 -0.029182 -472698.000000 0 0 1
29.622902 -18.945361 -0.545102 35.167317 -0.568995 1.586297 0.131717 -0.036135 303392.000000 0 0 1
28.394702 -18.672361 0.155098 33.984412 -0.581699 1.566232 0.122694 -0.014697 648311.000000 0 0 1
27.779502 -19.890861 0.499898 34.170118 -0.621401 1.556166 0.105768 -0.013443 -229489.000000 0 0 1
26.527902 -19.722261 1.383798 33.084922 -0.639298 1.528958 0.094713 -0.005369 -541412.000000 0 0 1
25.908402 -20.916761 1.768698 33.344932 -0.679198 1.517729 0.082456 -0.007279 512616.000000 0 0 1
24.826702 -20.785361 2.697598 32.491128 -0.697026 1.487675 0.056886 -0.000903 1467850.000000 0 0 1
23.400702 -20.388961 2.126898 31.109906 -0.716729 1.502376 0.037175 0.001454 537506.000000 0 0 1
23.202302 -19.018261 1.794198 30.054288 -0.686621 1.511062 0.069588 -0.015749 158612.000000 0 0 1
23.157102 -18.143861 2.912398 29.562360 -0.664606 1.472119 0.100742 -0.024232 -502378.000000 0 0 1
22.993402 -16.726261 2.464698 28.540131 -0.628904 1.484330 0.083298 -0.011055 -257834.000000 0 0 1
21.702802 -16.544061 1.957398 27.359623 -0.651327 1.499192 0.080840 -0.017570 -456750.000000 0 0 1
21.615602 -15.162061 1.663298 26.455414 -0.611692 1.507883 0.094723 -0.032342 306538.000000 0 0 1
20.307102 -14.731461 0.938398 25.105277 -0.627593 1.533409 0.074715 -0.018675 181911.000000 0 0 1
19.224002 -14.579961 1.834998 24.197205 -0.648871 1.494888 0.059026 -0.019178 633366.000000 0 1 0
18.374102 -13.427561 1.700998 22.821052 -0.631091 1.496191 0.067881 -0.027062 511550.000000 0 1 0
19.090702 -12.120161 2.201898 22.720070 -0.565667 1.473730 0.096179 -0.027043 189736.000000 0 1 0
20.065902 -11.544261 1.306498 23.186576 -0.522073 1.514419 0.112995 -0.027296 850168.000000 0 1 0
20.456902 -10.280761 1.858698 22.970278 -0.465691 1.489790 0.129756 -0.031749 -576764.000000 0 1 0
21.349802 -9.518661 0.927998 23.394019 -0.419392 1.531118 0.147673 -0.029334 -438433.000000 0 1 0
20.704802 -9.116561 -0.257202 22.624471 -0.414768 1.582165 0.154596 -0.025746 292603.000000 0 1 0
21.667702 -8.655761 -1.162202 23.361555 -0.380056 1.620565 0.156960 -0.021061 -323505.000000 0 1 0
21.192002 -8.440761 -2.620602 22.961162 -0.379039 1.685177 0.178583 -0.021259 170744.000000 0 1 0
22.121602 -7.714761 -3.460702 23.682468 -0.335555 1.717451 0.190771 -0.028051 1316940.000000 0 1 0
23.101902 -8.503061 -4.176602 24.968859 -0.352679 1.738859 0.185857 -0.029057 78887.100000 0 1 0
22.492102 -9.463061 -5.242602 24.958547 -0.398247 1.782425 0.153871 -0.031053 -361266.000000 0 1 0
21.816302 -8.847461 -6.285402 24.366676 -0.385276 1.831697 0.134465 -0.042510 -342183.000000 0 1 0
20.420502 -8.791661 -6.080602 23.049163 -0.406546 1.837766 0.132078 -0.028705 -351006.000000 0 1 0
19.709202 -8.924461 -7.461502 22.886080 -0.425186 1.902895 0.124164 -0.023111 -429258.000000 0 1 0
19.681602 -10.197761 -8.038402 23.579137 -0.478051 1.918683 0.122322 -0.017655 44955.900000 0 1 0
20.834402 -10.572661 -8.751002 24.948617 -0.469599 1.929180 0.109224 -0.017860 -263541.000000 0 1 0
20.804802 -12.043461 -9.269802 25.764587 -0.524744 1.938838 0.097365 -0.021055 -563351.000000 0 0 1
19.876402 -12.204661 -10.273402 25.486622 -0.550670 1.985687 0.125021 -0.025642 -359567.000000 0 0 1
19.952602 -13.517561 -10.837902 26.425194 -0.595454 1.993399 0.121970 -0.020606 40264.500000 0 0 1
18.826002 -13.730461 -11.877502 26.153756 -0.630144 2.042205 0.131461 -0.024666 97177.100000 0 0 1
18.597902 -15.121261 -12.045002 26.825670 -0.682655 2.036454 0.119170 -0.027611 283909.000000 0 0 1
17.766902 -15.385161 -13.177902 26.944815 -0.713678 2.081820 0.116278 -0.029806 -228583.000000 0 0 1
17.584102 -16.870261 -13.502202 27.858855 -0.764683 2.076776 0.088596 -0.031658 -132841.000000 0 0 1
16.667402 -17.499161 -12.612402 27.259780 -0.809738 2.051806 0.088323 -0.027444 393051.000000 0 0 1
16.667602 -18.891861 -12.880702 28.295297 -0.847867 2.043420 0.083863 -0.028123 -397060.000000 0 0 1
15.684402 -19.743561 -12.036302 27.940673 -0.899476 2.016154 0.075025 -0.028233 684425.000000 0 0 1
14.358102 -19.403561 -12.475902 27.171702 -0.933744 2.047835 0.072711 -0.032629 138230.000000 0 0 1
13.381802 -19.984161 -11.661302 26.728735 -0.980752 2.022260 0.079845 -0.027159 24537.200000 0 0 1
11.941302 -20.012361 -12.232902 26.319824 -1.032810 2.054181 0.080811 -0.031806 -10240.400000 0 0 1
11.051802 -20.436361 -11.253602 25.815319 -1.075051 2.021865 0.086278 -0.035693 373366.000000 0 0 1
9.691802 -20.358561 -11.729202 25.416062 -1.126487 2.050468 0.075893 -0.029950 785483.000000 0 0 1
8.627702 -20.862661 -10.761202 25.009824 -1.178666 2.015598 0.061322 -0.027115 -190089.000000 0 0 1
8.665602 -22.269661 -10.610802 26.146119 -1.199703 1.988680 0.083340 -0.028265 -391846.000000 0 0 1
7.700102 -22.669261 -9.688202 25.827276 -1.243352 1.955317 0.078920 -0.032736 -240799.000000 0 0 1
7.504702 -24.189361 -9.569202 27.074256 -1.269964 1.932045 0.084523 -0.030700 426467.000000 0 0 1
8.648602 -24.896861 -9.092902 27.880689 -1.236460 1.903010 0.083869 -0.025386 -200947.000000 0 0 1
8.692602 -26.215231 -9.484202 29.201879 -1.250619 1.901576 0.061112 -0.025652 -425837.000000 0 0 1
10.118902 -26.727941 -9.616902 30.153935 -1.208883 1.895393 0.050035 -0.020245 -105885.000000 0 0 1
10.664102 -27.139471 -8.324002 30.324296 -1.196394 1.848865 0.062705 -0.018795 156417.000000 0 0 1
12.049302 -27.427291 -8.343802 31.097604 -1.156861 1.842435 0.090742 -0.012842 227068.000000 0 0 1
12.755902 -27.589381 -6.944902 31.178817 -1.137721 1.795425 0.076901 -0.019337 150590.000000 0 0 1
12.419702 -28.710181 -6.130402 31.876407 -1.162516 1.764320 0.076692 -0.020819 376608.000000 0 0 1
11.028802 -28.833521 -5.852902 31.420739 -1.205467 1.758166 0.077602 -0.016465 82782.300000 0 0 1
10.622802 -29.642611 -4.574802 31.819131 -1.226691 1.715072 0.086496 -0.025276 23636.300000 0 0 1
10.770602 -31.057091 -4.812102 33.222057 -1.236975 1.716154 0.091211 -0.028249 535456.000000 0 0 1
9.766102 -31.615891 -5.708802 33.578739 -1.271196 1.741639 0.089470 -0.032766 688237.000000 0 0 1
9.941602 -33.113851 -5.939002 35.080398 -1.279133 1.740913 0.085598 -0.030576 32991.300000 0 0 1
9.662302 33.853313 -4.852102 35.538004 1.292772 1.707757 0.075718 -0.028964 -204106.000000 0 0 1
10.006802 32.509221 -5.147402 34.401763 1.272186 1.720986 0.084182 -0.024684 -11873.000000 0 0 1
9.469102 31.424223 -4.173902 33.084243 1.278119 1.697293 0.073818 -0.017846 -1206730.000000 0 0 1
8.113102 31.310313 -4.272102 32.625281 1.317253 1.702118 0.077930 -0.018999 -1791750.000000 0 0 1
7.720802 30.204253 -3.429902 31.363544 1.320536 1.680375 0.052296 -0.012101 -1543900.000000 0 0 1
6.351602 29.702873 -3.630202 30.590552 1.360131 1.689747 0.049408 -0.017948 -1604040.000000 0 0 1
6.096302 28.998243 -4.849902 30.026397 1.363584 1.733028 0.056712 -0.024808 56532.100000 0 0 1
5.802802 29.784453 -6.040302 30.939802 1.378380 1.767286 0.047681 -0.022501 -157164.000000 0 0 1
5.898902 29.070653 -7.425002 30.578269 1.370598 1.816068 0.061444 -0.028569 287377.000000 0 0 1
5.015802 27.966673 -7.646402 29.423809 1.393334 1.833685 0.064838 -0.030904 341225.000000 0 0 1
5.441802 26.798303 -6.921102 28.207515 1.370455 1.818691 0.059910 -0.026582 251575.000000 0 0 1
4.515102 25.612923 -7.364902 27.030533 1.396307 1.846751 0.060499 -0.028804 920837.000000 0 0 1
3.117902 25.652043 -7.065102 26.789257 1.449844 1.837682 0.064161 -0.030234 120631.000000 0 0 1
2.315702 26.380343 -7.944002 27.647642 1.483239 1.862235 0.074424 -0.032302 -314399.000000 0 0 1
1.924602 25.719573 -9.274702 27.408404 1.496105 1.916001 0.075160 -0.031233 -108175.000000 0 0 1
3.009402 25.483293 -10.178902 27.605520 1.453248 1.948436 0.063373 -0.031709 239318.000000 0 0 1
2.658202 24.793113 -11.397102 27.416389 1.463989 1.999513 0.066748 -0.029408 -587481.000000 0 0 1
2.330702 23.314403 -11.253702 25.993063 1.471159 2.018559 0.081940 -0.022796 324909.000000 0 0 1
1.012902 23.005573 -10.804302 25.436495 1.526796 2.009489 0.099050 -0.022030 173962.000000 0 0 1
0.911202 21.576223 -10.527502 24.024820 1.528590 2.024383 0.060983 -0.014431 471306.000000 0 1 0
-0.170698 21.139523 -9.441002 23.152561 -1.562722 1.990811 0.065016 -0.009331 478766.000000 0 1 0
-1.467698 21.325523 -9.951602 23.578940 -1.502081 2.006507 0.077006 -0.014105 -923851.000000 0 1 0
-2.384998 20.690423 -9.110202 22.732742 -1.456032 1.983134 0.059256 -0.011244 251228.000000 0 1 0
-3.739498 20.459323 -9.870102 23.021438 -1.390015 2.013889 0.047118 -0.014262 459150.000000 0 1 0
-4.632198 19.716923 -9.056002 22.186155 -1.340046 1.991259 0.034687 -0.024066 65256.700000 0 1 0
-5.650098 19.219523 -9.926102 22.357127 -1.284874 2.030831 0.041953 -0.021309 -470020.000000 0 1 0
-6.588398 18.158623 -9.313902 21.445077 -1.222742 2.020073 0.036613 -0.022823 -446770.000000 0 1 0
-7.640498 18.661223 -8.532602 21.895747 -1.182186 1.971094 0.060094 -0.020710 -500110.000000 0 1 0
-8.788398 18.806623 -9.326302 22.757524 -1.133646 1.993044 0.067892 -0.025788 -1144090.000000 0 1 0
-10.000398 19.219723 -8.509002 23.276787 -1.091026 1.945028 0.085672 -0.034175 -389009.000000 0 1 0
-10.372098 18.126023 -7.673502 22.248949 -1.051053 1.922921 0.075340 -0.026984 -1076420.000000 0 1 0
-11.460398 18.327223 -6.849802 22.674823 -1.011966 1.877679 0.099247 -0.026931 -1113880.000000 0 1 0
-11.713998 17.088823 -5.942902 21.553739 -0.969884 1.850140 0.061694 -0.029282 -198804.000000 0 1 0
-12.676798 17.372023 -4.957202 22.069486 -0.940398 1.797347 0.075465 -0.027523 -47041.800000 0 1 0
-13.150798 16.200323 -4.271002 21.298718 -0.888925 1.772694 0.056193 -0.024911 557591.000000 0 1 0
-14.312298 16.655823 -3.308402 22.208192 -0.860930 1.720325 0.045334 -0.026649 664428.000000 0 1 0
-15.612498 16.656323 -3.885002 23.157642 -0.817735 1.739357 0.102236 -0.050027 -154542.000000 0 1 0
-16.547998 16.862623 -2.893902 23.802498 -0.794815 1.692678 0.095321 -0.049497 189243.000000 0 1 0
-17.986498 17.130123 -3.483602 25.081680 -0.761016 1.710137 0.110777 -0.058590 571436.000000 0 0 1
-18.112898 18.302923 -4.243302 26.097503 -0.790616 1.734116 0.109409 -0.056071 64501.300000 0 0 1
-19.399398 18.285123 -4.819402 27.090754 -0.755838 1.749647 0.090085 -0.057973 83445.800000 0 0 1
-19.504698 19.219723 -6.019502 28.036857 -0.778039 1.787181 0.085091 -0.035611 -13096.800000 0 0 1
-19.352398 20.634323 -5.722902 28.862470 -0.817446 1.770401 0.101005 -0.052490 135430.000000 0 0 1
-19.697498 21.453223 -6.831102 29.914814 -0.828038 1.801181 0.085481 -0.021152 -242637.000000 0 0 1
-19.759298 22.945723 -6.573002 30.986132 -0.859875 1.784548 0.103643 -0.029722 -243168.000000 0 0 1
-18.493998 23.542613 -6.428602 30.620409 -0.904926 1.782315 0.120225 -0.032232 -93991.100000 0 0 1
-18.137798 23.736673 -5.104102 30.306124 -0.918316 1.740021 0.123543 -0.046153 -106390.000000 0 0 1
-16.663398 24.208473 -5.053702 29.820444 -0.967946 1.741089 0.119613 -0.044024 -362780.000000 0 0 1
-16.318998 24.745673 -3.793102 29.883869 -0.987793 1.698068 0.112527 -0.047982 741611.000000 0 0 1
-14.991198 25.285963 -3.704402 29.628340 -1.035639 1.696153 0.129700 -0.050905 763573.000000 0 0 1
-14.551898 26.482353 -4.621202 30.568419 -1.068342 1.722554 0.136916 -0.041135 185782.000000 0 0 1
-15.297998 27.681983 -4.240802 31.910896 -1.065933 1.704086 0.145933 -0.038349 494573.000000 0 0 1
-14.965098 28.756653 -5.028402 32.805244 -1.090959 1.724683 0.114945 -0.035012 -479263.000000 0 0 1
-15.601598 30.053343 -4.453902 34.153338 -1.091962 1.701578 0.102056 -0.026037 268028.000000 0 0 1
-16.976598 30.136953 -4.814302 34.923034 -1.057788 1.709091 0.117140 -0.033626 122740.000000 0 0 1
-17.407998 31.422173 -4.490702 36.201626 -1.064885 1.695164 0.117534 -0.030210 -39888.100000 0 0 1
13.317710 -8.518761 18.227750 24.128439 -0.569069 0.714461 0.128984 -0.023246 -20032.700000 0 1 0
13.983310 -9.526561 18.921750 25.383478 -0.598052 0.729608 0.121100 -0.018327 3853.610000 0 0 1
14.540710 -10.483061 17.996450 25.400768 -0.624646 0.783426 0.124224 -0.023151 89814.900000 0 0 1
14.928710 -11.827761 18.686450 26.682311 -0.670018 0.794935 0.137995 -0.031314 -144179.000000 0 0 1
16.103010 -11.832561 19.494750 27.917051 -0.633705 0.797763 0.121350 -0.024657 485633.000000 0 0 1
16.326810 -12.973761 20.219850 29.046954 -0.671457 0.800833 0.109550 -0.022067 -226425.000000 0 0 1
16.885910 -14.217961 19.450650 29.421287 -0.699832 0.848502 0.099926 -0.022676 -516538.000000 0 0 1
16.152110 -14.639561 18.313350 28.470795 -0.736316 0.872083 0.110228 -0.030974 341653.000000 0 0 1
16.604310 -15.878261 17.768550 29.043823 -0.763050 0.912482 0.118795 -0.033490 -106052.000000 0 0 1
15.971910 -15.932761 16.307350 27.836746 -0.784171 0.944904 0.108099 -0.034132 178522.000000 0 0 1
14.566110 -16.043561 16.353850 27.148035 -0.833628 0.924298 0.160229 -0.038203 137171.000000 0 0 1
13.994110 -16.030161 15.047750 26.062156 -0.853108 0.955281 0.180679 -0.040719 105785.000000 0 0 1
13.193310 -17.306961 14.661850 26.240506 -0.919462 0.977920 0.124639 -0.020298 144999.000000 0 0 1
14.039710 -18.444661 14.381550 27.279075 -0.920178 1.015493 0.119498 -0.025669 505351.000000 0 0 1
13.371010 -19.661561 14.138050 27.663068 -0.973580 1.034355 0.099958 -0.021826 -432454.000000 0 0 1
14.193710 -20.575461 13.239450 28.285933 -0.966924 1.083705 0.090468 -0.013584 -523619.000000 0 0 1
15.295010 -21.073361 13.919850 29.526024 -0.942965 1.079870 0.071265 -0.011698 -571457.000000 0 0 1
15.741810 -22.251561 13.370750 30.359735 -0.955090 1.114740 0.049099 -0.015795 79914.700000 0 0 1
16.700810 -23.069061 14.308850 31.872273 -0.944178 1.105214 0.051351 -0.024238 1576200.000000 0 0 1
18.032810 -22.493561 14.447950 32.247260 -0.895027 1.106228 0.028521 -0.019094 979855.000000 0 0 1
18.661610 -23.073761 15.567750 33.511326 -0.890724 1.087668 0.036105 -0.029234 -137248.000000 0 0 1
20.119010 -22.585661 15.731450 34.093477 -0.843095 1.091200 0.011074 -0.019975 224755.000000 0 0 1
21.002910 -23.157961 14.777750 34.580273 -0.834159 1.129241 0.008612 -0.022729 187475.000000 0 0 1
22.255410 -22.483161 14.725550 34.894665 -0.790489 1.135146 0.019339 -0.014468 1348370.000000 0 0 1
23.469110 -23.289661 14.087350 35.939684 -0.781560 1.168022 0.019784 -0.019328 743899.000000 0 0 1
23.806110 -24.374761 14.891750 37.183653 -0.797200 1.158743 0.018305 -0.017115 -256924.000000 0 0 1
24.940710 -25.028541 14.402650 38.156300 -0.787156 1.183740 0.030965 -0.024425 -416582.000000 0 0 1
25.383710 -26.122801 15.353550 39.528028 -0.799747 1.171878 0.036800 -0.018402 -534710.000000 0 0 1
25.997610 -25.700061 16.529250 40.119633 -0.779643 1.146149 0.030024 -0.011894 130898.000000 0 0 1
26.549510 -26.790431 17.296450 41.494227 -0.789915 1.140830 0.061719 -0.013190 304899.000000 0 0 1
27.082510 -26.309431 18.665350 42.119399 -0.770920 1.111683 0.041426 -0.007811 -539104.000000 0 0 1
26.050710 -25.957121 19.500250 41.625369 -0.783599 1.083238 0.063054 -0.008360 -603642.000000 0 0 1
26.448510 -25.889081 20.827950 42.468479 -0.774710 1.058210 0.074375 -0.005812 149765.000000 0 0 1
25.252510 -25.627401 21.798050 42.066708 -0.792766 1.026077 0.068937 -0.010988 509514.000000 0 0 1
24.409010 -26.756451 21.963650 42.356928 -0.831245 1.025657 0.090132 -0.011868 709192.000000 0 0 1
23.137310 -26.429361 22.540150 41.736131 -0.851717 1.000284 0.103951 -0.018873 433287.000000 0 0 1
22.375210 -27.646001 22.957050 42.331756 -0.890382 0.997609 0.129755 -0.020404 -832960.000000 0 0 1
23.155510 -28.423981 23.783830 43.700926 -0.887188 0.995312 0.128248 -0.014413 73561.500000 0 0 1
23.100510 -29.756111 23.241950 44.263393 -0.910657 1.017984 0.132685 -0.019574 -187368.000000 0 0 1
24.295910 -30.600441 23.703110 45.700281 -0.899741 1.025508 0.117433 -0.012024 -172847.000000 0 0 1
24.172310 -30.911031 25.056120 46.557508 -0.907130 1.002525 0.113075 -0.011627 1095470.000000 0 0 1
25.414010 -31.379021 25.630030 47.826910 -0.890045 1.005233 0.097453 -0.003917 542536.000000 0 0 1
25.141010 -31.976861 27.060170 48.855325 -0.904511 0.983775 0.087903 -0.016522 285297.000000 0 0 1
24.584610 -33.276041 27.165380 49.493998 -0.934497 0.989794 0.076532 -0.013382 919426.000000 0 0 1
23.234310 -33.428911 26.685950 48.677152 -0.963409 0.990558 0.093719 -0.015117 527382.000000 0 0 1
22.568810 33.006998 27.037580 48.268456 0.971054 0.976229 0.105327 -0.030944 -162173.000000 0 0 1
22.035810 33.051233 28.349330 48.802105 0.982759 0.950958 0.082295 -0.015892 -42604.700000 0 0 1
21.770210 31.809112 28.907050 48.180693 0.970616 0.927331 0.092000 -0.032218 -335655.000000 0 0 1
21.336210 32.000877 30.366900 49.004475 0.982744 0.902466 0.077723 -0.041924 353536.000000 0 0 1
22.380510 32.372763 31.292580 50.280300 0.965908 0.899039 0.070857 -0.032997 322034.000000 0 0 1
21.911810 32.640080 32.585150 51.061671 0.979582 0.878700 0.056634 -0.029328 -162934.000000 0 0 1
23.069610 32.606386 33.595579 52.192396 0.955042 0.871490 0.028429 -0.010477 85407.600000 0 0 1
23.457010 31.256373 33.748030 51.634501 0.926994 0.858472 0.027680 -0.004609 -313796.000000 0 0 1
24.736010 31.227543 -33.481372 52.038754 0.900878 2.269719 0.019912 0.003066 -115989.000000 0 0 1
25.181210 29.777823 -33.130242 51.170548 0.868841 2.275027 0.039366 -0.000444 -258843.000000 0 0 1
25.513810 29.034713 33.491103 51.143162 0.849855 0.856812 0.045765 -0.009710 67553.000000 0 0 1
24.988810 27.727173 33.499583 50.154350 0.837297 0.839373 0.064263 -0.022444 -151941.000000 0 0 1
25.460510 26.916203 32.273931 49.135793 0.813184 0.854187 0.107208 -0.032239 465281.000000 0 0 1
26.758010 26.358043 32.497289 49.667004 0.777868 0.857535 0.100523 -0.037369 684033.000000 0 0 1
27.132510 25.660303 31.301460 48.727873 0.757519 0.873206 0.140483 -0.059025 1640090.000000 0 0 1
28.507110 24.815883 31.519730 49.213583 0.716284 0.875689 0.114621 -0.047171 1628370.000000 0 0 1
28.404710 23.676503 32.337765 49.123675 0.694861 0.852248 0.141317 -0.054521 647795.000000 0 0 1
29.538810 23.705793 33.213852 50.375251 0.676282 0.850871 0.139818 -0.055656 -397464.000000 0 0 1
29.202910 22.999453 -33.282082 49.894707 0.667118 2.301033 0.141266 -0.058575 374019.000000 0 0 1
28.257410 23.678223 -32.416172 49.091218 0.697455 2.292048 0.136951 -0.055549 1756600.000000 0 0 1
26.932810 23.988463 -32.891132 48.812387 0.727641 2.310173 0.122981 -0.049880 231886.000000 0 0 1
25.939510 22.830623 -33.081542 47.838101 0.721739 2.334403 0.116016 -0.052698 -707602.000000 0 0 1
25.611910 22.118223 -31.926062 46.523748 0.712332 2.327092 0.096890 -0.060382 131465.000000 0 0 1
25.220710 20.839623 -32.246412 45.936969 0.690567 2.348957 0.097989 -0.048267 -223566.000000 0 0 1
25.314810 19.936923 -30.955022 44.682590 0.667109 2.336128 0.090545 -0.051089 447836.000000 0 0 1
24.166710 20.036723 -30.092502 43.486306 0.692237 2.335051 0.071943 -0.037625 928215.000000 0 0 1
24.415710 19.265923 -28.920842 42.470199 0.668046 2.319880 0.078216 -0.032005 -877129.000000 0 0 1
23.100810 18.855923 -28.309802 41.117370 0.684568 2.330232 0.067189 -0.028997 -916367.000000 0 0 1
23.064710 18.243623 -27.014932 39.932658 0.669214 2.313813 0.073248 -0.021035 -87727.300000 0 0 1
23.506110 18.986523 -25.902042 39.798757 0.679435 2.279467 0.062073 -0.006529 -125990.000000 0 0 1
23.476710 18.130723 -24.582102 38.524781 0.657612 2.262805 0.097000 -0.002383 -155857.000000 0 0 1
24.481310 17.157923 -24.655702 38.750903 0.611302 2.260439 0.091333 -0.021230 -68247.200000 0 0 1
24.552510 16.329723 -23.523402 37.720499 0.586913 2.244166 0.105190 -0.013856 67813.000000 0 0 1
25.617110 15.210123 -23.600202 38.007285 0.535810 2.240736 0.113547 -0.017575 796384.000000 0 0 1
27.010610 15.647423 -23.617902 39.143584 0.525065 2.218511 0.130221 -0.025490 1169970.000000 0 0 1
27.933310 14.611823 -23.576302 39.365177 0.481954 2.212939 0.117795 -0.032609 -125686.000000 0 0 1
28.066110 14.106323 -22.127302 38.422811 0.465734 2.184488 0.102988 -0.017628 -290577.000000 0 0 1
26.932610 13.254823 -21.889002 37.150831 0.457346 2.200856 0.089589 -0.009543 421309.000000 0 0 1
26.777010 12.864123 -20.517002 36.103203 0.447859 2.175220 0.071873 -0.020792 230995.000000 0 0 1
25.439910 12.069123 -20.352502 34.743015 0.442972 2.196665 0.087986 -0.007598 1206320.000000 0 0 1
24.335310 12.999223 -20.441602 34.337242 0.490609 2.208459 0.107560 -0.015968 795323.000000 0 0 1
23.074610 12.338523 -20.628902 33.320090 0.491039 2.238409 0.107955 -0.020720 1031390.000000 0 0 1
21.855310 13.296823 -20.645702 32.874079 0.546575 2.249807 0.111700 -0.020337 13629.800000 0 0 1
21.981010 14.220723 -21.767402 34.047225 0.574232 2.264423 0.106431 -0.009329 -88938.900000 0 0 1
21.264410 15.389623 -21.490102 33.924034 0.626473 2.256835 0.087433 -0.005344 -201339.000000 0 0 1
19.936510 15.524223 -22.272202 33.682590 0.661607 2.293264 0.082829 0.000431 -191762.000000 0 0 1
18.946110 14.736923 -21.667802 32.336135 0.661078 2.305113 0.075262 -0.002018 -16275.500000 0 0 1
17.855710 14.505723 -22.566302 32.225461 0.682248 2.346562 0.077329 -0.011390 346600.000000 0 0 1
16.699510 13.733523 -21.870602 30.753967 0.688245 2.361925 0.075241 -0.013341 51071.100000 0 0 1
15.552310 13.798023 -22.677102 30.765414 0.725699 2.399561 0.085928 -0.016781 -27434.000000 0 0 1
14.383610 13.306223 -21.996402 29.458199 0.746509 2.413881 0.101806 -0.025365 167913.000000 0 0 1
13.142110 13.435623 -22.859602 29.593790 0.796441 2.453480 0.086705 -0.028908 -632763.000000 0 0 1
12.816510 14.809123 -23.072602 30.264137 0.857403 2.437771 0.098230 -0.020170 -339072.000000 0 0 1
12.214810 15.011323 -24.325702 31.085063 0.887753 2.469552 0.091649 -0.021526 -858590.000000 0 0 1
11.674210 16.407523 -24.486302 31.702886 0.952383 2.453358 0.096971 -0.024583 -348486.000000 0 0 1
12.555210 17.542823 -24.321002 32.509922 0.949618 2.416006 0.087950 -0.017522 868324.000000 0 0 1
13.743910 17.525823 -25.168702 33.608229 0.905758 2.417174 0.091904 -0.026608 939124.000000 0 0 1
13.415110 17.425823 -26.718372 34.604853 0.914718 2.452934 0.119942 -0.038203 -253444.000000 0 0 1
14.622410 17.349123 -27.439032 35.604879 0.870478 2.450663 0.099474 -0.037461 299660.000000 0 0 1
14.233610 17.097923 -28.752862 36.354665 0.876564 2.483073 0.113315 -0.044313 -62271.100000 0 0 1
15.371910 17.510023 -29.698862 37.748098 0.850331 2.476346 0.101769 -0.042817 83323.200000 0 0 1
16.410310 16.541023 -29.633942 37.697138 0.789365 2.475280 0.075445 -0.039002 322792.000000 0 0 1
17.430310 16.863423 -30.604512 39.049032 0.768869 2.471470 0.076044 -0.035705 -521948.000000 0 0 1
18.709610 16.126523 -30.267812 39.067310 0.711384 2.457133 0.074875 -0.033145 -1027720.000000 0 0 1
19.817310 16.824423 -30.802792 40.306314 0.703899 2.440624 0.068780 -0.035109 -40582.500000 0 0 1
20.967010 15.997923 -30.669382 40.449475 0.651772 2.431367 0.081887 -0.030647 -105526.000000 0 0 1
22.202810 16.600823 -31.352702 41.851452 0.642021 2.417563 0.091694 -0.033971 -252974.000000 0 0 1
22.140010 16.839023 -32.733432 42.955911 0.650232 2.437229 0.095558 -0.038556 -62600.000000 0 0 1
23.380810 17.382523 -33.122452 44.112483 0.639298 2.420165 0.105903 -0.042400 -2977.600000 0 0 1
23.349210 18.176123 33.389584 44.614139 0.661460 0.725138 0.094919 -0.034036 -27059.000000 0 0 1
24.545510 18.881423 33.116452 45.339713 0.655702 0.751878 0.106888 -0.038472 81610.100000 0 0 1
24.512210 19.627223 31.932175 44.785490 0.675175 0.777025 0.127845 -0.037568 -551663.000000 0 0 1
25.691010 20.557923 31.718090 45.702226 0.674862 0.803744 0.147281 -0.042061 -746245.000000 0 0 1
26.880710 19.962423 31.278250 45.819208 0.638768 0.819420 0.120851 -0.044407 -679658.000000 0 0 1
27.800910 21.017123 31.164790 46.753120 0.647322 0.841182 0.114767 -0.051625 -558751.000000 0 0 1
29.245710 20.509223 31.017000 47.307442 0.611580 0.855757 0.124842 -0.050415 -347298.000000 0 0 1
29.647010 19.843523 32.197713 48.056252 0.589842 0.836587 0.106183 -0.047853 -574012.000000 0 0 1
31.034610 19.691023 32.238024 48.889402 0.565392 0.850766 0.088905 -0.031132 -399241.000000 0 0 1
31.359610 19.249723 33.701440 49.897535 0.550532 0.829272 0.081262 -0.026160 -108613.000000 0 0 1
31.159910 20.277423 -33.157812 49.815202 0.576905 2.299116 0.080435 -0.042652 -306080.000000 0 0 1
30.541510 19.754623 -32.043862 48.475128 0.574131 2.292996 0.096642 -0.049975 -453076.000000 0 0 1
31.175310 20.074023 -30.659972 48.113410 0.572080 2.261713 0.097711 -0.040247 454826.000000 0 0 1
32.448610 19.456323 -30.464042 48.574877 0.540128 2.248693 0.085362 -0.040720 406486.000000 0 0 1
33.065510 19.837523 -29.243612 48.394670 0.540380 2.219650 0.099521 -0.040837 -527260.000000 0 0 1
34.524510 19.481623 -29.066652 49.156339 0.513743 2.203479 0.069025 -0.024600 -782866.000000 0 0 1
35.421210 20.155623 -29.895272 50.543432 0.517334 2.203686 0.079430 -0.031798 -37986.900000 0 0 1
36.707810 20.166923 -29.288622 51.107646 0.502375 2.181052 0.029629 -0.006094 573126.000000 0 0 1
-36.933082 21.022623 -29.980452 52.007986 -0.517471 2.185184 0.027878 -0.008323 586546.000000 0 0 1
-36.352782 20.469123 -31.194802 52.092469 -0.512822 2.212842 0.029478 -0.008198 377089.000000 0 0 1
-35.226682 21.235623 -31.615832 51.879009 -0.542496 2.226119 0.030113 0.001316 -93691.100000 0 0 1
-34.430782 20.456423 -32.613562 51.648701 -0.536093 2.254218 0.033040 -0.002815 -601191.000000 0 0 1
-33.516682 19.539623 -32.081012 50.342389 -0.527812 2.261729 0.029521 0.002699 7074.620000 0 0 1
-32.836382 18.868223 -33.117592 50.309171 -0.521544 2.289330 0.026132 0.005040 -337424.000000 0 0 1
-32.249682 17.545023 -32.741232 49.192052 -0.498254 2.299067 0.013658 0.004692 -73585.300000 0 0 1
-33.159482 16.462723 -32.558472 49.301385 -0.460820 2.292143 0.025379 0.001158 56723.700000 0 0 1
-32.525682 15.268623 -32.920812 48.732234 -0.438896 2.312500 0.019732 0.004460 -283310.000000 0 0 1
-33.505282 14.073623 -33.087192 49.147055 -0.397664 2.309362 0.028106 0.000056 -210945.000000 0 0 1
-32.946182 12.800323 -33.246942 48.524821 -0.370573 2.325610 0.045144 -0.010576 -24074.800000 0 0 1
-33.999782 11.878023 -33.336792 49.075597 -0.336101 2.317597 0.053635 -0.016434 -569.820000 0 0 1
-33.479882 10.396323 -33.237752 48.308737 -0.301084 2.329564 0.054881 -0.015775 346968.000000 0 0 1
-32.719482 9.932123 33.436832 47.825028 -0.294714 0.796589 0.035571 -0.013098 65310.600000 0 0 1
-33.277282 8.831423 32.807131 47.557116 -0.259409 0.809519 0.065154 -0.029741 -363999.000000 0 0 1
-32.302982 8.035823 31.937482 46.130899 -0.243815 0.806093 0.073438 -0.016683 137752.000000 0 0 1
-31.181982 7.588223 32.666587 45.793045 -0.238713 0.776526 0.055187 -0.002069 450636.000000 0 0 1
-30.098582 7.088523 31.853746 44.394064 -0.231295 0.770557 0.058327 -0.009904 724832.000000 0 0 1
21.900410 -4.166361 -31.578132 38.654430 -0.187995 2.526872 0.075141 -0.040310 -672621.000000 0 0 1
23.120010 -4.240761 -32.258492 39.914023 -0.181407 2.511885 0.056145 -0.040356 -345614.000000 0 0 1
23.988310 -3.182461 -31.857442 40.005796 -0.131897 2.491984 0.067535 -0.033092 50543.700000 0 0 1
23.593210 -1.757561 -32.403112 40.120945 -0.074357 2.510928 0.066739 -0.025428 -399648.000000 0 0 1
24.472710 -0.765561 -31.892812 40.207600 -0.031272 2.486848 0.067547 -0.016626 337545.000000 0 0 1
24.193110 0.544339 -32.384322 40.427060 0.022496 2.499853 0.069710 -0.026582 -156761.000000 0 0 1
25.032110 1.644239 -31.643152 40.380678 0.065591 2.471270 0.070109 -0.018119 382803.000000 0 0 1
26.407610 1.591539 -31.982712 41.506490 0.060195 2.450496 0.069697 -0.019978 -677668.000000 0 0 1
27.111810 2.421639 -31.132672 41.354055 0.089084 2.423151 0.077207 -0.021913 1031200.000000 0 0 1
28.685810 2.306639 -31.351942 42.557497 0.080238 2.398968 0.079857 -0.024241 1384180.000000 0 0 1
29.108910 2.816139 -32.607152 43.800521 0.096445 2.410502 0.097873 -0.030929 -39757.900000 0 0 1
29.123610 1.836239 -33.630602 44.526103 0.062967 2.426909 0.075265 -0.025132 -76984.800000 0 0 1
30.022910 2.161639 32.919315 44.606380 0.071876 0.740701 0.063885 -0.028672 348140.000000 0 0 1
29.566610 3.176739 31.971832 43.663190 0.107033 0.749195 0.063505 -0.015746 254927.000000 0 0 1
29.622910 4.496339 32.432892 44.154574 0.150636 0.745821 0.073679 -0.018160 -34129.700000 0 0 1
29.206510 5.460839 31.320520 43.171935 0.184839 0.759060 0.091652 -0.020611 -35648.200000 0 0 1
29.280210 6.773439 31.833652 43.778895 0.227333 0.756641 0.095030 -0.029594 435286.000000 0 0 1
28.723010 7.657739 30.823790 42.822405 0.260546 0.767275 0.091794 -0.028899 163454.000000 0 0 1
29.134710 9.131939 31.150700 43.618686 0.303740 0.775374 0.071230 -0.022888 1020830.000000 0 0 1
30.545210 9.364139 31.010680 44.523693 0.297470 0.800290 0.055699 -0.015451 691268.000000 0 0 1
30.798910 10.718039 30.994660 44.990201 0.334893 0.810798 0.057331 -0.005641 1216760.000000 0 0 1
32.337710 10.962839 30.700530 45.917686 0.326852 0.838473 0.058148 -0.001771 1125690.000000 0 0 1
33.275010 10.567639 31.724040 47.173256 0.307511 0.833214 0.060675 -0.022728 -376562.000000 0 0 1
34.585410 10.723139 31.327550 47.880599 0.300650 0.857560 0.068642 -0.026523 -1020560.000000 0 0 1
35.179710 12.130239 31.447000 48.720309 0.332042 0.869171 0.069060 -0.024449 -853429.000000 0 0 1
35.340310 12.591639 32.809620 49.839323 0.342273 0.852228 0.070013 -0.022490 20575.800000 0 0 1
35.715110 13.964239 32.960483 50.566417 0.372715 0.860807 0.084046 -0.006892 537254.000000 0 0 1
34.639310 15.111939 32.717746 49.987033 0.411374 0.857243 0.088722 -0.014734 -434205.000000 0 0 1
34.487910 15.289239 31.328220 49.037069 0.417286 0.877770 0.083311 -0.025091 515947.000000 0 0 1
33.456410 16.243439 31.028780 48.435172 0.451989 0.875484 0.084594 -0.020291 421462.000000 0 0 1
32.027410 15.684339 31.171780 47.364896 0.455387 0.852477 0.073257 -0.018963 -953814.000000 0 0 1
31.483410 15.067539 30.018820 46.036566 0.446371 0.860492 0.073265 -0.012249 -765046.000000 0 0 1
30.328910 14.429539 30.417930 45.313407 0.444075 0.834864 0.069335 -0.017944 -453461.000000 0 0 1
29.366110 13.915539 29.290310 43.748519 0.442521 0.837240 0.067312 -0.007715 214111.000000 0 0 1
29.530310 12.619539 28.778150 43.121618 0.403853 0.840122 0.064344 -0.004914 -129198.000000 0 0 1
28.493510 12.301539 27.880500 41.719663 0.407558 0.838899 0.080949 -0.010339 -97959.900000 0 0 1
28.177710 10.780239 27.797980 41.023464 0.365400 0.826286 0.074337 -0.005908 -436781.000000 0 0 1
29.061810 9.956639 27.078880 40.951059 0.330069 0.848313 0.071513 -0.000180 -417406.000000 0 0 1
28.801310 8.571839 27.081170 40.452215 0.289272 0.837314 0.082353 -0.007151 -353761.000000 0 0 1
30.006110 7.712739 26.718130 40.911019 0.251593 0.859153 0.061804 -0.010648 -283049.000000 0 0 1
30.466310 7.678839 25.367860 40.381790 0.246901 0.891558 0.064549 -0.011037 585026.000000 0 0 1
31.509610 6.716539 25.101830 40.842004 0.210015 0.908907 0.068590 -0.004939 1002840.000000 0 0 1
32.206110 6.952139 23.698170 40.585331 0.212602 0.947260 0.080239 -0.002121 278453.000000 0 0 1
32.810010 8.214639 23.335680 41.091739 0.245327 0.966853 0.087568 -0.007113 687905.000000 0 0 1
31.863910 9.285539 23.102600 40.438350 0.283560 0.962702 0.099609 -0.009974 324929.000000 0 0 1
31.392310 9.420739 21.707350 39.312041 0.291546 0.985819 0.113664 -0.012383 -178894.000000 0 0 1
32.339210 10.016839 20.842750 39.756532 0.300371 1.018951 0.117706 -0.020339 -100954.000000 0 0 1
31.940910 9.955739 19.520650 38.734923 0.302149 1.042625 0.142792 -0.026800 -579907.000000 0 0 1
32.911510 10.615639 18.475350 39.207115 0.312015 1.080118 0.164901 -0.055568 952886.000000 0 0 1
34.174710 9.978939 18.269950 40.016011 0.284099 1.096665 0.149596 -0.041390 406228.000000 0 0 1
35.124310 10.184339 19.301050 41.351765 0.282212 1.085181 0.132774 -0.030430 -285842.000000 0 0 1
36.558110 9.922539 18.742050 42.263657 0.265033 1.111346 0.160185 -0.022698 112793.000000 0 0 1
36.797810 8.516539 18.634650 42.117223 0.227437 1.112471 0.134784 -0.009766 324141.000000 0 0 1
-37.061682 8.325939 17.534550 41.837184 -0.220982 1.138327 0.147353 -0.009934 -147206.000000 0 0 1
-36.955282 6.818439 17.222450 41.337595 -0.182453 1.141062 0.140011 -0.012119 61934.000000 0 0 1
36.554810 6.302039 16.738150 40.695645 0.170722 1.146916 0.116556 -0.016661 400272.000000 0 0 1
36.802010 5.042239 16.153250 40.506044 0.136162 1.160604 0.125632 -0.015927 -58917.800000 0 0 1
35.535110 4.178439 16.040250 39.210879 0.117049 1.149355 0.101515 -0.014399 -128738.000000 0 0 1
35.231410 3.498639 17.201650 39.362286 0.098980 1.118526 0.097335 -0.007113 -113571.000000 0 0 1
34.128710 2.633339 17.070750 38.250671 0.077006 1.108185 0.078963 -0.002226 -3069.730000 0 0 1
33.934910 1.670539 18.230650 38.558079 0.049188 1.078319 0.069160 -0.006681 -90051.800000 0 0 1
34.738410 0.534039 18.160150 39.202467 0.015372 1.089149 0.084873 -0.009274 -107641.000000 0 0 1
34.480210 -0.178561 19.333750 39.531136 -0.005179 1.059766 0.073978 -0.006913 301587.000000 0 0 1
35.244510 -1.550761 19.447150 40.283645 -0.043972 1.066998 0.081140 -0.006954 521921.000000 0 0 1
34.736210 -2.255261 20.618250 40.457419 -0.064834 1.036043 0.082132 -0.004725 421280.000000 0 0 1
35.239110 -3.573861 20.653350 41.001564 -0.101072 1.042896 0.084212 -0.010052 -3799.600000 0 0 1
34.582710 -4.349361 21.854250 41.139872 -0.125110 1.010759 0.066678 -0.008067 362452.000000 0 0 1
35.209710 -3.918461 23.052510 42.266964 -0.110833 0.993927 0.069695 -0.012582 421143.000000 0 0 1
34.720510 -4.713261 24.106630 42.530675 -0.134924 0.968173 0.063325 -0.011213 218894.000000 0 0 1
35.172810 -4.220661 25.516530 43.658148 -0.119427 0.946579 0.052003 -0.007897 242712.000000 0 0 1
34.186110 -4.540861 26.483490 43.482006 -0.132055 0.915912 0.048162 -0.014123 323484.000000 0 0 1
34.533910 -3.965661 27.742950 44.474585 -0.114333 0.897210 0.050346 -0.014464 -202693.000000 0 0 1
33.532010 -4.291761 28.860450 44.449303 -0.127298 0.864147 0.048448 -0.016516 -150127.000000 0 0 1
33.624410 -5.647561 29.284200 44.945081 -0.166407 0.861164 0.050801 -0.026326 227177.000000 0 0 1
32.694210 -6.036561 30.294490 44.978968 -0.182581 0.831828 0.047387 -0.028253 -180039.000000 0 0 1
32.874810 -7.508761 30.716550 45.614045 -0.224553 0.831996 0.059869 -0.024065 -298114.000000 0 0 1
34.047710 -7.696561 31.449490 46.984615 -0.222316 0.837453 0.073017 -0.031412 -527163.000000 0 0 1
34.402610 -9.048461 31.496150 47.512332 -0.257192 0.846105 0.070163 -0.018593 -3742.970000 0 0 1
35.808310 -9.218061 32.104283 48.968283 -0.251957 0.855801 0.083081 -0.019333 22365.800000 0 0 1
35.859010 -9.214261 33.489932 49.923409 -0.251517 0.835474 0.090792 -0.031992 32432.300000 0 0 1
37.165610 -9.404361 -33.824072 51.125262 -0.247837 2.293736 0.075455 -0.037997 -75158.100000 0 0 1
37.121710 -9.631261 -32.278742 50.126836 -0.253854 2.270435 0.094074 -0.038551 -93663.900000 0 0 1
36.609810 -8.569561 -31.449492 49.018222 -0.229938 2.267363 0.067227 -0.039472 276179.000000 0 0 1
37.143910 -7.287861 -31.624712 49.324491 -0.193745 2.266800 0.062440 -0.038456 -124875.000000 0 0 1
36.412710 -6.272661 -30.711492 48.046097 -0.170591 2.264265 0.065956 -0.037647 -308494.000000 0 0 1
36.708810 -6.430861 -29.315322 47.416040 -0.173426 2.237320 0.063477 -0.030143 348492.000000 0 0 1
36.046510 -5.350161 -28.674742 46.370421 -0.147348 2.237481 0.069750 -0.039846 -350796.000000 0 0 1
36.506810 -5.189161 -27.254622 45.852906 -0.141196 2.207306 0.074432 -0.033388 789119.000000 0 0 1
-36.833782 -4.841961 -27.257442 46.077545 0.130705 2.203784 0.072121 -0.025904 541021.000000 0 0 1
-36.357882 -4.591561 -25.973032 44.917439 0.125623 2.187365 0.082497 -0.029962 -840891.000000 0 0 1
-34.896282 -4.239561 -25.859422 43.639821 0.120898 2.205035 0.106834 -0.018479 -1915860.000000 0 0 1
-34.670482 -3.776961 -24.541702 42.645080 0.108511 2.183996 0.118460 -0.030251 968793.000000 0 0 1
-33.305582 -3.783361 -24.088502 41.277494 0.113111 2.193920 0.142655 -0.023482 715609.000000 0 0 1
-32.245982 -2.969761 -24.840402 40.812600 0.091838 2.225149 0.120640 -0.010087 -876056.000000 0 0 1
-31.886782 -3.691061 -26.029242 41.326894 0.115242 2.252141 0.121069 -0.014043 -140453.000000 0 0 1
-31.201582 -2.767561 -26.868802 41.269003 0.088468 2.279783 0.110933 -0.009756 5596.540000 0 0 1
-30.764982 -3.442361 -28.202632 41.877468 0.111429 2.309670 0.113643 -0.016265 152408.000000 0 0 1
-31.837382 -3.773361 -29.073962 43.279930 0.117969 2.307386 0.118110 -0.025397 -137142.000000 0 0 1
-31.452582 -4.538761 -30.196562 43.837171 0.143316 2.330677 0.095065 -0.015367 -581703.000000 0 0 1
-32.601182 -4.868161 -31.214722 45.397080 0.148229 2.328965 0.090687 -0.026734 -843137.000000 0 0 1
-33.533582 -5.811061 -30.673742 45.816459 0.171587 2.304321 0.094119 -0.029521 572582.000000 0 0 1
-34.515982 -5.293261 -29.776792 45.891491 0.152171 2.276871 0.088467 -0.028366 -574852.000000 0 0 1
-35.488982 -4.251861 -30.391312 46.916713 0.119240 2.275452 0.101828 -0.036594 -1778700.000000 0 0 1
-35.032882 -2.945661 -30.765242 46.717018 0.083885 2.289680 0.122241 -0.032871 -265080.000000 0 0 1
-34.682982 -2.035561 -29.723072 45.722136 0.058623 2.278487 0.140586 -0.023385 -237218.000000 0 0 1
-34.334482 -0.685761 -30.348552 45.829701 0.019970 2.294551 0.118986 -0.026746 130620.000000 0 0 1
-35.486782 -0.052761 -30.874502 47.037743 0.001487 2.286803 0.146538 -0.025059 104872.000000 0 0 1
-35.182082 1.261039 -31.213732 47.049613 -0.035828 2.296179 0.144442 -0.015042 -157703.000000 0 0 1
-36.397882 2.065139 -31.670262 48.291573 -0.056677 2.286056 0.127773 -0.010699 -179920.000000 0 0 1
-36.740682 1.917739 -33.028052 49.440951 -0.052149 2.302355 0.126189 -0.014603 163344.000000 0 0 1
36.760910 2.557039 -33.338892 49.692904 0.069447 2.306216 0.099723 -0.014971 348097.000000 0 0 1
36.100710 1.999139 33.171312 49.067237 0.055320 0.828424 0.068044 -0.007371 -75334.200000 0 0 1
36.556010 2.389839 31.898090 48.575111 0.065282 0.854394 0.069026 -0.006592 -221325.000000 0 0 1
-37.365882 1.446639 31.274430 48.748250 -0.038696 0.874279 0.064713 -0.006670 -264272.000000 0 0 1
-37.110082 1.693039 29.754490 47.595737 -0.045590 0.895472 0.067533 -0.007865 135088.000000 0 0 1
-36.281282 2.816839 29.477110 46.831250 -0.077483 0.889974 0.073253 -0.015594 199745.000000 0 0 1
-36.122882 3.044239 28.101560 45.867501 -0.084076 0.911364 0.065417 -0.010908 -56204.400000 0 0 1
-35.267882 4.249439 27.663500 45.023887 -0.119912 0.909148 0.068612 -0.010762 -364932.000000 0 0 1
-35.082282 4.299839 26.254860 44.029226 -0.121956 0.931906 0.078196 -0.010589 198619.000000 0 0 1
-34.471782 5.519439 25.846450 43.437391 -0.158767 0.933496 0.088980 -0.011008 50485.800000 0 0 1
-33.545782 5.490239 24.610900 41.966160 -0.162226 0.944132 0.090253 -0.014516 335522.000000 0 0 1
-32.428282 4.589639 24.749950 41.051410 -0.140598 0.923664 0.091522 -0.004266 507978.000000 0 0 1
-31.414382 4.840539 23.803870 39.710432 -0.152884 0.928000 0.089061 -0.005676 -24448.000000 0 0 1
-31.713382 4.431939 22.358350 39.054788 -0.138851 0.961261 0.115068 -0.016441 -329972.000000 0 0 1
-31.886682 3.051939 22.219150 38.984169 -0.095421 0.964347 0.103828 -0.021252 -122922.000000 0 0 1
-32.680282 2.822539 21.061050 38.981218 -0.086154 1.000018 0.122589 -0.018933 211082.000000 0 0 1
-32.471382 1.382039 20.503850 38.427965 -0.042536 1.007985 0.111767 -0.024667 573193.000000 0 0 1
-31.211782 1.035939 19.899350 37.030158 -0.033178 1.003466 0.119058 -0.023403 553381.000000 0 0 1
-31.108182 1.295739 18.554950 36.244780 -0.041629 1.033361 0.126783 -0.020942 47666.000000 0 0 1
-29.672682 1.084039 18.002250 34.723539 -0.036517 1.025765 0.127279 -0.021087 -296911.000000 0 0 1
-29.334182 -0.307661 18.096850 34.468607 0.010488 1.018053 0.134149 -0.016987 -100801.000000 0 0 1
-28.061582 -0.537261 17.538050 33.095683 0.019143 1.012291 0.130370 -0.019819 -371741.000000 0 0 1
-27.788482 -0.361461 15.996050 32.065620 0.013007 1.048521 0.151191 -0.012999 -706879.000000 0 0 1
-27.753382 1.022239 15.636350 31.871470 -0.036816 1.058011 0.138851 -0.013459 250387.000000 0 0 1
-27.863782 1.050639 14.231050 31.305222 -0.037688 1.098884 0.154009 -0.015282 -260773.000000 0 0 1
-27.390582 2.333139 13.625250 30.681182 -0.084975 1.110636 0.148862 -0.010452 448181.000000 0 0 1
-25.972082 2.466739 13.553850 29.399671 -0.094693 1.091652 0.128975 -0.017444 579380.000000 0 0 1
-25.529482 3.622339 12.894350 28.829499 -0.140948 1.107094 0.123549 -0.020845 -49726.600000 0 0 1
-23.995082 3.751839 12.811350 27.458531 -0.155103 1.085387 0.107969 -0.032585 -296964.000000 0 0 1
-23.434182 4.163939 14.017350 27.622190 -0.175851 1.038554 0.084355 -0.018391 57659.600000 0 0 1
-22.023882 4.205639 13.864050 26.361917 -0.188687 1.017009 0.090047 -0.023514 71886.000000 0 0 1
-21.324382 4.779339 15.089850 26.557012 -0.220482 0.966472 0.086623 -0.024018 -386883.000000 0 0 1
-21.466482 6.186839 15.204850 27.023587 -0.280605 0.973207 0.062071 -0.014924 515243.000000 0 0 1
-21.055282 6.699439 16.483750 27.566672 -0.308054 0.929844 0.055719 -0.004485 -125473.000000 0 0 1
-21.102582 8.177239 16.570550 28.049409 -0.369684 0.938792 0.053620 -0.002109 -197639.000000 0 0 1
-19.995582 8.798439 15.933250 27.038940 -0.414523 0.940641 0.045170 -0.005725 573728.000000 0 0 1
-19.998082 10.209439 15.988050 27.563992 -0.472029 0.952026 0.049998 -0.001926 -114981.000000 0 0 1
-19.435982 10.891739 17.289350 28.201223 -0.510786 0.910854 0.058007 0.001496 -412414.000000 0 0 1
-20.157282 10.576939 18.440350 29.295634 -0.483228 0.889942 0.056740 0.001544 456501.000000 0 0 1
-19.530982 11.130939 19.614450 29.834271 -0.518002 0.853371 0.075284 0.002860 -175860.000000 0 0 1
-12.779990 -33.379844 -19.914402 40.916079 1.205148 2.079120 0.159110 -0.058454 -378046.000000 0 0 1
-13.951290 -33.691044 -19.243702 41.231601 1.178199 2.056377 0.183473 -0.049436 -712372.000000 0 0 1
-15.070090 -32.939144 -19.639602 41.204475 1.141712 2.067622 0.155358 -0.062686 -187755.000000 0 0 1
-16.303690 -33.316044 -18.805402 41.586202 1.115693 2.040030 0.135827 -0.049413 -984558.000000 0 0 1
-16.838190 33.218139 -19.176902 41.889414 -1.101646 2.046313 0.129184 -0.057546 372734.000000 0 0 1
-17.749090 32.599139 -18.284902 41.377188 -1.072213 2.028521 0.128971 -0.052518 -16738.700000 0 0 1
-19.131590 33.179339 -17.990902 42.314995 -1.047752 2.009942 0.109327 -0.044169 -860772.000000 0 0 1
-19.104890 -33.453144 -17.141902 42.165797 1.051902 1.989455 0.126580 -0.039346 1071530.000000 0 0 1
-20.416490 -33.183244 -16.597302 42.348921 1.019228 1.973512 0.086231 -0.036768 994787.000000 0 0 1
-20.781990 -33.874144 -15.235402 42.561322 1.020505 1.936882 0.081319 -0.028168 -331787.000000 0 0 1
-20.693990 32.519139 -15.332402 41.482745 -1.004067 1.949385 0.088038 -0.034500 109097.000000 0 0 1
-21.018590 31.959139 -14.106602 40.769644 -0.989048 1.924109 0.091059 -0.025468 11987.100000 0 0 1
-21.267290 30.475139 -14.173302 39.773285 -0.961510 1.935157 0.094879 -0.027701 -93365.400000 0 0 1
-20.100890 29.784439 -13.824002 38.500151 -0.977130 1.938061 0.111722 -0.039944 -105042.000000 0 0 1
-20.270390 28.400539 -13.951502 37.578235 -0.950913 1.951168 0.117933 -0.042171 -119912.000000 0 0 1
-19.187990 27.564339 -13.248302 36.103867 -0.962682 1.946524 0.098318 -0.043411 228399.000000 0 0 1
-17.899590 27.658439 -13.839002 35.733773 -0.996416 1.968477 0.143413 -0.051424 -68654.800000 0 0 1
-17.075590 26.613339 -13.431602 34.354818 -1.000336 1.972478 0.156726 -0.064718 -371323.000000 0 0 1
-15.580890 26.788639 -13.699002 33.883004 -1.043999 1.987013 0.125152 -0.061602 -266627.000000 0 0 1
-15.230290 26.770939 -15.044502 34.278010 -1.053550 2.025167 0.108370 -0.050215 913174.000000 0 0 1
-13.813990 27.018439 -15.239602 33.956853 -1.098165 2.036211 0.132658 -0.048786 1029820.000000 0 0 1
-13.547190 27.583639 -16.652402 34.952625 -1.114269 2.067384 0.147053 -0.057924 -237302.000000 0 0 1
-13.813490 26.668439 -17.695102 34.858783 -1.092875 2.103219 0.098739 -0.058890 12997.100000 0 0 1
-14.038490 27.397739 -18.897502 36.122443 -1.097281 2.121341 0.078437 -0.055406 -270416.000000 0 0 1
-13.772190 26.488739 -20.090402 35.985424 -1.091335 2.163123 0.043791 -0.026396 -364764.000000 0 0 1
-12.470890 26.587639 -20.591102 35.866685 -1.132215 2.182302 0.037853 -0.025405 -489406.000000 0 0 1
-12.211090 25.476139 -21.432502 35.461197 -1.123833 2.219800 0.027686 -0.027272 1011060.000000 0 0 1
-10.861290 25.660539 -22.231402 35.646404 -1.170393 2.244218 0.060201 -0.033256 788672.000000 0 0 1
-11.037090 26.268139 -23.413602 36.878574 -1.173024 2.258654 0.056123 -0.033035 474143.000000 0 0 1
-9.767890 26.505639 -24.045802 37.096646 -1.217718 2.276006 0.066750 -0.041226 730140.000000 0 0 1
-9.841690 27.206039 -25.477692 38.550489 -1.223695 2.292802 0.089681 -0.038807 -320925.000000 0 0 1
-10.366090 26.289439 -26.385162 38.662219 -1.195208 2.321910 0.076413 -0.030740 -240748.000000 0 0 1
-10.574190 26.899739 -27.635972 39.989454 -1.196255 2.333781 0.104005 -0.026320 -294281.000000 0 0 1
-11.843590 26.331239 -28.263202 40.403135 -1.148115 2.345536 0.064570 -0.024708 -312191.000000 0 0 1
-12.447090 27.164239 -29.237942 41.805301 -1.141131 2.345331 0.087400 -0.021978 -362887.000000 0 0 1
-13.657490 26.547839 -29.581022 42.027986 -1.095657 2.351587 0.072915 -0.017467 -318229.000000 0 0 1
-14.175290 26.907539 -31.036132 43.453377 -1.085928 2.366334 0.078794 -0.022850 47774.700000 0 0 1
-13.414790 26.419039 -32.148352 43.720004 -1.100952 2.396940 0.094764 -0.023173 125929.000000 0 0 1
-13.204890 25.005339 -32.192112 42.848199 -1.084936 2.420835 0.078080 -0.025504 -66512.600000 0 0 1
-12.151390 24.617139 -33.227472 43.101330 -1.112270 2.451073 0.072866 -0.022602 -359283.000000 0 0 1
-12.686490 24.804739 33.309217 43.424947 -1.098027 0.696562 0.074008 -0.025557 -382674.000000 0 0 1
-11.854690 24.323539 32.345376 42.170980 -1.117299 0.696635 0.075314 -0.027985 -724056.000000 0 0 1
-12.578690 24.098639 30.973730 41.210919 -1.089730 0.720327 0.077802 -0.020927 -332871.000000 0 0 1
-13.706390 23.272139 31.021310 41.131244 -1.038533 0.716357 0.091561 -0.032545 -392585.000000 0 0 1
-14.261790 23.212639 29.732930 40.327068 -1.019858 0.741739 0.109339 -0.031177 -482027.000000 0 0 1
-15.562690 22.423039 29.686530 40.327163 -0.964075 0.743443 0.082622 -0.029887 -345047.000000 0 0 1
-15.318890 21.039139 29.938280 39.668809 -0.941450 0.715591 0.053141 -0.036970 792697.000000 0 0 1
-16.559090 20.334839 30.144200 39.954749 -0.887384 0.715968 0.054598 -0.040000 858929.000000 0 0 1
-16.275290 18.806839 30.232200 39.148029 -0.857434 0.688416 0.047478 -0.046021 -124870.000000 0 0 1
-15.931590 18.240539 28.949120 37.743667 -0.852864 0.696655 0.066255 -0.038900 214571.000000 0 0 1
-15.400890 16.901639 29.048500 36.968475 -0.831824 0.666866 0.058099 -0.045320 99686.900000 0 0 1
-14.953990 16.406239 27.663970 35.469448 -0.831674 0.676230 0.056599 -0.033664 -63896.300000 0 0 1
-13.792790 17.020539 27.158330 34.892903 -0.889769 0.678789 0.039431 -0.029577 -435812.000000 0 0 1
-13.364490 16.378439 26.029400 33.531963 -0.886387 0.682091 0.036938 -0.018459 -363129.000000 0 0 1
-12.166890 16.999639 25.319940 32.834742 -0.949601 0.690178 0.045374 -0.012348 -399984.000000 0 0 1
-12.405190 18.148739 24.485450 32.905968 -0.971210 0.731604 0.035495 -0.001675 -236574.000000 0 0 1
-12.865690 19.316139 25.105590 34.189616 -0.983214 0.746155 0.033159 -0.009041 -15433.100000 0 0 1
-11.778490 20.134039 25.847510 34.816751 -1.041476 0.734170 0.036589 -0.014266 94583.400000 0 0 1
-11.452090 19.755039 27.159330 35.482970 -1.045434 0.699105 0.054618 -0.023341 422687.000000 0 0 1
-12.419190 20.242239 28.135340 36.818228 -1.020489 0.701045 0.064991 -0.033407 335868.000000 0 0 1
-12.077390 19.997039 29.602950 37.710470 -1.027471 0.668090 0.061088 -0.040426 357864.000000 0 0 1
-10.802690 20.544739 29.936240 37.880904 -1.086712 0.659543 0.055588 -0.039121 269905.000000 0 0 1
-10.731990 20.647839 31.342750 39.036865 -1.091463 0.638650 0.046934 -0.033820 -45018.000000 0 0 1
-9.458690 21.333339 31.895287 39.520723 -1.153465 0.631654 0.039761 -0.029806 -274846.000000 0 0 1
-8.386090 20.456539 32.070791 38.952948 -1.181745 0.603558 0.057309 -0.034584 -1141190.000000 0 0 1
-7.378690 21.156739 32.703344 39.642924 -1.235224 0.600686 0.053482 -0.022314 -917410.000000 0 0 1
-6.284990 20.210439 33.204427 39.376350 -1.269299 0.567480 0.065094 -0.020739 -590111.000000 0 0 1
-6.684090 19.278039 -33.600742 39.310682 -1.237046 2.595862 0.072953 -0.032137 234958.000000 0 0 1
-5.571390 18.651039 -32.972772 38.289755 -1.280517 2.608301 0.058202 -0.034603 55445.900000 0 0 1
-4.759390 17.659639 -33.803002 38.433808 -1.307544 2.645632 0.041132 -0.032554 -624012.000000 0 0 1
-5.335890 16.423539 33.730961 37.894354 -1.256661 0.473163 0.042967 -0.027346 -372091.000000 0 0 1
-4.682590 15.701039 32.686364 36.562928 -1.280960 0.464656 0.037752 -0.020895 -188255.000000 0 0 1
-5.344190 14.376739 32.358190 35.809265 -1.214900 0.442635 0.055250 -0.029312 -228396.000000 0 0 1
-5.032090 13.413039 33.384755 36.328686 -1.211882 0.405351 0.064878 -0.026055 188393.000000 0 0 1
-5.581690 12.203239 32.936003 35.564794 -1.141811 0.386897 0.063360 -0.019522 104495.000000 0 0 1
-4.683890 11.107639 33.526767 35.628115 -1.171740 0.345164 0.085244 -0.024356 -38468.800000 0 0 1
-4.854690 10.783839 -32.953592 35.011404 -1.147791 2.797034 0.092420 -0.028930 -524486.000000 0 0 1
-3.934590 9.802739 -32.608202 34.276369 -1.189104 2.828326 0.103471 -0.027789 -236981.000000 0 0 1
-4.009890 9.266839 -31.190602 32.784252 -1.162410 2.828514 0.094194 -0.024368 199984.000000 0 0 1
-5.013090 8.292939 -30.904762 32.388396 -1.027074 2.837745 0.107613 -0.017893 192937.000000 0 0 1
-5.595090 8.631739 -29.646652 31.380502 -0.995688 2.807620 0.121609 -0.017691 -370341.000000 0 0 1
-6.639690 7.600439 -29.267552 30.958710 -0.852764 2.809536 0.113388 -0.023777 -511894.000000 0 0 1
-6.130190 6.578839 -28.406782 29.796067 -0.820685 2.835020 0.118385 -0.024292 695449.000000 0 0 1
-7.180190 5.701739 -27.998922 29.461917 -0.671129 2.825132 0.120893 -0.042040 -29948.800000 0 0 1
-6.836390 5.150039 -26.622542 27.964600 -0.645627 2.830529 0.102553 -0.040443 -45250.600000 0 0 1
-7.040190 6.074339 -25.563662 27.202255 -0.711884 2.792731 0.082573 -0.025252 954780.000000 0 0 1
-5.806490 6.751939 -25.204112 26.731091 -0.860541 2.801957 0.080191 -0.027598 476786.000000 0 0 1
-5.852790 7.853839 -24.162802 26.072570 -0.930365 2.756469 0.047442 -0.012186 -67904.400000 0 0 1
-6.159990 7.364539 -22.852402 24.787379 -0.874228 2.743848 0.033880 -0.003579 -599961.000000 0 1 0
-7.512590 7.507439 -22.528602 24.906596 -0.785055 2.701057 0.043244 -0.003277 -425049.000000 0 1 0
-7.668490 7.621439 -20.979002 23.601072 -0.782321 2.665735 0.037450 -0.004887 172714.000000 0 1 0
-7.088190 8.878339 -20.532902 23.466303 -0.897051 2.636222 0.022425 -0.000137 175239.000000 0 1 0
-6.937790 9.074839 -19.118202 22.270861 -0.918074 2.603017 0.023730 -0.001704 -471845.000000 0 1 0
-8.205890 9.132639 -18.260102 22.003932 -0.838798 2.549646 0.019762 -0.004075 -662401.000000 0 1 0
-7.976790 9.294839 -16.875002 20.851592 -0.861564 2.513740 0.011992 -0.004559 -692982.000000 0 1 0
-9.067490 9.583639 -16.066902 20.789681 -0.813065 2.454086 0.010351 -0.007148 -519771.000000 0 1 0
-9.551990 11.098639 -16.182902 21.824450 -0.860155 2.406104 0.021538 -0.010742 -153739.000000 0 1 0
-8.587990 12.096939 -15.909102 21.752908 -0.953436 2.391103 0.005441 -0.005010 -17876.600000 0 1 0
-9.189890 13.400739 -16.046102 22.836621 -0.969681 2.349908 0.038045 -0.014168 57163.900000 0 1 0
-8.123490 14.502139 -15.903902 23.005156 -1.060188 2.334109 0.055670 -0.010263 162400.000000 0 1 0
-7.612890 14.735839 -14.605302 22.100133 -1.093938 2.292773 0.047301 -0.002587 26909.000000 0 1 0
-8.562390 15.423439 -13.829502 22.415444 -1.064004 2.235674 0.046381 -0.011498 -936490.000000 0 1 0
-8.048690 16.177639 -12.540902 21.994809 -1.109135 2.177516 0.054436 -0.018292 175219.000000 0 1 0
-7.427290 17.441639 -12.747202 22.844399 -1.168217 2.162771 0.053650 -0.015976 156010.000000 0 1 0
-6.320390 17.468139 -13.629902 23.040344 -1.223627 2.203797 0.074331 -0.012218 -535479.000000 0 1 0
-6.036690 18.828239 -14.299802 24.401405 -1.260532 2.196939 0.102035 -0.004528 189325.000000 0 1 0
-5.384490 19.765639 -13.455702 24.509776 -1.304833 2.151956 0.098532 -0.014975 -120661.000000 0 1 0
-5.578790 21.141839 -13.819402 25.866506 -1.312803 2.134427 0.106543 -0.015115 -38156.500000 0 0 1
-4.907890 22.162839 -12.867202 26.092982 -1.352866 2.086479 0.111650 -0.018153 -634619.000000 0 0 1
-5.108890 23.542839 -13.063002 27.404526 -1.357106 2.067663 0.106520 -0.023942 1383640.000000 0 0 1
-6.491390 24.008039 -12.955202 28.042135 -1.306727 2.051035 0.097667 -0.021346 1450640.000000 0 0 1
-7.240390 23.907439 -11.643902 27.560286 -1.276726 2.006985 0.067098 -0.027258 -504845.000000 0 0 1
-7.501990 22.546939 -11.272202 26.300320 -1.249591 2.013734 0.071531 -0.022509 205895.000000 0 0 1
-8.318690 22.397839 -10.098002 25.939033 -1.215180 1.970665 0.084183 -0.028662 408567.000000 0 0 1
-7.569790 22.800939 -8.808202 25.588454 -1.250251 1.922210 0.075505 -0.031802 118842.000000 0 0 1
-7.403590 24.220239 -8.703502 26.780293 -1.274139 1.901804 0.076839 -0.028343 -136864.000000 0 0 1
-6.747790 24.622839 -7.513302 26.613278 -1.303317 1.857002 0.070168 -0.029394 163122.000000 0 0 1
-6.870990 26.141939 -7.267902 27.989889 -1.313776 1.833468 0.078658 -0.030539 173794.000000 0 0 1
-6.065190 26.999639 -8.074902 28.826569 -1.349825 1.854716 0.072900 -0.031343 -77366.200000 0 0 1
-6.355790 27.056939 -9.479602 29.365573 -1.340075 1.899497 0.079261 -0.033745 94760.800000 0 0 1
-5.747090 28.311039 -10.158102 30.622394 -1.370520 1.908924 0.077669 -0.030567 958944.000000 0 0 1
-6.698990 29.397639 -10.043502 31.780019 -1.346747 1.892340 0.080898 -0.026592 547568.000000 0 0 1
-7.613790 29.457539 -11.117102 32.392999 -1.317865 1.921112 0.101269 -0.032361 -249332.000000 0 0 1
-8.799890 30.402939 -10.863102 33.463170 -1.289054 1.901415 0.107027 -0.031454 -599681.000000 0 0 1
-9.765090 29.825639 -10.057302 32.955653 -1.254390 1.880920 0.110195 -0.021848 -803654.000000 0 0 1
-10.912290 30.625839 -10.131202 34.053801 -1.228511 1.872875 0.098624 -0.033181 -140244.000000 0 0 1
-12.187890 30.231339 -9.380502 33.918614 -1.187574 1.851008 0.105974 -0.026130 -8098.790000 0 0 1
-12.785990 29.058739 -9.849502 33.240105 -1.156285 1.871627 0.123385 -0.035753 -136747.000000 0 0 1
-14.037790 28.911839 -9.198802 33.430105 -1.118785 1.849558 0.129577 -0.034862 145277.000000 0 0 1
-14.839290 27.713539 -9.658202 32.886557 -1.079190 1.868873 0.135179 -0.031762 13769.600000 0 0 1
-14.468790 26.495239 -9.079302 31.524234 -1.070960 1.862945 0.138368 -0.038999 -215556.000000 0 0 1
-15.527090 25.628739 -9.342702 31.388037 -1.026089 1.873028 0.155670 -0.041536 -132182.000000 0 0 1
-15.299990 24.175239 -8.900502 29.962490 -1.006552 1.872403 0.141637 -0.036811 -178611.000000 0 0 1
-14.198790 23.485039 -9.411502 29.012567 -1.027010 1.901167 0.142401 -0.038502 -167798.000000 0 0 1
-14.324090 22.152039 -8.947202 27.855786 -0.996796 1.897790 0.123998 -0.036400 -113223.000000 0 0 1
-13.314790 21.146839 -9.498902 26.733903 -1.008871 1.934045 0.137238 -0.038889 -250975.000000 0 0 1
-13.502690 21.002639 -10.931802 27.256885 -0.999425 1.983476 0.134281 -0.026948 114607.000000 0 0 1
-13.127390 19.739039 -11.329502 26.273859 -0.983916 2.016628 0.123127 -0.023865 -245093.000000 0 0 1
-13.769190 19.386839 -12.647702 26.933334 -0.953235 2.059626 0.113358 -0.020918 335152.000000 0 0 1
-15.155190 19.084439 -12.610802 27.439532 -0.899656 2.048324 0.119548 -0.020252 -83007.000000 0 0 1
-15.529390 18.343039 -13.754402 27.691381 -0.868274 2.090593 0.116035 -0.018792 -1036180.000000 0 0 1
-16.977290 18.362839 -14.130502 28.724437 -0.824584 2.085105 0.101926 -0.005206 -1017940.000000 0 0 1
-17.423190 19.650839 -14.450402 29.975609 -0.845413 2.073814 0.075760 -0.007433 1451880.000000 0 0 1
-18.813590 19.681139 -14.923002 31.048259 -0.807931 2.072179 0.066798 -0.003815 1610080.000000 0 0 1
-19.260790 21.071939 -15.431102 32.451865 -0.830273 2.066337 0.067101 -0.007996 7919.360000 0 0 1
-19.897690 21.839539 -14.420902 32.876221 -0.831890 2.024884 0.079771 -0.028721 235987.000000 0 0 1
-19.980890 23.204239 -14.828302 34.022804 -0.859900 2.021761 0.080742 -0.017297 -27535.400000 0 0 1
-20.792890 24.090939 -13.854502 34.708282 -0.858746 1.981408 0.075882 -0.008281 -24600.100000 0 0 1
-22.179490 23.808039 -13.860302 35.367506 -0.820796 1.973485 0.110999 -0.013653 65974.200000 0 0 1
-22.743590 24.574639 -12.805202 35.849086 -0.824075 1.936062 0.115397 -0.030785 -263735.000000 0 0 1
-26.441890 -0.899161 3.156798 26.644838 0.033992 1.452040 0.215706 -0.051269 -27944.400000 0 0 1
-26.794990 -0.361861 4.429898 27.161119 0.013504 1.406967 0.215393 -0.050552 -364051.000000 0 0 1
-28.121700 -0.567561 4.810498 28.535820 0.020180 1.401410 0.200120 -0.053644 -402919.000000 0 0 1
-28.490570 0.300639 6.046198 29.126611 -0.010552 1.361693 0.209718 -0.049375 -184211.000000 0 0 1
-28.960100 1.627639 5.729098 29.566182 -0.056144 1.375791 0.232108 -0.059243 229005.000000 0 0 1
-29.389090 2.389239 6.833598 30.267559 -0.081118 1.343060 0.232486 -0.044433 -338548.000000 0 0 1
-28.330110 2.886339 7.846698 29.538056 -0.101532 1.301921 0.235482 -0.047330 -446367.000000 0 0 1
-27.752780 1.829939 8.581198 29.106742 -0.065842 1.271531 0.214064 -0.056327 369706.000000 0 0 1
-26.784890 2.458939 9.426998 28.501666 -0.091547 1.233695 0.196123 -0.060178 147679.000000 0 0 1
-25.795990 1.450839 10.117898 27.747250 -0.056184 1.197545 0.170426 -0.047876 309573.000000 0 0 1
-24.809190 0.948939 9.202598 26.477994 -0.038231 1.215832 0.185295 -0.049285 617355.000000 0 0 1
-25.189170 -0.242461 8.537798 26.597877 0.009625 1.244016 0.160565 -0.043483 -687590.000000 0 0 1
-24.029190 -0.967561 7.844498 25.295736 0.040244 1.255486 0.156879 -0.049848 -222159.000000 0 0 1
-23.010190 -1.302461 8.776398 24.661516 0.056543 1.206947 0.146882 -0.064304 395732.000000 0 1 0
-21.863790 -1.777861 8.100598 23.383879 0.081137 1.217046 0.157008 -0.052506 589529.000000 0 1 0
-20.673190 -2.276261 9.001298 22.662425 0.109665 1.162343 0.120934 -0.036579 1400590.000000 0 1 0
-19.823190 -1.244961 9.661098 22.087227 0.062721 1.118084 0.097292 -0.033704 1605880.000000 0 1 0
-20.467990 -0.662761 10.780998 23.143201 0.032369 1.086214 0.117980 -0.034277 -578639.000000 0 1 0
-20.082090 0.799839 11.019498 22.920720 -0.039807 1.069268 0.090223 -0.033853 -497366.000000 0 1 0
-20.393390 1.794639 10.043598 22.803178 -0.087775 1.114699 0.094649 -0.031796 423436.000000 0 1 0
-21.779790 2.069739 10.068798 24.083682 -0.094746 1.139471 0.122016 -0.040497 -179631.000000 0 1 0
-22.189890 3.434039 9.404598 24.343999 -0.153539 1.174157 0.115225 -0.051685 -295872.000000 0 1 0
-21.860690 4.480439 10.306698 24.580320 -0.202155 1.138115 0.083763 -0.050944 466937.000000 0 1 0
-22.364890 5.751639 9.937598 25.140117 -0.251718 1.164414 0.070569 -0.041744 -266098.000000 0 0 1
-22.556190 6.877239 10.971498 26.008689 -0.295940 1.135323 0.078678 -0.042275 152962.000000 0 0 1
-23.676690 6.660139 11.817598 27.287336 -0.274209 1.122889 0.083557 -0.032895 422174.000000 0 0 1
-23.826090 7.662839 12.807498 28.114652 -0.311168 1.097812 0.103301 -0.028549 551057.000000 0 0 1
-24.798090 7.184739 13.977498 29.358750 -0.282008 1.074590 0.118347 -0.020182 -156062.000000 0 0 1
-26.118710 7.028639 13.612898 30.280353 -0.262876 1.104521 0.134705 -0.023682 -744502.000000 0 0 1
-26.959440 6.561939 14.656498 31.379665 -0.238758 1.084822 0.130100 -0.024670 997367.000000 0 0 1
-28.465640 6.437939 14.219498 32.464347 -0.222423 1.117420 0.139374 -0.014058 661595.000000 0 0 1
-28.749250 5.636339 13.086098 32.086347 -0.193596 1.150709 0.156824 -0.003246 -207840.000000 0 0 1
-30.097200 5.736839 12.714498 33.172447 -0.188351 1.177446 0.181743 -0.025125 -401459.000000 0 0 1
-30.560960 4.685039 11.679998 33.050631 -0.152117 1.209596 0.206799 -0.030421 -87765.600000 0 0 1
-30.869170 3.427839 12.233098 33.381198 -0.110591 1.195588 0.192403 -0.025673 487465.000000 0 0 1
-31.479540 2.528639 11.277998 33.534291 -0.080154 1.227798 0.181399 -0.021810 341620.000000 0 0 1
-32.646580 1.654439 11.826498 34.762083 -0.050634 1.223653 0.160700 -0.010268 361431.000000 0 0 1
-32.230230 0.559739 12.639698 34.624601 -0.017365 1.197110 0.155378 -0.006482 -645417.000000 0 0 1
-33.353580 0.022239 13.231598 35.882265 -0.000667 1.193132 0.143160 -0.006761 -639715.000000 0 0 1
-33.197200 -1.109061 14.318098 36.170320 0.033396 1.163801 0.130107 -0.014991 -209362.000000 0 0 1
-33.025100 -2.437361 13.775098 35.865739 0.073670 1.176592 0.139845 -0.016825 183711.000000 0 0 1
-33.270910 -3.329461 14.808198 36.569406 0.099739 1.153890 0.143642 -0.015871 -424913.000000 0 0 1
-33.288690 -4.758861 14.380498 36.572973 0.141995 1.166687 0.136373 -0.017518 468352.000000 0 0 1
-34.414124 -5.081861 13.549198 37.332800 0.146608 1.199386 0.105731 -0.025692 608027.000000 0 0 1
-34.295297 -6.397161 13.063598 37.252498 0.184412 1.212502 0.117573 -0.028186 -472780.000000 0 0 1
-35.434594 -6.824261 12.086798 38.056164 0.190258 1.247595 0.117285 -0.022061 819787.000000 0 0 1
-36.784530 -6.959061 12.498298 39.468185 0.186975 1.248582 0.103659 -0.021395 726075.000000 0 0 1
37.355582 -5.740361 12.966298 39.956428 -0.152475 1.240302 0.103839 -0.026180 -228294.000000 0 0 1
35.856252 -5.447761 12.666998 38.416166 -0.150780 1.234778 0.120085 -0.033387 595775.000000 0 0 1
34.879112 -6.132061 13.416598 37.870302 -0.174030 1.208655 0.117628 -0.032551 -118720.000000 0 0 1
33.611252 -5.923661 12.828398 36.460579 -0.174449 1.211257 0.121065 -0.034623 349544.000000 0 0 1
32.567182 -7.048861 13.142298 35.819378 -0.213153 1.195117 0.096084 -0.030845 -162280.000000 0 0 1
32.032762 -6.989361 14.407898 35.812520 -0.214827 1.156753 0.106434 -0.025424 -97397.700000 0 0 1
31.220772 -8.113161 14.658198 35.431946 -0.254241 1.144282 0.100041 -0.019087 -252796.000000 0 0 1
30.605582 -8.052261 16.040798 35.480245 -0.257267 1.101672 0.088329 -0.012631 -725830.000000 0 0 1
31.573412 -8.274361 16.979598 36.792012 -0.256304 1.091108 0.076784 -0.008396 -323658.000000 0 0 1
31.033152 -8.206561 18.305598 36.952661 -0.258527 1.052524 0.068750 -0.013615 14994.400000 0 0 1
31.965082 -8.908761 19.307598 38.391612 -0.271805 1.043832 0.071326 -0.018614 719939.000000 0 0 1
33.127252 -8.208361 19.766298 39.439810 -0.242891 1.045839 0.074227 -0.018542 333645.000000 0 0 1
34.303542 -8.763161 19.215298 40.283417 -0.250110 1.073555 0.057706 -0.011536 -627963.000000 0 0 1
35.563552 -8.103661 19.744798 41.476411 -0.224039 1.074640 0.061484 -0.010030 -539902.000000 0 0 1
35.844592 -8.370161 21.097298 42.426294 -0.229402 1.050348 0.064648 -0.017592 -147971.000000 0 0 1
37.014672 -7.679461 21.478598 43.478619 -0.204569 1.054108 0.054394 -0.016889 -34623.800000 0 0 1
-37.223580 -8.206461 22.860498 44.447084 0.216993 1.030569 0.062174 -0.014223 -15615.300000 0 0 1
36.580252 -7.873861 23.876198 44.386771 -0.212014 1.002837 0.066877 -0.018512 229376.000000 0 0 1
36.608962 -8.747161 24.950698 45.158236 -0.234538 0.985415 0.075252 -0.023816 -70816.800000 0 0 1
36.041892 -8.164161 26.240298 45.323557 -0.222759 0.953350 0.079213 -0.020653 340725.000000 0 0 1
37.089042 -7.772361 27.132398 46.606584 -0.206570 0.949416 0.074915 -0.027201 97788.000000 0 0 1
36.653352 -7.062961 28.317498 46.853328 -0.190363 0.921801 0.070105 -0.031021 -794564.000000 0 0 1
-36.996320 -6.458661 29.149698 47.541002 0.172834 0.910756 0.079281 -0.029043 -111764.000000 0 0 1
-36.238210 -7.439261 29.872798 47.549285 0.202475 0.891496 0.081656 -0.031840 326540.000000 0 0 1
-34.914221 -7.028961 30.183598 46.684673 0.198665 0.867754 0.074520 -0.040145 609965.000000 0 0 1
-34.363007 -7.587161 31.521098 47.243633 0.217308 0.840349 0.070958 -0.039994 25148.200000 0 0 1
-34.292831 -9.009461 31.532798 47.449826 0.256915 0.843904 0.076787 -0.040047 105326.000000 0 0 1
-33.710150 -9.534261 32.704498 47.925573 0.275632 0.819753 0.067126 -0.038230 -323744.000000 0 0 1
-33.894280 -11.076861 32.836198 48.474065 0.315865 0.826578 0.082553 -0.035056 334253.000000 0 0 1
-35.289406 -11.327261 32.966098 49.602547 0.310593 0.843831 0.071820 -0.031979 251026.000000 0 0 1
-35.609276 -12.683261 32.712898 49.990192 0.342168 0.857426 0.065291 -0.022388 -59302.300000 0 0 1
-37.128560 -12.852961 32.871298 51.227442 0.333263 0.874118 0.074179 -0.021339 -123208.000000 0 0 1
37.166942 -14.195061 32.907398 51.631175 -0.364830 0.879735 0.072866 -0.027745 -531159.000000 0 0 1
35.880672 -14.349061 33.419198 51.089735 -0.380429 0.857768 0.064598 -0.022291 -410239.000000 0 0 1
35.537312 -15.864061 33.535798 51.373327 -0.419861 0.859540 0.046405 -0.008956 111462.000000 0 0 1
36.219602 -16.475961 -33.161853 51.797928 -0.426914 2.265576 0.052338 -0.025212 364631.000000 0 0 1
35.952182 -17.852261 -33.014453 51.973231 -0.460888 2.259090 0.045741 -0.022268 -73364.900000 0 0 1
36.638992 -18.551561 -31.795853 51.937967 -0.468702 2.229622 0.048835 -0.012619 276998.000000 0 0 1
35.709762 -18.600861 -30.746053 50.660625 -0.480220 2.222954 0.061465 -0.015140 -69487.200000 0 0 1
36.301122 -19.335761 -29.651853 50.703802 -0.489424 2.195436 0.058639 -0.011077 -737795.000000 0 0 1
35.315072 -19.438261 -28.468853 49.350541 -0.503169 2.185688 0.077812 -0.015191 914624.000000 0 0 1
34.040302 -20.063961 -28.636553 48.799148 -0.532602 2.197928 0.074218 -0.009865 635896.000000 0 0 1
33.195452 -19.354561 -29.516853 48.453913 -0.527862 2.225815 0.058339 -0.006522 -770239.000000 0 0 1
31.774942 -20.018961 -29.633653 47.838887 -0.562204 2.238834 0.063338 -0.002000 588689.000000 0 0 1
30.745492 -19.243661 -30.186353 47.189190 -0.559248 2.264888 0.054761 0.003106 29667.100000 0 0 1
29.586402 -20.048761 -30.317653 46.866492 -0.595557 2.274301 0.053295 0.003375 428239.000000 0 0 1
28.517702 -19.456361 -31.307153 46.604154 -0.598717 2.307389 0.041506 0.009250 260594.000000 0 0 1
28.837002 -19.560161 -32.674353 47.768043 -0.596014 2.324057 0.030838 0.008774 -675171.000000 0 0 1
27.806102 -19.323161 -33.568253 47.680095 -0.607312 2.351854 0.062458 0.005301 -542770.000000 0 0 1
28.237202 -19.467261 32.771398 47.437099 -0.603589 0.808147 0.065813 -0.006127 18214.900000 0 0 1
28.885202 -18.265361 32.375098 47.075740 -0.563862 0.812448 0.042207 -0.003319 136569.000000 0 0 1
29.104202 -18.242061 30.974698 46.252128 -0.559881 0.837002 0.038089 -0.002266 -603261.000000 0 0 1
28.030502 -17.570061 30.137798 44.751570 -0.559907 0.831935 0.033959 0.006496 -596379.000000 0 0 1
27.871502 -16.241361 30.450398 44.360221 -0.527619 0.814221 0.040236 -0.000923 64258.600000 0 0 1
27.266102 -15.492461 29.453898 43.023119 -0.516705 0.816733 0.037910 0.002699 -250038.000000 0 0 1
26.771402 -14.126861 30.017998 42.630463 -0.485549 0.789579 0.040173 -0.006085 244724.000000 0 0 1
27.871202 -13.308961 30.414498 43.347135 -0.445500 0.793086 0.052724 0.005793 660359.000000 0 0 1
27.515302 -11.996361 30.788598 42.999329 -0.411141 0.772705 0.063208 -0.013485 140818.000000 0 0 1
28.855202 -11.237161 30.930398 43.767408 -0.371364 0.785974 0.078782 -0.018738 311193.000000 0 0 1
29.391702 -10.828961 29.689398 43.157837 -0.353004 0.812169 0.069055 -0.018592 -678545.000000 0 0 1
30.785862 -10.797361 29.713198 44.127389 -0.337320 0.832065 0.074173 -0.012821 -668893.000000 0 0 1
31.265682 -10.412661 28.346898 43.468529 -0.321485 0.860413 0.081225 -0.014319 -343836.000000 0 0 1
31.272422 -9.032361 28.171098 43.048330 -0.281176 0.857399 0.070302 -0.013998 -45593.300000 0 0 1
31.672252 -8.720061 26.870698 42.440611 -0.268665 0.885198 0.063318 -0.015222 10497.200000 0 0 1
31.712392 -7.190161 26.646598 42.040640 -0.222961 0.884302 0.056922 -0.010819 71452.600000 0 0 1
30.442912 -6.592961 26.512298 40.904034 -0.213274 0.865633 0.059777 -0.010828 -303946.000000 0 0 1
30.591792 -5.232961 26.188898 40.609113 -0.169418 0.869901 0.063670 -0.013051 -205760.000000 0 0 1
29.260302 -4.495361 26.083198 39.455124 -0.152442 0.848532 0.063905 -0.006571 -193821.000000 0 0 1
28.457002 -4.949761 25.024698 38.216968 -0.172215 0.856870 0.076965 -0.004080 -193239.000000 0 0 1
27.160602 -4.404261 25.100798 37.244408 -0.160757 0.831256 0.079764 -0.006533 81984.500000 0 0 1
26.293502 -4.607861 23.817298 35.774912 -0.173485 0.842292 0.085666 0.002960 374597.000000 0 0 1
26.884302 -4.015161 22.648598 35.381439 -0.148254 0.876133 0.088186 0.009958 904524.000000 0 0 1
25.896502 -4.125261 21.616998 33.984426 -0.157971 0.881382 0.090526 0.003456 569553.000000 0 0 1
26.285902 -3.335861 20.348498 33.408652 -0.126232 0.915898 0.097334 0.003682 78446.700000 0 0 1
26.057902 -1.945361 20.437598 33.173696 -0.074517 0.907042 0.080625 0.011415 189087.000000 0 0 1
26.469002 -1.209361 19.272098 32.764072 -0.045658 0.941955 0.086243 0.005312 -918486.000000 0 0 1
25.342702 -0.433061 18.643798 31.464763 -0.017087 0.936601 0.087093 -0.008130 -1135310.000000 0 0 1
24.422702 -1.243561 18.017898 30.375311 -0.050874 0.935798 0.082701 -0.005609 -1045880.000000 0 0 1
23.321402 -0.489561 17.608998 29.226774 -0.020989 0.924172 0.101042 -0.013055 -404604.000000 0 0 1
22.212502 -1.403061 17.062598 28.044538 -0.063082 0.916740 0.121967 -0.017038 -252932.000000 0 0 1
22.429002 -1.981961 15.828398 27.523200 -0.088137 0.958079 0.153061 -0.021959 -570900.000000 0 0 1
21.290402 -2.649961 15.401798 26.410584 -0.123831 0.948174 0.161031 -0.029049 -558455.000000 0 0 1
21.400602 -3.151061 13.930598 25.728905 -0.146191 0.998650 0.179988 -0.039108 -706351.000000 0 0 1
20.441102 -4.067761 13.555698 24.862468 -0.196433 0.994136 0.188678 -0.039234 -150576.000000 0 1 0
20.468302 -4.365961 12.193198 24.221625 -0.210154 1.043266 0.176192 -0.040075 381416.000000 0 1 0
19.313202 -5.354961 11.763098 23.238887 -0.270475 1.040045 0.160021 -0.039638 471697.000000 0 1 0
19.406002 -6.627261 12.355398 23.940956 -0.329088 1.028531 0.165725 -0.046127 631491.000000 0 1 0
18.167802 -7.267861 12.128698 23.021646 -0.380541 1.015919 0.143614 -0.034349 -17443.600000 0 1 0
18.202202 -8.816761 12.456698 23.753416 -0.451073 1.018766 0.152081 -0.045816 6402.260000 0 1 0
19.082402 -9.557161 11.600698 24.291019 -0.464316 1.072908 0.136941 -0.048624 686849.000000 0 1 0
18.850902 -10.934061 11.775398 24.770349 -0.525605 1.075397 0.149266 -0.044342 -20539.200000 0 1 0
19.300602 -11.718761 10.531498 24.914957 -0.545675 1.134376 0.131384 -0.041965 156790.000000 0 1 0
18.578002 -11.323361 9.361798 23.685522 -0.547378 1.164452 0.110735 -0.036154 430902.000000 0 1 0
19.006002 -11.922661 8.179098 23.880444 -0.560259 1.221218 0.096764 -0.041507 109798.000000 0 1 0
18.499402 -11.055061 6.924698 22.636115 -0.538646 1.259898 0.079489 -0.027664 204297.000000 0 1 0
19.154302 -9.787461 6.914998 22.594222 -0.472393 1.259753 0.094081 -0.024949 689508.000000 0 1 0
19.254502 -9.313261 5.625598 22.116058 -0.450517 1.313603 0.052488 -0.028689 -656267.000000 0 1 0
20.039602 -7.997061 5.609398 22.293586 -0.379698 1.316448 0.095089 -0.018513 -462839.000000 0 1 0
20.341002 -7.581161 4.294798 22.128616 -0.356756 1.375473 0.093929 -0.030595 413497.000000 0 1 0
20.908802 -6.306961 4.303598 22.259307 -0.292962 1.376232 0.112946 -0.030406 -436074.000000 0 1 0
21.538702 -5.962561 2.911198 22.537589 -0.270067 1.441264 0.138988 -0.037660 -73130.600000 0 1 0
20.673402 -6.155661 1.798198 21.645213 -0.289398 1.487624 0.094424 -0.044993 518894.000000 0 1 0
21.180702 -5.461661 0.682998 21.884204 -0.252363 1.539582 0.106404 -0.034393 -50741.500000 0 1 0
-26.329830 -15.095861 0.325098 30.352111 0.520583 1.560085 0.120697 -0.004768 -478033.000000 0 0 1
-25.422690 -14.590661 -0.607802 29.318423 0.521024 1.591529 0.105685 0.003011 1006770.000000 0 0 1
-24.019790 -14.797861 -0.341002 28.214238 0.552152 1.582883 0.109775 0.008798 1435520.000000 0 0 1
-23.264090 -14.270061 0.909298 27.307129 0.550210 1.537491 0.139871 -0.015024 -431068.000000 0 0 1
-23.620590 -14.931461 2.094498 28.022628 0.563715 1.495983 0.123614 0.003340 210250.000000 0 0 1
-22.848090 -14.511161 3.217598 27.257328 0.565840 1.452475 0.123465 0.002916 437616.000000 0 0 1
-23.422490 -15.214861 4.461598 28.284463 0.576082 1.412394 0.136844 0.003690 160973.000000 0 0 1
-23.219590 -16.605661 4.357398 28.877054 0.620826 1.419323 0.174426 -0.016020 100877.000000 0 0 1
-23.776190 -17.272961 5.435998 29.886660 0.628279 1.387891 0.175708 -0.022328 -171379.000000 0 0 1
-24.076490 -18.780161 5.171998 30.969684 0.662439 1.403008 0.144397 -0.021159 -133702.000000 0 0 1
-24.588190 -19.350561 6.333698 31.923956 0.666755 1.371072 0.133229 -0.029836 10817.200000 0 0 1
-24.597690 -20.752561 6.185698 32.771603 0.700813 1.380905 0.118354 -0.032729 210618.000000 0 0 1
-25.492040 -21.545161 7.215998 34.148333 0.701685 1.357878 0.107620 -0.024757 458713.000000 0 0 1
-24.771390 -21.842561 8.434498 34.086067 0.722649 1.320752 0.101987 -0.018863 176108.000000 0 0 1
-25.464730 -22.592861 9.353798 35.304155 0.725710 1.302645 0.096292 -0.006628 -244700.000000 0 0 1
-24.437690 -23.073361 10.411398 35.184909 0.756690 1.270393 0.065564 -0.011450 339121.000000 0 0 1
-24.209890 -22.060561 11.380698 34.674304 0.738980 1.236381 0.076928 -0.011038 53253.400000 0 0 1
-23.184590 -22.361661 12.290098 34.476305 0.767332 1.206299 0.064620 -0.010476 -195938.000000 0 0 1
-23.374990 -21.446561 13.548098 34.494870 0.742400 1.167169 0.044824 -0.002234 492842.000000 0 0 1
-24.457690 -21.989561 14.324098 35.873377 0.732310 1.160047 0.047194 -0.005702 495144.000000 0 0 1
-24.874190 -21.150661 15.361598 36.083992 0.704671 1.131041 0.050546 0.004675 289550.000000 0 0 1
-26.191700 -21.634161 16.062998 37.577413 0.690391 1.129110 0.048574 -0.002961 1864140.000000 0 0 1
-27.455690 -21.492661 15.330798 38.089142 0.664173 1.156552 0.055280 -0.013054 1441410.000000 0 0 1
-27.701670 -22.562461 14.368998 38.508638 0.683508 1.188408 0.050329 -0.015369 -256322.000000 0 0 1
-28.879550 -23.494661 14.746698 40.043633 0.682943 1.193653 0.046672 -0.013955 -147076.000000 0 0 1
-28.736700 -24.300961 15.889498 40.851080 0.701959 1.171292 0.041242 -0.000331 -114637.000000 0 0 1
-29.500620 -25.514061 15.970798 42.146414 0.713061 1.182150 0.038712 -0.006084 -285494.000000 0 0 1
-29.192540 -26.655331 14.954698 42.265281 0.739999 1.209134 0.046537 -0.007765 -4418.930000 0 0 1
-29.659920 -26.456421 13.650698 42.023738 0.728373 1.239961 0.058939 -0.024939 333402.000000 0 0 1
-31.039710 -26.809201 13.536398 43.190634 0.712398 1.252014 0.107268 -0.044054 284265.000000 0 0 1
-31.532060 -27.060711 12.122998 43.284176 0.709233 1.286920 0.157663 -0.050651 -184532.000000 0 0 1
-31.166870 -28.369821 11.700998 43.739385 0.738452 1.299982 0.135237 -0.052177 133146.000000 0 0 1
-31.853970 -28.727621 10.527398 44.167609 0.733838 1.330129 0.157551 -0.042014 -96119.200000 0 0 1
-31.412410 -30.008511 9.779498 44.529639 0.762545 1.349374 0.133009 -0.047927 -298531.000000 0 0 1
-31.584250 -31.254171 10.464598 45.649708 0.780145 1.339503 0.125301 -0.034462 183549.000000 0 0 1
-31.003880 -32.376501 9.812398 45.888577 0.807052 1.355301 0.112157 -0.040979 -448883.000000 0 0 1
-31.016910 -33.656471 10.704598 47.004203 0.826189 1.341043 0.102093 -0.034515 105929.000000 0 0 1
-32.307960 33.599612 10.935598 47.878236 -0.804994 1.340358 0.097844 -0.030188 181652.000000 0 0 1
-32.246930 32.434237 11.706098 47.210983 -0.788294 1.320230 0.107254 -0.032358 -224368.000000 0 0 1
-33.560390 32.113332 12.469698 48.094274 -0.763368 1.308524 0.098896 -0.021959 1286880.000000 0 0 1
-34.764215 31.846820 11.708698 48.578433 -0.741629 1.327373 0.066622 -0.024150 1046300.000000 0 0 1
-35.396745 33.031191 11.240098 49.702403 -0.750842 1.342675 0.098274 -0.027342 1376930.000000 0 0 1
-36.903330 32.783102 10.691698 50.506434 -0.726342 1.357493 0.083186 -0.006951 2047480.000000 0 0 1
-37.011240 32.065616 9.476198 49.878191 -0.713924 1.379648 0.059181 -0.012347 1021130.000000 0 0 1
36.367712 32.262389 9.017398 49.444774 0.725651 1.387397 0.043981 -0.008935 1015980.000000 0 0 1
35.938972 31.689233 7.638398 48.519711 0.722641 1.412710 0.048689 -0.015354 -42154.800000 0 0 1
35.996682 30.276373 7.506698 47.631611 0.699297 1.412537 0.066888 -0.020084 -409.694000 0 0 1
35.790822 29.857733 6.174598 47.016942 0.695266 1.439089 0.084150 -0.022671 10684.400000 0 0 1
36.007362 28.349163 5.876398 46.203217 0.666959 1.443265 0.103965 -0.020933 286143.000000 0 0 1
35.177322 27.347793 6.505598 45.029641 0.660824 1.425815 0.084189 -0.019288 286219.000000 0 0 1
35.536092 27.017483 7.832698 45.322284 0.650050 1.397102 0.070167 -0.017692 -467233.000000 0 0 1
34.668332 25.931623 8.359498 44.093350 0.642215 1.380055 0.065875 -0.013326 -441755.000000 0 0 1
34.849902 24.740063 7.633698 43.414971 0.617342 1.394046 0.063353 -0.016226 459690.000000 0 0 1
33.677622 23.973473 7.861298 42.079801 0.618636 1.382873 0.061857 -0.019748 -209602.000000 0 0 1
33.857672 22.534123 7.274998 41.316513 0.587232 1.393794 0.072246 -0.012852 55381.500000 0 0 1
34.856782 21.713623 7.855198 41.811252 0.557115 1.381800 0.076202 -0.008767 222996.000000 0 0 1
36.151902 22.066323 7.346398 42.986652 0.548015 1.399054 0.084598 -0.021560 68929.700000 0 0 1
37.012892 20.770923 7.220898 43.052605 0.511387 1.402277 0.071502 -0.017809 -195977.000000 0 0 1
36.551492 19.900823 6.193398 42.076270 0.498580 1.423065 0.097680 -0.029019 -14717.800000 0 0 1
37.163192 18.639523 6.260398 42.044349 0.464894 1.421341 0.104240 -0.029353 -209598.000000 0 0 1
36.628442 17.516623 5.333198 40.950188 0.446076 1.440189 0.109415 -0.028826 -246685.000000 0 0 1
37.211552 17.386223 4.075298 41.274549 0.437087 1.471899 0.129811 -0.032977 -74759.800000 0 0 1
36.585662 16.275423 3.563498 40.200729 0.418570 1.482037 0.118353 -0.036227 -1055490.000000 0 0 1
37.229392 15.732723 2.268998 40.480793 0.399827 1.514716 0.156987 -0.029547 99555.700000 0 0 1
-36.304300 15.025023 2.459098 39.367507 -0.392400 1.508290 0.158644 -0.040664 1131100.000000 0 0 1
-35.130978 15.856523 2.680998 38.636805 -0.423980 1.501351 0.159424 -0.045810 341565.000000 0 0 1
-33.722650 15.246223 2.559498 37.097378 -0.424604 1.501747 0.179050 -0.050980 54476.500000 0 0 1
-33.434350 14.428323 3.676098 36.599808 -0.407399 1.470186 0.169246 -0.048707 -65951.500000 0 0 1
-32.058270 14.142223 3.659998 35.229685 -0.415463 1.466719 0.187447 -0.061880 -281338.000000 0 0 1
-31.630720 13.400923 4.979098 34.711361 -0.400742 1.426857 0.198141 -0.048329 -73882.000000 0 0 1
-32.013310 12.045923 5.103298 34.583231 -0.359891 1.422690 0.209586 -0.051419 347097.000000 0 0 1
-31.521470 11.582123 6.341098 34.175403 -0.352123 1.384169 0.185849 -0.033418 -44159.100000 0 0 1
-31.606020 9.974023 6.560298 33.785487 -0.305682 1.375380 0.205146 -0.036279 165787.000000 0 0 1
-32.884440 9.455823 6.891498 34.904036 -0.279993 1.372049 0.199312 -0.028387 238393.000000 0 0 1
-32.954510 7.976323 6.940098 34.609051 -0.237473 1.368899 0.216042 -0.032961 295335.000000 0 0 1
-34.420647 7.459823 6.955198 35.899925 -0.213425 1.375825 0.181659 -0.026554 291975.000000 0 0 1
-35.197208 7.601823 8.134998 36.916247 -0.212711 1.348609 0.164664 -0.023900 -356292.000000 0 0 1
-36.419620 6.982023 7.865498 37.907828 -0.189412 1.361788 0.123362 -0.026593 44331.800000 0 0 1
-37.117740 6.247723 9.087798 38.721424 -0.166759 1.333890 0.108146 -0.020657 465272.000000 0 0 1
36.994852 6.947123 10.159498 38.988422 0.185624 1.307176 0.107916 -0.022738 694327.000000 0 0 1
-36.787260 7.611623 11.004198 39.145008 -0.204030 1.285842 0.142423 -0.032007 230814.000000 0 0 1
37.261562 8.562723 11.964498 40.061122 0.225879 1.267512 0.126484 -0.030573 131383.000000 0 0 1
36.287712 8.008723 12.847198 39.319057 0.217219 1.237942 0.110121 -0.028805 837873.000000 0 0 1
35.719962 8.997923 13.695198 39.299323 0.246768 1.214843 0.128002 -0.034413 -207310.000000 0 0 1
34.947852 8.450823 14.917098 38.926708 0.237258 1.177527 0.122585 -0.028234 -267980.000000 0 0 1
33.623272 7.987023 14.795698 37.592947 0.233222 1.166278 0.115180 -0.033656 5549.100000 0 0 1
33.144412 7.694023 16.083098 37.635304 0.228096 1.129247 0.113710 -0.023685 -44225.400000 0 0 1
31.639622 7.371423 15.899398 36.168971 0.228898 1.115658 0.107678 -0.018116 -777156.000000 0 0 1
30.879092 8.548423 15.816798 35.731848 0.270072 1.112242 0.112618 -0.023606 -114344.000000 0 0 1
29.492802 8.338123 15.738598 34.453638 0.275527 1.096396 0.115113 -0.019615 195963.000000 0 0 1
28.743402 7.815023 17.025698 34.309360 0.265472 1.051533 0.110955 -0.022561 -675971.000000 0 0 1
28.841902 8.627423 18.139198 35.147095 0.290657 1.028512 0.134534 -0.037370 426519.000000 0 0 1
28.163302 8.233823 19.371898 35.160175 0.284433 0.987281 0.127137 -0.025678 171084.000000 0 0 1
28.712102 7.019923 20.207898 35.805353 0.239789 0.971112 0.115035 -0.024595 -214668.000000 0 0 1
27.939202 6.828523 21.350498 35.819988 0.239707 0.932224 0.089995 -0.010489 -345004.000000 0 0 1
28.412402 5.840523 22.230098 36.545227 0.202738 0.916892 0.075061 -0.012211 -371639.000000 0 0 1
27.574702 5.529123 23.506898 36.653918 0.197890 0.874579 0.070753 -0.005964 2173130.000000 0 0 1
26.176602 5.096623 23.376998 35.463702 0.192296 0.851067 0.048381 -0.010506 1898510.000000 0 0 1
25.225102 6.154623 23.262398 34.861502 0.239312 0.840245 0.074642 -0.005337 207351.000000 0 0 1
23.756602 5.720923 23.083398 33.614705 0.236315 0.813849 0.090138 -0.014835 -160792.000000 0 0 1
23.775502 5.178623 21.771798 32.651246 0.214464 0.840892 0.085414 -0.015493 1214270.000000 0 0 1
22.471302 4.885123 21.227798 31.296059 0.214063 0.825364 0.088768 -0.015956 661292.000000 0 0 1
21.497002 3.844823 21.844998 30.888634 0.176983 0.785241 0.090596 -0.021115 97802.600000 0 0 1
20.267902 3.730723 21.147198 29.528125 0.182033 0.772495 0.095168 -0.024546 258764.000000 0 0 1
19.208202 4.444423 21.735498 29.345184 0.227380 0.736709 0.111734 -0.025549 -604870.000000 0 0 1
17.837602 4.098723 21.152698 27.971704 0.225859 0.713283 0.146682 -0.031782 -336821.000000 0 0 1
17.248502 2.876023 21.584598 27.779079 0.165220 0.680896 0.149306 -0.037154 48156.900000 0 0 1
16.067002 2.713723 20.816398 26.435493 0.167321 0.664150 0.165842 -0.038131 -93839.300000 0 0 1
15.206202 1.519723 21.292598 26.209023 0.099610 0.622515 0.186214 -0.034411 -196356.000000 0 0 1
15.684202 0.286423 20.816698 26.065517 0.018260 0.645781 0.150809 -0.040695 603391.000000 0 0 1
15.021602 -0.608777 21.708998 26.406434 -0.040505 0.605689 0.181315 -0.041336 289751.000000 0 0 1
15.382602 -2.123077 21.451398 26.481964 -0.137152 0.626579 0.148643 -0.028758 151207.000000 0 0 1
14.684702 -2.654777 20.308998 25.202058 -0.178853 0.633692 0.150049 -0.019688 376739.000000 0 0 1
15.044002 -3.978877 20.019498 25.356139 -0.258562 0.660749 0.118266 -0.019060 -247107.000000 0 0 1
14.522202 -4.402177 18.635198 24.032148 -0.294330 0.683404 0.118769 -0.023989 545293.000000 0 1 0
13.128402 -4.699277 18.638998 23.277681 -0.343737 0.642293 0.131631 -0.026446 369241.000000 0 1 0
12.585402 -5.150177 17.398398 22.082141 -0.388428 0.663414 0.127007 -0.025360 -925253.000000 0 1 0
11.095702 -5.192477 17.302698 21.200467 -0.437698 0.616085 0.114017 -0.022125 -1226720.000000 0 1 0
10.400502 -6.037377 18.172398 21.791201 -0.525950 0.584600 0.105996 -0.011711 -954246.000000 0 1 0
9.027702 -5.835477 17.978798 20.947301 -0.573838 0.538874 0.082257 -0.024548 -616670.000000 0 1 0
8.278002 -6.619877 19.020698 21.774643 -0.674555 0.508399 0.077513 -0.023728 -535838.000000 0 1 0
8.256002 -8.012777 18.809498 22.049114 -0.770449 0.548950 0.073164 -0.026116 304895.000000 0 1 0
9.333002 -8.747177 19.404398 23.241100 -0.753008 0.582814 0.103134 -0.026496 554232.000000 0 1 0
9.346702 -10.218877 18.864798 23.402285 -0.829946 0.633249 0.114549 -0.036637 160064.000000 0 1 0
9.498402 -10.312977 17.468898 22.399544 -0.826492 0.676326 0.104816 -0.028978 -1606.580000 0 1 0
9.914202 -11.601477 17.068898 22.896135 -0.863659 0.729523 0.109080 -0.034836 217811.000000 0 1 0
9.816502 -11.829977 15.551598 21.866968 -0.878148 0.779605 0.101915 -0.028381 40875.600000 0 1 0
10.335702 -13.059477 15.176598 22.532329 -0.901301 0.831798 0.080887 -0.022460 -123131.000000 0 1 0
10.152802 -13.198977 13.781798 21.615512 -0.915113 0.879433 0.069713 -0.015350 -307341.000000 0 1 0
10.934102 -14.351477 13.120898 22.308686 -0.919735 0.942024 0.087726 -0.021739 543960.000000 0 1 0
12.255502 -14.053877 12.676398 22.547725 -0.853647 0.973749 0.074342 -0.024053 336135.000000 0 1 0
12.293802 -13.249077 11.466698 21.404691 -0.822780 1.005448 0.037314 -0.022519 -751178.000000 0 1 0
13.677902 -13.007677 10.831398 21.762442 -0.760288 1.049839 0.062358 -0.031656 -4284.460000 0 1 0
14.309602 -14.205477 10.423298 22.698138 -0.781747 1.093686 0.063433 -0.025349 -37593.200000 0 1 0
15.627202 -13.871077 10.007098 23.168044 -0.725935 1.124159 0.062305 -0.032921 678948.000000 0 1 0
16.504302 -15.106077 9.522198 24.315794 -0.741194 1.168421 0.055797 -0.030872 257425.000000 0 1 0
17.037102 -15.871277 10.536598 25.557391 -0.749987 1.145850 0.052701 -0.018394 -191215.000000 0 0 1
16.107302 -16.678677 11.219498 25.758506 -0.802824 1.120131 0.085783 -0.016929 -102332.000000 0 0 1
16.737502 -17.540177 12.339998 27.204363 -0.808811 1.099992 0.076753 -0.012595 214916.000000 0 0 1
17.747602 -18.452977 11.893198 28.230089 -0.804881 1.135923 0.089209 -0.018874 23409.300000 0 0 1
18.163002 -19.058677 13.021798 29.371671 -0.809457 1.111469 0.056338 -0.013154 -566998.000000 0 0 1
19.504402 -19.758477 12.731898 30.543745 -0.791869 1.140829 0.033953 -0.016747 222944.000000 0 0 1
20.585102 -18.807377 12.667398 30.625592 -0.740300 1.144368 0.046304 -0.019208 -345100.000000 0 0 1
21.762302 -19.458977 12.329198 31.690042 -0.729579 1.171190 0.036830 -0.023756 -480861.000000 0 0 1
22.631102 -18.807177 11.243998 31.500861 -0.693379 1.205804 0.048977 -0.022090 -657530.000000 0 0 1
22.221202 -18.911877 9.871198 30.803920 -0.705117 1.244589 0.046366 -0.022842 226413.000000 0 0 1
20.946102 -18.429077 9.463298 29.460552 -0.721561 1.243780 0.067325 -0.024125 328569.000000 0 0 1
20.778302 -16.893277 9.697198 28.480806 -0.682633 1.223367 0.116758 -0.039942 -226482.000000 0 0 1
21.402502 -16.018277 8.731798 28.122884 -0.642496 1.255091 0.111928 -0.032963 262771.000000 0 0 1
21.362402 -14.637877 9.025798 27.424163 -0.600735 1.235426 0.116323 -0.037140 -51555.400000 0 0 1
-35.713192 24.847239 8.146498 44.262657 -0.607864 1.385692 0.091558 -0.021683 -380131.000000 0 0 1
-34.974970 24.189339 9.086398 43.484886 -0.605079 1.360290 0.097874 -0.030914 -391771.000000 0 0 1
-33.861650 24.943639 9.496398 43.115868 -0.634892 1.348723 0.117495 -0.026881 -453659.000000 0 0 1
-32.702500 24.110439 10.114298 41.869629 -0.635301 1.326817 0.134395 -0.039206 82171.700000 0 0 1
-31.906760 23.473239 9.117698 40.646854 -0.634275 1.344556 0.139188 -0.039199 302903.000000 0 0 1
-31.107900 22.444439 9.684198 39.563089 -0.625012 1.323505 0.137400 -0.038280 215248.000000 0 0 1
-30.268720 21.660139 8.638298 38.209648 -0.621116 1.342748 0.134524 -0.047922 34698.700000 0 0 1
-31.047620 20.862039 7.767798 38.203639 -0.591642 1.366042 0.143762 -0.056028 187049.000000 0 0 1
-30.266580 19.988339 6.987398 36.938101 -0.583658 1.380485 0.156024 -0.061088 -197601.000000 0 0 1
-31.143430 19.212839 5.999298 37.081505 -0.552764 1.408295 0.147873 -0.053101 25212.000000 0 0 1
-31.928200 18.176739 6.598798 37.327576 -0.517540 1.393082 0.153716 -0.051195 336466.000000 0 0 1
-32.914070 17.725939 5.723698 37.819382 -0.494012 1.418870 0.119388 -0.046265 -615379.000000 0 0 1
-33.714410 16.555039 6.176098 38.064090 -0.456452 1.407821 0.117629 -0.030297 2254.130000 0 0 1
-34.544172 16.633439 7.361898 39.040603 -0.448748 1.381090 0.090541 -0.026085 931386.000000 0 0 1
-35.453749 15.530739 7.418198 39.410682 -0.412877 1.381439 0.098339 -0.026815 100660.000000 0 0 1
-36.366590 15.580839 8.646998 40.497679 -0.404779 1.355621 0.084543 -0.022209 -4943.830000 0 0 1
-37.324790 16.617039 8.649798 41.762243 -0.418856 1.362166 0.083377 -0.022265 92598.900000 0 0 1
36.679002 16.761039 9.829898 41.507934 0.428631 1.331705 0.094053 -0.018626 -218293.000000 0 0 1
35.898752 18.061439 9.932598 41.395562 0.466142 1.328489 0.079189 -0.018828 -54494.900000 0 0 1
34.668602 17.957539 9.227498 40.118972 0.477926 1.338715 0.082704 -0.021302 561652.000000 0 0 1
33.888912 19.191039 9.267298 40.032951 0.515266 1.337186 0.071283 -0.014276 937912.000000 0 0 1
32.460492 19.143739 8.644098 38.663766 0.532852 1.345320 0.056302 -0.017278 249237.000000 0 0 1
31.814732 20.381039 8.652498 38.761188 0.569750 1.345674 0.061385 -0.017079 129932.000000 0 0 1
30.402092 20.355739 8.440698 37.548485 0.589997 1.344064 0.031343 -0.008057 657840.000000 0 0 1
29.907372 20.267939 7.012398 36.802364 0.595596 1.379082 0.030790 0.000533 -899054.000000 0 0 1
29.955262 18.967239 6.424598 36.032616 0.564464 1.391538 0.052617 -0.004359 201763.000000 0 0 1
29.477002 18.763439 5.072098 35.308448 0.566858 1.426646 0.057171 -0.005854 -76060.800000 0 0 1
28.039502 19.231939 4.751398 34.331574 0.601191 1.431953 0.079910 -0.011489 -911658.000000 0 0 1
27.064102 18.338939 5.284098 33.116522 0.595541 1.410551 0.078011 -0.011094 828989.000000 0 0 1
25.692402 18.458039 4.916098 32.015103 0.622984 1.416631 0.100351 -0.014941 671067.000000 0 0 1
24.992502 19.787839 5.295198 32.314438 0.669691 1.406189 0.101932 -0.012298 -1229190.000000 0 0 1
25.477102 20.841939 4.534598 33.226974 0.685660 1.433896 0.077242 -0.014585 160119.000000 0 0 1
24.981602 22.121439 5.022098 33.744037 0.724751 1.421412 0.080640 -0.010135 86461.000000 0 0 1
25.886802 23.352639 4.730798 35.183132 0.733977 1.435926 0.046824 -0.007972 -154355.000000 0 0 1
27.130902 23.326739 5.364798 36.180156 0.710147 1.421967 0.053194 -0.013141 -245921.000000 0 0 1
28.040202 24.312539 4.931698 37.438939 0.714315 1.438686 0.076325 -0.011971 882382.000000 0 0 1
29.476702 24.084139 5.570298 38.470118 0.685055 1.425490 0.073645 -0.016819 1095980.000000 0 0 1
30.277162 22.958639 5.138398 38.343302 0.648781 1.436382 0.058462 -0.010789 523042.000000 0 0 1
30.777212 22.931539 3.792698 38.567822 0.640346 1.472299 0.073393 -0.015182 61418.600000 0 0 1
31.719472 24.061639 3.295198 39.949290 0.648967 1.488218 0.106819 -0.028820 -136778.000000 0 0 1
31.020472 25.301739 3.203198 40.158538 0.684209 1.490948 0.072691 -0.026697 -228851.000000 0 0 1
31.610002 26.198739 2.322698 41.121298 0.692064 1.514282 0.134342 -0.025309 -994130.000000 0 0 1
31.227332 27.686939 2.538098 41.810942 0.725376 1.510055 0.107553 -0.022070 802537.000000 0 0 1
29.932352 28.087539 2.080698 41.099695 0.753613 1.520149 0.132288 -0.026291 195795.000000 0 0 1
28.865102 27.684839 2.885798 40.099530 0.764530 1.498768 0.092199 -0.015407 -648292.000000 0 0 1
27.488302 28.254739 2.504398 39.499482 0.799147 1.507350 0.056950 -0.009972 11027.500000 0 0 1
27.437802 29.603939 2.760398 40.457954 0.823355 1.502514 0.047191 -0.024098 -83926.300000 0 0 1
26.115602 30.083339 2.731798 39.931125 0.855883 1.502330 0.045895 -0.011530 -169436.000000 0 0 1
26.005802 31.538539 3.281598 41.009147 0.881251 1.490690 0.056617 -0.026124 -159525.000000 0 0 1
26.106602 31.730339 4.682198 41.355678 0.882328 1.457335 0.070288 -0.055272 -90510.100000 0 0 1
27.391502 31.547139 5.225198 42.104859 0.855790 1.446376 0.076559 -0.055665 -661592.000000 0 0 1
27.554702 31.230239 6.765498 42.194330 0.847842 1.409760 0.111623 -0.070935 -434648.000000 0 0 1
27.005102 30.045039 7.330298 41.057438 0.838633 1.391296 0.108634 -0.067162 -56608.400000 0 0 1
27.585202 28.795839 7.026398 40.490913 0.806867 1.396383 0.082161 -0.066638 -531807.000000 0 0 1
26.779602 27.648339 7.616298 39.237556 0.801358 1.375449 0.096619 -0.061326 -535522.000000 0 0 1
25.540102 27.477639 7.002598 38.162205 0.821927 1.386255 0.073189 -0.060127 -340851.000000 0 0 1
24.882102 26.310639 7.492198 36.979749 0.813296 1.366781 0.081409 -0.038634 626393.000000 0 0 1
23.494602 25.983839 6.810098 35.686604 0.835665 1.378788 0.099855 -0.019258 679528.000000 0 0 1
23.449402 25.855039 5.389898 35.318671 0.834151 1.417590 0.063339 -0.016080 66503.700000 0 0 1
23.645302 27.041039 4.637798 36.219157 0.852293 1.442396 0.055828 -0.001451 -191649.000000 0 0 1
23.467302 26.626239 3.164798 35.632666 0.848376 1.481862 0.049566 0.002956 452870.000000 0 0 1
24.645802 26.099539 2.552298 35.987717 0.814038 1.499815 0.032370 0.022327 552822.000000 0 0 1
24.396102 25.938739 1.185398 35.628545 0.816036 1.537519 0.054973 0.018482 -369865.000000 0 0 1
25.502302 25.212239 0.466698 35.864220 0.779679 1.557783 0.064804 0.011400 -1425780.000000 0 0 1
26.720602 25.879639 0.447798 37.201436 0.769412 1.558759 0.052316 0.011999 226863.000000 0 0 1
27.720802 25.377439 -0.474802 37.585672 0.741294 1.583429 0.074704 0.008217 948155.000000 0 0 1
28.482102 24.078039 -0.019502 37.295878 0.701803 1.571319 0.079927 -0.004494 303089.000000 0 0 1
27.602602 22.887439 -0.010402 35.857198 0.692280 1.571086 0.075040 -0.005707 930646.000000 0 0 1
28.136702 21.864039 0.770398 35.641321 0.660599 1.549179 0.083631 -0.016452 -442145.000000 0 0 1
27.095902 20.898039 1.341498 34.244935 0.656970 1.531613 0.080318 -0.013347 -528745.000000 0 0 1
26.701602 19.968139 0.447598 33.345202 0.642108 1.557373 0.103841 -0.029550 463289.000000 0 0 1
25.677702 19.128839 0.978898 32.034593 0.640267 1.540234 0.093444 -0.019146 537957.000000 0 0 1
24.753902 18.464139 -0.140502 30.882032 0.640877 1.575346 0.109700 -0.025983 -297300.000000 0 0 1
23.604602 17.834539 0.357398 29.586750 0.647046 1.558716 0.096695 -0.019599 -182447.000000 0 0 1
23.025902 17.098739 -0.706402 28.688989 0.638740 1.595422 0.118295 -0.043456 -657575.000000 0 0 1
21.611902 16.695739 -0.330502 27.311742 0.657762 1.582898 0.092293 -0.025650 -1062080.000000 0 0 1
21.033402 15.719539 -1.211302 26.286407 0.641810 1.616894 0.096019 -0.032710 209696.000000 0 0 1
19.710902 15.357939 -0.886602 25.003441 0.661904 1.606263 0.104858 -0.034121 221282.000000 0 0 1
18.605302 16.204139 -1.587802 24.723522 0.716527 1.635063 0.105758 -0.036361 -321309.000000 0 1 0
18.589602 17.514839 -0.938502 25.558241 0.755639 1.607525 0.098677 -0.025658 878038.000000 0 0 1
17.489102 18.356939 -1.370802 25.391436 0.809604 1.624809 0.077407 -0.027657 518368.000000 0 0 1
17.517402 19.757839 -0.730602 26.415249 0.845431 1.598458 0.077046 -0.017663 72939.700000 0 0 1
17.070202 19.884639 0.647298 26.214685 0.861410 1.546102 0.084254 -0.022275 200998.000000 0 0 1
17.341502 21.167839 1.159698 27.388867 0.884434 1.528442 0.099886 -0.019588 34308.200000 0 0 1
16.387502 22.349239 0.773098 27.724293 0.938104 1.542907 0.089983 -0.027826 158671.000000 0 0 1
15.096202 22.112339 1.282198 26.804756 0.971772 1.522943 0.062827 -0.025598 -339948.000000 0 0 1
14.141802 22.980939 0.771998 26.994632 1.019151 1.542194 0.055273 -0.026469 474831.000000 0 0 1
12.711502 22.904339 1.409898 26.233164 1.064136 1.517026 0.049346 -0.029884 720691.000000 0 0 1
12.634802 23.432839 2.689898 26.757648 1.076289 1.470098 0.051677 -0.012103 -27942.400000 0 0 1
11.340302 23.226739 3.217998 26.046869 1.116598 1.446933 0.048569 -0.017337 93467.300000 0 0 1
11.242802 23.400139 4.744898 26.390930 1.122904 1.390021 0.067538 -0.024440 224853.000000 0 0 1
12.112402 22.507139 5.454598 26.134924 1.077090 1.360541 0.066145 -0.042549 456587.000000 0 0 1
11.499202 22.174939 6.686398 25.858606 1.092405 1.309249 0.056060 -0.028711 70595.700000 0 0 1
12.311702 21.160439 7.551198 25.619579 1.043847 1.271609 0.071087 -0.030609 1593790.000000 0 0 1
13.562802 21.555239 8.176198 26.747489 1.009174 1.260143 0.095023 -0.023081 634848.000000 0 0 1
14.719602 21.521939 7.419898 27.109324 0.970934 1.293556 0.086022 -0.021151 -1358190.000000 0 0 1
15.978102 21.570939 8.257098 28.085314 0.933259 1.272387 0.112912 -0.029513 -710563.000000 0 0 1
16.239002 20.371439 9.071498 27.586099 0.897798 1.235718 0.120560 -0.030989 169051.000000 0 0 1
17.525802 20.419339 9.655398 28.588982 0.861507 1.226291 0.116060 -0.033629 59645.100000 0 0 1
17.708402 21.320639 10.949098 29.799999 0.877688 1.194563 0.091488 -0.026797 -430415.000000 0 0 1
17.239102 20.827839 12.197898 29.660989 0.879395 1.146978 0.089596 -0.022685 29750.700000 0 0 1
17.396502 21.699839 13.296498 30.827231 0.895027 1.124837 0.076990 -0.010473 -326660.000000 0 0 1
18.461702 21.248539 14.317198 31.580327 0.855463 1.100267 0.064841 -0.005530 -121219.000000 0 0 1
19.742102 21.398639 13.741498 32.194427 0.825642 1.129813 0.075017 -0.009861 -262040.000000 0 0 1
20.706302 21.159939 14.764698 33.083082 0.796233 1.108179 0.063317 -0.010214 -334672.000000 0 0 1
22.126602 21.583339 14.444798 34.118606 0.772970 1.133634 0.068374 -0.017456 -611371.000000 0 0 1
22.735302 21.096239 13.261598 33.731518 0.748021 1.166740 0.082109 -0.014894 312402.000000 0 0 1
24.113502 21.456939 13.313298 34.915687 0.727168 1.179596 0.085643 -0.025771 200725.000000 0 0 1
24.898402 20.763039 12.172598 34.629560 0.695079 1.211614 0.101500 -0.032671 -150989.000000 0 0 1
24.595102 21.427239 10.925698 34.400822 0.716673 1.247599 0.108516 -0.042590 100417.000000 0 0 1
25.478202 21.147739 9.892598 34.557621 0.692787 1.280471 0.127104 -0.051120 -849810.000000 0 0 1
25.464502 22.204739 8.784398 34.909268 0.717122 1.316427 0.104113 -0.043472 22512.100000 0 0 1
25.947102 23.492239 9.268298 36.208270 0.735785 1.311943 0.094448 -0.051340 1732660.000000 0 0 1
27.401102 23.525639 9.196698 37.267350 0.709446 1.321444 0.080657 -0.047082 841297.000000 0 0 1
28.012302 24.767839 9.846198 38.666298 0.724004 1.313315 0.099331 -0.055346 -793059.000000 0 0 1
29.122502 25.176539 9.138898 39.566371 0.712855 1.337715 0.092749 -0.044901 -534159.000000 0 0 1
29.860542 26.197139 9.794698 40.913057 0.720140 1.329046 0.094163 -0.044342 604988.000000 0 0 1
31.044252 26.766939 8.958598 41.957969 0.711545 1.355626 0.093782 -0.042823 154129.000000 0 0 1
30.609532 27.666239 7.966698 42.021811 0.734935 1.380057 0.098714 -0.047598 206370.000000 0 0 1
31.528712 27.744739 6.879798 42.557748 0.721645 1.408426 0.086900 -0.030552 142541.000000 0 0 1
31.153712 28.868939 5.921998 42.884024 0.747351 1.432260 0.115823 -0.026172 -42472.400000 0 0 1
31.665432 30.172439 6.145698 44.168375 0.761259 1.431201 0.091834 -0.036821 -8243.220000 0 0 1
31.242622 31.002639 5.127398 44.312022 0.781543 1.454825 0.092033 -0.045773 -50121.900000 0 0 1
31.379902 32.493939 5.449798 45.500051 0.802838 1.450732 0.058479 -0.039204 610900.000000 0 0 1
30.277712 32.775339 6.326098 45.066421 0.824989 1.429958 0.069341 -0.051963 411936.000000 0 0 1
30.274022 -33.606144 6.659798 45.719167 -0.837513 1.424609 0.067837 -0.045292 -808408.000000 0 0 1
28.957002 -33.152144 7.239298 44.609193 -0.852840 1.407793 0.103884 -0.055249 -667431.000000 0 0 1
27.924802 -33.147844 6.303598 43.798510 -0.870712 1.426372 0.096104 -0.059852 -1114350.000000 0 0 1
26.685502 -32.664744 6.710398 42.709846 -0.885804 1.413027 0.079995 -0.061683 -384490.000000 0 0 1
25.592802 -32.941544 5.688198 42.100979 -0.910291 1.435273 0.102593 -0.054908 -190758.000000 0 0 1
25.859902 -32.110144 4.591298 41.483441 -0.892802 1.459891 0.088744 -0.025393 360224.000000 0 0 1
24.837702 -32.350044 3.610198 40.944723 -0.916013 1.482509 0.103236 -0.034094 380527.000000 0 0 1
25.118802 -31.768644 2.244698 40.561554 -0.901765 1.515427 0.101472 -0.017958 -142704.000000 0 0 1
25.055902 -30.341244 2.191198 39.410540 -0.880518 1.515168 0.099995 -0.015295 157.128000 0 0 1
25.826402 -29.714144 1.174298 39.386703 -0.855282 1.540977 0.100380 -0.014838 -373548.000000 0 0 1
25.883602 -28.180544 1.405698 38.289423 -0.827858 1.534076 0.098428 -0.011037 -193686.000000 0 0 1
24.735702 -27.394344 1.206998 36.929147 -0.836354 1.538106 0.092067 -0.003586 -463999.000000 0 0 1
24.220402 -27.378244 -0.073802 36.554091 -0.846522 1.572815 0.085151 -0.003824 -134201.000000 0 0 1
22.965802 -26.477744 -0.240502 35.050775 -0.856308 1.577658 0.073862 -0.006021 52629.000000 0 0 1
23.221002 -25.048944 -0.137902 34.156750 -0.823249 1.574834 0.086370 -0.013336 60235.200000 0 0 1
23.455502 -24.544044 1.171598 33.969741 -0.808072 1.536300 0.052417 -0.002173 709188.000000 0 0 1
22.102802 -24.142844 1.863098 32.785392 -0.829483 1.513939 0.041886 -0.004396 844229.000000 0 0 1
22.291102 -23.560344 3.156098 32.587482 -0.813073 1.473794 0.032479 -0.005058 310486.000000 0 0 1
21.051502 -23.445744 3.871298 31.746742 -0.839153 1.448549 0.035726 -0.007699 553668.000000 0 0 1
21.109202 -22.548444 5.139598 31.312078 -0.818353 1.405909 0.022526 -0.008397 -115506.000000 0 0 1
21.297402 -21.123544 4.904898 30.394761 -0.781300 1.408714 0.046934 -0.003979 312668.000000 0 0 1
20.172302 -20.479244 4.299598 29.065577 -0.792949 1.422324 0.036286 -0.001247 -311808.000000 0 0 1
20.041602 -19.048844 4.829498 28.068636 -0.760007 1.397876 0.043728 -0.008011 -46781.900000 0 0 1
19.513502 -18.862444 6.127098 27.822830 -0.768435 1.348758 0.070544 -0.012012 -721701.000000 0 0 1
18.124702 -18.933144 6.123398 26.915883 -0.807210 1.341285 0.040346 -0.016896 -892362.000000 0 0 1
19.640510 -25.624251 -11.813802 34.379031 -0.916830 1.921580 0.097870 -0.039500 70908.900000 0 0 1
19.671910 -24.370361 -12.399202 33.684399 -0.891677 1.947760 0.113360 -0.033028 -213203.000000 0 0 1
18.486910 -24.113061 -13.116002 33.094335 -0.916708 1.978303 0.092324 -0.030147 49818.900000 0 0 1
18.379810 -22.608061 -13.372702 32.058867 -0.888193 2.001081 0.085044 -0.035489 -165094.000000 0 0 1
18.313210 -21.691961 -12.273902 30.928361 -0.869656 1.978878 0.093191 -0.039949 457241.000000 0 0 1
19.589410 -21.406861 -11.666002 31.274499 -0.829701 1.953058 0.082674 -0.037864 155715.000000 0 0 1
19.852510 -22.136461 -10.305102 31.469671 -0.839739 1.904412 0.093245 -0.033406 119933.000000 0 0 1
19.060610 -21.839961 -9.150502 30.397737 -0.853248 1.876564 0.092841 -0.038717 1590190.000000 0 0 1
17.649510 -22.172761 -9.350602 29.842424 -0.898499 1.889497 0.109506 -0.028664 1399570.000000 0 0 1
16.642710 -21.576761 -8.342102 28.497843 -0.913786 1.867874 0.100860 -0.028852 -418579.000000 0 0 1
16.537810 -20.137761 -8.409702 27.381593 -0.883241 1.882972 0.090048 -0.030033 -35248.800000 0 0 1
15.539810 -19.598261 -7.599102 26.140464 -0.900389 1.865757 0.080238 -0.030943 678352.000000 0 0 1
14.076210 -19.613461 -8.175802 25.488650 -0.948302 1.897331 0.078674 -0.021095 748342.000000 0 0 1
13.421910 -20.871761 -7.975602 26.065078 -0.999311 1.881772 0.067928 -0.023545 522677.000000 0 0 1
12.005210 -20.876961 -8.168802 25.430334 -1.048928 1.897817 0.068306 -0.024927 785205.000000 0 0 1
11.399910 -22.300061 -7.963302 26.280503 -1.098225 1.878648 0.077755 -0.022410 3692.120000 0 0 1
11.532110 -22.793061 -6.642402 26.393838 -1.102401 1.825196 0.070588 -0.022784 397281.000000 0 0 1
10.684410 -23.910461 -6.398802 26.959440 -1.150564 1.810432 0.056112 -0.023498 400467.000000 0 0 1
11.094310 -24.432361 -4.998202 27.294798 -1.144552 1.754955 0.071046 -0.022836 574471.000000 0 0 1
10.199410 -25.335681 -4.378502 27.660368 -1.188076 1.729760 0.074934 -0.022299 286648.000000 0 0 1
10.947510 -25.813691 -3.258602 28.227878 -1.169691 1.686493 0.073069 -0.024546 372147.000000 0 0 1
10.064510 -26.679691 -2.320102 28.609144 -1.210068 1.651982 0.086041 -0.021914 94306.800000 0 0 1
9.068610 -25.938791 -1.646402 27.527644 -1.234464 1.630641 0.064320 -0.015961 -123787.000000 0 0 1
8.480510 -26.817291 -0.660002 28.133996 -1.264514 1.594258 0.063214 -0.019985 508879.000000 0 0 1
7.519010 -26.032711 0.278198 27.098246 -1.289619 1.560530 0.069164 -0.021052 612097.000000 0 0 1
6.230310 -25.648431 -0.181602 26.394919 -1.332500 1.577677 0.071409 -0.025979 161026.000000 0 0 1
5.520910 -25.124101 0.922198 25.740072 -1.354489 1.534961 0.079612 -0.023340 329800.000000 0 0 1
4.030110 -24.702961 0.747898 25.040715 -1.409078 1.540925 0.062237 -0.026309 319670.000000 0 0 1
3.226510 -25.810881 0.385398 26.014620 -1.446436 1.555981 0.059270 -0.025537 -1611940.000000 0 0 1
1.967010 -25.262141 0.370398 25.341311 -1.493089 1.556179 0.059469 -0.020467 -1007530.000000 0 0 1
0.831010 -26.312801 0.101398 26.326115 -1.539225 1.566945 0.075154 -0.020439 405655.000000 0 0 1
0.618110 -27.282611 1.102798 27.311885 -1.548144 1.530407 0.078626 -0.021816 -100271.000000 0 0 1
1.328310 -28.477701 0.864098 28.521755 -1.524186 1.540496 0.060912 -0.021793 -354286.000000 0 0 1
0.731710 -29.638721 1.648398 29.693541 -1.546114 1.515254 0.100084 -0.023248 101181.000000 0 0 1
0.943310 -29.341911 3.016398 29.511628 -1.538658 1.468407 0.075452 -0.020270 485479.000000 0 0 1
0.217910 -30.383321 3.736298 30.612964 -1.563624 1.448442 0.107278 -0.024318 291124.000000 0 0 1
0.403110 -30.246271 5.280698 30.706435 -1.557470 1.397963 0.088684 -0.022775 -64601.300000 0 0 1
1.773810 -30.438451 5.594598 30.999116 -1.512587 1.389326 0.038268 -0.007469 254536.000000 0 0 1
1.875710 -30.386651 6.970098 31.232180 -1.509146 1.345731 0.042331 -0.012012 -257725.000000 0 0 1
3.258610 -30.833091 7.473698 31.892855 -1.465502 1.334259 0.050421 -0.009981 43857.900000 0 0 1
3.602610 -32.182301 7.156898 33.164747 -1.459317 1.353287 0.041775 -0.010484 -399936.000000 0 0 1
4.864210 -32.535271 7.646698 33.773901 -1.422390 1.342407 0.039501 -0.014167 -166258.000000 0 0 1
5.176210 33.733426 7.557498 34.955013 1.418539 1.352869 0.043096 -0.002770 -208221.000000 0 0 1
5.368310 33.210682 6.242898 34.216106 1.410538 1.387314 0.033731 -0.002805 4641.530000 0 0 1
5.164510 31.811495 6.178498 32.814893 1.409853 1.381382 0.048036 -0.003650 -589923.000000 0 0 1
5.441610 31.324853 4.744398 32.146024 1.398797 1.422666 0.050455 -0.007390 785306.000000 0 0 1
6.786210 31.589193 4.296598 32.594332 1.359186 1.438591 0.049941 -0.007975 379066.000000 0 0 1
7.633410 30.516433 4.616098 31.793553 1.325685 1.425092 0.047680 -0.009867 -7454.890000 0 0 1
9.063810 30.604843 3.997398 32.168125 1.282870 1.446208 0.033379 -0.009595 265087.000000 0 0 1
9.996610 31.213453 4.859198 33.133422 1.260852 1.423610 0.041670 -0.018520 -1218000.000000 0 0 1
11.126510 31.475253 4.123098 33.637638 1.231007 1.447913 0.047177 -0.021638 138062.000000 0 0 1
12.436910 31.833647 4.964398 34.535533 1.198346 1.426549 0.051589 -0.031032 1142900.000000 0 0 1
12.839710 30.682533 5.675198 33.741426 1.174470 1.401796 0.058912 -0.027752 -511130.000000 0 0 1
14.037510 30.918923 6.353398 34.545581 1.144612 1.385830 0.077499 -0.026173 -179632.000000 0 0 1
14.575110 29.760833 7.200098 33.911391 1.115389 1.356847 0.071740 -0.023873 -30215.800000 0 0 1
14.192610 29.781943 8.564898 34.084480 1.126083 1.316789 0.064495 -0.021274 148288.000000 0 0 1
14.725610 28.638403 9.190198 33.488229 1.095860 1.292799 0.067662 -0.021422 94283.500000 0 0 1
14.456410 28.695293 10.679598 33.859437 1.104121 1.249908 0.059684 -0.015267 283910.000000 0 0 1
15.136210 29.793623 11.311298 35.280452 1.100741 1.244422 0.071485 -0.019786 407057.000000 0 0 1
14.941510 29.655923 12.731898 35.564360 1.104090 1.204676 0.061101 -0.017548 -50709.800000 0 0 1
15.757410 30.771253 13.395198 37.075562 1.097530 1.201140 0.062035 -0.022161 396779.000000 0 0 1
17.034410 30.377383 13.874398 37.489404 1.059730 1.191692 0.053235 -0.021309 378485.000000 0 0 1
17.750710 31.373583 14.575498 38.882317 1.055915 1.186549 0.066917 -0.023088 347442.000000 0 0 1
18.894610 30.928433 15.528498 39.429792 1.022390 1.166005 0.063873 -0.022025 1348860.000000 0 0 1
20.147210 30.555903 14.902798 39.517929 0.987872 1.184117 0.053292 -0.019631 878364.000000 0 0 1
20.302410 29.106743 14.810498 38.454404 0.961740 1.175432 0.042758 -0.013345 149643.000000 0 0 1
21.713710 28.864463 14.212998 38.815612 0.925848 1.195910 0.074067 -0.018021 577657.000000 0 0 1
22.778210 29.181713 15.090798 39.976886 0.908019 1.183714 0.085017 -0.022605 399341.000000 0 0 1
24.074010 28.868033 14.578998 40.317099 0.875704 1.200804 0.090560 -0.023482 665588.000000 0 0 1
25.180710 29.117533 15.627798 41.546684 0.857775 1.185158 0.118056 -0.040107 -160249.000000 0 0 1
25.025810 28.151113 16.668098 41.189827 0.844102 1.154183 0.090848 -0.029069 -34253.700000 0 0 1
25.938210 28.254073 17.733298 42.255807 0.828106 1.137720 0.082265 -0.029615 21074.000000 0 0 1
26.994910 27.110193 17.884798 42.232141 0.787529 1.133504 0.064241 -0.014638 187017.000000 0 0 1
26.462310 25.833883 18.256998 41.242713 0.773382 1.112220 0.061770 -0.000982 74240.700000 0 0 1
26.150210 25.692563 19.627198 41.583268 0.776571 1.079241 0.082004 -0.002161 59529.200000 0 0 1
25.493110 24.343023 19.969298 40.512397 0.762325 1.055356 0.070793 -0.002932 -249215.000000 0 0 1
26.417510 23.308383 19.801098 40.413476 0.722954 1.058749 0.070050 -0.004716 -196074.000000 0 0 1
25.835510 22.020723 19.900198 39.349761 0.705853 1.040573 0.064879 0.002873 -738201.000000 0 0 1
26.772310 20.879823 20.184098 39.498373 0.662366 1.034436 0.047325 0.005689 -442886.000000 0 0 1
26.140110 19.600523 20.265698 38.447164 0.643389 1.015606 0.033510 0.026700 230917.000000 0 0 1
27.058310 18.555923 20.513198 38.694518 0.601115 1.012040 0.045492 0.010052 351244.000000 0 0 1
27.730110 18.351723 21.911798 39.823004 0.584624 0.988157 0.066046 0.011057 472323.000000 0 0 1
26.827710 17.683923 22.794898 39.396124 0.582792 0.953776 0.047226 0.023590 119516.000000 0 0 1
27.451410 17.300723 23.982698 40.349285 0.562352 0.934305 0.077477 0.014334 -408060.000000 0 0 1
26.600610 16.509323 24.961698 40.040437 0.555456 0.897697 0.052859 0.016943 -176398.000000 0 0 1
26.343610 15.122823 24.600698 39.088105 0.521128 0.890060 0.062423 0.019169 -516234.000000 0 0 1
25.109710 14.747623 25.082898 38.433602 0.531049 0.859747 0.065112 0.013068 -758419.000000 0 0 1
24.560110 13.430223 24.408798 37.139727 0.500407 0.853678 0.069777 0.010626 -150666.000000 0 0 1
23.285510 13.074623 24.880298 36.499178 0.511623 0.820757 0.044954 0.007592 -341001.000000 0 0 1
22.778510 12.099623 24.046698 35.263368 0.488284 0.820416 0.057291 0.005514 -1086140.000000 0 0 1
21.495510 11.571323 24.612998 34.666297 0.493827 0.781301 0.054590 -0.002378 -938370.000000 0 0 1
20.352510 12.372523 24.524698 34.187203 0.546216 0.770784 0.058242 -0.009421 379038.000000 0 0 1
19.136110 11.610223 24.448598 33.146975 0.545345 0.741314 0.076591 -0.013715 467277.000000 0 0 1
17.887010 12.484123 24.600398 32.878231 0.609344 0.725410 0.068198 -0.024416 -385284.000000 0 0 1
17.734110 13.078923 25.880598 33.990620 0.635454 0.705320 0.103250 -0.022751 236886.000000 0 0 1
16.533310 13.814623 26.035098 33.793794 0.696053 0.691311 0.109923 -0.032381 8339.520000 0 0 1
16.343110 14.384623 27.475098 35.055608 0.721747 0.670103 0.103195 -0.025392 -14497.600000 0 0 1
15.880410 13.423723 28.406598 35.203957 0.701760 0.631886 0.112738 -0.018688 106864.000000 0 0 1
15.733910 13.822523 29.762598 36.392724 0.720819 0.613188 0.100692 -0.008781 -641267.000000 0 0 1
16.993710 13.531023 30.551798 37.487160 0.672442 0.618078 0.109179 -0.022291 -834695.000000 0 0 1
18.043310 14.349123 30.133598 37.940640 0.671844 0.653057 0.133345 -0.033740 759632.000000 0 0 1
19.338110 13.663723 30.201498 38.376951 0.615122 0.664914 0.132018 -0.025511 1348240.000000 0 0 1
20.400310 14.740323 29.757998 38.974200 0.625703 0.702033 0.136939 -0.032105 -105930.000000 0 0 1
20.477110 15.259423 28.465498 38.241949 0.640418 0.731231 0.137031 -0.037113 23966.800000 0 0 1
20.656210 14.358923 27.403398 37.199515 0.607456 0.742678 0.112358 -0.023158 -294172.000000 0 0 1
20.486310 15.147923 26.029798 36.423878 0.636693 0.774693 0.064245 -0.013135 -725008.000000 0 0 1
21.432310 16.080923 25.683398 37.115724 0.643701 0.806566 0.067732 -0.005587 -453604.000000 0 0 1
21.321010 16.425023 24.328498 36.280059 0.656410 0.835813 0.048144 0.000954 581.551000 0 0 1
22.489810 17.373423 23.974698 37.180822 0.657748 0.870017 0.044751 0.005991 -124798.000000 0 0 1
22.554710 17.996423 22.708798 36.718874 0.673460 0.904027 0.046526 0.002399 -99752.200000 0 0 1
23.825210 18.585723 22.531098 37.692441 0.662480 0.930090 0.045762 0.005513 -321870.000000 0 0 1
24.049310 19.992423 23.154798 38.912864 0.693543 0.933478 0.062213 0.003021 -303219.000000 0 0 1
23.371910 21.060123 22.511098 38.684939 0.733415 0.949723 0.046296 0.007512 122249.000000 0 0 1
23.159410 22.191323 23.414398 39.712053 0.764055 0.940227 0.075697 -0.003346 67740.600000 0 0 1
22.133910 23.232883 22.920398 39.433761 0.809618 0.950547 0.067800 -0.014909 -81503.900000 0 0 1
22.569810 24.020673 21.822198 39.529703 0.816529 0.985981 0.079628 -0.007317 374427.000000 0 0 1
21.678310 25.123883 21.584398 39.585918 0.858885 0.994104 0.080405 -0.011067 117234.000000 0 0 1
22.183310 26.125993 20.461798 39.916813 0.866831 1.032573 0.083670 -0.014749 -279199.000000 0 0 1
22.324810 25.611293 19.157998 39.004671 0.853851 1.057362 0.082303 -0.017255 111201.000000 0 0 1
22.494510 26.607173 18.238998 39.326908 0.868961 1.088540 0.082775 -0.017649 -334816.000000 0 0 1
22.426310 26.008273 16.829998 38.244196 0.859218 1.115123 0.063020 -0.012922 1552470.000000 0 0 1
21.112210 25.691833 16.236898 37.005845 0.882934 1.116572 0.045794 -0.008762 1433500.000000 0 0 1
21.305310 25.382573 14.854998 36.316143 0.872507 1.149387 0.052923 -0.009723 259688.000000 0 0 1
20.016910 24.915463 14.079398 34.924010 0.893990 1.155847 0.064442 -0.010268 1923970.000000 0 0 1
18.937310 25.893183 13.900298 34.961363 0.939330 1.161907 0.060835 -0.006258 907329.000000 0 0 1
18.148610 26.107313 15.053298 35.179051 0.963330 1.128623 0.061118 -0.005574 -46971.800000 0 0 1
16.730510 26.750323 14.758398 34.832457 1.011886 1.133274 0.061328 -0.002117 944038.000000 0 0 1
15.830210 25.925373 13.985698 33.441296 1.022614 1.139315 0.068622 -0.007826 821594.000000 0 0 1
15.240610 24.742493 14.593798 32.518396 1.018718 1.105390 0.087994 -0.026857 -95021.800000 0 0 1
14.392010 24.922053 15.898298 32.878482 1.047100 1.066094 0.090646 -0.032064 -675418.000000 0 0 1
15.020810 25.530773 16.997198 34.151865 1.038993 1.049858 0.081942 -0.024754 34182.700000 0 0 1
14.094610 26.014133 17.980298 34.622020 1.074266 1.024728 0.077063 -0.028243 51808.500000 0 0 1
14.470110 27.349193 18.656898 36.130905 1.084151 1.028190 0.076495 -0.037162 -514158.000000 0 0 1
14.353610 28.564503 17.877198 36.627192 1.105152 1.060902 0.070205 -0.027830 25317.500000 0 0 1
14.926910 29.553293 18.653798 38.002289 1.103089 1.057720 0.063820 -0.021992 -914262.000000 0 0 1
15.040910 30.765583 17.838198 38.612840 1.116078 1.090575 0.048073 -0.029198 329238.000000 0 0 1
13.766910 31.351963 17.555698 38.479552 1.157037 1.097037 0.044757 -0.023920 504825.000000 0 0 1
13.863610 32.678155 17.049898 39.379697 1.169564 1.123021 0.035600 -0.020003 -157954.000000 0 0 1
12.471310 33.343236 16.924298 39.417469 1.212878 1.127012 0.058760 -0.027527 -156615.000000 0 0 1
12.420510 -33.136121 16.306198 38.963620 -1.212172 1.139005 0.075071 -0.030237 -56995.700000 0 0 1
13.026010 -31.909891 16.834898 38.357944 -1.183230 1.116434 0.072586 -0.029774 -43478.400000 0 0 1
12.727110 -31.616141 18.285498 38.677114 -1.188093 1.078361 0.067100 -0.034717 -256237.000000 0 0 1
13.456010 -32.448411 19.212398 40.038479 -1.177691 1.070314 0.059176 -0.031079 528936.000000 0 0 1
13.203810 -32.034941 20.572198 40.296320 -1.179844 1.035003 0.049018 -0.029570 232812.000000 0 0 1
14.312810 -32.617251 21.511898 41.611337 -1.157286 1.027486 0.048418 -0.022699 943198.000000 0 0 1
15.593610 -32.005741 21.380198 41.528797 -1.117431 1.029989 0.057970 -0.017451 426373.000000 0 0 1
16.567710 -32.519671 22.267798 42.753630 -1.099604 1.022962 0.061725 -0.015716 172567.000000 0 0 1
17.972710 -31.923881 22.120598 42.795716 -1.058037 1.027585 0.103246 -0.020876 -27613.200000 0 0 1
18.075210 -30.631881 22.723898 42.206645 -1.037704 1.002264 0.109829 -0.030050 367959.000000 0 0 1
19.125810 -29.879561 22.113198 41.804047 -1.001414 1.013407 0.119673 -0.031561 150650.000000 0 0 1
-5.513290 12.832939 18.262650 22.991413 -1.165019 0.652901 0.013234 -0.008627 -400270.000000 0 1 0
-4.952890 14.099639 17.983550 23.382451 -1.232984 0.693357 0.008611 -0.013007 125733.000000 0 1 0
-6.019290 14.922539 17.626650 23.866563 -1.187389 0.739879 0.017832 -0.019231 -63300.000000 0 1 0
-5.497690 16.320339 17.347350 24.443990 -1.245874 0.781756 0.039708 -0.029604 -93464.900000 0 1 0
-5.093090 16.974139 18.541650 25.648660 -1.279294 0.762793 0.038373 -0.022851 101452.000000 0 0 1
-4.827190 18.264039 18.230050 26.252840 -1.312405 0.803206 0.060600 -0.025591 -732374.000000 0 0 1
-4.015990 18.997339 19.263350 27.351485 -1.362466 0.789375 0.045418 -0.029157 -554546.000000 0 0 1
-4.736090 19.153139 20.460750 28.423856 -1.328384 0.767218 0.015759 -0.023922 277933.000000 0 0 1
-3.966590 19.975339 21.281650 29.456012 -1.374772 0.763400 0.019338 -0.009507 253385.000000 0 0 1
-4.824990 20.332739 22.530650 30.729969 -1.337804 0.747807 0.018345 -0.004229 478091.000000 0 0 1
-5.368690 19.171639 23.184980 30.560070 -1.297757 0.709529 0.020596 -0.008390 -231401.000000 0 0 1
-6.298290 19.405039 24.191880 31.646028 -1.256954 0.700605 0.023594 -0.004889 -296880.000000 0 0 1
-5.798090 19.946839 25.529670 32.912890 -1.287914 0.683014 0.024483 -0.007419 -588299.000000 0 0 1
-5.540390 21.343439 25.543160 33.744501 -1.316819 0.712151 0.030007 -0.014824 -165691.000000 0 0 1
-4.742390 21.791139 26.574000 34.691807 -1.356508 0.698197 0.050554 -0.014394 388808.000000 0 0 1
-3.188890 21.615839 26.515660 34.358314 -1.424327 0.689225 0.066840 -0.013041 308361.000000 0 0 1
-2.740090 20.271739 26.701260 33.636421 -1.436443 0.653732 0.056460 -0.007172 293267.000000 0 0 1
-1.520490 20.079939 25.985800 32.875183 -1.495219 0.659272 0.051112 -0.010010 597394.000000 0 0 1
-0.589290 18.942639 26.513880 32.590745 -1.539697 0.620582 0.040656 -0.002548 -242951.000000 0 0 1
-0.978990 17.598339 26.248300 31.616977 -1.515224 0.591336 0.041201 -0.000098 -101481.000000 0 0 1
-0.031490 16.582939 26.630840 31.371906 -1.568897 0.556942 0.042468 0.000770 88332.000000 0 0 1
1.319610 16.546939 25.904460 30.766599 1.491215 0.569878 0.047467 0.005832 -524571.000000 0 0 1
1.355510 16.093639 24.562800 29.396833 1.486768 0.581646 0.039378 -0.005301 -235664.000000 0 0 1
1.027610 14.713339 24.369670 28.485420 1.501067 0.544254 0.044026 0.004789 -153847.000000 0 0 1
0.986310 14.371539 22.857610 27.018221 1.502274 0.562345 0.053710 -0.014190 -395004.000000 0 0 1
2.216610 14.367539 22.202050 26.538097 1.417724 0.579730 0.059131 -0.016142 -682631.000000 0 0 1
2.092210 13.958539 20.880050 25.203068 1.422016 0.594422 0.049180 -0.014127 448652.000000 0 0 1
3.490110 13.658539 20.270650 24.690804 1.320624 0.607671 0.041242 -0.018940 645809.000000 0 1 0
4.315810 14.800639 20.110250 25.339836 1.287067 0.654057 0.063364 -0.020340 -387773.000000 0 0 1
5.628910 14.421339 19.820750 25.149986 1.198664 0.663077 0.070384 -0.022029 -31120.400000 0 0 1
6.583010 15.430839 19.159350 25.466204 1.167559 0.719183 0.092534 -0.033554 80612.300000 0 0 1
6.175210 15.636239 17.800850 24.484597 1.194669 0.756821 0.077447 -0.031743 176846.000000 0 1 0
6.951610 16.617239 17.140250 24.864547 1.174583 0.810212 0.081694 -0.025672 -49273.600000 0 1 0
6.950010 16.303039 15.631750 23.631406 1.167824 0.848003 0.074858 -0.020073 -235342.000000 0 1 0
7.930810 15.424539 15.177050 23.046844 1.095878 0.851932 0.062158 -0.005747 -198985.000000 0 1 0
7.847310 14.116939 15.717350 22.536711 1.063451 0.799018 0.056691 -0.009411 -188456.000000 0 1 0
8.812210 13.122139 15.009150 21.797252 0.979419 0.811267 0.048166 -0.018614 327977.000000 0 1 0
10.167610 13.468739 15.202850 22.713738 0.924164 0.837498 0.053715 -0.022180 -41285.800000 0 1 0
11.035010 12.886239 14.278450 22.174327 0.862633 0.871188 0.052803 -0.015571 -239075.000000 0 1 0
12.504410 13.298439 14.348050 23.217995 0.816161 0.904637 0.051052 -0.011673 -374928.000000 0 1 0
13.241310 12.838839 15.470050 24.072610 0.769967 0.872856 0.054143 -0.016326 541224.000000 0 1 0
14.586010 13.266339 15.584150 25.131916 0.738053 0.901934 0.053540 -0.013043 1175830.000000 0 0 1
15.716510 12.706139 14.638250 24.954620 0.679877 0.943948 0.049088 -0.013671 421237.000000 0 1 0
16.916610 13.452739 14.560650 26.060707 0.671831 0.977954 0.054856 -0.022233 498810.000000 0 0 1
17.874310 12.812339 13.737850 25.930205 0.621914 1.012430 0.065290 -0.026073 8792.510000 0 0 1
19.208210 13.566539 13.531150 27.131133 0.614934 1.048662 0.066745 -0.029866 237156.000000 0 0 1
20.075910 13.357939 14.618250 28.198758 0.587105 1.025817 0.037359 -0.019775 805303.000000 0 0 1
21.424110 13.835339 14.432450 29.303664 0.573405 1.055821 0.074791 -0.040737 936773.000000 0 0 1
22.370810 13.473939 15.602350 30.420939 0.542109 1.032258 0.084460 -0.030458 -114080.000000 0 0 1
22.665310 12.096839 15.712250 30.115189 0.490255 1.021909 0.091422 -0.034405 344983.000000 0 0 1
23.528910 11.757439 16.769050 31.193718 0.463409 1.003234 0.081303 -0.031452 -73848.000000 0 0 1
23.802710 10.244339 16.911650 30.943811 0.406423 0.992584 0.097136 -0.024907 -496380.000000 0 0 1
22.651610 9.609539 17.360850 30.113748 0.401220 0.956346 0.063708 -0.004237 -27562.300000 0 0 1
22.664410 8.253339 16.933050 29.470685 0.349228 0.958714 0.067729 0.000065 61209.300000 0 0 1
21.645610 7.358339 17.695950 28.910625 0.327690 0.912094 0.086815 -0.006556 117190.000000 0 0 1
21.698710 6.006039 17.215150 28.341982 0.270032 0.918003 0.105999 -0.022172 601175.000000 0 0 1
20.811510 5.080139 17.864650 27.893951 0.239420 0.875714 0.102024 -0.026202 -77477.300000 0 0 1
20.566110 3.736239 17.179350 27.056505 0.179710 0.882861 0.154459 -0.019456 -966990.000000 0 0 1
19.397810 3.826139 16.396750 25.685946 0.194746 0.878437 0.147847 -0.029030 214008.000000 0 0 1
18.795010 2.585939 16.148750 24.914286 0.136728 0.865614 0.127220 -0.023498 229834.000000 0 1 0
18.175010 1.769439 17.345150 25.185634 0.097050 0.811113 0.125993 -0.018497 -510312.000000 0 0 1
19.210610 1.247239 18.146850 26.455837 0.064834 0.814915 0.148272 -0.026234 231223.000000 0 0 1
18.679010 0.646539 19.290650 26.859870 0.034599 0.769590 0.149815 -0.010440 173482.000000 0 0 1
19.710910 -0.348661 19.895150 28.008187 -0.017687 0.780825 0.135048 -0.026666 210464.000000 0 0 1
19.765210 -1.629561 19.228650 27.623541 -0.082260 0.800850 0.135340 -0.024143 -200505.000000 0 0 1
18.832310 -2.579761 19.667450 27.351776 -0.136139 0.768354 0.107050 -0.017822 -306820.000000 0 0 1
18.732110 -4.015261 18.995250 26.978395 -0.211156 0.789654 0.095944 -0.009785 -303759.000000 0 0 1
18.334710 -3.767861 17.678150 25.746366 -0.202682 0.813957 0.113386 -0.019152 294173.000000 0 0 1
18.076410 -4.970661 16.966850 25.285136 -0.268348 0.835212 0.121471 -0.020901 -242177.000000 0 0 1
17.668610 -4.698561 15.491950 23.963655 -0.259912 0.867839 0.106052 -0.024539 -137548.000000 0 1 0
16.258510 -4.648461 15.367250 22.849502 -0.278480 0.833158 0.112354 -0.028072 259640.000000 0 1 0
15.811510 -4.653861 13.985050 21.615825 -0.286250 0.867177 0.106771 -0.025875 247378.000000 0 1 0
15.977910 -3.344261 13.199550 20.992995 -0.206327 0.890839 0.089146 -0.025324 -134079.000000 0 1 0
15.084310 -2.356561 13.642050 20.474260 -0.154973 0.841557 0.085567 -0.014938 313860.000000 0 1 0
15.425410 -1.202361 12.927950 20.162362 -0.077789 0.874745 0.078164 -0.019047 79665.100000 0 1 0
14.524910 -0.040161 13.367450 19.739892 -0.002765 0.826874 0.089043 -0.010000 -824841.000000 0 1 0
14.817310 1.191339 12.779050 19.602961 0.080229 0.860717 0.085137 -0.014117 422875.000000 0 1 0
15.938510 1.903839 13.305550 20.849422 0.118886 0.878673 0.111364 -0.027609 363949.000000 0 1 0
16.101310 3.320039 12.793450 20.831400 0.203347 0.909497 0.097309 -0.023191 -340480.000000 0 1 0
15.123210 4.215339 13.205350 20.514918 0.271834 0.871480 0.073431 -0.013569 -224134.000000 0 1 0
15.148410 5.354439 12.396250 20.293136 0.339759 0.913651 0.085146 -0.023895 -954820.000000 0 1 0
14.191810 6.404739 12.749250 20.123905 0.423933 0.884679 0.070158 -0.019330 -971291.000000 0 1 0
14.346110 7.583039 11.946050 20.149975 0.486248 0.936195 0.052976 -0.025115 1015590.000000 0 1 0
13.367610 8.648139 12.196250 20.055718 0.574226 0.917108 0.046441 -0.014361 394814.000000 0 1 0
13.548910 9.480239 13.506150 21.350972 0.610528 0.885919 0.045446 -0.017070 -214797.000000 0 1 0
13.158410 8.825539 14.653150 21.581212 0.590800 0.824428 0.054412 -0.022975 337398.000000 0 1 0
13.796310 9.349839 15.809750 22.971850 0.595606 0.811760 0.076786 -0.027311 -220142.000000 0 1 0
13.352910 8.755339 17.153350 23.434880 0.580363 0.749605 0.071360 -0.026222 -634339.000000 0 1 0
12.055910 9.063639 17.544050 23.136297 0.644652 0.710108 0.058512 -0.037272 -657102.000000 0 1 0
11.509610 8.749739 18.826650 23.737561 0.650005 0.654888 0.081581 -0.017518 -227915.000000 0 1 0
12.216610 9.162239 20.139250 25.274129 0.643490 0.648762 0.096011 -0.020121 -343662.000000 0 0 1
13.476510 8.515039 20.171750 25.710343 0.563505 0.668782 0.112402 -0.026325 -20133.300000 0 0 1
14.115410 8.437839 21.415850 27.001492 0.538782 0.654856 0.103299 -0.020767 375454.000000 0 0 1
15.648610 8.176039 21.342050 27.698551 0.481467 0.691153 0.091061 -0.017966 408059.000000 0 0 1
16.338710 9.120739 20.565450 27.804300 0.509139 0.738246 0.086658 -0.015229 -225198.000000 0 0 1
17.021110 8.541939 19.492250 27.251252 0.465122 0.773773 0.069307 -0.009208 69453.600000 0 0 1
17.711210 9.694939 18.657650 27.491576 0.500837 0.824849 0.071452 -0.014499 -131541.000000 0 0 1
18.833810 10.276139 19.240550 28.818574 0.499476 0.839757 0.063179 -0.014811 -91971.900000 0 0 1
19.478410 11.244339 18.419450 29.070944 0.523540 0.884594 0.059198 -0.017189 -438533.000000 0 0 1
20.461410 12.043339 19.235650 30.556858 0.531986 0.889882 0.055740 -0.011393 -833007.000000 0 0 1
19.946110 13.014139 20.141450 31.191235 0.578106 0.868803 0.032788 -0.012590 807411.000000 0 0 1
20.877410 13.362039 21.206850 32.621172 0.569330 0.863087 0.037617 -0.002248 489067.000000 0 0 1
22.100210 14.289539 20.985450 33.660056 0.573967 0.897645 0.020287 -0.005829 -53028.300000 0 0 1
23.163210 13.530239 20.480950 33.750126 0.528666 0.918717 0.007915 0.004607 3000.070000 0 0 1
24.403010 14.242039 20.590450 34.961539 0.528287 0.941043 0.020732 -0.001067 1422490.000000 0 0 1
25.670210 13.303839 20.397750 35.383895 0.478149 0.956394 0.036984 -0.010327 892501.000000 0 0 1
26.043310 12.974239 19.054150 34.779959 0.462190 0.991006 0.065366 -0.029598 23213.700000 0 0 1
27.299610 12.346139 19.010250 35.483595 0.424720 1.005403 0.107454 -0.034581 -102241.000000 0 0 1
27.717810 11.788739 17.623650 34.897628 0.402136 1.041403 0.144947 -0.049743 -168781.000000 0 0 1
28.294310 12.666639 16.707350 35.215725 0.420918 1.076481 0.150494 -0.058868 -52489.000000 0 0 1
28.522010 12.065239 15.434250 34.601895 0.400188 1.108447 0.169234 -0.058745 -65812.400000 0 0 1
27.353110 11.688439 14.471750 33.079356 0.403831 1.117995 0.144903 -0.060027 121054.000000 0 0 1
26.591610 12.813639 14.068650 32.699083 0.449037 1.126031 0.165174 -0.063492 -52097.500000 0 0 1
25.677210 12.520539 13.045750 31.405010 0.453689 1.142410 0.152998 -0.049000 -23347.800000 0 0 1
25.077510 13.802339 12.371850 31.184111 0.503140 1.162838 0.129913 -0.044643 -37489.000000 0 0 1
24.306910 14.594539 13.214650 31.280241 0.540734 1.134639 0.105656 -0.043738 7385.090000 0 0 1
24.748310 15.948639 13.096850 32.223678 0.572452 1.152247 0.094601 -0.030773 -249695.000000 0 0 1
23.693610 17.013539 13.420750 32.108632 0.622747 1.139576 0.090304 -0.033549 79772.300000 0 0 1
22.675610 17.097239 12.426450 30.998638 0.646051 1.158329 0.104523 -0.050746 627523.000000 0 0 1
21.662310 18.015939 12.811750 30.951102 0.693757 1.144024 0.077036 -0.040359 -339896.000000 0 0 1
20.665310 18.564839 11.761150 30.166753 0.731907 1.170305 0.097423 -0.024974 930909.000000 0 0 1
19.558110 17.764539 11.313450 28.741828 0.737379 1.166227 0.097903 -0.024270 78171.400000 0 0 1
18.561510 17.661039 12.283650 28.413554 0.760544 1.123736 0.083491 -0.022935 -828057.000000 0 0 1
17.270810 17.001739 11.723950 26.921944 0.777547 1.120226 0.084070 -0.011695 -87837.500000 0 0 1
17.322910 15.642539 11.404350 25.977518 0.734469 1.116302 0.086509 -0.013119 -416667.000000 0 0 1
16.049210 15.230339 11.031950 24.723356 0.759225 1.108264 0.081082 -0.012305 -396974.000000 0 1 0
16.133110 13.954339 10.198850 23.643548 0.713110 1.124798 0.085628 -0.019815 -142139.000000 0 1 0
16.302310 12.863239 10.993850 23.496659 0.668025 1.083895 0.089676 -0.011698 306608.000000 0 1 0
16.274210 11.707439 10.187750 22.487870 0.623619 1.100632 0.061633 -0.008161 -90660.700000 0 1 0
16.980610 10.529939 10.951350 22.784925 0.555079 1.069412 0.078563 -0.015049 -1399860.000000 0 1 0
17.322310 9.566139 9.998250 22.170667 0.504564 1.102947 0.063976 -0.021827 332606.000000 0 1 0
17.943010 8.417639 10.578550 22.465841 0.438650 1.080517 0.075278 -0.024064 310647.000000 0 1 0
19.338610 8.662939 11.187050 23.962021 0.421157 1.085053 0.085353 -0.026778 -1185180.000000 0 1 0
19.141810 9.257139 12.436750 24.632830 0.450449 1.041547 0.081587 -0.025298 -293089.000000 0 1 0
20.232310 9.413139 13.317950 25.986946 0.435466 1.032719 0.104263 -0.028727 -1159530.000000 0 0 1
19.800610 9.697039 14.732750 26.516988 0.455401 0.981716 0.069743 -0.015454 102969.000000 0 0 1
19.163110 8.669139 15.522450 26.140490 0.424837 0.935012 0.077245 -0.013346 1188970.000000 0 0 1
17.922610 8.171639 14.997950 24.757507 0.427783 0.920033 0.092729 -0.023818 -9099.950000 0 1 0
17.666510 6.782139 15.523650 24.476248 0.366549 0.883780 0.127749 -0.031194 -126067.000000 0 1 0
16.904410 6.767839 16.706350 24.711634 0.380816 0.828405 0.135887 -0.023425 -1491.840000 0 1 0
16.483510 5.453639 17.009350 24.305684 0.319518 0.795665 0.138403 -0.012258 -161744.000000 0 1 0
15.130610 5.329839 17.759250 23.931852 0.338683 0.734634 0.131791 -0.015168 533209.000000 0 1 0
14.477610 4.067339 17.883950 23.366218 0.273880 0.699170 0.142216 -0.012869 179407.000000 0 1 0
13.910310 3.548939 16.748750 22.059291 0.249801 0.708620 0.123862 -0.011478 -686130.000000 0 1 0
13.778110 2.051239 16.707050 21.752458 0.147791 0.695000 0.125390 -0.012137 81585.800000 0 1 0
14.983910 1.313439 16.894850 22.620315 0.087433 0.727426 0.128179 -0.012993 132930.000000 0 1 0
14.838810 -0.059661 17.093450 22.635810 -0.004021 0.714912 0.127590 -0.004987 -765882.000000 0 1 0
13.876110 -0.683561 18.076150 22.798265 -0.049222 0.655286 0.129342 -0.017059 -676202.000000 0 1 0
12.540710 -0.622461 17.649650 21.660264 -0.049594 0.618343 0.121689 -0.008630 -445108.000000 0 1 0
11.775610 -1.421061 18.543150 22.012106 -0.120098 0.569062 0.111198 -0.017726 135168.000000 0 1 0
-26.210340 14.020939 28.259930 41.014537 -0.491207 0.810657 0.102900 -0.013619 -265403.000000 0 0 1
-25.302910 14.029039 29.353450 41.215000 -0.506248 0.778165 0.090818 -0.008374 453271.000000 0 0 1
-24.812690 12.729839 29.577160 40.651282 -0.474023 0.756005 0.072392 -0.009636 -423395.000000 0 0 1
-23.776390 12.608939 30.699630 40.826086 -0.487603 0.719764 0.075485 -0.024051 -424300.000000 0 0 1
-24.192490 12.840239 32.024659 42.139377 -0.487946 0.707529 0.069792 -0.023085 68787.600000 0 0 1
-23.094890 12.904639 32.912835 42.227460 -0.509548 0.677060 0.061402 -0.013835 -407121.000000 0 0 1
-23.545190 13.269939 -33.466182 43.016887 -0.513221 2.462237 0.050305 0.000769 -79967.300000 0 0 1
-24.184590 12.203639 -32.826102 42.560265 -0.467324 2.451654 0.042812 0.001200 13329.300000 0 0 1
-24.795390 12.651139 -31.642452 42.143889 -0.471791 2.420098 0.031251 0.004873 -145611.000000 0 0 1
-25.697690 11.601539 -30.944012 41.862857 -0.424069 2.402642 0.022001 -0.001452 74951.500000 0 0 1
-25.012390 10.549339 -30.226402 40.626882 -0.399127 2.409833 0.030201 -0.007340 422467.000000 0 0 1
-24.592090 9.488739 -31.055262 40.733725 -0.368245 2.437805 0.032881 -0.006564 297253.000000 0 0 1
-23.759690 8.375539 -30.268482 39.380877 -0.338910 2.447460 0.036961 0.001175 577873.000000 0 0 1
-24.512490 7.516639 -29.413782 39.019643 -0.297542 2.424653 0.040254 -0.001577 228018.000000 0 0 1
-23.616990 6.823839 -28.599472 37.712819 -0.281277 2.431573 0.041533 0.004372 -323447.000000 0 0 1
-24.281890 6.044339 -27.486532 37.170602 -0.243965 2.403079 0.041450 0.003839 -142429.000000 0 0 1
-25.116550 4.990939 -27.934202 37.895516 -0.196156 2.399621 0.044065 -0.002426 167970.000000 0 0 1
-25.249550 4.028439 -26.900632 37.113502 -0.158212 2.381570 0.065268 -0.000305 -423236.000000 0 0 1
-25.845390 2.732739 -27.474682 37.819441 -0.105343 2.383967 0.066844 0.000292 515955.000000 0 0 1
-27.228800 2.665139 -27.791112 38.998159 -0.097569 2.364031 0.088576 -0.007486 573412.000000 0 0 1
-27.680100 3.464039 -28.897732 40.165487 -0.124498 2.373831 0.082099 -0.012509 283247.000000 0 0 1
-29.111560 3.238039 -29.505222 41.575544 -0.110773 2.359836 0.097361 -0.021624 1194430.000000 0 0 1
-30.228570 3.654939 -28.696962 41.840657 -0.120326 2.326585 0.090331 -0.024609 967555.000000 0 0 1
-31.458140 3.757539 -29.415112 43.231729 -0.118882 2.319112 0.099938 -0.025944 523400.000000 0 0 1
-31.759140 5.119339 -30.121832 44.070118 -0.159818 2.323340 0.090221 -0.037333 -369324.000000 0 0 1
-30.864240 5.439539 -31.182372 44.210069 -0.174449 2.353675 0.082431 -0.033202 22237.900000 0 0 1
-31.108510 6.660639 -31.824552 44.998951 -0.210925 2.356367 0.082929 -0.027744 -634030.000000 0 0 1
-30.596970 7.972239 -31.132992 44.373351 -0.254889 2.348457 0.055961 -0.018768 -136478.000000 0 0 1
-29.189440 7.914139 -30.966522 43.284899 -0.264765 2.368009 0.029020 -0.013409 304383.000000 0 0 1
-28.716750 7.565139 -29.665192 41.975072 -0.257587 2.355667 0.031025 -0.017097 -437941.000000 0 0 1
-28.936080 8.684339 -28.591542 41.595561 -0.291568 2.328658 0.026720 -0.008800 253441.000000 0 0 1
-30.222050 8.878839 -27.989712 42.138225 -0.285747 2.297267 0.030042 -0.010274 523206.000000 0 0 1
-30.560050 7.792739 -27.096282 41.579465 -0.249677 2.280586 0.040197 -0.004505 -582040.000000 0 0 1
-31.926630 7.984039 -26.438782 42.214497 -0.245049 2.247590 0.033572 -0.004039 -344122.000000 0 0 1
-31.927070 8.794939 -25.252302 41.645738 -0.268803 2.222271 0.025909 0.002410 -24523.200000 0 0 1
-31.708700 8.003439 -24.043302 40.590356 -0.247241 2.204757 0.042295 0.001731 126500.000000 0 0 1
-31.102500 8.984139 -22.956902 39.687524 -0.281202 2.187613 0.053417 0.000721 -9588.900000 0 0 1
-32.037790 9.812139 -22.280402 40.238220 -0.297197 2.157612 0.048473 0.006494 345031.000000 0 0 1
-31.430400 10.940639 -21.604902 39.677946 -0.334973 2.146597 0.055376 0.005671 -81970.900000 0 0 1
-32.450130 11.803739 -20.841202 40.332305 -0.348871 2.113832 0.058024 0.013469 -106977.000000 0 0 1
-32.919180 11.141039 -19.685002 39.941137 -0.326336 2.086159 0.063630 0.009030 449149.000000 0 0 1
-33.852300 11.819339 -18.840802 40.504948 -0.335912 2.054598 0.060920 0.012029 359365.000000 0 0 1
-33.192780 13.022039 -18.090102 39.982320 -0.373864 2.040310 0.070996 0.006672 362519.000000 0 0 1
-32.328260 12.802739 -16.964702 38.688856 -0.377073 2.024715 0.113425 -0.001318 548961.000000 0 0 1
-32.979240 12.313439 -15.751002 38.566113 -0.357340 1.991514 0.101896 -0.006063 7802.610000 0 0 1
-33.676660 13.362839 -14.868902 39.163339 -0.377743 1.960229 0.086207 0.006092 62251.200000 0 0 1
-34.831299 13.910239 -15.455902 40.565983 -0.379955 1.961681 0.057453 0.004983 160606.000000 0 0 1
-35.581282 14.821239 -14.646302 41.233614 -0.394688 1.933928 0.037190 0.008275 372611.000000 0 0 1
-36.213480 16.002639 -15.381502 42.474594 -0.416095 1.941353 0.033652 0.001466 241833.000000 0 0 1
-37.164190 15.579639 -16.350702 43.488477 -0.396957 1.956248 0.028400 -0.003237 25401.100000 0 0 1
36.871852 16.681639 -16.834902 43.831775 0.424866 1.965007 0.017375 -0.008545 -652140.000000 0 0 1
36.380512 16.499339 -18.298502 43.938651 0.425778 2.000340 0.021433 -0.005749 582480.000000 0 0 1
35.265982 15.601739 -18.409302 42.731793 0.416517 2.016187 0.035434 -0.013313 911876.000000 0 0 1
33.989472 16.252739 -18.307902 41.888125 0.446031 2.023131 0.054895 -0.014769 18328.400000 0 0 1
32.920832 15.233439 -18.758702 40.837823 0.433389 2.048055 0.062829 -0.024961 -275820.000000 0 0 1
33.019612 14.870339 -20.134902 41.434720 0.423144 2.078238 0.066422 -0.022027 187172.000000 0 0 1
32.123502 13.778139 -20.410702 40.476577 0.405179 2.099321 0.046267 -0.012434 190133.000000 0 0 1
32.607892 12.360839 -20.136802 40.268546 0.362339 2.094468 0.052689 -0.001903 -93792.900000 0 0 1
32.659942 12.164639 -18.748002 39.574460 0.356545 2.064329 0.055395 -0.002046 308088.000000 0 0 1
33.431292 10.999339 -18.404902 39.716208 0.317857 2.052636 0.062118 -0.003992 125401.000000 0 0 1
33.625812 10.832939 -16.903402 39.163412 0.311662 2.017075 0.058650 0.001198 236264.000000 0 0 1
32.458232 10.296039 -16.267802 37.738398 0.307169 2.016472 0.063664 -0.008226 480616.000000 0 0 1
32.572392 10.117639 -14.834002 37.193749 0.301171 1.981037 0.043751 -0.007472 -240228.000000 0 0 1
31.856502 11.156139 -13.958202 36.525711 0.336853 1.962915 0.068328 -0.015335 -637685.000000 0 0 1
30.468192 10.981339 -13.897102 35.242446 0.345927 1.976133 0.058589 -0.009164 -554925.000000 0 0 1
29.998022 12.104039 -13.181002 34.930330 0.383515 1.957731 0.076452 -0.012678 223404.000000 0 0 1
28.441502 12.145439 -13.186102 33.619995 0.403591 1.973829 0.075126 -0.008834 179027.000000 0 0 1
27.894202 11.048039 -12.440002 32.479214 0.377113 1.963854 0.066580 -0.010130 466750.000000 0 0 1
26.489202 10.815439 -12.494202 31.221093 0.387638 1.982515 0.069409 -0.000596 441716.000000 0 0 1
25.996202 10.113739 -13.773602 31.109522 0.371028 2.029455 0.053620 -0.007008 -662801.000000 0 0 1
26.395402 8.774039 -14.063502 31.168624 0.320917 2.038914 0.048599 -0.006433 130575.000000 0 0 1
27.747902 8.537739 -14.374702 32.395542 0.298496 2.030547 0.059047 -0.015504 -272771.000000 0 0 1
28.518802 7.603339 -13.434802 32.428795 0.260548 1.997955 0.061490 -0.018464 -346005.000000 0 0 1
28.128202 6.206839 -13.442502 31.787128 0.217182 2.007430 0.054695 -0.027079 890833.000000 0 0 1
27.053102 5.878439 -12.541102 30.392526 0.213966 1.996144 0.079463 -0.028786 336722.000000 0 0 1
26.592402 4.416139 -12.763702 29.825664 0.164566 2.013013 0.085765 -0.025359 -399917.000000 0 0 1
25.988902 3.818339 -11.666202 28.742008 0.145878 1.988753 0.103460 -0.032541 124014.000000 0 0 1
25.705802 2.477839 -11.963902 28.461604 0.096095 2.004630 0.108392 -0.035593 -173250.000000 0 0 1
24.908502 1.967739 -10.743102 27.197789 0.078835 1.976863 0.137485 -0.036212 -212440.000000 0 0 1
25.728202 1.871639 -9.611402 27.528576 0.072619 1.927452 0.149207 -0.026616 651429.000000 0 0 1
25.072902 1.069239 -8.657902 26.547184 0.042619 1.903006 0.166113 -0.024103 -303165.000000 0 0 1
26.069802 0.782139 -7.533902 27.147855 0.029993 1.852002 0.200929 -0.017736 -284415.000000 0 0 1
26.009502 -0.449061 -6.868502 26.904873 -0.017264 1.828942 0.171213 -0.027370 305575.000000 0 0 1
26.115202 -1.661961 -7.591002 27.246820 -0.063554 1.853134 0.135741 -0.030135 -406651.000000 0 0 1
26.531302 -2.878361 -6.735502 27.523843 -0.108067 1.818022 0.139464 -0.033591 -380574.000000 0 0 1
27.900202 -2.907161 -6.410702 28.774467 -0.103824 1.795473 0.135987 -0.034897 126656.000000 0 0 1
28.189702 -4.069461 -5.712502 29.049139 -0.143369 1.768736 0.141350 -0.051470 51095.400000 0 0 1
29.688902 -4.193061 -5.334702 30.454420 -0.140305 1.746875 0.156619 -0.053688 68526.100000 0 0 1
30.551242 -4.357861 -6.406302 31.518408 -0.141685 1.775478 0.125008 -0.046506 1471720.000000 0 0 1
31.946942 -4.652861 -6.095102 32.854322 -0.144626 1.757396 0.109962 -0.038355 1852920.000000 0 0 1
32.799982 -5.177561 -7.285902 33.996034 -0.156561 1.786788 0.125479 -0.044021 -44366.400000 0 0 1
32.225732 -6.323161 -7.873202 33.770808 -0.193753 1.806098 0.142414 -0.058517 -242238.000000 0 0 1
32.679782 -6.698961 -9.153102 34.592247 -0.202187 1.838585 0.132610 -0.036382 -465447.000000 0 0 1
31.505202 -7.332261 -9.979002 33.851445 -0.228661 1.870030 0.125510 -0.035014 636814.000000 0 0 1
30.366552 -6.646061 -10.425102 32.786893 -0.215464 1.894379 0.105343 -0.050884 411808.000000 0 0 1
29.647002 -6.064061 -9.332302 31.667167 -0.201759 1.869937 0.139137 -0.056633 -507137.000000 0 0 1
28.279802 -5.406061 -9.784202 30.408935 -0.188884 1.898378 0.131327 -0.050989 661261.000000 0 0 1
27.143002 -6.216361 -9.809102 29.522943 -0.225140 1.909488 0.112490 -0.041903 295490.000000 0 0 1
25.959802 -5.458361 -10.004502 28.351280 -0.207243 1.931440 0.100453 -0.036675 908257.000000 0 0 1
24.587302 -6.146461 -9.684302 27.131165 -0.244965 1.935790 0.121179 -0.034832 171995.000000 0 0 1
24.484802 -6.481461 -8.298602 26.652986 -0.258778 1.887417 0.129110 -0.042004 660956.000000 0 0 1
23.170502 -6.612461 -7.776202 25.319284 -0.277993 1.882968 0.120261 -0.052474 48778.000000 0 0 1
22.366602 -5.333661 -7.420902 24.161594 -0.234093 1.882979 0.132441 -0.038236 -206103.000000 0 1 0
22.094702 -4.540861 -8.544002 24.120432 -0.202696 1.932879 0.156067 -0.038865 368660.000000 0 1 0
21.644202 -3.278461 -8.269802 23.401056 -0.150328 1.931993 0.130062 -0.043954 -344036.000000 0 1 0
21.791002 -2.388961 -9.496302 23.890054 -0.109195 1.979587 0.143906 -0.025719 1302060.000000 0 1 0
23.198502 -2.046061 -9.714802 25.233594 -0.087970 1.965998 0.139101 -0.034972 2140630.000000 0 0 1
23.401102 -1.662961 -11.020602 25.919697 -0.070944 2.009960 0.153795 -0.028365 -309093.000000 0 0 1
24.772202 -1.993561 -11.645502 27.445473 -0.080303 2.009001 0.122816 -0.023313 480491.000000 0 0 1
25.841102 -1.215061 -11.046702 28.129496 -0.046986 1.974372 0.114126 -0.026303 1637780.000000 0 0 1
27.090202 -1.481561 -11.712802 29.551037 -0.054635 1.978343 0.102524 -0.024022 514473.000000 0 0 1
28.175702 -0.436761 -11.329102 30.371195 -0.015500 1.953060 0.086380 -0.014808 -651306.000000 0 0 1
29.349402 -0.519861 -12.091302 31.746768 -0.017711 1.961530 0.079036 -0.016672 -15887.700000 0 0 1
30.243922 0.529439 -11.824702 32.477665 0.017504 1.943449 0.069910 -0.013505 -137425.000000 0 0 1
30.108192 1.739939 -12.751702 32.743496 0.057725 1.970822 0.073976 -0.017219 -301707.000000 0 0 1
30.412362 1.501339 -14.135302 33.570412 0.049326 2.005415 0.062066 -0.021235 407304.000000 0 0 1
30.475882 2.614339 -14.946602 34.044311 0.085574 2.025319 0.076346 -0.022294 -78234.200000 0 0 1
30.870872 2.323939 -16.403902 35.035688 0.075138 2.058055 0.074216 -0.021455 -4842.090000 0 0 1
29.761972 1.750639 -17.049402 34.344167 0.058754 2.090275 0.073054 -0.008325 -138245.000000 0 0 1
29.958832 1.661139 -18.414402 35.204846 0.055391 2.121239 0.064979 -0.008373 -255059.000000 0 0 1
28.890502 0.927039 -19.230702 34.718013 0.032077 2.157851 0.048417 -0.011984 -349610.000000 0 0 1
28.743902 -0.405461 -18.978402 34.446423 -0.014105 2.154304 0.064852 -0.011101 18275.700000 0 0 1
28.160302 -1.101861 -20.032602 34.576319 -0.039108 2.188756 0.040153 -0.015189 -353332.000000 0 0 1
27.901202 -2.575161 -19.784102 34.300426 -0.092035 2.185589 0.052928 -0.025167 -13513.100000 0 0 1
26.791302 -3.010461 -19.018002 32.992744 -0.111898 2.185149 0.068964 -0.020465 216182.000000 0 0 1
26.657702 -4.427461 -19.224102 33.163257 -0.164583 2.189133 0.082201 -0.018548 -170967.000000 0 0 1
27.495502 -5.312761 -18.299402 33.452895 -0.190871 2.149597 0.064479 -0.017133 -1136720.000000 0 0 1
28.853302 -5.301761 -18.540502 34.704062 -0.181722 2.134412 0.057801 -0.018849 -821484.000000 0 0 1
29.573402 -5.749561 -17.386402 34.784056 -0.192021 2.094208 0.055806 -0.017464 68447.800000 0 0 1
31.061352 -5.350461 -17.410002 36.007544 -0.170581 2.075456 0.073712 -0.010339 -220953.000000 0 0 1
31.801972 -6.105761 -18.334002 37.212651 -0.189685 2.085965 0.057448 -0.016783 232963.000000 0 0 1
33.112372 -5.554461 -18.503502 38.336155 -0.166198 2.074491 0.080425 -0.017857 118709.000000 0 0 1
33.956272 -6.597761 -19.223202 39.573860 -0.191910 2.078023 0.074185 -0.015354 -479107.000000 0 0 1
34.385182 -7.629861 -18.325002 39.703416 -0.218356 2.050535 0.077224 -0.019808 38002.800000 0 0 1
34.875902 -8.727761 -19.043402 40.683578 -0.245216 2.057920 0.070467 -0.008783 -132585.000000 0 0 1
35.756942 -9.631761 -18.162402 41.245637 -0.263122 2.026782 0.090475 -0.011034 -315739.000000 0 0 1
34.997822 -10.223261 -17.074502 40.260418 -0.284204 2.008766 0.063011 -0.015547 228461.000000 0 0 1
35.674782 -11.110361 -16.250802 40.745782 -0.301914 1.981041 0.088497 -0.015429 324618.000000 0 0 1
36.892192 -10.418061 -15.445202 41.329458 -0.275225 1.953801 0.109194 -0.012593 597852.000000 0 0 1
-37.367110 -11.079061 -14.247702 41.497511 0.288236 1.921266 0.097131 -0.020374 395281.000000 0 0 1
-36.768120 -12.336661 -14.371202 41.359633 0.323723 1.925667 0.095331 -0.014318 -1051680.000000 0 0 1
-35.358213 -12.390961 -14.927502 40.330750 0.337067 1.949942 0.114920 -0.016007 -881496.000000 0 0 1
-35.287694 -12.046761 -16.290502 40.690616 0.328981 1.982695 0.130503 -0.014512 452664.000000 0 0 1
-33.908740 -11.990361 -16.666202 39.640051 0.339884 2.004725 0.159734 -0.023630 610633.000000 0 0 1
-33.620250 -11.162261 -17.968802 39.721469 0.320559 2.040217 0.188773 -0.026161 128751.000000 0 0 1
-33.862810 -9.780261 -17.773002 39.474333 0.281169 2.037833 0.171408 -0.026585 -471767.000000 0 0 1
-35.026058 -9.406361 -18.426902 40.679910 0.262363 2.040894 0.157971 -0.025725 -752819.000000 0 0 1
-35.342250 -7.980161 -17.988902 40.451924 0.222073 2.031634 0.181817 -0.030549 14087.600000 0 0 1
-36.399320 -7.328161 -18.687202 41.567101 0.198671 2.037077 0.157458 -0.030549 359452.000000 0 0 1
-36.771020 -5.999861 -18.267802 41.494804 0.161743 2.026666 0.143924 -0.032751 -455.839000 0 0 1
25.266410 27.620139 -26.763172 46.016638 0.829874 2.191488 0.042827 0.013570 320070.000000 0 0 1
25.770610 26.626739 -25.853922 45.183325 0.801736 2.179983 0.035468 0.003069 -33756.800000 0 0 1
26.998910 26.093939 -26.286792 45.834815 0.768355 2.181582 0.046311 0.001459 -244042.000000 0 0 1
27.542610 25.015339 -25.319342 45.004796 0.737350 2.168314 0.051735 -0.001437 -402819.000000 0 0 1
27.891510 25.611339 -24.085902 44.877697 0.742806 2.137319 0.047211 0.004457 201068.000000 0 0 1
28.106610 24.612339 -23.085302 43.916739 0.719214 2.124288 0.046107 0.007402 -11116.800000 0 0 1
28.753510 25.188439 -21.810902 44.010650 0.719403 2.089302 0.042518 0.013553 -20430.000000 0 0 1
27.895610 25.986039 -21.029002 43.539158 0.749973 2.074863 0.041935 0.005832 -148833.000000 0 0 1
28.583910 26.601839 -19.979302 43.861946 0.749497 2.043735 0.019565 0.012766 50466.900000 0 0 1
27.704210 27.575939 -19.173202 43.538114 0.783078 2.026815 0.034441 0.007644 417312.000000 0 0 1
26.671610 27.050139 -18.322502 42.175810 0.792444 2.020203 0.046373 0.006818 320687.000000 0 0 1
25.884710 28.156039 -17.916802 42.234969 0.827403 2.008894 0.041822 0.001074 68985.600000 0 0 1
24.752110 27.736939 -16.948602 40.856577 0.842203 1.998554 0.051586 -0.006308 160459.000000 0 0 1
23.765610 26.943239 -17.573802 39.994761 0.847981 2.025730 0.070903 -0.005966 259557.000000 0 0 1
22.578510 26.868239 -16.771102 38.896803 0.871936 2.016584 0.045640 0.003895 781628.000000 0 0 1
21.580510 25.835639 -17.387402 37.888262 0.874898 2.047567 0.045256 -0.004717 48948.800000 0 0 1
21.101310 26.207639 -18.657902 38.473666 0.892918 2.077105 0.041471 -0.006270 -377069.000000 0 0 1
20.283810 25.260739 -19.281702 37.700424 0.894242 2.107662 0.038799 -0.000158 -123802.000000 0 0 1
19.811910 25.795839 -20.633902 38.518762 0.915857 2.136114 0.030718 0.004122 -367426.000000 0 0 1
18.931210 26.840439 -20.517202 38.726677 0.956506 2.129155 0.014449 0.008649 -1033680.000000 0 0 1
17.742410 26.518539 -21.216402 38.316599 0.981141 2.157613 0.015709 -0.004491 361597.000000 0 0 1
16.617310 27.596339 -20.986002 38.446134 1.028793 2.148205 0.019915 0.002155 165306.000000 0 0 1
16.073110 27.561739 -19.711902 37.504045 1.042846 2.124210 0.022559 0.007070 -882043.000000 0 0 1
15.086710 28.511139 -19.569702 37.728863 1.084100 2.116118 0.022965 -0.003141 -736970.000000 0 0 1
14.529210 28.556839 -18.136202 36.817290 1.100148 2.085871 0.022700 0.002272 37914.600000 0 0 1
13.575510 27.541739 -17.846302 35.515241 1.112839 2.097281 0.020831 0.003697 1983.830000 0 0 1
13.207510 27.540039 -16.456802 34.694645 1.123622 2.065002 0.053321 0.001598 104886.000000 0 0 1
12.251410 26.364539 -16.078902 33.222238 1.135791 2.075994 0.062619 -0.002550 7270.570000 0 0 1
12.824110 25.084839 -15.879602 32.339894 1.098206 2.084059 0.037492 -0.000856 -283706.000000 0 0 1
11.884410 24.034639 -15.930702 31.187984 1.111582 2.106907 0.076428 -0.005577 166376.000000 0 0 1
12.633210 22.674539 -16.052002 30.518838 1.062477 2.124652 0.056453 -0.002530 222746.000000 0 0 1
13.305510 22.630739 -17.287602 31.433233 1.039292 2.153135 0.053842 0.004275 -746318.000000 0 0 1
14.108610 21.492339 -17.509902 31.105790 0.989901 2.168704 0.053732 0.007157 -421848.000000 0 0 1
13.491310 20.061839 -17.777602 30.008932 0.978776 2.204844 0.061079 -0.000682 44387.700000 0 0 1
12.985410 19.488039 -16.578402 28.692298 0.983029 2.186827 0.081165 -0.014335 137534.000000 0 0 1
12.417310 18.155239 -16.682502 27.606307 0.970922 2.219684 0.074300 -0.015920 436605.000000 0 0 1
13.468910 17.010539 -16.735402 27.401527 0.901077 2.227800 0.086640 -0.012829 562991.000000 0 0 1
14.302510 16.887939 -15.564202 27.055659 0.868101 2.183726 0.095563 -0.020946 739517.000000 0 0 1
15.343810 15.935339 -15.759302 27.161059 0.804307 2.189791 0.116658 -0.025061 18109.000000 0 0 1
15.942910 15.294039 -14.465802 26.407261 0.764629 2.150524 0.164056 -0.025435 -717782.000000 0 0 1
16.661510 16.055139 -13.530902 26.804081 0.766866 2.099955 0.136642 -0.025335 1315430.000000 0 0 1
17.989610 16.538539 -13.831702 28.079625 0.743397 2.085858 0.111148 -0.023178 1788550.000000 0 0 1
19.076610 15.496239 -14.390002 28.480215 0.682206 2.100483 0.114174 -0.028087 -16261.100000 0 0 1
19.645210 14.452739 -13.595902 27.922473 0.634278 2.079352 0.139353 -0.033706 124055.000000 0 0 1
20.825510 14.859239 -12.950802 28.674416 0.619737 2.039410 0.132650 -0.026297 193319.000000 0 0 1
21.699110 13.678139 -12.362102 28.473926 0.562441 2.019897 0.137349 -0.037981 326043.000000 0 0 1
21.047410 13.179039 -11.190602 27.238027 0.559433 1.994177 0.217766 -0.040735 318785.000000 0 0 1
21.722610 12.136439 -10.521302 27.015972 0.509499 1.970828 0.229919 -0.026347 -509772.000000 0 0 1
21.717010 10.719939 -11.099102 26.640865 0.458530 2.000520 0.190416 -0.031688 -242777.000000 0 0 1
22.588510 10.543839 -12.238202 27.770253 0.436719 2.027169 0.143271 -0.019576 693498.000000 0 0 1
22.374110 9.368939 -12.923702 27.484539 0.396557 2.060333 0.109948 -0.016891 -133905.000000 0 0 1
23.007810 8.106039 -12.255402 27.299489 0.338737 2.036357 0.111579 -0.001360 -763462.000000 0 0 1
22.302610 7.723939 -11.156702 26.106276 0.333397 2.012364 0.139538 -0.017639 7392.960000 0 0 1
22.800210 6.620739 -10.403302 25.921275 0.282608 1.983778 0.130334 -0.014641 -720776.000000 0 0 1
22.761810 5.244539 -11.118502 25.869408 0.226457 2.015060 0.145535 -0.021168 163708.000000 0 0 1
21.530010 4.536939 -11.166902 24.674377 0.207688 2.040442 0.154566 -0.042158 528747.000000 0 1 0
20.602710 5.054139 -12.095302 24.419507 0.240564 2.088992 0.090984 -0.040697 -495995.000000 0 1 0
19.655410 3.997339 -12.643302 23.710060 0.200635 2.133230 0.099240 -0.055008 -201973.000000 0 1 0
20.340310 3.245739 -13.610002 24.687957 0.158238 2.154695 0.104826 -0.039946 456146.000000 0 1 0
19.807910 1.930939 -13.714302 24.169483 0.097176 2.174168 0.124397 -0.038949 -381583.000000 0 1 0
20.701110 1.048339 -14.556702 25.328493 0.050598 2.183054 0.142488 -0.027774 -843586.000000 0 0 1
21.838110 0.636739 -13.840602 25.862536 0.029149 2.135494 0.160773 -0.025212 -104495.000000 0 0 1
22.944110 0.388139 -14.678902 27.240650 0.016915 2.139880 0.105795 -0.025674 -81610.300000 0 0 1
23.009810 -1.030861 -15.275002 27.637650 -0.044771 2.156383 0.094609 -0.021114 -885382.000000 0 0 1
22.012510 -1.394561 -16.201002 27.367277 -0.063269 2.204315 0.090958 -0.018234 -316435.000000 0 0 1
22.291510 -2.478561 -17.053002 28.175514 -0.110734 2.220866 0.087250 -0.022324 -462118.000000 0 0 1
21.112210 -3.238561 -17.677102 27.725325 -0.152211 2.262149 0.080267 -0.022657 -371071.000000 0 0 1
20.400810 -4.019761 -16.733102 26.689853 -0.194547 2.248423 0.099197 -0.026756 492369.000000 0 0 1
19.473410 -4.820661 -17.490702 26.615355 -0.242672 2.287849 0.083311 -0.028959 827539.000000 0 0 1
18.626110 -5.884161 -16.662402 25.674714 -0.305988 2.277041 0.085080 -0.034022 508527.000000 0 0 1
19.539810 -6.861761 -16.127602 26.248571 -0.337715 2.232445 0.084098 -0.024531 515862.000000 0 0 1
19.003510 -7.978061 -15.547302 25.816689 -0.397475 2.217074 0.093603 -0.012411 -301186.000000 0 0 1
20.066510 -9.020261 -15.096902 26.682323 -0.422453 2.172201 0.116276 -0.011675 439057.000000 0 0 1
20.816810 -9.595661 -16.167302 28.049919 -0.431929 2.185083 0.112006 -0.020751 601318.000000 0 0 1
21.929210 -10.354861 -15.730302 28.905982 -0.441157 2.146218 0.107650 -0.029216 -81726.700000 0 0 1
22.383410 -11.239761 -16.917902 30.225232 -0.465364 2.164854 0.101411 -0.024166 -304367.000000 0 0 1
23.186410 -10.597061 -17.862102 31.128154 -0.428691 2.181965 0.093970 -0.021764 -137013.000000 0 0 1
23.564310 -11.440161 -18.926902 32.316893 -0.451970 2.196498 0.097069 -0.026512 40801.100000 0 0 1
22.603110 -11.505061 -20.160402 32.399210 -0.470824 2.242410 0.107068 -0.022934 607372.000000 0 0 1
21.334310 -12.130361 -20.026402 31.675783 -0.517000 2.255225 0.098516 -0.024708 224330.000000 0 0 1
21.284610 -13.541461 -19.915302 32.140707 -0.566619 2.239066 0.089110 -0.013325 -882204.000000 0 0 1
19.857110 -14.061061 -19.816402 31.380058 -0.616150 2.254278 0.080361 -0.013077 -157486.000000 0 0 1
19.084610 -13.714061 -20.966802 31.494517 -0.623096 2.299266 0.079557 -0.003968 194468.000000 0 0 1
17.683110 -13.813961 -20.732002 30.550512 -0.663169 2.316670 0.063488 -0.000173 531802.000000 0 0 1
16.885910 -13.196761 -21.923802 30.658466 -0.663374 2.367560 0.049526 -0.001184 -209987.000000 0 0 1
16.968210 -14.006561 -23.083902 31.889974 -0.690073 2.380178 0.045605 -0.000426 107379.000000 0 0 1
16.448310 -13.318361 -24.148402 32.110293 -0.680634 2.421956 0.054108 -0.007679 -334052.000000 0 0 1
16.547010 -14.150361 -25.472182 33.509227 -0.707483 2.434347 0.051654 -0.016032 128972.000000 0 0 1
15.533910 -15.151261 -25.630012 33.582146 -0.772929 2.439053 0.056356 -0.017868 291981.000000 0 0 1
15.660010 -15.929061 -26.807402 34.894236 -0.793915 2.446895 0.064258 -0.010297 -55121.600000 0 0 1
16.542410 -17.213861 -26.726412 35.836705 -0.805287 2.412506 0.067709 -0.015230 -38760.400000 0 0 1
17.920010 -16.970461 -26.631652 36.309340 -0.758190 2.394203 0.075298 -0.006666 -491045.000000 0 0 1
18.762410 -18.082261 -26.830332 37.401375 -0.766940 2.370805 0.088962 -0.018707 -214988.000000 0 0 1
20.220210 -17.637561 -26.922322 38.009891 -0.717284 2.357880 0.096516 -0.009397 -281267.000000 0 0 1
20.778510 -17.221461 -25.685442 37.256773 -0.692063 2.331480 0.106106 -0.013051 -132910.000000 0 0 1
22.136910 -16.846561 -25.762972 37.915434 -0.650515 2.317857 0.110546 -0.007322 -91147.000000 0 0 1
22.691110 -16.184161 -24.508702 37.114552 -0.619555 2.292085 0.122568 -0.011836 79025.100000 0 0 1
22.385710 -14.787961 -24.321802 36.212620 -0.583790 2.307215 0.130111 -0.017414 83053.100000 0 0 1
21.004510 -14.487861 -24.179002 35.152691 -0.603814 2.329289 0.127808 -0.010779 276110.000000 0 0 1
20.760310 -13.108661 -23.565402 34.031686 -0.563209 2.335682 0.120683 0.001267 203834.000000 0 0 1
21.356710 -12.049461 -24.307802 34.527783 -0.513680 2.351820 0.133544 -0.016639 317569.000000 0 0 1
21.020810 -10.913761 -23.507702 33.370596 -0.478880 2.352435 0.117162 -0.011958 224858.000000 0 0 1
21.250610 -9.585161 -24.275902 33.656844 -0.423730 2.376440 0.118902 -0.022081 -255255.000000 0 0 1
20.816110 -8.455661 -23.601702 32.586024 -0.385846 2.380799 0.115952 -0.019114 -16776.100000 0 0 1
20.889610 -7.358361 -24.488002 33.017927 -0.338678 2.406335 0.098695 -0.020714 -216016.000000 0 0 1
20.331310 -6.090061 -23.813402 31.898732 -0.291036 2.413630 0.100996 -0.024252 787923.000000 0 0 1
18.915710 -6.266161 -23.595902 30.884226 -0.319890 2.440304 0.092789 -0.021351 635987.000000 0 0 1
18.305210 -5.302661 -22.815202 29.727636 -0.281963 2.445689 0.085878 -0.025986 -56104.800000 0 0 1
18.751710 -5.277061 -21.300502 28.864951 -0.274323 2.400804 0.079263 -0.024949 -490757.000000 0 0 1
18.342110 -6.299461 -20.408702 28.153709 -0.330821 2.381690 0.077834 -0.018708 108780.000000 0 0 1
18.894910 -7.605761 -20.561702 28.942163 -0.382685 2.360921 0.082324 -0.010564 -238074.000000 0 0 1
18.589510 -8.570961 -19.425402 28.220161 -0.432017 2.330011 0.077271 -0.010489 387170.000000 0 0 1
17.195610 -8.853861 -19.360802 27.366412 -0.475489 2.356702 0.070881 -0.013453 196767.000000 0 0 1
16.966410 -10.136061 -18.798702 27.276180 -0.538520 2.331179 0.083589 -0.012163 458807.000000 0 0 1
15.551310 -10.182561 -18.128902 25.965070 -0.579722 2.343681 0.084514 -0.014200 314258.000000 0 0 1
15.271910 -9.364161 -17.018602 24.709341 -0.550042 2.330562 0.107500 -0.013876 61703.600000 0 1 0
15.230510 -7.939961 -17.171202 24.287066 -0.480557 2.356058 0.138326 -0.037461 -172809.000000 0 1 0
13.849710 -7.284661 -16.926202 23.051617 -0.484214 2.395393 0.138275 -0.025924 255818.000000 0 1 0
12.787910 -7.474861 -17.852702 23.197481 -0.528964 2.449005 0.121803 -0.027264 -347972.000000 0 1 0
11.798210 -6.582461 -17.489102 22.099666 -0.508904 2.483850 0.110166 -0.025444 68061.800000 0 1 0
10.321310 -6.994961 -17.803102 21.734980 -0.595616 2.530635 0.112837 -0.021776 857791.000000 0 1 0
9.860110 -6.805861 -19.160402 22.597843 -0.604147 2.582782 0.091564 -0.027114 1775490.000000 0 1 0
8.439310 -6.426061 -19.101102 21.848760 -0.650785 2.634668 0.086444 -0.039931 1756660.000000 0 1 0
7.806910 -5.816461 -20.328402 22.539365 -0.640319 2.694960 0.081921 -0.049885 -152416.000000 0 1 0
7.606710 -6.872261 -21.275802 23.616726 -0.734716 2.692586 0.084552 -0.043057 204477.000000 0 1 0
6.953310 -6.435161 -22.487702 24.401978 -0.746716 2.742856 0.088796 -0.044234 84461.400000 0 1 0
6.973210 -7.534761 -23.603402 25.739441 -0.824085 2.731322 0.087722 -0.040425 75770.100000 0 0 1
6.238710 -8.753061 -23.383502 25.735690 -0.951567 2.710721 0.087589 -0.038548 234869.000000 0 0 1
6.195610 -9.561061 -24.542202 27.057700 -0.995825 2.706977 0.075563 -0.026909 9384.700000 0 0 1
5.349710 -10.842861 -24.346702 27.183615 -1.112454 2.680662 0.080505 -0.030723 34912.700000 0 0 1
5.960910 -11.815661 -23.559702 27.022247 -1.103561 2.629790 0.070296 -0.034210 127297.000000 0 0 1
5.037310 -12.856661 -23.311202 27.093917 -1.197374 2.606821 0.081252 -0.037150 -284586.000000 0 0 1
5.717310 -13.907961 -22.410102 26.987620 -1.180773 2.550594 0.086027 -0.029236 -225449.000000 0 0 1
6.748710 -14.727861 -22.966002 28.105021 -1.141122 2.527245 0.078202 -0.022127 578919.000000 0 0 1
7.980910 -14.133261 -23.393002 28.472381 -1.056745 2.535014 0.073435 -0.028379 439658.000000 0 0 1
8.831510 -13.659061 -22.189102 27.512211 -0.996838 2.509035 0.071297 -0.018166 -396703.000000 0 0 1
9.516810 -14.619161 -21.343602 27.565175 -0.993731 2.456398 0.069697 -0.015069 294506.000000 0 0 1
8.610310 -15.278061 -20.472102 26.956697 -1.057592 2.433254 0.085252 -0.020971 4491.570000 0 0 1
9.056010 -15.613461 -19.018202 26.219906 -1.045203 2.382316 0.087256 -0.017816 343672.000000 0 0 1
10.073210 -16.614561 -18.872002 27.086263 -1.025766 2.341635 0.084293 -0.016195 99024.500000 0 0 1
10.519810 -16.890461 -17.502102 26.500521 -1.013762 2.292206 0.090149 -0.021215 -108250.000000 0 0 1
9.523610 -17.646661 -16.514202 25.977349 -1.075908 2.259731 0.084842 -0.023494 -134664.000000 0 0 1
9.291110 -18.973261 -16.821502 27.005041 -1.115427 2.243243 0.095433 -0.025171 162144.000000 0 0 1
8.525810 -19.217761 -18.000102 27.676984 -1.153242 2.278859 0.102888 -0.021030 -904023.000000 0 0 1
7.026510 -18.998061 -18.067202 27.142622 -1.216545 2.299147 0.100584 -0.019252 -911571.000000 0 0 1
6.707610 -17.697661 -17.747702 25.945715 -1.208514 2.324072 0.106384 -0.025225 151666.000000 0 0 1
5.341310 -17.408761 -18.081102 25.661660 -1.273097 2.352650 0.092260 -0.016491 652250.000000 0 0 1
4.835910 -16.111661 -17.559102 24.316531 -1.279202 2.377637 0.069208 -0.007281 -148480.000000 0 1 0
4.702910 -15.943061 -16.167402 23.188002 -1.283950 2.342324 0.034609 -0.009936 19463.200000 0 1 0
4.272210 -14.683461 -15.778902 21.973382 -1.287659 2.371853 0.022964 -0.002416 -197137.000000 0 1 0
10.970110 29.717039 -18.321502 36.594032 1.217162 2.095168 0.060779 -0.021428 -617919.000000 0 0 1
9.837110 29.514439 -19.112902 36.512654 1.249077 2.121703 0.099603 -0.023960 -825046.000000 0 0 1
8.959710 28.739539 -18.379302 35.270898 1.268590 2.118924 0.092366 -0.021679 -567685.000000 0 0 1
7.863910 28.020039 -19.156702 34.841684 1.297182 2.152947 0.101948 -0.028542 62196.100000 0 0 1
7.022110 28.923939 -19.888502 35.797441 1.332626 2.159862 0.107658 -0.038599 178863.000000 0 0 1
6.153810 28.129139 -20.705102 35.465745 1.355420 2.194205 0.110293 -0.049069 564403.000000 0 0 1
5.102810 28.972239 -21.484502 36.428192 1.396457 2.201579 0.098770 -0.045337 537466.000000 0 0 1
3.953310 29.385839 -20.758902 36.195141 1.437068 2.181602 0.096294 -0.039627 155970.000000 0 0 1
3.050910 30.108939 -21.583502 37.171277 1.469812 2.190323 0.102633 -0.049001 -160337.000000 0 0 1
1.678510 30.294839 -20.810802 36.792447 1.515447 2.171990 0.126190 -0.049931 1301970.000000 0 0 1
0.766110 29.165239 -20.800502 35.830978 1.544534 2.190160 0.132250 -0.065038 681837.000000 0 0 1
0.336110 28.778239 -22.116402 36.296491 1.559118 2.226007 0.162755 -0.078802 -848859.000000 0 0 1
-0.614790 27.558439 -22.217902 35.404529 -1.548491 2.249191 0.169034 -0.075691 1036470.000000 0 0 1
-1.934590 27.716339 -21.668302 35.234265 -1.501110 2.233155 0.177477 -0.072598 777666.000000 0 0 1
-2.473590 26.445039 -21.478902 34.158483 -1.477531 2.250807 0.183699 -0.075044 -2938.190000 0 0 1
-3.688290 26.258939 -20.526402 33.533096 -1.431251 2.229540 0.139711 -0.069034 481026.000000 0 0 1
-4.896990 26.743239 -21.103302 34.417012 -1.389691 2.230857 0.139482 -0.063124 174771.000000 0 0 1
-5.968790 26.598139 -20.197902 33.927020 -1.350047 2.208477 0.115113 -0.060066 -1326610.000000 0 0 1
-7.343490 26.756939 -20.824902 34.692033 -1.302940 2.214646 0.105271 -0.069692 -522004.000000 0 0 1
-8.376290 26.209039 -20.022602 34.029113 -1.261460 2.199870 0.094841 -0.052650 -67261.500000 0 0 1
-8.797590 27.078639 -18.963602 34.209187 -1.256664 2.158369 0.094842 -0.062123 -939317.000000 0 0 1
-9.970290 26.529839 -18.161402 33.661188 -1.211312 2.140682 0.102711 -0.051911 -72127.400000 0 0 1
-9.613390 25.553139 -17.164402 32.248983 -1.210964 2.132048 0.115710 -0.060079 -49723.500000 0 0 1
-10.808390 24.889739 -16.838902 31.935388 -1.161116 2.126193 0.081443 -0.046623 35799.700000 0 0 1
-10.662390 24.244639 -15.438202 30.656601 -1.156471 2.098540 0.085589 -0.031739 213235.000000 0 0 1
-9.903990 23.056339 -15.364802 29.423816 -1.165073 2.120212 0.099218 -0.035157 -47797.100000 0 0 1
-10.395190 22.468339 -14.183702 28.531800 -1.137465 2.091072 0.133391 -0.033828 -168459.000000 0 0 1
-9.807490 21.075239 -13.941702 27.105786 -1.135246 2.111039 0.132625 -0.012518 395090.000000 0 0 1
-10.433890 19.889639 -14.562702 26.768192 -1.087671 2.146029 0.093215 -0.010431 -139905.000000 0 0 1
-10.646490 19.930939 -15.957802 27.662999 -1.080189 2.185681 0.106662 -0.002972 -649286.000000 0 0 1
-9.484490 19.936739 -16.917302 27.814101 -1.126753 2.224622 0.108302 -0.012365 -589496.000000 0 0 1
-8.883090 18.672239 -17.161102 26.871271 -1.126746 2.263528 0.097539 -0.010576 -443426.000000 0 0 1
-7.998990 18.746239 -18.229902 27.344737 -1.167488 2.300528 0.108263 -0.019889 -663317.000000 0 0 1
-7.319690 17.418939 -18.507602 26.448603 -1.172986 2.345854 0.100607 -0.017663 -427719.000000 0 0 1
-8.088590 16.284939 -18.898202 26.225304 -1.109799 2.375477 0.082864 -0.022642 -445713.000000 0 0 1
-7.601390 15.440939 -19.904602 26.313436 -1.113337 2.428653 0.085676 -0.027057 -350337.000000 0 0 1
-6.425790 14.524439 -19.555302 25.192458 -1.154270 2.459470 0.078380 -0.021926 -391420.000000 0 0 1
-6.732190 13.380439 -18.757902 24.004529 -1.104643 2.467753 0.055018 -0.012485 185061.000000 0 1 0
-5.547890 12.644739 -18.493202 23.079580 -1.157337 2.500228 0.056954 -0.010086 581237.000000 0 1 0
-4.695290 13.147639 -17.291202 22.223677 -1.227792 2.462357 0.052923 -0.007258 128374.000000 0 1 0
-3.991590 14.342139 -17.564702 23.024954 -1.299354 2.438514 0.064027 -0.013279 -574619.000000 0 1 0
-3.368790 14.915139 -16.471702 22.475032 -1.348660 2.393355 0.050567 -0.003066 255274.000000 0 1 0
-2.490590 16.177239 -16.704002 23.386530 -1.418039 2.366359 0.086260 -0.008480 385528.000000 0 1 0
-3.231190 17.372139 -16.889502 24.443549 -1.386899 2.333612 0.088267 -0.005589 -89724.700000 0 1 0
-2.364090 18.482639 -17.015002 25.233057 -1.443578 2.310832 0.104414 -0.013050 335384.000000 0 0 1
-3.140490 19.768339 -17.416202 26.532508 -1.413248 2.286846 0.113716 -0.018173 503441.000000 0 0 1
-3.538490 19.697739 -18.808302 27.464050 -1.393053 2.325172 0.127043 -0.020309 -359262.000000 0 0 1
-4.097190 20.867039 -19.347502 28.749715 -1.376915 2.309004 0.148457 -0.020350 99539.400000 0 0 1
-3.187190 22.132739 -19.566302 29.712901 -1.427776 2.289636 0.124072 -0.031051 675066.000000 0 0 1
-2.120690 21.845439 -20.514502 30.042725 -1.474023 2.322445 0.141715 -0.029390 713986.000000 0 0 1
-0.949790 22.633839 -20.423202 30.500819 -1.528858 2.304460 0.136443 -0.039007 408554.000000 0 0 1
0.073610 22.187639 -19.371402 29.454167 1.567479 2.288530 0.139844 -0.040074 -445402.000000 0 0 1
-0.357190 22.458939 -18.041102 28.809944 -1.554894 2.247480 0.133948 -0.033803 -359342.000000 0 0 1
0.687810 22.131739 -17.157502 28.011905 1.539728 2.230025 0.122257 -0.031432 40301.200000 0 0 1
0.364010 22.132239 -15.644802 27.105873 1.554351 2.186060 0.117099 -0.028782 340776.000000 0 0 1
-0.706990 21.265639 -15.250802 26.178507 -1.537563 2.192683 0.111316 -0.014236 213050.000000 0 0 1
-0.942290 21.197239 -13.821802 25.322975 -1.526372 2.148164 0.117453 -0.016443 -13760.200000 0 0 1
-1.765790 19.995439 -13.360502 24.113038 -1.482715 2.158051 0.088576 -0.012304 57821.500000 0 1 0
-1.183290 18.710639 -13.544802 23.128983 -1.507639 2.196441 0.080972 -0.006558 294575.000000 0 1 0
-2.212890 17.751239 -13.335002 22.312007 -1.446775 2.211376 0.069393 0.003062 513261.000000 0 1 0
-1.605590 16.370139 -13.243102 21.117271 -1.473029 2.248649 0.043054 0.007512 -562680.000000 0 1 0
-0.894690 16.061239 -12.073602 20.113074 -1.515149 2.214655 0.027230 -0.001164 -84666.600000 0 1 0
-0.356090 14.777739 -11.959802 19.014343 -1.546705 2.251048 0.020365 -0.003303 -131744.000000 0 1 0
0.592110 14.184039 -13.019902 19.262799 1.529076 2.312994 0.032700 -0.005469 -406476.000000 0 1 0
-0.033990 14.080839 -14.301102 20.069696 -1.568382 2.363954 0.039716 -0.010828 -66785.600000 0 1 0
0.604510 13.182639 -15.239802 20.159339 1.524972 2.427927 0.034790 -0.009476 -452255.000000 0 1 0
-0.073590 12.886839 -16.562702 20.985689 -1.565086 2.480363 0.043747 -0.010268 -346867.000000 0 1 0
0.100610 13.919939 -17.476302 22.342694 1.563569 2.468974 0.057061 -0.013947 -83445.800000 0 1 0
0.016810 13.530439 -18.822102 23.180694 1.569554 2.518321 0.071908 -0.022104 -323571.000000 0 1 0
-0.627690 14.628639 -19.628802 24.488384 -1.527914 2.500689 0.078354 -0.012599 -332680.000000 0 1 0
0.074610 15.829339 -19.458602 25.084073 1.566083 2.458676 0.076920 -0.026292 -523254.000000 0 0 1
-0.543390 16.909739 -20.068802 26.248645 -1.538673 2.441163 0.116418 -0.026172 -296355.000000 0 0 1
0.291710 18.205439 -20.122502 27.137395 1.554774 2.406106 0.124458 -0.031807 302553.000000 0 0 1
1.356910 18.098339 -21.049102 27.793089 1.495962 2.430042 0.122029 -0.039047 94372.100000 0 0 1
1.986510 19.316539 -21.448502 28.932908 1.468317 2.405829 0.129311 -0.037482 304575.000000 0 0 1
2.431910 19.284139 -22.960702 30.082986 1.445349 2.439118 0.133760 -0.051321 -7409.310000 0 0 1
3.512910 18.414639 -23.167802 29.802458 1.382294 2.461284 0.115896 -0.045464 -369859.000000 0 0 1
3.794810 18.354739 -24.538902 30.878062 1.366921 2.489315 0.110908 -0.055612 392446.000000 0 0 1
4.664410 17.081339 -24.864302 30.524783 1.304225 2.522769 0.088432 -0.041123 300984.000000 0 0 1
5.896110 17.130739 -24.113302 30.160863 1.239313 2.497242 0.084078 -0.036112 538769.000000 0 0 1
6.717310 15.988539 -24.338302 29.884922 1.173055 2.522492 0.101964 -0.040743 215311.000000 0 0 1
7.351610 15.850839 -25.750162 31.118581 1.136526 2.545410 0.097506 -0.037601 -1055740.000000 0 0 1
8.505510 16.679739 -25.889012 31.949935 1.099236 2.515459 0.087389 -0.034344 537220.000000 0 0 1
9.009010 16.732139 -27.258212 33.228555 1.076883 2.532775 0.090425 -0.041182 278822.000000 0 0 1
9.618510 15.425139 -27.860672 33.266615 1.013233 2.563482 0.101743 -0.046646 -1256830.000000 0 0 1
10.751910 15.030139 -27.203832 32.887036 0.949838 2.544885 0.104302 -0.042298 -988162.000000 0 0 1
11.044810 13.625839 -27.423022 32.552626 0.889638 2.572557 0.087566 -0.032628 -55905.100000 0 0 1
10.177710 12.613039 -26.654442 31.195093 0.891850 2.595275 0.095261 -0.028361 473499.000000 0 0 1
8.791410 12.645139 -26.997142 31.081089 0.963272 2.623173 0.118591 -0.037048 -45136.200000 0 0 1
8.148810 11.692039 -26.197982 29.823500 0.962118 2.643372 0.129061 -0.031834 -299208.000000 0 0 1
6.622010 11.759039 -26.270682 29.534298 1.057919 2.667040 0.085293 -0.043424 -407152.000000 0 0 1
6.053310 12.702839 -25.334772 28.980258 1.126099 2.634598 0.099150 -0.038700 1107690.000000 0 0 1
4.605410 12.674539 -25.293222 28.663580 1.222270 2.651771 0.112891 -0.052124 1186080.000000 0 0 1
3.995110 13.688639 -26.268952 29.889757 1.286828 2.644266 0.105567 -0.040669 -950870.000000 0 0 1
4.137710 13.336539 -27.580132 30.913550 1.269959 2.672922 0.102427 -0.046874 60453.200000 0 0 1
3.732310 14.356639 -28.430022 32.067263 1.316455 2.660683 0.084910 -0.053415 -296406.000000 0 0 1
3.824710 13.991939 -29.907942 33.239852 1.303964 2.690019 0.119006 -0.051860 673826.000000 0 0 1
5.144110 13.542239 -30.281862 33.568516 1.207775 2.695387 0.108956 -0.045569 875243.000000 0 0 1
5.180910 13.363739 -31.656682 34.750207 1.200952 2.716446 0.104695 -0.041978 -495081.000000 0 0 1
6.322310 12.450439 -32.168452 35.068424 1.100930 2.732056 0.106716 -0.032211 58167.700000 0 0 1
7.661110 12.822339 -31.939552 35.259608 1.032231 2.704154 0.117617 -0.026622 249619.000000 0 0 1
8.151610 12.839239 -30.572722 34.146539 1.005111 2.679988 0.114331 -0.031444 -518742.000000 0 0 1
8.125710 11.430239 -29.878132 33.005761 0.952795 2.702740 0.109438 -0.029364 80425.400000 0 0 1
9.164310 10.566639 -30.363652 33.430372 0.856351 2.709916 0.090558 -0.020457 250513.000000 0 0 1
9.244710 9.352639 -29.595422 32.385576 0.791202 2.723453 0.099045 -0.027366 62977.400000 0 0 1
10.336810 8.316639 -29.904372 32.715250 0.677518 2.724031 0.089260 -0.023571 -523994.000000 0 0 1
11.567210 8.435939 -29.288792 32.600594 0.630119 2.686938 0.085467 -0.020706 -702079.000000 0 0 1
12.280510 7.229039 -29.197362 32.489319 0.532039 2.687537 0.059004 -0.009755 105896.000000 0 0 1
13.610910 7.335239 -28.392272 32.329301 0.494299 2.642926 0.052934 0.000295 644270.000000 0 0 1
14.374610 6.167339 -28.108802 32.167845 0.405291 2.633793 0.037768 -0.009156 597154.000000 0 0 1
15.333910 5.947139 -29.169132 33.486348 0.369982 2.628184 0.035384 -0.005732 -72187.700000 0 0 1
16.101910 4.602839 -28.976752 33.468041 0.278431 2.617550 0.048357 -0.017840 75218.700000 0 0 1
17.017710 4.735139 -27.907212 33.027814 0.271383 2.577288 0.024689 -0.017650 -375632.000000 0 0 1
17.805610 3.596839 -27.796322 33.205610 0.199324 2.562751 0.048820 -0.026627 -233280.000000 0 0 1
18.588610 3.650239 -26.458562 32.540992 0.193902 2.520227 0.060092 -0.018221 257710.000000 0 0 1
19.610810 4.642639 -26.394322 33.208406 0.232459 2.489488 0.084446 -0.013792 45594.300000 0 0 1
20.068510 4.772539 -25.114002 32.499774 0.233475 2.453949 0.093879 -0.014563 -112553.000000 0 0 1
21.038110 5.945039 -24.881202 33.121289 0.275404 2.420697 0.090468 -0.009167 -131095.000000 0 0 1
20.413910 7.150839 -25.211872 33.218981 0.336935 2.432510 0.096161 -0.007474 -248603.000000 0 0 1
21.224610 8.062839 -25.882722 34.429765 0.363044 2.421515 0.090382 -0.026055 -841638.000000 0 0 1
21.398910 7.886639 -27.440742 35.680621 0.353107 2.448174 0.129772 -0.032168 8333.510000 0 0 1
20.397310 8.319639 -28.350832 35.903152 0.387280 2.481030 0.102954 -0.020301 764.777000 0 0 1
19.191510 7.574939 -28.302122 35.024332 0.375931 2.511665 0.093907 -0.019866 50038.000000 0 0 1
18.056110 8.456339 -28.929762 35.134939 0.437998 2.538156 0.059642 -0.009433 -96038.600000 0 0 1
17.858410 8.295439 -30.321532 36.154286 0.434856 2.565634 0.051414 -0.004268 -439921.000000 0 0 1
16.810310 9.088839 -30.741252 36.196935 0.495652 2.585412 0.033122 0.006168 -775779.000000 0 0 1
16.482310 8.856539 -32.191392 37.234266 0.493068 2.615078 0.019315 0.013286 126025.000000 0 0 1
15.840910 7.612039 -32.517222 36.962782 0.447951 2.646088 0.030180 0.011905 185747.000000 0 0 1
14.452010 7.749639 -32.764542 36.639224 0.492212 2.677544 0.033703 0.009652 233102.000000 0 0 1
13.783910 6.377439 -33.087912 36.407112 0.433342 2.711269 0.044129 -0.002980 -23167.800000 0 0 1
13.584710 5.513239 -32.011332 35.208884 0.385532 2.712115 0.051597 -0.005703 145883.000000 0 0 1
12.964510 4.311139 -32.469482 35.226860 0.321031 2.743302 0.066619 -0.015945 160474.000000 0 0 1
12.794310 3.166539 -31.441832 34.092670 0.242620 2.744647 0.073681 -0.025667 -180301.000000 0 0 1
14.006410 2.517539 -31.161442 34.257160 0.177843 2.713196 0.065952 -0.027487 -320676.000000 0 0 1
13.952810 1.541539 -30.066612 33.182200 0.110036 2.704785 0.086802 -0.029817 288956.000000 0 0 1
13.041910 0.253139 -30.302582 32.990937 0.019407 2.735098 0.098034 -0.032526 425029.000000 0 0 1
13.584610 -0.853461 -30.959842 33.819844 -0.062743 2.727382 0.103675 -0.032155 -56400.600000 0 0 1
14.534010 -1.607361 -30.195422 33.549732 -0.110145 2.690611 0.112014 -0.037810 308930.000000 0 0 1
14.956110 -2.886161 -30.893122 34.444159 -0.190632 2.683516 0.123615 -0.037308 -671764.000000 0 0 1
13.938110 -3.804461 -31.127182 34.316851 -0.266463 2.707026 0.114425 -0.038270 -583331.000000 0 0 1
14.266310 -4.851761 -32.015092 35.384082 -0.327815 2.701678 0.126552 -0.047834 -481976.000000 0 0 1
13.470910 -6.140261 -31.998472 35.257204 -0.427680 2.708263 0.116492 -0.054976 -171843.000000 0 0 1
13.722510 -6.763661 -30.738262 34.335042 -0.457942 2.679776 0.118007 -0.048153 235549.000000 0 0 1
13.230010 -8.091361 -30.687082 34.383139 -0.548899 2.673662 0.122937 -0.057455 -8922.120000 0 0 1
13.386410 -8.575461 -29.276582 33.314452 -0.569745 2.644128 0.089539 -0.050316 644374.000000 0 0 1
14.751610 -8.644361 -28.818882 33.509147 -0.530058 2.606125 0.096063 -0.041946 822157.000000 0 0 1
14.950110 -9.460061 -27.724522 32.888412 -0.564171 2.573609 0.087921 -0.040730 -5604.220000 0 0 1
15.099210 -11.013061 -27.983532 33.650434 -0.630173 2.552770 0.072442 -0.027749 -441815.000000 0 0 1
13.843010 -11.622861 -28.019772 33.344076 -0.698437 2.568674 0.060451 -0.035535 -209389.000000 0 0 1
14.001810 -12.933161 -28.484262 34.273466 -0.745744 2.551857 0.059606 -0.031541 127998.000000 0 0 1
-10.008790 -2.670661 -17.909502 20.689576 0.260756 2.617202 0.024822 -0.009356 4866.400000 0 1 0
-10.932290 -2.520661 -18.980302 22.048141 0.226610 2.607748 0.039945 -0.013529 411529.000000 0 1 0
-11.978590 -3.494961 -18.997802 22.729228 0.283887 2.560442 0.048001 -0.024665 -330436.000000 0 1 0
-13.031090 -3.260261 -20.029302 24.116623 0.245158 2.550834 0.062342 -0.035780 -956197.000000 0 1 0
-13.620490 -1.998961 -19.915102 24.210015 0.145721 2.536761 0.052430 -0.028570 78139.300000 0 1 0
-14.654790 -1.830861 -20.882002 25.576804 0.124289 2.526020 0.048754 -0.018850 518412.000000 0 0 1
-15.572590 -0.611661 -20.593102 25.825482 0.039258 2.493762 0.049673 -0.013290 486983.000000 0 0 1
-14.950790 0.573639 -21.094602 25.861891 -0.038350 2.524672 0.055923 -0.011721 -36050.800000 0 0 1
-15.549590 1.651239 -20.500602 25.783541 -0.105795 2.489976 0.057983 -0.014530 -332846.000000 0 0 1
-15.262290 3.006239 -21.131802 26.239817 -0.194482 2.507034 0.086729 -0.023554 142402.000000 0 0 1
-13.931490 3.475339 -21.015002 25.451811 -0.244470 2.542199 0.094528 -0.025304 348316.000000 0 0 1
-13.881690 4.779239 -21.543702 26.070549 -0.331573 2.543412 0.110076 -0.035026 339312.000000 0 0 1
-12.613190 5.544239 -21.063002 25.169052 -0.414137 2.562320 0.091549 -0.032124 282961.000000 0 0 1
-12.764490 5.846039 -19.732102 24.217023 -0.429481 2.523186 0.097834 -0.038094 401721.000000 0 1 0
-11.522090 6.334239 -19.264402 23.323771 -0.502649 2.542692 0.064870 -0.020493 160603.000000 0 1 0
-11.647790 7.004139 -17.917002 22.488840 -0.541395 2.492622 0.077277 -0.021130 -45494.000000 0 1 0
-12.063290 8.367539 -17.832802 23.098647 -0.606442 2.452822 0.072719 -0.029636 442635.000000 0 1 0
-13.203290 8.386539 -16.960602 23.072124 -0.565890 2.396629 0.089257 -0.026491 -183050.000000 0 1 0
-13.708490 9.790539 -16.929202 23.882529 -0.620190 2.358667 0.092550 -0.028147 -277990.000000 0 1 0
-12.892690 10.749939 -16.224302 23.345462 -0.695014 2.339169 0.045182 -0.008558 -46169.400000 0 1 0
-13.475390 11.999439 -16.163602 24.224671 -0.727525 2.301290 0.054539 -0.024105 -515372.000000 0 1 0
-12.825190 13.146639 -15.388502 23.960918 -0.797774 2.268205 0.067105 -0.016843 -456776.000000 0 1 0
-13.017690 13.076739 -13.977502 23.148043 -0.787661 2.219095 0.082056 -0.026473 180536.000000 0 1 0
-12.554890 14.311539 -13.445402 23.307171 -0.850690 2.185698 0.069260 -0.024383 -556535.000000 0 1 0
-13.115690 14.583639 -12.034402 23.011533 -0.838344 2.121131 0.061661 -0.022496 339485.000000 0 1 0
-14.449890 14.984839 -11.827602 23.942366 -0.803570 2.087484 0.061175 -0.021830 513204.000000 0 1 0
-15.480190 14.039739 -12.143302 24.170443 -0.736641 2.097172 0.062347 -0.016705 501170.000000 0 1 0
-16.809790 14.284139 -11.335102 24.801012 -0.704350 2.045463 0.034067 -0.011035 233858.000000 0 1 0
-17.817590 13.383939 -11.643902 25.143126 -0.644246 2.052291 0.025946 -0.012899 -143296.000000 0 0 1
-18.894490 13.452939 -10.717202 25.550768 -0.618737 2.003633 0.095042 -0.022650 -77848.800000 0 0 1
-20.225890 12.963639 -11.295202 26.546641 -0.569982 2.010294 0.091739 -0.036076 -590200.000000 0 0 1
-20.337790 11.563239 -11.565502 26.097797 -0.516980 2.029917 0.106336 -0.033961 -66023.600000 0 0 1
-21.575990 11.290739 -12.163502 27.220487 -0.482114 2.034039 0.143691 -0.034138 -418932.000000 0 0 1
-22.266690 10.047939 -11.544902 27.019462 -0.423897 2.012280 0.139495 -0.035760 131172.000000 0 0 1
-21.676390 8.837939 -12.081202 26.342560 -0.387145 2.047237 0.129292 -0.030859 684449.000000 0 0 1
-22.211990 7.745539 -11.359202 26.122736 -0.335525 2.020657 0.129120 -0.026501 -471235.000000 0 0 1
-21.340190 6.518939 -11.374602 25.045595 -0.296474 2.042221 0.153468 -0.024454 -502167.000000 0 0 1
-21.296890 5.767839 -12.556702 25.386930 -0.264485 2.088186 0.168050 -0.027250 172783.000000 0 0 1
-20.202690 4.893639 -12.484702 24.247972 -0.237650 2.111659 0.176011 -0.034873 -309363.000000 0 1 0
-20.215790 3.652939 -13.395602 24.524768 -0.178768 2.148626 0.186983 -0.056458 -837127.000000 0 1 0
-21.133990 2.661639 -13.119702 25.017122 -0.125282 2.122841 0.174070 -0.055785 -275915.000000 0 0 1
-20.968990 1.492039 -13.942902 25.225567 -0.071035 2.156432 0.160811 -0.063184 -371807.000000 0 0 1
-22.037090 0.425639 -13.686102 25.944631 -0.019312 2.126465 0.179118 -0.054136 158311.000000 0 0 1
-23.272490 0.599539 -14.377002 27.361769 -0.025756 2.124030 0.144821 -0.043380 606924.000000 0 0 1
-23.732790 -0.692961 -14.756002 27.954697 0.029190 2.126868 0.130076 -0.050138 -1332180.000000 0 0 1
-25.134960 -0.774261 -15.278702 29.424554 0.030794 2.116770 0.127592 -0.041295 -944275.000000 0 0 1
-26.135090 -0.496261 -14.315002 29.802826 0.018986 2.071820 0.159004 -0.053622 -131474.000000 0 0 1
-27.381350 -1.000061 -14.716402 31.101622 0.036507 2.063684 0.151680 -0.036384 -285573.000000 0 0 1
-28.582390 -0.397861 -13.974102 31.818026 0.013919 2.025491 0.163484 -0.037553 -516097.000000 0 0 1
-28.860650 -0.972961 -12.739702 31.562379 0.033700 1.986283 0.185857 -0.040566 -237295.000000 0 0 1
-30.039800 -0.478761 -12.177802 32.417860 0.015936 1.955895 0.210891 -0.043929 -264920.000000 0 0 1
-30.471300 -1.075361 -10.825202 32.354930 0.035276 1.911952 0.204948 -0.049855 -224128.000000 0 0 1
-30.799780 -2.440061 -10.873202 32.753730 0.079058 1.909186 0.208346 -0.042171 968427.000000 0 0 1
-29.724260 -3.387161 -11.156402 31.929136 0.113463 1.927739 0.209409 -0.046040 537606.000000 0 0 1
-29.978020 -4.833061 -10.609202 32.165125 0.159845 1.906926 0.203339 -0.051086 484987.000000 0 0 1
-31.167790 -5.380261 -11.207202 33.555621 0.170938 1.911329 0.185991 -0.041159 855940.000000 0 0 1
-31.533640 -6.700661 -10.818502 34.004547 0.209378 1.894572 0.175744 -0.038106 140058.000000 0 0 1
-30.734740 -7.833861 -11.573502 33.762990 0.249572 1.920678 0.166562 -0.046203 1271350.000000 0 0 1
-29.358040 -7.895761 -11.123902 32.372499 0.262730 1.921567 0.151425 -0.038544 1136780.000000 0 0 1
-28.574570 -8.811961 -11.898202 32.182664 0.299131 1.949492 0.144828 -0.033358 977758.000000 0 0 1
-27.071720 -8.747961 -11.429702 30.660119 0.312549 1.952807 0.128212 -0.038636 811028.000000 0 0 1
-26.326480 -7.532961 -11.765702 29.803704 0.278690 1.976617 0.113136 -0.037561 461782.000000 0 0 1
-24.956790 -7.539261 -11.479002 28.485949 0.293375 1.985557 0.124691 -0.039802 -310527.000000 0 0 1
-24.580190 -7.341061 -9.997702 27.532361 0.290225 1.942416 0.141352 -0.043054 -576567.000000 0 0 1
-24.717790 -6.034961 -9.365502 27.112774 0.239470 1.923491 0.144213 -0.037821 237832.000000 0 0 1
-26.048850 -5.685461 -9.092302 28.169788 0.214891 1.899449 0.153896 -0.043259 -471109.000000 0 0 1
-26.147890 -4.281961 -8.399902 27.795785 0.162319 1.877797 0.170916 -0.053119 -280313.000000 0 0 1
-25.903140 -4.442561 -7.043202 27.208743 0.169854 1.832636 0.171843 -0.049566 461909.000000 0 0 1
-26.215850 -3.255161 -6.342102 27.167795 0.123535 1.806412 0.229189 -0.054153 -31490.200000 0 0 1
-25.871720 -3.393461 -4.824702 26.535621 0.130420 1.753633 0.217749 -0.045094 331661.000000 0 0 1
-24.464690 -3.337161 -4.627902 25.121209 0.135571 1.756077 0.154115 -0.037416 466390.000000 0 0 1
-24.078690 -3.255761 -3.263802 24.516029 0.134398 1.704322 0.107983 -0.028933 55426.900000 0 1 0
-22.576990 -3.564161 -3.074002 23.062376 0.156575 1.704485 0.090820 -0.024010 -31351.300000 0 1 0
-22.381890 -4.940861 -3.271502 23.153052 0.217268 1.712570 0.113918 -0.027558 289844.000000 0 1 0
-21.074490 -5.436461 -3.124802 21.987578 0.252460 1.713396 0.080172 -0.027602 -620729.000000 0 1 0
-21.107290 -6.967161 -2.833202 22.407276 0.318823 1.697577 0.083423 -0.024286 -146451.000000 0 1 0
-21.745490 -7.229561 -1.587602 22.970706 0.320967 1.639966 0.093583 -0.020986 -58269.900000 0 1 0
-22.744190 -8.155561 -1.757502 24.226022 0.344296 1.643406 0.115879 -0.028373 -849892.000000 0 1 0
-23.074890 -8.712961 -0.389102 24.668150 0.361044 1.586570 0.126606 -0.033387 208643.000000 0 1 0
-21.939290 -9.326561 0.239498 23.840606 0.401962 1.560750 0.095129 -0.028800 898621.000000 0 1 0
-22.327790 -10.269161 1.212298 24.606006 0.431079 1.521508 0.076607 -0.021987 324884.000000 0 1 0
-21.093290 -11.012861 1.800098 23.863158 0.481173 1.495290 0.078794 -0.015040 330094.000000 0 1 0
-20.631990 -12.100561 1.036598 23.941117 0.530430 1.527485 0.089907 -0.006429 -41430.700000 0 1 0
-19.304290 -12.371361 1.379898 22.969769 0.569924 1.510686 0.060738 -0.011679 -396799.000000 0 1 0
-18.744590 -13.650961 0.667098 23.198133 0.629443 1.542036 0.068546 -0.004227 -137007.000000 0 1 0
-19.490590 -14.796861 1.003098 24.491557 0.649350 1.529828 0.083756 -0.000490 312640.000000 0 1 0
-19.033490 -15.943661 0.338398 24.831201 0.697288 1.557168 0.079012 -0.005191 -316231.000000 0 1 0
-17.904090 -16.661961 1.085598 24.481746 0.749479 1.526439 0.084095 -0.008190 -56412.100000 0 1 0
-16.625590 -16.072261 0.836098 23.139292 0.768477 1.534655 0.081338 -0.004440 1099640.000000 0 1 0
-15.539390 -16.600761 1.625898 22.796961 0.818409 1.499415 0.084637 -0.012618 836497.000000 0 1 0
-15.576990 -16.291061 3.176998 22.762570 0.807802 1.430768 0.100034 -0.021999 -436829.000000 0 1 0
-15.313790 -14.925961 3.620498 21.688809 0.772574 1.403082 0.077176 -0.023532 228131.000000 0 1 0
-14.370590 -14.717661 4.665298 21.092377 0.797329 1.347768 0.052645 -0.023147 -23306.200000 0 1 0
-14.689490 -15.259761 6.062398 22.031661 0.804437 1.292032 0.071135 -0.020878 -1091100.000000 0 1 0
-15.649390 -14.471661 6.667698 22.333619 0.746318 1.267623 0.061322 -0.017022 -271901.000000 0 1 0
-15.956590 -14.867261 8.002298 23.231121 0.750072 1.219128 0.072855 -0.020383 -204000.000000 0 1 0
-16.899290 -16.084361 8.234998 24.740813 0.760696 1.231471 0.060451 -0.015025 -685693.000000 0 1 0
-16.407990 -17.395261 7.968898 25.205566 0.814596 1.249121 0.060766 -0.006817 -452863.000000 0 0 1
-17.204290 -18.435061 8.435698 26.589472 0.819918 1.247961 0.080236 -0.018079 -500819.000000 0 0 1
-16.990590 -18.741961 9.934898 27.177995 0.834372 1.196573 0.091536 -0.021587 507018.000000 0 0 1
-15.649790 -19.131361 10.253398 26.759242 0.885165 1.177568 0.064183 -0.012023 596362.000000 0 0 1
-15.352790 -19.632861 11.541598 27.465721 0.907131 1.137110 0.066923 -0.012622 -76851.000000 0 0 1
-13.957590 -20.254161 11.680498 27.230119 0.967408 1.127461 0.065848 -0.009677 60458.500000 0 0 1
-12.855190 -19.392661 11.809298 26.091966 0.985413 1.101114 0.069142 -0.013162 390019.000000 0 0 1
-11.664990 -20.107061 12.188898 26.247573 1.045105 1.087860 0.079693 -0.017598 779266.000000 0 0 1
-10.448290 -19.221761 12.517098 25.205567 1.072907 1.051118 0.083615 -0.020598 330017.000000 0 0 1
-9.757190 -18.686761 11.347098 23.940643 1.089590 1.077005 0.066930 -0.018201 649392.000000 0 1 0
-8.585490 -17.999561 11.777398 23.160352 1.125731 1.037336 0.059223 -0.012498 559221.000000 0 1 0
-7.648390 -17.422061 10.694198 21.826405 1.157123 1.058745 0.038858 -0.012049 273722.000000 0 1 0
-6.775090 -18.294861 10.005498 21.925185 1.216128 1.096911 0.040162 -0.017530 80381.300000 0 1 0
-6.016090 -17.591361 9.042798 20.674175 1.241274 1.118096 0.037794 -0.007796 18326.600000 0 1 0
-4.847190 -18.370761 8.430298 20.785813 1.312822 1.153184 0.039563 -0.011207 -417387.000000 0 1 0
-3.647790 -18.376461 9.136098 20.843919 1.374840 1.117079 0.047196 -0.009527 -553448.000000 0 1 0
-2.681690 -19.105361 8.412698 21.047084 1.431344 1.159598 0.058837 -0.012918 -208925.000000 0 1 0
-1.295190 -19.185361 9.055198 21.254463 1.503389 1.130688 0.064825 -0.017684 -622010.000000 0 1 0
-0.379890 -19.896161 8.270898 21.550157 1.551705 1.176891 0.067831 -0.005969 -316221.000000 0 1 0
0.787410 -20.012261 9.090598 21.994308 -1.531470 1.144704 0.063798 -0.017036 -392040.000000 0 1 0
2.004110 -20.391061 8.268498 22.094793 -1.472827 1.187232 0.072433 -0.033636 -612092.000000 0 1 0
2.033010 -21.695961 7.757198 23.130542 -1.477365 1.228803 0.082274 -0.029110 -326144.000000 0 1 0
2.332310 -22.691361 8.701698 24.414280 -1.468372 1.206365 0.090754 -0.032009 -220470.000000 0 1 0
1.830810 -24.100161 8.389598 25.584272 -1.494975 1.236695 0.081401 -0.029992 -121555.000000 0 0 1
1.881810 -24.944261 9.484998 26.752991 -1.495498 1.208375 0.095065 -0.029961 26712.800000 0 0 1
1.644810 -26.275061 9.145698 27.869840 -1.508278 1.236444 0.094136 -0.023639 -716785.000000 0 0 1
1.632610 -27.302201 10.309598 29.229495 -1.511070 1.210328 0.108683 -0.029965 299165.000000 0 0 1
0.630310 -27.106311 11.294598 29.372050 -1.547547 1.176092 0.107959 -0.032977 815341.000000 0 0 1
-0.737190 -27.313711 10.902798 29.418587 1.543813 1.191131 0.098359 -0.026616 524030.000000 0 0 1
-1.679590 -27.469041 12.101698 30.063604 1.509728 1.156510 0.088657 -0.035405 -41338.200000 0 0 1
-1.506690 -28.676591 12.841098 31.456490 1.518304 1.150295 0.081580 -0.040521 -134287.000000 0 0 1
-1.567690 -28.382331 14.230398 31.788655 1.515618 1.106653 0.073691 -0.044964 130663.000000 0 0 1
-1.184390 -29.593641 15.103198 33.245946 1.530796 1.099225 0.052315 -0.029048 224725.000000 0 0 1
-0.890590 -29.090831 16.422698 33.418178 1.540192 1.057065 0.064430 -0.027739 65980.100000 0 0 1
-0.358890 -30.090401 17.281698 34.701846 1.558870 1.049499 0.067066 -0.023037 -120442.000000 0 0 1
-0.688790 -29.814371 18.774298 35.239827 1.547698 1.008940 0.067735 -0.022726 825717.000000 0 0 1
-2.058690 -29.965371 19.178598 35.636783 1.502202 1.002534 0.047597 -0.019210 633886.000000 0 0 1
-2.302990 -29.491211 20.446098 35.959397 1.492864 0.966007 0.082121 -0.026231 -121010.000000 0 0 1
-3.744090 -29.737701 20.952498 36.569881 1.445552 0.960703 0.125205 -0.037304 -227414.000000 0 0 1
-4.642990 -29.010881 20.150098 35.626044 1.412099 0.969635 0.098915 -0.033662 -505869.000000 0 0 1
-5.949790 -28.819011 20.617398 35.930662 1.367203 0.959645 0.107907 -0.041938 70637.000000 0 0 1
-6.175190 -27.750891 21.734698 35.786059 1.351842 0.918074 0.152623 -0.051805 -550112.000000 0 0 1
-5.657690 -28.214541 22.964198 36.816086 1.372897 0.897259 0.148636 -0.052991 -93697.500000 0 0 1
-5.348390 -27.130911 23.808798 36.490416 1.376159 0.859961 0.165441 -0.048453 -191779.000000 0 0 1
-4.199290 -27.411651 24.811498 37.210792 1.418785 0.840913 0.178392 -0.049795 -87300.200000 0 0 1
-4.380790 -28.473451 25.743698 38.635045 1.418138 0.841520 0.170746 -0.046681 4213.170000 0 0 1
-4.200390 -29.792251 25.204298 39.248925 1.430730 0.873477 0.146823 -0.048263 -96569.900000 0 0 1
-4.580690 -30.884561 26.240298 40.784704 1.423553 0.871884 0.142370 -0.034286 -29923.100000 0 0 1
-3.792290 -30.832331 27.400398 41.422167 1.448414 0.847991 0.145541 -0.040083 60992.600000 0 0 1
-4.114790 -31.835361 28.317398 42.805335 1.442257 0.847927 0.133910 -0.042470 -185990.000000 0 0 1
-3.406890 -31.550461 29.646698 43.427701 1.463231 0.819389 0.160769 -0.042671 -231770.000000 0 0 1
-2.016990 -31.704391 29.658698 43.461190 1.507263 0.819731 0.159414 -0.043753 -371247.000000 0 0 1
-1.386690 -31.119401 30.748298 43.769828 1.526265 0.791892 0.163484 -0.047622 -128151.000000 0 0 1
-29.385190 2.867639 -9.275702 30.947558 -0.097280 1.875199 0.185626 -0.039537 -488786.000000 0 0 1
-30.461100 2.595939 -10.103402 32.197767 -0.085016 1.889980 0.161150 -0.047926 -242557.000000 0 0 1
-30.773680 3.654639 -10.949202 32.867320 -0.118205 1.910421 0.148995 -0.050937 -92751.800000 0 0 1
-31.453260 3.400639 -12.317202 33.949747 -0.107699 1.942075 0.142977 -0.048093 377349.000000 0 0 1
-32.694350 2.702739 -12.122902 34.974134 -0.082479 1.924767 0.163645 -0.051648 670294.000000 0 0 1
-33.368250 2.639639 -13.380502 36.047824 -0.078942 1.951084 0.158435 -0.043660 -775282.000000 0 0 1
-34.716124 1.956139 -13.196902 37.191315 -0.056287 1.933537 0.152885 -0.037441 -827055.000000 0 0 1
-34.648251 0.611239 -12.717102 36.913406 -0.017639 1.922515 0.165751 -0.036329 2259.160000 0 0 1
-35.895230 -0.022361 -12.516502 38.014876 0.000623 1.906308 0.145991 -0.034909 -110796.000000 0 0 1
-35.819646 -1.535561 -12.157902 37.857886 0.042843 1.897735 0.160681 -0.037425 -228524.000000 0 0 1
-35.442268 -2.370561 -13.226302 37.903944 0.066786 1.927239 0.144473 -0.025573 237453.000000 0 0 1
-35.052420 -3.609461 -12.684902 37.451396 0.102612 1.916334 0.166029 -0.035250 -68971.000000 0 0 1
-35.119035 -4.824561 -13.659402 37.989502 0.136523 1.938590 0.153033 -0.031368 91498.800000 0 0 1
-34.765123 -6.084561 -13.068502 37.635374 0.173264 1.925423 0.162054 -0.039455 286943.000000 0 0 1
-35.039600 -7.118261 -14.003402 38.399719 0.200422 1.944080 0.158359 -0.034298 -346190.000000 0 0 1
-34.610175 -8.510261 -13.543202 38.127510 0.241106 1.933933 0.141442 -0.031891 -80104.200000 0 0 1
-33.262510 -8.876361 -13.378302 36.934581 0.260781 1.941441 0.149692 -0.034934 27781.600000 0 0 1
-32.539630 -9.178361 -14.529102 36.798975 0.274925 1.976672 0.155112 -0.031642 -282629.000000 0 0 1
-31.297590 -10.028861 -14.195802 35.799971 0.310098 1.978531 0.143810 -0.028444 -214746.000000 0 0 1
-31.728520 -11.373361 -14.085402 36.530136 0.344190 1.966636 0.125757 -0.024433 584016.000000 0 0 1
-30.663740 -12.257661 -13.806502 35.792941 0.380286 1.966798 0.128461 -0.025802 -175836.000000 0 0 1
-31.080900 -13.718761 -13.955602 36.728538 0.415670 1.960556 0.138474 -0.029063 -143439.000000 0 0 1
-31.102410 -13.893761 -15.351702 37.364036 0.420115 1.994203 0.139630 -0.033450 50430.200000 0 0 1
-31.223210 -15.250061 -15.765002 38.157416 0.454341 1.996714 0.146231 -0.038757 -39782.900000 0 0 1
-30.136820 -16.348061 -15.511702 37.631102 0.497037 1.995668 0.125289 -0.032505 144286.000000 0 0 1
-28.838400 -15.896261 -15.877402 36.557301 0.503778 2.020075 0.130375 -0.041260 -508929.000000 0 0 1
-28.011900 -17.025161 -15.826302 36.400473 0.546123 2.020593 0.130274 -0.048550 1318490.000000 0 0 1
-26.504870 -16.627761 -16.201302 35.234538 0.560286 2.048581 0.130938 -0.065397 1540990.000000 0 0 1
-26.442370 -16.129761 -17.502702 35.576855 0.547738 2.085146 0.134869 -0.061026 -1216300.000000 0 0 1
-25.162390 -15.902661 -17.950602 34.760100 0.563618 2.113454 0.092974 -0.047187 -1167980.000000 0 0 1
-25.083210 -15.469261 -19.442702 35.305581 0.552621 2.153996 0.097848 -0.035863 120608.000000 0 0 1
-25.539820 -16.345961 -20.497202 36.600657 0.569326 2.165210 0.089648 -0.045121 1657250.000000 0 0 1
-26.982130 -16.534561 -20.479102 37.693774 0.549776 2.145162 0.108883 -0.045870 972549.000000 0 0 1
-27.509340 -17.451561 -21.538002 39.053889 0.565321 2.154951 0.118412 -0.048596 -325210.000000 0 0 1
-27.080180 -17.138861 -22.813002 39.338400 0.564255 2.189423 0.106602 -0.028229 103403.000000 0 0 1
-27.616190 -18.062361 -23.695802 40.625039 0.579217 2.193558 0.083498 -0.025017 269807.000000 0 0 1
-26.662230 -18.128261 -24.962102 40.775174 0.597124 2.229622 0.091295 -0.008988 434490.000000 0 0 1
-25.503730 -18.913261 -24.903702 40.352769 0.638096 2.235911 0.101158 -0.018284 -102643.000000 0 0 1
-25.789830 -20.349361 -24.832602 41.180941 0.668026 2.218068 0.085339 -0.020892 575895.000000 0 0 1
-24.487490 -21.245261 -24.669702 40.738095 0.714621 2.221276 0.078652 -0.006155 1419880.000000 0 0 1
-23.552890 -21.008161 -25.740342 40.726485 0.728354 2.254966 0.081722 -0.012921 -10763.500000 0 0 1
-22.235790 -21.330361 -25.357122 39.904865 0.764618 2.259374 0.084480 -0.023058 201906.000000 0 0 1
-21.256290 -21.138061 -26.547572 40.042740 0.782609 2.295590 0.079226 -0.029184 -356050.000000 0 0 1
-21.329090 -22.107861 -27.593202 41.292521 0.803325 2.302633 0.101345 -0.025441 -366602.000000 0 0 1
-21.941290 -21.588761 -28.739262 42.112230 0.777300 2.321898 0.107248 -0.022153 -151092.000000 0 0 1
-21.084190 -21.548761 -30.035932 42.556425 0.796295 2.354335 0.111470 -0.029600 48327.300000 0 0 1
-20.954290 -22.869661 -30.615072 43.581948 0.829076 2.349660 0.097630 -0.031222 87278.600000 0 0 1
-20.104990 -22.841561 -31.737232 43.968163 0.849033 2.377229 0.095007 -0.034703 35219.500000 0 0 1
-19.654690 -24.257261 -32.228842 44.871146 0.889830 2.372085 0.095817 -0.038728 -42759.700000 0 0 1
-18.952590 -24.278061 -33.449122 45.469425 0.907968 2.397407 0.098953 -0.038030 182114.000000 0 0 1
-19.803290 -24.155861 33.202083 45.585680 0.884090 0.754893 0.112567 -0.034044 155581.000000 0 0 1
-19.087090 -24.052061 31.828640 44.225343 0.899986 0.767437 0.112907 -0.030378 -138211.000000 0 0 1
-18.471790 -22.775861 31.624020 43.128013 0.889369 0.747693 0.093400 -0.035578 -206653.000000 0 0 1
-17.649090 -22.879761 30.486630 42.004862 0.913749 0.758617 0.093899 -0.029782 -517733.000000 0 0 1
-16.646990 -21.750361 30.349610 40.881527 0.917533 0.734181 0.061333 -0.015076 -553255.000000 0 0 1
-17.128490 -20.466761 29.934830 40.104457 0.873961 0.728128 0.077320 -0.027123 -89174.500000 0 0 1
-16.187390 -19.400261 29.740700 39.024491 0.875435 0.704241 0.075921 -0.027622 314179.000000 0 0 1
-15.667490 -18.739961 31.050570 39.506889 0.874459 0.666560 0.070289 -0.027468 161358.000000 0 0 1
-15.019790 -17.518961 30.792510 38.479692 0.862054 0.643122 0.068411 -0.029198 -384934.000000 0 0 1
-14.523690 -16.977661 32.015790 39.040867 0.863142 0.609283 0.063341 -0.023067 178653.000000 0 0 1
-13.912290 -15.578761 31.700640 37.962879 0.841846 0.582585 0.047607 -0.016118 225799.000000 0 0 1
-12.772090 -15.648961 30.839230 36.865625 0.886278 0.579876 0.044364 -0.022925 223357.000000 0 0 1
-12.316690 -14.375661 30.552280 35.941651 0.862383 0.554712 0.039398 -0.021023 -367174.000000 0 0 1
-11.154590 -14.318061 29.534180 34.665538 0.908956 0.551050 0.070895 -0.020274 140009.000000 0 0 1
-10.733690 -12.973661 29.335010 33.824115 0.879603 0.521082 0.082169 -0.021968 -226355.000000 0 0 1
-9.571490 -12.657761 30.059530 33.991288 0.923355 0.485738 0.080058 -0.028027 -245626.000000 0 0 1
-9.074290 -11.192361 29.986850 33.268947 0.889530 0.447928 0.068593 -0.017871 141622.000000 0 0 1
-9.772190 -10.317361 30.864130 33.978495 0.812529 0.431491 0.057742 -0.015362 479818.000000 0 0 1
-9.121590 -9.041661 30.871360 33.436446 0.780998 0.394250 0.048023 -0.013039 325794.000000 0 0 1
-9.900690 -8.062461 31.806271 34.273398 0.683420 0.381744 0.025061 -0.017259 -93815.000000 0 0 1
-11.163490 -7.743161 31.275040 34.098507 0.606428 0.409809 0.049513 -0.027117 -39243.500000 0 0 1
-12.137190 -7.353461 32.231878 35.217591 0.544719 0.414740 0.045716 -0.025310 198077.000000 0 0 1
-12.077790 -5.881961 32.727691 35.377566 0.453199 0.389505 0.040752 -0.020764 -361217.000000 0 0 1
-12.252190 -4.870361 31.783973 34.410137 0.378357 0.393219 0.046720 -0.025672 245062.000000 0 0 1
-12.664790 -3.653061 32.402225 34.980651 0.280820 0.386352 0.038077 -0.025245 -211682.000000 0 0 1
-12.270990 -2.393161 31.600460 33.983724 0.192608 0.376736 0.044867 -0.025382 220393.000000 0 0 1
-10.867490 -2.195661 31.579000 33.468739 0.199356 0.337646 0.048624 -0.027714 250954.000000 0 0 1
-10.492790 -1.073561 30.756140 32.514478 0.101959 0.330373 0.044170 -0.024462 879391.000000 0 0 1
-8.965890 -0.694261 30.887460 32.169929 0.077279 0.283313 0.044270 -0.020160 929893.000000 0 0 1
-8.663490 -0.156761 32.134110 33.281852 0.018092 0.263384 0.061165 -0.039254 -676154.000000 0 0 1
-7.302490 0.099739 32.239546 33.056386 -0.013657 0.222769 0.084742 -0.041944 -682071.000000 0 0 1
-6.892790 0.618939 33.641709 34.346153 -0.089555 0.202882 0.119321 -0.057632 -381888.000000 0 0 1
-7.400290 1.859239 -33.776452 34.627586 -0.246144 2.919417 0.110028 -0.041244 103157.000000 0 0 1
-6.721190 2.974639 33.461617 34.259344 -0.416663 0.216222 0.125939 -0.037821 -76378.900000 0 0 1
-7.604990 4.229739 33.438538 34.552314 -0.507575 0.254594 0.115252 -0.037336 -112650.000000 0 0 1
-8.646890 4.276339 32.490817 33.892609 -0.459280 0.288611 0.083728 -0.016271 -141840.000000 0 0 1
-9.453590 5.377039 32.896475 34.647669 -0.517149 0.319295 0.071567 -0.006885 135285.000000 0 0 1
-10.703790 5.493539 31.969652 34.158582 -0.474178 0.359938 0.055822 0.000049 413920.000000 0 0 1
-11.499190 6.643839 32.276337 34.901775 -0.523910 0.390349 0.078253 0.003242 216665.000000 0 0 1
-12.633590 6.714139 31.441030 34.543098 -0.488491 0.427036 0.047475 0.002705 214541.000000 0 0 1
-13.599990 7.886739 31.688610 35.374120 -0.525515 0.460538 0.073003 -0.006426 328308.000000 0 0 1
-14.359390 7.968039 32.917500 36.786458 -0.506598 0.462754 0.074260 -0.000241 394323.000000 0 0 1
-15.103590 9.153039 32.902838 37.342915 -0.544832 0.492613 0.081968 0.006662 96753.900000 0 0 1
-16.054890 9.520239 -33.738382 38.557397 -0.535242 2.636267 0.085389 0.008632 636662.000000 0 0 1
-15.344690 9.801739 -32.540262 37.288098 -0.568441 2.631443 0.089629 0.005868 761182.000000 0 0 1
-16.321490 10.288739 -31.600552 37.024911 -0.562459 2.593451 0.090503 0.001749 -102981.000000 0 0 1
-15.688290 10.512539 -30.182752 35.603854 -0.590368 2.582503 0.114065 -0.005068 306041.000000 0 0 1
-14.788490 11.590939 -30.043022 35.434904 -0.664773 2.582689 0.098674 -0.004513 517104.000000 0 0 1
-13.509290 11.292439 -30.621672 35.322894 -0.696252 2.619760 0.104418 -0.015219 -312966.000000 0 0 1
-12.543890 12.469239 -30.657432 35.393632 -0.782414 2.618313 0.099904 -0.014564 -308828.000000 0 0 1
-12.783790 13.406839 -31.690072 36.707346 -0.809183 2.612602 0.087547 -0.014009 -237394.000000 0 0 1
-11.957790 14.532539 -31.768702 36.924705 -0.882290 2.606781 0.085933 -0.029212 -194540.000000 0 0 1
-12.420190 15.676339 -30.818632 36.739581 -0.900775 2.565945 0.093418 -0.031231 1098330.000000 0 0 1
-13.592690 16.438539 -31.229992 37.819296 -0.879879 2.542360 0.093226 -0.025817 1151890.000000 0 0 1
-13.932090 17.471539 -30.311652 37.658386 -0.897633 2.506322 0.076507 -0.014131 -179185.000000 0 0 1
-15.356990 18.040039 -30.447262 38.578697 -0.865564 2.480342 0.063675 -0.019938 -715644.000000 0 0 1
-15.512590 18.791839 -31.629812 39.927668 -0.880701 2.485166 0.072602 -0.028711 704113.000000 0 0 1
-16.829690 19.241639 -31.989472 40.948815 -0.852165 2.467392 0.068984 -0.027537 858085.000000 0 0 1
-17.525290 20.307139 -31.018992 41.008457 -0.858797 2.428595 0.052014 -0.034254 -40049.900000 0 0 1
-16.758890 21.523439 -30.823602 41.160822 -0.909220 2.417133 0.059501 -0.030607 470592.000000 0 0 1
-17.374890 22.505439 -30.004892 41.336124 -0.913344 2.383103 0.033524 -0.026085 -652455.000000 0 0 1
-18.513790 23.298139 -30.649682 42.719629 -0.899328 2.370947 0.044965 -0.030288 -718090.000000 0 0 1
-19.643490 22.499039 -30.527142 42.708077 -0.853054 2.367115 0.042020 -0.025779 -259839.000000 0 0 1
-20.762190 22.850939 -31.348632 43.999666 -0.833254 2.363814 0.065277 -0.031395 -801503.000000 0 0 1
-21.845990 21.751839 -31.352892 43.970372 -0.783239 2.364629 0.063413 -0.034028 487458.000000 0 0 1
-22.944490 21.953539 -30.435372 43.985445 -0.763331 2.334972 0.079319 -0.033950 639680.000000 0 0 1
-23.777690 23.025239 -30.774882 45.195503 -0.769323 2.319825 0.087811 -0.034343 -365590.000000 0 0 1
-25.183080 22.555239 -31.331762 46.093444 -0.730407 2.318210 0.089579 -0.034127 575113.000000 0 0 1
-25.039110 22.049839 -32.606192 46.651004 -0.722002 2.344709 0.105680 -0.034077 106995.000000 0 0 1
-26.255160 21.509839 -33.040472 47.367493 -0.686376 2.342748 0.114986 -0.031109 -449970.000000 0 0 1
-26.086420 20.546639 33.554575 47.207787 -0.667157 0.780183 0.124613 -0.025411 -64363.500000 0 0 1
-25.554890 19.257239 33.871710 46.595991 -0.645778 0.756965 0.121560 -0.032711 335560.000000 0 0 1
-25.505650 18.455939 32.724983 45.410179 -0.626391 0.766053 0.102429 -0.042060 -189256.000000 0 0 1
-24.796890 17.096639 33.008461 44.684889 -0.603622 0.739666 0.095167 -0.024292 361783.000000 0 0 1
-25.656590 16.035239 33.492373 45.134560 -0.558596 0.734664 0.086239 -0.020832 1320540.000000 0 0 1
-26.521600 15.437039 32.495202 44.694917 -0.527120 0.756789 0.092307 -0.019065 237617.000000 0 0 1
-27.391340 14.194139 32.763753 45.002473 -0.478100 0.755333 0.054337 -0.008035 -390413.000000 0 0 1
-28.568120 14.552739 33.430871 46.320004 -0.471143 0.764487 0.061325 -0.008548 -388908.000000 0 0 1
-29.668620 13.700839 33.191163 46.578893 -0.432620 0.777628 0.044138 -0.002212 -248827.000000 0 0 1
-29.742120 12.277139 33.869920 46.717163 -0.391480 0.759763 0.026956 0.004016 -1217760.000000 0 0 1
-28.723460 11.429839 33.508453 45.590512 -0.378718 0.745148 0.028835 0.001215 -856531.000000 0 0 1
-29.010630 10.056439 33.863380 45.710799 -0.333684 0.736509 0.036792 -0.003220 -297701.000000 0 0 1
-27.799780 9.132739 -33.701322 44.631981 -0.317411 2.426593 0.029754 -0.006360 464129.000000 0 0 1
-26.884330 8.877639 33.035523 43.507763 -0.318942 0.708557 0.033892 -0.010321 813412.000000 0 0 1
-25.881530 9.851139 32.729895 42.873588 -0.363692 0.702229 0.020809 -0.009185 716916.000000 0 0 1
-24.625890 9.214639 32.019084 41.431459 -0.358056 0.687523 0.027947 -0.010002 589743.000000 0 0 1
-24.893390 8.934539 30.650110 40.483776 -0.344592 0.711940 0.036364 -0.009242 336165.000000 0 0 1
-23.659990 8.757039 29.964600 39.170883 -0.354486 0.699800 0.063348 -0.017303 394632.000000 0 0 1
-23.638490 8.714839 28.437230 37.992140 -0.353211 0.724995 0.088419 -0.027425 -114487.000000 0 0 1
-24.171490 9.907039 27.850940 38.184882 -0.388981 0.753394 0.071564 -0.022244 265008.000000 0 0 1
-24.134890 9.904539 26.452890 37.153037 -0.389425 0.778457 0.075828 -0.021899 -756814.000000 0 0 1
-24.385590 11.291239 25.880420 37.308782 -0.433636 0.804208 0.070937 -0.012652 47351.600000 0 0 1
-25.634900 11.898939 26.029150 38.421992 -0.434575 0.826500 0.085600 -0.010560 -247235.000000 0 0 1
-26.742340 11.358339 25.337420 38.550609 -0.401644 0.853631 0.109705 -0.011312 55901.900000 0 0 1
-28.027330 12.203439 25.544560 39.836914 -0.410657 0.874698 0.107844 -0.011316 40888.500000 0 0 1
-28.015860 13.514239 24.950500 39.875437 -0.449451 0.894754 0.126252 -0.012202 -262828.000000 0 0 1
-29.234050 14.187139 25.037750 41.021866 -0.451815 0.914292 0.110610 -0.021578 -178864.000000 0 0 1
-29.014190 15.563039 24.280320 40.909233 -0.492337 0.935375 0.122164 -0.019574 226203.000000 0 0 1
-28.079820 16.395239 24.946410 40.982966 -0.528482 0.916373 0.136696 -0.019643 269813.000000 0 0 1
-27.705480 17.446939 24.137850 40.677083 -0.561993 0.935518 0.112869 -0.025394 -297193.000000 0 0 1
-23.133290 -8.971161 31.853307 40.376527 0.369948 0.661769 0.092748 -0.027249 -704945.000000 0 0 1
-22.247790 -8.528461 30.924310 39.038593 0.366062 0.656477 0.086855 -0.028690 -955926.000000 0 0 1
-22.733190 -8.523861 29.596570 38.280688 0.358729 0.687009 0.082034 -0.029894 -317031.000000 0 0 1
-21.707390 -8.285661 28.468430 36.746625 0.364630 0.684521 0.095322 -0.029525 -303470.000000 0 0 1
-21.202490 -6.930761 28.424580 36.132226 0.315935 0.665380 0.094406 -0.030399 -680852.000000 0 0 1
-19.923090 -6.655461 28.867650 35.701063 0.322402 0.629039 0.090236 -0.030330 -681231.000000 0 0 1
-18.741990 -7.125061 27.989980 34.430621 0.363292 0.621616 0.105635 -0.037159 -897869.000000 0 0 1
-18.377590 -8.478961 27.857960 34.433915 0.432273 0.628302 0.099485 -0.038284 297109.000000 0 0 1
-17.800290 -9.207161 28.974470 35.229846 0.477350 0.605107 0.092731 -0.031669 -152028.000000 0 0 1
-16.477490 -8.672161 29.547990 34.925603 0.484468 0.562308 0.085400 -0.032098 509126.000000 0 0 1
-15.296590 -9.055961 28.788950 33.834889 0.534535 0.553165 0.069023 -0.023117 1291290.000000 0 0 1
-14.081390 -8.469461 29.309850 33.601854 0.541496 0.510974 0.058741 -0.030320 348289.000000 0 0 1
-12.898290 -9.289561 28.878560 32.964117 0.624166 0.503166 0.054514 -0.028312 -926553.000000 0 0 1
-12.613390 -9.268561 27.510590 31.651799 0.633714 0.517288 0.074659 -0.029454 -331317.000000 0 0 1
-11.383590 -9.884461 27.229170 31.124209 0.715027 0.505660 0.079455 -0.024070 -106462.000000 0 0 1
-10.904890 -9.738661 25.785820 29.642312 0.728965 0.515799 0.067338 -0.027711 -6241.590000 0 0 1
-11.806790 -10.343461 24.887810 29.424319 0.719430 0.562687 0.071426 -0.035693 90381.400000 0 0 1
-11.356490 -10.133861 23.577880 28.063881 0.728567 0.573236 0.062005 -0.036509 479193.000000 0 0 1
-12.450690 -10.613961 22.567850 27.874427 0.705932 0.627282 0.083250 -0.044699 -992144.000000 0 0 1
-12.423890 -12.011561 22.311850 28.221433 0.768526 0.659009 0.068773 -0.038990 365226.000000 0 0 1
-13.651190 -12.479161 21.773750 28.568875 0.740575 0.704170 0.075567 -0.035523 900234.000000 0 0 1
-14.892990 -12.283661 22.738250 29.828132 0.689678 0.703923 0.088027 -0.037953 -597595.000000 0 0 1
-16.054890 -13.007061 22.357250 30.443221 0.680907 0.746026 0.070204 -0.025723 -250163.000000 0 0 1
-17.016490 -12.883661 23.339210 31.627019 0.648047 0.740766 0.073870 -0.026133 -522310.000000 0 0 1
-18.397390 -13.469861 22.999560 32.386430 0.631986 0.781070 0.087864 -0.018539 -446815.000000 0 0 1
-18.293890 -14.890961 22.994000 32.941329 0.683211 0.798155 0.081784 -0.022411 1024030.000000 0 0 1
-19.563190 -15.583161 22.997410 33.976965 0.672637 0.827317 0.083833 -0.012181 1004560.000000 0 0 1
-20.442690 -15.495461 24.274190 35.316415 0.648598 0.812983 0.090003 -0.015466 -245810.000000 0 0 1
-19.991990 -16.341161 25.284910 36.139173 0.685252 0.795883 0.084107 -0.017055 410142.000000 0 0 1
-20.958090 -16.430861 26.331510 37.450809 0.664900 0.791054 0.093914 -0.020792 223710.000000 0 0 1
-20.542090 -17.379161 27.432820 38.426193 0.702183 0.775731 0.085954 -0.019968 -3568.810000 0 0 1
-20.472790 -18.746561 27.120540 38.808405 0.741412 0.797034 0.084075 -0.016722 58548.600000 0 0 1
-20.352890 -19.560961 28.294570 39.968162 0.765560 0.784237 0.085192 -0.018407 60470.800000 0 0 1
-20.670890 -21.084861 28.113600 40.770474 0.795312 0.809918 0.086807 -0.010735 482259.000000 0 0 1
-22.027090 -21.405561 27.839150 41.453697 0.771089 0.834468 0.098148 -0.011454 70683.300000 0 0 1
-22.038790 -22.722961 27.380380 41.853631 0.800682 0.857680 0.102711 -0.006815 297477.000000 0 0 1
-23.424390 -23.254161 26.950080 42.611792 0.781751 0.886077 0.096565 -0.001959 -111891.000000 0 0 1
-24.261390 -23.694761 27.956160 43.950012 0.773583 0.881376 0.094278 -0.008026 -472967.000000 0 0 1
-25.426810 -24.348161 27.541840 44.697970 0.763731 0.906917 0.075414 -0.005095 141344.000000 0 0 1
-26.162730 -25.172521 28.666920 46.259448 0.766111 0.902438 0.057250 -0.011329 735361.000000 0 0 1
-27.179290 -24.462361 29.425270 46.935779 0.732835 0.893195 0.043026 0.000740 871567.000000 0 0 1
-27.730250 -25.336291 30.400730 48.322859 0.740316 0.890380 0.042505 0.003917 141699.000000 0 0 1
-28.949700 -24.732761 31.176600 49.211533 0.707006 0.884699 0.020756 0.008697 303512.000000 0 0 1
-30.013200 -24.566261 30.254480 49.189703 0.685929 0.908338 0.032874 0.006947 16228.300000 0 0 1
-30.806980 -23.439161 30.599980 49.343926 0.650402 0.901879 0.027838 0.002499 -507981.000000 0 0 1
-31.990670 -23.274361 29.633990 49.429466 0.628968 0.927894 0.018861 -0.003035 -521727.000000 0 0 1
-33.020900 -24.158761 29.989680 50.728753 0.631634 0.938279 0.019680 -0.000226 -379550.000000 0 0 1
-34.057344 -24.171461 29.031180 50.862280 0.617225 0.963341 0.017623 -0.005585 -337745.000000 0 0 1
-35.191782 -25.069351 29.530110 52.335086 0.618976 0.971271 0.028142 -0.015332 -315012.000000 0 0 1
-34.866861 -26.485631 29.582250 52.842181 0.649631 0.976625 0.027500 -0.014430 515904.000000 0 0 1
-35.974591 -27.251951 30.102190 54.249256 0.648305 0.982570 0.027294 -0.013283 611735.000000 0 0 1
-35.611770 -28.668551 30.584860 55.004705 0.677801 0.981182 0.028702 -0.018288 -82572.100000 0 0 1
-34.954501 -28.803421 31.833272 55.360738 0.689220 0.958173 0.036972 -0.016584 149519.000000 0 0 1
-34.417931 -30.124471 32.090566 55.873805 0.718974 0.958999 0.040510 -0.023421 -22754.300000 0 0 1
-33.338700 -30.079771 33.184509 55.834336 0.734056 0.934353 0.050075 -0.030765 -137037.000000 0 0 1
-33.875440 -29.989961 -33.303082 56.178629 0.724634 2.205336 0.047045 -0.023868 -63722.100000 0 0 1
-32.842750 -30.240151 -32.390752 55.156810 0.744165 2.198452 0.047829 -0.028828 -152054.000000 0 0 1
-33.208390 -29.842131 -30.936202 54.317570 0.732059 2.176746 0.053852 -0.037645 -14978.000000 0 0 1
-33.314660 -28.444761 -30.611522 53.441895 0.706708 2.180714 0.047850 -0.029073 144106.000000 0 0 1
-32.084100 -27.746451 -30.525542 52.259579 0.713026 2.194584 0.051620 -0.022537 -29327.900000 0 0 1
-32.361620 -26.237241 -30.418902 51.584656 0.681263 2.201470 0.029120 -0.002744 -318298.000000 0 0 1
-33.132560 -25.831261 -29.334952 51.240218 0.662199 2.180346 0.031936 -0.018213 -142546.000000 0 0 1
-33.146460 -24.413861 -29.134132 50.433342 0.634834 2.186675 0.030351 -0.009172 587916.000000 0 0 1
-31.789070 -23.816561 -28.610172 48.952175 0.642993 2.195000 0.034102 -0.011878 462212.000000 0 0 1
-31.857160 -22.451561 -28.378562 48.210932 0.613912 2.200164 0.031804 -0.001264 558589.000000 0 0 1
-30.534230 -21.964061 -28.138492 46.973757 0.623579 2.213080 0.053163 -0.007067 610138.000000 0 0 1
-30.632260 -20.450761 -28.167242 46.367687 0.588663 2.223675 0.072664 -0.007843 -8939.680000 0 0 1
-30.588200 -19.878161 -29.459242 46.889510 0.576279 2.250123 0.096277 -0.004145 285357.000000 0 0 1
-30.391480 -18.492261 -29.416162 46.161849 0.546623 2.261708 0.086739 -0.004862 -624268.000000 0 0 1
-29.753290 -17.996461 -30.748622 46.417761 0.543983 2.294857 0.124658 -0.008059 35751.100000 0 0 1
-30.565700 -17.763361 -31.880152 47.604023 0.526446 2.304594 0.104737 -0.016474 -84047.700000 0 0 1
-31.296590 -16.557661 -31.807612 47.595764 0.486622 2.302699 0.082168 -0.014533 -653744.000000 0 0 1
-31.903850 -16.169561 -33.153662 48.769617 0.469090 2.318288 0.089125 -0.020494 287970.000000 0 0 1
-32.867010 -17.101261 -33.668432 50.062528 0.479769 2.308415 0.086627 -0.023904 997737.000000 0 0 1
-34.213540 -16.781861 -33.297492 50.605534 0.456022 2.288931 0.072498 -0.017801 1250360.000000 0 0 1
-35.296456 -17.510961 33.581431 51.770513 0.460532 0.864975 0.075062 -0.027331 470955.000000 0 0 1
-35.207212 -18.882261 33.670647 52.247488 0.492278 0.870499 0.030340 -0.020318 140960.000000 0 0 1
-36.073990 -19.523361 32.743734 52.484726 0.496064 0.897109 0.041728 -0.022341 -221079.000000 0 0 1
-36.424520 -21.027661 32.900792 53.398223 0.523557 0.906964 0.024142 -0.011834 -557002.000000 0 0 1
-35.270648 -21.777761 32.833115 52.880080 0.553150 0.900909 0.032920 -0.009996 -476891.000000 0 0 1
-35.599916 -23.188561 33.082687 53.847261 0.577335 0.909196 0.028124 -0.011716 190175.000000 0 0 1
-34.354444 -24.140361 33.219973 53.540185 0.612526 0.901457 0.026123 -0.006061 1234850.000000 0 0 1
-33.408570 -23.959961 -33.495432 53.029767 0.622163 2.254456 0.006481 -0.007875 1098590.000000 0 0 1
-32.568130 -22.799461 -33.562362 52.028171 0.610762 2.271925 0.014855 -0.012730 -492601.000000 0 0 1
-31.361650 -22.778061 -32.612552 50.655420 0.628162 2.270266 0.035588 -0.009966 -245984.000000 0 0 1
-30.269940 -23.518661 -33.161622 50.686189 0.660536 2.283992 0.044693 -0.004628 531645.000000 0 0 1
-29.031370 -23.439461 -32.465952 49.459749 0.679227 2.286849 0.072181 -0.010694 330282.000000 0 0 1
-28.960370 -23.922461 -30.991572 48.697686 0.690419 2.260628 0.066538 0.004222 -1151100.000000 0 0 1
-28.835660 -25.298161 -30.794162 49.191184 0.720144 2.247222 0.063448 -0.008471 75227.400000 0 0 1
-28.591490 -25.697521 -29.476022 48.442457 0.732142 2.224934 0.054212 -0.017868 -386156.000000 0 0 1
-28.098100 -27.150771 -29.326222 48.853811 0.768253 2.214654 0.054494 -0.030293 -606593.000000 0 0 1
-29.020810 -28.137421 -29.616902 50.110704 0.769944 2.203131 0.041651 -0.019367 -231199.000000 0 0 1
-28.562580 -29.456201 -29.248132 50.387914 0.800799 2.190089 0.032520 -0.022948 -65705.600000 0 0 1
-29.490390 -30.532781 -29.827122 51.880545 0.802763 2.183302 0.042424 -0.007758 -290833.000000 0 0 1
-29.346350 -30.737681 -31.227222 52.736634 0.808550 2.204502 0.061069 -0.031839 304527.000000 0 0 1
-29.739690 -32.043011 -31.626162 53.957555 0.822662 2.197071 0.083337 -0.020577 -269916.000000 0 0 1
-29.129780 -32.439901 -33.005982 54.683508 0.839109 2.218783 0.069073 -0.035587 157626.000000 0 0 1
-27.714500 -32.346261 -33.059012 53.919127 0.862364 2.230803 0.059834 -0.030109 48672.400000 0 0 1
-27.354950 -32.675881 33.460818 54.181480 0.873804 0.905148 0.072666 -0.037093 -96969.500000 0 0 1
-25.824800 -32.888171 33.348392 53.485206 0.905126 0.897576 0.082149 -0.036213 119834.000000 0 0 1
-25.398190 -33.506761 32.150932 52.928758 0.922194 0.917965 0.089990 -0.029107 -97834.800000 0 0 1
-24.444890 33.286006 32.398642 52.489835 -0.937361 0.905571 0.084786 -0.020061 -220566.000000 0 0 1
-24.399190 32.296791 31.191600 51.101067 -0.923805 0.914243 0.091275 -0.017332 297719.000000 0 0 1
-25.684650 31.728503 30.961060 51.234620 -0.890281 0.921910 0.078631 -0.031319 458253.000000 0 0 1
-25.590640 30.702733 30.020190 49.987503 -0.875961 0.926603 0.071604 -0.022832 307454.000000 0 0 1
-26.989040 30.109713 29.681920 50.159938 -0.839998 0.937574 0.068182 -0.020155 17774.300000 0 0 1
-27.566680 29.292433 30.662370 50.578151 -0.815740 0.919475 0.083506 -0.018100 -318477.000000 0 0 1
-28.738490 28.769963 30.103420 50.594737 -0.785945 0.933542 0.081000 -0.021899 -361195.000000 0 0 1
-29.200070 27.452253 30.784170 50.536476 -0.754556 0.915811 0.064714 -0.030491 431741.000000 0 0 1
-28.336300 26.319363 30.491130 49.247982 -0.748512 0.903156 0.048025 -0.017951 481136.000000 0 0 1
-28.941790 25.083843 30.727200 49.101804 -0.714110 0.894658 0.046959 -0.013736 199134.000000 0 0 1
-29.976490 24.568553 29.683200 48.819013 -0.686575 0.917225 0.037477 -0.011293 -334260.000000 0 0 1
-29.489140 24.265263 28.420620 47.604033 -0.688522 0.931013 0.044884 -0.022034 -766605.000000 0 0 1
-30.335330 23.468333 27.657410 47.285592 -0.658454 0.946038 0.040663 -0.010989 -209564.000000 0 0 1
-29.640360 23.077533 26.314200 45.864589 -0.661546 0.959735 0.049805 -0.018653 298109.000000 0 0 1
-28.433450 22.376923 26.479480 44.836933 -0.666759 0.939028 0.057012 -0.021314 -10878.000000 0 0 1
-27.700370 21.838223 25.402030 43.468167 -0.667611 0.946678 0.063483 -0.015241 186615.000000 0 0 1
-26.347420 21.175723 25.725720 42.478352 -0.677000 0.920252 0.082249 -0.028043 -68146.000000 0 0 1
-26.460270 20.104823 26.721070 42.642295 -0.649751 0.893571 0.111589 -0.036588 909726.000000 0 0 1
-25.143600 19.621323 27.038790 41.812595 -0.662657 0.867591 0.114403 -0.036333 635275.000000 0 0 1
-25.055990 18.302623 27.803500 41.663212 -0.630884 0.840166 0.137223 -0.028682 -531528.000000 0 0 1
-23.769990 17.937223 28.199150 41.011564 -0.646449 0.812631 0.127753 -0.021042 -147484.000000 0 0 1
-23.858890 16.857523 29.084650 41.223046 -0.615109 0.787607 0.122361 -0.020314 -359961.000000 0 0 1
-22.554190 16.061223 29.170750 40.219237 -0.618812 0.759336 0.104189 -0.023030 -310903.000000 0 0 1
-21.478090 16.684123 29.803280 40.347290 -0.660432 0.739703 0.136449 -0.025559 -553894.000000 0 0 1
-20.301090 15.931723 29.742330 39.377153 -0.665386 0.714655 0.111674 -0.022755 147921.000000 0 0 1
-19.132390 16.556423 30.564610 39.678191 -0.713345 0.691465 0.085736 -0.029633 -51443.800000 0 0 1
-19.303690 16.273123 31.947768 40.719858 -0.700420 0.668787 0.072662 -0.031203 275526.000000 0 0 1
-18.146690 16.602523 32.688128 40.907943 -0.740990 0.645057 0.072528 -0.031663 -590115.000000 0 0 1
-18.406690 16.355823 -33.593602 41.651521 -0.726470 2.509071 0.062519 -0.029941 155374.000000 0 0 1
-19.457190 17.089923 -32.999622 41.947857 -0.720715 2.476212 0.083014 -0.030030 475611.000000 0 0 1
-20.766090 16.624323 -33.350982 42.660128 -0.675077 2.468317 0.076596 -0.019080 -209639.000000 0 0 1
-21.793490 17.526523 -32.630452 42.975360 -0.677302 2.433007 0.078279 -0.032325 -281765.000000 0 0 1
-22.104090 17.255623 -31.273192 42.004283 -0.662832 2.410618 0.080220 -0.029952 148260.000000 0 0 1
-23.164790 18.051023 -30.802902 42.558967 -0.661956 2.380046 0.077658 -0.028312 -442380.000000 0 0 1
-23.237090 18.004723 -29.269972 41.483293 -0.659202 2.354044 0.071754 -0.028373 -8599.550000 0 0 1
-23.844690 16.891823 -28.630102 40.909481 -0.616348 2.345970 0.069904 -0.030850 730064.000000 0 0 1
-25.274950 16.865023 -28.748722 41.829906 -0.588415 2.328530 0.068548 -0.025920 612468.000000 0 0 1
-25.978910 15.886223 -27.754932 41.202088 -0.548836 2.309905 0.059832 -0.023671 278873.000000 0 0 1
-25.741400 14.512623 -27.974942 40.691931 -0.513365 2.328811 0.053231 -0.009656 84975.300000 0 0 1
-26.665960 13.789223 -27.183022 40.498552 -0.477241 2.306636 0.034296 -0.002041 200384.000000 0 0 1
-26.429440 12.238323 -27.245422 39.882387 -0.433658 2.322856 0.049406 -0.002161 -337263.000000 0 0 1
-25.257600 11.796823 -26.643402 38.561408 -0.436950 2.333577 0.041563 -0.007476 -544317.000000 0 0 1
-24.915790 10.495023 -27.099902 38.279848 -0.398664 2.357376 0.028465 0.001062 -248481.000000 0 0 1
-23.624790 9.961123 -26.476622 36.856019 -0.399020 2.372267 0.059985 -0.002398 -248109.000000 0 0 1
-23.791190 9.258923 -25.271142 35.921845 -0.371139 2.351111 0.053684 -0.001318 1257350.000000 0 0 1
-22.487190 8.752423 -24.846602 34.635707 -0.371177 2.370816 0.071724 0.002356 1147830.000000 0 0 1
-22.582090 7.700923 -23.685502 33.619309 -0.328652 2.352544 0.087242 0.011344 -300010.000000 0 0 1
-23.206790 6.554323 -24.137902 34.119679 -0.275262 2.356677 0.076054 -0.012457 -72809.200000 0 0 1
-23.297690 5.585523 -23.166302 33.326535 -0.235305 2.339398 0.085198 0.003904 -336294.000000 0 0 1
35.446792 24.480039 -10.301702 44.293030 0.604399 1.805527 0.078808 -0.005838 247244.000000 0 0 1
36.402972 24.140839 -9.298802 44.658977 0.585568 1.780549 0.088319 -0.015976 -50486.100000 0 0 1
-37.277150 23.419239 -9.912602 45.125451 -0.560930 1.792270 0.098925 -0.015350 347284.000000 0 0 1
-36.316400 22.848239 -8.804702 43.800065 -0.561574 1.773196 0.114898 -0.019101 -188020.000000 0 0 1
-36.929900 21.883239 -8.008602 43.667280 -0.534932 1.755241 0.099576 -0.015955 -511715.000000 0 0 1
-36.159080 21.412639 -6.933202 42.591659 -0.534649 1.734307 0.158138 -0.017447 -585397.000000 0 0 1
-36.795800 20.552939 -5.836202 42.548977 -0.509397 1.708394 0.120264 -0.006526 -295176.000000 0 0 1
-37.338800 19.350139 -6.347902 42.531279 -0.478126 1.720609 0.092699 0.004881 330640.000000 0 0 1
37.061282 18.471939 -5.254302 41.741573 0.462380 1.697008 0.096479 -0.007964 -288445.000000 0 0 1
36.444912 17.202239 -5.802502 40.716308 0.441003 1.713794 0.096610 -0.001605 -144533.000000 0 0 1
35.154772 17.369839 -6.354202 39.723359 0.458913 1.731448 0.089290 -0.004446 79493.700000 0 0 1
34.848642 16.287939 -7.205702 39.136262 0.437222 1.755971 0.095408 -0.003490 -288300.000000 0 0 1
33.514712 16.319439 -7.950402 38.115206 0.453140 1.780928 0.074664 -0.007808 -377369.000000 0 0 1
33.285612 15.220939 -8.791202 37.641655 0.428894 1.806523 0.083851 -0.015856 132363.000000 0 0 1
32.629202 15.591039 -10.020702 37.525456 0.445751 1.841114 0.066091 -0.014429 -224762.000000 0 0 1
32.093582 14.335439 -10.830802 36.780554 0.420086 1.869698 0.061326 -0.019200 320890.000000 0 0 1
30.858922 13.808539 -10.353202 35.357286 0.420751 1.867968 0.059997 -0.009797 472732.000000 0 0 1
30.763512 13.323439 -9.001902 34.712274 0.408705 1.833124 0.077806 -0.007455 -1266480.000000 0 0 1
29.719922 12.265339 -8.882902 33.355933 0.391404 1.840355 0.072073 -0.001534 -641960.000000 0 0 1
30.100402 11.143739 -9.622402 33.508324 0.354572 1.862062 0.079790 -0.007287 179539.000000 0 0 1
29.175402 10.103839 -9.475002 32.296553 0.333387 1.868552 0.097612 -0.010293 -486154.000000 0 0 1
29.737172 8.718339 -9.844402 32.514937 0.285188 1.878389 0.101831 -0.009927 241501.000000 0 0 1
30.820552 8.366139 -8.969202 33.171453 0.265060 1.844594 0.093899 -0.018558 644512.000000 0 0 1
30.948702 6.934439 -8.962702 32.958135 0.220422 1.846207 0.089370 -0.018427 -482746.000000 0 0 1
32.134632 6.520139 -8.057002 33.764806 0.200183 1.811742 0.119980 -0.025342 -137896.000000 0 0 1
33.332102 6.883439 -8.696502 35.128904 0.203648 1.820957 0.125711 -0.024922 -978467.000000 0 0 1
34.411112 6.697439 -7.857902 35.926689 0.192227 1.791299 0.133341 -0.025047 -512374.000000 0 0 1
35.801252 7.026539 -8.444202 37.448718 0.193802 1.798239 0.146712 -0.027973 103704.000000 0 0 1
36.131942 6.039739 -9.382702 37.815748 0.165627 1.821532 0.159000 -0.035812 908635.000000 0 0 1
-37.177760 5.960439 -9.552902 38.845470 -0.158970 1.819266 0.158423 -0.041150 -42678.700000 0 0 1
-36.831620 4.871239 -10.674202 38.655346 -0.131494 1.850570 0.149570 -0.044649 18651.900000 0 0 1
-35.446520 4.614639 -10.806602 37.343450 -0.129458 1.864380 0.150427 -0.044949 795881.000000 0 0 1
-34.661969 5.625739 -11.508202 36.953210 -0.160900 1.887490 0.129147 -0.036954 163392.000000 0 0 1
-33.842360 6.675339 -10.660902 36.104297 -0.194748 1.870546 0.132173 -0.031341 -504962.000000 0 0 1
-34.561437 7.667839 -9.940402 36.770916 -0.218325 1.844535 0.155090 -0.032424 -62207.500000 0 0 1
-35.034152 8.709839 -10.777902 37.675141 -0.243670 1.860924 0.142861 -0.030183 -455466.000000 0 0 1
-35.849368 9.647939 -9.917402 38.426745 -0.262896 1.831837 0.137967 -0.019659 -397483.000000 0 0 1
-35.193389 10.315239 -8.855902 37.728050 -0.285116 1.807737 0.132381 -0.010944 -20310.500000 0 0 1
-36.008992 11.327339 -8.265902 38.642997 -0.304769 1.786366 0.124052 -0.013898 -40874.100000 0 0 1
-35.299942 12.055539 -7.141002 37.979150 -0.329098 1.759946 0.145007 -0.014736 -262214.000000 0 0 1
-34.487438 13.060039 -7.653402 37.663278 -0.362002 1.775427 0.138992 -0.016720 -467177.000000 0 0 1
-33.964370 13.911339 -6.666002 37.303342 -0.388743 1.750458 0.150750 -0.019284 422421.000000 0 0 1
-33.069970 15.042239 -7.312902 37.059012 -0.426889 1.769431 0.139657 -0.015575 427773.000000 0 0 1
-33.872430 15.922739 -8.071102 38.288612 -0.439426 1.783186 0.112883 -0.011824 83965.400000 0 0 1
-33.120500 17.067039 -8.452902 38.206058 -0.475814 1.793887 0.111559 -0.001980 117346.000000 0 0 1
-33.806150 18.135539 -9.352102 39.486901 -0.492386 1.809909 0.076010 -0.009819 74709.300000 0 0 1
-33.797370 17.742639 -10.684602 39.638670 -0.483424 1.843722 0.058670 -0.011512 89761.900000 0 0 1
-34.739738 18.536339 -11.375602 40.985968 -0.490147 1.852038 0.051034 -0.016592 -162450.000000 0 0 1
-34.355007 18.748139 -12.868802 41.199093 -0.499550 1.888469 0.024418 -0.002761 -58755.400000 0 0 1
-33.473740 19.828339 -13.183702 41.078757 -0.534779 1.897515 0.038136 -0.013012 284039.000000 0 0 1
-33.207660 20.044939 -14.572802 41.435671 -0.543080 1.930180 0.015876 -0.009648 28491.300000 0 0 1
-32.176230 21.197039 -14.792702 41.272851 -0.582522 1.937363 0.041550 -0.009735 -487732.000000 0 0 1
-30.816770 20.946039 -14.576602 40.011088 -0.596969 1.943692 0.050482 -0.003972 85350.500000 0 0 1
-29.995930 22.130939 -14.510202 40.001003 -0.635646 1.942009 0.061541 -0.001497 242871.000000 0 0 1
-29.614130 22.628739 -15.883402 40.513442 -0.652477 1.973658 0.062049 -0.011307 -954173.000000 0 0 1
-30.594250 23.283539 -16.668602 41.904339 -0.650531 1.979889 0.065542 -0.004263 -86050.800000 0 0 1
-30.068420 23.815539 -17.872202 42.316727 -0.669871 2.006826 0.087677 -0.011286 -18815.500000 0 0 1
-29.438970 25.214439 -17.749902 42.631912 -0.708255 2.000226 0.098368 -0.005349 287657.000000 0 0 1
-30.358120 26.255739 -17.416802 43.752991 -0.713062 1.980210 0.125223 -0.009412 148949.000000 0 0 1
-29.737050 27.540639 -17.396302 44.106805 -0.747070 1.976225 0.129885 -0.011966 3831.850000 0 0 1
-30.564720 28.790839 -16.934002 45.275544 -0.755521 1.954137 0.130448 -0.018794 -197154.000000 0 0 1
-30.522890 29.038939 -15.525902 44.899448 -0.760489 1.923880 0.116841 -0.021049 -825728.000000 0 0 1
-29.393060 29.563739 -14.959502 44.291685 -0.788293 1.915321 0.110796 -0.013417 -1085060.000000 0 0 1
-29.460920 29.944639 -13.434302 44.103375 -0.793541 1.880325 0.103189 -0.007055 6089.150000 0 0 1
-30.308330 31.086339 -13.345502 45.420896 -0.798070 1.869016 0.082876 -0.008190 240885.000000 0 0 1
-30.160990 31.904239 -12.189702 45.564840 -0.813478 1.841619 0.069928 -0.012017 963899.000000 0 0 1
-28.957010 32.967839 -12.224702 45.550304 -0.850077 1.842505 0.072860 -0.017538 985372.000000 0 0 1
-29.141130 -33.790744 -13.179202 46.526456 0.859147 1.857991 0.062984 -0.025042 16319.900000 0 0 1
-28.165000 -32.767544 -13.113102 45.154541 0.860790 1.865446 0.087917 -0.026410 -18140.900000 0 0 1
-28.176960 -31.814544 -14.313302 44.843916 0.845959 1.895661 0.081675 -0.025234 151396.000000 0 0 1
-27.651980 -32.546644 -15.456902 45.418408 0.866528 1.918056 0.071992 -0.031824 213751.000000 0 0 1
-27.848460 -31.788944 -16.600702 45.405472 0.851376 1.945085 0.061979 -0.021577 -252878.000000 0 0 1
-27.220970 -32.364144 -17.849702 45.902405 0.871501 1.970192 0.070730 -0.022137 -317359.000000 0 0 1
-27.818580 -33.571844 -18.377602 47.314673 0.878841 1.969704 0.070192 -0.013852 172371.000000 0 0 1
-27.287420 33.069339 -17.788702 46.417910 -0.880902 1.964086 0.068571 -0.027539 -564961.000000 0 0 1
-27.486670 31.790739 -18.687802 45.993500 -0.857880 1.989213 0.093600 -0.030798 1287820.000000 0 0 1
-28.841790 31.286239 -18.844202 46.537958 -0.826030 1.987689 0.114542 -0.027913 1049480.000000 0 0 1
-29.460610 31.894339 -19.970202 47.791059 -0.825044 2.001890 0.110613 -0.027784 1079810.000000 0 0 1
-31.015070 31.578239 -20.059302 48.595219 -0.794395 1.996304 0.112289 -0.038725 1238500.000000 0 0 1
-31.409530 30.225939 -20.235202 48.058603 -0.766197 2.005402 0.125953 -0.045849 1769440.000000 0 0 1
-32.853490 30.200139 -20.465202 49.094039 -0.743342 2.000781 0.132154 -0.046556 1662900.000000 0 0 1
-33.410900 28.815139 -20.937002 48.836037 -0.711676 2.013872 0.145362 -0.040783 1246480.000000 0 0 1
-34.840157 28.737839 -21.199602 49.891112 -0.689710 2.009667 0.141697 -0.041386 1493530.000000 0 0 1
-35.100417 27.390339 -21.432302 49.412686 -0.662639 2.019437 0.136612 -0.030470 800148.000000 0 0 1
-36.625470 27.040039 -21.653902 50.413096 -0.635961 2.014768 0.112862 -0.025033 1087790.000000 0 0 1
-37.181770 27.542439 -22.847602 51.605066 -0.637556 2.029448 0.120491 -0.030557 -4040.140000 0 0 1
36.357282 26.884739 -23.230002 50.835757 0.636721 2.045373 0.111652 -0.026224 -257364.000000 0 0 1
35.800942 27.493639 -24.503802 51.361892 0.654896 2.068127 0.095472 -0.017846 -286646.000000 0 0 1
36.561602 27.160439 -25.608692 52.251750 0.638921 2.083003 0.107745 -0.033728 -632893.000000 0 0 1
35.854852 27.602739 -26.710382 52.544516 0.656082 2.104050 0.118331 -0.029337 -405036.000000 0 0 1
36.600912 27.747339 -28.015962 53.799960 0.648668 2.118518 0.120577 -0.030136 -246595.000000 0 0 1
37.008902 26.479339 -28.470982 53.678777 0.621044 2.129863 0.081236 -0.027167 -181551.000000 0 0 1
-36.845310 26.685039 -29.554772 54.250831 -0.626813 2.146923 0.075938 -0.027026 -643472.000000 0 0 1
-36.124730 25.397939 -30.049392 53.413644 -0.612778 2.168298 0.066558 -0.023055 992616.000000 0 0 1
-35.190572 24.851439 -29.076782 51.975279 -0.614872 2.164500 0.053635 -0.012432 686388.000000 0 0 1
-33.924330 25.494939 -28.981102 51.388290 -0.644476 2.169973 0.046429 -0.007945 113431.000000 0 0 1
-33.005630 24.863539 -27.904092 49.861864 -0.645617 2.164733 0.053234 -0.015499 -282993.000000 0 0 1
-32.366460 23.742739 -28.416052 49.181067 -0.632896 2.186808 0.056427 -0.013577 -221519.000000 0 0 1
-32.939310 22.558439 -27.928612 48.722568 -0.600485 2.181223 0.049710 -0.011359 -70314.300000 0 0 1
-32.672570 21.257339 -28.793952 48.460942 -0.576809 2.207027 0.046492 -0.011833 362462.000000 0 0 1
-31.361630 20.701039 -28.743692 47.310513 -0.583426 2.223774 0.072271 -0.023263 384215.000000 0 0 1
-31.291140 19.473139 -29.494742 47.204643 -0.556671 2.245706 0.052649 -0.018916 192385.000000 0 0 1
-29.907380 18.747739 -29.660442 46.104998 -0.559936 2.269628 0.051288 -0.027966 -251854.000000 0 0 1
-29.155200 19.587839 -30.525582 46.535151 -0.591581 2.286261 0.060490 -0.021087 1664010.000000 0 0 1
-27.770640 19.125939 -30.723242 45.617185 -0.603109 2.309732 0.072472 -0.024243 1804640.000000 0 0 1
-27.532790 17.745239 -31.449982 45.409794 -0.572508 2.335858 0.087406 -0.016617 -638854.000000 0 0 1
-27.969390 16.658839 -30.622492 44.693855 -0.537185 2.325621 0.057778 -0.012119 -15376.700000 0 0 1
-27.900510 15.424539 -31.289952 44.670079 -0.505022 2.346849 0.044822 -0.005629 111011.000000 0 0 1
-28.543790 14.199639 -30.515712 44.131466 -0.461620 2.334322 0.035234 0.002374 -592550.000000 0 0 1
-29.901380 14.355239 -30.249572 44.891001 -0.447590 2.310197 0.025503 -0.001241 -436727.000000 0 0 1
-30.718500 13.210539 -30.189172 45.050312 -0.406142 2.305168 0.019034 -0.000347 138235.000000 0 0 1
-30.450590 12.283939 -28.977792 43.793218 -0.383439 2.293875 0.012014 -0.003157 -511102.000000 0 0 1
-30.674860 12.977339 -27.801812 43.385471 -0.400227 2.266348 0.010654 -0.008834 236021.000000 0 0 1
-30.685780 12.076639 -26.740682 42.456170 -0.374941 2.252146 0.016396 0.003835 31925.800000 0 0 1
-30.542320 12.650539 -25.306182 41.632586 -0.392685 2.224141 0.022119 -0.004775 585200.000000 0 0 1
-29.203650 13.109939 -25.110432 40.684855 -0.421951 2.235967 0.025528 -0.009280 305561.000000 0 0 1
-29.073400 13.804839 -23.870702 40.070520 -0.443307 2.208955 0.030400 -0.001940 -1364180.000000 0 0 1
-27.650350 14.040139 -23.479702 38.896834 -0.469848 2.218856 0.047865 0.005220 -1830460.000000 0 0 1
-27.077960 14.953739 -24.385202 39.388682 -0.504567 2.238382 0.050148 -0.010019 868010.000000 0 0 1
-25.679160 15.213639 -24.116202 38.372715 -0.534850 2.250384 0.055520 -0.015970 1179540.000000 0 0 1
-25.231940 15.849839 -22.775402 37.504494 -0.560873 2.223418 0.062278 -0.008408 -997162.000000 0 0 1
-25.781530 17.153039 -22.569202 38.318180 -0.587072 2.200611 0.068383 -0.010791 184185.000000 0 0 1
-25.921670 17.526439 -21.198602 37.795367 -0.594526 2.166243 0.074046 -0.011383 -848030.000000 0 0 1
-27.350690 17.426039 -20.735202 38.492540 -0.567277 2.139667 0.074806 -0.008745 -898020.000000 0 0 1
-27.943750 16.126039 -20.700402 38.332870 -0.523403 2.141254 0.075376 -0.001347 -740593.000000 0 0 1
-29.153220 16.234039 -20.051602 38.929693 -0.508089 2.111888 0.070397 0.003251 -1014870.000000 0 0 1
-30.158320 15.055739 -20.343002 39.370512 -0.463026 2.113796 0.052489 0.003722 653463.000000 0 0 1
-30.792410 15.034639 -21.638402 40.526945 -0.454210 2.134034 0.043870 0.002646 304346.000000 0 0 1
-31.766250 16.031039 -21.903902 41.783606 -0.467366 2.122598 0.044493 -0.001799 -282912.000000 0 0 1
-32.255550 16.051439 -23.343002 42.929767 -0.461753 2.145694 0.029045 -0.006566 -565400.000000 0 0 1
-33.286270 15.159339 -23.615002 43.536762 -0.427355 2.144106 0.035889 0.000357 -397481.000000 0 0 1
-33.645340 15.193539 -24.965402 44.565949 -0.424167 2.165412 0.034452 -0.003713 32037.900000 0 0 1
-34.907990 14.330339 -25.216692 45.385107 -0.389540 2.159900 0.026093 -0.004664 171079.000000 0 0 1
-34.696177 12.906739 -25.294662 44.835572 -0.356132 2.170218 0.037418 -0.010629 29915.200000 0 0 1
-34.567187 12.229639 -24.098002 43.876738 -0.340050 2.152227 0.045062 -0.011003 -111154.000000 0 0 1
-34.674775 10.675739 -24.331602 43.684531 -0.298672 2.161547 0.054498 -0.016188 -120829.000000 0 0 1
-35.981856 10.467139 -24.803102 44.938277 -0.283088 2.155482 0.063740 -0.018233 -350259.000000 0 0 1
-36.156180 9.354039 -25.687772 45.328015 -0.253161 2.173302 0.064006 -0.011122 -911181.000000 0 0 1
37.186732 8.922939 -26.072012 46.284141 0.235497 2.169175 0.095506 -0.013385 -826017.000000 0 0 1
36.562902 8.200639 -25.007702 45.049766 0.220637 2.159295 0.092767 -0.016636 262652.000000 0 0 1
35.391382 7.564239 -25.522472 44.285034 0.210563 2.185018 0.110835 -0.016894 -30103.000000 0 0 1
34.661382 6.606239 -24.598702 43.013369 0.188335 2.179598 0.114455 -0.026386 -634510.000000 0 0 1
35.387142 5.557439 -24.041302 43.140690 0.155775 2.161899 0.106356 -0.031646 -377236.000000 0 0 1
34.609042 4.539739 -23.444702 42.048176 0.130427 2.162249 0.111468 -0.024538 -84484.500000 0 0 1
35.460572 3.482739 -22.730702 42.264246 0.097900 2.138650 0.102920 -0.017539 -86215.800000 0 0 1
36.242252 2.702139 -23.576802 43.320526 0.074420 2.146280 0.108134 -0.020507 271676.000000 0 0 1
37.209512 1.931339 -22.864102 43.715501 0.051858 2.121187 0.109704 -0.014432 161241.000000 0 0 1
-36.877350 0.746539 -23.574602 43.775085 -0.020241 2.139499 0.122925 -0.018670 83114.900000 0 0 1
36.944362 -0.183061 -24.099302 44.110042 -0.004955 2.148790 0.111300 -0.025924 226265.000000 0 0 1
-37.098700 -1.407761 -24.225602 44.330295 0.037928 2.148951 0.113739 -0.029833 353695.000000 0 0 1
-23.987990 29.086939 26.905130 46.318028 -0.881175 0.950989 0.051194 -0.014516 40751.200000 0 0 1
-25.300820 29.162439 26.330370 46.731871 -0.856183 0.972259 0.039757 -0.017970 1102460.000000 0 0 1
-25.316140 28.491139 25.083890 45.627333 -0.844337 0.988724 0.031943 -0.000117 -229996.000000 0 0 1
-25.487330 26.980539 25.162680 44.840985 -0.813850 0.975017 0.035444 -0.010895 210758.000000 0 0 1
-26.799950 26.475339 25.455140 45.465867 -0.779305 0.976563 0.028093 -0.008352 695658.000000 0 0 1
-27.118440 26.202439 26.784850 46.253711 -0.768221 0.953190 0.032167 -0.013473 -687833.000000 0 0 1
-26.410670 24.944639 27.406180 45.506672 -0.756859 0.924486 0.046186 -0.010187 18999.900000 0 0 1
-25.054880 25.051239 27.765910 45.013968 -0.785326 0.906089 0.060545 -0.005514 -329729.000000 0 0 1
-24.777690 25.834939 28.948760 46.037036 -0.806284 0.890769 0.066630 -0.017246 94512.900000 0 0 1
-23.404990 25.616339 29.629230 45.627641 -0.830478 0.864040 0.095359 -0.013160 258108.000000 0 0 1
-22.254690 26.096239 28.946580 44.879722 -0.864683 0.869798 0.099715 -0.021553 834639.000000 0 0 1
-21.052490 26.067439 29.729190 44.794458 -0.891429 0.845068 0.131881 -0.030739 998575.000000 0 0 1
-20.210490 24.738239 29.657790 43.589321 -0.885791 0.822500 0.118300 -0.028912 -93864.200000 0 0 1
-19.498090 24.635439 28.427560 42.369878 -0.901281 0.835323 0.109663 -0.030698 -99066.100000 0 0 1
-20.018090 23.774539 27.426910 41.451032 -0.870967 0.847752 0.104569 -0.028721 -163812.000000 0 0 1
-20.000990 22.215339 27.571410 40.666246 -0.837803 0.825768 0.078474 -0.015816 35232.300000 0 0 1
-20.812690 21.714939 28.597950 41.503607 -0.806611 0.810623 0.076940 -0.016681 -166954.000000 0 0 1
-20.572090 20.362839 28.765880 40.808479 -0.780286 0.788515 0.100734 -0.020802 31684.100000 0 0 1
-20.769490 19.789739 30.178200 41.638074 -0.761247 0.760090 0.117999 -0.029195 15866.000000 0 0 1
-19.796190 20.153239 31.126670 42.034650 -0.794335 0.736982 0.100829 -0.039183 15206.400000 0 0 1
-20.285890 19.847139 32.421027 43.087693 -0.774466 0.719033 0.093645 -0.033698 -6634.480000 0 0 1
-19.455790 20.493239 33.545002 43.860777 -0.811362 0.700056 0.097839 -0.034175 -565023.000000 0 0 1
-19.599990 21.900039 33.726299 44.735160 -0.840764 0.716802 0.067460 -0.033311 40157.200000 0 0 1
-18.890490 22.772639 32.863393 44.220429 -0.878309 0.732997 0.087975 -0.029638 445973.000000 0 0 1
-17.361290 22.968539 33.091738 43.863781 -0.923547 0.716025 0.080613 -0.033373 603526.000000 0 0 1
-16.575590 21.782139 33.036945 42.902815 -0.920310 0.691890 0.098364 -0.052476 441816.000000 0 0 1
-15.251690 22.031639 33.525786 42.918359 -0.965282 0.674287 0.064427 -0.037961 686136.000000 0 0 1
-14.221790 20.848339 33.283050 41.769295 -0.972148 0.648765 0.052746 -0.039125 939519.000000 0 0 1
-12.897090 20.937539 33.804170 41.802361 -1.018710 0.628915 0.042347 -0.026919 569918.000000 0 0 1
-12.826390 20.997139 -32.588052 40.833531 -1.022427 2.494883 0.064232 -0.029246 295553.000000 0 0 1
-11.354590 20.570739 -32.208992 39.868549 -1.066436 2.511342 0.061799 -0.026622 451548.000000 0 0 1
-10.496090 21.650839 -32.370672 40.333449 -1.119391 2.502398 0.072569 -0.032136 -1109370.000000 0 0 1
-9.286190 21.235539 -31.800602 39.350473 -1.158558 2.511780 0.075385 -0.034665 -398887.000000 0 0 1
-8.219390 22.386139 -31.837172 39.778174 -1.218913 2.498705 0.076600 -0.032291 104654.000000 0 0 1
-8.270790 23.444739 -30.877192 39.641679 -1.231649 2.463718 0.082628 -0.029081 29816.800000 0 0 1
-7.679390 23.106839 -29.628252 38.350128 -1.249938 2.453679 0.075789 -0.030228 129554.000000 0 0 1
-7.230090 24.363539 -28.778422 38.393408 -1.282316 2.418204 0.095486 -0.033477 -199871.000000 0 0 1
-6.253790 25.144239 -29.390432 39.180864 -1.327026 2.419043 0.104425 -0.023753 -372511.000000 0 0 1
-5.941590 26.213939 -28.579362 39.233315 -1.347905 2.386848 0.129291 -0.027615 -19250.500000 0 0 1
-4.554690 26.803739 -28.931492 39.701598 -1.402477 2.387253 0.107596 -0.037477 -230871.000000 0 0 1
-3.482290 26.078439 -28.358932 38.683851 -1.438050 2.393658 0.111764 -0.027690 508176.000000 0 0 1
-2.249990 26.107139 -29.079692 39.144267 -1.484826 2.408166 0.125934 -0.032214 779627.000000 0 0 1
-1.380590 27.385039 -28.834372 39.790293 -1.520425 2.381335 0.135318 -0.038459 -502255.000000 0 0 1
-0.758790 27.368639 -27.572692 38.857065 -1.543079 2.359716 0.154918 -0.052544 182222.000000 0 0 1
0.010110 28.551339 -27.397772 39.570405 1.570442 2.335579 0.152043 -0.045911 -605269.000000 0 0 1
0.687110 28.727139 -25.980792 38.739156 1.546882 2.305894 0.162433 -0.064235 773352.000000 0 0 1
1.788610 27.872239 -25.629932 37.907179 1.506712 2.313285 0.184178 -0.074449 1326680.000000 0 0 1
2.952010 28.011839 -26.471662 38.653931 1.465799 2.325177 0.158711 -0.070281 -562841.000000 0 0 1
4.270010 28.027139 -25.724052 38.281593 1.419606 2.307661 0.152418 -0.071459 -740667.000000 0 0 1
4.628510 26.762939 -25.178622 37.035672 1.399546 2.318351 0.144723 -0.061647 772774.000000 0 0 1
5.794510 27.019739 -24.349502 36.831249 1.359541 2.293093 0.115587 -0.051913 847647.000000 0 0 1
6.498810 25.725439 -23.752402 35.611927 1.323351 2.300943 0.111587 -0.047991 4851.590000 0 0 1
7.583110 26.210439 -22.994702 35.682587 1.289170 2.271066 0.111637 -0.051254 147308.000000 0 0 1
8.513710 25.098639 -22.744802 34.924933 1.243766 2.280024 0.093046 -0.036644 1349460.000000 0 0 1
9.916410 25.604039 -22.269402 35.352910 1.201287 2.252243 0.068209 -0.018335 169532.000000 0 0 1
10.007410 25.838939 -20.867002 34.687618 1.201286 2.216260 0.084117 -0.018534 490525.000000 0 0 1
11.321110 26.195839 -20.424502 35.093444 1.162867 2.191986 0.111131 -0.023270 859008.000000 0 0 1
12.256410 25.016139 -20.064502 34.330905 1.115229 2.194991 0.073873 -0.003184 -14988.700000 0 0 1
12.632710 24.116239 -21.096102 34.441601 1.088270 2.230039 0.068915 -0.008419 -81026.600000 0 0 1
12.587010 22.812339 -20.566002 33.193314 1.066600 2.239007 0.042958 0.009932 -267568.000000 0 0 1
12.799510 21.728939 -21.577202 33.189605 1.038465 2.278538 0.045917 -0.002136 -106593.000000 0 0 1
11.706610 21.582239 -22.452302 33.270762 1.073792 2.311539 0.064705 -0.018474 -164267.000000 0 0 1
11.807210 20.576239 -23.454002 33.359887 1.049844 2.350488 0.072214 -0.021586 -147554.000000 0 0 1
10.955910 20.731239 -24.708402 34.063490 1.084630 2.382358 0.082413 -0.024749 -503580.000000 0 0 1
9.570610 20.719639 -24.572902 33.536958 1.138082 2.393094 0.068841 -0.028711 -801588.000000 0 0 1
8.952610 20.549839 -25.806712 34.182327 1.159937 2.426408 0.068574 -0.028130 -284474.000000 0 0 1
7.428410 20.351439 -25.723882 33.631540 1.220816 2.441642 0.074400 -0.036463 135330.000000 0 0 1
6.556710 21.418339 -25.366132 33.840454 1.273729 2.418224 0.095076 -0.042906 84100.500000 0 0 1
6.617010 21.825239 -23.978902 33.092501 1.276423 2.381253 0.106590 -0.042626 318122.000000 0 0 1
5.201110 22.115939 -23.342602 32.573661 1.339819 2.369726 0.133000 -0.044940 786335.000000 0 0 1
4.595210 23.256239 -23.931802 33.685305 1.375719 2.360937 0.138673 -0.049257 -49231.600000 0 0 1
3.213810 23.190439 -23.605002 33.246371 1.433090 2.360298 0.175579 -0.047695 738728.000000 0 0 1
2.342110 24.301539 -24.359102 34.487913 1.474716 2.355066 0.170051 -0.048418 465511.000000 0 0 1
0.965010 24.018539 -24.435402 34.276965 1.530640 2.364394 0.189215 -0.067558 -315754.000000 0 0 1
0.353410 24.771139 -25.450322 35.516941 1.556530 2.369667 0.175334 -0.052575 -1004180.000000 0 0 1
-1.136190 24.628639 -25.542502 35.500425 -1.524696 2.373876 0.187395 -0.049691 -970810.000000 0 0 1
-1.604990 23.367039 -25.939622 34.949370 -1.502218 2.407152 0.199345 -0.050489 -709284.000000 0 0 1
-2.886490 23.374739 -26.475152 35.435066 -1.447931 2.414553 0.189865 -0.037750 -474858.000000 0 0 1
-3.283790 22.076339 -27.233862 35.211238 -1.423132 2.455050 0.163565 -0.038379 -397234.000000 0 0 1
-2.562490 21.802139 -28.388592 35.886094 -1.453799 2.483361 0.177823 -0.054146 -239917.000000 0 0 1
-2.933190 20.553739 -28.938002 35.615555 -1.429045 2.519242 0.131624 -0.047379 -475105.000000 0 0 1
-4.166890 20.538239 -29.824362 36.450992 -1.370629 2.529077 0.122153 -0.041860 -521589.000000 0 0 1
-4.067890 20.877339 -31.192962 37.754627 -1.378360 2.543129 0.111442 -0.040219 -248190.000000 0 0 1
-3.660890 22.271739 -31.417622 38.684615 -1.407879 2.518620 0.134041 -0.038735 -144371.000000 0 0 1
-3.094090 22.475039 -32.787172 39.871035 -1.433988 2.536291 0.102739 -0.025864 -222028.000000 0 0 1
-1.881790 21.778039 -33.009882 39.591368 -1.484603 2.556688 0.085324 -0.025477 335563.000000 0 0 1
-1.442790 21.887439 33.448079 39.998945 -1.504973 0.580435 0.082297 -0.015871 246504.000000 0 0 1
-0.348790 20.854239 33.025112 39.059941 -1.554073 0.563299 0.082152 -0.014494 283994.000000 0 0 1
-0.755490 19.561239 32.694532 38.107024 -1.532194 0.539499 0.064174 -0.006786 -88232.000000 0 0 1
0.316310 18.911839 32.052109 37.216870 1.554072 0.533121 0.067254 -0.012577 -33409.000000 0 0 1
-0.064690 17.582139 31.568650 36.134685 -1.567117 0.508166 0.053172 -0.012354 -772513.000000 0 0 1
-0.995590 17.436039 30.589160 35.223620 -1.513759 0.518774 0.041299 -0.005885 -753879.000000 0 0 1
-1.422590 16.126539 30.314990 34.366956 -1.482810 0.490501 0.047844 -0.002687 -155319.000000 0 0 1
-2.576090 16.071039 29.296270 33.513967 -1.411855 0.507111 0.049340 -0.004308 -164209.000000 0 0 1
-3.819190 16.558439 29.736520 34.249507 -1.344112 0.519168 0.027182 -0.014155 -211741.000000 0 0 1
-4.076290 17.906239 29.468430 34.722297 -1.346965 0.557295 0.035739 -0.011069 564892.000000 0 0 1
-5.578190 18.263139 29.772720 35.370515 -1.274361 0.570301 0.046562 -0.022133 876302.000000 0 0 1
-6.451790 17.801139 28.778780 34.448865 -1.223085 0.581926 0.035513 -0.015336 -118386.000000 0 0 1
-7.782990 18.208539 29.071690 35.175119 -1.166864 0.597962 0.037019 -0.019686 410562.000000 0 0 1
-8.885390 17.921539 27.994410 34.406667 -1.110519 0.620422 0.040686 -0.015644 530178.000000 0 0 1
-9.514290 16.668839 27.895830 33.860733 -1.052137 0.602643 0.060571 -0.023859 130380.000000 0 0 1
-10.379990 16.415639 28.999040 34.902174 -1.006948 0.590134 0.062120 -0.024443 -832907.000000 0 0 1
-10.783190 14.934239 29.109600 34.448186 -0.945428 0.564183 0.066357 -0.028903 234041.000000 0 0 1
-9.720990 13.955339 29.086020 33.693407 -0.962370 0.529112 0.054346 -0.017580 534705.000000 0 0 1
-8.778990 13.916439 30.139780 34.338670 -1.008011 0.499711 0.033608 -0.013960 -332165.000000 0 0 1
-9.281090 13.684439 31.564510 35.633142 -0.974836 0.482541 0.067124 -0.028606 -623761.000000 0 0 1
-9.487590 12.355839 31.877910 35.480731 -0.915961 0.454554 0.072226 -0.016753 190875.000000 0 0 1
-9.923490 12.285839 33.208547 36.772613 -0.891367 0.443913 0.055848 0.001006 -160009.000000 0 0 1
-10.587690 10.928439 33.585299 36.871429 -0.801234 0.425395 0.059484 -0.013742 -723097.000000 0 0 1
-9.655790 9.919239 33.620378 36.358705 -0.798856 0.390587 0.062907 -0.019477 -383099.000000 0 0 1
-9.859190 8.980339 -33.124992 35.708755 -0.738783 2.758849 0.104408 -0.027136 -6239.450000 0 0 1
-9.059090 9.342039 -31.838302 34.395032 -0.800774 2.753588 0.087181 -0.027489 -68335.500000 0 0 1
-9.610490 10.429239 -31.070382 34.154050 -0.826232 2.713389 0.086115 -0.016946 885359.000000 0 0 1
-8.609090 11.179339 -30.335062 33.456091 -0.914562 2.706219 0.095329 -0.023263 664028.000000 0 0 1
-7.662290 12.115739 -31.121812 34.264690 -1.006876 2.709942 0.069211 -0.027742 -223047.000000 0 0 1
-8.306190 13.239239 -31.650082 35.298696 -1.010479 2.682909 0.080992 -0.025858 -336093.000000 0 0 1
-7.412190 14.155639 -32.207902 35.953743 -1.088431 2.681058 0.050460 -0.026196 -418173.000000 0 0 1
-7.960790 15.554839 -32.595962 36.984103 -1.097762 2.649510 0.056005 -0.027414 -415900.000000 0 0 1
-8.732090 15.663339 -33.756532 38.224246 -1.062224 2.653264 0.064063 -0.032884 -45726.200000 0 0 1
-9.030990 17.027239 33.848500 38.951336 -1.083137 0.517630 0.084571 -0.035271 -869886.000000 0 0 1
-9.637890 17.339739 32.448371 38.032253 -1.063491 0.548744 0.057828 -0.036456 358709.000000 0 0 1
-10.886190 16.818939 32.059998 37.805149 -0.996351 0.558535 0.053456 -0.037929 -163328.000000 0 0 1
-11.998190 17.127739 32.843447 38.935947 -0.959727 0.566983 0.066323 -0.041906 -1078790.000000 0 0 1
-13.341390 16.807339 32.156606 38.659108 -0.899857 0.588456 0.079334 -0.047811 -233271.000000 0 0 1
-13.394090 15.438839 31.862322 37.854550 -0.856197 0.570365 0.078037 -0.035575 360103.000000 0 0 1
-14.160490 14.722739 32.821710 38.659322 -0.804862 0.556709 0.073187 -0.028524 -255358.000000 0 0 1
-13.929390 13.172139 32.844575 38.030241 -0.757464 0.528343 0.070416 -0.024529 -294023.000000 0 0 1
-14.174690 12.447139 31.661030 36.854768 -0.720597 0.537336 0.058991 -0.027233 -189213.000000 0 0 1
-13.017390 11.947939 31.055320 35.730080 -0.742587 0.517286 0.068196 -0.023435 -675656.000000 0 0 1
-13.175890 11.428839 29.610130 34.365422 -0.714512 0.532332 0.084965 -0.021591 30967.100000 0 0 1
-14.120090 10.378439 29.522050 34.331332 -0.633840 0.535692 0.071395 -0.014629 259421.000000 0 0 1
-14.065990 9.963839 28.161490 33.018172 -0.616317 0.549264 0.058147 -0.011780 125843.000000 0 0 1
-15.042590 8.787339 27.896680 32.889536 -0.528694 0.558232 0.070783 -0.010123 35485.200000 0 0 1
-14.828190 7.546539 28.582810 33.072685 -0.470768 0.527154 0.053400 -0.006011 -377306.000000 0 0 1
-15.600590 6.517239 28.088710 32.784576 -0.395719 0.541831 0.062625 -0.000952 -554219.000000 0 0 1
-14.866790 5.201139 28.256910 32.350058 -0.336541 0.508505 0.060634 -0.002579 728487.000000 0 0 1
-13.870890 4.739639 27.309520 30.994768 -0.329259 0.492611 0.054579 -0.008652 637015.000000 0 0 1
-14.425190 4.569839 26.015600 30.096195 -0.306794 0.526811 0.056231 -0.011783 -167208.000000 0 0 1
-13.384390 4.343639 24.906090 28.606335 -0.313807 0.514275 0.045381 -0.005880 21412.200000 0 0 1
-12.580690 3.187139 25.091390 28.249061 -0.248116 0.477340 0.031903 -0.004467 186182.000000 0 0 1
-11.963090 2.824239 23.851850 26.832864 -0.231835 0.475848 0.028254 -0.003685 131162.000000 0 0 1
-10.948690 1.652739 23.957250 26.392332 -0.149822 0.432942 0.026052 -0.003988 527736.000000 0 0 1
-9.581790 2.038339 24.114800 26.028621 -0.209606 0.385867 0.020780 -0.018792 211638.000000 0 0 1
-8.854290 0.904339 24.464730 26.033426 -0.101783 0.348919 0.013851 -0.015844 290471.000000 0 0 1
-7.308590 1.139939 24.411650 25.507716 -0.154726 0.294215 0.043708 -0.029883 34504.600000 0 0 1
-6.892290 1.385439 23.071090 24.118422 -0.198369 0.295779 0.046565 -0.026966 -70771.300000 0 1 0
-5.487190 1.465139 22.976960 23.668472 -0.260924 0.242322 0.037682 -0.024723 -251129.000000 0 1 0
-4.850390 2.809739 23.284590 23.949803 -0.525046 0.236241 0.065756 -0.030752 -812047.000000 0 1 0
-4.881190 3.101539 24.645060 25.314512 -0.566048 0.230490 0.073053 -0.035739 -64818.700000 0 0 1
-4.356090 4.383539 24.866640 25.623051 -0.788539 0.243586 0.064724 -0.040865 -207894.000000 0 0 1
4.776710 -24.468461 13.507598 28.354501 -1.378002 1.074260 0.134354 -0.016613 52977.900000 0 0 1
3.606010 -25.238311 13.598198 28.894405 -1.428878 1.080806 0.143006 -0.042244 -903465.000000 0 0 1
2.466610 -24.409061 13.534698 28.019180 -1.470085 1.066660 0.106148 -0.036282 258425.000000 0 0 1
1.195710 -25.209331 14.010398 28.865747 -1.523401 1.064017 0.067289 -0.043778 221891.000000 0 0 1
1.253810 -25.718911 15.308098 29.956173 -1.522084 1.034429 0.129730 -0.041637 40399.400000 0 0 1
2.125510 -26.821231 15.464098 31.032798 -1.491714 1.049143 0.126564 -0.042020 -295225.000000 0 0 1
2.045010 -27.377511 16.939598 32.259264 -1.496238 1.017954 0.103785 -0.038100 -55469.700000 0 0 1
2.654510 -26.506761 17.918198 32.104776 -1.470984 0.978682 0.129649 -0.042387 187754.000000 0 0 1
2.792610 -27.088781 19.156898 33.295457 -1.468068 0.957751 0.103748 -0.036844 -195351.000000 0 0 1
3.712410 -26.245001 20.054498 33.238005 -1.430276 0.923088 0.091306 -0.036478 -384912.000000 0 0 1
3.217810 -25.096251 20.642798 32.654268 -1.443273 0.886456 0.082308 -0.034151 65604.500000 0 0 1
4.198410 -24.451161 21.460898 32.803293 -1.400749 0.857632 0.080013 -0.028510 406615.000000 0 0 1
3.591310 -23.293661 22.285098 32.436365 -1.417825 0.813388 0.096439 -0.042050 -275661.000000 0 0 1
3.024210 -22.168061 21.652498 31.135180 -1.435211 0.801771 0.122603 -0.039566 -217172.000000 0 0 1
3.827210 -21.353261 20.851098 30.089493 -1.393446 0.805197 0.096058 -0.026658 -309239.000000 0 0 1
3.002710 -20.277361 20.075698 28.691833 -1.423783 0.795818 0.075284 -0.021824 264966.000000 0 0 1
2.628310 -19.201761 21.010098 28.583909 -1.434763 0.745082 0.052396 -0.020230 -103654.000000 0 0 1
1.893010 -18.281761 20.267798 27.360371 -1.467618 0.736577 0.041256 -0.018766 -246964.000000 0 0 1
1.564710 -16.978461 21.138798 27.158152 -1.478897 0.678748 0.064678 -0.013798 34221.200000 0 0 1
2.594710 -16.031761 21.239098 26.736663 -1.410340 0.652808 0.019320 0.007891 -29612.900000 0 0 1
2.011010 -14.750461 21.448398 26.108505 -1.435296 0.606742 0.038729 0.000983 301048.000000 0 0 1
3.046610 -13.634261 21.267298 25.445488 -1.350955 0.581211 0.000346 0.015358 -373278.000000 0 0 1
3.587710 -13.320561 19.940698 24.247483 -1.307703 0.605211 -0.017649 0.010278 180150.000000 0 1 0
2.659710 -13.049761 18.900998 23.121809 -1.369737 0.613821 -0.001926 0.011015 479038.000000 0 1 0
1.608810 -11.897261 19.054898 22.521595 -1.436386 0.562223 0.012190 -0.003401 183094.000000 0 1 0
2.242110 -10.593661 19.034398 21.898882 -1.362228 0.517224 0.016553 -0.002844 109484.000000 0 1 0
1.743210 -9.694361 19.993298 22.287920 -1.392881 0.457756 0.026183 -0.013938 282004.000000 0 1 0
0.281810 -9.179661 19.848398 21.870174 -1.540107 0.433370 0.027798 -0.020713 440015.000000 0 1 0
-0.216990 -8.467961 20.957098 22.604279 1.545177 0.384117 0.030338 -0.023990 -459487.000000 0 1 0
-1.553190 -8.074961 20.831298 22.395544 1.380771 0.375965 0.034620 -0.026174 -123806.000000 0 1 0
-2.159390 -7.295461 22.031298 23.308042 1.283022 0.332519 0.027244 -0.023446 96893.000000 0 1 0
-2.378390 -8.184261 23.157898 24.676449 1.287981 0.352648 0.029394 -0.010937 31821.600000 0 1 0
-2.585090 -7.450161 24.375498 25.619378 1.236811 0.312891 0.027617 -0.001135 -82309.600000 0 0 1
-2.710490 -8.142861 25.721298 27.115275 1.249466 0.322043 0.028323 -0.006118 104154.000000 0 0 1
-1.583790 -8.958861 25.981398 27.528215 1.395820 0.336822 0.029935 -0.007712 135141.000000 0 0 1
-1.823590 -9.922761 27.003698 28.826834 1.389046 0.357554 0.044299 -0.015836 -511139.000000 0 0 1
-0.582590 -10.775961 27.140498 29.207317 1.516785 0.378456 0.060310 -0.022489 -407807.000000 0 0 1
0.486110 -10.187561 27.828598 29.638718 -1.523116 0.351297 0.053641 -0.023501 -206988.000000 0 0 1
1.594010 -11.048661 27.972998 30.118141 -1.427513 0.379700 0.063024 -0.023484 442025.000000 0 0 1
2.684110 -10.598561 28.991898 30.984901 -1.322759 0.360620 0.088894 -0.031099 806573.000000 0 0 1
2.147810 -10.433761 30.341198 32.156878 -1.367780 0.337647 0.084830 -0.038777 45823.800000 0 0 1
3.268710 -10.144261 31.138798 32.912236 -1.259078 0.329772 0.132289 -0.035036 5476.000000 0 0 1
2.904610 -9.720361 32.580698 34.123659 -1.280425 0.301866 0.127394 -0.043284 -438594.000000 0 0 1
2.211110 -10.695861 33.286998 35.033052 -1.366942 0.317048 0.129309 -0.045803 -254987.000000 0 0 1
2.098110 -10.415561 -33.114553 34.777286 -1.372017 2.831119 0.112028 -0.049322 543933.000000 0 0 1
3.406410 -10.433761 -32.217253 34.035546 -1.255227 2.813246 0.098138 -0.032410 768390.000000 0 0 1
4.330210 -9.413061 -32.596253 34.203394 -1.139640 2.833825 0.083968 -0.040237 110302.000000 0 0 1
4.626110 -8.506461 -31.504453 32.958934 -1.072699 2.843403 0.103109 -0.042836 -180122.000000 0 0 1
3.575710 -7.405561 -31.189153 32.255097 -1.120970 2.883791 0.091462 -0.038419 22417.500000 0 0 1
3.468510 -6.371761 -32.153753 32.962004 -1.072296 2.919685 0.127464 -0.044111 70213.700000 0 0 1
2.930710 -5.144361 -31.626253 32.175665 -1.052959 2.956529 0.101461 -0.029486 309922.000000 0 0 1
3.091910 -3.984561 -32.638053 33.025432 -0.910879 2.988278 0.106245 -0.026317 -369493.000000 0 0 1
2.165310 -4.034561 -33.648453 33.958572 -1.078229 3.006343 0.110304 -0.034393 -771191.000000 0 0 1
2.464410 -3.056261 33.224898 33.456060 -0.892196 0.117621 0.130637 -0.030156 253892.000000 0 0 1
1.818510 -3.226561 31.805698 32.020620 -1.057567 0.115927 0.142758 -0.033226 1002510.000000 0 0 1
0.389610 -3.166261 31.808198 31.967773 -1.448361 0.099959 0.136758 -0.036206 414149.000000 0 0 1
-0.158090 -3.584361 30.555098 30.765024 1.526720 0.116887 0.125431 -0.032793 380851.000000 0 0 1
-1.702390 -3.612661 30.534198 30.794264 1.130429 0.130055 0.101534 -0.027119 353526.000000 0 0 1
-2.420690 -2.399161 30.367098 30.557755 0.780931 0.111765 0.087738 -0.032808 236022.000000 0 0 1
-3.819890 -2.594461 30.502798 30.850340 0.596628 0.150244 0.055259 -0.030363 108114.000000 0 0 1
-4.675790 -1.471361 29.993798 30.391707 0.304866 0.161996 0.044459 -0.021379 -539427.000000 0 0 1
-4.510290 -1.386261 28.581998 28.968864 0.298191 0.163611 0.041550 -0.025862 -118279.000000 0 0 1
-5.485890 -0.678061 27.831798 28.375408 0.122977 0.196057 0.022599 -0.026463 47257.100000 0 0 1
-5.831990 0.785939 28.121698 28.730815 -0.133956 0.206282 0.052325 -0.032378 306846.000000 0 0 1
-7.003690 0.907639 28.936798 29.786134 -0.128876 0.239378 0.042854 -0.027539 180528.000000 0 0 1
-7.271990 2.293639 29.073098 30.056408 -0.305531 0.256497 0.055944 -0.029834 -555957.000000 0 0 1
-8.633290 2.710039 29.615898 30.967393 -0.304165 0.296526 0.053038 -0.032240 -185818.000000 0 0 1
-9.650390 2.495139 28.629698 30.315266 -0.253012 0.335035 0.040688 -0.022579 730207.000000 0 0 1
-10.948090 2.758139 29.169598 31.278323 -0.246793 0.369295 0.035718 -0.012941 288649.000000 0 0 1
-12.137090 2.183939 28.413598 30.974362 -0.178034 0.409484 0.037745 -0.007949 -333898.000000 0 0 1
-12.143090 0.773839 28.490398 30.979933 -0.063641 0.403632 0.041039 -0.005414 -28030.900000 0 0 1
-12.478990 0.194239 27.288898 30.007447 -0.015564 0.428947 0.042386 -0.004274 -892695.000000 0 0 1
-12.359990 -1.393561 27.463698 30.149064 0.112274 0.425263 0.044104 -0.013741 981097.000000 0 0 1
-11.068890 -1.952261 27.847798 30.030510 0.174578 0.383617 0.045197 -0.023439 1611110.000000 0 0 1
-9.934590 -1.625161 27.054598 28.866737 0.162150 0.356214 0.038966 -0.022708 -224982.000000 0 0 1
-9.831690 -2.430861 25.740398 27.661152 0.242386 0.374853 0.021248 -0.013134 -719967.000000 0 0 1
-10.849390 -2.104761 24.818698 27.168126 0.191618 0.418935 0.018385 -0.010698 19216.300000 0 0 1
-10.853390 -2.838361 23.550598 26.086070 0.255790 0.444552 0.024581 -0.008591 -273145.000000 0 0 1
-9.863890 -2.411461 22.435398 24.626379 0.239771 0.425018 0.021769 -0.013196 -861487.000000 0 1 0
-8.553090 -2.466261 22.826298 24.500565 0.280732 0.371830 0.022646 -0.018816 -1508610.000000 0 1 0
-7.675290 -2.087661 21.805098 23.210573 0.265573 0.349784 0.009866 -0.021577 -229857.000000 0 1 0
-6.174190 -2.090361 22.176998 23.115135 0.326451 0.285877 0.014606 -0.023915 145829.000000 0 1 0
-5.486990 -3.312261 22.314098 23.216311 0.543104 0.279698 0.013497 -0.018258 -9958.650000 0 1 0
-5.903190 -4.064561 23.439798 24.511068 0.602991 0.296741 0.012561 -0.011422 -366480.000000 0 1 0
-5.598990 -5.576061 23.256898 24.562664 0.783346 0.327531 0.024617 -0.009032 115863.000000 0 1 0
-6.341790 -6.299461 22.222898 23.953261 0.782050 0.382429 0.017530 -0.016041 177416.000000 0 1 0
-5.862790 -6.115261 20.906898 22.558083 0.806473 0.384988 0.014005 -0.016040 -692200.000000 0 1 0
-6.949690 -6.089661 19.834898 21.881621 0.719537 0.435963 0.019707 -0.021003 -708890.000000 0 1 0
-7.842390 -5.047361 19.999098 22.066782 0.571863 0.436354 0.006974 -0.020786 -1025550.000000 0 1 0
-8.805790 -5.012261 19.013598 21.544874 0.517465 0.489620 0.025693 -0.020195 -516146.000000 0 1 0
-9.582390 -3.665061 19.055898 21.642138 0.365311 0.493881 0.032793 -0.023706 531617.000000 0 1 0
-8.684490 -2.583161 18.700298 20.779659 0.289111 0.451181 0.025606 -0.018844 852238.000000 0 1 0
-9.385790 -1.369061 18.742798 21.006186 0.144844 0.468489 0.025347 -0.017547 599457.000000 0 1 0
-8.392190 -0.203261 18.386198 20.211938 0.024215 0.428307 0.003909 -0.012029 984256.000000 0 1 0
-7.472890 0.272439 19.401598 20.792795 -0.036441 0.367879 0.015400 -0.000247 840398.000000 0 1 0
-7.950790 1.289739 20.280598 21.821575 -0.160814 0.378059 0.031447 -0.003352 -367381.000000 0 1 0
-8.022190 2.698739 19.718698 21.458467 -0.324516 0.405453 0.034562 -0.021309 -51790.900000 0 1 0
-8.978590 2.938539 18.708998 20.958929 -0.316295 0.467605 0.029464 -0.027486 137715.000000 0 1 0
-8.626090 4.218039 18.244398 20.616968 -0.454798 0.484471 0.029394 -0.027512 -335334.000000 0 1 0
-9.563090 4.978539 17.312498 20.395125 -0.479991 0.556981 0.036328 -0.010230 -695187.000000 0 1 0
-10.691290 5.469939 17.989598 21.629830 -0.472905 0.588628 0.041011 0.002912 168400.000000 0 1 0
-11.481790 6.332839 17.137798 21.578704 -0.504036 0.653107 0.046309 0.022082 113482.000000 0 1 0
-10.989790 7.781439 17.072298 21.743727 -0.616115 0.667842 0.037598 0.017620 -618303.000000 0 1 0
-9.856690 7.932839 16.251698 20.596164 -0.677672 0.661512 0.035063 -0.005879 323515.000000 0 1 0
-9.283090 9.238439 16.207798 20.837880 -0.782987 0.679631 0.004785 -0.013042 447597.000000 0 1 0
-8.196290 9.577139 17.299798 21.405228 -0.862934 0.629700 0.017712 0.001920 -199170.000000 0 1 0
-8.705190 10.186139 18.445698 22.798718 -0.863631 0.628233 0.051567 0.016756 -118622.000000 0 1 0
-8.650690 11.614339 18.632298 23.598514 -0.930613 0.660715 0.076337 0.010766 -425795.000000 0 1 0
-9.483690 12.459939 17.602898 23.559552 -0.920207 0.727008 0.087206 -0.009264 -156909.000000 0 1 0
-8.935490 12.546739 16.355598 22.467070 -0.951945 0.755424 0.060075 -0.021948 -42277.300000 0 1 0
-9.719290 13.507739 15.613998 22.819302 -0.947080 0.817228 0.068161 -0.041113 370397.000000 0 1 0
-9.043890 14.100639 14.369698 22.070528 -1.000504 0.861789 0.054518 -0.032983 -21059.400000 0 1 0
-7.908890 14.917739 14.554398 22.291702 -1.083308 0.859381 0.047646 -0.021678 -29404.000000 0 1 0
-7.657290 15.569839 13.367198 21.902876 -1.113728 0.914364 0.040865 -0.025956 -190027.000000 0 1 0
-6.630490 16.706339 13.545698 22.506691 -1.192978 0.924978 0.015136 -0.014654 -761426.000000 0 1 0
-5.302190 16.342439 13.610798 21.918996 -1.257068 0.900831 0.011856 -0.023077 -1403210.000000 0 1 0
-4.492590 17.473439 13.819198 22.726080 -1.319138 0.917161 0.012796 -0.019000 186652.000000 0 1 0
-3.005090 17.026239 13.754498 22.093203 -1.396098 0.898778 0.015536 -0.023338 -138534.000000 0 1 0
-2.440190 16.383839 14.860698 22.253653 -1.422944 0.839565 0.023372 -0.028794 -50419.900000 0 1 0
-2.785290 15.013539 15.019298 21.418299 -1.387363 0.793666 0.009942 -0.027046 -1066700.000000 0 1 0
-1.860890 14.350039 15.962398 21.544946 -1.441838 0.736404 0.009437 -0.018590 759963.000000 0 1 0
-0.549990 14.130039 15.333998 20.858859 -1.531893 0.744936 0.018487 -0.021157 1299510.000000 0 1 0
0.499710 13.797539 16.224298 21.303748 1.534595 0.705064 0.018966 -0.007394 70164.000000 0 1 0
1.255010 14.974139 16.874398 22.595248 1.487180 0.727541 0.020572 -0.011395 -264787.000000 0 1 0
0.574310 15.687839 17.867598 23.784222 1.534204 0.720861 0.012491 -0.017185 -335644.000000 0 1 0
1.472110 16.669239 18.294798 24.793755 1.482712 0.740874 0.055768 -0.021764 49511.100000 0 1 0
0.739310 17.883739 19.000998 26.103882 1.529480 0.755543 0.059030 -0.028382 495669.000000 0 0 1
0.101910 18.877639 18.235998 26.247425 1.565398 0.802692 0.044975 -0.029787 579186.000000 0 0 1
-0.954390 18.457939 17.346598 25.347798 -1.519136 0.817093 0.035060 -0.027000 -146188.000000 0 0 1
-1.543090 19.599139 16.478298 25.652324 -1.492226 0.873209 0.040420 -0.020277 -132744.000000 0 0 1
-2.220890 20.523039 17.301198 26.934346 -1.463001 0.873240 0.043451 -0.027545 -217600.000000 0 0 1
-3.049890 21.380739 16.571098 27.222034 -1.429106 0.916327 0.062705 -0.030042 -186613.000000 0 0 1
-3.838790 22.366639 17.457198 28.631393 -1.400822 0.915086 0.057187 -0.025801 959229.000000 0 0 1
-5.004690 21.877439 18.179998 28.882202 -1.345906 0.889947 0.076369 -0.035268 1040830.000000 0 0 1
-5.464390 22.844239 19.143598 30.301752 -1.336006 0.886968 0.077578 -0.026316 216326.000000 0 0 1
-6.739490 22.410139 19.926398 30.735914 -1.278666 0.865434 0.065507 -0.030999 -114518.000000 0 0 1
-7.890990 22.767239 19.214798 30.819205 -1.237159 0.897625 0.053205 -0.034941 -105583.000000 0 0 1
-9.055190 22.389639 19.965098 31.335245 -1.186471 0.880008 0.012874 -0.024276 212144.000000 0 0 1
-10.374490 22.852139 19.347098 31.688492 -1.144635 0.914054 0.031523 -0.029145 -372998.000000 0 0 1
-10.701090 24.168539 19.782198 33.014648 -1.153972 0.928302 0.045403 -0.019417 -329207.000000 0 0 1
-11.685890 24.674639 18.942498 33.229747 -1.128492 0.964234 0.023581 -0.018237 -323496.000000 0 0 1
-12.350590 25.955739 19.500198 34.734640 -1.126669 0.974714 0.027616 -0.022404 159606.000000 0 0 1
-13.182590 25.815739 20.647498 35.588654 -1.098672 0.951858 0.025138 -0.013594 295233.000000 0 0 1
-13.850990 26.992739 20.970898 36.881384 -1.096694 0.965989 0.044310 -0.027153 -557718.000000 0 0 1
-14.765490 26.851839 22.219898 37.851880 -1.068040 0.943421 0.072994 -0.034579 292748.000000 0 0 1
-16.082690 26.459039 21.829898 37.885065 -1.024637 0.956708 0.049774 -0.027545 323618.000000 0 0 1
-16.961390 26.664339 22.910998 39.033186 -1.004249 0.943495 0.031688 -0.015753 363935.000000 0 0 1
-18.359690 25.994639 22.794598 39.145794 -0.955863 0.949241 0.045530 -0.017144 221084.000000 0 0 1
-18.313990 24.603739 22.817998 38.228357 -0.930916 0.931181 0.071164 -0.018709 -25706.000000 0 0 1
-19.601490 24.071839 22.604798 38.401156 -0.887402 0.941410 0.073762 -0.003969 -109818.000000 0 0 1
27.792410 23.565839 23.275610 43.237957 0.703287 1.002361 0.094646 -0.013334 -49330.300000 0 0 1
27.772010 23.061239 24.592070 43.679231 0.692991 0.972767 0.102663 -0.024092 180515.000000 0 0 1
27.941510 21.711939 24.680800 43.142534 0.660589 0.961762 0.106291 -0.016276 -312693.000000 0 0 1
27.820810 21.175839 26.107470 43.635005 0.650600 0.929400 0.133501 -0.031824 782092.000000 0 0 1
26.424510 21.142439 26.448610 42.950978 0.674806 0.907413 0.127993 -0.019960 921852.000000 0 0 1
26.170310 20.645939 27.725620 43.357237 0.667940 0.876989 0.136162 -0.027352 610624.000000 0 0 1
24.712510 20.954539 28.213880 42.963053 0.703293 0.854360 0.136988 -0.036063 583653.000000 0 0 1
24.487810 22.290839 28.659000 43.793523 0.738467 0.857392 0.149079 -0.046724 -279904.000000 0 0 1
23.149210 22.318039 29.072160 43.349410 0.767120 0.835715 0.175701 -0.052499 -637704.000000 0 0 1
22.668710 23.595039 29.755430 44.226485 0.805418 0.832814 0.175434 -0.059338 -295104.000000 0 0 1
22.510410 24.708439 28.899540 44.186072 0.831914 0.857881 0.146209 -0.051396 -105911.000000 0 0 1
22.238110 25.924339 29.536160 45.155173 0.861787 0.857799 0.134714 -0.047372 315275.000000 0 0 1
20.857310 26.192839 30.224810 45.106888 0.898317 0.836492 0.124245 -0.043718 -84128.500000 0 0 1
19.787310 26.294239 29.296400 44.059094 0.925675 0.843391 0.109092 -0.039537 505459.000000 0 0 1
18.674710 26.973739 29.912180 44.396688 0.965237 0.831527 0.087724 -0.045520 989775.000000 0 0 1
17.573910 26.022839 30.468420 43.753344 0.976822 0.800472 0.070630 -0.023610 -89002.200000 0 0 1
18.048310 25.480239 31.655560 44.464127 0.954504 0.778547 0.085931 -0.037872 338007.000000 0 0 1
17.022410 24.678739 32.209071 44.002578 0.966976 0.749571 0.057054 -0.029532 158727.000000 0 0 1
17.451110 24.143139 33.566638 44.879301 0.944919 0.725856 0.076843 -0.036852 -257550.000000 0 0 1
17.618910 25.111639 -33.263102 45.248805 0.958982 2.396633 0.062713 -0.031512 -7713.030000 0 0 1
17.715910 24.554139 -31.975142 44.035996 0.945783 2.383449 0.057872 -0.023969 -200649.000000 0 0 1
18.115710 25.532239 -30.895052 43.983843 0.953708 2.349586 0.041109 -0.004531 -942784.000000 0 0 1
17.213810 26.579439 -30.831052 44.196557 0.996085 2.342824 0.054530 -0.026112 -337072.000000 0 0 1
17.698710 27.772639 -30.270112 44.730789 1.003421 2.314091 0.050317 -0.024512 -338240.000000 0 0 1
17.156210 28.106439 -28.874512 43.795490 1.022764 2.290688 0.064291 -0.018123 -249469.000000 0 0 1
17.626210 27.186439 -27.881602 42.745403 0.995585 2.281373 0.035510 -0.003901 125418.000000 0 0 1
17.223010 27.493139 -26.536032 41.912597 1.011157 2.256384 0.048888 -0.007443 -294824.000000 0 0 1
17.995610 26.852439 -25.341032 41.073877 0.980375 2.235673 0.039792 -0.009317 112634.000000 0 0 1
19.364910 27.192939 -25.297002 41.885487 0.951976 2.219252 0.040165 -0.005587 -511276.000000 0 0 1
20.046010 26.420539 -24.334002 41.134305 0.921732 2.203807 0.032314 -0.001486 -282156.000000 0 0 1
21.557710 26.645439 -24.451902 42.102373 0.890556 2.190474 0.032008 0.003992 -105890.000000 0 0 1
22.139910 26.506339 -23.143502 41.573830 0.874917 2.161186 0.034949 0.006383 -719442.000000 0 0 1
23.533910 26.485139 -23.143702 42.319481 0.844332 2.149430 0.046158 0.006714 -406179.000000 0 0 1
24.037210 26.165039 -21.743702 41.655556 0.827758 2.119976 0.053461 0.006922 -51256.600000 0 0 1
23.734510 24.897839 -21.261402 40.438553 0.809314 2.124417 0.075175 0.000604 -105228.000000 0 0 1
24.334110 24.747539 -20.014702 40.064672 0.793821 2.093887 0.080218 -0.003694 -200682.000000 0 0 1
23.807910 23.549139 -19.214602 38.608024 0.779934 2.091723 0.088235 -0.016104 -504147.000000 0 0 1
24.372210 22.291839 -19.539602 38.376123 0.740846 2.105005 0.081239 -0.009415 236181.000000 0 0 1
24.133210 21.345339 -18.493802 37.149106 0.724174 2.091887 0.088212 -0.007699 -790385.000000 0 0 1
24.275710 19.849139 -18.984302 36.656543 0.685413 2.115187 0.104871 -0.011135 341037.000000 0 0 1
23.323010 19.414339 -19.955302 36.319326 0.694194 2.152491 0.097404 -0.013418 1162330.000000 0 0 1
21.950410 19.469839 -19.489102 35.223859 0.725582 2.157108 0.097684 -0.011802 320330.000000 0 0 1
20.983910 19.332939 -20.667902 35.231367 0.744471 2.197692 0.075769 0.001210 -230225.000000 0 0 1
21.139910 20.239939 -21.762202 36.471145 0.763653 2.210174 0.072363 0.001068 -222302.000000 0 0 1
21.129210 21.635939 -21.511002 37.111731 0.797247 2.189069 0.068571 -0.001588 2330.450000 0 0 1
20.887910 22.366339 -22.823002 38.176529 0.819565 2.211585 0.053292 0.005436 550504.000000 0 0 1
19.574110 22.013139 -23.261002 37.533962 0.843980 2.239198 0.063935 0.000677 191016.000000 0 0 1
19.196810 22.671239 -24.462402 38.482616 0.868194 2.259678 0.052827 -0.003376 63519.700000 0 0 1
17.698010 22.650539 -24.829202 37.983625 0.907531 2.283236 0.054572 -0.008023 67926.800000 0 0 1
16.898510 23.361339 -23.921402 37.463920 0.944568 2.263368 0.046192 -0.004969 172178.000000 0 0 1
15.540610 23.475939 -24.322902 37.205293 0.986045 2.283324 0.057412 -0.008614 645270.000000 0 0 1
14.703110 24.542339 -23.560502 37.062179 1.031045 2.259714 0.048771 -0.007080 224242.000000 0 0 1
15.072710 25.834239 -23.856102 38.258438 1.042643 2.244073 0.030268 -0.007257 697216.000000 0 0 1
13.932810 26.660239 -23.548602 38.202463 1.089228 2.234979 0.051402 -0.008662 902513.000000 0 0 1
13.980310 28.033539 -24.208002 39.589844 1.108190 2.228713 0.049158 -0.017645 29987.600000 0 0 1
13.979610 27.822439 -25.582102 40.298407 1.105184 2.258568 0.052743 -0.030079 -220166.000000 0 0 1
13.470710 28.938139 -26.315482 41.368835 1.135127 2.260254 0.079078 -0.032332 -303321.000000 0 0 1
14.196910 30.275439 -26.302472 42.543795 1.132316 2.237304 0.096257 -0.027436 165704.000000 0 0 1
15.378310 30.240139 -27.113142 43.429033 1.100340 2.245043 0.072474 -0.022371 113125.000000 0 0 1
15.954210 31.543739 -27.055312 44.514427 1.102535 2.224068 0.079895 -0.024948 261205.000000 0 0 1
17.428910 31.556539 -27.535502 45.362826 1.066183 2.223084 0.068836 -0.014724 271678.000000 0 0 1
18.326310 30.904839 -26.663582 44.742702 1.035546 2.209221 0.034073 -0.012974 219242.000000 0 0 1
19.659010 30.929339 -27.144112 45.605959 1.004603 2.208296 0.038222 -0.007094 92340.400000 0 0 1
20.708910 30.236339 -26.249802 45.079344 0.970276 2.192354 0.022052 -0.003250 -351895.000000 0 0 1
20.975310 30.855739 -24.974502 44.897283 0.973766 2.160673 0.028807 -0.007247 481411.000000 0 0 1
21.750010 32.083539 -24.938502 46.090621 0.975045 2.142512 0.038865 -0.014586 -545090.000000 0 0 1
23.202510 32.190639 -25.338592 47.081185 0.946257 2.139084 0.022255 -0.001919 -972675.000000 0 0 1
23.406610 31.787939 -26.671062 47.641243 0.936098 2.164979 0.020935 0.003607 176308.000000 0 0 1
24.627310 32.328039 -27.166262 48.883661 0.919790 2.160041 0.015812 0.012995 -110257.000000 0 0 1
24.813610 31.767139 -28.568722 49.406865 0.907681 2.187359 0.015051 0.011583 -45382.900000 0 0 1
23.879410 32.362739 -29.447802 49.847228 0.935105 2.202798 0.032146 -0.009289 -290185.000000 0 0 1
22.763010 31.549439 -29.644922 48.911585 0.945784 2.221934 0.026284 -0.006480 -558590.000000 0 0 1
21.752710 32.162539 -30.639092 49.460725 0.976129 2.238855 0.040534 -0.008436 -323250.000000 0 0 1
21.057710 33.299439 -30.138242 49.604369 1.006912 2.223797 0.055693 -0.013441 338186.000000 0 0 1
20.123810 33.856739 -31.074912 50.168682 1.034519 2.238785 0.069901 -0.029480 1088370.000000 0 0 1
18.644510 33.397239 -30.739562 49.070501 1.061630 2.247770 0.085483 -0.034746 391518.000000 0 0 1
18.236010 32.038439 -30.911992 48.109925 1.053338 2.268590 0.080585 -0.031180 139337.000000 0 0 1
18.421510 31.396339 -32.151042 48.567187 1.040183 2.294268 0.091595 -0.042724 -526484.000000 0 0 1
17.828610 32.036639 -33.442622 49.624737 1.062971 2.310285 0.106079 -0.052733 -489423.000000 0 0 1
18.516510 33.185539 33.855100 50.895078 1.061855 0.843043 0.105750 -0.041382 220981.000000 0 0 1
18.046710 33.636439 32.540859 50.159758 1.078359 0.864863 0.092417 -0.040799 782366.000000 0 0 1
16.567510 -33.642044 32.516047 49.634291 -1.113195 0.856465 0.101539 -0.040581 -726758.000000 0 0 1
15.648610 33.131639 32.628409 49.063200 1.129540 0.843265 0.104093 -0.039789 944519.000000 0 0 1
14.212810 33.414339 32.550202 48.765128 1.168629 0.839964 0.090389 -0.043077 2154440.000000 0 0 1
13.740010 -33.783944 31.197930 47.994308 -1.184525 0.863167 0.077433 -0.041020 -765082.000000 0 0 1
14.348010 -32.498744 31.009090 47.155036 -1.155038 0.853169 0.093101 -0.024169 128240.000000 0 0 1
13.828410 -32.006744 29.802050 45.867404 -1.162972 0.863549 0.066585 -0.021629 -142091.000000 0 0 1
14.380410 -30.686544 29.286560 44.790208 -1.132564 0.858120 0.067307 -0.018354 -170757.000000 0 0 1
14.037910 -29.659044 30.208490 44.601285 -1.128728 0.826709 0.069617 -0.022906 299431.000000 0 0 1
14.448310 -28.319844 29.859570 43.616065 -1.099035 0.816741 0.076433 -0.026300 -268658.000000 0 0 1
13.907210 -27.172744 30.724940 43.310396 -1.097748 0.782132 0.079955 -0.023176 -98226.000000 0 0 1
12.503910 -26.989044 30.745420 42.778933 -1.136941 0.768859 0.074967 -0.019938 202458.000000 0 0 1
12.088810 -25.947044 29.821490 41.336542 -1.134796 0.764929 0.055967 -0.015149 -230026.000000 0 0 1
12.352310 -24.472944 30.307150 40.865975 -1.103369 0.735310 0.069562 -0.016010 -633085.000000 0 0 1
11.340210 -23.916744 31.075070 40.819983 -1.128039 0.705525 0.072571 -0.024811 -316857.000000 0 0 1
11.743810 -22.704544 31.715010 40.733957 -1.093448 0.678382 0.077493 -0.028685 97698.700000 0 0 1
10.903210 -22.354644 32.963946 41.294453 -1.117006 0.646386 0.073301 -0.025428 -591574.000000 0 0 1
10.915410 -23.168044 -33.660162 42.295519 -1.130501 2.491178 0.080642 -0.025110 354247.000000 0 0 1
12.145610 -23.260444 -32.952882 42.124298 -1.089580 2.469110 0.095650 -0.021268 359598.000000 0 0 1
12.811810 -21.971844 -32.424472 41.209838 -1.042895 2.476426 0.094475 -0.022879 -339513.000000 0 0 1
13.241810 -21.025944 -33.397302 41.627102 -1.008764 2.501930 0.075943 -0.019586 136085.000000 0 0 1
13.918210 -19.996244 -32.685952 40.766871 -0.962732 2.501060 0.073474 -0.018463 -135064.000000 0 0 1
14.292910 -18.754744 -33.585682 41.036882 -0.919599 2.529464 0.060048 -0.013146 -432964.000000 0 0 1
15.275710 -19.154644 33.270800 41.318202 -0.897585 0.634727 0.079920 -0.003483 290970.000000 0 0 1
15.242710 -18.399844 32.098437 40.015049 -0.878968 0.639894 0.063316 0.003030 -319505.000000 0 0 1
15.985210 -17.095244 32.076441 39.707334 -0.818941 0.630349 0.068428 -0.004312 -696624.000000 0 0 1
15.473710 -16.126544 32.958447 39.821607 -0.806054 0.595885 0.058601 -0.003607 426610.000000 0 0 1
16.104510 -14.837944 32.746689 39.393723 -0.744488 0.589414 0.072895 -0.015630 207073.000000 0 0 1
17.476110 -14.458044 33.366584 40.345736 -0.691169 0.597017 0.065943 -0.005301 785065.000000 0 0 1
18.505410 -15.289844 32.772659 40.623598 -0.690535 0.632183 0.079343 -0.009412 650472.000000 0 0 1
19.785710 -14.828844 33.234533 41.423461 -0.643163 0.639638 0.085600 -0.009270 295321.000000 0 0 1
20.909710 -15.499244 32.451968 41.600154 -0.637875 0.675983 0.106736 -0.018341 -532241.000000 0 0 1
20.835610 -15.072844 31.116710 40.367845 -0.626270 0.690655 0.077695 -0.009951 435794.000000 0 0 1
21.789510 -15.802244 30.353740 40.568993 -0.627454 0.725451 0.077689 -0.013709 -206575.000000 0 0 1
22.025710 -15.391844 28.928570 39.482945 -0.609929 0.748537 0.061885 -0.008857 -660691.000000 0 0 1
22.855310 -14.234244 28.909920 39.506485 -0.557014 0.749871 0.050531 -0.005425 475779.000000 0 0 1
22.957710 -13.707144 27.580800 38.414096 -0.538255 0.769891 0.043269 -0.011286 -152208.000000 0 0 1
23.812510 -12.419744 27.631610 38.532993 -0.480749 0.771179 0.019815 -0.009112 -13311.800000 0 0 1
23.166110 -11.314844 28.193990 38.204652 -0.454343 0.740735 0.021019 -0.011707 177342.000000 0 0 1
24.080910 -10.235044 28.310220 38.550161 -0.401894 0.746053 0.036439 -0.015042 89144.100000 0 0 1
23.429810 -8.881144 28.413640 37.883580 -0.362319 0.722696 0.046903 -0.020110 60739.200000 0 0 1
22.652810 -8.714644 29.601420 38.279745 -0.367252 0.686780 0.052933 -0.022369 -34353.700000 0 0 1
21.729110 -7.659044 29.390410 37.344496 -0.338881 0.664852 0.072096 -0.032667 69882.500000 0 0 1
20.462910 -7.661744 30.267170 37.330076 -0.358263 0.625281 0.062065 -0.026571 -203344.000000 0 0 1
20.590810 -7.178444 31.571690 38.370342 -0.335448 0.604450 0.069319 -0.030255 -132821.000000 0 0 1
21.153910 -8.123844 32.422792 39.556570 -0.366668 0.609986 0.076176 -0.035673 -605218.000000 0 0 1
20.917710 -7.927144 -33.857302 40.579639 -0.362245 2.557735 0.096367 -0.050792 -165029.000000 0 0 1
19.564410 -7.876344 -33.485272 39.573556 -0.382733 2.579521 0.086978 -0.057612 -257992.000000 0 0 1
19.554410 -7.189244 -32.270602 38.411612 -0.352314 2.568312 0.088942 -0.057300 772083.000000 0 0 1
18.131810 -6.947244 -31.648742 37.130440 -0.365899 2.591290 0.105269 -0.054437 775792.000000 0 0 1
18.334210 -6.295044 -30.422302 36.073360 -0.330738 2.574275 0.100936 -0.048580 757756.000000 0 0 1
17.114110 -5.849844 -29.801482 34.860318 -0.329364 2.596121 0.106045 -0.044265 621062.000000 0 0 1
17.361110 -4.667044 -28.774072 33.928405 -0.262613 2.583151 0.096842 -0.034424 -300539.000000 0 0 1
18.031110 -4.995244 -27.561882 33.312621 -0.270257 2.545206 0.097296 -0.031677 425586.000000 0 0 1
17.410810 -6.003644 -26.707832 32.442076 -0.332055 2.537903 0.097362 -0.029978 -170132.000000 0 0 1
15.998110 -5.798344 -26.168112 31.214266 -0.347713 2.565024 0.092830 -0.032201 -372741.000000 0 0 1
15.799110 -4.704844 -25.290082 30.188337 -0.289430 2.563934 0.097455 -0.040872 -721833.000000 0 0 1
14.467410 -4.653044 -24.878102 29.152645 -0.311174 2.593220 0.075921 -0.037774 -540159.000000 0 0 1
14.088010 -3.576844 -23.862302 27.940567 -0.248639 2.594495 0.091328 -0.038250 -32058.000000 0 0 1
14.208610 -2.255444 -24.336902 28.271123 -0.157424 2.607714 0.086093 -0.050057 157137.000000 0 0 1
13.866510 -1.315444 -23.327002 27.169091 -0.094582 2.603302 0.085687 -0.047579 -80348.200000 0 0 1
14.193110 0.126556 -23.676102 27.604677 0.008917 2.601545 0.089909 -0.052025 260203.000000 0 0 1
13.330710 0.691556 -24.679202 28.057959 0.051830 2.645774 0.083448 -0.048124 362374.000000 0 0 1
14.013810 1.817556 -25.193742 28.886243 0.128978 2.630419 0.089041 -0.033292 -110396.000000 0 0 1
13.500210 2.513556 -26.486212 29.834427 0.184079 2.663281 0.077579 -0.023283 206758.000000 0 0 1
12.265310 3.166556 -26.184622 29.087787 0.252655 2.691009 0.088715 -0.035999 151294.000000 0 0 1
11.794510 3.667556 -27.392882 30.048817 0.301476 2.717987 0.096052 -0.032302 -610701.000000 0 0 1
10.426610 4.320556 -27.242992 29.488337 0.392839 2.748833 0.106553 -0.034381 -562662.000000 0 0 1
10.449810 5.482556 -26.449322 28.962451 0.483177 2.721934 0.093242 -0.039003 -1014580.000000 0 0 1
9.364310 6.257556 -26.729242 29.005166 0.589087 2.742809 0.105990 -0.042344 -916108.000000 0 0 1
8.433510 5.561639 -31.386592 32.972323 0.583003 2.830198 0.089091 -0.038283 -123061.000000 0 0 1
8.313910 4.648639 -30.311782 31.773181 0.509833 2.837120 0.090538 -0.021693 362325.000000 0 0 1
8.054410 3.305439 -30.757062 31.965549 0.389430 2.865743 0.073469 -0.020256 -181135.000000 0 0 1
7.648610 2.341139 -29.620202 30.681240 0.297032 2.877836 0.085079 -0.027258 -457800.000000 0 0 1
8.703210 1.989439 -28.756712 30.110666 0.224726 2.840571 0.115508 -0.033684 186776.000000 0 0 1
8.284010 1.036439 -27.843942 29.068611 0.124467 2.850287 0.098250 -0.034410 855641.000000 0 0 1
9.501010 0.441339 -27.003962 28.630018 0.046418 2.802944 0.096951 -0.048929 1014340.000000 0 0 1
10.436010 -0.332461 -27.726942 29.627759 -0.031846 2.781441 0.112079 -0.033957 575286.000000 0 0 1
11.347710 -0.953161 -26.782682 29.103111 -0.083799 2.739563 0.107792 -0.040223 653264.000000 0 0 1
12.193510 -2.130961 -27.342242 30.013678 -0.173015 2.716481 0.095989 -0.039508 544004.000000 0 0 1
11.348210 -3.194461 -27.800362 30.196797 -0.274394 2.740511 0.094650 -0.043533 258393.000000 0 0 1
12.154210 -4.284961 -28.145042 30.955276 -0.338944 2.712194 0.107242 -0.037347 -28832.100000 0 0 1
11.586110 -5.622961 -27.620172 30.475064 -0.451834 2.705290 0.080446 -0.026216 62668.000000 0 0 1
11.608110 -5.492761 -26.221942 29.197754 -0.441965 2.686183 0.094728 -0.026036 84916.500000 0 0 1
11.209110 -6.741561 -25.603462 28.751175 -0.541475 2.669281 0.094200 -0.030879 10907.200000 0 0 1
11.053810 -6.684261 -24.065502 27.313265 -0.543870 2.648963 0.101898 -0.029733 399041.000000 0 0 1
12.296410 -6.576861 -23.379302 27.222207 -0.491145 2.603781 0.083044 -0.025394 292774.000000 0 0 1
12.044910 -6.683761 -21.969002 25.930475 -0.506600 2.581540 0.090244 -0.030357 485749.000000 0 0 1
13.305910 -6.457061 -21.074802 25.746614 -0.451800 2.529673 0.093063 -0.025096 360527.000000 0 0 1
13.704810 -5.153361 -20.941702 25.552570 -0.359670 2.531428 0.079036 -0.028706 -605561.000000 0 0 1
14.740010 -5.138261 -20.005702 25.375140 -0.335421 2.478996 0.065793 -0.021509 -86082.900000 0 0 1
15.276210 -3.719261 -19.596602 25.124138 -0.238821 2.465448 0.077582 -0.030009 -219798.000000 0 0 1
16.148010 -3.102561 -20.493302 26.274694 -0.189820 2.465404 0.070175 -0.029306 131284.000000 0 0 1
16.631810 -1.844661 -19.942802 26.033348 -0.110460 2.443467 0.077732 -0.021325 -252468.000000 0 0 1
17.676910 -1.132361 -20.741202 27.275499 -0.063971 2.434777 0.075465 -0.026294 1116900.000000 0 0 1
18.976710 -1.792061 -20.890602 28.279750 -0.094156 2.401954 0.094712 -0.034057 1462100.000000 0 0 1
19.904110 -0.934961 -21.515702 29.325299 -0.046939 2.394534 0.092004 -0.022320 -55691.600000 0 0 1
21.264310 -1.521261 -21.913402 30.572574 -0.071419 2.369951 0.080517 -0.025935 -388375.000000 0 0 1
22.126210 -1.857961 -20.806502 30.429126 -0.083774 2.323712 0.072120 -0.023870 348410.000000 0 0 1
23.250510 -2.594561 -21.206102 31.575572 -0.111132 2.307160 0.067784 -0.017139 92480.900000 0 0 1
24.485110 -1.886561 -21.788302 32.830014 -0.076897 2.296511 0.073908 -0.022687 -967697.000000 0 0 1
24.229310 -1.308661 -23.093702 33.497629 -0.053959 2.331475 0.072732 -0.029138 1127270.000000 0 0 1
25.383110 -0.632361 -23.675502 34.716445 -0.024907 2.321246 0.069421 -0.020454 1126000.000000 0 0 1
26.533810 -1.517161 -24.249102 35.977268 -0.057116 2.310422 0.069832 -0.023938 -819555.000000 0 0 1
27.389410 -1.982061 -23.203502 35.951507 -0.072240 2.272358 0.069633 -0.020434 331440.000000 0 0 1
28.524510 -2.701061 -23.644802 37.148621 -0.094411 2.260738 0.059714 -0.016592 810829.000000 0 0 1
29.625810 -1.896661 -24.419702 38.439664 -0.063933 2.259159 0.069872 -0.021091 -603209.000000 0 0 1
29.203710 -1.687561 -25.755882 38.975249 -0.057722 2.292716 0.074746 -0.021502 726930.000000 0 0 1
30.100910 -0.740661 -26.372242 40.026348 -0.024601 2.290115 0.085229 -0.026503 -221884.000000 0 0 1
29.711210 -0.555661 -27.853372 40.729290 -0.018700 2.323844 0.082928 -0.035224 764548.000000 0 0 1
28.386910 -0.029461 -28.028942 39.892845 -0.001038 2.349849 0.079705 -0.024951 689768.000000 0 0 1
28.055510 1.265139 -27.489872 39.298922 0.045064 2.345504 0.067849 -0.027206 -586229.000000 0 0 1
26.572910 1.680239 -27.674562 38.403439 0.063147 2.375503 0.072294 -0.024446 124594.000000 0 0 1
25.749410 1.252039 -26.598932 37.041907 0.048586 2.371831 0.078470 -0.023243 611917.000000 0 0 1
24.396210 1.422639 -27.021392 36.432878 0.058248 2.406362 0.070120 -0.023743 407509.000000 0 0 1
23.230810 1.227939 -26.039402 34.917457 0.052809 2.412444 0.072666 -0.023033 -24447.400000 0 0 1
23.225610 2.208639 -25.024802 34.213269 0.094810 2.391221 0.084907 -0.024998 80683.400000 0 0 1
22.378310 1.731739 -24.035302 32.885915 0.077231 2.390391 0.079751 -0.027545 -403998.000000 0 0 1
22.687110 2.416339 -22.633302 32.137362 0.106107 2.352187 0.067857 -0.021924 -528266.000000 0 0 1
22.336910 3.776939 -22.512502 31.937683 0.167505 2.353062 0.088101 -0.025495 337883.000000 0 0 1
22.663410 4.312539 -21.226102 31.349251 0.188038 2.314590 0.075910 -0.019972 -728611.000000 0 0 1
22.142610 5.683239 -20.793602 30.902561 0.251242 2.308886 0.086636 -0.010744 -465154.000000 0 0 1
22.848610 6.813039 -21.249502 31.937718 0.289788 2.298748 0.069999 0.001951 -14608.900000 0 0 1
22.544010 7.965739 -20.481902 31.483229 0.339649 2.279125 0.070062 0.010045 -266989.000000 0 0 1
23.216310 7.973839 -19.062302 31.079745 0.330835 2.231073 0.065413 -0.011012 565700.000000 0 0 1
24.649610 8.134039 -19.043002 32.193195 0.318735 2.203742 0.033445 -0.004072 1109290.000000 0 0 1
25.084110 8.438639 -17.747002 31.865017 0.324520 2.161497 0.055136 -0.016823 -190277.000000 0 0 1
24.926710 9.898139 -17.256802 31.892182 0.377995 2.142539 0.053950 -0.026029 532313.000000 0 0 1
23.569310 10.172139 -16.862502 30.713658 0.407434 2.151991 0.065377 -0.031862 823286.000000 0 0 1
23.433910 11.518939 -16.541902 30.910656 0.456865 2.135484 0.072342 -0.026894 453155.000000 0 0 1
21.931110 11.955939 -16.359902 29.859077 0.499119 2.150653 0.069642 -0.031165 1311140.000000 0 0 1
21.144210 11.915539 -17.584002 29.970900 0.513177 2.197777 0.093948 -0.036246 555859.000000 0 0 1
20.505510 10.643239 -17.714102 29.112607 0.478766 2.224925 0.099132 -0.037608 -715072.000000 0 0 1
19.610210 10.500939 -18.937902 29.214281 0.491630 2.276069 0.115743 -0.017448 -207677.000000 0 0 1
20.285210 10.498339 -20.197002 30.489732 0.477578 2.294841 0.116537 -0.012471 482100.000000 0 0 1
19.456110 9.926039 -21.210502 30.445884 0.471755 2.341531 0.092402 -0.012003 693678.000000 0 0 1
20.218910 10.051639 -22.615502 31.957796 0.461357 2.356988 0.109187 -0.010407 402300.000000 0 0 1
20.044110 11.358239 -23.094902 32.621319 0.515546 2.357415 0.101782 -0.013146 302759.000000 0 0 1
20.690910 11.619339 -24.359902 34.007758 0.511681 2.369288 0.118246 -0.013926 275616.000000 0 0 1
20.828710 13.139139 -24.675602 34.861978 0.562773 2.357187 0.120209 -0.015827 25662.000000 0 0 1
21.510710 13.380339 -25.905772 36.233315 0.556462 2.367379 0.116347 -0.019171 163182.000000 0 0 1
21.652710 14.768739 -26.247372 37.092857 0.598593 2.356910 0.115375 -0.011946 383935.000000 0 0 1
20.329110 15.371439 -26.803222 36.986032 0.647412 2.381373 0.098593 -0.022959 1124060.000000 0 0 1
19.187410 15.317939 -25.925602 35.706201 0.673724 2.383402 0.072237 -0.017171 -110430.000000 0 0 1
18.053210 15.746839 -26.616592 35.809556 0.717268 2.408759 0.077501 -0.025086 -494083.000000 0 0 1
16.722610 15.189639 -26.113762 34.529689 0.737398 2.428389 0.089049 -0.026719 -352854.000000 0 0 1
16.516010 13.801939 -26.347882 34.021802 0.696116 2.456628 0.088572 -0.019111 -729925.000000 0 0 1
15.261710 13.385839 -25.952752 32.949140 0.720010 2.477800 0.070511 -0.022133 -917346.000000 0 0 1
15.051510 11.810239 -26.059322 32.328284 0.665314 2.508302 0.058142 -0.024026 14961.700000 0 0 1
13.745410 11.430639 -25.688042 31.296506 0.693713 2.533599 0.064961 -0.027953 -105698.000000 0 0 1
13.738510 10.055639 -25.416212 30.591606 0.631836 2.551381 0.069112 -0.029330 297323.000000 0 0 1
12.342110 9.394639 -25.217612 29.605994 0.650622 2.590158 0.105215 -0.044214 407015.000000 0 0 1
11.737210 9.808939 -24.000402 28.460441 0.696141 2.574172 0.131843 -0.049978 -683870.000000 0 0 1
10.605410 9.040139 -23.753402 27.539480 0.705891 2.611029 0.129827 -0.049911 -92653.600000 0 0 1
9.610510 9.697239 -22.715602 26.502772 0.789890 2.600415 0.118613 -0.047107 -132298.000000 0 0 1
9.042110 10.823839 -23.194302 27.145734 0.874846 2.595261 0.113548 -0.050459 -316330.000000 0 0 1
8.294310 11.669139 -22.339502 26.533332 0.952865 2.571667 0.103484 -0.038826 421705.000000 0 0 1
9.211410 12.498939 -21.413402 26.450091 0.935683 2.514229 0.100373 -0.038284 162770.000000 0 0 1
9.957010 11.704939 -20.505002 25.624261 0.865915 2.498455 0.119456 -0.040215 52703.800000 0 0 1
10.855910 12.598939 -19.794402 25.853479 0.859576 2.442829 0.137486 -0.040292 498434.000000 0 0 1
11.896910 11.713139 -19.007702 25.298752 0.777615 2.420871 0.161572 -0.039141 189247.000000 0 0 1
12.926010 11.074639 -19.727402 26.055705 0.708412 2.429696 0.154610 -0.036079 57475.600000 0 0 1
12.529910 10.027239 -20.648402 26.151495 0.674902 2.480902 0.156875 -0.043211 -878499.000000 0 0 1
13.723410 9.368939 -21.357402 27.060074 0.599019 2.480397 0.149782 -0.035073 -134740.000000 0 0 1
14.321710 8.422139 -20.494102 26.382798 0.531600 2.460361 0.157669 -0.046820 2346.570000 0 0 1
15.339410 7.725939 -21.164902 27.256939 0.466576 2.459882 0.127424 -0.039184 16628.900000 0 0 1
16.119410 6.560539 -20.483502 26.878428 0.386523 2.437315 0.166030 -0.041891 722662.000000 0 0 1
16.974710 6.950439 -19.383502 26.686505 0.388634 2.383780 0.145973 -0.028769 533536.000000 0 0 1
17.555410 5.806439 -18.767802 26.346490 0.319423 2.363631 0.141931 -0.039213 312104.000000 0 0 1
18.437510 6.142939 -17.515802 26.162584 0.321609 2.304329 0.171760 -0.032009 985786.000000 0 0 1
19.751810 6.686039 -17.812002 27.424524 0.326396 2.277712 0.134654 -0.033184 1621240.000000 0 0 1
20.546710 7.039239 -16.655802 27.370311 0.330064 2.225010 0.124342 -0.045913 352495.000000 0 0 1
21.206810 5.860739 -15.911002 27.152109 0.269631 2.196904 0.097372 -0.044328 -280086.000000 0 0 1
22.323010 5.333539 -16.641502 28.349656 0.234529 2.198156 0.073354 -0.034232 700954.000000 0 0 1
22.937110 4.302039 -15.889002 28.232587 0.185404 2.168553 0.106157 -0.043791 -964956.000000 0 0 1
24.287110 3.879939 -16.390302 29.556043 0.158414 2.158618 0.038245 -0.006479 -1170010.000000 0 0 1
24.988310 3.095439 -15.471102 29.552536 0.123248 2.121764 0.041915 -0.008747 -131446.000000 0 0 1
26.256910 2.796439 -16.002802 30.876125 0.106103 2.115647 0.038341 -0.011997 -183403.000000 0 0 1
26.940910 1.584539 -15.345702 31.045354 0.058748 2.087825 0.062199 -0.022213 -302142.000000 0 0 1
26.287310 0.338139 -15.531302 30.534544 0.012863 2.104409 0.083734 -0.023403 -212581.000000 0 0 1
27.210610 -0.697161 -15.466102 31.306607 -0.025615 2.087504 0.082479 -0.021828 -443253.000000 0 0 1
26.699510 -2.120061 -15.912302 31.153810 -0.079238 2.106872 0.069852 -0.029130 289778.000000 0 0 1
25.877310 -2.722361 -14.876102 29.972401 -0.104817 2.090159 0.073921 -0.029131 755137.000000 0 0 1
25.688610 -4.088461 -15.043002 30.048496 -0.157831 2.095116 0.075239 -0.019590 -752814.000000 0 0 1
25.251910 -4.837061 -13.733502 29.149017 -0.189260 2.061388 0.090328 -0.023804 546630.000000 0 0 1
23.890610 -4.850361 -13.318402 27.778896 -0.200301 2.070816 0.107210 -0.017865 683971.000000 0 0 1
22.980010 -5.481061 -14.206402 27.567095 -0.234140 2.112200 0.113207 -0.020273 -1096790.000000 0 0 1
21.542310 -5.320061 -13.761502 26.110402 -0.242114 2.125923 0.123461 -0.019815 -933414.000000 0 0 1
21.201810 -6.291261 -12.757402 25.531314 -0.288456 2.094022 0.132003 -0.029020 518948.000000 0 0 1
20.707810 -5.715761 -11.544402 24.387631 -0.269314 2.063910 0.136005 -0.030264 -174904.000000 0 1 0
20.448310 -6.836461 -10.455302 23.962135 -0.322646 2.022308 0.135630 -0.035428 1904430.000000 0 1 0
19.109410 -7.491461 -10.507202 23.058466 -0.373617 2.043928 0.127163 -0.029347 2486390.000000 0 1 0
19.091310 -8.564261 -11.378302 23.817860 -0.421685 2.068856 0.123216 -0.033767 -1360390.000000 0 1 0
17.747010 -9.221961 -11.398602 23.020188 -0.479232 2.088812 0.131005 -0.036875 -846611.000000 0 1 0
16.764210 -8.351161 -11.936902 22.209688 -0.462170 2.138223 0.114050 -0.025692 381889.000000 0 1 0
15.518110 -8.992161 -12.225302 21.705499 -0.525181 2.169092 0.116350 -0.021410 953893.000000 0 1 0
14.377610 -7.919961 -12.436502 20.593883 -0.503498 2.219173 0.083305 -0.017564 104795.000000 0 1 0
14.519510 -6.980161 -13.457502 20.991502 -0.448124 2.266718 0.085126 -0.025521 106764.000000 0 1 0
15.599410 -6.067061 -13.490802 21.497734 -0.370926 2.249193 0.086865 -0.023217 -206959.000000 0 1 0
15.492310 -4.948261 -14.559002 21.827998 -0.309160 2.300954 0.076530 -0.020561 -312204.000000 0 1 0
14.358010 -4.153761 -14.309002 20.691876 -0.281611 2.334398 0.077396 -0.021903 164482.000000 0 1 0
14.154610 -3.071961 -15.230402 21.017970 -0.213715 2.381304 0.078514 -0.023716 886119.000000 0 1 0
15.339310 -2.005161 -15.405802 21.832403 -0.129983 2.354121 0.085365 -0.028660 -24059.200000 0 1 0
16.387310 -2.388761 -16.260302 23.208781 -0.144749 2.347048 0.087050 -0.023800 96821.600000 0 1 0
17.490010 -1.502461 -16.192402 23.882038 -0.085694 2.315856 0.112114 -0.019303 227438.000000 0 1 0
18.464010 -1.799061 -15.006202 23.860897 -0.097129 2.250938 0.117916 -0.022164 -952581.000000 0 1 0
17.996610 -1.573261 -13.703802 22.674817 -0.087198 2.219761 0.108740 -0.017272 352948.000000 0 1 0
18.841410 -2.364961 -12.855602 22.931600 -0.124866 2.165914 0.104846 -0.022644 369350.000000 0 1 0
18.277110 -2.578261 -11.432302 21.711695 -0.140140 2.125334 0.096487 -0.020301 -167019.000000 0 1 0
18.343610 -1.446561 -10.631802 21.251254 -0.078696 2.094731 0.114604 -0.021421 704051.000000 0 1 0
17.622210 -1.706861 -9.438402 20.063377 -0.096557 2.060574 0.091073 -0.019780 -912230.000000 0 1 0
17.593710 -0.491361 -8.515502 19.552336 -0.027921 2.021416 0.088063 -0.019442 -911268.000000 0 1 0
18.726610 -0.137961 -7.785402 20.280963 -0.007367 1.964788 0.099757 -0.022569 707915.000000 0 1 0
19.916810 0.281839 -8.459802 21.640864 0.014150 1.972425 0.114682 -0.021293 18156.000000 0 1 0
19.752510 1.644939 -9.232802 21.865775 0.083086 2.006721 0.125456 -0.025140 -587741.000000 0 1 0
19.539010 2.797739 -8.385602 21.445713 0.142221 1.972531 0.106225 -0.023274 622420.000000 0 1 0
18.680010 3.761439 -9.015902 21.080268 0.198705 2.012736 0.085397 -0.029516 -430643.000000 0 1 0
18.954610 5.240339 -8.796402 21.543331 0.269730 1.991401 0.106197 -0.009870 -318079.000000 0 1 0
18.244110 6.112039 -9.680702 21.538816 0.323263 2.036950 0.087507 -0.012890 340681.000000 0 1 0
18.589210 7.443939 -9.512002 22.168653 0.380889 2.014264 0.100074 -0.009460 -240037.000000 0 1 0
-26.920250 -29.424621 6.386798 40.389347 0.829816 1.411999 0.060509 0.000666 -31619.100000 0 0 1
-26.927090 -28.170561 6.885998 39.573547 0.807963 1.395901 0.080267 -0.009564 196584.000000 0 0 1
-25.861790 -27.383091 6.341398 38.195276 0.813962 1.403998 0.053892 -0.008415 -125033.000000 0 0 1
-25.675400 -25.984991 7.015098 37.197547 0.791391 1.381070 0.058370 -0.006429 -383751.000000 0 0 1
-26.715010 -25.069201 6.720798 37.246821 0.753627 1.389363 0.079593 -0.010712 1497740.000000 0 0 1
-28.022350 -25.343851 7.323898 38.486391 0.735249 1.379330 0.055847 -0.012409 1056610.000000 0 0 1
-28.146510 -25.163511 8.809398 38.768979 0.729501 1.341566 0.062186 -0.014762 -501876.000000 0 0 1
-27.413240 -26.189791 9.473298 39.078565 0.762578 1.325940 0.061024 -0.015536 212210.000000 0 0 1
-27.979870 -26.474381 10.728598 39.985857 0.757758 1.299158 0.050265 -0.016890 244744.000000 0 0 1
-26.934180 -27.370721 11.484598 40.081197 0.793437 1.280190 0.020346 -0.010935 608728.000000 0 0 1
-25.735740 -26.759701 11.898398 38.986943 0.804901 1.260659 0.044195 -0.007239 -177357.000000 0 0 1
-25.813680 -25.838841 12.951498 38.752200 0.785885 1.230026 0.057736 -0.002612 -966948.000000 0 0 1
-24.432590 -25.546871 13.537598 37.853145 0.807689 1.205062 0.052554 -0.005204 -440614.000000 0 0 1
-24.003290 -26.705521 14.198298 38.612620 0.838637 1.194250 0.031875 -0.009736 765024.000000 0 0 1
-22.775490 -26.446641 14.932498 37.962182 0.859844 1.166522 0.046535 -0.013664 728449.000000 0 0 1
-22.340590 -27.728681 15.632698 38.889111 0.892598 1.157117 0.055068 -0.017637 -320594.000000 0 0 1
-23.166190 -28.114601 16.721498 40.083807 0.881597 1.140474 0.056103 -0.014275 430076.000000 0 0 1
-22.522290 -29.187011 17.391698 40.762805 0.913580 1.130004 0.066404 -0.010036 148964.000000 0 0 1
-23.465890 -30.059001 18.293198 42.294593 0.907959 1.123512 0.092378 -0.028898 482562.000000 0 0 1
-24.496690 -30.697791 17.517198 43.003423 0.897279 1.151252 0.061196 -0.025535 522804.000000 0 0 1
-25.027790 -31.731421 18.280298 44.355863 0.902960 1.146008 0.072880 -0.026269 -162373.000000 0 0 1
-25.967470 -32.682951 17.502798 45.264033 0.899402 1.173765 0.055741 -0.030316 339068.000000 0 0 1
-25.172250 -33.356231 16.538698 44.942283 0.924326 1.193941 0.062058 -0.038802 738632.000000 0 0 1
-26.025470 33.554169 15.826598 45.317640 -0.911096 1.214040 0.057872 -0.041038 -514818.000000 0 0 1
-25.347610 32.750051 14.699698 43.944832 -0.912129 1.229718 0.065036 -0.042196 -151648.000000 0 0 1
-24.200990 31.986236 14.979698 42.815868 -0.923081 1.213371 0.059326 -0.038661 612674.000000 0 0 1
-23.016490 32.800690 15.032698 42.797500 -0.958925 1.211889 0.071792 -0.043212 -853274.000000 0 0 1
-21.762890 31.958162 15.052798 41.491375 -0.972949 1.199533 0.071678 -0.045227 -758781.000000 0 0 1
-21.681390 31.141363 13.920798 40.418507 -0.962609 1.219179 0.047368 -0.027499 184607.000000 0 0 1
-20.446690 30.453453 13.828898 39.200999 -0.979518 1.210268 0.056573 -0.030733 157316.000000 0 0 1
-20.355990 29.712173 12.476498 38.116171 -0.970136 1.237322 0.049332 -0.031240 74950.700000 0 0 1
-20.114990 30.567133 11.388698 38.323163 -0.988776 1.269063 0.028501 -0.021202 -5089.670000 0 0 1
-20.580990 29.815643 10.273398 37.657568 -0.966627 1.294483 0.047384 -0.022032 180172.000000 0 0 1
-20.180790 30.442513 8.897398 37.592214 -0.985396 1.331847 0.037336 -0.012743 535754.000000 0 0 1
-18.777690 30.370543 8.653998 36.740484 -1.017039 1.333018 0.038735 -0.021571 153184.000000 0 0 1
-18.317490 30.916393 7.436098 36.696721 -1.035921 1.366747 0.061646 -0.022075 227170.000000 0 0 1
-17.645790 29.842733 6.489098 35.271390 -1.036804 1.385766 0.074031 -0.027355 465900.000000 0 0 1
-18.581690 28.865683 5.956698 34.842346 -0.998842 1.398991 0.055404 -0.018808 422740.000000 0 0 1
-18.636590 27.694423 6.712298 34.049353 -0.978466 1.372362 0.034615 -0.014521 110035.000000 0 0 1
-19.788890 26.767843 6.231898 33.866711 -0.934192 1.385729 0.037783 -0.011640 108241.000000 0 0 1
-19.605490 26.240033 4.922298 33.123157 -0.929116 1.421638 0.053091 -0.025145 -95159.000000 0 0 1
-20.617290 25.332693 4.597398 32.984148 -0.887661 1.430959 0.060353 -0.024866 -853954.000000 0 0 1
-20.262890 24.404973 3.423698 31.904688 -0.877864 1.463279 0.088475 -0.039062 -1161830.000000 0 0 1
-20.225690 25.032373 2.138198 32.253218 -0.891208 1.504454 0.101334 -0.046950 699078.000000 0 0 1
-19.181890 25.995403 1.807498 32.356961 -0.935087 1.514906 0.109119 -0.044179 709529.000000 0 0 1
-17.689790 25.531743 2.014798 31.126483 -0.964882 1.506022 0.105728 -0.047766 203188.000000 0 0 1
-17.244990 24.451023 1.196898 29.944528 -0.956531 1.530815 0.149769 -0.057159 203272.000000 0 0 1
-17.217790 24.763493 -0.187402 30.161531 -0.963239 1.577010 0.136255 -0.058680 -920892.000000 0 0 1
-16.715390 23.590703 -1.000002 28.929665 -0.954350 1.605370 0.135169 -0.060524 -280263.000000 0 0 1
-17.510690 22.393823 -0.984802 28.444285 -0.907163 1.605425 0.144818 -0.073175 187337.000000 0 0 1
-17.144790 21.427423 -1.895602 27.507664 -0.895974 1.639763 0.141266 -0.066398 12329.600000 0 0 1
-15.865690 20.635023 -1.489102 26.071856 -0.915326 1.627943 0.128238 -0.064864 262860.000000 0 0 1
-16.171490 19.755023 -0.462902 25.534139 -0.884816 1.588926 0.128584 -0.064423 382709.000000 0 0 1
-15.073590 18.930123 -0.100702 24.198611 -0.898331 1.574958 0.111741 -0.051954 -253378.000000 0 1 0
-15.510990 17.893523 0.921598 23.698487 -0.856601 1.531898 0.095046 -0.041788 -204928.000000 0 1 0
-16.079590 16.784623 0.330298 23.246201 -0.806848 1.556587 0.071828 -0.039710 169508.000000 0 1 0
-17.069790 16.312423 1.226498 23.642698 -0.762714 1.518897 0.092479 -0.047010 104556.000000 0 1 0
-17.624790 14.927023 0.719498 23.107724 -0.702711 1.539655 0.078452 -0.044106 -177914.000000 0 1 0
-18.439590 14.894323 -0.444502 23.707739 -0.679440 1.589547 0.112252 -0.056213 733466.000000 0 1 0
-19.199290 13.681223 -0.584102 23.582403 -0.619126 1.595567 0.116392 -0.052167 -51068.800000 0 1 0
-20.455990 13.912123 -1.493602 24.783573 -0.597245 1.631099 0.110898 -0.048276 -149867.000000 0 1 0
-21.232090 12.722023 -1.759802 24.814278 -0.539823 1.641775 0.106514 -0.053716 1185210.000000 0 1 0
-21.995690 12.229323 -0.633902 25.174760 -0.507428 1.595979 0.126410 -0.056047 -590537.000000 0 0 1
-23.330990 12.959023 -0.346102 26.690656 -0.507012 1.583764 0.155492 -0.054981 -481890.000000 0 0 1
-23.191690 14.283223 0.168998 27.237722 -0.552012 1.564592 0.171173 -0.060860 1222780.000000 0 0 1
-24.529890 14.788023 0.361598 28.644927 -0.542518 1.558173 0.153327 -0.051427 866728.000000 0 0 1
-24.577990 16.223123 0.985498 29.465887 -0.583420 1.537345 0.167240 -0.055241 -264929.000000 0 0 1
-24.481790 16.121723 2.404898 29.411758 -0.582341 1.488938 0.171650 -0.060788 156315.000000 0 0 1
-24.575190 17.402423 3.038598 30.265778 -0.616161 1.470230 0.150378 -0.051047 -110761.000000 0 0 1
-25.962160 18.082323 3.122498 31.792359 -0.608365 1.472422 0.151617 -0.056456 -1279090.000000 0 0 1
-26.819000 17.457423 4.083498 32.259809 -0.577032 1.443874 0.157714 -0.059026 329162.000000 0 0 1
-28.089930 18.067323 4.175898 33.658735 -0.571577 1.446410 0.148771 -0.064087 77625.800000 0 0 1
-28.984740 17.932923 2.919398 34.208591 -0.554058 1.485351 0.151771 -0.065610 -1419530.000000 0 0 1
-30.284760 18.473523 3.038298 35.604339 -0.547736 1.485357 0.137315 -0.061316 -141982.000000 0 0 1
-31.045180 18.105723 1.969398 35.993040 -0.527979 1.516053 0.122744 -0.052991 -294701.000000 0 0 1
-32.353350 18.942723 1.865098 37.537242 -0.529686 1.521089 0.114123 -0.050491 658477.000000 0 0 1
-33.339060 18.726223 2.891998 38.347464 -0.511774 1.495309 0.126428 -0.046207 754399.000000 0 0 1
-34.502313 19.506723 2.653298 39.723567 -0.514570 1.503952 0.118675 -0.039058 228560.000000 0 0 1
-34.960932 20.227523 3.922098 40.580812 -0.524517 1.473996 0.093689 -0.037933 -322020.000000 0 0 1
-34.029750 21.212323 4.310298 40.330697 -0.557409 1.463718 0.101405 -0.048008 375431.000000 0 0 1
-34.315106 21.804623 5.584998 41.038521 -0.566060 1.434281 0.090611 -0.039965 -600685.000000 0 0 1
-33.166990 22.707123 5.947298 40.632905 -0.600336 1.423902 0.103847 -0.045622 -617624.000000 0 0 1
-33.216890 23.878453 5.122098 41.228366 -0.623275 1.446237 0.081472 -0.037004 861693.000000 0 0 1
-32.158700 24.787653 5.487598 40.972227 -0.656675 1.436458 0.082136 -0.046860 464049.000000 0 0 1
-32.589570 26.285953 5.372998 42.212563 -0.678738 1.443166 0.073946 -0.034138 -369877.000000 0 0 1
-33.407140 26.709313 6.438998 43.253729 -0.674442 1.421375 0.087016 -0.026202 89149.800000 0 0 1
-33.795190 28.087703 6.211398 44.380349 -0.693428 1.430377 0.075309 -0.023078 -138142.000000 0 0 1
-34.772137 28.593703 7.274698 45.602879 -0.688201 1.410589 0.075302 -0.025119 -349615.000000 0 0 1
-34.122219 28.735293 8.541698 45.420298 -0.699906 1.381611 0.084587 -0.024678 731889.000000 0 0 1
-34.892881 29.311073 9.647898 46.580404 -0.698678 1.362163 0.092088 -0.018738 916020.000000 0 0 1
-36.131130 28.500063 10.192798 47.133907 -0.667871 1.352822 0.081056 -0.016417 899677.000000 0 0 1
-35.684197 27.403633 10.987598 46.314666 -0.654890 1.331275 0.095858 -0.025744 444013.000000 0 0 1
-36.807730 26.676443 11.405398 46.867096 -0.627145 1.324972 0.089655 -0.025704 -81195.500000 0 0 1
-36.338750 25.311233 11.976398 45.875891 -0.608397 1.306675 0.101124 -0.028494 411759.000000 0 0 1
-35.373883 25.530343 13.025698 45.527780 -0.625161 1.280638 0.128017 -0.039342 496921.000000 0 0 1
-34.934544 24.340553 13.681498 44.722122 -0.608540 1.259889 0.129499 -0.035561 -377869.000000 0 0 1
-33.838080 24.657923 14.689998 44.371442 -0.629731 1.233360 0.138562 -0.034568 -487512.000000 0 0 1
-34.120602 25.695193 15.561698 45.460146 -0.645463 1.221416 0.138585 -0.032791 -14383.500000 0 0 1
-32.977390 26.100633 16.295398 45.103118 -0.669518 1.201143 0.156900 -0.029848 105778.000000 0 0 1
-33.222850 27.371043 17.093898 46.315581 -0.689123 1.192783 0.150355 -0.030833 -78494.000000 0 0 1
-33.032420 28.542233 16.407298 46.636887 -0.712604 1.211293 0.162455 -0.031384 50251.400000 0 0 1
-33.275910 29.614443 17.267598 47.775217 -0.727244 1.200991 0.135268 -0.027704 14511.500000 0 0 1
-32.919340 30.955483 16.576998 48.132335 -0.754662 1.219192 0.115299 -0.026672 -1391620.000000 0 0 1
-31.587120 31.170213 16.398798 47.310135 -0.778755 1.216827 0.106262 -0.025145 -1877920.000000 0 0 1
-31.364880 32.447368 15.930598 47.857824 -0.802360 1.231447 0.095461 -0.022032 -944364.000000 0 0 1
-29.937220 32.659910 15.425998 46.913412 -0.828866 1.235744 0.110676 -0.030433 -412189.000000 0 0 1
-29.650420 31.946164 14.228998 45.849418 -0.822652 1.255244 0.101439 -0.025224 18487.300000 0 0 1
-29.481440 30.558803 14.423198 44.844446 -0.803340 1.243349 0.107010 -0.029795 -945482.000000 0 0 1
-30.596340 29.596573 13.956798 44.798274 -0.768790 1.253975 0.126571 -0.029882 -97956.500000 0 0 1
-30.637090 29.426973 12.522598 44.287622 -0.765254 1.284130 0.130178 -0.034004 541606.000000 0 0 1
-31.499200 28.288153 12.194898 44.058310 -0.731742 1.290344 0.131694 -0.033345 669251.000000 0 0 1
-31.556250 28.017443 10.682798 43.530405 -0.726066 1.322854 0.116598 -0.027372 77430.900000 0 0 1
-30.348600 27.535573 10.110998 42.207553 -0.736839 1.328890 0.083419 -0.014481 105636.000000 0 0 1
-30.494230 27.078773 8.780998 41.716470 -0.726144 1.358718 0.086355 -0.016359 -153544.000000 0 0 1
-29.250630 26.329803 8.312398 40.223796 -0.732895 1.362643 0.088195 -0.017115 -2826.970000 0 0 1
-29.329950 26.409473 6.922198 40.070226 -0.733051 1.397174 0.086507 -0.031604 -239020.000000 0 0 1
-28.108110 26.023573 6.342798 38.826837 -0.746909 1.406700 0.084102 -0.031575 -61012.200000 0 0 1
-27.981980 26.528113 4.876398 38.865296 -0.758733 1.444996 0.070550 -0.030574 -136833.000000 0 0 1
-27.158950 27.649473 4.668798 39.037156 -0.794348 1.450911 0.050090 -0.017291 74510.700000 0 0 1
-27.022390 27.970743 3.303098 39.031813 -0.802641 1.486069 0.043030 -0.016909 194664.000000 0 0 1
-25.905790 29.011413 3.008698 39.010566 -0.841889 1.493594 0.036069 -0.013166 1926810.000000 0 0 1
-24.524190 28.620693 3.262798 37.831545 -0.862328 1.484444 0.030864 -0.010128 1730770.000000 0 0 1
-23.541690 29.657053 3.117098 37.993002 -0.899849 1.488660 0.030947 -0.008947 413942.000000 0 0 1
-22.136590 29.026993 3.205998 36.645236 -0.919267 1.483197 0.032318 -0.016331 11020.000000 0 0 1
-21.188090 29.943523 2.720398 36.782472 -0.954987 1.496770 0.038896 -0.013271 774455.000000 0 0 1
-19.805090 29.610993 2.981698 35.748328 -0.981289 1.487291 0.061611 -0.027317 1524380.000000 0 0 1
-18.738090 30.640883 2.549998 36.006696 -1.021936 1.499917 0.070969 -0.028821 196298.000000 0 0 1
-18.807790 31.918117 3.231398 37.187915 -1.038318 1.483793 0.069861 -0.024881 -203383.000000 0 0 1
-17.703990 32.718854 2.909898 37.315174 -1.074816 1.492735 0.091741 -0.029123 -372746.000000 0 0 1
-17.451890 33.886093 3.894298 38.314505 -1.095208 1.468980 0.087524 -0.026198 -431536.000000 0 0 1
-18.379690 -32.872911 3.895098 37.863083 1.060983 1.467741 0.082189 -0.021932 -341745.000000 0 0 1
-17.973390 -31.783891 4.690398 36.813833 1.056140 1.443040 0.065273 -0.027749 -122349.000000 0 0 1
-19.010990 -30.662511 4.723498 36.385694 1.015795 1.440611 0.074793 -0.014599 -153342.000000 0 0 1
-19.280090 -30.014451 3.519098 35.846522 0.999811 1.472467 0.093445 -0.018400 763562.000000 0 0 1
-20.417890 -29.153121 3.707198 35.784605 0.959824 1.467013 0.089827 -0.023669 115095.000000 0 0 1
-20.699290 -28.067231 2.671498 34.976662 0.935350 1.494342 0.098821 -0.026060 34024.200000 0 0 1
-19.798990 -26.971021 2.722198 33.568531 0.937560 1.489613 0.104328 -0.027742 191186.000000 0 0 1
-20.012890 -26.075281 1.641998 32.910973 0.916186 1.520883 0.098162 -0.030683 811716.000000 0 0 1
-18.832990 -25.016621 1.590498 31.353508 0.925493 1.520047 0.088403 -0.027478 991126.000000 0 0 1
-17.649090 -25.443881 0.960598 30.980706 0.964346 1.539785 0.133324 -0.034254 -862230.000000 0 0 1
-16.671590 -24.460761 0.965598 29.617614 0.972551 1.538188 0.111641 -0.026780 -154970.000000 0 0 1
-15.347190 -24.937061 0.313998 29.282961 1.019103 1.560073 0.098693 -0.024122 -130703.000000 0 0 1
-15.327890 -24.943761 -1.092902 29.297266 1.019785 1.608109 0.090120 -0.020123 102412.000000 0 0 1
-15.399990 -23.626861 -1.705402 28.254143 0.993157 1.631192 0.088924 -0.019000 -159290.000000 0 0 1
-15.588790 -23.686061 -3.236302 28.539682 0.988719 1.684437 0.046599 -0.007192 447365.000000 0 0 1
-14.381190 -24.211961 -3.781302 28.413657 1.034822 1.704273 0.080766 -0.008666 472999.000000 0 0 1
-14.489090 -24.061361 -5.182902 28.561254 1.028781 1.753274 0.058262 -0.005644 -11099.900000 0 0 1
-13.301990 -24.673461 -5.921202 28.649314 1.076344 1.778975 0.078291 -0.008931 -145891.000000 0 0 1
-13.319990 -26.080351 -6.007202 29.894703 1.098602 1.773119 0.055861 -0.009908 -262302.000000 0 0 1
-12.204190 -26.632331 -6.666502 30.044392 1.141105 1.794547 0.061923 -0.003235 102371.000000 0 0 1
24.036310 12.899539 28.329820 39.328374 0.492551 0.766503 0.073896 -0.008431 218245.000000 0 0 1
25.159810 12.044739 28.542990 39.909824 0.446487 0.773905 0.074144 -0.011477 659147.000000 0 0 1
24.852110 11.057639 29.531430 40.149771 0.418636 0.744345 0.098606 -0.017988 -103815.000000 0 0 1
24.814410 11.607639 30.999260 41.369631 0.437540 0.723756 0.124883 -0.038040 345032.000000 0 0 1
23.667410 12.412739 31.272130 41.135976 0.483028 0.707154 0.118844 -0.029213 261911.000000 0 0 1
23.639610 12.895739 32.576885 42.265645 0.499393 0.690755 0.108900 -0.026111 -21341.400000 0 0 1
22.503510 13.849839 33.064857 42.326243 0.551704 0.674226 0.093982 -0.027352 326023.000000 0 0 1
21.276410 13.236639 33.373146 41.733214 0.556531 0.644037 0.107860 -0.026856 -442255.000000 0 0 1
20.335110 14.100939 33.897850 41.969244 0.606302 0.630584 0.099164 -0.018828 -123687.000000 0 0 1
19.138310 13.419639 -33.190042 40.594834 0.611526 2.528014 0.091328 -0.005886 469011.000000 0 0 1
18.177810 12.950139 33.663520 40.390240 0.619009 0.585462 0.078143 -0.004213 663911.000000 0 0 1
17.059710 12.327339 -33.516162 39.576889 0.625733 2.580853 0.066939 -0.003918 703524.000000 0 0 1
15.721710 12.184739 33.531475 38.987176 0.659327 0.535401 0.062609 0.000297 367752.000000 0 0 1
15.691310 11.247939 32.545073 37.840655 0.621930 0.535417 0.058318 0.010823 -1207550.000000 0 0 1
14.418610 10.911639 32.128170 36.867052 0.647823 0.512625 0.061285 0.011875 -689719.000000 0 0 1
14.344410 9.802539 31.065310 35.593614 0.599477 0.509932 0.066269 0.011633 -16351.900000 0 0 1
14.569810 8.475039 31.544310 35.765195 0.526844 0.490742 0.045530 0.008547 -173105.000000 0 0 1
15.172810 7.750739 30.505540 34.941038 0.472275 0.509358 0.067879 -0.012549 146347.000000 0 0 1
15.663410 6.302139 30.950570 35.256165 0.382529 0.499386 0.102553 -0.021320 257719.000000 0 0 1
14.601210 5.474639 31.402780 35.061398 0.358722 0.460903 0.100842 -0.016340 183204.000000 0 0 1
15.080810 4.133039 31.622220 35.277155 0.267492 0.459231 0.096219 -0.022154 -443894.000000 0 0 1
14.032010 3.168539 32.089263 35.166145 0.222083 0.421431 0.074777 -0.012725 -694822.000000 0 0 1
14.564210 1.931739 32.518654 35.683479 0.131866 0.424346 0.070351 -0.017292 -62425.700000 0 0 1
13.541510 0.995139 32.823215 35.520786 0.073356 0.392236 0.078229 -0.021975 -133128.000000 0 0 1
13.988310 -0.322861 33.501942 36.306434 -0.023077 0.395627 0.063648 -0.031982 -195567.000000 0 0 1
14.577810 -1.113761 32.486854 35.625113 -0.076253 0.422885 0.066140 -0.027151 -26556.000000 0 0 1
14.899810 -2.381261 32.980232 36.268036 -0.158478 0.429084 0.109429 -0.044406 -152161.000000 0 0 1
15.338610 -3.374261 31.825872 35.490065 -0.216536 0.458416 0.123647 -0.043820 -685643.000000 0 0 1
15.597710 -4.670661 32.306110 36.177180 -0.290948 0.466836 0.132400 -0.052049 1746810.000000 0 0 1
16.933910 -4.903261 32.885708 37.313122 -0.281845 0.492096 0.097362 -0.046866 2064900.000000 0 0 1
18.240210 -4.728061 32.064229 37.191056 -0.253629 0.531300 0.106337 -0.050575 -186733.000000 0 0 1
18.401710 -3.378561 31.820989 36.913588 -0.181578 0.531515 0.109704 -0.052069 467610.000000 0 0 1
19.535710 -3.059961 30.979550 36.752413 -0.155372 0.568098 0.118269 -0.053937 659291.000000 0 0 1
19.600610 -1.548661 30.698000 36.454759 -0.078847 0.569659 0.125795 -0.052908 -316257.000000 0 0 1
20.084010 -0.783561 31.779727 37.602294 -0.038994 0.563943 0.105739 -0.045543 -109.176000 0 0 1
19.713710 0.564139 31.762470 37.387205 0.028609 0.555656 0.102178 -0.038575 12747.600000 0 0 1
20.938110 1.451139 31.444290 37.805471 0.069195 0.588563 0.128798 -0.039686 -45640.700000 0 0 1
21.407510 1.463539 30.116590 36.978811 0.068259 0.619053 0.145881 -0.044242 -366411.000000 0 0 1
22.118510 2.653939 29.781740 37.191719 0.119416 0.642229 0.115977 -0.040297 -152979.000000 0 0 1
21.429610 4.059739 29.676890 36.829709 0.187227 0.633794 0.107845 -0.023077 -278139.000000 0 0 1
21.129310 4.599339 30.933520 37.742342 0.214332 0.610089 0.115222 -0.026852 50043.500000 0 0 1
20.384010 5.779239 30.731020 37.326975 0.276268 0.603609 0.115183 -0.025937 -26471.900000 0 0 1
19.728810 6.331639 32.001347 38.123508 0.310550 0.574595 0.118678 -0.026292 507326.000000 0 0 1
18.719710 5.485239 32.605688 37.995346 0.285040 0.539142 0.085059 -0.015971 544876.000000 0 0 1
18.404810 5.967739 -33.900492 39.033246 0.313552 2.622971 0.067681 -0.016450 -222894.000000 0 0 1
17.349410 5.093939 -33.219642 37.821883 0.285583 2.643129 0.073294 -0.012340 -517337.000000 0 0 1
17.763310 3.742439 -33.078092 37.731965 0.207647 2.639671 0.059245 -0.011847 48287.500000 0 0 1
16.785110 2.856539 -32.557852 36.741168 0.168568 2.659746 0.051409 -0.008499 -229743.000000 0 0 1
17.090110 1.423739 -32.992362 37.183260 0.083116 2.662234 0.062341 -0.028123 351702.000000 0 0 1
18.224310 0.879839 -32.315972 37.110937 0.048241 2.627611 0.050284 -0.023386 379205.000000 0 0 1
18.298710 -0.507461 -32.532082 37.328764 -0.027725 2.629053 0.072992 -0.025794 -151113.000000 0 0 1
19.226110 -1.219161 -31.543792 36.961337 -0.063327 2.593321 0.082017 -0.023651 -284122.000000 0 0 1
18.808110 -1.297061 -30.189222 35.592366 -0.068854 2.583362 0.090972 -0.031872 234618.000000 0 0 1
18.735610 -0.069361 -29.444452 34.899909 -0.003702 2.574903 0.073040 -0.026734 -161984.000000 0 0 1
18.380110 -0.205161 -27.969262 33.468644 -0.011162 2.560176 0.086529 -0.028582 207490.000000 0 0 1
17.114110 -0.800661 -27.725112 32.591650 -0.046750 2.588077 0.104376 -0.035677 214041.000000 0 0 1
16.858110 -0.993361 -26.353882 31.300315 -0.058857 2.571718 0.098481 -0.041497 405252.000000 0 0 1
17.796010 -2.039161 -25.622152 31.262610 -0.114088 2.531471 0.105320 -0.034850 334190.000000 0 0 1
19.026110 -1.519761 -25.137652 31.562701 -0.079708 2.492174 0.109533 -0.031348 641487.000000 0 0 1
20.022310 -2.540561 -24.878302 32.035562 -0.126212 2.460022 0.101029 -0.027592 1037890.000000 0 0 1
20.850410 -3.041361 -26.117892 33.557916 -0.144844 2.462739 0.102666 -0.031224 -652186.000000 0 0 1
21.953610 -2.272961 -26.443262 34.443772 -0.103167 2.446076 0.090066 -0.022350 -725954.000000 0 0 1
22.201910 -2.475161 -27.830352 35.687249 -0.111026 2.465207 0.093140 -0.028757 786439.000000 0 0 1
23.641510 -1.996861 -28.258472 36.897828 -0.084264 2.443170 0.079841 -0.023992 692048.000000 0 0 1
24.621410 -2.899461 -27.825522 37.267685 -0.117222 2.413792 0.075035 -0.028917 -1177450.000000 0 0 1
25.874810 -2.565561 -28.305472 38.435500 -0.098830 2.398590 0.056556 -0.030794 -250992.000000 0 0 1
26.999610 -3.539861 -27.830672 38.936562 -0.130364 2.367091 0.062667 -0.032685 134471.000000 0 0 1
27.195410 -4.682861 -28.654592 39.781970 -0.170521 2.375018 0.075116 -0.041772 -131655.000000 0 0 1
28.360210 -5.383861 -28.337092 40.450936 -0.187606 2.346936 0.073047 -0.045881 -240296.000000 0 0 1
28.183910 -6.424661 -27.175462 39.675115 -0.224125 2.325331 0.069312 -0.036131 -179708.000000 0 0 1
28.255010 -5.892261 -25.864222 38.755933 -0.205592 2.301457 0.066363 -0.026581 321480.000000 0 0 1
27.906610 -6.936861 -24.985502 38.094281 -0.243636 2.286152 0.048943 -0.016620 -293297.000000 0 0 1
28.001010 -6.547361 -23.490702 37.131356 -0.229699 2.255751 0.036376 -0.007231 -942171.000000 0 0 1
29.313410 -6.419561 -23.076802 37.855324 -0.215594 2.226359 0.036074 -0.008517 -663939.000000 0 0 1
29.425410 -5.727161 -21.831802 37.084804 -0.192230 2.200245 0.042336 -0.012671 -431731.000000 0 0 1
30.880010 -5.425461 -21.458602 37.993187 -0.173920 2.170989 0.050858 -0.013223 -287629.000000 0 0 1
31.461210 -4.349561 -22.187402 38.742835 -0.137381 2.180573 0.068028 -0.018983 -1078890.000000 0 0 1
32.733110 -3.994661 -21.867202 39.567516 -0.121437 2.156343 0.076421 -0.017020 -1228820.000000 0 0 1
33.222110 -2.719061 -22.609602 40.277736 -0.081663 2.166803 0.094201 -0.023952 -131173.000000 0 0 1
32.675810 -1.499761 -22.163702 39.511866 -0.045866 2.166315 0.082065 -0.021532 172859.000000 0 0 1
33.360410 -0.372561 -22.614902 40.304957 -0.011167 2.166504 0.100501 -0.026444 134797.000000 0 0 1
32.405810 0.818939 -22.383202 39.393082 0.025266 2.175115 0.090805 -0.019444 686236.000000 0 0 1
31.265710 0.906039 -23.245902 38.970983 0.028971 2.209920 0.080055 -0.015562 793559.000000 0 0 1
30.310610 1.820239 -22.718902 37.923540 0.059981 2.213137 0.064579 -0.008422 763989.000000 0 0 1
29.066910 1.905839 -23.693302 37.548503 0.065474 2.253645 0.047396 -0.006334 884885.000000 0 0 1
27.962510 2.651339 -23.184902 36.420753 0.094535 2.260858 0.037009 -0.005737 855347.000000 0 0 1
26.995210 2.976939 -24.193102 36.371826 0.109833 2.298505 0.065902 -0.014036 108186.000000 0 0 1
25.839410 3.824039 -23.678602 35.255845 0.146926 2.307192 0.066617 -0.013300 -490169.000000 0 0 1
26.335410 5.082639 -23.180702 35.450416 0.190652 2.283512 0.046215 -0.007323 -9070.410000 0 0 1
25.309110 6.023139 -23.076302 34.775638 0.233637 2.296386 0.063446 -0.006505 -604597.000000 0 0 1
25.726510 7.424039 -22.564102 35.015830 0.280943 2.271031 0.061244 0.004355 -257673.000000 0 0 1
26.553510 8.090839 -23.488902 36.363156 0.295763 2.273068 0.063428 0.000349 5419.720000 0 0 1
26.827510 9.415639 -23.071602 36.615139 0.337538 2.252492 0.072231 0.001544 -185859.000000 0 0 1
27.759110 10.163239 -24.061702 38.115943 0.350965 2.253994 0.105495 0.000743 -251087.000000 0 0 1
27.298810 10.536539 -25.358472 38.720741 0.368354 2.284855 0.132823 -0.016969 -484029.000000 0 0 1
26.247110 11.436939 -25.404752 38.276831 0.410933 2.296565 0.134139 -0.017572 -356199.000000 0 0 1
25.974110 11.933139 -26.817092 39.194523 0.430664 2.324309 0.143481 -0.020503 -191796.000000 0 0 1
25.476910 10.999839 -27.783392 39.268133 0.407580 2.356794 0.131949 -0.022598 -66675.000000 0 0 1
26.327610 9.967139 -28.189562 39.838905 0.361907 2.356876 0.124470 -0.033675 -462342.000000 0 0 1
27.343710 10.310039 -29.288652 41.373911 0.360570 2.357319 0.125131 -0.035821 -503369.000000 0 0 1
28.480810 11.003539 -28.756102 41.942196 0.368683 2.326241 0.122702 -0.038153 521834.000000 0 0 1
29.478910 11.321039 -29.683662 43.339265 0.366671 2.325282 0.129620 -0.041490 184783.000000 0 0 1
30.339310 10.226239 -30.348782 44.114604 0.325103 2.329461 0.109761 -0.039274 -1022840.000000 0 0 1
29.589010 9.430739 -31.188442 44.013262 0.308545 2.358329 0.101856 -0.043749 -230623.000000 0 0 1
30.207710 8.178339 -31.424752 44.349814 0.264398 2.358260 0.095242 -0.037406 -508466.000000 0 0 1
29.434710 7.304739 -32.418072 44.392485 0.243253 2.389499 0.100320 -0.047505 180463.000000 0 0 1
28.280710 6.815339 -31.744662 43.057763 0.236480 2.399798 0.117428 -0.045744 92654.400000 0 0 1
27.281510 6.345239 -32.649922 43.018139 0.228521 2.432542 0.099277 -0.035712 293034.000000 0 0 1
25.948710 6.106639 -31.883552 41.559445 0.231129 2.445229 0.114346 -0.030332 -17860.500000 0 0 1
25.334310 7.399039 -31.660632 41.218548 0.284153 2.446690 0.119718 -0.029909 -229804.000000 0 0 1
24.281510 7.329539 -30.752202 39.862411 0.293159 2.451927 0.119451 -0.032238 419406.000000 0 0 1
22.805310 7.154539 -31.224832 39.322509 0.303998 2.488273 0.123364 -0.032801 415608.000000 0 0 1
22.255310 8.313039 -31.768702 39.669332 0.357482 2.499489 0.124369 -0.028262 -30986.600000 0 0 1
20.909710 8.140539 -32.180332 39.230831 0.371265 2.532700 0.103953 -0.021415 422255.000000 0 0 1
20.417910 9.223739 -33.218942 40.068273 0.424306 2.548218 0.110538 -0.017310 -34557.200000 0 0 1
21.054610 8.964239 33.371532 40.463729 0.402515 0.601077 0.108605 -0.022319 -103244.000000 0 0 1
21.065710 9.988539 32.410012 39.924228 0.442764 0.623589 0.103611 -0.018995 -205673.000000 0 0 1
19.874010 10.086239 31.445990 38.542948 0.469637 0.616566 0.100475 -0.015851 -56369.500000 0 0 1
19.774010 9.098639 30.409820 37.397244 0.431247 0.621241 0.095521 -0.018820 -191541.000000 0 0 1
20.713310 9.189739 29.354090 37.083084 0.417572 0.657412 0.112167 -0.022247 -424772.000000 0 0 1
20.437210 10.250539 28.226390 36.324678 0.464897 0.680818 0.116249 -0.015002 -278125.000000 0 0 1
19.381810 9.860839 27.411810 34.989971 0.470637 0.670648 0.098834 -0.010747 -217512.000000 0 0 1
18.115210 10.373139 27.785260 34.753180 0.520044 0.644330 0.089208 -0.023280 -179819.000000 0 0 1
16.955010 9.562039 27.183670 33.434367 0.513502 0.621432 0.111708 -0.025489 -361966.000000 0 0 1
16.678010 9.830339 25.845990 32.292519 0.532603 0.642883 0.109813 -0.019390 -473730.000000 0 0 1
15.442410 9.451339 25.331720 31.136665 0.549224 0.620538 0.121422 -0.027333 -454009.000000 0 0 1
15.243910 7.920339 24.962230 30.302170 0.479184 0.602755 0.129982 -0.029918 -138993.000000 0 0 1
15.133710 7.147639 26.125030 31.026362 0.441242 0.569767 0.121644 -0.033251 1406.350000 0 0 1
14.893710 5.815739 25.733850 30.296476 0.372275 0.555948 0.128790 -0.034276 -10405.000000 0 0 1
15.117310 4.875339 26.935490 31.270156 0.311969 0.532816 0.134338 -0.031346 116997.000000 0 0 1
16.447010 4.445339 27.139180 32.043725 0.263975 0.560589 0.136065 -0.034175 137106.000000 0 0 1
16.721610 4.111439 28.461770 33.265426 0.241093 0.544095 0.122799 -0.032934 -87042.000000 0 0 1
17.717810 2.943839 28.687190 33.845855 0.164647 0.559381 0.143537 -0.035528 59140.000000 0 0 1
17.216210 1.613839 28.440010 33.284179 0.093466 0.546285 0.134663 -0.040400 67884.000000 0 0 1
16.430710 1.131139 29.508150 33.793174 0.068735 0.509069 0.113736 -0.037315 -30343.400000 0 0 1
16.161110 -0.357861 29.503170 33.641442 -0.022140 0.501237 0.105394 -0.031217 -69586.900000 0 0 1
15.403610 -1.020861 28.458270 32.375709 -0.066177 0.497034 0.110672 -0.035254 364995.000000 0 0 1
15.971610 -1.165961 27.173400 31.541171 -0.072873 0.532537 0.134626 -0.037471 -511906.000000 0 0 1
17.236310 -2.038161 27.105490 32.186210 -0.117702 0.569546 0.131755 -0.031288 2384710.000000 0 0 1
18.590510 -1.644361 27.600760 33.318358 -0.088222 0.594560 0.133478 -0.042405 2466490.000000 0 0 1
19.157410 -0.472261 26.992950 33.103606 -0.024647 0.617362 0.133374 -0.040273 -92367.900000 0 0 1
20.639810 -0.327561 27.460390 34.353778 -0.015869 0.644598 0.121494 -0.040386 168377.000000 0 0 1
21.491010 -1.181061 26.774420 34.352991 -0.054901 0.677103 0.102428 -0.035227 412367.000000 0 0 1
22.869110 -0.815161 27.068850 35.445498 -0.035630 0.701809 0.090769 -0.035070 2052650.000000 0 0 1
23.892610 -1.582061 26.096780 35.417533 -0.066119 0.742424 0.073131 -0.021269 499331.000000 0 0 1
23.929410 -1.226961 24.724980 34.430317 -0.051229 0.769704 0.076954 -0.003761 -631917.000000 0 0 1
22.830710 -1.555161 23.961880 33.133541 -0.068012 0.762385 0.092768 0.005741 -756514.000000 0 0 1
23.079010 -1.008661 22.559250 32.288975 -0.043677 0.797263 0.084792 -0.018270 145746.000000 0 0 1
22.769910 0.358239 22.524650 32.030564 0.015732 0.790875 0.091238 -0.020521 169698.000000 0 0 1
23.161010 0.867239 21.236950 31.435530 0.037426 0.829057 0.058089 -0.016023 -113642.000000 0 0 1
-31.228010 -27.115244 -9.836302 42.510914 0.715022 1.804295 0.037954 0.013596 162580.000000 0 0 1
-31.221190 -25.978944 -9.031602 41.608148 0.694006 1.789601 0.041691 0.013616 -238876.000000 0 0 1
-31.696820 -26.373744 -7.743802 41.955085 0.693988 1.756434 0.049314 0.001620 -554423.000000 0 0 1
-31.787220 -25.161444 -6.739602 41.096810 0.669572 1.735534 0.092647 -0.012608 723051.000000 0 0 1
-30.558820 -24.430544 -6.567002 39.671380 0.674411 1.737097 0.111676 -0.014661 -214685.000000 0 0 1
-29.707620 -25.128644 -5.711702 39.327025 0.702089 1.716548 0.102398 -0.015254 -703570.000000 0 0 1
-28.476610 -24.300244 -5.289502 37.807380 0.706430 1.711163 0.098858 -0.017587 -502343.000000 0 0 1
-28.616760 -23.292744 -4.352702 37.153961 0.683192 1.688219 0.118255 -0.021701 153682.000000 0 0 1
-29.372110 -22.166744 -4.806102 37.110429 0.646494 1.700669 0.134803 -0.021048 -24220.300000 0 0 1
-29.269970 -20.965344 -3.896002 36.214025 0.621565 1.678588 0.121592 -0.027197 446737.000000 0 0 1
-28.069480 -20.199944 -4.076602 34.821719 0.623786 1.688136 0.132736 -0.025732 763003.000000 0 0 1
-27.949700 -19.238644 -3.026302 34.065666 0.602851 1.659751 0.151994 -0.019705 267751.000000 0 0 1
-27.008490 -18.013844 -3.311602 32.633170 0.588212 1.672451 0.141922 -0.015482 245549.000000 0 0 1
-27.477000 -17.131044 -4.310102 32.665504 0.557497 1.703129 0.125308 -0.023146 409125.000000 0 0 1
-26.626480 -15.980644 -4.541402 31.384307 0.540551 1.716009 0.113252 -0.023829 102946.000000 0 0 1
-27.133910 -14.990044 -5.579302 31.497287 0.504720 1.748872 0.113064 -0.041854 125035.000000 0 0 1
-28.376390 -14.363044 -5.287202 32.240828 0.468565 1.735531 0.097106 -0.027407 328160.000000 0 0 1
-28.623450 -13.257844 -6.103802 32.129872 0.433761 1.761931 0.133318 -0.050916 124851.000000 0 0 1
-29.994710 -12.587344 -5.822302 33.045772 0.397332 1.747910 0.115670 -0.037626 275627.000000 0 0 1
-31.097440 -13.322744 -6.295202 34.411856 0.404763 1.754769 0.119499 -0.032066 -120628.000000 0 0 1
-32.314080 -12.647744 -6.189502 35.248760 0.373071 1.747306 0.105551 -0.032761 619583.000000 0 0 1
-33.565970 -13.368344 -6.855202 36.774729 0.379015 1.758304 0.072781 -0.024632 638653.000000 0 0 1
-34.016310 -14.592344 -6.214902 37.532264 0.405238 1.737151 0.080342 -0.027524 323440.000000 0 0 1
-34.265999 -15.510144 -7.225802 38.300593 0.425047 1.760594 0.082571 -0.026633 -1266570.000000 0 0 1
-35.085478 -16.710744 -6.709502 39.436749 0.444498 1.741761 0.086233 -0.026175 511820.000000 0 0 1
-36.486350 -16.487944 -6.568802 40.574070 0.424427 1.733409 0.078143 -0.036001 275128.000000 0 0 1
-36.978780 -15.578244 -5.653102 40.522455 0.398712 1.710758 0.086764 -0.039803 -221078.000000 0 0 1
36.203752 -15.659144 -5.491702 39.825611 -0.408230 1.709131 0.126810 -0.042650 -131509.000000 0 0 1
35.510042 -15.191144 -6.636602 39.189009 -0.404239 1.740965 0.138359 -0.038207 921136.000000 0 0 1
34.089682 -15.270644 -6.443902 37.905446 -0.421152 1.741625 0.154738 -0.048957 1122430.000000 0 0 1
33.348702 -14.316344 -5.419802 36.694249 -0.405501 1.719040 0.162898 -0.056509 -604247.000000 0 0 1
33.403132 -14.887444 -4.077302 36.797141 -0.419264 1.681829 0.166230 -0.058293 355113.000000 0 0 1
32.951512 -13.988244 -3.081902 35.930088 -0.401455 1.656677 0.186498 -0.046984 -743913.000000 0 0 1
32.880212 -14.492544 -1.622302 35.969071 -0.415150 1.615914 0.181111 -0.046577 767482.000000 0 0 1
34.165082 -14.842244 -1.064802 37.264982 -0.409828 1.599374 0.208731 -0.040751 1063430.000000 0 0 1
34.908732 -15.891844 -1.678402 38.392543 -0.427203 1.614527 0.179488 -0.040894 -697106.000000 0 0 1
34.254992 -17.319244 -1.587702 38.417203 -0.468116 1.612136 0.169302 -0.048572 -520326.000000 0 0 1
34.653512 -18.142844 -0.494802 39.118711 -0.482310 1.583445 0.156480 -0.048310 151710.000000 0 0 1
34.622122 -19.556944 -0.850702 39.772969 -0.514187 1.592187 0.133183 -0.042998 235303.000000 0 0 1
35.797792 -20.087644 -1.738902 41.085510 -0.511357 1.613133 0.107855 -0.048140 115160.000000 0 0 1
35.996702 -19.482544 -2.967102 41.038223 -0.496086 1.643160 0.079132 -0.043357 187394.000000 0 0 1
36.892272 -20.226344 -3.794702 42.243869 -0.501502 1.660746 0.094254 -0.034779 82087.800000 0 0 1
36.971732 -19.690844 -5.220502 42.212462 -0.489380 1.694786 0.121465 -0.040133 79121.900000 0 0 1
35.785672 -19.890344 -5.977602 41.375981 -0.507300 1.715774 0.103082 -0.046491 483344.000000 0 0 1
35.709072 -19.095244 -7.148202 41.120104 -0.491056 1.745521 0.108410 -0.045796 -13003.900000 0 0 1
34.418632 -19.351244 -7.961502 40.280248 -0.512186 1.769759 0.121347 -0.050529 83231.300000 0 0 1
34.640262 -20.306044 -8.933202 41.134964 -0.530209 1.789709 0.125563 -0.053917 1183250.000000 0 0 1
33.382882 -20.614544 -9.573202 40.385919 -0.553201 1.810117 0.120060 -0.052406 624460.000000 0 0 1
33.279262 -21.938144 -10.331802 41.176906 -0.582825 1.824419 0.111311 -0.037624 -324406.000000 0 0 1
33.161312 -23.022044 -9.482702 41.468166 -0.606852 1.801512 0.093762 -0.035831 84472.700000 0 0 1
32.717202 -24.166444 -10.214702 41.937721 -0.636195 1.816840 0.081018 -0.022197 65316.800000 0 0 1
31.877892 -25.104644 -9.285302 41.625233 -0.667088 1.795758 0.077604 -0.023087 1156570.000000 0 0 1
30.641772 -24.608744 -8.735302 40.259334 -0.676635 1.789512 0.086335 -0.030127 501404.000000 0 0 1
29.650202 -25.575944 -8.582402 40.086419 -0.711757 1.786564 0.063162 -0.031302 -872354.000000 0 0 1
28.269902 -25.078444 -8.248802 38.680207 -0.725646 1.785703 0.071901 -0.044269 -844929.000000 0 0 1
27.685702 -24.600344 -9.432002 38.218290 -0.726457 1.820166 0.073586 -0.034197 -1430060.000000 0 0 1
26.466402 -24.010544 -9.324302 36.931278 -0.736783 1.826036 0.081439 -0.043127 -1362640.000000 0 0 1
25.864202 -23.601544 -10.667902 36.603196 -0.739688 1.866536 0.111173 -0.044449 -192663.000000 0 0 1
25.157002 -24.624944 -11.368102 36.993193 -0.774711 1.883153 0.086807 -0.037074 274042.000000 0 0 1
24.304602 -24.097544 -12.335502 36.380900 -0.781120 1.916720 0.097757 -0.019394 -252774.000000 0 0 1
23.315602 -25.081244 -12.987502 36.624600 -0.821865 1.933295 0.101876 -0.029496 -503925.000000 0 0 1
23.934802 -26.074444 -13.698302 37.952534 -0.828157 1.940064 0.107551 -0.020782 92220.200000 0 0 1
23.198202 -27.286244 -13.733302 38.357519 -0.866198 1.936958 0.102446 -0.014422 94617.500000 0 0 1
24.150002 -28.362844 -14.285102 39.896587 -0.865452 1.936978 0.079583 -0.017394 67032.700000 0 0 1
24.432402 -28.301544 -15.653202 40.533226 -0.858638 1.967285 0.083113 -0.011513 235434.000000 0 0 1
24.705902 -29.571944 -16.176002 41.791680 -0.874810 1.968240 0.074241 -0.004168 -190942.000000 0 0 1
24.741602 -29.727944 -17.705502 42.536835 -0.876687 2.000102 0.084316 -0.010060 510955.000000 0 0 1
23.459202 -29.423744 -18.264302 41.829124 -0.897711 2.022658 0.082431 -0.007578 559204.000000 0 0 1
23.343102 -29.729944 -19.634002 42.594178 -0.905163 2.049867 0.075379 -0.003707 436857.000000 0 0 1
21.888402 -29.495544 -20.151302 41.894680 -0.932376 2.072590 0.057043 -0.001435 523168.000000 0 0 1
21.804002 -29.569844 -21.565602 42.601236 -0.935426 2.101592 0.045162 -0.001355 -595727.000000 0 0 1
20.464302 -29.468144 -21.912702 42.039572 -0.963801 2.119099 0.052951 -0.014980 -810156.000000 0 0 1
20.099602 -29.778544 -23.398202 42.874602 -0.977068 2.148063 0.057481 -0.016621 -118715.000000 0 0 1
20.689202 -28.830544 -24.311102 43.014800 -0.948346 2.171448 0.065582 -0.022248 614635.000000 0 0 1
20.453902 -29.200244 -25.670462 43.931640 -0.959755 2.194847 0.070401 -0.024709 -162205.000000 0 0 1
21.047202 -28.104344 -26.564822 44.028725 -0.928003 2.218494 0.083132 -0.031006 355212.000000 0 0 1
20.234002 -26.925544 -26.635472 42.940052 -0.926349 2.239914 0.084078 -0.036262 569662.000000 0 0 1
19.249002 -26.919844 -27.661282 43.131758 -0.950042 2.267014 0.111245 -0.044385 347743.000000 0 0 1
18.418202 -25.606144 -27.819302 42.057322 -0.947242 2.293562 0.105117 -0.036907 311541.000000 0 0 1
17.534402 -25.269644 -26.759822 40.768839 -0.964181 2.286806 0.086614 -0.018249 4182.770000 0 0 1
16.941802 -24.012444 -26.971052 39.888090 -0.956360 2.313345 0.070534 -0.017023 -1642.430000 0 0 1
15.818102 -23.710644 -25.951932 38.547500 -0.982472 2.309386 0.072896 -0.019340 992923.000000 0 0 1
14.611702 -24.516744 -26.128732 38.694744 -1.033332 2.312104 0.104169 -0.022161 1117130.000000 0 0 1
13.511302 -24.229944 -25.274462 37.529240 -1.062115 2.309676 0.081490 -0.017420 520597.000000 0 0 1
13.668702 -24.580644 -23.765102 36.821482 -1.063300 2.272362 0.075280 -0.012793 -617514.000000 0 0 1
14.514902 -23.712744 -23.085402 36.137410 -1.021517 2.263764 0.057723 -0.014015 -522989.000000 0 0 1
14.859502 -24.085144 -21.799202 35.722600 -1.018002 2.227154 0.055185 -0.028332 -208472.000000 0 0 1
16.156802 -23.466644 -21.287402 35.565139 -0.967830 2.212482 0.052707 -0.038998 -194622.000000 0 0 1
16.003702 -22.131144 -20.953002 34.422874 -0.944715 2.225210 0.038794 -0.041263 256512.000000 0 0 1
17.292202 -21.629544 -20.652802 34.545559 -0.896378 2.211603 0.053892 -0.039180 167909.000000 0 0 1
17.140402 -20.167444 -20.175202 33.279993 -0.866358 2.222103 0.061549 -0.029495 212372.000000 0 0 1
16.410902 -19.968844 -18.976102 32.065010 -0.882888 2.204087 0.057579 -0.025146 -186566.000000 0 0 1
15.091302 -19.560144 -19.218902 31.300364 -0.913656 2.231934 0.056002 -0.026508 -175480.000000 0 0 1
14.138802 -19.582144 -17.985502 30.113856 -0.945441 2.210864 0.062357 -0.027209 148695.000000 0 0 1
14.557602 -18.681744 -17.043602 29.179028 -0.908841 2.194573 0.074635 -0.030588 -143900.000000 0 0 1
13.823902 -18.867644 -15.867402 28.264159 -0.938474 2.166869 0.076767 -0.031900 -128120.000000 0 0 1
13.725402 -17.574744 -15.043602 26.899224 -0.907765 2.164287 0.090851 -0.037077 -105214.000000 0 0 1
12.559302 -16.825844 -15.325202 25.994363 -0.929584 2.201309 0.097147 -0.045085 -96930.000000 0 0 1
12.677702 -15.595844 -14.692802 24.896443 -0.888245 2.202049 0.100231 -0.037675 396309.000000 0 1 0
11.340502 -14.884944 -14.291102 23.545788 -0.919737 2.223013 0.103869 -0.033548 608027.000000 0 1 0
10.447702 -14.518144 -15.358702 23.575850 -0.947017 2.280302 0.117894 -0.024123 -91527.200000 0 1 0
9.241102 -14.086644 -14.787702 22.416682 -0.990202 2.291181 0.119537 -0.021292 -325345.000000 0 1 0
8.441502 -13.341844 -15.883602 22.395369 -1.006673 2.359210 0.097157 -0.020650 -125674.000000 0 1 0
8.960802 -12.121344 -16.421702 22.291147 -0.934206 2.398961 0.088525 -0.019640 50570.400000 0 1 0
9.929302 -12.319444 -17.440602 23.548552 -0.892416 2.404794 0.105742 -0.015973 106689.000000 0 1 0
10.216002 -11.078644 -18.296902 23.704001 -0.825886 2.452606 0.103445 -0.014657 11457.700000 0 1 0
9.686802 -11.224744 -19.610502 24.584564 -0.858811 2.494227 0.109811 -0.014593 248696.000000 0 1 0
9.686702 -9.995644 -20.304102 24.617100 -0.801093 2.540639 0.095154 -0.016300 -76479.100000 0 1 0
9.491402 -10.062744 -21.811502 25.828030 -0.814608 2.576408 0.096339 -0.015937 658416.000000 0 0 1
10.722402 -10.447844 -22.422202 26.960758 -0.772430 2.552888 0.077056 -0.018119 103432.000000 0 0 1
10.661102 -10.402244 -23.833702 28.105357 -0.773109 2.583021 0.069169 -0.018220 653993.000000 0 0 1
11.817002 -11.186644 -24.565502 29.466021 -0.758002 2.556551 0.106265 -0.021342 490195.000000 0 0 1
11.738502 -12.580644 -24.285302 29.763080 -0.820013 2.525174 0.091567 -0.022411 -128307.000000 0 0 1
12.674102 -13.352844 -24.981802 31.032591 -0.811471 2.506503 0.058190 -0.028673 -420766.000000 0 0 1
12.366402 -14.784244 -24.623302 31.269934 -0.874217 2.477446 0.049903 -0.027906 -539254.000000 0 0 1
11.257702 -15.278944 -25.283602 31.613960 -0.935789 2.497693 0.054450 -0.031670 -929687.000000 0 0 1
10.867102 -16.483844 -24.676702 31.603016 -0.987940 2.466796 0.054337 -0.036669 319491.000000 0 0 1
9.683702 -17.257244 -25.323322 32.138095 -1.059442 2.478274 0.057157 -0.030609 309008.000000 0 0 1
9.901902 -17.808544 -26.572992 33.486053 -1.063343 2.487424 0.052516 -0.039455 -3428.300000 0 0 1
8.715402 -18.440544 -27.038362 33.868642 -1.129290 2.495314 0.064626 -0.036184 189650.000000 0 0 1
8.923702 -19.322144 -28.285552 35.398448 -1.138142 2.496530 0.071211 -0.029053 -283809.000000 0 0 1
9.826102 -20.356144 -27.966722 35.959177 -1.121077 2.461851 0.052286 -0.030684 -186644.000000 0 0 1
9.819702 -21.422344 -28.863852 37.262116 -1.140991 2.456905 0.057683 -0.025426 -617010.000000 0 0 1
10.985002 -22.375944 -28.691622 38.007398 -1.114432 2.426291 0.051257 -0.011364 -393968.000000 0 0 1
10.921402 -23.368244 -29.692932 39.332201 -1.133599 2.426339 0.064151 -0.013994 167740.000000 0 0 1
11.646702 -24.534044 -29.290682 39.943823 -1.127580 2.393955 0.094295 -0.023943 357644.000000 0 0 1
10.811402 -25.655544 -28.544082 39.873023 -1.171974 2.368672 0.082589 -0.016191 351958.000000 0 0 1
10.174302 -25.094944 -27.437522 38.549841 -1.185616 2.362771 0.086988 -0.013913 -490376.000000 0 0 1
9.908602 -26.046144 -26.444402 38.417293 -1.207278 2.330003 0.075797 -0.006817 -157129.000000 0 0 1
9.212802 -25.403844 -25.248822 36.982888 -1.222893 2.322270 0.058330 -0.002318 81058.200000 0 0 1
9.914702 -24.404644 -24.443502 35.935675 -1.184903 2.318834 0.066174 -0.007604 -34884.600000 0 0 1
9.455002 -23.073644 -24.781002 35.155201 -1.181892 2.353083 0.052664 -0.002976 -114941.000000 0 0 1
10.463202 -21.920644 -24.781902 34.700661 -1.125455 2.366223 0.064208 -0.003361 -252116.000000 0 0 1
10.781602 -21.427144 -23.469402 33.558579 -1.104612 2.345293 0.061262 -0.012297 486806.000000 0 0 1
11.814602 -20.424344 -23.373302 33.212195 -1.046368 2.351468 0.059027 -0.017331 154552.000000 0 0 1
12.565402 -20.316544 -22.047202 32.507390 -1.016898 2.316136 0.054710 -0.020339 -206625.000000 0 0 1
11.863802 -19.862544 -20.898702 31.177334 -1.032368 2.305432 0.054664 -0.018546 -92163.600000 0 0 1
11.354602 -18.500644 -21.013302 30.211912 -1.020334 2.339954 0.058061 -0.019919 537907.000000 0 0 1
12.449602 -17.374544 -20.805402 29.828377 -0.949054 2.342704 0.056640 -0.024468 1152390.000000 0 0 1
13.380502 -17.398944 -21.924402 31.023225 -0.915220 2.355633 0.049303 -0.019101 155458.000000 0 0 1
14.508102 -16.574744 -21.759202 30.962397 -0.851789 2.350069 0.055523 -0.022948 -153876.000000 0 0 1
15.595902 -16.770344 -22.805502 32.319769 -0.821668 2.354095 0.036606 -0.013673 -871535.000000 0 0 1
16.695102 -17.498844 -22.369202 32.944152 -0.808899 2.317201 0.043342 -0.011039 -331819.000000 0 0 1
17.800402 -17.152844 -23.183702 33.890388 -0.766874 2.324137 0.053153 -0.008421 318846.000000 0 0 1
19.186902 -17.439244 -22.526702 34.347005 -0.737718 2.286113 0.065082 -0.016643 363618.000000 0 0 1
19.502802 -18.834944 -22.357802 35.142363 -0.767980 2.260368 0.075254 -0.027383 716114.000000 0 0 1
20.898102 -18.864044 -22.004002 35.731763 -0.734287 2.234211 0.066005 -0.031461 957513.000000 0 0 1
21.405002 -20.271444 -21.688702 36.599253 -0.758206 2.205079 0.082843 -0.038730 -329965.000000 0 0 1
20.857102 -20.748244 -20.499402 35.857130 -0.782782 2.179369 0.076573 -0.038600 -969.328000 0 0 1
21.384002 -22.000444 -20.102202 36.679607 -0.799606 2.150826 0.091981 -0.032152 39766.100000 0 0 1
-16.837690 13.266439 29.699090 36.627069 -0.667320 0.625192 0.083245 -0.021339 -320007.000000 0 0 1
-17.930090 13.785239 28.991470 36.769910 -0.655446 0.662501 0.088788 -0.025627 -274864.000000 0 0 1
-17.680290 13.690439 27.622800 35.539272 -0.658893 0.680518 0.086600 -0.026803 42619.500000 0 0 1
-18.881590 14.094939 26.740610 35.640454 -0.641252 0.722299 0.106105 -0.022033 64570.200000 0 0 1
-19.063890 15.467839 26.890410 36.411263 -0.681635 0.739925 0.092370 -0.017642 292873.000000 0 0 1
-20.090090 16.013239 26.053930 36.590201 -0.672953 0.778388 0.101196 -0.022866 -23580.000000 0 0 1
-20.248190 17.583739 26.213720 37.501149 -0.715086 0.796783 0.091900 -0.008984 -304186.000000 0 0 1
-19.203990 18.377139 25.735800 36.997890 -0.763400 0.801539 0.064835 -0.014672 -646377.000000 0 0 1
-18.168890 18.525339 26.659190 37.202274 -0.795112 0.771879 0.047140 -0.006419 -164707.000000 0 0 1
-16.993490 19.414639 26.100870 36.700985 -0.851801 0.779626 0.050457 -0.010259 300376.000000 0 0 1
-17.091390 20.819639 26.295970 37.643738 -0.883425 0.797430 0.068815 -0.013234 156400.000000 0 0 1
-16.156090 21.612239 25.554470 37.163679 -0.928869 0.812591 0.091217 -0.028241 326018.000000 0 0 1
-16.508490 23.105339 25.505630 38.169675 -0.950413 0.838987 0.082488 -0.030925 105107.000000 0 0 1
-15.980890 23.744639 26.631350 39.095083 -0.978400 0.821404 0.085711 -0.028056 36463.700000 0 0 1
-16.319590 25.090439 26.545610 40.006607 -0.994118 0.845268 0.086555 -0.025508 -118587.000000 0 0 1
-15.682990 25.822439 27.718250 41.000682 -1.024998 0.828416 0.076936 -0.021275 2956.150000 0 0 1
-14.306290 26.077239 27.502650 40.510346 -1.069019 0.824527 0.087043 -0.026569 -140200.000000 0 0 1
-13.821490 27.046539 28.427030 41.601020 -1.098367 0.818489 0.098425 -0.016596 1832680.000000 0 0 1
-12.226490 27.182839 28.356410 41.139759 -1.148119 0.810315 0.105335 -0.022577 1545090.000000 0 0 1
-11.638190 27.697639 27.213530 40.536193 -1.173009 0.834782 0.096855 -0.022787 -1130710.000000 0 0 1
-10.267490 27.640539 27.320590 40.197455 -1.215129 0.823498 0.079056 -0.011738 -1383360.000000 0 0 1
-9.446390 28.001339 26.119180 39.440092 -1.245431 0.846979 0.089144 -0.017189 -774868.000000 0 0 1
-8.090590 27.689339 26.260720 39.010032 -1.286519 0.832297 0.084249 -0.011368 -106262.000000 0 0 1
-7.346390 28.142139 25.149270 38.450426 -1.315449 0.857844 0.098859 -0.019385 -800401.000000 0 0 1
-5.853290 28.025839 25.276180 38.191543 -1.364903 0.847544 0.099223 -0.028741 -1168330.000000 0 0 1
-5.040090 28.765439 26.151010 39.201127 -1.397344 0.840489 0.116572 -0.022607 1049410.000000 0 0 1
-3.645590 28.457839 25.972860 38.700496 -1.443385 0.835071 0.102222 -0.014249 1646440.000000 0 0 1
-2.818390 29.268039 24.831850 38.486130 -1.474797 0.869491 0.101217 -0.020310 205973.000000 0 0 1
-2.953690 28.619739 23.578220 37.198740 -1.467956 0.884283 0.100049 -0.025302 113640.000000 0 0 1
-2.460690 29.415739 22.497850 37.114606 -1.487338 0.919557 0.101447 -0.040511 -437659.000000 0 0 1
-3.029490 29.074339 21.097950 36.050222 -1.466973 0.945623 0.084969 -0.027451 809913.000000 0 0 1
-4.424290 29.297739 20.887750 36.252310 -1.420917 0.956753 0.075780 -0.016660 673302.000000 0 0 1
-5.253890 28.262939 21.407250 35.842258 -1.387001 0.930712 0.089483 -0.021292 54136.200000 0 0 1
-6.769790 28.337739 21.070450 35.955826 -1.336295 0.944671 0.089161 -0.027747 204769.000000 0 0 1
-6.984190 28.429739 19.658150 35.262896 -1.329902 0.979456 0.075466 -0.033988 316596.000000 0 0 1
-7.901390 27.500639 19.068550 34.384978 -1.291016 0.982962 0.056936 -0.034847 -891905.000000 0 0 1
-7.317390 26.092539 18.792750 32.977754 -1.297380 0.964459 0.051895 -0.038111 -98972.000000 0 0 1
-6.323790 26.086839 17.799250 32.207558 -1.332971 0.985265 0.054391 -0.035500 -288399.000000 0 0 1
-5.060490 26.454739 18.291750 32.558408 -1.381791 0.974220 0.073333 -0.033615 -949488.000000 0 0 1
-3.967990 26.586939 17.203050 31.914812 -1.422644 1.001511 0.069462 -0.030267 -236351.000000 0 0 1
-3.342890 25.431539 16.799450 30.662023 -1.440099 0.990955 0.076879 -0.036219 -432653.000000 0 0 1
-2.561990 25.822339 15.706950 30.332578 -1.471904 1.026490 0.082515 -0.038985 -151355.000000 0 0 1
-1.829390 24.722639 14.881950 28.914149 -1.496934 1.030145 0.087536 -0.034967 634700.000000 0 0 1
-0.647090 24.204439 15.521450 28.760894 -1.544068 1.000749 0.087309 -0.032086 786552.000000 0 0 1
0.005510 23.096239 14.879050 27.474032 1.570558 0.998495 0.069245 -0.033214 -230704.000000 0 0 1
1.395710 22.891039 15.496450 27.678289 1.509900 0.976558 0.063412 -0.030944 -574457.000000 0 0 1
2.252010 23.953039 15.145950 28.429201 1.477054 1.008937 0.077578 -0.038899 296919.000000 0 0 1
3.536710 23.536439 15.619050 28.468000 1.421647 0.990044 0.083991 -0.033131 277139.000000 0 0 1
4.772010 24.428939 15.390150 29.264345 1.377883 1.017022 0.085173 -0.034755 -77257.000000 0 0 1
5.951110 23.749339 15.686450 29.077681 1.325272 1.000992 0.086134 -0.027872 -286597.000000 0 0 1
7.108510 24.564839 15.707550 30.011488 1.289113 1.019978 0.093249 -0.027708 -505903.000000 0 0 1
8.430210 23.795739 15.934150 29.853020 1.230319 1.007763 0.104995 -0.027613 261236.000000 0 0 1
9.036210 23.154239 14.781550 28.918266 1.198713 1.034275 0.089878 -0.018167 235038.000000 0 0 1
9.571510 24.175539 13.955950 29.509982 1.193815 1.078191 0.095372 -0.022009 -937292.000000 0 0 1
10.153210 23.526539 12.629150 28.567134 1.163379 1.112873 0.082044 -0.016799 153606.000000 0 0 1
11.242410 22.655939 12.883350 28.384223 1.110174 1.099669 0.086458 -0.014768 7524.410000 0 0 1
11.532610 21.913339 11.695150 27.385618 1.086344 1.129564 0.085521 -0.018712 -793545.000000 0 0 1
12.839410 21.181939 11.608050 27.354558 1.025868 1.132547 0.099311 -0.019714 -634365.000000 0 0 1
12.765210 20.227439 12.670450 27.067327 1.007834 1.083647 0.086926 -0.006848 740984.000000 0 0 1
14.066310 19.659439 12.894850 27.397661 0.949744 1.080763 0.073036 -0.004383 704680.000000 0 0 1
14.056310 18.604639 14.072950 27.235279 0.923767 1.027784 0.075956 -0.011029 -365753.000000 0 0 1
15.313010 18.013239 14.278450 27.619544 0.866246 1.027490 0.076020 -0.005087 -72697.800000 0 0 1
15.403710 17.321139 15.507450 27.888657 0.843924 0.981172 0.065653 -0.013173 209431.000000 0 0 1
16.860410 16.806639 15.665250 28.498011 0.783801 0.988796 0.038460 -0.016327 178820.000000 0 0 1
17.190010 16.362439 16.937150 29.156353 0.760738 0.950953 0.042898 -0.019714 -410393.000000 0 0 1
18.406810 15.676539 16.791150 29.436496 0.705463 0.963780 0.032246 -0.020303 -198717.000000 0 0 1
18.945110 15.280339 18.201350 30.392353 0.678727 0.928695 0.039868 -0.019162 -104957.000000 0 0 1
19.689310 16.174139 18.992950 31.780558 0.687695 0.930257 0.051608 -0.012984 326922.000000 0 0 1
18.896310 17.256239 19.417450 32.122978 0.740064 0.921693 0.036886 -0.009263 -6387.530000 0 0 1
19.585110 18.070639 20.536950 33.643586 0.745201 0.914197 0.026798 -0.005024 224242.000000 0 0 1
18.832610 19.233939 20.871250 34.062013 0.795941 0.911270 0.043551 -0.008547 366710.000000 0 0 1
19.662810 20.045839 21.655850 35.460367 0.795044 0.913845 0.045285 0.000041 -97753.300000 0 0 1
18.854410 21.131839 22.292750 36.041783 0.842292 0.903932 0.061521 -0.007618 -381642.000000 0 0 1
17.955510 20.711339 23.266610 35.954069 0.856549 0.866995 0.065045 -0.016474 -280908.000000 0 0 1
17.296810 21.789039 23.867120 36.654895 0.899828 0.861723 0.067728 -0.028010 66431.300000 0 0 1
16.599110 21.358839 25.191360 36.963970 0.910142 0.820971 0.094119 -0.024716 275565.000000 0 0 1
15.506810 20.477939 24.984560 35.833440 0.922675 0.799254 0.095107 -0.034786 -109231.000000 0 0 1
14.659610 20.421339 26.129720 36.258758 0.948186 0.766063 0.111370 -0.031318 -234352.000000 0 0 1
13.480810 19.468739 25.993260 35.162674 0.965167 0.738872 0.137110 -0.033205 -492790.000000 0 0 1
13.719110 18.057139 25.968810 34.476853 0.921077 0.717846 0.108472 -0.039910 -177839.000000 0 0 1
14.316810 17.486239 24.809660 33.559780 0.884728 0.738814 0.111255 -0.039971 -372095.000000 0 0 1
13.517410 17.488739 23.494830 32.258075 0.912787 0.754901 0.123476 -0.042096 -672655.000000 0 0 1
13.468910 18.734639 22.732750 32.390989 0.947478 0.792843 0.126190 -0.035513 63589.000000 0 0 1
14.569810 19.177539 21.926550 32.570401 0.921095 0.832262 0.099441 -0.029970 508734.000000 0 0 1
15.159810 18.171839 20.921650 31.587197 0.875519 0.846851 0.097176 -0.026763 506359.000000 0 0 1
14.075210 17.693839 20.076450 30.236523 0.898814 0.844667 0.101932 -0.026543 986943.000000 0 0 1
14.474510 16.661239 19.243450 29.281713 0.855515 0.853721 0.064158 -0.025022 345559.000000 0 0 1
13.210410 16.033139 18.585650 27.874772 0.881625 0.840950 0.065085 -0.018453 371945.000000 0 0 1
12.753710 16.750639 17.503350 27.378976 0.920048 0.877210 0.087225 -0.012648 -598326.000000 0 0 1
11.630610 16.214439 16.878750 26.135634 0.948554 0.868708 0.070836 -0.014324 -134084.000000 0 0 1
11.133510 16.913539 15.571250 25.543819 0.988636 0.915253 0.072162 -0.010152 83663.000000 0 0 1
10.443510 18.145639 15.671550 26.152029 1.048558 0.928235 0.078025 -0.015444 152142.000000 0 0 1
10.046810 18.700739 14.415250 25.660388 1.077801 0.974272 0.075856 -0.009277 -209386.000000 0 0 1
9.046010 19.846139 14.588650 26.239822 1.143124 0.981262 0.079397 -0.011141 -262951.000000 0 0 1
7.714910 19.431539 14.793050 25.611304 1.192853 0.955013 0.065051 -0.018648 -309922.000000 0 0 1
6.857710 20.532839 14.645950 26.136747 1.248457 0.975978 0.071963 -0.024332 763141.000000 0 0 1
5.518610 20.494339 15.498650 26.280814 1.307760 0.940069 0.070532 -0.025331 710323.000000 0 0 1
4.603710 19.631139 14.870650 25.054182 1.340448 0.935346 0.064801 -0.021588 407408.000000 0 0 1
3.428310 19.457939 15.711750 25.243292 1.396395 0.898975 0.055307 -0.020140 1391210.000000 0 0 1
2.334910 18.524139 15.088950 24.005665 1.445411 0.891099 0.040986 -0.021362 544615.000000 0 1 0
1.575310 19.240239 14.125550 23.920694 1.489103 0.939098 0.043990 -0.029777 -574462.000000 0 1 0
0.492810 18.551839 13.603250 23.010042 1.544239 0.938266 0.033376 -0.032875 -812440.000000 0 1 0
-0.391890 19.394239 12.737350 23.206253 -1.550593 0.989778 0.037231 -0.041202 -581722.000000 0 1 0
-1.323190 20.260939 13.327450 24.287392 -1.505582 0.989941 0.049223 -0.036245 193674.000000 0 1 0
-2.232390 20.757239 12.311350 24.236664 -1.463661 1.037977 0.045745 -0.028633 694244.000000 0 1 0
-3.450590 21.477739 12.938150 25.309990 -1.411499 1.034230 0.047335 -0.032720 491820.000000 0 0 1
-4.429990 20.590439 13.500450 25.017057 -1.358879 1.000775 0.054403 -0.036929 10416.400000 0 0 1
-5.672190 21.235139 13.595650 25.844663 -1.309777 1.016844 0.063154 -0.038816 -569344.000000 0 0 1
-6.414090 20.785139 14.821950 26.322097 -1.271477 0.972665 0.054759 -0.036783 -1095820.000000 0 0 1
-7.282090 19.674439 14.663850 25.595720 -1.216303 0.960754 0.053412 -0.030969 362666.000000 0 0 1
-7.987490 19.253439 15.826950 26.172261 -1.177545 0.921379 0.046995 -0.015656 1006530.000000 0 0 1
-9.086390 20.280339 16.413050 27.626850 -1.149574 0.934653 0.034458 0.003839 1744730.000000 0 0 1
-10.390890 20.350939 15.784950 27.772216 -1.098716 0.966270 0.026967 -0.007010 1740690.000000 0 0 1
-11.402990 19.525039 16.417250 27.942467 -1.042211 0.942784 0.013187 0.007761 809292.000000 0 0 1
-12.576290 19.189739 15.447750 27.659395 -0.990659 0.978221 0.018531 0.001832 217962.000000 0 0 1
-13.330890 20.347439 15.106450 28.634520 -0.990800 1.015070 0.009595 0.012576 981404.000000 0 0 1
-14.352090 20.099339 14.097550 28.437771 -0.950698 1.052117 0.016298 -0.000067 547955.000000 0 0 1
-15.388290 21.227239 13.929650 29.688892 -0.943533 1.082426 0.014677 -0.007968 -210063.000000 0 0 1
-16.217190 21.354539 15.051250 30.749857 -0.921290 1.059310 -0.001372 -0.011089 -196334.000000 0 0 1
-17.105690 22.449539 14.902550 31.916648 -0.919684 1.084991 0.017960 -0.022415 203833.000000 0 0 1
-18.415890 22.321639 15.721750 32.932871 -0.880982 1.073117 0.085401 -0.034274 -211315.000000 0 0 1
-19.282090 21.366239 15.124850 32.512709 -0.836626 1.086938 0.073446 -0.037023 874376.000000 0 0 1
-20.419390 20.974939 15.942150 33.332442 -0.798818 1.072104 0.089884 -0.038766 1197160.000000 0 0 1
-21.646790 21.923139 15.908350 34.673955 -0.791741 1.094154 0.085981 -0.038385 -373238.000000 0 0 1
-22.350590 21.854039 14.660750 34.526591 -0.774166 1.132252 0.101555 -0.040381 950979.000000 0 0 1
-23.485290 22.748539 14.598250 35.807315 -0.769464 1.150875 0.121347 -0.052913 696268.000000 0 0 1
-23.229990 24.142239 13.966850 36.298113 -0.804653 1.175825 0.096409 -0.043065 107842.000000 0 0 1
-22.184790 24.896839 14.577950 36.394150 -0.842938 1.158671 0.064611 -0.040884 306686.000000 0 0 1
-21.686490 25.862939 13.682350 36.419805 -0.873007 1.185661 0.053944 -0.032846 -702779.000000 0 0 1
-20.289890 26.353839 14.051050 36.105906 -0.914679 1.171075 0.029874 -0.021942 -785907.000000 0 0 1
-19.268090 25.496539 13.663250 34.756542 -0.923648 1.166782 0.022646 -0.009883 -438435.000000 0 0 1
-18.017590 26.146239 13.763250 34.607606 -0.967418 1.161794 0.006000 -0.011820 783461.000000 0 0 1
-16.900790 25.561839 12.784950 33.203904 -0.986607 1.175541 0.012417 -0.011705 130316.000000 0 0 1
-15.709790 26.283139 12.828650 33.199024 -1.032060 1.174053 0.016297 -0.013475 -827414.000000 0 0 1
-14.802590 25.654339 11.981050 31.950076 -1.047459 1.186407 0.021795 -0.011180 23789.400000 0 0 1
-13.364890 26.252639 12.110250 31.850895 -1.099905 1.180765 0.028899 -0.012907 -531680.000000 0 0 1
-12.344690 25.347639 11.773050 30.553214 -1.117590 1.175232 0.030028 -0.011795 1057750.000000 0 0 1
-10.991590 25.803439 11.979950 30.498389 -1.168101 1.167115 0.043973 -0.020726 999992.000000 0 0 1
-10.519090 27.032539 11.184150 31.088497 -1.199698 1.202794 0.052201 -0.023881 -1198670.000000 0 0 1
-9.322990 27.505739 11.747050 31.328534 -1.244002 1.186439 0.074037 -0.030758 48730.800000 0 0 1
-8.908990 28.755539 11.182050 32.113695 -1.270357 1.215144 0.074481 -0.034357 -263475.000000 0 0 1
-7.669890 29.399839 11.811750 32.599006 -1.315602 1.200025 0.066683 -0.032762 -468669.000000 0 0 1
-6.452790 28.734939 11.610850 31.656707 -1.349898 1.195258 0.079590 -0.030925 -680534.000000 0 0 1
-5.491490 29.390539 12.403550 32.369867 -1.386081 1.177558 0.104500 -0.028735 -238060.000000 0 0 1
-4.077090 29.012939 11.898550 31.621967 -1.431184 1.185024 0.099009 -0.037520 -80689.100000 0 0 1
-3.852290 29.608239 10.622250 31.691011 -1.441414 1.228998 0.099286 -0.031630 1007400.000000 0 0 1
-2.470790 29.446039 10.234350 31.271648 -1.487083 1.237381 0.118465 -0.026968 1084890.000000 0 0 1
-2.185590 30.046739 8.857350 31.401210 -1.498185 1.284845 0.121141 -0.029811 169522.000000 0 0 1
-2.871890 29.388239 7.791650 30.538929 -1.473383 1.312806 0.116560 -0.027578 196934.000000 0 0 1
-2.787490 30.176339 6.636550 31.022981 -1.478684 1.355206 0.114518 -0.023789 32942.300000 0 0 1
11.500510 -33.473544 -26.803272 44.397694 -1.239861 2.218941 0.133857 -0.035160 -44318.800000 0 0 1
12.093710 -33.451544 -25.543242 43.791789 -1.223888 2.193568 0.111732 -0.025482 269766.000000 0 0 1
13.194910 -32.551244 -25.437322 43.367574 -1.185679 2.197591 0.110067 -0.019140 195126.000000 0 0 1
13.973310 -32.761844 -24.165502 43.041413 -1.167646 2.166931 0.088751 -0.012423 -596130.000000 0 0 1
13.414810 -31.994544 -23.108502 41.684659 -1.173777 2.158396 0.095523 -0.016066 214239.000000 0 0 1
13.943910 -32.164744 -21.801602 41.283328 -1.161735 2.127154 0.069976 -0.012193 -177048.000000 0 0 1
15.365410 -31.666444 -21.467402 41.227525 -1.119037 2.118474 0.037606 -0.005489 410145.000000 0 0 1
16.366710 -32.545044 -21.988502 42.550479 -1.104836 2.113862 0.055537 -0.002061 1676760.000000 0 0 1
17.712110 -32.325144 -21.470802 42.657111 -1.069539 2.098250 0.037184 -0.006462 1507400.000000 0 0 1
18.618910 -33.563244 -21.323102 43.907059 -1.064320 2.077893 0.021047 0.007082 -609153.000000 0 0 1
19.966910 -33.232044 -21.197702 44.185844 -1.029765 2.071154 0.023660 0.013125 -748536.000000 0 0 1
20.741410 33.412139 -21.162502 44.659026 1.015241 2.064475 0.018834 0.006433 -1040100.000000 0 0 1
22.190710 33.801839 -20.976802 45.552368 0.989869 2.049353 0.042752 0.008429 -1114380.000000 0 0 1
22.856910 -33.452444 -22.079202 46.141039 -0.971390 2.069760 0.044538 -0.001805 -914572.000000 0 0 1
24.215410 -33.446044 -21.784502 46.686063 -0.944135 2.056258 0.033500 0.002582 -651616.000000 0 0 1
25.021710 -33.043844 -23.037902 47.420739 -0.922686 2.078096 0.052053 -0.007614 -348533.000000 0 0 1
25.150510 -31.704644 -23.531302 46.812976 -0.900169 2.097477 0.064109 -0.016013 355438.000000 0 0 1
23.970610 -30.994944 -23.958602 45.927021 -0.912504 2.119600 0.051328 -0.015026 565486.000000 0 0 1
24.128910 -29.399744 -23.771402 44.851185 -0.883549 2.129404 0.059780 -0.031326 -61218.100000 0 0 1
25.030610 -28.888244 -24.724702 45.523323 -0.856822 2.144947 0.061508 -0.035594 -163356.000000 0 0 1
25.346610 -27.551444 -24.392602 44.682566 -0.827055 2.148270 0.083532 -0.033919 210082.000000 0 0 1
25.970110 -26.770644 -25.581442 45.227471 -0.800576 2.171978 0.079862 -0.035441 -362965.000000 0 0 1
25.105310 -26.536844 -26.652062 45.219609 -0.813111 2.201102 0.072047 -0.035560 -614834.000000 0 0 1
25.746410 -25.909544 -27.741892 45.867141 -0.788556 2.220351 0.060989 -0.028391 -327577.000000 0 0 1
24.713510 -25.449944 -28.816262 45.703765 -0.800078 2.252995 0.061050 -0.028440 529349.000000 0 0 1
23.880610 -24.383644 -28.439412 44.425733 -0.795820 2.265498 0.072723 -0.026312 -481407.000000 0 0 1
22.739010 -24.736044 -27.698342 43.544604 -0.827438 2.260218 0.070936 -0.021957 -657478.000000 0 0 1
21.879210 -23.495444 -27.402182 42.209185 -0.821003 2.277328 0.074864 -0.018640 -18227.600000 0 0 1
21.228710 -22.972544 -28.566492 42.360835 -0.824830 2.310895 0.082735 -0.021163 361961.000000 0 0 1
20.541910 -21.760344 -28.236052 41.143131 -0.814193 2.327170 0.074786 -0.008647 -210551.000000 0 0 1
19.772410 -21.173544 -29.397892 41.273517 -0.819604 2.363523 0.100529 -0.016419 -372641.000000 0 0 1
18.628710 -21.937344 -29.707772 41.362152 -0.866780 2.372060 0.091268 -0.027137 -230354.000000 0 0 1
17.840010 -21.318344 -30.681902 41.401894 -0.873993 2.405466 0.073869 -0.033588 -521830.000000 0 0 1
16.460010 -21.978244 -30.696682 41.185694 -0.927985 2.411817 0.083708 -0.038664 -616874.000000 0 0 1
16.524410 -23.330444 -31.126322 42.263621 -0.954537 2.398649 0.084656 -0.018384 336250.000000 0 0 1
15.455410 -24.092844 -30.569472 41.878723 -1.000424 2.389049 0.103020 -0.030036 33350.500000 0 0 1
15.574410 -25.560944 -30.868342 42.997426 -1.023563 2.371594 0.126796 -0.024305 -496236.000000 0 0 1
14.633410 -26.453944 -30.388082 42.864710 -1.065526 2.358776 0.125427 -0.025644 -643450.000000 0 0 1
15.016210 -27.741644 -30.631472 43.970131 -1.074667 2.341503 0.171948 -0.038164 30426.000000 0 0 1
14.302010 -28.835944 -29.785532 43.854727 -1.110371 2.317450 0.159810 -0.042064 48282.900000 0 0 1
14.716810 -29.099744 -28.444412 43.271979 -1.102570 2.288080 0.172253 -0.047055 -167634.000000 0 0 1
14.427110 -28.056744 -27.555472 41.888261 -1.095844 2.288734 0.142287 -0.035298 65421.200000 0 0 1
15.442310 -27.994144 -26.382142 41.450626 -1.066705 2.260711 0.109099 -0.026038 32626.700000 0 0 1
15.407410 -29.130244 -25.515572 41.677377 -1.084286 2.229657 0.101443 -0.023335 25789.100000 0 0 1
16.315310 -28.964044 -24.434702 41.257240 -1.057803 2.204648 0.104533 -0.029824 -1121930.000000 0 0 1
16.019310 -27.875844 -23.325102 39.720792 -1.049213 2.198424 0.086842 -0.024036 271409.000000 0 0 1
14.911510 -28.098344 -22.484202 38.953939 -1.082899 2.186092 0.078376 -0.020050 545773.000000 0 0 1
13.647610 -28.341744 -23.105802 39.030626 -1.122028 2.204324 0.085248 -0.012083 -211613.000000 0 0 1
12.363210 -28.312644 -22.240502 38.066976 -1.159085 2.194748 0.059972 -0.007856 206493.000000 0 0 1
12.066810 -27.005044 -21.866402 36.783418 -1.150577 2.207395 0.047807 -0.015274 491065.000000 0 0 1
10.744010 -26.899744 -21.318002 35.965082 -1.190799 2.205255 0.060407 -0.020095 458808.000000 0 0 1
10.389710 -25.386144 -21.178002 34.654150 -1.182327 2.228277 0.067141 -0.019427 -199732.000000 0 0 1
11.081510 -24.648844 -20.187702 33.732902 -1.148296 2.212370 0.064894 -0.021383 -70495.100000 0 0 1
11.000210 -23.246944 -20.344702 32.792254 -1.128826 2.240064 0.064457 -0.026770 -287806.000000 0 0 1
11.358810 -22.434344 -19.090602 31.571719 -1.102111 2.220153 0.070847 -0.026698 272212.000000 0 0 1
10.549610 -22.643944 -17.920402 30.743833 -1.134806 2.193082 0.086308 -0.031455 339173.000000 0 0 1
11.070210 -21.908344 -16.818602 29.755511 -1.102920 2.171504 0.078304 -0.033529 -85479.800000 0 0 1
10.359410 -22.131644 -15.497502 28.936129 -1.133008 2.135986 0.070463 -0.028521 -104741.000000 0 0 1
10.842010 -23.302044 -14.891702 29.703488 -1.135307 2.095949 0.083756 -0.022499 113206.000000 0 0 1
10.041710 -23.650444 -13.782202 29.156963 -1.169274 2.063137 0.081515 -0.022300 1395.180000 0 0 1
9.941710 -25.107144 -13.350802 30.123914 -1.193768 2.029957 0.090922 -0.025899 125360.000000 0 0 1
11.193410 -25.574244 -12.882202 30.745495 -1.158232 2.003134 0.074877 -0.030381 -90594.100000 0 0 1
11.290510 -26.987544 -13.058702 32.036430 -1.174563 1.990643 0.077941 -0.034360 -1269930.000000 0 0 1
12.615210 -27.563244 -12.613802 32.832666 -1.141572 1.965121 0.074970 -0.036753 -508917.000000 0 0 1
13.793610 -27.039044 -13.190502 33.096267 -1.099072 1.980731 0.080417 -0.032099 93814.000000 0 0 1
13.965810 -27.257244 -14.617102 33.936129 -1.097301 2.016091 0.081028 -0.032105 -1744070.000000 0 0 1
15.312410 -26.777144 -15.075002 34.332798 -1.051335 2.025376 0.051494 -0.026750 -399802.000000 0 0 1
16.406110 -27.655344 -14.757002 35.380045 -1.035366 2.001048 0.077308 -0.017542 156525.000000 0 0 1
17.570110 -27.083644 -15.301202 35.726171 -0.995311 2.013397 0.088603 -0.022237 -625344.000000 0 0 1
18.854210 -27.854444 -15.123102 36.878984 -0.975754 1.993331 0.081162 -0.020151 -408797.000000 0 0 1
18.934710 -29.109044 -15.814502 38.157020 -0.994087 1.998144 0.068833 -0.009308 -933270.000000 0 0 1
20.214610 -29.623644 -15.678502 39.140850 -0.971993 1.982931 0.072531 0.000375 -402030.000000 0 0 1
20.655710 -30.673244 -16.728702 40.587630 -0.978139 1.995623 0.054932 0.004193 233169.000000 0 0 1
20.024110 -31.926744 -16.476202 41.130854 -1.010624 1.982946 0.049715 0.016734 61380.000000 0 0 1
20.586210 -32.814944 -17.414302 42.471996 -1.010514 1.993271 0.040701 0.018821 107354.000000 0 0 1
20.485810 33.463639 -17.198102 42.839915 1.021468 1.983896 0.024496 0.019124 322493.000000 0 0 1
21.243910 32.790539 -16.161702 42.281483 0.995922 1.963016 0.046630 0.016824 498144.000000 0 0 1
20.914210 31.394839 -16.250402 41.074514 0.983140 1.977552 0.030362 0.003498 -4073.700000 0 0 1
21.690510 30.582339 -15.162902 40.443434 0.953890 1.955103 0.056151 0.008453 943681.000000 0 0 1
23.120310 30.458639 -15.351502 41.206141 0.921514 1.952556 0.048259 0.012002 1489200.000000 0 0 1
23.866710 30.409039 -14.109302 41.150965 0.905358 1.920763 0.049936 0.007295 607219.000000 0 0 1
23.475410 29.212639 -13.133402 39.710949 0.893861 1.907868 0.060571 0.004742 -697082.000000 0 0 1
23.834210 28.013339 -13.784102 39.278725 0.865828 1.929361 0.058489 0.009622 -6735.320000 0 0 1
23.618110 26.854939 -12.935202 38.030545 0.849440 1.917848 0.022593 0.003992 129223.000000 0 0 1
22.170310 26.447239 -12.554002 36.723046 0.873143 1.919688 0.040469 0.000257 -51281.400000 0 0 1
21.445410 26.141639 -13.761702 36.505827 0.883767 1.957322 0.047165 -0.005127 343534.000000 0 0 1
20.026610 26.197439 -13.643202 35.686243 0.918112 1.963091 0.053376 -0.010471 50668.200000 0 0 1
19.308510 27.546439 -13.639802 36.299712 0.959437 1.956008 0.044354 -0.009051 -472993.000000 0 0 1
19.206810 28.238139 -14.876702 37.250642 0.973502 1.981623 0.040534 -0.007439 69491.500000 0 0 1
18.379110 27.588639 -15.835502 36.738098 0.983128 2.016439 0.030169 -0.002720 -361125.000000 0 0 1
18.519010 28.259639 -17.217702 37.921105 0.990693 2.042091 0.023979 0.003013 294243.000000 0 0 1
17.747510 29.448539 -17.498202 38.579498 1.028422 2.041555 0.019010 0.007913 301988.000000 0 0 1
18.252110 30.085539 -18.651402 39.826549 1.025484 2.058180 0.018454 -0.000807 -205352.000000 0 0 1
17.359410 31.264239 -19.123502 40.552560 1.063933 2.061870 0.009335 0.005945 30666.500000 0 0 1
17.428210 32.404139 -18.337702 41.110121 1.077338 2.033158 0.015945 0.004033 -557558.000000 0 0 1
16.270810 33.165739 -18.402402 41.271709 1.114704 2.032958 0.024794 -0.000636 -616462.000000 0 0 1
16.247610 -33.292144 -17.634702 41.028458 -1.116769 2.015086 0.027253 0.000612 570326.000000 0 0 1
15.200610 -32.410444 -18.110302 40.118306 -1.132252 2.039155 0.030481 -0.006839 553155.000000 0 0 1
15.090610 -31.325244 -17.246302 38.812786 -1.121863 2.031240 0.045924 -0.012852 -200171.000000 0 0 1
13.997110 -30.308044 -17.610902 37.744410 -1.138150 2.056220 0.058259 -0.019589 -279958.000000 0 0 1
12.720510 -30.868944 -17.412902 37.655175 -1.179919 2.051531 0.052402 -0.018012 -549156.000000 0 0 1
11.714010 -29.985444 -17.833902 36.802078 -1.198370 2.076690 0.040162 -0.014656 -163985.000000 0 0 1
10.341410 -30.519744 -18.247402 37.031975 -1.244095 2.086040 0.063527 -0.022800 -1340980.000000 0 0 1
9.575010 -30.944444 -17.112402 36.634324 -1.270715 2.056820 0.067759 -0.024375 30733.000000 0 0 1
8.564810 -31.850144 -17.514302 37.343519 -1.308101 2.058960 0.089998 -0.023199 -63418.500000 0 0 1
7.338010 -31.155544 -18.152102 36.796917 -1.339484 2.086681 0.090555 -0.017991 -1185050.000000 0 0 1
7.458410 -30.745844 -19.516402 37.172903 -1.332811 2.123531 0.073817 -0.010697 -150596.000000 0 0 1
7.263110 -31.773544 -20.487302 38.497277 -1.346068 2.131964 0.076367 -0.021561 -627792.000000 0 0 1
7.481910 -31.325744 -21.942102 38.970977 -1.336346 2.168852 0.078087 -0.005233 457167.000000 0 0 1
8.787110 -31.200544 -22.497502 39.456619 -1.296274 2.177525 0.068535 0.001449 572139.000000 0 0 1
9.696510 -32.307444 -22.529502 40.563181 -1.279218 2.159661 0.069328 0.001127 83909.300000 0 0 1
9.497710 -33.502444 -23.487402 42.003313 -1.294551 2.164192 0.088432 -0.014575 529131.000000 0 0 1
8.302710 33.551939 -23.143802 41.596913 1.328211 2.160822 0.086821 -0.030029 701505.000000 0 0 1
7.989910 32.573539 -24.133602 41.319546 1.330257 2.194533 0.084258 -0.037355 860676.000000 0 0 1
6.771410 31.673839 -23.580702 40.064119 1.360181 2.200090 0.096064 -0.051459 1291800.000000 0 0 1
5.526110 32.350239 -23.644102 40.448973 1.401608 2.195111 0.101860 -0.054432 197531.000000 0 0 1
5.189610 32.932039 -22.374402 40.150531 1.414496 2.161882 0.085258 -0.049005 -321708.000000 0 0 1
3.897010 33.771639 -22.425402 40.726023 1.455911 2.153928 0.091509 -0.033730 51373.900000 0 0 1
2.689910 33.049839 -22.340802 39.982983 1.489586 2.163683 0.092064 -0.049036 -147957.000000 0 0 1
1.603110 33.837439 -22.745302 40.803076 1.523455 2.162096 0.097988 -0.038869 -577008.000000 0 0 1
0.262010 33.296039 -22.262802 40.054054 1.562927 2.160144 0.089867 -0.049083 -586885.000000 0 0 1
0.036710 33.434239 -20.898602 39.428432 1.569698 2.129443 0.074736 -0.046371 751593.000000 0 0 1
-1.307290 33.110939 -20.485902 38.957868 -1.531335 2.124508 0.075942 -0.062630 1055720.000000 0 0 1
-1.400590 33.460839 -18.957702 38.483553 -1.528963 2.085892 0.078540 -0.051735 -144488.000000 0 0 1
-0.648290 32.578439 -18.183102 37.314879 -1.550900 2.079778 0.084168 -0.060969 -237071.000000 0 0 1
-0.887390 32.742139 -16.772802 36.798941 -1.543701 2.044062 0.055505 -0.047569 -279266.000000 0 0 1
-0.209490 31.739839 -15.861702 35.483163 -1.564196 2.034228 0.041271 -0.041987 66354.700000 0 0 1
1.112210 32.170739 -15.625402 35.781932 1.536238 2.022706 0.047151 -0.035924 -292642.000000 0 0 1
1.969110 31.137739 -15.162902 34.689333 1.507642 2.023174 0.055540 -0.023558 288883.000000 0 0 1
2.941510 31.702539 -14.090302 34.817238 1.478277 1.987440 0.069858 -0.031766 292202.000000 0 0 1
3.861210 32.686339 -14.607102 36.009348 1.453212 1.988483 0.068392 -0.033959 141038.000000 0 0 1
4.736410 33.059539 -13.579102 36.052167 1.428496 1.956975 0.075324 -0.041149 -1095.610000 0 0 1
6.147210 33.535439 -14.042802 36.872946 1.389504 1.961504 0.083039 -0.049750 571703.000000 0 0 1
6.965510 32.431339 -14.397602 36.160767 1.359233 1.980301 0.071745 -0.040052 -476221.000000 0 0 1
8.012310 32.783739 -15.276202 37.045014 1.331096 1.995849 0.073540 -0.028313 88591.900000 0 0 1
8.943510 31.564039 -15.441502 36.258998 1.294689 2.010716 0.059711 -0.027766 -167420.000000 0 0 1
9.612310 31.291839 -14.224802 35.692026 1.272763 1.980724 0.050167 -0.031809 -367742.000000 0 0 1
10.472310 30.157339 -14.273902 34.969682 1.236568 1.991255 0.062367 -0.023323 105703.000000 0 0 1
9.969110 28.762339 -13.859302 33.447505 1.237151 1.998036 0.064194 -0.019535 -147803.000000 0 0 1
9.228010 28.111639 -14.890502 33.123217 1.253616 2.037056 0.070933 -0.018035 286121.000000 0 0 1
8.898710 26.701239 -14.555802 31.686189 1.249103 2.048086 0.059830 -0.011171 -54555.900000 0 0 1
8.003910 25.959639 -15.597702 31.324970 1.271723 2.092009 0.073602 -0.013629 130624.000000 0 0 1
8.690210 25.514039 -16.753102 31.735664 1.242516 2.126917 0.078304 -0.008950 -280608.000000 0 0 1
7.994910 24.481739 -17.379302 31.069507 1.255148 2.164420 0.068756 -0.010405 -57726.500000 0 0 1
8.844310 23.706139 -18.422802 31.298602 1.213709 2.200140 0.081467 -0.008197 206521.000000 0 0 1
8.095810 22.724939 -19.128702 30.787534 1.228562 2.241214 0.103368 -0.016666 96823.400000 0 0 1
8.965810 21.815539 -19.787102 30.786895 1.180858 2.268829 0.083925 -0.012002 -167630.000000 0 0 1
8.336610 20.877839 -20.777402 30.611822 1.190890 2.316839 0.083944 -0.024821 -351276.000000 0 0 1
7.720610 19.784539 -20.211202 29.317716 1.198737 2.331436 0.097424 -0.028860 -519195.000000 0 0 1
7.014510 19.018739 -21.112402 29.268572 1.217454 2.376522 0.094896 -0.026145 -182583.000000 0 0 1
25.568810 -12.448561 -9.398602 29.951034 -0.453085 1.889988 0.097743 -0.021064 -66794.900000 0 0 1
26.308010 -11.782661 -8.419202 30.030409 -0.421084 1.854961 0.117323 -0.029047 37121.600000 0 0 1
25.670810 -11.947061 -7.206902 29.217498 -0.435582 1.820033 0.111867 -0.014064 -439002.000000 0 0 1
26.202210 -11.076861 -6.016302 29.076598 -0.399959 1.779214 0.102342 -0.029447 -385298.000000 0 0 1
26.000710 -9.643961 -6.080002 28.390304 -0.355181 1.786626 0.107681 -0.037022 401164.000000 0 0 1
26.534810 -8.885061 -7.139402 28.879258 -0.323111 1.820602 0.080751 -0.042390 -1110000.000000 0 0 1
26.992110 -7.498961 -6.631302 28.788584 -0.270986 1.803228 0.133447 -0.042256 61336.100000 0 0 1
27.771810 -7.486561 -5.439102 29.272955 -0.263315 1.757689 0.148623 -0.050659 -127934.000000 0 0 1
29.083610 -7.943761 -5.578502 30.660714 -0.266632 1.753758 0.135032 -0.052282 -934496.000000 0 0 1
29.856510 -7.913761 -4.246802 31.178104 -0.259102 1.707432 0.148008 -0.060629 -316044.000000 0 0 1
30.141210 -6.622461 -3.735502 31.085423 -0.216278 1.691256 0.151374 -0.042494 375830.000000 0 0 1
31.014310 -6.697461 -2.614702 31.836773 -0.212682 1.653017 0.147866 -0.030689 -2859.290000 0 0 1
31.399110 -5.420861 -1.986602 31.925483 -0.170959 1.633063 0.144262 -0.040438 -143848.000000 0 0 1
30.313210 -4.802461 -1.328302 30.720006 -0.157122 1.614049 0.199864 -0.032466 -13867.100000 0 0 1
30.628710 -3.536661 -0.699202 30.840148 -0.114960 1.593470 0.174479 -0.017519 -212580.000000 0 0 1
31.354810 -3.618361 0.664198 31.569888 -0.114892 1.549756 0.171514 -0.029176 10802.000000 0 0 1
30.587110 -3.833461 1.824898 30.880366 -0.124679 1.511666 0.210906 -0.051422 -246948.000000 0 0 1
31.381210 -3.475361 2.858798 31.702228 -0.110297 1.480497 0.178740 -0.044665 -508959.000000 0 0 1
30.797910 -3.952461 4.174198 31.329813 -0.127638 1.437165 0.188556 -0.048211 -156258.000000 0 0 1
30.977810 -5.319661 4.236598 31.715490 -0.170066 1.436814 0.168084 -0.051171 181670.000000 0 0 1
30.738310 -5.833361 5.532898 31.772390 -0.187545 1.395762 0.162955 -0.057702 -199147.000000 0 0 1
31.437810 -7.190761 5.720598 32.753140 -0.224862 1.395238 0.125692 -0.039419 -53848.900000 0 0 1
32.832910 -6.979061 5.783098 34.060997 -0.209446 1.400183 0.142507 -0.052543 -178982.000000 0 0 1
33.461710 -8.233861 5.602198 34.912278 -0.241275 1.409635 0.142693 -0.052142 491039.000000 0 0 1
34.985110 -8.330561 5.907698 36.445262 -0.233764 1.407980 0.185324 -0.052868 477072.000000 0 0 1
35.878610 -7.733561 4.993798 37.040797 -0.212300 1.435566 0.184585 -0.038492 -824929.000000 0 0 1
37.165010 -7.905061 5.495798 38.391819 -0.209578 1.427153 0.176823 -0.041468 -126192.000000 0 0 1
-36.427282 -7.605361 4.470498 37.480311 0.205825 1.451236 0.159617 -0.033172 397312.000000 0 0 1
-36.383182 -8.724561 3.605698 37.587962 0.235353 1.474722 0.194214 -0.045814 -316643.000000 0 0 1
-35.325082 -8.576961 2.724298 36.453360 0.238192 1.495993 0.198260 -0.050622 -680076.000000 0 0 1
-34.987582 -9.681261 1.722498 36.343152 0.269951 1.523383 0.201336 -0.041153 -113271.000000 0 0 1
-34.376482 -10.794061 2.331098 36.106623 0.304247 1.506190 0.197883 -0.035485 39752.700000 0 0 1
-34.057782 -11.758661 1.372698 36.056662 0.332442 1.532717 0.198875 -0.043475 -461395.000000 0 0 1
-33.362782 -13.024661 1.903898 35.865607 0.372199 1.517687 0.145613 -0.037176 139733.000000 0 0 1
-32.042482 -12.940661 2.367598 34.637939 0.383829 1.502390 0.145080 -0.030360 -792875.000000 0 0 1
-31.025782 -12.969361 1.469598 33.659518 0.395943 1.527122 0.156071 -0.024899 -1648760.000000 0 0 1
-29.704182 -13.424861 2.089598 32.663920 0.424476 1.506780 0.147414 -0.020007 -452418.000000 0 0 1
-29.126082 -12.391661 2.863498 31.781779 0.402251 1.480575 0.128405 -0.026260 353337.000000 0 0 1
-27.779482 -12.679661 3.199998 30.703638 0.428196 1.466385 0.132368 -0.016212 160886.000000 0 0 1
-27.048482 -11.587761 3.986498 29.694927 0.404753 1.436141 0.148507 -0.018248 -178762.000000 0 0 1
-25.741182 -11.976361 4.349098 28.722052 0.435472 1.418791 0.133455 -0.003219 128056.000000 0 0 1
-25.120782 -10.891161 5.034198 27.839077 0.409092 1.388964 0.125457 -0.006917 -510572.000000 0 0 1
-23.684682 -11.150061 5.478298 26.745088 0.439992 1.364502 0.128201 -0.001510 -330376.000000 0 0 1
-23.579682 -12.044861 6.596898 27.287343 0.472262 1.326620 0.136257 -0.008815 79337.000000 0 0 1
-22.214182 -12.385861 6.754698 26.315496 0.508633 1.311209 0.122020 -0.011970 333496.000000 0 0 1
-21.569782 -12.178961 8.186498 26.088337 0.514007 1.251605 0.122252 -0.019920 -363258.000000 0 0 1
-21.302582 -10.802361 8.581298 25.379709 0.469305 1.225882 0.105869 -0.015140 774900.000000 0 0 1
-22.401182 -10.010061 9.074898 26.160429 0.420235 1.216539 0.124385 -0.013535 -138226.000000 0 0 1
-22.881282 -10.415761 10.521998 27.253505 0.427177 1.174419 0.137829 -0.014050 -594452.000000 0 0 1
-23.616082 -11.646561 10.544398 28.364520 0.458162 1.189907 0.123007 -0.027878 884058.000000 0 0 1
-24.924982 -11.755361 9.974298 29.307505 0.440695 1.223526 0.132571 -0.031441 76750.300000 0 0 1
-25.959482 -11.134061 10.931098 30.287801 0.405171 1.201555 0.146749 -0.031461 -913243.000000 0 0 1
-26.083582 -11.852461 12.141698 31.116794 0.426510 1.169950 0.117962 -0.033834 -443073.000000 0 0 1
-27.338582 -11.684361 12.704898 32.331668 0.403897 1.166953 0.109450 -0.036666 -643486.000000 0 0 1
-27.463482 -12.435461 14.069798 33.269246 0.425180 1.134145 0.106870 -0.028773 -118743.000000 0 0 1
-27.480182 -13.858461 13.777298 33.719894 0.467088 1.149898 0.113022 -0.031689 252474.000000 0 0 1
-27.571482 -14.627261 14.951098 34.607495 0.487766 1.124066 0.072632 -0.006208 -260096.000000 0 0 1
-27.504182 -16.172961 14.827498 35.183794 0.531563 1.135775 0.085065 -0.024620 -87120.700000 0 0 1
-28.523082 -16.843361 15.542298 36.589999 0.533417 1.132090 0.102869 -0.026009 90908.800000 0 0 1
-28.356182 -18.238661 15.376798 37.056277 0.571579 1.142900 0.077147 -0.021370 -422477.000000 0 0 1
-29.290682 -19.064561 16.234998 38.535395 0.576990 1.135917 0.059512 -0.014728 -361648.000000 0 0 1
-28.984282 -19.047761 17.638498 38.910441 0.581403 1.100321 0.058652 -0.004875 -214111.000000 0 0 1
-29.606482 -20.162861 18.278998 40.214506 0.597880 1.098943 0.064996 -0.003150 -248578.000000 0 0 1
-28.763682 -21.374561 18.676498 40.410801 0.639076 1.090360 0.040464 0.003153 210732.000000 0 0 1
-27.758982 -21.002061 19.661298 39.977672 0.647703 1.056632 0.045054 0.000998 1023760.000000 0 0 1
-26.916182 -22.150461 19.956798 40.167120 0.688574 1.050838 0.042986 0.005161 -549691.000000 0 0 1
-25.516582 -21.812461 20.387198 39.274893 0.707294 1.025011 0.039376 0.011304 -1167980.000000 0 0 1
-24.719382 -21.395061 19.309698 37.969210 0.713434 1.037282 0.049481 0.006254 97096.300000 0 0 1
-23.433682 -21.107261 19.881298 37.281630 0.733215 1.008331 0.058650 0.005353 503442.000000 0 0 1
-22.389382 -20.814661 18.769598 35.872445 0.748966 1.020158 0.047827 -0.004478 -119224.000000 0 0 1
-22.127682 -21.903461 17.926898 35.927282 0.780306 1.048378 0.036840 -0.002448 -146933.000000 0 0 1
-20.936382 -21.711961 17.223298 34.733029 0.803582 1.051952 0.042254 -0.004739 -279053.000000 0 0 1
-20.689382 -22.776661 16.107698 34.731610 0.833382 1.088543 0.047526 0.003951 -551431.000000 0 0 1
-20.671982 -24.129361 16.536698 35.819258 0.862417 1.090919 0.053287 -0.005187 -189071.000000 0 0 1
-19.551082 -24.730461 17.121498 35.874590 0.901834 1.073263 0.065909 -0.012202 338688.000000 0 0 1
-18.212582 -24.874261 16.288998 34.867728 0.938794 1.084714 0.057875 -0.011384 843911.000000 0 0 1
-17.623382 -23.590261 16.095598 33.558192 0.929178 1.070561 0.061644 -0.013242 -698043.000000 0 0 1
-16.452582 -23.720461 15.346798 32.693607 0.964377 1.082171 0.063370 -0.011089 253675.000000 0 0 1
-15.534282 -22.396261 15.345898 31.279434 0.964372 1.058011 0.060658 -0.009807 407512.000000 0 0 1
-16.044182 -21.295061 14.636798 30.415970 0.925108 1.068749 0.076207 -0.007430 -100213.000000 0 0 1
-17.040382 -20.542761 15.334498 30.781918 0.878320 1.049314 0.053160 0.001106 266514.000000 0 0 1
-16.582582 -19.425861 16.407098 30.356860 0.864196 0.999796 0.061800 -0.017719 -166338.000000 0 0 1
-15.928882 -18.384361 15.684198 28.943187 0.856837 0.998105 0.068569 -0.022529 43409.400000 0 0 1
-15.772382 -17.266361 16.543498 28.645812 0.830586 0.955110 0.066901 -0.025301 -966525.000000 0 0 1
-15.228482 -16.072161 15.783998 27.191094 0.812346 0.951473 0.070401 -0.019710 -512374.000000 0 0 1
-15.943582 -15.439961 14.775998 26.663089 0.769352 0.983426 0.060600 -0.019723 -253262.000000 0 0 1
-15.837482 -16.008861 13.487798 26.249384 0.790780 1.031150 0.080517 -0.025588 -174801.000000 0 0 1
-16.632982 -15.177061 12.484498 25.746105 0.739661 1.064538 0.069819 -0.024959 701649.000000 0 0 1
-18.065882 -15.246461 12.554898 26.766698 0.700963 1.082582 0.061294 -0.027836 661113.000000 0 0 1
-18.652582 -14.383561 11.625398 26.267004 0.656888 1.112316 0.080307 -0.037765 -531551.000000 0 0 1
-20.193782 -14.481261 11.689698 27.461696 0.622120 1.131091 0.083132 -0.044324 -12758.500000 0 0 1
-20.833382 -15.652761 11.241098 28.379588 0.644352 1.163533 0.102702 -0.048106 166310.000000 0 0 1
-20.761282 -15.741761 9.802598 27.837471 0.648746 1.210943 0.127419 -0.049351 95225.100000 0 0 1
-21.774182 -16.814461 9.225898 29.016517 0.657571 1.247226 0.129775 -0.034858 801232.000000 0 0 1
-21.109182 -18.029961 9.153298 29.231146 0.706886 1.252304 0.126422 -0.016136 166993.000000 0 0 1
-21.998382 -18.907761 8.503598 30.228189 0.709987 1.285634 0.130449 -0.025508 180931.000000 0 0 1
-21.607482 -20.428661 8.480098 30.921279 0.757362 1.292989 0.130316 -0.021072 -542821.000000 0 0 1
-20.567782 -20.736161 7.629298 30.186556 0.789475 1.315287 0.135085 -0.016550 -505592.000000 0 0 1
-20.021382 -22.033161 7.949598 30.814153 0.833199 1.309860 0.113258 -0.011618 52405.700000 0 0 1
-18.749882 -22.387561 7.127198 30.059240 0.873596 1.331411 0.102797 -0.023138 407482.000000 0 0 1
-17.628282 -21.738061 7.725298 29.034115 0.889420 1.301476 0.086455 -0.016743 -357388.000000 0 0 1
-16.403682 -22.314861 7.429098 28.674471 0.936899 1.308723 0.102011 -0.015733 -618808.000000 0 0 1
-15.169882 -21.534561 7.846898 27.485204 0.957094 1.281273 0.057927 -0.016262 869125.000000 0 0 1
-13.874382 -21.929661 7.313998 26.961140 1.006696 1.296074 0.066947 -0.012594 568413.000000 0 0 1
-12.853582 -21.447361 8.107798 26.285742 1.030886 1.257235 0.060956 -0.015184 -507128.000000 0 0 1
-11.470982 -21.835861 7.556098 25.796954 1.087092 1.273531 0.055202 -0.016024 -179420.000000 0 0 1
-11.282982 -23.201761 7.703798 26.925376 1.118170 1.280625 0.051401 -0.006610 -32952.300000 0 0 1
-10.022282 -23.608261 7.198998 26.638725 1.169329 1.297148 0.076422 -0.021964 308093.000000 0 0 1
-9.917982 -25.162351 7.253898 28.002309 1.195335 1.308762 0.064001 -0.007490 -368913.000000 0 0 1
-10.705482 -25.744281 6.274398 28.578723 1.176710 1.349445 0.066823 -0.019395 -402893.000000 0 0 1
-10.856582 -27.157761 6.424698 29.944717 1.190497 1.354563 0.095574 -0.021350 284481.000000 0 0 1
-9.787182 -28.089901 5.741698 30.295190 1.235527 1.380118 0.122537 -0.035336 720667.000000 0 0 1
-8.452382 -27.887411 6.230398 29.798797 1.276508 1.360160 0.120000 -0.037806 664824.000000 0 0 1
-7.528382 -28.882111 5.764498 30.398722 1.315811 1.380011 0.139089 -0.035620 410576.000000 0 0 1
-7.630382 -30.311941 6.340798 31.894234 1.324191 1.370656 0.159793 -0.042984 -567250.000000 0 0 1
-7.572382 -30.273541 7.729698 32.149284 1.325693 1.327986 0.157281 -0.040819 168202.000000 0 0 1
-7.603382 -31.597411 8.279598 33.537434 1.334653 1.321341 0.179036 -0.047316 -139612.000000 0 0 1
-7.862382 -31.719981 9.845998 34.130894 1.327825 1.278160 0.147619 -0.044098 5774.230000 0 0 1
-6.836382 -31.062621 10.560798 33.513474 1.354166 1.250212 0.144415 -0.039994 277120.000000 0 0 1
-7.162382 -31.139491 11.938998 34.110222 1.344719 1.213212 0.123831 -0.033095 -713556.000000 0 0 1
-6.331382 -30.290471 12.893798 33.523858 1.364741 1.176005 0.113712 -0.028357 -194389.000000 0 0 1
-6.552382 -28.900551 12.713798 32.246181 1.347844 1.165520 0.109490 -0.024741 -117968.000000 0 0 1
-5.726382 -28.129951 13.550198 31.744187 1.369972 1.129783 0.087948 -0.023158 -109436.000000 0 0 1
-6.356382 -27.664271 14.896198 32.056391 1.344948 1.087515 0.094697 -0.019148 -43200.700000 0 0 1
-6.733382 -28.743031 15.773298 33.470841 1.340684 1.080083 0.070652 -0.023277 749236.000000 0 0 1
-5.647382 -29.526901 16.320998 34.206809 1.381816 1.073413 0.067098 -0.027267 696009.000000 0 0 1
-6.200382 -30.776501 17.099498 35.749553 1.371993 1.072063 0.059796 -0.019086 41766.100000 0 0 1
-6.832382 -31.610421 16.161898 36.153936 1.357928 1.107354 0.069157 -0.017202 -1170.740000 0 0 1
-6.928382 -32.920581 16.660298 37.541079 1.363366 1.110974 0.066315 -0.020016 -127119.000000 0 0 1
-5.941382 33.893943 15.976398 37.938696 -1.397266 1.136127 0.059450 -0.028891 11552.800000 0 0 1
-6.278382 33.758007 14.601998 37.312725 -1.386915 1.168708 0.076017 -0.026264 -544206.000000 0 0 1
-5.413382 32.881591 14.073598 36.174161 -1.407627 1.171195 0.095645 -0.034431 -589953.000000 0 0 1
-4.289382 33.497492 13.207598 36.261845 -1.443439 1.197992 0.112292 -0.039656 116562.000000 0 0 1
-4.793382 -33.772961 11.990898 36.157586 1.429808 1.232767 0.124748 -0.040686 -223941.000000 0 0 1
-3.736382 -33.364251 11.212498 35.395676 1.459273 1.248468 0.139327 -0.045118 -875942.000000 0 0 1
-4.246382 -32.966221 9.822898 34.659671 1.442692 1.283448 0.135355 -0.048351 -669251.000000 0 0 1
-4.290382 33.826213 8.778598 35.209144 -1.444634 1.318811 0.140799 -0.045017 348849.000000 0 0 1
-4.971382 32.577141 8.980898 34.156131 -1.419361 1.304732 0.155266 -0.051043 26494.500000 0 0 1
-6.440382 32.540121 9.458398 34.493467 -1.375400 1.293030 0.165333 -0.048191 56796.700000 0 0 1
-7.390382 32.864288 8.447398 34.728053 -1.349600 1.325087 0.159663 -0.041446 566419.000000 0 0 1
-8.741382 32.883432 8.940398 35.180429 -1.310976 1.313848 0.118474 -0.044814 709244.000000 0 0 1
-9.765382 33.042430 7.820498 35.331643 -1.283436 1.347602 0.124436 -0.058343 -427735.000000 0 0 1
-9.999082 -33.473881 7.284098 35.686698 1.280521 1.365239 0.146164 -0.049030 357372.000000 0 0 1
-10.988882 -33.526851 6.247398 35.830646 1.254067 1.395541 0.135870 -0.041394 482808.000000 0 0 1
-11.388082 -32.160841 5.565198 34.568475 1.230476 1.409102 0.115359 -0.045862 564966.000000 0 0 1
-12.306282 -31.411621 6.376798 34.333628 1.197401 1.383981 0.122107 -0.042051 317281.000000 0 0 1
-12.974082 -30.381271 5.634098 33.512557 1.167197 1.401875 0.115512 -0.036109 336500.000000 0 0 1
-14.086882 -29.653471 6.472798 33.461406 1.127307 1.376128 0.090959 -0.021664 -431013.000000 0 0 1
-15.110882 -30.555601 6.693298 34.738793 1.111528 1.376909 0.090640 -0.025883 -1508520.000000 0 0 1
-16.137782 -29.922581 7.326098 34.777299 1.076191 1.358549 0.083665 -0.024832 -966144.000000 0 0 1
34.153112 -12.596661 -12.196302 38.390894 -0.353350 1.894086 0.098462 -0.030686 -737360.000000 0 0 1
33.258102 -12.885561 -11.178902 37.377893 -0.369633 1.874522 0.114185 -0.038042 -230818.000000 0 0 1
33.280512 -14.237561 -10.762102 37.764050 -0.404244 1.859785 0.108174 -0.033927 264307.000000 0 0 1
34.435102 -14.813261 -9.861902 38.761657 -0.406249 1.828049 0.096238 -0.035668 571022.000000 0 0 1
35.703342 -14.854761 -10.477002 40.064450 -0.394275 1.835376 0.106235 -0.036323 674604.000000 0 0 1
36.723982 -15.298261 -9.532902 40.909215 -0.394712 1.805984 0.096782 -0.032335 857581.000000 0 0 1
-36.583160 -15.404361 -10.118502 40.963471 0.398544 1.820393 0.070596 -0.036408 170636.000000 0 0 1
-36.027297 -14.094961 -10.291602 40.031876 0.372923 1.830801 0.072919 -0.028926 -520370.000000 0 0 1
-34.753440 -14.043361 -10.840602 39.019690 0.384023 1.852324 0.076631 -0.029756 -613540.000000 0 0 1
-34.206768 -12.650361 -11.041202 38.105678 0.354222 1.864764 0.084016 -0.041768 -292131.000000 0 0 1
-33.720680 -12.065861 -9.819502 37.136126 0.343622 1.838398 0.095204 -0.035088 407732.000000 0 0 1
-33.343840 -10.723361 -10.098602 36.452488 0.311153 1.851503 0.101641 -0.027931 -231455.000000 0 0 1
-33.802990 -9.631161 -9.073902 36.300648 0.277566 1.823441 0.107229 -0.030405 -160786.000000 0 0 1
-33.119550 -9.503161 -7.870302 35.343405 0.279428 1.795360 0.113216 -0.023407 396270.000000 0 0 1
-33.868880 -8.660961 -6.971602 35.647110 0.250355 1.767638 0.149734 -0.036916 305359.000000 0 0 1
-33.206360 -8.596061 -5.566702 34.749716 0.253307 1.731684 0.128861 -0.025033 -695539.000000 0 0 1
-32.010210 -7.825261 -5.614302 33.427662 0.239759 1.739550 0.144290 -0.045696 516315.000000 0 0 1
-31.244670 -7.998661 -4.423002 32.554122 0.250618 1.707084 0.150368 -0.039899 -152723.000000 0 0 1
-30.533850 -9.399861 -4.302402 32.236377 0.298643 1.704660 0.144462 -0.039859 -1298840.000000 0 0 1
-31.228390 -10.511261 -3.790502 33.167255 0.324681 1.685331 0.148145 -0.036232 187239.000000 0 0 1
-31.610380 -10.422761 -2.378002 33.369221 0.318500 1.642120 0.132822 -0.039326 -125869.000000 0 0 1
-32.276700 -11.713261 -1.915902 34.389773 0.348122 1.626537 0.141177 -0.031120 -786092.000000 0 0 1
-33.509210 -12.027761 -2.465502 35.687713 0.344616 1.639937 0.153286 -0.042114 -553194.000000 0 0 1
-34.034130 -13.219961 -1.974402 36.564841 0.370495 1.624820 0.154983 -0.049913 -127362.000000 0 0 1
-35.531112 -13.306061 -2.365402 38.014553 0.358324 1.633060 0.125659 -0.039258 45345.000000 0 0 1
-36.377870 -12.582461 -1.508802 38.521996 0.333002 1.609974 0.164000 -0.041852 -521214.000000 0 0 1
37.072142 -13.102261 -1.407402 39.344552 -0.339724 1.606575 0.219488 -0.037529 -730994.000000 0 0 1
36.222212 -12.272961 -0.425202 38.247288 -0.326684 1.581914 0.206708 -0.040194 -326617.000000 0 0 1
36.522722 -12.373161 0.947698 38.573339 -0.326644 1.546225 0.231128 -0.037556 358847.000000 0 0 1
35.634792 -11.553861 1.713098 37.500198 -0.313535 1.525098 0.241671 -0.038593 316364.000000 0 0 1
36.072782 -11.506261 3.211598 37.999395 -0.308771 1.486178 0.226376 -0.049569 327402.000000 0 0 1
35.074612 -11.763061 4.200398 37.232263 -0.323585 1.457740 0.204163 -0.052598 114056.000000 0 0 1
35.642562 -11.827561 5.512498 37.956173 -0.320404 1.425048 0.203017 -0.052304 442917.000000 0 0 1
34.586872 -12.148661 6.621698 37.251692 -0.337789 1.392091 0.182337 -0.049556 645306.000000 0 0 1
33.725932 -11.052361 6.930998 36.161194 -0.316682 1.377933 0.177032 -0.048908 146324.000000 0 0 1
33.318202 -11.119161 8.277698 36.086821 -0.322104 1.339353 0.142899 -0.034930 -347422.000000 0 0 1
32.587812 -9.892461 8.750698 35.162494 -0.294723 1.319289 0.136378 -0.052513 -1278460.000000 0 0 1
31.278822 -9.702661 8.358498 33.798977 -0.300787 1.320903 0.141043 -0.047325 -618398.000000 0 0 1
30.575512 -8.663661 9.009798 33.031764 -0.276115 1.294534 0.142060 -0.040938 -408870.000000 0 0 1
29.069302 -8.772161 8.785698 31.609550 -0.293077 1.289143 0.123970 -0.037649 -563362.000000 0 0 1
28.621302 -8.597761 7.457998 30.801334 -0.291821 1.326233 0.150315 -0.040241 764886.000000 0 0 1
27.440002 -9.382061 7.176098 29.874290 -0.329451 1.328214 0.170273 -0.051880 489974.000000 0 0 1
26.493902 -8.771961 6.124798 28.572492 -0.319733 1.354760 0.183184 -0.051674 -343357.000000 0 0 1
25.695502 -7.707961 6.579798 27.621826 -0.291432 1.330274 0.189665 -0.052006 10933.500000 0 0 1
24.936902 -7.241761 5.492998 26.541764 -0.282629 1.362333 0.199813 -0.054810 -250890.000000 0 0 1
25.539202 -6.046261 4.686398 26.660279 -0.232464 1.394096 0.213837 -0.056751 -42089.900000 0 0 1
26.604702 -6.378161 3.819498 27.623897 -0.235297 1.432084 0.210188 -0.045385 170609.000000 0 0 1
27.180102 -5.250261 3.220698 27.869268 -0.190815 1.454973 0.216992 -0.050103 -274766.000000 0 0 1
27.869502 -5.694361 1.940198 28.511389 -0.201548 1.502694 0.206131 -0.053739 -454076.000000 0 0 1
26.988202 -6.064461 0.889298 27.675469 -0.221036 1.538658 0.225130 -0.052568 -4994.430000 0 0 1
27.506002 -5.931461 -0.430302 28.141563 -0.212390 1.586088 0.203192 -0.052963 -334079.000000 0 0 1
26.489902 -6.254561 -1.552202 27.262498 -0.231865 1.627763 0.221391 -0.055262 -262925.000000 0 0 1
25.397902 -5.403261 -1.575202 26.014033 -0.209619 1.631385 0.248727 -0.047803 -284040.000000 0 0 1
24.701602 -5.359061 -2.831202 25.434315 -0.213641 1.682342 0.240333 -0.047198 677740.000000 0 0 1
23.466802 -4.393361 -2.889102 24.048687 -0.185074 1.691223 0.196929 -0.042119 368126.000000 0 1 0
23.762802 -3.017261 -2.709702 24.106371 -0.126298 1.683440 0.186012 -0.042152 120882.000000 0 1 0
24.178802 -2.282161 -3.891802 24.596115 -0.094108 1.729692 0.186889 -0.042650 -507322.000000 0 1 0
23.104002 -1.720261 -4.829602 23.665994 -0.074320 1.776313 0.177292 -0.030095 -228677.000000 0 1 0
22.544502 -0.501061 -4.304902 22.957304 -0.022222 1.759431 0.147677 -0.013983 480214.000000 0 1 0
21.652702 0.183039 -5.168302 22.261724 0.008453 1.805095 0.149853 -0.012664 -19128.400000 0 1 0
21.028202 1.462939 -4.542902 21.563011 0.069458 1.783067 0.101279 0.001367 -183569.000000 0 1 0
21.863102 2.620339 -4.437502 22.462254 0.119283 1.769658 0.117953 -0.006065 207702.000000 0 1 0
22.711502 2.625739 -3.333002 23.104453 0.115102 1.715559 0.131582 -0.001506 -316260.000000 0 1 0
23.993502 3.441539 -3.555802 24.498491 0.142465 1.716455 0.156666 -0.004579 -390144.000000 0 1 0
23.734002 4.833039 -3.503002 24.473091 0.200887 1.714427 0.130534 -0.003731 754392.000000 0 1 0
24.815402 5.706439 -3.168602 25.659456 0.226026 1.694599 0.140511 -0.007646 460084.000000 0 0 1
24.299902 7.219039 -3.397302 25.576189 0.288777 1.704021 0.121170 -0.011768 -92446.600000 0 0 1
23.492302 7.627439 -2.340102 24.810123 0.313941 1.665257 0.140944 -0.015378 393016.000000 0 1 0
22.767802 8.823839 -2.726902 24.569676 0.369735 1.682012 0.132634 -0.012620 388424.000000 0 1 0
21.594302 9.098639 -1.741902 23.497518 0.398770 1.644996 0.103483 -0.009535 -49891.700000 0 1 0
22.088702 9.592839 -0.503802 24.087075 0.409711 1.591714 0.083865 -0.009155 1868900.000000 0 1 0
20.974902 9.968539 0.388998 23.226486 0.443661 1.554047 0.051679 -0.010458 973080.000000 0 1 0
21.471702 10.252539 1.779498 23.860327 0.445479 1.496147 0.072482 -0.019506 -459027.000000 0 1 0
22.424002 11.248839 2.067698 25.172359 0.464961 1.488562 0.095406 -0.030419 343426.000000 0 0 1
22.075202 12.602339 1.800698 25.482858 0.518734 1.500074 0.105293 -0.029699 -339941.000000 0 0 1
21.017402 13.364739 2.648598 25.047206 0.566391 1.464854 0.093489 -0.020788 559031.000000 0 0 1
19.676702 12.943939 2.291198 23.663638 0.581860 1.473821 0.099527 -0.014070 2140060.000000 0 1 0
18.577702 13.676239 2.921698 23.253105 0.634587 1.444816 0.077305 -0.016338 953674.000000 0 1 0
18.593002 13.785939 4.499298 23.579558 0.638012 1.378806 0.069856 -0.009650 -978713.000000 0 1 0
18.133102 12.624639 5.111098 22.678498 0.608185 1.343471 0.046448 -0.003023 391540.000000 0 1 0
18.431302 12.604439 6.476798 23.249381 0.599812 1.288482 0.068615 -0.017607 -359864.000000 0 1 0
18.324602 11.253739 7.177298 22.670494 0.550747 1.248662 0.025163 -0.013430 383331.000000 0 1 0
19.312102 10.392239 6.580098 22.896586 0.493677 1.279302 0.019459 -0.020259 907734.000000 0 1 0
19.475602 9.125939 7.214198 22.685381 0.438200 1.247166 0.037795 -0.014525 236649.000000 0 1 0
20.421402 8.217739 6.373698 22.917001 0.382581 1.288959 0.066194 -0.021755 177833.000000 0 1 0
19.800702 7.794439 5.199398 21.905589 0.375016 1.331154 0.026006 -0.019117 783450.000000 0 1 0
20.812802 7.418039 4.271198 22.504293 0.342380 1.379843 0.052282 -0.008590 134668.000000 0 1 0
20.294202 6.858439 2.921298 21.620056 0.325900 1.435262 0.046860 -0.004843 138233.000000 0 1 0
21.263502 6.026839 2.200998 22.210442 0.276192 1.471536 0.049826 -0.006866 981141.000000 0 1 0
20.936002 5.750139 0.862298 21.728411 0.268044 1.531101 0.047054 0.001527 -530281.000000 0 1 0
21.943102 4.796239 0.163498 22.461754 0.215192 1.563517 0.100461 -0.006339 98996.800000 0 1 0
21.934602 3.429039 0.617298 22.209596 0.155075 1.542999 0.092436 -0.004183 387956.000000 0 1 0
23.064302 2.769039 0.083698 23.230080 0.119485 1.567193 0.119765 -0.006475 100758.000000 0 1 0
22.996402 1.236339 0.185698 23.030361 0.053711 1.562733 0.155950 -0.011921 -283806.000000 0 1 0
22.156302 0.629639 -0.763202 22.178383 0.028410 1.605215 0.110736 -0.012411 345484.000000 0 1 0
22.372602 -0.735061 -1.036802 22.408673 -0.032844 1.617081 0.147549 -0.024767 -933052.000000 0 1 0
21.985302 -1.803961 0.097198 22.059403 -0.081870 1.566390 0.158119 -0.025818 460624.000000 0 1 0
22.942102 -2.057961 1.146998 23.062759 -0.089463 1.521042 0.158651 -0.028137 491540.000000 0 1 0
24.221702 -2.455261 0.736198 24.356953 -0.101021 1.540566 0.185905 -0.037465 -308906.000000 0 1 0
25.349602 -2.398361 1.805998 25.526772 -0.094331 1.499988 0.200487 -0.032946 11381.100000 0 0 1
25.597102 -1.020961 2.136398 25.706385 -0.039865 1.487593 0.196732 -0.029735 766049.000000 0 0 1
26.438602 -0.872861 3.298098 26.657814 -0.033003 1.446759 0.200661 -0.029570 134288.000000 0 0 1
26.327802 0.658839 3.875298 26.619639 0.025019 1.424697 0.182488 -0.019855 45447.700000 0 0 1
26.640202 1.686139 2.959698 26.857090 0.063209 1.460370 0.211787 -0.010755 -673530.000000 0 0 1
27.991202 1.791939 2.669898 28.175287 0.063931 1.475894 0.211086 -0.019924 -763506.000000 0 0 1
28.197902 3.080539 1.899598 28.429209 0.108816 1.503928 0.219954 -0.024354 -22424.200000 0 0 1
27.686102 2.976839 0.575298 27.851621 0.107110 1.550139 0.221061 -0.013296 132565.000000 0 0 1
27.891002 4.041639 -0.329502 28.184241 0.143907 1.582488 0.202498 -0.016270 5043.290000 0 0 1
29.211302 3.795639 -1.099402 29.477377 0.129213 1.608101 0.194387 -0.017770 -574207.000000 0 0 1
30.355592 4.187639 -0.427402 30.646060 0.137088 1.584743 0.190785 -0.020758 -109765.000000 0 0 1
31.509762 3.804939 -1.184302 31.760750 0.120172 1.608093 0.148676 -0.020556 1121460.000000 0 0 1
32.911152 4.226139 -0.605702 33.186911 0.127712 1.589049 0.106583 -0.021750 660723.000000 0 0 1
33.368752 3.504439 0.527598 33.556417 0.104638 1.555073 0.125049 -0.023169 253701.000000 0 0 1
32.752532 3.924039 1.731398 33.032169 0.119240 1.518357 0.108872 -0.008586 -57500.900000 0 0 1
32.918132 2.934039 2.878298 33.173734 0.088896 1.483923 0.127896 -0.010673 198730.000000 0 0 1
32.086082 1.777239 2.650998 32.244427 0.055333 1.488488 0.158589 -0.018755 433181.000000 0 0 1
32.168162 0.713539 3.648198 32.382235 0.022178 1.457896 0.154796 -0.021506 129508.000000 0 0 1
33.527032 -0.028661 3.624698 33.722413 -0.000855 1.463102 0.158192 -0.028220 -486605.000000 0 0 1
34.618482 0.555639 4.233798 34.880842 0.016049 1.449117 0.138344 -0.027253 -1027630.000000 0 0 1
35.699022 -0.313161 4.114598 35.936725 -0.008772 1.456049 0.114003 -0.029830 -1556620.000000 0 0 1
37.001392 0.388239 4.429498 37.267603 0.010492 1.451658 0.139319 -0.039742 -791979.000000 0 0 1
-37.335460 1.358439 3.482498 37.522123 -0.036369 1.477851 0.121505 -0.038170 -189700.000000 0 0 1
-36.365790 0.855539 2.616898 36.469861 -0.023522 1.498980 0.175685 -0.045551 -456763.000000 0 0 1
-35.787301 1.908039 1.608698 35.874216 -0.053266 1.525939 0.197762 -0.042919 -258542.000000 0 0 1
-34.863826 2.789939 2.196498 35.044182 -0.079854 1.508077 0.212828 -0.066488 -523449.000000 0 0 1
-34.139161 3.385239 1.233698 34.328765 -0.098837 1.534851 0.244718 -0.045771 -850903.000000 0 0 1
-33.060060 4.298839 1.824098 33.388245 -0.129306 1.516136 0.247863 -0.042852 -556567.000000 0 0 1
-32.082720 3.698439 2.617198 32.401066 -0.114772 1.489933 0.224728 -0.051481 35795.600000 0 0 1
-31.355210 4.600739 3.440998 31.877209 -0.145690 1.462640 0.234625 -0.047845 -386944.000000 0 0 1
-31.700250 4.513739 4.941998 32.399121 -0.141437 1.417664 0.227580 -0.045033 610659.000000 0 0 1
-32.971730 5.091839 5.360598 33.790499 -0.153220 1.411481 0.225400 -0.029249 1673620.000000 0 0 1
-34.096563 4.224639 5.154198 34.741746 -0.123274 1.421889 0.217259 -0.021590 -61469.100000 0 0 1
-34.270489 3.211439 6.330098 34.997855 -0.093436 1.388924 0.180263 -0.021972 -643609.000000 0 0 1
-34.845157 3.793139 7.516598 35.847902 -0.108430 1.359548 0.170309 -0.022245 378629.000000 0 0 1
-34.804295 2.989139 8.692298 35.997638 -0.085674 1.326917 0.146733 -0.023955 155570.000000 0 0 1
-35.730267 1.701139 8.755398 36.826659 -0.047575 1.330751 0.128394 -0.021340 33881.000000 0 0 1
-35.371668 0.636739 7.946398 36.258869 -0.017999 1.349846 0.132089 -0.028593 -56560.500000 0 0 1
-36.145190 -0.524761 8.130698 37.052103 0.014517 1.349556 0.126382 -0.023085 -144500.000000 0 0 1
-36.033007 -1.311661 9.477798 37.281720 0.036386 1.313754 0.129104 -0.016345 -640156.000000 0 0 1
-34.733399 -1.780761 9.589998 36.076975 0.051225 1.301741 0.143115 -0.025411 -526075.000000 0 0 1
-34.475838 -2.577961 10.767498 36.210058 0.074637 1.268868 0.132191 -0.015677 315639.000000 0 0 1
-33.196670 -3.457761 10.666298 35.039191 0.103786 1.261477 0.150024 -0.018162 255291.000000 0 0 1
-33.356970 -4.377661 9.629798 34.994062 0.130491 1.292015 0.140258 -0.031460 106672.000000 0 0 1
-32.294020 -5.302661 9.552498 34.092112 0.162747 1.286797 0.144277 -0.040324 5712.830000 0 0 1
-32.495650 -6.399461 8.505898 34.194600 0.194445 1.319407 0.145218 -0.031077 -423120.000000 0 0 1
-33.328760 -7.423761 8.847098 35.273072 0.219166 1.317272 0.156941 -0.033823 -506363.000000 0 0 1
-33.731470 -8.230961 7.721998 35.569510 0.239337 1.351958 0.164343 -0.043472 -115899.000000 0 0 1
-34.725735 -9.299861 8.158898 36.863690 0.261668 1.347622 0.176707 -0.044006 540287.000000 0 0 1
-36.014482 -8.757761 8.473598 38.020299 0.238543 1.346038 0.165680 -0.052707 639697.000000 0 0 1
-36.935810 -9.732061 8.940898 39.228901 0.257630 1.340859 0.171946 -0.055899 283205.000000 0 0 1
8.129910 -24.003861 10.536998 27.446477 -1.244231 1.176768 0.154665 -0.039467 25017.700000 0 0 1
7.446510 -24.634861 9.492898 27.430676 -1.277253 1.217419 0.135499 -0.041661 -1279020.000000 0 0 1
6.085010 -24.717861 9.718098 27.247778 -1.329417 1.206110 0.147027 -0.047001 -587311.000000 0 0 1
5.503010 -25.711181 8.680398 27.689298 -1.359946 1.251927 0.115140 -0.029782 -339455.000000 0 0 1
5.199210 -25.077551 7.477498 26.680111 -1.366367 1.286726 0.115343 -0.025157 -267243.000000 0 0 1
5.054010 -25.975511 6.396698 27.224767 -1.378629 1.333620 0.086352 -0.016804 -651630.000000 0 0 1
4.368010 -25.288661 5.217198 26.188070 -1.399758 1.370234 0.074497 -0.018506 225154.000000 0 0 1
2.962410 -25.320751 5.071398 25.992987 -1.454330 1.374430 0.067016 -0.025349 -157987.000000 0 0 1
2.350110 -26.555381 4.861298 27.098773 -1.482528 1.390428 0.059236 -0.023768 511440.000000 0 0 1
0.777510 -26.560751 4.923398 27.024393 -1.541532 1.387590 0.067800 -0.026544 855441.000000 0 0 1
0.191110 -26.264871 6.174798 26.981625 -1.563520 1.339898 0.072112 -0.027589 903627.000000 0 0 1
-1.238990 -26.263221 6.370398 27.053167 1.523655 1.333087 0.089364 -0.030740 1503310.000000 0 0 1
-1.874890 -27.669261 6.450398 28.472984 1.503139 1.342268 0.109561 -0.031264 -382221.000000 0 0 1
-1.636390 -28.332361 7.678598 29.400022 1.513104 1.306555 0.094197 -0.033554 -138384.000000 0 0 1
-2.078490 -29.651461 7.690498 30.702980 1.500813 1.317620 0.132317 -0.038412 -385092.000000 0 0 1
-1.718990 -30.348611 9.012198 31.705091 1.514215 1.282571 0.119094 -0.037267 601358.000000 0 0 1
-0.335290 -30.656081 9.203798 32.009648 1.559860 1.279147 0.103384 -0.025287 325259.000000 0 0 1
-0.197590 -30.975751 10.572898 32.731061 1.564418 1.241874 0.097644 -0.019687 -216723.000000 0 0 1
1.232210 -31.036061 11.123898 32.992370 -1.531115 1.226892 0.089666 -0.027635 -104634.000000 0 0 1
2.001410 -32.136631 10.598698 33.898393 -1.508598 1.252803 0.107329 -0.022233 77286.200000 0 0 1
3.228910 -32.292171 11.278798 34.357262 -1.471137 1.236314 0.074041 -0.019448 -80024.600000 0 0 1
3.258710 -33.154311 12.588398 35.613133 -1.472822 1.209512 0.090397 -0.023245 -370416.000000 0 0 1
2.621410 -32.467231 13.640498 35.313681 -1.490231 1.174216 0.094597 -0.025081 31100.900000 0 0 1
3.214110 -32.673541 14.932398 36.067538 -1.472741 1.143939 0.097243 -0.023126 -525562.000000 0 0 1
2.770410 -31.688031 16.023998 35.617060 -1.483590 1.104147 0.106436 -0.028094 -266522.000000 0 0 1
3.213910 -30.324881 15.913998 34.397426 -1.465208 1.089813 0.124893 -0.038258 529104.000000 0 0 1
4.613510 -30.246511 16.188298 34.614981 -1.419433 1.084146 0.112985 -0.030536 93134.100000 0 0 1
5.341810 -29.048581 15.678198 33.438913 -1.388936 1.082796 0.126473 -0.035493 -488884.000000 0 0 1
5.542510 -28.999971 14.280098 32.796935 -1.381952 1.120303 0.118065 -0.029179 971485.000000 0 0 1
4.359610 -28.915451 13.410398 32.170612 -1.421152 1.140817 0.106494 -0.019972 502776.000000 0 0 1
4.627410 -28.793171 11.884098 31.491132 -1.411447 1.183832 0.086515 -0.018136 308405.000000 0 0 1
5.334410 -29.838991 11.174998 32.306375 -1.393892 1.217591 0.082396 -0.021217 -629.021000 0 0 1
6.689610 -30.029421 11.470998 32.834445 -1.351607 1.213910 0.088354 -0.016561 -797475.000000 0 0 1
7.204810 -31.336721 10.818498 33.925496 -1.344808 1.246238 0.069014 -0.016303 -32627.100000 0 0 1
6.894610 -32.529691 11.591698 35.214825 -1.361939 1.235371 0.060569 -0.025327 344398.000000 0 0 1
7.382210 -33.673861 10.881698 36.150204 -1.354984 1.265041 0.071401 -0.018918 59115.000000 0 0 1
7.229610 32.821894 11.609398 35.557308 1.353990 1.238200 0.072249 -0.015935 -198766.000000 0 0 1
5.916010 32.397685 11.838498 34.996560 1.390180 1.225712 0.067761 -0.020027 -413424.000000 0 0 1
5.954410 31.130983 12.525798 34.080621 1.381809 1.194440 0.076466 -0.015181 750735.000000 0 0 1
4.703910 30.779193 13.425098 33.907503 1.419142 1.163713 0.081225 -0.015801 812553.000000 0 0 1
4.762910 31.390233 14.720098 34.995904 1.420213 1.136664 0.088365 -0.020377 -10257.000000 0 0 1
3.569010 31.186213 15.448498 34.985337 1.456850 1.113448 0.113005 -0.027536 171176.000000 0 0 1
3.577610 31.631213 16.938398 36.058872 1.458171 1.081797 0.128510 -0.029872 -18037.900000 0 0 1
3.774610 33.040181 17.255998 37.465594 1.457046 1.092145 0.123556 -0.027690 157730.000000 0 0 1
4.301210 33.049025 18.564798 38.149576 1.441377 1.062566 0.125356 -0.026505 40869.000000 0 0 1
4.490310 -33.315961 19.227298 38.727317 -1.436824 1.051259 0.118830 -0.032259 -685968.000000 0 0 1
3.330710 -32.665371 19.542698 38.210432 -1.469183 1.033926 0.108326 -0.029721 -941509.000000 0 0 1
3.610910 -31.773941 20.623798 38.052109 -1.457638 0.997995 0.102641 -0.032742 565602.000000 0 0 1
2.302310 -31.200481 21.248298 37.818789 -1.497139 0.974182 0.101537 -0.030920 319030.000000 0 0 1
1.484010 -32.151721 21.897098 38.928374 -1.524673 0.973393 0.116029 -0.026140 -607257.000000 0 0 1
0.423410 -31.474291 22.484498 38.682850 -1.557345 0.950529 0.092704 -0.024272 -43466.200000 0 0 1
-0.767790 -32.367891 22.973698 39.699630 1.547080 0.953677 0.105698 -0.026834 -67403.400000 0 0 1
-1.609590 -32.915571 21.982198 39.613667 1.521935 0.982536 0.103520 -0.027787 682173.000000 0 0 1
-2.570890 33.881883 22.390798 40.693234 -1.495063 0.988152 0.107790 -0.028807 1306800.000000 0 0 1
-3.881990 -33.439981 23.122398 40.840512 1.455225 0.968953 0.122624 -0.024173 497378.000000 0 0 1
-4.778690 -32.786271 22.268898 39.920912 1.426063 0.979033 0.099106 -0.020935 -613381.000000 0 0 1
-5.973290 -32.400661 22.883798 40.114227 1.388486 0.963723 0.094566 -0.010782 442812.000000 0 0 1
-7.118290 -32.008631 21.879298 39.419870 1.351971 0.982395 0.077734 -0.005012 234436.000000 0 0 1
-7.937890 -32.982771 21.340098 40.078336 1.334620 1.009293 0.055339 0.000614 -96835.500000 0 0 1
-9.052090 -32.384861 20.695298 39.484363 1.298236 1.019092 0.063223 -0.009105 414650.000000 0 0 1
-10.286190 -33.336761 20.647498 40.539666 1.271510 1.036407 0.077545 -0.016132 382886.000000 0 0 1
-10.852890 -33.488621 21.936098 41.478492 1.257400 1.013546 0.090257 -0.020761 -1050670.000000 0 0 1
-12.153890 33.867753 21.977298 42.163294 -1.226247 1.022490 0.072299 -0.011604 -686218.000000 0 0 1
-12.712990 33.810223 23.418198 43.048383 -1.211140 0.995603 0.072783 -0.011624 -147496.000000 0 0 1
-13.011890 -32.789721 24.142298 42.747229 1.193027 0.970643 0.072977 -0.008906 -187668.000000 0 0 1
-11.935290 -32.033581 24.609898 42.121829 1.214143 0.946834 0.069857 -0.009775 -557490.000000 0 0 1
-12.452990 -30.806811 25.369498 41.806076 1.186650 0.918721 0.068960 -0.022261 172837.000000 0 0 1
-13.007490 -31.102011 26.651498 42.974786 1.174682 0.901842 0.063205 -0.017380 467474.000000 0 0 1
-14.089290 -30.230041 26.941098 42.874074 1.134660 0.891331 0.078214 -0.034103 -187140.000000 0 0 1
-14.581890 -30.210341 28.402098 43.954242 1.121101 0.868235 0.083747 -0.037475 -942452.000000 0 0 1
-13.683090 -29.650081 29.278098 43.858423 1.138432 0.839870 0.069611 -0.026281 -382911.000000 0 0 1
-14.365490 -29.085261 30.345298 44.420230 1.112033 0.818741 0.084823 -0.027755 -279172.000000 0 0 1
-13.482190 -28.604741 31.483198 44.622779 1.130349 0.787610 0.069301 -0.024361 -26388.300000 0 0 1
-14.303290 -28.103181 32.561698 45.328104 1.100009 0.769361 0.070960 -0.025986 1020120.000000 0 0 1
-13.594290 -27.775821 33.795398 45.808622 1.115641 0.741062 0.071096 -0.021638 -145313.000000 0 0 1
-13.108990 -29.086351 -33.300153 46.116825 1.147367 2.377604 0.079762 -0.019378 810281.000000 0 0 1
-11.784590 -29.528151 -33.663253 46.303378 1.191069 2.384761 0.075454 -0.025742 732690.000000 0 0 1
-11.371690 -30.670011 -32.972353 46.445031 1.215734 2.360184 0.076649 -0.022385 151664.000000 0 0 1
-9.904990 -31.064701 -33.256953 46.574128 1.262137 2.366084 0.076226 -0.034395 856276.000000 0 0 1
-8.908690 -30.209241 -32.639453 45.357434 1.284025 2.374030 0.109980 -0.041704 515326.000000 0 0 1
-7.694090 -30.813421 -32.284153 45.287222 1.326101 2.364386 0.125048 -0.050299 236588.000000 0 0 1
-6.773090 -29.953421 -31.392653 43.915610 1.348415 2.367192 0.138079 -0.046089 28095.800000 0 0 1
-7.294290 -29.914421 -30.072453 43.039884 1.331625 2.344391 0.146037 -0.057861 297251.000000 0 0 1
-6.416590 -29.381281 -29.096553 41.845450 1.355782 2.339680 0.142308 -0.051639 86988.100000 0 0 1
-7.024790 -29.685881 -27.736453 41.229965 1.338433 2.308683 0.142742 -0.050084 -102606.000000 0 0 1
-6.824290 -30.999131 -27.333853 41.888621 1.354108 2.281723 0.131199 -0.044721 234562.000000 0 0 1
-7.686790 -31.421771 -26.270453 41.671946 1.330876 2.252879 0.139783 -0.048502 153709.000000 0 0 1
-7.180990 -32.773571 -25.690353 42.257162 1.355096 2.224276 0.130354 -0.048420 445124.000000 0 0 1
-6.095790 -32.490391 -24.811653 41.332823 1.385334 2.214659 0.111414 -0.049790 -10137.000000 0 0 1
-5.559090 -33.662171 -24.305253 41.890220 1.407130 2.189787 0.117456 -0.054906 269542.000000 0 0 1
-4.404790 -33.460001 -23.250653 40.982517 1.439906 2.174057 0.125427 -0.062836 434582.000000 0 0 1
-4.803190 -32.963151 -21.973953 39.906071 1.426101 2.153929 0.136590 -0.061796 113494.000000 0 0 1
-4.884690 -31.545881 -21.929053 38.728363 1.417172 2.172718 0.099908 -0.039085 -137866.000000 0 0 1
-5.427590 -30.858971 -20.640353 37.520114 1.396693 2.153297 0.135604 -0.042966 1262200.000000 0 0 1
-6.875790 -31.001251 -20.578553 37.839541 1.352539 2.145799 0.139931 -0.051354 1647370.000000 0 0 1
-7.632790 -29.872661 -20.167353 36.842332 1.320638 2.150046 0.144929 -0.047030 261556.000000 0 0 1
-7.946790 -28.855941 -21.333453 36.755040 1.302063 2.190044 0.159663 -0.049007 -343676.000000 0 0 1
-6.744790 -28.331401 -21.824053 36.392990 1.337079 2.213894 0.164730 -0.030994 -128000.000000 0 0 1
-6.996490 -27.692861 -23.052453 36.705054 1.323329 2.249836 0.188923 -0.035299 -854949.000000 0 0 1
-5.818990 -27.933401 -24.007553 37.289383 1.365417 2.270273 0.180591 -0.029611 766341.000000 0 0 1
-4.639990 -27.114901 -23.912453 36.449317 1.401315 2.286365 0.182300 -0.019055 681669.000000 0 0 1
-3.961490 -27.152331 -22.682053 35.600814 1.425920 2.261555 0.128434 -0.020573 -1673250.000000 0 0 1
-2.455390 -26.920501 -22.856353 35.399932 1.479839 2.272685 0.110601 -0.023371 -345961.000000 0 0 1
-1.937890 -25.647751 -23.126553 34.589015 1.495382 2.303134 0.096722 -0.021565 170228.000000 0 0 1
-2.009390 -24.760161 -21.989853 33.176149 1.489820 2.295377 0.100836 -0.032921 -688152.000000 0 0 1
-1.589690 -23.286661 -22.417653 32.362738 1.502636 2.336022 0.107790 -0.035554 -45105.300000 0 0 1
-2.403990 -22.630661 -23.331853 32.592964 1.464966 2.368645 0.149856 -0.039678 42043.100000 0 0 1
-3.756790 -22.400661 -22.949453 32.289014 1.404634 2.361362 0.157528 -0.040740 -73948.600000 0 0 1
-4.649490 -21.837261 -24.047853 32.814371 1.361013 2.393291 0.148056 -0.044915 -312883.000000 0 0 1
-4.204490 -20.614461 -24.539653 32.323804 1.369598 2.432852 0.142111 -0.031176 29813.300000 0 0 1
-4.786890 -20.293261 -25.787453 33.162079 1.339145 2.461666 0.190427 -0.040029 -174985.000000 0 0 1
-4.169290 -20.944561 -27.037153 34.453813 1.374302 2.473067 0.137089 -0.032566 -112438.000000 0 0 1
-5.085690 -21.102161 -28.093253 35.502060 1.334303 2.483750 0.147180 -0.029049 82477.600000 0 0 1
-4.544690 -21.912861 -29.147353 36.747733 1.366297 2.486800 0.154506 -0.029365 31201.700000 0 0 1
-5.514990 -22.113161 -30.318253 37.928926 1.326384 2.496999 0.156764 -0.038238 -166219.000000 0 0 1
-5.760290 -21.016061 -31.171253 38.032917 1.303276 2.531485 0.146474 -0.039693 19167.400000 0 0 1
-6.854990 -21.392461 -32.000353 39.097965 1.260695 2.529532 0.131744 -0.039770 15604.200000 0 0 1
-7.016190 -20.486261 -33.200153 39.637911 1.240834 2.563645 0.106238 -0.035901 266547.000000 0 0 1
-6.007090 -20.804061 33.666298 40.028911 1.289696 0.571576 0.109532 -0.039166 54338.000000 0 0 1
-6.279890 -20.211661 32.413998 38.711956 1.269546 0.578448 0.093766 -0.036027 237893.000000 0 0 1
-5.157790 -20.594661 31.441798 37.938497 1.325401 0.593913 0.115308 -0.048728 -695668.000000 0 0 1
-5.085690 -21.982561 31.205698 38.508347 1.343445 0.626027 0.111543 -0.044346 -425172.000000 0 0 1
-3.970090 -22.452861 30.532098 38.106451 1.395786 0.641445 0.127051 -0.040502 -421707.000000 0 0 1
-2.560290 -22.302161 31.109198 38.363051 1.456497 0.625081 0.110137 -0.047397 -967562.000000 0 0 1
-1.888890 -21.150361 30.737598 37.359144 1.481725 0.604547 0.125508 -0.041989 351829.000000 0 0 1
-0.735390 -20.667061 31.428698 37.622218 1.535229 0.581980 0.119372 -0.050871 443742.000000 0 0 1
-1.071390 -20.241261 32.887698 38.632334 1.517915 0.552339 0.105657 -0.049491 -3144.690000 0 0 1
-2.082690 -19.224061 32.877098 38.141915 1.462880 0.531658 0.104185 -0.046938 276045.000000 0 0 1
-2.496790 -18.875261 -33.617953 38.635168 1.439281 2.626280 0.100741 -0.049339 -43089.000000 0 0 1
-3.632690 -17.853661 -33.649353 38.265240 1.370066 2.645336 0.113763 -0.054664 -164829.000000 0 0 1
-3.225290 -16.516961 33.833598 37.787893 1.377952 0.461567 0.094997 -0.041524 -543627.000000 0 0 1
-4.204490 -15.615661 -33.609653 37.297927 1.307785 2.693126 0.103342 -0.043687 -485660.000000 0 0 1
-3.808590 -14.134461 -33.788353 36.823106 1.307593 2.732760 0.109695 -0.044256 -61974.500000 0 0 1
-2.858490 -13.563161 -32.881653 35.683797 1.363082 2.742652 0.092281 -0.040953 192666.000000 0 0 1
-2.620990 -12.174961 -33.058253 35.326298 1.358755 2.781310 0.090689 -0.036135 -292043.000000 0 0 1
-1.756790 -11.692861 33.591598 35.611863 1.421667 0.338452 0.092617 -0.041144 -624096.000000 0 0 1
-2.306490 -11.646061 32.268198 34.382950 1.375278 0.352553 0.090189 -0.033042 299418.000000 0 0 1
-1.366990 -11.085261 31.346498 33.276938 1.448100 0.342290 0.101875 -0.025495 169144.000000 0 0 1
-0.402190 -12.114261 30.780298 33.080868 1.537609 0.375140 0.081611 -0.028398 -738346.000000 0 0 1
-0.965790 -13.030561 29.851798 32.586165 1.496814 0.412583 0.096281 -0.034908 208050.000000 0 0 1
-0.064490 -14.111361 29.592298 32.784734 1.566226 0.444968 0.083016 -0.034921 202391.000000 0 0 1
-0.391390 -15.450961 30.301398 34.015586 1.545471 0.471673 0.103276 -0.037822 -283809.000000 0 0 1
-1.534990 -16.016561 29.745798 33.818618 1.475250 0.495841 0.098963 -0.041121 -362753.000000 0 0 1
-2.074390 -16.982461 30.595198 35.053862 1.449250 0.509875 0.122266 -0.048481 -348711.000000 0 0 1
-2.669390 -18.158161 29.880998 35.067342 1.424834 0.550805 0.132871 -0.026600 -305905.000000 0 0 1
-3.629090 -17.812261 28.891898 34.134861 1.369806 0.561599 0.130534 -0.029646 33708.800000 0 0 1
-4.054690 -18.989261 28.228098 34.261612 1.360430 0.602540 0.137719 -0.037350 18759.300000 0 0 1
-5.140090 -18.663061 27.191698 33.378418 1.302044 0.618672 0.121410 -0.038077 -108928.000000 0 0 1
-5.800490 -19.778761 26.576998 33.633048 1.285527 0.659653 0.121795 -0.035117 98659.600000 0 0 1
-5.000290 -20.811761 25.937398 33.628573 1.335003 0.689930 0.141216 -0.036962 62723.600000 0 0 1
-30.493050 -33.116544 -0.168402 45.017329 0.826618 1.574537 0.055441 -0.013301 -275675.000000 0 0 1
-29.508660 -32.230944 0.281898 43.699819 0.829463 1.564345 0.067596 -0.017196 -182662.000000 0 0 1
-29.766680 -31.802644 1.662898 43.591611 0.818454 1.532640 0.055420 -0.016635 -51702.200000 0 0 1
-29.076400 -30.502144 2.039298 42.189768 0.809324 1.522441 0.069334 -0.014878 -1060740.000000 0 0 1
-27.712590 -30.662244 2.008298 41.378667 0.835885 1.522243 0.078826 -0.010832 -1465570.000000 0 0 1
-27.080720 -29.378644 2.144098 40.013338 0.826076 1.517186 0.086318 -0.011679 -164450.000000 0 0 1
-25.561650 -29.511444 2.273898 39.108744 0.856995 1.512621 0.064386 -0.005478 -451234.000000 0 0 1
-25.256510 -30.174244 3.485098 39.503445 0.873885 1.482459 0.052800 0.002092 -368476.000000 0 0 1
-23.884690 -30.176844 3.768098 38.669353 0.901266 1.473197 0.046961 0.005745 -459418.000000 0 0 1
-23.389090 -31.012744 5.012898 39.165915 0.924627 1.442453 0.046659 0.000941 -102572.000000 0 0 1
-23.923590 -30.553844 6.202298 39.298142 0.906509 1.412307 0.028532 0.006698 -262543.000000 0 0 1
-23.563090 -31.350344 7.289298 39.889812 0.926269 1.387028 0.019390 -0.002770 -612588.000000 0 0 1
-23.871690 -30.645744 8.599498 39.786562 0.909019 1.352936 0.023809 0.003568 -364363.000000 0 0 1
-23.142190 -29.467444 8.804598 38.489117 0.905054 1.339997 0.022956 -0.000058 -105847.000000 0 0 1
-23.597890 -28.832944 9.979098 38.571770 0.884915 1.309105 0.013232 -0.006719 -177661.000000 0 0 1
-22.889990 -27.496644 10.311098 37.233530 0.876571 1.290198 0.009543 -0.004235 -791229.000000 0 0 1
-21.603990 -27.781744 10.726698 36.791571 0.909844 1.274946 0.020560 -0.008104 -1110220.000000 0 0 1
-21.105190 -26.626044 11.423598 35.845137 0.900552 1.246446 0.040262 -0.009614 348634.000000 0 0 1
-19.819590 -26.793544 12.289198 35.520902 0.933910 1.217523 0.052735 -0.009751 262868.000000 0 0 1
-19.887190 -27.766044 13.262898 36.638204 0.949253 1.200388 0.062234 -0.015315 -753582.000000 0 0 1
-18.628990 -27.969444 13.818498 36.335656 0.983222 1.180674 0.072952 -0.022231 -389836.000000 0 0 1
-18.609490 -29.026544 14.909398 37.565190 1.000689 1.162666 0.096888 -0.037888 60600.000000 0 0 1
-18.450590 -30.342144 14.507198 38.360510 1.024453 1.182966 0.092128 -0.033875 -55221.200000 0 0 1
-18.441390 -31.222744 15.545198 39.453742 1.037288 1.165805 0.104450 -0.034081 187384.000000 0 0 1
-18.291990 -32.666544 14.975398 40.323225 1.060338 1.190297 0.089667 -0.043531 184115.000000 0 0 1
-18.086290 -33.697944 15.931798 41.430514 1.078208 1.176084 0.102199 -0.037784 36970.200000 0 0 1
-17.799990 32.833539 15.381398 40.391439 -1.074017 1.180126 0.078216 -0.038655 -114779.000000 0 0 1
-17.769890 31.686539 16.415398 39.865663 -1.059697 1.146403 0.083148 -0.035244 736700.000000 0 0 1
-18.944490 31.678039 17.271098 40.751475 -1.031825 1.133143 0.093851 -0.045724 1014730.000000 0 0 1
-19.138190 30.387939 17.887998 40.120788 -1.008756 1.108669 0.059477 -0.027802 41777.600000 0 0 1
-19.927990 30.571239 19.191698 41.231623 -0.993119 1.086641 0.065552 -0.031992 -160663.000000 0 0 1
-19.185290 31.322239 20.125998 41.883336 -1.021227 1.069543 0.076121 -0.023638 -82788.100000 0 0 1
-19.920190 31.868439 21.197498 43.147947 -1.012143 1.057244 0.073788 -0.018373 23808.700000 0 0 1
-19.166090 33.015239 21.978698 44.050065 -1.044822 1.048412 0.054086 -0.004357 -133703.000000 0 0 1
-18.073190 32.648639 22.754698 43.707552 -1.065219 1.023228 0.055508 -0.011865 -518141.000000 0 0 1
-17.996990 33.383239 23.973898 44.867361 -1.076358 1.007083 0.053014 -0.010335 -67437.600000 0 0 1
-18.926690 32.805639 25.089698 45.430414 -1.047510 0.985716 0.044010 -0.009560 22505.600000 0 0 1
-20.275390 32.901239 24.702198 45.866999 -1.018514 1.002067 0.037421 -0.014622 -514615.000000 0 0 1
-21.060590 31.955839 25.388798 45.927282 -0.988083 0.985071 0.041549 -0.004176 -436121.000000 0 0 1
-22.554590 32.113139 25.118298 46.592834 -0.958496 1.001426 0.080635 -0.024009 -518349.000000 0 0 1
-22.937090 31.802439 23.775598 45.856126 -0.945959 1.025721 0.066749 -0.005272 653178.000000 0 0 1
-24.314090 32.137339 23.604098 46.702645 -0.923105 1.040936 0.054981 -0.016790 323792.000000 0 0 1
-24.999290 31.866339 22.268498 46.220278 -0.905575 1.068099 0.047677 -0.022627 -271191.000000 0 0 1
-24.598890 32.689439 21.179098 46.067983 -0.925695 1.093099 0.042420 -0.021795 -10735.000000 0 0 1
-24.121090 31.913639 20.105198 44.771937 -0.923578 1.105085 0.029754 -0.012753 -122366.000000 0 0 1
-23.508490 32.774039 18.992398 44.581363 -0.948560 1.130711 0.043269 -0.013185 -559683.000000 0 0 1
-22.224990 33.218339 19.328398 44.395892 -0.981140 1.120353 0.062726 -0.019150 -415911.000000 0 0 1
-21.647290 -33.883944 18.223598 44.145513 1.002288 1.145262 0.081699 -0.016951 263583.000000 0 0 1
-20.452290 -32.994644 18.653398 43.068456 1.015897 1.122855 0.092833 -0.025061 124176.000000 0 0 1
-20.783790 -31.811944 19.415798 42.672461 0.992082 1.098429 0.093458 -0.033301 -610503.000000 0 0 1
-19.671590 -31.055844 19.709598 41.712170 1.006161 1.078655 0.095146 -0.040569 -797690.000000 0 0 1
-19.860790 -29.933244 20.762398 41.491291 0.984987 1.046731 0.087781 -0.029003 70091.100000 0 0 1
-20.669890 -28.886144 20.224398 40.873952 0.949701 1.053193 0.105737 -0.033494 429274.000000 0 0 1
-21.015590 -28.008144 21.280998 40.975505 0.927079 1.024696 0.114890 -0.028335 -355520.000000 0 0 1
-21.858690 -26.777344 20.972898 40.431311 0.886187 1.025433 0.094659 -0.039503 -654378.000000 0 0 1
-21.234690 -25.777844 20.168198 39.014939 0.881736 1.027529 0.072862 -0.017709 -157732.000000 0 0 1
-22.004190 -24.732744 19.687598 38.516159 0.843713 1.034272 0.066509 0.000478 -383847.000000 0 0 1
-23.122390 -25.062944 18.637898 38.860871 0.825649 1.070591 0.052111 -0.015422 -314015.000000 0 0 1
-24.341590 -25.603944 19.026398 40.125787 0.810667 1.076777 0.055959 -0.017130 -604203.000000 0 0 1
-25.150620 -25.594844 17.869998 40.087236 0.794152 1.108753 0.035199 -0.009489 777278.000000 0 0 1
-26.699380 -25.645444 18.217998 41.260649 0.765266 1.113488 0.025806 -0.001050 1061480.000000 0 0 1
-27.138510 -26.814744 18.908098 42.579870 0.779397 1.110669 0.026878 -0.011417 -51321.600000 0 0 1
-27.285460 -27.972144 18.144998 43.083385 0.797824 1.136072 0.033458 -0.006690 -996990.000000 0 0 1
-27.917780 -29.177444 18.846898 44.563788 0.807457 1.134132 0.049569 -0.013807 809601.000000 0 0 1
-29.349310 -29.098744 18.806598 45.407125 0.781111 1.143758 0.050850 -0.015274 686556.000000 0 0 1
-30.010880 -29.508744 17.644998 45.637318 0.776962 1.173816 0.053598 -0.010032 -1168470.000000 0 0 1
-31.483310 -29.144344 17.610698 46.375945 0.746838 1.181283 0.056445 -0.013455 -688742.000000 0 0 1
-31.692000 -27.735444 17.480698 45.598383 0.718918 1.177362 0.062757 -0.013881 330436.000000 0 0 1
-33.085830 -27.493244 17.652298 46.498970 0.693340 1.181402 0.082480 -0.001073 399433.000000 0 0 1
-33.528190 -26.090444 17.118998 45.802957 0.661284 1.187744 0.086811 -0.021161 -215409.000000 0 0 1
-33.420360 -25.973444 15.697998 45.143852 0.660667 1.215644 0.105476 -0.032582 261925.000000 0 0 1
-34.297361 -24.961444 15.221698 45.067535 0.629138 1.226268 0.127622 -0.034785 212699.000000 0 0 1
-33.685590 -23.522744 14.870098 43.693915 0.609586 1.223535 0.120261 -0.025979 46367.600000 0 0 1
-33.135190 -22.865244 15.973098 43.311662 0.604023 1.193085 0.091738 -0.019651 344727.000000 0 0 1
-32.548130 -21.580444 15.644198 42.069433 0.585482 1.189778 0.090558 -0.023281 995684.000000 0 0 1
-33.574820 -20.362844 15.898998 42.363806 0.545179 1.186079 0.104915 -0.031806 853478.000000 0 0 1
-33.986170 -20.316444 17.244798 43.187969 0.538790 1.160047 0.103302 -0.025363 576695.000000 0 0 1
-34.829949 -19.150644 17.477498 43.420449 0.502715 1.156531 0.106738 -0.021205 587049.000000 0 0 1
-35.350839 -19.041944 18.953698 44.401803 0.494092 1.129770 0.094777 -0.013766 339006.000000 0 0 1
-36.488470 -19.805544 19.342198 45.801622 0.497290 1.134811 0.108153 -0.009601 457315.000000 0 0 1
-36.483620 -19.710744 20.786698 46.385933 0.495337 1.106129 0.101456 -0.003453 -640147.000000 0 0 1
36.832432 -19.835644 21.349398 46.966772 -0.494000 1.098914 0.101224 -0.007217 -29240.500000 0 0 1
36.281232 -21.188944 21.258798 47.087532 -0.528586 1.102380 0.112336 -0.012129 161276.000000 0 0 1
37.021082 -22.152744 21.968198 48.413906 -0.539229 1.099818 0.098811 -0.005395 -627357.000000 0 0 1
36.199012 -23.388044 22.343098 48.544651 -0.573626 1.092510 0.097534 -0.000653 -696271.000000 0 0 1
35.213292 -23.093244 23.250698 48.102691 -0.580449 1.066313 0.097631 -0.015311 -564982.000000 0 0 1
35.011112 -24.134344 24.231998 48.943174 -0.603532 1.052841 0.086528 -0.030459 -24591.900000 0 0 1
33.963212 -23.630244 25.286398 48.490104 -0.607875 1.022217 0.088414 -0.033161 -654038.000000 0 0 1
32.687662 -23.605644 24.782698 47.327495 -0.625443 1.019675 0.087347 -0.032743 -766898.000000 0 0 1
31.741132 -23.620844 25.865898 47.270376 -0.639760 0.991792 0.055139 -0.022922 622447.000000 0 0 1
30.448282 -24.448944 25.581298 46.682455 -0.676547 0.990843 0.057395 -0.020334 758119.000000 0 0 1
29.424502 -23.669844 24.920998 45.245099 -0.677434 0.987474 0.066777 -0.017374 354479.000000 0 0 1
28.291802 -24.471344 24.660798 44.804327 -0.713117 0.987940 0.064906 -0.011505 -565192.000000 0 0 1
27.067202 -23.692644 24.250498 43.382733 -0.719015 0.977630 0.058430 -0.011440 -739994.000000 0 0 1
27.164602 -23.158744 22.925498 42.424303 -0.705963 0.999901 0.050137 -0.007314 -23420.600000 0 0 1
27.804102 -21.889444 22.898798 42.149387 -0.666933 0.996461 0.047689 -0.003179 39902.200000 0 0 1
27.790402 -21.253344 21.496198 41.062119 -0.652889 1.019838 0.056967 -0.003025 445969.000000 0 0 1
26.907302 -20.129344 21.464298 39.873669 -0.642284 1.002369 0.049714 -0.004981 6006.630000 0 0 1
26.862102 -19.537544 20.201698 38.876687 -0.628832 1.024372 0.027457 -0.003420 139636.000000 0 0 1
26.071002 -18.173344 20.146998 37.628037 -0.608758 1.005785 0.034612 0.007435 69745.400000 0 0 1
26.584002 -17.026544 20.828598 37.821196 -0.569654 0.987579 0.043665 -0.011360 -4006.990000 0 0 1
26.791802 -17.046644 22.298798 38.802386 -0.566658 0.958588 0.045957 -0.008365 -263584.000000 0 0 1
26.645902 -15.669944 22.916498 38.480088 -0.531609 0.932856 0.068821 -0.006587 -301559.000000 0 0 1
25.402102 -15.044844 22.767998 37.282649 -0.534715 0.913869 0.043026 -0.012142 -468189.000000 0 0 1
25.340702 -13.924444 23.676098 37.371098 -0.502451 0.884676 0.037734 -0.008631 242331.000000 0 0 1
24.049002 -13.122844 23.343598 35.992876 -0.499514 0.865103 0.029272 -0.012686 642134.000000 0 0 1
22.912102 -13.808844 23.866798 35.850700 -0.542393 0.842328 0.046186 -0.014926 -108867.000000 0 0 1
21.782002 -12.963244 23.958898 34.878792 -0.536835 0.813556 0.049922 -0.020724 135915.000000 0 0 1
20.561102 -13.796244 24.436298 34.788331 -0.590988 0.791993 0.051746 -0.015777 -170334.000000 0 0 1
20.128402 -14.812644 23.597598 34.371698 -0.634421 0.814075 0.063325 -0.018970 -2320.630000 0 0 1
18.825402 -15.175644 24.015898 34.080189 -0.678465 0.788813 0.081711 -0.016254 160523.000000 0 0 1
18.229402 -16.357744 23.201498 33.737167 -0.731337 0.812462 0.091573 -0.020886 10199.200000 0 0 1
18.890402 -17.578144 23.526798 34.919174 -0.749430 0.831524 0.087359 -0.021101 279294.000000 0 0 1
18.563302 -18.575644 22.561398 34.621777 -0.785730 0.861034 0.107402 -0.024632 -15323.300000 0 0 1
19.182002 -19.916444 22.881898 35.891437 -0.804180 0.879507 0.101555 -0.022465 62569.000000 0 0 1
18.532802 -20.517344 24.042698 36.639835 -0.836175 0.855038 0.112141 -0.022664 432931.000000 0 0 1
18.884002 -21.854044 24.306898 37.749571 -0.858175 0.871213 0.114407 -0.020772 -381763.000000 0 0 1
18.379402 -22.902444 23.228098 37.441540 -0.894528 0.901565 0.106097 -0.021542 152322.000000 0 0 1
19.113902 -22.967544 22.018298 37.116772 -0.876719 0.935747 0.104593 -0.014764 518510.000000 0 0 1
20.368302 -23.666744 22.163398 38.290975 -0.860163 0.953521 0.086580 -0.019113 479800.000000 0 0 1
21.075002 -23.836844 20.795598 38.010627 -0.846816 0.991901 0.065313 -0.012003 -210779.000000 0 0 1
20.398102 -24.686044 19.920098 37.713309 -0.880223 1.014319 0.067844 -0.020588 -81502.100000 0 0 1
21.325302 -24.962944 18.911098 37.888609 -0.863824 1.048209 0.061201 -0.017803 -138492.000000 0 0 1
20.728802 -25.574144 17.674998 37.364765 -0.889663 1.078059 0.054817 -0.022694 -173636.000000 0 0 1
20.163602 -26.836844 18.005998 38.092034 -0.926438 1.078447 0.083588 -0.033579 -398223.000000 0 0 1
19.372402 -27.342044 17.010298 37.579617 -0.954375 1.101065 0.079249 -0.035869 -552973.000000 0 0 1
18.530602 -28.589644 17.355798 38.235778 -0.995717 1.099642 0.069887 -0.036817 69979.300000 0 0 1
17.490602 -28.294044 18.251898 37.942139 -1.017122 1.068949 0.083157 -0.040973 -229104.000000 0 0 1
16.791102 -29.412544 18.755498 38.714436 -1.052062 1.065053 0.089936 -0.037437 102505.000000 0 0 1
15.638702 -29.079744 19.728798 38.463307 -1.077378 1.032207 0.079789 -0.032658 627870.000000 0 0 1
14.566302 -28.447844 19.002298 37.182581 -1.097567 1.034386 0.073775 -0.038097 344147.000000 0 0 1
13.371402 -28.305244 19.759698 37.019277 -1.129471 1.007746 0.047876 -0.033828 370548.000000 0 0 1
12.270802 -27.707744 18.853198 35.689421 -1.153891 1.014249 0.072904 -0.038325 -58379.400000 0 0 1
11.987302 -28.607344 17.811998 35.767902 -1.173994 1.049519 0.084573 -0.043493 -152979.000000 0 0 1
11.651402 -27.900344 16.640498 34.512180 -1.175204 1.067674 0.108038 -0.045854 -75815.600000 0 0 1
11.333702 -28.847944 15.488098 34.648779 -1.196445 1.107384 0.108335 -0.039757 -522889.000000 0 0 1
10.159402 -29.575644 15.664898 34.976009 -1.239919 1.106409 0.136360 -0.039526 -365683.000000 0 0 1
10.117402 -30.443044 14.508698 35.208565 -1.249941 1.146062 0.101637 -0.031092 268446.000000 0 0 1
8.714302 -31.104344 14.353498 35.347449 -1.297636 1.152648 0.090921 -0.025229 371311.000000 0 0 1
8.437202 -32.019544 15.415098 36.524825 -1.313151 1.135097 0.094637 -0.026197 -454763.000000 0 0 1
7.600102 -33.008444 14.947798 37.023717 -1.344493 1.155200 0.085588 -0.029408 -347760.000000 0 0 1
7.450402 33.714139 15.982298 38.047149 1.353304 1.137279 0.102217 -0.028985 545181.000000 0 0 1
8.598602 32.863339 16.039198 37.565821 1.314886 1.129665 0.094724 -0.026631 282626.000000 0 0 1
8.410002 31.824739 16.945598 37.022905 1.312442 1.095383 0.094833 -0.031883 420745.000000 0 0 1
9.702202 30.984239 17.197198 36.740978 1.267334 1.083695 0.074853 -0.030206 122727.000000 0 0 1
10.197302 30.248039 16.113698 35.757239 1.245639 1.103312 0.075957 -0.033249 38804.800000 0 0 1
11.288902 29.430839 16.532698 35.594153 1.204530 1.087751 0.064194 -0.031269 417021.000000 0 0 1
12.038702 28.753439 15.331298 34.738154 1.174285 1.113706 0.064199 -0.023061 97033.100000 0 0 1
11.298502 27.717839 14.751998 33.369990 1.183733 1.112887 0.085949 -0.031085 -88744.300000 0 0 1
12.150202 26.979439 13.921598 32.700588 1.147651 1.131029 0.077317 -0.022332 -163896.000000 0 0 1
-9.436390 -9.248961 19.454850 23.517651 0.775368 0.596611 0.054651 -0.025676 111712.000000 0 1 0
-9.408190 -9.324561 18.062550 22.399044 0.780934 0.632760 0.049898 -0.026130 121826.000000 0 1 0
-9.434290 -10.689061 17.665250 22.700724 0.847672 0.679034 0.061654 -0.029649 -204142.000000 0 1 0
-9.576790 -10.849561 16.142850 21.679932 0.847628 0.730863 0.054292 -0.027601 68414.100000 0 1 0
-10.913890 -10.588661 15.751950 21.894215 0.770274 0.767776 0.069318 -0.037127 263672.000000 0 1 0
-11.309890 -11.023561 14.483650 21.429153 0.772578 0.828631 0.064274 -0.034248 -65776.400000 0 1 0
-11.399190 -12.582661 14.271950 22.180023 0.834707 0.871787 0.047944 -0.032220 -543081.000000 0 1 0
-10.216490 -13.298061 13.972450 21.827607 0.915705 0.876132 0.053114 -0.021268 121504.000000 0 1 0
-10.358490 -14.695161 14.062650 22.825516 0.956795 0.907023 0.076734 -0.025497 31624.000000 0 1 0
-10.124190 -15.268361 15.498250 23.996204 0.985279 0.868644 0.098257 -0.031320 -227840.000000 0 1 0
-11.214890 -14.962261 16.312850 24.814352 0.927586 0.853439 0.104370 -0.028521 -278953.000000 0 1 0
-10.974590 -15.128061 17.718050 25.753235 0.943196 0.812076 0.120766 -0.034305 -381973.000000 0 0 1
-12.124190 -14.565761 18.564250 26.529017 0.876623 0.795719 0.084190 -0.033817 -1168910.000000 0 0 1
-12.416890 -13.182961 18.369150 25.795257 0.815314 0.778292 0.085171 -0.030168 157695.000000 0 0 1
-13.593390 -12.986261 17.591850 25.746774 0.762560 0.818572 0.096012 -0.040757 365931.000000 0 0 1
-14.884790 -13.175261 18.437650 27.112569 0.724549 0.822978 0.060947 -0.030916 -751703.000000 0 0 1
-15.256590 -14.557161 18.556950 28.089764 0.761943 0.849138 0.062895 -0.024541 -91503.600000 0 0 1
-16.111290 -14.678261 19.681650 29.366517 0.738889 0.836308 0.076652 -0.030148 22425.400000 0 0 1
-16.652490 -16.091061 20.049550 30.630248 0.768254 0.857187 0.068597 -0.024614 370468.000000 0 0 1
-17.846290 -16.453061 19.356350 31.046119 0.744801 0.897622 0.066084 -0.012102 348346.000000 0 0 1
-18.234290 -17.823961 19.695850 32.219705 0.774019 0.913096 0.043958 -0.013410 3891.250000 0 0 1
-19.511890 -18.285561 18.964450 32.783013 0.752965 0.953927 0.052069 -0.011044 -248907.000000 0 0 1
-19.463790 -18.267861 17.507250 31.922682 0.753713 0.990315 0.049078 -0.014533 -4216.100000 0 0 1
-19.666290 -17.050161 16.820250 30.990188 0.714266 0.997076 0.046179 -0.008915 -599030.000000 0 0 1
-19.346790 -16.980761 15.325550 29.958588 0.720360 1.033800 0.054906 -0.012163 -79244.600000 0 0 1
-20.115890 -17.888561 14.536250 30.593335 0.726858 1.075668 0.062825 -0.019822 307746.000000 0 0 1
-19.625690 -17.858261 13.202650 29.637731 0.738281 1.109100 0.082709 -0.025949 100625.000000 0 0 1
-19.989990 -19.117561 12.336450 30.286446 0.763093 1.151272 0.090014 -0.007614 376577.000000 0 0 1
-19.362490 -20.359961 12.812750 30.880423 0.810504 1.142947 0.078469 0.000740 409399.000000 0 0 1
-19.287490 -21.299761 11.783850 31.057144 0.834936 1.181622 0.071427 -0.006304 -100862.000000 0 0 1
-18.823490 -22.685161 12.397150 31.978580 0.878164 1.172693 0.058275 -0.002177 68516.300000 0 0 1
-18.833690 -23.865761 11.547650 32.521233 0.902706 1.207796 0.070914 -0.007695 268782.000000 0 0 1
-17.759490 -23.897661 10.619050 31.611104 0.931695 1.228206 0.069189 -0.004354 -43331.600000 0 0 1
-17.754790 -25.118801 9.723850 32.260501 0.955499 1.264618 0.079067 -0.013056 496413.000000 0 0 1
-18.951490 -25.126601 8.928650 32.714306 0.924587 1.294361 0.062046 -0.013150 385546.000000 0 0 1
-19.122390 -26.252971 8.056550 33.463297 0.941270 1.327650 0.078013 -0.016771 -72415.100000 0 0 1
-20.403690 -26.057181 7.221450 33.873833 0.906486 1.355961 0.063302 -0.018267 -43831.000000 0 0 1
-20.436090 -24.922461 6.415550 32.862168 0.883987 1.374308 0.086129 -0.020174 -74819.500000 0 0 1
-21.357090 -25.127281 5.352550 33.408910 0.866328 1.409890 0.090672 -0.020198 -86872.800000 0 0 1
-21.959690 -23.822761 4.892750 32.767223 0.826070 1.420917 0.106407 -0.024330 -321914.000000 0 0 1
-22.595290 -23.856661 3.646850 33.060352 0.812546 1.460263 0.104781 -0.029892 -22848.400000 0 0 1
-22.639490 -22.550561 3.083350 32.102668 0.783430 1.474602 0.106433 -0.025616 66143.600000 0 0 1
-23.010590 -22.614161 1.565950 32.300769 0.776709 1.522297 0.093794 -0.021705 651603.000000 0 0 1
-22.012090 -23.328161 0.808450 32.084089 0.814417 1.545596 0.086831 -0.031165 654836.000000 0 0 1
-22.234290 -23.054261 -0.574450 32.034240 0.803502 1.588730 0.073942 -0.029631 -123407.000000 0 0 1
-21.471790 -23.990061 -1.558950 32.233384 0.840735 1.619180 0.081516 -0.035043 -15445.400000 0 0 1
-20.068390 -23.806761 -1.473650 31.171682 0.870398 1.618089 0.085766 -0.036192 103636.000000 0 0 1
-19.348290 -24.424161 -2.526850 31.261492 0.900843 1.651714 0.076893 -0.024542 47084.700000 0 0 1
-19.175890 -25.967531 -2.604350 32.385336 0.934724 1.651301 0.082757 -0.026369 -334858.000000 0 0 1
-20.283090 -26.630251 -3.193450 33.626955 0.919877 1.665907 0.117786 -0.035323 -34490.900000 0 0 1
-19.965690 -28.008841 -3.441150 34.568272 0.951508 1.670508 0.115598 -0.026052 -347943.000000 0 0 1
-21.149890 -28.921621 -3.797750 36.030555 0.939382 1.676396 0.115861 -0.024894 -408896.000000 0 0 1
-21.640390 -28.468731 -5.025350 36.111345 0.920833 1.710412 0.102481 -0.024676 4443.430000 0 0 1
-22.697190 -29.194621 -5.650150 37.408722 0.909961 1.722415 0.116821 -0.034574 318061.000000 0 0 1
-23.193690 -28.407331 -6.912750 37.319027 0.886094 1.757106 0.104781 -0.006265 -175617.000000 0 0 1
-22.204990 -28.195571 -7.905950 36.749909 0.903703 1.787620 0.126190 -0.006669 20164.800000 0 0 1
-22.616390 -28.281691 -9.280450 37.382908 0.896249 1.821674 0.118894 -0.006682 -268349.000000 0 0 1
-23.370590 -27.082861 -9.898050 37.116535 0.858844 1.840738 0.095537 -0.001366 95535.100000 0 0 1
-22.666890 -25.842891 -10.152350 35.842894 0.850776 1.857973 0.090806 -0.002893 146275.000000 0 0 1
-22.451490 -25.025691 -9.051050 34.817755 0.839565 1.833772 0.073975 -0.002810 -31309.700000 0 0 1
-22.124190 -23.559361 -9.413650 33.662145 0.816803 1.854227 0.052632 -0.008879 -519721.000000 0 0 1
-23.212890 -22.863461 -9.899650 34.052594 0.777815 1.865772 0.076157 -0.010756 -550808.000000 0 0 1
-22.888190 -21.577861 -10.317250 33.104666 0.755939 1.887731 0.084699 -0.003039 588323.000000 0 0 1
-24.180490 -20.713861 -10.496750 33.525242 0.708334 1.889252 0.101977 -0.006108 -192863.000000 0 0 1
-24.925390 -20.930661 -11.655750 34.572013 0.698503 1.914678 0.096358 -0.008548 85117.400000 0 0 1
-26.120010 -20.174961 -11.734350 35.028259 0.657680 1.912398 0.099568 -0.012620 19702.100000 0 0 1
-26.042550 -18.646661 -11.649550 34.082611 0.621389 1.919631 0.104728 -0.024789 -1194950.000000 0 0 1
-25.442180 -18.059461 -12.789450 33.719707 0.617289 1.959822 0.117810 -0.018895 395382.000000 0 0 1
-25.194200 -16.656861 -12.715150 32.770013 0.584166 1.969270 0.110658 -0.029785 970896.000000 0 0 1
-23.974890 -16.170561 -11.796550 31.232050 0.593392 1.958114 0.085776 -0.024864 506411.000000 0 0 1
-24.308590 -16.368461 -10.441750 31.110515 0.592623 1.913075 0.123155 -0.026230 238234.000000 0 0 1
-23.225290 -16.321461 -9.542050 29.947535 0.612566 1.895075 0.104070 -0.024182 -120065.000000 0 0 1
-23.697290 -16.725561 -8.147750 30.127923 0.614608 1.844645 0.082819 -0.026998 -51915.900000 0 0 1
-24.247490 -18.011961 -8.120250 31.277946 0.638902 1.833421 0.101430 -0.017188 561107.000000 0 0 1
-25.275100 -18.055761 -7.108750 31.864957 0.620305 1.795779 0.105179 -0.008902 644798.000000 0 0 1
-25.907850 -19.459961 -6.842150 33.116790 0.644219 1.778902 0.117779 -0.010019 562183.000000 0 0 1
-26.879160 -19.809561 -7.841750 34.298702 0.635120 1.801468 0.113185 -0.017651 627757.000000 0 0 1
-27.550160 -21.049561 -7.650350 35.505255 0.652429 1.787970 0.113238 -0.011852 187052.000000 0 0 1
-26.636320 -22.192461 -8.143550 35.613428 0.694639 1.801503 0.088596 -0.007270 103730.000000 0 0 1
-27.260700 -23.473361 -8.243150 36.906557 0.710886 1.796048 0.095386 -0.002596 -44452.300000 0 0 1
-26.405910 -24.459461 -8.836650 37.062429 0.747150 1.811541 0.069636 0.007151 514826.000000 0 0 1
-26.968960 -25.933271 -8.692550 38.411193 0.765823 1.799076 0.079502 -0.003253 283735.000000 0 0 1
-26.849110 -26.364691 -7.329550 38.336587 0.776295 1.763170 0.107409 -0.024173 62368.200000 0 0 1
-27.349810 -27.680721 -7.114750 39.558236 0.791411 1.751635 0.096496 -0.027140 -71529.100000 0 0 1
-27.051450 -28.206101 -5.696650 39.494517 0.806291 1.715540 0.117217 -0.036094 4258.880000 0 0 1
-27.851970 -27.600161 -4.702550 39.491962 0.780857 1.690156 0.094129 -0.029686 398424.000000 0 0 1
-27.307760 -27.890701 -3.393750 39.180639 0.795959 1.657523 0.104323 -0.041166 142015.000000 0 0 1
-27.530700 -29.390721 -2.915050 40.376372 0.818064 1.643056 0.093058 -0.022788 -163402.000000 0 0 1
-26.944630 -30.425051 -3.653550 40.804965 0.845990 1.660453 0.111678 -0.022336 -200383.000000 0 0 1
-27.032870 -31.739531 -3.144650 41.809839 0.865310 1.646081 0.100374 -0.025516 -141870.000000 0 0 1
-26.280710 -32.101181 -1.809250 41.526315 0.884766 1.614379 0.099444 -0.028067 663642.000000 0 0 1
-24.875690 -31.891081 -1.937550 40.491913 0.908357 1.618665 0.111457 -0.038634 371842.000000 0 0 1
-24.207090 -31.921701 -0.688550 40.068095 0.921987 1.587982 0.130962 -0.020716 586303.000000 0 0 1
-23.059590 -30.874831 -0.505050 38.539005 0.929299 1.583902 0.129527 -0.022564 453090.000000 0 0 1
-23.497390 -29.556291 -0.188950 37.758937 0.899109 1.575800 0.109601 -0.026015 -70287.200000 0 0 1
-23.622290 -28.646411 -1.297050 37.152547 0.881225 1.605715 0.131090 -0.036891 -191142.000000 0 0 1
-24.268590 -27.300001 -0.914950 36.538905 0.844115 1.595839 0.082046 -0.023769 384079.000000 0 0 1
-25.632830 -27.393981 -0.500350 37.519628 0.818598 1.584132 0.094288 -0.028175 626704.000000 0 0 1
-26.299480 -26.109941 -0.394550 37.061399 0.781782 1.581442 0.106081 -0.043649 398143.000000 0 0 1
-25.853370 -25.207781 0.744650 36.116249 0.772755 1.550177 0.107366 -0.029861 -503642.000000 0 0 1
-26.224210 -25.832161 1.942850 36.861692 0.777867 1.518065 0.076515 -0.027162 99024.800000 0 0 1
-25.669240 -25.141831 3.079250 36.062491 0.775019 1.485306 0.083354 -0.018547 321427.000000 0 0 1
-26.467580 -23.880861 3.636050 35.833631 0.734067 1.469151 0.107095 -0.019679 118819.000000 0 0 1
-26.534510 -22.785061 2.740550 35.082044 0.709521 1.492598 0.109449 -0.026460 284949.000000 0 0 1
-27.365740 -21.734861 3.235950 35.096428 0.671217 1.478463 0.103187 -0.025107 296100.000000 0 0 1
-27.411430 -20.643361 2.163650 34.383371 0.645478 1.507828 0.099653 -0.013034 -38464.400000 0 0 1
-26.156510 -20.016761 2.147750 33.006765 0.653202 1.505680 0.105851 -0.011222 -227567.000000 0 0 1
-26.039080 -19.080161 1.181850 32.302987 0.632370 1.534202 0.090326 -0.004040 -552555.000000 0 0 1
-24.708790 -18.397761 1.388050 30.837129 0.640026 1.525769 0.105882 -0.002421 -542325.000000 0 0 1
-23.561490 -19.201861 1.127750 30.415901 0.683801 1.533710 0.107501 -0.014219 75233.100000 0 0 1
-22.436390 -18.413561 1.505650 29.064029 0.687236 1.518969 0.107014 -0.009384 163629.000000 0 0 1
-21.145290 -19.283161 1.433650 28.653427 0.739371 1.520741 0.094730 -0.020982 -11676.700000 0 0 1
-20.813290 -19.477561 0.083950 28.505709 0.752258 1.567851 0.053776 -0.006053 -363592.000000 0 0 1
-19.580590 -20.141361 0.054250 28.090511 0.799515 1.568865 0.081325 -0.008974 -350705.000000 0 0 1
-19.199490 -20.619061 -1.367850 28.207039 0.821034 1.619309 0.081714 -0.014546 -106059.000000 0 0 1
-18.592790 -19.618661 -2.169550 27.116243 0.812239 1.650891 0.083352 -0.018652 -20711.400000 0 0 1
-18.391390 -20.143161 -3.452550 27.493822 0.830827 1.696704 0.072395 -0.013524 92654.100000 0 0 1
-17.586590 -19.305961 -4.472450 26.495491 0.831969 1.740409 0.086020 -0.007444 -991590.000000 0 0 1
-16.254490 -19.139061 -4.191250 25.457389 0.866718 1.736187 0.119106 -0.019215 -917586.000000 0 0 1
-15.671190 -18.258061 -5.197450 24.616183 0.861494 1.783537 0.126998 -0.017447 161702.000000 0 1 0
-14.155190 -18.004161 -5.049850 23.452509 0.904516 1.787818 0.143891 -0.032296 -216533.000000 0 1 0
-13.315890 -19.098261 -5.274450 23.872082 0.961932 1.793581 0.117876 -0.029979 938030.000000 0 1 0
-12.175090 -18.728661 -6.130550 23.164179 0.994366 1.838644 0.112864 -0.037001 1174010.000000 0 1 0
-11.101890 -19.846061 -6.075250 23.537772 1.060765 1.831858 0.111421 -0.037286 -64785.600000 0 1 0
-11.412690 -21.046061 -6.764150 24.878502 1.073906 1.846150 0.096032 -0.024337 -682362.000000 0 1 0
-10.311290 -21.794361 -7.209350 25.165285 1.128885 1.861347 0.102028 -0.015979 -324190.000000 0 0 1
-10.591190 -23.064161 -8.035750 26.621459 1.140314 1.877431 0.080040 -0.007732 -152406.000000 0 0 1
-11.034290 -22.645461 -9.362750 26.874403 1.117390 1.926648 0.074033 -0.012644 157224.000000 0 0 1
-11.076190 -23.786461 -10.225750 28.161031 1.135004 1.942407 0.083198 -0.009441 6193.330000 0 0 1
-11.809990 -23.410661 -11.526150 28.642399 1.103579 1.984950 0.106019 -0.021875 -53806.400000 0 0 1
-11.092190 -22.478761 -12.286150 27.915602 1.112401 2.026526 0.090405 -0.018510 351300.000000 0 0 1
-11.951590 -21.974961 -13.321650 28.340885 1.072669 2.060144 0.100117 -0.022571 85696.500000 0 0 1
-11.288590 -20.842161 -14.144550 27.602467 1.074407 2.108818 0.083506 -0.018671 -126003.000000 0 0 1
-11.119990 -19.621861 -13.429950 26.249479 1.055211 2.107874 0.085389 -0.020902 -120175.000000 0 0 1
-10.744390 -18.520561 -14.238650 25.713658 1.045113 2.157644 0.074405 -0.004587 22445.900000 0 0 1
-10.158490 -17.401561 -13.371550 24.182795 1.042397 2.156681 0.078045 -0.012544 -668455.000000 0 1 0
-11.150490 -16.820161 -12.565750 23.772869 0.985389 2.127718 0.075905 -0.023590 167031.000000 0 1 0
-10.647990 -15.805261 -11.653650 22.338162 0.977941 2.119630 0.072128 -0.023648 193596.000000 0 1 0
-10.383690 -14.372261 -12.250450 21.551251 0.945141 2.175397 0.073237 -0.013744 -579731.000000 0 1 0
-11.526790 -13.715861 -12.657150 21.936161 0.871903 2.185846 0.077217 -0.007790 -641939.000000 0 1 0
-11.514190 -13.750061 -14.073150 22.796804 0.873668 2.236141 0.084555 -0.008286 -242679.000000 0 1 0
-12.839090 -13.288261 -14.695650 23.608944 0.802588 2.242680 0.084064 -0.006965 -271961.000000 0 1 0
-13.046990 -11.941561 -14.381650 22.795979 0.741190 2.253490 0.079664 0.000331 9557.060000 0 1 0
-14.032990 -11.332461 -15.193350 23.583624 0.679333 2.270816 0.091847 -0.010294 16650.400000 0 1 0
-14.191790 -9.836561 -14.866150 22.785241 0.606091 2.281605 0.082449 -0.010014 913500.000000 0 1 0
-12.973990 -9.090961 -15.127650 21.904697 0.611200 2.333131 0.060978 0.006221 1084230.000000 0 1 0
-13.246690 -7.906661 -15.824550 22.099920 0.538121 2.368917 0.070164 -0.014918 -674113.000000 0 1 0
-12.108790 -6.947561 -15.685050 20.997909 0.520903 2.414307 0.045680 -0.010922 -1358450.000000 0 1 0
-10.980190 -7.208361 -16.418650 21.026105 0.580923 2.466853 0.043158 -0.001333 -625055.000000 0 1 0
-9.824790 -6.767561 -15.750550 19.758699 0.603187 2.493348 0.018879 0.002366 -139036.000000 0 1 0
12.001310 21.784439 15.721950 29.424020 1.067253 1.007089 0.103944 -0.014615 -44864.200000 0 0 1
13.041110 21.800839 16.681950 30.391358 1.031707 0.989743 0.117911 -0.017263 -20667.400000 0 0 1
13.349710 20.539039 17.289750 29.983368 0.994444 0.956181 0.103802 -0.020576 10741.300000 0 0 1
14.511710 20.666339 18.273450 31.170600 0.958602 0.944387 0.103968 -0.026574 845666.000000 0 0 1
15.818710 20.978939 17.757550 31.712428 0.924722 0.976464 0.079163 -0.012545 482177.000000 0 0 1
16.846810 20.690339 18.656950 32.557441 0.887435 0.960577 0.085013 -0.018624 1093000.000000 0 0 1
18.263110 21.133939 18.069050 33.266728 0.858139 0.996604 0.055599 -0.000047 448044.000000 0 0 1
18.584710 22.477239 18.373850 34.470511 0.879912 1.008617 0.059264 -0.006317 -732982.000000 0 0 1
19.730610 23.031239 17.841750 35.186120 0.862432 1.039017 0.050089 -0.002359 608558.000000 0 0 1
21.145810 22.537639 18.360650 35.947239 0.817249 1.034720 0.050314 -0.002988 634802.000000 0 0 1
21.332710 21.140439 18.247250 35.142067 0.780871 1.024832 0.047538 0.003260 419170.000000 0 0 1
22.578410 20.671239 18.786550 35.916838 0.741330 1.020363 0.058552 0.002499 493405.000000 0 0 1
22.560510 19.154539 18.758950 35.039566 0.703930 1.005857 0.061703 -0.000389 -149290.000000 0 0 1
22.451910 18.735139 17.386850 34.020527 0.695401 1.034368 0.031422 -0.000535 81767.100000 0 0 1
22.220910 17.333239 17.183250 33.007183 0.662452 1.023253 0.035719 -0.010732 -540599.000000 0 0 1
23.260610 16.337339 17.724050 33.497860 0.612309 1.013245 0.057434 -0.007481 -15427.200000 0 0 1
24.427310 16.435339 16.921350 33.958003 0.592255 1.049157 0.076760 -0.027785 -325544.000000 0 0 1
25.330010 15.411339 17.137650 34.246428 0.546589 1.046711 0.064728 -0.020902 -679521.000000 0 0 1
26.661010 15.588939 16.383450 34.960577 0.529100 1.083061 0.174964 -0.048052 -184733.000000 0 0 1
27.531810 16.536839 17.002850 36.339573 0.540894 1.083897 0.146378 -0.043680 1489090.000000 0 0 1
28.765710 16.085539 17.607850 37.366389 0.509873 1.080121 0.164140 -0.052172 1651930.000000 0 0 1
29.969010 15.510039 16.777150 37.685218 0.477578 1.109408 0.163151 -0.060683 -56274.900000 0 0 1
30.562710 16.458039 15.979650 38.213814 0.493972 1.139373 0.193228 -0.056347 -273345.000000 0 0 1
31.608410 15.869739 15.217650 38.503469 0.465305 1.164480 0.178854 -0.047504 9989.770000 0 0 1
31.351010 15.326439 13.784350 37.520580 0.454701 1.194605 0.135659 -0.051119 -700440.000000 0 0 1
31.306910 16.270339 12.742850 37.513022 0.479287 1.224208 0.138708 -0.040018 460281.000000 0 0 1
30.377010 15.894639 11.717750 36.231312 0.482071 1.241460 0.128165 -0.030109 1072280.000000 0 0 1
28.841810 16.134339 11.883850 35.119693 0.510038 1.225600 0.123715 -0.039061 431150.000000 0 0 1
28.324110 17.485539 11.695450 35.281481 0.553070 1.232914 0.110919 -0.027720 480046.000000 0 0 1
28.799010 18.505039 12.638850 36.490547 0.571126 1.217109 0.113644 -0.037894 -325264.000000 0 0 1
28.257910 18.520339 14.087250 36.605506 0.580165 1.175762 0.123995 -0.037705 -687117.000000 0 0 1
26.937510 18.968739 14.044050 35.814493 0.613523 1.167847 0.117822 -0.029076 -382584.000000 0 0 1
26.298710 19.105339 15.303850 35.928317 0.628274 1.130779 0.097682 -0.031347 -56175.000000 0 0 1
26.855210 20.164439 16.325450 37.340692 0.644050 1.118310 0.107684 -0.034132 -308542.000000 0 0 1
26.842610 21.458539 15.954550 37.888551 0.674388 1.136148 0.081691 -0.019186 173392.000000 0 0 1
25.657310 22.138539 16.302350 37.605573 0.711910 1.122413 0.057180 -0.013607 -325441.000000 0 0 1
25.629510 23.654439 15.971950 38.360233 0.745344 1.141350 0.056192 -0.008621 -202959.000000 0 0 1
25.373710 23.890939 14.613250 37.790862 0.755309 1.173759 0.077661 -0.026922 74747.000000 0 0 1
25.605310 25.220439 14.236050 38.657051 0.777826 1.193654 0.095330 -0.030294 -163023.000000 0 0 1
25.367310 25.461439 12.720950 38.126210 0.787250 1.230620 0.099614 -0.033927 82333.000000 0 0 1
24.021910 25.807839 12.419050 37.380872 0.821223 1.232129 0.086434 -0.017368 334407.000000 0 0 1
23.738710 25.802739 11.034750 36.756951 0.827037 1.265885 0.083368 -0.041704 7829.920000 0 0 1
23.128710 24.445739 10.550350 35.268135 0.813075 1.266998 0.097139 -0.046055 -615121.000000 0 0 1
21.772110 24.285639 10.936550 34.400948 0.839918 1.247268 0.098399 -0.041827 169031.000000 0 0 1
21.301110 22.950739 10.713950 33.094750 0.822659 1.241121 0.098187 -0.036247 62027.400000 0 0 1
21.196910 22.496039 9.219950 32.255051 0.815123 1.280908 0.117999 -0.036035 -929917.000000 0 0 1
20.178710 22.978639 8.394150 31.712143 0.850185 1.302905 0.134302 -0.037120 1229.500000 0 0 1
20.652010 23.360539 7.122550 31.983606 0.846861 1.346220 0.122177 -0.039856 84957.800000 0 0 1
19.428210 23.731739 6.241350 31.298646 0.884781 1.370038 0.116526 -0.033079 -118031.000000 0 0 1
18.692510 22.561339 5.998450 29.906611 0.878906 1.368854 0.113112 -0.023943 532849.000000 0 0 1
17.823410 22.589339 4.847750 29.179666 0.902787 1.403888 0.119524 -0.029451 511296.000000 0 0 1
16.396510 23.193439 5.001950 28.840955 0.955424 1.396483 0.100892 -0.021932 -110891.000000 0 0 1
16.287410 24.639239 5.004750 29.956959 0.986702 1.402945 0.101862 -0.025426 439366.000000 0 0 1
14.936610 24.977539 5.295550 29.580782 1.031847 1.390806 0.092117 -0.026974 360628.000000 0 0 1
14.716810 26.488039 5.311550 30.763831 1.063662 1.397271 0.084830 -0.030153 -362318.000000 0 0 1
14.752510 26.939239 3.992050 30.972498 1.069781 1.441547 0.071736 -0.025817 265905.000000 0 0 1
14.747110 28.384239 3.873850 32.220320 1.091629 1.450275 0.073772 -0.029086 -176164.000000 0 0 1
14.063310 28.829439 2.532150 32.176468 1.116948 1.492019 0.074787 -0.030757 -224432.000000 0 0 1
14.631010 28.321939 1.337650 31.905925 1.093960 1.528859 0.092506 -0.033707 13951.900000 0 0 1
14.279710 26.979839 0.959650 30.540838 1.084005 1.539369 0.078597 -0.022294 -342416.000000 0 0 1
15.266010 26.364639 -0.016750 30.465482 1.045936 1.571346 0.069463 -0.020847 -312022.000000 0 0 1
15.287110 26.911039 -1.294650 30.977022 1.054193 1.612602 0.067606 -0.007772 490455.000000 0 0 1
16.345510 26.468439 -2.179250 31.184982 1.017574 1.640735 0.066953 -0.004408 365864.000000 0 0 1
16.304210 27.219639 -3.489850 31.920450 1.031122 1.680345 0.077529 -0.023288 -337384.000000 0 0 1
15.255210 26.848139 -4.373650 31.187704 1.054085 1.711496 0.090986 -0.021290 -164398.000000 0 0 1
15.538810 27.206639 -5.698150 31.845326 1.051867 1.750697 0.094351 -0.018197 224842.000000 0 0 1
14.366310 27.059939 -6.710250 31.363333 1.082730 1.786415 0.113259 -0.030442 385987.000000 0 0 1
14.123010 25.755039 -7.130150 30.226156 1.069214 1.808934 0.087760 -0.022358 -411205.000000 0 0 1
12.833210 25.779539 -7.681650 29.804089 1.108905 1.831477 0.069182 -0.035575 -76427.100000 0 0 1
12.223010 24.366039 -7.959850 28.398329 1.105837 1.854896 0.091060 -0.023608 161629.000000 0 0 1
12.781910 23.772539 -9.123350 28.491163 1.077465 1.896755 0.082698 -0.030335 404830.000000 0 0 1
11.973410 22.646039 -9.464350 27.308965 1.084438 1.924704 0.091725 -0.016505 354458.000000 0 0 1
12.563010 21.933839 -10.693250 27.445731 1.050641 1.971009 0.083123 -0.016539 -32461.200000 0 0 1
11.893610 20.718239 -10.993150 26.297391 1.049665 2.002074 0.088098 -0.020339 -558770.000000 0 0 1
12.004510 20.349839 -12.371550 26.669824 1.037831 2.053164 0.079652 -0.021964 -113602.000000 0 0 1
13.343910 19.787039 -12.894250 27.126529 0.977475 2.066144 0.105239 -0.009917 -109502.000000 0 0 1
14.377910 20.744139 -12.882250 28.337184 0.964711 2.042726 0.093497 -0.014787 -286270.000000 0 0 1
15.533110 20.099739 -13.416050 28.727468 0.912861 2.056704 0.065477 -0.008246 507702.000000 0 0 1
16.853010 20.853339 -13.076950 29.831064 0.891094 2.024577 0.097433 -0.006553 -2520.720000 0 0 1
17.221510 21.938539 -13.978250 31.197298 0.905276 2.035390 0.084169 -0.011000 142634.000000 0 0 1
16.431110 23.139639 -14.039650 31.662850 0.953334 2.030197 0.077440 -0.009494 174267.000000 0 0 1
17.103410 24.353739 -14.808250 33.240270 0.958534 2.032519 0.071224 -0.007764 34262.600000 0 0 1
17.136510 24.388939 -16.234250 33.941586 0.958304 2.069514 0.057857 -0.009571 -393285.000000 0 0 1
15.868010 24.489939 -16.844550 33.694061 0.995871 2.094310 0.036565 -0.001464 -308350.000000 0 0 1
15.940810 24.412039 -18.394050 34.473152 0.992322 2.133620 0.035850 0.002290 -52989.000000 0 0 1
16.296110 23.124039 -18.918950 34.032500 0.956906 2.160252 0.043557 0.008488 -179688.000000 0 0 1
16.347610 23.099039 -20.359250 34.861283 0.954909 2.194453 0.038670 0.014604 -140876.000000 0 0 1
16.957210 21.770839 -20.788450 34.549618 0.909057 2.216422 0.048316 0.013324 -34550.100000 0 0 1
16.001610 20.745739 -20.664350 33.368437 0.913789 2.238620 0.055916 0.013686 168421.000000 0 0 1
16.443510 19.545139 -21.350750 33.290480 0.871369 2.267049 0.055989 0.007029 -9601.170000 0 0 1
15.384210 18.448139 -21.362250 32.145816 0.875714 2.297677 0.057282 0.003026 -964181.000000 0 0 1
15.091910 17.822939 -20.093750 30.808793 0.868181 2.281290 0.061805 0.001053 164485.000000 0 0 1
14.318210 16.667339 -20.406550 29.987308 0.861067 2.319250 0.071408 -0.006978 1306400.000000 0 0 1
12.790610 16.868639 -20.805050 29.681658 0.922037 2.347510 0.081713 -0.015351 563071.000000 0 0 1
12.031310 17.305439 -19.671250 28.830344 0.963277 2.321715 0.068956 -0.011266 -2300960.000000 0 0 1
10.768810 17.467939 -20.064650 28.699937 1.018340 2.344960 0.083386 -0.012742 -1591220.000000 0 0 1
9.656410 16.969839 -19.081050 27.300333 1.053457 2.344698 0.088843 -0.022442 -17448.600000 0 0 1
9.470910 15.557839 -19.085550 26.381864 1.023964 2.379560 0.107272 -0.035555 1119100.000000 0 0 1
8.128110 15.069039 -18.802350 25.429717 1.076134 2.402953 0.101121 -0.029674 1510170.000000 0 0 1
7.581810 15.269539 -17.355450 24.328056 1.109927 2.365124 0.095097 -0.035226 -46355.000000 0 1 0
7.334710 16.626239 -17.079150 24.938468 1.155324 2.325196 0.100115 -0.026831 -472434.000000 0 1 0
6.863810 16.863039 -15.801450 24.107257 1.184242 2.285594 0.082742 -0.032232 -216202.000000 0 1 0
6.468810 18.287039 -15.412450 24.775087 1.230796 2.242212 0.078122 -0.021636 -588418.000000 0 1 0
7.490810 19.203539 -15.157450 25.585864 1.198876 2.204850 0.065591 -0.020114 -282812.000000 0 0 1
8.112410 19.816539 -16.329350 26.928686 1.182234 2.222312 0.087243 -0.016872 292725.000000 0 0 1
9.268310 20.749839 -15.901950 27.736788 1.150716 2.181344 0.065718 -0.005526 -59574.000000 0 0 1
8.887010 21.874639 -15.160050 28.058972 1.184896 2.141581 0.065281 -0.014696 -227583.000000 0 0 1
8.677210 21.618739 -13.791650 27.071636 1.189106 2.105342 0.048028 -0.011637 -254720.000000 0 0 1
8.335210 22.876839 -12.994450 27.598573 1.221394 2.061036 0.055962 -0.016645 -396816.000000 0 0 1
7.099210 23.500939 -13.242150 27.893503 1.277431 2.065464 0.050630 -0.014038 -299243.000000 0 0 1
6.776010 24.470639 -12.258950 28.195893 1.300661 2.020588 0.037731 -0.014046 -125041.000000 0 0 1
6.212710 23.988339 -10.896750 27.069861 1.317376 1.985088 0.024414 -0.019435 -473656.000000 0 0 1
7.065210 23.438539 -9.864950 26.393173 1.278023 1.953866 0.022947 -0.013911 -158365.000000 0 0 1
6.375510 22.859339 -8.799350 25.310573 1.298806 1.925865 0.041110 -0.029219 -378341.000000 0 0 1
7.262410 22.634139 -7.582950 24.950912 1.260313 1.879595 0.038408 -0.030475 -165252.000000 0 1 0
7.669010 23.856839 -7.100250 26.045653 1.259770 1.846899 0.033454 -0.022339 382211.000000 0 0 1
8.824110 23.771739 -6.265850 26.119368 1.215360 1.813052 0.051823 -0.021297 170745.000000 0 0 1
9.133610 25.140939 -5.638650 27.336497 1.222326 1.778556 0.039282 -0.015861 67356.100000 0 0 1
9.737410 26.098139 -6.523550 28.609207 1.213686 1.800843 0.050564 -0.026156 152507.000000 0 0 1
9.919710 27.299539 -5.758350 29.611216 1.222265 1.766509 0.054620 -0.021551 83000.700000 0 0 1
10.066610 28.597239 -6.613150 31.030187 1.232329 1.785563 0.059267 -0.023622 -792941.000000 0 0 1
11.173210 28.768239 -7.388750 31.733986 1.200341 1.805787 0.065594 -0.026178 -1217080.000000 0 0 1
11.207710 30.065339 -7.936750 33.053433 1.213975 1.813285 0.064308 -0.021262 422659.000000 0 0 1
12.534910 30.511839 -8.629050 34.096288 1.180996 1.826658 0.082051 -0.036020 266044.000000 0 0 1
13.609710 30.559539 -7.738350 34.336449 1.151816 1.798117 0.086682 -0.022385 6568.410000 0 0 1
14.813910 30.907739 -8.444450 35.299420 1.123850 1.812362 0.081033 -0.026381 1184750.000000 0 0 1
16.114210 31.156339 -7.640150 35.899264 1.093480 1.785258 0.077336 -0.027812 494880.000000 0 0 1
16.843210 30.045439 -7.167750 35.182365 1.059858 1.775964 0.070955 -0.022027 -100450.000000 0 0 1
18.063310 30.429939 -6.576350 35.993232 1.035094 1.754539 0.075655 -0.017207 777319.000000 0 0 1
19.074410 29.284239 -6.144950 35.484648 0.993470 1.744846 0.075538 -0.017180 427281.000000 0 0 1
18.627910 28.482039 -5.093850 34.411814 0.991598 1.719369 0.077355 -0.019357 313267.000000 0 0 1
19.654710 27.554539 -4.668850 34.166628 0.951198 1.707875 0.067284 -0.014620 397225.000000 0 0 1
19.976110 26.380039 -5.619350 33.563798 0.922676 1.739011 0.071099 -0.008469 71796.900000 0 0 1
20.614110 26.737339 -6.873950 34.453999 0.913999 1.771655 0.055799 -0.008486 409996.000000 0 0 1
20.490210 25.750039 -7.808250 33.821325 0.898661 1.803766 0.061913 -0.014066 -240438.000000 0 0 1
21.174310 26.222239 -9.162150 34.927099 0.891502 1.836224 0.055281 -0.017630 860433.000000 0 0 1
22.589710 26.132439 -9.276350 35.766606 0.857983 1.833154 0.051099 -0.014408 679413.000000 0 0 1
23.182910 24.788539 -9.380550 35.212409 0.818856 1.840451 0.064376 -0.012738 -169744.000000 0 0 1
24.698810 24.830339 -9.103250 36.186270 0.788054 1.825095 0.021441 0.000014 -81796.100000 0 0 1
25.345410 25.136439 -10.335650 37.162563 0.781259 1.852633 0.032409 -0.003381 194529.000000 0 0 1
26.713410 25.463039 -10.099150 38.261802 0.761438 1.837910 0.026278 0.009772 598636.000000 0 0 1
27.572210 25.402539 -11.411450 39.188480 0.744464 1.866271 0.033857 0.005479 136022.000000 0 0 1
27.326010 26.500439 -12.262850 39.992020 0.770062 1.882449 0.025082 0.004748 -24885.500000 0 0 1
28.253510 26.477839 -13.331250 40.951912 0.752966 1.902373 0.044531 -0.000622 151499.000000 0 0 1
28.170210 27.491139 -14.463150 41.934547 0.773199 1.922927 0.057279 -0.001857 -81140.400000 0 0 1
28.394310 28.811639 -14.029550 42.815601 0.792693 1.904637 0.051161 0.002429 -16797.800000 0 0 1
28.304010 29.685239 -15.124650 43.715964 0.809212 1.924075 0.053663 0.008026 -113979.000000 0 0 1
28.725610 31.124139 -14.930250 44.908631 0.825453 1.909705 0.062695 -0.004772 793709.000000 0 0 1
30.114010 31.385439 -14.667150 45.902339 0.806069 1.896029 0.057456 -0.006244 780144.000000 0 0 1
30.356810 32.771339 -14.813850 47.063221 0.823628 1.891005 0.051398 -0.012778 -88697.400000 0 0 1
16.130210 -32.527044 -28.298872 46.032797 -1.110433 2.232871 0.100399 -0.031304 -24143.500000 0 0 1
17.387510 -32.947544 -27.816572 46.493309 -1.085209 2.212164 0.079847 -0.027792 79394.700000 0 0 1
17.668810 -32.217144 -26.663952 45.399312 -1.069160 2.198541 0.086733 -0.035775 158705.000000 0 0 1
18.930610 -32.652144 -25.866232 45.755791 -1.045387 2.171606 0.032565 -0.025316 1563260.000000 0 0 1
20.296310 -32.329244 -26.186092 46.290729 -1.010186 2.172063 0.067567 -0.040785 1322620.000000 0 0 1
20.836810 -32.845744 -27.399912 47.579099 -1.005477 2.184478 0.069484 -0.033203 707774.000000 0 0 1
22.353710 -32.405444 -27.484952 48.012745 -0.966940 2.180289 0.092347 -0.035915 860440.000000 0 0 1
22.590110 -31.042244 -27.802072 47.401362 -0.941707 2.197558 0.094174 -0.043755 34765.700000 0 0 1
23.939010 -30.737944 -27.526402 47.703251 -0.909110 2.185889 0.058860 -0.032119 -202172.000000 0 0 1
24.334510 -29.451944 -28.314112 47.552858 -0.880256 2.208590 0.042297 -0.033962 -190623.000000 0 0 1
24.564210 -29.760844 -29.671892 48.677812 -0.880766 2.226298 0.041058 -0.034246 -184333.000000 0 0 1
25.184510 -28.660244 -30.237462 48.682371 -0.849860 2.240964 0.039308 -0.032982 -35050.100000 0 0 1
25.590610 -28.746444 -31.729282 49.879702 -0.843412 2.260250 0.041875 -0.028314 126998.000000 0 0 1
26.801310 -29.409544 -31.986702 51.052723 -0.831766 2.247905 0.043151 -0.035268 -490645.000000 0 0 1
26.962010 -29.621944 -33.355472 52.124822 -0.832372 2.265184 0.037453 -0.030887 122480.000000 0 0 1
28.135810 -30.547744 -33.729972 53.502331 -0.826476 2.252915 0.027760 -0.025882 421316.000000 0 0 1
29.411510 -29.957244 -33.524532 53.724925 -0.794590 2.244652 0.028274 -0.023782 301605.000000 0 0 1
30.352810 -30.610544 33.402212 54.534450 -0.789626 0.911580 0.030345 -0.010792 1607790.000000 0 0 1
31.783310 -29.960244 33.203824 54.866100 -0.755880 0.920805 0.039890 -0.022560 1073020.000000 0 0 1
31.799710 -28.723244 32.530758 53.800525 -0.734610 0.921464 0.051023 -0.020776 341758.000000 0 0 1
33.134310 -28.241344 32.464494 54.308373 -0.705845 0.930067 0.052956 -0.024911 237561.000000 0 0 1
33.222110 -27.003244 31.580180 53.199545 -0.682503 0.935250 0.051041 -0.028876 54260.500000 0 0 1
34.563610 -26.713244 31.244870 53.707378 -0.657979 0.949904 0.040031 -0.024920 200287.000000 0 0 1
34.560410 -25.767544 30.156660 52.610003 -0.640666 0.960376 0.045045 -0.024151 -185528.000000 0 0 1
35.300510 -26.147444 28.846520 52.554130 -0.637529 0.989759 0.042382 -0.018376 -224705.000000 0 0 1
34.748710 -27.146844 27.986470 52.227067 -0.663193 1.005269 0.038478 -0.020444 -273212.000000 0 0 1
33.600610 -26.731144 27.325170 50.894204 -0.672025 1.004036 0.036933 -0.023773 -651504.000000 0 0 1
32.988810 -27.819444 26.427690 50.602429 -0.700591 1.021296 0.019679 -0.020633 -363513.000000 0 0 1
31.609010 -27.656144 26.221940 49.513452 -0.718799 1.012677 0.027474 -0.010308 -6690.390000 0 0 1
31.157010 -28.742744 25.417940 49.426474 -0.745115 1.030655 0.032466 -0.005523 150836.000000 0 0 1
29.859010 -28.459944 24.623010 48.039791 -0.761413 1.032639 0.036290 -0.006844 260445.000000 0 0 1
28.679910 -28.402244 25.390530 47.685467 -0.780534 1.009294 0.042184 -0.003987 -357044.000000 0 0 1
27.569310 -27.960744 24.670420 46.373480 -0.792447 1.009842 0.061477 -0.001361 298345.000000 0 0 1
26.327410 -27.691244 25.579470 45.980940 -0.810640 0.980863 0.083443 -0.009681 428704.000000 0 0 1
26.336710 -26.525644 26.335560 45.725199 -0.788972 0.957027 0.084456 -0.016530 -325129.000000 0 0 1
25.184710 -26.549344 27.130760 45.554532 -0.811770 0.932825 0.107865 -0.025346 -181809.000000 0 0 1
24.882810 -25.298444 27.955210 45.173657 -0.793681 0.903533 0.106920 -0.023709 -629710.000000 0 0 1
23.684910 -25.383044 28.682380 45.032797 -0.819992 0.880297 0.114635 -0.017168 -45821.700000 0 0 1
23.540110 -24.400944 29.695020 45.070357 -0.803352 0.851495 0.105605 -0.011864 -214081.000000 0 0 1
23.091010 -23.020744 29.220890 43.783671 -0.783874 0.840095 0.099569 -0.010542 -773880.000000 0 0 1
24.088010 -22.423244 28.450160 43.502249 -0.749621 0.857946 0.111705 -0.015242 -168364.000000 0 0 1
23.756210 -21.113844 28.005580 42.361119 -0.726577 0.848492 0.114694 -0.011675 -151923.000000 0 0 1
24.267710 -20.004444 28.969790 42.759189 -0.689397 0.826424 0.105546 -0.007074 -58586.100000 0 0 1
23.815310 -19.968144 30.332140 43.427347 -0.697755 0.797557 0.111425 -0.006012 167916.000000 0 0 1
24.622410 -19.060744 31.041260 43.967430 -0.658761 0.786954 0.088780 -0.003322 -8925.160000 0 0 1
23.931610 -18.598944 32.336069 44.320019 -0.660665 0.753053 0.100564 -0.004900 119177.000000 0 0 1
23.999210 -19.706544 33.247996 45.494386 -0.687495 0.751281 0.076839 -0.001507 64824.900000 0 0 1
23.375010 -19.425644 -33.330542 45.107336 -0.693385 2.402257 0.093978 -0.003483 -67467.200000 0 0 1
23.364110 -20.666744 -32.386162 44.965091 -0.724214 2.374961 0.066330 0.000614 -682109.000000 0 0 1
24.551510 -20.883044 -31.721202 45.222923 -0.704831 2.348213 0.052698 0.007726 -904315.000000 0 0 1
24.517410 -22.065644 -30.910312 45.204462 -0.732815 2.323739 0.057576 -0.002636 -389233.000000 0 0 1
25.661910 -22.226444 -29.926462 45.256398 -0.713782 2.293300 0.050759 0.002376 -311436.000000 0 0 1
26.907210 -22.509644 -30.502602 46.487533 -0.696643 2.286496 0.046817 0.002482 -446592.000000 0 0 1
27.862910 -23.072144 -29.632702 46.762833 -0.691618 2.257098 0.056925 -0.004144 193714.000000 0 0 1
28.866210 -23.955844 -30.426472 48.300215 -0.692704 2.252279 0.052120 -0.012712 278403.000000 0 0 1
29.808810 -23.245944 -31.254852 49.049004 -0.662323 2.261678 0.054170 -0.007357 602491.000000 0 0 1
29.355910 -23.050244 -32.626212 49.573712 -0.665651 2.289136 0.052791 -0.005139 215691.000000 0 0 1
29.818910 -24.210644 -33.518502 50.978551 -0.681969 2.288295 0.047844 -0.008499 15075.800000 0 0 1
28.978110 -25.321844 -33.289242 50.883202 -0.718165 2.283958 0.049659 -0.016571 77264.600000 0 0 1
29.401310 -26.457544 33.778930 52.013986 -0.732747 0.863975 0.042953 -0.015654 -179022.000000 0 0 1
28.905110 -26.455944 32.327242 50.798356 -0.741187 0.880995 0.046361 -0.024296 -196378.000000 0 0 1
29.621310 -25.693044 31.372820 50.217610 -0.714500 0.896001 0.030504 -0.025355 -200984.000000 0 0 1
29.127110 -25.834844 30.064390 49.190398 -0.725569 0.913241 0.037278 -0.024590 -627952.000000 0 0 1
30.156710 -25.383044 29.018980 48.947189 -0.699658 0.936187 0.035115 -0.020071 41851.100000 0 0 1
30.566810 -23.993744 28.952440 48.458987 -0.665503 0.930463 0.032269 -0.024833 550261.000000 0 0 1
31.097710 -23.414844 30.200560 49.268614 -0.645383 0.910973 0.035820 -0.011449 -1114230.000000 0 0 1
31.553910 -21.924144 30.173250 48.854297 -0.607238 0.905087 0.035970 -0.009460 844529.000000 0 0 1
32.930210 -21.780944 29.805310 49.468826 -0.584367 0.924158 0.052675 -0.018700 646247.000000 0 0 1
33.853610 -22.063544 30.842530 50.834325 -0.577593 0.918860 0.042104 -0.016640 -381519.000000 0 0 1
35.302110 -21.647944 30.470480 51.413253 -0.550083 0.936441 0.031209 -0.014485 48781.800000 0 0 1
35.836210 -22.322644 29.344540 51.416305 -0.557093 0.963409 0.046520 -0.027744 -1001870.000000 0 0 1
36.955810 -21.648544 28.967840 51.706161 -0.529909 0.976121 0.036915 -0.022439 -1126290.000000 0 0 1
-37.284782 -21.944044 27.546530 51.288471 0.531960 1.003813 0.057417 -0.027404 -203279.000000 0 0 1
-36.794782 -23.268844 27.410160 51.445232 0.563900 1.008887 0.038565 -0.023219 153047.000000 0 0 1
-36.379482 -23.473144 26.090650 50.548760 0.573015 1.028449 0.039831 -0.008409 -96874.300000 0 0 1
-36.145982 -24.927944 25.690470 50.871747 0.603743 1.041409 0.035604 -0.025443 -724533.000000 0 0 1
-37.358282 -25.610044 25.745610 52.099443 0.600945 1.053925 0.043662 -0.024509 -441710.000000 0 0 1
37.361610 -26.963644 25.390480 52.608027 -0.625138 1.067135 0.033675 -0.014983 -221019.000000 0 0 1
-36.645382 -27.929444 26.319250 53.062611 0.651235 1.051806 0.027566 -0.015582 -1197240.000000 0 0 1
-36.578682 -29.206744 25.820080 53.457556 0.673803 1.066717 0.038234 -0.019373 339212.000000 0 0 1
-35.520182 -29.965844 26.360240 53.427496 0.700784 1.054821 0.044479 -0.023337 -729146.000000 0 0 1
-34.083782 -29.529544 26.258000 52.184104 0.713928 1.043522 0.051817 -0.020369 -2130840.000000 0 0 1
-33.694682 -29.665744 24.986610 51.378192 0.721896 1.062915 0.059402 -0.026116 -1068270.000000 0 0 1
-32.475582 -29.091044 24.706720 50.113613 0.730480 1.055246 0.043013 -0.016976 -713197.000000 0 0 1
-31.943582 -29.292944 23.259160 49.187981 0.742140 1.078260 0.042382 -0.012764 -190627.000000 0 0 1
-31.582282 -30.563644 22.786340 49.505496 0.769009 1.092487 0.054805 -0.015015 630626.000000 0 0 1
-31.004682 -30.492744 21.468150 48.497208 0.777074 1.112225 0.051039 -0.012942 -488905.000000 0 0 1
-30.911882 -31.885544 20.775750 49.029217 0.800902 1.133223 0.064896 -0.016965 258113.000000 0 0 1
-29.880682 -32.776444 21.187550 49.153460 0.831581 1.125141 0.076466 -0.029854 485615.000000 0 0 1
-28.552082 -32.411644 20.840050 47.958771 0.848623 1.121268 0.092223 -0.028680 146317.000000 0 0 1
-27.657982 -33.668644 20.608850 48.200272 0.883097 1.128997 0.082996 -0.021450 -309230.000000 0 0 1
-28.042482 33.291439 19.522250 47.705544 -0.870770 1.149193 0.071484 -0.019613 508495.000000 0 0 1
-29.224582 32.488639 19.633850 47.906951 -0.838240 1.148525 0.083091 -0.019767 452634.000000 0 0 1
-29.256382 31.428739 20.794550 47.708645 -0.821180 1.119797 0.088263 -0.012837 -75630.900000 0 0 1
-28.366482 30.357739 20.527950 46.342705 -0.819294 1.111899 0.072040 -0.013434 30650.700000 0 0 1
-28.264382 29.516539 21.654550 46.249550 -0.807066 1.083531 0.058145 -0.010783 -4929.090000 0 0 1
-27.271782 28.326439 21.528750 44.828834 -0.804365 1.069864 0.048653 -0.005010 210638.000000 0 0 1
-25.922582 28.716239 21.365750 44.193867 -0.836483 1.066199 0.053434 -0.001724 -189784.000000 0 0 1
-25.124482 27.676039 20.898450 42.824618 -0.833685 1.060998 0.035591 -0.008145 693576.000000 0 0 1
-23.572082 27.901839 20.968050 42.116681 -0.869316 1.049671 0.023402 -0.002936 781246.000000 0 0 1
-23.108782 27.910739 22.316750 42.556580 -0.879242 1.018784 0.034713 -0.004146 1923380.000000 0 0 1
-21.695682 28.279139 22.407550 42.101195 -0.916379 1.009563 0.061354 -0.013510 1552730.000000 0 0 1
-21.109382 28.328739 23.823770 42.610978 -0.930401 0.977497 0.048276 -0.005965 -563732.000000 0 0 1
-21.291782 27.198439 24.622330 42.418795 -0.906612 0.951505 0.076841 -0.013084 435121.000000 0 0 1
-20.953482 27.401439 26.039650 43.219795 -0.917963 0.924175 0.079046 -0.016304 -811112.000000 0 0 1
-19.499182 27.607739 26.434160 42.908859 -0.955859 0.907073 0.099708 -0.016571 -1118700.000000 0 0 1
-19.016482 28.877639 26.102230 43.322870 -0.988455 0.924161 0.061569 -0.007245 263333.000000 0 0 1
-17.636782 29.101639 26.344770 43.034967 -1.025947 0.911993 0.069997 -0.002189 142501.000000 0 0 1
-17.315182 29.543339 27.784090 44.097393 -1.040664 0.889163 0.060687 0.000658 -484979.000000 0 0 1
-17.366182 28.427639 28.597130 43.903426 -1.022407 0.861415 0.083282 -0.010116 239191.000000 0 0 1
-17.339782 28.796239 29.916000 44.998428 -1.028794 0.843539 0.065280 -0.002722 -109065.000000 0 0 1
-17.250782 27.584239 30.923350 44.885781 -1.011920 0.810779 0.064485 -0.008219 -511285.000000 0 0 1
-15.909582 27.205839 31.097450 44.275545 -1.041639 0.792086 0.065879 -0.004807 -58943.200000 0 0 1
-15.549982 26.366139 32.170738 44.406437 -1.037932 0.760544 0.083351 -0.011906 -177377.000000 0 0 1
-15.956182 26.815739 33.586096 45.844405 -1.034039 0.748647 0.079786 -0.012976 -1491550.000000 0 0 1
-17.266882 26.497439 33.823260 46.306289 -0.993267 0.751853 0.080183 -0.016590 -1551040.000000 0 0 1
-17.822282 27.193239 -32.944332 46.286445 -0.990639 2.362781 0.075972 -0.023888 -157043.000000 0 0 1
-19.220682 26.688139 -32.553492 46.275492 -0.946644 2.351067 0.064632 -0.019149 109393.000000 0 0 1
-20.159382 26.588539 -33.608082 47.358782 -0.922069 2.359795 0.053351 -0.013939 -144920.000000 0 0 1
-21.410182 26.136739 -33.131522 47.320426 -0.884481 2.346408 0.055521 -0.015145 545009.000000 0 0 1
-22.506882 26.070139 33.542716 48.076249 -0.858620 0.798617 0.080108 -0.028994 326983.000000 0 0 1
-22.628582 25.008039 32.651565 46.942299 -0.835307 0.801586 0.089439 -0.021637 -55206.700000 0 0 1
-22.830482 23.677339 33.148367 46.697554 -0.803605 0.781508 0.081812 -0.028658 -139025.000000 0 0 1
-23.236482 22.709139 32.015136 45.613682 -0.773921 0.792769 0.093120 -0.029736 1462370.000000 0 0 1
-24.634582 22.821439 31.617420 46.123117 -0.747210 0.815505 0.086819 -0.024765 1201730.000000 0 0 1
-24.852982 22.360139 30.284530 45.108750 -0.732647 0.834744 0.112761 -0.034466 185157.000000 0 0 1
-26.318182 22.073539 29.866100 45.517818 -0.697908 0.855103 0.090381 -0.024527 172011.000000 0 0 1
-26.851682 20.914439 30.437480 45.660341 -0.661734 0.841149 0.100823 -0.027076 -435810.000000 0 0 1
-28.045782 20.638439 29.759340 45.805342 -0.634405 0.863618 0.072781 -0.021111 -299488.000000 0 0 1
-28.700882 19.267239 30.113150 45.845053 -0.591212 0.854168 0.093042 -0.019265 -166608.000000 0 0 1
-29.291182 19.165739 31.390610 47.017755 -0.579405 0.839771 0.072227 -0.016623 -84774.000000 0 0 1
-29.472082 17.840839 31.805899 46.888318 -0.544342 0.825305 0.067545 -0.012924 -164775.000000 0 0 1
-30.317882 16.758439 31.032360 46.508350 -0.504958 0.840295 0.044593 -0.010846 -267953.000000 0 0 1
-31.665182 17.065339 31.293890 47.678266 -0.494305 0.854819 0.047897 -0.009653 -176048.000000 0 0 1
-32.534382 15.977839 31.002910 47.696517 -0.456507 0.863207 0.061799 -0.001121 -1057.190000 0 0 1
-34.034182 16.256439 31.210580 48.956079 -0.445609 0.879519 0.048855 -0.001989 -536996.000000 0 0 1
-34.324782 16.379539 32.555592 50.063425 -0.445236 0.862834 0.042256 -0.003883 -339425.000000 0 0 1
-35.710982 16.518639 32.665924 51.139048 -0.433253 0.877902 0.065468 -0.009946 -538264.000000 0 0 1
-36.150182 16.824339 -33.693272 52.202783 -0.435588 2.272383 0.057542 -0.010200 431069.000000 0 0 1
37.163810 16.787439 -33.535462 52.797671 0.424279 2.259024 0.063024 -0.012939 478094.000000 0 0 1
36.717910 17.127839 -32.227102 51.770203 0.436466 2.242733 0.052641 -0.016589 -358892.000000 0 0 1
35.250010 17.489839 -32.093782 50.778623 0.460575 2.254971 0.068961 -0.023592 -313803.000000 0 0 1
34.350710 16.393939 -32.175722 49.839840 0.445284 2.272582 0.083259 -0.018703 -71973.000000 0 0 1
33.061910 16.780339 -31.769792 48.826114 0.469664 2.279266 0.089602 -0.024856 -314667.000000 0 0 1
31.999710 15.680139 -31.889582 47.820431 0.455623 2.300785 0.088782 -0.021209 -104486.000000 0 0 1
31.828110 15.279839 -33.276502 48.516262 0.447580 2.326613 0.092202 -0.025636 -860536.000000 0 0 1
31.021410 14.191739 -33.422282 47.757536 0.429059 2.345959 0.093514 -0.033128 -788528.000000 0 0 1
31.587010 12.772239 -33.391212 47.705789 0.384252 2.346110 0.087872 -0.030754 410034.000000 0 0 1
32.271310 12.395339 -32.146792 47.206971 0.366723 2.319890 0.082547 -0.035836 215766.000000 0 0 1
33.331610 11.512439 -32.366882 47.865933 0.332563 2.313387 0.083920 -0.033946 -253928.000000 0 0 1
17.727410 -21.016361 9.805398 29.190655 -0.870085 1.228226 0.027158 -0.013991 -257920.000000 0 0 1
17.663710 -22.366161 10.376398 30.330207 -0.902336 1.221630 0.022502 -0.015982 -766738.000000 0 0 1
18.825810 -23.108461 10.384798 31.563525 -0.887173 1.235539 0.018047 -0.025311 -1341540.000000 0 0 1
18.732910 -24.415461 11.167398 32.737554 -0.916342 1.222689 0.026090 -0.020912 -14954.200000 0 0 1
17.903110 -25.439571 10.658998 32.883238 -0.957558 1.240687 0.031309 -0.029612 74417.200000 0 0 1
16.524310 -25.219071 10.853398 32.044510 -0.990753 1.225264 0.026249 -0.028105 -361746.000000 0 0 1
15.561610 -26.140601 10.087498 32.050778 -1.033837 1.250619 0.042416 -0.028012 -70243.700000 0 0 1
15.713210 -25.851041 8.724798 31.484971 -1.024634 1.290011 0.058004 -0.032215 500012.000000 0 0 1
14.785710 -26.606931 7.923498 31.453582 -1.063581 1.316142 0.072042 -0.027710 213896.000000 0 0 1
14.620610 -25.889121 6.553098 30.445885 -1.056707 1.353861 0.082530 -0.026696 -319644.000000 0 0 1
13.868310 -24.727461 6.707498 29.133621 -1.059664 1.338480 0.085530 -0.036558 -114607.000000 0 0 1
13.355110 -24.259461 5.481598 28.229919 -1.067561 1.375378 0.087630 -0.024505 -344821.000000 0 0 1
12.841610 -22.859761 5.754798 26.843869 -1.058972 1.354739 0.103653 -0.026251 -242152.000000 0 0 1
12.171510 -22.256761 4.640698 25.788469 -1.070361 1.389858 0.095579 -0.021665 -174162.000000 0 0 1
11.597110 -21.064961 4.996098 24.559856 -1.067538 1.365941 0.106277 -0.026893 -197003.000000 0 1 0
10.647410 -20.440161 3.902798 23.375187 -1.090564 1.403047 0.088214 -0.031048 482233.000000 0 1 0
11.346110 -19.988461 2.755898 23.148818 -1.054516 1.451462 0.070712 -0.025655 -460546.000000 0 1 0
10.495910 -19.323561 1.919698 22.073726 -1.073215 1.483719 0.052628 -0.018392 -467790.000000 0 1 0
11.248610 -18.932661 0.667398 22.032301 -1.034698 1.540500 0.046275 -0.010461 294300.000000 0 1 0
12.107410 -17.840161 0.981898 21.582976 -0.974536 1.525287 0.041605 -0.010361 -652909.000000 0 1 0
12.965710 -17.549561 -0.026302 21.819657 -0.934498 1.572002 0.062542 -0.016787 -757603.000000 0 1 0
14.111410 -16.566961 0.322698 21.764655 -0.865270 1.555969 0.057386 -0.007159 175856.000000 0 1 0
15.194110 -17.212661 0.943898 22.978852 -0.847606 1.529708 0.059857 -0.023004 -1152970.000000 0 1 0
16.394710 -16.568161 0.812698 23.322756 -0.790660 1.535944 0.062611 -0.027192 -1053910.000000 0 1 0
17.609910 -17.282061 1.393198 24.712741 -0.776002 1.514391 0.060254 -0.017013 -508397.000000 0 1 0
18.016010 -18.330861 0.569398 25.708390 -0.794060 1.548646 0.061444 -0.019704 -238020.000000 0 0 1
19.095010 -18.992161 1.167898 26.957106 -0.782698 1.527458 0.055409 -0.013821 -64069.000000 0 0 1
19.426010 -20.318261 0.490198 28.114798 -0.807844 1.553360 0.034915 -0.006549 -36516.500000 0 0 1
18.371410 -21.216861 0.694298 28.073937 -0.857151 1.546063 0.035352 -0.003679 -62850.200000 0 0 1
18.488910 -22.300961 -0.149902 28.968865 -0.878583 1.575971 0.043243 -0.005952 -41072.900000 0 0 1
17.638910 -23.540561 0.276598 29.417098 -0.927744 1.561394 0.047704 -0.002672 416050.000000 0 0 1
18.084810 -24.102961 1.516098 30.171371 -0.927094 1.520526 0.036500 -0.002683 345204.000000 0 0 1
17.191610 -25.178121 1.810398 30.541231 -0.971708 1.511484 0.051344 -0.005764 14474.100000 0 0 1
17.291210 -25.839731 3.207698 31.256471 -0.981062 1.467990 0.050019 -0.012476 384746.000000 0 0 1
18.162010 -26.958181 3.428698 32.685748 -0.977933 1.465704 0.043388 -0.014037 690633.000000 0 0 1
19.537510 -26.597711 3.545898 33.192257 -0.937253 1.463763 0.051326 -0.005910 347190.000000 0 0 1
20.577810 -27.744261 3.518098 34.721280 -0.932631 1.469298 0.070819 -0.008665 111762.000000 0 0 1
20.965510 -28.219071 2.250298 35.226871 -0.931819 1.506873 0.071916 -0.009890 -498765.000000 0 0 1
21.811610 -29.319411 2.235398 36.611080 -0.931191 1.509700 0.103237 -0.014747 -261559.000000 0 0 1
21.279910 -30.658931 2.839198 37.428140 -0.964051 1.494866 0.105245 -0.024696 41758.300000 0 0 1
21.261310 -30.646221 4.271298 37.543017 -0.964266 1.456779 0.101818 -0.027153 -102657.000000 0 0 1
20.372310 -31.676441 4.658098 37.948989 -0.999260 1.447740 0.103045 -0.043146 127630.000000 0 0 1
20.191610 -31.869091 6.185498 38.230884 -1.006051 1.408289 0.116829 -0.042684 528466.000000 0 0 1
21.259010 -32.648971 6.758698 39.542140 -0.993621 1.399029 0.113788 -0.052843 754106.000000 0 0 1
20.828010 -33.165251 7.997298 39.971198 -1.010038 1.369360 0.110645 -0.046353 -373802.000000 0 0 1
21.857310 33.709211 8.559298 41.076934 0.995541 1.360886 0.112280 -0.047329 -1042430.000000 0 0 1
22.899210 -33.466991 9.178398 41.577113 -0.970731 1.348207 0.116845 -0.048370 -1131190.000000 0 0 1
24.039710 33.538009 9.327098 42.304852 0.948891 1.348496 0.119426 -0.053854 -256787.000000 0 0 1
25.092010 -33.627011 10.244998 43.189638 -0.929741 1.331304 0.104678 -0.049557 -467419.000000 0 0 1
25.661010 -32.478441 9.666798 42.506277 -0.902125 1.341368 0.084209 -0.048008 -71180.200000 0 0 1
26.796410 -32.117231 10.441098 43.111259 -0.875469 1.326174 0.071242 -0.039542 64775.700000 0 0 1
27.617110 -31.028931 9.729998 42.663476 -0.843509 1.340708 0.064194 -0.039742 -344181.000000 0 0 1
26.790710 -29.920591 9.484498 41.266689 -0.840532 1.338889 0.055363 -0.041195 -3740.500000 0 0 1
27.233010 -29.185591 8.349498 40.781732 -0.819993 1.364602 0.058857 -0.036200 3810.010000 0 0 1
26.682610 -27.744421 8.165298 39.349545 -0.804905 1.361771 0.049719 -0.029716 -111025.000000 0 0 1
27.172610 -26.885571 9.116398 39.297498 -0.780088 1.336679 0.048241 -0.040066 -169196.000000 0 0 1
26.650510 -25.624291 8.795098 38.002733 -0.765769 1.337246 0.043220 -0.027373 -11276.000000 0 0 1
27.270010 -24.502961 9.702098 37.923334 -0.732003 1.312085 0.055039 -0.041158 -70258.600000 0 0 1
28.648210 -24.346661 9.523498 38.783719 -0.704407 1.322705 0.077892 -0.035650 -916778.000000 0 0 1
29.204210 -23.503661 10.480398 38.924886 -0.677663 1.298186 0.063424 -0.038018 632908.000000 0 0 1
30.676710 -23.131461 10.083398 39.721530 -0.646082 1.314135 0.087357 -0.040280 754257.000000 0 0 1
30.758010 -22.301961 8.915998 39.024706 -0.627359 1.340290 0.100714 -0.032527 84777.700000 0 0 1
32.084810 -22.154761 8.423398 39.890126 -0.604326 1.358030 0.112068 -0.040298 396343.000000 0 0 1
32.234510 -21.275061 7.158498 39.280224 -0.583379 1.387530 0.114170 -0.029353 -139986.000000 0 0 1
31.861310 -19.931661 7.331398 38.290516 -0.559013 1.378139 0.111120 -0.022619 -66821.400000 0 0 1
32.172910 -19.258461 6.131398 37.994454 -0.539384 1.408711 0.103017 -0.024916 182823.000000 0 0 1
31.848910 -17.738561 6.297698 36.995549 -0.508171 1.399735 0.115308 -0.020787 437898.000000 0 0 1
32.691410 -17.111961 7.277498 37.609965 -0.482223 1.376069 0.126343 -0.022118 643423.000000 0 0 1
32.239610 -15.746061 7.431098 36.640853 -0.454330 1.366571 0.126102 -0.022844 188436.000000 0 0 1
32.836110 -15.114661 8.692998 37.178372 -0.431391 1.334793 0.128518 -0.040573 -618284.000000 0 0 1
34.180010 -14.815461 8.542698 38.219742 -0.409009 1.345377 0.123284 -0.035037 -1008460.000000 0 0 1
34.828410 -14.595461 9.773898 39.007368 -0.396835 1.317532 0.111631 -0.037677 -957652.000000 0 0 1
36.314310 -14.779761 9.654598 40.377986 -0.386522 1.329352 0.104247 -0.044089 -1162260.000000 0 0 1
36.976010 -13.818261 8.858098 40.455353 -0.357638 1.350048 0.125489 -0.039369 1574030.000000 0 0 1
-36.345782 -14.219461 8.800598 40.008242 0.372921 1.349013 0.118280 -0.033825 2024240.000000 0 0 1
-35.488082 -13.382061 7.808898 38.722892 0.360598 1.367743 0.135916 -0.047646 -349981.000000 0 0 1
-35.772482 -13.566661 6.457498 38.799794 0.362490 1.403587 0.174225 -0.055254 61585.400000 0 0 1
-34.799482 -12.964261 5.615298 37.558056 0.356614 1.420724 0.154983 -0.043246 259579.000000 0 0 1
-33.507882 -13.761661 5.408298 36.625280 0.389696 1.422589 0.118858 -0.030857 -70114.500000 0 0 1
-32.663782 -13.919561 6.554798 36.105985 0.402841 1.388241 0.131333 -0.030620 107862.000000 0 0 1
-31.668282 -14.895861 6.414398 35.579646 0.439665 1.389522 0.127116 -0.009578 -29485.400000 0 0 1
-31.378382 -15.485161 7.780698 35.845952 0.458432 1.351995 0.110345 -0.017540 114405.000000 0 0 1
-32.430582 -16.354761 8.166598 37.227868 0.467082 1.349630 0.090415 -0.024869 181484.000000 0 0 1
-32.208882 -17.002761 9.398198 37.614253 0.485710 1.318263 0.087900 -0.033505 -863699.000000 0 0 1
-33.340082 -17.921661 9.729498 39.082094 0.493227 1.319200 0.040555 -0.026737 -1578090.000000 0 0 1
-34.596182 -17.279561 9.754098 39.882595 0.463219 1.323720 0.064990 -0.019509 663734.000000 0 0 1
-35.615582 -17.903361 10.568198 41.239384 0.465792 1.311640 0.075217 -0.026187 512627.000000 0 0 1
-36.056682 -19.345661 10.204598 42.171942 0.492446 1.326394 0.082918 -0.023680 -263674.000000 0 0 1
-35.030682 -20.393661 10.416198 41.851490 0.527203 1.319268 0.076977 -0.015956 839164.000000 0 0 1
-34.716282 -20.604861 11.787898 42.056332 0.535642 1.286702 0.093720 -0.032398 77872.400000 0 0 1
-35.779382 -21.410161 12.612398 43.561815 0.539238 1.277062 0.134550 -0.056140 159252.000000 0 0 1
-35.817982 -22.788561 12.323698 44.205428 0.566636 1.288270 0.152439 -0.062740 361128.000000 0 0 1
-37.088582 -23.253961 11.871898 45.356935 0.560025 1.305968 0.138001 -0.037416 184489.000000 0 0 1
-37.295482 -24.735061 12.146598 46.371500 0.585612 1.305763 0.142984 -0.036112 -227514.000000 0 0 1
37.290410 -25.023661 13.496998 46.892721 -0.591030 1.278839 0.168461 -0.039119 221042.000000 0 0 1
36.423610 -26.137391 13.697198 46.877029 -0.622437 1.274276 0.157652 -0.047137 330583.000000 0 0 1
35.059610 -25.693331 14.283998 45.753209 -0.632433 1.253292 0.157746 -0.042660 -293650.000000 0 0 1
34.292010 -24.916461 13.404598 44.457342 -0.628354 1.264514 0.133542 -0.043477 74427.500000 0 0 1
33.068910 -24.548661 14.042998 43.513163 -0.638586 1.242184 0.122394 -0.033610 -275215.000000 0 0 1
32.873410 -23.070661 14.429298 42.674596 -0.611935 1.225874 0.142065 -0.032987 -36355.100000 0 0 1
33.870410 -22.459461 15.245798 43.405834 -0.585529 1.211903 0.157417 -0.037482 243623.000000 0 0 1
35.049310 -22.095461 14.550198 43.913231 -0.562481 1.233073 0.143771 -0.041852 -74806.500000 0 0 1
36.273710 -21.723961 15.399898 44.998549 -0.539603 1.221506 0.125994 -0.035621 -118663.000000 0 0 1
36.192410 -20.492961 16.092398 44.596158 -0.515213 1.201620 0.139514 -0.022544 -29506.500000 0 0 1
35.279810 -20.446661 17.187898 44.251043 -0.525252 1.171882 0.128138 -0.018522 247880.000000 0 0 1
35.269110 -19.024761 17.827898 43.859841 -0.494682 1.152204 0.126031 -0.009430 -175691.000000 0 0 1
34.944910 -18.019061 16.880598 42.787707 -0.476083 1.165251 0.114709 -0.013553 73829.800000 0 0 1
35.011210 -16.681661 17.366698 42.493116 -0.444644 1.149773 0.106537 -0.011434 526813.000000 0 0 1
36.432710 -16.095261 17.706798 43.588192 -0.415998 1.152473 0.089660 -0.016544 494846.000000 0 0 1
36.894410 -16.512961 18.996798 44.662666 -0.420834 1.131459 0.086029 -0.003815 389861.000000 0 0 1
-37.033682 -15.445661 19.506198 44.615623 0.395135 1.118307 0.087716 -0.010773 -124839.000000 0 0 1
-36.532682 -15.630661 20.927698 44.910165 0.404286 1.086043 0.084559 -0.006221 -81869.300000 0 0 1
-35.492682 -16.571261 21.119498 44.501352 0.436812 1.076308 0.081618 -0.006314 216199.000000 0 0 1
-35.055782 -16.456961 22.469498 44.772958 0.438911 1.045055 0.070136 0.000248 24113.900000 0 0 1
-33.954782 -17.418261 22.912798 44.512013 0.473981 1.030074 0.070881 0.004919 -782041.000000 0 0 1
-34.460882 -18.711961 23.073498 45.498090 0.497446 1.038943 0.072336 -0.004810 473621.000000 0 0 1
-33.554682 -19.767361 23.463898 45.466688 0.532373 1.028542 0.049161 -0.004590 656573.000000 0 0 1
-32.496482 -20.234261 22.386898 44.346588 0.556915 1.041627 0.053391 0.001109 1335840.000000 0 0 1
-31.389682 -19.320661 22.228898 43.043280 0.551746 1.028118 0.057119 0.010404 191184.000000 0 0 1
-30.174882 -19.906661 21.885598 42.258467 0.583171 1.026404 0.051256 0.001287 -62028.100000 0 0 1
-28.945482 -18.976261 22.047298 41.036846 0.580292 1.003616 0.053838 0.011671 139106.000000 0 0 1
-28.661582 -18.652161 23.370198 41.419265 0.576918 0.971290 0.039939 0.018197 377269.000000 0 0 1
-27.348982 -18.119661 23.446898 40.324260 0.585137 0.950276 0.049387 0.013531 170021.000000 0 0 1
-27.131082 -17.279561 24.729098 40.573478 0.567105 0.915380 0.049092 -0.001802 -209847.000000 0 0 1
-25.798882 -16.895761 25.007898 39.704458 0.579814 0.889435 0.064245 -0.001729 102662.000000 0 0 1
-25.570282 -16.441961 26.324498 40.213885 0.571446 0.857127 0.063143 -0.009830 23467.300000 0 0 1
-24.707882 -17.427961 27.132798 40.625140 0.614314 0.839437 0.065742 -0.012736 -329017.000000 0 0 1
-25.301582 -18.636961 27.484998 41.748431 0.634865 0.852174 0.074572 -0.007038 -635332.000000 0 0 1
-24.530482 -19.234761 28.455398 42.206993 0.664981 0.830933 0.089196 -0.018468 -285039.000000 0 0 1
-25.223882 -20.474361 29.100798 43.615365 0.681838 0.840334 0.089589 -0.015340 299653.000000 0 0 1
-26.319682 -20.080561 29.938798 44.635033 0.651737 0.835581 0.071996 -0.018885 329447.000000 0 0 1
-26.805782 -21.207261 30.608298 45.882085 0.669318 0.840477 0.056695 -0.012809 -260138.000000 0 0 1
-28.091382 -21.000361 31.435398 47.099099 0.641946 0.840043 0.066268 -0.015176 -579382.000000 0 0 1
-27.880382 -20.077561 32.537498 47.319266 0.624110 0.812595 0.072593 -0.018746 1191080.000000 0 0 1
-29.006282 -19.995461 33.474898 48.597856 0.603542 0.810944 0.076520 -0.019330 1002500.000000 0 0 1
-30.244582 -19.232761 32.981198 48.707220 0.566405 0.826939 0.082207 -0.020294 -263466.000000 0 0 1
-30.943582 -19.739661 31.877198 48.613941 0.567839 0.855659 0.082417 -0.021920 463440.000000 0 0 1
-32.352482 -19.543161 32.030398 49.543563 0.543407 0.867796 0.070559 -0.023596 383152.000000 0 0 1
-33.144482 -20.026861 30.789498 49.473478 0.543523 0.899063 0.056984 -0.003277 -454723.000000 0 0 1
-33.040182 -19.306361 29.603698 48.381485 0.528818 0.912360 0.049891 -0.014504 359216.000000 0 0 1
-33.986082 -19.846361 28.678098 48.696664 0.528539 0.941083 0.041406 -0.009000 155054.000000 0 0 1
-34.452482 -18.769661 27.695898 48.024332 0.498841 0.956106 0.054373 -0.006658 -202380.000000 0 0 1
-35.665682 -19.207161 27.130798 48.754857 0.493997 0.980661 0.042250 -0.009986 68490.400000 0 0 1
-36.111882 -18.213161 26.215998 48.198193 0.467124 0.995694 0.061901 -0.005617 43915.600000 0 0 1
-37.362182 -18.623961 25.362898 48.847325 0.462424 1.024849 0.062337 -0.010558 75812.400000 0 0 1
36.312110 -18.964061 26.195498 48.625190 -0.481290 1.001876 0.057606 -0.012185 -370938.000000 0 0 1
35.326010 -19.695761 25.474298 47.799476 -0.508616 1.008724 0.104022 -0.010296 508821.000000 0 0 1
33.988210 -19.968961 26.227898 47.348289 -0.531197 0.983712 0.089865 -0.013877 155745.000000 0 0 1
33.238110 -18.812861 26.445898 46.455153 -0.515046 0.965169 0.070343 -0.020199 -632104.000000 0 0 1
32.134110 -19.137661 27.215698 46.255220 -0.537145 0.941741 0.057482 -0.007972 -549743.000000 0 0 1
-30.296730 -5.422061 -33.739142 45.668591 0.177090 2.402058 0.087515 -0.040454 -55929.300000 0 0 1
-31.056650 -5.551761 32.869634 45.560403 0.176894 0.764900 0.091324 -0.026944 464207.000000 0 0 1
-30.823370 -4.435261 32.078806 44.707957 0.142912 0.770563 0.106945 -0.026573 -11192.500000 0 0 1
-31.671850 -4.539061 30.780480 44.397602 0.142346 0.804750 0.095967 -0.027890 48307.600000 0 0 1
-31.387970 -5.494561 29.744160 43.590250 0.173297 0.819813 0.095480 -0.030491 363208.000000 0 0 1
-30.105950 -5.437561 29.105280 42.226207 0.178688 0.810315 0.090154 -0.030299 589477.000000 0 0 1
-29.885980 -6.427061 27.944720 41.417222 0.211827 0.830221 0.083658 -0.033015 -61636.800000 0 0 1
-30.683770 -6.042861 26.832080 41.206436 0.194451 0.861681 0.103986 -0.029680 101224.000000 0 0 1
-30.432510 -6.846461 25.704620 40.419539 0.221288 0.881563 0.106373 -0.023712 230879.000000 0 0 1
-31.069630 -6.462461 24.327210 39.986228 0.205075 0.916766 0.117171 -0.019950 390830.000000 0 0 1
-30.406090 -5.265861 23.882580 39.020984 0.171483 0.912153 0.114701 -0.019855 282881.000000 0 0 1
-30.958520 -4.842161 22.653950 38.666237 0.155151 0.944825 0.115509 -0.019821 -61855.200000 0 0 1
-30.249220 -3.677961 21.996950 37.582023 0.120995 0.945540 0.108190 -0.022614 301360.000000 0 0 1
-28.918130 -3.919361 21.558050 36.281802 0.134712 0.934546 0.118938 -0.024980 116427.000000 0 0 1
-28.393610 -2.794761 20.958850 35.401711 0.098113 0.937222 0.129459 -0.019293 -183304.000000 0 0 1
-27.059810 -3.039861 20.236050 33.925975 0.111870 0.931692 0.127752 -0.015718 -199098.000000 0 0 1
-27.098160 -3.749161 19.068250 33.346133 0.137482 0.962064 0.131533 -0.020244 509477.000000 0 0 1
-25.876200 -3.615861 18.320950 31.910960 0.138838 0.959259 0.113661 -0.015178 417168.000000 0 0 1
-25.915380 -4.376261 16.978150 31.289233 0.167289 0.997244 0.109530 -0.013397 -453692.000000 0 0 1
-26.839670 -3.859261 16.091450 31.530882 0.142811 1.035217 0.116083 -0.018216 -386333.000000 0 0 1
-26.821170 -4.538461 14.892650 31.012317 0.167624 1.069894 0.120265 -0.014525 354284.000000 0 0 1
-28.174120 -4.346661 14.141750 31.822375 0.153072 1.110296 0.147343 -0.023875 472503.000000 0 0 1
-28.258140 -3.033561 13.605750 31.509385 0.106942 1.124309 0.143793 -0.029535 663424.000000 0 0 1
-29.604800 -2.804461 13.176450 32.525805 0.094448 1.153700 0.154467 -0.030420 591137.000000 0 0 1
-29.698000 -1.573661 12.297750 32.182017 0.052939 1.178695 0.156248 -0.016565 -501243.000000 0 0 1
-29.093740 -1.716261 11.070250 31.175979 0.058922 1.207787 0.167479 -0.020906 -137835.000000 0 0 1
-29.212370 -0.657661 10.117350 30.921769 0.022509 1.237466 0.169317 -0.018995 -128851.000000 0 0 1
-30.549270 -0.492461 9.347550 31.951167 0.016119 1.273896 0.164649 -0.017046 129467.000000 0 0 1
-30.723060 -1.310961 8.218750 31.830376 0.042644 1.309633 0.171939 -0.027602 319961.000000 0 0 1
-32.054750 -1.325861 7.725950 32.999321 0.041339 1.334478 0.158089 -0.028991 248423.000000 0 0 1
-32.123080 -2.020061 6.309850 32.799193 0.062802 1.377211 0.175816 -0.037262 -83552.200000 0 0 1
-31.604130 -1.232061 5.209050 32.054222 0.038964 1.407565 0.188328 -0.051915 406503.000000 0 0 1
-32.366830 -0.112361 4.799050 32.720867 0.003471 1.423599 0.199824 -0.043488 -59863.700000 0 0 1
-31.970370 0.406439 3.381850 32.151308 -0.012712 1.465416 0.188227 -0.036824 67323.200000 0 0 1
-32.396920 -0.529961 2.410950 32.490828 0.016357 1.496524 0.165792 -0.048117 382629.000000 0 0 1
-32.502080 0.149839 1.175450 32.523673 -0.004610 1.534647 0.182966 -0.060091 -661102.000000 0 0 1
-33.103740 -0.750961 0.103250 33.112417 0.022681 1.567678 0.182125 -0.058555 -818269.000000 0 0 1
-34.434776 -0.976361 0.450650 34.451562 0.028346 1.557715 0.175175 -0.056620 -546951.000000 0 0 1
-35.120370 -1.523261 -0.683350 35.160030 0.043345 1.590233 0.163247 -0.051174 -35885.400000 0 0 1
-36.641840 -1.294861 -0.604450 36.669694 0.035324 1.587281 0.152685 -0.051074 -418376.000000 0 0 1
-37.277890 -2.296361 0.096750 37.348677 0.061523 1.568206 0.141762 -0.044120 585415.000000 0 0 1
36.058282 -2.113361 0.334050 36.121706 -0.058543 1.561548 0.129476 -0.039136 538531.000000 0 0 1
35.435552 -3.314861 1.044650 35.605589 -0.093275 1.541453 0.131513 -0.043992 -150235.000000 0 0 1
35.945172 -3.486261 2.345750 36.189943 -0.096686 1.505933 0.137864 -0.041575 157054.000000 0 0 1
35.259162 -4.532861 2.971450 35.673308 -0.127857 1.487404 0.125963 -0.026355 27317.100000 0 0 1
35.266022 -4.394361 4.505550 35.823215 -0.123967 1.444691 0.127893 -0.014847 368104.000000 0 0 1
34.349742 -3.395061 4.976750 34.874049 -0.098518 1.427601 0.148250 -0.030042 531682.000000 0 0 1
34.352012 -3.271561 6.373750 35.091146 -0.094950 1.388148 0.143049 -0.038876 -103127.000000 0 0 1
33.588112 -2.023061 6.787450 34.326718 -0.060159 1.371754 0.158494 -0.040542 3792.060000 0 0 1
32.172962 -2.006961 6.753350 32.935317 -0.062300 1.364283 0.160694 -0.045291 228681.000000 0 0 1
31.693702 -0.840561 7.362450 32.548471 -0.026515 1.342622 0.165385 -0.037024 203008.000000 0 0 1
30.168802 -0.867661 7.637250 31.132572 -0.028752 1.322953 0.166251 -0.035043 -7447.530000 0 0 1
29.313802 -0.658761 6.531650 30.039897 -0.022469 1.351613 0.193389 -0.042715 -331001.000000 0 0 1
27.973602 -0.724961 6.902750 28.821797 -0.025910 1.328948 0.189103 -0.032429 -381776.000000 0 0 1
27.260602 -2.085261 6.653450 28.138180 -0.076345 1.332079 0.221380 -0.054016 -333110.000000 0 0 1
27.518102 -2.930461 7.779650 28.746417 -0.106092 1.296749 0.187758 -0.057979 615695.000000 0 0 1
27.054102 -4.275661 7.520650 28.403625 -0.156745 1.302823 0.203669 -0.069641 -61678.500000 0 0 1
27.430902 -5.333061 8.615250 29.242409 -0.192023 1.271744 0.168161 -0.048830 -23773.500000 0 0 1
26.737802 -5.159961 9.849450 28.957675 -0.190640 1.223738 0.150185 -0.043941 494179.000000 0 0 1
27.018402 -6.268661 10.687550 29.723962 -0.227981 1.203000 0.132492 -0.036922 31205.200000 0 0 1
25.969002 -6.457161 11.810350 29.250100 -0.243707 1.155161 0.117830 -0.032785 304586.000000 0 0 1
24.737602 -7.014661 11.417750 28.133955 -0.276309 1.152904 0.141699 -0.035741 47891.400000 0 0 1
23.668502 -6.742761 12.308950 27.516778 -0.277531 1.107024 0.146644 -0.039723 1092570.000000 0 0 1
22.672902 -7.987961 12.367750 27.033854 -0.338734 1.095625 0.141063 -0.035276 759466.000000 0 0 1
23.232502 -9.040861 13.175650 28.197235 -0.371116 1.084599 0.118961 -0.031509 467761.000000 0 0 1
22.356502 -10.168861 13.234550 27.899323 -0.426880 1.076550 0.175959 -0.047718 104564.000000 0 0 1
22.756202 -11.193361 14.336850 29.132136 -0.457132 1.056259 0.120315 -0.039048 -115203.000000 0 0 1
22.564502 -10.634561 15.648750 29.447139 -0.440422 1.010522 0.100006 -0.029380 306914.000000 0 0 1
22.893902 -11.570061 16.715050 30.616825 -0.467940 0.993282 0.094222 -0.032004 -69898.000000 0 0 1
22.447402 -11.200261 18.123750 30.948377 -0.462812 0.945161 0.097329 -0.024525 -50333.400000 0 0 1
21.086602 -11.357961 18.469650 30.245265 -0.494075 0.913899 0.082557 -0.027685 -97436.200000 0 0 1
20.750802 -11.544561 19.838550 30.942539 -0.507700 0.874811 0.082824 -0.022480 119596.000000 0 0 1
21.080302 -10.469061 20.901350 31.477719 -0.460946 0.844635 0.077043 -0.021156 -163090.000000 0 0 1
20.359602 -9.206361 20.861350 30.569043 -0.424672 0.819709 0.081792 -0.016939 76104.000000 0 0 1
20.873702 -8.183061 20.037450 30.069475 -0.373614 0.841464 0.095363 -0.012209 -1270000.000000 0 0 1
21.995402 -7.352161 20.725450 31.102995 -0.322583 0.841495 0.093865 -0.010013 433134.000000 0 0 1
23.245202 -8.005961 20.828550 32.222094 -0.331689 0.867932 0.111180 -0.018257 -201370.000000 0 0 1
23.916002 -8.087461 19.607450 31.966143 -0.326089 0.910461 0.111183 -0.019645 -931225.000000 0 0 1
25.339002 -8.720861 19.668750 33.241212 -0.331469 0.937633 0.120044 -0.021893 330469.000000 0 0 1
25.289902 -10.005361 20.200850 33.878618 -0.376731 0.931948 0.096998 -0.031190 -201346.000000 0 0 1
26.499002 -10.685161 19.963150 34.855375 -0.383287 0.960949 0.096701 -0.036273 19622.400000 0 0 1
26.445402 -12.206261 20.253750 35.476281 -0.432429 0.963183 0.075769 -0.032089 -265287.000000 0 0 1
25.794202 -12.866561 19.228050 34.649779 -0.462700 0.982523 0.095146 -0.032282 -82710.900000 0 0 1
25.467602 -14.235161 19.503450 35.094489 -0.509690 0.981542 0.071563 -0.025627 -651355.000000 0 0 1
24.355102 -14.706261 18.606850 33.994999 -0.543228 0.991613 0.077838 -0.019217 -885074.000000 0 0 1
24.631202 -14.741361 17.200150 33.464145 -0.539303 1.030970 0.088605 -0.025433 818107.000000 0 0 1
23.535302 -15.222561 16.368450 32.458635 -0.574120 1.042241 0.066018 -0.018838 659664.000000 0 0 1
23.300002 -16.764661 16.444650 33.081271 -0.623702 1.050545 0.048095 -0.016022 -469382.000000 0 0 1
24.351202 -17.546961 15.945850 33.987454 -0.624404 1.082447 0.076786 -0.018527 -130649.000000 0 0 1
24.013502 -18.919661 16.072050 34.538567 -0.667304 1.086782 0.051740 -0.008262 48416.500000 0 0 1
25.159402 -19.941961 15.868050 35.811623 -0.670228 1.111745 0.040687 -0.004007 3720.280000 0 0 1
25.593802 -20.070761 14.531650 35.623686 -0.665035 1.150620 0.048468 -0.015971 -40024.600000 0 0 1
26.512002 -21.113361 14.350750 36.804949 -0.672524 1.170259 0.051123 -0.021955 -230530.000000 0 0 1
27.070302 -21.171061 12.883050 36.701336 -0.663716 1.212132 0.055847 -0.038747 -595698.000000 0 0 1
26.129202 -21.560461 11.954950 35.923662 -0.689888 1.231538 0.057014 -0.033964 -103318.000000 0 0 1
26.482102 -20.957761 10.685850 35.421983 -0.669471 1.264350 0.077578 -0.037546 248232.000000 0 0 1
25.247602 -20.863061 9.743050 34.170685 -0.690596 1.281655 0.037907 -0.030885 295963.000000 0 0 1
24.829402 -22.163861 9.322250 34.563569 -0.728737 1.297701 0.025009 -0.030304 -101770.000000 0 0 1
23.432002 -22.343161 9.372150 33.706272 -0.761616 1.289029 0.011622 -0.015528 43598.600000 0 0 1
22.972102 -23.357861 8.296450 33.795535 -0.793724 1.322772 0.016739 -0.018299 -242342.000000 0 0 1
23.299302 -24.653761 8.750350 35.031900 -0.813636 1.318341 0.017178 -0.018061 288096.000000 0 0 1
22.836402 -25.600521 7.778050 35.176498 -0.842403 1.347839 0.029802 -0.011822 48073.400000 0 0 1
21.380102 -26.106691 7.813350 34.636924 -0.884606 1.343259 0.034677 -0.001071 -86130.900000 0 0 1
20.434202 -25.181471 7.385550 33.259727 -0.889096 1.346873 0.030631 -0.004400 -899236.000000 0 0 1
19.135802 -25.684431 7.230550 32.835191 -0.930480 1.348769 0.039361 -0.023086 -282997.000000 0 0 1
18.151002 -24.520561 7.161950 31.337044 -0.933573 1.340213 0.035543 -0.021511 -615168.000000 0 0 1
18.067302 -23.769261 5.973450 30.448108 -0.920855 1.373331 0.050171 -0.023587 39932.000000 0 0 1
16.983502 -22.882561 6.149350 29.152452 -0.932304 1.358262 0.056457 -0.015551 -78318.100000 0 0 1
16.710202 -22.072261 4.880450 28.111107 -0.922787 1.396299 0.066985 -0.010987 -61981.300000 0 0 1
15.796202 -21.008761 5.066850 26.768657 -0.926089 1.380364 0.085832 -0.014767 94302.800000 0 0 1
15.270902 -20.428061 3.880750 25.798572 -0.928868 1.419798 0.075946 -0.013707 134607.000000 0 0 1
14.459402 -19.122461 4.125450 24.326162 -0.923372 1.400384 0.075918 -0.008772 -322626.000000 0 1 0
15.224602 -18.053361 4.605750 24.060866 -0.870198 1.378187 0.054061 -0.012288 -1341.020000 0 1 0
14.592502 -16.806961 4.368250 22.682519 -0.855807 1.377003 0.036785 -0.009570 -196724.000000 0 1 0
15.597002 -15.658161 4.312450 22.517586 -0.787355 1.378091 0.030699 -0.012995 -770614.000000 0 1 0
15.943302 -15.375161 5.681350 22.866180 -0.767259 1.319705 0.043413 -0.020773 277660.000000 0 1 0
17.045602 -14.503561 5.796850 23.119457 -0.704998 1.317357 0.049045 -0.022537 822134.000000 0 1 0
18.492402 -15.045461 5.515850 24.469561 -0.682980 1.343426 0.069241 -0.032013 886778.000000 0 1 0
19.453502 -13.968361 5.408950 24.552201 -0.622730 1.348670 0.094463 -0.032067 102808.000000 0 1 0
20.762502 -14.409561 5.238050 25.809961 -0.606700 1.366430 0.110066 -0.029600 -544488.000000 0 0 1
21.771402 -13.289761 5.022150 25.996802 -0.548048 1.376391 0.109064 -0.031095 -213943.000000 0 0 1
21.980502 -12.486461 6.197850 26.028206 -0.516610 1.330366 0.129564 -0.037443 135936.000000 0 0 1
23.012202 -11.534861 6.092950 26.452571 -0.464647 1.338375 0.141481 -0.048022 -76322.500000 0 0 1
23.347902 -10.879961 7.403550 26.801318 -0.436074 1.290918 0.152525 -0.051767 -249890.000000 0 0 1
23.872002 -11.765861 8.324350 27.885530 -0.457930 1.267656 0.149708 -0.031128 -31368.700000 0 0 1
24.033502 -11.052961 9.545850 28.122952 -0.431055 1.224483 0.166323 -0.047601 -161244.000000 0 0 1
24.505802 -11.903561 10.690750 29.266384 -0.452178 1.196851 0.131293 -0.040106 -692012.000000 0 0 1
23.574202 -12.836361 11.116450 29.053238 -0.498618 1.178162 0.138064 -0.042012 -99873.500000 0 0 1
24.107202 -13.684261 12.128750 30.257607 -0.516287 1.158352 0.135343 -0.043064 -388021.000000 0 0 1
23.176802 -14.835361 12.498750 30.223680 -0.569381 1.144456 0.105718 -0.040962 -349074.000000 0 0 1
22.000502 -14.312361 13.059650 29.315870 -0.576760 1.109085 0.093856 -0.034048 350821.000000 0 0 1
21.054902 -15.407461 13.324850 29.295911 -0.631735 1.098608 0.058402 -0.033155 1851240.000000 0 0 1
19.703202 -14.961361 14.035850 28.444043 -0.649450 1.054739 0.056753 -0.035568 225445.000000 0 0 1
19.911202 -14.371461 15.256950 28.909676 -0.625193 1.014852 0.063347 -0.033564 76631.800000 0 0 1
19.467302 -13.037661 15.427550 28.052910 -0.590114 0.988498 0.080807 -0.042708 -132065.000000 0 0 1
17.941702 -12.852761 15.432650 26.930741 -0.621623 0.960574 0.104799 -0.043743 48987.100000 0 0 1
17.207002 -13.151161 14.177650 25.885125 -0.652585 0.991167 0.118811 -0.056466 1926800.000000 0 0 1
15.761802 -13.029061 14.256650 24.928757 -0.690765 0.961981 0.158608 -0.053496 1521160.000000 0 1 0
15.174402 -11.633061 13.925450 23.653937 -0.654056 0.941327 0.134011 -0.051194 -270997.000000 0 1 0
15.584002 -10.704461 14.871650 24.054367 -0.601871 0.904280 0.118878 -0.040445 67849.100000 0 1 0
15.191402 -9.403761 14.516150 23.020166 -0.554287 0.888491 0.118140 -0.039325 -506642.000000 0 1 0
15.714202 -8.233161 15.426150 23.509300 -0.482609 0.855061 0.130451 -0.039892 -792697.000000 0 1 0
17.089702 -8.156461 15.529950 24.490103 -0.445302 0.883911 0.125079 -0.042218 -825363.000000 0 1 0
17.718702 -8.921661 16.527450 25.820632 -0.466457 0.876185 0.126192 -0.035072 -402244.000000 0 0 1
19.255902 -8.895261 16.489250 26.866537 -0.432747 0.909999 0.103203 -0.027572 -180100.000000 0 0 1
19.843702 -7.672061 16.659850 27.021910 -0.368923 0.906467 0.092908 -0.027538 -440869.000000 0 0 1
21.180402 -7.624161 16.238050 27.756288 -0.345523 0.945889 0.088840 -0.014032 -190651.000000 0 0 1
21.869702 -6.268261 16.541750 28.128357 -0.279135 0.942112 0.077098 0.001078 -177712.000000 0 0 1
22.245402 -6.131861 17.872550 29.187081 -0.268967 0.911774 0.095166 -0.006355 68855.500000 0 0 1
22.780502 -4.830761 18.058150 29.468361 -0.208961 0.911200 0.109705 -0.010739 -123036.000000 0 0 1
-5.458490 -32.929544 -6.708902 34.046429 1.406527 1.769146 0.067201 -0.018229 -246351.000000 0 0 1
-6.193590 -31.732944 -6.593002 32.997090 1.378041 1.771956 0.052887 -0.021878 117556.000000 0 0 1
-5.851990 -30.963344 -5.488402 31.985887 1.384002 1.743238 0.052952 -0.023839 -828561.000000 0 0 1
-6.584390 -29.638644 -5.512202 30.857540 1.352191 1.750394 0.051631 -0.020643 1215530.000000 0 0 1
-7.971290 -29.645144 -5.103102 31.119409 1.308119 1.735525 0.039025 -0.019039 1018130.000000 0 0 1
-8.902690 -30.053844 -6.051902 31.923611 1.282807 1.761525 0.036573 -0.018699 -261188.000000 0 0 1
-10.393490 -30.009244 -5.651302 32.257039 1.237383 1.746901 0.071581 -0.012094 352469.000000 0 0 1
-11.338790 -30.446744 -6.583702 33.149924 1.214295 1.770729 0.060709 -0.013779 -343545.000000 0 0 1
-12.656790 -30.398644 -6.081002 33.485078 1.176266 1.753413 0.069896 -0.016150 248108.000000 0 0 1
-13.705490 -30.902444 -7.105302 34.543983 1.153354 1.777964 0.073790 -0.019078 105242.000000 0 0 1
-13.887090 -30.007444 -8.194702 34.065394 1.137359 1.813737 0.100919 -0.029475 629358.000000 0 0 1
-14.948190 -30.485944 -9.053602 35.139847 1.114914 1.831380 0.100742 -0.027555 807177.000000 0 0 1
-15.239690 -29.623644 -10.296602 34.868731 1.095661 1.870562 0.120458 -0.024155 -67053.700000 0 0 1
-15.695690 -28.284844 -10.083402 33.883064 1.064187 1.872968 0.120459 -0.028381 370759.000000 0 0 1
-14.657790 -27.390344 -9.740802 32.557103 1.079430 1.874641 0.106487 -0.027895 -24368.900000 0 0 1
-15.206690 -25.949044 -9.489802 31.538114 1.040719 1.876432 0.096916 -0.012363 121461.000000 0 0 1
-15.630190 -25.243344 -10.632902 31.537086 1.016393 1.914690 0.106069 -0.026165 358329.000000 0 0 1
-16.114090 -23.928344 -10.344302 30.646926 0.978125 1.915090 0.071185 -0.007021 -2275.050000 0 0 1
-16.669990 -23.143944 -11.584602 30.785283 0.946593 1.956599 0.093642 -0.007340 -416111.000000 0 0 1
-18.008390 -23.462544 -11.851502 31.863006 0.916165 1.951907 0.100349 -0.019232 -393681.000000 0 0 1
-18.322290 -23.092544 -13.180902 32.290990 0.900075 1.991268 0.112904 -0.031514 -1001590.000000 0 0 1
-19.779290 -23.358544 -13.523402 33.462281 0.868181 1.986833 0.100650 -0.015274 -436556.000000 0 0 1
-20.368090 -24.658944 -13.699902 34.793820 0.880406 1.975499 0.139249 -0.023047 340592.000000 0 0 1
-20.448490 -25.334644 -12.495202 34.872840 0.891720 1.937251 0.151119 -0.026825 -1518200.000000 0 0 1
-20.492590 -26.919644 -12.650802 36.120025 0.920134 1.928627 0.148663 -0.035932 736275.000000 0 0 1
-19.386090 -27.582544 -13.301702 36.242964 0.958167 1.946594 0.150862 -0.038956 2145350.000000 0 0 1
-18.037590 -27.171044 -12.905802 35.073921 0.984744 1.947611 0.151995 -0.039459 764667.000000 0 0 1
-16.935190 -28.140144 -13.356102 35.454954 1.029043 1.957034 0.136013 -0.039728 -264903.000000 0 0 1
-16.821490 -28.228944 -14.775002 36.029661 1.033401 1.993337 0.154766 -0.047171 75474.300000 0 0 1
-16.036290 -29.341744 -15.224302 36.740711 1.070617 1.998048 0.165984 -0.048950 340807.000000 0 0 1
-16.784990 -30.747044 -15.332702 38.238832 1.071102 1.983374 0.159102 -0.054403 109888.000000 0 0 1
-16.999190 -31.301744 -14.039802 38.286912 1.073285 1.946256 0.155387 -0.050346 142749.000000 0 0 1
-17.336390 -32.683244 -14.083502 39.586485 1.083097 1.934529 0.128347 -0.043265 -557622.000000 0 0 1
-17.941790 -33.157444 -12.697302 39.781219 1.074805 1.895659 0.138600 -0.035566 1737900.000000 0 0 1
-19.315790 -32.796744 -12.320602 40.006541 1.038538 1.883849 0.147506 -0.035959 1826570.000000 0 0 1
-19.687990 -31.403744 -12.269402 39.042928 1.010809 1.890467 0.154148 -0.039383 -370258.000000 0 0 1
-19.077590 -30.514644 -11.154302 37.676469 1.012057 1.871356 0.167304 -0.039380 -420019.000000 0 0 1
-19.528990 -30.735344 -9.866902 37.727954 1.004759 1.835401 0.167154 -0.037768 -17808.100000 0 0 1
-19.091290 -29.789944 -8.901202 36.484921 1.000871 1.817253 0.161830 -0.031868 -233661.000000 0 0 1
-19.244990 -30.152444 -7.405502 36.529179 1.002721 1.774940 0.160075 -0.031133 49328.400000 0 0 1
-18.389490 -31.129644 -6.828302 36.794752 1.037214 1.757457 0.156179 -0.033167 120073.000000 0 0 1
-18.664890 -31.341144 -5.462002 36.884670 1.033663 1.719426 0.157760 -0.044113 -151304.000000 0 0 1
-17.889090 -32.581444 -4.915802 37.493134 1.068677 1.702287 0.151114 -0.035179 22011.600000 0 0 1
-16.512090 -32.444444 -4.679402 36.704057 1.100027 1.698634 0.129393 -0.025419 44082.900000 0 0 1
-16.208790 -31.878244 -3.368002 35.920617 1.100404 1.664697 0.116451 -0.031828 473818.000000 0 0 1
-14.836790 -31.140944 -3.202102 34.643068 1.126174 1.663360 0.111457 -0.029679 648927.000000 0 0 1
-13.650890 -31.910544 -3.156802 34.851040 1.166568 1.661500 0.060443 -0.024374 -305370.000000 0 0 1
-12.638590 -31.133444 -2.597902 33.701251 1.185172 1.647959 0.066344 -0.013953 -760225.000000 0 0 1
-11.398890 -31.906344 -2.196102 33.952501 1.227668 1.635523 0.063325 -0.016397 -1075420.000000 0 0 1
-11.621690 -32.856244 -1.166402 34.870574 1.230817 1.604252 0.067452 -0.013939 -507025.000000 0 0 1
-10.519190 -33.680044 -0.944802 35.297186 1.268069 1.597567 0.102973 -0.015322 -277923.000000 0 0 1
-9.384790 -32.978244 -0.153502 34.287934 1.293550 1.575273 0.096468 -0.020721 -584215.000000 0 0 1
-9.786190 -32.661144 1.168898 34.115775 1.279681 1.536527 0.112155 -0.016393 -172290.000000 0 0 1
-8.765190 -32.020544 1.908798 33.253380 1.303605 1.513363 0.093567 -0.019280 600837.000000 0 0 1
-7.631790 -32.864344 2.548798 33.834977 1.342620 1.495395 0.113106 -0.027213 -32022.700000 0 0 1
-8.174990 -33.788844 3.494898 34.938957 1.333415 1.470600 0.132235 -0.039435 315332.000000 0 0 1
-7.256590 33.069739 4.072198 34.100565 -1.354787 1.451093 0.130904 -0.032066 815156.000000 0 0 1
-6.393890 33.663839 5.289098 34.671465 -1.383099 1.417649 0.135180 -0.027919 680441.000000 0 0 1
-5.365190 -33.243544 4.934798 34.033376 1.410786 1.425285 0.160086 -0.037090 248630.000000 0 0 1
-4.576290 -32.648944 5.988198 33.507529 1.431537 1.391119 0.162738 -0.043123 1064460.000000 0 0 1
-3.193890 -32.057644 5.520798 32.685970 1.471494 1.401079 0.179127 -0.045646 559707.000000 0 0 1
-3.153590 -30.833444 4.803698 31.364341 1.468873 1.417033 0.168119 -0.046131 -13891.000000 0 0 1
-3.716890 -30.948144 3.490498 31.365370 1.451268 1.459280 0.157248 -0.044653 -54370.000000 0 0 1
-3.822890 -29.625044 2.727698 29.994967 1.442463 1.479732 0.135928 -0.041085 719648.000000 0 0 1
-2.552590 -28.992244 2.533398 29.214449 1.482979 1.483970 0.107202 -0.033121 259510.000000 0 0 1
-2.791390 -27.787344 1.853098 27.988610 1.470677 1.504539 0.099966 -0.032514 299847.000000 0 0 1
-2.653190 -26.483044 2.681798 26.750384 1.470945 1.470375 0.098595 -0.035640 -128915.000000 0 0 1
-3.100390 -25.325744 2.030498 25.595481 1.448982 1.491383 0.097464 -0.033739 -195773.000000 0 0 1
-3.380990 -24.206644 2.871898 24.609764 1.432022 1.453832 0.094446 -0.026279 -579958.000000 0 1 0
-4.651990 -24.157344 3.717698 24.880505 1.380555 1.420812 0.091325 -0.028663 -600994.000000 0 1 0
-4.577790 -24.870444 4.922798 25.762940 1.388768 1.378533 0.114815 -0.027132 -230198.000000 0 0 1
-5.601190 -24.399044 5.740898 25.683547 1.345140 1.345367 0.092828 -0.026943 -317421.000000 0 0 1
-6.246590 -25.454844 6.633198 27.036425 1.330153 1.322923 0.108232 -0.036043 113626.000000 0 0 1
-5.280690 -25.996444 7.550398 27.580959 1.370392 1.293502 0.109240 -0.036613 611936.000000 0 0 1
-5.904590 -26.802044 8.546798 28.744764 1.353956 1.268897 0.108019 -0.032420 316273.000000 0 0 1
-4.912390 -27.152544 9.675598 29.240544 1.391814 1.233543 0.098679 -0.028222 79859.200000 0 0 1
-4.630890 -26.001044 10.504198 28.422484 1.394541 1.192246 0.088421 -0.030525 822406.000000 0 0 1
-5.742590 -25.388544 11.233198 28.350313 1.348351 1.163391 0.087328 -0.028999 909591.000000 0 0 1
-5.254990 -24.276944 12.246698 27.694161 1.357625 1.112733 0.063568 -0.029343 113480.000000 0 0 1
-4.692790 -24.901644 13.373098 28.652293 1.384528 1.085198 0.078370 -0.030678 -279688.000000 0 0 1
-3.954490 -23.929444 14.084298 28.046813 1.407020 1.044689 0.065688 -0.036252 -694992.000000 0 0 1
-2.938890 -24.593244 14.968598 28.940001 1.451860 1.027187 0.062818 -0.035354 -604379.000000 0 0 1
-3.413490 -25.249344 16.154098 30.168463 1.436420 1.005740 0.075003 -0.035113 -95233.200000 0 0 1
-2.343090 -25.899244 16.806498 30.963192 1.480573 0.997041 0.087176 -0.038715 327941.000000 0 0 1
-2.751790 -26.583544 18.160298 32.311818 1.467649 0.973955 0.105464 -0.033873 142757.000000 0 0 1
-2.528890 -25.654844 19.225598 32.158823 1.472540 0.930002 0.107572 -0.036152 -868493.000000 0 0 1
-3.545790 -25.636744 20.135998 32.791366 1.433359 0.909597 0.165266 -0.042572 -996643.000000 0 0 1
-3.304090 -24.834244 21.413498 32.957466 1.438527 0.863565 0.161023 -0.047561 -436116.000000 0 0 1
-2.224390 -25.411844 22.135798 33.774299 1.483485 0.856079 0.109259 -0.049398 459062.000000 0 0 1
-1.682190 -24.531744 23.146298 33.769622 1.502332 0.815619 0.100717 -0.047636 -165776.000000 0 0 1
-0.867190 -23.294644 22.688598 32.529447 1.533587 0.798923 0.105814 -0.039340 -245474.000000 0 0 1
-1.619690 -22.234944 22.104698 31.394805 1.498080 0.789659 0.137793 -0.035739 405916.000000 0 0 1
-0.701590 -21.223044 21.604798 30.293186 1.537750 0.776758 0.147615 -0.040591 192080.000000 0 0 1
-1.423090 -20.006744 20.991298 29.033250 1.499785 0.762648 0.129175 -0.012324 128129.000000 0 0 1
-2.298090 -19.326944 21.880198 29.284041 1.452446 0.727000 0.126405 -0.029403 157395.000000 0 0 1
-3.537690 -19.922144 22.182198 30.024273 1.395053 0.739495 0.160052 -0.038716 -66103.100000 0 0 1
-4.775590 -19.566644 21.268198 29.291570 1.331409 0.758184 0.154106 -0.039046 526229.000000 0 0 1
-5.007090 -20.281044 20.049798 28.954898 1.328751 0.805918 0.156313 -0.042499 -307738.000000 0 0 1
-5.384590 -21.610444 20.254798 30.104185 1.326603 0.832778 0.146448 -0.038962 -67165.100000 0 0 1
-5.665390 -22.234244 18.829198 29.681593 1.321301 0.883599 0.127991 -0.037384 88654.900000 0 0 1
-6.330090 -23.462444 18.909898 30.791891 1.307274 0.909527 0.122439 -0.039812 -146295.000000 0 0 1
-6.229790 -24.100044 17.651498 30.515533 1.317837 0.953978 0.111130 -0.040784 -13720.100000 0 0 1
-6.993490 -25.449944 17.533998 31.686742 1.302622 0.984410 0.093006 -0.043607 896269.000000 0 0 1
-8.402790 -25.182344 17.465998 31.777640 1.248736 0.988873 0.104420 -0.037777 126115.000000 0 0 1
-9.125990 -26.355544 17.259798 32.799375 1.237453 1.016643 0.088182 -0.036035 -255733.000000 0 0 1
-10.630890 -26.178044 17.512498 33.241441 1.185043 1.015933 0.096504 -0.032697 -1243500.000000 0 0 1
-11.269390 -25.423544 16.522298 32.347211 1.153557 1.034705 0.101912 -0.035067 396735.000000 0 0 1
-12.688790 -25.601144 16.524098 33.007117 1.110648 1.046479 0.098770 -0.032919 821228.000000 0 0 1
-13.438990 -24.946744 17.714798 33.417967 1.076665 1.012080 0.096322 -0.030759 -1144380.000000 0 0 1
-13.427090 -23.533944 17.526798 32.269520 1.052319 0.996627 0.088969 -0.031728 16458.800000 0 0 1
-13.616090 -22.635544 18.597798 32.305477 1.029248 0.957354 0.075473 -0.025652 -194342.000000 0 0 1
-12.300590 -22.168444 19.246298 31.830243 1.064222 0.921464 0.070142 -0.030424 73355.500000 0 0 1
-11.599990 -23.250844 19.844898 32.695282 1.108024 0.918560 0.086976 -0.030521 349105.000000 0 0 1
-10.194990 -23.184044 19.623998 32.039647 1.156506 0.911588 0.127519 -0.040421 475726.000000 0 0 1
-9.416190 -24.165444 20.510298 33.065173 1.199240 0.901672 0.126703 -0.041518 -47541.300000 0 0 1
-9.206890 -23.643544 21.843898 33.480440 1.199458 0.860000 0.127527 -0.038614 109787.000000 0 0 1
-8.387790 -24.438744 22.660498 34.367214 1.240177 0.850824 0.143683 -0.042565 -59445.800000 0 0 1
-8.248190 -23.729444 24.017498 34.755710 1.236267 0.807873 0.149125 -0.044224 421000.000000 0 0 1
-7.233990 -24.376544 24.792698 35.513721 1.282314 0.798033 0.160422 -0.048197 292193.000000 0 0 1
-7.156290 -23.854444 26.109598 36.082656 1.279341 0.761785 0.149502 -0.036317 -133544.000000 0 0 1
-5.990190 -24.434344 26.938598 36.859295 1.330383 0.751231 0.142775 -0.032748 869911.000000 0 0 1
-4.718590 -24.008244 26.414098 36.005075 1.376730 0.747160 0.156180 -0.035684 858625.000000 0 0 1
-3.602890 -24.464144 27.180598 36.745885 1.424575 0.738185 0.144750 -0.034323 829474.000000 0 0 1
-2.178890 -24.013944 26.797298 36.048748 1.480310 0.732712 0.143445 -0.039288 79120.100000 0 0 1
-2.167190 -22.587744 26.886498 35.182193 1.475144 0.700984 0.147590 -0.043189 717626.000000 0 0 1
-0.922190 -22.035844 26.429698 34.423216 1.528971 0.695416 0.137399 -0.051543 1615340.000000 0 0 1
0.293910 -21.907044 27.431698 35.107022 -1.557381 0.673933 0.120611 -0.039867 517696.000000 0 0 1
0.751010 -23.075044 28.006298 36.295653 -1.538261 0.689419 0.122779 -0.032557 -186713.000000 0 0 1
1.595610 -22.656844 29.068998 36.890178 -1.500487 0.663263 0.106493 -0.049123 -93222.000000 0 0 1
2.383910 -23.811644 29.701498 38.142580 -1.471013 0.678211 0.131447 -0.052625 -298399.000000 0 0 1
3.408210 -24.345244 28.850998 37.903653 -1.431705 0.705686 0.110978 -0.053227 358604.000000 0 0 1
4.150010 -25.324144 29.539198 39.129261 -1.408364 0.715274 0.101076 -0.043944 40245.900000 0 0 1
5.382210 -24.812244 30.399298 39.607234 -1.357188 0.695835 0.079960 -0.039555 1907120.000000 0 0 1
6.624510 -24.377044 29.740898 39.021090 -1.305452 0.704130 0.083889 -0.039306 1395250.000000 0 0 1
7.265510 -25.414844 29.052998 39.278221 -1.292347 0.738214 0.081403 -0.035169 -1218570.000000 0 0 1
8.553610 -24.871644 28.435098 38.733935 -1.239557 0.746436 0.069007 -0.027368 -539798.000000 0 0 1
8.362010 -24.062244 27.319798 37.353530 -1.236336 0.750446 0.072660 -0.039210 196347.000000 0 0 1
9.561810 -23.812144 26.598698 36.958587 -1.188953 0.767442 0.053047 -0.029767 206846.000000 0 0 1
9.410710 -22.626944 25.660598 35.482480 -1.176652 0.762385 0.069527 -0.030063 219550.000000 0 0 1
8.649510 -22.912244 24.494098 34.637347 -1.209830 0.785325 0.061722 -0.026394 -13683.000000 0 0 1
8.151410 -21.743744 23.878598 33.308007 -1.212126 0.771447 0.060030 -0.020723 -253338.000000 0 0 1
7.540910 -22.015144 22.519298 32.382876 -1.240789 0.801809 0.050569 -0.015488 -402770.000000 0 0 1
8.400610 -22.667944 21.631698 32.439733 -1.215894 0.840853 0.048960 -0.010872 -26332.800000 0 0 1
7.798810 -22.669044 20.327198 31.430908 -1.239451 0.867512 0.062680 -0.008298 -43615.000000 0 0 1
8.512210 -23.598344 19.365698 31.691794 -1.224610 0.913393 0.104136 -0.019984 -562302.000000 0 0 1
9.737710 -23.061644 18.963298 31.404922 -1.171260 0.922496 0.104646 -0.018770 -960746.000000 0 0 1
10.348210 -23.980444 18.130498 31.794058 -1.163410 0.963989 0.114870 -0.026626 -789090.000000 0 0 1
11.810210 -23.639544 17.865898 31.898267 -1.107472 0.976302 0.095468 -0.023690 -405177.000000 0 0 1
11.913810 -22.425644 17.196898 30.668904 -1.082456 0.975532 0.107898 -0.019640 544457.000000 0 0 1
13.250310 -22.290044 16.696298 30.841257 -1.034468 0.998740 0.098426 -0.017691 588153.000000 0 0 1
-12.654090 22.165139 11.105798 27.834478 -1.052048 1.160377 0.043601 -0.013057 226857.000000 0 0 1
-13.788690 21.352339 10.846898 27.635223 -0.997401 1.167445 0.024343 -0.016329 497345.000000 0 0 1
-13.307290 20.236539 10.098698 26.240907 -0.989106 1.175756 0.064564 -0.024950 -6671.940000 0 0 1
-14.244690 19.670939 9.034798 25.913020 -0.944046 1.214657 0.070303 -0.021886 -1122290.000000 0 0 1
-14.532790 20.651139 8.036898 26.500250 -0.957573 1.262667 0.078616 -0.017950 -61000.600000 0 0 1
-15.379490 20.232139 7.012998 26.363807 -0.920830 1.301546 0.084746 -0.011619 1549110.000000 0 0 1
-16.916590 19.957139 7.403598 27.189551 -0.867670 1.295018 0.072276 -0.021959 995422.000000 0 0 1
-17.117690 18.891439 8.285898 26.805930 -0.834617 1.256543 0.066652 -0.023777 207668.000000 0 0 1
-18.518590 18.838239 8.516698 27.755208 -0.793955 1.258914 0.076331 -0.020080 158139.000000 0 0 1
-18.991190 17.758239 9.463498 27.669083 -0.751861 1.221726 0.063929 -0.018360 -151888.000000 0 0 1
-19.088390 16.452939 8.896798 26.724873 -0.711382 1.231416 0.067061 -0.021113 328933.000000 0 0 1
-19.655890 15.478939 9.774098 26.860465 -0.667070 1.198362 0.076058 -0.021311 -92341.600000 0 0 1
-18.617190 14.853239 10.751798 26.130818 -0.673413 1.146740 0.066955 -0.013899 66983.400000 0 0 1
-17.661790 14.035039 10.138598 24.732819 -0.671474 1.148425 0.045229 -0.002371 193277.000000 0 1 0
-16.791090 13.275039 10.964798 24.049827 -0.668983 1.097391 0.055773 -0.013758 503716.000000 0 1 0
-17.491190 12.090539 11.746598 24.292086 -0.604820 1.066083 0.048237 -0.017169 -199074.000000 0 1 0
-18.248590 11.232139 10.945498 24.061918 -0.551744 1.098549 0.033759 -0.019141 172718.000000 0 1 0
-19.074690 10.480939 11.857398 24.784910 -0.502435 1.071951 0.045236 -0.018419 -350903.000000 0 1 0
-20.044490 9.605939 11.089198 24.840007 -0.446895 1.108030 0.047477 -0.027839 -752664.000000 0 1 0
-19.520990 8.524339 10.301698 23.661327 -0.411718 1.120335 0.036533 -0.025101 577440.000000 0 1 0
-18.910590 8.864839 9.024598 22.751685 -0.438358 1.162925 0.049552 -0.026339 -120998.000000 0 1 0
-19.936290 9.289739 7.939898 23.383688 -0.436056 1.224359 0.060516 -0.022932 10217.100000 0 1 0
-20.430490 8.131139 7.298798 23.168789 -0.378773 1.250311 0.041890 -0.030065 247075.000000 0 1 0
-21.519190 8.365039 6.442898 23.969988 -0.370749 1.298660 0.069555 -0.026357 -129738.000000 0 1 0
-21.884590 7.130239 5.599598 23.688205 -0.314965 1.332150 0.093833 -0.026160 -320069.000000 0 1 0
-22.615590 6.189939 6.334598 24.288009 -0.267159 1.306933 0.112071 -0.029828 360225.000000 0 1 0
-22.389590 4.928939 5.705398 23.624981 -0.216688 1.326887 0.126732 -0.041712 -333226.000000 0 1 0
-23.404490 3.826239 6.092698 24.485326 -0.162050 1.319324 0.147364 -0.037164 -1641030.000000 0 1 0
-24.577590 4.063339 5.466398 25.503924 -0.163845 1.354785 0.179549 -0.042897 -1216290.000000 0 0 1
-25.234580 2.821639 5.260998 25.931135 -0.111354 1.366495 0.191873 -0.049154 1219.650000 0 0 1
-26.329700 2.859139 4.155098 26.808443 -0.108166 1.415177 0.200186 -0.051060 186615.000000 0 0 1
-25.873610 2.734539 2.839898 26.172245 -0.105297 1.462074 0.198573 -0.039408 1354950.000000 0 0 1
-27.089940 2.673839 2.059598 27.299381 -0.098384 1.495280 0.202536 -0.036070 1075120.000000 0 0 1
-26.772940 2.661739 0.552098 26.910592 -0.099093 1.550279 0.219542 -0.035353 -311312.000000 0 0 1
-26.164930 3.850339 0.139498 26.447081 -0.146108 1.565522 0.205956 -0.043054 149155.000000 0 0 1
-26.325440 4.183039 -1.225202 26.683847 -0.157580 1.616728 0.223593 -0.037053 -259617.000000 0 0 1
-27.708510 4.721639 -1.633802 28.155367 -0.168783 1.628857 0.229648 -0.054223 -362236.000000 0 0 1
-28.655470 3.710439 -1.879302 28.955743 -0.128768 1.635745 0.219922 -0.052542 -1031190.000000 0 0 1
-29.901250 4.305039 -1.921202 30.270598 -0.142993 1.634307 0.204444 -0.039801 -1120520.000000 0 0 1
-31.030160 3.253039 -1.848702 31.254932 -0.104453 1.629980 0.216598 -0.044049 -443728.000000 0 0 1
-31.168340 2.667639 -3.124202 31.437912 -0.085380 1.670338 0.211040 -0.047367 198975.000000 0 0 1
-32.192720 1.723839 -3.107902 32.388298 -0.053496 1.666902 0.215289 -0.054615 -453272.000000 0 0 1
-32.699560 1.294539 -4.510002 33.034484 -0.039568 1.707748 0.209828 -0.061405 -29163.100000 0 0 1
-31.731510 0.447939 -5.115402 32.144310 -0.014116 1.730614 0.232636 -0.056803 612355.000000 0 0 1
-32.096330 -0.120161 -6.381502 32.724797 0.003744 1.767059 0.241905 -0.047823 -217029.000000 0 0 1
-32.471320 0.831439 -7.600902 33.359430 -0.025600 1.800664 0.223747 -0.054752 828861.000000 0 0 1
-33.825120 1.307839 -7.452102 34.660972 -0.038645 1.787488 0.214664 -0.055754 968027.000000 0 0 1
-34.263732 2.163239 -8.473902 35.362267 -0.063051 1.812782 0.180900 -0.044782 -1032420.000000 0 0 1
-35.760676 2.321439 -8.429502 36.814012 -0.064825 1.801821 0.176322 -0.043668 -880578.000000 0 0 1
-36.358980 3.029339 -7.345902 37.217127 -0.083126 1.769481 0.163212 -0.038760 -322968.000000 0 0 1
37.011162 2.792339 -7.238602 37.815614 0.075303 1.763403 0.163055 -0.033916 -742863.000000 0 0 1
36.435852 3.663439 -6.136102 37.130094 0.100208 1.736817 0.183108 -0.035084 -264827.000000 0 0 1
35.031552 3.701039 -6.091302 35.749284 0.105258 1.742021 0.160807 -0.042373 359368.000000 0 0 1
34.404242 4.336639 -4.947102 35.027591 0.125388 1.712505 0.166270 -0.038898 -546343.000000 0 0 1
33.034962 3.775339 -4.696102 33.579984 0.113789 1.711104 0.156326 -0.038299 -999550.000000 0 0 1
33.066682 2.537439 -4.054202 33.410786 0.076587 1.692440 0.150377 -0.037364 -991400.000000 0 0 1
31.964042 1.782539 -4.338002 32.306280 0.055709 1.705480 0.117979 -0.035483 -1005090.000000 0 0 1
31.932212 0.419439 -3.633002 32.140952 0.013135 1.684072 0.158255 -0.032158 -841530.000000 0 0 1
33.017122 -0.389561 -3.969802 33.257202 -0.011798 1.690448 0.101227 -0.031273 -168100.000000 0 0 1
32.919802 -1.713661 -3.468802 33.146382 -0.052009 1.675639 0.110336 -0.026939 -528231.000000 0 0 1
34.141912 -2.510561 -3.883802 34.453694 -0.073401 1.683762 0.104280 -0.029312 -463130.000000 0 0 1
34.257152 -3.838061 -3.290202 34.628148 -0.111571 1.665955 0.079961 -0.036462 -14080.700000 0 0 1
35.585542 -4.222461 -2.971002 35.958126 -0.118104 1.653515 0.115972 -0.026318 292725.000000 0 0 1
35.665462 -5.679061 -2.376702 36.192895 -0.157906 1.636511 0.115525 -0.029971 -214683.000000 0 0 1
34.931972 -5.904961 -1.221402 35.448598 -0.167459 1.605259 0.114228 -0.025954 -191235.000000 0 0 1
35.188752 -7.196961 -0.722002 35.924446 -0.201742 1.590895 0.158729 -0.029254 18626.400000 0 0 1
34.397712 -7.362761 0.570298 35.181502 -0.210866 1.554585 0.154046 -0.026890 1068540.000000 0 0 1
32.959882 -7.301161 0.380098 33.761002 -0.217996 1.559538 0.134546 -0.024032 1356670.000000 0 0 1
32.180402 -7.202161 1.565398 33.013632 -0.220177 1.523362 0.187482 -0.040817 -69730.400000 0 0 1
31.996442 -8.597161 2.252998 33.207823 -0.262492 1.502899 0.166651 -0.040053 -193314.000000 0 0 1
30.999752 -9.469361 1.715498 32.459149 -0.296464 1.517921 0.152336 -0.038898 209622.000000 0 0 1
29.736712 -9.265061 2.300698 31.231501 -0.302037 1.497064 0.147622 -0.037209 -1533490.000000 0 0 1
28.721102 -10.333361 1.878198 30.581166 -0.345363 1.509341 0.147778 -0.037337 329647.000000 0 0 1
27.439702 -10.156061 2.564398 29.371057 -0.354488 1.483375 0.168433 -0.042492 1461700.000000 0 0 1
26.603802 -9.191361 1.995798 28.217488 -0.332652 1.500008 0.181587 -0.044970 -954759.000000 0 0 1
25.862102 -9.470361 0.672098 27.549733 -0.351022 1.546398 0.159826 -0.036626 -778885.000000 0 0 1
26.775002 -9.614261 -0.419402 28.451901 -0.344737 1.585538 0.150072 -0.046202 268717.000000 0 0 1
26.337302 -9.855361 -1.785502 28.177467 -0.358067 1.634205 0.153995 -0.041069 -225914.000000 0 0 1
25.456102 -11.109361 -2.008702 27.847189 -0.411497 1.642992 0.133400 -0.035258 -723571.000000 0 0 1
24.140202 -11.069361 -1.595402 26.604989 -0.429937 1.630799 0.141561 -0.020362 -880957.000000 0 0 1
23.642902 -12.373361 -1.517102 26.728047 -0.482148 1.627588 0.119796 -0.017655 -10749.300000 0 0 1
22.128302 -12.400561 -1.233502 25.396007 -0.510788 1.619386 0.124367 -0.020323 410558.000000 0 0 1
21.197602 -11.934061 -2.224902 24.427655 -0.512762 1.662004 0.122142 -0.017470 785429.000000 0 1 0
19.860102 -12.180761 -1.829302 23.369659 -0.550162 1.649153 0.122527 -0.021115 505164.000000 0 1 0
18.814002 -11.740461 -2.919702 22.368052 -0.557900 1.701700 0.112645 -0.018341 325637.000000 0 1 0
18.771002 -12.498161 -4.142802 22.928527 -0.587418 1.752477 0.114097 -0.022644 391600.000000 0 1 0
17.814402 -11.854861 -4.974602 21.969008 -0.587170 1.799215 0.104873 -0.019130 42501.900000 0 1 0
17.754102 -12.271061 -6.469702 22.530959 -0.604774 1.862044 0.113231 -0.027100 -233940.000000 0 1 0
17.111102 -13.508961 -6.721202 22.813513 -0.668296 1.869849 0.104374 -0.024818 26698.300000 0 1 0
17.492202 -13.941461 -7.973702 23.747029 -0.672915 1.913226 0.112962 -0.028786 -360576.000000 0 1 0
16.757102 -15.150161 -8.576502 24.163696 -0.735078 1.933639 0.106559 -0.027971 -364209.000000 0 1 0
15.677202 -14.788761 -9.377302 23.503529 -0.756245 1.981194 0.121482 -0.012707 97132.700000 0 1 0
15.006802 -15.858661 -10.066502 24.042373 -0.812990 2.002808 0.109532 -0.011862 229551.000000 0 1 0
14.394502 -15.423661 -11.414402 23.987071 -0.819899 2.066734 0.114508 -0.034667 202470.000000 0 1 0
13.150602 -14.718861 -11.359902 22.773462 -0.841610 2.093035 0.087785 -0.032086 403129.000000 0 1 0
13.215102 -13.300961 -11.097102 21.787614 -0.788636 2.105203 0.075899 -0.020608 -213187.000000 0 1 0
13.367402 -12.426361 -12.384502 22.056241 -0.748931 2.166989 0.090962 -0.018318 -95647.600000 0 1 0
14.650102 -12.528461 -12.957102 23.226586 -0.707493 2.162597 0.104464 -0.024113 -14328.000000 0 1 0
14.562802 -12.169361 -14.351802 23.793755 -0.696102 2.218272 0.122563 -0.018955 -146062.000000 0 1 0
15.869702 -11.781161 -15.056902 24.846599 -0.638599 2.221812 0.124507 -0.035114 -251083.000000 0 1 0
16.868402 -12.752161 -15.150702 26.013542 -0.647317 2.192494 0.121812 -0.035885 -221108.000000 0 0 1
17.991402 -12.297661 -15.856602 26.950971 -0.599586 2.199813 0.115034 -0.027267 330876.000000 0 0 1
19.056002 -13.435561 -16.134402 28.354266 -0.614112 2.176121 0.099664 -0.023676 69317.700000 0 0 1
19.823702 -13.657561 -15.006502 28.367291 -0.603272 2.128227 0.098330 -0.035401 792778.000000 0 0 1
20.968302 -14.566361 -15.162802 29.694429 -0.607150 2.106711 0.079036 -0.020470 1017160.000000 0 0 1
21.970802 -14.351361 -14.032902 29.759033 -0.578623 2.061845 0.078061 -0.023780 -346950.000000 0 0 1
22.677702 -13.139861 -14.069102 29.746827 -0.525148 2.063445 0.082481 -0.024170 674415.000000 0 0 1
23.729702 -13.015561 -13.081702 30.060514 -0.501685 2.021033 0.079006 -0.012634 578781.000000 0 0 1
24.618102 -11.800561 -13.089102 30.275878 -0.446987 2.017869 0.090640 -0.023724 -567070.000000 0 0 1
23.881702 -10.608461 -12.868402 29.128524 -0.418027 2.028378 0.091122 -0.016132 256784.000000 0 0 1
24.603502 -9.371761 -12.897702 29.317451 -0.363943 2.026320 0.112887 -0.026701 -10913.400000 0 0 1
25.613602 -9.014661 -11.781502 29.599401 -0.338409 1.980167 0.122304 -0.026409 1090650.000000 0 0 1
26.834702 -9.782161 -11.912702 30.946799 -0.349564 1.965941 0.108259 -0.025051 929399.000000 0 0 1
27.802802 -9.553261 -10.909502 31.357261 -0.330969 1.926137 0.115935 -0.031558 368613.000000 0 0 1
29.118602 -10.341961 -11.175002 32.859242 -0.341270 1.917806 0.121832 -0.032716 121446.000000 0 0 1
29.904862 -9.843961 -12.199902 33.764507 -0.318004 1.940483 0.102879 -0.031224 -327709.000000 0 0 1
31.149942 -10.474961 -12.324402 35.098926 -0.324396 1.929578 0.098360 -0.028507 -213147.000000 0 0 1
31.814122 -10.088161 -13.685502 36.072182 -0.307067 1.959936 0.071341 -0.019957 -65186.100000 0 0 1
31.200342 -10.701961 -14.782302 36.145674 -0.330432 1.992115 0.062557 -0.022558 46215.500000 0 0 1
31.887242 -10.307161 -15.916902 37.099616 -0.312637 2.014217 0.034112 -0.025783 -483726.000000 0 0 1
31.463332 -11.040861 -17.201302 37.519684 -0.337487 2.047059 0.014316 -0.006210 785199.000000 0 0 1
30.267232 -10.643261 -17.920502 36.749541 -0.338138 2.080179 0.027203 -0.016129 1052030.000000 0 0 1
30.256192 -9.311561 -18.412802 36.622037 -0.298558 2.097607 0.023805 -0.009089 88981.800000 0 0 1
28.778002 -9.005361 -18.796302 35.532674 -0.303272 2.128202 -0.001853 -0.014194 431414.000000 0 0 1
28.370502 -9.608261 -20.066702 36.053801 -0.326547 2.161056 0.011459 -0.006410 998096.000000 0 0 1
26.958302 -9.482161 -20.258902 35.029766 -0.338219 2.187481 0.059904 0.000486 967981.000000 0 0 1
26.330702 -9.779261 -21.685402 35.485158 -0.355612 2.228261 0.078073 -0.015030 214573.000000 0 0 1
26.449902 -11.168261 -21.964402 36.149168 -0.399532 2.223837 0.084759 -0.023237 272064.000000 0 0 1
25.751402 -11.633561 -23.168902 36.541380 -0.424320 2.257570 0.104020 -0.021479 -587702.000000 0 0 1
26.136202 -13.078061 -23.561002 37.540079 -0.463952 2.249292 0.110204 -0.016799 252978.000000 0 0 1
27.429302 -13.333661 -24.034502 38.830534 -0.452474 2.238213 0.099044 -0.015065 59697.700000 0 0 1
28.538902 -12.946661 -23.223802 39.005512 -0.425885 2.208557 0.065919 -0.014775 387448.000000 0 0 1
29.941962 -13.262261 -23.880502 40.530076 -0.416961 2.200870 0.063814 -0.010263 892818.000000 0 0 1
30.287082 -12.772161 -25.172772 41.401738 -0.399075 2.224351 0.052911 -0.016589 382395.000000 0 0 1
31.641072 -13.053061 -25.521492 42.695274 -0.391266 2.211499 0.028299 -0.012883 492616.000000 0 0 1
32.006402 -12.501561 -26.976662 43.685685 -0.372373 2.236379 0.049740 -0.026919 127183.000000 0 0 1
31.585302 -13.351161 -28.048672 44.301386 -0.399922 2.256391 0.065150 -0.028120 359318.000000 0 0 1
32.287902 -12.933261 -29.222392 45.428252 -0.380990 2.269551 0.063093 -0.030228 316849.000000 0 0 1
32.177442 -13.853961 -30.408792 46.389812 -0.406561 2.285649 0.069525 -0.027574 -121718.000000 0 0 1
32.712242 -15.107961 -30.109762 46.956778 -0.432660 2.266887 0.076009 -0.028320 -334659.000000 0 0 1
32.783012 -15.967661 -31.288092 48.048275 -0.453251 2.279935 0.055184 -0.023149 311830.000000 0 0 1
31.448902 -16.537761 -31.857042 47.722134 -0.484122 2.301713 0.053763 -0.016299 743297.000000 0 0 1
30.728042 -15.536661 -32.650062 47.451311 -0.468132 2.329629 0.050931 -0.020445 1282570.000000 0 0 1
29.494802 -16.042561 -33.241452 47.247235 -0.498157 2.351197 0.030773 -0.007848 939624.000000 0 0 1
28.648202 -14.918761 -33.832562 46.775326 -0.480115 2.379365 0.042707 -0.003542 -522179.000000 0 0 1
28.064802 -13.996161 -32.940192 45.481665 -0.462614 2.380745 0.038017 -0.018446 -4935.900000 0 0 1
28.939202 -12.946761 -32.620842 45.488629 -0.420671 2.370459 0.049273 -0.021762 -94814.700000 0 0 1
28.137402 -11.636261 -32.401692 44.463306 -0.392134 2.387260 0.052871 -0.032353 641349.000000 0 0 1
27.531502 -11.112061 -33.608242 44.843901 -0.383617 2.418027 0.055631 -0.019725 -270623.000000 0 0 1
26.574202 -10.160561 -33.283802 43.786261 -0.365196 2.434329 0.019428 -0.029491 -249262.000000 0 0 1
20.991910 -29.599944 9.338398 37.470290 -0.953931 1.318920 0.064073 -0.027745 257265.000000 0 0 1
21.561710 -29.249944 8.061898 37.221778 -0.935568 1.352475 0.060639 -0.030944 -1023500.000000 0 0 1
22.790810 -29.798044 7.875498 38.332335 -0.917863 1.363870 0.079146 -0.028985 -1097470.000000 0 0 1
23.453410 -29.629444 6.476998 38.339508 -0.901224 1.401044 0.076574 -0.027047 114013.000000 0 0 1
23.750910 -28.260444 6.151298 37.424549 -0.871885 1.405682 0.064892 -0.019443 142270.000000 0 0 1
24.491710 -28.149044 4.954898 37.639920 -0.854764 1.438774 0.070949 -0.014651 32020.200000 0 0 1
24.486210 -26.704244 4.452498 36.503642 -0.828700 1.448518 0.064887 -0.016311 569822.000000 0 0 1
25.335710 -25.840744 5.261498 36.569463 -0.795266 1.426418 0.056374 -0.014320 732813.000000 0 0 1
25.042910 -24.521044 4.895098 35.389136 -0.774869 1.432029 0.052733 -0.005776 314415.000000 0 0 1
25.921110 -23.568444 5.769398 35.505795 -0.737895 1.407581 0.044184 -0.007202 -478102.000000 0 0 1
27.230310 -23.340644 5.349298 36.261418 -0.708634 1.422736 0.065620 -0.015378 -405890.000000 0 0 1
28.027310 -22.763244 6.365998 36.663624 -0.682124 1.396279 0.078140 -0.017196 175166.000000 0 0 1
27.711910 -21.263244 6.750198 35.575844 -0.654479 1.379898 0.067541 -0.013721 -354804.000000 0 0 1
27.952710 -20.476744 5.669598 35.111186 -0.632239 1.408611 0.078335 -0.012468 175449.000000 0 0 1
27.468710 -19.148244 5.937498 34.006458 -0.608772 1.395298 0.083987 -0.020803 -458915.000000 0 0 1
27.543410 -18.223444 4.705698 33.359810 -0.584505 1.429265 0.087403 -0.014344 -291437.000000 0 0 1
28.796910 -17.745844 4.323198 34.100837 -0.552276 1.443677 0.134648 -0.015919 -266304.000000 0 0 1
28.603510 -16.960544 3.174398 33.405054 -0.535222 1.475625 0.129774 -0.004387 238693.000000 0 0 1
29.679110 -15.865544 2.962198 33.783719 -0.490919 1.483002 0.138375 -0.023894 213451.000000 0 0 1
29.510610 -14.824144 3.869698 33.250653 -0.465512 1.454152 0.131836 -0.027917 -242292.000000 0 0 1
30.693910 -14.112144 4.046998 34.024211 -0.430949 1.451569 0.152716 -0.038862 -140621.000000 0 0 1
30.404010 -12.893144 4.960398 33.395248 -0.401075 1.421709 0.156471 -0.036535 259475.000000 0 0 1
30.143010 -13.257944 6.290598 33.525301 -0.414368 1.382040 0.137469 -0.048195 -16156.200000 0 0 1
29.647510 -12.145144 6.980098 32.790260 -0.388799 1.356284 0.131057 -0.037814 -259781.000000 0 0 1
29.481410 -12.459244 8.470198 33.107863 -0.399848 1.312083 0.135419 -0.031490 298521.000000 0 0 1
28.262910 -13.146444 8.764898 32.379693 -0.435380 1.296685 0.129999 -0.026061 8813.490000 0 0 1
28.056310 -13.553144 10.137698 32.766098 -0.450012 1.256239 0.117128 -0.027853 -132266.000000 0 0 1
28.845610 -14.627544 10.937698 34.141873 -0.469310 1.244687 0.115804 -0.027750 136979.000000 0 0 1
30.123510 -14.248644 11.467998 35.241520 -0.441821 1.239349 0.108764 -0.025650 527989.000000 0 0 1
30.493510 -15.273244 12.307498 36.257422 -0.464342 1.224467 0.113071 -0.021572 467368.000000 0 0 1
31.625910 -15.145644 13.402598 37.539558 -0.446625 1.205714 0.107453 -0.020025 -280362.000000 0 0 1
32.851010 -14.772344 12.906298 38.262038 -0.422585 1.226735 0.095192 -0.020502 -978597.000000 0 0 1
33.797310 -14.949944 13.932298 39.495164 -0.416467 1.210278 0.090420 -0.014792 -653592.000000 0 0 1
35.266910 -14.776844 13.580798 40.577681 -0.396778 1.229524 0.094943 -0.013739 -647859.000000 0 0 1
35.670710 -13.425044 13.585398 40.462259 -0.359963 1.228390 0.110485 -0.018814 111306.000000 0 0 1
37.017710 -13.365644 13.173198 41.502825 -0.346494 1.247805 0.101750 -0.015589 -374166.000000 0 0 1
-37.095782 -11.996644 13.262098 41.181303 0.312781 1.242911 0.108038 -0.021896 63324.200000 0 0 1
-35.934282 -11.880444 12.437498 39.838535 0.319303 1.253291 0.125182 -0.023258 390499.000000 0 0 1
-35.173982 -10.707744 12.764998 38.920559 0.295509 1.236636 0.125576 -0.030075 -308378.000000 0 0 1
-33.931082 -10.582344 11.889498 37.478854 0.302318 1.247987 0.141109 -0.028930 -145118.000000 0 0 1
-32.852382 -11.460644 12.091798 36.835267 0.335652 1.236328 0.127142 -0.025460 375815.000000 0 0 1
-33.177182 -12.734644 11.527598 37.360167 0.366496 1.257125 0.114298 -0.025914 -946887.000000 0 0 1
-32.195982 -13.837344 11.851098 36.993267 0.405916 1.244689 0.089753 -0.023848 125005.000000 0 0 1
-30.922182 -13.801344 11.215898 35.671484 0.419794 1.250949 0.108173 -0.025930 130367.000000 0 0 1
-30.174282 -14.927444 11.558098 35.593616 0.459405 1.240077 0.111150 -0.021282 -538564.000000 0 0 1
-28.712782 -14.845744 11.120598 34.183148 0.477189 1.239442 0.127162 -0.018238 -499499.000000 0 0 1
-28.631482 -14.994144 9.693698 33.742464 0.482423 1.279405 0.121567 -0.022510 83119.600000 0 0 1
-27.312782 -15.023244 9.183798 32.496585 0.502877 1.284284 0.121638 -0.026326 -18604.600000 0 0 1
-27.169382 -14.908344 7.634898 31.917482 0.501859 1.329247 0.149801 -0.021815 -79092.500000 0 0 1
-27.599882 -15.935944 6.752198 32.577599 0.523630 1.362018 0.151004 -0.004832 98638.400000 0 0 1
-27.524282 -15.619344 5.393298 32.103546 0.516161 1.401999 0.155196 -0.005317 -181059.000000 0 0 1
-28.148482 -16.679844 4.474298 33.023833 0.534936 1.434891 0.127406 -0.003089 -349785.000000 0 0 1
-29.537582 -16.716744 4.632898 34.254664 0.515005 1.435132 0.082310 -0.011580 -350782.000000 0 0 1
-30.090382 -17.725144 3.765598 35.125368 0.532339 1.463385 0.080567 -0.003060 132.536000 0 0 1
-31.593682 -17.983044 3.960198 36.568207 0.517463 1.462287 0.095542 -0.019734 -191979.000000 0 0 1
-32.456382 -17.121644 3.256998 36.839862 0.485427 1.482271 0.123344 -0.029540 202550.000000 0 0 1
-33.795482 -17.423344 3.639998 38.196296 0.476012 1.475354 0.127548 -0.030265 689572.000000 0 0 1
-34.891382 -16.528944 2.976598 38.723050 0.442408 1.493852 0.121543 -0.040044 431875.000000 0 0 1
-34.957182 -16.905944 1.599898 38.863545 0.450457 1.529618 0.122520 -0.035589 -169097.000000 0 0 1
-35.687282 -15.916944 0.911098 39.086587 0.419532 1.547484 0.164259 -0.041735 -160877.000000 0 0 1
-35.998282 -16.473644 -0.484402 39.591563 0.429175 1.583032 0.148850 -0.041043 -636570.000000 0 0 1
-34.909782 -16.800644 -1.292502 38.763708 0.448543 1.604146 0.133008 -0.034054 -174135.000000 0 0 1
-35.267982 -17.661644 -2.401202 39.516199 0.464275 1.631599 0.116983 -0.028398 67066.000000 0 0 1
-34.035182 -18.278944 -3.099202 38.757172 0.492854 1.650846 0.102596 -0.017078 -99496.400000 0 0 1
-34.412782 -19.319544 -3.963702 39.663525 0.511558 1.670897 0.103895 -0.026203 492305.000000 0 0 1
-33.340382 -19.917844 -4.685802 39.118516 0.538512 1.690869 0.095722 -0.018023 117961.000000 0 0 1
-33.913982 -21.024544 -5.589802 40.291878 0.554950 1.709978 0.104671 -0.019589 78592.700000 0 0 1
-34.533682 -22.075944 -4.886102 41.277069 0.568787 1.689448 0.107339 -0.033965 -224156.000000 0 0 1
-35.155082 -22.872044 -5.819802 42.342416 0.576800 1.708679 0.099297 -0.029680 -189119.000000 0 0 1
-35.745782 -24.175644 -5.247802 43.471394 0.594657 1.691810 0.093262 -0.030802 116715.000000 0 0 1
-34.771082 -25.120044 -4.817302 43.165392 0.625629 1.682630 0.092426 -0.027098 -147923.000000 0 0 1
-35.325482 -26.355544 -4.461302 44.299069 0.640986 1.671676 0.074983 -0.026797 -39362.100000 0 0 1
-34.275282 -27.361444 -3.982902 44.037564 0.673694 1.661363 0.075856 -0.023176 -1219070.000000 0 0 1
-33.360482 -27.759144 -4.995402 43.685762 0.694008 1.685396 0.062864 -0.019765 1073910.000000 0 0 1
-32.348282 -28.722744 -4.578702 43.501400 0.726102 1.676246 0.067022 -0.013432 1122580.000000 0 0 1
-31.511282 -28.401844 -3.258802 42.546978 0.733546 1.647464 0.078301 -0.025048 -639541.000000 0 0 1
-32.227782 -28.433244 -1.993202 43.023855 0.722926 1.617141 0.067555 -0.022254 -232431.000000 0 0 1
-31.371482 -28.252444 -0.907002 42.227871 0.733134 1.592277 0.073997 -0.028161 -435797.000000 0 0 1
-32.010482 -28.118144 0.480498 42.609058 0.720755 1.559519 0.065582 -0.013925 -116087.000000 0 0 1
-32.591182 -29.345944 0.920798 43.865902 0.733050 1.549804 0.058257 -0.009095 -76767.700000 0 0 1
-33.298482 -29.155644 2.116598 44.309372 0.719161 1.523010 0.076267 -0.005400 -368884.000000 0 0 1
-33.998282 -30.481144 2.463498 45.728023 0.730905 1.516897 0.053905 -0.011990 -1482740.000000 0 0 1
-34.796182 -30.269544 3.568298 46.257456 0.715940 1.493580 0.062148 -0.013741 -258347.000000 0 0 1
-35.346382 -31.479244 4.092598 47.508513 0.727594 1.484545 0.061297 -0.007940 -44126.900000 0 0 1
-36.471282 -32.127844 3.253398 48.712804 0.722166 1.503959 0.046477 -0.000395 -819267.000000 0 0 1
-36.840382 -33.409344 3.779298 49.876658 0.736596 1.494951 0.057485 -0.006471 117787.000000 0 0 1
36.878010 33.857939 2.939498 50.149660 0.742729 1.512148 0.053263 0.005088 -180293.000000 0 0 1
35.693310 33.267139 3.749198 48.936402 0.750231 1.494107 0.049283 -0.005497 108322.000000 0 0 1
34.937610 -33.659944 4.624298 48.734101 -0.766775 1.475765 0.030180 -0.007485 588971.000000 0 0 1
34.241510 -32.546044 4.043898 47.413913 -0.760018 1.485403 0.032116 -0.004441 -138634.000000 0 0 1
33.082410 -32.703144 3.043298 46.617627 -0.779633 1.505468 0.050731 -0.004491 -263245.000000 0 0 1
33.501610 -33.338844 1.835698 47.299114 -0.782963 1.531976 0.050028 -0.003096 173309.000000 0 0 1
32.545810 -33.057044 0.808798 46.396682 -0.793191 1.553363 0.055093 0.001336 -163169.000000 0 0 1
33.008810 -33.676344 -0.561702 47.159232 -0.795408 1.582707 0.068137 -0.003917 1186180.000000 0 0 1
34.153710 -33.114144 -1.230802 47.587155 -0.769945 1.596663 0.043193 0.010581 465353.000000 0 0 1
35.414610 -33.197644 -0.593302 48.545136 -0.753098 1.583018 0.032858 0.013633 -113807.000000 0 0 1
36.550810 -32.829444 -1.592502 49.155571 -0.731812 1.603199 0.030331 0.006630 -46718.600000 0 0 1
36.890610 33.795339 -2.323002 50.084313 0.741637 1.617195 0.026713 0.001156 -66029.600000 0 0 1
-37.019782 -33.700944 -3.401602 50.177572 0.738504 1.638640 0.028025 0.002644 -788103.000000 0 0 1
-36.395582 32.854839 -4.054302 49.198742 -0.734313 1.653296 0.030315 -0.003762 19567.900000 0 0 1
-35.257282 32.329239 -3.392302 47.955848 -0.742102 1.641593 0.026249 -0.000239 169083.000000 0 0 1
-34.806182 31.134839 -3.934302 46.864989 -0.729779 1.654845 0.033080 -0.008860 592096.000000 0 0 1
-33.472582 30.546939 -3.334402 45.438392 -0.739731 1.644245 0.037148 -0.016592 1180020.000000 0 0 1
-32.314982 31.367139 -3.643602 45.182201 -0.770515 1.651526 0.037215 -0.014323 1672040.000000 0 0 1
-31.028582 30.894139 -3.196902 43.902630 -0.783227 1.643679 0.081093 -0.025786 1280170.000000 0 0 1
-30.711582 30.864139 -1.659502 43.572357 -0.787876 1.608892 0.067861 -0.012939 -14151.400000 0 0 1
-31.611182 30.028539 -0.921802 43.609972 -0.759728 1.591935 0.035055 -0.007109 18953.500000 0 0 1
-31.103182 29.876539 0.365498 43.129446 -0.765285 1.562322 0.043715 -0.006565 95003.700000 0 0 1
-31.986082 29.062239 1.403798 43.239956 -0.737541 1.538325 0.046381 -0.015856 281923.000000 0 0 1
-32.353782 27.739739 0.973198 42.628716 -0.708767 1.547965 0.041921 -0.028010 -58382.700000 0 0 1
-33.435882 27.688239 0.070098 43.411999 -0.691642 1.569182 0.051106 -0.023077 -620566.000000 0 0 1
-33.608682 26.350339 -0.585302 42.710964 -0.664929 1.584501 0.061739 -0.021257 -198472.000000 0 0 1
-34.116482 25.370639 0.297898 42.516966 -0.639423 1.563790 0.075407 -0.025763 192298.000000 0 0 1
-34.368382 24.164439 -0.444202 42.015510 -0.612804 1.581369 0.077870 -0.018506 -351614.000000 0 0 1
-34.556482 22.916439 0.479898 41.467384 -0.585570 1.559223 0.096234 -0.023618 -592214.000000 0 0 1
-33.375982 22.385639 0.975498 40.199808 -0.590797 1.546528 0.103346 -0.035522 -394332.000000 0 0 1
-32.875082 23.065839 2.122098 40.215759 -0.611813 1.518004 0.093248 -0.038172 -247428.000000 0 0 1
-31.339982 22.857039 2.384198 38.862876 -0.630137 1.509409 0.080270 -0.049055 1047430.000000 0 0 1
-30.464982 23.686039 1.611298 38.623048 -0.660860 1.529066 0.073278 -0.043953 207566.000000 0 0 1
-30.475382 25.003239 2.051898 39.473043 -0.687081 1.518791 0.048023 -0.035373 -599210.000000 0 0 1
-29.802882 26.040039 1.051498 39.590416 -0.718117 1.544234 0.040594 -0.025144 362095.000000 0 0 1
-28.442282 25.725939 0.784898 38.358876 -0.735294 1.550333 0.040964 -0.025634 129075.000000 0 0 1
-27.971382 26.640639 -0.228902 38.628671 -0.761036 1.576722 0.041454 -0.025198 -805266.000000 0 0 1
-26.867982 26.129539 -1.075902 37.493984 -0.771466 1.599496 0.039959 -0.023834 -1302500.000000 0 0 1
-27.241982 25.395139 -2.213202 37.308671 -0.750326 1.630153 0.055214 -0.035070 426421.000000 0 0 1
-26.157782 24.718839 -2.895102 36.105847 -0.757123 1.651066 0.064639 -0.021743 1015950.000000 0 0 1
-25.194482 23.711339 -2.188902 34.666710 -0.755081 1.633980 0.062305 -0.028047 491348.000000 0 0 1
-25.793082 22.451639 -1.850302 34.245916 -0.716248 1.624852 0.054298 -0.029147 -5284.530000 0 0 1
-24.873182 21.691139 -1.104602 33.021218 -0.717168 1.604254 0.064184 -0.048250 -612103.000000 0 0 1
-25.382182 20.315939 -0.638202 32.517685 -0.674986 1.590424 0.106225 -0.049523 3348.710000 0 0 1
-26.308982 20.206039 0.455098 33.176101 -0.654940 1.557078 0.079151 -0.047649 1533410.000000 0 0 1
-27.602482 20.844339 0.345398 34.590501 -0.646796 1.560811 0.070210 -0.044361 725446.000000 0 0 1
-28.588582 20.290739 -0.691502 35.064216 -0.617240 1.590519 0.093980 -0.049561 -809555.000000 0 0 1
-28.905282 18.915339 -0.454102 34.547237 -0.579455 1.583941 0.124920 -0.053756 667119.000000 0 0 1
-29.809282 18.391739 -1.446602 35.056269 -0.552812 1.612073 0.142523 -0.045451 -23869.400000 0 0 1
-29.894482 16.853839 -1.406802 34.346922 -0.513359 1.611766 0.163876 -0.042772 219847.000000 0 0 1
-30.715882 16.387739 -0.310602 34.815512 -0.490108 1.579718 0.172661 -0.053718 729070.000000 0 0 1
-30.797182 14.974439 -0.212902 34.245373 -0.452569 1.577013 0.173673 -0.052857 -647753.000000 0 0 1
-29.550282 14.382739 0.400498 32.867046 -0.452968 1.558611 0.205211 -0.051133 -982287.000000 0 0 1
-29.397382 14.602439 1.774198 32.872254 -0.461025 1.516798 0.216732 -0.052361 892873.000000 0 0 1
-28.075882 14.400139 2.306198 31.637599 -0.473915 1.497837 0.227548 -0.057299 749195.000000 0 0 1
-27.518182 12.962039 2.440998 30.515951 -0.440209 1.490720 0.230640 -0.053863 -385845.000000 0 0 1
-27.249382 12.454239 1.173798 29.983573 -0.428698 1.531638 0.213152 -0.056970 148503.000000 0 0 1
-26.830482 11.155439 1.310898 29.086716 -0.394031 1.525712 0.222671 -0.044962 -137365.000000 0 0 1
-26.615882 10.498139 -0.114902 28.611698 -0.375697 1.574812 0.200011 -0.035625 -76419.200000 0 0 1
-27.863082 10.139039 -0.683802 29.658372 -0.348993 1.593854 0.204893 -0.039036 623300.000000 0 0 1
-27.712582 9.321339 -1.828102 29.295332 -0.324470 1.633239 0.205909 -0.037992 250669.000000 0 0 1
-29.081082 9.044839 -2.522802 30.559499 -0.301537 1.653444 0.198381 -0.047732 233336.000000 0 0 1
-28.956582 8.252739 -3.665002 30.331890 -0.277643 1.691922 0.186992 -0.042698 -788599.000000 0 0 1
-30.131382 8.004439 -4.323202 31.474772 -0.259654 1.708586 0.167005 -0.041535 -957745.000000 0 0 1
-11.885090 18.119039 -19.589502 29.211359 -0.990253 2.305830 0.117510 -0.025069 424000.000000 0 0 1
-12.155990 17.570139 -20.913902 29.897645 -0.965558 2.345517 0.107775 -0.029331 16719.700000 0 0 1
-10.907390 17.065639 -21.332402 29.415618 -1.002091 2.382131 0.097385 -0.037583 279367.000000 0 0 1
-11.061090 15.991439 -22.467802 29.713228 -0.965671 2.428213 0.096332 -0.031453 187919.000000 0 0 1
-10.328790 14.788439 -22.203102 28.606984 -0.961120 2.459322 0.115989 -0.036115 -19700.200000 0 0 1
-10.268490 13.905439 -23.253702 28.974778 -0.934727 2.502353 0.114421 -0.034775 -72662.200000 0 0 1
-9.471190 12.633639 -22.923102 27.834886 -0.927500 2.538417 0.099596 -0.030576 507315.000000 0 0 1
-8.053590 12.674739 -22.826902 27.323557 -1.004750 2.559710 0.085337 -0.027778 167228.000000 0 0 1
-7.567390 11.411139 -22.426102 26.275645 -0.985227 2.593450 0.070745 -0.018943 651616.000000 0 0 1
-6.014190 11.359339 -22.285002 25.725986 -1.083868 2.618433 0.050253 -0.013634 468671.000000 0 0 1
-5.358690 11.447139 -23.508602 26.690952 -1.132972 2.648283 0.035913 -0.018242 -315105.000000 0 0 1
-3.959890 11.376239 -23.291502 26.222006 -1.235829 2.664301 0.038998 -0.016751 603431.000000 0 0 1
-3.053490 11.168139 -24.548302 27.141670 -1.303908 2.700887 0.056815 -0.028331 164797.000000 0 0 1
-3.050490 9.844439 -25.081392 27.116318 -1.270310 2.751715 0.049433 -0.020725 -102404.000000 0 0 1
-2.635290 9.674539 -26.414922 28.254018 -1.304854 2.778797 0.057979 -0.019564 -307480.000000 0 0 1
-2.680990 8.176639 -26.853072 28.198096 -1.253958 2.831486 0.073402 -0.007065 525765.000000 0 0 1
-1.605090 7.377339 -26.323262 27.384586 -1.356565 2.862275 0.071589 -0.009562 575387.000000 0 0 1
-1.705190 7.103239 -24.964202 26.011056 -1.335196 2.856919 0.082505 -0.022904 -416672.000000 0 0 1
-0.741990 6.038539 -24.415502 25.162099 -1.448534 2.897382 0.001970 -0.009696 622349.000000 0 0 1
0.619710 6.528539 -24.327402 25.195800 1.476157 2.878284 0.042264 0.005797 902977.000000 0 0 1
1.361010 5.769439 -23.385402 24.125003 1.339132 2.893339 0.034203 0.007933 54039.400000 0 1 0
1.353910 6.300739 -21.965202 22.891100 1.359134 2.856203 0.038370 0.001348 -172008.000000 0 1 0
2.391010 7.238039 -21.747702 23.044927 1.251743 2.804466 0.045885 -0.015756 20672.200000 0 1 0
2.392210 7.840939 -20.510202 22.087810 1.274674 2.761353 0.060081 -0.022582 -234818.000000 0 1 0
3.108010 9.164439 -20.526502 22.693258 1.243831 2.701049 0.058021 -0.034113 -324847.000000 0 1 0
3.070210 9.922639 -19.357302 21.967933 1.270725 2.649110 0.057326 -0.035754 75319.500000 0 1 0
3.429910 11.274239 -19.649802 22.912605 1.275468 2.601377 0.060016 -0.028771 228703.000000 0 1 0
4.708210 11.795539 -18.911402 22.780323 1.191021 2.550198 0.059354 -0.019009 274215.000000 0 1 0
5.860210 11.164039 -19.415102 23.150033 1.087413 2.565622 0.068615 -0.015616 -575697.000000 0 1 0
6.732010 10.913939 -18.336802 22.375709 1.018096 2.531327 0.069715 -0.011077 459512.000000 0 1 0
7.894710 9.906139 -18.661002 22.554180 0.897917 2.545233 0.114683 -0.026468 495450.000000 0 1 0
7.484310 8.529939 -18.758802 21.924128 0.850599 2.597551 0.102900 -0.027122 227197.000000 0 1 0
7.137210 8.235339 -20.078102 22.844928 0.856711 2.644319 0.088306 -0.014493 10096.200000 0 1 0
6.628910 6.811339 -20.330902 22.442869 0.798971 2.704287 0.094210 -0.018108 198524.000000 0 1 0
7.696610 5.866639 -20.334702 22.520110 0.651287 2.697399 0.092715 -0.018650 438879.000000 0 1 0
7.298610 4.465939 -20.512902 22.225964 0.549116 2.746407 0.081791 -0.018381 34486.400000 0 1 0
7.451110 3.996739 -21.998702 23.567686 0.492338 2.774644 0.101976 -0.031153 -433419.000000 0 1 0
6.619310 4.693039 -22.869602 24.266408 0.616736 2.800646 0.112901 -0.025535 -438747.000000 0 1 0
6.828910 4.481439 -24.272202 25.609707 0.580753 2.816977 0.112020 -0.025661 -316473.000000 0 0 1
5.772110 5.209939 -25.117442 26.293471 0.734253 2.841378 0.098327 -0.021442 -101200.000000 0 0 1
5.781110 6.632139 -25.225202 26.715488 0.853849 2.806003 0.091539 -0.031155 2392.430000 0 0 1
5.453910 7.306739 -24.040302 25.711275 0.929589 2.779084 0.104872 -0.034614 -1268370.000000 0 0 1
5.396010 8.807839 -24.360002 26.459491 1.021137 2.740545 0.101079 -0.041720 574222.000000 0 0 1
4.251310 9.289239 -25.058272 27.060683 1.141591 2.754480 0.090499 -0.042752 -256347.000000 0 0 1
3.012110 9.081539 -24.463102 26.267670 1.250540 2.768764 0.086265 -0.031766 -1010280.000000 0 0 1
1.837810 9.565839 -25.350732 27.157732 1.380987 2.774745 0.093737 -0.021977 -57694.600000 0 0 1
1.623310 10.959939 -25.293732 27.613914 1.423752 2.728734 0.096510 -0.041265 127636.000000 0 0 1
0.701210 11.274439 -26.343482 28.663281 1.508682 2.736503 0.113019 -0.040243 170379.000000 0 0 1
0.550210 12.800539 -26.547212 29.477296 1.527839 2.691941 0.096682 -0.044750 -208277.000000 0 0 1
-0.048890 13.535139 -25.471852 28.844716 -1.567184 2.653157 0.085380 -0.045296 28337.900000 0 0 1
-0.792790 14.593339 -26.029712 29.851967 -1.516524 2.629987 0.086286 -0.049776 -257010.000000 0 0 1
-1.248890 15.480739 -24.872502 29.323273 -1.490297 2.583406 0.093654 -0.047966 156131.000000 0 0 1
-2.312090 14.858039 -24.154802 28.452795 -1.416422 2.584778 0.093420 -0.040546 -308080.000000 0 0 1
-2.523790 15.588639 -22.952302 27.860067 -1.410290 2.538953 0.094283 -0.041548 587858.000000 0 0 1
-3.846690 15.083639 -22.214502 27.125583 -1.321095 2.530376 0.096163 -0.034714 2163890.000000 0 0 1
-5.124790 15.426239 -22.793502 27.996001 -1.250055 2.522094 0.098167 -0.035849 680629.000000 0 0 1
-5.377490 14.848739 -24.091702 28.806467 -1.223338 2.561350 0.092177 -0.034541 -122385.000000 0 0 1
-6.842090 15.101939 -24.593202 29.659877 -1.145400 2.548425 0.069411 -0.035640 782006.000000 0 0 1
-7.277790 16.427639 -24.960702 30.755003 -1.153761 2.517679 0.078597 -0.037499 287577.000000 0 0 1
-8.683390 16.422639 -25.167322 31.280959 -1.084418 2.505726 0.085354 -0.032499 324212.000000 0 0 1
-9.385390 17.748139 -25.608282 32.540222 -1.084367 2.476684 0.101078 -0.036269 -18932.900000 0 0 1
-9.663690 18.591939 -24.526102 32.257972 -1.091451 2.434589 0.100463 -0.043970 -184330.000000 0 0 1
-10.779890 19.406839 -24.813502 33.294764 -1.063764 2.411732 0.091598 -0.035831 240520.000000 0 0 1
-11.355190 20.289839 -23.692002 33.195314 -1.060575 2.365584 0.072278 -0.032091 190301.000000 0 0 1
-10.616690 21.466739 -23.401502 33.483806 -1.111506 2.344641 0.093865 -0.028264 500578.000000 0 0 1
-11.312890 22.640639 -23.932302 34.832960 -1.107411 2.328230 0.071297 -0.033733 441760.000000 0 0 1
-11.028290 23.074839 -25.396232 36.042197 -1.124955 2.352691 0.076519 -0.028050 -172862.000000 0 0 1
-11.619090 22.217439 -26.323732 36.353221 -1.088941 2.380539 0.087511 -0.031811 77605.400000 0 0 1
-11.400190 22.707739 -27.618972 37.528834 -1.105518 2.397850 0.088400 -0.023256 143455.000000 0 0 1
-12.148190 21.808139 -28.641102 37.993238 -1.062558 2.424694 0.093199 -0.021157 -82832.700000 0 0 1
-11.427990 20.704739 -29.092872 37.492404 -1.066457 2.459043 0.093686 -0.024984 -209058.000000 0 0 1
-11.257890 19.593139 -28.273982 36.194602 -1.049275 2.467327 0.100422 -0.027232 110756.000000 0 0 1
-10.265190 18.597239 -28.939742 35.899026 -1.066439 2.508401 0.089761 -0.034507 886031.000000 0 0 1
-8.911290 19.089539 -29.049402 35.884388 -1.134047 2.514143 0.085827 -0.035904 899748.000000 0 0 1
-7.958190 18.319939 -29.746982 35.830656 -1.160990 2.550281 0.080618 -0.032285 495019.000000 0 0 1
-7.374290 17.083239 -29.013282 34.467198 -1.163291 2.571341 0.089768 -0.040411 -125389.000000 0 0 1
-8.421390 16.087639 -28.968962 34.189657 -1.088550 2.581681 0.076640 -0.036039 727222.000000 0 0 1
-8.150690 14.823039 -28.380852 33.039809 -1.068056 2.604089 0.054510 -0.031251 596931.000000 0 0 1
-9.525990 14.037739 -28.340742 33.030293 -0.974579 2.602204 0.058897 -0.016794 582653.000000 0 0 1
-10.345490 14.564139 -27.366542 32.681354 -0.953164 2.563259 0.084852 -0.021158 -654961.000000 0 0 1
-11.563190 13.858139 -27.309592 32.734831 -0.875431 2.557598 0.125528 -0.028818 597457.000000 0 0 1
-12.636490 14.219239 -26.232992 32.404282 -0.844265 2.514187 0.116822 -0.029496 396108.000000 0 0 1
-13.185390 15.484939 -26.388252 33.316327 -0.865433 2.484959 0.115191 -0.027898 -310376.000000 0 0 1
-14.182890 15.730839 -25.397142 33.070054 -0.837099 2.446478 0.106933 -0.032798 478473.000000 0 0 1
-15.191990 16.889539 -25.736222 34.327921 -0.838262 2.418430 0.084021 -0.028673 186199.000000 0 0 1
-14.618990 18.188739 -25.874082 34.842692 -0.893780 2.407736 0.088106 -0.030456 -119664.000000 0 0 1
-15.589290 19.200439 -26.124172 35.974368 -0.888827 2.383558 0.080076 -0.029835 -119203.000000 0 0 1
-15.129390 20.649939 -26.273862 36.682887 -0.938485 2.369200 0.082134 -0.032862 -86253.700000 0 0 1
-16.190190 21.593039 -26.375922 37.736863 -0.927431 2.344715 0.056475 -0.022265 17118.400000 0 0 1
-15.837490 22.883339 -26.647142 38.529774 -0.965394 2.334496 0.063203 -0.022788 -344314.000000 0 0 1
-15.186090 23.687639 -25.542782 38.002043 -1.000705 2.307895 0.038176 -0.015289 -97593.100000 0 0 1
-14.751690 24.934039 -25.989642 38.920176 -1.036555 2.302002 0.055728 -0.023907 15126.300000 0 0 1
-14.293090 25.693439 -24.896802 38.526562 -1.063134 2.273423 0.040572 -0.022479 -199793.000000 0 0 1
-13.942890 27.179539 -25.313052 39.672183 -1.096809 2.262766 0.064063 -0.032336 -159692.000000 0 0 1
-15.044190 27.994039 -25.633552 40.829803 -1.077673 2.249539 0.068435 -0.029232 -298241.000000 0 0 1
-15.514690 28.579139 -24.462402 40.692529 -1.073446 2.215738 0.060291 -0.030622 -253476.000000 0 0 1
-16.865090 29.348639 -24.551502 41.815668 -1.049228 2.198313 0.052387 -0.029790 72211.900000 0 0 1
-17.848590 28.362939 -24.726902 41.646706 -1.009116 2.206483 0.037591 -0.024965 -285816.000000 0 0 1
-19.119890 28.940739 -25.006402 42.760457 -0.986966 2.195432 0.036318 -0.022200 368725.000000 0 0 1
-20.324390 27.995439 -25.071882 42.724989 -0.942840 2.197922 0.042996 -0.008119 -225761.000000 0 0 1
-20.685490 27.416839 -23.823502 41.798706 -0.924433 2.177251 0.046634 -0.011802 -884991.000000 0 0 1
-21.743890 26.558839 -24.079402 41.928347 -0.884753 2.182544 0.047373 -0.015889 -924055.000000 0 0 1
-22.312490 26.256439 -22.713902 41.269470 -0.866424 2.153616 0.059647 -0.014648 -314816.000000 0 0 1
-23.193390 27.277639 -22.302502 42.182988 -0.866145 2.127875 0.075461 -0.016193 -242339.000000 0 0 1
-23.283790 27.411939 -20.924102 41.609702 -0.866649 2.097708 0.072990 -0.011234 -474325.000000 0 0 1
-24.478690 28.289239 -20.572202 42.693123 -0.857486 2.073575 0.059719 -0.010428 -831933.000000 0 0 1
-25.699520 27.616239 -20.601002 42.982825 -0.821333 2.070636 0.103812 -0.018028 -272835.000000 0 0 1
-26.713460 28.615139 -20.416802 44.150662 -0.819755 2.051536 0.097561 -0.020039 630889.000000 0 0 1
-28.172890 28.135039 -20.658302 44.855965 -0.784726 2.049408 0.102234 -0.019933 326153.000000 0 0 1
-28.507740 27.792539 -21.993802 45.484544 -0.772696 2.075496 0.104050 -0.028970 198913.000000 0 0 1
-29.909330 27.532539 -21.961602 46.205202 -0.744044 2.066108 0.110806 -0.030289 328308.000000 0 0 1
-30.388220 27.012539 -23.336502 46.879777 -0.726657 2.091850 0.099852 -0.032396 756.086000 0 0 1
-30.113030 25.636039 -23.673302 46.091499 -0.705264 2.110189 0.106732 -0.025945 -45818.400000 0 0 1
-30.360910 25.417639 -25.041002 46.849685 -0.697006 2.134708 0.101871 -0.019704 41021.300000 0 0 1
-30.404070 23.905639 -25.518962 46.336858 -0.666309 2.154031 0.087497 -0.023650 541237.000000 0 0 1
-29.101700 23.322939 -25.646392 45.261527 -0.675612 2.173203 0.090988 -0.029095 711792.000000 0 0 1
-29.319820 22.046139 -26.202062 45.080285 -0.644728 2.191037 0.078718 -0.026763 515854.000000 0 0 1
-28.053330 21.123039 -26.197772 43.812045 -0.645393 2.211748 0.081871 -0.027413 473122.000000 0 0 1
-27.854350 20.551039 -24.905302 42.643687 -0.635650 2.194484 0.085094 -0.026291 -2144.920000 0 0 1
-27.348120 19.237339 -24.968002 41.730037 -0.613021 2.212202 0.068790 -0.028160 -116901.000000 0 0 1
-28.381420 18.069639 -24.937502 41.879540 -0.566948 2.208632 0.070727 -0.021898 -130140.000000 0 0 1
-29.129100 17.942439 -26.113112 43.038705 -0.552074 2.222744 0.069124 -0.028824 -136090.000000 0 0 1
-29.806220 16.729639 -26.086882 42.997871 -0.511462 2.222701 0.048526 -0.011335 -234946.000000 0 0 1
-30.605580 16.240939 -27.326762 44.127333 -0.487868 2.238610 0.036542 -0.009404 1333760.000000 0 0 1
-31.949110 16.790839 -27.426672 45.331007 -0.483878 2.220601 0.036780 -0.015668 954334.000000 0 0 1
-32.612080 16.134039 -28.461972 46.194575 -0.459419 2.234619 0.034387 -0.006194 136094.000000 0 0 1
-33.987950 16.714639 -28.881502 47.630883 -0.457051 2.222272 0.035114 -0.007547 477318.000000 0 0 1
-35.026667 16.504539 -27.941042 47.749021 -0.440343 2.195879 0.022953 -0.007325 190466.000000 0 0 1
-36.303980 16.641339 -28.541052 49.086706 -0.429808 2.191296 0.029265 -0.011169 697638.000000 0 0 1
37.236832 16.261239 -27.616062 49.128978 0.411737 2.167735 0.049448 -0.010144 271523.000000 0 0 1
36.873222 17.174539 -26.596222 48.599983 0.435893 2.149868 0.042990 -0.016427 404731.000000 0 0 1
35.777672 16.688139 -25.790842 47.156159 0.436441 2.149482 0.049168 -0.015845 670492.000000 0 0 1
35.272012 17.747639 -24.781902 46.617982 0.466176 2.131279 0.054511 -0.006006 184035.000000 0 0 1
34.529872 18.766039 -25.465542 46.829159 0.497818 2.145751 0.051136 -0.025598 66480.200000 0 0 1
34.155862 19.844239 -24.673202 46.574496 0.526325 2.129111 0.058857 -0.013900 -624424.000000 0 0 1
33.699362 21.012739 -25.631122 47.266655 0.557545 2.143929 0.072902 -0.017369 549575.000000 0 0 1
32.380142 20.954839 -26.194692 46.623393 0.574370 2.167400 0.082234 -0.029363 -3137.340000 0 0 1
31.420992 21.486739 -25.347332 45.732329 0.599794 2.158263 0.080390 -0.015908 -1060480.000000 0 0 1
30.029462 21.554439 -25.963442 45.171482 0.622557 2.183126 0.051609 -0.022743 -330833.000000 0 0 1
29.483302 20.253239 -26.007622 44.225052 0.601907 2.199472 0.075084 -0.040079 672884.000000 0 0 1
28.147302 20.277539 -26.575322 43.700080 0.624292 2.224499 0.092937 -0.044931 970025.000000 0 0 1
27.683402 18.841139 -26.940932 42.978752 0.597582 2.248291 0.111964 -0.031777 -9600.200000 0 0 1
28.504502 18.205539 -27.912722 43.852803 0.568383 2.260760 0.105718 -0.041422 151138.000000 0 0 1
29.599702 17.546939 -27.325942 43.940238 0.535114 2.241949 0.100104 -0.036414 3564.540000 0 0 1
30.371642 16.517439 -28.208942 44.620700 0.498105 2.255178 0.083879 -0.033885 406773.000000 0 0 1
29.599002 15.346939 -28.564472 43.903969 0.478334 2.279187 0.096111 -0.043174 266501.000000 0 0 1
29.240102 14.360539 -27.608262 42.701578 0.456522 2.273836 0.105091 -0.034512 -171518.000000 0 0 1
30.338702 13.753139 -26.705002 42.693592 0.425611 2.246573 0.084078 -0.023625 -163072.000000 0 0 1
30.885432 14.684339 -25.837142 42.861377 0.443812 2.217811 0.075919 -0.032241 -452523.000000 0 0 1
31.881952 14.168039 -25.010502 42.926885 0.418179 2.192758 0.050687 -0.020333 -183000.000000 0 0 1
-14.961790 -31.224044 -23.767802 41.996481 1.123947 2.172378 0.138171 -0.020165 -22150.700000 0 0 1
-14.406190 -30.035644 -24.317702 41.243530 1.123572 2.201375 0.135380 -0.028930 25105.500000 0 0 1
-14.770790 -29.812044 -25.695202 42.037811 1.110784 2.228423 0.105203 -0.022872 -14661.300000 0 0 1
-14.050190 -28.610144 -26.323392 41.338470 1.114301 2.261107 0.109057 -0.028345 -61974.000000 0 0 1
-14.536790 -27.370744 -25.778052 40.311088 1.082574 2.264615 0.121284 -0.024058 -52654.900000 0 0 1
-13.779290 -26.329944 -26.296422 39.681690 1.088658 2.295193 0.102785 -0.023611 -522066.000000 0 0 1
-14.025590 -24.873544 -25.816012 38.495153 1.057362 2.305854 0.085734 -0.025857 -182150.000000 0 0 1
-13.663790 -24.553344 -24.499702 37.280038 1.062981 2.287868 0.100971 -0.034769 -105777.000000 0 0 1
-14.215790 -23.317544 -24.234002 36.511414 1.023304 2.296601 0.078383 -0.033415 -63977.500000 0 0 1
-13.699390 -22.601944 -22.919702 34.983337 1.025892 2.285191 0.081367 -0.021670 743363.000000 0 0 1
-12.356290 -22.106444 -22.964502 34.186855 1.061111 2.307345 0.102729 -0.028140 536831.000000 0 0 1
-11.913290 -21.704144 -21.678202 32.908065 1.068802 2.289953 0.078367 -0.026667 690312.000000 0 0 1
-10.388790 -21.403044 -21.516702 32.077807 1.118906 2.306037 0.088782 -0.032085 472474.000000 0 0 1
-9.937990 -20.411044 -22.366902 31.869305 1.117689 2.348763 0.103017 -0.038244 -324796.000000 0 0 1
-8.534990 -20.326244 -22.468002 31.477187 1.173253 2.365687 0.141272 -0.042425 53037.900000 0 0 1
-8.100190 -19.362444 -23.605102 31.586676 1.174576 2.414804 0.152461 -0.041194 -139130.000000 0 0 1
-8.529890 -18.081344 -23.191502 30.619271 1.130002 2.430142 0.105119 -0.041971 -251137.000000 0 0 1
-8.691790 -17.049244 -24.159602 30.820614 1.099336 2.471683 0.103415 -0.037555 -458915.000000 0 0 1
-7.446190 -16.480544 -24.872202 30.751918 1.146432 2.512908 0.119165 -0.039190 53879.400000 0 0 1
-6.828390 -17.295044 -25.881412 31.868368 1.194765 2.518598 0.119679 -0.041356 236815.000000 0 0 1
-5.832890 -16.469744 -26.477092 31.722412 1.230422 2.558292 0.094866 -0.033870 175179.000000 0 0 1
-5.330690 -17.026744 -27.830562 33.058530 1.267385 2.571512 0.100059 -0.026544 175400.000000 0 0 1
-6.383690 -16.925444 -28.789602 34.000931 1.210129 2.580605 0.122481 -0.027843 372841.000000 0 0 1
-6.181990 -17.770944 -29.908302 35.334543 1.236020 2.580046 0.112864 -0.031361 -378283.000000 0 0 1
-7.342890 -17.666144 -30.906122 36.348301 1.176874 2.587308 0.115026 -0.028983 -52476.200000 0 0 1
-7.337990 -16.601844 -31.874672 36.680540 1.154616 2.623935 0.083618 -0.027155 -166356.000000 0 0 1
-7.456390 -15.318644 -31.339342 35.670897 1.117803 2.643654 0.072536 -0.020166 -258734.000000 0 0 1
-7.909890 -14.252444 -32.347992 36.222798 1.064134 2.674827 0.054644 -0.024395 -517356.000000 0 0 1
-7.043390 -14.063944 -33.423772 36.939848 1.106499 2.701744 0.087447 -0.037008 -374067.000000 0 0 1
-7.461890 -13.045844 33.428768 36.651826 1.051239 0.422509 0.082929 -0.028051 -202152.000000 0 0 1
-7.588390 -11.550644 -33.897262 36.606357 0.989539 2.754456 0.054113 -0.021119 -559041.000000 0 0 1
-6.433490 -10.803744 -33.793172 36.056748 1.033702 2.785373 0.059514 -0.019613 -743804.000000 0 0 1
-6.021690 -10.191844 32.771458 34.843979 1.037144 0.346639 0.057838 -0.022574 -114544.000000 0 0 1
-4.885090 -9.183644 32.816201 34.425375 1.081929 0.306961 0.052118 -0.022880 -88944.700000 0 0 1
-4.957290 -8.453844 31.575770 33.061631 1.040441 0.300941 0.035268 -0.017444 817881.000000 0 0 1
-3.812190 -7.564444 31.496100 32.615302 1.103984 0.262729 0.039291 -0.020549 251206.000000 0 0 1
-4.102790 -6.447644 30.440090 31.384774 1.004095 0.245977 0.031188 -0.017116 1086630.000000 0 0 1
-5.259090 -5.611744 30.738910 31.686437 0.817827 0.245167 0.015614 -0.015884 224446.000000 0 0 1
-6.433490 -6.211644 30.278500 31.571536 0.767856 0.287188 0.025218 -0.014480 -1585670.000000 0 0 1
-7.608590 -5.264144 30.299070 31.680207 0.605248 0.296367 0.019649 -0.014715 -856318.000000 0 0 1
-8.706990 -5.822244 29.645450 31.441420 0.589399 0.339627 0.025941 -0.012582 -739351.000000 0 0 1
-9.735090 -4.863044 29.426350 31.374054 0.463278 0.354212 0.033022 -0.021943 -302569.000000 0 0 1
-10.881390 -5.456244 28.648990 31.127799 0.464790 0.401779 0.048261 -0.026550 -924355.000000 0 0 1
-10.527790 -5.707244 27.318630 29.828083 0.496767 0.413128 0.031421 -0.017111 -220107.000000 0 0 1
-11.505790 -6.245544 26.491360 29.549656 0.497312 0.458984 0.048250 -0.026442 -539319.000000 0 0 1
-11.178590 -6.018644 25.004060 28.042610 0.493900 0.469830 0.038285 -0.025152 688023.000000 0 0 1
-9.985090 -6.753844 24.657640 27.446596 0.594706 0.454715 0.023039 -0.018471 774100.000000 0 0 1
-9.294990 -6.301144 23.484870 26.031526 0.595744 0.446022 0.021560 -0.021423 -268467.000000 0 0 1
-9.961890 -6.545044 22.112750 25.120720 0.581286 0.494388 0.035463 -0.031702 -511148.000000 0 0 1
-11.187890 -5.880544 22.028550 25.396982 0.483930 0.520906 0.035431 -0.029407 -487653.000000 0 0 1
-11.814490 -5.951744 20.742050 24.601586 0.466656 0.567740 0.044378 -0.035313 449498.000000 0 1 0
-13.018290 -4.932444 20.671650 24.922319 0.362173 0.592686 0.058231 -0.027432 617364.000000 0 1 0
-12.633390 -3.561244 20.720550 24.528069 0.274762 0.564663 0.027294 -0.016435 458004.000000 0 1 0
-13.825090 -2.791444 20.827350 25.153603 0.199233 0.595253 0.055642 -0.011165 617540.000000 0 0 1
-13.548990 -1.383444 20.287450 24.435009 0.101754 0.591219 0.035615 0.000005 316906.000000 0 1 0
-12.687590 -0.535444 21.060150 24.592510 0.042177 0.542609 0.036916 0.001044 154063.000000 0 1 0
-12.873390 0.833556 20.747950 24.431463 -0.064660 0.556270 0.055310 -0.012780 -261028.000000 0 1 0
-12.302090 1.333556 19.347750 22.966393 -0.107979 0.569005 0.045564 -0.019622 305544.000000 0 1 0
-13.148790 0.994556 18.254050 22.518662 -0.075495 0.625588 0.066615 -0.014516 1252550.000000 0 1 0
-14.471290 1.602556 18.360250 23.432567 -0.110291 0.670461 0.083604 -0.012196 639420.000000 0 1 0
-15.534290 0.881556 17.530750 23.439678 -0.056688 0.725890 0.092976 -0.010030 -272940.000000 0 1 0
-15.753690 -0.421444 18.049950 23.961574 0.026746 0.717750 0.084201 -0.010166 111303.000000 0 1 0
-16.738390 -1.103444 17.317250 24.109716 0.065828 0.769486 0.094289 -0.007918 -259479.000000 0 1 0
-16.880690 -2.623444 17.635050 24.552701 0.154178 0.769508 0.089075 -0.008005 -202159.000000 0 1 0
-17.502690 -2.927244 18.846450 25.886320 0.165712 0.755328 0.105415 -0.012451 -48409.300000 0 0 1
-17.386990 -4.310144 19.130250 26.207846 0.242996 0.752557 0.118384 -0.006933 -125989.000000 0 0 1
-18.307090 -4.802144 20.272950 27.734502 0.256531 0.751061 0.110388 0.001294 -337530.000000 0 0 1
-17.975390 -4.422444 21.575350 28.428302 0.241237 0.709114 0.107414 -0.001707 -554001.000000 0 0 1
-18.822490 -4.797644 22.622250 29.817272 0.249575 0.709487 0.104971 -0.012004 -1088820.000000 0 0 1
-18.633590 -6.249444 23.132980 30.354587 0.323597 0.704259 0.108536 -0.008081 -104949.000000 0 0 1
-17.375290 -6.619344 23.632390 30.070023 0.363988 0.666627 0.081336 -0.025344 333782.000000 0 0 1
-16.337090 -6.699344 22.646150 28.716368 0.389157 0.662244 0.107272 -0.022665 -748909.000000 0 0 1
-14.959190 -7.111644 23.148310 28.463961 0.443777 0.621081 0.116829 -0.029420 -411311.000000 0 0 1
-14.840890 -8.442544 23.597520 29.126817 0.517216 0.626363 0.112045 -0.034835 -68692.600000 0 0 1
-14.917290 -8.535744 25.009900 30.345997 0.519731 0.602082 0.097910 -0.032019 -301956.000000 0 0 1
-16.084890 -9.291244 25.636940 31.659178 0.523815 0.627021 0.077519 -0.021095 -291259.000000 0 0 1
-16.106690 -10.709844 25.545090 32.041814 0.586800 0.648083 0.075890 -0.030100 -28462.800000 0 0 1
-15.327890 -11.256944 26.621340 32.716337 0.633448 0.620304 0.058285 -0.021705 267088.000000 0 0 1
-15.241090 -12.797244 26.650110 33.260917 0.698457 0.641425 0.037533 -0.026362 47842.600000 0 0 1
-16.422490 -13.380144 27.164120 34.447290 0.683667 0.662315 0.052201 -0.028074 -104678.000000 0 0 1
-16.591690 -14.753844 26.847750 34.839084 0.726833 0.690980 0.062109 -0.017921 -144966.000000 0 0 1
-15.753290 -15.789044 27.645550 35.520930 0.786532 0.678860 0.052204 -0.014264 571691.000000 0 0 1
-14.403190 -15.857344 27.179890 34.607133 0.833416 0.667480 0.051057 -0.020562 414289.000000 0 0 1
-13.700990 -16.859844 27.894310 35.356244 0.888395 0.661698 0.065617 -0.017498 -106072.000000 0 0 1
-12.349790 -17.218544 27.263110 34.529302 0.948595 0.660697 0.059540 -0.030842 -264224.000000 0 0 1
-11.429090 -17.996944 28.000730 35.193109 1.004997 0.650748 0.059533 -0.028865 -409607.000000 0 0 1
-10.523590 -18.492244 27.068110 34.429516 1.053422 0.666178 0.059803 -0.033341 -809637.000000 0 0 1
-9.313790 -19.134244 27.752900 34.972695 1.117796 0.654160 0.077591 -0.029739 -306553.000000 0 0 1
-9.571190 -20.370544 28.378820 36.220493 1.131555 0.670515 0.085710 -0.021675 -428220.000000 0 0 1
-8.414990 -20.883244 28.972920 36.692670 1.187746 0.660622 0.103410 -0.021929 -194327.000000 0 0 1
-8.682690 -22.187244 29.784500 38.141569 1.197780 0.674702 0.111453 -0.029860 151901.000000 0 0 1
-9.078490 -23.194744 28.848930 38.113985 1.197723 0.712222 0.132775 -0.037229 84563.500000 0 0 1
-9.231490 -24.443244 29.520200 39.422516 1.209687 0.724523 0.108403 -0.034313 -239961.000000 0 0 1
-9.431090 -25.576544 28.476400 39.420938 1.217525 0.763577 0.111320 -0.029524 629774.000000 0 0 1
-10.658690 -25.576444 27.703300 39.182075 1.175944 0.785492 0.098001 -0.029292 873826.000000 0 0 1
-10.929590 -26.862644 27.201710 39.761672 1.184382 0.817401 0.096595 -0.023909 -21094.400000 0 0 1
-12.371790 -27.003044 26.626030 39.889485 1.141175 0.839957 0.091012 -0.026187 235029.000000 0 0 1
-12.749590 -26.331744 25.409080 38.749634 1.119876 0.855655 0.093638 -0.031216 263774.000000 0 0 1
-12.747590 -24.924044 25.529270 37.887368 1.098025 0.831430 0.076043 -0.019270 -591817.000000 0 0 1
-12.998790 -24.203544 24.150660 36.579153 1.077941 0.849671 0.069676 -0.033373 576975.000000 0 0 1
-14.308690 -24.402544 23.609910 36.846310 1.040466 0.875299 0.050048 -0.022744 630627.000000 0 0 1
-14.315290 -24.006744 22.262350 35.733227 1.033100 0.898205 0.062038 -0.027121 223279.000000 0 0 1
-15.597790 -24.341744 21.451850 35.999908 1.000927 0.932428 0.051548 -0.027541 -572.646000 0 0 1
-15.702890 -25.706344 21.211550 36.841915 1.022432 0.957281 0.068054 -0.026614 715240.000000 0 0 1
-16.888990 -25.806044 20.404250 36.980039 0.991293 0.986319 0.073015 -0.027976 614146.000000 0 0 1
-17.012590 -27.227744 19.847850 37.745402 1.012322 1.017100 0.079604 -0.029916 329847.000000 0 0 1
-16.003290 -27.528744 18.884050 37.020864 1.044218 1.035504 0.082770 -0.031497 428781.000000 0 0 1
-15.997790 -28.930644 18.611150 37.937927 1.065675 1.058054 0.108475 -0.022851 168172.000000 0 0 1
-14.889190 -29.272544 17.587750 37.254513 1.100261 1.079128 0.100035 -0.031742 17683.800000 0 0 1
-15.280590 -29.026444 16.253050 36.608639 1.086224 1.110775 0.100356 -0.034927 -126699.000000 0 0 1
-14.251090 -29.386044 15.375050 36.097441 1.119252 1.130805 0.086177 -0.031446 -285754.000000 0 0 1
-14.459490 -28.902244 13.911450 35.184442 1.106917 1.164308 0.081587 -0.030403 -325122.000000 0 0 1
-14.509790 -27.470844 13.936150 34.049927 1.084853 1.149125 0.077231 -0.020642 111338.000000 0 0 1
-14.974190 -26.920644 12.689450 33.316205 1.063179 1.180049 0.074896 -0.013173 382902.000000 0 0 1
-13.897390 -26.844044 11.556250 32.361814 1.093082 1.205640 0.067752 -0.015768 311195.000000 0 0 1
-14.423090 -26.337544 10.355750 31.763710 1.069779 1.238701 0.059229 -0.011689 37429.000000 0 0 1
-13.467890 -26.266044 9.301650 30.948502 1.097002 1.265524 0.064422 -0.015397 -19102.800000 0 0 1
-13.937390 -25.522144 8.057350 30.175346 1.070960 1.300499 0.074489 -0.022583 -364345.000000 0 0 1
-14.922190 -26.204444 7.342750 31.036440 1.053141 1.331947 0.073472 -0.022150 -167466.000000 0 0 1
-15.322590 -25.509844 6.178150 30.392489 1.029896 1.366091 0.076173 -0.023700 257790.000000 0 0 1
-16.208590 -26.326444 5.189150 31.348481 1.018929 1.404500 0.070949 -0.021658 940919.000000 0 0 1
-15.465990 -27.448644 4.592550 31.838913 1.057684 1.426048 0.074843 -0.019971 892867.000000 0 0 1
-16.251690 -27.922144 3.523650 32.498917 1.043690 1.462159 0.105120 -0.017899 150503.000000 0 0 1
-15.618490 -29.177344 2.921250 33.223310 1.079313 1.482755 0.103529 -0.018678 411603.000000 0 0 1
-14.420690 -28.938544 2.185750 32.406374 1.108493 1.503297 0.068348 -0.006228 262637.000000 0 0 1
-13.883490 -30.056344 1.551250 33.144252 1.138078 1.523976 0.066294 -0.010348 700443.000000 0 0 1
-12.530090 -29.785944 0.782950 32.323654 1.172598 1.546572 0.065080 -0.010110 678313.000000 0 0 1
-12.531190 -28.938444 -0.412350 31.537823 1.162145 1.583871 0.067673 -0.006676 -47835.800000 0 0 1
-12.691090 -27.521544 -0.168350 30.307218 1.138723 1.576351 0.059115 -0.011825 -269022.000000 0 0 1
-12.207290 -26.750944 -1.429250 29.439322 1.142690 1.619364 0.057475 -0.010270 275149.000000 0 0 1
-10.834090 -26.894244 -1.744750 29.046893 1.187844 1.630899 0.060501 -0.012841 -206897.000000 0 0 1
-10.595490 -26.405744 -3.078450 28.618256 1.189207 1.678574 0.072352 -0.009823 -41781.600000 0 0 1
-9.144390 -26.606244 -3.517950 28.352919 1.239751 1.695194 0.058073 -0.008975 -57575.200000 0 0 1
-8.736790 -25.609044 -4.515750 27.432583 1.242018 1.736162 0.062061 -0.012036 -1356420.000000 0 0 1
-7.463690 -25.802944 -4.962550 27.315297 1.289224 1.753487 0.065679 -0.005367 -1046000.000000 0 0 1
-6.808690 -24.613144 -5.692350 26.164249 1.300917 1.790112 0.059418 -0.012658 -43243.900000 0 0 1
-7.306090 -24.319644 -6.987650 26.337260 1.278955 1.839326 0.063730 -0.015709 -346990.000000 0 0 1
-6.641290 -23.254244 -7.532650 25.329970 1.292607 1.872745 0.068876 -0.017854 -390616.000000 0 0 1
-6.891390 -23.113844 -9.085250 25.773684 1.281038 1.931039 0.061633 -0.018612 -334181.000000 0 0 1
-6.354690 -24.182744 -9.720950 26.826927 1.313828 1.941593 0.048189 -0.023595 -293605.000000 0 0 1
-6.529990 -24.172144 -11.097150 27.387589 1.306949 1.987982 0.037279 -0.015964 -571027.000000 0 0 1
-7.709490 -24.927444 -11.669350 28.582992 1.270850 1.991346 0.044320 -0.013383 -547634.000000 0 0 1
-7.962290 -24.796244 -13.031650 29.121739 1.260088 2.034752 0.057865 -0.014504 330693.000000 0 0 1
-8.926790 -25.759744 -13.477150 30.411931 1.237207 2.029910 0.081005 -0.016145 -218903.000000 0 0 1
-9.132290 -25.624244 -15.033950 31.080866 1.228438 2.075679 0.094520 -0.024085 735275.000000 0 0 1
-8.072490 -26.178844 -15.848650 31.649276 1.271688 2.095271 0.089772 -0.030605 1348610.000000 0 0 1
-6.827490 -25.458144 -15.809950 30.735748 1.308777 2.111084 0.080647 -0.029878 24957.400000 0 0 1
-5.648990 -26.214844 -16.413950 31.441165 1.358554 2.120052 0.077038 -0.016424 -502036.000000 0 0 1
-5.850090 -26.529744 -17.754850 32.454361 1.353759 2.149658 0.127186 -0.019756 -105138.000000 0 0 1
-4.760690 -27.284144 -18.198050 33.139971 1.398050 2.152116 0.112581 -0.028337 -22030.500000 0 0 1
-25.975750 14.135839 -4.978002 29.989032 -0.498374 1.737562 0.148894 -0.053303 -90030.000000 0 0 1
-25.825640 12.831739 -4.421402 29.174749 -0.461133 1.722931 0.156688 -0.046650 1543780.000000 0 0 1
-24.443990 12.379839 -4.531102 27.772287 -0.468800 1.734681 0.162290 -0.042224 1101420.000000 0 0 1
-24.294190 10.885739 -4.217402 26.953542 -0.421256 1.727911 0.170602 -0.051281 -9898.870000 0 0 1
-24.713890 9.962839 -5.222502 27.153435 -0.383199 1.764335 0.154731 -0.041884 253487.000000 0 0 1
-26.128740 9.823239 -5.269302 28.407263 -0.359608 1.757368 0.166179 -0.047046 48103.500000 0 0 1
-26.541860 9.159639 -6.608702 28.845177 -0.332304 1.801959 0.172827 -0.044929 -88891.700000 0 0 1
-26.466490 10.033239 -7.696302 29.332133 -0.362354 1.836289 0.200063 -0.039198 -7374.730000 0 0 1
-26.583480 9.411539 -8.944702 29.584897 -0.340267 1.877943 0.175067 -0.041835 -155771.000000 0 0 1
-26.790080 10.419139 -10.081502 30.461509 -0.370916 1.908116 0.170411 -0.035633 -274588.000000 0 0 1
-25.685160 11.215739 -10.405402 29.896365 -0.411707 1.926286 0.156895 -0.039909 -138667.000000 0 0 1
-25.956680 11.990339 -11.576102 30.846776 -0.432736 1.955492 0.164593 -0.043051 876990.000000 0 0 1
-24.800690 13.039139 -11.954202 30.463032 -0.484040 1.974054 0.142505 -0.037624 641197.000000 0 0 1
-24.805590 14.173339 -11.079502 30.642392 -0.519107 1.940752 0.133400 -0.037191 136673.000000 0 0 1
-24.407490 15.315639 -11.729702 31.110774 -0.560393 1.957384 0.116266 -0.031366 -252337.000000 0 0 1
-24.503190 16.676139 -11.005102 31.616644 -0.597566 1.926318 0.118319 -0.030431 -139449.000000 0 0 1
-23.616690 16.767139 -9.912502 30.612786 -0.617386 1.900542 0.098892 -0.019755 126551.000000 0 0 1
-23.627590 18.116139 -9.455802 31.238913 -0.654127 1.878313 0.051939 -0.001001 251398.000000 0 0 1
-22.590290 18.368639 -8.309002 30.278170 -0.682691 1.848785 0.066355 -0.005715 119673.000000 0 0 1
-22.804590 17.633439 -7.137502 29.697330 -0.658210 1.813514 0.100734 -0.025401 -39658.200000 0 0 1
-23.868390 18.078439 -6.333102 30.604545 -0.648234 1.779236 0.108807 -0.032326 -417067.000000 0 0 1
-24.031890 17.327039 -4.969502 30.040871 -0.624683 1.736985 0.120465 -0.024035 394675.000000 0 0 1
-22.874190 17.438639 -4.122302 29.057324 -0.651372 1.713144 0.111773 -0.039370 659283.000000 0 0 1
-22.969490 16.863039 -2.813602 28.633475 -0.633279 1.669218 0.115465 -0.038744 312743.000000 0 0 1
-21.673190 16.972939 -1.924502 27.595498 -0.664370 1.640593 0.116814 -0.055748 168674.000000 0 0 1
-21.304090 18.247239 -1.515902 28.091350 -0.708263 1.624786 0.108723 -0.054254 -89178.400000 0 0 1
-20.251990 18.159439 -0.599502 27.207861 -0.730975 1.592832 0.160177 -0.070607 -333373.000000 0 0 1
-19.944190 19.547239 -0.155002 27.926498 -0.775347 1.576347 0.133329 -0.068681 -776270.000000 0 0 1
-20.984690 19.958839 0.638498 28.967571 -0.760348 1.548753 0.124146 -0.051953 -170560.000000 0 0 1
-20.912990 21.319439 0.734998 29.873263 -0.795022 1.546190 0.140406 -0.055046 25488.800000 0 0 1
-22.050290 21.716139 1.678398 30.993919 -0.777763 1.516617 0.103547 -0.052113 -264859.000000 0 0 1
-21.703290 21.512539 2.996398 30.705057 -0.780984 1.473054 0.127658 -0.046652 -19527.000000 0 0 1
-22.841190 21.471339 3.803698 31.578576 -0.754495 1.450051 0.100201 -0.037873 -522491.000000 0 0 1
-22.545790 21.151739 5.237298 31.355032 -0.753507 1.402978 0.102177 -0.035479 -779266.000000 0 0 1
-21.920390 22.212539 5.897798 31.759792 -0.792018 1.384012 0.101772 -0.033560 -232027.000000 0 0 1
-20.974490 21.713239 6.797898 30.945200 -0.802702 1.349315 0.084806 -0.026588 -382836.000000 0 0 1
-21.418890 21.473339 8.269798 31.436646 -0.786668 1.304601 0.074594 -0.031901 -366713.000000 0 0 1
-22.350890 20.391939 8.363198 31.390071 -0.739599 1.301111 0.082473 -0.033274 720596.000000 0 0 1
-22.786690 20.089239 9.683098 31.883744 -0.722568 1.262222 0.103922 -0.031379 232313.000000 0 0 1
-23.539690 21.164539 10.574698 33.374825 -0.732318 1.248393 0.110999 -0.033118 332430.000000 0 0 1
-24.892390 21.442739 10.182398 34.396270 -0.711085 1.270261 0.132638 -0.034227 809168.000000 0 0 1
-25.459440 22.346939 11.078198 35.641202 -0.720384 1.254735 0.135071 -0.033884 801260.000000 0 0 1
-26.900040 22.809439 10.555798 36.814502 -0.703293 1.279985 0.137209 -0.035362 700059.000000 0 0 1
-27.639380 23.408939 11.524698 38.009636 -0.702716 1.262743 0.135289 -0.035173 -240665.000000 0 0 1
-27.582610 24.811139 11.518198 38.846646 -0.732550 1.269766 0.114505 -0.034475 -31330.100000 0 0 1
-28.074740 25.380539 12.891198 39.981818 -0.735040 1.242505 0.110193 -0.035716 -147956.000000 0 0 1
-27.159960 25.101639 13.904898 39.510782 -0.746034 1.211168 0.094650 -0.037704 -84209.200000 0 0 1
-27.399680 25.894039 15.025598 40.583400 -0.757154 1.191529 0.102661 -0.025707 -429352.000000 0 0 1
-26.203300 26.028739 15.952798 40.231828 -0.782056 1.163071 0.089449 -0.028058 -589471.000000 0 0 1
-25.953900 24.855139 16.697798 39.625741 -0.763776 1.135821 0.103940 -0.031144 -535194.000000 0 0 1
-24.921390 24.951139 17.598898 39.412641 -0.785995 1.107914 0.079267 -0.024328 -897679.000000 0 0 1
-24.473990 23.591839 18.238598 38.577163 -0.767047 1.078351 0.088905 -0.024102 -187862.000000 0 0 1
-23.374290 23.700839 19.113398 38.385013 -0.792335 1.049576 0.085571 -0.033464 371187.000000 0 0 1
-22.914490 22.415939 19.562598 37.553208 -0.774400 1.022856 0.087780 -0.037448 -61923.100000 0 0 1
-21.474190 22.429939 20.128098 37.005180 -0.807164 0.995687 0.071505 -0.033586 -99246.000000 0 0 1
-20.492690 22.680239 19.102098 36.044885 -0.836024 1.012251 0.069121 -0.040588 477862.000000 0 0 1
-19.164890 22.337539 19.425698 35.264946 -0.861695 0.987414 0.060835 -0.036749 -83850.700000 0 0 1
-18.734390 20.836939 19.456098 34.112977 -0.838481 0.963873 0.059647 -0.026247 -773468.000000 0 0 1
-19.242090 20.016539 20.484098 34.503886 -0.805122 0.935178 0.069589 -0.024846 391557.000000 0 0 1
-18.559190 20.257239 21.755798 35.044458 -0.829116 0.901026 0.059900 -0.023007 101623.000000 0 0 1
-19.410690 19.969639 22.998398 36.117692 -0.799591 0.880504 0.062245 -0.021423 -731850.000000 0 0 1
-20.359690 20.942839 23.218598 37.312502 -0.799516 0.899152 0.050198 -0.013168 -470140.000000 0 0 1
-21.140690 20.623139 24.358598 38.282946 -0.773006 0.881132 0.061200 -0.010478 685668.000000 0 0 1
-22.345690 21.620439 24.606698 39.651770 -0.768904 0.901327 0.067648 -0.015757 257964.000000 0 0 1
-21.951890 22.943539 24.964398 40.391987 -0.807483 0.904532 0.083207 -0.025255 289992.000000 0 0 1
-23.013090 23.896539 25.044898 41.567942 -0.804229 0.924160 0.083424 -0.033140 411318.000000 0 0 1
-23.767190 24.331339 23.732598 41.474445 -0.797127 0.961583 0.062434 -0.031184 273705.000000 0 0 1
-24.646690 23.314839 23.267098 41.138776 -0.757636 0.969665 0.050689 -0.029570 -1474.310000 0 0 1
-25.457230 23.796439 22.245198 41.342350 -0.751692 1.002647 0.050572 -0.025846 -485506.000000 0 0 1
-26.425010 22.835839 21.570698 41.049382 -0.712666 1.017515 0.063639 -0.030603 -472920.000000 0 0 1
-27.636850 22.758639 22.268298 42.161929 -0.688900 1.014363 0.070700 -0.031496 -7124.060000 0 0 1
-28.539100 21.816939 21.708698 41.972927 -0.652690 1.027212 0.088894 -0.033073 878799.000000 0 0 1
-30.039820 21.977739 22.135598 43.305848 -0.631634 1.034279 0.088194 -0.031762 114942.000000 0 0 1
-30.606000 23.210739 21.652098 44.093979 -0.648838 1.057508 0.103302 -0.027874 -471.441000 0 0 1
-31.985070 23.399539 21.809898 45.235548 -0.631606 1.067700 0.120768 -0.030235 -18858.600000 0 0 1
-32.908130 22.569939 20.862798 45.028919 -0.601164 1.089058 0.125978 -0.044246 -934299.000000 0 0 1
-32.972010 21.199339 21.249198 44.588046 -0.571403 1.074051 0.109133 -0.043397 562491.000000 0 0 1
-33.760910 20.382239 20.377398 44.390011 -0.543153 1.093867 0.119025 -0.040941 -355036.000000 0 0 1
-35.271351 20.413839 20.546898 45.639545 -0.524660 1.103808 0.146668 -0.047036 -1076130.000000 0 0 1
-35.982366 19.668339 19.636698 45.466187 -0.500237 1.124202 0.129234 -0.035762 97860.300000 0 0 1
37.354952 19.921539 19.725398 46.704941 0.489934 1.134770 0.161487 -0.047162 330472.000000 0 0 1
36.611862 19.111639 18.626398 45.305915 0.481098 1.147108 0.146687 -0.049386 -209298.000000 0 0 1
36.518842 17.723139 18.913598 44.782360 0.451831 1.134766 0.166712 -0.055242 140787.000000 0 0 1
35.789992 17.042739 17.926498 43.505607 0.444417 1.146093 0.180530 -0.065223 -70276.700000 0 0 1
36.190102 15.554839 17.757198 43.208733 0.405937 1.147286 0.184052 -0.070592 -11338.000000 0 0 1
35.298112 14.807239 16.946998 41.861818 0.397195 1.154001 0.205310 -0.062427 157689.000000 0 0 1
35.651902 13.416539 16.759498 41.616613 0.359928 1.156319 0.178935 -0.049666 946483.000000 0 0 1
34.563132 12.675939 15.830798 40.073729 0.351516 1.164683 0.167573 -0.057738 891580.000000 0 0 1
34.506742 13.084539 14.448298 39.631727 0.362437 1.197632 0.162698 -0.050647 -51941.000000 0 0 1
33.737852 12.229939 13.673998 38.403025 0.347766 1.206742 0.166464 -0.043851 -498994.000000 0 0 1
33.838462 12.473639 12.110798 38.043458 0.353168 1.246817 0.163513 -0.042572 -713457.000000 0 0 1
35.094012 12.250339 11.556698 38.925799 0.335848 1.269362 0.148517 -0.040053 -187026.000000 0 0 1
35.024962 12.563739 10.191998 38.580725 0.344411 1.303450 0.135108 -0.028825 -259212.000000 0 0 1
36.435232 12.421639 9.604298 39.674499 0.328566 1.326290 0.095267 -0.018884 -246818.000000 0 0 1
36.868542 11.058139 9.513598 39.649469 0.291396 1.328490 0.120976 -0.027967 952752.000000 0 0 1
-36.447790 10.874239 9.380898 39.175141 -0.289943 1.328986 0.144142 -0.026621 1001710.000000 0 0 1
-35.931469 10.658939 7.960498 38.315179 -0.288377 1.361508 0.128135 -0.036474 -258905.000000 0 0 1
-36.087700 11.850039 7.212298 38.662162 -0.317275 1.383150 0.135137 -0.046143 125479.000000 0 0 1
-35.683761 11.656639 5.845698 37.991844 -0.315737 1.416315 0.158660 -0.056120 182651.000000 0 0 1
-36.458090 12.552439 4.795298 38.855513 -0.331586 1.447067 0.169575 -0.055032 381548.000000 0 0 1
36.986362 12.032739 4.535698 39.158018 0.314530 1.454705 0.168238 -0.052465 1180130.000000 0 0 1
35.843542 12.938339 4.549198 38.377798 0.346411 1.451980 0.130082 -0.044914 1277480.000000 0 0 1
35.299462 13.455739 5.895298 38.234324 0.364185 1.415990 0.131036 -0.034286 -558371.000000 0 0 1
34.655832 14.776539 5.851498 38.126275 0.403039 1.416711 0.114671 -0.019583 623301.000000 0 0 1
34.039342 15.189139 7.084998 37.941850 0.419709 1.382961 0.082779 -0.015537 674728.000000 0 0 1
32.669562 14.516639 7.396498 36.506730 0.418143 1.366777 0.131261 -0.029105 -129048.000000 0 0 1
32.858032 13.223239 7.959998 36.302423 0.382604 1.349731 0.158423 -0.027453 -481931.000000 0 0 1
31.703272 12.455839 8.071998 35.005751 0.374360 1.338112 0.180461 -0.024855 -723543.000000 0 0 1
31.551642 11.402939 6.967798 34.264900 0.346799 1.366017 0.180866 -0.028925 -333072.000000 0 0 1
31.168612 11.974939 5.759698 33.882971 0.366811 1.399979 0.158111 -0.040460 213505.000000 0 0 1
31.391492 11.110939 4.633998 33.620719 0.340187 1.432525 0.162628 -0.050199 -346519.000000 0 0 1
30.866712 11.659639 3.328998 33.162982 0.361172 1.470244 0.137005 -0.061766 -374008.000000 0 0 1
29.509102 11.337239 3.187598 31.772329 0.366807 1.470301 0.142118 -0.049877 -33742.900000 0 0 1
28.909602 11.824739 1.975098 31.296814 0.388262 1.507646 0.157676 -0.049648 -849288.000000 0 0 1
27.454202 11.448139 1.909098 29.806674 0.395067 1.506703 0.174208 -0.037853 -1076150.000000 0 0 1
27.286002 10.074939 1.489498 29.124714 0.353707 1.519632 0.144253 -0.030844 120604.000000 0 0 1
25.987202 9.539939 1.670598 27.733302 0.351828 1.510522 0.146965 -0.029219 -442668.000000 0 0 1
25.958802 7.957439 1.406298 27.187459 0.297447 1.519047 0.151840 -0.026323 233691.000000 0 0 1
26.592902 7.216539 2.472698 27.665414 0.264989 1.481298 0.168073 -0.018679 253519.000000 0 0 1
27.991602 7.368939 2.515098 29.054377 0.257415 1.484123 0.206781 -0.031284 -711343.000000 0 0 1
28.608002 6.569539 3.724898 29.588030 0.225726 1.444569 0.217575 -0.028587 -93260.300000 0 0 1
30.007452 6.726539 3.828098 30.989480 0.220517 1.446951 0.242646 -0.020520 320806.000000 0 0 1
30.488322 5.934139 4.907798 31.445799 0.192233 1.414084 0.224822 -0.019904 -723395.000000 0 0 1
31.980732 5.939539 5.171698 32.936178 0.183630 1.413122 0.198317 -0.027179 -583206.000000 0 0 1
32.289602 6.986139 6.074398 33.590518 0.213075 1.388959 0.195584 -0.038959 -923514.000000 0 0 1
33.623532 7.043739 6.439798 34.951784 0.206502 1.385490 0.138746 -0.028495 -742485.000000 0 0 1
33.988662 8.217039 7.371598 35.736387 0.237207 1.363028 0.123591 -0.036591 41821.000000 0 0 1
33.523862 7.995239 8.703198 35.546011 0.234121 1.323438 0.146251 -0.038329 383392.000000 0 0 1
33.933562 9.130339 9.478898 36.396418 0.262840 1.307324 0.147610 -0.044666 -70295.000000 0 0 1
33.432492 9.011539 10.900398 36.300938 0.263287 1.265812 0.148716 -0.038074 -538300.000000 0 0 1
32.101512 9.451739 10.993398 35.223533 0.286342 1.253390 0.167280 -0.041827 -168443.000000 0 0 1
31.547502 9.040839 12.243798 35.027022 0.279099 1.213702 0.158701 -0.037079 -46934.400000 0 0 1
30.074592 9.463639 12.476898 33.907441 0.304863 1.193972 0.158339 -0.044356 -87415.100000 0 0 1
29.863672 10.884739 12.537198 34.168667 0.349517 1.195099 0.175780 -0.051429 273505.000000 0 0 1
29.956392 11.640839 11.318298 34.073428 0.370634 1.232189 0.174847 -0.058357 -845949.000000 0 0 1
28.626102 11.713239 10.567998 32.685414 0.388395 1.241556 0.145375 -0.043324 -445965.000000 0 0 1
28.714902 12.656839 9.507198 32.789145 0.415157 1.276622 0.128933 -0.020928 228636.000000 0 0 1
27.509802 12.789039 8.780998 31.582506 0.435167 1.289050 0.127020 -0.019701 -5442.080000 0 0 1
27.582202 14.015639 7.771298 31.899986 0.470139 1.324705 0.125449 -0.022588 -233.459000 0 0 1
27.582802 15.227739 8.477298 32.627590 0.504434 1.307961 0.122168 -0.013139 308005.000000 0 0 1
27.683102 16.379639 7.674598 33.068810 0.534282 1.336581 0.117065 -0.007993 -1079880.000000 0 0 1
27.452102 17.713639 8.427298 33.740337 0.573033 1.318354 0.132901 -0.023015 -75333.100000 0 0 1
26.141802 18.230739 8.439998 32.969490 0.608965 1.311920 0.136417 -0.031718 666889.000000 0 0 1
25.146902 17.387139 9.080898 31.892664 0.604946 1.282068 0.150597 -0.032094 -174052.000000 0 0 1
23.768002 18.049139 9.189398 31.227142 0.649483 1.272098 0.136067 -0.035507 -298150.000000 0 0 1
23.068802 18.250239 7.986598 30.479938 0.669304 1.305673 0.139489 -0.038313 -322184.000000 0 0 1
21.842502 18.885939 8.214398 30.020826 0.712933 1.293638 0.181086 -0.047386 -372377.000000 0 0 1
21.167902 19.121639 6.862998 29.339699 0.734653 1.334694 0.160350 -0.042857 -197019.000000 0 0 1
21.816402 20.163339 6.139698 30.334989 0.746041 1.366992 0.114917 -0.019492 -30831.300000 0 0 1
21.199602 20.406739 4.924498 29.834692 0.766344 1.404978 0.130409 -0.026004 -279323.000000 0 0 1
19.226010 17.392739 32.375818 41.476987 0.735376 0.675214 0.107138 -0.039100 -603149.000000 0 0 1
18.002510 18.052439 32.179959 41.055215 0.786783 0.670000 0.120229 -0.041552 -104654.000000 0 0 1
17.106110 17.163839 31.545090 39.778249 0.787083 0.655040 0.124423 -0.044505 -205371.000000 0 0 1
16.577210 17.647839 30.246880 38.744340 0.816670 0.675045 0.120057 -0.042193 -152770.000000 0 0 1
17.611410 17.622339 29.265940 38.434410 0.785708 0.705247 0.115357 -0.025391 310347.000000 0 0 1
17.161910 18.054739 27.993920 37.472181 0.810745 0.727170 0.106304 -0.028386 -74666.200000 0 0 1
18.330710 18.196739 27.011550 37.373254 0.781731 0.763022 0.097966 -0.029596 -154603.000000 0 0 1
19.025710 19.402339 27.174780 38.430419 0.795199 0.785385 0.093511 -0.026066 -812918.000000 0 0 1
19.972610 19.576039 26.215190 38.332267 0.775371 0.817710 0.076796 -0.019072 -1041290.000000 0 0 1
20.770310 20.873839 26.409760 39.555005 0.787884 0.839719 0.091110 -0.016417 -415677.000000 0 0 1
20.044010 22.072039 26.250240 39.724204 0.833514 0.848896 0.077449 -0.014700 25745.500000 0 0 1
20.845210 23.226639 26.443910 40.905745 0.839381 0.867862 0.088988 -0.019854 26955.600000 0 0 1
20.075010 24.601239 26.282600 41.218953 0.886365 0.879374 0.100209 -0.024723 256695.000000 0 0 1
19.922710 24.962439 24.934440 40.518688 0.897210 0.907927 0.094116 -0.024868 42181.400000 0 0 1
19.105010 26.102739 24.883300 40.810943 0.938970 0.915087 0.098235 -0.031348 -87511.000000 0 0 1
19.129010 26.894539 23.512820 40.522685 0.952553 0.951775 0.084469 -0.029910 596267.000000 0 0 1
20.343310 27.640339 23.342060 41.505306 0.936315 0.973526 0.099484 -0.032824 530591.000000 0 0 1
20.231410 28.377539 22.166150 41.302941 0.951440 1.004308 0.094268 -0.032935 -187169.000000 0 0 1
21.293210 29.485839 21.967950 42.490074 0.945358 1.027438 0.111274 -0.031655 641557.000000 0 0 1
22.601510 28.933539 21.735350 42.666186 0.907654 1.036276 0.115239 -0.033233 977067.000000 0 0 1
23.615810 29.873139 21.359950 43.661865 0.901852 1.059609 0.130406 -0.044575 428643.000000 0 0 1
23.757710 30.118339 19.866950 43.199987 0.902915 1.092933 0.128867 -0.043415 -552150.000000 0 0 1
22.726210 30.938039 19.402750 43.012901 0.937243 1.102808 0.107504 -0.035454 152878.000000 0 0 1
22.890010 30.935839 17.987250 42.479641 0.933778 1.133566 0.097686 -0.017428 191904.000000 0 0 1
22.107010 32.098839 17.323750 42.651702 0.967683 1.152540 0.111905 -0.024708 -172540.000000 0 0 1
22.891310 33.272539 17.492350 44.012002 0.968174 1.162066 0.113343 -0.027826 575226.000000 0 0 1
23.352210 -33.808244 16.364250 44.227952 -0.966322 1.191790 0.101724 -0.030873 677211.000000 0 0 1
24.566210 33.339239 15.588250 44.249261 0.935761 1.210787 0.088567 -0.029447 222537.000000 0 0 1
24.222310 32.342339 14.631450 42.974720 0.927977 1.223383 0.101815 -0.040402 450601.000000 0 0 1
23.391410 32.799039 13.542450 42.500977 0.951284 1.246503 0.080608 -0.038612 345637.000000 0 0 1
22.800010 31.782039 12.532250 41.073054 0.948497 1.260731 0.083849 -0.044393 -294555.000000 0 0 1
23.689710 31.280739 11.571950 40.909621 0.922623 1.284015 0.111242 -0.065527 -42523.100000 0 0 1
23.144010 30.119839 10.942450 39.529573 0.915624 1.290316 0.113471 -0.066433 -206602.000000 0 0 1
24.168810 29.419339 9.997650 39.364730 0.883066 1.314009 0.118078 -0.066199 1423620.000000 0 0 1
25.342010 28.763839 10.524650 39.753543 0.848557 1.302854 0.126696 -0.060293 1240870.000000 0 0 1
26.293210 29.550339 11.227150 41.116960 0.843658 1.294230 0.118263 -0.059207 -790757.000000 0 0 1
27.699810 28.986839 11.382950 41.678387 0.808099 1.294168 0.119528 -0.058414 -245353.000000 0 0 1
27.861810 28.041739 12.389650 41.426116 0.788617 1.267070 0.123551 -0.047830 1651430.000000 0 0 1
29.201010 28.085939 13.017850 42.555651 0.765936 1.259911 0.109802 -0.033068 1912130.000000 0 0 1
29.629310 26.867739 13.878250 42.336477 0.736557 1.236814 0.107301 -0.038396 192146.000000 0 0 1
30.746310 27.017539 14.743350 43.504591 0.720936 1.225058 0.087626 -0.037358 122893.000000 0 0 1
31.017610 25.811939 15.482350 43.220962 0.694052 1.204442 0.099468 -0.033957 -412276.000000 0 0 1
32.230910 26.049539 16.363150 44.555166 0.679731 1.194739 0.102786 -0.038779 -14239.000000 0 0 1
33.464210 25.880139 15.650550 45.106260 0.658289 1.216457 0.102704 -0.031980 638006.000000 0 0 1
34.535010 25.960239 16.607750 46.286265 0.644593 1.203809 0.090717 -0.035324 329172.000000 0 0 1
35.932010 26.169639 16.017350 47.249496 0.629474 1.224948 0.109209 -0.035996 -91836.800000 0 0 1
36.124210 27.472339 15.533850 47.968620 0.650185 1.241018 0.111915 -0.033136 -220807.000000 0 0 1
-37.238182 27.703239 15.303950 48.870876 -0.639616 1.252288 0.130634 -0.034823 345571.000000 0 0 1
-36.998582 29.006839 14.395150 49.168202 -0.664908 1.273670 0.101261 -0.029754 27792.200000 0 0 1
37.298010 30.145839 15.039450 50.260305 0.679747 1.266910 0.099633 -0.030697 -150754.000000 0 0 1
37.111310 31.125139 14.052250 50.433019 0.697895 1.288427 0.090674 -0.012398 298565.000000 0 0 1
36.016310 32.147339 14.486450 50.403207 0.728699 1.279273 0.086666 -0.020189 -1074000.000000 0 0 1
36.063110 33.425739 13.806250 51.072894 0.747462 1.297066 0.061806 -0.027607 55193.000000 0 0 1
35.061110 -33.480044 14.227750 50.523496 -0.762335 1.285328 0.055031 -0.017644 187461.000000 0 0 1
33.615810 -33.814144 13.770550 49.629095 -0.788339 1.289637 0.075581 -0.014950 -246015.000000 0 0 1
33.126710 32.756339 14.290750 48.729686 0.779777 1.273155 0.077348 -0.027819 -894013.000000 0 0 1
32.046910 32.309439 13.533750 47.477013 0.789477 1.281728 0.095003 -0.024331 -646253.000000 0 0 1
31.419010 31.045139 14.164950 46.385350 0.779413 1.260464 0.112580 -0.031075 -15263.500000 0 0 1
30.569910 31.446339 15.252850 46.433190 0.799529 1.236092 0.111364 -0.025348 228227.000000 0 0 1
30.263910 30.368139 16.012550 45.766035 0.787117 1.213355 0.109252 -0.032789 120000.000000 0 0 1
29.176510 30.600139 17.112950 45.612393 0.809209 1.186203 0.098411 -0.031297 257801.000000 0 0 1
29.023610 29.527239 18.060650 45.170952 0.794000 1.159466 0.090286 -0.030125 -36562.000000 0 0 1
29.948610 29.603639 19.129750 46.251941 0.779605 1.144393 0.086816 -0.032243 24856.400000 0 0 1
29.752010 28.492339 20.102750 45.837933 0.763774 1.116799 0.082636 -0.025096 -135288.000000 0 0 1
28.568310 28.495939 20.868750 45.427653 0.784130 1.093494 0.098788 -0.032049 -73254.800000 0 0 1
28.704710 27.601339 21.977550 45.484141 0.765805 1.066500 0.084770 -0.023601 -114813.000000 0 0 1
27.554010 27.542939 23.013250 45.248720 0.785197 1.037245 0.100839 -0.029567 554987.000000 0 0 1
26.359410 27.014039 22.400550 43.890335 0.797663 1.035175 0.133532 -0.023187 761021.000000 0 0 1
25.191510 27.102239 23.204910 43.676211 0.821920 1.010669 0.133862 -0.028478 369579.000000 0 0 1
24.930710 25.924439 24.209000 43.355421 0.804936 0.978359 0.123165 -0.029081 -695944.000000 0 0 1
25.824910 25.910539 25.276420 44.465486 0.787053 0.966175 0.110884 -0.025986 -137875.000000 0 0 1
25.529710 24.834839 26.192510 44.210666 0.771602 0.936702 0.127383 -0.033654 -171779.000000 0 0 1
26.673810 24.538839 27.212220 45.322751 0.743734 0.926783 0.134244 -0.040045 312757.000000 0 0 1
27.025110 25.682539 28.051670 46.656678 0.759932 0.925749 0.141849 -0.034971 702062.000000 0 0 1
27.907310 26.638139 27.431460 47.338076 0.762134 0.952706 0.107321 -0.018593 -114471.000000 0 0 1
28.309810 27.832239 28.361400 48.789834 0.776892 0.950474 0.065681 -0.016331 -535416.000000 0 0 1
29.163810 27.529039 29.399220 49.726150 0.756571 0.938223 0.072602 -0.006878 -239314.000000 0 0 1
29.532410 28.753039 30.071820 51.021710 0.772027 0.940490 0.065506 -0.018418 341755.000000 0 0 1
31.042810 29.073339 29.988510 52.040618 0.752649 0.956661 0.051794 -0.020539 258095.000000 0 0 1
31.599010 29.338939 28.690550 51.792070 0.748327 0.983687 0.029121 -0.011175 629655.000000 0 0 1
33.008710 29.579839 28.715840 52.812322 0.730669 0.995917 0.052514 -0.016671 971406.000000 0 0 1
33.718010 30.116039 27.452970 52.891829 0.729031 1.025069 0.050457 -0.018924 -25162.900000 0 0 1
33.445810 31.508139 27.290290 53.442914 0.755576 1.034863 0.024505 -0.017461 25280.300000 0 0 1
33.998210 31.883739 26.036460 53.388654 0.753314 1.061369 0.028616 -0.015307 -222097.000000 0 0 1
33.641810 33.276139 25.483430 53.744563 0.779934 1.076789 0.022411 -0.018979 -33139.700000 0 0 1
34.363810 -33.533744 26.213360 54.703964 -0.773173 1.071070 0.027548 -0.021744 224938.000000 0 0 1
33.993010 -32.233144 25.793610 53.477197 -0.758831 1.067485 0.027315 -0.014490 -139391.000000 0 0 1
34.883110 -31.140344 26.414360 53.705408 -0.728770 1.056597 0.023191 -0.015993 45049.300000 0 0 1
34.652310 -30.964044 27.801690 54.152457 -0.729248 1.031658 0.032248 -0.020339 352156.000000 0 0 1
35.696810 -30.147244 28.280850 54.616161 -0.701313 1.026506 0.035031 -0.029198 -147874.000000 0 0 1
35.617510 -29.894744 29.816630 55.238883 -0.698265 1.000625 0.039589 -0.022488 -231512.000000 0 0 1
35.665010 -30.984844 30.769580 56.381030 -0.715293 0.993520 0.050243 -0.023081 395434.000000 0 0 1
34.526710 -31.832644 30.765200 56.141860 -0.744822 0.990836 0.045490 -0.032883 -144797.000000 0 0 1
34.518710 -32.840744 31.945565 57.363533 -0.760493 0.980151 0.060827 -0.032300 -393581.000000 0 0 1
34.067710 -32.225944 33.137908 57.421610 -0.757623 0.955625 0.057462 -0.035323 219947.000000 0 0 1
34.497810 -32.825344 -33.436722 58.186050 -0.760561 2.182975 0.068449 -0.040218 -260464.000000 0 0 1
33.651910 33.758439 -33.066942 58.012981 0.786978 2.177293 0.061603 -0.025318 -143222.000000 0 0 1
33.688810 32.721839 33.758919 57.838736 0.770839 0.947551 0.075168 -0.031776 171500.000000 0 0 1
32.883110 31.587039 -33.716262 56.708256 0.765297 2.207510 0.089249 -0.029382 214084.000000 0 0 1
33.123710 30.453739 33.069406 55.840810 0.743427 0.936999 0.071878 -0.027637 196940.000000 0 0 1
34.404510 29.857839 33.024677 56.265355 0.714764 0.943516 0.072851 -0.029800 -77268.100000 0 0 1
34.546310 28.831639 32.100225 55.273280 0.695473 0.951141 0.062988 -0.026605 -19808.300000 0 0 1
36.001310 28.322739 32.149971 55.963314 0.666587 0.958824 0.061864 -0.021882 -43212.800000 0 0 1
36.324910 27.381539 33.186811 56.308190 0.645926 0.940508 0.058449 -0.014734 587514.000000 0 0 1
-37.007982 27.122539 33.201013 56.635061 -0.632456 0.944402 0.063149 -0.022966 554646.000000 0 0 1
-36.733082 25.755039 33.851780 56.201284 -0.611491 0.924378 0.067256 -0.025739 -62614.200000 0 0 1
-36.984482 24.760939 32.915534 55.356918 -0.589958 0.934021 0.057779 -0.015134 124186.000000 0 0 1
37.323410 23.622539 33.712995 55.566423 0.564271 0.918874 0.050908 -0.011425 -13037.400000 0 0 1
37.086410 22.406039 32.758316 54.318871 0.543471 0.923447 0.042359 -0.014314 241819.000000 0 0 1
-36.392782 21.940839 32.312104 53.384521 -0.542542 0.920690 0.053552 -0.007057 322233.000000 0 0 1
-36.751482 20.861139 31.478280 52.694788 -0.516276 0.930579 0.049082 -0.008487 864319.000000 0 0 1
-35.559182 20.037139 30.831460 51.151943 -0.513139 0.923862 0.034352 -0.009273 747575.000000 0 0 1
-35.070782 20.675539 29.631530 50.353403 -0.532691 0.941630 0.028642 0.000866 432462.000000 0 0 1
-34.108082 19.947439 28.860740 48.930603 -0.529191 0.939948 0.054254 -0.007502 444086.000000 0 0 1
-34.769982 18.890539 27.895790 48.414659 -0.497685 0.956743 0.070103 -0.005262 197629.000000 0 0 1
-35.553682 17.926739 28.593180 49.020426 -0.467015 0.948022 0.072881 -0.011483 273866.000000 0 0 1
-36.144582 16.999539 27.658010 48.583749 -0.439623 0.965160 0.077457 -0.019271 385267.000000 0 0 1
-36.769182 15.857239 28.481060 49.138534 -0.407165 0.952549 0.066367 -0.019371 -172283.000000 0 0 1
-35.735782 15.013739 28.819980 48.301653 -0.397740 0.931456 0.071862 -0.020396 71493.900000 0 0 1
-36.309682 14.019639 29.659110 48.934712 -0.368478 0.919654 0.072395 -0.039215 43568.000000 0 0 1
-35.411882 12.782439 29.848190 48.044839 -0.346409 0.900451 0.077464 -0.027750 -48516.800000 0 0 1
-34.195082 13.073439 30.510410 47.656097 -0.365172 0.876011 0.086440 -0.022201 -95168.800000 0 0 1
-33.461482 11.883939 30.609580 46.881181 -0.341258 0.859365 0.054169 -0.020600 -1197560.000000 0 0 1
-32.003882 12.082439 30.959130 46.137853 -0.360987 0.835221 0.071242 -0.019305 -1712410.000000 0 0 1
-31.349982 12.430339 29.760260 44.977858 -0.377487 0.847760 0.062730 -0.019979 490487.000000 0 0 1
-29.947082 12.664439 29.813390 44.114101 -0.400085 0.828714 0.056375 -0.017384 733633.000000 0 0 1
-28.962082 11.508639 30.045190 43.289310 -0.378236 0.803689 0.067124 -0.011969 -431524.000000 0 0 1
-28.905182 10.593639 29.010150 42.300396 -0.351295 0.815076 0.076185 -0.018090 25574.700000 0 0 1
-27.790182 9.746939 29.198310 41.470933 -0.337328 0.789688 0.060905 -0.012729 -240628.000000 0 0 1
-27.585982 8.626739 28.185950 40.371460 -0.303087 0.797965 0.056838 -0.016455 281630.000000 0 0 1
-28.466782 7.493239 28.249010 40.798442 -0.257389 0.805980 0.057295 -0.023154 -683382.000000 0 0 1
-29.715582 7.659539 27.712190 41.347912 -0.252270 0.836291 0.074539 -0.024131 -644439.000000 0 0 1
-30.692582 6.419939 27.771390 41.886755 -0.206196 0.845962 0.075046 -0.020781 514355.000000 0 0 1
-31.082582 5.994639 29.044890 42.961241 -0.190522 0.828378 0.075476 -0.017727 269453.000000 0 0 1
-31.971382 4.881539 29.068430 43.485311 -0.151514 0.838653 0.098197 -0.018064 237598.000000 0 0 1
-32.693282 4.518239 30.428220 44.890330 -0.137331 0.825983 0.084188 -0.012447 -299226.000000 0 0 1
-33.803282 5.294739 30.732740 45.991275 -0.155371 0.838970 0.087373 -0.018527 -459768.000000 0 0 1
-34.462282 4.758239 31.911827 47.208626 -0.137203 0.828510 0.084685 -0.014872 211405.000000 0 0 1
-35.900482 5.262039 32.096300 48.442813 -0.145537 0.846564 0.082575 -0.016384 -103069.000000 0 0 1
-36.043182 6.689839 32.224059 48.808348 -0.183518 0.849690 0.079002 -0.019533 887884.000000 0 0 1
37.305810 7.101639 32.130779 49.744786 0.188112 0.868578 0.091571 -0.022357 1303630.000000 0 0 1
37.105710 8.500739 32.757658 50.221116 0.225209 0.860223 0.073135 -0.015348 -171442.000000 0 0 1
37.363210 8.559039 -33.676362 51.023171 0.225191 2.291643 0.073081 -0.018489 -6478.770000 0 0 1
37.291710 9.833539 -33.204262 50.890993 0.257824 2.281620 0.072893 -0.022075 -103066.000000 0 0 1
37.203010 9.801039 -31.635912 49.809189 0.257595 2.258989 0.077990 -0.023379 -563161.000000 0 0 1
36.026410 9.289739 -31.094992 48.488143 0.252362 2.266975 0.099530 -0.023863 -582582.000000 0 0 1
35.962310 9.378339 -29.658752 47.548739 0.255101 2.244334 0.098874 -0.018410 126494.000000 0 0 1
34.655410 8.814939 -29.066022 46.081821 0.249078 2.253313 0.102125 -0.022011 15704.700000 0 0 1
34.645910 7.421539 -29.004642 45.789601 0.211022 2.256778 0.097969 -0.025132 456428.000000 0 0 1
33.418010 6.907339 -28.481782 44.448697 0.203825 2.266309 0.114942 -0.028226 336526.000000 0 0 1
36.393572 5.747639 -19.646102 41.755201 0.156636 2.060661 0.100204 -0.021723 -604435.000000 0 0 1
35.603142 6.537239 -18.785602 40.782571 0.181591 2.049499 0.085381 -0.029810 308147.000000 0 0 1
36.104172 7.880639 -18.564102 41.355068 0.214904 2.036325 0.064014 -0.011093 365533.000000 0 0 1
-37.183600 8.063839 -17.984602 42.084338 -0.213559 2.012352 0.081694 -0.015111 835580.000000 0 0 1
-36.107460 7.537739 -18.725602 41.366826 -0.205803 2.040556 0.086601 -0.025708 -273720.000000 0 0 1
-35.633678 8.341939 -19.751202 41.586739 -0.229961 2.065692 0.076955 -0.015249 -222716.000000 0 0 1
-34.562016 7.711839 -20.710902 41.023735 -0.219534 2.100006 0.080737 -0.003982 296482.000000 0 0 1
-34.996022 6.643839 -21.539202 41.626906 -0.187613 2.114647 0.078263 -0.006932 -216405.000000 0 0 1
-35.534535 7.113539 -22.695802 42.759853 -0.197575 2.130309 0.082751 -0.006027 -187541.000000 0 0 1
-35.606183 6.043139 -23.810402 43.258005 -0.168120 2.153673 0.105842 -0.015274 -499723.000000 0 0 1
-34.349767 5.836739 -24.348302 42.506632 -0.168313 2.180728 0.089506 -0.016359 -719233.000000 0 0 1
-34.156544 4.583339 -24.968802 42.557226 -0.133389 2.197788 0.090996 -0.017008 -569922.000000 0 0 1
-32.852890 4.537739 -25.753232 41.989670 -0.137255 2.231057 0.094497 -0.010101 535824.000000 0 0 1
-31.678180 4.528539 -24.889502 40.540128 -0.141992 2.231848 0.092784 -0.008315 574614.000000 0 0 1
-30.555120 4.162339 -25.655172 40.113941 -0.135391 2.264719 0.087968 -0.011203 -269244.000000 0 0 1
-29.226950 4.497939 -24.965402 38.700353 -0.152699 2.271944 0.064286 -0.009182 -135057.000000 0 0 1
-28.788320 5.854539 -25.142782 38.667848 -0.200629 2.278676 0.045502 0.001037 181132.000000 0 0 1
-27.533860 6.147339 -24.560702 37.404963 -0.219662 2.287120 0.057917 0.005240 311351.000000 0 0 1
-27.118040 7.638339 -24.805902 37.537515 -0.274557 2.292720 0.058356 -0.002138 145264.000000 0 0 1
-27.799820 8.487539 -23.884302 37.620847 -0.296320 2.258635 0.057630 -0.000154 -26644.300000 0 0 1
-27.569610 9.867239 -24.029002 37.879265 -0.343698 2.257974 0.045414 -0.004565 474486.000000 0 0 1
-26.179690 10.371239 -23.521202 36.690403 -0.377188 2.266691 0.062235 0.000522 436816.000000 0 0 1
-26.198730 10.555739 -22.121802 35.877168 -0.383013 2.235211 0.058870 0.002877 301278.000000 0 0 1
-24.877890 10.741539 -21.644802 34.681227 -0.407591 2.244785 0.078125 -0.007527 -61424.400000 0 0 1
-24.897590 10.830939 -20.100502 33.782087 -0.410327 2.208068 0.104291 -0.018722 -1091790.000000 0 0 1
-25.248600 12.122239 -19.514802 34.136021 -0.447614 2.179345 0.100172 -0.020992 166676.000000 0 0 1
-26.516700 12.707739 -19.737802 35.414726 -0.446898 2.161967 0.089175 -0.008944 -462877.000000 0 0 1
-27.548430 11.866839 -18.967302 35.489384 -0.406742 2.134653 0.090082 -0.001493 -1458070.000000 0 0 1
-27.379990 11.954339 -17.549702 34.649128 -0.411662 2.101914 0.109573 -0.015121 382974.000000 0 0 1
-28.214960 11.021439 -16.853802 34.664199 -0.372398 2.078534 0.128333 -0.016489 -282440.000000 0 0 1
-27.749750 10.632539 -15.390502 33.465909 -0.365904 2.048663 0.153652 -0.029421 593398.000000 0 0 1
-26.659890 9.740139 -15.155102 32.176033 -0.350282 2.061227 0.156107 -0.030908 1258680.000000 0 0 1
-25.339850 10.176739 -15.464502 31.381919 -0.381894 2.086082 0.131984 -0.023844 -239633.000000 0 0 1
-24.294090 9.124639 -15.257502 30.104039 -0.359289 2.102295 0.100198 -0.024544 -995103.000000 0 0 1
-22.941990 9.298139 -15.561302 29.239432 -0.385058 2.131996 0.094477 -0.020902 -39632.600000 0 0 1
-22.335890 8.030339 -15.342802 28.262694 -0.345136 2.144640 0.110351 -0.023735 -123911.000000 0 0 1
-20.801790 7.990839 -15.218802 26.984808 -0.366761 2.169990 0.143115 -0.034739 63882.100000 0 0 1
-20.081490 8.415739 -16.371202 27.241643 -0.396845 2.215501 0.143068 -0.043180 -52653.300000 0 0 1
-18.699990 8.446539 -16.148802 26.111634 -0.424256 2.237568 0.127944 -0.040876 -656395.000000 0 0 1
-17.870390 9.278039 -17.216302 26.492147 -0.478878 2.278202 0.093803 -0.036325 218533.000000 0 0 1
-17.647390 8.612139 -18.482102 26.966412 -0.454011 2.325915 0.132417 -0.056687 52634.500000 0 0 1
-16.749790 7.549139 -18.364502 25.976910 -0.423436 2.355980 0.137660 -0.051863 -1238870.000000 0 0 1
-16.372190 6.896739 -19.662202 26.499354 -0.398688 2.406827 0.109833 -0.046641 105976.000000 0 0 1
-17.307490 6.046739 -20.308302 27.359447 -0.336115 2.407259 0.093316 -0.039995 -133753.000000 0 0 1
-18.486390 6.623539 -20.799402 28.604772 -0.344043 2.384929 0.086398 -0.036529 -570171.000000 0 0 1
-19.502290 5.668339 -21.391502 29.496876 -0.282857 2.382139 0.088068 -0.014699 -254319.000000 0 0 1
-20.160690 4.771439 -20.465702 29.121555 -0.232394 2.350077 0.104282 -0.016447 473250.000000 0 0 1
-20.876890 3.819139 -21.225002 30.015513 -0.180936 2.356234 0.073483 -0.000201 -399589.000000 0 0 1
-21.660690 2.891039 -20.286302 29.817405 -0.132685 2.319038 0.098362 -0.007313 -53338.400000 0 0 1
-22.551590 1.959239 -20.898802 30.808647 -0.086661 2.316300 0.094271 -0.001206 1004400.000000 0 0 1
-23.391990 1.391039 -19.861102 30.717805 -0.059397 2.273871 0.099825 -0.009284 486631.000000 0 0 1
-24.156290 0.099939 -20.236102 31.512476 -0.004137 2.268111 0.096348 0.000671 -41926.600000 0 0 1
-23.246090 -0.981061 -20.409302 30.949681 0.042178 2.290863 0.093694 -0.012095 66989.300000 0 0 1
-23.710390 -2.258961 -20.644802 31.519729 0.094986 2.284953 0.097789 -0.018823 -488196.000000 0 0 1
-24.228890 -2.581861 -22.106802 32.900088 0.106161 2.307618 0.098663 -0.018843 500497.000000 0 0 1
-23.254790 -2.550861 -23.157202 32.917292 0.109255 2.351102 0.067029 -0.014044 318826.000000 0 0 1
-22.375590 -3.635361 -23.329002 32.528836 0.161063 2.370542 0.054020 -0.026411 789016.000000 0 0 1
-21.278190 -3.379961 -24.455002 32.591910 0.157530 2.419372 0.050636 -0.020982 659142.000000 0 0 1
-21.817390 -3.331861 -25.759162 33.920999 0.151545 2.433167 0.051795 -0.023812 -1250.530000 0 0 1
-20.831990 -3.479061 -26.737442 34.072957 0.165479 2.473027 0.052941 -0.022300 -311965.000000 0 0 1
-21.535690 -3.634061 -28.139762 35.620759 0.167171 2.481576 0.047499 -0.022551 501531.000000 0 0 1
-22.269690 -4.847661 -28.172202 36.236885 0.214336 2.461390 0.075006 -0.025725 323919.000000 0 0 1
-23.086090 -4.988561 -29.325262 37.654007 0.212813 2.463560 0.059590 -0.023818 70645.300000 0 0 1
-22.686090 -6.276961 -30.069182 38.186576 0.269935 2.477422 0.086756 -0.026629 444181.000000 0 0 1
-21.414490 -6.038861 -30.679232 37.898067 0.274861 2.514130 0.075995 -0.029443 192334.000000 0 0 1
-20.779490 -7.290461 -30.894622 37.939632 0.337431 2.522336 0.085175 -0.024610 -213761.000000 0 0 1
-19.408990 -7.017561 -31.560072 37.709324 0.346938 2.562446 0.081428 -0.027318 -351374.000000 0 0 1
-19.402790 -6.530861 -32.909672 38.757797 0.324682 2.585096 0.077755 -0.036584 259519.000000 0 0 1
-19.817890 -7.536161 -33.850002 39.942021 0.363383 2.582013 0.074759 -0.035135 -559719.000000 0 0 1
-19.624790 -7.012561 32.493375 38.602173 0.343191 0.570280 0.074684 -0.036644 141826.000000 0 0 1
-18.312290 -6.921361 31.970172 37.487826 0.361365 0.549444 0.088155 -0.040299 119275.000000 0 0 1
-17.576190 -5.811761 32.428369 37.340301 0.319344 0.518719 0.066161 -0.040049 -690529.000000 0 0 1
-16.281390 -5.453061 31.723740 36.072361 0.323183 0.496097 0.056757 -0.040360 -451234.000000 0 0 1
-16.463990 -5.335461 30.352440 34.939959 0.313389 0.518219 0.065243 -0.040893 -52261.100000 0 0 1
-15.341090 -4.737961 29.755920 33.811419 0.299548 0.494818 0.064979 -0.036387 -117075.000000 0 0 1
-15.371690 -4.852761 28.200960 32.482800 0.305793 0.519271 0.082322 -0.027335 150820.000000 0 0 1
-16.414490 -4.049661 27.684400 32.438576 0.241882 0.548245 0.079380 -0.032657 -149364.000000 0 0 1
-16.695890 -4.306361 26.327190 31.470914 0.252428 0.579829 0.098781 -0.028328 -302752.000000 0 0 1
-15.748790 -3.835861 25.231570 29.989504 0.238913 0.571026 0.091236 -0.023364 -236962.000000 0 0 1
-15.592890 -2.468861 25.202710 29.739033 0.157029 0.559610 0.082279 -0.013471 193819.000000 0 0 1
-14.591690 -1.958161 24.317110 28.426636 0.133400 0.544408 0.079111 -0.013818 377817.000000 0 0 1
-14.719490 -0.409261 24.187810 28.317504 0.027797 0.546854 0.069212 -0.010578 -95290.800000 0 0 1
-15.740790 0.132339 23.393070 28.196200 -0.008407 0.592310 0.074048 -0.016079 -185077.000000 0 0 1
-15.887890 1.481739 23.802880 28.656547 -0.092993 0.590565 0.056428 -0.008832 -212327.000000 0 0 1
-16.520190 2.467939 22.831970 28.289684 -0.148293 0.631611 0.069635 -0.016927 -73452.900000 0 0 1
-15.623490 3.096039 21.928350 27.102240 -0.195631 0.628182 0.062670 -0.007406 275037.000000 0 0 1
-16.280790 4.093339 21.152850 27.004863 -0.246316 0.670843 0.073815 -0.012606 141926.000000 0 0 1
-15.329290 4.926639 20.257050 25.876765 -0.310961 0.671599 0.080893 -0.006733 -448884.000000 0 0 1
-14.444490 5.736139 20.932750 26.071567 -0.378018 0.638659 0.066436 -0.010957 -1149640.000000 0 0 1
-13.383590 5.948839 20.071250 24.846815 -0.418260 0.630387 0.065495 -0.006887 -847442.000000 0 1 0
-12.435990 6.995339 20.650550 25.100475 -0.512395 0.604625 0.064085 -0.010016 -225869.000000 0 0 1
-12.895190 8.304439 20.362350 25.492645 -0.572142 0.645575 0.059400 -0.006115 311692.000000 0 0 1
-11.960390 9.259439 20.823450 25.737214 -0.658795 0.628212 0.076721 -0.005674 -149235.000000 0 0 1
-12.510190 10.638439 20.863150 26.550937 -0.704716 0.666843 0.056469 0.006011 -389173.000000 0 0 1
-12.606290 11.105239 19.527550 25.759854 -0.722178 0.710461 0.048444 -0.003643 232108.000000 0 0 1
-13.323990 12.316339 19.597650 26.707467 -0.746119 0.746914 0.044314 0.002891 -268272.000000 0 0 1
-13.649990 13.008939 18.245050 26.238075 -0.761356 0.801868 0.041146 0.005662 416962.000000 0 0 1
-12.588290 13.739039 17.587650 25.623264 -0.829080 0.814278 0.035661 -0.002439 634668.000000 0 0 1
-12.336790 15.075739 17.955750 26.493079 -0.884984 0.826095 0.046746 -0.004431 103796.000000 0 0 1
-13.384990 16.087239 17.353550 27.186447 -0.876831 0.878487 0.042110 0.001320 242110.000000 0 0 1
-13.338990 16.298339 15.937250 26.411370 -0.884920 0.923009 0.037989 -0.014677 255028.000000 0 0 1
-14.014790 15.278639 15.212350 25.715107 -0.828516 0.937789 0.076948 -0.016913 -228896.000000 0 0 1
-14.751490 15.599439 13.881150 25.566292 -0.813329 0.996853 0.070311 -0.017976 1037450.000000 0 0 1
-15.826690 16.569939 14.083750 26.896078 -0.808336 1.019683 0.050716 -0.010387 972164.000000 0 0 1
-16.304290 17.172639 12.834950 26.934464 -0.811331 1.074098 0.056281 -0.008879 -259292.000000 0 0 1
-17.475190 18.129339 13.009650 28.342657 -0.803769 1.093912 0.047279 -0.014529 -106969.000000 0 0 1
-18.735390 17.478339 13.145350 28.797698 -0.750700 1.096770 0.058881 -0.016018 -53630.500000 0 0 1
-19.765090 18.409839 13.165250 30.048374 -0.749912 1.117273 0.068984 -0.025579 -631359.000000 0 0 1
-21.198990 17.914039 13.296850 30.775253 -0.701609 1.124017 0.092722 -0.025500 -263850.000000 0 0 1
-21.530290 17.124239 12.190650 30.089947 -0.671903 1.153664 0.097467 -0.024394 702474.000000 0 0 1
-22.903690 16.695239 12.228950 30.868386 -0.629881 1.163461 0.115908 -0.029602 712190.000000 0 0 1
-23.430690 16.027939 10.967050 30.433012 -0.599946 1.202135 0.120584 -0.024096 144873.000000 0 0 1
-22.772190 14.745439 10.774950 29.190755 -0.574630 1.192732 0.093379 -0.019279 421122.000000 0 0 1
-23.314390 13.970339 9.723850 28.866666 -0.539842 1.227223 0.110161 -0.021879 9351.810000 0 0 1
-22.426890 12.751739 9.323550 27.431748 -0.517005 1.224005 0.116097 -0.023129 -411234.000000 0 0 1
-22.626290 11.584239 10.122550 27.360731 -0.473187 1.191824 0.111996 -0.021438 323931.000000 0 0 1
-23.840290 10.867939 9.959950 28.029843 -0.427720 1.207525 0.152499 -0.011185 120147.000000 0 0 1
-24.321290 10.374139 8.553750 27.790548 -0.403179 1.257923 0.157776 -0.021923 -247956.000000 0 0 1
-24.735190 11.536239 7.746050 28.371037 -0.436400 1.294258 0.150641 -0.027134 28526.800000 0 0 1
-26.065480 11.291039 7.346350 29.340512 -0.408779 1.317721 0.211388 -0.036430 -361694.000000 0 0 1
-26.672160 12.592739 6.741950 30.256158 -0.441104 1.346081 0.206512 -0.033882 -48319.200000 0 0 1
-26.078570 12.910239 5.481850 29.611092 -0.459681 1.384594 0.204559 -0.045562 1212470.000000 0 0 1
-24.747790 13.448339 5.413050 28.681214 -0.497774 1.380926 0.186455 -0.043626 470353.000000 0 0 1
-24.582790 14.979739 5.735750 29.353108 -0.547273 1.374126 0.172504 -0.044971 -57429.000000 0 0 1
-23.211790 15.365139 5.759750 28.426210 -0.584733 1.366763 0.128877 -0.049255 779471.000000 0 0 1
-22.987990 16.600039 6.502850 29.091168 -0.625416 1.345358 0.120962 -0.047508 557151.000000 0 0 1
-21.515590 17.098839 6.329650 28.202046 -0.671512 1.344429 0.098555 -0.034607 439002.000000 0 0 1
-21.279390 17.978139 5.212150 28.340650 -0.701503 1.385833 0.135063 -0.048608 191956.000000 0 0 1
-19.886490 18.159339 5.182350 27.424274 -0.740033 1.380684 0.123405 -0.035153 -362468.000000 0 0 1
-19.400790 19.196939 4.152750 27.607217 -0.780117 1.419801 0.107967 -0.032453 35219.700000 0 0 1
-17.983190 19.306239 4.051450 26.693449 -0.820864 1.418431 0.097290 -0.034375 674159.000000 0 0 1
-17.544590 20.294139 3.087250 27.003626 -0.857936 1.456219 0.109424 -0.032002 183034.000000 0 0 1
-17.750990 21.770939 3.565950 28.315851 -0.886764 1.444526 0.122785 -0.050584 135045.000000 0 0 1
-16.879690 22.059339 4.697150 28.170935 -0.917641 1.403276 0.091939 -0.044861 574656.000000 0 0 1
-17.001990 23.360739 5.166350 29.351030 -0.941654 1.393855 0.070819 -0.043694 9352.000000 0 0 1
-16.290690 23.826939 6.490250 29.584336 -0.971088 1.349616 0.061292 -0.021940 46164.200000 0 0 1
-16.861990 23.131839 7.590950 29.614713 -0.940903 1.311580 0.060915 -0.018053 251003.000000 0 0 1
-16.266690 23.505239 8.824250 29.916030 -0.965429 1.271375 0.049626 -0.022565 8605.100000 0 0 1
-16.833190 22.749239 10.050850 30.031712 -0.933761 1.229536 0.028238 -0.008406 -187193.000000 0 0 1
-18.056790 23.240539 10.535850 31.259790 -0.910268 1.227023 0.028521 -0.013082 -537309.000000 0 0 1
-18.706390 22.213739 11.298250 31.161349 -0.870901 1.199770 0.027220 -0.009405 460232.000000 0 0 1
-20.050890 22.816039 11.827350 32.595951 -0.849814 1.199475 0.048105 -0.022447 431339.000000 0 0 1
-21.050490 23.215039 10.908950 33.182320 -0.834258 1.235808 0.073071 -0.022332 270627.000000 0 0 1
-20.767690 24.504639 10.334950 33.742932 -0.867755 1.259508 0.035532 -0.012636 -952747.000000 0 0 1
-21.973090 25.265639 9.786750 34.884806 -0.854986 1.286435 0.059387 -0.011832 -207405.000000 0 0 1
-22.635690 25.970839 10.838450 36.115522 -0.853906 1.265994 0.077386 -0.032375 123572.000000 0 0 1
-23.677690 26.776439 10.344550 37.210488 -0.846738 1.289084 0.077913 -0.022647 -24930.900000 0 0 1
-24.438290 27.587439 11.454550 38.594087 -0.845855 1.269461 0.082143 -0.034077 -336897.000000 0 0 1
-23.686690 28.641739 11.939950 39.038070 -0.879808 1.259961 0.082699 -0.032630 76449.400000 0 0 1
-24.429590 29.465239 12.786450 40.354659 -0.878562 1.248388 0.073797 -0.028271 -235966.000000 0 0 1
9.971510 -32.481344 28.100550 44.092058 -1.272937 0.879787 0.071867 -0.042457 -824352.000000 0 0 1
11.259710 -32.500344 27.561530 44.075972 -1.237289 0.895256 0.050845 -0.047934 -126018.000000 0 0 1
11.342710 -32.012344 26.233500 42.914377 -1.230275 0.913096 0.061013 -0.042681 -196643.000000 0 0 1
12.770510 -32.158544 25.680420 43.089927 -1.192783 0.932320 0.014899 -0.024784 -352611.000000 0 0 1
13.215410 -33.500444 25.568440 44.166412 -1.195054 0.953403 0.029349 -0.031782 86540.500000 0 0 1
14.624810 -33.497944 25.413590 44.517950 -1.159151 0.963241 0.035838 -0.023773 178724.000000 0 0 1
15.066010 32.861239 25.210490 44.072832 1.140918 0.961831 0.064839 -0.018752 -152725.000000 0 0 1
15.007210 32.374039 23.848050 42.918810 1.136726 0.981646 0.041975 -0.026762 130541.000000 0 0 1
16.085110 31.502239 23.567630 42.503589 1.098703 0.983052 0.054384 -0.027820 -131436.000000 0 0 1
16.159510 30.837539 22.187750 41.284136 1.088117 1.003398 0.052898 -0.033179 308618.000000 0 0 1
15.039310 29.968239 21.963350 40.083226 1.105676 0.990892 0.047837 -0.023177 251158.000000 0 0 1
15.279010 28.571439 22.256250 39.307963 1.079725 0.968905 0.055658 -0.022553 -205703.000000 0 0 1
14.989310 28.113539 23.680330 39.696455 1.080966 0.931619 0.067057 -0.036357 57238.600000 0 0 1
15.876010 28.562139 24.720390 40.974885 1.063480 0.923156 0.073399 -0.033823 256746.000000 0 0 1
15.653610 27.980739 25.912510 41.223967 1.060733 0.891072 0.066955 -0.033296 -597186.000000 0 0 1
16.484610 28.482039 27.098080 42.629507 1.046132 0.881927 0.080035 -0.038359 -104473.000000 0 0 1
16.347910 29.828139 27.415680 43.687431 1.069436 0.892405 0.079238 -0.043182 214619.000000 0 0 1
17.127510 30.133539 28.574300 44.920735 1.053946 0.881357 0.100281 -0.044088 203767.000000 0 0 1
16.970410 31.561639 28.992810 46.094630 1.077452 0.890550 0.101442 -0.044739 -16614.400000 0 0 1
17.778810 32.428339 28.272240 46.551078 1.069298 0.918091 0.093918 -0.028868 -215987.000000 0 0 1
17.393110 33.704839 28.691480 47.557728 1.094398 0.923166 0.093409 -0.017487 209323.000000 0 0 1
18.096810 -32.927944 27.951490 46.829796 -1.068269 0.931197 0.074940 -0.016549 -296623.000000 0 0 1
18.048210 -32.922344 26.568050 45.994346 -1.069332 0.954965 0.080026 -0.017470 -72939.900000 0 0 1
18.318010 -31.685844 25.881140 44.826059 -1.046625 0.955295 0.085057 -0.018977 538455.000000 0 0 1
19.738010 -31.018344 25.915550 44.981579 -1.004089 0.956802 0.121760 -0.020169 508855.000000 0 0 1
20.167410 -30.373544 27.090620 45.422222 -0.984656 0.931766 0.109214 -0.018293 -198745.000000 0 0 1
21.311710 -29.593144 26.908620 45.321264 -0.946670 0.935109 0.132132 -0.016517 -306760.000000 0 0 1
21.532010 -28.587044 28.075460 45.487119 -0.925245 0.905595 0.121870 -0.013714 78355.000000 0 0 1
20.389810 -27.752044 28.169710 44.491042 -0.937150 0.885174 0.125029 -0.020935 317580.000000 0 0 1
20.385110 -27.143044 29.461240 44.947327 -0.926639 0.856003 0.124297 -0.018147 396057.000000 0 0 1
18.922410 -26.779444 29.844910 44.338639 -0.955653 0.832386 0.129735 -0.019358 372020.000000 0 0 1
18.441210 -25.638444 29.148120 42.976981 -0.947248 0.825450 0.121312 -0.019281 741813.000000 0 0 1
17.090110 -25.307644 29.487440 42.450652 -0.976844 0.802893 0.111242 -0.014890 689423.000000 0 0 1
16.294110 -24.609844 28.328030 40.909898 -0.985964 0.805918 0.098465 -0.015859 -144714.000000 0 0 1
15.855410 -25.482344 27.273880 40.553772 -1.014205 0.833166 0.088385 -0.014614 78017.700000 0 0 1
15.191110 -24.819644 26.232980 39.178486 -1.021556 0.837158 0.084837 -0.019532 1430300.000000 0 0 1
13.647010 -24.353744 26.413850 38.432242 -1.060029 0.813053 0.052131 -0.015005 2525010.000000 0 0 1
12.693110 -25.425544 26.623770 38.940961 -1.107768 0.817981 0.040381 -0.012721 628376.000000 0 0 1
12.564910 -26.324944 25.524620 38.760623 -1.125473 0.851947 0.046168 -0.022535 -459355.000000 0 0 1
11.716810 -27.600244 25.939690 39.647505 -1.169334 0.857595 0.036874 -0.025964 691947.000000 0 0 1
10.321510 -27.405044 26.162640 39.268992 -1.210599 0.841639 0.041605 -0.031865 339160.000000 0 0 1
9.679110 -28.620044 26.335050 40.079009 -1.244678 0.853860 0.049595 -0.035576 -1277940.000000 0 0 1
8.229410 -28.539144 26.776980 39.990156 -1.290057 0.837141 0.049060 -0.038241 437199.000000 0 0 1
7.080210 -28.317744 25.924700 39.039903 -1.325792 0.844565 0.062382 -0.040452 1196970.000000 0 0 1
7.278610 -27.171044 25.159600 37.739227 -1.309060 0.841065 0.075617 -0.041430 -1439360.000000 0 0 1
6.020510 -26.752144 24.398360 36.704274 -1.349436 0.843667 0.073616 -0.041980 -532762.000000 0 0 1
5.716710 -27.421744 23.161390 36.346703 -1.365266 0.879891 0.078090 -0.031771 -144565.000000 0 0 1
5.071610 -28.675844 23.271940 37.277452 -1.395746 0.896574 0.085766 -0.034009 697476.000000 0 0 1
3.532410 -28.597644 23.617300 37.256946 -1.447898 0.884207 0.100108 -0.042624 178203.000000 0 0 1
2.719810 -28.287244 22.526550 36.263080 -1.474941 0.900526 0.093317 -0.038867 250996.000000 0 0 1
1.403410 -27.826044 22.818780 36.013261 -1.520404 0.884571 0.115620 -0.039311 559029.000000 0 0 1
1.286110 -26.345644 23.268900 35.173694 -1.522018 0.847922 0.119366 -0.042884 -911684.000000 0 0 1
1.749710 -26.194044 24.600920 35.977697 -1.504097 0.817862 0.108036 -0.041629 48747.000000 0 0 1
1.719310 -24.871544 25.026830 35.325514 -1.501779 0.783478 0.118411 -0.041860 -490953.000000 0 0 1
2.855410 -24.473744 25.987020 35.811209 -1.454649 0.758793 0.114007 -0.043972 -616735.000000 0 0 1
4.031010 -24.100144 25.309680 35.180191 -1.405070 0.767815 0.091470 -0.042911 -708222.000000 0 0 1
5.005410 -23.493044 26.051750 35.435447 -1.360876 0.744851 0.079799 -0.043036 -233295.000000 0 0 1
4.599810 -22.025844 26.361790 34.658910 -1.364918 0.706550 0.080806 -0.034328 -450904.000000 0 0 1
4.859610 -21.162644 25.259500 33.309393 -1.345078 0.710049 0.060676 -0.026286 255552.000000 0 0 1
4.070010 -19.990144 25.433830 32.604456 -1.369941 0.676015 0.090566 -0.034900 106097.000000 0 0 1
4.005510 -19.159344 24.147840 31.084445 -1.364702 0.681154 0.085331 -0.033495 -207165.000000 0 0 1
5.202310 -18.484944 23.901930 30.660389 -1.296457 0.676817 0.064121 -0.021627 -507611.000000 0 0 1
5.298510 -18.071244 22.545650 29.376017 -1.285589 0.695888 0.068774 -0.019753 135747.000000 0 0 1
6.616110 -17.314544 22.267950 28.972883 -1.205804 0.694179 0.060215 -0.014493 370641.000000 0 0 1
7.800810 -18.069244 22.443850 29.850906 -1.163250 0.719910 0.066890 -0.018677 -417199.000000 0 0 1
8.896410 -17.276644 22.059350 29.398018 -1.095269 0.722177 0.068640 -0.017410 -114059.000000 0 0 1
10.213310 -17.681244 22.734150 30.557809 -1.046984 0.731801 0.080895 -0.020037 -244495.000000 0 0 1
10.163310 -17.194744 24.070370 31.278344 -1.036968 0.692654 0.090123 -0.020953 304915.000000 0 0 1
11.423310 -17.046044 24.717400 32.124904 -0.980390 0.692871 0.109522 -0.017106 352445.000000 0 0 1
11.336310 -15.940844 25.810290 32.385081 -0.952627 0.648516 0.129091 -0.020736 -174122.000000 0 0 1
11.256910 -14.570044 25.422920 31.389952 -0.912983 0.626804 0.148192 -0.025460 81624.900000 0 0 1
11.080010 -13.775044 26.587090 31.927916 -0.893406 0.586790 0.144340 -0.029524 -150995.000000 0 0 1
11.223510 -12.308144 26.200730 31.047316 -0.831458 0.566291 0.142289 -0.027678 -9780.000000 0 0 1
10.054510 -11.729444 25.700590 29.986553 -0.862136 0.541240 0.155547 -0.020841 -392139.000000 0 0 1
10.389910 -10.428344 25.359650 29.322559 -0.787244 0.525942 0.145903 -0.012154 135602.000000 0 0 1
9.309510 -9.597744 24.634730 28.029513 -0.800642 0.497276 0.145311 -0.009034 -144904.000000 0 0 1
8.157910 -9.353744 25.402510 28.272452 -0.853580 0.454479 0.123005 -0.017579 -512200.000000 0 0 1
7.228810 -8.666844 24.633980 27.096178 -0.875620 0.429603 0.123662 -0.023683 506498.000000 0 0 1
5.733010 -8.675544 25.112700 27.180511 -0.986849 0.392585 0.089322 -0.023458 -625675.000000 0 0 1
5.289610 -7.744844 26.088520 27.723157 -0.971581 0.345113 0.104960 -0.021344 296904.000000 0 0 1
4.037110 -8.175744 26.614890 28.133493 -1.112128 0.330064 0.088949 -0.024809 752117.000000 0 0 1
2.810510 -8.195344 25.673720 27.096172 -1.240425 0.325460 0.071433 -0.019668 -1241420.000000 0 0 1
2.516310 -6.951644 25.121060 26.186348 -1.223495 0.286216 0.096864 -0.021216 106756.000000 0 0 1
1.568110 -7.033444 24.044390 25.101016 -1.351433 0.291183 0.069707 -0.020685 576166.000000 0 0 1
1.586310 -5.696844 23.266240 24.006006 -1.299222 0.248899 0.057278 -0.025046 220148.000000 0 1 0
1.108410 -4.654544 24.091020 24.561567 -1.337015 0.196058 0.055144 -0.024609 33675.600000 0 1 0
1.591610 -3.380844 23.615270 23.909084 -1.130802 0.156933 0.057567 -0.019925 -618654.000000 0 1 0
0.769710 -2.635444 22.541850 22.708435 -1.286639 0.121201 0.038277 -0.022618 93550.200000 0 1 0
-0.231090 -1.751444 23.002070 23.069811 1.439612 0.076652 0.040923 -0.025712 460188.000000 0 1 0
-1.449890 -2.406444 23.414420 23.582371 1.028538 0.119418 0.038362 -0.024792 479832.000000 0 1 0
-2.551490 -1.366444 23.759340 23.934985 0.491680 0.121222 0.035580 -0.032303 -14046.100000 0 1 0
-2.075790 -0.568444 24.842890 24.935942 0.267292 0.086417 0.059899 -0.034916 -215529.000000 0 1 0
-2.826890 0.500556 25.251590 25.414261 -0.175253 0.113204 0.051720 -0.037938 -673886.000000 0 0 1
-2.085190 1.283556 26.429360 26.542543 -0.551781 0.092382 0.099654 -0.046221 338523.000000 0 0 1
-2.163290 0.652556 27.692520 27.784552 -0.292970 0.081415 0.118905 -0.043161 -69535.200000 0 0 1
-1.446390 -0.536444 27.874120 27.916776 0.355158 0.055288 0.120145 -0.045562 164991.000000 0 0 1
-0.123190 -0.343444 28.739330 28.741646 1.226402 0.012695 0.142549 -0.041487 1213280.000000 0 0 1
0.944710 0.432556 28.162430 28.181591 0.429381 0.036877 0.120079 -0.040564 1105920.000000 0 0 1
1.809010 -0.301444 27.262400 27.324016 -0.165117 0.067169 0.119389 -0.039474 521698.000000 0 0 1
2.830510 -1.375444 27.722960 27.901006 -0.452332 0.113032 0.119603 -0.042638 -527394.000000 0 0 1
2.256210 -2.605444 28.079030 28.289764 -0.857109 0.122134 0.131184 -0.042784 -311718.000000 0 0 1
3.106210 -3.701144 28.322810 28.732013 -0.872572 0.168973 0.138488 -0.036162 -99849.900000 0 0 1
3.925810 -4.284444 27.163090 27.777723 -0.829052 0.210755 0.138024 -0.036095 504191.000000 0 0 1
4.932510 -3.461344 26.575240 27.249843 -0.611893 0.222976 0.131232 -0.027692 -24089.600000 0 0 1
5.438810 -4.092644 25.440030 26.334873 -0.645092 0.261433 0.113108 -0.026196 -436293.000000 0 0 1
6.729910 -3.434744 24.911110 26.031761 -0.471909 0.294489 0.104042 -0.024506 409327.000000 0 0 1
7.947310 -3.538944 25.667290 27.101543 -0.418939 0.326787 0.106416 -0.021034 855126.000000 0 0 1
8.548610 -4.866044 25.733230 27.549161 -0.517480 0.365111 0.131649 -0.016785 -604616.000000 0 0 1
9.404610 -5.208444 24.562700 26.812326 -0.505770 0.412560 0.119012 -0.017739 -889493.000000 0 0 1
8.714710 -5.314444 23.328690 25.464039 -0.547612 0.412447 0.116957 -0.015278 -715501.000000 0 0 1
9.577110 -5.243144 22.260050 24.793576 -0.500896 0.456013 0.122615 -0.017057 -242108.000000 0 1 0
9.518810 -3.857944 21.561150 23.882518 -0.385064 0.444559 0.120382 -0.022229 -404613.000000 0 1 0
8.267510 -3.683844 21.005750 22.872778 -0.419173 0.406846 0.097523 -0.031966 -992692.000000 0 1 0
8.343210 -2.530444 20.205250 22.006009 -0.294476 0.407361 0.089139 -0.034597 1607030.000000 0 1 0
6.959110 -1.769444 19.874250 21.131634 -0.248987 0.346705 0.089167 -0.033822 1662360.000000 0 1 0
6.429610 -1.154444 21.041050 22.031759 -0.177658 0.301026 0.096032 -0.030412 296838.000000 0 1 0
5.073010 -0.729444 20.920950 21.539584 -0.142810 0.240247 0.054790 -0.021642 375167.000000 0 1 0
4.489610 -0.354444 22.269450 22.720269 -0.078784 0.199540 0.060467 -0.030444 15670.500000 0 1 0
3.149310 0.083556 22.189650 22.412178 0.026525 0.141034 0.054031 -0.031205 71662.500000 0 1 0
2.600910 0.574556 23.431440 23.582350 0.217414 0.113191 0.075246 -0.032199 562605.000000 0 1 0
1.075110 0.859556 23.330810 23.371380 0.674439 0.058930 0.070996 -0.041833 167289.000000 0 1 0
0.895710 2.196556 22.956410 23.078646 1.183602 0.102968 0.071307 -0.035238 300700.000000 0 1 0
-0.486390 2.472556 22.830220 22.968871 -1.376561 0.109932 0.048521 -0.036712 121719.000000 0 1 0
-0.921690 3.915556 22.445850 22.803449 -1.339613 0.177330 0.046166 -0.029179 -181874.000000 0 1 0
-0.693690 4.886556 23.448000 23.961810 -1.429780 0.207461 0.057995 -0.029995 292206.000000 0 1 0
-1.598090 5.977556 23.222870 24.033035 -1.309558 0.260390 0.050924 -0.025131 109113.000000 0 1 0
-1.421090 7.318556 24.000410 25.131662 -1.379007 0.301180 0.070403 -0.019269 -244056.000000 0 0 1
-0.341190 8.032556 23.487760 24.825657 -1.528346 0.329796 0.052217 -0.017538 -225767.000000 0 1 0
-0.083890 9.232556 24.300870 25.995758 -1.561710 0.363097 0.054698 -0.006684 -328963.000000 0 0 1
0.634010 10.364556 23.483830 25.677155 1.509701 0.416326 0.048392 -0.010390 293078.000000 0 0 1
2.030210 10.262556 23.358830 25.594467 1.375491 0.421071 0.052326 -0.009953 14848.500000 0 0 1
2.784810 10.651556 24.523220 26.881204 1.315074 0.421976 0.078221 -0.016704 -231742.000000 0 0 1
4.065410 11.469556 24.256960 27.138135 1.230161 0.464975 0.074807 -0.025100 1275360.000000 0 0 1
5.217110 10.740556 23.701570 26.539446 1.118622 0.466674 0.068374 -0.022645 1247000.000000 0 0 1
5.115010 10.371556 22.365950 25.178726 1.112622 0.477193 0.072651 -0.024019 43296.600000 0 0 1
6.522610 9.908556 21.819350 24.835619 0.988622 0.497977 0.078833 -0.029678 996651.000000 0 1 0
7.339610 11.027556 21.511850 25.263344 0.983553 0.551949 0.072680 -0.035180 554395.000000 0 0 1
8.682810 10.607556 21.232150 25.272824 0.884847 0.573296 0.079104 -0.033995 570375.000000 0 0 1
9.529010 11.760556 20.690550 25.636138 0.889836 0.631598 0.070999 -0.040684 -702424.000000 0 0 1
9.048310 12.233556 19.434250 24.682421 0.933965 0.664262 0.074313 -0.037419 41826.200000 0 1 0
9.882010 13.159556 18.829450 25.007524 0.926695 0.718261 0.093116 -0.035770 826902.000000 0 0 1
11.344810 12.761556 18.349150 25.064983 0.844101 0.749451 0.065902 -0.036899 720647.000000 0 0 1
12.236610 12.696556 19.437650 26.244226 0.803843 0.736767 0.068644 -0.037706 -444727.000000 0 0 1
13.499710 12.354556 18.909350 26.314269 0.741134 0.769014 0.065638 -0.032847 309806.000000 0 0 1
14.650210 12.307556 19.972850 27.658983 0.698715 0.763948 0.063283 -0.024342 421390.000000 0 0 1
15.105410 13.562556 20.483850 28.839287 0.731632 0.780906 0.061819 -0.026277 -363916.000000 0 0 1
16.333510 13.298556 21.096550 29.811065 0.683333 0.784594 0.061716 -0.027096 21271.800000 0 0 1
17.133110 14.574556 21.567450 31.162735 0.704881 0.806414 0.063043 -0.027660 477202.000000 0 0 1
16.590610 15.180556 22.767350 32.000779 0.741046 0.779219 0.069853 -0.024496 723500.000000 0 0 1
17.467910 16.250556 23.133920 33.232315 0.749310 0.800807 0.072717 -0.019153 129415.000000 0 0 1
-21.317990 12.523539 -24.030102 34.478131 -0.531150 2.341955 0.040891 -0.001762 -67283.900000 0 0 1
-21.489690 12.627539 -25.382332 35.574208 -0.531259 2.365283 0.046551 -0.016420 413286.000000 0 0 1
-22.271490 13.763139 -25.868252 36.805023 -0.553529 2.350186 0.060474 -0.020494 536913.000000 0 0 1
-22.211290 13.961239 -27.366782 37.910399 -0.561159 2.377312 0.054517 -0.010738 -365368.000000 0 0 1
-20.917190 14.321539 -27.729122 37.570460 -0.600369 2.400982 0.066862 -0.007492 -612475.000000 0 0 1
-20.886090 14.561439 -29.146552 38.701237 -0.608833 2.423583 0.067602 -0.010863 -226759.000000 0 0 1
-19.546290 15.098839 -29.627872 38.572570 -0.657725 2.446676 0.067218 -0.015684 -1559480.000000 0 0 1
-18.468590 14.312139 -29.476402 37.613620 -0.659276 2.471337 0.069099 -0.010015 -1308050.000000 0 0 1
-17.300190 15.128939 -29.592312 37.468470 -0.718544 2.481267 0.062495 -0.005450 633065.000000 0 0 1
-16.026890 14.545639 -28.917172 36.119796 -0.736986 2.499077 0.092338 0.005835 141362.000000 0 0 1
-16.066490 14.547539 -27.537582 35.043992 -0.735823 2.474785 0.098068 -0.006131 -170059.000000 0 0 1
-16.925990 13.535539 -27.004552 34.625796 -0.674552 2.465297 0.114752 -0.002644 226676.000000 0 0 1
-17.833690 14.049739 -25.850692 34.404853 -0.667270 2.420928 0.090275 -0.013785 -35121.700000 0 0 1
-17.112590 14.394339 -24.679102 33.303090 -0.699337 2.405422 0.152026 -0.039185 155645.000000 0 0 1
-17.965390 14.714139 -23.592802 33.104100 -0.686236 2.364115 0.122788 -0.041278 -99933.500000 0 0 1
-17.136990 15.278139 -22.452502 32.112502 -0.728116 2.345050 0.129430 -0.040844 73137.700000 0 0 1
-16.543390 16.504839 -22.798602 32.647660 -0.784232 2.343848 0.107811 -0.040714 -260925.000000 0 0 1
-15.841990 17.163539 -21.759602 31.922343 -0.825417 2.320800 0.111598 -0.038707 -482645.000000 0 0 1
-15.513790 18.607139 -22.290302 32.920523 -0.875809 2.314603 0.091281 -0.035101 408871.000000 0 0 1
-16.548890 19.583239 -22.358202 34.018498 -0.869181 2.287943 0.074306 -0.024030 704724.000000 0 0 1
-17.741790 19.207239 -23.050902 34.857326 -0.825039 2.293337 0.066621 -0.025628 554626.000000 0 0 1
-19.012190 20.095139 -23.004002 35.978634 -0.813083 2.264487 0.051351 -0.022364 410507.000000 0 0 1
-18.801590 21.266939 -23.786502 37.034850 -0.846849 2.268257 0.046361 -0.017790 327792.000000 0 0 1
-19.967490 22.085439 -23.729202 38.072855 -0.835720 2.243698 0.049815 -0.023054 435838.000000 0 0 1
-19.646490 23.502939 -24.077902 38.963035 -0.874536 2.236952 0.040374 -0.025172 7347.270000 0 0 1
-18.790590 23.970839 -23.066302 38.206566 -0.905954 2.218963 0.042070 -0.018117 -138092.000000 0 0 1
-18.076990 25.178839 -23.325302 38.792025 -0.948129 2.215912 0.038074 -0.018403 -338485.000000 0 0 1
-17.007790 25.485739 -22.267102 37.876267 -0.982324 2.199245 0.026843 -0.014085 418453.000000 0 0 1
-15.856690 24.624639 -22.170202 36.733164 -0.998696 2.218739 0.038082 -0.026082 687706.000000 0 0 1
-16.149190 23.259739 -21.852302 35.767791 -0.963907 2.228055 0.058348 -0.017886 -1441780.000000 0 0 1
-14.939590 22.360439 -21.787702 34.610468 -0.981784 2.251721 0.067907 -0.021884 -219428.000000 0 0 1
-14.195290 22.464739 -20.572302 33.606404 -1.007256 2.229578 0.082443 -0.029254 -175774.000000 0 0 1
-13.080390 21.610739 -20.494302 32.529019 -1.026509 2.252390 0.091109 -0.032379 38956.600000 0 0 1
-12.226290 21.919939 -19.225002 31.615923 -1.062007 2.224436 0.080135 -0.031175 220663.000000 0 0 1
-12.825890 21.673439 -17.952702 30.927996 -1.036444 2.190099 0.092858 -0.026356 340559.000000 0 0 1
-13.891090 22.536639 -17.529302 31.751203 -1.018421 2.155657 0.093715 -0.034929 458168.000000 0 0 1
-14.370990 22.301939 -16.055602 31.011033 -0.998380 2.115002 0.106223 -0.030540 -104521.000000 0 0 1
-13.573990 22.870939 -15.071602 30.569368 -1.035167 2.086365 0.122162 -0.042792 -273945.000000 0 0 1
-14.330490 23.152239 -13.891402 30.567305 -1.016547 2.042554 0.145396 -0.046121 388887.000000 0 0 1
-13.431690 23.595539 -12.692102 29.970806 -1.053296 2.008082 0.194928 -0.052780 -39759.400000 0 0 1
-12.861790 24.889839 -12.751802 30.782108 -1.093840 1.997926 0.182999 -0.062029 -240958.000000 0 0 1
-11.947490 25.149539 -11.747502 30.219954 -1.127301 1.970053 0.128667 -0.049730 -321258.000000 0 0 1
-11.476790 26.608039 -11.904802 31.327763 -1.163578 1.960601 0.156180 -0.052553 -60095.000000 0 0 1
-10.859390 26.831039 -13.159102 31.796116 -1.186217 1.997485 0.146349 -0.056393 49774.600000 0 0 1
-10.777890 28.202639 -13.431202 33.044651 -1.205764 1.989368 0.126626 -0.030265 -373417.000000 0 0 1
-9.998690 28.562139 -14.732702 33.657423 -1.234061 2.023863 0.145695 -0.052860 1381980.000000 0 0 1
-8.560790 28.505239 -14.824802 33.250722 -1.279043 2.032919 0.126279 -0.061825 908831.000000 0 0 1
-7.909290 27.275739 -14.698402 31.977583 -1.288562 2.048394 0.133969 -0.060595 781665.000000 0 0 1
-6.386890 27.357139 -15.087002 31.887663 -1.341441 2.063636 0.135368 -0.063022 1518380.000000 0 0 1
-5.500590 28.060439 -14.213002 31.932024 -1.377224 2.032084 0.129657 -0.059409 107392.000000 0 0 1
-4.143190 27.862339 -14.576902 31.716905 -1.423176 2.048334 0.150136 -0.062856 219591.000000 0 0 1
-3.219290 28.925139 -13.961102 32.279093 -1.459955 2.018074 0.110673 -0.047066 -354262.000000 0 0 1
-3.498990 30.234039 -14.323702 33.637903 -1.455579 2.010665 0.105766 -0.040276 627355.000000 0 0 1
-4.611390 30.923739 -13.700302 34.135624 -1.422766 1.983786 0.095042 -0.042378 711394.000000 0 0 1
-4.582490 32.461639 -13.968302 35.635245 -1.430557 1.973579 0.088913 -0.047376 572214.000000 0 0 1
-3.620890 33.220439 -13.207002 35.932344 -1.462229 1.947172 0.067065 -0.047006 431897.000000 0 0 1
-3.710290 -33.225244 -13.669702 36.118469 1.459586 1.958937 0.068360 -0.037397 -235309.000000 0 0 1
-2.770090 -32.367744 -12.910502 34.957478 1.485423 1.949074 0.068333 -0.036459 -233478.000000 0 0 1
-3.289990 -32.113344 -11.569402 34.292010 1.468703 1.914928 0.066448 -0.036467 614049.000000 0 0 1
-2.256990 -31.575344 -10.753202 33.432434 1.499438 1.898257 0.054923 -0.043220 343932.000000 0 0 1
-2.660490 -31.661244 -9.236502 33.088148 1.486963 1.853703 0.047491 -0.032138 -296091.000000 0 0 1
-1.713790 -31.019744 -8.431102 32.190760 1.515604 1.835798 0.060663 -0.036634 -308678.000000 0 0 1
-2.000990 -31.117644 -7.072902 31.974015 1.506581 1.793849 0.052244 -0.037746 -103565.000000 0 0 1
-0.823590 -30.637544 -6.196902 31.268818 1.543921 1.770299 0.070438 -0.033766 -310346.000000 0 0 1
-1.001790 -30.721244 -4.816802 31.112698 1.538199 1.726239 0.075559 -0.034998 -109652.000000 0 0 1
0.126710 -30.227444 -4.108002 30.505575 -1.566604 1.705871 0.074657 -0.026388 -136490.000000 0 0 1
0.277010 -30.346444 -2.497802 30.450327 -1.561668 1.652917 0.067806 -0.016027 -402895.000000 0 0 1
0.369410 -31.696844 -1.924602 31.757368 -1.559142 1.631437 0.081356 -0.025283 -259585.000000 0 0 1
1.466410 -32.464344 -2.319902 32.580146 -1.525657 1.642063 0.085379 -0.028573 890153.000000 0 0 1
2.906810 -32.107544 -1.745902 32.286097 -1.480509 1.624899 0.081913 -0.025627 515676.000000 0 0 1
3.080210 -32.371144 -0.337102 32.519106 -1.475929 1.581163 0.063629 -0.016665 533564.000000 0 0 1
4.290010 -31.911644 0.285898 32.199983 -1.437163 1.561917 0.051434 -0.017635 670920.000000 0 0 1
4.567310 -30.348244 0.429798 30.693011 -1.421421 1.556793 0.033321 -0.016219 -478912.000000 0 0 1
4.668310 -29.792544 -0.864802 30.168471 -1.415366 1.599466 0.058174 -0.026786 165442.000000 0 0 1
4.526810 -28.400444 -0.835102 28.771072 -1.412734 1.599826 0.072002 -0.017566 -338505.000000 0 0 1
4.021810 -27.686844 -2.159502 28.060644 -1.426545 1.647831 0.079584 -0.015036 503976.000000 0 0 1
2.638210 -27.955444 -2.438902 28.185373 -1.476703 1.657435 0.082156 -0.020437 829278.000000 0 0 1
2.132010 -27.079644 -3.467602 27.383879 -1.492227 1.697767 0.083652 -0.024375 113148.000000 0 0 1
2.698010 -27.344844 -4.892902 27.909859 -1.472448 1.747018 0.078339 -0.027192 -157718.000000 0 0 1
2.057810 -28.362244 -5.653502 28.993336 -1.498369 1.767047 0.078523 -0.034023 -171424.000000 0 0 1
2.537610 -28.303144 -6.977902 29.260870 -1.481377 1.811589 0.093984 -0.046129 -318835.000000 0 0 1
1.657810 -28.905244 -8.055102 30.052389 -1.513506 1.842149 0.074985 -0.040105 -60469.400000 0 0 1
0.393510 -28.262444 -8.234702 29.440293 -1.556874 1.854287 0.075582 -0.041069 311717.000000 0 0 1
0.057610 -28.356244 -9.604102 29.938581 -1.568765 1.897363 0.095762 -0.037784 414181.000000 0 0 1
-1.325990 -27.697544 -9.913702 29.448152 1.522959 1.914153 0.064359 -0.037385 -529622.000000 0 0 1
-1.420090 -26.316244 -9.698702 28.082488 1.516886 1.923424 0.075052 -0.031930 -410343.000000 0 0 1
-2.727490 -25.819044 -9.674302 27.706575 1.465548 1.927481 0.072785 -0.030373 1176560.000000 0 0 1
-3.875690 -26.434044 -8.715002 28.102151 1.425216 1.886114 0.066687 -0.026325 -91376.000000 0 0 1
-3.679090 -26.452044 -7.322102 27.692228 1.432598 1.838388 0.074450 -0.023219 -300213.000000 0 0 1
-3.095290 -27.655744 -6.850902 28.659306 1.459338 1.812180 0.089985 -0.024217 -52284.500000 0 0 1
-2.503490 -27.582444 -5.458202 28.228543 1.480280 1.765379 0.076742 -0.011761 -124067.000000 0 0 1
-3.459590 -27.595744 -4.436202 28.163340 1.446080 1.728972 0.077161 -0.021315 -253410.000000 0 0 1
-2.822690 -27.474144 -3.214502 27.805200 1.468416 1.686663 0.068624 0.000864 -287379.000000 0 0 1
-3.795790 -27.472544 -2.051002 27.809266 1.433499 1.644616 0.088874 -0.010348 139971.000000 0 0 1
-4.567790 -26.263244 -1.891602 26.724536 1.398596 1.641637 0.076136 -0.005949 203248.000000 0 0 1
-5.357990 -26.309344 -0.717002 26.858960 1.369890 1.597495 0.090471 -0.016789 -249799.000000 0 0 1
-6.337890 -25.137744 -0.568002 25.930631 1.323817 1.592703 0.074524 -0.007487 -260753.000000 0 0 1
-5.785690 -23.847844 -0.389702 24.542732 1.332786 1.586675 0.057018 -0.011449 -243382.000000 0 1 0
-6.694190 -23.004244 0.291698 23.960227 1.287619 1.558622 0.081918 -0.018074 225477.000000 0 1 0
-6.044290 -21.663344 0.739698 22.502912 1.298706 1.537919 0.055036 -0.017971 115902.000000 0 1 0
-5.066990 -21.777844 1.752298 22.428094 1.342196 1.492587 0.051273 -0.014257 -221097.000000 0 1 0
-4.523490 -20.480044 1.830098 21.053347 1.353413 1.483760 0.032970 -0.012752 -202612.000000 0 1 0
-3.465490 -20.143244 2.883298 20.641543 1.400422 1.430654 0.034218 -0.015729 -329474.000000 0 1 0
-3.940990 -20.094344 4.238098 20.911134 1.377130 1.366711 0.032000 -0.009424 393119.000000 0 1 0
-2.910590 -20.211344 5.221798 21.076933 1.427772 1.320440 0.048648 -0.007133 608026.000000 0 1 0
-1.930690 -21.398944 5.327598 22.136523 1.480816 1.327740 0.055278 -0.024419 367928.000000 0 1 0
-0.974090 -21.520944 4.281598 21.964334 1.525565 1.374606 0.070542 -0.030850 -51383.400000 0 1 0
-0.420990 -22.821544 4.354998 23.237171 1.552351 1.382266 0.076445 -0.025243 -991197.000000 0 1 0
0.628910 -23.087044 3.226898 23.319948 -1.543562 1.431976 0.075224 -0.032546 1215090.000000 0 1 0
1.772710 -22.221344 3.375398 22.546040 -1.491190 1.420520 0.045380 -0.034786 937511.000000 0 1 0
2.678510 -22.479944 4.475398 23.077077 -1.452204 1.375627 0.074056 -0.038025 -1169900.000000 0 1 0
3.922810 -21.634544 4.491098 22.441299 -1.391424 1.369309 0.079794 -0.037066 -903689.000000 0 1 0
4.881610 -21.937544 3.514598 22.747271 -1.351841 1.415669 0.055336 -0.020224 -861761.000000 0 1 0
6.042410 -21.193644 3.720198 22.349969 -1.293060 1.403566 0.069316 -0.018699 -136805.000000 0 1 0
6.668810 -20.806844 2.378498 21.978513 -1.260630 1.462365 0.069410 -0.015647 -120516.000000 0 1 0
7.326810 -21.805344 1.660998 23.063263 -1.246639 1.498715 0.072092 -0.014480 -286171.000000 0 1 0
7.149310 -21.603844 0.289998 22.757917 -1.251212 1.558053 0.066983 -0.024166 41814.100000 0 1 0
8.232410 -22.327844 -0.505002 23.802525 -1.217555 1.592014 0.071293 -0.018873 -121841.000000 0 1 0
9.493010 -21.740044 -0.684502 23.732157 -1.159091 1.599643 0.067755 -0.015511 -646290.000000 0 1 0
10.295110 -22.640144 -1.432802 24.912212 -1.144017 1.628342 0.069804 -0.011410 18051.000000 0 1 0
11.596010 -21.961344 -1.901302 24.907489 -1.084985 1.647205 0.069824 -0.010208 -225959.000000 0 1 0
11.457710 -20.982344 -2.896402 24.081674 -1.070980 1.691362 0.066548 -0.004838 394406.000000 0 1 0
12.726610 -20.647544 -3.478202 24.502766 -1.018424 1.713229 0.063537 -0.006410 534718.000000 0 1 0
12.678310 -19.379644 -4.316302 23.557177 -0.991469 1.755064 0.056148 -0.023570 -216948.000000 0 1 0
12.845210 -18.161144 -3.574902 22.530124 -0.955194 1.730142 0.069281 -0.021416 -15187.000000 0 1 0
12.894310 -17.081144 -4.435002 21.856302 -0.924176 1.775132 0.074662 -0.027812 -614836.000000 0 1 0
13.522010 -15.857244 -3.695902 21.164986 -0.864717 1.746320 0.089990 -0.022949 1687790.000000 0 1 0
14.927910 -15.872444 -3.322002 22.041159 -0.816055 1.722091 0.084717 -0.017614 1828680.000000 0 1 0
15.869210 -15.869244 -4.401102 22.869946 -0.785399 1.764445 0.091333 -0.014849 -356528.000000 0 1 0
17.299010 -15.457444 -4.065402 23.552406 -0.729237 1.744276 0.093332 -0.012714 -192658.000000 0 1 0
18.042510 -16.394244 -3.298602 24.600491 -0.737571 1.705288 0.095747 -0.022667 158723.000000 0 1 0
19.363210 -15.930444 -3.136402 25.269546 -0.688440 1.695235 0.078485 -0.011962 -97543.200000 0 0 1
20.267210 -16.927344 -2.407102 26.515824 -0.695844 1.661701 0.079600 -0.024738 177917.000000 0 0 1
21.668310 -16.720044 -2.434802 27.477332 -0.657205 1.659524 0.071531 -0.019232 338300.000000 0 0 1
22.317510 -17.485244 -1.451802 28.388602 -0.664584 1.621959 0.065927 -0.017170 -1244380.000000 0 0 1
23.811310 -17.549644 -1.505602 29.618159 -0.635148 1.621652 0.077876 -0.022383 -1159660.000000 0 0 1
24.395610 -16.308944 -1.051602 29.363810 -0.589284 1.606617 0.083917 -0.026503 441344.000000 0 0 1
25.785010 -16.520344 -0.830902 30.634603 -0.569807 1.597923 0.124614 -0.023179 514590.000000 0 0 1
26.602810 -15.357544 -0.267602 30.718647 -0.523554 1.579508 0.112884 -0.022821 104852.000000 0 0 1
25.862310 -14.784944 0.803198 29.800986 -0.519335 1.543841 0.104892 -0.023874 640800.000000 0 0 1
26.487810 -13.615144 1.376398 29.813935 -0.474797 1.524614 0.089770 -0.020619 419800.000000 0 0 1
25.568810 -12.958644 2.459598 28.770473 -0.469084 1.485201 0.106898 -0.032402 -67722.300000 0 0 1
25.236710 -13.637544 3.642598 28.916132 -0.495431 1.444490 0.115860 -0.029376 -136609.000000 0 0 1
26.238910 -14.091244 4.524998 30.125059 -0.492836 1.420019 0.123441 -0.028410 -276202.000000 0 0 1
25.656810 -14.675944 5.830698 30.127268 -0.519584 1.376032 0.113157 -0.024206 386196.000000 0 0 1
24.885310 -15.845644 5.577498 30.024516 -0.567002 1.383946 0.118090 -0.027215 242709.000000 0 0 1
24.306910 -16.395244 6.782698 30.093769 -0.593413 1.343458 0.094511 -0.024682 140074.000000 0 0 1
23.582110 -17.729944 6.514798 30.214391 -0.644677 1.353471 0.084995 -0.020694 -413551.000000 0 0 1
24.491010 -18.710444 6.205598 31.438825 -0.652383 1.372105 0.088245 -0.021171 -684153.000000 0 0 1
23.850610 -19.997444 6.177298 31.731820 -0.697748 1.374873 0.059441 -0.010829 -37932.600000 0 0 1
1.729710 23.528739 -3.073102 23.791541 1.497414 1.700326 0.054374 -0.015794 -60939.400000 0 1 0
2.702010 24.439839 -2.648602 24.730987 1.460686 1.678099 0.060937 -0.020125 -363556.000000 0 1 0
3.610510 24.617539 -3.709902 25.155962 1.425170 1.718812 0.075572 -0.021466 -100140.000000 0 0 1
4.707510 25.693139 -3.491102 26.353100 1.389586 1.703661 0.055891 -0.015593 -175597.000000 0 0 1
5.561910 25.251339 -2.481002 25.975380 1.353996 1.666456 0.036645 -0.013608 -234398.000000 0 0 1
6.473710 26.244339 -2.002202 27.105038 1.328954 1.644732 0.026559 -0.018706 193898.000000 0 0 1
7.566410 25.654239 -1.075102 26.768385 1.283990 1.610970 0.004359 -0.027784 436978.000000 0 0 1
8.624310 25.174839 -1.927602 26.680834 1.240750 1.643106 0.014909 -0.026838 264844.000000 0 0 1
9.579110 24.402639 -1.189502 26.242391 1.196734 1.616139 0.007852 -0.021746 -65608.100000 0 0 1
10.806510 24.085939 -2.035702 26.477485 1.149053 1.647757 0.028675 -0.020012 -1959200.000000 0 0 1
11.700710 25.171239 -2.107402 27.837727 1.135667 1.646572 0.035083 -0.012689 362700.000000 0 0 1
12.589210 25.127639 -3.270802 28.294604 1.106341 1.686653 0.051757 -0.013847 372535.000000 0 0 1
13.496010 23.905939 -3.354202 27.656589 1.056854 1.692376 0.048383 -0.017808 -1897430.000000 0 0 1
12.966610 22.631639 -3.653602 26.337671 1.050510 1.709967 0.052595 -0.019230 -346969.000000 0 0 1
12.685610 22.396739 -5.059802 26.232427 1.055446 1.764896 0.077165 -0.028495 -210120.000000 0 0 1
11.872110 21.103839 -5.222102 24.770737 1.058364 1.783207 0.083553 -0.029899 -969537.000000 0 1 0
10.564610 21.363139 -4.870102 24.325144 1.111538 1.772367 0.074119 -0.027505 -1042440.000000 0 1 0
9.804510 20.143339 -4.838402 22.919264 1.117815 1.783503 0.055939 -0.022071 1305630.000000 0 1 0
8.231610 20.262239 -4.801702 22.391384 1.184910 1.786919 0.040089 -0.020489 990333.000000 0 1 0
7.871510 21.006039 -3.671102 22.730846 1.212266 1.733010 0.039772 -0.020431 -61109.000000 0 1 0
6.503910 21.328339 -3.551502 22.579019 1.274812 1.728744 0.039940 -0.015315 92406.300000 0 1 0
6.134910 22.145539 -2.333902 23.097817 1.300547 1.672013 0.034300 -0.014082 -21213.900000 0 1 0
5.909710 21.387139 -1.177702 22.219842 1.301203 1.623823 0.031191 -0.013598 178938.000000 0 1 0
5.163910 22.107239 -0.186002 22.703097 1.341326 1.578989 0.052824 -0.010448 350735.000000 0 1 0
4.621710 21.256039 0.981898 21.774837 1.356698 1.525688 0.024341 -0.010472 244278.000000 0 1 0
3.740110 21.975939 1.876598 22.370784 1.402220 1.486812 0.033197 -0.008546 733397.000000 0 1 0
3.208710 21.021839 2.808298 21.449944 1.419328 1.439496 0.033371 -0.015586 329345.000000 0 1 0
2.148910 21.570939 3.812798 22.010467 1.471503 1.396691 0.027079 -0.011843 45190.300000 0 1 0
0.840510 21.695339 3.313798 21.963048 1.532074 1.419337 0.033652 -0.011765 -874885.000000 0 1 0
0.041510 22.145339 4.348898 22.568356 1.568922 1.376884 0.041112 -0.019024 -1043350.000000 0 1 0
-1.398690 22.213039 3.880798 22.592832 -1.507912 1.398169 0.038013 -0.019379 -1032790.000000 0 1 0
-2.258990 22.739839 4.843298 23.359385 -1.471781 1.361943 0.053676 -0.021165 1000370.000000 0 1 0
-3.621190 22.739539 4.317098 23.427271 -1.412876 1.385460 0.054242 -0.022159 1580840.000000 0 1 0
-4.784890 22.920039 5.310398 24.008826 -1.364988 1.347767 0.064241 -0.034474 50201.400000 0 1 0
-5.047190 24.229239 5.813198 25.422892 -1.365423 1.340095 0.092895 -0.027893 -907699.000000 0 0 1
-6.257890 24.242939 6.468198 25.859600 -1.318178 1.317984 0.100895 -0.029546 -606434.000000 0 0 1
-6.750790 25.626839 7.022798 27.415830 -1.313221 1.311750 0.114687 -0.032657 -106930.000000 0 0 1
-5.915490 26.176639 8.028798 28.011981 -1.348546 1.280099 0.096103 -0.031506 -37505.000000 0 0 1
-6.363090 27.426939 8.574598 29.432119 -1.342828 1.275175 0.119799 -0.027239 2883.390000 0 0 1
-6.425190 28.618539 7.647398 30.311492 -1.349947 1.315746 0.140066 -0.035345 93663.700000 0 0 1
-7.595190 28.646739 6.866898 30.421652 -1.311627 1.343110 0.127019 -0.041412 -485355.000000 0 0 1
-7.683790 29.845639 6.119398 31.420532 -1.318817 1.374786 0.145930 -0.039623 -529426.000000 0 0 1
-9.029790 30.087739 5.392598 31.873018 -1.279234 1.400788 0.126926 -0.045278 -37505.700000 0 0 1
-10.024090 30.542539 6.260098 32.749319 -1.253672 1.378461 0.113044 -0.039435 -422407.000000 0 0 1
-10.775190 29.473839 6.808698 32.111840 -1.220305 1.357144 0.101195 -0.041398 -342753.000000 0 0 1
-11.798090 29.915239 7.895898 33.112863 -1.195141 1.330023 0.071409 -0.043422 607766.000000 0 0 1
-11.154890 30.433839 9.116498 33.671363 -1.219473 1.296625 0.073445 -0.035099 1345450.000000 0 0 1
-12.227990 30.736639 10.057898 34.574934 -1.192161 1.275627 0.081912 -0.029369 910592.000000 0 0 1
-11.701490 31.064539 11.487598 35.126847 -1.210551 1.237635 0.074399 -0.035539 -256030.000000 0 0 1
-11.182390 32.389039 11.586798 36.171116 -1.238357 1.244715 0.067221 -0.032804 614688.000000 0 0 1
-10.218590 32.497439 12.641998 36.336253 -1.266142 1.215448 0.050052 -0.038104 452336.000000 0 0 1
-9.715690 -33.832644 12.738398 37.434065 1.291152 1.223572 0.056592 -0.043965 21122.000000 0 0 1
-10.707390 -33.054144 13.338398 37.217435 1.257528 1.204252 0.056080 -0.030027 43465.200000 0 0 1
-10.404090 -31.690644 13.034298 35.811100 1.253581 1.198266 0.053957 -0.028019 -245345.000000 0 0 1
-11.313990 -30.667144 13.766398 35.468208 1.217359 1.172191 0.045822 -0.023412 -472532.000000 0 0 1
-11.214890 -30.656144 15.136898 35.981920 1.220091 1.136601 0.047150 -0.021463 114538.000000 0 0 1
-10.032690 -30.161244 15.754298 35.476096 1.249674 1.110647 0.063810 -0.021737 237521.000000 0 0 1
-10.110090 -30.263844 17.273098 36.283248 1.248387 1.074624 0.058706 -0.030329 -184737.000000 0 0 1
-10.943990 -29.406644 17.976598 36.161854 1.214517 1.050526 0.086053 -0.030416 -120368.000000 0 0 1
-11.592290 -29.983744 19.081498 37.383280 1.201878 1.035113 0.074842 -0.028529 -331233.000000 0 0 1
-11.778490 -29.190144 20.398098 37.508395 1.187269 0.995805 0.084157 -0.038494 218114.000000 0 0 1
-10.660490 -28.939444 21.254598 37.455245 1.217849 0.967371 0.084132 -0.034996 489423.000000 0 0 1
-11.062990 -28.095344 22.376298 37.582400 1.195676 0.933042 0.078413 -0.032214 548228.000000 0 0 1
-9.997990 -27.975244 23.518098 37.890302 1.227556 0.901175 0.108260 -0.042843 465165.000000 0 0 1
-9.748790 -29.251844 24.188198 39.189006 1.249102 0.905593 0.109520 -0.026518 410763.000000 0 0 1
-8.588990 -29.262344 25.020698 39.447317 1.285298 0.883718 0.129082 -0.035402 370193.000000 0 0 1
-8.544990 -30.483844 25.962598 40.943108 1.297498 0.883934 0.119662 -0.035098 -256016.000000 0 0 1
-8.210090 -31.693844 25.317798 41.387150 1.317324 0.912550 0.141733 -0.028115 429567.000000 0 0 1
-8.677990 -32.833044 26.058498 42.806093 1.312399 0.916304 0.148953 -0.025976 -342719.000000 0 0 1
-8.439890 33.625339 25.371098 42.960305 -1.324879 0.939030 0.137513 -0.017744 35547.200000 0 0 1
-7.102490 33.157639 25.244698 42.274924 -1.359781 0.930846 0.126617 -0.012993 321726.000000 0 0 1
-6.956490 31.889239 24.615498 40.880791 -1.356016 0.924632 0.113838 -0.008391 -32732.600000 0 0 1
-7.652090 31.526939 23.237998 39.906227 -1.332685 0.949223 0.110510 -0.013022 432489.000000 0 0 1
-8.869090 30.814639 23.425898 39.711151 -1.290550 0.939852 0.103941 -0.012248 286936.000000 0 0 1
-9.692190 30.689239 22.302698 39.155821 -1.264892 0.964791 0.089900 -0.017139 41033.600000 0 0 1
-10.560190 29.400439 22.386298 38.432406 -1.225963 0.949014 0.092048 -0.024757 -111096.000000 0 0 1
-9.857090 28.206139 22.202698 37.225104 -1.234597 0.931733 0.084458 -0.027857 -152208.000000 0 0 1
-10.512890 27.109139 22.708198 36.892934 -1.200852 0.907756 0.064327 -0.030101 -478532.000000 0 0 1
-9.584690 25.912439 22.527098 35.648155 -1.216515 0.886757 0.060794 -0.030235 -570188.000000 0 0 1
-8.437090 25.784539 23.294698 35.758495 -1.254562 0.861309 0.057244 -0.043486 -447258.000000 0 0 1
-7.999890 24.469439 23.220398 34.668986 -1.254816 0.836891 0.064525 -0.040067 60439.000000 0 0 1
-6.522090 24.367839 23.678798 34.597901 -1.309275 0.817016 0.062165 -0.039548 496105.000000 0 0 1
-5.555590 24.775139 22.704698 34.061348 -1.350205 0.841182 0.064233 -0.036454 1053210.000000 0 0 1
-4.230890 24.520939 23.218898 34.033721 -1.399937 0.819985 0.098734 -0.025695 992708.000000 0 0 1
-3.033390 25.183539 22.507198 33.911445 -1.450923 0.845035 0.094402 -0.031362 -29729.100000 0 0 1
-2.642090 24.357939 21.438798 32.556289 -1.462749 0.851953 0.085761 -0.029481 464635.000000 0 0 1
-1.667090 24.991139 20.578098 32.415959 -1.504188 0.883029 0.094618 -0.025015 662127.000000 0 0 1
-1.089590 24.013339 19.503698 30.955160 -1.525453 0.889162 0.080610 -0.023711 502791.000000 0 0 1
-0.093790 23.080339 19.962998 30.516097 -1.566733 0.857699 0.080225 -0.032611 370012.000000 0 0 1
0.304010 22.071539 19.083998 29.179518 1.557023 0.857909 0.064558 -0.024231 -926143.000000 0 0 1
1.496910 21.296439 19.560098 28.954732 1.500623 0.829099 0.057361 -0.031801 -1434020.000000 0 0 1
2.657710 22.031439 19.330198 29.429650 1.450744 0.854193 0.069312 -0.030688 -980435.000000 0 0 1
3.748210 21.138139 19.495098 28.998774 1.395301 0.833521 0.081590 -0.033478 -730721.000000 0 0 1
5.068510 21.850339 19.283798 29.580264 1.342863 0.860690 0.079241 -0.031844 -230514.000000 0 0 1
6.133510 20.908839 19.101798 28.977202 1.285456 0.851041 0.090669 -0.031770 148972.000000 0 0 1
7.336410 21.484139 18.636398 29.371866 1.241732 0.883437 0.099800 -0.030629 706040.000000 0 0 1
8.376510 20.309839 18.323098 28.607542 1.179615 0.875649 0.100260 -0.022623 513443.000000 0 0 1
8.836510 19.570939 19.459798 28.979119 1.146686 0.834550 0.105963 -0.033014 1033620.000000 0 0 1
10.005010 18.782139 19.075198 28.578527 1.081342 0.839996 0.091154 -0.027426 1055020.000000 0 0 1
10.514410 18.019139 20.287998 29.100603 1.042587 0.799357 0.110173 -0.035874 -125471.000000 0 0 1
9.693010 16.919639 20.621698 28.381034 1.050553 0.757434 0.121412 -0.037152 -52262.200000 0 0 1
10.080210 16.332539 21.853398 29.084936 1.017836 0.720668 0.116742 -0.046989 106822.000000 0 0 1
9.068510 15.278739 22.377998 28.573634 1.035142 0.671050 0.095328 -0.037261 -431684.000000 0 0 1
7.930110 15.856739 22.941698 28.993868 1.107061 0.657929 0.097011 -0.025355 644545.000000 0 0 1
6.787910 14.956039 23.147398 28.382405 1.144739 0.617110 0.082288 -0.019663 1431240.000000 0 0 1
7.017510 13.762339 24.101498 28.627429 1.099255 0.569998 0.081828 -0.019522 -797211.000000 0 0 1
7.545510 14.163339 25.322598 29.979475 1.081294 0.564858 0.092117 -0.023654 -195451.000000 0 0 1
7.758610 13.029839 26.209698 30.280704 1.033730 0.524533 0.093685 -0.027882 -92110.900000 0 0 1
8.808910 13.454739 27.296798 31.681890 0.991119 0.532403 0.069401 -0.020947 880151.000000 0 0 1
10.163410 13.614439 26.862898 31.784638 0.929528 0.563944 0.100594 -0.023434 508635.000000 0 0 1
10.418910 14.827639 26.125198 31.795260 0.958282 0.606462 0.098070 -0.021924 -482210.000000 0 0 1
11.871010 14.876639 25.583598 31.886608 0.897299 0.639607 0.114531 -0.035904 233642.000000 0 0 1
11.932410 14.035639 24.440698 30.606034 0.866215 0.645900 0.114411 -0.039571 -472798.000000 0 0 1
13.217810 13.541739 24.217698 30.734120 0.797503 0.663284 0.113856 -0.042178 -779838.000000 0 0 1
13.294810 12.223839 23.394298 29.554483 0.743455 0.657430 0.096321 -0.042939 -14557.400000 0 0 1
12.787810 11.080339 24.051898 29.407411 0.713982 0.613070 0.095777 -0.037884 484666.000000 0 0 1
11.367910 10.955639 24.062398 28.779410 0.766932 0.580666 0.109875 -0.039547 78078.000000 0 0 1
10.813810 9.597639 24.429698 28.387732 0.725886 0.534404 0.094768 -0.035572 -194842.000000 0 0 1
10.948310 8.554839 23.470198 27.274549 0.663286 0.534514 0.095334 -0.028710 100075.000000 0 0 1
10.675010 7.295439 24.042598 27.298825 0.599507 0.493418 0.098434 -0.033970 312.501000 0 0 1
10.960310 6.074939 23.133598 26.309631 0.506113 0.496443 0.114117 -0.047761 -47259.200000 0 0 1
12.331810 5.759539 22.996098 26.722021 0.436940 0.534414 0.119986 -0.037359 267270.000000 0 0 1
12.496610 4.416639 22.486298 26.101831 0.339725 0.532612 0.137722 -0.031664 66362.500000 0 0 1
12.303310 3.242639 23.454898 26.683673 0.257698 0.497039 0.143688 -0.032371 26074.500000 0 0 1
13.425510 3.098539 24.318298 27.950401 0.226823 0.515489 0.148227 -0.031215 322835.000000 0 0 1
13.393910 1.830339 24.944998 28.372521 0.135813 0.496625 0.148143 -0.026171 -235315.000000 0 0 1
14.858710 1.606939 25.372098 29.446679 0.107729 0.532327 0.146162 -0.024349 140329.000000 0 0 1
15.728610 1.376239 24.289198 28.969784 0.087277 0.576396 0.150663 -0.033329 -774888.000000 0 0 1
17.054410 1.625839 24.612298 29.987689 0.095045 0.608079 0.144310 -0.034060 -428571.000000 0 0 1
18.039410 0.822039 23.680098 29.779912 0.045538 0.651508 0.132007 -0.040408 20901.900000 0 0 1
18.060910 -0.563961 24.025898 30.062574 -0.031215 0.644839 0.129606 -0.039733 -48384.200000 0 0 1
18.917810 -1.264961 23.182498 29.948488 -0.066767 0.685537 0.113518 -0.025646 -313780.000000 0 0 1
19.157410 -2.725061 23.579998 30.503257 -0.141298 0.687189 0.098714 -0.017522 31821.800000 0 0 1
18.109610 -3.592761 23.161298 29.619447 -0.195847 0.672988 0.089586 -0.011826 253554.000000 0 0 1
18.385810 -4.919861 23.443098 30.196389 -0.261464 0.681935 0.086414 -0.005797 79434.100000 0 0 1
17.282010 -5.905761 22.980098 29.353549 -0.329287 0.671526 0.087540 -0.010428 90809.500000 0 0 1
17.334410 -6.141161 21.557598 28.335943 -0.340479 0.706272 0.086224 -0.010177 56115.900000 0 0 1
16.531210 -7.205061 21.068398 27.732134 -0.411021 0.707928 0.101018 -0.023852 26073.300000 0 0 1
17.037510 -8.669561 21.321098 28.636118 -0.470704 0.730932 0.105474 -0.023470 71223.200000 0 0 1
17.091210 -9.183361 22.636198 29.813438 -0.493052 0.708619 0.097165 -0.010682 -134993.000000 0 0 1
17.681910 -10.447461 22.673698 30.592417 -0.533669 0.736008 0.078975 -0.013674 -235659.000000 0 0 1
17.173410 -11.356561 23.841798 31.501252 -0.584269 0.712313 0.094616 -0.033764 -490804.000000 0 0 1
15.967210 -11.945461 23.483298 30.807647 -0.642300 0.704006 0.102106 -0.026384 -598075.000000 0 0 1
15.683310 -12.924261 24.499598 31.831322 -0.689251 0.692473 0.116273 -0.022784 733067.000000 0 0 1
14.464410 -13.807061 23.977698 31.221533 -0.762151 0.695106 0.142756 -0.028997 608867.000000 0 0 1
14.735210 -14.552261 22.833198 30.826120 -0.779152 0.736671 0.142028 -0.034712 21588.900000 0 0 1
13.665810 -15.342661 22.386498 30.385966 -0.843139 0.742563 0.160160 -0.030570 -406701.000000 0 0 1
14.039910 -16.248661 21.181998 30.163142 -0.858193 0.792246 0.130298 -0.030234 238282.000000 0 0 1
15.093510 -17.170261 21.463898 31.358106 -0.849677 0.816910 0.144715 -0.040299 528914.000000 0 0 1
15.220510 -18.042161 20.322298 31.147701 -0.870025 0.859984 0.124702 -0.032556 -99635.600000 0 0 1
-24.738590 -32.013444 26.064420 48.127044 0.912890 0.998486 0.084883 -0.033365 -648690.000000 0 0 1
-24.893490 -33.437544 26.106120 49.186224 0.930839 1.011298 0.089544 -0.024183 1340400.000000 0 0 1
-26.259300 -33.838944 26.376360 50.302458 0.910857 1.018839 0.077903 -0.032197 909298.000000 0 0 1
-26.486720 33.683339 27.874940 51.118744 -0.904437 0.994052 0.059009 -0.025001 74013.200000 0 0 1
-27.775740 -33.846244 28.410580 52.194070 0.883593 0.995211 0.074523 -0.026578 464877.000000 0 0 1
-27.653120 -33.493344 29.750670 52.646001 0.880621 0.970232 0.062321 -0.031683 29893.400000 0 0 1
-28.893800 -32.830444 30.400600 53.262427 0.849090 0.963353 0.050219 -0.036561 -349921.000000 0 0 1
-29.223480 -31.482044 30.107320 52.455520 0.822586 0.959464 0.036650 -0.029035 555158.000000 0 0 1
-30.242610 -31.029844 31.007790 53.281795 0.798246 0.949661 0.053871 -0.008820 14755.600000 0 0 1
-30.499330 -29.502544 30.866960 52.472644 0.768787 0.941905 0.042479 -0.017266 -177605.000000 0 0 1
-31.122140 -29.225144 29.624130 51.964273 0.753974 0.964185 0.024294 -0.001324 276582.000000 0 0 1
-31.326290 -27.812644 29.670190 51.334197 0.726055 0.954544 0.016188 0.009257 -183456.000000 0 0 1
-31.863780 -27.354744 28.318790 50.651124 0.709402 0.977502 0.006212 -0.003253 117659.000000 0 0 1
-30.894730 -27.261044 27.268150 49.408510 0.722997 0.986165 0.027297 -0.000335 625541.000000 0 0 1
-30.115980 -26.047544 27.281260 48.267110 0.713085 0.970103 0.013319 0.003821 153124.000000 0 0 1
-29.097540 -26.072044 26.112030 46.992088 0.730613 0.981629 0.028352 0.012895 -169152.000000 0 0 1
-29.674340 -26.066644 24.810530 46.643314 0.720766 1.009930 0.020618 0.004228 -574281.000000 0 0 1
-28.714730 -25.974644 23.834610 45.467642 0.735337 1.019009 0.029429 0.014178 -773979.000000 0 0 1
-29.187720 -26.188144 22.362550 45.142280 0.731283 1.052525 0.014011 0.015329 -10324.700000 0 0 1
-29.830110 -25.109444 21.697850 44.621926 0.699684 1.062992 0.016369 0.014927 457716.000000 0 0 1
-30.371240 -25.562744 20.429950 44.645816 0.699642 1.095502 0.018039 0.013126 97282.900000 0 0 1
-31.040990 -24.511544 19.533450 44.112521 0.668399 1.112066 0.032763 0.006292 -129358.000000 0 0 1
-32.228620 -24.026644 20.107450 44.947448 0.640619 1.106991 0.054142 -0.002396 -370525.000000 0 0 1
-32.873410 -23.120244 19.286150 44.577599 0.612945 1.123375 0.082478 -0.011807 -674740.000000 0 0 1
-34.350578 -22.859444 19.604650 45.682148 0.587177 1.127241 0.105117 -0.009542 -732299.000000 0 0 1
-35.087911 -23.836644 18.931550 46.451595 0.596726 1.151022 0.103078 -0.020589 -749575.000000 0 0 1
-36.406770 -23.371844 18.795550 47.169573 0.570705 1.160951 0.100600 -0.026257 -422792.000000 0 0 1
-37.312450 -24.419744 18.138150 48.140786 0.579509 1.184486 0.109844 -0.033986 -263004.000000 0 0 1
37.118082 -25.515044 18.917750 48.853360 -0.602221 1.173165 0.098303 -0.034711 -214945.000000 0 0 1
36.405202 -26.433344 18.151850 48.513401 -0.628020 1.187304 0.103052 -0.034111 47966.200000 0 0 1
35.661742 -27.592044 18.929550 48.902031 -0.658507 1.173321 0.088946 -0.021531 1386700.000000 0 0 1
34.403292 -27.385844 19.624550 48.152818 -0.672312 1.151030 0.075149 -0.020276 932288.000000 0 0 1
34.407372 -26.428444 20.661450 48.054401 -0.654987 1.126348 0.066158 -0.020997 -851024.000000 0 0 1
33.148222 -26.519144 21.516850 47.592483 -0.674751 1.101671 0.047943 -0.018821 -757157.000000 0 0 1
32.004622 -26.437244 20.710550 46.391277 -0.690421 1.108022 0.063747 -0.020389 -615798.000000 0 0 1
30.906832 -26.063044 21.523550 45.801504 -0.700578 1.081584 0.064143 -0.018676 26673.900000 0 0 1
30.101942 -24.843944 20.918150 44.282248 -0.689995 1.078805 0.062880 -0.006074 -492353.000000 0 0 1
30.742342 -23.638544 20.767750 43.990588 -0.655503 1.079130 0.072376 -0.005653 -533164.000000 0 0 1
31.273992 -23.029944 21.901150 44.588129 -0.634735 1.057343 0.089651 -0.012029 -218984.000000 0 0 1
32.309312 -21.964644 21.464550 44.576498 -0.597056 1.068406 0.095206 -0.011303 171875.000000 0 0 1
31.680102 -20.796644 20.926150 43.290103 -0.580901 1.066269 0.097728 -0.019446 -74858.800000 0 0 1
32.586522 -19.793944 20.559950 43.317354 -0.545863 1.076247 0.101885 -0.014599 -367128.000000 0 0 1
32.005182 -18.361844 20.694050 42.305233 -0.520868 1.059669 0.085545 -0.003664 122813.000000 0 0 1
31.712622 -17.951844 22.015550 42.575152 -0.515104 1.027339 0.077032 -0.011190 1590210.000000 0 0 1
30.344392 -18.231544 22.455450 41.921576 -0.541023 1.005515 0.079771 -0.004332 1041630.000000 0 0 1
30.056462 -17.886244 23.920560 42.373362 -0.536800 0.970946 0.063921 0.003467 -232985.000000 0 0 1
29.887712 -16.471544 24.186350 41.827821 -0.503698 0.954231 0.071760 -0.005851 179844.000000 0 0 1
30.108002 -16.151544 25.554800 42.666286 -0.492383 0.928612 0.072741 -0.005455 -106415.000000 0 0 1
29.801002 -14.711544 25.882720 42.124155 -0.458562 0.909122 0.064482 -0.013268 630936.000000 0 0 1
28.438302 -14.300444 25.671460 40.893320 -0.465932 0.892116 0.076643 -0.018928 918063.000000 0 0 1
28.146402 -13.009644 26.157420 40.566999 -0.432964 0.870041 0.055679 -0.022536 -112990.000000 0 0 1
28.767302 -11.877844 25.341800 40.135367 -0.391572 0.887428 0.072793 -0.031469 -626799.000000 0 0 1
28.167702 -11.725544 24.077650 38.866966 -0.394458 0.902705 0.073890 -0.022968 37480.700000 0 0 1
28.843502 -10.821844 23.222370 38.578989 -0.358939 0.924864 0.078771 -0.019301 69705.800000 0 0 1
30.159832 -11.403944 22.638550 39.397581 -0.361501 0.958659 0.081524 -0.031183 -357483.000000 0 0 1
29.878432 -12.308144 21.544050 38.837575 -0.390758 0.982768 0.082358 -0.029720 206657.000000 0 0 1
30.015562 -13.640244 21.891950 39.575848 -0.426539 0.984638 0.084526 -0.022039 -222607.000000 0 0 1
29.484802 -14.560244 20.767450 38.892689 -0.458693 1.007510 0.091915 -0.016422 -258540.000000 0 0 1
30.129282 -14.580144 19.544250 38.759927 -0.450701 1.042296 0.093503 -0.016381 -343523.000000 0 0 1
29.412402 -15.477844 18.744450 38.157666 -0.484415 1.057287 0.090691 -0.023029 -28007.800000 0 0 1
30.026142 -15.600744 17.335350 38.019295 -0.479182 1.097344 0.104826 -0.024559 -19329.100000 0 0 1
29.545002 -16.789744 16.586750 37.814322 -0.516767 1.116715 0.092262 -0.025242 1603550.000000 0 0 1
28.120002 -16.987644 16.353950 36.698314 -0.543438 1.108916 0.094024 -0.031319 1601380.000000 0 0 1
27.424302 -15.856244 15.453950 35.246807 -0.524223 1.116923 0.102615 -0.027153 -233360.000000 0 0 1
27.530602 -16.008144 14.054650 34.809882 -0.526681 1.155179 0.113627 -0.032352 160935.000000 0 0 1
26.634502 -16.973444 13.516950 34.354075 -0.567376 1.166404 0.105497 -0.037529 -141120.000000 0 0 1
26.791102 -17.364544 12.018150 34.113435 -0.575071 1.210769 0.100481 -0.028643 -344296.000000 0 0 1
26.224502 -16.420644 11.146150 32.887668 -0.559431 1.225032 0.105687 -0.032398 -140348.000000 0 0 1
26.032602 -16.893444 9.801250 32.544574 -0.575626 1.264883 0.095938 -0.034430 -236587.000000 0 0 1
27.303002 -17.064544 8.943250 33.416079 -0.558604 1.299861 0.101655 -0.034756 -352275.000000 0 0 1
28.064502 -18.154044 9.329250 34.701880 -0.574171 1.298608 0.107906 -0.036645 -410512.000000 0 0 1
29.409402 -18.026344 8.901350 35.624374 -0.549883 1.318254 0.116187 -0.029853 -249193.000000 0 0 1
30.379062 -18.759344 9.813250 37.028371 -0.553194 1.302572 0.121144 -0.036343 -442776.000000 0 0 1
30.346022 -18.327244 11.165350 37.167647 -0.543313 1.265679 0.125289 -0.045033 217944.000000 0 0 1
30.257322 -19.457544 11.969850 37.912780 -0.571487 1.249580 0.131478 -0.040752 -177114.000000 0 0 1
30.370812 -19.134844 13.483750 38.345013 -0.562216 1.211471 0.123974 -0.032827 -16514.900000 0 0 1
30.437132 -20.216144 14.393050 39.271763 -0.586288 1.195553 0.111472 -0.033433 102057.000000 0 0 1
30.680612 -19.727844 15.713650 39.716578 -0.571443 1.164027 0.119284 -0.033412 47851.900000 0 0 1
30.460312 -20.832644 16.812050 40.552123 -0.599857 1.143316 0.102549 -0.025497 -110877.000000 0 0 1
29.142402 -21.304444 16.778850 39.808149 -0.631260 1.135705 0.047148 -0.006764 -462743.000000 0 0 1
28.820202 -22.157244 17.856150 40.501723 -0.655431 1.114224 0.061558 -0.011499 799105.000000 0 0 1
27.358302 -22.749244 17.880450 39.821041 -0.693673 1.105128 0.033283 0.001480 1172260.000000 0 0 1
26.327602 -21.903144 18.406450 38.880429 -0.693919 1.077636 0.044090 -0.005429 -58660.700000 0 0 1
25.153702 -22.674544 18.347350 38.515827 -0.733610 1.074288 0.051782 -0.010933 -344714.000000 0 0 1
23.973402 -22.075444 19.128750 37.788336 -0.744205 1.040014 0.028114 -0.005626 -290191.000000 0 0 1
23.691802 -20.766444 18.773350 36.674042 -0.719693 1.033404 0.032785 -0.006941 507208.000000 0 0 1
22.585902 -20.131644 19.462450 35.974894 -0.728008 0.999170 0.037960 0.001928 911708.000000 0 0 1
22.840602 -19.798544 20.995350 36.803263 -0.714175 0.963712 0.020079 0.002260 -161886.000000 0 0 1
22.999902 -20.926244 21.803350 37.977484 -0.738225 0.959276 0.050374 0.002065 -54559.900000 0 0 1
23.346702 -20.642244 23.179860 38.839112 -0.723995 0.931267 0.041007 -0.005483 163582.000000 0 0 1
23.557902 -21.879344 24.084030 40.171146 -0.748473 0.927876 0.062979 -0.010535 800121.000000 0 0 1
22.319602 -22.540744 24.424820 40.035255 -0.790328 0.914631 0.094434 -0.015325 765023.000000 0 0 1
22.566302 -23.661844 25.285020 41.333438 -0.809092 0.912547 0.096216 -0.005692 -339315.000000 0 0 1
21.338202 -24.283344 25.970030 41.466156 -0.849865 0.894005 0.125425 -0.017609 -383359.000000 0 0 1
20.579702 -25.082744 25.103410 41.022547 -0.883696 0.912283 0.120578 -0.018080 240560.000000 0 0 1
19.560002 -25.763244 25.823340 41.390619 -0.921420 0.897081 0.117827 -0.016792 172371.000000 0 0 1
18.646702 -26.746244 25.071160 41.129358 -0.961972 0.915280 0.122075 -0.023440 398597.000000 0 0 1
17.717202 -26.121144 24.169180 39.753776 -0.974803 0.917293 0.125169 -0.027959 550904.000000 0 0 1
17.092702 -27.071344 23.324750 39.611388 -1.007612 0.941174 0.105868 -0.035083 -296375.000000 0 0 1
16.199302 -26.401344 22.251350 38.138837 -1.020452 0.947850 0.104876 -0.032410 855402.000000 0 0 1
14.898502 -26.030544 22.757150 37.648937 -1.050958 0.921713 0.079418 -0.033141 586953.000000 0 0 1
14.369102 -25.080644 21.867150 36.244752 -1.050530 0.923140 0.057111 -0.032480 174785.000000 0 0 1
12.952502 -24.556644 22.198450 35.546691 -1.085427 0.896322 0.067872 -0.025642 426202.000000 0 0 1
11.913402 -25.497344 22.066850 35.762964 -1.133698 0.905832 0.061227 -0.026454 -798721.000000 0 0 1
10.657802 -25.005844 22.365750 35.200962 -1.167899 0.882305 0.060435 -0.019714 -54192.100000 0 0 1
9.504602 -26.069344 22.317150 35.609034 -1.221184 0.893450 0.056823 -0.026099 441310.000000 0 0 1
9.170902 -26.584544 21.012050 35.104838 -1.238608 0.929105 0.080835 -0.030561 -71550.700000 0 0 1
8.020102 -27.377144 21.088950 35.476384 -1.285821 0.934214 0.084221 -0.030306 -291721.000000 0 0 1
7.657202 -28.293044 19.920650 35.439545 -1.306489 0.973871 0.124719 -0.032332 64076.300000 0 0 1
8.639702 -29.300244 19.773450 36.388708 -1.284054 0.996320 0.111970 -0.040340 297162.000000 0 0 1
8.432102 -30.134144 18.678150 36.442287 -1.297956 1.032655 0.109924 -0.036296 -217041.000000 0 0 1
9.208702 -31.430244 18.708850 37.718450 -1.285784 1.051795 0.095344 -0.028872 -398395.000000 0 0 1
8.696502 -32.365944 19.675750 38.862818 -1.308303 1.039922 0.111881 -0.032753 588230.000000 0 0 1
9.573702 -33.480444 19.701750 40.009434 -1.292280 1.055920 0.084742 -0.030920 110636.000000 0 0 1
9.125702 33.163839 20.675650 40.132296 1.302272 1.029570 0.093596 -0.038540 512247.000000 0 0 1
7.937402 32.463639 20.258150 39.080467 1.331000 1.025852 0.093550 -0.036580 657186.000000 0 0 1
7.917802 31.235339 20.936050 38.427285 1.322537 0.994619 0.097431 -0.048582 -386437.000000 0 0 1
6.842402 30.370639 20.315350 37.174019 1.349200 0.992625 0.110754 -0.046271 589976.000000 0 0 1
5.543402 30.630339 20.893950 37.490054 1.391757 0.979642 0.124984 -0.046885 772854.000000 0 0 1
4.597602 29.638039 20.515950 36.338073 1.416898 0.970865 0.134283 -0.037933 863909.000000 0 0 1
3.193602 29.656139 21.205450 36.597224 1.463522 0.952770 0.129031 -0.035274 444639.000000 0 0 1
3.020202 29.127839 22.499450 36.929364 1.467478 0.915674 0.118639 -0.039380 -1343220.000000 0 0 1
1.767202 28.663339 22.776750 36.653654 1.509221 0.900262 0.109831 -0.027086 -1185980.000000 0 0 1
1.628102 28.217039 24.231130 37.229017 1.513161 0.862071 0.112864 -0.024585 -268368.000000 0 0 1
1.665702 29.209339 25.271860 38.660406 1.513832 0.858348 0.121685 -0.030928 9704.140000 0 0 1
1.510602 28.715239 26.588750 39.163868 1.518238 0.824519 0.109394 -0.026965 -996555.000000 0 0 1
2.619502 27.982539 27.271200 39.161239 1.477456 0.800452 0.085664 -0.031897 -1095430.000000 0 0 1
2.894402 26.716839 26.667040 37.858924 1.462881 0.789248 0.087613 -0.031992 317003.000000 0 0 1
3.668702 25.908739 27.552400 37.998117 1.430131 0.759618 0.051528 -0.019438 4489.160000 0 0 1
4.226902 24.706939 26.754140 36.661745 1.401355 0.752831 0.059086 -0.012429 -539824.000000 0 0 1
3.272202 23.752439 26.453380 35.702479 1.433895 0.736328 0.071189 -0.009690 -602682.000000 0 0 1
3.795902 22.416639 26.462130 34.887805 1.403053 0.709800 0.062945 -0.008659 229487.000000 0 0 1
2.774902 21.325739 26.041210 33.773242 1.441403 0.690292 0.057786 -0.006247 154399.000000 0 0 1
3.307702 20.034439 26.121560 33.085579 1.407172 0.660778 0.060681 -0.005461 306409.000000 0 0 1
4.077302 19.604039 24.959940 31.999084 1.365737 0.676098 0.066487 -0.011624 170338.000000 0 0 1
4.592102 18.179339 25.138540 31.361154 1.323372 0.640860 0.070935 -0.017606 -162955.000000 0 0 1
5.604302 18.062639 26.129950 32.255874 1.269944 0.626502 0.062575 -0.016119 -296781.000000 0 0 1
6.787602 17.671339 25.482720 31.744556 1.204070 0.638915 0.095260 -0.014700 -1180280.000000 0 0 1
7.988902 17.581639 26.416340 32.722464 1.144299 0.631260 0.080614 -0.021930 -298376.000000 0 0 1
8.476602 18.759239 27.070170 34.008175 1.146394 0.650155 0.085582 -0.020456 10952.300000 0 0 1
9.005002 19.749839 26.244120 34.057306 1.143003 0.691035 0.082737 -0.026209 -388430.000000 0 0 1
9.549202 20.989939 27.011510 35.516003 1.143840 0.706645 0.073275 -0.019291 538741.000000 0 0 1
10.764802 20.707439 27.702340 36.222902 1.091394 0.700106 0.088200 -0.039417 96712.800000 0 0 1
11.069302 21.793139 28.540020 37.576630 1.100828 0.708229 0.098510 -0.041754 815995.000000 0 0 1
12.185902 21.479739 29.644620 38.583402 1.054752 0.694575 0.110864 -0.039651 1039680.000000 0 0 1
13.486002 21.539339 29.093150 38.629351 1.011399 0.717980 0.103609 -0.042859 22033.100000 0 0 1
14.494702 21.410239 30.090730 39.672998 0.975675 0.709836 0.098652 -0.034437 383390.000000 0 0 1
15.945702 21.334239 29.587000 39.809619 0.928947 0.732937 0.081262 -0.037195 72686.400000 0 0 1
16.380902 22.600839 29.144850 40.355349 0.943625 0.763811 0.075371 -0.040189 231852.000000 0 0 1
17.721102 22.532339 28.666130 40.539990 0.904357 0.785397 0.107637 -0.026157 400737.000000 0 0 1
-8.404090 16.827439 4.403698 19.317971 -1.107607 1.340816 0.026107 -0.016538 -166946.000000 0 1 0
-8.471890 18.176839 4.803998 20.621562 -1.134650 1.335676 0.038242 -0.019107 992090.000000 0 1 0
-7.175390 18.664939 5.217898 20.666220 -1.203783 1.315549 0.033250 -0.008640 536662.000000 0 1 0
-7.097990 20.184839 5.744998 22.154327 -1.232653 1.308481 0.041053 -0.007080 -184937.000000 0 1 0
-7.391990 21.115639 4.682198 22.856831 -1.234058 1.364487 0.056055 -0.020742 163303.000000 0 1 0
-8.750290 21.217539 4.302398 23.350850 -1.179639 1.385487 0.058397 -0.026694 -108558.000000 0 1 0
-8.884690 22.239639 3.168598 24.157386 -1.190723 1.439252 0.097349 -0.041500 274480.000000 0 1 0
-8.126590 22.038339 1.973698 23.571707 -1.217518 1.486967 0.066084 -0.037317 -185894.000000 0 1 0
-8.608590 21.043439 1.143998 22.764949 -1.182481 1.520523 0.072347 -0.032179 -978169.000000 0 1 0
-7.922690 20.969939 -0.247102 22.418038 -1.209563 1.581819 0.039742 -0.020735 671566.000000 0 1 0
-6.594190 20.463139 -0.228202 21.500593 -1.259056 1.581410 0.034223 -0.016467 536765.000000 0 1 0
-5.609490 21.417239 0.205698 22.140615 -1.314636 1.561506 0.042787 -0.022431 -64444.000000 0 1 0
-4.245090 21.315839 -0.515102 21.740541 -1.374216 1.594492 0.039473 -0.011860 -4657.890000 0 1 0
-4.305890 21.530639 -1.905502 22.039511 -1.373411 1.657363 0.038287 -0.015537 951439.000000 0 1 0
-2.993790 21.604439 -2.513502 21.955233 -1.433100 1.685531 0.039346 -0.004467 950981.000000 0 1 0
-3.034290 21.871139 -4.026602 22.444758 -1.432941 1.751173 0.035992 -0.003005 -591086.000000 0 1 0
-1.813990 22.290939 -4.555102 22.823792 -1.489597 1.771722 0.055210 0.002960 -489638.000000 0 1 0
-1.789990 22.514739 -5.979702 23.363955 -1.491460 1.829613 0.056510 -0.007645 -252334.000000 0 1 0
-0.434690 23.045939 -6.455502 23.936954 -1.551937 1.843865 0.059044 -0.019156 323391.000000 0 1 0
0.655010 22.151639 -6.198702 23.011912 1.541236 1.843534 0.060457 -0.008244 77696.000000 0 1 0
1.862710 22.732239 -6.639602 23.755183 1.489038 1.854071 0.061886 -0.010501 -204397.000000 0 1 0
3.085910 21.821139 -6.525302 22.984006 1.430310 1.858662 0.051144 -0.002578 -246019.000000 0 1 0
3.009210 20.810139 -7.543602 22.338827 1.427189 1.915258 0.048462 -0.011439 -8467.530000 0 1 0
3.918710 19.742939 -7.397202 21.444313 1.374856 1.922981 0.044387 -0.010943 72359.000000 0 1 0
3.647110 18.677839 -8.460602 20.826543 1.377959 1.989133 0.038784 -0.014901 -168870.000000 0 1 0
4.064410 18.928739 -9.766502 21.684122 1.359286 2.038008 0.039162 -0.020977 -212119.000000 0 1 0
3.086110 18.757739 -10.783002 21.855205 1.407732 2.086772 0.040215 -0.020686 -283070.000000 0 1 0
3.600710 18.965139 -12.249602 22.862510 1.383170 2.136244 0.035804 -0.025473 32905.900000 0 1 0
3.912210 20.327739 -12.518402 24.191585 1.380664 2.114687 0.074902 -0.030152 83374.900000 0 1 0
4.253310 20.526839 -13.915402 25.161085 1.366480 2.156820 0.090190 -0.026297 -113092.000000 0 0 1
4.494010 21.982339 -14.456502 26.691006 1.369138 2.143165 0.074024 -0.024538 232014.000000 0 0 1
3.386810 22.811739 -14.761302 27.381416 1.423405 2.140164 0.099532 -0.028642 -379522.000000 0 0 1
3.856710 24.104539 -15.107302 28.707727 1.412142 2.124975 0.082584 -0.030531 -492888.000000 0 0 1
2.844210 25.142139 -15.562802 29.705513 1.458150 2.122223 0.095465 -0.033225 -310038.000000 0 0 1
2.068910 25.507339 -14.400402 29.364542 1.489863 2.083346 0.109491 -0.039763 220406.000000 0 0 1
1.684710 26.850039 -14.459202 30.542288 1.508133 2.063961 0.078425 -0.033769 -959878.000000 0 0 1
0.820810 27.400139 -13.302102 30.469448 1.540849 2.022581 0.090752 -0.035190 628268.000000 0 0 1
-0.600090 27.252239 -13.340302 30.348119 -1.548780 2.025923 0.088933 -0.048695 507338.000000 0 0 1
-1.123390 25.913439 -13.321302 29.158625 -1.527472 2.045254 0.083654 -0.044448 -461626.000000 0 0 1
-0.987490 24.951339 -12.098602 27.747444 -1.531240 2.021974 0.108097 -0.044200 -792146.000000 0 0 1
-1.837390 25.343839 -11.073902 27.718541 -1.498424 1.981781 0.101734 -0.038265 -339469.000000 0 0 1
-2.304290 24.206239 -10.356702 26.429397 -1.475888 1.973452 0.112969 -0.026139 780089.000000 0 0 1
-3.450890 24.425639 -9.286402 26.358258 -1.430444 1.930840 0.087289 -0.025989 634039.000000 0 0 1
-3.033690 24.922539 -8.009202 26.353056 -1.449667 1.879600 0.096197 -0.029279 -195424.000000 0 0 1
-2.697490 26.284139 -7.997902 27.606138 -1.468526 1.864725 0.098165 -0.034635 -52587.800000 0 0 1
-2.490590 26.751439 -6.593202 27.664288 -1.477963 1.811441 0.088941 -0.029896 403448.000000 0 0 1
-1.283190 26.218339 -6.067602 26.941858 -1.521893 1.797956 0.088537 -0.027247 39597.700000 0 0 1
-1.123290 26.480039 -4.630502 26.905312 -1.528402 1.743761 0.093756 -0.038120 182708.000000 0 0 1
-2.123190 25.745139 -3.653402 26.089605 -1.488513 1.711291 0.089395 -0.026099 720192.000000 0 0 1
-3.398290 26.412739 -3.569402 26.868603 -1.442838 1.704037 0.076496 -0.022111 505357.000000 0 0 1
-4.131690 25.997539 -2.437402 26.436411 -1.413188 1.663126 0.065264 -0.010427 -46278.700000 0 0 1
-5.119890 24.836539 -2.701202 25.502224 -1.367501 1.676916 0.055579 -0.013983 -650006.000000 0 0 1
-6.265590 25.170939 -3.436802 26.165730 -1.326833 1.702524 0.044467 -0.009322 118843.000000 0 0 1
-7.220090 24.093039 -3.419502 25.383011 -1.279637 1.705923 0.022599 -0.021766 469951.000000 0 0 1
-8.635490 24.500139 -3.885202 26.266391 -1.231925 1.719256 0.046494 -0.014198 -219126.000000 0 0 1
-9.248390 25.199939 -2.844102 26.993677 -1.219057 1.676354 0.078209 -0.020195 -1437780.000000 0 0 1
-10.490390 25.658439 -3.242902 27.909142 -1.182686 1.687254 0.108073 -0.025175 -779224.000000 0 0 1
-11.308690 26.179739 -2.062802 28.592313 -1.163042 1.643004 0.120516 -0.030404 -132474.000000 0 0 1
-11.909990 25.267939 -1.111602 27.956256 -1.130332 1.610569 0.123744 -0.033903 621373.000000 0 0 1
-10.995690 24.318639 -0.515402 26.693952 -1.146155 1.590105 0.124575 -0.039049 86369.600000 0 0 1
-11.650190 23.009139 -0.100302 25.790647 -1.102099 1.574685 0.100275 -0.040810 -314177.000000 0 0 1
-12.376490 23.080439 1.098598 26.212423 -1.078584 1.528873 0.123279 -0.047545 -152757.000000 0 0 1
-13.166990 21.914339 1.170298 25.592528 -1.029760 1.525052 0.131299 -0.052520 -153519.000000 0 0 1
-14.046190 21.903539 2.442198 26.134743 -1.000579 1.477213 0.142649 -0.060433 -277685.000000 0 0 1
-13.357190 21.845839 3.664098 25.866597 -1.022015 1.428665 0.137453 -0.052075 -33613.800000 0 0 1
-13.042090 23.054239 4.302298 26.834750 -1.055969 1.409776 0.130820 -0.053280 -217712.000000 0 0 1
-12.642890 22.808439 5.729798 26.700153 -1.064652 1.354516 0.120725 -0.047438 -258883.000000 0 0 1
-11.310490 22.376939 5.920698 25.762555 -1.102796 1.338906 0.104527 -0.037615 98326.400000 0 0 1
-11.213590 21.816539 7.212698 25.568125 -1.096016 1.284817 0.073435 -0.037626 -542582.000000 0 0 1
-9.906590 21.966839 7.974098 25.382451 -1.147128 1.251227 0.062122 -0.028192 -733393.000000 0 0 1
-9.753290 23.116239 8.810598 26.591612 -1.171534 1.233083 0.076043 -0.033589 629399.000000 0 0 1
-8.484290 22.976539 9.444498 26.250773 -1.217069 1.202764 0.090291 -0.032627 421807.000000 0 0 1
-8.699090 22.530939 10.950398 26.518458 -1.202334 1.145122 0.081812 -0.037997 -86990.700000 0 0 1
-9.265090 21.241939 11.060998 25.678932 -1.159503 1.125481 0.093979 -0.035101 -16169.800000 0 0 1
-9.223190 20.664039 12.382098 25.795079 -1.150990 1.070121 0.069518 -0.027528 -554313.000000 0 0 1
-10.186490 19.502439 12.692798 25.401119 -1.089454 1.047550 0.063384 -0.025716 -398270.000000 0 0 1
-10.051090 18.315039 11.910998 24.048637 -1.068883 1.052630 0.079234 -0.041246 30553.400000 0 1 0
-10.792490 17.222339 12.419798 23.818862 -1.011007 1.022274 0.078381 -0.038201 -278067.000000 0 1 0
-11.037490 16.057039 11.379798 22.564452 -0.968582 1.042197 0.076666 -0.048394 -220124.000000 0 1 0
-11.274190 14.906039 12.123898 22.277484 -0.923243 0.995335 0.070890 -0.040076 417866.000000 0 1 0
-11.806990 13.835439 11.281898 21.403402 -0.864339 1.015603 0.063702 -0.026230 237460.000000 0 1 0
-12.021090 12.543539 12.035198 21.135112 -0.806663 0.964971 0.056588 -0.035804 160037.000000 0 1 0
-12.861290 12.631239 13.184498 22.333651 -0.776374 0.939314 0.064973 -0.020128 181821.000000 0 1 0
-13.411990 11.379639 13.471298 22.155215 -0.703604 0.917205 0.056032 -0.013182 -309016.000000 0 1 0
-14.399090 11.439339 14.622398 23.494825 -0.671347 0.899033 0.063776 -0.014668 933678.000000 0 1 0
-15.614990 12.211139 14.375898 24.486859 -0.663677 0.943342 0.084944 -0.017713 427540.000000 0 1 0
-16.323190 12.395939 15.513498 25.705534 -0.649494 0.922903 0.069994 -0.007430 -788895.000000 0 0 1
-17.400790 13.464439 15.288098 26.791875 -0.658549 0.963530 0.067857 -0.004868 -317447.000000 0 0 1
-18.595390 12.974939 14.716698 27.031811 -0.609215 0.995097 0.063130 -0.009441 73680.900000 0 0 1
-19.544890 14.017739 14.622698 28.148233 -0.622181 1.024543 0.089069 -0.014623 615489.000000 0 0 1
-20.889690 13.751039 13.871898 28.598947 -0.582166 1.064377 0.080440 -0.014995 596761.000000 0 0 1
-21.773890 12.864339 14.511598 29.157846 -0.533638 1.049862 0.078266 -0.008528 585520.000000 0 0 1
-22.968190 12.625039 13.741798 29.593350 -0.502594 1.087891 0.082512 -0.012245 713425.000000 0 0 1
-23.940290 11.590539 14.346798 30.220998 -0.450882 1.076140 0.094716 -0.018501 13088.900000 0 0 1
-24.680790 12.115339 15.430198 31.527985 -0.456326 1.059380 0.101445 -0.018746 79842.500000 0 0 1
-25.467470 11.120939 16.069698 32.101441 -0.411716 1.046515 0.102636 -0.020201 -577958.000000 0 0 1
-26.263070 11.816739 17.144498 33.515936 -0.422802 1.033829 0.099776 -0.019106 -770438.000000 0 0 1
-27.325570 12.552239 16.613098 34.354629 -0.430609 1.066060 0.113504 -0.012961 -129744.000000 0 0 1
-28.036150 13.234239 17.614798 35.657424 -0.441032 1.054111 0.099813 -0.007035 81859.700000 0 0 1
-29.211530 14.132039 17.188598 36.721600 -0.450590 1.083681 0.095961 -0.012858 199085.000000 0 0 1
-28.764560 15.339739 16.593998 36.579616 -0.489921 1.099950 0.095849 -0.018670 -210054.000000 0 0 1
-29.831550 16.224539 16.404998 37.713141 -0.498126 1.120764 0.095951 -0.017356 -226277.000000 0 0 1
-29.395200 17.720039 16.316898 38.004194 -0.542491 1.127029 0.106480 -0.015001 -225886.000000 0 0 1
-28.859320 18.285239 17.519098 38.394389 -0.564759 1.096971 0.107645 -0.022628 631286.000000 0 0 1
-29.748170 18.445939 18.633898 39.653858 -0.555046 1.081603 0.107229 -0.036305 -294890.000000 0 0 1
-28.872030 18.602639 19.877998 39.683587 -0.572367 1.046144 0.099504 -0.035671 188524.000000 0 0 1
-28.273570 17.499239 20.476198 39.049876 -0.554219 1.018833 0.099757 -0.025468 -587307.000000 0 0 1
-27.158800 16.967339 19.824298 37.662897 -0.558416 1.016481 0.106937 -0.019755 -683002.000000 0 0 1
-26.676390 15.792739 20.632598 37.239018 -0.534525 0.983565 0.104419 -0.012858 27154.900000 0 0 1
-27.693350 14.800739 20.628298 37.570070 -0.490827 0.989555 0.098364 -0.018054 304608.000000 0 0 1
-27.397330 13.624639 21.370098 37.321918 -0.461484 0.961137 0.090764 -0.008295 174625.000000 0 0 1
-28.645970 12.743839 21.715898 38.138921 -0.418583 0.965033 0.093970 -0.020502 539259.000000 0 0 1
-29.434120 12.400439 20.577098 37.994148 -0.398728 0.998474 0.102479 -0.023801 -380353.000000 0 0 1
-30.514060 11.584339 20.883898 38.748445 -0.362832 1.001593 0.133850 -0.026335 -515778.000000 0 0 1
-31.417470 11.223439 19.661898 38.724840 -0.343106 1.038244 0.134550 -0.024480 -309425.000000 0 0 1
-30.853530 10.705039 18.467698 37.517916 -0.333967 1.056139 0.143804 -0.025519 -224479.000000 0 0 1
-30.089540 9.557139 18.668498 36.677406 -0.307546 1.036783 0.150572 -0.024444 -666929.000000 0 0 1
-29.213850 9.177039 17.490698 35.264594 -0.304372 1.051828 0.152828 -0.026753 -435768.000000 0 0 1
-29.872270 8.649339 16.320198 35.121396 -0.281837 1.087524 0.164289 -0.022393 358804.000000 0 0 1
-30.545040 9.589639 15.505798 35.572326 -0.304206 1.119764 0.165569 -0.024011 -584966.000000 0 0 1
-29.707640 10.624139 14.814398 34.855166 -0.343450 1.131804 0.145660 -0.018575 -687773.000000 0 0 1
-29.031480 10.184739 13.672398 33.667346 -0.337403 1.152611 0.163663 -0.027491 275099.000000 0 0 1
-27.975750 11.101739 13.424398 32.956117 -0.377774 1.151255 0.123968 -0.014407 -157325.000000 0 0 1
-27.614400 11.118739 11.879998 32.051767 -0.382783 1.191087 0.167716 -0.019687 -93567.300000 0 0 1
-26.891610 9.967439 11.468098 30.887308 -0.354954 1.190400 0.164393 -0.025170 798627.000000 0 0 1
-27.739670 8.825139 11.268198 31.214494 -0.308016 1.201464 0.182475 -0.028902 49909.200000 0 0 1
-27.059290 7.661639 10.511598 30.023317 -0.275921 1.213103 0.190208 -0.037241 -204293.000000 0 0 1
-26.865070 7.888239 9.131498 29.450646 -0.285597 1.255539 0.194961 -0.028697 362418.000000 0 0 1
-26.224330 6.780839 8.522098 28.395799 -0.253029 1.265980 0.216550 -0.050178 -220597.000000 0 0 1
-25.722300 7.033139 7.058298 27.584802 -0.266902 1.312042 0.197387 -0.037108 -67774.300000 0 0 1
-26.652240 7.650339 6.180098 28.408857 -0.279528 1.351502 0.215972 -0.037386 495441.000000 0 0 1
-25.916530 8.038439 5.024398 27.595789 -0.300758 1.387704 0.201614 -0.033908 103499.000000 0 0 1
-26.787450 8.701539 3.944498 28.440171 -0.314084 1.431653 0.201813 -0.036002 -366374.000000 0 0 1
-27.547550 7.793139 3.145298 28.800927 -0.275694 1.461370 0.222587 -0.039342 415397.000000 0 0 1
-26.946200 6.744739 2.339698 27.875856 -0.245265 1.486765 0.225282 -0.038375 147509.000000 0 0 1
-25.892500 7.111339 1.217898 26.878913 -0.268040 1.525470 0.209235 -0.027235 1380100.000000 0 0 1
-24.630790 7.591639 1.742798 25.833043 -0.298979 1.503281 0.172764 -0.032234 1031920.000000 0 0 1
-23.849190 8.222639 0.772698 25.238714 -0.332014 1.540176 0.178774 -0.017287 -455719.000000 0 0 1
-22.416590 8.530039 1.246498 24.017053 -0.363604 1.518872 0.128768 -0.019284 -243222.000000 0 1 0
-22.377490 9.788739 1.823998 24.492824 -0.412357 1.496257 0.115609 -0.023736 328711.000000 0 1 0
-21.422890 9.803039 2.836198 23.729387 -0.429153 1.450987 0.114057 -0.036634 -670437.000000 0 1 0
-21.453490 11.230939 3.398598 24.452744 -0.482272 1.431359 0.096105 -0.049763 -727064.000000 0 1 0
-21.030190 12.176439 2.497098 24.428877 -0.524834 1.468398 0.135789 -0.046530 178641.000000 0 1 0
-21.248390 13.479639 3.011498 25.342925 -0.565319 1.451685 0.130744 -0.050787 267156.000000 0 0 1
-20.118990 14.144039 3.887398 24.898583 -0.612750 1.414026 0.091490 -0.036613 339683.000000 0 1 0
-19.860390 13.431239 5.075998 24.507122 -0.594630 1.362163 0.094507 -0.039952 485924.000000 0 1 0
-18.978090 14.229739 5.907298 24.444827 -0.643372 1.326722 0.083369 -0.032757 328179.000000 0 1 0
-18.347690 13.470939 7.118798 23.849134 -0.633315 1.267683 0.056799 -0.022890 -511089.000000 0 1 0
-17.370690 12.604639 6.658298 22.471109 -0.627719 1.269975 0.053418 -0.019185 -253249.000000 0 1 0
-16.981290 11.745539 7.650598 22.019390 -0.605117 1.215948 0.053140 -0.020324 -442672.000000 0 1 0
11.130810 -32.000344 -14.154902 36.718908 -1.236052 1.966539 0.061324 -0.027094 -689137.000000 0 0 1
12.343410 -32.038644 -13.453202 36.875779 -1.203056 1.944241 0.045585 -0.027631 -119252.000000 0 0 1
13.103610 -30.875244 -13.708302 36.234001 -1.169430 1.958785 0.048023 -0.040950 822104.000000 0 0 1
14.467810 -30.629244 -12.944002 36.263139 -1.129510 1.935793 0.086485 -0.033073 957668.000000 0 0 1
15.530810 -31.326244 -13.573202 37.506952 -1.110533 1.941085 0.068623 -0.022156 -608399.000000 0 0 1
16.769410 -30.829344 -13.172502 37.485682 -1.072615 1.929863 0.074968 -0.016695 -1141490.000000 0 0 1
17.920510 -31.659644 -13.636002 38.851233 -1.055725 1.929414 0.072303 -0.009255 -855995.000000 0 0 1
18.070910 -32.877044 -12.937802 39.684311 -1.068221 1.902885 0.070452 -0.020868 -103877.000000 0 0 1
18.928610 -33.809844 -13.623302 41.073010 -1.060418 1.908885 0.053084 0.005811 373426.000000 0 0 1
19.060910 32.526539 -13.116802 39.916720 1.040726 1.905622 0.048114 -0.008515 -224853.000000 0 0 1
19.758310 32.381639 -11.924602 39.763772 1.022932 1.875370 0.053120 -0.015367 -292984.000000 0 0 1
19.662310 31.085939 -11.369902 38.499568 1.006811 1.870592 0.037181 -0.017494 -258948.000000 0 0 1
20.413910 30.844739 -10.083102 38.337901 0.986151 1.836933 0.059818 -0.022593 -1229520.000000 0 0 1
21.682210 30.374139 -10.278802 38.708660 0.950843 1.839563 0.049334 -0.022169 -1479250.000000 0 0 1
22.355710 30.129439 -9.090902 38.603179 0.932442 1.808525 0.049765 -0.022053 117168.000000 0 0 1
23.583010 29.190839 -9.346602 38.673278 0.891262 1.814894 0.040414 -0.008662 -7476.750000 0 0 1
24.650810 29.900139 -9.892002 39.994156 0.881331 1.820726 0.054122 -0.013443 82663.600000 0 0 1
25.821910 29.112839 -10.114502 40.207358 0.845233 1.825087 0.047133 0.004121 563552.000000 0 0 1
26.838410 29.650039 -11.139602 41.515248 0.835131 1.842451 0.033235 0.006156 93631.800000 0 0 1
27.400910 30.877339 -10.686202 42.642876 0.844980 1.824094 0.041452 -0.004775 107312.000000 0 0 1
28.513910 31.236739 -11.481902 43.824777 0.830937 1.835886 0.047439 -0.004447 276724.000000 0 0 1
29.105410 32.624839 -11.063802 45.098922 0.842350 1.818649 0.049401 -0.009237 -117114.000000 0 0 1
28.434210 33.729639 -11.665002 45.631844 0.870378 1.829299 0.060658 -0.002128 6336.220000 0 0 1
28.949810 -32.786244 -11.247902 45.161317 -0.847461 1.822506 0.080770 -0.001608 247755.000000 0 0 1
28.007410 -31.519944 -11.447302 43.691677 -0.844337 1.835892 0.070206 -0.007205 277601.000000 0 0 1
26.886110 -31.625344 -10.579602 42.836354 -0.866218 1.820356 0.066516 -0.007621 -665366.000000 0 0 1
25.796410 -30.875044 -11.035502 41.719365 -0.874775 1.838500 0.063363 -0.014998 -198336.000000 0 0 1
25.805210 -29.293944 -10.964502 40.549529 -0.848631 1.844602 0.065374 -0.025533 -532476.000000 0 0 1
26.657910 -28.635344 -11.894302 40.891338 -0.821146 1.865938 0.049265 -0.012864 -61332.200000 0 0 1
27.230610 -27.492444 -11.264902 40.301844 -0.790183 1.854083 0.057267 -0.010930 -18587.300000 0 0 1
28.238610 -26.720544 -12.144602 40.729571 -0.757783 1.873578 0.058774 -0.012938 893049.000000 0 0 1
29.420610 -27.453744 -12.537002 42.148034 -0.750829 1.872819 0.049706 -0.006940 660184.000000 0 0 1
29.214810 -28.382544 -13.613202 42.946399 -0.770949 1.893341 0.048546 -0.006321 -306354.000000 0 0 1
30.531710 -29.049144 -14.065602 44.428361 -0.760520 1.892929 0.054653 -0.001100 189546.000000 0 0 1
30.831210 -30.214644 -13.251402 45.156261 -0.775298 1.868637 0.054723 -0.014813 -87127.300000 0 0 1
31.995910 -30.890744 -13.643502 46.520119 -0.767826 1.868454 0.043657 -0.011921 -692878.000000 0 0 1
32.659710 -31.612844 -12.500002 47.141050 -0.769112 1.839168 0.043017 -0.008737 -433606.000000 0 0 1
33.813710 -32.225944 -13.039902 48.496572 -0.761360 1.843029 0.038640 -0.006767 261363.000000 0 0 1
34.687410 -32.876444 -12.091902 49.297982 -0.758601 1.818607 0.042112 -0.007761 513013.000000 0 0 1
34.162410 33.600139 -11.438802 49.263433 0.777101 1.805132 0.036494 -0.004147 315067.000000 0 0 1
33.216310 33.834139 -10.379702 48.536692 0.794612 1.786314 0.042287 -0.007454 58079.500000 0 0 1
32.738710 32.662139 -9.817702 47.276059 0.784227 1.779986 0.050942 -0.007572 -389361.000000 0 0 1
32.087210 32.964439 -8.466502 46.775261 0.798882 1.752803 0.033211 -0.011683 490795.000000 0 0 1
31.024410 -33.877644 -8.638702 46.742229 -0.829332 1.756681 0.039138 -0.009461 404941.000000 0 0 1
30.298710 -33.598144 -7.432202 45.848498 -0.836989 1.733618 0.047180 -0.011383 894865.000000 0 0 1
29.289910 -32.410244 -7.466902 44.317912 -0.835928 1.740089 0.052513 -0.016213 347001.000000 0 0 1
29.961510 -31.125844 -7.537402 43.855703 -0.804456 1.743522 0.035708 -0.016102 41990.800000 0 0 1
29.124210 -30.056044 -7.805602 42.573616 -0.801143 1.755183 0.045112 -0.014958 75733.800000 0 0 1
27.892610 -29.690544 -6.940902 41.324354 -0.816611 1.739558 0.054775 -0.020122 223638.000000 0 0 1
27.211310 -28.604144 -7.443302 40.175306 -0.810347 1.757144 0.062067 -0.031360 -594946.000000 0 0 1
26.091610 -28.170844 -6.737402 38.984114 -0.823698 1.744493 0.080898 -0.043093 245984.000000 0 0 1
25.076110 -27.194944 -7.466602 37.737599 -0.825911 1.769966 0.117766 -0.051399 -115556.000000 0 0 1
24.204010 -27.939844 -8.247602 37.874687 -0.856921 1.790315 0.132255 -0.049989 -470361.000000 0 0 1
23.384510 -27.054844 -8.970902 36.868374 -0.858037 1.816586 0.142391 -0.051871 -821394.000000 0 0 1
22.190210 -27.724044 -9.621902 36.791426 -0.895814 1.835399 0.124768 -0.044139 -791672.000000 0 0 1
22.462210 -28.636744 -10.703702 37.936568 -0.905650 1.856828 0.124763 -0.041064 390327.000000 0 0 1
21.357310 -29.451144 -11.153702 38.051408 -0.943372 1.868287 0.111469 -0.036570 715385.000000 0 0 1
21.104010 -30.672544 -10.250902 38.616903 -0.968141 1.839468 0.104836 -0.038063 354839.000000 0 0 1
21.998610 -31.741244 -10.585302 40.043651 -0.964743 1.838320 0.086065 -0.026369 153264.000000 0 0 1
21.646110 -33.012344 -10.013702 40.726443 -0.990426 1.819221 0.068820 -0.023869 226547.000000 0 0 1
22.782410 33.728339 -10.188102 41.957556 0.976725 1.816067 0.064438 -0.015995 172237.000000 0 0 1
23.901310 -33.632644 -9.458602 42.330751 -0.952953 1.796144 0.069007 -0.013591 -718587.000000 0 0 1
24.982410 33.300039 -9.634102 42.729725 0.927153 1.798218 0.058528 -0.010479 102967.000000 0 0 1
26.285010 33.614639 -8.836202 43.576648 0.907158 1.774986 0.060491 -0.009875 -80903.800000 0 0 1
26.382110 33.238039 -7.407902 43.077373 0.899889 1.743623 0.065819 -0.024411 -47238.700000 0 0 1
26.485010 31.840939 -7.219702 42.040758 0.876969 1.743383 0.056278 -0.014022 -322281.000000 0 0 1
26.275410 31.558239 -5.723402 41.461753 0.876491 1.709279 0.055063 -0.015583 88684.800000 0 0 1
27.356810 32.092039 -4.945302 42.458805 0.864883 1.687534 0.049133 -0.011881 300016.000000 0 0 1
28.376810 31.159639 -4.670302 42.402573 0.832106 1.681162 0.057747 -0.010892 -160048.000000 0 0 1
28.087910 30.130639 -3.545902 41.344402 0.820471 1.656667 0.073885 -0.001097 -829729.000000 0 0 1
27.863710 30.811939 -2.307802 41.606345 0.835602 1.626292 0.074528 -0.008683 14567.500000 0 0 1
27.564510 29.923339 -1.232502 40.702918 0.826407 1.601081 0.066230 -0.002714 -517863.000000 0 0 1
26.374010 28.946939 -1.333402 39.182798 0.831874 1.604833 0.061060 0.005320 -790832.000000 0 0 1
25.192310 29.611739 -0.965702 38.890104 0.865865 1.595630 0.050387 0.000891 -873493.000000 0 0 1
24.115010 28.790739 -1.327802 37.579296 0.873548 1.606137 0.048606 0.008834 -63694.400000 0 0 1
22.733710 29.307539 -0.869302 37.101336 0.911052 1.594229 0.080680 -0.007047 181538.000000 0 0 1
22.518610 29.086739 0.536298 36.788773 0.911994 1.556218 0.087211 -0.009867 -59514.800000 0 0 1
21.353910 29.798339 0.932098 36.671506 0.949007 1.545376 0.082256 -0.017384 -233266.000000 0 0 1
20.676510 29.171139 2.142098 35.819856 0.954189 1.510959 0.091216 -0.028485 -435043.000000 0 0 1
20.044810 27.949939 1.776698 34.440531 0.948641 1.519186 0.096971 -0.021599 143959.000000 0 0 1
19.266410 27.344139 2.783298 33.565507 0.956996 1.487780 0.115701 -0.025258 -280351.000000 0 0 1
18.772310 26.054239 2.177998 32.186437 0.946438 1.503076 0.110842 -0.014435 252325.000000 0 0 1
19.749410 25.063839 1.766698 31.958668 0.903437 1.515487 0.114064 -0.018903 582961.000000 0 0 1
20.227110 24.251239 2.856098 31.708294 0.875626 1.480600 0.112720 -0.006564 -71226.600000 0 0 1
21.353910 23.267639 2.418898 31.673705 0.828260 1.494353 0.094865 0.000217 114628.000000 0 0 1
20.983010 22.270339 1.460598 30.633121 0.815152 1.523098 0.089410 0.003165 -544656.000000 0 0 1
22.088710 21.563539 1.086698 30.888158 0.773368 1.535607 0.061244 0.002553 -872462.000000 0 0 1
21.885710 20.642339 -0.114502 30.084940 0.756170 1.574602 0.090727 -0.002836 -254577.000000 0 0 1
21.538210 21.289039 -1.358602 30.314411 0.779580 1.615628 0.057986 0.006625 711377.000000 0 0 1
22.123710 20.544239 -2.458702 30.291411 0.748397 1.652054 0.084093 -0.003347 348856.000000 0 0 1
21.894310 21.190839 -3.888402 30.716969 0.769072 1.697725 0.067599 -0.008692 -160300.000000 0 0 1
22.652710 22.357839 -4.027302 32.081731 0.778847 1.696661 0.080658 -0.005055 100287.000000 0 0 1
22.402510 23.067139 -5.250102 32.581114 0.800014 1.732641 0.057771 -0.000137 -169273.000000 0 0 1
23.293010 24.326839 -5.405802 34.111320 0.807105 1.729943 0.054848 0.006041 -149895.000000 0 0 1
23.159010 25.376239 -4.460902 34.643801 0.831049 1.699920 0.048435 0.005783 96547.000000 0 0 1
23.583410 25.191539 -3.098302 34.646650 0.818357 1.660342 0.042919 0.010047 -330877.000000 0 0 1
22.444210 24.787439 -2.170402 33.509258 0.834969 1.635612 0.047732 0.011624 -358972.000000 0 0 1
21.374210 25.751939 -2.119502 33.533737 0.878026 1.634044 0.066886 0.004990 1785970.000000 0 0 1
20.224310 25.361639 -1.325402 32.465246 0.897620 1.611633 0.067222 0.012300 998008.000000 0 0 1
19.363810 24.142039 -1.778702 30.999339 0.894789 1.628207 0.094741 -0.004437 -429772.000000 0 0 1
18.582410 24.447239 -2.952402 30.849476 0.920861 1.666646 0.077214 -0.004798 324641.000000 0 0 1
18.153410 23.274239 -3.676602 29.744814 0.908383 1.694718 0.087041 -0.019052 204402.000000 0 0 1
17.539210 23.657039 -5.031002 29.876251 0.932825 1.739997 0.081720 -0.019313 -100136.000000 0 0 1
17.021110 22.634139 -5.842902 28.916465 0.926010 1.774259 0.071191 -0.023355 125825.000000 0 0 1
16.516010 23.152139 -7.059202 29.302431 0.951154 1.814098 0.067322 -0.021505 297905.000000 0 0 1
15.673510 22.130439 -7.910602 28.248768 0.954566 1.854625 0.092066 -0.023224 310660.000000 0 0 1
16.431010 21.006439 -8.362302 27.949538 0.907010 1.874643 0.085384 -0.023272 644829.000000 0 0 1
15.544210 20.010439 -8.860102 26.842905 0.910360 1.907177 0.119839 -0.033454 134518.000000 0 0 1
16.280310 18.727339 -9.229102 26.475235 0.855184 1.926867 0.109785 -0.035471 62766.200000 0 0 1
17.416110 18.875039 -10.079102 27.589424 0.825577 1.944778 0.125101 -0.027661 561862.000000 0 0 1
18.201910 17.679839 -10.071402 27.300538 0.770849 1.948631 0.122758 -0.031897 282745.000000 0 0 1
19.681210 17.988539 -10.406902 28.622390 0.740494 1.942918 0.101849 -0.030735 -126785.000000 0 0 1
19.835710 18.366039 -11.743002 29.473122 0.746946 1.980602 0.112471 -0.030674 515393.000000 0 0 1
21.210710 18.711839 -11.936102 30.700125 0.722887 1.970121 0.110774 -0.017388 670033.000000 0 0 1
21.562010 19.122539 -13.363702 31.767599 0.725509 2.004981 0.123466 -0.028047 144.330000 0 0 1
21.795810 17.997139 -14.248202 31.653841 0.690226 2.037702 0.114665 -0.021526 88343.800000 0 0 1
21.733010 18.405839 -15.625202 32.484544 0.702696 2.072596 0.117590 -0.024244 86693.200000 0 0 1
21.833110 17.260239 -16.694002 32.454434 0.668954 2.111084 0.106684 -0.027638 119492.000000 0 0 1
23.102610 16.635239 -16.679102 32.994761 0.624062 2.100766 0.123650 -0.029267 30527.000000 0 0 1
23.304310 15.788939 -17.815802 33.313425 0.595473 2.135060 0.110700 -0.029824 179566.000000 0 0 1
24.334810 16.261139 -18.885902 34.832240 0.589081 2.143845 0.106106 -0.022767 -114871.000000 0 0 1
25.669910 16.358539 -18.442102 35.590128 0.567371 2.115518 0.113893 -0.024995 -13862.000000 0 0 1
26.412710 16.783839 -19.572102 36.910645 0.566075 2.129699 0.117506 -0.029382 1176950.000000 0 0 1
27.968010 16.986039 -19.315402 37.997630 0.545798 2.104043 0.089749 -0.023272 1228340.000000 0 0 1
28.242910 18.146539 -18.604602 38.380856 0.571096 2.076858 0.082930 -0.022237 -334837.000000 0 0 1
29.578610 18.241839 -18.189902 39.224118 0.552626 2.053011 0.072350 -0.029231 -303210.000000 0 0 1
29.763910 19.210939 -17.030702 39.306429 0.573166 2.018926 0.082189 -0.032016 579753.000000 0 0 1
28.915010 18.847139 -15.920402 38.009889 0.577648 2.002974 0.065911 -0.025805 473383.000000 0 0 1
27.659310 19.508339 -15.910802 37.400085 0.614280 2.010224 0.067815 -0.020472 174361.000000 0 0 1
26.723210 19.054239 -14.762502 35.987852 0.619412 1.993478 0.069999 -0.017022 -119559.000000 0 0 1
27.265610 19.248639 -13.479002 35.994543 0.614720 1.954625 0.058562 -0.020529 254957.000000 0 0 1
26.347910 18.975039 -12.417802 34.763002 0.624137 1.936079 0.075401 -0.023217 107837.000000 0 0 1
26.835610 19.586839 -11.075802 35.020960 0.630501 1.892583 0.055598 -0.015001 -271204.000000 0 0 1
26.557210 20.981439 -10.970002 35.578746 0.668642 1.884234 0.061087 -0.012799 -11206.300000 0 0 1
26.878610 21.595339 -9.752402 35.831937 0.676835 1.846444 0.046727 -0.005164 -103431.000000 0 0 1
25.985210 21.360339 -8.508602 34.697141 0.688024 1.818548 0.058088 -0.008220 -632247.000000 0 0 1
26.074610 20.084839 -7.972702 33.865175 0.656357 1.808452 0.073723 -0.015077 233730.000000 0 0 1
25.136010 19.854739 -6.920202 32.770702 0.668547 1.783569 0.086873 -0.021805 431867.000000 0 0 1
23.714810 19.456039 -7.413902 31.557814 0.687067 1.807944 0.108373 -0.027191 -433087.000000 0 0 1
23.009610 20.541439 -7.828002 31.822484 0.728786 1.819337 0.089719 -0.012868 2251.370000 0 0 1
21.685710 20.209639 -8.261602 30.772612 0.750180 1.842603 0.070232 -0.013448 1069010.000000 0 0 1
20.580510 21.334839 -8.087702 30.726921 0.803393 1.837147 0.093246 -0.022012 245688.000000 0 0 1
20.660710 22.498339 -8.853302 31.802849 0.827951 1.852904 0.111947 -0.027465 -149613.000000 0 0 1
20.199910 22.383339 -10.174302 31.820853 0.836628 1.896248 0.118322 -0.018926 320308.000000 0 0 1
18.678110 22.677939 -10.334402 31.144191 0.881815 1.909033 0.103951 -0.025958 91357.000000 0 0 1
18.416310 24.071239 -10.039002 31.927521 0.917717 1.890653 0.104035 -0.038547 439330.000000 0 0 1
17.183510 24.580739 -10.551102 31.793262 0.960699 1.909077 0.089837 -0.028903 507205.000000 0 0 1
16.816410 25.989639 -10.081602 32.555978 0.996503 1.885642 0.088080 -0.026844 220988.000000 0 0 1
17.650310 26.916839 -10.748302 33.934874 0.990400 1.893080 0.114984 -0.019801 237344.000000 0 0 1
17.452110 28.092139 -10.037702 34.561538 1.014902 1.865472 0.103173 -0.038240 100889.000000 0 0 1
20.650910 28.922639 33.440855 48.798258 0.950733 0.815797 0.060096 -0.013896 444818.000000 0 0 1
19.262010 29.123439 33.246500 48.213375 0.986454 0.809901 0.074119 -0.031089 -226933.000000 0 0 1
18.525310 27.973739 33.527435 47.432121 0.985865 0.785760 0.066781 -0.029154 -199531.000000 0 0 1
17.022410 28.295539 33.631077 47.132254 1.029206 0.776248 0.087794 -0.040579 -132931.000000 0 0 1
16.476110 28.749639 32.425903 46.362088 1.050399 0.796231 0.090508 -0.044445 -19529.300000 0 0 1
15.165910 29.295539 32.588326 46.370599 1.093100 0.791499 0.110598 -0.054008 352176.000000 0 0 1
14.501210 29.431839 31.210140 45.283453 1.113002 0.810388 0.115406 -0.057732 -261324.000000 0 0 1
14.140910 28.202039 30.620150 43.964917 1.106018 0.800333 0.110509 -0.054589 -540434.000000 0 0 1
12.865410 28.411939 30.086540 43.335401 1.145602 0.803389 0.101596 -0.027824 -576970.000000 0 0 1
12.087710 27.077539 29.892200 42.105220 1.150931 0.781383 0.088373 -0.036842 -125977.000000 0 0 1
12.543710 26.165339 28.924890 40.970952 1.123763 0.786983 0.093491 -0.034473 315531.000000 0 0 1
13.839810 25.578539 29.050280 41.106214 1.074834 0.785955 0.083976 -0.039648 397763.000000 0 0 1
13.995910 24.678239 27.846610 39.753424 1.054892 0.794722 0.085998 -0.028696 -312039.000000 0 0 1
14.020410 25.355239 26.547320 39.296568 1.065684 0.829068 0.067224 -0.033047 89158.900000 0 0 1
14.050210 24.576339 25.341480 37.994677 1.051448 0.840656 0.078905 -0.033716 690909.000000 0 0 1
12.715210 23.749339 25.169540 36.867512 1.079237 0.819342 0.089536 -0.034548 557159.000000 0 0 1
12.619010 22.970439 24.016670 35.548290 1.068446 0.829009 0.104572 -0.039042 685228.000000 0 0 1
11.369210 22.253939 23.990080 34.641315 1.098478 0.805809 0.121239 -0.045232 610590.000000 0 0 1
11.244310 21.628039 22.582650 33.229245 1.091360 0.823577 0.135802 -0.043957 46367.300000 0 0 1
11.102610 22.739339 21.715750 33.345454 1.116588 0.861585 0.129682 -0.050150 28059.400000 0 0 1
11.208510 22.260039 20.363550 32.184068 1.104332 0.885734 0.131337 -0.030462 -440099.000000 0 0 1
10.929110 23.417339 19.356450 32.287604 1.134133 0.927919 0.112835 -0.030869 774228.000000 0 0 1
9.605010 23.932639 19.139650 32.114695 1.189139 0.932313 0.112799 -0.036466 579100.000000 0 0 1
9.030310 24.604139 20.267150 33.131066 1.219037 0.912555 0.106713 -0.036575 -95751.500000 0 0 1
7.587610 25.084939 19.924750 32.921447 1.277069 0.920753 0.108932 -0.037132 490346.000000 0 0 1
7.615210 26.161239 18.939250 33.182783 1.287536 0.963371 0.102656 -0.044607 397448.000000 0 0 1
6.304010 26.627439 18.629850 33.103359 1.338328 0.973053 0.098743 -0.047952 438591.000000 0 0 1
6.413010 27.905239 17.709450 33.666804 1.344905 1.016881 0.111691 -0.038776 12571.200000 0 0 1
6.847810 27.509039 16.464450 32.782890 1.326825 1.044624 0.104233 -0.030223 -247502.000000 0 0 1
7.342810 28.570239 15.730850 33.431050 1.319232 1.080887 0.102626 -0.028638 -24930.200000 0 0 1
8.029610 28.277039 14.388050 32.727383 1.294117 1.115606 0.091207 -0.030182 -39581.300000 0 0 1
7.099810 28.114539 13.346850 31.921357 1.323436 1.139425 0.088269 -0.025006 -158427.000000 0 0 1
6.895410 26.846839 12.832750 30.544704 1.319388 1.137208 0.074341 -0.032548 255354.000000 0 0 1
6.170910 26.827839 11.427350 29.805997 1.344710 1.177331 0.075217 -0.034186 366857.000000 0 0 1
6.944510 27.354639 10.337650 30.056106 1.322179 1.219681 0.061398 -0.029274 357670.000000 0 0 1
7.296610 28.744739 10.385450 31.422256 1.322205 1.233950 0.061480 -0.027671 -210672.000000 0 0 1
7.211210 29.373439 9.003350 31.557262 1.330056 1.281475 0.051551 -0.016551 -582347.000000 0 0 1
5.971510 29.291039 8.387150 31.047838 1.369684 1.297262 0.058192 -0.021964 -889241.000000 0 0 1
5.856510 28.212339 7.470950 29.766590 1.366116 1.317099 0.044898 -0.015755 224353.000000 0 0 1
4.383110 27.914339 7.065850 29.126418 1.415048 1.325759 0.063597 -0.021423 241609.000000 0 0 1
3.864410 28.946639 6.294950 29.874203 1.438080 1.358490 0.066224 -0.015413 -1050890.000000 0 0 1
2.503010 28.756039 6.081450 29.498456 1.483972 1.363146 0.078449 -0.017697 -744118.000000 0 0 1
1.947610 29.774239 5.093350 30.269469 1.505477 1.401725 0.089213 -0.016094 -667594.000000 0 0 1
2.526110 29.692939 3.841150 30.046736 1.485926 1.442606 0.061595 -0.019514 30864.200000 0 0 1
1.818810 30.395239 2.818950 30.579816 1.511029 1.478482 0.050451 -0.020715 1364030.000000 0 0 1
0.484410 29.734339 2.254550 29.823625 1.554506 1.495128 0.103208 -0.020437 1033420.000000 0 0 1
0.820010 28.606439 1.544950 28.659862 1.542139 1.516864 0.100614 -0.026593 557606.000000 0 0 1
-0.311490 27.757239 1.251350 27.787178 -1.559575 1.525748 0.098991 -0.025654 857441.000000 0 0 1
-0.973590 27.935039 -0.147750 27.952391 -1.535959 1.576082 0.096488 -0.025785 442326.000000 0 0 1
-1.806190 29.090339 -0.345650 29.148407 -1.508787 1.582655 0.095411 -0.023624 108877.000000 0 0 1
-1.541790 29.680039 -1.569050 29.761448 -1.518896 1.623542 0.095252 -0.027969 -442026.000000 0 0 1
-2.450090 30.802839 -2.122750 30.972955 -1.491422 1.639386 0.117587 -0.021145 525507.000000 0 0 1
-3.660390 30.342939 -2.768450 30.688055 -1.450742 1.661132 0.098960 -0.023544 704975.000000 0 0 1
-3.585790 29.525739 -3.960050 30.005152 -1.449942 1.703162 0.080855 -0.023242 -346832.000000 0 0 1
-4.978690 29.173539 -4.547450 29.942646 -1.401767 1.723258 0.078560 -0.019987 141744.000000 0 0 1
-5.615190 30.222039 -5.254850 31.185180 -1.387093 1.740109 0.081611 -0.017812 -81654.000000 0 0 1
-6.535490 29.617239 -6.153650 30.947712 -1.353612 1.770971 0.075109 -0.021098 -309381.000000 0 0 1
-7.191090 30.737539 -6.915650 32.316162 -1.340978 1.786464 0.078218 -0.012826 -232906.000000 0 0 1
-8.068990 31.525539 -6.114550 33.111266 -1.320225 1.756529 0.077020 -0.006675 307401.000000 0 0 1
-8.691390 32.605039 -6.855750 34.432981 -1.310288 1.771240 0.068304 -0.017357 -140982.000000 0 0 1
-9.806890 33.227639 -6.054550 35.169713 -1.283802 1.743811 0.068671 -0.020275 -361779.000000 0 0 1
-11.077390 32.611139 -6.104850 34.978053 -1.243344 1.746229 0.073507 -0.018080 -411758.000000 0 0 1
-11.993990 33.426239 -5.412550 35.923042 -1.226286 1.722043 0.075235 -0.016859 -360998.000000 0 0 1
-13.430390 33.071339 -5.798650 36.162317 -1.185039 1.731842 0.098330 -0.020624 -438388.000000 0 0 1
-13.782590 33.423939 -7.113550 36.847281 -1.179683 1.765071 0.087570 -0.016208 697698.000000 0 0 1
-15.187690 33.232839 -7.341850 37.269160 -1.142129 1.769089 0.098201 -0.025388 363826.000000 0 0 1
-15.728090 33.400839 -8.774950 37.947182 -1.130707 1.804150 0.131542 -0.027444 437334.000000 0 0 1
-17.060890 32.958839 -9.043550 38.198755 -1.093135 1.809816 0.163903 -0.032607 896256.000000 0 0 1
-18.021890 -33.811144 -8.775650 39.306411 1.081086 1.795957 0.157458 -0.033951 -703383.000000 0 0 1
-19.493390 33.575039 -8.981650 39.849034 -1.044770 1.798142 0.152686 -0.032802 91483.100000 0 0 1
-20.064790 32.619039 -8.062650 39.135711 -1.019330 1.778300 0.142377 -0.039186 193293.000000 0 0 1
-20.163090 33.208439 -6.752750 39.432858 -1.025123 1.742891 0.130624 -0.045452 -855474.000000 0 0 1
-21.078690 32.366639 -5.838250 39.063995 -0.993545 1.720812 0.132265 -0.041799 -593376.000000 0 0 1
-20.993090 32.815539 -4.489750 39.213866 -1.001675 1.685542 0.130285 -0.046554 1217200.000000 0 0 1
-22.213790 32.732239 -3.704650 39.731302 -0.974542 1.664175 0.130184 -0.044581 756262.000000 0 0 1
-23.307990 33.758739 -3.996750 41.217580 -0.966523 1.667916 0.133395 -0.043597 -619918.000000 0 0 1
-23.825490 33.695539 -5.297650 41.606591 -0.955334 1.698470 0.140309 -0.045771 -352436.000000 0 0 1
-24.834890 -33.152444 -5.416650 41.775547 0.927864 1.700823 0.135252 -0.048156 -570615.000000 0 0 1
-25.554660 -33.017544 -6.759750 42.295307 0.912129 1.731307 0.163111 -0.038386 315616.000000 0 0 1
-24.740890 -32.360544 -7.769650 41.469071 0.918055 1.759270 0.183741 -0.036639 416032.000000 0 0 1
-25.143570 -32.591244 -9.124250 42.162071 0.913688 1.788931 0.133891 -0.026975 -62101.300000 0 0 1
-26.386080 -31.932944 -9.737250 42.552933 0.880225 1.801669 0.120685 -0.023368 -860351.000000 0 0 1
-27.625420 -32.242444 -9.207450 43.445553 0.862366 1.784347 0.135141 -0.013221 -1060170.000000 0 0 1
-28.724730 -31.571344 -9.725650 43.777255 0.832574 1.794828 0.059400 -0.006015 -291270.000000 0 0 1
-28.889180 -30.021944 -9.475850 42.728135 0.804624 1.794426 0.035465 0.005116 -708584.000000 0 0 1
-28.102070 -29.080444 -10.198350 41.706173 0.802506 1.817830 0.053997 0.008210 -199216.000000 0 0 1
-28.250070 -29.035744 -11.640850 42.150329 0.799112 1.850608 0.052754 0.002057 -49091.400000 0 0 1
-27.241720 -28.062444 -12.331350 41.008221 0.800237 1.876227 0.095372 -0.006801 -552446.000000 0 0 1
-25.963870 -28.589144 -12.352550 40.546851 0.833484 1.880366 0.092350 -0.019948 -753219.000000 0 0 1
-25.059050 -27.871044 -13.186750 39.732121 0.838475 1.909104 0.088051 -0.025141 949249.000000 0 0 1
-23.728590 -28.656444 -13.511850 39.582923 0.879192 1.919155 0.106422 -0.034909 585973.000000 0 0 1
-23.943990 -29.835044 -14.329550 40.850710 0.894505 1.929199 0.119049 -0.040596 -81907.700000 0 0 1
-24.382890 -30.952544 -13.578550 41.676879 0.903569 1.902660 0.112892 -0.042935 -130834.000000 0 0 1
-24.087490 -32.331044 -14.239350 42.758188 0.930486 1.910301 0.120354 -0.034323 21601.100000 0 0 1
-24.481190 -33.390944 -13.353050 43.503881 0.938155 1.882772 0.112323 -0.039751 93923.700000 0 0 1
-24.757690 33.211439 -14.030450 43.735528 -0.930209 1.897373 0.119102 -0.038203 -335237.000000 0 0 1
-25.183040 32.129839 -12.991850 42.840404 -0.906018 1.878910 0.099599 -0.031315 -10498.600000 0 0 1
-24.227490 31.538839 -12.121050 41.576309 -0.915762 1.866630 0.095587 -0.025412 78161.900000 0 0 1
-23.687990 32.379539 -11.148950 41.639579 -0.939193 1.841852 0.119700 -0.030059 -317015.000000 0 0 1
-22.977090 31.744339 -9.976450 40.437350 -0.944264 1.820084 0.122901 -0.033157 -261524.000000 0 0 1
-23.809490 30.941239 -9.165050 40.102995 -0.914927 1.801372 0.116951 -0.026825 150837.000000 0 0 1
-23.135590 30.331939 -8.054250 38.989140 -0.919187 1.778871 0.127778 -0.025297 58793.500000 0 0 1
-24.034190 29.344039 -7.271750 38.621151 -0.884548 1.760211 0.116662 -0.030237 209970.000000 0 0 1
-24.566090 28.191039 -7.916750 38.221753 -0.854000 1.779433 0.110913 -0.012274 6793.980000 0 0 1
-25.156380 27.240539 -7.041850 37.742258 -0.825154 1.758473 0.106013 -0.022650 -50050.600000 0 0 1
-24.245190 26.287839 -6.167750 36.289404 -0.825798 1.741585 0.093497 -0.024136 -79796.700000 0 0 1
-23.531990 27.049139 -5.218750 36.230454 -0.854821 1.715342 0.105489 -0.023652 -115449.000000 0 0 1
-22.581090 26.166639 -4.685650 34.879133 -0.858819 1.705543 0.090723 -0.027743 -102968.000000 0 0 1
-21.131490 26.697039 -4.587750 34.355774 -0.901242 1.704733 0.083694 -0.042623 284346.000000 0 0 1
-20.369290 26.926639 -5.778150 34.254035 -0.923165 1.740292 0.099270 -0.037218 1007970.000000 0 0 1
-19.078890 27.497039 -5.455750 33.909533 -0.964208 1.732390 0.097913 -0.036197 897855.000000 0 0 1
-18.112190 27.359539 -6.661450 33.480901 -0.986027 1.771096 0.122631 -0.032620 -477670.000000 0 0 1
-18.471190 27.931339 -7.912650 34.408641 -0.986513 1.802834 0.119367 -0.029699 36540.000000 0 0 1
-18.589690 29.319339 -7.952950 35.615301 -1.005721 1.795997 0.121299 -0.032603 -66827.500000 0 0 1
-18.889790 29.886539 -9.302650 36.559112 -1.007143 1.828080 0.117533 -0.029948 -325209.000000 0 0 1
-17.756090 29.830639 -10.130550 36.163155 -1.033892 1.854731 0.136827 -0.031184 176488.000000 0 0 1
-17.877990 30.674339 -11.228550 37.237319 -1.043096 1.877104 0.118521 -0.030292 520894.000000 0 0 1
-16.436790 31.122039 -11.668250 37.079610 -1.084891 1.890917 0.125056 -0.033543 615122.000000 0 0 1
-16.218390 31.655839 -12.972150 37.860336 -1.097330 1.920513 0.127457 -0.036199 -136936.000000 0 0 1
-16.322990 30.725539 -14.078750 37.532785 -1.082461 1.955307 0.130629 -0.045424 -291488.000000 0 0 1
-15.871090 31.256439 -15.389750 38.284473 -1.100952 1.984479 0.178395 -0.048570 -322966.000000 0 0 1
-14.475290 31.388339 -15.438650 37.856489 -1.138694 1.990862 0.161647 -0.062013 -315904.000000 0 0 1
-14.021290 31.956939 -16.670850 38.675054 -1.157332 2.016452 0.140727 -0.068161 384304.000000 0 0 1
-12.484690 31.958139 -16.884950 38.239923 -1.198370 2.028125 0.157901 -0.071165 235107.000000 0 0 1
-11.923890 30.659739 -17.106150 37.078554 -1.199886 2.050311 0.154398 -0.081470 914954.000000 0 0 1
-10.530890 30.663439 -17.480850 36.833765 -1.239982 2.065292 0.151673 -0.076918 1333550.000000 0 0 1
-10.233690 31.001439 -18.978050 37.762204 -1.251955 2.097362 0.159034 -0.083600 -155972.000000 0 0 1
-11.046190 30.124639 -19.740250 37.672134 -1.219337 2.122339 0.115325 -0.073272 157564.000000 0 0 1
-10.775690 30.156039 -21.133050 38.368060 -1.227605 2.154116 0.119128 -0.081431 -1369210.000000 0 0 1
-11.903190 29.566539 -21.951150 38.700377 -1.188059 2.173908 0.098704 -0.061341 -18879.000000 0 0 1
-13.040890 30.362939 -22.250950 39.838143 -1.165120 2.163413 0.104194 -0.060137 145537.000000 0 0 1
-13.909690 30.432239 -21.137450 39.577676 -1.142078 2.134210 0.094275 -0.053271 -542600.000000 0 0 1
-14.981090 31.560739 -21.292450 40.913100 -1.127613 2.118152 0.138558 -0.060170 293368.000000 0 0 1
-15.877090 31.483839 -22.368350 41.757122 -1.103720 2.136106 0.117826 -0.052516 -168413.000000 0 0 1
-16.438990 32.735039 -22.618750 43.051493 -1.105404 2.123968 0.120818 -0.047884 49042.000000 0 0 1
-17.152490 32.837139 -23.997250 44.140159 -1.089429 2.145588 0.098646 -0.036129 516646.000000 0 0 1
-16.227490 32.744739 -25.098550 44.333809 -1.110695 2.172596 0.117980 -0.043873 503136.000000 0 0 1
-16.874590 32.742439 -26.381750 45.308011 -1.094926 2.192321 0.124522 -0.031223 316572.000000 0 0 1
-17.206990 -33.661544 -26.968350 46.437828 1.098248 2.190435 0.106790 -0.023238 467036.000000 0 0 1
-18.294390 -33.021044 -26.306750 46.012163 1.064870 2.179415 0.093590 -0.017770 565695.000000 0 0 1
-18.941090 -32.011344 -27.122250 46.033764 1.036503 2.200842 0.074404 -0.006382 -33099.300000 0 0 1
-20.416890 -31.674444 -26.947150 46.327839 0.998237 2.191567 0.056394 -0.012688 -4043.870000 0 0 1
-21.295090 -32.760044 -27.210350 47.614120 0.994398 2.179100 0.051947 -0.011336 192917.000000 0 0 1
-22.672290 -32.383344 -27.180250 47.973739 0.959989 2.173128 0.037551 -0.006519 874024.000000 0 0 1
-23.638890 -33.582944 -27.392550 49.365605 0.957461 2.159029 0.011507 0.003632 -396453.000000 0 0 1
-23.798590 33.369939 -26.246450 48.670339 -0.951283 2.140366 0.045724 -0.008635 130799.000000 0 0 1
-24.765290 32.321139 -26.427450 48.542618 -0.916991 2.146491 0.021050 -0.004545 298384.000000 0 0 1
-24.179590 31.154139 -27.243650 47.931716 -0.910782 2.175337 0.021882 -0.006055 -401693.000000 0 0 1
-23.291190 30.280839 -26.586350 46.542913 -0.915137 2.178791 0.023524 -0.028527 -399286.000000 0 0 1
-23.802190 29.357039 -25.638250 45.669463 -0.889515 2.166857 0.029018 -0.021487 -368813.000000 0 0 1
31.937092 10.373339 -26.632602 42.858832 0.314056 2.241328 0.085071 -0.024973 123033.000000 0 0 1
31.707302 8.980639 -26.559582 42.325126 0.276007 2.249152 0.061294 -0.016466 -7753.820000 0 0 1
30.318362 8.744039 -26.530012 41.225027 0.280788 2.269912 0.069470 -0.018820 -48807.500000 0 0 1
29.990622 7.337639 -25.927602 40.317725 0.239951 2.269312 0.060544 -0.013774 -168351.000000 0 0 1
30.108742 7.115239 -24.535402 39.486060 0.232061 2.241285 0.040660 0.001897 97909.400000 0 0 1
29.770272 5.778639 -24.192402 38.793480 0.191724 2.244162 0.037424 0.002910 24118.800000 0 0 1
29.705972 5.546939 -22.662402 37.772977 0.184602 2.214252 0.037081 0.000155 360410.000000 0 0 1
30.981122 5.272139 -22.089002 38.412881 0.168558 2.183451 0.076877 -0.009574 399099.000000 0 0 1
30.868632 5.153839 -20.687702 37.515537 0.165434 2.154890 0.059921 -0.010129 125054.000000 0 0 1
32.170842 4.841739 -19.903202 38.138471 0.149380 2.119834 0.062270 -0.009376 242755.000000 0 0 1
32.694022 3.529539 -20.051202 38.515029 0.107540 2.118358 0.086905 -0.009490 473284.000000 0 0 1
33.650312 3.172339 -19.057602 38.802055 0.093996 2.084205 0.094097 -0.014197 73544.800000 0 0 1
34.196722 1.697939 -19.166402 39.238371 0.049611 2.081121 0.109667 -0.017292 279539.000000 0 0 1
33.459212 0.634439 -18.515902 38.246046 0.018959 2.076160 0.108268 -0.015681 -103251.000000 0 0 1
34.062982 -0.580861 -18.728002 38.876242 -0.017051 2.073429 0.117607 -0.013066 -361497.000000 0 0 1
33.160682 -1.852861 -18.536802 38.035207 -0.055817 2.079859 0.094107 -0.008178 234447.000000 0 0 1
32.743822 -2.079261 -17.226902 37.057352 -0.063416 2.054286 0.091531 -0.007271 273316.000000 0 0 1
31.433702 -1.551961 -17.025302 35.781938 -0.049332 2.066678 0.080900 -0.019256 281478.000000 0 0 1
30.851212 -1.763361 -15.582902 34.608288 -0.057095 2.037858 0.095012 -0.017860 -58090.600000 0 0 1
30.718232 -3.186761 -15.194402 34.418528 -0.103372 2.028021 0.085815 -0.022988 511122.000000 0 0 1
29.949812 -3.355861 -14.003202 33.231652 -0.111584 2.005764 0.092471 -0.026783 -10692.800000 0 0 1
29.837262 -4.801061 -13.511102 33.103811 -0.159541 1.991216 0.094774 -0.029776 -480793.000000 0 0 1
29.059602 -5.591061 -14.315102 32.873129 -0.190077 2.021351 0.069783 -0.032318 -24322.500000 0 0 1
28.857002 -6.879961 -13.735502 32.691351 -0.234046 2.004415 0.078015 -0.031368 -440996.000000 0 0 1
28.152602 -7.876361 -14.618302 32.684871 -0.272799 2.034484 0.056475 -0.025401 -668839.000000 0 0 1
26.907802 -7.398361 -15.043302 31.702784 -0.268322 2.065204 0.086599 -0.030084 -191560.000000 0 0 1
26.298602 -8.330261 -15.939802 31.860430 -0.306758 2.094743 0.077845 -0.025296 -443053.000000 0 0 1
24.885902 -7.940461 -16.355302 30.819717 -0.308863 2.130195 0.074417 -0.022435 -716843.000000 0 0 1
24.835802 -6.783661 -17.154102 30.937006 -0.266637 2.158540 0.061140 -0.018031 589240.000000 0 0 1
23.521502 -6.438661 -17.625502 30.089462 -0.267190 2.196626 0.095418 -0.021690 702561.000000 0 0 1
23.253602 -7.066761 -18.996402 30.846919 -0.295031 2.234233 0.073920 -0.012048 -357529.000000 0 0 1
23.682702 -6.303561 -20.045302 31.661007 -0.260136 2.256377 0.062954 -0.018428 41228.300000 0 0 1
23.693502 -6.891661 -21.291402 32.591423 -0.283057 2.282708 0.079687 -0.021666 96903.800000 0 0 1
24.346702 -5.896361 -22.307502 33.543309 -0.237608 2.298338 0.077904 -0.026463 32028.600000 0 0 1
24.183002 -6.332261 -23.644802 34.409181 -0.256098 2.328377 0.086782 -0.033928 143444.000000 0 0 1
24.476002 -5.265761 -24.502602 35.031135 -0.211910 2.345427 0.076111 -0.028625 -319334.000000 0 0 1
24.368402 -5.690861 -25.963052 36.059464 -0.229423 2.374608 0.097625 -0.036561 -676222.000000 0 0 1
23.099602 -6.039961 -26.411712 35.604091 -0.255749 2.406572 0.098140 -0.033573 -722023.000000 0 0 1
23.090302 -6.180961 -27.807242 36.668911 -0.261554 2.431548 0.094193 -0.038892 447457.000000 0 0 1
21.774102 -6.769461 -28.394892 36.417125 -0.301422 2.465003 0.078521 -0.041766 507449.000000 0 0 1
21.691302 -8.154461 -28.140292 36.453859 -0.359588 2.452688 0.071447 -0.034808 -410698.000000 0 0 1
20.435102 -8.631461 -28.493162 36.110328 -0.399653 2.480071 0.069103 -0.040817 -473405.000000 0 0 1
20.358002 -10.159561 -28.303512 36.314649 -0.462883 2.464498 0.089919 -0.022452 -761452.000000 0 0 1
19.031702 -10.549761 -28.192892 35.613793 -0.506158 2.484266 0.105485 -0.018371 -514029.000000 0 0 1
18.915102 -11.786761 -27.578412 35.458111 -0.557261 2.461913 0.105149 -0.025884 -137080.000000 0 0 1
19.004702 -13.060061 -28.512862 36.670522 -0.602085 2.461543 0.092025 -0.015731 -919771.000000 0 0 1
17.816602 -13.384761 -29.123542 36.671021 -0.644302 2.488460 0.093563 -0.013592 -890498.000000 0 0 1
17.917002 -14.460761 -30.047292 37.854621 -0.679053 2.487754 0.066998 -0.014316 -205604.000000 0 0 1
16.668502 -14.815961 -30.897842 38.105489 -0.726626 2.516400 0.063204 -0.013678 -111742.000000 0 0 1
15.651902 -15.378461 -30.108972 37.256265 -0.776586 2.511815 0.047113 -0.014310 -359904.000000 0 0 1
14.659302 -15.964261 -30.906092 37.748368 -0.827985 2.530009 0.053188 -0.019325 -313219.000000 0 0 1
13.558502 -16.588661 -30.010612 36.873479 -0.885574 2.521596 0.064825 -0.030694 -254487.000000 0 0 1
13.886202 -17.700661 -29.232992 36.887773 -0.905577 2.485668 0.059491 -0.025883 -7892.960000 0 0 1
12.850702 -18.073861 -28.310292 35.962169 -0.952719 2.477091 0.064235 -0.030500 253607.000000 0 0 1
13.086302 -19.307961 -27.451932 36.023009 -0.975148 2.437295 0.066774 -0.036297 -400826.000000 0 0 1
14.091002 -19.133761 -26.516282 35.605763 -0.936026 2.410910 0.068996 -0.034340 -722607.000000 0 0 1
14.377402 -20.338361 -25.865662 35.908092 -0.955447 2.375074 0.067715 -0.027011 -431045.000000 0 0 1
15.446402 -20.225361 -24.771502 35.514558 -0.918576 2.342703 0.065756 -0.020387 179140.000000 0 0 1
16.753302 -20.557861 -25.236972 36.608790 -0.887015 2.331414 0.069659 -0.018336 -94821.000000 0 0 1
17.684302 -20.595461 -24.210102 36.373570 -0.861302 2.299088 0.062436 -0.012751 -217603.000000 0 0 1
19.084102 -21.037861 -24.760402 37.681189 -0.834055 2.287765 0.056768 -0.012896 228984.000000 0 0 1
19.240802 -22.374161 -25.106302 38.744521 -0.860550 2.275747 0.072397 -0.023431 170203.000000 0 0 1
19.076802 -23.276461 -24.030902 38.512365 -0.884233 2.244620 0.068835 -0.035412 -915580.000000 0 0 1
19.754502 -24.610261 -24.272002 39.812502 -0.894415 2.226425 0.064440 -0.033015 -752036.000000 0 0 1
21.130102 -24.532561 -24.021302 40.315638 -0.859774 2.209096 0.071509 -0.032853 -365491.000000 0 0 1
21.620602 -25.681811 -23.329002 40.880902 -0.871044 2.178103 0.077157 -0.046875 -77692.600000 0 0 1
21.487102 -25.662301 -21.748402 39.915438 -0.873720 2.147021 0.086321 -0.033811 -44512.100000 0 0 1
20.149202 -25.584381 -21.272702 38.898313 -0.903688 2.149429 0.075290 -0.030530 378688.000000 0 0 1
20.248502 -25.941571 -19.896502 38.455659 -0.908033 2.114592 0.075599 -0.031541 406467.000000 0 0 1
18.969902 -26.605211 -19.309702 37.954697 -0.951389 2.104536 0.065797 -0.028024 -420704.000000 0 0 1
18.664002 -27.864951 -19.840802 38.967395 -0.980626 2.105010 0.058876 -0.022358 -265677.000000 0 0 1
17.767802 -28.561681 -19.007502 38.636117 -1.014296 2.085138 0.048574 -0.012713 -118443.000000 0 0 1
16.299402 -28.266461 -19.365802 37.943347 -1.047735 2.106431 0.059331 -0.018464 -794875.000000 0 0 1
15.677202 -27.165501 -18.718102 36.525422 -1.047385 2.108852 0.061747 -0.021398 315665.000000 0 0 1
14.472802 -26.841641 -19.428002 36.157750 -1.076289 2.138043 0.053519 -0.009212 584798.000000 0 0 1
13.455602 -26.020091 -18.631002 34.716172 -1.093544 2.137278 0.050227 -0.019220 -110468.000000 0 0 1
12.584702 -26.649971 -17.706902 34.382118 -1.129617 2.111808 0.049584 -0.020321 205977.000000 0 0 1
11.768702 -25.709021 -17.024502 33.004390 -1.141503 2.112767 0.070747 -0.028442 213995.000000 0 0 1
10.243802 -25.800061 -17.252902 32.683960 -1.192839 2.126888 0.084094 -0.020403 -155927.000000 0 0 1
9.607902 -26.699251 -16.342902 32.745262 -1.225368 2.093347 0.093098 -0.022615 957570.000000 0 0 1
8.169102 -26.639981 -16.312802 32.288238 -1.273251 2.100438 0.088367 -0.012887 1477180.000000 0 0 1
7.390302 -27.419781 -17.426102 33.318613 -1.307528 2.121180 0.092734 -0.009596 -103471.000000 0 0 1
7.547602 -26.892441 -18.712202 33.620175 -1.297177 2.161056 0.097881 -0.006773 -195394.000000 0 0 1
7.005002 -27.686101 -19.739802 34.716710 -1.322982 2.175595 0.093310 -0.005882 -31380.000000 0 0 1
6.967602 -27.142201 -21.164802 35.116881 -1.319515 2.217672 0.076245 -0.005289 153162.000000 0 0 1
6.013202 -26.073511 -21.306502 34.204584 -1.344134 2.243258 0.082196 -0.010085 311521.000000 0 0 1
6.108702 -25.433001 -22.531202 34.522584 -1.335074 2.281875 0.058586 -0.005461 -682801.000000 0 0 1
4.857302 -24.655061 -22.925002 34.015013 -1.376277 2.310362 0.040213 -0.004402 582532.000000 0 0 1
3.764702 -25.600851 -23.137002 34.711632 -1.424789 2.300366 0.042758 -0.001274 1124420.000000 0 0 1
2.605802 -25.065401 -23.754702 34.631638 -1.467208 2.326670 0.045745 -0.003733 942852.000000 0 0 1
1.519802 -25.997001 -24.356202 35.656393 -1.512402 2.322769 0.022645 -0.003536 488150.000000 0 0 1
1.977502 -26.567781 -25.594042 36.943368 -1.496501 2.336149 0.019791 -0.003863 -53033.900000 0 0 1
1.040002 -27.422211 -26.143782 37.901933 -1.532889 2.331974 0.040629 -0.011147 -97357.900000 0 0 1
1.726102 -28.343661 -27.211502 39.329484 -1.509972 2.334894 0.027885 -0.012881 82822.700000 0 0 1
2.491702 -27.677591 -28.209432 39.598354 -1.481012 2.363693 0.018797 -0.017457 126415.000000 0 0 1
2.682102 -28.582401 -29.297602 41.018249 -1.477233 2.366359 0.024404 -0.014700 -158846.000000 0 0 1
4.120202 -29.119441 -29.327572 41.533412 -1.430236 2.354800 0.027971 -0.011047 -367068.000000 0 0 1
4.403102 -30.078681 -28.297382 41.531387 -1.425443 2.320401 0.025816 -0.018272 -116988.000000 0 0 1
5.678802 -30.665991 -28.446142 42.211784 -1.387688 2.310259 0.055284 -0.023191 224569.000000 0 0 1
5.995602 -31.768021 -27.464902 42.420222 -1.384260 2.275028 0.074858 -0.030645 -642287.000000 0 0 1
5.129202 -32.802871 -27.642282 43.202231 -1.415688 2.265079 0.072134 -0.040296 -338718.000000 0 0 1
5.500802 33.884273 -26.889692 43.605714 1.409859 2.235283 0.084291 -0.051735 -741310.000000 0 0 1
4.223902 33.135738 -26.614672 42.710177 1.444007 2.243555 0.102460 -0.053993 -1038780.000000 0 0 1
3.662402 32.542487 -27.763582 42.933007 1.458726 2.274010 0.088633 -0.051795 -90644.300000 0 0 1
2.441702 31.977008 -27.336922 42.140221 1.494586 2.276689 0.062343 -0.048559 221428.000000 0 0 1
1.345602 32.039200 -28.468202 42.880759 1.528822 2.296808 0.071155 -0.034822 191273.000000 0 0 1
1.183302 30.976283 -29.426792 42.741857 1.532615 2.330184 0.090804 -0.042140 248408.000000 0 0 1
0.131902 31.327693 -30.315822 43.594618 1.566586 2.339777 0.087397 -0.041503 219888.000000 0 0 1
-0.027898 30.229263 -31.420232 43.600918 -1.569873 2.375510 0.087520 -0.041027 -145859.000000 0 0 1
0.974702 30.335963 -32.405132 44.399473 1.538677 2.388905 0.093806 -0.040506 109577.000000 0 0 1
0.686302 29.396463 -33.430162 44.521890 1.547454 2.420175 0.117940 -0.044122 134893.000000 0 0 1
1.951302 29.054283 33.544859 44.420901 1.503736 0.714899 0.097697 -0.035524 298587.000000 0 0 1
2.549702 30.127403 32.824436 44.627402 1.486367 0.744359 0.093160 -0.039370 513309.000000 0 0 1
3.746802 29.828023 32.095757 43.975983 1.445837 0.752698 0.074226 -0.038693 202650.000000 0 0 1
3.609802 28.850663 30.863140 42.401944 1.446323 0.755584 0.081015 -0.033401 -495767.000000 0 0 1
3.191902 27.544113 31.239580 41.770537 1.455428 0.725925 0.082858 -0.028418 80825.200000 0 0 1
4.252302 26.607693 31.350000 41.338528 1.412322 0.709984 0.081642 -0.021063 -407094.000000 0 0 1
3.757202 25.245963 31.788082 40.767111 1.423057 0.676533 0.071353 -0.022793 -12227.100000 0 0 1
3.021502 24.655463 30.715420 39.502637 1.448855 0.680030 0.073646 -0.015987 196878.000000 0 0 1
3.123602 23.255113 30.727900 38.662139 1.437277 0.652151 0.068477 -0.010943 -72800.600000 0 0 1
2.260302 22.476623 29.688390 37.305603 1.470571 0.650443 0.064052 -0.004886 336408.000000 0 0 1
0.907902 22.360123 30.098300 37.506093 1.530215 0.639338 0.063044 -0.008103 242427.000000 0 0 1
0.079602 21.821623 29.071650 36.350384 1.567148 0.643898 0.070415 -0.003437 -147751.000000 0 0 1
-1.296098 21.322123 29.497240 36.419774 -1.510085 0.626774 0.065487 -0.000516 -996771.000000 0 0 1
-2.165998 22.314923 29.855010 37.335893 -1.474034 0.644113 0.078088 -0.004614 -161017.000000 0 0 1
-3.468098 21.794723 30.113030 37.334062 -1.412994 0.632447 0.056143 -0.004943 635546.000000 0 0 1
-4.459598 22.922903 30.556710 38.458549 -1.378649 0.652553 0.044713 -0.013806 121129.000000 0 0 1
-4.325798 23.394343 31.878430 39.777407 -1.387954 0.641130 0.058975 -0.013869 -108588.000000 0 0 1
-5.144898 24.513763 32.108207 40.722616 -1.363921 0.662493 0.057432 -0.016789 62151.700000 0 0 1
-5.434698 24.844423 33.586631 42.128886 -1.355439 0.648095 0.076404 -0.014374 372920.000000 0 0 1
-6.707498 25.474543 33.711720 42.783442 -1.313338 0.663305 0.075353 -0.010967 419390.000000 0 0 1
-6.874998 25.994173 -32.795552 42.408853 -1.312234 2.454855 0.077938 -0.016800 374771.000000 0 0 1
-8.301698 26.541133 -32.493392 42.768802 -1.267651 2.433717 0.108898 -0.011590 129377.000000 0 0 1
-8.582198 27.889773 -32.916232 43.988315 -1.272274 2.416284 0.108940 -0.018333 745258.000000 0 0 1
-9.845898 28.380793 -32.420772 44.198614 -1.236867 2.394290 0.102964 -0.017462 849609.000000 0 0 1
-9.932898 28.676233 -30.931222 43.332773 -1.237349 2.365715 0.104066 -0.020884 116594.000000 0 0 1
-9.080798 29.785493 -30.546352 43.620134 -1.274875 2.346587 0.119108 -0.022070 536106.000000 0 0 1
-9.015998 29.937853 -29.123792 42.728895 -1.278278 2.320736 0.132735 -0.030746 69750.200000 0 0 1
-8.555398 31.367973 -28.680632 43.355774 -1.304530 2.293638 0.116321 -0.037936 807981.000000 0 0 1
-7.146398 31.480323 -28.908022 43.333075 -1.347568 2.301122 0.098500 -0.036270 255858.000000 0 0 1
-6.601498 32.692596 -28.547512 43.901549 -1.371549 2.278726 0.109649 -0.034679 -75958.600000 0 0 1
-5.063698 32.565436 -28.377712 43.490725 -1.416539 2.281676 0.113894 -0.037830 39762.600000 0 0 1
-4.329598 33.735996 -28.065812 44.097081 -1.443156 2.260690 0.118302 -0.039606 133047.000000 0 0 1
-4.153498 -33.058811 -29.083482 44.226524 1.445812 2.288429 0.125556 -0.044331 -194015.000000 0 0 1
-3.228098 -33.407281 -30.295012 45.213435 1.474467 2.305065 0.118188 -0.052999 -216069.000000 0 0 1
-3.729398 33.435817 -31.211312 45.891265 -1.459716 2.318715 0.113668 -0.039599 -52006.500000 0 0 1
-4.605398 -33.872461 -32.220242 46.975496 1.435662 2.326629 0.123455 -0.040189 -240200.000000 0 0 1
-4.209498 -32.749541 -33.162142 46.797221 1.442961 2.358358 0.094257 -0.047128 -826491.000000 0 0 1
-4.116198 -31.462841 -32.623642 45.509948 1.440708 2.370065 0.089759 -0.048241 1036380.000000 0 0 1
-3.314798 -30.643761 -33.576352 45.578496 1.463043 2.398931 0.079581 -0.053582 777210.000000 0 0 1
33.633162 18.453139 12.708550 40.413057 0.501813 1.250902 0.117246 -0.039092 509651.000000 0 0 1
34.938792 18.054239 13.147450 41.467219 0.476949 1.248172 0.111315 -0.040284 513786.000000 0 0 1
35.043572 16.742139 13.634750 41.161361 0.445691 1.233167 0.116485 -0.022242 -834105.000000 0 0 1
36.412902 16.336839 14.212550 42.364943 0.421735 1.228683 0.099463 -0.034584 495702.000000 0 0 1
-37.301130 15.947739 13.289150 42.688478 -0.404020 1.254230 0.085722 -0.008668 365890.000000 0 0 1
37.131422 14.716139 12.737750 41.923234 0.377335 1.262081 0.121548 -0.030134 -1272970.000000 0 0 1
-36.378340 13.905139 12.371850 40.863176 -0.365100 1.263206 0.136805 -0.022269 -409167.000000 0 0 1
-35.680740 13.202139 13.392450 40.333229 -0.354386 1.232325 0.134246 -0.026054 137271.000000 0 0 1
-36.421440 12.100839 13.925850 40.827452 -0.320771 1.222720 0.135050 -0.024428 122325.000000 0 0 1
-35.745098 11.388639 15.155450 40.461102 -0.308439 1.186865 0.179522 -0.037814 105228.000000 0 0 1
-35.796417 12.114439 16.367950 41.183162 -0.326327 1.162068 0.177964 -0.027457 299708.000000 0 0 1
-34.859893 11.667439 17.338250 40.644264 -0.322976 1.130082 0.165197 -0.022071 134126.000000 0 0 1
-34.709376 12.686039 18.523250 41.337479 -0.350410 1.106159 0.159677 -0.029181 340250.000000 0 0 1
-35.864784 12.697839 19.365650 42.691290 -0.340276 1.099972 0.166927 -0.041794 536741.000000 0 0 1
-35.713609 13.639139 20.436650 43.349102 -0.364809 1.079870 0.162806 -0.040576 63417.900000 0 0 1
-36.960740 13.712439 21.346850 44.830963 -0.355259 1.074510 0.168733 -0.057223 -72643.800000 0 0 1
37.323672 12.515939 21.842050 45.019778 0.323551 1.064244 0.143947 -0.047452 -129284.000000 0 0 1
36.061582 12.725439 22.436850 44.337194 0.339239 1.040197 0.146372 -0.043243 -19396.500000 0 0 1
35.563762 11.417839 23.104370 43.919929 0.310658 1.016839 0.124872 -0.030537 -57682.900000 0 0 1
36.161292 11.035639 24.359130 44.975456 0.296201 0.998446 0.120770 -0.022135 -161921.000000 0 0 1
35.950142 11.959039 25.471430 45.653314 0.321141 0.978905 0.108294 -0.014214 -1972810.000000 0 0 1
37.103782 11.969539 26.458050 47.116759 0.312056 0.974548 0.098692 -0.010765 328418.000000 0 0 1
-36.467940 12.612439 25.920960 46.485271 -0.332973 0.979284 0.137653 -0.027116 134759.000000 0 0 1
-35.701150 11.798739 25.066950 45.189980 -0.319186 0.982792 0.131859 -0.033319 -1209630.000000 0 0 1
-34.427983 12.523939 24.529950 44.089154 -0.348891 0.980784 0.132683 -0.043560 348063.000000 0 0 1
-33.347160 12.901739 25.328570 43.818083 -0.369155 0.954473 0.114862 -0.039174 -176549.000000 0 0 1
-33.717410 13.730739 26.455380 45.003156 -0.386724 0.942390 0.102312 -0.033748 -1017200.000000 0 0 1
-32.585490 14.486339 27.166120 44.829301 -0.418324 0.919786 0.092158 -0.021921 -204599.000000 0 0 1
-32.206700 15.709939 26.489690 44.562062 -0.453828 0.934221 0.114196 -0.026696 74505.000000 0 0 1
-31.584550 16.561539 27.433370 44.993979 -0.482942 0.915099 0.101272 -0.019468 20784.600000 0 0 1
-30.848450 17.750139 26.786440 44.544446 -0.522133 0.925617 0.089026 -0.008541 540407.000000 0 0 1
-31.819150 18.580139 26.110190 45.159959 -0.528519 0.954311 0.069908 -0.027513 1004480.000000 0 0 1
-31.187420 19.595639 25.378970 44.729591 -0.560982 0.967468 0.068320 -0.032474 -294511.000000 0 0 1
-32.250560 20.512539 24.774030 45.547946 -0.566496 0.995705 0.078695 -0.014209 -267112.000000 0 0 1
-32.959310 21.230939 25.773170 46.918282 -0.572256 0.989246 0.066298 -0.021923 426757.000000 0 0 1
-33.955560 22.107639 25.262510 47.748530 -0.577131 1.013287 0.076057 -0.017621 -153380.000000 0 0 1
-33.543640 23.563039 25.152440 48.094052 -0.612375 1.020448 0.083502 -0.025661 -139929.000000 0 0 1
-34.572903 24.385239 24.613860 48.946579 -0.614293 1.043878 0.108773 -0.024518 287707.000000 0 0 1
-34.277181 25.772739 24.657840 49.468862 -0.644711 1.048984 0.098964 -0.022497 200339.000000 0 0 1
-35.346755 26.482139 23.793500 50.167992 -0.642995 1.076654 0.112271 -0.023480 313974.000000 0 0 1
-35.244328 26.095439 22.386450 49.237056 -0.637339 1.098798 0.120696 -0.026490 514375.000000 0 0 1
-36.429610 26.489339 21.684550 49.990212 -0.628708 1.122117 0.122719 -0.027653 681487.000000 0 0 1
-36.355180 26.071739 20.206450 49.089055 -0.622137 1.146556 0.154531 -0.040378 108947.000000 0 0 1
-36.380220 24.682139 19.947450 48.276590 -0.596116 1.144841 0.148928 -0.041057 212466.000000 0 0 1
-35.715795 24.469239 18.710750 47.164116 -0.600662 1.162860 0.159072 -0.044712 12742.300000 0 0 1
-36.178990 23.159439 17.996450 46.574147 -0.569409 1.174066 0.151079 -0.040688 392045.000000 0 0 1
37.279692 23.300339 17.397850 47.279662 0.558610 1.193963 0.145532 -0.043682 70741.000000 0 0 1
37.242192 22.358639 16.319650 46.402808 0.540683 1.211415 0.126147 -0.041121 -124155.000000 0 0 1
35.941532 22.537639 15.492150 45.163543 0.560082 1.220663 0.122595 -0.040503 516375.000000 0 0 1
34.884392 21.927339 16.244450 44.290080 0.561164 1.195257 0.141402 -0.049594 136335.000000 0 0 1
33.797252 21.616739 15.403850 42.974601 0.569030 1.204199 0.138739 -0.044751 -722436.000000 0 0 1
32.747552 20.545539 15.821950 41.771467 0.560317 1.182325 0.137071 -0.045284 608006.000000 0 0 1
31.865092 20.929039 16.880550 41.693666 0.581142 1.153959 0.130814 -0.037189 91932.000000 0 0 1
30.854682 21.767239 16.388150 41.163037 0.614392 1.161321 0.123241 -0.028256 -1166420.000000 0 0 1
30.022982 22.456339 17.440850 41.350331 0.642202 1.135386 0.112097 -0.019083 -361054.000000 0 0 1
30.789122 23.364639 18.176450 42.711354 0.649148 1.131210 0.073463 -0.016451 -277190.000000 0 0 1
30.059672 24.139739 19.099850 43.024588 0.676604 1.110818 0.055643 0.001862 208493.000000 0 0 1
31.024292 24.646839 20.180650 44.466078 0.671340 1.099722 0.060005 -0.013682 241355.000000 0 0 1
31.749792 25.806039 19.889950 45.492979 0.682494 1.118303 0.078225 -0.018446 623633.000000 0 0 1
32.739382 26.128639 20.922450 46.822237 0.673569 1.107557 0.076961 -0.020383 404040.000000 0 0 1
33.696982 27.235339 20.476550 47.922223 0.679747 1.129306 0.093924 -0.024056 102126.000000 0 0 1
34.719932 27.613639 21.411750 49.259008 0.671884 1.121117 0.082065 -0.016007 701232.000000 0 0 1
34.274202 28.360339 22.548450 49.874466 0.691259 1.101673 0.049899 -0.005668 -987625.000000 0 0 1
35.304512 28.276639 23.636460 51.035862 0.675311 1.089268 0.028458 -0.008830 -194982.000000 0 0 1
36.458892 29.046439 23.319190 52.122271 0.672719 1.106947 0.073312 -0.018370 -172299.000000 0 0 1
37.065442 29.440739 24.522530 53.310024 0.671250 1.092803 0.081348 -0.017724 85846.200000 0 0 1
-36.523730 30.495339 24.403800 53.474237 -0.695689 1.096890 0.092335 -0.021095 1729480.000000 0 0 1
-35.249972 29.859139 24.062390 52.087689 -0.702790 1.090593 0.094525 -0.019275 635401.000000 0 0 1
-34.196553 30.732539 24.231210 51.971576 -0.732098 1.085761 0.096152 -0.016048 651959.000000 0 0 1
-32.733750 30.316839 23.807010 50.570573 -0.747084 1.080635 0.111994 -0.021065 1165680.000000 0 0 1
-32.383590 30.256439 22.367550 49.643291 -0.751453 1.103398 0.096611 -0.016406 172651.000000 0 0 1
-32.759740 29.056439 21.645750 48.846860 -0.725561 1.111704 0.120910 -0.016202 -88355.900000 0 0 1
-32.173740 27.699739 22.099950 47.862646 -0.710813 1.090844 0.109446 -0.016284 86859.000000 0 0 1
-30.749350 27.604639 22.079350 46.851215 -0.731560 1.080072 0.074046 -0.018135 305912.000000 0 0 1
-30.378970 26.383839 22.654850 46.176087 -0.715131 1.057997 0.070323 -0.021949 -97470.000000 0 0 1
-29.960250 26.430439 24.159580 46.689078 -0.722884 1.026920 0.064338 -0.009761 -38403.500000 0 0 1
-31.094440 26.511239 24.990030 47.897929 -0.706004 1.021913 0.062162 -0.012081 -30931.000000 0 0 1
-30.622590 26.989039 26.219030 48.513800 -0.722412 0.999831 0.070053 -0.018524 -78946.100000 0 0 1
-31.651250 27.338639 27.357300 49.976241 -0.712420 0.991535 0.070236 -0.012371 191068.000000 0 0 1
-32.366140 26.135739 27.681640 49.969161 -0.679299 0.983666 0.053332 -0.011503 -81924.700000 0 0 1
-33.222670 26.434639 28.763140 51.282104 -0.672102 0.975347 0.058988 -0.006658 238555.000000 0 0 1
-33.917750 25.177339 29.372970 51.449816 -0.638559 0.963188 0.046458 -0.000399 290974.000000 0 0 1
-33.088230 24.627639 30.368330 51.220963 -0.639844 0.936155 0.035243 -0.001571 -124767.000000 0 0 1
-33.697060 23.477339 30.854490 51.368053 -0.608520 0.926476 0.031932 -0.004375 -510907.000000 0 0 1
-32.931970 22.790239 31.953427 51.234082 -0.605364 0.897361 0.025737 -0.007645 -880490.000000 0 0 1
-31.727930 22.297339 31.404290 49.900524 -0.612581 0.890095 0.028318 -0.002553 -9199.040000 0 0 1
-30.845370 21.623639 32.280972 49.609271 -0.611419 0.862285 0.032621 -0.005758 55422.600000 0 0 1
-30.029100 22.554539 33.191346 50.121049 -0.644198 0.847014 0.044379 -0.002253 -1043930.000000 0 0 1
-30.732460 23.038939 -33.500062 50.965978 -0.643284 2.288030 0.044786 -0.015770 172415.000000 0 0 1
-30.583520 22.316539 -32.278042 49.751900 -0.630377 2.276777 0.037415 -0.007590 358015.000000 0 0 1
-29.422190 22.748339 -31.300532 48.609417 -0.658165 2.270406 0.069178 -0.016154 426422.000000 0 0 1
-29.633720 23.988539 -30.702942 48.951792 -0.680508 2.248759 0.072549 -0.014814 385100.000000 0 0 1
-28.500900 24.322339 -29.913682 47.944821 -0.706458 2.244544 0.073258 -0.015121 131665.000000 0 0 1
-28.704970 25.646039 -29.084992 48.245532 -0.729176 2.217869 0.077724 -0.010064 4425.060000 0 0 1
-28.733780 26.784939 -29.975192 49.412298 -0.750310 2.222616 0.071954 -0.005309 663546.000000 0 0 1
-30.014580 27.044339 -30.561642 50.658516 -0.733389 2.218413 0.069815 -0.002060 314519.000000 0 0 1
-29.933680 28.380939 -31.351422 51.811336 -0.758778 2.220697 0.071220 -0.001625 86252.300000 0 0 1
-29.918390 29.517139 -30.481912 51.918383 -0.778647 2.198283 0.064946 -0.012445 92383.500000 0 0 1
-29.743830 30.708239 -31.171142 52.908708 -0.801350 2.200802 0.069924 -0.027796 -252576.000000 0 0 1
-29.983320 31.987339 -30.351522 53.323580 -0.817725 2.176323 0.066164 -0.028067 -22709.300000 0 0 1
-29.061770 32.339239 -29.333172 52.448525 -0.838726 2.164308 0.042796 -0.017367 37316.300000 0 0 1
-29.403900 33.478839 -28.548812 52.919341 -0.850110 2.140613 0.031697 -0.018666 -717575.000000 0 0 1
-28.719610 33.486839 -27.148462 51.799839 -0.861884 2.122458 0.027565 -0.012141 1401440.000000 0 0 1
-27.314900 33.858139 -27.236182 51.325305 -0.891956 2.130173 0.012247 -0.012374 1021070.000000 0 0 1
-26.973100 -32.579344 -27.347782 50.367280 0.879261 2.144763 0.017724 -0.002294 -1153720.000000 0 0 1
-27.343690 -31.597244 -26.230972 49.336873 0.857440 2.131368 0.023473 -0.000750 381028.000000 0 0 1
-28.744360 -31.336244 -26.345402 50.022780 0.828512 2.125473 0.037400 -0.020062 221457.000000 0 0 1
-29.218210 -30.539644 -25.298822 49.258542 0.807508 2.110163 0.026436 -0.016911 349266.000000 0 0 1
-30.758800 -30.459044 -25.136762 50.057106 0.780502 2.096893 0.029891 -0.023370 310286.000000 0 0 1
-31.399830 -29.691944 -26.116222 50.493741 0.757449 2.114392 0.034518 -0.018438 756810.000000 0 0 1
-32.833140 -29.773444 -26.008292 51.389729 0.736565 2.101452 0.037461 -0.015751 563281.000000 0 0 1
-33.416910 -28.938344 -27.105092 51.853675 0.713698 2.120838 0.046403 -0.026699 -430610.000000 0 0 1
-34.826122 -29.034144 -27.077792 52.811429 0.694948 2.109153 0.055663 -0.025247 -258593.000000 0 0 1
-35.342245 -27.997844 -27.862222 53.002423 0.669962 2.124309 0.062083 -0.033993 923991.000000 0 0 1
-36.839980 -28.177544 -28.340452 54.353834 0.652946 2.119295 0.053683 -0.034060 1006910.000000 0 0 1
36.981322 -27.839444 -27.347262 53.763608 -0.645289 2.104421 0.056087 -0.020589 -117227.000000 0 0 1
35.649992 -27.762544 -27.870222 53.088888 -0.661651 2.123479 0.058273 -0.019419 925720.000000 0 0 1
34.644342 -27.075844 -26.877882 51.533992 -0.663381 2.119470 0.068666 -0.013469 257891.000000 0 0 1
34.336692 -27.856444 -25.759352 51.171614 -0.681577 2.098316 0.058029 -0.017156 644175.000000 0 0 1
33.242072 -27.269344 -25.029702 49.750763 -0.687013 2.097981 0.063893 -0.005886 636646.000000 0 0 1
32.955952 -27.913544 -23.623002 49.227095 -0.702747 2.071312 0.047504 -0.012065 28430.200000 0 0 1
32.633642 -29.309944 -23.671102 49.843239 -0.731793 2.065659 0.058329 -0.022036 -175750.000000 0 0 1
32.285402 -29.901644 -22.419802 49.387276 -0.747085 2.042000 0.063742 -0.020053 -307077.000000 0 0 1
33.247682 -30.040844 -21.246102 49.590901 -0.734771 2.013548 0.053429 -0.011410 -986252.000000 0 0 1
34.365952 -30.902444 -21.294602 50.886538 -0.732382 2.002559 0.043383 -0.006802 831574.000000 0 0 1
35.279222 -30.837944 -20.165202 51.012132 -0.718326 1.977193 0.033052 0.000462 1296960.000000 0 0 1
36.150742 -29.499844 -20.130402 50.816828 -0.684435 1.978102 0.030788 -0.001198 439912.000000 0 0 1
35.340032 -28.333244 -19.775302 49.424216 -0.675796 1.982437 0.027812 0.011804 651819.000000 0 0 1
35.902932 -27.201344 -20.408802 49.451520 -0.648370 1.996216 0.008655 0.011584 -184552.000000 0 0 1
35.054322 -25.995644 -20.124002 48.057824 -0.638092 2.002860 0.022163 0.016003 -116068.000000 0 0 1
33.898392 -25.985044 -20.929702 47.564440 -0.654014 2.026427 0.039004 0.008828 -253715.000000 0 0 1
32.934442 -25.083544 -20.491002 46.192454 -0.650897 2.030409 0.052276 0.001984 -349799.000000 0 0 1
31.662822 -24.936844 -21.347402 45.608026 -0.667119 2.057893 0.074048 -0.007768 -38586.800000 0 0 1
30.960122 -26.140544 -21.425102 45.835490 -0.701193 2.057183 0.086606 -0.011419 -1152860.000000 0 0 1
29.861352 -26.008344 -22.243102 45.419047 -0.716543 2.082577 0.089515 -0.019860 -656594.000000 0 0 1
29.196702 -27.316244 -22.631902 45.943744 -0.752136 2.085872 0.089156 -0.024494 -94684.100000 0 0 1
28.523502 -28.030144 -21.620702 45.461345 -0.776675 2.066424 0.086049 -0.021241 -46069.300000 0 0 1
28.069802 -29.319544 -21.975702 46.157133 -0.807171 2.067018 0.077576 -0.020939 77937.400000 0 0 1
27.177302 -29.964244 -20.883402 45.525577 -0.834132 2.047348 0.081390 -0.016897 -16486.300000 0 0 1
27.830202 -30.472844 -19.731902 45.743440 -0.830693 2.016796 0.088652 -0.022155 117656.000000 0 0 1
28.730102 -31.559844 -19.944702 47.108743 -0.832299 2.007965 0.088193 -0.014694 387208.000000 0 0 1
29.754592 -31.735244 -18.788402 47.386343 -0.817598 1.978491 0.074017 -0.015445 -214696.000000 0 0 1
29.366302 -32.390744 -17.582102 47.123988 -0.834332 1.953148 0.081962 -0.013351 -91246.500000 0 0 1
28.903302 -31.481444 -16.599902 45.847998 -0.828067 1.941277 0.073120 -0.014371 -411598.000000 0 0 1
28.236602 -32.077544 -15.391602 45.422196 -0.848995 1.916497 0.074773 -0.006133 19057.000000 0 0 1
26.915802 -32.498644 -15.729602 45.033794 -0.879087 1.927604 0.070442 0.003862 290441.000000 0 0 1
26.385302 -33.160944 -14.602802 44.822697 -0.898699 1.902644 0.061214 0.000041 452395.000000 0 0 1
24.858202 -33.492244 -14.647302 44.206380 -0.932301 1.908519 0.055936 0.002878 1010560.000000 0 0 1
24.021102 -32.330544 -14.581602 42.835739 -0.931800 1.918146 0.056956 0.005187 206369.000000 0 0 1
22.751902 -32.593944 -14.029002 42.152427 -0.961386 1.910085 0.066638 0.003337 66636.100000 0 0 1
-0.591090 -7.196761 -29.070442 29.953853 1.488848 2.898124 0.102507 -0.028924 101577.000000 0 0 1
-0.117390 -8.496861 -28.894052 30.117713 1.556982 2.855560 0.100958 -0.028082 -96956.900000 0 0 1
-0.502290 -9.309661 -29.980652 31.396840 1.516895 2.840099 0.087972 -0.032049 -35133.700000 0 0 1
-0.176090 -10.805161 -29.761202 31.662464 1.554501 2.793286 0.102492 -0.020275 -99723.800000 0 0 1
1.197810 -11.036761 -29.589932 31.603938 -1.462690 2.782664 0.074329 -0.028203 -305030.000000 0 0 1
1.499110 -12.368461 -29.198542 31.745566 -1.450180 2.738284 0.086724 -0.025993 386338.000000 0 0 1
2.988110 -12.584561 -28.813462 31.583469 -1.337671 2.719651 0.077314 -0.027052 -383907.000000 0 0 1
3.911810 -12.473261 -29.889832 32.623404 -1.266895 2.729309 0.108815 -0.040573 737193.000000 0 0 1
5.283010 -12.462761 -29.474692 32.434365 -1.169855 2.711073 0.107819 -0.039758 887241.000000 0 0 1
5.863910 -13.772761 -28.907082 32.552938 -1.168281 2.663779 0.100732 -0.044381 -1410110.000000 0 0 1
5.373010 -14.195061 -27.677642 31.566134 -1.208950 2.639993 0.091319 -0.035643 -274126.000000 0 0 1
5.888610 -15.405661 -27.096092 31.720786 -1.205696 2.594818 0.095673 -0.035007 -94152.700000 0 0 1
5.355810 -16.682061 -27.779512 32.843220 -1.260139 2.578900 0.046331 -0.034094 35344.900000 0 0 1
5.913910 -17.006761 -29.070512 34.195013 -1.236137 2.587045 0.076582 -0.045330 222959.000000 0 0 1
5.421410 -18.287661 -29.481042 35.113559 -1.282598 2.567327 0.047435 -0.034365 -183627.000000 0 0 1
5.939910 -18.759561 -30.856142 36.596518 -1.264150 2.573901 0.075400 -0.052732 -54692.400000 0 0 1
7.337210 -18.909561 -30.939792 36.995633 -1.200664 2.561313 0.075597 -0.046329 -357010.000000 0 0 1
7.745810 -19.627961 -32.076702 38.394911 -1.194927 2.559732 0.085568 -0.046196 -16115.600000 0 0 1
9.255610 -19.690761 -32.393262 39.021991 -1.131396 2.550134 0.088402 -0.033801 -25249.100000 0 0 1
9.711910 -18.423661 -32.717812 38.784116 -1.085671 2.574726 0.089817 -0.034089 94030.700000 0 0 1
10.674210 -18.443661 -33.765982 39.928046 -1.046151 2.578617 0.086517 -0.030016 -268268.000000 0 0 1
10.851810 -17.017461 33.431813 39.051784 -1.003126 0.543142 0.080617 -0.020308 -441748.000000 0 0 1
9.744810 -16.690461 32.665511 37.954821 -1.042333 0.534267 0.086620 -0.019123 -447526.000000 0 0 1
9.685510 -15.308061 32.442404 37.157172 -1.006674 0.509245 0.096277 -0.017560 -50046.500000 0 0 1
8.637110 -14.991061 31.373880 35.828088 -1.048098 0.503958 0.117563 -0.030417 -193290.000000 0 0 1
8.956310 -15.578561 30.137780 35.088357 -1.049028 0.537657 0.134807 -0.025170 -43227.200000 0 0 1
8.227010 -15.060261 29.053370 33.743050 -1.070819 0.533529 0.130563 -0.025377 -392358.000000 0 0 1
8.352010 -15.988661 27.882170 33.208564 -1.089413 0.574236 0.101317 -0.029662 -674353.000000 0 0 1
7.758410 -17.232961 27.960840 33.748725 -1.147770 0.594371 0.101555 -0.029403 79020.600000 0 0 1
7.888110 -17.882661 26.732310 33.115378 -1.155365 0.631323 0.079715 -0.028751 157358.000000 0 0 1
7.398910 -19.361961 26.927250 33.980968 -1.205784 0.656028 0.084797 -0.038245 16708.800000 0 0 1
8.049510 -19.838461 28.088360 35.317348 -1.185341 0.651272 0.095284 -0.037827 476262.000000 0 0 1
7.349910 -20.950561 28.631660 36.231466 -1.233390 0.659591 0.093667 -0.039179 -187092.000000 0 0 1
7.738210 -21.372961 30.053480 37.681494 -1.223422 0.647547 0.093811 -0.035452 -157231.000000 0 0 1
7.279910 -20.555561 31.167500 38.038681 -1.230422 0.610497 0.110285 -0.045258 237265.000000 0 0 1
7.505410 -19.138761 31.102640 37.282671 -1.197069 0.584046 0.102870 -0.038921 -236768.000000 0 0 1
6.924210 -18.361261 32.313274 37.805135 -1.210177 0.545761 0.113007 -0.032422 279262.000000 0 0 1
5.522910 -18.476061 32.528509 37.814961 -1.280328 0.535130 0.117837 -0.045435 87030.000000 0 0 1
5.099810 -17.497661 33.435287 38.080108 -1.287196 0.499076 0.130773 -0.037993 35180.200000 0 0 1
3.636010 -17.689361 33.877070 38.389972 -1.368072 0.489760 0.129167 -0.054677 -101131.000000 0 0 1
3.400410 -18.735161 -33.024752 38.120903 -1.391252 2.618576 0.122805 -0.054771 -592973.000000 0 0 1
2.075010 -19.163661 -33.057552 38.266869 -1.462938 2.613697 0.127927 -0.064546 -755890.000000 0 0 1
1.739010 -20.105961 -31.927342 37.770742 -1.484519 2.577910 0.060341 -0.028419 -779735.000000 0 0 1
0.466210 -20.625061 -32.209432 38.249941 -1.548196 2.571921 0.075424 -0.037338 -423168.000000 0 0 1
0.006110 -21.373861 -31.087942 37.726676 -1.570510 2.539286 0.069046 -0.031323 230894.000000 0 0 1
-0.651090 -20.530461 -29.918002 36.290640 1.539094 2.539938 0.072892 -0.027945 -111620.000000 0 0 1
-1.730290 -19.795561 -30.476022 36.381946 1.483610 2.563797 0.087950 -0.032235 -212627.000000 0 0 1
-2.291090 -18.776861 -29.697842 35.210529 1.449380 2.574444 0.112161 -0.027546 103966.000000 0 0 1
-2.036090 -17.318661 -30.211172 34.882611 1.453767 2.618105 0.098213 -0.023505 -441890.000000 0 0 1
-2.710390 -16.326461 -29.511152 33.835005 1.406285 2.630494 0.102802 -0.020688 -488038.000000 0 0 1
-2.308890 -15.055361 -29.992842 33.638748 1.418622 2.671698 0.099337 -0.016601 150633.000000 0 0 1
-3.119090 -13.845561 -29.441522 32.683810 1.349218 2.692401 0.097315 -0.011477 145542.000000 0 0 1
-3.153990 -13.719461 -28.058302 31.391711 1.344831 2.676572 0.090329 -0.018981 -218864.000000 0 0 1
-3.913790 -12.675061 -27.551442 30.578699 1.271305 2.692868 0.066961 -0.021022 -378747.000000 0 0 1
-3.925590 -12.633761 -26.008182 29.179576 1.269532 2.671033 0.076957 -0.022870 81354.300000 0 0 1
-4.636390 -13.724561 -25.375752 29.219658 1.245016 2.622859 0.090016 -0.022453 454923.000000 0 0 1
-4.614190 -13.706461 -23.905702 27.939942 1.246070 2.597525 0.082385 -0.019884 -387758.000000 0 0 1
-5.614490 -12.714461 -23.252002 27.089400 1.154964 2.602828 0.066580 -0.025287 -1032130.000000 0 0 1
-6.900190 -13.160761 -23.419902 27.736439 1.087898 2.576190 0.064223 -0.025708 -1087330.000000 0 0 1
-7.895190 -12.228161 -23.057802 27.267639 0.997481 2.578504 0.036769 -0.025095 536718.000000 0 0 1
-9.378390 -12.538761 -23.392602 28.149396 0.928607 2.551728 0.058398 -0.029770 413486.000000 0 0 1
-9.876690 -13.570261 -22.552102 28.112244 0.941643 2.501795 0.040368 -0.028986 316018.000000 0 0 1
-11.055690 -14.149261 -23.134602 29.285485 0.907524 2.481553 0.043754 -0.025689 610298.000000 0 0 1
-11.734190 -15.253661 -22.249902 29.418081 0.915076 2.428488 0.048263 -0.028693 -7159.750000 0 0 1
-10.904890 -16.373561 -22.060002 29.557635 0.983251 2.413340 0.057623 -0.029397 -657126.000000 0 0 1
-11.573690 -17.588961 -21.872002 30.359616 0.988812 2.375220 0.069802 -0.033662 -27191.400000 0 0 1
-12.280790 -18.286961 -23.089502 31.911687 0.979414 2.379719 0.067626 -0.026424 585741.000000 0 0 1
-13.567990 -17.743561 -23.346502 32.310732 0.917972 2.378297 0.046340 -0.020406 36882.400000 0 0 1
-14.183490 -18.407361 -24.439802 33.723971 0.914283 2.381397 0.038463 -0.024635 -112944.000000 0 0 1
-15.433790 -17.752861 -25.017602 34.340156 0.855164 2.386960 0.049972 -0.029328 -451307.000000 0 0 1
-16.485890 -17.567361 -24.119502 34.090278 0.817146 2.356777 0.066115 -0.029163 -115272.000000 0 0 1
-17.647290 -17.032861 -24.724902 34.826225 0.767683 2.360224 0.075477 -0.032158 159336.000000 0 0 1
-18.126090 -15.633061 -24.307902 34.114832 0.711684 2.363896 0.075414 -0.026449 -170875.000000 0 0 1
-18.693290 -15.599261 -22.997202 33.491003 0.695417 2.327692 0.087652 -0.024097 223846.000000 0 0 1
-19.499990 -14.466161 -22.741102 33.266757 0.638268 2.323478 0.095585 -0.026077 120443.000000 0 0 1
-20.248390 -14.492861 -21.396302 32.830504 0.621221 2.280647 0.094417 -0.032810 -215136.000000 0 0 1
-19.382590 -14.300461 -20.306902 31.504892 0.635647 2.271248 0.091112 -0.028590 -71010.900000 0 0 1
-19.958990 -14.277961 -18.994002 31.032137 0.620964 2.229478 0.093191 -0.032307 -178055.000000 0 0 1
-20.888090 -13.102761 -18.628802 30.903509 0.560240 2.217809 0.091408 -0.037109 -460359.000000 0 0 1
-22.233790 -13.128061 -18.994002 32.054009 0.533372 2.205033 0.088826 -0.042356 -87762.800000 0 0 1
-22.871590 -11.909461 -18.502102 31.737558 0.480078 2.193178 0.087279 -0.037242 722716.000000 0 0 1
-24.339490 -11.789461 -19.012902 33.058926 0.451070 2.183549 0.093441 -0.036770 404154.000000 0 0 1
-24.511690 -10.958661 -20.073902 33.524270 0.420422 2.212782 0.089648 -0.038752 561150.000000 0 0 1
-25.910440 -10.681561 -20.162202 34.524788 0.391021 2.194434 0.096244 -0.036858 452393.000000 0 0 1
-26.372280 -9.623461 -21.184602 35.169525 0.349894 2.217247 0.100609 -0.028037 -233484.000000 0 0 1
-26.300620 -9.942061 -22.580202 36.061512 0.361412 2.247412 0.086406 -0.026573 540226.000000 0 0 1
-27.067060 -8.937161 -23.280102 36.803012 0.318915 2.255650 0.066568 -0.025003 74774.800000 0 0 1
-27.150340 -9.263361 -24.789402 37.913918 0.328803 2.283437 0.071139 -0.009442 799329.000000 0 0 1
-25.950980 -9.074961 -25.576802 37.549714 0.336404 2.320122 0.064151 -0.026343 783505.000000 0 0 1
-25.265830 -10.275861 -25.854482 37.582039 0.386277 2.329454 0.070141 -0.009551 118206.000000 0 0 1
-24.240790 -10.154761 -27.028432 37.699750 0.396703 2.370198 0.080390 -0.017453 298625.000000 0 0 1
-24.691390 -10.341361 -28.356542 38.996178 0.396628 2.384975 0.081613 -0.004216 -231420.000000 0 0 1
-23.605590 -10.226061 -29.242702 38.947808 0.408800 2.420095 0.087116 0.002489 36354.900000 0 0 1
-23.877890 -10.780561 -30.698162 40.357790 0.424090 2.435110 0.099562 -0.002839 438458.000000 0 0 1
-24.913390 -10.169561 -31.476052 41.410612 0.387552 2.434258 0.085905 -0.017462 284202.000000 0 0 1
-24.559790 -8.925061 -32.076632 41.373304 0.348563 2.457983 0.081327 -0.020059 -865266.000000 0 0 1
-25.746640 -8.004061 -32.328882 42.096449 0.301406 2.446465 0.081433 -0.026566 -883570.000000 0 0 1
-26.632540 -8.457861 -33.365972 43.521439 0.307503 2.444413 0.093390 -0.036507 1368160.000000 0 0 1
-27.796630 -9.132561 -32.862032 43.999652 0.317439 2.414139 0.100300 -0.035102 465740.000000 0 0 1
-28.856480 -8.427961 -31.972112 43.885565 0.284161 2.386975 0.085293 -0.025311 -257463.000000 0 0 1
-30.192980 -8.901261 -32.109312 44.965057 0.286691 2.366126 0.083281 -0.028496 -41038.900000 0 0 1
-30.960580 -8.427361 -31.068592 44.663579 0.265758 2.340070 0.082933 -0.022176 -1136710.000000 0 0 1
-32.405970 -8.803361 -31.301242 45.906576 0.265257 2.321080 0.078386 -0.025056 -888853.000000 0 0 1
-32.682980 -10.177561 -31.008802 46.187722 0.301885 2.306845 0.073790 -0.025135 34492.900000 0 0 1
-34.043732 -10.532561 -31.128992 47.317276 0.300043 2.288794 0.053084 -0.025336 -139859.000000 0 0 1
-34.219932 -12.036761 -31.000022 47.716754 0.338230 2.277943 0.065962 -0.028134 917317.000000 0 0 1
-35.570207 -12.515161 -31.245892 48.971161 0.338317 2.262755 0.062342 -0.022739 964749.000000 0 0 1
-35.700306 -13.894361 -31.285612 49.460636 0.371157 2.255619 0.058437 -0.022203 75890.000000 0 0 1
-37.040080 -14.432161 -30.758362 50.262626 0.371540 2.229324 0.055161 -0.025855 104348.000000 0 0 1
-37.022440 -14.337261 -29.392802 49.397924 0.369474 2.208088 0.056204 -0.027998 -96401.900000 0 0 1
-37.280690 -15.591661 -28.865172 49.660324 0.396117 2.191063 0.043032 -0.023956 -133840.000000 0 0 1
-37.205840 -15.588661 -27.339002 48.730913 0.396764 2.166413 0.070617 -0.025773 915005.000000 0 0 1
-35.866798 -15.495561 -26.802752 47.380661 0.407811 2.172066 0.057014 -0.033009 607290.000000 0 0 1
-35.818007 -15.468961 -25.359572 46.533066 0.407681 2.147161 0.095658 -0.038535 46831.800000 0 0 1
-34.422354 -15.077561 -24.816302 45.034210 0.412844 2.154424 0.090487 -0.036311 -155340.000000 0 0 1
-33.467610 -16.065461 -25.016002 44.765838 0.447544 2.163757 0.082793 -0.033710 53283.900000 0 0 1
-32.258530 -15.826561 -24.295302 43.374583 0.456113 2.165336 0.094911 -0.017204 511514.000000 0 0 1
-31.099250 -16.771561 -24.657002 43.086150 0.494585 2.180070 0.071716 -0.023490 -107914.000000 0 0 1
-31.103320 -17.971261 -23.906402 43.149725 0.523930 2.157998 0.086385 -0.036223 116150.000000 0 0 1
-31.474410 -19.092961 -24.678902 44.319609 0.545272 2.161372 0.067856 -0.037513 -226807.000000 0 0 1
-31.368340 -20.455861 -23.924802 44.438847 0.577863 2.139305 0.066257 -0.038487 290554.000000 0 0 1
-30.062910 -21.011761 -23.813902 43.730705 0.610005 2.146658 0.071576 -0.026844 190986.000000 0 0 1
-30.001120 -22.105461 -22.936102 43.758237 0.635013 2.122519 0.073882 -0.029550 -364861.000000 0 0 1
-28.675370 -22.892761 -22.887402 43.245676 0.673729 2.128503 0.061731 -0.022495 899205.000000 0 0 1
-27.467220 -22.247661 -22.433002 41.864616 0.680792 2.136306 0.057641 -0.027893 736011.000000 0 0 1
-27.398050 -21.971561 -21.061202 40.950907 0.675922 2.110992 0.080588 -0.038588 -428799.000000 0 0 1
-27.456760 -23.109561 -20.020702 41.094451 0.699639 2.079663 0.071165 -0.022216 -173501.000000 0 0 1
-27.482840 -22.613761 -18.681802 40.195750 0.688509 2.054172 0.087775 -0.028309 95063.300000 0 0 1
-27.678220 -23.691661 -17.781902 40.541024 0.707948 2.024853 0.077855 -0.007661 89251.700000 0 0 1
-27.723790 -23.195061 -16.301702 39.653056 0.696691 1.994466 0.080564 -0.010953 -115115.000000 0 0 1
-28.972230 -22.615661 -16.035002 40.099619 0.662798 1.982181 0.101444 -0.019958 -401621.000000 0 0 1
-28.902590 -21.380361 -15.318202 39.078470 0.636901 1.973585 0.095336 -0.025909 532754.000000 0 0 1
-30.292900 -20.715361 -15.020502 39.653517 0.599795 1.959289 0.095581 -0.013015 445773.000000 0 0 1
-30.967730 -20.334061 -16.180502 40.426265 0.581016 1.982583 0.098363 -0.016211 -836302.000000 0 0 1
-32.122500 -19.678261 -15.804302 40.851742 0.549633 1.968031 0.106587 -0.012099 -894720.000000 0 0 1
-33.017160 -19.112961 -16.890102 41.721860 0.524745 1.987585 0.102311 -0.032664 -261314.000000 0 0 1
-33.970550 -20.016961 -17.441102 43.114603 0.532474 1.987260 0.055336 -0.026414 284832.000000 0 0 1
-34.753205 -19.320261 -18.411902 43.818441 0.507383 2.004447 0.058724 -0.017633 -154124.000000 0 0 1
-36.078100 -19.954461 -18.807802 45.316036 0.505213 1.998779 0.036587 -0.010768 153523.000000 0 0 1
-37.200840 -20.040861 -17.918502 45.897835 0.494142 1.971862 0.031427 -0.002967 708013.000000 0 0 1
-37.088170 -20.863461 -16.762102 45.736029 0.512417 1.946037 0.057645 -0.011047 -687006.000000 0 0 1
37.287822 -22.359261 -16.944902 46.663132 -0.540155 1.942424 0.030829 0.023472 -375250.000000 0 0 1
35.905532 -22.553761 -16.913102 45.650108 -0.560855 1.950337 0.031370 0.006100 -485545.000000 0 0 1
35.389972 -23.863761 -16.808802 45.874448 -0.593274 1.945943 0.026853 0.005819 713950.000000 0 0 1
33.879722 -23.855761 -16.391302 44.560158 -0.613493 1.947488 0.026160 0.003393 423376.000000 0 0 1
32.994182 -23.807661 -17.482802 44.283960 -0.625057 1.976634 0.025309 0.000510 -247053.000000 0 0 1
31.722522 -24.152261 -16.983602 43.336968 -0.650732 1.973488 0.042784 -0.004101 -349796.000000 0 0 1
30.494332 -23.942261 -17.854202 42.683822 -0.665613 2.002358 0.063451 -0.020234 -217570.000000 0 0 1
30.325362 -22.528761 -18.120402 41.898945 -0.638943 2.018036 0.047854 -0.015990 265410.000000 0 0 1
28.948502 -22.292761 -18.357102 40.889683 -0.656231 2.036377 0.079992 -0.027599 -22562.600000 0 0 1
35.052932 29.571439 -19.018602 49.647611 0.700780 1.963916 0.073160 -0.005670 -114427.000000 0 0 1
33.860282 29.273339 -19.696702 48.902016 0.712871 1.985347 0.057103 -0.026043 -329032.000000 0 0 1
34.020492 28.845339 -21.005602 49.301955 0.703263 2.010930 0.067919 -0.011428 -77543.000000 0 0 1
32.821372 29.215839 -21.895402 49.093955 0.727345 2.033076 0.073607 -0.019524 310428.000000 0 0 1
31.573842 28.567039 -21.560402 47.726661 0.735444 2.039519 0.059188 -0.007713 1304770.000000 0 0 1
30.524162 28.728339 -22.537002 47.591579 0.755099 2.064114 0.087085 0.001168 702388.000000 0 0 1
29.820122 30.121239 -22.535302 48.003839 0.790422 2.059462 0.070022 0.001119 -1078310.000000 0 0 1
30.651122 31.279239 -22.602402 49.282357 0.795540 2.047250 0.102745 -0.015219 -420601.000000 0 0 1
29.936852 32.494939 -22.730702 49.687232 0.826349 2.045951 0.086645 -0.010069 103341.000000 0 0 1
30.789932 33.828739 -22.525202 50.988119 0.832390 2.028371 0.080550 -0.009817 802555.000000 0 0 1
31.352992 -33.720844 -21.230202 50.703322 -0.821769 2.002825 0.081375 -0.017716 -275637.000000 0 0 1
32.504662 33.361639 -20.904902 51.054549 0.798408 1.992661 0.074980 -0.018755 -610052.000000 0 0 1
32.797382 33.291839 -19.430902 50.612003 0.792880 1.964833 0.067502 -0.021338 -177389.000000 0 0 1
33.054672 -33.244344 -18.908202 50.550152 -0.788259 1.954167 0.068252 -0.016724 147436.000000 0 0 1
33.032872 -33.190344 -17.525602 49.999163 -0.787776 1.928920 0.049653 -0.027082 -431629.000000 0 0 1
33.106422 -31.714544 -16.995502 48.894729 -0.763929 1.925800 0.044611 -0.004542 -407741.000000 0 0 1
34.363892 -31.110644 -17.092902 49.405633 -0.735752 1.924070 0.054401 -0.015347 145478.000000 0 0 1
35.218082 -31.435144 -15.954002 49.829828 -0.728703 1.896705 0.057458 -0.014910 816109.000000 0 0 1
36.676352 -30.892444 -16.083902 50.578551 -0.700006 1.894414 0.055104 -0.008634 634154.000000 0 0 1
-37.270290 -31.479544 -17.115602 51.700870 0.701367 1.908213 0.050500 -0.016278 1133980.000000 0 0 1
-35.983518 -30.811544 -17.263702 50.420235 0.708122 1.920262 0.051490 -0.005519 1295680.000000 0 0 1
-35.038179 -31.380044 -18.325502 50.479750 0.730376 1.942311 0.065449 -0.015384 -641472.000000 0 0 1
-34.471062 -32.657744 -17.992302 50.778984 0.758392 1.932989 0.063563 -0.022262 226804.000000 0 0 1
-33.681970 -33.168344 -19.057602 50.968679 0.777715 1.954016 0.088347 -0.019484 -360564.000000 0 0 1
-32.300480 -32.567144 -19.307502 49.766650 0.789509 1.969214 0.072693 -0.024099 -2111860.000000 0 0 1
-32.142790 -31.402644 -20.121302 49.235675 0.773751 1.991796 0.075139 -0.022332 1491590.000000 0 0 1
-30.752960 -30.952944 -20.217002 48.089046 0.788639 2.004691 0.077996 -0.022680 1361160.000000 0 0 1
-29.878640 -31.901144 -21.001602 48.492096 0.818124 2.018718 0.076139 -0.016086 -1570550.000000 0 0 1
-30.384570 -32.153144 -22.288302 49.535998 0.813671 2.037496 0.069132 -0.012922 -266264.000000 0 0 1
-29.920970 -33.411244 -22.721202 50.277516 0.840453 2.039708 0.070027 -0.010754 -456611.000000 0 0 1
-30.612440 33.660339 -23.872302 51.381190 -0.832784 2.053992 0.059140 -0.020847 -585587.000000 0 0 1
-31.762820 32.959139 -23.432802 51.422541 -0.803880 2.043945 0.073271 -0.041723 76390.700000 0 0 1
-32.545270 32.299539 -24.403102 51.941950 -0.781609 2.059877 0.077694 -0.033103 512280.000000 0 0 1
-33.305860 33.139439 -25.459762 53.438770 -0.782894 2.067385 0.071599 -0.039273 -317681.000000 0 0 1
-32.441490 33.790139 -26.376672 53.758279 -0.805758 2.083636 0.051891 -0.038345 -227665.000000 0 0 1
-33.210240 -33.182544 -27.218402 54.266404 0.784981 2.096209 0.060356 -0.041865 252976.000000 0 0 1
-32.493590 -32.596444 -28.478832 54.123981 0.786978 2.124896 0.051076 -0.038691 -315405.000000 0 0 1
-32.533730 -33.415044 -29.716772 55.300047 0.798761 2.138116 0.058480 -0.034290 -31157.500000 0 0 1
-33.709460 -33.264344 -30.481282 56.320092 0.778752 2.142678 0.062968 -0.033430 -286435.000000 0 0 1
-33.720900 33.631639 -31.745092 57.235802 -0.784073 2.158723 0.075779 -0.030315 -178363.000000 0 0 1
-32.833290 -33.659744 -32.693062 57.269883 0.797827 2.178349 0.075602 -0.045345 -188893.000000 0 0 1
-32.894010 33.297639 -33.839482 57.756897 -0.791496 2.196780 0.060071 -0.050017 -299412.000000 0 0 1
-32.110980 33.787139 32.748286 56.966096 -0.810828 0.958347 0.078453 -0.049885 1407900.000000 0 0 1
-30.694830 33.467639 32.662046 55.938043 -0.828587 0.947276 0.076916 -0.047300 1228410.000000 0 0 1
-30.383310 32.093139 32.313410 54.747343 -0.812759 0.939455 0.083083 -0.045218 -236347.000000 0 0 1
-28.912280 31.668039 32.520758 53.818067 -0.830856 0.921944 0.090994 -0.041150 -548566.000000 0 0 1
-28.525350 31.561639 33.888460 54.389892 -0.835887 0.898141 0.095685 -0.042982 676758.000000 0 0 1
-27.142340 31.299339 -33.661092 53.379999 -0.856409 2.253114 0.091402 -0.042185 374966.000000 0 0 1
-26.713090 29.875939 33.779540 52.413913 -0.841232 0.870458 0.092159 -0.031158 -728772.000000 0 0 1
-26.883860 28.866039 -33.110852 51.500666 -0.820938 2.269102 0.095608 -0.021594 241039.000000 0 0 1
-26.364960 27.649239 -33.638702 50.903377 -0.809170 2.292726 0.080401 -0.018265 -81395.700000 0 0 1
-26.179380 26.528139 -32.554252 49.486174 -0.792015 2.288751 0.087859 -0.026969 519984.000000 0 0 1
-25.024390 26.602839 -31.701422 48.362292 -0.815963 2.285639 0.079522 -0.024239 546858.000000 0 0 1
-25.060280 27.660739 -30.761612 48.367457 -0.834683 2.260098 0.061801 -0.023094 274833.000000 0 0 1
-23.714290 27.742739 -29.987522 47.236412 -0.863526 2.258597 0.072493 -0.022345 461919.000000 0 0 1
-22.580690 28.257439 -30.678802 47.429519 -0.896601 2.274216 0.077238 -0.029425 835846.000000 0 0 1
-21.403990 28.204239 -29.840282 46.303912 -0.921628 2.271092 0.055399 -0.028955 541106.000000 0 0 1
-21.201490 29.393039 -28.820062 46.303886 -0.945911 2.242616 0.037141 -0.018134 -651078.000000 0 0 1
-20.722690 30.562639 -29.482632 47.251776 -0.974961 2.244580 0.037250 -0.015823 135395.000000 0 0 1
-20.679690 31.659439 -28.643402 47.438530 -0.992181 2.219056 0.036924 -0.020892 -232260.000000 0 0 1
-20.236790 32.952939 -29.349462 48.547037 -1.020065 2.220006 0.050161 -0.011397 1266010.000000 0 0 1
-18.836590 32.919439 -29.735882 48.194702 -1.051067 2.235715 0.060795 -0.013364 1022360.000000 0 0 1
-18.564790 33.859839 -30.755962 49.366682 -1.069272 2.243382 0.062493 -0.007837 393818.000000 0 0 1
-17.079090 33.811739 -31.212402 49.083022 -1.103059 2.259984 0.064331 -0.007206 -734021.000000 0 0 1
-16.143390 -33.288344 -30.423652 47.899075 1.119256 2.259014 0.094836 -0.020324 -774026.000000 0 0 1
-14.821190 -33.375844 -30.814662 47.782402 1.152885 2.271683 0.113700 -0.021499 -594476.000000 0 0 1
-14.211590 33.041239 -30.687792 47.280369 -1.164600 2.277144 0.119319 -0.025761 -1761220.000000 0 0 1
-13.957690 32.601239 -29.344882 46.030207 -1.166274 2.262063 0.125765 -0.034241 67572.000000 0 0 1
-13.521090 31.273239 -29.392382 44.997194 -1.162714 2.282606 0.109282 -0.035008 -31046.200000 0 0 1
-13.573990 30.696639 -27.971692 43.691560 -1.154450 2.265565 0.101884 -0.037092 -3342.200000 0 0 1
-12.453390 31.118339 -27.232832 43.186399 -1.190122 2.253107 0.116138 -0.036592 -129684.000000 0 0 1
-12.421590 30.644639 -25.948402 42.032242 -1.185692 2.236160 0.091041 -0.039682 127196.000000 0 0 1
-11.082490 30.979939 -25.273112 41.488654 -1.227251 2.225794 0.112791 -0.050031 -95625.000000 0 0 1
-9.925490 30.338839 -25.714072 40.989926 -1.254617 2.248912 0.133699 -0.046251 -499071.000000 0 0 1
-8.801390 30.866139 -25.027102 40.700600 -1.293021 2.233065 0.142199 -0.050938 603729.000000 0 0 1
-7.443790 30.240139 -25.458892 40.224759 -1.329439 2.256110 0.115702 -0.046386 233719.000000 0 0 1
-7.259790 28.939039 -25.077332 38.974929 -1.325004 2.269757 0.108279 -0.059749 344041.000000 0 0 1
-5.958690 28.462939 -25.449212 38.643334 -1.364428 2.289709 0.101707 -0.063032 675914.000000 0 0 1
-5.434490 27.181939 -24.763502 37.170183 -1.373468 2.299924 0.127285 -0.043606 -365127.000000 0 0 1
-6.111990 26.076039 -25.156972 36.744924 -1.340562 2.324903 0.134164 -0.043738 -514955.000000 0 0 1
-5.775490 25.036039 -24.295702 35.361570 -1.344076 2.328238 0.134791 -0.053781 -14327.100000 0 0 1
-6.561890 23.676039 -24.354102 34.593865 -1.300429 2.351811 0.113508 -0.045639 108796.000000 0 0 1
-6.456090 23.023439 -25.591972 35.024404 -1.297404 2.390128 0.123442 -0.042177 249003.000000 0 0 1
-7.314890 21.887239 -25.581872 34.452736 -1.248259 2.407622 0.105504 -0.045116 -16640.500000 0 0 1
-7.254790 21.068839 -26.849592 34.891669 -1.239175 2.448875 0.097181 -0.040370 1020810.000000 0 0 1
-6.082590 20.234139 -27.114642 34.374730 -1.278780 2.479644 0.112203 -0.051488 744176.000000 0 0 1
-5.979190 19.097839 -26.241662 33.001560 -1.267381 2.490075 0.103476 -0.045485 467200.000000 0 0 1
-4.641590 18.256939 -26.318562 32.365520 -1.321834 2.520369 0.107472 -0.049588 923588.000000 0 0 1
-4.491690 17.599739 -27.585832 33.028839 -1.320917 2.559301 0.104041 -0.053177 -380406.000000 0 0 1
-3.305490 16.851539 -27.588422 32.496487 -1.377102 2.584822 0.097309 -0.049931 -283989.000000 0 0 1
-2.769390 16.492239 -29.025142 33.498094 -1.404428 2.618887 0.097551 -0.044217 -359249.000000 0 0 1
-2.002890 17.505539 -29.566662 34.418643 -1.456877 2.604169 0.098892 -0.050873 -475226.000000 0 0 1
-1.913790 17.312639 -30.961652 35.524836 -1.460700 2.629150 0.094012 -0.051792 137890.000000 0 0 1
-0.999890 18.386339 -31.626852 36.596653 -1.516468 2.614356 0.097938 -0.040331 -124712.000000 0 0 1
0.338810 18.393039 -31.219252 36.236175 1.552378 2.609110 0.113709 -0.046120 -353351.000000 0 0 1
1.119410 19.472439 -31.689342 37.210796 1.513373 2.589859 0.101246 -0.028862 242435.000000 0 0 1
0.936510 20.817439 -30.896782 37.267331 1.525840 2.548217 0.108108 -0.027652 61091.800000 0 0 1
1.784910 20.885239 -29.752572 36.394981 1.485541 2.527838 0.125625 -0.050639 -47948.500000 0 0 1
1.644310 22.146939 -29.075502 36.586548 1.496687 2.489317 0.130440 -0.052170 -461113.000000 0 0 1
2.555910 22.380839 -27.873782 35.838281 1.457088 2.461899 0.139047 -0.053976 591994.000000 0 0 1
3.867910 22.487939 -28.461402 36.479029 1.400464 2.465802 0.112275 -0.050581 -84469.600000 0 0 1
4.944310 22.642039 -27.606872 36.045076 1.355803 2.443234 0.097750 -0.051007 -618897.000000 0 0 1
5.420210 24.051239 -27.355842 36.826388 1.349138 2.408088 0.118391 -0.051345 -611568.000000 0 0 1
6.045810 24.634339 -28.467862 38.129013 1.330131 2.413762 0.093829 -0.048314 144110.000000 0 0 1
6.497510 25.992439 -28.219842 38.912517 1.325839 2.382139 0.097766 -0.051210 378653.000000 0 0 1
7.401310 26.577639 -29.366302 40.293051 1.299199 2.387390 0.094482 -0.040868 -153013.000000 0 0 1
8.660910 25.987339 -29.485972 40.246437 1.249099 2.392983 0.085464 -0.037230 -871840.000000 0 0 1
9.418310 26.704339 -30.407012 41.550122 1.231729 2.391778 0.096659 -0.032508 -910983.000000 0 0 1
10.878310 26.633239 -29.988582 41.556974 1.183028 2.376944 0.095651 -0.038688 -786930.000000 0 0 1
11.675910 27.568539 -30.663522 42.855604 1.170177 2.368147 0.103384 -0.039278 -527592.000000 0 0 1
12.951310 27.711539 -30.103642 42.917305 1.133599 2.348203 0.094346 -0.045067 -220477.000000 0 0 1
13.825110 28.746239 -30.819432 44.354451 1.122516 2.339000 0.100026 -0.045340 -152172.000000 0 0 1
13.369110 30.089639 -30.695292 45.014669 1.152685 2.321147 0.099200 -0.042229 -86243.400000 0 0 1
14.276710 30.910639 -31.341682 46.277350 1.138115 2.314825 0.128541 -0.048252 -470523.000000 0 0 1
13.804810 32.355739 -31.525212 47.236698 1.167523 2.301492 0.133305 -0.053354 -57.057000 0 0 1
12.862310 32.499639 -32.568572 47.774234 1.193944 2.320905 0.109743 -0.053074 -757910.000000 0 0 1
11.719310 33.104639 -32.099262 47.577537 1.230555 2.311317 0.117649 -0.042540 -545308.000000 0 0 1
10.622010 33.348239 -33.178422 48.225925 1.262438 2.329497 0.090322 -0.040267 308580.000000 0 0 1
10.863410 -33.320944 33.842650 48.719851 -1.255639 0.802880 0.081562 -0.026583 49157.500000 0 0 1
9.729010 -32.990244 33.059614 47.706896 -1.284020 0.805191 0.085693 -0.029437 326912.000000 0 0 1
10.059310 -32.102644 31.776604 46.276582 -1.267139 0.813902 0.084510 -0.029227 141014.000000 0 0 1
10.042810 -30.686444 32.050437 45.494465 -1.254511 0.789091 0.075050 -0.027536 -106965.000000 0 0 1
10.260910 -30.020744 30.837900 44.243727 -1.241451 0.799590 0.084986 -0.024526 -309149.000000 0 0 1
9.647710 -28.577644 30.760070 43.080645 -1.245214 0.775585 0.082848 -0.031471 -82283.100000 0 0 1
8.249810 -28.533044 30.663730 42.690260 -1.289340 0.769464 0.070948 -0.026302 -153971.000000 0 0 1
7.522010 -28.627344 31.903042 43.519071 -1.313848 0.747954 0.063081 -0.019412 487585.000000 0 0 1
5.979110 -28.701344 31.644010 43.137690 -1.365412 0.747253 0.073166 -0.020893 553147.000000 0 0 1
5.404410 -29.783444 30.946000 43.288752 -1.391293 0.774353 0.092435 -0.029441 -53839.200000 0 0 1
5.541310 -29.821744 29.535130 42.336349 -1.387077 0.798711 0.092048 -0.042405 -201629.000000 0 0 1
4.762810 -28.852744 28.574630 40.886118 -1.407199 0.796961 0.080311 -0.043507 1202570.000000 0 0 1
3.341710 -29.112944 28.442490 40.837553 -1.456512 0.800318 0.119656 -0.046589 972949.000000 0 0 1
2.840610 -28.216444 27.455620 39.472115 -1.470462 0.801583 0.132656 -0.053630 712592.000000 0 0 1
1.333110 -28.532644 27.107330 39.378881 -1.524108 0.811554 0.126175 -0.054173 943035.000000 0 0 1
1.298710 -29.774144 26.478680 39.866111 -1.527205 0.844386 0.140422 -0.055693 101379.000000 0 0 1
1.115810 -30.844244 27.400230 41.272085 -1.534636 0.844784 0.173432 -0.057823 -854330.000000 0 0 1
1.420710 -32.249944 26.857970 41.993188 -1.526772 0.876846 0.177150 -0.055773 652709.000000 0 0 1
2.813710 -32.536044 26.719640 42.195382 -1.484531 0.885069 0.155558 -0.056586 480796.000000 0 0 1
3.454710 -32.052444 25.564080 41.143850 -1.463428 0.900352 0.145773 -0.058793 24312.700000 0 0 1
4.981110 -32.133344 25.869130 41.552077 -1.417007 0.898772 0.142014 -0.044430 265387.000000 0 0 1
5.800510 -31.922744 24.759380 40.813409 -1.391053 0.918959 0.131138 -0.056947 -160588.000000 0 0 1
7.176710 -31.783644 25.030790 41.088266 -1.348722 0.915751 0.105320 -0.053946 -323808.000000 0 0 1
7.956610 -31.537444 23.745250 40.271018 -1.323663 0.940188 0.085472 -0.050033 -197353.000000 0 0 1
9.217710 -30.936544 23.978600 40.212053 -1.281216 0.931908 0.068970 -0.025943 297975.000000 0 0 1
9.906010 -30.747244 22.745050 39.507712 -1.259121 0.957322 0.062104 -0.019517 -132133.000000 0 0 1
10.974710 -29.656944 22.785840 38.976571 -1.216368 0.946405 0.031900 -0.017274 79629.900000 0 0 1
12.174310 -30.068844 23.419310 40.010165 -1.186089 0.945504 0.038584 -0.016462 397270.000000 0 0 1
13.246410 -29.132944 23.306690 39.590372 -1.144050 0.941352 0.041162 -0.014096 226163.000000 0 0 1
14.553210 -29.567544 23.975540 40.753676 -1.113406 0.941837 0.059769 -0.015697 -407784.000000 0 0 1
14.338910 -29.683744 25.339420 41.579023 -1.120796 0.915457 0.051453 -0.018393 130310.000000 0 0 1
15.335510 -28.962044 26.037620 41.856129 -1.083825 0.899407 0.062387 -0.019576 -128321.000000 0 0 1
-11.182390 -13.376561 25.524550 30.910853 0.874505 0.599271 0.079298 -0.037909 -865573.000000 0 0 1
-9.989590 -13.959261 25.159940 30.457765 0.949661 0.598716 0.081448 -0.035200 -1581940.000000 0 0 1
-9.190490 -14.083261 26.276420 31.197012 0.992608 0.569309 0.091557 -0.035006 -1263260.000000 0 0 1
-7.762590 -14.184361 25.796780 30.445488 1.070056 0.559896 0.122859 -0.034585 -1103790.000000 0 0 1
-7.393790 -15.440561 25.180380 30.448819 1.124207 0.597092 0.121364 -0.030997 -55804.400000 0 0 1
-6.958790 -15.209761 23.877410 29.152912 1.141705 0.611060 0.129937 -0.029446 -333651.000000 0 0 1
-6.222490 -16.405161 23.253940 29.130644 1.208260 0.646389 0.135100 -0.025809 -216073.000000 0 0 1
-6.980990 -17.545161 22.955930 29.724428 1.192113 0.688356 0.152303 -0.036579 -317073.000000 0 0 1
-7.292890 -18.320161 24.120740 31.154849 1.191946 0.685313 0.149519 -0.037373 -202027.000000 0 0 1
-8.035190 -19.631261 23.826450 31.900633 1.182294 0.727415 0.139265 -0.036772 1044880.000000 0 0 1
-9.445590 -19.409561 23.596060 31.980060 1.117889 0.740937 0.122818 -0.033304 841590.000000 0 0 1
-10.142290 -20.565961 23.159360 32.591114 1.112636 0.780441 0.104076 -0.031375 -489563.000000 0 0 1
-11.641190 -20.416161 23.387350 33.155769 1.052581 0.787840 0.074212 -0.027829 -466553.000000 0 0 1
-12.111490 -20.454161 24.736890 34.307063 1.036185 0.765489 0.069385 -0.030842 770785.000000 0 0 1
-13.537790 -20.276261 24.787530 34.768091 0.982102 0.777116 0.051172 -0.012026 808156.000000 0 0 1
-13.957090 -20.261161 26.306930 36.019016 0.967587 0.751944 0.055948 -0.009541 -386008.000000 0 0 1
-13.890390 -21.502561 27.050210 37.242676 0.997247 0.757839 0.055520 -0.011837 366924.000000 0 0 1
-12.715790 -21.508761 27.869460 37.430267 1.036879 0.730906 0.059004 -0.017350 501793.000000 0 0 1
-12.425790 -22.868861 28.624420 38.687756 1.073073 0.737900 0.065471 -0.017868 -998207.000000 0 0 1
-13.482990 -23.254061 29.403890 39.838814 1.045353 0.740589 0.066778 -0.014617 -889362.000000 0 0 1
-13.377690 -24.592661 29.893880 40.956142 1.072594 0.752621 0.066409 -0.015974 155077.000000 0 0 1
-14.480090 -24.988461 30.920740 42.310617 1.045608 0.751298 0.065877 -0.027427 260510.000000 0 0 1
-14.388390 -24.220161 32.129196 42.730869 1.034751 0.719862 0.105324 -0.028087 -241398.000000 0 0 1
-15.369690 -24.635661 33.039409 43.985744 1.013003 0.721011 0.089285 -0.030992 -335022.000000 0 0 1
-15.209290 -24.030661 -33.314842 43.802669 1.006528 2.434981 0.095692 -0.037760 -87087.700000 0 0 1
-15.303590 -22.581561 -33.182222 42.955635 0.975192 2.453528 0.107687 -0.040829 -539402.000000 0 0 1
-16.480990 -22.008361 -33.661402 43.463558 0.928031 2.456680 0.100722 -0.044743 -690062.000000 0 0 1
-16.724290 -20.540161 -33.297482 42.547883 0.887442 2.469609 0.100351 -0.044881 -91814.000000 0 0 1
-16.972990 -20.395261 -31.914902 41.504337 0.876726 2.447999 0.096244 -0.042962 210368.000000 0 0 1
-17.209190 -19.028861 -31.598162 40.702550 0.835570 2.459601 0.073530 -0.042332 -206950.000000 0 0 1
-17.095690 -18.775761 -30.109552 39.387522 0.832200 2.440975 0.071816 -0.041013 5130.740000 0 0 1
-18.204390 -19.222361 -29.361712 39.534909 0.812590 2.407857 0.090517 -0.037365 133982.000000 0 0 1
-17.900190 -19.214561 -27.975552 38.369879 0.820797 2.387805 0.081427 -0.029913 443990.000000 0 0 1
-16.841290 -20.224861 -27.430032 38.014216 0.876431 2.376868 0.075925 -0.028832 1224780.000000 0 0 1
-15.451090 -19.985561 -27.731732 37.512768 0.912666 2.402769 0.072477 -0.029022 703872.000000 0 0 1
-14.724690 -21.082061 -27.219972 37.445916 0.961114 2.384614 0.066399 -0.032542 -451461.000000 0 0 1
-13.217090 -20.960361 -27.406082 36.947550 1.008198 2.406482 0.112739 -0.038733 -881805.000000 0 0 1
-12.581790 -19.998561 -26.609532 35.585264 1.009229 2.415491 0.114070 -0.043928 736545.000000 0 0 1
-11.150090 -20.084061 -26.670482 35.199554 1.063992 2.430568 0.101902 -0.052793 952607.000000 0 0 1
-10.488890 -21.122561 -25.699342 34.880303 1.109894 2.399102 0.133172 -0.050503 -590620.000000 0 0 1
-10.562190 -22.489461 -26.050272 35.999338 1.131722 2.379847 0.137988 -0.049164 132905.000000 0 0 1
-10.013790 -23.336161 -25.034302 35.659061 1.165449 2.349063 0.167349 -0.045331 133189.000000 0 0 1
-10.240190 -24.810361 -25.204082 36.819305 1.179357 2.324761 0.160243 -0.038700 -527757.000000 0 0 1
-9.461290 -25.232801 -26.280502 37.641400 1.212061 2.343650 0.160232 -0.039177 -109532.000000 0 0 1
-9.869990 -26.404311 -27.005452 39.037145 1.213076 2.334759 0.157524 -0.033038 -353723.000000 0 0 1
-9.834090 -27.837101 -26.358652 39.577670 1.231209 2.299627 0.183964 -0.028338 -158045.000000 0 0 1
-10.865790 -27.947861 -25.404142 39.300365 1.199993 2.273666 0.143939 -0.030915 -134274.000000 0 0 1
-10.724490 -29.184201 -24.691202 39.703749 1.218638 2.241945 0.156506 -0.039912 -166013.000000 0 0 1
-11.592790 -29.382391 -23.406002 39.313592 1.194998 2.208518 0.162846 -0.040562 -496582.000000 0 0 1
-11.500290 -28.353471 -22.429002 37.937265 1.185468 2.203358 0.149152 -0.044969 95528.900000 0 0 1
-12.149790 -27.153321 -22.804102 37.482626 1.150064 2.224828 0.128192 -0.033501 -376118.000000 0 0 1
-11.943190 -26.043751 -21.780702 35.990494 1.140829 2.220787 0.135429 -0.033084 -72353.900000 0 0 1
-12.309290 -26.363841 -20.467602 35.573774 1.133977 2.183836 0.113601 -0.029803 152973.000000 0 0 1
-12.247390 -25.181501 -19.661302 34.215103 1.118116 2.182958 0.105618 -0.023437 -236769.000000 0 0 1
-12.936790 -25.348081 -18.306902 33.838268 1.098891 2.142436 0.120747 -0.025533 -973864.000000 0 0 1
-14.270090 -25.671951 -18.449602 34.685333 1.063463 2.131655 0.137210 -0.030439 -706138.000000 0 0 1
-14.903290 -26.087221 -17.250702 34.644449 1.051757 2.092013 0.128532 -0.031845 -16005.400000 0 0 1
-16.421790 -26.324951 -17.319302 35.533595 1.013053 2.079913 0.135400 -0.038345 -635292.000000 0 0 1
-17.150490 -25.070121 -17.174502 34.894322 0.970821 2.085396 0.117472 -0.026860 1393000.000000 0 0 1
-18.524690 -25.217451 -16.756002 35.494331 0.937226 2.062440 0.121519 -0.025568 882637.000000 0 0 1
-19.574190 -25.854371 -17.641902 36.916582 0.922770 2.069042 0.111760 -0.019759 -1113150.000000 0 0 1
-19.313590 -27.275231 -17.778802 37.855498 0.954655 2.059690 0.128116 -0.033775 43836.400000 0 0 1
-19.677790 -28.118081 -16.674002 38.155788 0.960187 2.023055 0.117421 -0.038329 -742652.000000 0 0 1
-21.174990 -28.383861 -16.514502 39.073680 0.929846 2.007164 0.103580 -0.028304 -398260.000000 0 0 1
-21.735290 -29.221221 -17.505302 40.407154 0.931263 2.018862 0.086301 -0.022428 -393016.000000 0 0 1
-22.962490 -29.736051 -17.072402 41.267124 0.913231 1.997316 0.081847 -0.018635 -296083.000000 0 0 1
-23.680990 -30.640711 -18.106202 42.748999 0.912824 2.008153 0.064726 -0.017132 -200889.000000 0 0 1
-23.180390 -31.937611 -18.190902 43.454002 0.942962 2.002726 0.065871 -0.022867 30437.500000 0 0 1
-23.781890 -32.677271 -19.242902 44.762390 0.941668 2.015167 0.044285 0.000828 -109632.000000 0 0 1
-23.235390 33.687691 -19.247002 45.223787 -0.966997 2.010415 0.033738 -0.003975 186870.000000 0 0 1
-23.844790 32.743874 -18.370802 44.477203 -0.941380 1.996584 0.049862 -0.009605 -417158.000000 0 0 1
-22.942790 31.747583 -18.054702 43.130649 -0.945022 2.002705 0.052116 -0.010849 -423694.000000 0 0 1
-23.604890 30.444303 -17.677002 42.385407 -0.911270 2.000998 0.076867 -0.018357 -192410.000000 0 0 1
-24.057390 30.371253 -16.358802 42.056883 -0.900885 1.970308 0.078701 -0.021004 263027.000000 0 0 1
-24.847890 29.202523 -16.033002 41.560343 -0.865791 1.966846 0.086525 -0.013131 -61315.200000 0 0 1
-24.096690 27.909143 -15.837802 40.129872 -0.858575 1.976498 0.086498 -0.019594 -370266.000000 0 0 1
-23.458590 27.434823 -17.011602 39.904505 -0.863368 2.011203 0.058244 -0.011947 27929.400000 0 0 1
-22.721690 26.249963 -16.747002 38.546047 -0.857321 2.020243 0.067851 -0.013269 -212791.000000 0 0 1
-21.898190 25.783043 -17.925002 38.283177 -0.866694 2.058073 0.062630 -0.013251 -683689.000000 0 0 1
-21.517990 24.401913 -17.872902 37.120316 -0.848119 2.073145 0.087092 -0.020244 166396.000000 0 0 1
-20.840090 23.899803 -19.023102 36.978214 -0.853681 2.111152 0.074200 -0.012517 247472.000000 0 0 1
-19.383290 24.361833 -19.236002 36.595554 -0.898719 2.124261 0.058777 -0.018135 -648425.000000 0 0 1
-18.506790 24.035283 -18.174802 35.362685 -0.914627 2.110584 0.068420 -0.020827 -324438.000000 0 0 1
-17.205790 24.503233 -18.368002 35.125932 -0.958606 2.121068 0.089230 -0.029336 -368796.000000 0 0 1
-17.015090 25.803923 -17.585102 35.561095 -0.987842 2.088060 0.098010 -0.033202 -736515.000000 0 0 1
-17.910790 26.886543 -17.807002 36.888641 -0.983143 2.074558 0.061514 -0.025623 -39232.300000 0 0 1
-17.659990 28.074433 -17.052902 37.294107 -1.009296 2.045702 0.082585 -0.037176 -554299.000000 0 0 1
-18.751190 29.119333 -17.307002 38.717889 -0.998691 2.034208 0.065610 -0.027097 -129430.000000 0 0 1
-18.829990 29.667263 -18.630102 39.771795 -1.005248 2.058304 0.026527 -0.029371 26771.000000 0 0 1
-19.569990 28.824013 -19.474902 39.913406 -0.974340 2.080512 0.033375 -0.014625 -460000.000000 0 0 1
-19.738890 29.364163 -20.947802 41.117979 -0.978966 2.105349 0.048405 -0.023024 72532.100000 0 0 1
-20.769290 30.330233 -20.965502 42.318302 -0.970364 2.089119 0.057392 -0.019807 196858.000000 0 0 1
-21.276890 30.467843 -22.302102 43.340272 -0.961186 2.111316 0.057421 -0.016586 99778.300000 0 0 1
-22.208690 31.649713 -22.513502 44.741345 -0.958929 2.098085 0.045897 -0.017055 -347272.000000 0 0 1
-21.451390 32.826216 -22.609002 45.264661 -0.991976 2.093800 0.024774 -0.014663 -90358.300000 0 0 1
-21.839090 33.784039 -23.512602 46.595596 -0.996933 2.099726 0.043324 -0.008681 -56721.000000 0 0 1
-20.683390 -32.957021 -23.673802 45.545765 1.010339 2.117390 0.059060 -0.008906 669437.000000 0 0 1
-20.412890 -32.018541 -22.556302 44.166274 1.003235 2.106811 0.063882 -0.013487 178531.000000 0 0 1
-19.942790 -32.553441 -21.350302 43.741019 1.021151 2.080716 0.085019 -0.024060 -399130.000000 0 0 1
-19.613790 -31.529211 -20.254702 42.297101 1.014297 2.070160 0.110728 -0.031858 772014.000000 0 0 1
-18.404890 -30.780261 -20.516202 41.316812 1.031890 2.090425 0.129213 -0.037429 947698.000000 0 0 1
-18.190490 -29.813611 -19.483402 39.991852 1.022954 2.079659 0.123065 -0.033037 -499589.000000 0 0 1
-16.955290 -28.946301 -19.695302 38.900836 1.040921 2.101679 0.140384 -0.037513 -808452.000000 0 0 1
-15.788590 -29.684231 -19.637802 38.936825 1.081967 2.099426 0.140525 -0.043175 -636211.000000 0 0 1
-14.646790 -28.936721 -20.006702 38.106828 1.102228 2.123530 0.132593 -0.042368 -99465.600000 0 0 1
-13.357590 -29.769441 -20.218302 38.385212 1.149023 2.125535 0.164576 -0.049460 286668.000000 0 0 1
-12.555090 -30.237761 -19.116502 37.912967 1.177245 2.099276 0.155171 -0.049643 339144.000000 0 0 1
-11.720790 -29.184251 -18.667402 36.572794 1.188900 2.106467 0.127591 -0.036366 -653118.000000 0 0 1
-10.809590 -29.846471 -17.575502 36.284394 1.223318 2.076453 0.123845 -0.018035 -238393.000000 0 0 1
-11.444290 -30.336841 -16.414302 36.341780 1.210063 2.039427 0.147793 -0.040005 -203657.000000 0 0 1
-12.078590 -31.567961 -16.608602 37.659980 1.205360 2.027525 0.160793 -0.047823 -205993.000000 0 0 1
-13.139790 -32.003101 -15.594802 37.947995 1.181204 1.994294 0.159898 -0.052770 -172666.000000 0 0 1
-12.600690 -32.457141 -14.359602 37.662203 1.200481 1.961970 0.147087 -0.038608 115429.000000 0 0 1
-13.625990 -33.072761 -13.629102 38.278290 1.179988 1.934837 0.151329 -0.026062 -106658.000000 0 0 1
-13.056190 -33.707471 -12.358202 38.201869 1.201253 1.900220 0.126839 -0.023156 262495.000000 0 0 1
-12.724590 -32.832481 -11.273202 36.972585 1.201059 1.880637 0.097383 -0.009671 294279.000000 0 0 1
-12.227290 -33.519031 -10.081002 37.076389 1.221010 1.846161 0.100414 -0.015395 -76205.900000 0 0 1
-10.900690 -32.965311 -9.563602 36.013875 1.251443 1.839574 0.090579 -0.019940 -112498.000000 0 0 1
-9.707790 -33.362801 -10.197402 36.211940 1.287638 1.856261 0.072823 -0.022855 -485883.000000 0 0 1
-8.640990 -32.565291 -9.760802 35.077601 1.311430 1.852782 0.059985 -0.023132 215612.000000 0 0 1
-7.278890 -33.013631 -10.355202 35.356926 1.353787 1.868030 0.068109 -0.033367 504968.000000 0 0 1
-6.698090 33.565728 -9.843602 35.614870 -1.373832 1.850832 0.070205 -0.019276 -16622.300000 0 0 1
-5.379790 33.355205 -10.289402 35.318318 -1.410886 1.866417 0.080077 -0.020700 -181490.000000 0 0 1
-4.669790 32.249850 -9.532102 33.951741 -1.426995 1.855376 0.082784 -0.027251 -253053.000000 0 0 1
-4.213290 32.651731 -8.305202 33.953847 -1.442468 1.817906 0.089410 -0.030581 -677256.000000 0 0 1
-3.473390 31.711953 -7.625102 32.800222 -1.461702 1.805414 0.089142 -0.036246 29024.400000 0 0 1
-2.826390 32.165185 -6.241402 32.886816 -1.483150 1.761739 0.097448 -0.030137 -289585.000000 0 0 1
-1.832490 33.145992 -6.377702 33.803696 -1.515567 1.760603 0.075114 -0.024857 -297291.000000 0 0 1
-1.486790 33.791397 -5.152602 34.214300 -1.526826 1.721969 0.082244 -0.026271 160207.000000 0 0 1
-0.530990 33.032021 -4.201802 33.302424 -1.554723 1.697305 0.084740 -0.028339 -130603.000000 0 0 1
0.770510 32.770629 -4.703802 33.115458 1.547288 1.713321 0.082491 -0.025951 5428.380000 0 0 1
1.570510 32.209862 -3.690002 32.458555 1.522076 1.684726 0.074098 -0.027282 -279589.000000 0 0 1
3.067010 32.194574 -3.988202 32.585317 1.475818 1.693497 0.064605 -0.024539 -133568.000000 0 0 1
3.758510 33.439960 -3.901602 33.875947 1.458870 1.686226 0.067322 -0.019265 145004.000000 0 0 1
5.129210 33.325690 -4.226902 33.982011 1.418083 1.695506 0.074840 -0.018409 302633.000000 0 0 1
6.068510 -33.318941 -3.884602 34.089129 -1.390637 1.684999 0.068800 -0.012299 29175.500000 0 0 1
5.859710 -32.223161 -4.741702 33.093081 -1.390914 1.714575 0.066951 -0.014478 -112921.000000 0 0 1
5.927010 -30.990301 -4.009502 31.805727 -1.381825 1.697195 0.068069 -0.022299 848.122000 0 0 1
5.936510 -29.703151 -4.879702 30.681115 -1.373534 1.730520 0.060597 -0.022677 -89590.800000 0 0 1
6.994410 -29.588191 -5.814202 30.954608 -1.338666 1.759749 0.072552 -0.024340 -69838.800000 0 0 1
6.865010 -28.531791 -6.722702 30.106248 -1.334675 1.795994 0.078086 -0.021866 93062.800000 0 0 1
7.122310 -27.093251 -6.215902 28.695103 -1.313731 1.789146 0.077457 -0.022945 426860.000000 0 0 1
6.117410 -26.656231 -5.322902 27.862351 -1.345210 1.763021 0.072168 -0.025297 47644.600000 0 0 1
6.669910 -25.546071 -4.610002 26.801894 -1.315404 1.743659 0.064439 -0.029014 250204.000000 0 0 1
5.825210 -24.968261 -3.458102 25.870941 -1.341592 1.704865 0.063858 -0.028054 292843.000000 0 0 1
4.701510 -24.236261 -3.961402 25.003864 -1.379189 1.729898 0.070736 -0.032898 -321335.000000 0 0 1
3.929510 -23.765261 -2.925302 24.264914 -1.406932 1.691647 0.065436 -0.029428 -260419.000000 0 1 0
2.663610 -23.029361 -3.406502 23.431827 -1.455646 1.716693 0.076327 -0.030337 97008.800000 0 1 0
1.860310 -23.851161 -4.222302 24.293342 -1.492957 1.745488 0.079213 -0.027636 -278187.000000 0 1 0
0.578610 -23.257961 -4.365902 23.671261 -1.545924 1.756297 0.059688 -0.022653 290281.000000 0 1 0
-15.696990 23.030239 18.282350 33.332143 -0.972539 0.990239 0.001649 -0.012661 -287275.000000 0 0 1
-15.732290 22.348639 19.579850 33.620487 -0.957425 0.949145 0.008347 -0.015739 290814.000000 0 0 1
-15.461190 23.312639 20.563450 34.718626 -0.985190 0.936900 0.016607 -0.009457 -942090.000000 0 0 1
-15.327790 22.762139 21.976250 35.156958 -0.978154 0.895550 0.040590 -0.016396 44558.500000 0 0 1
-14.184490 21.989439 22.381450 34.433479 -0.997902 0.863224 0.035954 -0.014579 904003.000000 0 0 1
-12.906890 22.595139 22.254550 34.240227 -1.051804 0.863273 0.033090 -0.020022 -209244.000000 0 0 1
-12.589290 23.714439 23.269210 35.529157 -1.082759 0.856703 0.049960 -0.021728 -872434.000000 0 0 1
-12.269290 23.323439 24.580060 36.037448 -1.086527 0.820207 0.047394 -0.018487 193230.000000 0 0 1
-12.051290 24.433239 25.479330 37.301649 -1.112577 0.818850 0.086419 -0.032617 48067.800000 0 0 1
-11.592790 24.038939 26.899770 37.892757 -1.121449 0.781451 0.085527 -0.030429 669392.000000 0 0 1
-10.200190 23.715239 26.940900 37.313115 -1.164604 0.764076 0.054939 -0.024442 321004.000000 0 0 1
-9.943890 22.751439 27.911950 37.357541 -1.158750 0.727022 0.040687 -0.025759 -1551680.000000 0 0 1
-8.486090 22.368239 27.994830 36.824752 -1.208190 0.707148 0.028471 -0.025944 180430.000000 0 0 1
-7.553290 23.408739 28.466070 37.620984 -1.258674 0.712616 0.039237 -0.019056 965019.000000 0 0 1
-7.177590 24.371239 27.437110 37.393450 -1.284383 0.746984 0.038156 -0.015148 -998562.000000 0 0 1
-6.111190 25.365139 27.863900 38.172423 -1.334373 0.752550 0.044750 -0.018595 -1093560.000000 0 0 1
-4.833090 24.863439 27.831100 37.631363 -1.378805 0.738362 0.052716 -0.016231 -532195.000000 0 0 1
-3.831990 25.808739 28.287880 38.483494 -1.423397 0.745033 0.068095 -0.014808 249077.000000 0 0 1
-2.391990 25.349639 28.172270 37.973710 -1.476715 0.734913 0.076442 -0.017576 -711290.000000 0 0 1
-1.852790 25.348939 26.868720 36.985533 -1.497835 0.757632 0.071478 -0.025850 -420254.000000 0 0 1
-0.525090 24.917839 26.906710 36.676225 -1.549727 0.747151 0.083886 -0.016677 330257.000000 0 0 1
0.220410 24.621239 25.511990 35.455827 1.561845 0.767652 0.083504 -0.027228 554012.000000 0 0 1
-0.177090 23.340539 25.034760 34.227932 -1.563209 0.750404 0.072036 -0.024942 140243.000000 0 0 1
0.138410 23.331239 23.652700 33.223728 1.564864 0.778565 0.076795 -0.024463 31522.600000 0 0 1
-0.339990 22.029739 22.943510 31.809270 -1.555364 0.765142 0.058693 -0.023312 -178909.000000 0 0 1
0.366510 20.905939 23.313860 31.316588 1.553267 0.731075 0.060135 -0.024666 -383087.000000 0 0 1
0.102110 19.800139 22.467350 29.947250 1.565639 0.722385 0.051480 -0.024205 -48502.100000 0 0 1
1.067410 18.610039 22.692550 29.367069 1.513502 0.687680 0.050069 -0.016231 788447.000000 0 0 1
2.380210 18.830639 22.154850 29.173546 1.445062 0.708382 0.059485 -0.023675 598292.000000 0 0 1
3.005610 17.552839 21.834250 28.175705 1.401209 0.684189 0.055371 -0.015133 536471.000000 0 0 1
4.415510 17.737539 21.164050 27.964872 1.326819 0.712380 0.078652 -0.022617 525932.000000 0 0 1
5.249810 18.368539 22.124550 29.231139 1.292413 0.712266 0.082161 -0.022132 -966357.000000 0 0 1
6.448010 18.718839 21.473150 29.207327 1.239060 0.744839 0.102142 -0.036824 367169.000000 0 0 1
7.545910 19.237839 22.517450 30.562572 1.196995 0.742522 0.119520 -0.045525 241897.000000 0 0 1
7.305210 20.334539 23.350210 31.813392 1.225904 0.746641 0.100794 -0.039680 -96160.500000 0 0 1
6.945910 21.508939 22.630450 31.984643 1.258437 0.784784 0.106939 -0.045080 -134842.000000 0 0 1
5.702710 22.241739 23.157270 32.610965 1.319806 0.781146 0.087128 -0.032602 -239155.000000 0 0 1
5.485710 23.483639 22.509550 32.988698 1.341314 0.819836 0.081940 -0.036911 440973.000000 0 0 1
4.318510 24.081039 23.081680 33.634951 1.393350 0.814488 0.080693 -0.030329 176029.000000 0 0 1
4.149110 25.562939 22.676850 34.422645 1.409890 0.851604 0.084473 -0.028524 -125710.000000 0 0 1
3.911810 25.838339 21.266650 33.692617 1.420542 0.887702 0.087154 -0.036119 413498.000000 0 0 1
2.889010 25.125339 20.564050 32.596153 1.456315 0.888118 0.099489 -0.040978 12277.400000 0 0 1
2.532710 25.635439 19.203450 32.130404 1.472319 0.930202 0.102168 -0.039628 106119.000000 0 0 1
1.583410 26.708439 19.162250 32.909569 1.511581 0.949278 0.105692 -0.042896 380642.000000 0 0 1
1.223510 27.009339 17.861450 32.404210 1.525528 0.986985 0.112379 -0.033754 458895.000000 0 0 1
0.132010 28.139639 17.878850 33.339316 1.566105 1.004786 0.101103 -0.022978 566861.000000 0 0 1
0.730410 29.363539 18.205350 34.556992 1.545927 1.015940 0.111253 -0.020062 -310894.000000 0 0 1
-0.264390 30.228239 18.551950 35.468172 -1.562050 1.020360 0.092806 -0.021756 -1008440.000000 0 0 1
0.270510 31.585839 19.065050 36.894641 1.562232 1.027754 0.088095 -0.013210 13114.500000 0 0 1
0.794710 31.511839 20.407850 37.551404 1.545582 0.996238 0.114353 -0.018495 148099.000000 0 0 1
0.867810 32.784739 20.958650 38.921167 1.544333 1.002153 0.110704 -0.022958 -100514.000000 0 0 1
1.376610 32.722539 22.385250 39.670632 1.528752 0.971238 0.127193 -0.039259 186603.000000 0 0 1
0.333110 32.292839 23.245150 39.790394 1.560481 0.946915 0.133412 -0.029925 684876.000000 0 0 1
0.868210 32.365439 24.578180 40.649261 1.543978 0.921482 0.143608 -0.034185 422662.000000 0 0 1
-0.233190 32.006439 25.590010 40.979448 -1.563511 0.896357 0.143428 -0.030798 417147.000000 0 0 1
-1.392790 32.842139 25.701840 41.726857 -1.528413 0.907199 0.140322 -0.024981 457678.000000 0 0 1
-2.094290 32.645239 26.904100 42.354791 -1.506731 0.882519 0.150294 -0.024054 -302649.000000 0 0 1
-1.453590 33.155939 28.222130 43.565099 -1.526983 0.866083 0.163681 -0.035123 -13257.500000 0 0 1
-0.287990 32.372339 28.525860 43.148302 -1.561900 0.848496 0.165025 -0.039462 459448.000000 0 0 1
0.264310 32.896339 29.730000 44.340861 1.562762 0.835930 0.150601 -0.045722 48275.800000 0 0 1
1.430210 31.988239 30.328620 44.103494 1.526116 0.812522 0.130278 -0.041690 2018910.000000 0 0 1
2.764310 32.127339 29.766090 43.884251 1.484965 0.825368 0.118485 -0.048429 1390740.000000 0 0 1
2.785910 31.663239 28.439350 42.651127 1.483037 0.840903 0.115588 -0.045271 -1560850.000000 0 0 1
4.184210 31.567839 27.845360 42.301302 1.439018 0.852288 0.086403 -0.037856 -608615.000000 0 0 1
4.781810 30.355039 28.308780 41.781349 1.414551 0.826376 0.084539 -0.042761 47543.400000 0 0 1
6.136910 30.280239 27.898710 41.628027 1.370834 0.836331 0.082000 -0.049108 10651.500000 0 0 1
6.874010 29.167339 28.686610 41.483820 1.339345 0.807215 0.073473 -0.034694 -41824.000000 0 0 1
7.003510 29.343139 30.057980 42.585809 1.336503 0.787214 0.082211 -0.047005 248567.000000 0 0 1
7.702210 28.249039 30.693560 42.419652 1.304613 0.761837 0.069588 -0.037544 201055.000000 0 0 1
7.750010 28.338039 32.249869 43.625236 1.303840 0.738843 0.093335 -0.045238 -462757.000000 0 0 1
6.436010 28.301839 32.736765 43.750567 1.347193 0.725362 0.094078 -0.047078 -628297.000000 0 0 1
6.407110 28.087639 -33.675032 44.316750 1.346522 2.433912 0.109454 -0.044722 -62233.100000 0 0 1
6.541310 26.601939 -33.158082 43.010584 1.329684 2.451094 0.092923 -0.033014 -340487.000000 0 0 1
7.753810 25.934939 -33.371552 42.969793 1.280283 2.460092 0.083121 -0.029897 -396002.000000 0 0 1
7.641910 24.537739 -33.217672 41.998966 1.268882 2.483101 0.078151 -0.027248 -686.983000 0 0 1
9.015010 23.843539 -33.313572 41.947334 1.209319 2.488447 0.091661 -0.023445 -348893.000000 0 0 1
9.569810 23.827839 33.182353 41.957309 1.188892 0.658584 0.072094 -0.020920 1057300.000000 0 0 1
10.851910 23.168839 33.032559 41.781683 1.132760 0.659010 0.082562 -0.034509 738731.000000 0 0 1
10.811310 21.699139 33.314772 41.202077 1.108560 0.629078 0.086659 -0.037139 -1002290.000000 0 0 1
10.201510 20.935439 32.288092 39.810606 1.117373 0.624864 0.078250 -0.035173 182162.000000 0 0 1
9.840910 19.580839 32.700679 39.364796 1.105088 0.590417 0.077464 -0.034860 485857.000000 0 0 1
8.545310 19.447739 33.567715 39.724405 1.156793 0.564203 0.093164 -0.042873 141435.000000 0 0 1
8.747810 19.739539 -32.859112 39.317869 1.153644 2.560257 0.091006 -0.028056 1070500.000000 0 0 1
7.479410 20.042539 -32.209112 38.666159 1.213625 2.555314 0.094486 -0.039305 1191510.000000 0 0 1
7.756810 20.592239 -30.768212 37.827124 1.210548 2.520753 0.108125 -0.044048 -206726.000000 0 0 1
8.007210 21.971739 -30.873482 38.730409 1.221323 2.493337 0.111859 -0.039949 -35892.900000 0 0 1
8.070610 22.586039 -29.604512 38.101063 1.227609 2.460682 0.084277 -0.034433 -224169.000000 0 0 1
9.505410 22.734139 -29.061892 38.102329 1.174775 2.438324 0.088531 -0.037414 124313.000000 0 0 1
10.199910 21.534539 -28.829492 37.402061 1.128447 2.450892 0.101547 -0.041237 182311.000000 0 0 1
11.614910 21.607639 -28.925972 37.927669 1.077572 2.438214 0.107158 -0.042377 537839.000000 0 0 1
12.411810 20.308139 -28.859242 37.407611 1.022201 2.451961 0.114499 -0.050392 -219074.000000 0 0 1
12.291110 19.396139 -29.920372 37.716180 1.005973 2.487012 0.110284 -0.044424 -844366.000000 0 0 1
11.055910 18.863039 -30.237862 37.314551 1.040649 2.515546 0.122889 -0.043029 -1171650.000000 0 0 1
11.088210 17.866839 -31.449612 37.831871 1.015365 2.552238 0.123403 -0.050334 -340914.000000 0 0 1
11.927510 16.733339 -31.222572 37.378057 0.951532 2.559508 0.129548 -0.043426 351072.000000 0 0 1
12.100210 16.011039 -32.394792 38.107624 0.923631 2.586947 0.111201 -0.033090 304278.000000 0 0 1
13.328610 16.359339 -33.294392 39.418224 0.887132 2.576697 0.093556 -0.018987 103350.000000 0 0 1
13.103710 17.707839 -33.720022 40.277967 0.933729 2.562908 0.096627 -0.027802 -47451.700000 0 0 1
13.492410 17.840839 32.756265 39.665017 0.923297 0.599137 0.101580 -0.029695 -689059.000000 0 0 1
12.639510 17.202539 31.697280 38.215208 0.937129 0.592689 0.108001 -0.040094 -1022140.000000 0 0 1
12.833210 17.799339 30.422600 37.510563 0.946119 0.624867 0.110143 -0.036996 40769.500000 0 0 1
12.129010 17.115239 29.409280 36.124093 0.954277 0.619587 0.096813 -0.038997 -694273.000000 0 0 1
10.662310 17.453739 29.281740 35.717477 1.022408 0.609708 0.070091 -0.037400 -857683.000000 0 0 1
9.838510 16.699739 30.158130 35.849552 1.038399 0.571221 0.079702 -0.030096 243677.000000 0 0 1
8.486010 17.126739 30.206410 35.745836 1.110769 0.564169 0.075355 -0.028727 730025.000000 0 0 1
7.584110 16.305639 31.174170 35.989186 1.135438 0.523231 0.073956 -0.025086 42625.700000 0 0 1
8.006310 16.511239 32.514867 37.335487 1.119301 0.513799 0.084790 -0.024033 83683.800000 0 0 1
7.787710 15.482339 33.450516 37.673443 1.104747 0.478021 0.101904 -0.029056 -245515.000000 0 0 1
7.873810 15.934639 -32.899942 37.394061 1.111854 2.646274 0.106980 -0.033094 44672.100000 0 0 1
6.723110 16.593939 -32.401612 37.019231 1.185854 2.636778 0.090573 -0.037899 241187.000000 0 0 1
6.807910 16.646739 -30.987822 35.828852 1.182587 2.615717 0.100127 -0.045168 -178244.000000 0 0 1
5.666810 17.452239 -30.359042 35.473438 1.256832 2.597939 0.089702 -0.046974 -942385.000000 0 0 1
5.642110 17.431539 -28.939882 34.252135 1.257766 2.577188 0.094411 -0.054206 237052.000000 0 0 1
4.786410 18.388639 -28.344932 34.124580 1.316155 2.551036 0.094980 -0.054247 954345.000000 0 0 1
3.238910 18.290139 -28.587942 34.092377 1.395528 2.565401 0.115631 -0.055935 -785657.000000 0 0 1
2.613910 17.252239 -27.843192 32.859026 1.420429 2.581777 0.121574 -0.056741 564761.000000 0 0 1
1.200410 17.182139 -28.054052 32.919549 1.501046 2.590973 0.126351 -0.051134 628290.000000 0 0 1
0.329410 18.356539 -27.582902 33.134386 1.552853 2.554321 0.134429 -0.055032 -1314610.000000 0 0 1
0.236410 18.516439 -26.197142 32.081220 1.558029 2.526271 0.143286 -0.060742 252268.000000 0 0 1
-0.511490 19.738939 -26.045192 32.683931 -1.544889 2.492910 0.156513 -0.050617 152464.000000 0 0 1
-0.856990 20.136339 -24.632002 31.826751 -1.528263 2.455836 0.145938 -0.051400 -182528.000000 0 0 1
-1.881290 19.311139 -24.131202 30.964080 -1.473683 2.464390 0.139119 -0.043305 -244116.000000 0 0 1
-2.306290 19.872739 -22.899602 30.407836 -1.455260 2.423531 0.136141 -0.042917 632063.000000 0 0 1
-3.522490 19.079439 -22.245102 29.517410 -1.388230 2.424358 0.117625 -0.034048 1609330.000000 0 0 1
-4.769990 19.557339 -22.813002 30.424914 -1.331569 2.418576 0.115643 -0.031218 832444.000000 0 0 1
-5.812890 18.661039 -22.432102 29.752702 -1.268824 2.424853 0.098566 -0.037852 97080.000000 0 0 1
-7.282790 19.046939 -22.627002 30.459910 -1.205589 2.408107 0.118710 -0.033808 -69681.000000 0 0 1
-7.795190 19.909239 -21.585602 30.382248 -1.197607 2.360959 0.073189 -0.019046 47896.600000 0 0 1
-7.560790 21.258739 -21.874602 31.426068 -1.229092 2.340699 0.084347 -0.026594 -203512.000000 0 0 1
-8.153890 22.135839 -20.745502 31.414282 -1.217862 2.292127 0.084537 -0.031044 -80801.100000 0 0 1
-7.615590 22.052139 -19.447202 30.372483 -1.238275 2.265672 0.103129 -0.034366 -186457.000000 0 0 1
-7.719290 23.275539 -18.761902 30.876320 -1.250563 2.223891 0.113921 -0.034173 -194787.000000 0 0 1
-6.901490 23.451539 -17.476902 30.050746 -1.284589 2.191465 0.132157 -0.037422 962524.000000 0 0 1
-5.510090 23.758539 -17.663602 30.113653 -1.342905 2.197607 0.133428 -0.040567 537868.000000 0 0 1
-4.784590 23.747739 -16.442002 29.277753 -1.371982 2.167099 0.116223 -0.038053 281157.000000 0 0 1
-3.280190 24.059239 -16.526402 29.372242 -1.435294 2.168389 0.113947 -0.037602 66841.900000 0 0 1
-3.006790 25.382239 -16.722002 30.543808 -1.452885 2.150141 0.091424 -0.042881 347856.000000 0 0 1
-1.624290 25.534639 -17.053802 30.748793 -1.507271 2.158699 0.092773 -0.052628 708628.000000 0 0 1
-1.245390 27.034039 -17.126202 32.026506 -1.524761 2.135009 0.084165 -0.067980 -279402.000000 0 0 1
-2.125390 27.737839 -17.939702 33.101932 -1.494322 2.143556 0.097604 -0.073094 62925.400000 0 0 1
-1.577690 29.048739 -18.230702 34.331863 -1.516538 2.130593 0.099341 -0.067173 -203841.000000 0 0 1
-2.549590 29.945739 -19.038902 35.577064 -1.485861 2.135476 0.144187 -0.071140 454107.000000 0 0 1
-3.668590 30.401239 -18.297002 35.671756 -1.450705 2.109387 0.120993 -0.067806 837396.000000 0 0 1
-4.818590 29.509939 -18.230902 35.020296 -1.408938 2.118328 0.093569 -0.071498 411447.000000 0 0 1
-6.045290 30.119939 -17.537202 35.373856 -1.372721 2.089514 0.118321 -0.056592 17643.200000 0 0 1
-6.692090 31.173539 -18.175502 36.700443 -1.359334 2.088907 0.152366 -0.059479 79544.800000 0 0 1
-6.021890 32.359439 -17.811902 37.425397 -1.386807 2.066818 0.152577 -0.083120 -494925.000000 0 0 1
-6.604790 33.616139 -18.368802 38.872625 -1.376791 2.062965 0.145583 -0.061715 485187.000000 0 0 1
-7.951590 33.754339 -17.873302 39.013307 -1.339442 2.046691 0.159023 -0.072400 881404.000000 0 0 1
-8.504090 -32.812444 -18.291602 38.516992 1.317203 2.065643 0.200986 -0.068031 -70454.600000 0 0 1
29.491010 -19.972061 -26.539952 44.418149 -0.595277 2.211179 0.098450 -0.005407 118232.000000 0 0 1
29.186710 -21.184161 -25.926652 44.416483 -0.627842 2.194095 0.097224 -0.012972 -229766.000000 0 0 1
27.880110 -21.676161 -26.128282 43.929985 -0.660856 2.207777 0.083084 -0.018826 -339880.000000 0 0 1
27.455510 -22.930161 -25.400992 43.872630 -0.695824 2.188263 0.100523 -0.014308 184505.000000 0 0 1
28.018310 -24.093661 -26.008242 45.188039 -0.710228 2.184080 0.090401 -0.001500 208860.000000 0 0 1
29.421810 -24.243961 -25.834482 46.052503 -0.689213 2.166364 0.083706 -0.003050 215921.000000 0 0 1
29.986610 -25.563611 -26.446602 47.456482 -0.705944 2.161904 0.075361 -0.011508 5627.380000 0 0 1
29.457510 -26.653401 -25.713952 47.321834 -0.735465 2.145260 0.081268 -0.018312 -202179.000000 0 0 1
29.666610 -27.893201 -26.367822 48.511859 -0.754598 2.145437 0.069410 -0.016380 -524390.000000 0 0 1
28.657110 -28.292841 -27.409462 48.713380 -0.779002 2.168406 0.067428 -0.021807 -1018730.000000 0 0 1
28.617010 -27.524981 -28.600962 48.934373 -0.765949 2.195030 0.045836 -0.021954 921840.000000 0 0 1
29.657510 -27.839671 -29.599982 50.306800 -0.753793 2.199862 0.022547 -0.021337 637181.000000 0 0 1
29.870510 -29.289631 -30.156542 51.570795 -0.775580 2.195381 0.029783 -0.020112 -425473.000000 0 0 1
30.529210 -30.266831 -29.372952 52.066150 -0.781082 2.170196 0.042943 -0.020092 83352.800000 0 0 1
31.834210 -30.056491 -28.880672 52.449049 -0.756683 2.153930 0.055503 -0.020027 -263667.000000 0 0 1
33.024910 -30.041281 -29.816732 53.685759 -0.738124 2.159633 0.059734 -0.017342 -697764.000000 0 0 1
32.941210 -28.826841 -30.569822 53.391236 -0.718886 2.180424 0.064774 -0.024992 -190530.000000 0 0 1
34.173310 -28.403081 -31.122952 54.251159 -0.693447 2.181791 0.062364 -0.022053 -156700.000000 0 0 1
34.115610 -27.014981 -31.809392 53.902889 -0.669761 2.202009 0.047339 -0.007611 -121764.000000 0 0 1
33.893010 -25.878951 -30.974742 52.705700 -0.652116 2.199000 0.051222 -0.004705 -8880.850000 0 0 1
32.658110 -25.768071 -30.285872 51.456580 -0.668013 2.200087 0.060422 -0.012369 -132931.000000 0 0 1
32.476610 -24.476061 -29.496132 50.237730 -0.645834 2.198306 0.073981 -0.015577 467279.000000 0 0 1
33.287210 -24.463861 -28.257462 50.050005 -0.633788 2.170726 0.075291 -0.012039 831819.000000 0 0 1
33.206710 -23.206461 -27.616442 49.029514 -0.609953 2.169124 0.074707 -0.010042 -35064.000000 0 0 1
34.329810 -23.048461 -26.573872 49.152193 -0.591261 2.142000 0.066950 -0.010157 -343275.000000 0 0 1
34.139010 -23.782961 -25.366282 48.729349 -0.608474 2.118297 0.078035 -0.012760 145419.000000 0 0 1
33.183010 -23.220661 -24.481102 47.324788 -0.610575 2.114489 0.089067 -0.004633 -58247.900000 0 0 1
33.585510 -21.978461 -23.615202 46.569486 -0.579464 2.102608 0.080783 -0.002525 -437461.000000 0 0 1
33.873610 -20.854561 -24.439402 46.686385 -0.551853 2.121727 0.092682 -0.014959 174883.000000 0 0 1
34.229010 -19.686561 -23.676102 46.040673 -0.521941 2.110921 0.075190 -0.020640 178193.000000 0 0 1
34.493210 -18.486061 -24.616602 46.233030 -0.491979 2.132284 0.062499 -0.023849 663639.000000 0 0 1
33.256610 -17.979861 -25.138942 45.400924 -0.495629 2.157609 0.071423 -0.016979 650257.000000 0 0 1
33.380710 -16.827561 -25.846382 45.447487 -0.466930 2.175731 0.061145 -0.016655 -358334.000000 0 0 1
32.190210 -16.560761 -26.743442 45.007556 -0.475153 2.207066 0.066441 -0.010894 -1167590.000000 0 0 1
30.950810 -16.269461 -26.216192 43.702823 -0.483961 2.214140 0.082987 -0.009644 -631976.000000 0 0 1
30.063410 -16.153261 -27.329382 43.722209 -0.493045 2.246016 0.080529 -0.010342 -359001.000000 0 0 1
28.632710 -15.805161 -26.910292 42.353264 -0.504375 2.259293 0.079809 -0.009406 -115971.000000 0 0 1
27.938510 -16.900061 -26.312322 41.934600 -0.544016 2.249084 0.078557 0.001859 79549.500000 0 0 1
27.633810 -16.745161 -24.955102 40.826278 -0.544795 2.228437 0.106110 -0.006794 154950.000000 0 0 1
26.984010 -18.046061 -24.332202 40.569116 -0.589456 2.214012 0.114183 -0.009180 196313.000000 0 0 1
26.595510 -17.757561 -23.030402 39.408775 -0.588711 2.194934 0.118155 -0.008653 -136517.000000 0 0 1
25.856610 -18.759761 -22.362602 38.994600 -0.627656 2.181543 0.123644 -0.012407 184871.000000 0 0 1
25.772910 -18.380161 -20.851502 37.905914 -0.619502 2.153263 0.118284 -0.020275 204862.000000 0 0 1
25.096410 -17.121261 -20.522702 36.662633 -0.598693 2.164906 0.115665 -0.024578 291060.000000 0 0 1
25.610810 -15.896261 -21.093802 36.790667 -0.555491 2.181381 0.125396 -0.029063 -182502.000000 0 0 1
26.976010 -15.488961 -20.517602 37.263722 -0.521214 2.153885 0.098787 -0.025355 -284432.000000 0 0 1
26.936210 -14.725661 -19.287602 36.254877 -0.500296 2.131757 0.090106 -0.026079 -154005.000000 0 0 1
27.737110 -13.604761 -19.373102 36.465790 -0.456010 2.130893 0.064352 -0.020909 -505300.000000 0 0 1
27.447410 -12.593861 -18.218502 35.268675 -0.430178 2.113629 0.066622 -0.019320 240453.000000 0 0 1
28.051310 -13.000661 -16.967202 35.267253 -0.433991 2.072709 0.056086 -0.012859 581313.000000 0 0 1
27.776710 -11.938961 -16.001402 34.207152 -0.405945 2.057573 0.044704 -0.017899 103443.000000 0 0 1
28.409810 -12.367961 -14.646302 34.272408 -0.410597 2.012356 0.058056 -0.010831 -152818.000000 0 0 1
27.762110 -13.473161 -14.115302 33.933797 -0.451825 1.999801 0.091876 -0.020505 154675.000000 0 0 1
28.143410 -13.630461 -12.766702 33.776170 -0.451026 1.958409 0.097897 -0.022844 -57085.600000 0 0 1
27.570610 -14.902161 -12.090902 33.591708 -0.495527 1.938997 0.101236 -0.031977 1030310.000000 0 0 1
26.166210 -14.932461 -11.755502 32.339461 -0.518580 1.942822 0.088296 -0.031723 1157560.000000 0 0 1
25.950510 -16.150061 -11.069502 32.508265 -0.556685 1.918259 0.075462 -0.032763 -221890.000000 0 0 1
24.488810 -16.389261 -10.659402 31.335803 -0.589792 1.917891 0.085566 -0.032023 -261653.000000 0 0 1
24.201110 -15.634161 -9.484802 30.332856 -0.573565 1.888821 0.079405 -0.024119 69104.900000 0 0 1
22.867110 -15.883461 -9.115102 29.296316 -0.607092 1.887183 0.096001 -0.025176 -362425.000000 0 0 1
22.682410 -15.484661 -7.603802 28.497092 -0.599002 1.840896 0.078105 -0.019140 -352467.000000 0 0 1
22.814010 -14.058861 -7.387202 27.797507 -0.552274 1.839779 0.100612 -0.017810 286756.000000 0 0 1
22.470810 -13.654761 -6.082302 26.988594 -0.546038 1.798115 0.110257 -0.011501 -343090.000000 0 0 1
23.346610 -14.187861 -4.932602 27.761307 -0.546066 1.749424 0.100400 -0.019278 -201634.000000 0 0 1
24.710210 -13.827961 -5.006802 28.755435 -0.510188 1.745805 0.109551 -0.026526 148888.000000 0 0 1
25.436610 -14.508361 -4.006702 29.556173 -0.518350 1.706777 0.114111 -0.038241 -202630.000000 0 0 1
26.965310 -14.382161 -4.164302 30.843410 -0.489976 1.706224 0.117444 -0.031977 -70239.100000 0 0 1
27.409910 -13.068461 -3.773502 30.599463 -0.444899 1.694430 0.121063 -0.026295 1369600.000000 0 0 1
28.814410 -12.885161 -4.077602 31.826474 -0.420504 1.699269 0.130194 -0.032401 1168560.000000 0 0 1
29.649010 -11.749961 -3.443402 32.077756 -0.377314 1.678349 0.150737 -0.038657 -528279.000000 0 0 1
30.013110 -11.991061 -2.103402 32.388217 -0.380099 1.635785 0.146376 -0.046058 411081.000000 0 0 1
30.571810 -10.891761 -1.399002 32.484200 -0.342248 1.613877 0.151783 -0.038684 1236550.000000 0 0 1
32.049910 -10.424261 -1.758502 33.748397 -0.314459 1.622926 0.168413 -0.031546 730905.000000 0 0 1
32.140310 -9.790461 -2.992102 33.731370 -0.295686 1.659617 0.175085 -0.036707 83694.400000 0 0 1
33.320510 -10.027361 -3.729302 34.995886 -0.292316 1.677563 0.189303 -0.044337 -190945.000000 0 0 1
33.098010 -9.868061 -5.260902 34.936142 -0.289756 1.721958 0.175375 -0.053744 -601534.000000 0 0 1
32.113210 -10.736361 -5.705302 34.337708 -0.322646 1.737723 0.163958 -0.060101 -150572.000000 0 0 1
31.979510 -10.793461 -7.075602 34.485533 -0.325506 1.777440 0.157290 -0.052188 36101.300000 0 0 1
30.724810 -11.536061 -7.610202 33.689907 -0.359177 1.798653 0.153699 -0.048417 202412.000000 0 0 1
30.817910 -12.945461 -7.506702 34.259001 -0.397681 1.791705 0.133070 -0.041714 2267.630000 0 0 1
29.573810 -13.578261 -7.664602 33.432403 -0.430421 1.802110 0.120973 -0.034280 -158097.000000 0 0 1
29.631810 -15.075261 -7.473102 34.075723 -0.470625 1.791902 0.127553 -0.037638 298557.000000 0 0 1
30.275810 -15.780561 -8.579002 35.202984 -0.480484 1.816976 0.133796 -0.042020 473828.000000 0 0 1
30.273110 -17.175561 -8.403002 35.806026 -0.516069 1.807687 0.127922 -0.030899 -16370.200000 0 0 1
30.551510 -17.826561 -9.805302 36.705926 -0.528193 1.841211 0.116813 -0.037567 608245.000000 0 0 1
31.785410 -17.395861 -10.407602 37.699422 -0.500761 1.850497 0.126073 -0.038460 804534.000000 0 0 1
31.913310 -17.914761 -11.719102 38.428315 -0.511521 1.880693 0.105366 -0.024094 154947.000000 0 0 1
31.253410 -17.048861 -12.878402 37.858850 -0.499385 1.917893 0.094782 -0.027491 608455.000000 0 0 1
32.061410 -15.916061 -13.257802 38.170988 -0.460783 1.925515 0.084641 -0.025636 929380.000000 0 0 1
31.454710 -15.340761 -14.427402 37.853503 -0.453767 1.961823 0.070765 -0.028389 42372.100000 0 0 1
32.266710 -14.132361 -15.012702 38.291584 -0.412818 1.973669 0.058069 -0.022448 305890.000000 0 0 1
33.310410 -14.326161 -15.929402 39.605153 -0.406166 1.984721 0.026936 -0.024343 1055660.000000 0 0 1
34.584810 -14.685661 -15.352302 40.589049 -0.401555 1.958688 0.045842 -0.025263 1001600.000000 0 0 1
35.656810 -15.069661 -16.423102 42.050221 -0.399862 1.972035 0.049739 -0.020907 1349430.000000 0 0 1
37.012210 -15.387161 -16.026002 43.168289 -0.393994 1.951146 0.066782 -0.025674 1117150.000000 0 0 1
-36.979782 -15.912561 -17.107702 43.742282 0.406355 1.972625 0.075612 -0.028672 -956685.000000 0 0 1
-35.497582 -15.896061 -16.787702 42.362601 0.421029 1.978264 0.110994 -0.025565 -818760.000000 0 0 1
-34.938882 -16.725261 -15.788402 41.829815 0.446463 1.957831 0.100853 -0.026492 218339.000000 0 0 1
-35.197182 -16.339161 -14.431802 41.401530 0.434614 1.926853 0.085900 -0.029192 -458134.000000 0 0 1
-34.538282 -17.276461 -13.401602 40.877523 0.463817 1.904821 0.079665 -0.024646 48680.300000 0 0 1
-33.127282 -17.278761 -13.497102 39.725862 0.480768 1.917454 0.107725 -0.030157 -99670.300000 0 0 1
-32.641482 -17.866961 -12.344802 39.205723 0.500822 1.891119 0.101559 -0.011890 1039980.000000 0 0 1
-31.111882 -17.527461 -12.080602 37.697506 0.513049 1.897013 0.138231 -0.021549 1109720.000000 0 0 1
-30.856382 -16.173361 -11.864102 36.802864 0.482780 1.899027 0.133994 -0.032992 567460.000000 0 0 1
-29.578482 -16.004161 -11.239502 35.459077 0.495965 1.893330 0.139097 -0.034485 574223.000000 0 0 1
-29.689282 -15.674261 -9.682902 34.941300 0.485752 1.851591 0.134798 -0.032207 -130187.000000 0 0 1
-30.062682 -16.836361 -8.990002 35.609661 0.510520 1.826018 0.120567 -0.025043 34988.500000 0 0 1
-30.575982 -16.603361 -7.682802 35.631274 0.497468 1.788123 0.143698 -0.024152 -200405.000000 0 0 1
-30.893082 -17.921561 -7.000902 36.394745 0.525670 1.764363 0.134556 -0.020915 22262.700000 0 0 1
-32.031882 -18.629961 -7.453902 37.797851 0.526785 1.769302 0.108145 -0.018565 -58168.800000 0 0 1
-32.025682 -19.203761 -8.760102 38.355809 0.540152 1.801220 0.099764 -0.012579 -54651.500000 0 0 1
-33.290082 -20.022061 -9.150802 39.910520 0.541479 1.802137 0.085756 -0.007612 -352288.000000 0 0 1
-34.340182 -19.330861 -9.721702 40.588689 0.512710 1.812665 0.083027 -0.007731 -436577.000000 0 0 1
-35.490282 -20.135261 -9.679302 41.936591 0.516063 1.803704 0.070286 -0.012017 -204571.000000 0 0 1
-36.848282 -19.507561 -10.022302 42.881083 0.486892 1.806701 0.077329 -0.028378 -173458.000000 0 0 1
-37.068282 -19.106961 -11.390902 43.230615 0.475934 1.837436 0.064546 -0.034880 445917.000000 0 0 1
36.425010 -18.403661 -11.480802 42.394397 -0.467837 1.845030 0.082297 -0.042755 549022.000000 0 0 1
36.062910 -18.028361 -12.947202 42.346019 -0.463579 1.881520 0.066125 -0.028911 -2082.810000 0 0 1
35.965710 -19.079061 -13.809602 42.991255 -0.487733 1.897813 0.051588 -0.022680 178695.000000 0 0 1
35.367710 -18.630061 -15.025602 42.705068 -0.484821 1.930339 0.046867 -0.012683 -164886.000000 0 0 1
34.294110 -19.619861 -15.535702 42.454481 -0.519657 1.945437 0.059686 -0.019807 -825064.000000 0 0 1
33.199510 -19.518561 -14.672202 41.212319 -0.531488 1.934796 0.075959 -0.023029 -244039.000000 0 0 1
32.112810 -20.389061 -14.930802 40.864107 -0.565701 1.944834 0.080923 -0.021840 697739.000000 0 0 1
31.088510 -19.976261 -16.017602 40.275427 -0.571128 1.979807 0.075416 -0.017621 -348955.000000 0 0 1
30.364910 -18.782161 -15.840902 39.060613 -0.553946 1.988373 0.073221 -0.016761 634792.000000 0 0 1
29.467710 -18.535561 -16.940002 38.715328 -0.561480 2.023672 0.068400 -0.020213 622602.000000 0 0 1
28.586610 -17.257961 -16.850702 37.402910 -0.543141 2.038142 0.076686 -0.016222 316584.000000 0 0 1
27.306310 -17.320261 -16.243802 36.186836 -0.565256 2.036316 0.093834 -0.026275 308398.000000 0 0 1
26.848810 -15.980161 -16.213202 35.200739 -0.536876 2.049459 0.074843 -0.019537 42147.700000 0 0 1
25.431310 -15.822061 -15.555702 33.750096 -0.556546 2.049815 0.062714 -0.019162 2141550.000000 0 0 1
24.303610 -16.453761 -16.280502 33.562575 -0.595128 2.077250 0.072333 -0.019981 1610310.000000 0 0 1
23.891610 -15.778461 -17.520102 33.566692 -0.583664 2.119931 0.079795 -0.024606 -83350.400000 0 0 1
22.840910 -16.582961 -18.330402 33.655689 -0.627977 2.146762 0.078120 -0.021265 1829110.000000 0 0 1
21.524010 -16.711561 -17.687802 32.487191 -0.660193 2.146535 0.068112 -0.013745 911029.000000 0 0 1
20.689210 -17.481061 -18.473602 32.785742 -0.701547 2.169370 0.061531 -0.017497 -921129.000000 0 0 1
19.280710 -17.658261 -17.986502 31.734432 -0.741504 2.173391 0.064180 -0.013989 -522896.000000 0 0 1
18.442310 -16.517061 -17.865202 30.530272 -0.730383 2.195878 0.070566 -0.015072 -70598.300000 0 0 1
17.142310 -16.900061 -17.509702 29.766768 -0.778282 2.199665 0.075288 -0.023651 -646057.000000 0 0 1
16.205310 -15.743461 -17.197602 28.394121 -0.770943 2.221410 0.084562 -0.018716 -532645.000000 0 0 1
15.710010 -15.110861 -18.357002 28.497755 -0.765961 2.270716 0.077064 -0.008973 -603915.000000 0 0 1
14.465410 -14.608861 -18.010402 27.332059 -0.790332 2.290215 0.089262 -0.009821 -482700.000000 0 0 1
13.610010 -14.089561 -19.175702 27.412691 -0.802709 2.345521 0.075912 -0.014696 136551.000000 0 0 1
14.110210 -12.861261 -19.626102 27.380539 -0.739125 2.369984 0.077165 -0.022337 222848.000000 0 0 1
13.311610 -12.378261 -20.709202 27.555242 -0.749083 2.421208 0.089925 -0.019516 267861.000000 0 0 1
13.634510 -10.947561 -21.147402 27.440145 -0.676525 2.450694 0.081425 -0.010975 -683214.000000 0 0 1
14.792710 -10.736461 -21.884102 28.513326 -0.627828 2.445735 0.060738 -0.003318 -740993.000000 0 0 1
14.736610 -9.502661 -22.491502 28.519044 -0.572735 2.479404 0.054677 -0.006262 31182.200000 0 0 1
16.073510 -9.064061 -23.129402 29.588581 -0.513462 2.468184 0.053762 -0.002304 79868.900000 0 0 1
16.416310 -9.839661 -24.272602 30.910732 -0.539966 2.473893 0.078424 -0.007292 387858.000000 0 0 1
17.505710 -9.252261 -24.985502 31.879923 -0.486209 2.471458 0.077961 -0.016759 -20087.800000 0 0 1
22.290710 4.642139 -7.130002 23.859215 0.205320 1.874269 0.156151 -0.000958 -167209.000000 0 1 0
22.231910 6.012739 -7.303002 24.160809 0.264136 1.877866 0.150293 -0.003011 633960.000000 0 1 0
21.505710 6.581339 -6.229902 23.337122 0.296977 1.841026 0.128584 -0.007575 -290483.000000 0 1 0
21.534810 8.125039 -6.242202 23.848048 0.360784 1.835630 0.119829 -0.005200 -99880.700000 0 1 0
20.552710 8.652239 -7.167802 23.423333 0.398459 1.881797 0.093580 -0.007676 908734.000000 0 1 0
20.266010 10.034239 -7.092402 23.700196 0.459741 1.874708 0.089240 -0.007749 149104.000000 0 1 0
19.550710 10.448039 -5.777302 22.907838 0.490793 1.825747 0.099718 -0.019636 58945.800000 0 1 0
20.469710 10.834739 -4.722002 23.636792 0.486817 1.771923 0.113598 -0.014148 634179.000000 0 1 0
20.386910 12.244039 -4.537202 24.210097 0.540848 1.759321 0.139334 -0.016397 536424.000000 0 1 0
21.275510 12.711339 -3.333802 25.006794 0.538552 1.704510 0.133803 -0.030936 1333600.000000 0 0 1
22.707610 12.612239 -3.467702 26.205517 0.506994 1.703513 0.128806 -0.044585 985642.000000 0 0 1
23.412910 13.104739 -2.381202 26.936382 0.510277 1.659313 0.122353 -0.047450 39137.200000 0 0 1
24.238410 11.909639 -1.752902 27.063125 0.456707 1.635613 0.119673 -0.041743 -144616.000000 0 0 1
25.483310 11.706439 -2.391402 28.145313 0.430624 1.655865 0.113729 -0.034019 63871.200000 0 0 1
26.244910 10.789539 -1.652602 28.424296 0.390047 1.628970 0.130443 -0.036342 926099.000000 0 0 1
27.708910 10.506339 -2.204102 29.715736 0.362420 1.645037 0.137918 -0.033369 1121080.000000 0 0 1
28.539510 11.578739 -1.784402 30.850526 0.385418 1.628669 0.123796 -0.047935 1158230.000000 0 0 1
29.938710 11.266339 -2.049502 32.053974 0.359922 1.634779 0.114176 -0.042131 1216020.000000 0 0 1
30.843410 12.459439 -1.775002 33.312223 0.383914 1.624105 0.093369 -0.040273 -792496.000000 0 0 1
31.029710 12.764439 -0.443802 33.555488 0.390263 1.584023 0.130835 -0.044505 583797.000000 0 0 1
32.002610 13.805239 -0.251502 34.854196 0.407261 1.578012 0.113906 -0.046450 -304877.000000 0 0 1
33.431710 13.298339 -0.080502 35.979599 0.378588 1.573034 0.118777 -0.048288 -729909.000000 0 0 1
34.398210 14.274739 0.265698 37.243465 0.393357 1.563662 0.116145 -0.050298 355310.000000 0 0 1
35.272510 14.650139 -0.789402 38.202091 0.393662 1.591462 0.130076 -0.035409 -227045.000000 0 0 1
34.748110 15.730439 -1.777702 38.184265 0.425096 1.617369 0.085115 -0.011239 196358.000000 0 0 1
33.594410 15.297139 -2.503102 36.998005 0.427292 1.638503 0.092642 -0.012832 199903.000000 0 0 1
33.071110 16.335039 -3.363602 37.038435 0.458785 1.661735 0.067674 0.002444 776472.000000 0 0 1
31.684610 15.853339 -3.925002 35.646158 0.463926 1.681130 0.068638 -0.018468 -263842.000000 0 0 1
31.788610 14.662239 -4.706302 35.322037 0.432163 1.704434 0.055855 -0.014466 602698.000000 0 0 1
30.641710 14.393839 -5.527102 34.302272 0.439153 1.732631 0.054724 -0.023440 353101.000000 0 0 1
29.370510 14.009739 -4.747602 32.885246 0.445079 1.715671 0.073750 -0.035945 -653768.000000 0 0 1
28.257310 13.919939 -5.617002 31.996734 0.457721 1.747260 0.093214 -0.038851 289089.000000 0 0 1
27.099110 13.333139 -5.042802 30.619671 0.457238 1.736242 0.092869 -0.025885 346836.000000 0 0 1
26.000410 13.095539 -6.104602 29.745263 0.466577 1.777494 0.083207 -0.027642 -433277.000000 0 0 1
26.373610 12.126939 -7.067302 29.876023 0.430985 1.809614 0.076847 -0.015251 362036.000000 0 0 1
25.476410 11.839939 -8.142302 29.249423 0.435045 1.852898 0.096377 -0.012639 159214.000000 0 0 1
25.051710 13.036339 -9.101102 29.670935 0.479816 1.882557 0.106622 -0.008666 -235927.000000 0 0 1
24.326610 14.063939 -8.487502 29.353297 0.524183 1.864135 0.100027 -0.019902 -207764.000000 0 0 1
24.136910 15.160339 -9.382402 30.007596 0.560824 1.888796 0.107937 -0.027263 -215167.000000 0 0 1
23.114610 16.236539 -8.813602 29.590370 0.612359 1.873240 0.099607 -0.016658 1988390.000000 0 0 1
21.698210 15.968639 -8.698002 28.310157 0.634444 1.883087 0.114154 -0.027793 1325440.000000 0 0 1
21.380710 14.811539 -7.982702 27.207352 0.605845 1.868580 0.125611 -0.032336 -1631090.000000 0 0 1
19.969710 14.256439 -7.971702 25.798904 0.619996 1.884931 0.137198 -0.032153 -466067.000000 0 0 1
18.993010 14.935639 -7.215002 25.216344 0.666378 1.860976 0.164512 -0.054445 -429793.000000 0 0 1
17.728310 14.449939 -7.524002 24.077050 0.683867 1.888617 0.175556 -0.057733 -179087.000000 0 1 0
16.576110 14.857139 -6.539702 23.200641 0.730766 1.856545 0.156296 -0.040029 413362.000000 0 1 0
16.547710 13.948939 -5.444102 22.316762 0.700389 1.817230 0.118950 -0.038942 433072.000000 0 1 0
15.860910 14.548039 -4.354002 21.958398 0.742251 1.770403 0.088802 -0.024224 -231650.000000 0 1 0
15.642010 13.564939 -3.158702 20.944151 0.714402 1.722189 0.070189 -0.016581 215223.000000 0 1 0
16.874910 12.991939 -2.654802 21.461618 0.656114 1.694814 0.067818 -0.015469 1238180.000000 0 1 0
16.797810 12.334539 -1.443302 20.889960 0.633374 1.639942 0.065375 -0.015807 -160666.000000 0 1 0
16.710410 13.183639 -0.228802 21.286111 0.667965 1.581545 0.060648 -0.020093 -256308.000000 0 1 0
15.595510 14.053539 -0.224402 20.994577 0.733438 1.581485 0.056906 -0.022884 447394.000000 0 1 0
15.757010 14.992739 0.805898 21.764997 0.760549 1.533761 0.055136 -0.015011 -496183.000000 0 1 0
14.580310 15.950339 0.996498 21.633118 0.830242 1.524716 0.059821 -0.006428 -534921.000000 0 1 0
14.432810 16.996939 0.093698 22.298223 0.866801 1.566594 0.063413 -0.007078 40843.500000 0 1 0
13.444710 17.867539 0.569898 22.368147 0.925719 1.545315 0.050234 -0.017260 -361919.000000 0 1 0
13.341010 19.240639 -0.171202 23.413972 0.964529 1.578108 0.041028 -0.015035 -579256.000000 0 1 0
12.752810 19.060339 -1.416602 22.976890 0.981128 1.632489 0.032567 -0.025970 285484.000000 0 1 0
11.972810 20.213739 -1.772502 23.560247 1.036050 1.646100 0.036275 -0.026147 361831.000000 0 1 0
10.515510 20.382639 -1.287502 22.971409 1.094506 1.626874 0.024930 -0.028658 -110548.000000 0 1 0
10.303710 20.554439 0.120298 22.992736 1.106118 1.565564 0.013743 -0.030409 709788.000000 0 1 0
8.888910 20.410139 0.328598 22.264198 1.160054 1.556037 0.014350 -0.031316 911131.000000 0 1 0
8.376610 20.471739 1.784998 22.191123 1.182402 1.490272 0.003992 -0.025710 -97236.400000 0 1 0
8.390510 21.765339 2.309298 23.440638 1.202853 1.472119 0.001804 -0.010550 413913.000000 0 1 0
7.368110 21.909739 3.291298 23.348627 1.246384 1.429362 0.002665 -0.010510 262929.000000 0 1 0
7.096410 23.363839 3.883598 24.724692 1.275917 1.413069 0.009777 -0.004111 114135.000000 0 1 0
7.972810 23.690739 4.933898 25.478622 1.246165 1.375917 0.025124 -0.018146 97723.100000 0 0 1
7.686110 24.981239 5.454298 26.699962 1.272313 1.365067 0.024790 -0.010431 -175018.000000 0 0 1
8.161510 25.090039 6.878998 27.266114 1.256303 1.315749 0.039055 -0.017792 -407529.000000 0 0 1
7.491410 24.280839 7.763098 26.569646 1.271531 1.274292 0.049929 -0.021849 -114261.000000 0 0 1
8.068310 24.345939 9.060398 27.201346 1.250784 1.231221 0.056064 -0.029443 -329592.000000 0 0 1
7.521110 23.313039 10.016098 26.464828 1.258724 1.182655 0.060024 -0.026944 -739974.000000 0 0 1
6.188110 23.565239 10.319198 26.459385 1.313999 1.170163 0.059799 -0.026277 -497701.000000 0 0 1
5.630610 22.511739 11.089898 25.719021 1.325706 1.124980 0.061352 -0.026056 238786.000000 0 0 1
4.334010 22.877739 11.867798 26.134637 1.383573 1.099432 0.056394 -0.028944 1013910.000000 0 0 1
3.234310 23.278039 11.030598 25.961548 1.432738 1.131965 0.050762 -0.021591 728579.000000 0 0 1
2.085010 23.707039 11.754298 26.543069 1.483073 1.112034 0.059344 -0.023145 618201.000000 0 0 1
0.863710 23.885839 10.801998 26.229039 1.534652 1.146331 0.068890 -0.017261 50926.500000 0 0 1
0.748610 25.128439 10.145398 27.109555 1.541014 1.187222 0.063155 -0.019806 568705.000000 0 0 1
-0.240790 25.182339 9.094198 26.775225 -1.561235 1.224252 0.064198 -0.016370 803518.000000 0 0 1
-1.656890 25.682239 9.423798 27.406764 -1.506371 1.219783 0.081698 -0.024048 402263.000000 0 0 1
-2.484790 24.872739 10.282598 27.028858 -1.471227 1.180535 0.085111 -0.028008 52377.300000 0 0 1
-3.794690 25.372039 10.253998 27.627605 -1.422335 1.190549 0.093098 -0.030154 -1260600.000000 0 0 1
-4.887790 24.457539 10.698598 27.138934 -1.373547 1.165582 0.087392 -0.038144 -721174.000000 0 0 1
-5.112190 24.313339 12.112598 27.640333 -1.363552 1.117177 0.078410 -0.027665 457669.000000 0 0 1
-5.782990 25.452639 12.728698 29.039621 -1.347383 1.117066 0.087004 -0.031375 61022.900000 0 0 1
-6.242790 25.326339 14.213598 29.705593 -1.329120 1.071871 0.066850 -0.040259 672988.000000 0 0 1
-7.465590 24.571039 14.295998 29.391267 -1.275823 1.062828 0.064592 -0.031760 609788.000000 0 0 1
-7.947190 24.589939 15.591498 30.181414 -1.258204 1.027930 0.051382 -0.021154 350540.000000 0 0 1
-9.276890 23.827039 15.898398 30.108928 -1.199511 1.014518 0.041686 -0.023601 542596.000000 0 0 1
-10.457390 24.394639 15.382498 30.676973 -1.165816 1.045540 0.033256 -0.018251 159621.000000 0 0 1
-11.556890 23.500939 15.516598 30.440445 -1.113760 1.035918 0.028376 -0.013508 322069.000000 0 0 1
-12.945690 24.114139 15.273698 31.342758 -1.078105 1.061788 0.024920 -0.016675 -53384.000000 0 0 1
-13.461190 25.035039 16.218198 32.725934 -1.077450 1.052298 0.015300 -0.021642 155340.000000 0 0 1
-14.193190 26.085739 15.623098 33.555829 -1.072496 1.086501 0.014666 -0.015240 -342621.000000 0 0 1
-14.854290 26.976439 16.736398 35.049754 -1.067462 1.072985 0.024072 -0.017446 -348367.000000 0 0 1
-15.983890 26.364039 17.285898 35.346140 -1.025775 1.059800 0.024233 -0.021970 -385359.000000 0 0 1
-16.509590 27.152239 18.330398 36.685340 -1.024488 1.047584 0.050339 -0.028817 -160130.000000 0 0 1
-17.805990 26.593139 18.957298 37.197144 -0.980786 1.036025 0.036863 -0.029036 -58037.600000 0 0 1
-18.908390 26.790439 18.096398 37.453097 -0.956196 1.066519 0.030911 -0.029539 -456781.000000 0 0 1
-20.002990 26.074539 18.604298 37.764019 -0.916412 1.055668 0.032957 -0.020894 626441.000000 0 0 1
-21.314190 26.109639 17.719098 38.078529 -0.886175 1.086788 0.042801 -0.026766 561979.000000 0 0 1
-21.959190 27.369539 17.774498 39.334851 -0.894641 1.101928 0.035707 -0.030343 -220169.000000 0 0 1
-22.768890 27.527839 16.671498 39.422622 -0.879735 1.134162 0.052281 -0.034267 -844712.000000 0 0 1
-23.651890 28.788839 16.711098 40.834666 -0.883044 1.149178 0.052343 -0.032069 693162.000000 0 0 1
-24.980790 28.646539 17.240298 41.735979 -0.853648 1.144963 0.052352 -0.031376 615758.000000 0 0 1
-25.716060 29.830939 17.145198 42.955308 -0.859342 1.160217 0.048820 -0.034226 342899.000000 0 0 1
-27.181620 29.577239 17.614998 43.862760 -0.827580 1.157540 0.063495 -0.028768 7791.940000 0 0 1
-27.997420 28.773339 16.778098 43.511667 -0.799065 1.174938 0.084062 -0.023776 395672.000000 0 0 1
-29.307510 28.610739 17.321598 44.469566 -0.773369 1.170691 0.121627 -0.020564 433239.000000 0 0 1
-29.556160 27.593739 18.455398 44.447528 -0.751074 1.142614 0.102747 -0.017039 -626329.000000 0 0 1
-29.395690 26.264939 18.019998 43.343673 -0.729210 1.142032 0.110195 -0.021942 251086.000000 0 0 1
-29.824170 25.298939 18.964698 43.464666 -0.703489 1.119287 0.104703 -0.018970 -54149.100000 0 0 1
-29.921000 23.885039 18.372298 42.465311 -0.673685 1.123375 0.102762 -0.026004 -296453.000000 0 0 1
-31.036140 23.659239 17.539798 42.786050 -0.651335 1.148406 0.124779 -0.026151 -85156.200000 0 0 1
-30.897700 22.737439 16.471798 41.749002 -0.634412 1.165225 0.134029 -0.031067 -732006.000000 0 0 1
-31.549480 21.310439 16.774098 41.603784 -0.594066 1.155800 0.126404 -0.029558 700485.000000 0 0 1
-32.942450 21.261239 16.451398 42.519334 -0.573139 1.173512 0.128431 -0.025694 617557.000000 0 0 1
-33.444810 19.937039 16.663498 42.352249 -0.537560 1.166415 0.119916 -0.030455 -189454.000000 0 0 1
-34.888018 19.737639 16.199798 43.234033 -0.514849 1.186723 0.119312 -0.037185 -508732.000000 0 0 1
-35.064572 19.617939 14.814098 42.823420 -0.510093 1.217562 0.096735 -0.031240 -587443.000000 0 0 1
-36.389190 19.504039 14.410598 43.729235 -0.492019 1.234978 0.116315 -0.042063 -617032.000000 0 0 1
-36.591450 19.868439 12.966698 43.609911 -0.497438 1.268897 0.099191 -0.035303 -93894.300000 0 0 1
-36.579150 21.221439 12.684298 44.150596 -0.525697 1.279393 0.084588 -0.039074 39198.600000 0 0 1
-36.789600 21.614139 11.345298 44.151574 -0.531183 1.310918 0.060370 -0.032005 -361277.000000 0 0 1
-35.633079 21.290039 10.374698 42.785704 -0.538564 1.325874 0.086646 -0.032059 -205755.000000 0 0 1
-35.672327 20.022639 9.829198 42.071773 -0.511472 1.334988 0.087954 -0.024631 374001.000000 0 0 1
-34.458871 19.642439 9.175998 40.711646 -0.518088 1.343453 0.105544 -0.024344 542731.000000 0 0 1
-33.676140 18.535139 9.945998 39.705877 -0.503146 1.317608 0.102416 -0.030841 -87116.700000 0 0 1
-33.118560 19.006139 11.137298 39.775768 -0.520994 1.287000 0.119745 -0.037587 -61853.800000 0 0 1
-32.659150 17.887939 11.873298 39.084187 -0.501088 1.262131 0.135700 -0.043189 -351229.000000 0 0 1
-32.006160 18.267739 13.171998 39.135739 -0.518640 1.227522 0.104732 -0.020949 92472.000000 0 0 1
-30.741420 18.901639 13.100298 38.391727 -0.551274 1.222574 0.128763 -0.023289 63596.600000 0 0 1
-30.862880 20.292439 12.913998 39.128912 -0.581632 1.234453 0.126002 -0.018583 -146972.000000 0 0 1
-29.571270 21.106139 13.155798 38.639412 -0.619887 1.223373 0.138819 -0.033528 30088.800000 0 0 1
-29.118700 21.094739 14.499898 38.770269 -0.626941 1.187483 0.117484 -0.025749 -679359.000000 0 0 1
-28.045170 21.967539 14.587698 38.495523 -0.664469 1.182140 0.139677 -0.032380 -1128010.000000 0 0 1
-27.447880 21.821639 15.991298 38.539482 -0.671698 1.142927 0.113454 -0.036431 -755140.000000 0 0 1
-26.544390 20.742939 16.104498 37.339376 -0.663323 1.124862 0.132853 -0.039617 22547.500000 0 0 1
-26.226070 20.525839 17.471198 37.607972 -0.664072 1.087657 0.107296 -0.029982 551433.000000 0 0 1
-25.011590 19.507439 17.525398 36.238921 -0.662387 1.066025 0.118093 -0.033603 864570.000000 0 0 1
-24.352890 19.407139 18.804598 36.377372 -0.672856 1.027534 0.113223 -0.034576 228386.000000 0 0 1
-23.327790 18.453439 18.739598 35.155195 -0.669260 1.008591 0.105868 -0.036335 -524943.000000 0 0 1
-22.692690 18.303039 20.122098 35.423979 -0.678729 0.966679 0.100165 -0.029955 -422288.000000 0 0 1
-23.492890 17.664439 21.083898 36.172905 -0.644720 0.948547 0.116743 -0.019489 -28475.100000 0 0 1
-23.020190 17.758739 22.404998 36.705393 -0.657083 0.914230 0.110562 -0.019517 -709285.000000 0 0 1
-23.906690 17.093339 23.405398 37.570264 -0.620724 0.898254 0.139435 -0.022872 -553079.000000 0 0 1
-23.585690 15.701139 23.516898 36.821937 -0.587337 0.878034 0.124365 -0.024960 77761.100000 0 0 1
-24.397490 15.075239 24.462698 37.695145 -0.553478 0.864578 0.129765 -0.020805 -64711.400000 0 0 1
21.132510 24.697539 33.516195 46.689258 0.863030 0.770078 0.109889 -0.038715 -181278.000000 0 0 1
22.230310 23.928839 33.102481 46.503229 0.822179 0.778693 0.117103 -0.051869 -258963.000000 0 0 1
22.166610 22.590339 33.525416 46.104616 0.794865 0.756621 0.122528 -0.053477 314626.000000 0 0 1
21.030310 21.694439 32.948466 44.704855 0.800941 0.742143 0.124117 -0.057944 370136.000000 0 0 1
21.436010 21.215439 31.670420 43.733430 0.780227 0.760967 0.135216 -0.051835 145935.000000 0 0 1
20.541010 20.234839 31.189050 42.475154 0.777890 0.746177 0.128748 -0.043671 -293654.000000 0 0 1
20.954610 19.564439 29.861830 41.395554 0.751103 0.765007 0.126978 -0.032124 214214.000000 0 0 1
22.073210 18.683439 29.957730 41.638481 0.702418 0.767754 0.116261 -0.035951 79695.300000 0 0 1
22.387710 17.937339 28.798830 40.648866 0.675481 0.783457 0.102848 -0.031204 -238113.000000 0 0 1
23.563010 16.969439 28.877730 40.952419 0.624137 0.788157 0.126878 -0.039119 -849099.000000 0 0 1
24.816510 17.520039 28.695030 41.787746 0.614730 0.813877 0.131126 -0.037067 -784938.000000 0 0 1
25.798810 16.662939 29.263380 42.421428 0.573474 0.809548 0.110061 -0.021815 83436.300000 0 0 1
27.194910 17.296339 29.411600 43.632198 0.566480 0.831078 0.094476 -0.032768 -545787.000000 0 0 1
27.947910 17.253139 28.245480 43.319322 0.553066 0.860538 0.081422 -0.016954 -126017.000000 0 0 1
29.271010 17.578339 28.642680 44.566727 0.540815 0.872789 0.077007 -0.010500 101425.000000 0 0 1
30.326010 17.636839 27.531680 44.595049 0.526761 0.905400 0.063649 0.012928 -19364.000000 0 0 1
30.227610 18.765339 26.624870 44.437935 0.555574 0.928361 0.083413 0.001315 -287170.000000 0 0 1
31.212510 18.641239 25.648350 44.492184 0.538385 0.956396 0.076524 -0.001486 -322641.000000 0 0 1
31.634210 19.854639 24.812250 44.839466 0.560490 0.984407 0.103068 -0.005477 346.919000 0 0 1
30.638610 20.115739 23.839210 43.722710 0.580965 0.994125 0.088579 -0.007057 251116.000000 0 0 1
31.075710 21.025139 22.837220 43.923739 0.594833 1.024029 0.088409 -0.018392 20884.200000 0 0 1
31.676510 20.316639 21.578650 43.379780 0.570291 1.050156 0.105599 -0.019502 -232466.000000 0 0 1
30.725510 19.562539 20.882350 41.985980 0.566959 1.050238 0.122789 -0.021988 -45180.100000 0 0 1
31.152410 19.158439 19.614250 41.499847 0.551369 1.078519 0.140196 -0.032632 177678.000000 0 0 1
32.172510 17.959939 19.608150 41.738584 0.509146 1.081749 0.157850 -0.048872 389346.000000 0 0 1
31.609810 16.687339 19.934950 40.927370 0.485731 1.062052 0.168825 -0.047841 471486.000000 0 0 1
32.635410 15.721839 20.047750 41.402398 0.448935 1.065328 0.147456 -0.046808 -345789.000000 0 0 1
31.990410 14.322939 19.963450 40.336984 0.420961 1.053057 0.156827 -0.031995 269248.000000 0 0 1
31.474810 13.832339 21.198750 40.390399 0.414066 1.018262 0.125010 -0.038251 275484.000000 0 0 1
30.178910 14.322839 21.483350 39.717058 0.443120 0.999278 0.123897 -0.030181 -347034.000000 0 0 1
29.488610 13.730139 22.754150 39.696930 0.435758 0.960395 0.090825 -0.015626 85481.600000 0 0 1
28.997010 12.472339 22.425550 38.720681 0.406204 0.953096 0.093820 -0.013923 -176332.000000 0 0 1
28.359110 11.799539 23.479690 38.662179 0.394288 0.918134 0.074340 -0.000678 -19926.200000 0 0 1
27.656410 10.487739 23.121370 37.542875 0.362461 0.907312 0.087792 -0.005113 366416.000000 0 0 1
26.468510 10.601339 22.345950 36.225846 0.380960 0.906061 0.078978 0.004074 172065.000000 0 0 1
25.872010 9.403839 22.020950 35.252168 0.348629 0.896088 0.082868 0.006208 -393998.000000 0 0 1
24.594510 9.532339 21.161850 33.816850 0.369754 0.894667 0.087443 0.002892 -247169.000000 0 0 1
23.413310 9.592539 21.944550 33.492733 0.388844 0.856345 0.061171 0.004918 -415493.000000 0 0 1
22.496710 8.914239 21.131750 32.126570 0.377266 0.852948 0.044365 0.007489 456798.000000 0 0 1
21.039210 8.859539 21.763250 31.540115 0.398560 0.809282 0.038367 0.000544 1028530.000000 0 0 1
20.918610 7.982139 22.855280 31.994791 0.364528 0.775110 0.068273 -0.000788 141748.000000 0 0 1
19.598010 8.075539 23.340100 31.528663 0.390859 0.737307 0.055581 -0.002100 41824.300000 0 0 1
19.376910 7.384839 24.720810 32.266375 0.364121 0.697971 0.076314 -0.006620 -60952.300000 0 0 1
19.445210 6.000839 24.555340 31.891864 0.299330 0.692024 0.090635 -0.013863 113037.000000 0 0 1
19.633810 5.389539 25.823930 32.884784 0.267904 0.667640 0.115496 -0.037514 -14229.000000 0 0 1
20.174010 3.959239 25.634470 32.860194 0.193791 0.675959 0.115673 -0.039192 1216660.000000 0 0 1
21.589010 3.904239 25.338920 33.517001 0.178910 0.713613 0.124351 -0.029310 912156.000000 0 0 1
22.097410 2.608739 25.346010 33.727160 0.117512 0.720461 0.090242 -0.033581 -75070.400000 0 0 1
23.624510 2.498539 25.191590 34.626239 0.105369 0.756083 0.086935 -0.030659 -20043.700000 0 0 1
24.345310 3.131439 26.259500 35.945256 0.127924 0.751682 0.094642 -0.036301 922840.000000 0 0 1
25.742810 3.107439 25.878470 36.633914 0.120130 0.786387 0.100802 -0.034133 1022410.000000 0 0 1
26.567710 3.399539 27.164300 38.148385 0.127266 0.778355 0.074431 -0.033870 -1063720.000000 0 0 1
26.606310 2.424939 28.218940 38.859808 0.090890 0.758057 0.060976 -0.024985 190809.000000 0 0 1
27.554810 2.668539 29.255250 40.277268 0.096544 0.757805 0.072310 -0.013895 52933.600000 0 0 1
29.025710 2.671939 28.841170 41.005417 0.091796 0.790697 0.076977 -0.021106 -1449300.000000 0 0 1
29.505910 3.841239 28.209890 41.001851 0.129457 0.812046 0.066590 -0.015944 1655060.000000 0 0 1
30.857410 3.630039 27.651830 41.593036 0.117101 0.843545 0.053492 -0.013552 1645150.000000 0 0 1
31.051710 2.659339 26.448230 40.875294 0.085434 0.867092 0.050539 -0.005084 -556186.000000 0 0 1
30.402710 3.028939 25.262200 39.644395 0.099300 0.879911 0.044491 -0.002144 -43908.800000 0 0 1
30.494110 1.969839 24.325390 39.057594 0.064508 0.898469 0.049570 0.007233 -346980.000000 0 0 1
30.170510 2.402639 22.888300 37.946102 0.079468 0.923315 0.054156 0.004080 223686.000000 0 0 1
31.004810 3.391839 22.227550 38.299697 0.108964 0.951628 0.053889 0.004882 1680740.000000 0 0 1
32.371010 2.943539 21.918050 39.203924 0.090682 0.977523 0.051009 0.003153 1718780.000000 0 0 1
33.254810 4.145639 21.481950 39.806318 0.124023 1.000761 0.065185 -0.001711 -518514.000000 0 0 1
32.927410 4.581239 20.171650 38.885699 0.138244 1.025417 0.067228 -0.003797 -94086.900000 0 0 1
33.434510 5.844039 19.775550 39.282205 0.173043 1.043241 0.080469 0.004607 181821.000000 0 0 1
34.986010 5.952239 19.688650 40.584394 0.168518 1.064286 0.075547 0.002087 321590.000000 0 0 1
35.718210 5.976239 20.932550 41.829148 0.165781 1.046701 0.078272 -0.003311 160296.000000 0 0 1
35.584210 7.237039 21.628350 42.265782 0.200641 1.033608 0.087780 -0.011169 -548860.000000 0 0 1
36.026610 7.131339 23.081830 43.376763 0.195420 1.009689 0.083645 -0.004869 -345964.000000 0 0 1
35.369810 6.247939 23.935860 43.162317 0.174842 0.982969 0.077180 0.009349 -386767.000000 0 0 1
36.161010 5.831039 25.053090 44.376537 0.159876 0.970900 0.074214 -0.000102 38838.200000 0 0 1
35.526410 4.825039 26.020670 44.299911 0.134990 0.942985 0.069992 0.004895 -84549.200000 0 0 1
35.667510 3.507239 25.573350 44.028039 0.098016 0.951033 0.067128 -0.002247 -121261.000000 0 0 1
35.136310 2.574539 26.462330 44.061814 0.073142 0.926579 0.061090 -0.004951 -228363.000000 0 0 1
35.041610 1.126039 25.911160 43.595535 0.032123 0.934335 0.052629 0.002501 22627.300000 0 0 1
33.969210 0.888239 25.014560 42.195076 0.026142 0.936226 0.061322 0.002496 289288.000000 0 0 1
34.136610 -0.515461 24.638470 42.102590 -0.015099 0.945669 0.053405 -0.003888 426588.000000 0 0 1
33.134810 -0.967461 23.501240 40.634467 -0.029189 0.954083 0.063148 0.009268 893092.000000 0 0 1
31.763910 -1.036161 23.850160 39.734743 -0.032609 0.927002 0.056802 0.008924 287921.000000 0 0 1
30.954810 -1.543661 22.757650 38.451187 -0.049827 0.937434 0.071900 0.001517 342078.000000 0 0 1
29.480110 -1.696961 23.138950 37.514898 -0.057499 0.906134 0.050414 0.018313 -164667.000000 0 0 1
28.836710 -0.450661 23.288310 37.068913 -0.015627 0.891503 0.050512 0.017472 13303.100000 0 0 1
27.422210 -0.555561 23.131750 35.879857 -0.020257 0.870165 0.058365 0.009612 836403.000000 0 0 1
26.725310 0.862739 23.023180 35.285314 0.032271 0.859936 0.056799 0.010819 -44318.700000 0 0 1
26.974510 1.469839 21.741850 34.676976 0.054436 0.893123 0.049738 -0.001708 -87971.900000 0 0 1
26.401210 2.706339 21.594250 34.214906 0.102151 0.887780 0.080771 -0.007655 -513769.000000 0 0 1
26.590010 3.383339 20.245450 33.590979 0.126561 0.923910 0.081734 -0.013392 -194721.000000 0 0 1
25.821610 2.813539 19.207050 32.304525 0.108532 0.934075 0.069347 -0.010055 306520.000000 0 0 1
25.206410 3.780139 18.398750 31.435117 0.148858 0.945555 0.083663 -0.021055 189830.000000 0 0 1
24.724710 3.288839 16.970450 30.168261 0.132242 0.973358 0.089156 -0.020638 -215262.000000 0 0 1
25.796410 3.183539 16.085650 30.566941 0.122789 1.016620 0.091480 -0.022475 -66281.900000 0 0 1
25.434110 3.199439 14.715350 29.557942 0.125136 1.049681 0.104749 -0.027024 -269836.000000 0 0 1
24.604310 2.054939 14.101650 28.433280 0.083326 1.051861 0.111810 -0.009313 -131977.000000 0 0 1
23.237910 1.943939 14.396750 27.405215 0.083459 1.017695 0.118348 -0.008156 -282488.000000 0 0 1
22.691010 0.980639 13.533050 26.438363 0.043190 1.033434 0.133112 -0.018041 725726.000000 0 0 1
21.126210 0.816039 13.796150 25.245127 0.038608 0.992632 0.132003 -0.029772 1349820.000000 0 0 1
20.238410 1.600639 12.988150 24.100775 0.078925 1.001654 0.154238 -0.034208 736282.000000 0 1 0
20.184910 1.291639 11.616350 23.324634 0.063903 1.049472 0.158243 -0.020963 -1111620.000000 0 1 0
19.766810 -0.091361 11.081650 22.661379 -0.004622 1.059841 0.145818 -0.015622 274007.000000 0 1 0
20.768310 -1.131861 11.048450 23.551477 -0.054446 1.082503 0.155384 -0.035673 2010830.000000 0 1 0
21.935910 -0.854861 10.198550 24.205895 -0.038951 1.135890 0.167178 -0.034032 536439.000000 0 1 0
23.036410 -1.893561 10.314050 25.310895 -0.082014 1.151088 0.193064 -0.051430 -236241.000000 0 0 1
23.731810 -1.821661 11.559850 26.460299 -0.076610 1.118674 0.178213 -0.046267 515827.000000 0 0 1
24.855410 -2.697661 11.602550 27.562438 -0.108111 1.136298 0.127450 -0.039852 316500.000000 0 0 1
25.500410 -2.761061 12.990350 28.751410 -0.107855 1.101996 0.125954 -0.027924 -333906.000000 0 0 1
26.307010 -1.693761 13.330550 29.540332 -0.064296 1.102613 0.107950 -0.025890 -277483.000000 0 0 1
26.428110 -1.677361 14.758450 30.316174 -0.063384 1.062353 0.089540 -0.016229 388490.000000 0 0 1
27.554610 -0.695461 15.208550 31.480791 -0.025234 1.066598 0.112958 -0.017636 -394635.000000 0 0 1
28.864810 -0.973061 14.856950 32.478502 -0.033698 1.095683 0.112286 -0.014633 -942105.000000 0 0 1
29.651510 0.109839 15.245050 33.341201 0.003704 1.095903 0.091411 -0.017971 -1028400.000000 0 0 1
31.081910 -0.283161 15.562950 34.761628 -0.009110 1.106599 0.094081 -0.019174 -906070.000000 0 0 1
31.704610 -0.912461 14.452350 34.855205 -0.028772 1.143250 0.127470 -0.023878 -77440.200000 0 0 1
33.082610 -0.961661 14.753050 36.235844 -0.029060 1.151476 0.126051 -0.030113 -125484.000000 0 0 1
33.859410 -1.823461 13.730850 36.583069 -0.053802 1.186040 0.121505 -0.039281 -119914.000000 0 0 1
33.971810 -1.264861 12.445250 36.201768 -0.037215 1.219863 0.124562 -0.034832 -118907.000000 0 0 1
34.792510 -1.921061 11.536250 36.705508 -0.055159 1.251085 0.121859 -0.042942 -265212.000000 0 0 1
34.713810 -1.530461 10.037750 36.168320 -0.044059 1.289575 0.158768 -0.033738 -392406.000000 0 0 1
35.172310 -0.249761 9.655650 36.474448 -0.007101 1.302879 0.127439 -0.023439 334499.000000 0 0 1
34.177810 0.763539 9.701550 35.536260 0.022336 1.294282 0.124896 -0.025884 -580271.000000 0 0 1
34.509610 2.124139 9.110150 35.755000 0.061475 1.313162 0.120832 -0.022950 -300468.000000 0 0 1
34.717510 2.121439 7.750050 35.635226 0.061030 1.351561 0.126525 -0.022594 310539.000000 0 0 1
35.235710 3.403039 7.410950 36.167087 0.096281 1.364426 0.121430 -0.018196 -16758.100000 0 0 1
35.621410 3.400639 5.914450 36.268856 0.095178 1.406992 0.111844 -0.018261 87006.200000 0 0 1
36.169310 4.672339 5.524550 36.885911 0.128468 1.420457 0.106500 -0.009828 306887.000000 0 0 1
36.653910 4.707639 4.219350 37.195079 0.127736 1.457113 0.143944 -0.022729 -27256.900000 0 0 1
37.136910 6.162539 3.858750 37.842000 0.164443 1.468649 0.150386 -0.035599 821224.000000 0 0 1
36.010310 7.067039 3.750050 36.888323 0.193788 1.468961 0.162650 -0.042320 894230.000000 0 0 1
36.410710 8.382439 3.515750 37.528198 0.226276 1.476976 0.151054 -0.043222 484407.000000 0 0 1
35.224910 9.474439 3.614450 36.655471 0.262751 1.472030 0.177402 -0.051059 1779160.000000 0 0 1
34.237210 9.496739 2.560050 35.622023 0.270578 1.498867 0.197313 -0.057529 934474.000000 0 0 1
33.278310 8.458039 2.569050 34.432316 0.248891 1.496115 0.209428 -0.044170 334727.000000 0 0 1
31.970610 8.524739 1.718850 33.132244 0.260580 1.518895 0.218797 -0.051468 738317.000000 0 0 1
32.215210 8.068439 0.392750 33.212554 0.245406 1.558971 0.216410 -0.043958 726734.000000 0 0 1
30.971510 7.750739 -0.224850 31.927402 0.245218 1.577839 0.199535 -0.039947 246963.000000 0 0 1
31.231010 7.392539 -1.729250 32.140566 0.232427 1.624625 0.156678 -0.038366 2329.900000 0 0 1
30.135410 6.852839 -2.472550 31.003514 0.223599 1.650632 0.177015 -0.035255 993829.000000 0 0 1
30.506610 6.749839 -3.836150 31.479035 0.217750 1.692964 0.150991 -0.033178 -586920.000000 0 0 1
29.370710 6.150839 -4.640550 30.364554 0.206437 1.724225 0.175503 -0.025554 -836540.000000 0 0 1
29.255310 4.723539 -4.504050 29.974514 0.160078 1.721630 0.169855 -0.025424 873857.000000 0 0 1
28.114610 4.171339 -5.142150 28.883786 0.147295 1.749779 0.141354 -0.019915 -76335.200000 0 0 1
28.054510 2.621039 -5.131950 28.640222 0.093156 1.750956 0.167787 -0.020388 -290025.000000 0 0 1
27.956810 1.998239 -3.840550 28.290034 0.071355 1.706973 0.187436 -0.023199 537356.000000 0 0 1
27.944810 0.593739 -3.870150 28.217778 0.021244 1.708383 0.176802 -0.028516 -262772.000000 0 0 1
28.154610 0.057239 -2.413650 28.257938 0.002033 1.656315 0.185496 -0.027854 -266599.000000 0 0 1
29.451410 0.022139 -1.869250 29.510679 0.000752 1.634180 0.170454 -0.025889 -222818.000000 0 0 1
29.538310 -0.152361 -0.422650 29.541727 -0.005158 1.585104 0.190651 -0.020549 504497.000000 0 0 1
30.962910 0.290339 0.068150 30.964347 0.009377 1.568595 0.214108 -0.020389 564346.000000 0 0 1
31.982410 -0.511461 -0.470850 31.989965 -0.015991 1.585516 0.169015 -0.025791 -495402.000000 0 0 1
33.248310 0.024139 -0.246550 33.249233 0.000726 1.578212 0.136208 -0.026005 -684404.000000 0 0 1
-2.721890 -21.023761 -8.025702 22.667578 1.442045 1.932706 0.059410 -0.017899 83289.200000 0 1 0
-3.410890 -21.850861 -7.144902 23.240996 1.415947 1.883284 0.059152 -0.009680 -142786.000000 0 1 0
-2.661390 -23.032461 -6.852602 24.177166 1.455757 1.858168 0.054829 -0.008375 173716.000000 0 1 0
-3.127590 -23.893161 -5.638302 24.747836 1.440637 1.800645 0.050911 0.004639 -208734.000000 0 1 0
-3.082590 -23.093461 -4.463802 23.722053 1.438098 1.760096 0.049115 0.003156 -59771.000000 0 1 0
-3.366090 -23.882761 -3.356602 24.351254 1.430776 1.709078 0.053389 0.001352 -99739.000000 0 1 0
-2.927190 -23.125661 -2.085802 23.403316 1.444888 1.660039 0.054631 -0.005021 -345203.000000 0 1 0
-1.540690 -23.094061 -1.921302 23.225003 1.504181 1.653617 0.053821 -0.011987 -898391.000000 0 1 0
-1.213590 -22.547661 -0.664502 22.590072 1.517025 1.600216 0.051464 -0.022442 127526.000000 0 1 0
0.279210 -22.367361 -0.324702 22.371460 -1.558314 1.585311 0.057430 -0.027220 -92851.400000 0 1 0
0.946910 -21.319261 -0.985602 21.363027 -1.526410 1.616949 0.043012 -0.024883 -778544.000000 0 1 0
1.877010 -20.792661 -0.101002 20.877454 -1.480768 1.575634 0.035330 -0.033207 -298254.000000 0 1 0
2.899110 -19.797061 -0.711602 20.020860 -1.425388 1.606347 0.039846 -0.033826 426456.000000 0 1 0
3.757110 -20.406061 -1.642102 20.813930 -1.388718 1.649773 0.039057 -0.023232 -122515.000000 0 1 0
4.764310 -19.521061 -2.122202 20.205796 -1.331416 1.676020 0.047717 -0.019611 384498.000000 0 1 0
5.621010 -20.058661 -3.335602 21.096726 -1.297576 1.729573 0.048749 -0.014607 -483313.000000 0 1 0
6.635010 -20.924061 -2.906902 22.142487 -1.263727 1.702458 0.058748 -0.022660 252747.000000 0 1 0
7.565010 -21.496461 -3.863902 23.113999 -1.232413 1.738752 0.055737 -0.021506 886607.000000 0 1 0
8.614910 -20.498961 -4.408002 22.668360 -1.172947 1.766499 0.070699 -0.027608 -817654.000000 0 1 0
8.202310 -19.559461 -5.321202 21.866997 -1.173719 1.816608 0.058212 -0.019865 -653058.000000 0 1 0
9.273010 -19.163661 -6.125502 22.153022 -1.120124 1.850956 0.066428 -0.012137 -394463.000000 0 1 0
9.028710 -17.887961 -6.982102 21.219012 -1.103367 1.906093 0.052510 -0.011622 62614.900000 0 1 0
10.264210 -17.461461 -7.542602 21.613594 -1.039380 1.927273 0.067512 -0.010693 361960.000000 0 1 0
10.209110 -16.316761 -8.412202 21.005422 -1.011706 1.982834 0.065643 -0.009625 -256406.000000 0 1 0
10.865110 -16.507861 -9.766302 22.044063 -0.988694 2.029778 0.074069 -0.007141 -137423.000000 0 1 0
10.155810 -17.287061 -10.724202 22.737446 -1.039633 2.061962 0.082094 -0.010605 470446.000000 0 1 0
9.216310 -16.482761 -11.472002 22.095895 -1.060956 2.116701 0.058902 -0.023321 678406.000000 0 1 0
8.577410 -17.084561 -12.762702 22.985664 -1.105505 2.159455 0.065534 -0.029327 -169868.000000 0 1 0
7.401710 -17.817661 -12.601802 23.044734 -1.177073 2.149383 0.057849 -0.023257 -133788.000000 0 1 0
6.968910 -18.465561 -13.794002 24.079392 -1.209923 2.180781 0.072186 -0.016905 236824.000000 0 1 0
5.625310 -19.230461 -13.738002 24.293773 -1.286215 2.171829 0.073502 -0.007469 285881.000000 0 1 0
5.819910 -20.572961 -13.238802 25.147245 -1.295109 2.125218 0.075680 -0.008687 -400445.000000 0 0 1
4.603910 -21.124961 -12.846602 25.149456 -1.356215 2.106923 0.106984 -0.022670 -321055.000000 0 0 1
4.730510 -22.650661 -12.437102 26.269976 -1.364909 2.063982 0.081909 -0.019030 56625.400000 0 0 1
5.361710 -23.496861 -13.427102 27.588720 -1.346449 2.079091 0.097586 -0.019144 136914.000000 0 0 1
5.041110 -24.845161 -13.254602 28.607329 -1.370613 2.052544 0.080193 -0.029193 514181.000000 0 0 1
3.566810 -25.249711 -13.564602 28.883705 -1.430463 2.059666 0.097970 -0.035973 414566.000000 0 0 1
2.617510 -24.857061 -12.575902 27.979959 -1.465880 2.036958 0.111635 -0.037683 -75054.200000 0 0 1
1.267710 -24.831961 -12.981002 28.048882 -1.519789 2.051947 0.100698 -0.049734 57203.000000 0 0 1
0.482210 -26.147261 -12.823702 29.126604 -1.552356 2.026701 0.082842 -0.034075 -701457.000000 0 0 1
0.877310 -27.236881 -13.652502 30.479635 -1.538597 2.035236 0.085424 -0.032199 104873.000000 0 0 1
0.365510 -28.471521 -13.219702 31.393018 -1.557959 2.005458 0.073757 -0.028621 502175.000000 0 0 1
-1.049990 -28.966901 -13.649402 32.038882 1.534564 2.010892 0.061295 -0.032083 1019080.000000 0 0 1
-2.141590 -28.211831 -13.125602 31.189344 1.495031 2.005163 0.073158 -0.033453 -105537.000000 0 0 1
-3.399290 -28.654061 -13.557502 31.881283 1.452716 2.010034 0.075414 -0.023553 -511678.000000 0 0 1
-4.521690 -27.827051 -12.881202 30.995415 1.409712 1.999381 0.047682 -0.025111 77365.100000 0 0 1
-4.918390 -28.044201 -11.489502 30.703035 1.397182 1.954345 0.031121 -0.031050 245238.000000 0 0 1
-5.437590 -29.348501 -11.206802 31.882507 1.387597 1.929973 0.037604 -0.026322 -584524.000000 0 0 1
-5.788190 -29.568231 -9.742002 31.665280 1.377484 1.883524 0.033171 -0.027476 195507.000000 0 0 1
-7.012390 -28.983661 -9.292602 31.234254 1.333415 1.872883 0.039512 -0.021325 131175.000000 0 0 1
-7.131990 -27.539131 -9.127502 29.876082 1.317387 1.881272 0.044045 -0.019269 -1083430.000000 0 0 1
-8.560290 -27.137661 -8.647302 29.740662 1.265236 1.865814 0.039442 -0.013131 950861.000000 0 0 1
-9.638690 -27.196371 -9.577902 30.402025 1.230197 1.891297 0.065006 -0.012501 247437.000000 0 0 1
-9.988490 -28.510111 -9.913702 31.794305 1.233811 1.887891 0.077697 -0.023165 -536747.000000 0 0 1
-11.308390 -28.818761 -10.697302 32.754128 1.196862 1.903494 0.089581 -0.022657 341268.000000 0 0 1
-11.214890 -28.380371 -12.025702 32.799949 1.194466 1.946189 0.103787 -0.029292 238409.000000 0 0 1
-12.160790 -29.021031 -12.869802 33.996129 1.173990 1.959044 0.113154 -0.034642 -48585.400000 0 0 1
-12.312990 -28.213601 -14.182302 33.893283 1.159292 2.002523 0.125315 -0.034106 -52191.900000 0 0 1
-13.343090 -27.242731 -14.263002 33.520704 1.115354 2.010309 0.107586 -0.047454 5509.520000 0 0 1
-13.234090 -26.134891 -13.452402 32.235706 1.102061 2.001284 0.108806 -0.032708 -288154.000000 0 0 1
-14.333990 -25.088311 -13.660302 31.960764 1.051716 2.012421 0.129020 -0.030070 -467355.000000 0 0 1
-14.050590 -24.230961 -14.753902 31.658113 1.045317 2.055604 0.125004 -0.027506 484158.000000 0 0 1
-14.975790 -23.146961 -14.983402 31.377673 0.996542 2.068624 0.138920 -0.030343 -187740.000000 0 0 1
-14.925990 -22.495261 -16.410202 31.592984 0.984977 2.116975 0.132934 -0.030498 -176817.000000 0 0 1
-14.044790 -21.407561 -16.419702 30.416219 0.990168 2.141036 0.106870 -0.025923 147581.000000 0 0 1
-14.043890 -20.674961 -17.646102 30.595257 0.974119 2.185553 0.096777 -0.020062 -161555.000000 0 0 1
-13.643590 -19.167861 -17.468002 29.303336 0.952198 2.209443 0.085166 -0.017285 528032.000000 0 0 1
-12.311490 -18.647061 -17.504802 28.384921 0.987258 2.235332 0.075426 -0.010904 492961.000000 0 0 1
-12.343390 -17.240661 -17.618002 27.567982 0.949448 2.264091 0.074289 -0.005142 519025.000000 0 0 1
-10.971590 -16.562861 -17.936002 26.765730 0.985739 2.305154 0.072285 -0.014222 662324.000000 0 0 1
-10.325690 -16.053261 -16.737402 25.386367 0.999206 2.290693 0.076929 -0.005693 947268.000000 0 0 1
-9.020890 -15.526061 -17.055402 24.765333 1.044453 2.330464 0.057581 -0.005595 458604.000000 0 1 0
-8.367090 -14.840861 -15.825002 23.252742 1.057429 2.319330 0.045732 -0.002078 -138917.000000 0 1 0
-8.008490 -15.616961 -14.733102 22.914835 1.096956 2.269141 0.043070 -0.003836 -663635.000000 0 1 0
-6.883690 -16.414061 -14.847802 23.178951 1.173698 2.266040 0.037616 -0.009274 -1075000.000000 0 1 0
-6.546790 -17.274661 -13.562602 22.917646 1.208539 2.204083 0.039297 -0.011090 -729744.000000 0 1 0
-6.104490 -16.519061 -12.433202 21.557566 1.216819 2.185534 0.041894 -0.017768 474950.000000 0 1 0
-5.771290 -17.278161 -11.275402 21.423755 1.248426 2.125044 0.039835 -0.023859 -293732.000000 0 1 0
-4.742790 -18.437761 -11.354702 22.166964 1.319022 2.108582 0.059723 -0.026108 180171.000000 0 1 0
-3.387690 -18.001661 -11.448602 21.601081 1.384784 2.129398 0.041207 -0.015948 588328.000000 0 1 0
-2.478890 -19.110461 -11.587002 22.485844 1.441803 2.112156 0.049187 -0.009519 1478480.000000 0 1 0
-0.985590 -18.812561 -11.953002 22.310492 1.518454 2.136200 0.036331 0.005598 198878.000000 0 1 0
-0.769790 -18.484761 -13.306002 22.788783 1.529176 2.194301 0.046357 -0.001175 483996.000000 0 1 0
0.497910 -17.858761 -13.558502 22.428023 -1.542923 2.219977 0.052356 -0.006811 651036.000000 0 1 0
1.781810 -18.696961 -13.556102 23.162881 -1.475784 2.195986 0.066740 -0.021408 -831932.000000 0 1 0
1.918810 -19.622661 -14.643702 24.559492 -1.473321 2.209623 0.091694 -0.015464 -153004.000000 0 1 0
1.105910 -20.761761 -14.666202 25.443490 -1.517580 2.185140 0.089819 -0.018877 -867744.000000 0 0 1
1.222310 -21.537961 -16.007402 26.862887 -1.514106 2.209173 0.108659 -0.022184 751964.000000 0 0 1
2.379610 -22.352261 -16.299702 27.766281 -1.464736 2.198184 0.124286 -0.023085 255826.000000 0 0 1
3.530010 -21.590561 -16.567302 27.442463 -1.408732 2.218944 0.117959 -0.025958 -196455.000000 0 0 1
4.847810 -22.405461 -16.613702 28.311146 -1.357714 2.197929 0.115012 -0.026164 245465.000000 0 0 1
4.959010 -23.021161 -17.870602 29.562206 -1.358627 2.219945 0.101401 -0.019903 246588.000000 0 0 1
6.285010 -23.508661 -17.990302 30.262343 -1.309557 2.207413 0.102376 -0.021076 255062.000000 0 0 1
6.878110 -23.542961 -19.371402 31.254289 -1.286555 2.239284 0.090857 -0.012055 -84538.400000 0 0 1
7.038610 -22.189561 -19.868202 30.604968 -1.263632 2.277305 0.102695 -0.017908 -23024.500000 0 0 1
7.522110 -22.225061 -21.209902 31.629028 -1.244446 2.305791 0.064406 -0.008210 -136189.000000 0 0 1
7.811710 -20.862161 -21.880502 31.225133 -1.212513 2.347222 0.053344 -0.015238 408687.000000 0 0 1
6.692610 -20.006261 -22.166002 30.600214 -1.247973 2.380922 0.080734 -0.015450 180138.000000 0 0 1
7.055910 -18.684661 -22.523302 30.103181 -1.209721 2.416146 0.090644 -0.016962 258372.000000 0 0 1
5.859110 -17.715361 -22.770902 29.439381 -1.251385 2.455117 0.081543 -0.016248 -262523.000000 0 0 1
5.104410 -18.035361 -23.935502 30.401274 -1.294987 2.477245 0.064322 -0.015907 382805.000000 0 0 1
4.064710 -17.108961 -24.261002 29.963888 -1.337543 2.514394 0.084827 -0.019060 418102.000000 0 0 1
2.802310 -17.150261 -23.404602 29.150639 -1.408830 2.502915 0.087509 -0.008519 -1048270.000000 0 0 1
2.918710 -16.471561 -22.161602 27.766306 -1.395420 2.495010 0.088194 -0.012997 309842.000000 0 0 1
1.642510 -16.109861 -21.610302 27.004270 -1.469191 2.498517 0.080350 -0.011454 884484.000000 0 0 1
1.811010 -15.260661 -20.313202 25.471429 -1.452677 2.493919 0.082872 -0.020525 521100.000000 0 0 1
2.548610 -14.023261 -20.427402 24.908352 -1.391017 2.532386 0.081793 -0.022886 123144.000000 0 1 0
2.601710 -13.317061 -19.225202 23.531285 -1.377860 2.526996 0.080242 -0.023703 -219514.000000 0 1 0
3.704110 -12.269861 -19.414702 23.263717 -1.277609 2.558109 0.077127 -0.024935 -100409.000000 0 1 0
4.991510 -12.869161 -19.237702 23.677408 -1.200794 2.519210 0.082645 -0.028076 675445.000000 0 1 0
6.097510 -11.950161 -19.367902 23.560594 -1.098986 2.535792 0.082718 -0.024612 744040.000000 0 1 0
6.310810 -10.739061 -18.416902 22.233668 -1.039507 2.546924 0.089300 -0.022066 -974587.000000 0 1 0
5.351510 -9.703961 -18.448202 21.520726 -1.066820 2.600661 0.052960 -0.007944 -140363.000000 0 1 0
5.514010 -8.634661 -19.388602 21.928966 -1.002484 2.655478 0.067833 -0.008796 -294374.000000 0 1 0
4.808210 -8.924061 -20.734102 23.079443 -1.076599 2.686863 0.081402 -0.023223 -409341.000000 0 1 0
3.408710 -8.872261 -20.648402 22.730878 -1.203986 2.710203 0.068615 -0.026756 -497312.000000 0 1 0
2.842510 -9.133461 -21.954802 23.948137 -1.269079 2.730700 0.073605 -0.028216 276904.000000 0 1 0
1.308610 -8.970361 -21.944202 23.742953 -1.425937 2.749838 0.059707 -0.028611 21458.600000 0 1 0
1.004110 -7.643261 -21.636202 22.968519 -1.440172 2.799318 0.062488 -0.031635 817050.000000 0 1 0
-0.421590 -7.392961 -21.711102 22.939170 1.513832 2.812897 0.061518 -0.032641 1265450.000000 0 1 0
-0.887590 -6.513061 -22.859402 23.785710 1.435352 2.861595 0.069413 -0.028539 -105705.000000 0 1 0
-0.661490 -7.117061 -24.143702 25.179524 1.478118 2.853764 0.066993 -0.027903 -151130.000000 0 0 1
-1.294290 -6.535761 -25.280242 26.143488 1.375294 2.883899 0.080323 -0.029856 117922.000000 0 0 1
-0.632590 -5.206161 -25.800052 26.327684 1.449881 2.941052 0.088348 -0.024305 60660.600000 0 0 1
-1.369490 -4.582761 -26.871252 27.293614 1.280409 2.965440 0.093143 -0.025407 95265.500000 0 0 1
-1.006890 -3.258261 -27.212822 27.425677 1.271079 3.016923 0.083615 -0.029972 -469990.000000 0 0 1
-1.576590 -2.180961 -26.217322 26.355079 0.944874 3.039304 0.079816 -0.032224 971558.000000 0 0 1
-2.995990 -2.057761 -26.074432 26.326532 0.601838 3.003092 0.070348 -0.035190 1016200.000000 0 0 1
-3.706490 -1.474361 -27.166442 27.457738 0.378590 2.995800 0.085182 -0.031200 -400951.000000 0 0 1
-5.229590 -1.361661 -27.108582 27.641959 0.254720 2.944827 0.087155 -0.034884 -196855.000000 0 0 1
-5.714690 -0.302161 -26.334972 26.949577 0.052825 2.927616 0.088130 -0.025857 -342334.000000 0 0 1
-7.107690 -0.192461 -26.394982 27.335898 0.027071 2.878458 0.099104 -0.039791 -705628.000000 0 0 1
-7.840890 0.936739 -25.650972 26.838952 -0.118905 2.842950 0.091873 -0.033501 -425067.000000 0 0 1
-8.166190 2.168939 -26.321432 27.644325 -0.259606 2.830978 0.096349 -0.032140 957267.000000 0 0 1
-9.152790 2.116139 -27.396192 28.962094 -0.227209 2.811254 0.104849 -0.038362 212392.000000 0 0 1
-10.585690 1.721139 -27.033342 29.082997 -0.161181 2.763916 0.108170 -0.034194 -1487240.000000 0 0 1
-11.555790 2.312539 -27.831692 30.223950 -0.197511 2.741048 0.118728 -0.044845 -960465.000000 0 0 1
-12.777890 1.860839 -27.330722 30.227562 -0.144613 2.700219 0.067849 -0.020600 -443057.000000 0 0 1
-13.940890 2.446039 -28.196152 31.549239 -0.173690 2.676364 0.044543 -0.007401 -138290.000000 0 0 1
-15.205890 1.977139 -27.811362 31.758463 -0.129299 2.637711 0.026906 -0.002840 547961.000000 0 0 1
-16.352990 2.491139 -28.510272 32.961517 -0.151173 2.615860 0.024611 0.001015 820434.000000 0 0 1
-17.076290 3.650339 -27.782022 32.814103 -0.210597 2.580452 0.028416 0.009575 -266571.000000 0 0 1
-16.426990 4.949539 -27.718612 32.598548 -0.292654 2.587355 0.057189 -0.000250 338609.000000 0 0 1
-16.168890 5.624339 -28.940542 33.624710 -0.334758 2.607425 0.057849 0.004935 568576.000000 0 0 1
-17.479190 6.081639 -29.695802 34.990699 -0.334835 2.584275 0.049603 0.012700 745054.000000 0 0 1
-18.219790 7.061639 -29.000962 34.969748 -0.369754 2.548678 0.043307 0.014182 -19434.100000 0 0 1
-18.919390 7.928739 -29.840612 36.211467 -0.396846 2.539346 0.048591 0.008447 -43988.600000 0 0 1
-19.710690 9.020239 -29.048092 36.244553 -0.429182 2.500507 0.049708 0.010825 169794.000000 0 0 1
-18.843090 9.918239 -28.354182 35.459739 -0.484512 2.497452 0.055586 0.010420 343169.000000 0 0 1
-19.529890 10.859739 -27.580162 35.496702 -0.507482 2.460648 0.064860 0.008989 -181219.000000 0 0 1
-9.151390 25.374939 30.292640 40.562045 -1.224668 0.727525 0.063336 -0.017561 -1299570.000000 0 0 1
-9.767390 26.585239 30.487560 41.613317 -1.218706 0.748604 0.067953 -0.015697 159312.000000 0 0 1
-9.077790 27.467039 31.391290 42.687909 -1.251600 0.744588 0.081524 -0.020543 1019760.000000 0 0 1
-7.619190 27.947639 31.048080 42.462994 -1.304641 0.750747 0.083372 -0.015801 685539.000000 0 0 1
-7.703590 29.016439 30.111830 42.520834 -1.311292 0.783898 0.100135 -0.020199 574607.000000 0 0 1
-6.429790 29.188439 29.512280 42.003355 -1.353974 0.791727 0.105166 -0.011930 261186.000000 0 0 1
-6.429290 30.531339 28.744470 42.423378 -1.363249 0.826354 0.126647 -0.008227 -73829.700000 0 0 1
-6.285390 31.621539 29.640190 43.794620 -1.374584 0.827390 0.131181 -0.017255 344861.000000 0 0 1
-6.547390 32.827839 28.945890 44.253812 -1.373933 0.857820 0.123937 -0.022191 -22631.600000 0 0 1
-7.106590 -33.874144 29.954870 45.773960 1.364002 0.857396 0.130571 -0.026830 125546.000000 0 0 1
-6.173590 -33.431344 30.976810 45.992724 1.388189 0.831842 0.141217 -0.036055 405717.000000 0 0 1
-6.731490 -32.734344 32.112452 46.347166 1.367984 0.805338 0.134548 -0.053935 306063.000000 0 0 1
-7.824390 -33.553844 32.901256 47.640048 1.341701 0.808448 0.095229 -0.043151 443653.000000 0 0 1
-7.290690 33.149139 33.665668 47.805824 -1.354307 0.789477 0.111591 -0.035260 223431.000000 0 0 1
-7.064790 31.975839 32.914251 46.429662 -1.353348 0.782851 0.112203 -0.026094 -66612.300000 0 0 1
-6.929990 30.819139 -33.867482 46.312530 -1.349615 2.390995 0.108830 -0.023735 -453101.000000 0 0 1
-5.674490 30.889239 -33.266582 45.749431 -1.389118 2.384954 0.103426 -0.027520 -522293.000000 0 0 1
-5.650390 30.170639 -32.051892 44.379254 -1.385660 2.377813 0.114618 -0.028727 610478.000000 0 0 1
-4.246590 30.016639 -31.339662 43.602827 -1.430255 2.372803 0.098666 -0.031461 1319030.000000 0 0 1
-3.467490 28.837539 -31.567542 42.896816 -1.451129 2.397784 0.101000 -0.020765 578875.000000 0 0 1
-2.996390 28.553939 -32.923012 43.683298 -1.466241 2.424432 0.096141 -0.022965 -244003.000000 0 0 1
-2.278790 27.164239 -33.031632 42.827298 -1.487103 2.451638 0.094895 -0.026127 -235097.000000 0 0 1
-1.092590 27.006339 -32.255082 42.082376 -1.530362 2.444131 0.109456 -0.027697 795123.000000 0 0 1
-0.400290 25.743639 -32.415092 41.396055 -1.555249 2.470348 0.121785 -0.028495 295963.000000 0 0 1
0.140210 25.352939 -33.847512 42.290013 1.565266 2.498703 0.093906 -0.022816 -339161.000000 0 0 1
-0.890690 25.188539 32.981537 41.509488 -1.535450 0.652523 0.099538 -0.018511 135591.000000 0 0 1
-0.507890 25.134439 31.621170 40.396737 -1.550592 0.671699 0.104088 -0.019889 -23153.900000 0 0 1
-0.085690 26.407939 30.904460 40.650612 -1.567551 0.707105 0.083669 -0.019075 506507.000000 0 0 1
-1.201790 27.301539 30.833200 41.200784 -1.526806 0.725204 0.101833 -0.023858 661957.000000 0 0 1
-0.857090 28.509539 30.152550 41.505478 -1.540742 0.757623 0.099382 -0.019930 -209457.000000 0 0 1
-1.998690 29.498339 30.311870 42.343314 -1.503144 0.772942 0.118194 -0.027919 -213794.000000 0 0 1
-2.169290 29.915339 31.649910 43.604474 -1.498409 0.758540 0.129825 -0.030661 683038.000000 0 0 1
-3.077090 31.075439 31.717240 44.509940 -1.472098 0.777616 0.134203 -0.030555 788537.000000 0 0 1
-2.799390 32.027239 32.891798 45.994033 -1.483611 0.773984 0.134170 -0.031745 -1012250.000000 0 0 1
-1.552290 32.574739 32.745504 46.214622 -1.523179 0.783351 0.158667 -0.041317 -1231910.000000 0 0 1
-1.136590 33.260939 -33.904192 47.508695 -1.536638 2.365480 0.128504 -0.036084 417376.000000 0 0 1
0.424510 33.426739 33.874560 47.592152 1.558097 0.778785 0.130975 -0.047685 637467.000000 0 0 1
0.671610 -33.357044 32.916518 46.868332 -1.550665 0.792146 0.151749 -0.053099 -774878.000000 0 0 1
2.020710 -33.146744 32.701425 46.606577 -1.509909 0.793088 0.125856 -0.048542 -825475.000000 0 0 1
2.138410 -31.714544 32.202418 45.247992 -1.503471 0.778899 0.131948 -0.050918 -55625.100000 0 0 1
1.943410 -30.766044 33.282570 45.365799 -1.507713 0.747120 0.122348 -0.039908 212182.000000 0 0 1
2.243310 -29.470944 32.924793 44.244897 -1.494823 0.731536 0.096025 -0.034222 -143695.000000 0 0 1
2.011610 -28.504244 -33.694852 44.180103 -1.500341 2.438228 0.090543 -0.024628 28172.000000 0 0 1
0.649710 -28.338244 -33.361962 43.777833 -1.547873 2.437307 0.078129 -0.034002 -35970.600000 0 0 1
0.399510 -27.359544 -32.399382 42.407831 -1.556195 2.440279 0.069885 -0.029914 -402343.000000 0 0 1
-1.105090 -27.132644 -32.247072 42.157742 1.530090 2.441705 0.133063 -0.038621 -358781.000000 0 0 1
-1.521190 -26.793244 -30.954422 40.967892 1.514082 2.427332 0.134483 -0.031147 -838654.000000 0 0 1
-2.823690 -26.336344 -31.007112 40.780108 1.463988 2.434646 0.138367 -0.035031 -836319.000000 0 0 1
-3.351090 -25.746244 -29.691062 39.441831 1.441366 2.423073 0.143782 -0.041872 -101305.000000 0 0 1
-3.487790 -26.718544 -28.670042 39.344841 1.440992 2.387198 0.145022 -0.040773 62292.300000 0 0 1
-3.836590 -26.263544 -27.350632 38.112336 1.425742 2.371192 0.159131 -0.034735 -494988.000000 0 0 1
-2.687390 -25.781644 -26.475582 37.052282 1.466935 2.366772 0.151277 -0.029788 -447169.000000 0 0 1
-2.182590 -24.558544 -26.997752 36.561788 1.482156 2.401512 0.149034 -0.033419 -119172.000000 0 0 1
-1.205790 -24.041844 -26.138082 35.533976 1.520685 2.397319 0.103925 -0.027919 -296682.000000 0 0 1
-0.280390 -22.901344 -26.764722 35.226417 1.558554 2.433788 0.062881 -0.020932 1055660.000000 0 0 1
0.507210 -23.122344 -27.938652 36.269385 -1.548864 2.450123 0.023151 -0.024641 250171.000000 0 0 1
1.432610 -24.181344 -27.831262 36.896733 -1.511621 2.425386 0.012463 -0.014410 -542637.000000 0 0 1
2.190110 -24.445744 -29.138002 38.097429 -1.481444 2.441571 0.003005 -0.021496 -102020.000000 0 0 1
3.089310 -23.438944 -29.488022 37.795123 -1.439749 2.465793 0.022819 -0.022856 -229210.000000 0 0 1
3.997810 -23.800644 -30.485282 38.881943 -1.404379 2.471956 0.035457 -0.024861 -599853.000000 0 0 1
4.982510 -22.661744 -30.918352 38.656494 -1.354375 2.497797 0.056667 -0.036993 -651922.000000 0 0 1
6.108110 -22.396044 -30.068972 37.987298 -1.304540 2.484143 0.040478 -0.038606 605308.000000 0 0 1
7.133910 -23.347344 -30.194312 38.828953 -1.274251 2.461674 0.054053 -0.024354 -940634.000000 0 0 1
7.781710 -23.661244 -31.548342 40.195862 -1.253059 2.473275 0.065115 -0.019314 -1311050.000000 0 0 1
6.945710 -24.438344 -32.414422 41.184588 -1.293885 2.476812 0.037272 -0.020528 113650.000000 0 0 1
7.191410 -24.225344 -33.799142 42.201488 -1.282227 2.499592 0.060715 -0.022203 -108545.000000 0 0 1
6.614210 -22.914744 33.409897 41.049415 -1.289790 0.619972 0.088647 -0.030600 -302027.000000 0 0 1
5.206510 -22.902444 33.484044 40.900011 -1.347261 0.611687 0.090861 -0.033326 -357027.000000 0 0 1
4.851910 -22.011044 32.492877 39.545090 -1.353835 0.606468 0.112579 -0.052273 -1858070.000000 0 0 1
3.469110 -21.450644 32.559933 39.144784 -1.410459 0.588486 0.112135 -0.060948 -614762.000000 0 0 1
2.333510 -22.304644 32.449260 39.444859 -1.466556 0.604742 0.103386 -0.047737 326949.000000 0 0 1
2.064810 -23.117044 33.589094 40.827544 -1.481713 0.604640 0.098932 -0.042229 -584503.000000 0 0 1
0.671210 -23.763844 33.421293 41.014066 -1.542559 0.618285 0.105908 -0.039166 122552.000000 0 0 1
0.544910 -24.549844 32.252258 40.536402 -1.548604 0.650738 0.111094 -0.045419 -494455.000000 0 0 1
-0.664390 -25.239744 32.271953 40.975176 1.544479 0.663896 0.132066 -0.040991 -474127.000000 0 0 1
-0.859090 -26.058244 30.992920 40.501002 1.537840 0.699385 0.132476 -0.043443 881222.000000 0 0 1
-2.213290 -26.508144 30.777320 40.679525 1.487495 0.712729 0.136658 -0.042411 906324.000000 0 0 1
-2.262690 -27.549844 29.823780 40.664130 1.488849 0.747461 0.148317 -0.051342 -1538660.000000 0 0 1
-3.532290 -27.640244 29.107480 40.295230 1.443690 0.763594 0.159505 -0.047447 -1675840.000000 0 0 1
-4.659590 -28.133444 29.788620 41.237899 1.406662 0.763587 0.164495 -0.041721 -351747.000000 0 0 1
-5.743690 -28.190744 28.916720 40.790743 1.369804 0.782853 0.161748 -0.036057 -608222.000000 0 0 1
-6.939690 -28.881844 29.596260 41.931597 1.334988 0.787213 0.137665 -0.035081 -924963.000000 0 0 1
-8.033290 -29.107844 28.744120 41.689624 1.301516 0.810027 0.139511 -0.031544 232023.000000 0 0 1
-9.261990 -29.321944 29.428060 42.562560 1.264842 0.807361 0.110383 -0.032983 168447.000000 0 0 1
-9.428690 -30.486744 30.510520 44.150125 1.270855 0.807838 0.080503 -0.033726 -904631.000000 0 0 1
-9.580990 -31.781944 29.968610 44.721414 1.278000 0.836429 0.101330 -0.031677 -313803.000000 0 0 1
-10.888190 -32.095144 29.587520 44.989691 1.243733 0.853100 0.081452 -0.024914 -556941.000000 0 0 1
-11.019190 -33.556644 29.151130 45.795843 1.253514 0.880786 0.103409 -0.016081 -257836.000000 0 0 1
-10.726790 33.252739 30.080290 46.104583 -1.258751 0.860002 0.101391 -0.015442 343039.000000 0 0 1
-10.606290 31.985239 29.499370 44.785732 -1.250607 0.851736 0.103132 -0.018178 -118974.000000 0 0 1
-11.004790 30.888239 30.497950 44.780729 -1.228540 0.821600 0.090327 -0.005373 505317.000000 0 0 1
-12.425390 30.746239 30.596010 45.120255 -1.186737 0.825623 0.077469 -0.001641 671111.000000 0 0 1
-12.800990 29.500039 31.198300 44.804593 -1.161385 0.800540 0.075141 -0.006574 81493.300000 0 0 1
-12.812090 29.486739 32.698043 45.856074 -1.160904 0.776946 0.082648 -0.021531 -783058.000000 0 0 1
-13.867190 30.228339 33.208422 46.998412 -1.140691 0.786134 0.080457 -0.011006 -192392.000000 0 0 1
-14.166790 29.839839 -33.308282 46.910080 -1.127543 2.360359 0.084792 -0.021636 -283643.000000 0 0 1
-15.526890 30.305539 -32.758422 47.250653 -1.097322 2.336841 0.076496 -0.024345 -199668.000000 0 0 1
-15.850790 29.762639 -31.471942 46.125322 -1.081431 2.321719 0.055989 -0.022384 -886957.000000 0 0 1
-17.046090 30.213939 -30.972612 46.505419 -1.057132 2.299630 0.073028 -0.025854 -859916.000000 0 0 1
-17.229090 29.650239 -29.569802 45.280806 -1.044407 2.282377 0.077378 -0.030462 -70806.700000 0 0 1
-17.463390 28.247239 -29.529462 44.439460 -1.017078 2.297604 0.064910 -0.034726 140551.000000 0 0 1
-17.446990 27.889239 -28.164832 43.306638 -1.011779 2.278852 0.062413 -0.028185 -179360.000000 0 0 1
-17.971590 26.483639 -27.824412 42.409422 -0.974583 2.286423 0.041219 -0.032340 -486945.000000 0 0 1
-19.338090 26.347939 -28.063542 43.078277 -0.937646 2.280296 0.055156 -0.027940 -755417.000000 0 0 1
-19.679690 25.058839 -27.502002 42.090328 -0.905059 2.282869 0.041062 -0.026195 1037530.000000 0 0 1
-21.164490 24.587339 -27.765252 42.701078 -0.860072 2.278675 0.038630 -0.024696 1149570.000000 0 0 1
-22.181390 25.213539 -26.992552 43.085200 -0.849287 2.247841 0.036312 -0.023706 -149714.000000 0 0 1
-23.444490 24.739939 -27.376862 43.717288 -0.812277 2.247498 0.048177 -0.026885 -106915.000000 0 0 1
-24.415890 24.915639 -26.169212 43.609086 -0.795528 2.214405 0.056531 -0.024618 -177525.000000 0 0 1
-24.912990 26.252939 -25.984442 44.554069 -0.811581 2.193473 0.040371 -0.014774 584031.000000 0 0 1
-26.163860 26.268939 -25.281132 44.874718 -0.787402 2.169257 0.063349 -0.018547 667942.000000 0 0 1
-26.183870 25.951939 -23.757902 43.858136 -0.780950 2.143253 0.076611 -0.015625 -426146.000000 0 0 1
-25.802770 24.641639 -23.289802 42.607607 -0.762384 2.149108 0.076776 -0.016791 -552955.000000 0 0 1
-26.779540 23.644439 -23.237602 42.616773 -0.723303 2.147506 0.099442 -0.028116 -369474.000000 0 0 1
-27.556430 23.606039 -21.859702 42.360931 -0.708338 2.113011 0.087950 -0.024115 56264.300000 0 0 1
-26.836870 23.174839 -20.722602 41.069660 -0.712305 2.099683 0.093912 -0.020818 132331.000000 0 0 1
-25.915820 24.202639 -20.313302 40.865972 -0.751229 2.091017 0.088085 -0.010688 186412.000000 0 0 1
-25.072250 23.629939 -19.149802 39.417086 -0.755792 2.078103 0.082389 -0.009943 -466271.000000 0 0 1
-25.795310 23.491339 -17.982702 39.250714 -0.738686 2.046709 0.088074 -0.008999 33483.200000 0 0 1
-24.959090 23.326639 -16.846202 38.090455 -0.751603 2.028923 0.100539 -0.019592 -126175.000000 0 0 1
-25.765090 23.199839 -15.559402 38.002202 -0.733056 1.992630 0.094615 -0.017533 -112856.000000 0 0 1
-26.142340 24.485839 -15.114002 38.876874 -0.752691 1.970088 0.102679 -0.022455 -59947.500000 0 0 1
-26.613170 24.484539 -13.759002 38.691906 -0.743764 1.934357 0.064243 -0.019221 240031.000000 0 0 1
-26.636570 25.905639 -13.112402 39.402336 -0.771488 1.910049 0.077683 -0.015246 818586.000000 0 0 1
-25.330020 26.273539 -12.660202 38.628868 -0.803680 1.904706 0.088120 -0.019687 -91121.900000 0 0 1
-25.320490 27.335839 -11.705502 39.056294 -0.823653 1.875183 0.091910 -0.020695 -238938.000000 0 0 1
-23.963890 28.023739 -11.434202 38.604908 -0.863333 1.871492 0.093963 -0.023308 -256696.000000 0 0 1
-23.073990 27.115839 -10.871002 37.227093 -0.865756 1.867133 0.086054 -0.029980 -536962.000000 0 0 1
-21.921390 27.719839 -10.348502 36.824290 -0.901678 1.855657 0.066637 -0.033961 -62116.800000 0 0 1
-20.954090 26.741139 -9.641902 35.314709 -0.906142 1.847335 0.118799 -0.032723 -75760.600000 0 0 1
-20.461090 25.767839 -10.528802 34.546974 -0.899691 1.880491 0.110928 -0.030686 -109170.000000 0 0 1
-19.751790 24.723739 -9.906802 33.159331 -0.896727 1.874193 0.122842 -0.026074 -334904.000000 0 0 1
-18.820690 23.867039 -10.788002 32.252673 -0.903068 1.911854 0.117510 -0.030325 -349442.000000 0 0 1
-18.437290 22.635839 -10.243602 30.939396 -0.887266 1.908251 0.084923 -0.020190 -85858.200000 0 0 1
-17.935990 21.869239 -11.250102 30.438925 -0.883891 1.949370 0.101739 -0.015682 -402289.000000 0 0 1
-17.607590 20.463239 -10.971902 29.140247 -0.860267 1.956834 0.083159 -0.005765 -200188.000000 0 0 1
-18.644990 19.628239 -10.519002 29.043981 -0.811083 1.941397 0.074583 -0.004172 -206803.000000 0 0 1
-18.134190 18.324939 -10.304102 27.763767 -0.790630 1.951027 0.106543 -0.024867 -236126.000000 0 0 1
-19.174090 17.173739 -10.255602 27.708490 -0.730420 1.949940 0.078183 -0.008804 127139.000000 0 0 1
-19.726290 16.649039 -11.432102 28.231365 -0.701002 1.987713 0.064285 -0.005395 -240424.000000 0 0 1
-20.710190 17.418739 -12.035302 29.617105 -0.699287 1.989267 0.078549 -0.003593 -978096.000000 0 0 1
-21.159790 16.834239 -13.396302 30.175971 -0.672038 2.030787 0.084665 -0.010250 238753.000000 0 0 1
-20.246490 16.813639 -14.493502 30.044640 -0.693033 2.074188 0.067795 -0.010200 267180.000000 0 0 1
-20.971890 16.375839 -15.609402 30.848690 -0.662953 2.101336 0.080693 -0.009866 375532.000000 0 0 1
-20.092890 16.237139 -16.898102 30.869317 -0.679663 2.150060 0.089608 -0.017499 -91373.100000 0 0 1
-19.441090 17.432339 -17.206902 31.271711 -0.730975 2.153446 0.078399 -0.020934 -51426.100000 0 0 1
-18.606890 17.128439 -18.297902 31.215589 -0.744050 2.197130 0.074242 -0.017923 -805605.000000 0 0 1
-17.664090 18.240339 -18.756902 31.568202 -0.801446 2.207031 0.065549 -0.016673 -423758.000000 0 0 1
-16.614590 18.337839 -17.824202 30.496280 -0.834661 2.195025 0.084198 -0.024212 1114.220000 0 0 1
-15.573490 19.203839 -18.243702 30.727084 -0.889410 2.206487 0.088916 -0.012075 279401.000000 0 0 1
34.012002 30.172039 2.276698 45.523089 0.725642 1.520764 0.079813 -0.020952 251779.000000 0 0 1
35.313202 30.038639 1.726098 46.393120 0.704862 1.533582 0.102807 -0.024399 387980.000000 0 0 1
35.311782 30.642839 0.473398 46.756066 0.714726 1.560671 0.092588 -0.017057 530364.000000 0 0 1
36.719192 30.711539 -0.196202 47.869993 0.696539 1.574895 0.068931 -0.008885 712389.000000 0 0 1
-37.018890 31.479139 0.481998 48.595954 -0.704699 1.560878 0.049781 -0.002749 675328.000000 0 0 1
-35.849443 31.487439 -0.338802 47.715366 -0.720710 1.577897 0.049963 -0.000290 530918.000000 0 0 1
-34.826416 32.618039 0.023798 47.715996 -0.752666 1.570298 0.019615 -0.001281 238558.000000 0 0 1
-34.223169 32.425539 1.272898 47.162073 -0.758433 1.543803 0.023662 -0.004163 -7542.860000 0 0 1
-33.618730 33.572939 1.799498 47.545762 -0.784717 1.532940 0.026587 -0.010234 -322123.000000 0 0 1
-32.901620 33.352939 3.118898 46.953836 -0.792210 1.504323 0.043839 -0.012434 -208055.000000 0 0 1
-32.356380 -33.259344 3.667398 46.546418 0.799159 1.491924 0.054369 -0.005074 53257.400000 0 0 1
-32.020110 -33.515944 5.007998 46.622805 0.808219 1.463173 0.058242 -0.018941 -531503.000000 0 0 1
-31.752840 -32.220444 5.838898 45.612417 0.792707 1.442433 0.076897 -0.019653 -245789.000000 0 0 1
-32.801820 -31.559444 6.474698 45.976946 0.766097 1.429502 0.088842 -0.019389 -269454.000000 0 0 1
-33.526490 -32.242044 7.477298 47.111409 0.765871 1.411407 0.083292 -0.035453 -813521.000000 0 0 1
-34.688439 -31.392044 8.115898 47.482797 0.735555 1.399030 0.125200 -0.032844 830427.000000 0 0 1
-35.925000 -31.252944 7.429898 48.192899 0.715963 1.416009 0.094672 -0.029124 264298.000000 0 0 1
-36.666720 -32.454444 7.390298 49.521266 0.724533 1.421002 0.076742 -0.021398 -622054.000000 0 0 1
36.568452 -32.310644 7.034498 49.302267 -0.723661 1.427627 0.070115 -0.019389 660999.000000 0 0 1
35.722502 -32.214844 8.192598 48.795615 -0.733813 1.402101 0.068997 -0.018204 573963.000000 0 0 1
34.331482 -32.336944 7.974898 47.832286 -0.755490 1.403288 0.037094 -0.007796 318087.000000 0 0 1
33.494582 -32.070044 9.245798 47.284876 -0.763674 1.373994 0.043183 -0.026956 143237.000000 0 0 1
32.079292 -32.131944 9.104098 46.307963 -0.786218 1.372908 0.042523 -0.031734 1185860.000000 0 0 1
31.285102 -32.080744 10.322798 45.983605 -0.797954 1.344378 0.047720 -0.027020 432043.000000 0 0 1
31.460852 -30.741844 11.167998 45.382490 -0.773840 1.322156 0.056451 -0.022532 -654886.000000 0 0 1
30.745292 -29.560744 10.804898 43.998368 -0.765758 1.322684 0.045548 -0.026242 -110647.000000 0 0 1
31.146062 -28.887344 9.643198 43.560844 -0.747792 1.347574 0.059418 -0.027251 -341317.000000 0 0 1
30.470522 -27.566144 9.336098 42.136774 -0.735396 1.347376 0.055058 -0.028494 -668920.000000 0 0 1
30.968562 -27.129144 8.092098 41.958603 -0.719409 1.376721 0.068014 -0.030231 -12409.900000 0 0 1
30.328752 -25.971144 7.538398 40.634480 -0.708152 1.384198 0.064735 -0.035739 -196837.000000 0 0 1
30.588212 -25.643444 6.044198 40.370252 -0.697688 1.420512 0.064362 -0.031354 578913.000000 0 0 1
31.927742 -25.226144 5.786698 41.100182 -0.668676 1.429532 0.083220 -0.029949 175944.000000 0 0 1
32.098972 -24.775844 4.436698 40.790572 -0.657344 1.461813 0.084056 -0.026700 -245689.000000 0 0 1
33.513902 -24.192144 4.248398 41.551057 -0.625243 1.468372 0.102250 -0.029103 -356351.000000 0 0 1
34.447682 -25.209144 4.168298 42.889608 -0.631757 1.473456 0.086812 -0.021468 -1009440.000000 0 0 1
35.741452 -24.676644 4.029298 43.619072 -0.604268 1.478290 0.083027 -0.021322 -117003.000000 0 0 1
36.784352 -25.779244 3.749698 45.074585 -0.611277 1.487511 0.079172 -0.016985 -145371.000000 0 0 1
36.832862 -26.601944 4.891898 45.697416 -0.625493 1.463541 0.068475 -0.013782 -133042.000000 0 0 1
37.290282 -27.874744 4.575598 46.781434 -0.641904 1.472832 0.064945 -0.017821 -338030.000000 0 0 1
36.635752 -28.985144 5.485898 47.036284 -0.669334 1.453899 0.070431 -0.020078 828858.000000 0 0 1
35.281542 -29.343044 5.269998 46.190630 -0.693763 1.456455 0.056913 -0.013586 750122.000000 0 0 1
34.267562 -28.408344 5.685598 44.873443 -0.692185 1.443752 0.054860 -0.017279 802462.000000 0 0 1
32.976882 -29.131044 6.306998 44.450767 -0.723555 1.428429 0.061046 -0.016330 1174870.000000 0 0 1
32.203482 -30.019444 5.533198 44.371698 -0.750312 1.445770 0.035895 -0.015324 -158270.000000 0 0 1
31.486122 -29.325744 4.551698 43.267691 -0.749887 1.465403 0.058105 -0.015801 -1919820.000000 0 0 1
30.153072 -29.924444 4.260198 42.694606 -0.781593 1.470847 0.060318 -0.022082 -1001120.000000 0 0 1
30.225142 -31.180344 3.666398 43.579990 -0.800953 1.486566 0.063782 -0.013288 12149.400000 0 0 1
28.903802 -31.696544 3.583798 43.045839 -0.831450 1.487444 0.078300 -0.015925 196438.000000 0 0 1
28.757202 -33.100344 2.963898 43.947629 -0.855495 1.503303 0.077121 -0.018695 -211816.000000 0 0 1
29.102602 -33.083244 1.593098 44.090820 -0.849323 1.534656 0.075510 -0.019623 228144.000000 0 0 1
28.873202 33.485639 0.951998 44.225063 0.859230 1.549268 0.068588 -0.014165 -178140.000000 0 0 1
28.570302 33.646339 -0.560002 44.143538 0.866804 1.583483 0.067799 -0.012489 20663.900000 0 0 1
29.697502 -33.745744 -1.324602 44.971896 -0.849121 1.600255 0.060265 -0.005387 109523.000000 0 0 1
29.325002 -33.417544 -2.642002 44.538390 -0.850533 1.630151 0.066584 -0.005047 -112242.000000 0 0 1
30.436182 -32.907144 -3.578102 44.967145 -0.824387 1.650452 0.058630 -0.005543 -8211.300000 0 0 1
30.628932 -31.525644 -3.436402 44.088622 -0.799824 1.648819 0.050899 -0.007759 -316019.000000 0 0 1
31.712442 -31.086544 -4.197902 44.605768 -0.775432 1.665047 0.047033 -0.009048 -340691.000000 0 0 1
32.053132 -29.585744 -3.920502 43.796003 -0.745390 1.660434 0.039322 -0.008047 -467371.000000 0 0 1
31.086402 -28.648844 -4.362002 42.498797 -0.744615 1.673616 0.049283 -0.022250 80689.700000 0 0 1
31.541172 -27.298044 -4.319402 41.936690 -0.713409 1.673977 0.053848 -0.031754 234421.000000 0 0 1
32.463942 -26.815544 -5.493102 42.463574 -0.690401 1.700520 0.062704 -0.030981 -940508.000000 0 0 1
33.746952 -27.273344 -5.326802 43.715751 -0.679704 1.692951 0.052787 -0.024187 -1452120.000000 0 0 1
34.663812 -26.707744 -6.238802 44.201879 -0.656479 1.712413 0.063287 -0.030591 44066.300000 0 0 1
34.845182 -27.559344 -7.502402 45.055412 -0.669173 1.738091 0.065109 -0.014181 -416361.000000 0 0 1
33.678632 -27.573344 -8.315302 44.313472 -0.686051 1.759563 0.060214 -0.017648 33176.900000 0 0 1
33.606712 -28.611944 -9.306102 45.107183 -0.705292 1.778600 0.049617 -0.008000 8359.690000 0 0 1
33.463342 -30.096344 -8.783802 45.855647 -0.732474 1.763541 0.039369 -0.001456 239336.000000 0 0 1
34.581852 -30.683944 -8.120002 46.939784 -0.725745 1.744659 0.046018 -0.005431 -319826.000000 0 0 1
34.326462 -31.992644 -7.715602 47.553820 -0.750222 1.733767 0.037555 -0.007013 -320348.000000 0 0 1
35.517082 -32.663044 -7.046402 48.764632 -0.743562 1.715802 0.026903 -0.004437 -316133.000000 0 0 1
35.383592 33.871039 -6.384602 49.396448 0.763561 1.700411 0.029787 -0.007913 53444.200000 0 0 1
34.529892 -33.850544 -5.216302 48.635199 -0.775464 1.678257 0.041301 -0.005009 195500.000000 0 0 1
34.399662 32.603239 -4.487802 47.607230 0.758593 1.665204 0.043994 -0.007695 -71657.300000 0 0 1
33.402702 31.816339 -5.114402 46.413113 0.761079 1.681214 0.071850 -0.022192 189990.000000 0 0 1
33.503852 30.475539 -4.722002 45.536402 0.738101 1.674680 0.063515 -0.012556 1351600.000000 0 0 1
32.184182 29.724339 -5.237302 44.122412 0.745686 1.689776 0.083251 -0.020708 1363820.000000 0 0 1
32.120762 29.654239 -6.636402 44.217181 0.745492 1.721452 0.064544 -0.010829 372820.000000 0 0 1
30.802912 29.290139 -7.046302 43.085752 0.760230 1.735076 0.049511 -0.000815 525116.000000 0 0 1
30.743902 29.037339 -8.594902 43.153528 0.756859 1.771308 0.046718 -0.000780 -288945.000000 0 0 1
31.500112 27.901639 -8.903902 43.012068 0.724894 1.779313 0.057359 -0.004983 -86978.200000 0 0 1
31.751272 27.751739 -10.272302 43.403024 0.718283 1.809736 0.048265 -0.000645 484203.000000 0 0 1
32.894992 28.613439 -10.942702 44.950552 0.715901 1.816706 0.071381 -0.008807 -1042180.000000 0 0 1
34.152792 28.123039 -10.660702 45.507902 0.688876 1.807254 0.075957 -0.017314 -146135.000000 0 0 1
35.220292 29.017739 -11.060402 46.955625 0.689141 1.808581 0.081695 -0.013908 690983.000000 0 0 1
35.466582 30.216739 -10.123602 47.680364 0.705641 1.784747 0.065779 -0.019815 -937028.000000 0 0 1
36.243222 29.982639 -8.965902 47.884415 0.691144 1.759149 0.066406 -0.020323 44096.300000 0 0 1
36.143742 31.106639 -8.103802 48.370081 0.710637 1.739128 0.046727 -0.019137 -510201.000000 0 0 1
37.211152 30.976339 -7.000402 48.920436 0.694215 1.714387 0.051585 -0.012962 -21999.100000 0 0 1
-36.222730 31.141439 -7.496502 48.353624 -0.710111 1.726459 0.043888 -0.012324 -913661.000000 0 0 1
-35.542857 29.986039 -7.694802 47.134565 -0.700801 1.734782 0.053370 -0.013968 -931527.000000 0 0 1
-34.082251 30.271539 -8.100402 46.298838 -0.726252 1.746661 0.073238 -0.011231 -373831.000000 0 0 1
-33.220930 30.762739 -7.078402 45.826631 -0.746998 1.725878 0.060430 -0.013318 -129079.000000 0 0 1
-31.942960 31.012239 -7.589302 45.163139 -0.770615 1.739639 0.092553 -0.018173 -401836.000000 0 0 1
-31.679270 32.323839 -8.416602 46.035268 -0.795469 1.754660 0.071092 -0.016092 -510417.000000 0 0 1
-31.704830 33.541739 -7.730502 46.797491 -0.813544 1.736748 0.047999 -0.008034 1197780.000000 0 0 1
-30.510910 33.805439 -6.913802 46.060004 -0.836577 1.721470 0.074114 -0.017262 1302530.000000 0 0 1
-30.598630 -32.553044 -6.303002 45.118783 0.816336 1.710953 0.053894 -0.011495 262626.000000 0 0 1
-31.597890 -32.364044 -5.280602 45.538365 0.797376 1.687017 0.037150 -0.012497 144328.000000 0 0 1
-31.437890 -32.902244 -3.992302 45.681911 0.808154 1.658301 0.048143 -0.012308 -701247.000000 0 0 1
-32.712270 -32.936244 -3.161902 46.528339 0.788810 1.638805 0.046796 -0.011663 -584776.000000 0 0 1
-33.167740 -31.638344 -2.832402 45.925007 0.761803 1.632510 0.045618 -0.015627 -368931.000000 0 0 1
-34.231424 -31.755744 -1.942202 46.733176 0.747898 1.612368 0.046117 -0.010436 -423304.000000 0 0 1
-34.887149 -30.402344 -1.538602 46.301004 0.716815 1.604033 0.068783 -0.008746 243063.000000 0 0 1
-35.687763 -30.396144 -0.354702 46.879289 0.705494 1.578363 0.051735 -0.006150 8226.920000 0 0 1
-36.285040 -29.101544 -0.251902 46.514163 0.675975 1.576212 0.062004 -0.010987 59197.700000 0 0 1
-37.351620 -28.950744 0.863198 47.265570 0.659364 1.552533 0.059789 -0.005937 218286.000000 0 0 1
36.097192 -29.360044 0.430698 46.531763 -0.682835 1.561540 0.031307 0.003083 269737.000000 0 0 1
35.069032 -29.492044 1.391798 45.842718 -0.699229 1.540431 0.037542 -0.005857 228357.000000 0 0 1
34.262842 -28.213144 1.692798 44.416094 -0.688867 1.532675 0.031392 0.004347 -495633.000000 0 0 1
33.307942 -28.049844 0.651698 43.550401 -0.699911 1.555832 0.031683 -0.000046 313859.000000 0 0 1
32.638792 -26.777944 0.699098 42.223664 -0.687077 1.554239 0.043904 -0.003272 -134749.000000 0 0 1
31.333482 -26.647644 -0.102502 41.132646 -0.704757 1.573288 0.047368 -0.012387 218578.000000 0 0 1
30.157452 -27.181644 0.512398 40.602663 -0.733546 1.558176 0.055269 -0.006150 519989.000000 0 0 1
29.921232 -28.601844 0.391798 41.394433 -0.762857 1.561331 0.057374 -0.007853 -326799.000000 0 0 1
29.563502 -29.108044 -1.003802 41.500440 -0.777635 1.594986 0.054729 -0.006735 -7264.370000 0 0 1
28.260002 -28.772344 -1.467702 40.356284 -0.794381 1.607173 0.068994 -0.006329 271801.000000 0 0 1
28.089302 -28.993044 -2.829802 40.467435 -0.801229 1.640781 0.070675 -0.004553 405356.000000 0 0 1
26.711802 -29.612744 -3.196202 40.008133 -0.836857 1.650770 0.102055 -0.017715 -267499.000000 0 0 1
25.610202 -28.829944 -3.021102 38.680424 -0.844472 1.648980 0.119432 -0.023891 -883034.000000 0 0 1
24.426802 -29.463244 -3.444802 38.426788 -0.878585 1.660563 0.098938 -0.022957 825573.000000 0 0 1
23.130702 -28.562444 -3.516402 36.921642 -0.890091 1.666180 0.094522 -0.027134 716505.000000 0 0 1
23.036502 -27.697244 -4.642302 36.323115 -0.877008 1.698953 0.095778 -0.030760 -139017.000000 0 0 1
22.288902 -26.547244 -4.382402 34.939330 -0.872375 1.696556 0.099130 -0.036466 -91295.100000 0 0 1
21.854302 -25.779044 -5.640502 34.263463 -0.867607 1.736171 0.096607 -0.050197 303537.000000 0 0 1
20.759902 -26.322044 -6.372902 34.123854 -0.902991 1.758657 0.112576 -0.047158 53443.100000 0 0 1
20.182602 -25.468344 -7.322102 33.310466 -0.900671 1.792420 0.121610 -0.049819 666056.000000 0 0 1
18.680202 -25.741344 -7.687202 32.720938 -0.943037 1.807945 0.120145 -0.047048 782549.000000 0 0 1
17.835502 -25.296144 -6.643802 31.656597 -0.956677 1.782239 0.108784 -0.046078 -182593.000000 0 0 1
16.467502 -25.447944 -6.964602 31.101160 -0.996459 1.796645 0.100485 -0.045380 -81808.000000 0 0 1
15.569602 -24.517244 -6.166602 29.690651 -1.005005 1.780014 0.083944 -0.031420 -410756.000000 0 0 1
15.549102 -24.769744 -4.786102 29.634803 -1.010225 1.733010 0.065452 -0.021296 85454.800000 0 0 1
14.959102 -23.735844 -4.025102 28.343720 -1.008443 1.713288 0.062312 -0.019233 -103676.000000 0 0 1
14.765902 -24.186544 -2.547102 28.451863 -1.022691 1.660440 0.058289 -0.014158 -65137.200000 0 0 1
13.974702 -25.327244 -2.308002 29.018760 -1.066599 1.650415 0.063423 -0.011228 317249.000000 0 0 1
14.760202 -26.513844 -2.306402 30.432991 -1.062825 1.646655 0.064277 -0.018967 -358672.000000 0 0 1
13.887202 -27.760644 -2.387302 31.132089 -1.106950 1.647555 0.066839 -0.010925 -92026.200000 0 0 1
13.056402 -27.987144 -1.242302 30.907817 -1.134294 1.611001 0.086317 -0.025020 452207.000000 0 0 1
12.258202 -29.186244 -1.293402 31.682380 -1.173169 1.611632 0.076729 -0.024939 -149563.000000 0 0 1
12.935902 -30.490744 -0.836102 33.131889 -1.169555 1.596035 0.074392 -0.026066 -113421.000000 0 0 1
13.933502 -30.970644 -1.731002 34.004700 -1.148031 1.621723 0.080666 -0.022899 -268167.000000 0 0 1
14.468802 -32.141144 -1.198602 35.268059 -1.147806 1.604788 0.068691 -0.024791 -702405.000000 0 0 1
15.879402 -32.348944 -1.751302 36.078756 -1.114472 1.619356 0.073842 -0.026864 -614088.000000 0 0 1
16.834002 -31.606544 -1.053702 35.825515 -1.081401 1.600213 0.075118 -0.020391 -695101.000000 0 0 1
18.045102 -31.490044 -1.742502 36.335725 -1.050435 1.618770 0.091681 -0.022952 -466451.000000 0 0 1
19.003702 -30.487344 -1.094802 35.941862 -1.013398 1.601261 0.087711 -0.021717 -393964.000000 0 0 1
18.749602 -29.159344 -1.431502 34.696745 -0.999354 1.612066 0.081734 -0.017321 -148028.000000 0 0 1
19.557902 -28.252244 -0.772402 34.370008 -0.965284 1.593271 0.069864 -0.013981 -394851.000000 0 0 1
19.090602 -26.797744 -1.101502 32.920867 -0.951799 1.604262 0.063312 -0.005660 73058.900000 0 0 1
19.441302 -26.432044 -2.405602 32.899910 -0.936627 1.643980 0.090699 -0.020242 394825.000000 0 0 1
18.292002 -26.428644 -3.244602 32.304767 -0.965373 1.671403 0.106158 -0.025270 18787.100000 0 0 1
33.027422 -29.093144 13.884598 46.151963 -0.722150 1.265217 0.071881 -0.038245 -150888.000000 0 0 1
33.960122 -29.523144 14.813098 47.374400 -0.715620 1.252782 0.097976 -0.038564 -301327.000000 0 0 1
33.283562 -29.971944 15.951398 47.545347 -0.733093 1.228662 0.069414 -0.024669 -267013.000000 0 0 1
34.272552 -30.441844 17.013898 48.895669 -0.726273 1.215399 0.075067 -0.025139 -562143.000000 0 0 1
33.728642 -30.944344 18.225398 49.268031 -0.742373 1.191870 0.051016 -0.025262 -60730.100000 0 0 1
34.629932 -31.383244 19.224198 50.534246 -0.736255 1.180547 0.036052 -0.028507 -376682.000000 0 0 1
35.244892 -32.759944 19.073998 51.761315 -0.748874 1.193402 0.038181 -0.019585 56868.500000 0 0 1
36.236432 -32.790844 18.048198 52.096602 -0.735523 1.217026 0.054634 -0.015896 820291.000000 0 0 1
37.057242 33.820439 18.052298 53.319291 0.739762 1.225400 0.057353 -0.015183 384641.000000 0 0 1
-36.603600 33.792439 16.938598 52.618139 -0.745486 1.243044 0.064882 -0.020381 230347.000000 0 0 1
-35.597186 -33.017944 17.163098 51.496759 0.747826 1.231011 0.073040 -0.025333 815408.000000 0 0 1
-34.572252 -32.997144 16.157598 50.449183 0.762091 1.244777 0.089752 -0.016439 -105069.000000 0 0 1
-33.345700 -32.192044 16.554098 49.216883 0.767797 1.227758 0.075014 -0.019460 -736265.000000 0 0 1
-32.297080 -32.142744 15.632198 48.172844 0.783003 1.240311 0.091322 -0.027900 -165284.000000 0 0 1
-32.410570 -31.088244 14.693898 47.252879 0.764577 1.254590 0.109288 -0.027063 -545822.000000 0 0 1
-31.149080 -30.931044 13.839798 46.027542 0.781886 1.265385 0.099709 -0.031574 -207669.000000 0 0 1
-30.047100 -30.483944 14.576398 45.216926 0.792615 1.242568 0.091839 -0.041742 -79066.300000 0 0 1
-28.836380 -30.569944 13.838498 44.244347 0.814571 1.252684 0.081994 -0.034114 699471.000000 0 0 1
-27.559290 -30.075044 14.582698 43.320639 0.829021 1.227469 0.071768 -0.035689 178578.000000 0 0 1
-26.429860 -30.203344 13.767498 42.430219 0.851930 1.240341 0.063861 -0.028646 -1000000.000000 0 0 1
-25.272500 -29.949744 14.511198 41.788291 0.869895 1.216154 0.036350 -0.025127 -1242770.000000 0 0 1
-24.045190 -29.937544 13.649798 40.752235 0.894120 1.229248 0.036559 -0.015541 -1138610.000000 0 0 1
-23.617590 -31.193344 13.181398 41.286372 0.922744 1.245840 0.046423 -0.025025 91194.600000 0 0 1
-22.306090 -31.071944 12.670898 40.293659 0.948167 1.250905 0.044755 -0.029155 85023.800000 0 0 1
-21.699890 -32.420544 12.346998 40.919741 0.980955 1.264282 0.040956 -0.030449 -36050.500000 0 0 1
-22.519690 -33.059444 11.386898 41.589959 0.972808 1.293465 0.037704 -0.029572 249315.000000 0 0 1
-22.178690 33.410639 11.308498 41.665900 -0.984766 1.295940 0.054127 -0.025052 742415.000000 0 0 1
-23.175190 32.575839 10.372698 41.302150 -0.952445 1.316937 0.046673 -0.013962 715850.000000 0 0 1
-22.922490 32.758839 9.004498 40.983693 -0.960249 1.349280 0.032175 -0.004005 -719149.000000 0 0 1
-24.051090 32.434839 8.293598 41.222051 -0.932744 1.368220 0.041257 -0.014107 -1036550.000000 0 0 1
-23.939090 32.682539 6.712098 41.064348 -0.938607 1.406606 0.036906 -0.007609 -307176.000000 0 0 1
-23.100190 31.825239 5.954498 39.773366 -0.942935 1.420521 0.033380 -0.007396 831972.000000 0 0 1
-21.676890 31.914339 6.055998 39.052372 -0.974153 1.415094 0.042081 -0.008828 530329.000000 0 0 1
-20.941790 33.218939 5.571098 39.662244 -1.008311 1.429867 0.050789 -0.012216 -399129.000000 0 0 1
-21.183890 -33.500144 6.423198 40.153135 1.006927 1.410139 0.044273 -0.013654 307179.000000 0 0 1
-20.373690 -33.602144 7.600498 40.024478 1.025742 1.379740 0.042803 -0.017908 -210329.000000 0 0 1
-20.532090 -32.374444 8.503698 39.268107 1.005604 1.352512 0.037286 -0.018847 -689481.000000 0 0 1
-19.822090 -31.239944 8.016198 37.856423 1.005387 1.357428 0.049834 -0.033562 -113906.000000 0 0 1
-19.744490 -30.020444 8.774698 36.987393 0.989026 1.331278 0.052417 -0.032438 -37052.600000 0 0 1
-19.153290 -30.206544 10.215598 37.197342 1.005696 1.292589 0.042800 -0.024902 84743.600000 0 0 1
-17.811590 -30.618544 10.081298 36.829072 1.043922 1.293525 0.045829 -0.037250 -557477.000000 0 0 1
-17.108890 -30.507344 11.291998 36.754882 1.059690 1.258521 0.072930 -0.037426 431284.000000 0 0 1
-15.730090 -31.230444 11.358598 36.766752 1.104211 1.256722 0.066651 -0.040832 221181.000000 0 0 1
-14.801590 -30.663844 10.496098 35.630415 1.121080 1.271778 0.061079 -0.036072 -258371.000000 0 0 1
-13.641190 -31.446144 10.295198 35.790126 1.161500 1.279019 0.067312 -0.029505 672534.000000 0 0 1
-12.446790 -30.837544 9.492298 34.582950 1.187169 1.292748 0.074766 -0.030651 530161.000000 0 0 1
-11.595890 -30.030244 10.276098 33.791691 1.202295 1.261801 0.079064 -0.028118 11070.600000 0 0 1
-10.737290 -29.189544 9.478598 32.514038 1.218311 1.274977 0.094811 -0.029419 187513.000000 0 0 1
-9.697790 -28.466944 10.325198 31.796599 1.242459 1.240074 0.115637 -0.023876 -284886.000000 0 0 1
-10.224890 -27.592244 11.317798 31.527335 1.215914 1.203618 0.084184 -0.022038 -527822.000000 0 0 1
-9.265590 -27.153944 12.253298 31.198255 1.241961 1.167170 0.079815 -0.014316 -240986.000000 0 0 1
-9.568490 -25.868244 13.028398 30.503462 1.216510 1.129500 0.068593 -0.021429 95062.800000 0 0 1
-9.056490 -24.635644 12.422098 29.038655 1.218514 1.128763 0.065654 -0.022546 -21621.500000 0 0 1
-9.790990 -24.114044 11.363298 28.398506 1.185104 1.159130 0.058989 -0.020171 -259010.000000 0 0 1
-9.245090 -22.732844 10.911898 26.857464 1.184541 1.152407 0.060617 -0.025042 -1045530.000000 0 0 1
-8.040690 -22.885244 10.287598 26.348088 1.232921 1.169677 0.043534 -0.026191 -1110030.000000 0 0 1
-7.560890 -21.643344 9.731598 24.905931 1.234709 1.169367 0.051744 -0.021315 -107961.000000 0 1 0
-6.410390 -21.869044 8.747598 24.410421 1.285658 1.204291 0.058268 -0.033666 314771.000000 0 1 0
-5.243390 -22.398344 9.380698 24.843036 1.340840 1.183595 0.063385 -0.033299 -539373.000000 0 1 0
-4.183390 -22.490944 8.498498 24.404257 1.386895 1.215105 0.065625 -0.038729 -242239.000000 0 1 0
-2.984690 -23.214944 9.183298 25.143090 1.442930 1.196904 0.076470 -0.034365 159660.000000 0 0 1
-2.242390 -22.476244 10.115798 24.749530 1.471358 1.149738 0.068796 -0.029481 -555461.000000 0 1 0
-1.343590 -23.339144 10.775698 25.741728 1.513292 1.138884 0.082935 -0.036889 -98728.100000 0 0 1
-0.563790 -22.488244 11.789798 25.397604 1.545731 1.088055 0.077857 -0.036589 -680667.000000 0 0 1
-1.153690 -22.167944 13.025998 25.737625 1.518800 1.040131 0.072389 -0.035920 -36039.000000 0 0 1
-0.234990 -22.017044 14.124298 26.159152 1.560124 1.000434 0.102870 -0.036096 30610.900000 0 0 1
0.712410 -20.792344 14.079298 25.120823 -1.536547 0.975851 0.085805 -0.033199 246780.000000 0 0 1
1.842310 -20.967044 13.205698 24.847565 -1.483154 1.010463 0.090534 -0.034150 106315.000000 0 1 0
2.253410 -19.665744 12.822098 23.584434 -1.456708 0.995995 0.072395 -0.028943 -296039.000000 0 1 0
3.775410 -19.684344 12.647398 23.699869 -1.381300 1.007888 0.077493 -0.022336 -405433.000000 0 1 0
4.233110 -20.254444 11.476798 23.661754 -1.364765 1.064392 0.087838 -0.018045 86058.000000 0 1 0
5.655310 -20.180844 11.365398 23.841587 -1.297573 1.073894 0.115062 -0.023527 585131.000000 0 1 0
6.150210 -20.916544 10.143698 24.046237 -1.284820 1.135321 0.114120 -0.031937 -482275.000000 0 1 0
5.895410 -20.379844 8.879998 22.998875 -1.289206 1.174390 0.093800 -0.027360 -552771.000000 0 1 0
6.105010 -21.265144 7.776598 23.451076 -1.291225 1.232787 0.089630 -0.032178 586656.000000 0 1 0
7.546710 -21.797544 7.438498 24.236687 -1.237494 1.258851 0.083248 -0.023495 1206560.000000 0 1 0
8.480010 -20.889144 6.765298 23.537973 -1.185169 1.279264 0.075542 -0.030571 789800.000000 0 1 0
9.130110 -19.861044 7.464498 23.098457 -1.139906 1.241730 0.080736 -0.018447 -140446.000000 0 1 0
9.964110 -20.148644 8.724098 24.111434 -1.111534 1.200572 0.070307 -0.009746 -266488.000000 0 1 0
9.267810 -20.264144 9.973198 24.412958 -1.141847 1.149964 0.096781 -0.011228 -716819.000000 0 1 0
10.050410 -19.872444 11.070698 24.869361 -1.102562 1.109450 0.091270 -0.002288 -23225.600000 0 1 0
9.377210 -19.971344 12.467098 25.341965 -1.131818 1.056463 0.114526 -0.010197 25478.200000 0 0 1
9.235110 -21.313344 12.926598 26.582754 -1.161915 1.062972 0.105944 -0.015690 88381.000000 0 0 1
8.533810 -21.436044 14.162098 27.072032 -1.191924 1.020281 0.146329 -0.027203 279163.000000 0 0 1
8.803910 -22.845044 14.840198 28.629292 -1.202961 1.025868 0.146150 -0.029821 275994.000000 0 0 1
8.201410 -23.869144 14.105498 28.913046 -1.239835 1.061161 0.156168 -0.032061 35887.700000 0 0 1
8.661810 -25.065444 14.686598 30.315006 -1.238075 1.065043 0.161788 -0.042794 224335.000000 0 0 1
8.480710 -26.385844 13.821698 30.970543 -1.259814 1.108186 0.173283 -0.052326 -172425.000000 0 0 1
9.519810 -26.566944 12.915598 31.036140 -1.226717 1.141592 0.149427 -0.041975 -249304.000000 0 0 1
9.286410 -27.713244 12.149898 31.652509 -1.247466 1.176831 0.141755 -0.043514 -145581.000000 0 0 1
10.563610 -28.125744 11.376198 32.125772 -1.211513 1.208829 0.111676 -0.040100 -278895.000000 0 0 1
11.482210 -28.704844 12.225898 33.245779 -1.190282 1.194216 0.092794 -0.039114 -340752.000000 0 0 1
12.755310 -28.896044 11.637698 33.661778 -1.155100 1.217786 0.105591 -0.040890 394366.000000 0 0 1
13.704310 -29.902444 12.355298 35.137127 -1.141061 1.211484 0.075975 -0.045459 -377770.000000 0 0 1
14.169210 -29.294844 13.591198 35.265778 -1.120293 1.175162 0.064566 -0.038708 906724.000000 0 0 1
15.257510 -29.926844 14.303998 36.510436 -1.099318 1.168233 0.067449 -0.036738 959184.000000 0 0 1
16.642510 -29.989144 13.635898 36.908801 -1.064160 1.192381 0.059873 -0.029687 -882822.000000 0 0 1
17.377210 -28.849444 13.660498 36.343735 -1.028657 1.185462 0.052147 -0.038868 -885724.000000 0 0 1
18.730810 -28.982444 13.411098 37.022734 -0.997040 1.200127 0.060635 -0.033036 -75729.300000 0 0 1
19.540410 -27.669444 13.020598 36.289967 -0.955915 1.203821 0.044077 -0.033002 2006380.000000 0 0 1
20.963410 -27.816144 12.740698 37.088109 -0.924968 1.220128 0.040542 -0.029854 1424530.000000 0 0 1
21.534610 -26.597044 12.343598 36.380030 -0.890192 1.224628 0.029390 -0.028915 -423764.000000 0 0 1
22.842710 -26.820644 11.608098 37.092914 -0.865325 1.252503 0.031915 -0.025334 -265212.000000 0 0 1
23.928410 -27.360444 12.338798 38.385006 -0.852214 1.243538 0.035012 -0.024852 211225.000000 0 0 1
25.001210 -27.742044 11.485198 39.071617 -0.837317 1.272437 0.028792 -0.032388 -121390.000000 0 0 1
26.117510 -28.451244 12.284698 40.527909 -0.828139 1.262834 0.042232 -0.030461 127402.000000 0 0 1
27.152410 -27.758744 12.954198 40.934246 -0.796440 1.248797 0.021424 -0.023799 1122260.000000 0 0 1
28.200510 -27.290944 12.049598 41.051884 -0.769009 1.272888 0.004988 -0.024354 962032.000000 0 0 1
29.511410 -26.695244 12.704898 41.772884 -0.735336 1.261758 0.051248 -0.042170 646560.000000 0 0 1
29.533910 -25.387044 13.167698 41.111338 -0.710035 1.244757 0.072841 -0.036536 76773.200000 0 0 1
28.807610 -25.145944 14.365098 40.847925 -0.717635 1.211439 0.064220 -0.031942 -630788.000000 0 0 1
29.689410 -24.890844 15.584298 41.759856 -0.697706 1.188353 0.061380 -0.020643 -594366.000000 0 0 1
30.355110 -26.083944 15.908998 43.068563 -0.709865 1.192446 0.072604 -0.024425 -74.875000 0 0 1
30.984710 -25.939044 17.170498 43.905720 -0.696990 1.168995 0.085455 -0.007543 -50976.900000 0 0 1
31.537810 -27.282744 17.628398 45.274077 -0.713184 1.170848 0.061814 0.011087 -341335.000000 0 0 1
30.520610 -28.084944 18.155598 45.275794 -0.743862 1.158188 0.045955 0.000966 -136082.000000 0 0 1
31.028710 -29.154644 18.909298 46.586862 -0.754269 1.152840 0.061433 -0.013384 -275569.000000 0 0 1
29.940110 -30.069744 19.489098 46.695017 -0.787558 1.140247 0.067300 -0.011040 -994377.000000 0 0 1
29.231610 -29.457744 20.551498 46.309932 -0.789251 1.110982 0.060152 -0.006936 125212.000000 0 0 1
28.318310 -30.323644 21.217298 46.600685 -0.819581 1.098087 0.047105 -0.010264 548669.000000 0 0 1
26.996910 -30.506844 20.409798 45.563808 -0.846361 1.106338 0.094486 -0.013643 -761632.000000 0 0 1
26.976910 -31.650644 19.629498 45.987326 -0.864949 1.129794 0.102048 -0.012573 -123849.000000 0 0 1
26.004010 -31.674044 18.607798 45.007819 -0.883388 1.144573 0.106660 -0.009979 -144719.000000 0 0 1
26.239510 -30.620344 17.460598 43.943030 -0.862292 1.162173 0.089240 -0.009475 -457736.000000 0 0 1
27.399410 -30.921544 16.746898 44.579459 -0.845717 1.185683 0.080477 -0.020008 -609562.000000 0 0 1
27.830410 -29.919844 15.879098 43.839190 -0.821563 1.200156 0.067799 -0.029448 946130.000000 0 0 1
29.167210 -30.303244 15.107498 44.690595 -0.804498 1.225956 0.065733 -0.030730 762541.000000 0 0 1
28.985210 -31.301844 14.169298 44.952384 -0.823806 1.250122 0.089110 -0.027562 111635.000000 0 0 1
28.989810 -32.649844 14.646998 46.053838 -0.844706 1.247134 0.056904 -0.029725 -182368.000000 0 0 1
28.273510 -33.674244 13.731298 46.064028 -0.872360 1.268104 0.096547 -0.033455 46679.700000 0 0 1
28.808310 -33.729244 12.394798 46.056614 -0.863924 1.298316 0.102301 -0.031629 223727.000000 0 0 1
28.371610 32.853239 11.854298 44.997867 0.858467 1.304208 0.104308 -0.038937 -322364.000000 0 0 1
28.902110 32.535839 10.444498 44.754892 0.844474 1.335253 0.105368 -0.046331 -1047060.000000 0 0 1
30.209810 32.102839 10.492498 45.313546 0.815768 1.337122 0.088798 -0.049251 -793870.000000 0 0 1
30.585110 31.399839 9.326498 44.814980 0.798541 1.361153 0.089184 -0.056436 149099.000000 0 0 1
32.098310 31.054039 9.287598 45.617041 0.768864 1.365763 0.079022 -0.047719 274768.000000 0 0 1
32.435110 30.075939 10.264298 45.408748 0.747676 1.342783 0.066362 -0.036236 105066.000000 0 0 1
33.780110 29.661639 10.132298 46.082233 0.720572 1.349111 0.080593 -0.028573 242183.000000 0 0 1
34.401910 28.874539 11.343098 46.323821 0.698267 1.323416 0.091896 -0.026079 140195.000000 0 0 1
34.071710 27.489339 11.365598 45.229659 0.678879 1.316787 0.077418 -0.032413 137351.000000 0 0 1
34.250310 26.923639 12.605598 45.352698 0.666198 1.289141 0.085332 -0.036074 -103922.000000 0 0 1
33.993910 25.407739 12.570198 44.262276 0.641848 1.282840 0.067505 -0.039131 528846.000000 0 0 1
34.939210 24.684739 11.729198 44.358301 0.615079 1.303194 0.063434 -0.031913 530484.000000 0 0 1
34.921110 23.249839 11.809598 43.583318 0.587390 1.296400 0.075945 -0.036914 -718639.000000 0 0 1
33.645210 22.580739 11.300998 42.066644 0.591095 1.298810 0.069528 -0.034103 130027.000000 0 0 1
32.473110 22.691539 12.096498 41.421421 0.609906 1.274443 0.100428 -0.052606 137958.000000 0 0 1
31.366210 22.257739 11.350898 40.100985 0.617146 1.283815 0.099213 -0.044339 -107784.000000 0 0 1
30.038610 22.048339 12.088798 39.173798 0.633182 1.257082 0.095445 -0.039786 239449.000000 0 0 1
29.278410 23.145639 12.566498 39.380996 0.668944 1.246016 0.101643 -0.032176 -724612.000000 0 0 1
28.236110 22.749639 13.357598 38.642586 0.678203 1.217843 0.127091 -0.031776 -908736.000000 0 0 1
24.687010 9.460139 25.651040 36.836376 0.365943 0.800496 0.060497 -0.004269 -101198.000000 0 0 1
24.683310 8.192239 26.182410 36.903891 0.320454 0.782043 0.068341 -0.015085 -289287.000000 0 0 1
23.383510 7.718439 26.359320 36.071826 0.318820 0.751383 0.072624 -0.016705 -673478.000000 0 0 1
23.287310 6.417239 27.172330 36.356778 0.268894 0.726686 0.097943 -0.014664 -199256.000000 0 0 1
23.606510 6.597239 28.548480 37.627206 0.272514 0.709452 0.101040 -0.019564 -422528.000000 0 0 1
24.905610 6.766439 29.000350 38.821314 0.265280 0.727226 0.089220 -0.023642 -942104.000000 0 0 1
25.021310 6.677839 30.564540 40.060587 0.260807 0.702920 0.097540 -0.029258 -103491.000000 0 0 1
24.722510 7.914139 31.202080 40.588249 0.309811 0.693917 0.128054 -0.034839 165104.000000 0 0 1
24.688210 7.630339 32.597406 41.597124 0.299755 0.670283 0.118254 -0.036573 55829.400000 0 0 1
24.711510 8.941039 33.427484 42.520555 0.347163 0.666244 0.156915 -0.039849 302556.000000 0 0 1
25.941510 9.639739 33.282788 43.285454 0.355782 0.693656 0.117897 -0.037810 -138720.000000 0 0 1
26.333110 10.216139 -33.337562 43.694339 0.370082 2.438695 0.127562 -0.036386 -288254.000000 0 0 1
27.659710 10.943639 -33.589772 44.867534 0.376753 2.416809 0.103131 -0.037757 -383930.000000 0 0 1
27.590510 12.197239 33.541188 45.111198 0.416249 0.732474 0.107726 -0.040612 43437.600000 0 0 1
27.258110 13.308839 -33.415402 45.130022 0.454205 2.404499 0.104214 -0.036661 -313494.000000 0 0 1
26.800210 14.451139 33.510382 45.277284 0.494527 0.737555 0.094617 -0.036490 -531853.000000 0 0 1
27.842810 15.268239 33.022668 45.813075 0.501593 0.765822 0.079188 -0.033498 141546.000000 0 0 1
27.528810 16.652739 33.053019 46.126470 0.544030 0.771919 0.091691 -0.042909 -74450.500000 0 0 1
27.799510 17.404239 -33.418542 46.824345 0.559363 2.365563 0.089589 -0.048785 -284130.000000 0 0 1
26.965210 17.102239 -32.331542 45.441586 0.565212 2.362422 0.088839 -0.044782 248836.000000 0 0 1
27.699310 16.702339 -31.200792 44.941176 0.542613 2.338185 0.087433 -0.041877 -220570.000000 0 0 1
26.720310 16.178039 -30.144642 43.409715 0.544423 2.338412 0.079360 -0.034485 108258.000000 0 0 1
26.124510 14.977239 -30.660782 42.975473 0.520557 2.365204 0.096778 -0.027804 733228.000000 0 0 1
25.146110 14.439239 -29.734092 41.532333 0.521243 2.368746 0.115576 -0.032441 604801.000000 0 0 1
24.557210 13.072839 -30.074822 40.968898 0.489185 2.395121 0.101959 -0.028219 -1239770.000000 0 0 1
23.778010 13.056439 -31.239472 41.373530 0.502150 2.426541 0.112423 -0.030797 251470.000000 0 0 1
23.147910 11.774139 -31.481932 40.811373 0.470542 2.451836 0.109331 -0.025891 710427.000000 0 0 1
22.204210 11.243539 -30.340952 39.243057 0.468730 2.454597 0.108513 -0.030926 -651579.000000 0 0 1
21.099610 12.048939 -30.010792 38.613704 0.518861 2.461009 0.127600 -0.021950 178581.000000 0 0 1
20.274410 11.482739 -29.001852 37.202317 0.515321 2.464777 0.109767 -0.014146 557959.000000 0 0 1
18.997810 12.311439 -28.654292 36.517897 0.575000 2.472951 0.085798 0.002126 855396.000000 0 0 1
18.046310 12.367039 -29.742792 36.922170 0.600788 2.507406 0.065374 0.004763 -32158.700000 0 0 1
16.866510 12.936039 -29.241722 36.151052 0.654271 2.513034 0.056823 -0.001809 -931469.000000 0 0 1
15.742910 12.969639 -30.283592 36.512281 0.689109 2.548844 0.063559 -0.014889 -273564.000000 0 0 1
15.051710 11.744439 -30.391592 35.890593 0.662596 2.580707 0.064299 0.003070 -362389.000000 0 0 1
13.744210 11.853139 -29.879672 34.959906 0.711655 2.595738 0.066656 -0.003390 147454.000000 0 0 1
12.609510 11.488039 -30.888542 35.285646 0.738893 2.637029 0.075973 -0.006140 262261.000000 0 0 1
12.470210 12.327339 -32.002392 36.491403 0.779637 2.640346 0.084687 -0.004979 652779.000000 0 0 1
11.362010 11.903839 -32.839042 36.731449 0.808683 2.677059 0.083970 0.002707 931319.000000 0 0 1
10.888010 12.900539 33.898640 37.869387 0.869798 0.462037 0.090674 -0.001985 130426.000000 0 0 1
11.723010 12.991939 32.728859 37.113308 0.836696 0.490997 0.077440 0.002534 318631.000000 0 0 1
11.070410 13.486239 31.531310 36.036872 0.883460 0.505415 0.090098 -0.016084 -245351.000000 0 0 1
11.724410 13.256139 30.181870 34.987602 0.846638 0.530321 0.098095 -0.022943 -341440.000000 0 0 1
11.948210 11.912639 29.812570 34.255803 0.783907 0.515000 0.090622 -0.017503 -17796.700000 0 0 1
12.059410 11.918039 28.401180 33.077123 0.779502 0.538195 0.110110 -0.020024 -258920.000000 0 0 1
12.687510 10.561039 27.893530 32.412305 0.694185 0.534380 0.111800 -0.015110 -190187.000000 0 0 1
12.001910 9.434239 28.305270 32.159587 0.666184 0.494618 0.095875 -0.025010 -240188.000000 0 0 1
12.522810 8.225639 27.758380 31.543773 0.581177 0.494943 0.098354 -0.030792 -185357.000000 0 0 1
11.648410 6.985839 28.071910 31.185246 0.540217 0.450645 0.076750 -0.022702 -379732.000000 0 0 1
10.328910 7.060639 27.603960 30.307056 0.599621 0.425555 0.068448 -0.036637 -426284.000000 0 0 1
9.494710 6.005839 28.084870 30.248629 0.564007 0.380531 0.064391 -0.039978 49661.300000 0 0 1
9.789810 4.540839 27.539160 29.578116 0.434298 0.373474 0.084762 -0.030051 -67500.700000 0 0 1
11.008010 3.921139 27.912580 30.259936 0.342194 0.396478 0.081533 -0.025245 281466.000000 0 0 1
10.906110 2.622339 27.401400 29.608388 0.235967 0.388546 0.097346 -0.027529 -158797.000000 0 0 1
11.378410 1.549339 28.412710 30.645567 0.135333 0.384091 0.058245 -0.021119 -57456.300000 0 0 1
10.458610 1.295739 29.443820 31.272992 0.123264 0.343714 0.046954 -0.015342 -80234.200000 0 0 1
10.897010 0.202739 30.246730 32.150437 0.018603 0.345850 0.057075 -0.013030 419906.000000 0 0 1
9.908810 0.043539 31.434260 32.959052 0.004394 0.305367 0.075147 -0.013783 349362.000000 0 0 1
10.161810 1.033539 32.430127 34.000643 0.101360 0.305126 0.054421 -0.017117 685597.000000 0 0 1
8.990410 1.286739 33.218075 34.437243 0.142158 0.266884 0.072391 -0.027347 461374.000000 0 0 1
9.144210 2.755339 33.841240 35.163020 0.292668 0.275056 0.065010 -0.026365 -142645.000000 0 0 1
9.153810 3.844839 32.928819 34.393054 0.397650 0.292845 0.048791 -0.023035 629484.000000 0 0 1
10.388410 4.073639 32.241448 34.117804 0.373706 0.333191 0.046476 -0.012597 219517.000000 0 0 1
10.433710 5.423839 31.497860 33.621355 0.479392 0.357311 0.042472 -0.015786 99352.700000 0 0 1
10.334910 6.584939 32.344310 34.587949 0.567292 0.362164 0.046273 -0.016025 -31441.000000 0 0 1
10.528010 7.729339 31.551820 34.148192 0.633292 0.392469 0.052670 -0.010773 -240852.000000 0 0 1
10.475310 9.034139 32.318324 35.154258 0.711662 0.404425 0.074090 -0.018469 -134963.000000 0 0 1
9.301310 9.520739 32.912261 35.501772 0.797056 0.384304 0.069010 -0.021995 -472949.000000 0 0 1
8.790610 8.764939 -33.814062 36.020685 0.783936 2.789752 0.071937 -0.021977 -84820.800000 0 0 1
7.378210 9.181839 -33.341682 35.361164 0.893885 2.801998 0.072204 -0.021372 199762.000000 0 0 1
6.898510 8.258239 -32.398752 34.138938 0.874870 2.820929 0.079938 -0.021254 -782770.000000 0 0 1
5.570410 8.513039 -32.068442 33.643517 0.991377 2.834391 0.085105 -0.025319 -398741.000000 0 0 1
5.130610 7.792739 -30.757402 32.141371 0.988550 2.847071 0.077137 -0.024719 -607559.000000 0 0 1
5.493210 8.376839 -29.555842 31.207284 0.990381 2.814815 0.089941 -0.031785 -55460.700000 0 0 1
5.085910 7.767039 -28.362942 29.843757 0.991049 2.825255 0.081938 -0.026833 460774.000000 0 0 1
3.558410 7.847639 -28.048282 29.342015 1.145088 2.843534 0.079269 -0.019972 299376.000000 0 0 1
2.716110 7.093639 -28.893602 29.875361 1.205123 2.884519 0.073691 -0.016611 -622349.000000 0 0 1
1.393710 7.126039 -28.413462 29.326569 1.377654 2.891398 0.085300 -0.004918 -286931.000000 0 0 1
0.535210 6.591139 -29.582302 30.312409 1.489773 2.921668 0.099739 -0.020541 -442445.000000 0 0 1
0.592110 7.445839 -30.697642 31.593295 1.491441 2.902911 0.086060 -0.022711 -182191.000000 0 0 1
0.091710 6.703639 -31.735822 32.436238 1.557116 2.933401 0.105401 -0.033563 -800996.000000 0 0 1
0.083310 7.413139 -33.121842 33.941390 1.559559 2.921394 0.123702 -0.037662 625959.000000 0 0 1
1.354410 7.850939 -33.650492 34.580735 1.399962 2.909118 0.102903 -0.029790 988323.000000 0 0 1
2.279710 6.865239 33.726683 34.493735 1.250187 0.211283 0.110059 -0.036220 -57407.400000 0 0 1
1.899410 6.449339 32.268353 32.961316 1.284382 0.205415 0.112803 -0.038875 -588294.000000 0 0 1
0.778210 5.627839 32.166915 32.664792 1.433389 0.174819 0.123457 -0.044359 -591055.000000 0 0 1
0.329910 5.434739 30.819930 31.297177 1.510167 0.174859 0.141622 -0.045956 135038.000000 0 0 1
1.027610 4.332039 30.001120 30.329684 1.337889 0.147328 0.147821 -0.052311 -35146.600000 0 0 1
0.853010 4.498039 28.597750 28.961894 1.383381 0.158743 0.140369 -0.048439 -22543.400000 0 0 1
1.544810 3.502239 27.904710 28.166025 1.155375 0.136323 0.129856 -0.044700 -7335.200000 0 0 1
1.564310 3.835239 26.407800 26.730657 1.183517 0.155580 0.118135 -0.042930 355381.000000 0 0 1
2.300410 5.061939 26.256950 26.839198 1.144246 0.208676 0.111601 -0.036876 282245.000000 0 0 1
2.330510 5.360539 24.876930 25.554419 1.160694 0.230779 0.091022 -0.032116 -317739.000000 0 0 1
2.902410 6.744739 24.516730 25.592685 1.164426 0.290996 0.080336 -0.018498 -361540.000000 0 0 1
4.274510 6.890739 24.696170 25.993356 1.015565 0.317254 0.071652 -0.014395 -733208.000000 0 0 1
5.043210 6.677739 23.538900 24.982113 0.923958 0.341569 0.072654 -0.024785 22001.400000 0 1 0
6.587810 6.800639 23.748310 25.566192 0.801293 0.379378 0.082086 -0.024295 629891.000000 0 0 1
7.215310 5.801939 24.544720 26.232928 0.677245 0.360713 0.082534 -0.028668 -13293.900000 0 0 1
7.080310 4.419139 24.306560 25.699581 0.557984 0.330759 0.093060 -0.029738 -996606.000000 0 0 1
7.272010 3.805639 22.852550 24.281764 0.482135 0.344808 0.092647 -0.032374 963020.000000 0 1 0
6.186010 3.972039 21.884650 23.086397 0.570802 0.324075 0.074444 -0.032551 833211.000000 0 1 0
4.989710 3.301839 22.248350 23.038846 0.584577 0.262715 0.072827 -0.025356 37355.400000 0 1 0
3.785510 3.450639 21.292050 21.899507 0.739154 0.236083 0.049527 -0.020644 219580.000000 0 1 0
3.266210 4.784239 21.382450 22.153245 0.971774 0.264565 0.037490 -0.024542 -518392.000000 0 1 0
2.134310 5.002739 20.608050 21.313714 1.167547 0.258042 0.033632 -0.020760 -475179.000000 0 1 0
1.663410 6.475539 20.730750 21.782184 1.319357 0.311974 0.036740 -0.019943 442163.000000 0 1 0
2.636810 7.416539 20.228950 21.706410 1.229203 0.371085 0.036391 -0.011643 379238.000000 0 1 0
2.120810 8.726039 20.437550 22.323419 1.332375 0.413996 0.035424 -0.008129 486371.000000 0 1 0
2.896410 9.907639 19.746750 22.281935 1.286381 0.481670 0.044230 -0.017289 -872891.000000 0 1 0
2.826510 9.972839 18.316550 21.046204 1.294618 0.514981 0.026136 -0.013294 -12965.200000 0 1 0
3.719110 10.905239 17.717550 21.134512 1.242127 0.576596 0.033464 -0.022321 -810404.000000 0 1 0
5.189710 10.726339 17.957750 21.551525 1.120169 0.585841 0.045218 -0.022055 -1636350.000000 0 1 0
5.787110 9.695839 17.173950 20.553455 1.032685 0.581618 0.042551 -0.015452 289069.000000 0 1 0
7.173510 9.549139 17.480950 21.171418 0.926514 0.599379 0.046591 -0.008799 624149.000000 0 1 0
7.474310 8.081039 17.978050 21.080294 0.824383 0.549402 0.057674 -0.014824 -44789.800000 0 1 0
7.100210 7.943439 19.361050 22.098902 0.841392 0.503065 0.060309 -0.014897 -35250.800000 0 1 0
7.338610 6.617839 19.782450 22.113261 0.733800 0.463269 0.074063 -0.027213 32177.400000 0 1 0
8.747410 6.127439 20.178350 22.830430 0.611052 0.486797 0.093214 -0.023916 -8111.440000 0 1 0
9.506310 5.885339 18.978950 22.027431 0.554344 0.532373 0.093791 -0.023820 -16754.400000 0 1 0
10.751210 5.235039 19.181450 22.603588 0.453133 0.557459 0.111617 -0.026761 291095.000000 0 1 0
10.658210 3.662539 19.176350 22.242843 0.330994 0.531326 0.120252 -0.023859 -2409.280000 0 1 0
9.969210 3.106039 20.298250 22.826555 0.302031 0.475119 0.130659 -0.031536 73411.500000 0 1 0
9.851610 1.689039 20.179050 22.518906 0.169797 0.459907 0.131503 -0.038147 105392.000000 0 1 0
9.045810 0.992739 21.292250 23.155391 0.109308 0.403894 0.123330 -0.034586 -16894.000000 0 1 0
9.643710 1.123739 22.561050 24.561452 0.116002 0.406386 0.131437 -0.032995 -248963.000000 0 1 0
9.023410 0.311139 23.458500 25.136029 0.034468 0.367407 0.124657 -0.033554 -489393.000000 0 0 1
9.698310 0.423139 24.867400 26.695016 0.043603 0.372179 0.116406 -0.031439 389649.000000 0 0 1
10.967210 -0.230161 24.973600 27.276609 -0.020983 0.413877 0.118312 -0.031427 423115.000000 0 0 1
10.953710 -1.629961 24.962230 27.308487 -0.147720 0.417555 0.121467 -0.027571 -943274.000000 0 0 1
12.357710 -2.198561 24.983420 27.959219 -0.176068 0.465569 0.123954 -0.030187 -455468.000000 0 0 1
12.255410 -3.582761 24.821200 27.912779 -0.284416 0.475112 0.131259 -0.017986 184578.000000 0 0 1
13.529110 -4.158961 25.057880 28.779005 -0.298239 0.514172 0.120524 -0.019695 142365.000000 0 0 1
13.539310 -5.696361 25.150010 29.125323 -0.398246 0.528608 0.119987 -0.014746 -64562.000000 0 0 1
13.050510 -6.223161 23.952370 27.977841 -0.444958 0.543083 0.119445 -0.018034 153997.000000 0 0 1
12.910310 -7.606761 24.054570 28.340100 -0.532441 0.557119 0.114405 -0.027599 72757.600000 0 0 1
13.029410 -8.343261 22.734650 27.499815 -0.569555 0.597544 0.128636 -0.027074 198243.000000 0 0 1
12.646110 -9.728261 22.784700 27.815566 -0.655720 0.610895 0.136749 -0.015586 -192562.000000 0 0 1
12.667610 -10.250261 21.525350 26.997720 -0.680308 0.647984 0.121281 -0.017653 64277.200000 0 0 1
12.012210 -11.671661 21.503950 27.256939 -0.771020 0.661723 0.139030 -0.016397 -523410.000000 0 0 1
10.709510 -11.604861 21.957450 27.046183 -0.825501 0.623482 0.142875 -0.014871 -1580660.000000 0 0 1
10.206710 -12.846061 22.220450 27.621488 -0.899393 0.636026 0.128809 -0.014023 587153.000000 0 0 1
8.706610 -12.755361 22.677050 27.436342 -0.971855 0.597876 0.094785 -0.008413 702274.000000 0 0 1
7.873810 -12.205661 21.712750 26.123142 -0.997877 0.589589 0.079062 -0.011658 -1488560.000000 0 0 1
6.519510 -12.313961 21.938850 25.989436 -1.083875 0.565828 0.050135 -0.011327 -681616.000000 0 0 1
5.754510 -11.151761 21.271250 24.697009 -1.094416 0.532996 0.028071 -0.004895 -52559.800000 0 1 0
5.963310 -9.928561 21.875450 24.752226 -1.029920 0.486922 0.050311 -0.002172 -122518.000000 0 1 0
5.123110 -8.954261 21.270650 23.640338 -1.051112 0.451575 0.035495 -0.001833 -59196.100000 0 1 0
5.612410 -7.535061 21.440150 23.408467 -0.930606 0.413016 0.056529 -0.026371 -211229.000000 0 1 0
4.657910 -6.514761 21.301550 22.757290 -0.950089 0.359616 0.037761 -0.012270 -322377.000000 0 1 0
5.292510 -5.265261 21.320750 22.589998 -0.782817 0.336810 0.068438 -0.031708 80388.600000 0 1 0
-8.089090 -15.567661 -20.743002 27.167214 1.091585 2.439559 0.052388 -0.014781 -62050.600000 0 0 1
-7.599690 -14.846661 -19.651002 25.774803 1.097691 2.437828 0.033488 -0.003506 -258309.000000 0 0 1
-6.885790 -13.692861 -20.025502 25.217637 1.104852 2.488333 0.045123 -0.017623 -248016.000000 0 0 1
-6.029190 -13.149061 -18.896402 23.797540 1.140875 2.488237 0.024696 -0.010619 185901.000000 0 1 0
-4.964390 -14.009161 -18.495102 23.727000 1.230236 2.464657 0.022611 0.002158 87361.800000 0 1 0
-4.366490 -13.526261 -17.299702 22.389855 1.258541 2.453814 0.033159 -0.002490 837766.000000 0 1 0
-3.364690 -14.552161 -16.591302 22.323929 1.343574 2.408647 0.038785 -0.000034 668938.000000 0 1 0
-2.107190 -14.702361 -17.205902 22.729776 1.428443 2.429470 0.042816 -0.005321 -659055.000000 0 1 0
-1.395890 -15.571861 -16.421302 22.673564 1.481393 2.380741 0.049957 -0.004416 -509518.000000 0 1 0
-0.067190 -16.085161 -16.984702 23.392670 1.566619 2.383385 0.061546 -0.005690 -36983.200000 0 1 0
-0.210590 -16.889861 -18.155602 24.797935 1.558329 2.392257 0.089519 -0.020057 -512935.000000 0 1 0
-0.652390 -18.154361 -17.966502 25.549982 1.534876 2.350671 0.084126 -0.017072 -374394.000000 0 0 1
-1.107590 -18.760061 -19.310502 26.945539 1.511825 2.369782 0.090949 -0.027153 -284078.000000 0 0 1
-2.223390 -18.121861 -19.884302 26.995013 1.448715 2.398813 0.114417 -0.034561 -376458.000000 0 0 1
-2.495390 -18.636561 -21.199302 28.336527 1.437690 2.416030 0.102174 -0.037159 -32260.400000 0 0 1
-3.745190 -17.968461 -21.801902 28.499385 1.365307 2.441831 0.105450 -0.037663 38934.200000 0 0 1
-3.559890 -16.585861 -21.984002 27.767965 1.359370 2.484389 0.092058 -0.032746 -171920.000000 0 0 1
-3.753090 -15.770161 -20.806202 26.375778 1.337156 2.479711 0.072374 -0.023967 6117.430000 0 0 1
-2.568490 -14.773861 -20.667802 25.534724 1.398663 2.513926 0.076944 -0.014078 287500.000000 0 0 1
-2.643490 -13.613561 -21.501502 25.585770 1.379003 2.568761 0.064739 -0.020632 -522351.000000 0 0 1
-1.497890 -12.816461 -21.459202 25.040021 1.454452 2.600208 0.050013 -0.007000 -140431.000000 0 0 1
-1.573390 -11.769461 -22.610802 25.539070 1.437900 2.658025 0.059336 -0.006376 -516192.000000 0 0 1
-2.560890 -10.817761 -22.415802 25.020996 1.338345 2.681203 0.056448 -0.019870 -456157.000000 0 0 1
-2.742090 -10.099261 -23.604702 25.820458 1.305674 2.724291 0.071573 -0.021477 -310163.000000 0 0 1
-3.835890 -9.040761 -23.767302 25.716415 1.169529 2.749751 0.060481 -0.023164 574768.000000 0 0 1
-5.185490 -9.565361 -23.863302 26.226753 1.074030 2.713801 0.063794 -0.027825 1078930.000000 0 0 1
-5.953590 -8.400861 -23.598802 25.747293 0.954263 2.730175 0.055857 -0.025253 321265.000000 0 0 1
-7.512490 -8.618961 -23.429802 26.070665 0.853882 2.687601 0.048399 -0.029784 1306850.000000 0 0 1
-8.292190 -8.908261 -24.595702 27.442049 0.821200 2.682101 0.046399 -0.027673 390179.000000 0 0 1
-8.501490 -7.826561 -25.452642 27.952949 0.744086 2.715416 0.047271 -0.027455 -313401.000000 0 0 1
-9.542390 -8.083861 -26.570952 29.367013 0.702839 2.701680 0.042347 -0.027086 -27442.300000 0 0 1
-10.063690 -6.948761 -27.171322 29.796708 0.604307 2.718662 0.052493 -0.033441 -128655.000000 0 0 1
-10.925290 -7.319861 -28.216402 31.130494 0.590301 2.705457 0.052455 -0.029595 -330808.000000 0 0 1
-11.596390 -6.106961 -28.927882 31.758362 0.484721 2.716194 0.053832 -0.037200 453565.000000 0 0 1
-10.778790 -5.336061 -29.811172 32.145945 0.459681 2.758116 0.022793 -0.025170 40066.700000 0 0 1
-11.680290 -4.668261 -30.628842 33.111142 0.380222 2.751914 0.055735 -0.023104 70553.500000 0 0 1
-11.052990 -3.569861 -31.540142 33.610906 0.312401 2.788738 0.034938 -0.022496 -57456.300000 0 0 1
-10.185890 -4.059561 -32.543222 34.340845 0.379254 2.816601 0.035783 -0.017822 -28545.700000 0 0 1
-9.606990 -3.005161 -33.258572 34.748494 0.303167 2.847697 0.040920 -0.017334 -281060.000000 0 0 1
-8.484390 -3.462661 33.588183 34.815814 0.387488 0.266345 0.040157 -0.018823 -277810.000000 0 0 1
-7.299890 -3.715661 -33.517302 34.503681 0.470823 2.901906 0.040011 -0.022764 -924129.000000 0 0 1
-6.274890 -4.048461 33.393442 34.218215 0.572982 0.220004 0.035816 -0.019401 332697.000000 0 0 1
-4.919090 -3.416961 33.864200 34.389782 0.607115 0.175055 0.065588 -0.022736 340926.000000 0 0 1
-4.761890 -2.038661 33.791750 34.186461 0.404510 0.152106 0.099105 -0.047850 643358.000000 0 0 1
-3.375390 -1.749961 -33.768072 33.981440 0.478296 3.029472 0.102113 -0.049239 841710.000000 0 0 1
-3.297790 -0.272761 -33.198382 33.362889 0.082522 3.042246 0.114458 -0.052585 40061.100000 0 0 1
-3.745790 -0.291761 -31.817212 32.038274 0.077733 3.024052 0.110067 -0.050406 228039.000000 0 0 1
-4.198090 0.984939 -31.385732 31.680565 -0.230448 3.005058 0.133493 -0.050292 -576970.000000 0 0 1
-4.857790 0.998139 -29.971962 30.379481 -0.202651 2.977615 0.115000 -0.058664 1134690.000000 0 0 1
-6.043690 0.199539 -29.779942 30.387677 -0.033004 2.941261 0.105207 -0.056397 742117.000000 0 0 1
-7.213690 0.684639 -30.417912 31.269080 -0.094625 2.907733 0.111930 -0.055452 -225158.000000 0 0 1
-8.313490 -0.417761 -30.416182 31.534628 0.050209 2.874464 0.094467 -0.055561 76357.100000 0 0 1
-8.749890 -0.722661 -29.123822 30.418412 0.082404 2.848797 0.104788 -0.046011 -243980.000000 0 0 1
-9.334690 -1.980861 -29.064972 30.591385 0.209102 2.824363 0.052633 -0.023281 -373704.000000 0 0 1
-9.511790 -2.458561 -27.594322 29.291044 0.252939 2.799557 0.056607 -0.020183 -72431.700000 0 0 1
-10.579490 -1.862561 -26.876902 28.944128 0.174268 2.761361 0.050201 -0.017765 305785.000000 0 0 1
-10.702490 -2.381961 -25.545232 27.798847 0.218992 2.736159 0.044151 -0.026746 -47962.000000 0 0 1
-11.718490 -1.726861 -24.605202 27.307892 0.146309 2.692932 0.062419 -0.027582 35167.200000 0 0 1
-11.290590 -0.432861 -24.204402 26.711755 0.038319 2.704847 0.079193 -0.026324 -332465.000000 0 0 1
-12.325090 0.288839 -23.646302 26.667187 -0.023431 2.660996 0.090337 -0.028305 -466959.000000 0 0 1
-11.885390 1.622739 -23.004502 25.944226 -0.135693 2.660934 0.115997 -0.032447 -28029.200000 0 0 1
-11.299690 2.489239 -23.948802 26.597451 -0.216830 2.691524 0.080367 -0.031600 550596.000000 0 0 1
-10.527190 3.546039 -23.294002 25.807104 -0.324908 2.696614 0.086143 -0.028340 475417.000000 0 0 1
-10.167490 4.761339 -24.228802 26.703614 -0.437960 2.707669 0.107702 -0.035665 467836.000000 0 0 1
-11.330590 5.575739 -24.407902 27.481208 -0.457305 2.664137 0.112897 -0.033558 618024.000000 0 0 1
-11.988090 5.264539 -25.656792 28.804524 -0.413792 2.669725 0.102917 -0.029503 -226467.000000 0 0 1
-13.387590 5.865339 -25.806082 29.657775 -0.412929 2.626260 0.091634 -0.017307 -283210.000000 0 0 1
-13.512990 7.278939 -25.844572 30.058705 -0.494097 2.605681 0.087661 -0.018891 -124136.000000 0 0 1
-14.887090 7.586739 -25.896212 30.818790 -0.471313 2.568584 0.086157 -0.011526 -284205.000000 0 0 1
-15.158790 9.055139 -25.698242 31.179866 -0.538470 2.539573 0.098264 -0.015321 -433110.000000 0 0 1
-14.953290 9.469239 -24.353602 30.105901 -0.564513 2.513128 0.142464 -0.034206 177838.000000 0 0 1
-14.950390 10.874239 -24.294502 30.528446 -0.628850 2.491122 0.129409 -0.021560 -174816.000000 0 0 1
-14.714390 11.482239 -22.857902 29.509977 -0.662638 2.456850 0.121439 -0.041875 234824.000000 0 0 1
-15.706090 11.198239 -21.880302 29.168980 -0.619389 2.419043 0.134668 -0.044074 56771.900000 0 0 1
-15.370490 11.963739 -20.750702 28.460053 -0.661404 2.387827 0.110182 -0.034435 308325.000000 0 0 1
-16.483290 12.016239 -19.633202 28.311684 -0.629922 2.337085 0.110464 -0.039970 321681.000000 0 0 1
-17.648690 12.656939 -20.093102 29.587279 -0.622150 2.317350 0.100631 -0.036249 -232843.000000 0 0 1
-18.503990 12.928439 -18.998602 29.504051 -0.609842 2.270423 0.092957 -0.026114 236841.000000 0 0 1
-19.965690 13.258139 -19.420902 30.847665 -0.586186 2.251802 0.096548 -0.028628 335794.000000 0 0 1
-20.071790 14.510039 -20.100302 31.897337 -0.625935 2.252551 0.074103 -0.028527 369083.000000 0 0 1
-21.459890 14.787139 -20.206702 32.977222 -0.603346 2.230329 0.069512 -0.024972 346121.000000 0 0 1
-21.702390 16.174539 -20.792602 34.131243 -0.640479 2.225842 0.069379 -0.020390 -142102.000000 0 0 1
-21.535490 16.201539 -22.225302 34.931808 -0.644983 2.260422 0.071167 -0.018999 149222.000000 0 0 1
-21.829890 17.453639 -22.786702 36.061162 -0.674454 2.254786 0.057506 -0.004814 -293080.000000 0 0 1
-21.555090 17.518839 -24.319402 36.918355 -0.682465 2.289932 0.053007 -0.007704 422975.000000 0 0 1
-20.166790 17.251139 -24.574802 36.169353 -0.707634 2.317792 0.056819 -0.010550 614427.000000 0 0 1
-19.930190 16.961639 -25.903452 36.822527 -0.705105 2.351061 0.045773 -0.017026 -103462.000000 0 0 1
-19.585090 18.223439 -26.743772 37.827223 -0.749399 2.356041 0.029819 -0.021507 -204016.000000 0 0 1
-20.713290 19.062539 -26.918582 38.949080 -0.743921 2.333837 0.033307 -0.027958 64617.900000 0 0 1
-20.418290 20.301739 -27.511292 39.823841 -0.782536 2.333425 0.026238 -0.023597 -579239.000000 0 0 1
-21.652590 21.212739 -27.762812 41.104606 -0.775137 2.312328 0.042139 -0.018847 -111180.000000 0 0 1
-22.272990 21.597839 -26.577162 40.852151 -0.770010 2.279130 0.049957 -0.017227 -151600.000000 0 0 1
-23.356790 20.735239 -26.288772 40.823881 -0.726012 2.270454 0.071640 -0.033023 -575392.000000 0 0 1
-24.019190 21.226839 -25.001802 40.652063 -0.723762 2.233207 0.087633 -0.022547 45308.600000 0 0 1
-23.185990 20.937139 -23.897702 39.332608 -0.734475 2.223806 0.069670 -0.016561 321673.000000 0 0 1
-23.897990 21.216939 -22.688802 39.192527 -0.726041 2.188183 0.067990 -0.024670 513403.000000 0 0 1
-23.280690 20.469939 -21.418702 37.679832 -0.721242 2.175404 0.060572 -0.010035 323924.000000 0 0 1
-22.139290 21.118439 -20.883802 37.044160 -0.761803 2.169720 0.073116 -0.013502 262317.000000 0 0 1
-21.328990 20.327239 -20.007602 35.614977 -0.761355 2.167326 0.066314 -0.013077 176412.000000 0 0 1
-21.997990 19.842539 -18.704102 35.035430 -0.733928 2.133958 0.074608 -0.016542 35785.800000 0 0 1
-22.982790 18.801939 -18.915702 35.206893 -0.685673 2.137996 0.095792 -0.017190 791787.000000 0 0 1
-23.805890 18.430639 -17.819702 34.985006 -0.658813 2.105229 0.090977 -0.012133 554204.000000 0 0 1
-25.001090 19.358239 -17.443602 36.111981 -0.658870 2.074922 0.069079 -0.014720 -599547.000000 0 0 1
-26.130100 19.126439 -18.225802 37.158884 -0.631861 2.083440 0.075707 -0.010173 -589994.000000 0 0 1
-27.049560 20.161939 -17.981302 38.229696 -0.640532 2.060483 0.080919 -0.011468 -1138200.000000 0 0 1
-28.439620 19.983939 -18.607602 39.426040 -0.612522 2.062311 0.071107 -0.000741 237065.000000 0 0 1
-29.239990 18.891039 -18.121602 39.245902 -0.573607 2.050758 0.069865 -0.003921 285217.000000 0 0 1
-29.516120 18.859439 -16.735802 38.819671 -0.568571 2.016526 0.075454 -0.009319 -728925.000000 0 0 1
-30.362310 17.649239 -16.252202 38.697539 -0.526547 2.004220 0.063996 -0.007611 -53120.500000 0 0 1
-29.704690 16.430839 -16.417402 37.707720 -0.505250 2.021263 0.086224 -0.016170 -385381.000000 0 0 1
-30.458590 15.308839 -16.013702 37.663309 -0.465735 2.009958 0.079265 -0.005804 -168777.000000 0 0 1
-29.647810 14.045439 -15.595902 36.324911 -0.442422 2.014563 0.117878 -0.010970 -434782.000000 0 0 1
-29.013730 14.220839 -14.343702 35.352094 -0.455730 1.988583 0.129530 -0.016731 333625.000000 0 0 1
-29.889250 14.114039 -13.189302 35.588355 -0.441170 1.950459 0.096203 -0.003850 436523.000000 0 0 1
-29.362770 14.868739 -11.968302 35.021306 -0.468739 1.919568 0.121766 -0.031715 -35019.500000 0 0 1
-29.241210 16.310039 -12.112502 35.605876 -0.508794 1.917907 0.117338 -0.018304 -185973.000000 0 0 1
-30.310170 17.114839 -11.670902 36.712859 -0.514026 1.894307 0.083820 -0.011738 -120230.000000 0 0 1
-30.072270 18.645539 -11.929902 37.340596 -0.555013 1.895986 0.135797 -0.005283 -94842.300000 0 0 1
-28.983070 19.191839 -11.226302 36.529096 -0.584886 1.883177 0.086202 -0.024316 -254764.000000 0 0 1
-29.001910 20.589039 -11.150602 37.274056 -0.617353 1.874600 0.043315 -0.021320 -124736.000000 0 0 1
-27.791270 21.287539 -10.505702 36.549744 -0.653650 1.862345 0.079589 -0.012681 153758.000000 0 0 1
-28.068700 22.648339 -10.237302 37.491353 -0.678928 1.847366 0.070945 -0.024994 719144.000000 0 0 1
-26.837630 23.303339 -9.875302 36.889369 -0.715027 1.841802 0.083270 -0.015719 963258.000000 0 0 1
-27.081530 24.365039 -8.763602 37.468188 -0.732645 1.806878 0.112267 -0.007037 102285.000000 0 0 1
-27.305180 23.813739 -7.502402 36.999366 -0.717204 1.774983 0.088904 -0.017012 691130.000000 0 0 1
-28.485210 24.374339 -6.894102 38.118817 -0.707785 1.752655 0.111848 -0.020318 716825.000000 0 0 1
-28.633330 23.701239 -5.519402 37.577654 -0.691434 1.718210 0.102737 -0.016149 -177065.000000 0 0 1
-28.669420 22.258239 -5.596202 36.724410 -0.660169 1.723776 0.111822 -0.024401 127832.000000 0 0 1
-28.420120 21.637639 -4.320702 35.979982 -0.650725 1.691173 0.101709 -0.017206 21180.900000 0 0 1
-28.269770 20.060739 -4.542102 34.960604 -0.617152 1.701085 0.131534 -0.020334 845163.000000 0 0 1
-27.074640 19.622639 -5.240002 33.845852 -0.627151 1.726241 0.130685 -0.026399 939240.000000 0 0 1
-26.951390 19.895839 -6.626802 34.148738 -0.635914 1.766092 0.109642 -0.020488 -548691.000000 0 0 1
-27.826140 18.964439 -7.544202 34.508825 -0.598224 1.791193 0.131537 -0.019961 69231.500000 0 0 1
-27.453590 17.625439 -7.579202 33.493283 -0.570737 1.799064 0.125065 -0.023130 59183.100000 0 0 1
-28.104860 16.942439 -8.619202 33.929633 -0.542497 1.827643 0.101238 -0.025174 -259365.000000 0 0 1
-27.845170 15.432739 -8.672102 32.995882 -0.506088 1.836744 0.135087 -0.034632 -27527.700000 0 0 1
-28.379570 14.534039 -7.707602 32.803131 -0.473305 1.807979 0.116323 -0.022542 -62654.600000 0 0 1
-28.159510 13.161639 -8.047002 32.108269 -0.437226 1.824118 0.124898 -0.039040 91350.600000 0 0 1
-29.018210 12.198839 -7.168602 32.284006 -0.397956 1.794711 0.121329 -0.036124 547647.000000 0 0 1
-30.405130 12.319639 -7.509502 33.654688 -0.384966 1.795825 0.139612 -0.036438 560762.000000 0 0 1
-31.223090 11.519139 -6.636502 33.935454 -0.353439 1.767627 0.161705 -0.038985 186842.000000 0 0 1
-31.676530 10.206739 -7.305402 34.072701 -0.311713 1.786880 0.137311 -0.030933 -358342.000000 0 0 1
-30.595320 9.375339 -7.615502 32.893258 -0.297346 1.804438 0.132120 -0.027208 -25425.300000 0 0 1
-31.119830 8.156639 -8.114602 33.178627 -0.256338 1.817876 0.130937 -0.031576 -128978.000000 0 0 1
-30.016430 7.145739 -8.422602 31.984181 -0.233711 1.837275 0.159325 -0.032904 -430933.000000 0 0 1
-29.462030 7.453839 -9.644602 31.883997 -0.247798 1.878101 0.158508 -0.046399 189678.000000 0 0 1
-28.418100 6.527139 -9.949902 30.808967 -0.225767 1.899646 0.166435 -0.050282 -48575.500000 0 0 1
-27.905810 6.649439 -11.385902 30.864024 -0.233919 1.948627 0.134121 -0.030334 -69898.300000 0 0 1
-27.164730 7.827239 -11.700102 30.595434 -0.280541 1.963203 0.159684 -0.037887 86904.800000 0 0 1
-26.162780 7.507839 -12.606302 29.996292 -0.279457 2.004530 0.144122 -0.016991 -561352.000000 0 0 1
-32.993220 25.629839 -32.926152 53.193728 -0.660447 2.238247 0.041818 0.002112 -67156.200000 0 0 1
-33.318800 26.966839 -33.228962 54.235751 -0.680421 2.230239 0.050389 -0.007431 179409.000000 0 0 1
-32.990520 27.257839 33.226006 54.178701 -0.690533 0.910606 0.047054 -0.011344 -83099.700000 0 0 1
-33.398220 28.647539 32.796016 54.878969 -0.708980 0.930284 0.060752 -0.019995 16493.500000 0 0 1
-33.077770 28.971539 31.451780 54.062033 -0.719318 0.949891 0.072740 -0.020931 210506.000000 0 0 1
-33.582150 30.284539 31.162240 54.918115 -0.733811 0.967414 0.081504 -0.026281 49918.700000 0 0 1
-33.237160 30.742139 29.731200 54.163938 -0.746421 0.989735 0.087949 -0.029034 -775565.000000 0 0 1
-31.884570 30.767439 29.440980 53.198049 -0.767569 0.984329 0.078629 -0.026307 -748150.000000 0 0 1
-31.592250 31.637639 28.339880 52.935425 -0.786116 1.005854 0.067925 -0.019853 532445.000000 0 0 1
-30.107040 31.465739 27.894410 51.716774 -0.807461 1.001109 0.087585 -0.018874 97971.000000 0 0 1
-29.805000 30.251939 27.209620 50.436904 -0.792840 1.000979 0.107225 -0.018801 1001910.000000 0 0 1
-28.598950 30.247939 26.403900 49.295068 -0.813413 1.005543 0.087586 -0.013372 683336.000000 0 0 1
-28.753620 30.963239 25.024460 49.109230 -0.822383 1.036114 0.095281 -0.015569 -223190.000000 0 0 1
-28.842810 32.347939 25.206100 50.136258 -0.842618 1.044017 0.084235 -0.023357 -112538.000000 0 0 1
-29.719680 32.912939 24.284720 50.559555 -0.836338 1.069778 0.089307 -0.023396 -143212.000000 0 0 1
-30.201820 -33.425044 24.720530 51.385679 0.836013 1.068912 0.098088 -0.022271 319195.000000 0 0 1
-30.949620 -33.482144 25.942260 52.458877 0.824683 1.053507 0.088076 -0.031636 314621.000000 0 0 1
-31.079480 -32.198444 26.501190 52.009488 0.803080 1.036140 0.070751 -0.033838 -190834.000000 0 0 1
-31.661120 -32.240444 27.896390 53.104437 0.794464 1.017715 0.084318 -0.039087 1551180.000000 0 0 1
-33.080080 -32.607444 27.990230 54.230895 0.778203 1.028469 0.067141 -0.039292 1605710.000000 0 0 1
-33.416700 -32.549844 29.366260 55.123002 0.772258 1.008961 0.069177 -0.041526 259837.000000 0 0 1
-34.832470 -33.067544 29.731590 56.486554 0.759411 1.016497 0.084757 -0.043580 364832.000000 0 0 1
-34.912026 -33.320044 31.065680 57.394698 0.762071 0.998857 0.075801 -0.045141 85191.600000 0 0 1
-36.269480 -33.379144 31.471930 58.481833 0.743923 1.002557 0.058003 -0.041476 18863.400000 0 0 1
-36.577850 -33.639544 32.953421 59.627896 0.743577 0.985254 0.069568 -0.036594 -75347.700000 0 0 1
-36.203620 32.884639 33.441969 59.249193 -0.737395 0.971055 0.056369 -0.039948 117475.000000 0 0 1
-37.198380 32.428939 -33.461582 59.624097 -0.717005 2.166642 0.070841 -0.033481 360522.000000 0 0 1
-36.945870 30.936239 -33.002962 58.405853 -0.697098 2.171305 0.059374 -0.030686 701898.000000 0 0 1
-35.769758 30.741739 -32.213492 57.116015 -0.709945 2.170019 0.052942 -0.029611 77836.500000 0 0 1
-35.564558 29.336239 -31.789482 56.000213 -0.689724 2.174466 0.064261 -0.021279 322130.000000 0 0 1
-34.442735 29.179039 -30.745052 54.616632 -0.702852 2.168717 0.059040 -0.018419 84633.900000 0 0 1
-34.838924 29.612939 -29.443932 54.384022 -0.704492 2.142907 0.064998 -0.025943 -177282.000000 0 0 1
-34.670224 30.994739 -29.154562 54.887947 -0.729483 2.130771 0.058018 -0.021489 -433151.000000 0 0 1
-35.704298 31.496639 -28.187932 55.329871 -0.722867 2.105345 0.063204 -0.023331 -118805.000000 0 0 1
-35.469159 31.058439 -26.800952 54.230793 -0.719196 2.087713 0.066772 -0.039278 -289172.000000 0 0 1
-36.729990 30.765939 -26.270072 54.642033 -0.697265 2.072325 0.114149 -0.040284 -126680.000000 0 0 1
-36.719540 30.492539 -24.797702 53.787039 -0.693015 2.049957 0.098466 -0.043488 -221943.000000 0 0 1
-36.316840 31.613539 -23.999602 53.798788 -0.716271 2.033199 0.107839 -0.045394 152963.000000 0 0 1
-36.129320 31.329839 -22.620802 52.901675 -0.714371 2.012633 0.103755 -0.047626 -247737.000000 0 0 1
37.294482 31.132839 -21.832702 53.261609 0.695594 1.993157 0.085731 -0.039204 134819.000000 0 0 1
36.325342 32.171939 -21.778002 53.186893 0.724836 1.992660 0.087446 -0.039593 57669.900000 0 0 1
36.719492 33.353739 -21.142802 53.924124 0.737403 1.973693 0.089691 -0.045946 -508108.000000 0 0 1
36.921852 33.438839 -19.621302 53.538534 0.735936 1.946029 0.083464 -0.036237 -167810.000000 0 0 1
-36.780360 32.596239 -19.221002 52.770793 -0.725161 1.943608 0.079792 -0.041783 -411757.000000 0 0 1
-36.535140 32.638439 -17.815602 52.129452 -0.729125 1.919582 0.073445 -0.019435 619852.000000 0 0 1
-35.232645 31.823639 -17.440702 50.579258 -0.734604 1.922843 0.092460 -0.027524 671278.000000 0 0 1
-35.067289 31.476439 -16.091302 49.793684 -0.731488 1.899863 0.056497 -0.005930 -643803.000000 0 0 1
-33.927490 30.738939 -15.775802 48.423474 -0.736130 1.902642 0.085303 -0.010499 -500466.000000 0 0 1
-33.631760 30.676839 -14.261602 47.702799 -0.739481 1.874407 0.078408 -0.007401 -280001.000000 0 0 1
-34.544148 29.899039 -13.535702 47.649406 -0.713442 1.858831 0.057390 -0.000753 -164458.000000 0 0 1
-34.026390 29.472739 -12.274402 46.659388 -0.713809 1.836993 0.078318 -0.002697 50667.800000 0 0 1
-34.992048 28.555239 -11.542702 46.616296 -0.684451 1.821010 0.077368 -0.016647 279114.000000 0 0 1
-34.236746 27.903539 -10.509802 45.400641 -0.683831 1.804405 0.093737 -0.017814 500708.000000 0 0 1
-34.915015 26.797339 -9.980502 45.130545 -0.654609 1.793787 0.096746 -0.025149 -228916.000000 0 0 1
-33.997510 26.021339 -9.067502 43.762545 -0.653278 1.779506 0.121442 -0.019070 -427632.000000 0 0 1
-33.783760 26.736539 -7.912402 43.804007 -0.669476 1.752425 0.106444 -0.022903 366450.000000 0 0 1
-32.593770 26.320439 -7.257302 42.518088 -0.679315 1.742324 0.110813 -0.028192 -17995.700000 0 0 1
-32.310000 27.125439 -6.016102 42.613601 -0.698388 1.712448 0.097520 -0.029924 72009.700000 0 0 1
-31.288360 26.495639 -5.243402 41.333686 -0.702646 1.697994 0.103856 -0.026799 477138.000000 0 0 1
-31.280700 27.142739 -3.979902 41.605890 -0.714689 1.666600 0.091061 -0.019933 -231978.000000 0 0 1
-30.481320 26.386939 -2.945302 40.423461 -0.713525 1.643722 0.091792 -0.020634 5167.930000 0 0 1
-31.163120 25.158739 -2.765102 40.146581 -0.679191 1.639726 0.080357 -0.022948 118665.000000 0 0 1
-30.276590 24.263339 -2.182902 38.860604 -0.675588 1.626999 0.092878 -0.025879 -490032.000000 0 0 1
-30.956480 23.069639 -1.541702 38.637918 -0.640440 1.610708 0.096813 -0.034290 -229925.000000 0 0 1
-31.479060 22.172439 -2.525302 38.586596 -0.613643 1.636288 0.101777 -0.029407 343361.000000 0 0 1
-32.327370 21.157039 -1.990402 38.686443 -0.579506 1.622269 0.104605 -0.028746 220331.000000 0 0 1
-32.839610 20.164439 -3.083002 38.659403 -0.550670 1.650629 0.148795 -0.021785 393473.000000 0 0 1
-31.747710 19.476139 -3.648502 37.423905 -0.550262 1.668443 0.135151 -0.021462 333252.000000 0 0 1
-32.307870 18.756039 -4.677702 37.649281 -0.525988 1.695362 0.133429 -0.015442 149563.000000 0 0 1
-31.282420 17.795739 -5.324402 36.381690 -0.517218 1.717672 0.130591 -0.019044 -76442.100000 0 0 1
-30.923500 16.743339 -4.544802 35.457827 -0.496250 1.699325 0.181163 -0.021524 -91791.100000 0 0 1
-30.088560 15.799039 -5.161302 34.373974 -0.483513 1.721518 0.182095 -0.032860 -379839.000000 0 0 1
-29.819870 14.594839 -4.266902 33.472980 -0.455159 1.698617 0.187598 -0.034754 397760.000000 0 0 1
-30.944970 13.711139 -4.049102 34.087853 -0.417086 1.689862 0.195270 -0.031872 678088.000000 0 0 1
-30.663050 12.619839 -3.211502 33.313611 -0.390436 1.667348 0.183763 -0.040671 -782196.000000 0 0 1
-31.873140 12.029339 -2.512902 34.160163 -0.360885 1.644425 0.184975 -0.048586 -1026040.000000 0 0 1
-32.773790 11.476739 -3.412402 34.892425 -0.336836 1.668751 0.171491 -0.028443 -384579.000000 0 0 1
-33.589140 10.599339 -2.681902 35.323772 -0.305669 1.646793 0.174194 -0.026932 220455.000000 0 0 1
-34.737766 9.958639 -3.538502 36.309886 -0.279193 1.668404 0.155659 -0.022271 324974.000000 0 0 1
-34.169736 9.088639 -4.453602 35.637182 -0.259966 1.696095 0.159433 -0.030773 947493.000000 0 0 1
-35.171988 8.201339 -5.001102 36.460138 -0.229085 1.708396 0.150241 -0.023517 805032.000000 0 0 1
-34.536064 7.423439 -6.225402 35.869245 -0.211726 1.745238 0.157366 -0.033529 60064.900000 0 0 1
-33.647520 6.431139 -5.792502 34.742887 -0.188855 1.738303 0.164442 -0.034506 41694.900000 0 0 1
-33.508800 5.417839 -6.729802 34.604665 -0.160297 1.766520 0.170468 -0.038042 -369255.000000 0 0 1
-32.417280 4.407539 -6.346602 33.325452 -0.135134 1.762410 0.178760 -0.041851 -1331210.000000 0 0 1
-31.150030 4.934539 -6.407102 32.182681 -0.157107 1.771221 0.175899 -0.042809 -949438.000000 0 0 1
-30.247480 3.946539 -5.958702 31.080401 -0.129742 1.763710 0.174049 -0.044085 668077.000000 0 0 1
-28.787790 4.502839 -5.675002 29.685317 -0.155158 1.763152 0.180659 -0.046121 831990.000000 0 0 1
-28.057130 4.717539 -6.841502 29.261986 -0.166582 1.806782 0.177515 -0.039367 -751914.000000 0 0 1
-26.746940 4.291239 -6.685302 27.901734 -0.159083 1.812752 0.203086 -0.048715 -335340.000000 0 0 1
-25.801180 4.518239 -7.927302 27.367087 -0.173360 1.864674 0.182010 -0.034560 270484.000000 0 0 1
-26.169400 3.817239 -9.105202 27.969867 -0.144845 1.902375 0.175394 -0.044529 676747.000000 0 0 1
-25.087670 3.815839 -10.040802 27.290465 -0.150943 1.947571 0.175962 -0.047247 211389.000000 0 0 1
-25.450750 3.145939 -11.422502 28.073317 -0.122985 1.989833 0.150424 -0.051075 -539278.000000 0 0 1
-26.377250 3.937239 -12.072402 29.274631 -0.148173 1.995866 0.146037 -0.036212 -142157.000000 0 0 1
-26.843290 3.225839 -13.214302 30.092956 -0.119599 2.025411 0.138439 -0.040189 -83447.600000 0 0 1
-27.861210 4.035439 -14.003802 31.442618 -0.143840 2.032391 0.123573 -0.031968 -517083.000000 0 0 1
-27.161910 4.962439 -14.766802 31.312195 -0.180705 2.061900 0.102634 -0.019225 1002020.000000 0 0 1
-28.047730 5.916939 -15.420502 32.549611 -0.207911 2.064345 0.153068 -0.022118 732673.000000 0 0 1
-28.950580 5.438939 -16.607802 33.816227 -0.185705 2.084171 0.094378 0.005210 13964.000000 0 0 1
-30.084340 4.727439 -16.193102 34.491053 -0.155865 2.059506 0.105638 -0.010266 -436794.000000 0 0 1
-30.616240 3.980539 -17.263402 35.372643 -0.129289 2.080644 0.112985 -0.005465 -222302.000000 0 0 1
-31.995130 3.328639 -17.079902 36.421027 -0.103663 2.058906 0.111552 -0.008524 -248733.000000 0 0 1
-32.106180 2.221839 -16.171602 36.017552 -0.069093 2.036434 0.121831 -0.021982 161277.000000 0 0 1
-31.572870 1.012839 -16.626602 35.697560 -0.032068 2.055293 0.148614 -0.031253 -210577.000000 0 0 1
-31.800300 -0.086061 -15.575602 35.409968 0.002706 2.026245 0.140953 -0.027850 -277691.000000 0 0 1
-31.330430 -1.359061 -15.948602 35.182393 0.043351 2.041274 0.157802 -0.021136 412448.000000 0 0 1
-31.828000 -2.295761 -14.984102 35.253587 0.072006 2.009800 0.168386 -0.029860 123878.000000 0 0 1
-31.734300 -3.718761 -15.610502 35.560972 0.116652 2.025258 0.165653 -0.033199 3108.360000 0 0 1
-32.623390 -3.831261 -16.704502 36.851112 0.116904 2.041257 0.181539 -0.040784 253114.000000 0 0 1
-32.375430 -4.987161 -17.472702 37.125941 0.152840 2.060805 0.181219 -0.037496 137720.000000 0 0 1
-33.157190 -4.962261 -18.832502 38.453691 0.148556 2.082594 0.197195 -0.032314 19609.700000 0 0 1
-32.864570 -5.971661 -19.732702 38.795878 0.179744 2.104388 0.190506 -0.032593 -44420.000000 0 0 1
-33.818040 -6.077761 -20.751702 40.140156 0.177821 2.114117 0.182258 -0.029529 -351178.000000 0 0 1
-33.615420 -7.283661 -21.606502 40.618826 0.213378 2.131678 0.175294 -0.026326 -570862.000000 0 0 1
-32.381490 -7.169761 -22.225902 39.924391 0.217900 2.161204 0.160929 -0.029738 -511947.000000 0 0 1
-32.379000 -7.984761 -23.349902 40.710857 0.241779 2.181635 0.140243 -0.016598 218144.000000 0 0 1
-31.010910 -7.924661 -24.078202 40.052922 0.250190 2.215748 0.124274 -0.013472 -79608.300000 0 0 1
-30.831690 -6.647761 -24.724202 40.075827 0.212363 2.235639 0.126422 -0.012524 17870.000000 0 0 1
-30.740720 -6.736261 -26.135872 40.907858 0.215722 2.263859 0.104619 -0.005841 -34122.600000 0 0 1
-32.101600 -6.826461 -26.856332 42.407261 0.209531 2.256601 0.107798 -0.012148 -195742.000000 0 0 1
-32.864200 -7.968661 -26.600682 43.025009 0.237881 2.237324 0.099881 -0.018723 -510220.000000 0 0 1
-33.987740 -8.027261 -27.448602 44.418792 0.231931 2.236929 0.081063 -0.018210 435547.000000 0 0 1
-35.018127 -9.084761 -26.894802 45.079179 0.253834 2.210070 0.081017 -0.020173 -153746.000000 0 0 1
-34.642608 -10.410761 -27.123612 45.212659 0.291933 2.214187 0.084971 -0.014386 -337422.000000 0 0 1
-35.538443 -11.409161 -26.712742 45.899024 0.310643 2.191969 0.080938 -0.014461 -288332.000000 0 0 1
-36.719950 -11.654761 -27.695902 47.447351 0.307339 2.194097 0.069717 -0.010147 206716.000000 0 0 1
37.050442 -10.607661 -27.431812 47.304989 -0.278844 2.189393 0.062867 -0.020598 -174741.000000 0 0 1
36.144642 -10.634261 -28.506492 47.245558 -0.286140 2.218515 0.069426 -0.027583 -257743.000000 0 0 1
35.031212 -9.571961 -28.396462 46.099537 -0.266730 2.234428 0.068687 -0.028643 -217725.000000 0 0 1
33.989472 -9.905561 -27.511672 44.836329 -0.283576 2.231411 0.057256 -0.026327 -231183.000000 0 0 1
33.223912 -8.718761 -27.281532 43.864873 -0.256637 2.242020 0.037952 -0.023912 221358.000000 0 0 1
31.941932 -8.978161 -26.452052 42.433542 -0.274008 2.243849 0.022962 -0.015411 167533.000000 0 0 1
32.172912 -9.209161 -25.099722 41.831817 -0.278785 2.214316 0.005734 0.001439 118871.000000 0 0 1
30.942732 -9.500161 -24.460402 40.571135 -0.297888 2.217929 -0.004244 0.000806 172293.000000 0 0 1
31.145582 -9.677961 -22.918702 39.861976 -0.301274 2.183341 -0.016539 0.000538 -198331.000000 0 0 1
31.958352 -10.776861 -22.711302 40.660549 -0.325241 2.163443 -0.022769 -0.000488 -191678.000000 0 0 1
32.097172 -10.914861 -21.289302 40.032450 -0.327789 2.131522 -0.023968 -0.002707 -193673.000000 0 0 1
32.910472 -12.114261 -20.747802 40.747095 -0.352705 2.105034 0.001605 -0.000240 110118.000000 0 0 1
34.288612 -11.895461 -20.997802 41.929925 -0.333930 2.095300 0.021174 -0.004065 -2871.720000 0 0 1
35.078452 -12.642761 -20.075902 42.348306 -0.345922 2.064700 0.066397 -0.001987 44408.200000 0 0 1
36.554752 -12.774761 -20.530502 43.828597 -0.336202 2.058306 0.102429 -0.019108 -116183.000000 0 0 1
37.324952 -11.589161 -20.534502 44.148912 -0.301056 2.054565 0.140853 -0.020182 171161.000000 0 0 1
37.058992 -10.632161 -21.510602 44.148814 -0.279394 2.079711 0.143437 -0.011327 -997756.000000 0 0 1
-37.008750 -10.808361 -22.889702 44.837558 0.284146 2.106566 0.107974 -0.015656 -65092.900000 0 0 1
37.337522 -11.910561 -23.688202 45.793918 -0.308793 2.114464 0.092752 -0.010996 77963.000000 0 0 1
35.991852 -11.919661 -24.127402 44.940219 -0.319808 2.137528 0.098097 -0.008827 -57791.200000 0 0 1
35.583652 -13.163961 -24.985902 45.428861 -0.354331 2.153161 0.072825 -0.024373 -139362.000000 0 0 1
35.496372 -14.470761 -24.397202 45.438077 -0.387100 2.137594 0.068555 -0.033890 201919.000000 0 0 1
34.546232 -14.583161 -23.362802 44.180666 -0.399441 2.127984 0.040161 -0.021836 -282860.000000 0 0 1
-29.706960 8.515339 -18.961002 36.256503 -0.279160 2.121126 0.085043 0.009061 -177676.000000 0 0 1
-28.507740 7.811839 -19.084102 35.184073 -0.267460 2.144096 0.094848 0.013774 -438160.000000 0 0 1
-27.978590 7.938439 -20.422802 35.537461 -0.276467 2.183014 0.104284 -0.002764 -222120.000000 0 0 1
-26.726500 7.074939 -20.497702 34.416803 -0.258781 2.208774 0.093358 -0.010835 -95662.000000 0 0 1
-25.587000 7.549239 -19.765702 33.201935 -0.286902 2.208457 0.097086 -0.008881 10245.800000 0 0 1
-24.542890 6.639539 -19.883402 32.276719 -0.264204 2.234488 0.101630 -0.019415 -218998.000000 0 0 1
-23.236290 7.132739 -19.202802 30.976583 -0.297835 2.239429 0.084699 -0.018567 324627.000000 0 0 1
-22.737690 8.259039 -19.938902 31.349227 -0.348413 2.260133 0.080216 -0.015537 13553.100000 0 0 1
-21.623290 8.876139 -19.307902 30.317447 -0.389516 2.261212 0.071180 -0.014655 162893.000000 0 0 1
-20.931190 9.916539 -20.181702 30.720572 -0.442443 2.287555 0.063123 -0.013957 -218143.000000 0 0 1
-20.287990 9.374939 -21.295902 30.870818 -0.432865 2.332063 0.087455 -0.016436 151892.000000 0 0 1
-19.467390 10.296239 -22.053302 31.166327 -0.486497 2.356893 0.094479 -0.017685 521930.000000 0 0 1
-18.559790 9.557439 -23.054202 31.101554 -0.475539 2.405735 0.102696 -0.019485 26805.800000 0 0 1
-19.351090 8.800639 -23.927102 32.006595 -0.426828 2.415189 0.093589 -0.014409 140784.000000 0 0 1
-18.503190 8.053039 -24.787902 31.963409 -0.410499 2.458317 0.087823 -0.004469 -378038.000000 0 0 1
-19.271190 7.090739 -25.704562 32.899572 -0.352571 2.467548 0.060923 0.007393 -317389.000000 0 0 1
-19.794490 6.011439 -24.981602 32.435161 -0.294841 2.449953 0.067359 -0.002162 245043.000000 0 0 1
-20.465690 5.067439 -25.841652 33.351377 -0.242725 2.457243 0.055045 0.002889 -393708.000000 0 0 1
-20.752790 3.673339 -25.192782 32.845821 -0.175190 2.444951 0.053651 0.009030 237966.000000 0 0 1
-19.705390 2.697439 -25.059532 31.993104 -0.136043 2.470720 0.047615 0.010792 291574.000000 0 0 1
-18.661990 3.119939 -24.209902 30.726588 -0.165650 2.478210 0.040770 0.001145 -532739.000000 0 0 1
-17.765890 1.946339 -23.751902 29.724870 -0.109120 2.496524 0.037539 -0.004225 -60122.600000 0 0 1
-18.282590 1.100639 -22.735902 29.195645 -0.060129 2.463456 0.040096 -0.001732 91926.700000 0 0 1
-19.468090 0.369739 -22.983802 30.123053 -0.018990 2.438733 0.034946 0.001834 -75789.400000 0 0 1
-19.856690 -0.448561 -21.775102 29.472773 0.022586 2.402115 0.064680 -0.001086 -110390.000000 0 0 1
-19.090190 -1.610761 -21.501802 28.798565 0.084177 2.413774 0.061885 -0.012169 396233.000000 0 0 1
-19.684090 -2.344061 -20.411802 28.453465 0.118526 2.370823 0.084124 -0.016307 -102964.000000 0 0 1
-19.124390 -3.733061 -20.193402 28.061566 0.192775 2.374038 0.066587 -0.031533 -238711.000000 0 0 1
-19.238690 -4.569561 -21.322802 29.080404 0.233198 2.393865 0.062647 -0.034252 361021.000000 0 0 1
-19.206490 -5.907461 -20.874502 28.974681 0.298393 2.375232 0.081574 -0.028851 -239254.000000 0 0 1
-19.237690 -6.942861 -21.970602 30.016651 0.346351 2.391972 0.064128 -0.036036 2773.770000 0 0 1
-17.963190 -6.992761 -22.581302 29.689898 0.371233 2.434990 0.067046 -0.034660 110777.000000 0 0 1
-17.942790 -7.830761 -23.734802 30.766952 0.411511 2.451895 0.092081 -0.039789 250159.000000 0 0 1
-16.569090 -7.829061 -24.447102 30.553064 0.441415 2.498345 0.074002 -0.045001 -217420.000000 0 0 1
-16.502790 -8.652461 -25.587512 31.653244 0.482900 2.512173 0.082334 -0.059005 1647320.000000 0 0 1
-15.197290 -8.540761 -26.243002 31.505513 0.512004 2.555242 0.095963 -0.053388 1958190.000000 0 0 1
-13.935690 -9.295161 -25.710052 30.685668 0.588236 2.564133 0.088502 -0.050853 -267293.000000 0 0 1
-13.303590 -8.655961 -24.646602 29.314947 0.576831 2.569467 0.078732 -0.044379 208495.000000 0 0 1
-12.462890 -9.682261 -24.069702 28.782292 0.660488 2.561237 0.050362 -0.033431 113855.000000 0 0 1
-11.625790 -9.150861 -22.884602 27.250729 0.666836 2.567673 0.046608 -0.033417 252118.000000 0 0 1
-12.400890 -8.705461 -21.751302 26.508229 0.612069 2.533167 0.050979 -0.036584 250728.000000 0 0 1
-11.533190 -8.184161 -20.817002 25.166297 0.617152 2.544863 0.053275 -0.036118 -590703.000000 0 0 1
-12.226190 -7.790961 -19.461502 24.267856 0.567349 2.501341 0.055493 -0.028679 286851.000000 0 1 0
-13.314890 -6.885761 -19.500602 24.596208 0.477271 2.486234 0.056767 -0.020531 1262000.000000 0 1 0
-14.605990 -7.533661 -19.508602 25.508361 0.476202 2.441515 0.064097 -0.039584 1909420.000000 0 0 1
-15.879190 -6.568161 -19.379702 25.901008 0.392204 2.416174 0.066685 -0.026540 908015.000000 0 0 1
-16.125590 -6.136461 -18.077402 24.989663 0.363620 2.379504 0.062539 -0.023272 295788.000000 0 1 0
-15.659390 -4.831561 -17.855402 24.235838 0.299274 2.399026 0.057927 -0.021250 -493827.000000 0 1 0
-15.387690 -4.504461 -16.393902 22.931009 0.284775 2.367310 0.085458 -0.013888 326379.000000 0 1 0
-16.466590 -4.044261 -15.557502 23.011746 0.240837 2.313209 0.110543 -0.026623 210697.000000 0 1 0
-16.813890 -2.698161 -15.788702 23.222189 0.159116 2.318419 0.073227 -0.029545 -169421.000000 0 1 0
-17.937990 -2.219261 -14.861602 23.400081 0.123093 2.258946 0.065683 -0.031993 -143919.000000 0 1 0
-17.671090 -2.549661 -13.542202 22.408913 0.143295 2.219711 0.086470 -0.033737 681656.000000 0 1 0
-18.688790 -1.894361 -12.786702 22.723538 0.101018 2.168454 0.093128 -0.038929 113724.000000 0 1 0
-18.263590 -0.626661 -11.999302 21.861716 0.034299 2.151811 0.090931 -0.037602 -236203.000000 0 1 0
-18.001790 0.376739 -12.935902 22.170790 -0.020925 2.193786 0.114667 -0.041287 316945.000000 0 1 0
-17.118190 1.294039 -12.355302 21.150897 -0.075451 2.194629 0.109736 -0.030364 -820271.000000 0 1 0
-16.655290 2.400739 -13.330502 21.467755 -0.143157 2.240756 0.116862 -0.032042 33085.200000 0 1 0
-15.797490 2.034939 -14.386202 21.463095 -0.128109 2.305377 0.100593 -0.034490 1350890.000000 0 1 0
-14.426790 1.762339 -13.997702 20.178547 -0.121555 2.337399 0.085506 -0.031634 671407.000000 0 1 0
-13.654090 0.786739 -14.956202 20.266748 -0.057556 2.400850 0.071025 -0.036409 -194969.000000 0 1 0
-13.361590 1.332239 -16.220202 21.057110 -0.099378 2.450101 0.076715 -0.038224 283368.000000 0 1 0
-13.190690 0.239439 -17.076202 21.578885 -0.018150 2.483791 0.052301 -0.026482 4132.940000 0 1 0
-12.547490 0.768639 -18.398902 22.283399 -0.061182 2.542198 0.070144 -0.028917 -379348.000000 0 1 0
-11.241490 1.239639 -18.239602 21.461381 -0.109830 2.586554 0.042417 -0.019987 -343687.000000 0 1 0
-10.699190 1.709939 -19.506502 22.313676 -0.158479 2.634572 0.038892 -0.013461 -59156.800000 0 1 0
-9.334690 2.368639 -19.354602 21.618221 -0.248501 2.679881 0.031017 -0.013218 -907426.000000 0 1 0
-8.197690 1.503839 -19.345902 21.064842 -0.181429 2.734808 0.036689 -0.013019 -170460.000000 0 1 0
-6.964090 2.121339 -19.149102 20.486257 -0.295682 2.778292 0.039712 -0.010679 -28208.400000 0 1 0
-6.552790 3.161939 -20.225902 21.494744 -0.449577 2.796280 0.045994 -0.003827 -1354700.000000 0 1 0
-6.322390 2.617639 -21.530702 22.591940 -0.392540 2.833870 0.039555 -0.005451 112285.000000 0 1 0
-6.140490 3.658739 -22.400302 23.513092 -0.537354 2.832709 0.038284 0.001480 -303904.000000 0 1 0
-5.568590 3.186239 -23.721902 24.574172 -0.519713 2.877457 0.056605 -0.013867 -198752.000000 0 1 0
-4.249490 2.697539 -23.647002 24.176757 -0.565609 2.931868 0.069824 -0.017945 -324920.000000 0 1 0
-3.937090 2.017139 -24.863102 25.253581 -0.473473 2.965511 0.098277 -0.024940 408966.000000 0 0 1
-2.538590 1.357439 -24.662002 24.829446 -0.491038 3.025391 0.076850 -0.022279 386431.000000 0 1 0
-1.499890 2.266739 -24.337002 24.488312 -0.986244 3.030370 0.069557 -0.017138 495057.000000 0 1 0
-0.149590 1.844939 -24.465202 24.535123 -1.489892 3.066078 0.067302 -0.010782 843004.000000 0 1 0
0.437910 0.818739 -23.435702 23.454087 1.079652 3.101995 0.066108 -0.019752 -457632.000000 0 1 0
0.059310 -0.535461 -23.645902 23.652038 -1.460481 3.118813 0.065483 -0.022222 267641.000000 0 1 0
0.762110 -1.430561 -22.753902 22.811562 -1.081305 3.070477 0.059863 -0.013633 -170548.000000 0 1 0
0.096710 -2.791061 -22.634302 22.805942 -1.536160 3.018828 0.069086 -0.028003 -247144.000000 0 1 0
-1.068290 -2.779261 -21.865402 22.067200 1.203828 3.006251 0.060529 -0.027529 217553.000000 0 1 0
-2.304990 -2.968661 -22.590302 22.900822 0.910587 2.976728 0.075578 -0.027484 1114260.000000 0 1 0
-3.173090 -1.672561 -22.724102 23.005450 0.485098 2.985038 0.085792 -0.024671 -730804.000000 0 1 0
-3.784690 -1.277061 -21.534302 21.901619 0.325431 2.958190 0.068210 -0.018054 97511.400000 0 1 0
-4.680390 -0.173261 -21.582702 22.085042 0.037001 2.927899 0.051224 -0.015747 1451430.000000 0 1 0
-6.082490 -0.452961 -22.276902 23.096801 0.074332 2.874346 0.062970 -0.013422 652370.000000 0 1 0
-6.811390 -1.488961 -21.637202 22.732807 0.215213 2.829865 0.067706 -0.009745 555756.000000 0 1 0
-8.216490 -1.272761 -21.786002 23.318672 0.153682 2.777010 0.051487 -0.005206 614293.000000 0 1 0
-9.203990 -2.400761 -21.584402 23.587358 0.255154 2.726511 0.050558 -0.010532 -301593.000000 0 1 0
-9.194090 -3.431261 -22.534802 24.578896 0.357194 2.730877 0.079297 -0.014888 -36837.000000 0 1 0
-9.719690 -4.630261 -21.991102 24.485102 0.444573 2.686322 0.063477 -0.017760 -64693.200000 0 1 0
-10.771090 -5.351061 -22.874202 25.843361 0.461083 2.657525 0.058324 -0.025498 128608.000000 0 0 1
-12.034690 -4.710561 -22.815202 26.221300 0.373084 2.626205 0.056722 -0.033740 9933.090000 0 0 1
-13.013090 -5.653461 -23.217502 27.209456 0.409843 2.593055 0.051022 -0.038211 21867.600000 0 0 1
-14.462790 -5.295261 -22.822702 27.533394 0.350972 2.547952 0.041816 -0.037656 144920.000000 0 0 1
-14.925990 -4.057361 -23.403302 28.052841 0.265419 2.557582 0.055741 -0.033404 514582.000000 0 0 1
-16.355890 -3.981361 -23.337502 28.775082 0.238777 2.516710 0.080028 -0.033149 735133.000000 0 0 1
-16.802690 -2.576561 -23.732302 29.192314 0.152157 2.520021 0.057232 -0.026793 -269371.000000 0 0 1
-16.817090 -2.601261 -25.135752 30.354358 0.153463 2.546465 0.043634 -0.027842 94444.900000 0 0 1
-16.986390 -1.277061 -25.662082 30.801148 0.075040 2.555582 0.036827 -0.012754 1297170.000000 0 0 1
-18.394890 -1.013861 -26.387422 32.182229 0.055061 2.532098 0.039332 -0.004406 1196220.000000 0 0 1
-18.428490 -1.691461 -27.631482 33.256113 0.091529 2.551464 0.046840 -0.018395 49074.700000 0 0 1
-18.016590 -0.849261 -28.754702 33.943359 0.047103 2.581372 0.048833 -0.010959 28549.900000 0 0 1
-18.126890 -1.602861 -30.119862 35.190330 0.088195 2.598110 0.057448 -0.013737 -72844.200000 0 0 1
-19.455790 -1.858861 -30.496622 36.221914 0.095254 2.571662 0.046649 -0.017476 -174639.000000 0 0 1
-19.478790 -2.575061 -31.732072 37.322628 0.131436 2.587180 0.059536 -0.023037 -228946.000000 0 0 1
-20.868090 -3.121761 -32.170812 38.473155 0.148494 2.561093 0.037520 -0.022489 62350.600000 0 0 1
-21.841190 -2.221861 -32.588242 39.293355 0.101379 2.548753 0.042308 -0.024865 -14398.600000 0 0 1
-22.572590 -1.661561 -31.522432 38.806524 0.073477 2.518876 0.036835 -0.010269 175733.000000 0 0 1
-23.826590 -0.775261 -31.889822 39.815426 0.032526 2.499662 0.053416 -0.006372 681608.000000 0 0 1
-23.428890 0.497139 -32.470742 40.043839 -0.021216 2.516450 0.039657 -0.005776 -384163.000000 0 0 1
-24.493690 1.291539 -32.801792 40.958106 -0.052681 2.499530 0.041299 -0.012206 -893428.000000 0 0 1
-24.066090 2.730139 -33.244462 41.131795 -0.112960 2.511958 0.040669 -0.008667 -391092.000000 0 0 1
-23.513290 3.569039 -32.245812 40.067508 -0.150638 2.506113 0.034476 -0.004582 492774.000000 0 0 1
-24.406090 4.116739 -31.285562 39.892244 -0.167104 2.472286 0.029801 -0.006778 -292601.000000 0 0 1
-25.626930 4.963539 -31.687202 41.054293 -0.191316 2.452521 0.032162 -0.014068 420601.000000 0 0 1
-26.750090 4.112539 -32.005532 41.914607 -0.152545 2.439650 0.060892 -0.023415 726364.000000 0 0 1
-27.852980 4.865139 -32.479482 43.062452 -0.172928 2.425294 0.071209 -0.028129 557835.000000 0 0 1
-28.955340 4.109939 -33.301042 44.320003 -0.140999 2.420943 0.093360 -0.027689 381906.000000 0 0 1
-28.469960 3.718939 33.230090 43.915920 -0.129891 0.712584 0.104683 -0.024512 26048.900000 0 0 1
-29.465460 3.133939 32.440176 43.936316 -0.105961 0.740183 0.100448 -0.026217 -205742.000000 0 0 1
-29.477270 1.596339 32.373267 43.811941 -0.054102 0.739339 0.111608 -0.007654 -131143.000000 0 0 1
-29.861220 0.896039 33.543425 44.918333 -0.029998 0.727612 0.124596 -0.006128 229824.000000 0 0 1
-30.114750 -0.518161 33.331585 44.923949 0.017205 0.734813 0.122786 -0.009414 -360857.000000 0 0 1
-29.886010 -1.278461 -33.124412 44.632216 0.042752 2.407089 0.078819 -0.011875 419357.000000 0 0 1
-28.528340 -1.536761 -32.781832 43.484207 0.053816 2.424743 0.099416 -0.018083 664663.000000 0 0 1
-27.731900 -0.479061 -32.303722 42.577203 0.017273 2.432126 0.091356 -0.008363 -634063.000000 0 0 1
-27.934040 -0.083961 -30.798972 41.579974 0.003006 2.404933 0.099294 -0.004757 -476127.000000 0 0 1
-27.273740 -0.922061 -29.866222 40.456128 0.033795 2.401250 0.085541 -0.010415 400927.000000 0 0 1
-27.259080 -0.454061 -28.549722 39.475944 0.016656 2.379247 0.092402 -0.012951 -217923.000000 0 0 1
-26.099990 -1.094761 -27.752702 38.113258 0.041920 2.386436 0.079393 -0.010814 -116623.000000 0 0 1
-26.181210 -2.477661 -27.496752 38.048205 0.094354 2.378471 0.069446 -0.006279 398028.000000 0 0 1
-25.274580 -2.877361 -26.447802 36.695637 0.113356 2.375657 0.081941 -0.012574 234427.000000 0 0 1
-25.476540 -4.302761 -25.857012 36.553425 0.167312 2.356575 0.086163 -0.022019 1017070.000000 0 0 1
-26.736790 -4.328061 -25.137142 36.952184 0.160484 2.318915 0.086538 -0.014503 919402.000000 0 0 1
-26.785820 -5.384261 -24.251602 36.532322 0.198368 2.296737 0.086562 -0.014160 -455959.000000 0 0 1
-28.007250 -5.341961 -23.358102 36.858425 0.188471 2.257155 0.089043 -0.020005 -500795.000000 0 0 1
-28.083370 -6.337261 -22.268702 36.396862 0.221941 2.229169 0.106457 -0.022589 207776.000000 0 0 1
-29.123260 -5.899361 -21.374802 36.603946 0.199861 2.194380 0.140124 -0.020236 196525.000000 0 0 1
-29.488730 -7.028461 -20.426502 36.554431 0.233979 2.163731 0.153788 -0.039096 -371827.000000 0 0 1
-28.504310 -7.597261 -19.575102 35.403370 0.260475 2.156657 0.144641 -0.041463 -214096.000000 0 0 1
-28.952870 -8.588861 -18.711502 35.526856 0.288380 2.125494 0.156575 -0.033717 -96302.500000 0 0 1
-29.733420 -8.047461 -17.463302 35.409106 0.264321 2.086546 0.163491 -0.041227 -190577.000000 0 0 1
-28.926160 -7.336661 -16.597602 34.147177 0.248396 2.078373 0.148242 -0.046391 -8898.130000 0 0 1
-29.639710 -6.738561 -15.558002 34.146332 0.223549 2.043873 0.158465 -0.043292 301159.000000 0 0 1
-28.600140 -6.075261 -14.554602 32.660576 0.209309 2.032677 0.162582 -0.044617 607512.000000 0 0 1
-27.920620 -4.975661 -15.090402 32.125355 0.176356 2.059787 0.165678 -0.039739 504881.000000 0 0 1
-26.873180 -4.613061 -14.180102 30.733099 0.170003 2.050363 0.144686 -0.050527 216275.000000 0 0 1
-14.208990 20.892439 -4.929502 25.742754 -0.973550 1.763477 0.108319 -0.041841 2747.900000 0 0 1
-14.417390 20.398639 -6.229202 25.744292 -0.955533 1.815186 0.137946 -0.042220 120585.000000 0 0 1
-15.124690 19.170239 -6.105502 25.170051 -0.902819 1.815811 0.116394 -0.057855 -105333.000000 0 0 1
-15.396190 18.450339 -7.418202 25.149302 -0.875390 1.870217 0.141783 -0.061449 560947.000000 0 0 1
-14.191690 17.901939 -8.009102 24.208040 -0.900494 1.907995 0.124088 -0.049236 442746.000000 0 1 0
-14.377490 16.788039 -8.878802 23.819815 -0.862591 1.952766 0.102735 -0.053389 -278624.000000 0 1 0
-14.875690 15.473539 -8.282202 23.006769 -0.805095 1.939053 0.099132 -0.059847 888004.000000 0 1 0
-16.255190 15.557139 -7.867902 23.836100 -0.763459 1.907188 0.102624 -0.042028 736596.000000 0 1 0
-16.590090 14.652739 -6.904502 23.186332 -0.723468 1.873166 0.094057 -0.036241 547846.000000 0 1 0
-18.030190 14.960439 -6.353802 24.274952 -0.692616 1.835624 0.120037 -0.045360 1045030.000000 0 1 0
-19.072790 14.800239 -7.307402 25.223333 -0.659926 1.864718 0.116339 -0.038372 589437.000000 0 0 1
-20.332690 15.263339 -6.812502 26.321056 -0.643936 1.832600 0.094917 -0.033083 1071330.000000 0 0 1
-21.565190 14.798039 -7.663002 27.253641 -0.601404 1.855813 0.097819 -0.016873 311275.000000 0 0 1
-21.848490 13.402139 -7.571402 26.726391 -0.550223 1.858022 0.131727 -0.035492 167681.000000 0 0 1
-22.752990 12.947039 -8.556902 27.541694 -0.517333 1.886714 0.149985 -0.037659 -314831.000000 0 0 1
-23.151790 11.510039 -8.298802 27.154309 -0.461369 1.881382 0.152369 -0.029434 -272754.000000 0 0 1
-22.153690 10.506439 -8.222302 25.860732 -0.442838 1.894358 0.153524 -0.026652 -275183.000000 0 0 1
-22.584690 9.409639 -7.492602 25.588056 -0.394767 1.867967 0.161284 -0.035889 -647940.000000 0 0 1
-21.447190 8.520139 -7.039702 24.127414 -0.378143 1.866875 0.143282 -0.021103 -491698.000000 0 1 0
-21.024790 7.528039 -7.980002 23.714839 -0.343833 1.913992 0.134262 -0.027230 75813.800000 0 1 0
-20.095490 6.670339 -7.414302 22.434215 -0.320489 1.907620 0.111372 -0.014985 -597468.000000 0 1 0
-19.737190 5.497739 -8.275102 22.096586 -0.271661 1.954650 0.095324 -0.028968 -346123.000000 0 1 0
-20.773390 4.548039 -8.340502 22.842556 -0.215535 1.944569 0.125583 -0.032650 394351.000000 0 1 0
-20.508790 3.544939 -9.314202 22.802004 -0.171159 1.991586 0.119765 -0.026428 39589.600000 0 1 0
-21.425890 2.282739 -9.287202 23.463413 -0.106141 1.977753 0.119754 -0.030983 -25090.800000 0 1 0
-21.271790 1.518939 -8.109702 22.815860 -0.071285 1.934183 0.119654 -0.031102 -171147.000000 0 1 0
-22.123290 0.441239 -7.962902 23.516854 -0.019942 1.916229 0.124462 -0.032238 -730292.000000 0 1 0
-21.962390 -0.776861 -8.958902 23.732088 0.035358 1.957893 0.111961 -0.044694 -229984.000000 0 1 0
-20.825790 -1.546661 -8.665202 22.609542 0.074131 1.964113 0.083909 -0.030246 253971.000000 0 1 0
-20.814190 -2.795461 -9.226202 22.938350 0.133507 1.984734 0.073993 -0.022499 -266749.000000 0 1 0
-21.713290 -3.892061 -8.657202 23.697304 0.177364 1.944778 0.081440 -0.022455 -62060.300000 0 1 0
-21.200790 -4.442761 -7.457502 22.909080 0.206567 1.902364 0.061724 -0.019656 1211260.000000 0 1 0
-22.257890 -5.090961 -6.699402 23.795241 0.224858 1.856199 0.103419 -0.026483 542651.000000 0 1 0
-22.427690 -6.611061 -6.800702 24.350707 0.286654 1.853842 0.109917 -0.033257 -348722.000000 0 1 0
-21.385190 -7.253161 -6.132802 23.399699 0.326992 1.835982 0.083044 -0.031557 208234.000000 0 1 0
-21.546290 -8.641861 -6.251502 24.041747 0.381440 1.833846 0.091200 -0.033499 -576975.000000 0 1 0
-20.497790 -9.589561 -5.673402 23.330378 0.437585 1.816436 0.085760 -0.028591 -1332480.000000 0 1 0
-19.354490 -9.583961 -6.432302 22.534930 0.459784 1.860259 0.080063 -0.022524 -113851.000000 0 1 0
-18.309390 -10.300261 -5.718502 21.772239 0.512440 1.836565 0.072993 -0.015239 312596.000000 0 1 0
-17.611590 -11.323861 -6.557702 21.940860 0.571423 1.874316 0.068461 -0.011116 149345.000000 0 1 0
-16.447290 -10.991861 -7.339802 21.099929 0.589138 1.926083 0.074025 -0.023344 729820.000000 0 1 0
-16.764390 -10.598461 -8.628802 21.629340 0.563761 1.981157 0.074692 -0.023786 -57108.400000 0 1 0
-15.697590 -10.834461 -9.723302 21.408934 0.604118 2.042237 0.075288 -0.019691 103468.000000 0 1 0
-15.751490 -12.228461 -10.147902 22.374641 0.660145 2.041535 0.085399 -0.019993 -535659.000000 0 1 0
-14.798890 -12.627361 -11.047702 22.372060 0.706386 2.087270 0.095384 -0.006328 -542076.000000 0 1 0
-15.137190 -13.982261 -11.761102 23.726812 0.745757 2.089423 0.110652 -0.010028 338682.000000 0 1 0
-16.255190 -13.989861 -12.636302 24.892238 0.710639 2.103240 0.119784 -0.016121 319605.000000 0 1 0
-16.367790 -15.223561 -13.341402 26.031794 0.749194 2.108895 0.099767 -0.011339 -18731.000000 0 0 1
-17.192190 -15.112261 -14.638002 27.170257 0.721102 2.139750 0.128486 -0.013524 -73189.300000 0 0 1
-17.204590 -16.256661 -15.431102 28.255899 0.757077 2.148521 0.105926 -0.007141 223023.000000 0 0 1
-17.624990 -16.003461 -16.787002 29.129958 0.737217 2.184965 0.105645 -0.012232 -315955.000000 0 0 1
-17.865390 -17.273161 -17.526502 30.409085 0.768546 2.185061 0.097445 -0.025422 -358472.000000 0 0 1
-19.008190 -17.962061 -17.113602 31.254156 0.757109 2.150245 0.064337 -0.018049 -380534.000000 0 0 1
-19.917490 -18.202161 -18.218202 32.556534 0.740430 2.164683 0.065101 -0.021085 881710.000000 0 0 1
-21.398990 -18.219361 -17.727002 33.228127 0.705313 2.133522 0.059395 -0.027731 -33695.600000 0 0 1
-21.758890 -16.915661 -17.336602 32.559892 0.660816 2.132292 0.058617 -0.014417 103496.000000 0 0 1
-21.649390 -16.732661 -15.942502 31.667670 0.657992 2.098362 0.061074 -0.021989 -428599.000000 0 0 1
-21.741490 -15.329261 -15.346002 30.711209 0.614120 2.094034 0.068634 -0.024532 -728814.000000 0 0 1
-23.007490 -14.789561 -15.208002 31.294712 0.571308 2.078258 0.077660 -0.025912 -447376.000000 0 0 1
-22.903490 -13.526461 -14.522102 30.305551 0.533468 2.070527 0.089087 -0.027489 274148.000000 0 0 1
-24.252890 -12.764961 -14.270102 30.899558 0.484487 2.050845 0.097219 -0.031694 76936.500000 0 0 1
-24.905590 -13.276161 -13.145102 31.134202 0.489744 2.006676 0.113065 -0.034271 406346.000000 0 0 1
-25.955290 -12.352161 -12.815802 31.472173 0.444184 1.990194 0.123155 -0.029917 139736.000000 0 0 1
-26.644820 -12.815961 -11.491902 31.721587 0.448326 1.941503 0.134381 -0.036679 -579969.000000 0 0 1
-27.694750 -11.974161 -11.154502 32.168347 0.408090 1.924904 0.126989 -0.038401 -91753.300000 0 0 1
-28.393430 -12.408461 -10.004602 32.561462 0.412006 1.883101 0.123717 -0.033314 -505619.000000 0 0 1
-29.264500 -11.388861 -9.395802 32.778013 0.371135 1.861524 0.125711 -0.036267 -639790.000000 0 0 1
-28.542650 -10.486161 -8.567202 31.591761 0.352078 1.845420 0.136653 -0.043999 677087.000000 0 0 1
-29.382760 -9.510361 -7.926502 31.884525 0.313030 1.822031 0.158995 -0.045691 554647.000000 0 0 1
-28.492380 -8.384961 -7.314602 30.588015 0.286208 1.812269 0.167677 -0.046612 269829.000000 0 0 1
-27.666240 -8.773561 -6.233102 29.685817 0.307090 1.782340 0.153592 -0.054003 -27945.700000 0 0 1
-26.899840 -7.686261 -5.760602 28.563342 0.278320 1.773867 0.154721 -0.044702 25518.300000 0 0 1
-27.632630 -6.520761 -4.954002 28.820560 0.231741 1.743545 0.189469 -0.053282 -223688.000000 0 0 1
-28.276190 -7.055661 -3.785902 29.388064 0.244533 1.699980 0.187670 -0.055782 355070.000000 0 0 1
-27.514770 -7.120361 -2.567802 28.536918 0.253228 1.660900 0.183726 -0.041685 -280651.000000 0 0 1
-27.093350 -5.763561 -1.985902 27.770704 0.209605 1.642368 0.186515 -0.039941 -41805.600000 0 0 1
-28.132070 -4.868461 -1.608002 28.595470 0.171360 1.627059 0.200093 -0.040964 512940.000000 0 0 1
-27.622340 -3.791961 -0.782402 27.892378 0.136426 1.598851 0.196824 -0.047753 -242501.000000 0 0 1
-28.746690 -2.864361 -0.294402 28.890542 0.099314 1.580987 0.195438 -0.049722 640305.000000 0 0 1
-29.688610 -3.453361 0.642398 29.895684 0.115799 1.549307 0.187388 -0.034676 712714.000000 0 0 1
-29.217150 -3.335961 1.951698 29.471674 0.113686 1.504525 0.179283 -0.038815 -340171.000000 0 0 1
-30.194650 -3.840561 3.010198 30.586403 0.126514 1.472221 0.155621 -0.036973 -225066.000000 0 0 1
-30.558540 -5.193961 3.067798 31.148242 0.168359 1.472146 0.166475 -0.034201 227430.000000 0 0 1
-31.349820 -5.506261 4.216598 32.107784 0.173866 1.439090 0.171224 -0.038591 -27091.300000 0 0 1
-31.982900 -6.947061 4.117198 32.986646 0.213889 1.445656 0.162214 -0.034690 -100470.000000 0 0 1
-31.101830 -8.009761 4.288398 32.401704 0.252056 1.438056 0.158541 -0.025966 104290.000000 0 0 1
-31.883930 -9.192261 4.062198 33.430287 0.280692 1.448983 0.173083 -0.028445 109372.000000 0 0 1
-31.321990 -10.493961 4.591398 33.350730 0.323281 1.432688 0.157704 -0.023816 -241436.000000 0 0 1
-31.349490 -10.488661 5.966798 33.591743 0.322865 1.392222 0.149859 -0.025015 129364.000000 0 0 1
-30.472420 -11.413561 6.550798 33.192630 0.358379 1.372135 0.159058 -0.030849 -208476.000000 0 0 1
-30.610340 -11.447761 8.088998 33.667135 0.357879 1.328159 0.154711 -0.030381 27548.900000 0 0 1
-30.033490 -10.302261 8.699098 32.921443 0.330448 1.303382 0.157488 -0.022403 429138.000000 0 0 1
-30.060050 -10.460561 10.128398 33.400814 0.334882 1.262707 0.164117 -0.025620 -204583.000000 0 0 1
-29.823140 -9.113061 10.768098 32.991203 0.296559 1.238311 0.155648 -0.024647 37244.800000 0 0 1
-28.546750 -8.515961 10.706598 31.655485 0.289911 1.225769 0.144492 -0.033535 296522.000000 0 0 1
-28.617270 -7.431061 11.615998 31.766337 0.254059 1.196444 0.163941 -0.028602 -361830.000000 0 0 1
-27.688500 -6.307961 11.230598 30.538004 0.223996 1.194199 0.167653 -0.027547 -504942.000000 0 0 1
-28.016070 -5.590661 10.100298 30.301348 0.196965 1.230965 0.175447 -0.028267 360176.000000 0 0 1
-27.147600 -4.472161 10.098398 29.308191 0.163269 1.219027 0.160301 -0.026692 27676.500000 0 0 1
-27.227090 -3.554461 8.891998 28.862021 0.129815 1.257615 0.183357 -0.026842 99598.000000 0 0 1
-26.479040 -4.118661 7.828698 27.917583 0.154308 1.286563 0.144281 -0.020525 521799.000000 0 0 1
-26.887030 -3.362561 6.682498 27.908331 0.124417 1.329003 0.156161 -0.036786 288722.000000 0 0 1
-26.045430 -3.809561 5.423898 26.875562 0.145236 1.367585 0.153388 -0.023208 1352550.000000 0 0 1
-24.624190 -3.540261 5.593098 25.498371 0.142793 1.349647 0.162287 -0.046174 1309970.000000 0 0 1
-24.030590 -4.080861 4.431798 24.774251 0.168215 1.390941 0.162097 -0.037471 539682.000000 0 1 0
-22.492290 -3.747561 4.478998 23.238088 0.165099 1.376839 0.150262 -0.031579 834013.000000 0 1 0
-22.261890 -2.340661 4.317898 22.797251 0.104757 1.380241 0.126805 -0.031370 -712153.000000 0 1 0
-20.936190 -2.006361 4.528698 21.514149 0.095540 1.358711 0.104285 -0.030838 -1002570.000000 0 1 0
-20.785790 -0.534361 4.956198 21.375184 0.025702 1.336800 0.097477 -0.035756 -366111.000000 0 1 0
-20.896290 0.485539 3.984898 21.278395 -0.023231 1.382410 0.097881 -0.032331 -317765.000000 0 1 0
-22.201090 0.749239 3.617398 22.506339 -0.033735 1.409368 0.108760 -0.040160 -1015060.000000 0 1 0
-22.206990 1.878439 2.554098 22.432172 -0.084387 1.456690 0.122123 -0.027293 -201466.000000 0 1 0
-21.885490 3.145339 3.150698 22.333712 -0.142741 1.429250 0.116056 -0.035291 247795.000000 0 1 0
-21.881390 4.287539 2.305598 22.416378 -0.193493 1.467761 0.117704 -0.019264 -109452.000000 0 1 0
-20.722890 4.455339 1.303798 21.236480 -0.211772 1.509363 0.086263 -0.009299 -478818.000000 0 1 0
-20.967990 5.228539 0.140198 21.610504 -0.244374 1.564309 0.098674 -0.006023 178352.000000 0 1 0
-21.731090 4.613539 -0.863902 22.232214 -0.209195 1.609664 0.117181 -0.012805 -298267.000000 0 1 0
-21.114190 3.436339 -1.699802 21.459421 -0.161336 1.650089 0.097193 -0.010961 -473129.000000 0 1 0
-20.835090 2.354839 -0.860302 20.985384 -0.112545 1.611803 0.057000 -0.009565 433234.000000 0 1 0
-20.504690 1.276639 -1.697002 20.614362 -0.062181 1.653211 0.059607 -0.008575 -166101.000000 0 1 0
-19.732190 0.146539 -0.943202 19.755263 -0.007426 1.618559 0.061958 -0.007595 276876.000000 0 1 0
-20.575890 -0.666461 -0.088702 20.586871 0.032379 1.575105 0.088140 -0.012980 1044720.000000 0 1 0
-19.888390 -1.349561 0.942798 19.956408 0.067753 1.523536 0.074697 -0.017189 -471081.000000 0 1 0
-19.220790 -2.624461 0.537198 19.406574 0.135704 1.543112 0.055329 -0.010985 -530312.000000 0 1 0
-18.464090 -3.197161 1.547398 18.802630 0.171456 1.488406 0.050647 -0.012515 230941.000000 0 1 0
-17.669190 -4.270661 1.091298 18.210704 0.237153 1.510834 0.034158 -0.005577 -229132.000000 0 1 0
-18.391290 -5.631361 0.810798 19.251212 0.297133 1.528667 0.024290 -0.007141 -841116.000000 0 1 0
-19.018990 -5.965161 1.962398 20.028882 0.303925 1.472660 0.042172 -0.015133 172613.000000 0 1 0
-19.981690 -6.974761 1.707498 21.232775 0.335835 1.490291 0.063519 -0.024271 -509244.000000 0 1 0
-20.837890 -7.207961 2.939998 22.244458 0.333023 1.438241 0.090780 -0.025021 -172583.000000 0 1 0
-20.052690 -8.046861 3.755198 21.930888 0.381614 1.398720 0.080492 -0.021316 1227140.000000 0 1 0
-20.849590 -8.455661 4.869398 23.019874 0.385286 1.357656 0.084747 -0.022465 167809.000000 0 1 0
-20.086990 -9.352261 5.877798 22.923796 0.435741 1.311494 0.083329 -0.016942 -29974.000000 0 1 0
-19.650590 -10.559261 5.265898 22.921024 0.493080 1.338985 0.094627 -0.014292 277219.000000 0 1 0
-18.621190 -11.174961 6.004298 22.531756 0.540508 1.301056 0.087239 -0.022299 2385.460000 0 1 0
-18.155690 -12.566161 5.484798 22.751274 0.605427 1.327321 0.072438 -0.016608 164586.000000 0 1 0
-19.179590 -13.514761 5.683898 24.141502 0.613835 1.333124 0.108506 -0.020448 -186392.000000 0 1 0
-18.663590 -14.699761 5.325398 24.346918 0.667145 1.350284 0.102896 -0.017574 -506901.000000 0 1 0
-19.469890 -15.982961 5.510698 25.785644 0.687359 1.355423 0.115954 -0.023463 52955.400000 0 0 1
-18.707390 -17.094661 5.041398 25.838141 0.740383 1.374422 0.106818 -0.023149 667124.000000 0 0 1
-19.539890 -18.237061 5.097498 27.209964 0.750924 1.382343 0.103661 -0.020545 712931.000000 0 0 1
-18.666490 -19.547461 4.888798 27.467097 0.808448 1.391855 0.106419 -0.030812 214148.000000 0 0 1
-18.420990 -19.805861 3.531198 27.277726 0.821610 1.440978 0.104072 -0.029971 217555.000000 0 0 1
-17.771590 -21.052461 3.313298 27.749116 0.869704 1.451109 0.093457 -0.022824 -479411.000000 0 0 1
-16.261790 -20.897761 3.178398 26.669541 0.909515 1.451335 0.097010 -0.019278 -197281.000000 0 0 1
-15.554590 -22.165961 3.479198 27.301646 0.958908 1.443013 0.082913 -0.023391 298347.000000 0 0 1
-14.156890 -21.955061 3.419798 26.346484 0.998077 1.440628 0.084498 -0.021821 166793.000000 0 0 1
-13.293390 -23.192161 3.806098 27.001424 1.050327 1.429366 0.087549 -0.020129 -170138.000000 0 0 1
-13.310190 -24.269761 2.867598 27.828143 1.069162 1.467566 0.091338 -0.021516 -350043.000000 0 0 1
-12.598990 -25.375801 3.216598 28.513370 1.109956 1.457745 0.089829 -0.023204 -535888.000000 0 0 1
19.750310 18.982939 -24.440702 36.712050 0.765589 2.299282 0.070624 -0.005509 -69851.700000 0 0 1
18.832810 19.060439 -25.509862 36.996326 0.791405 2.331628 0.056867 -0.016996 -26582.000000 0 0 1
19.496010 19.204539 -26.748742 38.267531 0.777867 2.344785 0.078330 -0.019706 -597906.000000 0 0 1
18.582610 19.429539 -27.897442 38.743873 0.807675 2.374668 0.080035 -0.021631 -253341.000000 0 0 1
17.981610 20.747939 -27.930652 39.165503 0.856704 2.364770 0.075380 -0.020786 652951.000000 0 0 1
16.944310 20.882939 -28.893382 39.471943 0.889146 2.392046 0.071917 -0.023805 162637.000000 0 0 1
16.540410 22.349239 -29.211862 40.328731 0.933669 2.380878 0.079724 -0.030338 -393070.000000 0 0 1
15.846710 22.979639 -28.191682 39.673076 0.967086 2.361147 0.074923 -0.025908 34426.900000 0 0 1
15.510910 24.312739 -28.513762 40.555299 1.002921 2.350521 0.062863 -0.023514 373396.000000 0 0 1
14.451110 24.997639 -27.556642 39.913470 1.046636 2.332851 0.066968 -0.024333 1318360.000000 0 0 1
13.118110 24.446039 -27.646292 39.166454 1.078288 2.354442 0.072348 -0.035875 852807.000000 0 0 1
12.360210 25.143939 -26.632302 38.655814 1.113909 2.330849 0.063474 -0.024922 -777845.000000 0 0 1
10.875310 24.746739 -26.530102 37.875055 1.156738 2.346843 0.078702 -0.032817 161955.000000 0 0 1
10.075010 25.582339 -25.726572 37.653930 1.195623 2.322983 0.072355 -0.028522 36208.800000 0 0 1
9.902110 26.873239 -26.227402 38.834255 1.217759 2.312259 0.079737 -0.037737 -784594.000000 0 0 1
9.324610 27.998939 -25.248522 38.837827 1.249315 2.278514 0.090333 -0.038874 -286393.000000 0 0 1
10.243910 28.372039 -24.287602 38.727224 1.224306 2.248679 0.079694 -0.028188 -291112.000000 0 0 1
9.652110 29.265539 -23.376502 38.679398 1.252219 2.219766 0.105071 -0.034999 30768.800000 0 0 1
10.557010 29.705639 -22.178302 38.545461 1.229330 2.183865 0.081898 -0.024719 1015890.000000 0 0 1
11.709210 30.510039 -22.538602 39.698321 1.204349 2.174563 0.056742 -0.032092 513694.000000 0 0 1
12.281310 31.006839 -21.395102 39.623289 1.193670 2.141189 0.043937 -0.023102 -215745.000000 0 0 1
13.578110 31.816039 -21.648202 40.807721 1.167428 2.129978 0.048852 -0.008240 9412.170000 0 0 1
14.606310 31.078439 -22.253402 40.919770 1.131450 2.145791 0.047643 -0.007548 -371026.000000 0 0 1
15.655910 31.986839 -22.586702 42.171371 1.115625 2.136006 0.050167 -0.008320 371431.000000 0 0 1
16.922510 31.283839 -23.135302 42.429850 1.074940 2.147496 0.023819 0.002065 327886.000000 0 0 1
17.697510 30.530539 -22.206002 41.694391 1.045463 2.132454 0.019315 0.005972 128054.000000 0 0 1
18.826010 30.031639 -22.907602 42.202799 1.010852 2.144562 0.013597 0.001258 695664.000000 0 0 1
19.969910 29.339239 -22.066002 41.791108 0.973172 2.127048 0.005418 0.002983 556901.000000 0 0 1
20.729510 30.202339 -21.243602 42.346010 0.969287 2.096321 0.014211 0.006992 -170805.000000 0 0 1
21.728510 29.447039 -20.609802 42.000241 0.935094 2.083697 0.027711 0.015505 108910.000000 0 0 1
22.403510 30.100639 -19.377802 42.231090 0.930962 2.047499 0.034710 0.009371 416374.000000 0 0 1
23.468210 31.040839 -19.545502 43.546725 0.923439 2.036263 0.039487 0.009377 465929.000000 0 0 1
23.895410 31.412339 -18.233902 43.476441 0.920481 2.003578 0.047689 0.002847 -130368.000000 0 0 1
25.178010 32.269539 -18.102202 44.754275 0.908220 1.987206 0.063767 0.007580 1083370.000000 0 0 1
26.399110 31.686739 -18.592502 45.239845 0.876179 1.994321 0.060354 0.005111 560256.000000 0 0 1
27.494510 32.556539 -18.382902 46.409131 0.869495 1.978068 0.058167 0.000577 421221.000000 0 0 1
28.849110 32.028539 -18.913802 47.072608 0.837577 1.984279 0.071904 -0.005779 284340.000000 0 0 1
29.221310 30.762439 -18.371802 46.235655 0.811085 1.979425 0.056611 0.003962 -536978.000000 0 0 1
30.518210 30.410539 -18.732302 46.979370 0.783631 1.980933 0.052719 0.005165 -351144.000000 0 0 1
31.166310 29.187139 -18.017002 46.344799 0.752617 1.970082 0.058389 -0.001575 -165530.000000 0 0 1
31.393610 29.350239 -16.645602 46.087649 0.751772 1.940322 0.055693 0.005791 -4887.860000 0 0 1
31.887210 28.104639 -16.107302 45.454484 0.722430 1.933027 0.068449 0.002037 -56129.500000 0 0 1
32.481110 28.387139 -14.717302 45.579065 0.718240 1.899584 0.073867 0.006773 300324.000000 0 0 1
33.670910 29.155639 -14.636602 46.882957 0.713653 1.888298 0.052517 0.013720 151275.000000 0 0 1
33.454810 30.576739 -14.725102 47.654905 0.740481 1.884932 0.049629 0.002159 407729.000000 0 0 1
34.848310 31.271239 -14.800002 49.105348 0.731351 1.876949 0.061958 -0.010881 892218.000000 0 0 1
35.595410 31.338339 -13.591402 49.334075 0.721882 1.849903 0.051166 -0.008885 875406.000000 0 0 1
36.943310 31.783339 -13.849602 50.663600 0.710459 1.847685 0.053629 -0.017181 1167040.000000 0 0 1
-36.819482 31.980839 -12.671602 50.388667 -0.715185 1.825003 0.054807 -0.011129 -186956.000000 0 0 1
-37.163482 33.010539 -11.755502 51.078488 -0.726286 1.803024 0.046707 -0.014047 187235.000000 0 0 1
-36.130982 33.103539 -10.794902 50.177904 -0.741699 1.787624 0.040376 -0.007003 35838.700000 0 0 1
-36.332082 -33.591244 -9.763502 50.435283 0.746220 1.765611 0.030345 -0.008049 -257612.000000 0 0 1
-35.181482 -33.210644 -9.058402 49.221318 0.756589 1.755885 0.029954 -0.006208 -208175.000000 0 0 1
-35.160482 -33.730844 -7.753502 49.337066 0.764649 1.728604 0.034064 -0.006845 221219.000000 0 0 1
-34.657782 -32.699744 -6.681002 48.115183 0.756337 1.710101 0.047608 -0.002390 637893.000000 0 0 1
-35.711582 -31.753044 -6.379802 48.210732 0.726790 1.703517 0.039484 -0.002135 505918.000000 0 0 1
-35.374882 -30.800044 -5.431102 47.217812 0.716375 1.686074 0.045562 -0.004174 161758.000000 0 0 1
-36.642282 -30.017344 -4.988902 47.629685 0.686339 1.675732 0.036496 -0.010041 489895.000000 0 0 1
37.107910 -30.794844 -4.306402 48.413474 -0.692692 1.659865 0.022808 -0.001827 427528.000000 0 0 1
35.846510 -30.152544 -4.253102 47.034424 -0.699338 1.661345 0.029784 -0.000744 101959.000000 0 0 1
35.584210 -29.234844 -3.042702 46.153766 -0.687754 1.636769 0.022191 0.005435 -709438.000000 0 0 1
35.889110 -27.866744 -3.196602 45.549994 -0.660227 1.641032 0.050598 -0.014067 85973.600000 0 0 1
35.192810 -27.082144 -2.294502 44.466180 -0.655888 1.622420 0.051246 -0.009700 -351304.000000 0 0 1
35.526110 -25.566144 -2.478802 43.839214 -0.623788 1.627370 0.070914 -0.028803 -435452.000000 0 0 1
35.248410 -25.117244 -3.714502 43.441039 -0.619118 1.656408 0.078388 -0.038623 166813.000000 0 0 1
35.208410 -23.726744 -3.702202 42.618034 -0.592990 1.657775 0.087653 -0.043512 -216155.000000 0 0 1
34.887710 -23.153844 -5.085902 42.179607 -0.585923 1.691668 0.091049 -0.042239 12064.500000 0 0 1
35.857310 -23.555844 -6.059302 43.328277 -0.581233 1.711103 0.093432 -0.043138 559608.000000 0 0 1
35.400710 -23.268744 -7.363802 42.998492 -0.581487 1.742902 0.073656 -0.042912 -487555.000000 0 0 1
36.540210 -23.124544 -8.362202 44.043818 -0.564226 1.761817 0.076315 -0.037659 -145355.000000 0 0 1
37.258010 -24.303144 -8.725702 45.331446 -0.577986 1.764492 0.065075 -0.025000 -132429.000000 0 0 1
-36.332082 -23.943744 -9.451402 44.526981 0.582693 1.784686 0.080221 -0.019619 137844.000000 0 0 1
-35.768382 -25.134744 -10.325502 44.919355 0.612541 1.802738 0.061837 -0.012333 61516.700000 0 0 1
-35.017682 -26.162044 -9.681002 44.770664 0.641649 1.788753 0.063296 -0.008288 235433.000000 0 0 1
-35.737182 -27.073344 -8.821802 45.693941 0.648327 1.765079 0.056091 -0.011339 -164136.000000 0 0 1
-34.831082 -28.121344 -8.198002 45.510674 0.679215 1.751919 0.046427 -0.005414 -496869.000000 0 0 1
-34.459382 -28.968144 -9.237302 45.955740 0.699038 1.773179 0.046419 -0.003394 68209.900000 0 0 1
-33.688482 -30.081544 -8.795202 46.012701 0.728897 1.763127 0.033907 -0.005224 -55824.000000 0 0 1
-33.206182 -30.904544 -10.013402 46.454381 0.749513 1.788055 0.038548 0.002080 -37238.300000 0 0 1
-32.139582 -30.315744 -10.740302 45.468133 0.756204 1.809266 0.030081 0.014674 232018.000000 0 0 1
-31.900282 -31.048344 -11.920602 46.083927 0.771865 1.832443 0.033906 0.006140 -15844.700000 0 0 1
-32.097382 -30.188044 -13.188202 45.994440 0.754753 1.861613 0.026339 0.011108 -310903.000000 0 0 1
-31.040182 -29.299744 -13.329902 44.717492 0.756562 1.873489 0.024529 0.010019 -358279.000000 0 0 1
-31.190682 -28.738444 -14.628002 44.863517 0.744502 1.902924 0.020423 0.015657 379415.000000 0 0 1
-30.083382 -27.728544 -15.063602 43.598097 0.744688 1.923579 0.042529 -0.002887 318493.000000 0 0 1
-28.826382 -28.319444 -15.299702 43.209166 0.776527 1.932731 0.064631 -0.011901 91024.800000 0 0 1
-27.845482 -27.364644 -15.717102 42.085887 0.776689 1.953525 0.079705 -0.000651 805373.000000 0 0 1
-26.572782 -28.045544 -16.345902 41.950611 0.812356 1.971044 0.085565 -0.011644 140017.000000 0 0 1
-26.803782 -28.824944 -17.484302 43.069953 0.821715 1.988816 0.074877 -0.010705 -167321.000000 0 0 1
-26.961582 -28.157844 -18.752002 43.260012 0.807098 2.019138 0.060797 -0.002039 360139.000000 0 0 1
-25.698182 -27.393844 -19.275802 42.218192 0.817325 2.044939 0.064452 -0.005625 447798.000000 0 0 1
-25.370382 -26.186944 -18.608302 40.935085 0.801235 2.042698 0.075927 -0.014336 673368.000000 0 0 1
-23.946482 -25.993744 -18.616102 39.945812 0.826369 2.055599 0.076116 -0.023881 816693.000000 0 0 1
-23.566582 -24.829944 -17.741302 38.557277 0.811497 2.048936 0.093831 -0.027449 -133446.000000 0 0 1
-23.783682 -25.124244 -16.380602 38.278130 0.812801 2.013005 0.104012 -0.027366 239331.000000 0 0 1
-23.386782 -24.010044 -15.555902 36.951452 0.798547 2.005324 0.108389 -0.030276 24303.200000 0 0 1
-23.886782 -24.117544 -14.102202 36.757398 0.790205 1.964548 0.095575 -0.023425 102873.000000 0 0 1
-25.288182 -23.994344 -13.948702 37.547129 0.759151 1.951419 0.079463 -0.007892 115065.000000 0 0 1
-25.704682 -23.990844 -12.600102 37.350419 0.750925 1.914895 0.075904 -0.003959 140483.000000 0 0 1
-27.239182 -23.877144 -12.479302 38.312191 0.719720 1.902577 0.063437 0.011840 -297421.000000 0 0 1
-27.931382 -25.118444 -12.688902 39.649798 0.732423 1.896552 0.074263 0.003201 1395730.000000 0 0 1
-29.345082 -25.149944 -12.414402 40.592744 0.708568 1.881604 0.060290 0.008755 1375630.000000 0 0 1
-30.368282 -24.164644 -13.111102 40.964173 0.672126 1.896592 0.069884 0.008358 -607551.000000 0 0 1
-30.491282 -22.820144 -12.629402 40.124543 0.642486 1.890995 0.078152 0.009934 309159.000000 0 0 1
-30.975082 -22.611944 -11.278102 39.974382 0.630581 1.856813 0.087000 0.006574 -399859.000000 0 0 1
-32.357182 -23.164544 -10.798002 41.233240 0.621318 1.835762 0.065937 0.001842 530755.000000 0 0 1
-33.506082 -22.485544 -11.292502 41.902002 0.591058 1.843668 0.090703 -0.009117 413718.000000 0 0 1
-33.725082 -22.611444 -12.723402 42.550481 0.590627 1.874461 0.079657 -0.001909 -607397.000000 0 0 1
-35.138682 -22.093044 -13.175202 43.547852 0.561283 1.878158 0.048193 -0.009769 874439.000000 0 0 1
-36.159482 -23.037144 -12.843102 44.756713 0.567252 1.861842 0.051987 -0.004051 -137831.000000 0 0 1
37.329410 -22.452944 -13.104402 45.490053 -0.541508 1.863009 0.061011 -0.019111 -618862.000000 0 0 1
36.124910 -23.327844 -12.785902 44.862866 -0.573385 1.859802 0.053375 0.000215 -471042.000000 0 0 1
36.052010 -24.407744 -13.727602 45.650109 -0.595133 1.876237 0.036532 0.007189 -49711.800000 0 0 1
35.355810 -25.507944 -13.197002 45.550515 -0.624987 1.864733 0.038489 -0.005652 68733.300000 0 0 1
35.380810 -26.704344 -14.170502 46.537370 -0.646546 1.880207 0.039151 -0.015503 718896.000000 0 0 1
34.225310 -26.646644 -15.005702 45.897566 -0.661534 1.903859 0.038445 -0.012793 382205.000000 0 0 1
34.345410 -27.715744 -15.897302 46.909422 -0.678977 1.916537 0.033766 -0.002473 822430.000000 0 0 1
33.359710 -27.556944 -17.140202 46.540756 -0.690427 1.947959 0.037871 -0.009128 1196500.000000 0 0 1
31.966010 -27.782544 -16.933602 45.611867 -0.715494 1.951156 0.066248 -0.011589 849183.000000 0 0 1
31.191510 -27.666444 -18.140902 45.469053 -0.725579 1.981192 0.061019 -0.015873 924274.000000 0 0 1
29.646010 -27.730344 -17.984802 44.399448 -0.752023 1.987850 0.067166 -0.021571 536582.000000 0 0 1
29.067210 -26.695744 -17.227402 43.062151 -0.742896 1.982378 0.067733 -0.024035 -394956.000000 0 0 1
27.693410 -26.945244 -17.048602 42.232996 -0.771706 1.986332 0.096030 -0.025106 -35975.500000 0 0 1
27.137210 -26.026844 -15.902102 40.825257 -0.764516 1.970903 0.085363 -0.028575 -63326.000000 0 0 1
26.979510 -24.705144 -16.306102 40.051555 -0.741422 1.990104 0.090970 -0.032612 36717.000000 0 0 1
26.676110 -23.888244 -15.163002 38.886754 -0.730319 1.971349 0.082832 -0.024468 -104339.000000 0 0 1
26.691210 -22.399144 -15.501102 38.136944 -0.698188 1.989371 0.088975 -0.020525 -61024.900000 0 0 1
25.480610 -21.889644 -16.006102 37.210392 -0.709737 2.015457 0.105926 -0.030215 -120700.000000 0 0 1
25.519310 -20.492044 -15.926402 36.397930 -0.676568 2.023683 0.099875 -0.033544 188896.000000 0 0 1
24.164210 -19.760544 -16.162902 35.151494 -0.685477 2.048574 0.095487 -0.026941 474668.000000 0 0 1
23.345410 -19.806044 -14.999502 34.092119 -0.703559 2.026361 0.091370 -0.030754 287820.000000 0 0 1
22.172910 -19.015944 -15.092402 32.878939 -0.708902 2.047699 0.079189 -0.036767 271175.000000 0 0 1
21.949510 -18.118244 -13.839502 31.647805 -0.690068 2.023388 0.068663 -0.018263 -317795.000000 0 0 1
21.245610 -18.607944 -12.760602 30.991361 -0.719311 1.995167 0.057275 -0.026511 -144599.000000 0 0 1
20.936610 -17.501044 -11.943902 29.787329 -0.696255 1.983375 0.071006 -0.036056 -43395.900000 0 0 1
20.018110 -17.741844 -10.692502 28.806724 -0.725188 1.951077 0.085686 -0.020849 284186.000000 0 0 1
20.645510 -18.377444 -9.582302 29.253855 -0.727342 1.904513 0.094033 -0.040329 788117.000000 0 0 1
19.636410 -18.638444 -8.574802 28.399074 -0.759330 1.877523 0.089110 -0.042802 774831.000000 0 0 1
20.206910 -19.264244 -7.266202 28.848362 -0.761520 1.825414 0.081431 -0.038125 131409.000000 0 0 1
21.186310 -18.443044 -6.639302 28.863228 -0.716285 1.802901 0.075112 -0.036495 -139067.000000 0 0 1
21.791610 -19.213544 -5.662602 29.598980 -0.722609 1.763294 0.085221 -0.030800 -629775.000000 0 0 1
23.087810 -18.526844 -5.207102 30.056694 -0.676234 1.744917 0.083200 -0.027542 -133185.000000 0 0 1
24.045010 -18.445444 -6.270502 30.946989 -0.654369 1.774830 0.077829 -0.042705 -474836.000000 0 0 1
25.034110 -17.571744 -5.877802 31.145167 -0.612008 1.760658 0.087904 -0.043048 -250498.000000 0 0 1
26.148610 -17.462844 -7.027702 32.219394 -0.588808 1.790684 0.096636 -0.050157 1024890.000000 0 0 1
27.239010 -18.373544 -7.011502 33.596309 -0.593427 1.781040 0.109015 -0.062265 507882.000000 0 0 1
26.908110 -19.575744 -7.671802 34.148392 -0.628947 1.797391 0.105936 -0.066958 -18073.200000 0 0 1
27.829210 -20.860444 -7.418002 35.561915 -0.643237 1.780933 0.112394 -0.067392 65999.400000 0 0 1
29.078610 -20.562244 -7.968802 36.494839 -0.615493 1.790924 0.123523 -0.050013 -389983.000000 0 0 1
29.997310 -21.630544 -7.845402 37.805679 -0.624736 1.779835 0.124213 -0.053986 155002.000000 0 0 1
-30.425940 29.550239 4.886298 42.694618 -0.770798 1.456097 0.055295 -0.014048 228173.000000 0 0 1
-30.037470 30.276739 3.718898 42.810755 -0.789365 1.483818 0.051145 -0.017867 -406495.000000 0 0 1
-29.116070 31.271539 4.037598 42.918025 -0.821077 1.476580 0.053282 -0.001712 -124292.000000 0 0 1
-28.774550 32.233439 2.865598 43.303360 -0.842033 1.504573 0.054816 0.004148 -424414.000000 0 0 1
-27.935250 31.724339 1.840098 42.310730 -0.848825 1.527292 0.054381 -0.001092 205467.000000 0 0 1
-27.453450 32.732539 0.970198 42.732333 -0.872887 1.548090 0.064570 -0.017399 -261855.000000 0 0 1
-26.272430 33.578539 1.500998 42.661597 -0.906869 1.535605 0.072230 -0.005779 -616756.000000 0 0 1
-25.077140 32.817839 1.480198 41.328737 -0.918312 1.534973 0.055427 -0.009453 -504742.000000 0 0 1
-24.154190 33.433039 2.342598 41.311993 -0.945152 1.514061 0.046167 -0.010296 611246.000000 0 0 1
-22.669590 33.016139 2.057198 40.102467 -0.969106 1.519475 0.056015 -0.019320 840127.000000 0 0 1
-22.121890 33.590239 0.869898 40.229826 -0.988412 1.549171 0.086615 -0.024046 992745.000000 0 0 1
-20.713490 33.335639 0.724698 39.253518 -1.014818 1.552333 0.097522 -0.032818 507409.000000 0 0 1
-20.011490 -33.872844 -0.528402 39.346009 1.037182 1.584226 0.109830 -0.034307 33872.100000 0 0 1
-19.824490 -32.452344 -0.590902 38.033067 1.022415 1.586333 0.110236 -0.035051 710627.000000 0 0 1
-19.038590 -31.883444 0.491998 37.138443 1.032489 1.557548 0.113884 -0.026996 80988.900000 0 0 1
-18.687390 -30.364344 0.343798 35.655716 1.019102 1.561154 0.118066 -0.032611 24489.000000 0 0 1
-17.882290 -30.058844 -0.788702 34.984745 1.034128 1.593342 0.123559 -0.027385 211286.000000 0 0 1
-17.452190 -28.699744 -0.724302 33.597304 1.024445 1.592356 0.101251 -0.024849 37458.300000 0 0 1
-16.279690 -28.268344 -1.639002 32.662117 1.048287 1.620998 0.092196 -0.024142 -167155.000000 0 0 1
-16.573190 -28.460644 -3.012002 33.071907 1.043479 1.661997 0.078709 -0.021373 -177973.000000 0 0 1
-15.775990 -27.664644 -3.831002 32.076330 1.052533 1.690516 0.071849 -0.011270 -359274.000000 0 0 1
-16.277090 -27.661244 -5.266702 32.524240 1.038917 1.733444 0.088477 -0.018079 204901.000000 0 0 1
-17.504890 -26.960244 -5.402102 32.595377 0.994924 1.737297 0.076174 -0.012710 -67960.400000 0 0 1
-17.858490 -26.613444 -6.729602 32.748871 0.979777 1.777762 0.088807 -0.019402 117639.000000 0 0 1
-18.543290 -25.274344 -6.912302 32.100248 0.937822 1.787831 0.057971 -0.009903 -35068.500000 0 0 1
-17.653690 -24.218344 -6.706902 30.710966 0.940911 1.790958 0.037165 0.006457 133190.000000 0 0 1
-18.317290 -23.068744 -7.177002 30.318301 0.899706 1.809787 0.021102 0.007204 153174.000000 0 0 1
-17.461290 -21.785644 -6.935002 28.768127 0.895139 1.814260 0.033472 0.011630 449755.000000 0 0 1
-16.373290 -21.930244 -7.844002 28.470134 0.929470 1.849924 0.054557 0.002662 -499636.000000 0 0 1
-15.301690 -21.127244 -7.447002 27.128582 0.943971 1.848874 0.094937 -0.016470 -76691.100000 0 0 1
-14.194290 -20.922944 -8.500502 26.674069 0.974709 1.895133 0.108585 -0.016821 83638.500000 0 0 1
-14.568590 -20.042244 -9.546902 26.553317 0.942248 1.938568 0.111049 -0.016165 41620.100000 0 0 1
-13.583790 -20.047144 -10.583502 26.427596 0.975268 1.982828 0.096929 -0.011350 443960.000000 0 0 1
-13.964290 -19.262244 -11.914202 26.607961 0.943517 2.035064 0.111454 -0.011059 906280.000000 0 0 1
-15.149690 -19.752044 -12.601302 27.900701 0.916508 2.039408 0.099831 0.005724 640429.000000 0 0 1
-15.481390 -18.893744 -13.660802 27.986862 0.884342 2.080725 0.107223 -0.012778 275303.000000 0 0 1
-16.773990 -19.460644 -14.318302 29.412534 0.859409 2.079230 0.116000 -0.013368 494350.000000 0 0 1
-17.926390 -19.298044 -13.507502 29.601056 0.822230 2.044649 0.116108 -0.012800 -1042910.000000 0 0 1
-19.048790 -19.496044 -14.225202 30.745869 0.797001 2.051801 0.082663 -0.009481 -1679670.000000 0 0 1
-20.422290 -19.453744 -13.551702 31.291639 0.761114 2.018700 0.052473 -0.006026 333700.000000 0 0 1
-21.341090 -19.981044 -14.543902 32.652860 0.752497 2.032428 0.069507 -0.016566 1361530.000000 0 0 1
-22.735990 -19.812644 -14.185902 33.327254 0.716800 2.010482 0.068340 -0.016858 1001970.000000 0 0 1
-23.731990 -20.448344 -15.150202 34.797567 0.711211 2.021258 0.084521 -0.027871 -296535.000000 0 0 1
-23.724690 -19.773444 -16.389502 34.963777 0.694810 2.058679 0.083864 -0.043030 386042.000000 0 0 1
-24.583690 -20.520644 -17.265102 36.380466 0.695560 2.065273 0.101393 -0.047494 233552.000000 0 0 1
-24.681690 -19.838244 -18.681502 36.766020 0.677032 2.103795 0.093498 -0.038147 -454361.000000 0 0 1
-23.577890 -20.035644 -19.498602 36.572385 0.704357 2.133117 0.075356 -0.037928 -307420.000000 0 0 1
-23.956790 -19.560544 -20.790502 37.266440 0.684717 2.162635 0.079612 -0.044012 -354515.000000 0 0 1
-22.910890 -18.605644 -21.339402 36.420446 0.682068 2.196809 0.066703 -0.032288 284796.000000 0 0 1
-21.684990 -19.302544 -21.609602 36.191185 0.727337 2.210672 0.058225 -0.026396 52684.000000 0 0 1
-20.784290 -18.511544 -22.332102 35.684544 0.727626 2.246979 0.070077 -0.033548 113818.000000 0 0 1
-19.456890 -19.283944 -22.595002 35.510212 0.780934 2.260484 0.077496 -0.031573 -3240.890000 0 0 1
-19.529290 -20.400044 -23.434702 36.697959 0.807202 2.263452 0.055095 -0.023754 -331257.000000 0 0 1
-18.278990 -21.030944 -23.466402 36.429302 0.855291 2.270725 0.065951 -0.019804 -337892.000000 0 0 1
-18.186390 -22.417444 -24.193502 37.664467 0.889227 2.268348 0.069478 -0.019057 -182828.000000 0 0 1
-18.406190 -22.317844 -25.585542 38.619864 0.881157 2.294944 0.076419 -0.026196 102706.000000 0 0 1
-18.538490 -23.622244 -26.161872 39.826242 0.905399 2.287497 0.089850 -0.034132 -167645.000000 0 0 1
-18.350390 -23.713244 -27.655332 40.790588 0.912208 2.315812 0.089003 -0.022843 -152917.000000 0 0 1
-17.043890 -23.383744 -28.055362 40.303808 0.940951 2.340743 0.080247 -0.026140 -75770.600000 0 0 1
-16.998290 -23.415844 -29.454982 41.289702 0.942878 2.365097 0.108618 -0.028308 -529302.000000 0 0 1
-15.577590 -23.215444 -30.001482 41.008621 0.979799 2.391447 0.076678 -0.034954 -346977.000000 0 0 1
-14.799690 -24.363044 -29.694242 41.162321 1.024906 2.376609 0.081292 -0.035838 -335340.000000 0 0 1
-13.517990 -24.166544 -30.239642 41.002363 1.060789 2.400172 0.097390 -0.040635 -132044.000000 0 0 1
-12.504690 -25.238344 -29.758722 40.974660 1.110784 2.383678 0.100995 -0.032900 -529512.000000 0 0 1
-12.737990 -26.502144 -30.438732 42.321819 1.122756 2.373476 0.093396 -0.026625 193868.000000 0 0 1
-12.050590 -27.640744 -29.943272 42.495022 1.159669 2.352698 0.107848 -0.027875 -218142.000000 0 0 1
-10.611690 -27.769544 -30.467112 42.567598 1.205786 2.368472 0.115997 -0.036936 -292963.000000 0 0 1
-9.733090 -26.775544 -29.965382 41.347151 1.222140 2.381434 0.137497 -0.049598 -361378.000000 0 0 1
-8.600490 -26.702744 -30.801232 41.661983 1.259205 2.402845 0.128802 -0.033091 -370214.000000 0 0 1
-7.677690 -25.562344 -30.303662 40.381830 1.279017 2.419506 0.161909 -0.038598 63359.900000 0 0 1
-8.216790 -24.201944 -30.369182 39.693033 1.243498 2.441995 0.162951 -0.040708 474311.000000 0 0 1
-9.110090 -23.829544 -29.322712 38.867239 1.205639 2.425586 0.158764 -0.032153 -33497.100000 0 0 1
-9.261490 -22.324744 -29.353592 38.023712 1.177551 2.452748 0.162474 -0.042630 -71372.500000 0 0 1
-9.835090 -21.792844 -30.558772 38.800716 1.146863 2.477673 0.146901 -0.038374 108167.000000 0 0 1
-10.222390 -20.464244 -30.384812 38.033134 1.107529 2.496267 0.140554 -0.044270 -210508.000000 0 0 1
-11.136590 -20.012844 -31.521872 38.963649 1.062998 2.513257 0.096904 -0.034194 -31943.700000 0 0 1
-11.714690 -18.724544 -31.343602 38.344020 1.011742 2.527734 0.093592 -0.040178 979911.000000 0 0 1
-12.845790 -18.527344 -32.229202 39.331898 0.964553 2.531188 0.084098 -0.027860 648863.000000 0 0 1
-13.561590 -17.130844 -32.058902 38.796336 0.901169 2.543371 0.093290 -0.030253 424917.000000 0 0 1
-12.826490 -15.919144 -32.416832 38.324782 0.892573 2.578944 0.083883 -0.028639 327470.000000 0 0 1
-11.790090 -15.542844 -31.538792 37.084789 0.921843 2.587638 0.068318 -0.020942 -17670.700000 0 0 1
-11.638590 -13.960644 -31.412572 36.291955 0.875859 2.617048 0.061684 -0.008313 -369531.000000 0 0 1
-11.050590 -13.325944 -32.532932 36.852245 0.878470 2.652573 0.054617 -0.016180 241638.000000 0 0 1
-11.684990 -13.410444 -33.843082 38.232619 0.854046 2.657696 0.057503 -0.018150 -157790.000000 0 0 1
-11.937990 -12.007844 33.261324 37.323177 0.788315 0.470877 0.053990 -0.007898 -328756.000000 0 0 1
-13.030390 -11.353944 33.803160 37.965204 0.716755 0.472634 0.038908 0.000122 -894797.000000 0 0 1
-14.004090 -10.919144 32.888675 37.376559 0.662247 0.495086 0.048370 -0.018317 -23324.000000 0 0 1
-15.037590 -10.121744 33.669714 38.239096 0.592441 0.493870 0.069894 -0.017057 -171720.000000 0 0 1
-14.497390 -8.865644 -33.726612 37.765835 0.548857 2.674865 0.061263 -0.017531 -457513.000000 0 0 1
-15.251190 -8.345944 -32.711642 37.044636 0.500716 2.653083 0.069922 -0.020959 -82725.800000 0 0 1
-14.520390 -7.271244 -31.801862 35.708138 0.464256 2.669471 0.063539 -0.038532 -105195.000000 0 0 1
-14.646590 -5.935644 -32.304842 35.963276 0.385031 2.686620 0.067930 -0.043427 563602.000000 0 0 1
-15.926790 -5.323144 -32.100122 36.227286 0.322554 2.659606 0.073818 -0.035568 555498.000000 0 0 1
-16.280890 -4.862544 -30.674162 35.065879 0.290232 2.635733 0.078170 -0.037296 -332299.000000 0 0 1
-16.659090 -5.914444 -29.796562 34.645938 0.341147 2.606126 0.076000 -0.042293 27411.800000 0 0 1
-17.044890 -5.443144 -28.485822 33.639235 0.309106 2.580743 0.081445 -0.044438 10398.900000 0 0 1
-15.885790 -4.883444 -27.640632 32.252300 0.298241 2.600241 0.074009 -0.043567 74314.500000 0 0 1
-15.535890 -3.556244 -27.983972 32.204245 0.225028 2.623879 0.061419 -0.030218 -656398.000000 0 0 1
-14.303090 -3.103844 -27.526992 31.176072 0.213692 2.652911 0.049979 -0.026375 -446776.000000 0 0 1
-14.064190 -1.736444 -28.208372 31.567846 0.122844 2.676053 0.038131 -0.006942 817.412000 0 0 1
-13.918390 -1.863444 -29.637772 32.796212 0.133092 2.699118 0.037729 -0.008212 219442.000000 0 0 1
-13.807090 -0.684444 -30.369152 33.367492 0.049531 2.714423 0.043001 -0.014857 -59515.000000 0 0 1
-13.895090 -1.008444 -31.836962 34.751728 0.072449 2.729104 0.035609 -0.018704 635094.000000 0 0 1
-15.189690 -1.420444 -32.327862 35.746817 0.093243 2.700665 0.031448 -0.018913 934526.000000 0 0 1
-15.288590 -1.518444 -33.712522 37.048357 0.098994 2.713984 0.033863 -0.022768 -121462.000000 0 0 1
-16.721490 -1.448444 33.523729 37.490620 0.086406 0.464178 0.025803 -0.021808 -29253.600000 0 0 1
-16.802590 -1.985444 32.228653 36.399932 0.117618 0.483433 0.045964 -0.034711 1158710.000000 0 0 1
-18.115590 -1.887444 31.621120 36.491537 0.103814 0.522583 0.042229 -0.027962 1047290.000000 0 0 1
-17.996890 -2.007444 30.041070 35.076826 0.111085 0.542470 0.062344 -0.023244 23346.200000 0 0 1
-17.263390 -0.878444 29.583600 34.263474 0.050841 0.528796 0.055297 -0.006404 114517.000000 0 0 1
-17.239390 -0.862444 28.167940 33.035938 0.049986 0.549769 0.060358 -0.018571 -164823.000000 0 0 1
-16.684090 0.449556 27.554400 32.214995 -0.026939 0.544612 0.065223 -0.015667 2376.780000 0 0 1
-17.230690 1.707556 27.982860 32.906730 -0.098777 0.554110 0.062165 -0.012830 356671.000000 0 0 1
-18.606390 1.970556 27.698350 33.425730 -0.105514 0.594098 0.067274 -0.020369 718410.000000 0 0 1
-18.908890 2.774556 26.346790 32.548389 -0.145693 0.627555 0.077716 -0.024033 -121918.000000 0 0 1
-18.494790 4.133556 26.466550 32.551832 -0.219885 0.621409 0.081337 -0.022798 142419.000000 0 0 1
-18.868990 4.890556 25.309600 31.945769 -0.253604 0.656280 0.088676 -0.023433 -362899.000000 0 0 1
-18.728690 6.425556 25.415670 32.218129 -0.330502 0.661841 0.082517 -0.021485 71142.200000 0 0 1
-17.444690 7.022556 25.422150 31.621499 -0.382712 0.636886 0.072692 -0.020181 -114858.000000 0 0 1
-16.882190 7.069556 24.124170 30.281389 -0.396572 0.649036 0.061335 -0.011022 -285963.000000 0 0 1
-15.740990 8.099556 24.163080 29.953898 -0.475221 0.632291 0.064544 -0.010519 157202.000000 0 0 1
-14.550290 7.758556 24.862650 29.833831 -0.489872 0.585617 0.052912 -0.014564 -133020.000000 0 0 1
-13.466690 8.019556 24.013430 28.675945 -0.537112 0.578275 0.071498 -0.017772 -776625.000000 0 0 1
-12.112790 8.074556 24.729090 28.695749 -0.587966 0.532051 0.054448 -0.011632 -219468.000000 0 0 1
-11.149090 8.655556 23.828850 27.695396 -0.660151 0.534761 0.049482 -0.024704 -176850.000000 0 0 1
-9.875690 8.765556 24.388440 27.733738 -0.725916 0.496242 0.052523 -0.024642 -442517.000000 0 0 1
-9.636390 10.161556 24.952690 28.613877 -0.811918 0.511424 0.074189 -0.030121 -827958.000000 0 0 1
-10.338790 10.331556 26.182080 29.985545 -0.785048 0.509155 0.060975 -0.025620 314367.000000 0 0 1
-10.246490 11.641556 26.763280 30.932015 -0.849049 0.525189 0.059692 -0.025637 -355046.000000 0 0 1
-11.026790 12.747556 25.976300 30.965439 -0.857651 0.575573 0.057494 -0.029259 635785.000000 0 0 1
-12.452090 12.655556 25.971870 31.460383 -0.793502 0.599634 0.061966 -0.029969 499329.000000 0 0 1
-12.924690 11.850556 24.931490 30.480526 -0.742070 0.612961 0.057476 -0.021863 -732859.000000 0 0 1
-14.452490 11.713556 24.830880 31.026673 -0.681103 0.642988 0.039761 -0.016915 -79216.200000 0 0 1
-15.217190 12.857556 24.484730 31.565513 -0.701547 0.683005 0.038482 -0.016206 -238815.000000 0 0 1
-16.464190 12.603556 23.900330 31.640875 -0.653356 0.714589 0.044744 -0.006015 -169880.000000 0 0 1
-16.650690 11.915556 22.500950 30.422339 -0.621132 0.738292 0.033028 0.006742 -377579.000000 0 0 1
-16.444490 10.499556 22.472450 29.760258 -0.568238 0.714965 0.038732 0.005108 22210.000000 0 0 1
-16.184790 9.996556 21.157050 28.451701 -0.553297 0.732339 0.053154 -0.007747 -233250.000000 0 0 1
-16.668590 8.572556 20.813050 28.009171 -0.475017 0.733135 0.060996 0.000047 -240788.000000 0 0 1
-18.064090 8.470556 20.827150 28.841495 -0.438473 0.763928 0.059582 0.015247 -897340.000000 0 0 1
-18.514690 7.235556 20.335450 28.437256 -0.372551 0.774031 0.054906 0.010821 -551273.000000 0 0 1
-19.994890 7.262556 20.709450 29.688746 -0.348404 0.798821 0.076023 -0.001842 -575139.000000 0 0 1
-20.227890 7.418556 22.112950 30.873695 -0.351517 0.772398 0.075936 -0.017527 260254.000000 0 0 1
-21.602490 7.561556 22.455650 32.064013 -0.336703 0.794925 0.080129 -0.016732 415648.000000 0 0 1
-22.043490 8.268556 23.777670 33.461352 -0.358860 0.780444 0.094837 -0.021687 -641561.000000 0 0 1
-22.016590 9.686556 23.800230 33.838004 -0.414479 0.790686 0.092718 -0.015362 422767.000000 0 0 1
-20.710190 10.247556 23.780570 33.157803 -0.459485 0.771029 0.088264 -0.006327 580677.000000 0 0 1
-19.799490 9.987556 25.024650 33.436569 -0.467189 0.725117 0.088351 -0.020722 -338659.000000 0 0 1
-20.284390 10.665556 26.125010 34.752362 -0.484075 0.720088 0.090137 -0.019441 318717.000000 0 0 1
-19.531090 10.267556 27.275130 35.083028 -0.483998 0.680203 0.095389 -0.024623 431861.000000 0 0 1
-31.957280 -14.390161 20.732450 40.720743 0.423098 1.036614 0.090292 -0.013774 116554.000000 0 0 1
-31.043530 -15.469761 20.867050 40.477747 0.462307 1.029183 0.082307 -0.003444 257230.000000 0 0 1
-31.351720 -16.577161 20.008050 40.719217 0.486381 1.057139 0.086274 0.000492 5515.600000 0 0 1
-30.921630 -16.426461 18.481450 39.592168 0.488317 1.085132 0.092728 -0.010826 -197349.000000 0 0 1
-31.627690 -15.407261 17.814750 39.434246 0.453311 1.102061 0.099423 -0.020019 -157087.000000 0 0 1
-31.164610 -14.976861 16.505650 38.314171 0.447985 1.125420 0.097320 -0.021773 -755565.000000 0 0 1
-32.083400 -13.950661 15.835450 38.402174 0.410163 1.145755 0.102193 -0.017529 284661.000000 0 0 1
-33.400270 -14.429161 15.504750 39.549664 0.407791 1.167957 0.114732 -0.011184 1068030.000000 0 0 1
-34.406462 -14.283161 16.479650 40.735637 0.393481 1.154308 0.112421 -0.011739 -285143.000000 0 0 1
-34.863738 -12.851461 16.887950 40.814741 0.353165 1.144204 0.107861 -0.014848 -1196220.000000 0 0 1
-36.041960 -12.934361 17.608850 42.147267 0.344554 1.139781 0.095831 -0.017829 -453378.000000 0 0 1
-36.543740 -11.654161 17.952550 42.350424 0.308714 1.133044 0.092725 -0.013991 132057.000000 0 0 1
37.024672 -11.702661 18.967750 43.215208 -0.306141 1.116407 0.079908 -0.006053 255946.000000 0 0 1
-37.250440 -12.115261 20.218550 44.081340 0.314447 1.094305 0.075553 -0.006767 378997.000000 0 0 1
36.610012 -11.588961 21.227050 43.876926 -0.306572 1.065821 0.071238 -0.009323 -225954.000000 0 0 1
37.106242 -11.988361 22.642250 45.091745 -0.312496 1.044728 0.076311 -0.015597 654266.000000 0 0 1
-36.353810 -11.410361 22.926780 44.468337 0.304132 1.029117 0.076466 -0.014303 610415.000000 0 0 1
-35.274676 -12.291761 22.660850 43.691009 0.335301 1.025511 0.073264 -0.017711 311874.000000 0 0 1
-33.876230 -11.621961 22.468550 42.278891 0.330489 1.010501 0.093042 -0.011940 543613.000000 0 0 1
-33.712480 -10.940761 21.205650 41.302677 0.313808 1.031630 0.109975 -0.021647 -399709.000000 0 0 1
-32.415630 -10.429561 21.089050 40.053674 0.311285 1.016295 0.120175 -0.031538 -645124.000000 0 0 1
-32.395080 -8.961461 20.621550 39.433454 0.269881 1.020493 0.135593 -0.016906 28265.400000 0 0 1
-32.837290 -8.555661 19.345050 39.060439 0.254880 1.052663 0.121876 -0.018330 -155580.000000 0 0 1
-34.201231 -8.769561 19.103850 40.144569 0.251003 1.074836 0.118777 -0.021826 -729534.000000 0 0 1
-34.545464 -8.393161 17.666850 39.698259 0.238342 1.109590 0.117020 -0.022491 -901428.000000 0 0 1
-35.888070 -8.584861 17.373850 40.786076 0.234800 1.130757 0.070058 -0.019580 -591832.000000 0 0 1
-36.140840 -8.330061 15.998450 40.391838 0.226533 1.163551 0.093351 -0.020979 -235189.000000 0 0 1
37.086902 -8.226961 15.758350 41.127203 -0.218294 1.177580 0.080254 -0.025404 -453593.000000 0 0 1
36.401162 -9.433061 15.781950 40.781089 -0.253564 1.173429 0.077515 -0.006420 308626.000000 0 0 1
35.005482 -9.139961 15.672150 39.427642 -0.255399 1.162015 0.063036 -0.008920 761365.000000 0 0 1
34.075132 -10.383761 15.555650 38.870495 -0.295792 1.159070 0.066361 -0.010363 29437.100000 0 0 1
33.723892 -10.889861 16.794950 39.216837 -0.312343 1.128231 0.050473 -0.009581 91607.000000 0 0 1
32.714852 -11.878161 16.662650 38.587513 -0.348281 1.124293 0.069087 -0.008844 115822.000000 0 0 1
32.363152 -12.464861 18.070850 39.106291 -0.367645 1.090439 0.066793 -0.010412 -220501.000000 0 0 1
33.441802 -13.152661 18.639650 40.481887 -0.374717 1.092301 0.066488 -0.005586 -276410.000000 0 0 1
33.355882 -13.267761 20.030250 41.107898 -0.378577 1.061847 0.069166 -0.007028 195804.000000 0 0 1
33.962562 -14.584261 20.710450 42.368373 -0.405610 1.060061 0.064303 -0.001685 364613.000000 0 0 1
34.169942 -14.431361 22.127550 43.191175 -0.399616 1.032916 0.061504 -0.008922 -89404.700000 0 0 1
34.530022 -15.668661 22.648950 44.167910 -0.425984 1.032363 0.066037 0.005858 -28604.000000 0 0 1
34.983322 -15.654061 24.125760 45.287247 -0.420750 1.008976 0.077085 0.000747 1027150.000000 0 0 1
36.303762 -15.075461 24.231720 46.178013 -0.393591 1.018380 0.081124 -0.006341 882389.000000 0 0 1
36.540672 -14.831861 25.574810 47.002933 -0.385582 0.995467 0.075593 -0.009765 -470443.000000 0 0 1
-36.959400 -13.965561 25.796550 47.185761 0.361278 0.992376 0.081142 -0.016430 34641.500000 0 0 1
-35.719599 -14.625561 25.557810 46.292531 0.388630 0.985923 0.053962 -0.007848 549136.000000 0 0 1
-34.685139 -14.019561 26.327630 45.746596 0.384118 0.957569 0.063777 -0.016466 1084110.000000 0 0 1
-33.249250 -14.638261 26.110960 44.738948 0.414723 0.947605 0.064629 -0.011225 451984.000000 0 0 1
-32.634140 -14.274661 24.828870 43.419187 0.412339 0.962048 0.059031 -0.007585 1313320.000000 0 0 1
-31.288260 -14.751861 24.614220 42.455063 0.440574 0.952349 0.067206 -0.019052 980718.000000 0 0 1
-30.905890 -16.218761 24.878490 42.862122 0.483274 0.951539 0.072956 -0.009906 -1007420.000000 0 0 1
-30.831010 -16.451861 26.281670 43.725748 0.490176 0.925973 0.067708 -0.007943 27200.700000 0 0 1
-30.643750 -17.788461 26.591400 44.300917 0.525952 0.926989 0.057547 -0.005696 -198496.000000 0 0 1
-30.379450 -17.974761 28.091490 45.112468 0.534276 0.898609 0.064199 -0.017482 -1091340.000000 0 0 1
-29.216050 -17.327861 28.394470 44.272771 0.535326 0.874536 0.070742 -0.015653 -1196070.000000 0 0 1
-28.868150 -17.516061 29.733700 44.991948 0.545376 0.848823 0.087119 -0.023145 120480.000000 0 0 1
-27.462330 -16.941661 30.022080 44.074082 0.552757 0.821433 0.089762 -0.030094 -71714.400000 0 0 1
-27.585910 -15.652461 30.634950 44.096282 0.516110 0.802754 0.113620 -0.034140 -151736.000000 0 0 1
-26.589810 -14.767261 30.187870 42.853208 0.506959 0.789151 0.110785 -0.030220 -218529.000000 0 0 1
-26.463030 -13.423661 30.962700 42.885608 0.469439 0.764132 0.122955 -0.032561 60317.700000 0 0 1
-25.719980 -13.570361 32.173672 43.368389 0.485498 0.734943 0.131874 -0.035133 322099.000000 0 0 1
-25.262430 -12.278161 32.611566 43.040188 0.452405 0.711014 0.115547 -0.027989 438645.000000 0 0 1
-24.379090 -12.342061 -33.887832 43.532190 0.468640 2.462996 0.130546 -0.028382 1383170.000000 0 0 1
-23.092790 -13.007861 33.822770 42.970468 0.512987 0.664676 0.081127 -0.017213 922354.000000 0 0 1
-23.040790 -14.409461 -33.724652 43.311230 0.558879 2.463321 0.099146 -0.024705 -66174.900000 0 0 1
-23.102390 -14.817361 -32.246162 42.344888 0.570290 2.436440 0.104238 -0.023828 -12080.500000 0 0 1
-21.884090 -14.483861 -31.599982 41.076203 0.584657 2.448543 0.066744 -0.012462 120788.000000 0 0 1
-21.865690 -15.145961 -30.343752 40.351602 0.605797 2.421863 0.079543 -0.012539 -12650.800000 0 0 1
-20.499890 -15.101561 -29.632862 39.069286 0.634912 2.431758 0.075675 -0.013845 -103251.000000 0 0 1
-20.212890 -13.972461 -28.862612 37.905684 0.604839 2.436316 0.078357 -0.012864 -90573.400000 0 0 1
-20.761290 -13.932961 -27.571952 37.220573 0.591068 2.405015 0.083215 -0.015874 -156188.000000 0 0 1
-20.121590 -12.851761 -26.675512 35.799847 0.568394 2.411525 0.094738 -0.012674 462747.000000 0 0 1
-18.746990 -12.986161 -26.328092 34.831859 0.605814 2.427767 0.077768 -0.022584 163153.000000 0 0 1
-18.361990 -11.763961 -25.732222 33.729818 0.569788 2.438571 0.096554 -0.029863 -261650.000000 0 0 1
-16.995790 -11.890061 -25.065842 32.535009 0.610450 2.450307 0.101891 -0.038947 -1230880.000000 0 0 1
-16.964390 -12.795261 -23.987802 32.045652 0.646211 2.416670 0.102676 -0.042182 -295220.000000 0 0 1
-15.737990 -12.948661 -23.322302 30.972276 0.688468 2.423414 0.113491 -0.045677 -451188.000000 0 0 1
-14.631390 -13.666461 -24.125502 31.351069 0.751312 2.448897 0.071656 -0.033852 -934098.000000 0 0 1
-13.873790 -12.719261 -24.870602 31.189877 0.742011 2.493760 0.064145 -0.036498 52625.000000 0 0 1
-13.352190 -13.383161 -26.022262 32.164391 0.786557 2.513312 0.061474 -0.032148 15825.200000 0 0 1
-12.563590 -12.466061 -27.007122 32.289798 0.781502 2.561475 0.060848 -0.024335 292993.000000 0 0 1
-13.316690 -11.586261 -27.780672 32.914151 0.716023 2.575558 0.073051 -0.030561 -436867.000000 0 0 1
-12.392290 -10.890261 -28.557862 32.980571 0.720974 2.617742 0.073090 -0.036169 -134629.000000 0 0 1
-13.090490 -9.940361 -29.548992 33.812935 0.649463 2.633957 0.045843 -0.025862 -212793.000000 0 0 1
-12.263890 -9.200461 -30.401152 34.048223 0.643634 2.674509 0.046710 -0.018837 -164415.000000 0 0 1
-11.675690 -9.948161 -31.481452 35.019558 0.705677 2.688203 0.062277 -0.015240 53022.900000 0 0 1
-10.969290 -8.927161 -32.450172 35.398208 0.683118 2.730583 0.052678 -0.017553 -1058320.000000 0 0 1
-9.688790 -8.687961 -32.022832 34.566097 0.730990 2.755595 0.038928 -0.020109 -1514340.000000 0 0 1
-9.277590 -7.416961 -32.525872 34.626829 0.674405 2.791456 0.033794 -0.017837 25919.900000 0 0 1
-7.759390 -7.196661 -32.300182 33.989730 0.747790 2.824970 0.042050 -0.015684 252621.000000 0 0 1
-7.260690 -7.203761 -30.932492 32.579607 0.781462 2.822254 0.028954 -0.014795 -68394.400000 0 0 1
-7.585990 -6.141661 -30.021382 31.568189 0.680571 2.827254 0.033596 -0.013933 -791956.000000 0 0 1
-7.091890 -4.775661 -30.367282 31.547957 0.592648 2.867146 0.045220 -0.019887 -215918.000000 0 0 1
-5.707990 -4.613361 -30.139082 31.019808 0.679738 2.902730 0.059674 -0.020311 -109317.000000 0 0 1
-5.186590 -3.331561 -30.425832 31.044021 0.570972 2.941694 0.077553 -0.039202 -275333.000000 0 0 1
-3.684190 -3.257861 -30.171372 30.569569 0.724063 2.980011 0.084412 -0.030798 -479845.000000 0 0 1
-2.788490 -3.866561 -31.130222 31.493121 0.945996 2.989637 0.095936 -0.033009 364491.000000 0 0 1
-1.424890 -3.700661 -30.816472 31.070567 1.203256 3.013615 0.115441 -0.031650 3533.910000 0 0 1
-0.854890 -2.371261 -31.278142 31.379545 1.224779 3.061178 0.113752 -0.037042 320622.000000 0 0 1
0.602610 -2.338861 -31.259892 31.353058 -1.318630 3.064482 0.111456 -0.026130 1684350.000000 0 0 1
1.136410 -1.015661 -31.636202 31.672894 -0.729348 3.093453 0.075665 -0.027386 230470.000000 0 0 1
1.202210 -0.000061 -30.458802 30.482518 -0.000050 3.102143 0.076116 -0.027258 29284.700000 0 0 1
-0.022090 0.319339 -29.816122 29.817840 -1.501734 3.130857 0.092085 -0.025799 -156088.000000 0 0 1
0.220910 1.267739 -28.860692 28.889366 1.398273 3.097034 0.104947 -0.036788 -362350.000000 0 0 1
-0.971690 1.407339 -27.951352 28.003622 -0.966512 3.080484 0.095767 -0.027638 234992.000000 0 0 1
-2.107190 2.186839 -28.375092 28.537140 -0.803945 3.034973 0.090374 -0.044520 544681.000000 0 0 1
-1.940790 3.594939 -28.392682 28.685094 -1.075766 2.998685 0.103872 -0.038972 -775951.000000 0 0 1
-3.132990 4.258439 -29.058082 29.535098 -0.936502 2.961623 0.121144 -0.042033 -368666.000000 0 0 1
-3.299090 4.246939 -30.444992 30.916306 -0.910353 2.966757 0.134013 -0.046246 -118377.000000 0 0 1
-4.393490 4.988739 -30.931692 31.637949 -0.848758 2.929901 0.136161 -0.034462 -372901.000000 0 0 1
-4.081190 5.670139 -32.288162 33.035314 -0.946926 2.928508 0.140386 -0.028793 -88202.200000 0 0 1
-3.979690 4.811039 -33.401122 33.979684 -0.879689 2.956794 0.158832 -0.040189 142866.000000 0 0 1
-2.918290 3.881539 -33.417682 33.768687 -0.926120 2.997284 0.159821 -0.051353 -576285.000000 0 0 1
-2.610790 3.294039 33.028400 33.294776 -0.900596 0.126580 0.133790 -0.050777 -248990.000000 0 0 1
-3.634790 2.463739 32.493476 32.788835 -0.595686 0.134324 0.134039 -0.055502 161313.000000 0 0 1
-3.342490 1.934639 31.203790 31.441876 -0.524687 0.123141 0.133366 -0.048367 156839.000000 0 0 1
-2.950490 2.892939 30.011020 30.294155 -0.775550 0.136827 0.121377 -0.047141 439655.000000 0 0 1
-4.071890 3.706239 29.695310 30.201456 -0.738423 0.183336 0.102139 -0.050407 343052.000000 0 0 1
-3.781990 4.562839 28.634290 29.241161 -0.878699 0.204089 0.097693 -0.051037 1179630.000000 0 0 1
-5.052590 5.487939 28.369990 29.334322 -0.826677 0.257121 0.090719 -0.035719 1172510.000000 0 0 1
-5.006290 6.219539 27.170890 28.319655 -0.893057 0.285802 0.083445 -0.023805 -88638.600000 0 0 1
-6.257090 6.859039 26.961290 28.515062 -0.831260 0.331637 0.074330 -0.020495 -190662.000000 0 0 1
-6.278890 7.739539 25.725060 27.588107 -0.889219 0.369608 0.080253 -0.023043 72450.500000 0 0 1
-5.556690 8.963339 25.870330 27.937291 -1.015847 0.387083 0.084083 -0.016588 60032.600000 0 0 1
-5.335590 9.610739 24.652330 26.992077 -1.063993 0.419440 0.073301 -0.018155 43543.100000 0 0 1
-4.621090 10.965739 24.828860 27.533147 -1.171969 0.446924 0.079316 -0.017650 -522772.000000 0 0 1
-4.532690 11.649339 23.551610 26.663284 -1.199727 0.487947 0.074191 -0.022360 310601.000000 0 0 1
-3.883990 12.930839 23.611220 27.198928 -1.279003 0.519447 0.059158 -0.016642 -1707580.000000 0 0 1
-2.398190 12.985339 23.760900 27.183648 -1.388170 0.507241 0.038836 -0.007044 -1691170.000000 0 0 1
-1.742390 12.563639 24.956550 27.994827 -1.432990 0.470217 0.051118 -0.001551 79996.100000 0 0 1
-2.037390 13.292039 26.151650 29.406429 -1.418701 0.474946 0.062105 -0.005922 -1105200.000000 0 0 1
-1.120990 12.840239 27.263690 30.156876 -1.483714 0.441616 0.070438 -0.009598 1069460.000000 0 0 1
0.301710 13.059039 27.186640 30.161945 1.547697 0.447907 0.065787 -0.009551 762725.000000 0 0 1
0.997610 12.546739 28.311100 30.982806 1.491452 0.418331 0.069602 -0.016894 -424903.000000 0 0 1
2.503310 12.645439 28.132930 30.945686 1.375362 0.429662 0.068597 -0.010259 -524548.000000 0 0 1
2.906010 13.995439 28.111980 31.537290 1.366066 0.470397 0.065158 -0.013824 -1517270.000000 0 0 1
4.268410 14.086939 28.073930 31.698687 1.276585 0.482905 0.075189 -0.013399 -1326610.000000 0 0 1
4.915710 15.430239 28.369150 32.665963 1.262385 0.518705 0.071736 -0.018435 -223514.000000 0 0 1
4.643410 15.807539 29.725870 33.986275 1.285086 0.506097 0.076162 -0.012579 971535.000000 0 0 1
3.551210 16.751339 29.936730 34.488060 1.361894 0.519572 0.060887 -0.010838 755891.000000 0 0 1
3.726810 18.189839 29.341450 34.722904 1.368709 0.564199 0.059409 -0.013439 76698.900000 0 0 1
4.782410 18.928739 29.943230 35.745848 1.323322 0.577793 0.083214 -0.012092 215056.000000 0 0 1
5.183410 20.042239 29.122500 35.730647 1.317717 0.617969 0.067790 -0.010807 -97739.700000 0 0 1
6.360110 20.834339 29.704360 36.835712 1.274511 0.632755 0.068777 -0.006156 -361491.000000 0 0 1
6.085010 21.591039 30.916320 38.197110 1.296091 0.627685 0.067262 -0.018824 155730.000000 0 0 1
7.152410 22.437239 31.344670 39.205548 1.262206 0.644341 0.064904 -0.018098 226057.000000 0 0 1
7.350710 23.738739 30.491510 39.335644 1.270510 0.683824 0.074633 -0.012046 -154202.000000 0 0 1
7.804710 23.536039 29.199900 38.307869 1.250600 0.704025 0.058886 -0.014286 73151.800000 0 0 1
8.069710 24.805039 28.623500 38.726153 1.256270 0.739025 0.061095 -0.018376 -112781.000000 0 0 1
8.682310 24.628439 27.230070 37.728229 1.231868 0.764480 0.084863 -0.029762 -257092.000000 0 0 1
7.806510 24.207039 26.219100 36.528942 1.258837 0.770213 0.077756 -0.029433 265165.000000 0 0 1
8.464810 24.252439 24.957000 35.814602 1.234987 0.799816 0.095644 -0.038002 -82109.600000 0 0 1
28.807102 2.879639 6.721998 29.720813 0.099632 1.342651 0.185359 -0.013841 6998.770000 0 0 1
29.547902 3.849539 7.414098 30.706129 0.129552 1.326933 0.175000 -0.024304 129428.000000 0 0 1
29.322202 3.747939 8.797498 30.842091 0.127130 1.281536 0.173237 -0.013478 -93679.900000 0 0 1
29.942732 4.905239 9.586498 31.820270 0.162378 1.264772 0.165085 -0.012651 -35528.800000 0 0 1
29.387502 6.213439 9.453398 31.489663 0.208363 1.265887 0.157522 -0.007129 -199393.000000 0 0 1
30.114672 7.018839 8.562398 32.085390 0.228983 1.300660 0.166620 -0.027556 -265865.000000 0 0 1
29.500202 8.405939 8.254798 31.765759 0.277588 1.307914 0.189208 -0.032243 -553859.000000 0 0 1
28.407202 8.412639 7.415298 30.540601 0.287916 1.325544 0.175508 -0.033502 -579346.000000 0 0 1
28.517302 9.321839 6.450998 30.687923 0.315935 1.359004 0.190577 -0.065870 -272912.000000 0 0 1
27.240302 9.426039 5.590698 29.362224 0.333136 1.379222 0.181159 -0.053615 -535035.000000 0 0 1
26.137102 10.012339 6.179598 28.663260 0.365827 1.353497 0.174576 -0.043813 372717.000000 0 0 1
25.031102 10.000439 5.226598 27.456916 0.380093 1.379271 0.189060 -0.045311 1138620.000000 0 0 1
23.719302 10.647139 5.749498 26.627497 0.421923 1.353159 0.116851 -0.035952 186466.000000 0 0 1
23.777902 12.060839 5.800498 27.285496 0.469414 1.356576 0.110704 -0.029724 597157.000000 0 0 1
22.562802 12.610539 6.325198 26.610410 0.509657 1.330803 0.100028 -0.018062 481436.000000 0 0 1
22.617902 14.134939 6.342898 27.415295 0.558560 1.337317 0.091819 -0.005107 -94830.300000 0 0 1
22.512002 14.764339 5.105798 27.401554 0.580472 1.383368 0.089762 -0.018833 340739.000000 0 0 1
22.602502 16.178039 5.229398 28.283364 0.621227 1.384833 0.114759 -0.014718 -337396.000000 0 0 1
22.048702 16.738739 3.912198 27.957753 0.649345 1.430403 0.114140 -0.032155 -918573.000000 0 0 1
20.663402 16.744539 3.887898 26.878831 0.681019 1.425642 0.113583 -0.018149 -569180.000000 0 0 1
20.226902 17.621239 2.845798 26.976550 0.716661 1.465108 0.125723 -0.022573 45596.600000 0 0 1
18.719502 17.542139 2.510898 25.776948 0.752941 1.473233 0.097328 -0.015106 250771.000000 0 0 1
17.865102 17.929539 3.586898 25.563570 0.787198 1.430019 0.096231 -0.022164 782493.000000 0 0 1
16.510802 18.026239 3.164998 24.648917 0.829249 1.442038 0.070705 -0.028426 343589.000000 0 1 0
15.676102 19.158539 3.895298 25.059193 0.885038 1.414720 0.101172 -0.033726 688117.000000 0 0 1
14.286902 18.852239 3.782598 23.954761 0.922299 1.412227 0.107107 -0.040115 310200.000000 0 1 0
13.491602 19.988639 3.873598 24.424860 0.977072 1.411531 0.078974 -0.035301 -185430.000000 0 1 0
11.982302 19.678839 3.761598 23.344848 1.023864 1.408959 0.052084 -0.035423 122972.000000 0 1 0
11.450602 19.182439 4.983198 22.889180 1.032636 1.351329 0.038708 -0.028447 -87435.900000 0 1 0
10.110402 18.777039 4.828198 21.865703 1.076868 1.348150 0.026631 -0.032492 158064.000000 0 1 0
9.405102 18.298739 6.136498 21.469896 1.096031 1.280936 0.026981 -0.022139 -447345.000000 0 1 0
9.190902 19.277639 7.152298 22.522332 1.125909 1.247636 0.043743 -0.031814 -184740.000000 0 1 0
8.651002 18.712039 8.274598 22.213717 1.137742 1.189095 0.052263 -0.023568 -786798.000000 0 1 0
7.755002 19.677439 9.068598 23.012631 1.195381 1.165740 0.054261 -0.021414 18699.500000 0 1 0
6.516002 19.927139 8.439998 22.600503 1.254764 1.188079 0.048588 -0.023377 -259799.000000 0 1 0
6.477602 21.027339 7.603498 23.279208 1.271965 1.238069 0.051755 -0.024959 -856272.000000 0 1 0
5.209902 21.142039 6.768798 22.802315 1.329186 1.269407 0.034187 -0.015811 590579.000000 0 1 0
3.925602 21.494139 7.321898 23.043840 1.390151 1.247454 0.029648 -0.007576 858820.000000 0 1 0
3.764502 22.745539 7.941498 24.384389 1.406778 1.239066 0.042225 -0.013446 -576111.000000 0 1 0
3.877002 23.965939 7.002398 25.267192 1.410414 1.289986 0.052971 -0.019651 137895.000000 0 0 1
2.875502 23.967139 5.996698 24.872730 1.451390 1.327302 0.053983 -0.015254 242459.000000 0 1 0
3.040802 25.121939 5.228398 25.839785 1.450341 1.367051 0.064188 -0.015213 -44087.400000 0 0 1
1.757002 25.424739 4.436998 25.868734 1.501800 1.398424 0.062990 -0.014563 -25102.900000 0 0 1
0.617802 25.741439 5.233498 26.275329 1.546801 1.370276 0.084824 -0.022243 -506558.000000 0 0 1
-0.410298 26.058839 4.351098 26.422784 -1.555053 1.405371 0.090247 -0.021345 -1134270.000000 0 0 1
-1.627998 26.462739 5.145098 27.007388 -1.509353 1.379118 0.094203 -0.025305 -794182.000000 0 0 1
-2.709498 26.860939 4.351598 27.345710 -1.470265 1.410984 0.119480 -0.025250 -858363.000000 0 0 1
-3.782698 27.323039 5.091798 28.049665 -1.433227 1.388256 0.111937 -0.024921 -568496.000000 0 0 1
-4.970898 27.709239 4.192798 28.462103 -1.393290 1.422947 0.121724 -0.027217 -414493.000000 0 0 1
-4.620598 28.817639 3.395198 29.382540 -1.411810 1.454986 0.119149 -0.023617 -461993.000000 0 0 1
-5.457398 29.252739 2.351398 29.850210 -1.386356 1.491941 0.136349 -0.036411 -589162.000000 0 0 1
-4.832898 30.124139 1.216598 30.533601 -1.411719 1.530941 0.126510 -0.020740 67253.900000 0 0 1
-4.479398 31.452539 1.646398 31.812543 -1.429330 1.519020 0.127633 -0.018002 626676.000000 0 0 1
-3.290198 31.633539 2.434498 31.897226 -1.467159 1.494399 0.125483 -0.027258 589407.000000 0 0 1
-2.608198 33.061439 2.273498 33.241996 -1.492070 1.502351 0.134288 -0.026439 -572748.000000 0 0 1
-2.062998 33.246639 0.981698 33.325047 -1.508824 1.541334 0.113403 -0.014070 -17418.200000 0 0 1
-1.336698 -33.350644 0.895198 33.389423 1.530738 1.543982 0.116482 -0.021222 -42593.200000 0 0 1
0.096902 -33.411044 1.463998 33.443243 -1.567896 1.527007 0.096780 -0.017964 -723207.000000 0 0 1
0.169702 -33.403844 2.901798 33.530076 -1.565716 1.484145 0.077926 -0.020915 682828.000000 0 0 1
1.479402 -33.705244 3.423198 33.910918 -1.526932 1.469677 0.058593 -0.016962 830441.000000 0 0 1
1.477802 -33.739144 5.021398 34.142761 -1.527023 1.423190 0.047880 -0.016012 381626.000000 0 0 1
0.517202 33.150239 5.571798 33.619203 1.555196 1.404295 0.083153 -0.026846 306720.000000 0 0 1
0.059402 33.463639 6.915698 34.170829 1.569021 1.367003 0.114185 -0.030091 -135681.000000 0 0 1
1.098002 33.484339 8.033998 34.452166 1.538017 1.335437 0.088997 -0.022079 -395223.000000 0 0 1
1.628302 32.161739 8.218198 33.235036 1.520211 1.320929 0.085790 -0.022038 13740.700000 0 0 1
2.398502 32.195039 9.393898 33.623187 1.496435 1.287640 0.096255 -0.024503 -351787.000000 0 0 1
3.009702 30.775339 9.790598 32.435099 1.473310 1.264162 0.096404 -0.026524 109200.000000 0 0 1
2.143202 29.846339 10.376598 31.671298 1.499111 1.236998 0.118810 -0.026983 268058.000000 0 0 1
2.758302 28.540039 10.258598 30.452930 1.474449 1.227209 0.103613 -0.034041 302007.000000 0 0 1
2.259802 27.587339 11.339698 29.912485 1.489064 1.181977 0.108314 -0.039232 -329201.000000 0 0 1
2.542902 27.986239 12.704398 30.839872 1.480183 1.146206 0.117427 -0.032377 -7811.050000 0 0 1
2.295202 27.016339 13.674798 30.366934 1.486044 1.103674 0.117286 -0.023086 -424737.000000 0 0 1
0.816802 26.879339 14.097098 30.362711 1.540418 1.087964 0.092745 -0.029907 -274243.000000 0 0 1
0.185702 27.969739 14.778298 31.634458 1.564157 1.084722 0.101705 -0.037657 169857.000000 0 0 1
-0.222398 29.001139 13.906398 32.163698 -1.563128 1.123684 0.116891 -0.036518 -549857.000000 0 0 1
-0.912398 30.067539 14.781698 33.516981 -1.540461 1.114060 0.095774 -0.030996 547919.000000 0 0 1
-2.170598 29.682439 15.335798 33.480523 -1.497799 1.094995 0.083331 -0.027665 373067.000000 0 0 1
-2.769598 30.742539 16.073498 34.801318 -1.480949 1.090700 0.073120 -0.024374 23139.800000 0 0 1
-4.126898 30.313139 16.679998 34.844513 -1.435486 1.071625 0.064885 -0.022495 442086.000000 0 0 1
-5.169198 30.033139 15.749498 34.303889 -1.400350 1.093795 0.069705 -0.022514 409741.000000 0 0 1
-6.294898 29.510739 16.433098 34.359223 -1.360637 1.072109 0.063707 -0.026233 -299155.000000 0 0 1
-7.276498 28.792739 15.500698 33.499864 -1.323259 1.089747 0.060503 -0.034225 191409.000000 0 0 1
-8.504398 28.392839 16.109898 33.734358 -1.279774 1.072930 0.059555 -0.036332 996547.000000 0 0 1
-9.456898 27.943039 15.111698 33.145283 -1.244461 1.097387 0.046835 -0.030000 407119.000000 0 0 1
-10.829198 27.561839 15.696698 33.515860 -1.196421 1.083389 0.043051 -0.024676 -210565.000000 0 0 1
-11.706298 28.543039 16.193698 34.842192 -1.181590 1.087418 0.041078 -0.030214 399640.000000 0 0 1
-11.463798 28.906939 17.531098 35.698308 -1.193245 1.057455 0.052507 -0.035313 -366199.000000 0 0 1
-12.355498 30.097239 17.987298 37.175867 -1.181255 1.065755 0.053885 -0.031608 -306677.000000 0 0 1
-13.715698 29.759539 18.122898 37.445828 -1.138928 1.065603 0.060745 -0.019732 32351.000000 0 0 1
-14.465598 30.910939 18.435498 38.789268 -1.133094 1.075522 0.071736 -0.013172 -10868.300000 0 0 1
-15.514698 30.673439 19.538998 39.539072 -1.102518 1.053917 0.078132 -0.017925 -115734.000000 0 0 1
-14.975398 30.661239 20.849798 39.988601 -1.116460 1.022313 0.071737 -0.018077 -97145.400000 0 0 1
-15.941798 30.477539 21.861198 40.754550 -1.088866 1.004617 0.066456 -0.013825 138184.000000 0 0 1
-15.275398 30.464139 23.273898 41.268340 -1.106012 0.971617 0.060029 -0.008888 438278.000000 0 0 1
-14.262998 29.529139 23.694998 40.458079 -1.120829 0.945092 0.057313 -0.010597 781638.000000 0 0 1
-14.035598 29.385739 25.075498 41.101099 -1.125202 0.914618 0.075739 -0.011040 -36469.400000 0 0 1
-13.481298 30.577539 25.909898 42.285389 -1.155545 0.911275 0.075439 -0.005288 -522374.000000 0 0 1
-14.442398 31.584039 25.960698 43.360031 -1.141914 0.928889 0.068201 -0.004731 -39690.500000 0 0 1
-14.013498 32.803739 26.602098 44.498709 -1.167070 0.930021 0.064098 -0.006025 -149881.000000 0 0 1
-15.127998 33.719439 27.204198 45.890362 -1.149071 0.936255 0.076583 -0.007173 296422.000000 0 0 1
-15.736398 33.199239 28.445398 46.464658 -1.128165 0.911964 0.047603 -0.011893 444671.000000 0 0 1
-14.957698 33.266039 29.628698 46.991721 -1.148243 0.888588 0.075074 -0.008617 -259911.000000 0 0 1
-15.563898 32.432439 30.797798 47.356123 -1.123368 0.862758 0.061147 -0.013045 873795.000000 0 0 1
-16.705098 33.104939 31.404498 48.592590 -1.103467 0.868095 0.060840 -0.011741 646090.000000 0 0 1
-17.243098 32.297639 32.449398 48.922647 -1.080413 0.845604 0.056721 -0.007986 580911.000000 0 0 1
-18.764698 32.582339 32.639098 49.789893 -1.048274 0.855903 0.059430 -0.008769 417650.000000 0 0 1
-19.051798 -33.867044 33.175898 51.093912 1.058371 0.864117 0.070474 -0.013324 -453625.000000 0 0 1
-20.443898 -33.768244 33.260098 51.618615 1.026403 0.870632 0.080590 -0.020554 -443067.000000 0 0 1
-21.009998 -32.364344 33.440798 51.060334 0.995004 0.856710 0.089101 -0.012444 -77959.400000 0 0 1
-20.659698 -31.634344 -33.223753 50.312748 0.992260 2.292074 0.080990 -0.011573 159578.000000 0 0 1
-21.629198 -31.807244 -32.194053 50.159545 0.973614 2.267683 0.063596 -0.010710 151730.000000 0 0 1
-21.152398 -31.159244 -30.913453 48.723341 0.974408 2.258118 0.070348 -0.012816 -175832.000000 0 0 1
-21.225198 -29.738444 -31.088753 47.972853 0.950915 2.275816 0.090473 -0.011539 -39949.100000 0 0 1
-20.776298 -29.009544 -29.981653 46.605876 0.949288 2.269600 0.083259 -0.012134 -53737.800000 0 0 1
-20.971298 -27.529444 -30.164353 45.908102 0.919800 2.287708 0.085039 -0.021965 350474.000000 0 0 1
-22.327798 -27.243644 -29.856653 46.175387 0.884242 2.273905 0.071254 -0.015177 111521.000000 0 0 1
-22.536698 -25.842744 -29.828953 45.447955 0.853628 2.286743 0.072507 -0.014836 -106856.000000 0 0 1
-23.806798 -25.496644 -29.041453 45.389960 0.819659 2.265062 0.081661 -0.016677 -251142.000000 0 0 1
-23.765498 -25.659244 -27.639953 44.577603 0.823695 2.239592 0.070509 -0.020649 98482.500000 0 0 1
-23.054898 -24.666744 -26.902353 43.170744 0.819161 2.243575 0.081623 -0.031936 -80947.800000 0 0 1
-22.999098 -25.063044 -25.363553 42.431409 0.828315 2.211493 0.078124 -0.016760 -1152490.000000 0 0 1
-24.187098 -24.860944 -24.732653 42.600309 0.799136 2.190230 0.072360 -0.020833 -1212990.000000 0 0 1
-24.172498 -25.268644 -23.362753 42.055109 0.807565 2.159793 0.071205 -0.013166 -566826.000000 0 0 1
-25.536398 -25.107544 -22.636053 42.366110 0.776930 2.134471 0.068661 -0.012348 758899.000000 0 0 1
-26.698798 -25.813044 -23.053353 43.710366 0.768532 2.126347 0.047189 -0.012843 280725.000000 0 0 1
-26.539398 -27.200244 -22.941253 44.390246 0.797695 2.113915 0.049617 -0.000755 -1040550.000000 0 0 1
-27.874098 -27.963744 -22.794353 45.590775 0.787004 2.094369 0.039782 -0.006912 -6612.500000 0 0 1
-28.574298 -27.630544 -21.649453 45.261863 0.768608 2.069532 0.055245 -0.001239 406570.000000 0 0 1
-29.705398 -26.772944 -21.979253 45.632102 0.733523 2.073347 0.057775 -0.001316 577438.000000 0 0 1
-30.443098 -26.213844 -20.742753 45.212936 0.710890 2.047417 0.063180 0.007898 -359525.000000 0 0 1
-31.182298 -27.184944 -20.097153 45.991873 0.717019 2.023026 0.075649 0.007146 -161496.000000 0 0 1
-31.742998 -26.697144 -18.905953 45.582787 0.699270 1.998476 0.086420 0.008315 -1042680.000000 0 0 1
-32.540498 -27.676344 -18.107453 46.397671 0.704796 1.971717 0.070195 0.001293 50151.200000 0 0 1
-33.800898 -28.102744 -18.670953 47.758448 0.693608 1.972455 0.066709 0.008855 1969150.000000 0 0 1
-34.917298 -27.174344 -18.613353 48.001245 0.661337 1.969005 0.049336 0.011154 496302.000000 0 0 1
-35.488798 -26.713844 -17.280453 47.662336 0.645253 1.941810 0.048524 0.017943 -1002910.000000 0 0 1
-34.606398 -25.825344 -16.661253 46.283350 0.641103 1.939047 0.047537 0.021694 5682.990000 0 0 1
-35.081098 -25.188544 -15.499353 45.884377 0.622711 1.915366 0.042771 0.020077 -154112.000000 0 0 1
-34.884798 -25.984144 -14.162753 45.746130 0.640201 1.885563 0.063405 0.018090 377613.000000 0 0 1
-35.761898 -27.095644 -13.983953 46.996151 0.648391 1.872927 0.074247 0.012750 563420.000000 0 0 1
-35.229998 -27.785844 -12.864553 46.676574 0.667812 1.850021 0.045119 0.009711 251345.000000 0 0 1
-35.983898 -29.085244 -12.457853 47.916494 0.679772 1.833809 0.056031 0.003801 77267.000000 0 0 1
-35.656698 -30.051944 -13.431953 48.527691 0.700307 1.851248 0.049956 0.004092 320009.000000 0 0 1
-35.976698 -31.374744 -13.055653 49.488861 0.717177 1.837766 0.034771 -0.001129 -428937.000000 0 0 1
-35.700698 -32.563944 -14.008253 50.310848 0.739481 1.852960 0.036223 0.009142 -1430810.000000 0 0 1
-34.335198 -32.720444 -13.931553 49.432999 0.761322 1.856494 0.044307 -0.000731 -967206.000000 0 0 1
-33.908198 -33.574744 -14.997153 50.019435 0.780457 1.875307 0.078521 -0.018959 -217161.000000 0 0 1
-32.417398 -33.510944 -15.349853 49.086546 0.801984 1.888841 0.080491 -0.015162 116378.000000 0 0 1
-31.978898 33.407239 -16.436553 49.080076 -0.807239 1.912288 0.098625 -0.022174 -1037180.000000 0 0 1
-30.611598 33.487239 -16.614653 48.316786 -0.830231 1.921831 0.100834 -0.025319 -1334400.000000 0 0 1
9.484310 19.947839 -9.382502 23.997912 1.126976 1.972483 0.057187 -0.019210 561834.000000 0 1 0
8.056610 19.728939 -9.430202 23.303835 1.183100 1.987407 0.049895 -0.025326 1029370.000000 0 1 0
7.349210 20.021239 -10.606802 23.819428 1.218995 2.032306 0.058451 -0.021774 191112.000000 0 1 0
7.486110 18.874439 -11.621402 23.395369 1.193201 2.090634 0.050265 -0.012298 -658276.000000 0 1 0
8.791710 18.658739 -12.069602 23.898076 1.130466 2.100230 0.074727 -0.012812 -566318.000000 0 1 0
8.790310 17.407239 -12.600702 23.217649 1.103173 2.144469 0.075760 -0.024528 -3967.950000 0 1 0
10.140010 16.859439 -13.125502 23.650355 1.029316 2.159137 0.095175 -0.028340 158183.000000 0 1 0
10.137410 15.571439 -13.680902 23.073879 0.993700 2.205473 0.109454 -0.043052 -169608.000000 0 1 0
11.391510 15.352239 -14.290102 23.867651 0.932429 2.212702 0.148981 -0.049610 -53836.900000 0 1 0
11.450610 14.212739 -15.429702 23.899668 0.892615 2.272609 0.134610 -0.039969 -159181.000000 0 1 0
11.332510 12.863239 -14.993102 22.774587 0.848578 2.289389 0.138864 -0.033828 769873.000000 0 1 0
12.472310 12.351139 -14.286002 22.631814 0.780517 2.253941 0.162694 -0.040826 451796.000000 0 1 0
13.627610 11.674239 -15.046202 23.417682 0.708348 2.268572 0.194201 -0.047415 351841.000000 0 1 0
14.341610 12.542939 -15.952302 24.849206 0.718594 2.267854 0.174551 -0.040487 527827.000000 0 1 0
15.313010 11.712039 -16.614602 25.450052 0.652933 2.282113 0.182694 -0.047585 420802.000000 0 0 1
15.996910 12.542539 -17.751702 26.987763 0.664946 2.288649 0.138136 -0.034521 276268.000000 0 0 1
16.958210 13.497539 -17.302602 27.733454 0.672254 2.244506 0.109492 -0.027849 389860.000000 0 0 1
17.791910 13.980439 -18.360202 29.139351 0.666007 2.252456 0.079932 -0.014669 419633.000000 0 0 1
18.928010 14.935239 -17.899402 30.028645 0.668031 2.209403 0.076165 -0.011088 -130696.000000 0 0 1
18.579310 16.203339 -17.429202 30.191324 0.717195 2.186204 0.077356 -0.017192 -33025.500000 0 0 1
17.900110 17.093139 -18.286602 30.773189 0.762341 2.207114 0.069480 -0.005229 -141305.000000 0 0 1
17.637910 18.434439 -17.660902 31.029533 0.807476 2.176285 0.065170 0.005939 672891.000000 0 0 1
18.769510 19.318239 -17.571102 32.159486 0.799804 2.148825 0.081949 -0.000719 741964.000000 0 0 1
18.285710 20.599839 -17.167602 32.456850 0.844839 2.128143 0.053964 0.005636 124754.000000 0 0 1
19.366410 21.681239 -17.371002 33.865701 0.841732 2.109400 0.066082 -0.003109 1876760.000000 0 0 1
20.587410 21.713139 -16.553202 34.195181 0.812005 2.076108 0.091283 -0.009552 1132140.000000 0 0 1
20.344810 21.836439 -15.172802 33.480671 0.820746 2.041127 0.084573 -0.008228 -733216.000000 0 0 1
21.383810 22.762039 -14.541102 34.450275 0.816608 2.006545 0.095198 -0.015269 1133900.000000 0 0 1
22.705610 22.157239 -14.552202 34.903504 0.773175 2.000858 0.109398 -0.023799 791733.000000 0 0 1
23.614310 22.941439 -13.785702 35.693009 0.770946 1.967337 0.085393 -0.024436 -457921.000000 0 0 1
25.043310 22.355139 -13.836202 36.309229 0.728745 1.961745 0.069410 -0.014247 429470.000000 0 0 1
25.747910 22.476139 -15.102502 37.365991 0.717657 1.986876 0.093642 -0.009615 356202.000000 0 0 1
26.098210 23.833839 -15.391102 38.549377 0.740080 1.981502 0.058770 -0.008456 -797229.000000 0 0 1
26.492010 24.025639 -16.858502 39.538172 0.736615 2.011289 0.056459 -0.011742 -370587.000000 0 0 1
27.537610 23.196639 -17.302502 39.947223 0.700043 2.018763 0.065778 -0.013792 -26279.000000 0 0 1
27.582010 23.200239 -18.716402 40.611847 0.699326 2.049761 0.053511 -0.005756 -450038.000000 0 0 1
28.347110 22.063939 -19.459702 40.854083 0.661399 2.067263 0.050129 -0.007015 50271.400000 0 0 1
29.634910 22.535439 -19.795002 42.165342 0.650146 2.059477 0.046481 -0.004790 -351471.000000 0 0 1
30.251110 21.667439 -20.753002 42.606275 0.621551 2.079549 0.052644 -0.004136 -822248.000000 0 0 1
31.679310 22.100039 -20.967702 43.950369 0.609125 2.068122 0.079921 -0.008953 -1335160.000000 0 0 1
31.871710 23.313639 -21.685202 45.050857 0.631545 2.072990 0.058903 -0.006842 438408.000000 0 0 1
33.251710 23.677539 -21.729402 46.243584 0.618781 2.059963 0.064589 0.003883 540370.000000 0 0 1
33.524810 25.145539 -22.135402 47.393956 0.643538 2.056749 0.069611 0.000650 -267413.000000 0 0 1
33.583110 25.418639 -23.523802 48.242116 0.647895 2.080157 0.065800 0.001563 941396.000000 0 0 1
32.287810 25.304639 -24.183202 47.619898 0.664736 2.103470 0.062660 -0.000490 1085950.000000 0 0 1
32.369310 25.704139 -25.701382 48.672745 0.671127 2.127093 0.079016 -0.013954 -290853.000000 0 0 1
32.175910 27.101739 -26.061382 49.487262 0.700006 2.125425 0.093186 -0.021028 -333936.000000 0 0 1
30.852510 27.470639 -26.362742 49.005179 0.727478 2.138810 0.079035 -0.010634 -186260.000000 0 0 1
30.462010 27.061639 -27.801032 49.327110 0.726354 2.169540 0.093863 -0.007372 -336504.000000 0 0 1
30.144610 25.647939 -27.871522 48.408016 0.704976 2.184333 0.086672 -0.019435 -60402.800000 0 0 1
30.160810 25.133339 -29.197442 48.926985 0.694725 2.210248 0.090059 -0.029743 -360774.000000 0 0 1
29.370310 23.830739 -29.268642 47.824394 0.681647 2.229386 0.101485 -0.036545 -202869.000000 0 0 1
28.012210 24.037439 -28.986272 46.932786 0.709181 2.236500 0.102388 -0.030825 -409704.000000 0 0 1
27.206210 22.909639 -29.223372 46.032976 0.699875 2.258592 0.111113 -0.045553 542765.000000 0 0 1
25.819010 23.088139 -28.502312 44.856050 0.729618 2.259345 0.091790 -0.036359 464222.000000 0 0 1
25.800510 22.901239 -27.106382 43.873557 0.725937 2.236776 0.076845 -0.017027 1338170.000000 0 0 1
24.434210 23.110939 -26.672302 42.925026 0.757573 2.241286 0.043418 -0.009500 1030590.000000 0 0 1
24.397410 23.066439 -25.164592 41.958920 0.757364 2.213977 0.045445 -0.003672 -247190.000000 0 0 1
24.848910 21.844539 -24.673902 41.272917 0.721144 2.211579 0.059208 -0.015049 225244.000000 0 0 1
25.062310 21.958839 -23.263002 40.638372 0.719492 2.180274 0.066282 -0.006889 -381.331000 0 0 1
25.734210 20.684739 -22.687202 40.060169 0.677044 2.172840 0.074961 -0.005853 -229078.000000 0 0 1
27.033710 20.355239 -23.069502 40.955576 0.645391 2.169148 0.050495 -0.003483 -524566.000000 0 0 1
27.665010 19.389939 -22.286502 40.472345 0.611318 2.153951 0.079937 -0.018580 -1223140.000000 0 0 1
28.916010 19.038539 -23.001702 41.565369 0.582263 2.157221 0.103650 -0.028342 -1027590.000000 0 0 1
29.809710 18.202339 -22.264302 41.420323 0.548190 2.138291 0.109396 -0.028247 -338864.000000 0 0 1
30.952910 17.956239 -23.019402 42.548820 0.525670 2.142436 0.082962 -0.022193 -728013.000000 0 0 1
32.218210 17.597139 -22.252902 42.928592 0.499910 2.115740 0.061317 -0.012405 -368090.000000 0 0 1
32.713810 18.790639 -21.728202 43.536149 0.521379 2.093338 0.057521 -0.009535 -201687.000000 0 0 1
34.014410 18.738339 -21.170302 44.229935 0.503529 2.069904 0.071637 -0.010499 536270.000000 0 0 1
34.350310 19.940839 -20.220202 44.569468 0.525968 2.041685 0.039359 -0.016514 -8026.820000 0 0 1
33.712310 19.793639 -18.975202 43.455337 0.530905 2.022679 0.064103 -0.014913 -247661.000000 0 0 1
34.333910 20.592739 -18.036902 43.911367 0.540257 1.994081 0.054609 -0.006333 -61614.800000 0 0 1
33.729210 20.533239 -16.610302 42.838951 0.546841 1.968973 0.067664 -0.020744 3385.970000 0 0 1
34.006610 19.377939 -15.887902 42.241917 0.517939 1.956398 0.062034 -0.029249 132226.000000 0 0 1
33.801110 19.651439 -14.492202 41.697938 0.526619 1.925755 0.061557 -0.025721 -304817.000000 0 0 1
34.235710 18.488639 -13.604302 41.218815 0.495164 1.907154 0.059981 -0.025894 110508.000000 0 0 1
35.641810 18.260939 -13.658402 42.312557 0.473476 1.899480 0.060951 -0.024024 424979.000000 0 0 1
36.116510 17.231839 -12.744902 41.997275 0.445175 1.879128 0.056786 -0.009157 162904.000000 0 0 1
36.112710 17.463939 -11.190602 41.645487 0.450438 1.842851 0.077429 -0.013702 -536433.000000 0 0 1
36.859110 18.605339 -10.868302 42.695113 0.467456 1.828185 0.064674 -0.014105 82955.000000 0 0 1
36.493010 19.232939 -9.608802 42.355340 0.485038 1.799650 0.074946 -0.009880 -626311.000000 0 0 1
35.185310 19.991539 -9.483802 41.564531 0.516693 1.800995 0.075330 -0.013122 -1069050.000000 0 0 1
34.034310 19.241939 -9.656402 40.271983 0.514566 1.812935 0.082006 -0.029830 -753925.000000 0 0 1
32.915410 20.109939 -9.692802 39.771652 0.548438 1.816987 0.044536 -0.012856 -75104.600000 0 0 1
31.581910 19.409639 -9.972602 38.387549 0.551072 1.833598 0.030275 -0.003633 -181992.000000 0 0 1
31.425910 19.195539 -11.379102 38.542711 0.548337 1.870496 0.050188 -0.016894 -290756.000000 0 0 1
30.280010 18.420439 -11.577002 37.285635 0.546527 1.886510 0.038287 -0.016169 -598480.000000 0 0 1
30.236210 17.841839 -12.975602 37.428945 0.533095 1.924818 0.063256 -0.021639 -370285.000000 0 0 1
31.259010 16.931439 -13.290802 37.953192 0.496410 1.928570 0.059445 -0.023394 -241169.000000 0 0 1
31.084310 16.257439 -14.520602 37.965597 0.481887 1.963262 0.036739 -0.015828 662370.000000 0 0 1
32.448410 15.691939 -15.057302 39.062241 0.450439 1.966513 0.061459 -0.024754 608216.000000 0 0 1
33.012210 14.636539 -14.352702 38.859161 0.417325 1.949108 0.051100 -0.018438 -325273.000000 0 0 1
34.235410 14.215739 -14.898602 39.951457 0.393571 1.952948 0.063943 -0.018865 -15410.800000 0 0 1
35.066410 13.393039 -13.869702 40.017437 0.364836 1.924731 0.055445 -0.032599 -63792.700000 0 0 1
35.844810 14.122239 -12.935502 40.640070 0.375308 1.894726 0.064777 -0.014858 81045.900000 0 0 1
36.339910 13.193239 -12.003802 40.481377 0.348254 1.871850 0.062438 -0.008792 -328061.000000 0 0 1
-37.359282 13.693239 -11.005402 41.283648 -0.351323 1.840639 0.093101 -0.003652 -58933.600000 0 0 1
-36.116382 13.955339 -11.630802 40.427961 -0.368727 1.862612 0.077388 -0.005744 -520162.000000 0 0 1
-35.191382 14.444339 -10.718102 39.521513 -0.389483 1.845432 0.071571 -0.000316 -1788830.000000 0 0 1
-33.807682 14.518439 -11.326202 38.497107 -0.405627 1.869424 0.111674 -0.014979 -729664.000000 0 0 1
-33.137482 13.308539 -11.684102 37.572971 -0.381899 1.887011 0.115794 -0.023754 200825.000000 0 0 1
-32.899082 12.434839 -10.568302 36.724158 -0.361371 1.862699 0.134151 -0.014752 -398718.000000 0 0 1
-31.697182 11.448039 -10.797002 35.388475 -0.346590 1.880839 0.151567 -0.023684 364617.000000 0 0 1
-31.836782 10.681439 -11.939302 35.640156 -0.323705 1.912397 0.138331 -0.020257 70883.000000 0 0 1
-30.996182 9.531239 -11.980002 34.570627 -0.298321 1.924673 0.148032 -0.031845 109962.000000 0 0 1
-30.977982 8.720739 -13.345602 34.839514 -0.274412 1.963902 0.153675 -0.031914 521722.000000 0 0 1
-32.217582 8.055139 -13.595402 35.884436 -0.245000 1.959367 0.131956 -0.029597 789902.000000 0 0 1
-32.068882 7.359139 -14.799202 36.077506 -0.225574 1.993476 0.140073 -0.024932 255604.000000 0 0 1
-33.430682 6.931939 -15.402302 37.455215 -0.204455 1.994587 0.124069 -0.023708 768455.000000 0 0 1
-34.172682 5.824839 -14.816602 37.699239 -0.168830 1.974711 0.140796 -0.033138 -15106.700000 0 0 1
-35.329382 5.478939 -15.475302 38.957271 -0.153856 1.979301 0.117640 -0.040048 -828271.000000 0 0 1
-36.278482 4.573539 -14.709802 39.413497 -0.125406 1.953271 0.115889 -0.043225 -311881.000000 0 0 1
37.145910 4.478539 -15.233002 40.397034 0.119987 1.957440 0.113961 -0.034072 193596.000000 0 0 1
36.293310 4.035339 -14.192302 39.177925 0.110732 1.941480 0.119701 -0.036907 730488.000000 0 0 1
35.148610 3.047939 -14.604102 38.183695 0.086499 1.963264 0.111123 -0.030026 518611.000000 0 0 1
35.762210 1.808939 -14.994502 38.820652 0.050539 1.967360 0.129836 -0.030730 525430.000000 0 0 1
34.887510 0.686439 -14.984702 37.975661 0.019673 1.976415 0.117436 -0.018939 -9514.080000 0 0 1
34.512910 0.232639 -13.482302 37.053577 0.006741 1.943205 0.103630 -0.024101 -619892.000000 0 0 1
35.524410 -0.214661 -12.656602 37.712324 -0.006043 1.913048 0.125347 -0.023222 -262252.000000 0 0 1
35.172410 0.034439 -11.277702 36.936245 0.000979 1.881080 0.109068 -0.012064 -180338.000000 0 0 1
35.248410 1.520039 -10.778002 36.890734 0.043097 1.867281 0.110900 -0.029158 53756.700000 0 0 1
34.222310 2.371639 -11.285202 36.112975 0.069190 1.888617 0.101392 -0.025838 560578.000000 0 0 1
34.146310 3.672939 -10.702502 35.972275 0.107153 1.872891 0.127320 -0.035743 -1387460.000000 0 0 1
33.060910 4.544039 -11.171302 35.191904 0.136589 1.893824 0.118980 -0.036893 -1159290.000000 0 0 1
33.211110 5.069839 -12.477102 35.837957 0.151485 1.926397 0.106096 -0.033160 778481.000000 0 0 1
31.963010 5.602039 -12.902702 34.921291 0.173504 1.949245 0.113490 -0.034700 285801.000000 0 0 1
32.175510 6.381139 -14.255802 35.766049 0.195782 1.980770 0.082826 -0.029248 -167977.000000 0 0 1
32.493910 5.555839 -15.415602 36.391789 0.169343 2.008213 0.073464 -0.014999 104678.000000 0 0 1
32.788210 6.259639 -16.604902 37.282336 0.188641 2.032398 0.070681 -0.017790 -522104.000000 0 0 1
31.707110 7.213639 -17.226502 36.798503 0.223701 2.057970 0.072519 -0.022338 1210620.000000 0 0 1
30.489010 6.673339 -17.785802 35.922806 0.215479 2.088760 0.050060 -0.019523 1222000.000000 0 0 1
29.606310 6.081939 -16.819102 34.589099 0.202608 2.078594 0.034963 -0.009884 -1131070.000000 0 0 1
28.190710 5.950939 -17.370302 33.643086 0.208041 2.113334 0.018005 -0.000955 -616194.000000 0 0 1
28.071810 4.946639 -18.313302 33.880272 0.174423 2.141863 0.033166 -0.005726 392581.000000 0 0 1
26.840010 5.163439 -18.988402 33.280725 0.190057 2.177975 0.022465 -0.006041 194801.000000 0 0 1
26.417010 3.980539 -19.874202 33.296952 0.149556 2.210400 0.043893 0.005896 -225832.000000 0 0 1
25.820110 2.921039 -19.174002 32.293233 0.112651 2.206504 0.048758 -0.010214 290587.000000 0 0 1
25.277510 1.971639 -20.115602 32.364754 0.077842 2.241488 0.058067 -0.011561 -807413.000000 0 0 1
24.262810 0.944339 -19.641302 31.230698 0.038902 2.250947 0.062132 -0.018821 -1082650.000000 0 0 1
23.050210 1.585439 -19.476302 30.218407 0.068674 2.271189 0.062956 -0.024789 -1037350.000000 0 0 1
22.235410 0.875439 -18.598002 29.001130 0.039351 2.266969 0.075195 -0.024611 -121500.000000 0 0 1
20.839010 1.466339 -18.285202 27.762621 0.070249 2.289788 0.094927 -0.033436 -496581.000000 0 0 1
20.094810 1.595039 -19.523302 28.062517 0.079210 2.340201 0.096411 -0.037034 577767.000000 0 0 1
18.942610 2.425439 -19.487002 27.284583 0.127349 2.366295 0.089307 -0.032479 642547.000000 0 0 1
17.732910 1.892939 -18.684502 25.829246 0.106345 2.379489 0.118897 -0.033788 -863090.000000 0 0 1
17.963210 2.029939 -17.303902 25.024440 0.112528 2.334332 0.132014 -0.035609 473417.000000 0 0 1
16.822610 1.899039 -16.426902 23.589185 0.112410 2.341129 0.106954 -0.026190 749250.000000 0 1 0
15.945910 3.170139 -16.217402 22.963579 0.196247 2.354945 0.125609 -0.032308 130295.000000 0 1 0
15.183610 3.429239 -17.370302 23.324431 0.222125 2.410920 0.118296 -0.027741 661777.000000 0 1 0
14.239310 4.517139 -17.180002 22.766532 0.307188 2.425866 0.131695 -0.028199 452557.000000 0 1 0
-20.507390 -21.775261 -17.173202 34.491069 0.815375 2.091975 0.094840 -0.031470 106879.000000 0 0 1
-20.053490 -22.060661 -18.468602 35.069993 0.833022 2.125417 0.098518 -0.029100 -108407.000000 0 0 1
-21.098490 -21.755861 -19.341302 35.952047 0.800737 2.138829 0.104590 -0.028381 -465314.000000 0 0 1
-20.994990 -22.454561 -20.730802 37.077797 0.818978 2.164116 0.081569 -0.019814 -113769.000000 0 0 1
-21.376490 -23.804161 -20.636802 38.071905 0.839079 2.143669 0.074301 -0.014859 291949.000000 0 0 1
-20.904490 -24.529561 -21.773602 38.894559 0.865017 2.164954 0.070445 -0.015888 -62344.100000 0 0 1
-20.798290 -26.051291 -21.569802 39.705099 0.897057 2.145100 0.077196 -0.005534 40542.300000 0 0 1
-22.031690 -26.729481 -21.505602 40.771943 0.881445 2.126405 0.069585 0.001101 30519.400000 0 0 1
-21.765890 -28.102481 -21.259002 41.417973 0.911787 2.109798 0.108587 -0.014628 385033.000000 0 0 1
-23.036490 -28.989971 -21.477802 42.806474 0.899334 2.096408 0.082999 -0.008203 89857.900000 0 0 1
-23.624090 -28.887681 -22.741402 43.700881 0.885301 2.118101 0.049778 -0.004156 -70375.000000 0 0 1
-22.924990 -29.316671 -23.909702 44.234558 0.907141 2.141852 0.052002 -0.008707 -477402.000000 0 0 1
-23.534290 -28.704331 -25.189162 44.858614 0.884047 2.167022 0.036623 -0.002208 305856.000000 0 0 1
-24.726790 -29.279211 -25.715462 46.151612 0.869494 2.161801 0.029493 0.000003 470180.000000 0 0 1
-25.121880 -28.586301 -26.896172 46.601389 0.849813 2.186036 0.030113 0.002810 -242551.000000 0 0 1
-24.453790 -29.055861 -28.206072 47.305532 0.871192 2.209622 0.039132 -0.015979 -409030.000000 0 0 1
-24.900390 -30.274401 -28.694602 48.579305 0.882492 2.202692 0.028359 -0.002689 78140.700000 0 0 1
-24.650690 -30.365421 -30.100032 49.353087 0.888901 2.226720 0.059192 -0.008583 -268591.000000 0 0 1
-25.371720 -31.582171 -30.689642 50.823339 0.894013 2.219118 0.040826 -0.013291 7519.410000 0 0 1
-24.811290 -32.791611 -30.252872 51.050231 0.923062 2.205091 0.038302 -0.023553 218273.000000 0 0 1
-25.672160 -33.861481 -30.634262 52.384326 0.922098 2.195428 0.050732 -0.020519 221861.000000 0 0 1
-24.996390 32.549063 -30.729052 51.269246 -0.915899 2.213505 0.057054 -0.019979 -19450.200000 0 0 1
-24.003390 32.430425 -31.712602 51.318459 -0.933629 2.236938 0.067627 -0.035646 -173822.000000 0 0 1
-23.254890 31.250443 -31.486972 50.088017 -0.931052 2.250590 0.068065 -0.024836 -471808.000000 0 0 1
-22.114890 31.028643 -32.477432 50.066242 -0.951581 2.276657 0.068723 -0.019573 -288026.000000 0 0 1
-22.423690 30.669893 -33.821082 50.865801 -0.939482 2.298167 0.078273 -0.016321 361483.000000 0 0 1
-21.339490 29.879263 33.516529 49.714202 -0.950610 0.830937 0.074938 -0.012010 238518.000000 0 0 1
-21.450190 29.609343 32.009866 48.594808 -0.943855 0.851694 0.066854 -0.008173 -53040.900000 0 0 1
-20.915590 30.636563 31.195270 48.468606 -0.971776 0.871580 0.071459 -0.002259 329644.000000 0 0 1
-21.080690 30.320093 29.837580 47.476148 -0.963251 0.891205 0.085448 -0.001845 -66611.400000 0 0 1
-20.728790 31.601723 29.075690 47.683827 -0.990258 0.915039 0.075519 -0.010827 267894.000000 0 0 1
-21.678990 32.633653 29.331230 48.941342 -0.984424 0.928152 0.066505 -0.002756 305811.000000 0 0 1
-21.281390 33.832753 28.696080 49.203838 -1.009313 0.948124 0.068339 -0.021521 -172336.000000 0 0 1
-22.312990 -32.862091 28.830630 49.081480 0.974311 0.942950 0.093045 -0.035489 -412339.000000 0 0 1
-22.353690 -32.351841 30.148850 49.550804 0.966166 0.916699 0.084057 -0.024353 693304.000000 0 0 1
-23.524990 -31.573141 30.479210 49.792274 0.930442 0.912048 0.110044 -0.030462 618366.000000 0 0 1
-23.456890 -30.127911 29.943300 48.523374 0.909256 0.905757 0.114335 -0.025971 -151693.000000 0 0 1
-23.573790 -30.015441 28.543560 47.659050 0.905028 0.928655 0.076192 -0.021421 -1230.110000 0 0 1
-23.815790 -28.673511 28.165690 46.719034 0.877682 0.923698 0.069074 -0.028880 -710623.000000 0 0 1
-25.119460 -28.391811 27.431530 46.792852 0.846475 0.944395 0.086766 -0.027014 -910957.000000 0 0 1
-26.247080 -28.471261 28.316170 47.972152 0.826024 0.939412 0.114140 -0.025603 840724.000000 0 0 1
-27.051110 -29.668251 28.242990 49.088024 0.831507 0.957759 0.097980 -0.034927 324733.000000 0 0 1
-28.055020 -29.785751 27.103670 49.080383 0.815312 0.985759 0.087844 -0.008044 -337888.000000 0 0 1
-27.275960 -29.827091 25.904370 48.006975 0.830044 1.000839 0.076788 -0.014507 895808.000000 0 0 1
-28.075260 -29.573531 24.718620 47.684631 0.811382 1.025844 0.061267 -0.009579 279472.000000 0 0 1
-27.240980 -29.796231 23.444760 46.685577 0.830168 1.044674 0.052581 -0.005347 -165026.000000 0 0 1
-26.408910 -28.634021 23.179070 45.327772 0.825801 1.034023 0.046771 -0.013892 1002410.000000 0 0 1
-25.652690 -28.764141 21.960050 44.358540 0.842514 1.052895 0.058207 -0.019481 439799.000000 0 0 1
-24.484190 -29.782521 21.823850 44.302985 0.882725 1.055716 0.076744 -0.029709 -652616.000000 0 0 1
-24.870390 -31.129261 21.790450 45.413554 0.896702 1.070344 0.070742 -0.036910 484918.000000 0 0 1
-23.737390 -31.923471 21.470050 45.205472 0.931422 1.075896 0.068890 -0.023173 209492.000000 0 0 1
-22.919990 -32.387431 22.683150 45.703357 0.954933 1.051450 0.077648 -0.027286 -228974.000000 0 0 1
-22.256890 -31.381461 23.425650 45.043604 0.953898 1.023868 0.103186 -0.039403 216968.000000 0 0 1
-21.575490 -31.972311 24.524190 45.707399 0.977172 1.004456 0.090787 -0.042581 -294065.000000 0 0 1
-20.691490 -31.044031 25.376940 45.120490 0.982895 0.973479 0.074862 -0.032361 -170340.000000 0 0 1
-19.464890 -30.629901 24.776200 43.942381 1.004692 0.971776 0.085430 -0.031749 300548.000000 0 0 1
-18.606890 -29.944011 25.623000 43.582086 1.014798 0.942305 0.096535 -0.030814 -293820.000000 0 0 1
-17.764990 -30.759551 26.640520 44.401150 1.047052 0.927300 0.068405 -0.037971 -1508830.000000 0 0 1
-18.487990 -31.488701 27.567430 45.752674 1.039893 0.924127 0.081856 -0.034494 -339648.000000 0 0 1
-17.714790 -31.878201 28.671090 46.390353 1.063586 0.904549 0.081457 -0.027244 -587972.000000 0 0 1
-18.167690 -31.343161 30.103030 47.102559 1.045483 0.877475 0.095268 -0.024990 16054.000000 0 0 1
-17.796890 -30.015531 30.220650 46.162204 1.035597 0.857061 0.091373 -0.022835 342990.000000 0 0 1
-18.455790 -29.454251 31.346120 46.805430 1.011053 0.836977 0.094633 -0.022468 115302.000000 0 0 1
-18.234890 -27.923341 31.384470 45.795296 0.992291 0.815752 0.095335 -0.022737 -33499.900000 0 0 1
-19.084290 -27.168691 30.528200 45.103424 0.958437 0.827323 0.103564 -0.021951 -141876.000000 0 0 1
-19.060390 -27.326191 29.111110 44.243371 0.961741 0.852667 0.101687 -0.023295 -137946.000000 0 0 1
-17.729190 -26.951421 28.390950 42.973821 0.988943 0.849103 0.084443 -0.023101 296795.000000 0 0 1
-17.383690 -25.552991 28.343290 41.934354 0.973415 0.828616 0.073385 -0.015685 -659620.000000 0 0 1
-16.453490 -25.333931 27.371810 40.764462 0.994798 0.834616 0.060341 -0.011634 -788036.000000 0 0 1
-16.378090 -23.900761 26.753920 39.436790 0.970036 0.825214 0.046414 -0.009314 -4766.180000 0 0 1
-17.595690 -23.649661 26.077630 39.356798 0.931137 0.846518 0.056798 -0.013101 116842.000000 0 0 1
-17.442490 -22.702461 25.047210 38.039517 0.915680 0.852036 0.056667 -0.011984 82460.000000 0 0 1
-17.500890 -21.206461 25.567730 37.546024 0.880840 0.821709 0.066010 -0.007684 -111301.000000 0 0 1
-17.130690 -20.221661 24.601630 36.160977 0.867962 0.822575 0.055871 -0.004062 11216.500000 0 0 1
-17.386690 -19.004761 25.197540 36.033233 0.829832 0.796398 0.076366 -0.003395 -43708.200000 0 0 1
-16.975390 -17.787461 24.322290 34.585133 0.808754 0.790826 0.045636 -0.013560 662530.000000 0 0 1
-15.567490 -17.533661 24.357620 33.809313 0.844727 0.766358 0.045841 -0.015360 233804.000000 0 0 1
-15.264890 -16.381861 23.591990 32.526362 0.820678 0.759299 0.060263 -0.013628 -159303.000000 0 0 1
-13.794590 -16.004461 23.816110 31.837722 0.859422 0.725682 0.056413 -0.025846 -502408.000000 0 0 1
-12.887690 -16.934561 23.233410 31.506558 0.920274 0.741561 0.052838 -0.024626 -95594.900000 0 0 1
-11.543590 -16.518961 23.366450 30.856466 0.960870 0.711685 0.062664 -0.026781 -153392.000000 0 0 1
-11.096890 -15.569361 22.214750 29.309402 0.951572 0.710648 0.081156 -0.033767 -569411.000000 0 0 1
-10.801190 -16.355761 21.007150 28.731115 0.987151 0.750770 0.102347 -0.029178 -203375.000000 0 0 1
-9.484590 -16.841861 21.003150 28.543616 1.057909 0.743910 0.099357 -0.026500 -634123.000000 0 0 1
-9.304390 -18.226861 20.378350 28.880223 1.098802 0.787504 0.103598 -0.026789 39086.900000 0 0 1
-9.232890 -18.154161 18.996150 27.850916 1.100306 0.820213 0.097728 -0.027998 -349069.000000 0 0 1
-8.756690 -19.288461 18.403550 28.060915 1.144633 0.855498 0.110072 -0.034263 -24684.700000 0 0 1
-8.444290 -18.937661 16.972850 26.795870 1.151358 0.884841 0.106065 -0.037717 241783.000000 0 0 1
-7.278790 -18.145361 16.774150 25.760571 1.189309 0.861690 0.102735 -0.033391 -11983.000000 0 0 1
-6.970590 -17.923661 15.439350 24.662122 1.199892 0.894338 0.099351 -0.026643 -225136.000000 0 1 0
-5.740990 -17.065361 15.265450 23.605496 1.246278 0.867559 0.077917 -0.018614 -547472.000000 0 1 0
-6.105590 -15.833761 15.808850 23.192799 1.202760 0.820812 0.082129 -0.024277 -269060.000000 0 1 0
-5.137790 -14.833661 15.738250 22.228965 1.237368 0.784125 0.054905 -0.010410 -749027.000000 0 1 0
-5.476990 -13.593561 16.592250 22.137865 1.187783 0.723495 0.037351 -0.011746 -80831.300000 0 1 0
-5.406790 -13.746861 18.004150 23.288602 1.196070 0.687100 0.064352 -0.016515 77700.800000 0 1 0
-6.283590 -14.631561 18.683850 24.548978 1.165159 0.705813 0.096945 -0.028937 532224.000000 0 1 0
-7.570790 -13.980561 19.300650 25.005760 1.074485 0.689053 0.102626 -0.036890 315901.000000 0 0 1
-7.347190 -13.211561 20.495450 25.467430 1.063268 0.635507 0.096108 -0.030809 -412658.000000 0 0 1
-8.483590 -12.700561 21.133350 26.074777 0.981892 0.625808 0.091991 -0.022060 -205000.000000 0 0 1
-8.111190 -11.758561 22.263650 26.452320 0.966941 0.570461 0.087202 -0.015345 -206378.000000 0 0 1
-7.275390 -10.711561 21.721450 25.288144 0.974161 0.537565 0.050371 -0.013692 540209.000000 0 0 1
-6.752290 -9.798961 22.727950 25.654878 0.967435 0.482341 0.040865 -0.017438 -169421.000000 0 0 1
-5.524990 -10.345161 23.452920 26.221886 1.080269 0.463703 0.049579 -0.004411 -760071.000000 0 0 1
-5.606090 -11.454161 24.318660 27.459484 1.115635 0.482970 0.071557 -0.000559 23046.800000 0 0 1
-4.266190 -11.828861 24.598360 27.626104 1.224657 0.472567 0.063565 0.003515 260462.000000 0 0 1
-4.044090 -13.217461 25.254740 28.789891 1.273875 0.500779 0.086597 -0.010761 -693570.000000 0 0 1
-2.723490 -13.324261 25.696800 29.073680 1.369173 0.486764 0.069520 -0.010630 -348309.000000 0 0 1
-2.550190 -14.315261 26.695080 30.398313 1.394501 0.498760 0.081311 -0.016091 -111929.000000 0 0 1
-2.492490 -15.805261 26.235170 30.729512 1.414384 0.547660 0.089293 -0.026047 -693486.000000 0 0 1
-1.333590 -16.247061 25.608920 30.357243 1.488898 0.566871 0.077195 -0.027570 -579773.000000 0 0 1
-1.599390 -17.502461 25.020900 30.576782 1.479669 0.612354 0.102636 -0.028090 -420341.000000 0 0 1
-0.255290 -18.210961 24.733790 30.715869 1.556779 0.634708 0.099039 -0.033786 705957.000000 0 0 1
0.492810 -18.602561 25.900410 31.892466 -1.544311 0.623025 0.113180 -0.037919 320253.000000 0 0 1
1.047010 -17.565961 26.694430 31.972673 -1.511262 0.582820 0.096970 -0.037196 -777916.000000 0 0 1
1.548610 -18.043061 28.116790 33.444044 -1.485178 0.572201 0.089837 -0.035775 314154.000000 0 0 1
2.593210 -19.065561 28.157440 34.103691 -1.435610 0.599457 0.089685 -0.045648 473068.000000 0 0 1
3.379210 -19.028861 29.286670 35.088825 -1.395045 0.583311 0.090695 -0.051703 416446.000000 0 0 1
4.408410 -17.850461 29.395940 34.672674 -1.328678 0.558949 0.108670 -0.042119 -639306.000000 0 0 1
3.780210 -16.648661 29.675540 34.236027 -1.347524 0.522062 0.092379 -0.042212 -328344.000000 0 0 1
4.694910 -15.713061 30.168690 34.337914 -1.280450 0.497910 0.118554 -0.057688 -377404.000000 0 0 1
3.960610 -14.513161 30.720070 34.205862 -1.304386 0.455381 0.131132 -0.051694 -37913.200000 0 0 1
3.422210 -14.765761 31.979440 35.389600 -1.343051 0.442604 0.105340 -0.051371 -227086.000000 0 0 1
2.590210 -13.749161 32.478780 35.364103 -1.384588 0.406751 0.106929 -0.045045 -415696.000000 0 0 1
1.525510 -14.148361 33.486065 36.384335 -1.463389 0.401840 0.093145 -0.039516 -325950.000000 0 0 1
2.023110 -14.535661 -33.053582 36.165144 -1.432502 2.723740 0.125560 -0.036902 -350034.000000 0 0 1
1.176410 -15.398161 -32.349632 35.846701 -1.494545 2.696205 0.116662 -0.039612 -119868.000000 0 0 1
1.689410 -15.663461 -30.895722 34.680596 -1.463355 2.670042 0.136436 -0.030559 206312.000000 0 0 1
0.945510 -16.526561 -30.070482 34.325720 -1.513647 2.638371 0.098201 -0.022831 -584609.000000 0 0 1
1.474510 -16.421761 -28.775082 33.164043 -1.481246 2.621270 0.094510 -0.024694 178511.000000 0 0 1
1.274510 -17.756761 -27.939032 33.128785 -1.499143 2.574276 0.080499 -0.027740 -401184.000000 0 0 1
2.143510 -18.746861 -28.328202 34.037133 -1.456951 2.553992 0.067333 -0.017049 -475032.000000 0 0 1
2.154810 -19.803961 -27.381142 33.860995 -1.462416 2.512622 0.061943 -0.022930 -591859.000000 0 0 1
3.283710 -20.824261 -27.704172 34.813125 -1.414397 2.491118 0.041118 -0.019030 1582280.000000 0 0 1
4.660710 -20.420361 -27.440952 34.521286 -1.346402 2.489638 0.056112 -0.016780 1302170.000000 0 0 1
4.967110 -20.261061 -26.071512 33.390215 -1.330382 2.466762 0.072551 -0.021751 -528437.000000 0 0 1
6.056510 -21.242061 -25.487602 33.727204 -1.293047 2.427517 0.033364 -0.018196 54106.800000 0 0 1
5.870610 -22.637561 -25.559802 34.644288 -1.317055 2.400569 0.039294 -0.013821 8705.940000 0 0 1
5.997410 -23.252761 -26.880922 36.045024 -1.318375 2.412471 0.033141 -0.012916 -215991.000000 0 0 1
5.371310 -24.676961 -26.962362 36.942825 -1.356474 2.388885 0.028332 0.000541 -250325.000000 0 0 1
6.036310 -25.640961 -26.210002 37.159926 -1.339590 2.353685 0.032093 0.006123 -271374.000000 0 0 1
5.507310 -26.972051 -26.351672 38.108169 -1.369379 2.334355 0.043455 0.005085 -258522.000000 0 0 1
6.093810 -28.014761 -25.457702 38.341308 -1.356611 2.296920 0.055656 0.004868 183807.000000 0 0 1
7.487310 -28.175421 -25.710232 38.870685 -1.311060 2.293520 0.067105 -0.005162 177095.000000 0 0 1
7.946610 -29.318821 -25.006702 39.345609 -1.306114 2.259537 0.077989 -0.006511 -245035.000000 0 0 1
9.368910 -29.694951 -25.452672 40.216975 -1.265176 2.256069 0.098930 -0.016230 -136711.000000 0 0 1
9.353310 -29.947381 -26.839792 41.288066 -1.268071 2.278462 0.093405 -0.013370 311316.000000 0 0 1
10.601710 -29.703831 -27.482272 41.832871 -1.227975 2.287568 0.121965 -0.027666 450377.000000 0 0 1
10.579510 -29.766761 -28.999542 42.883091 -1.229307 2.313452 0.121963 -0.018639 79208.700000 0 0 1
10.160410 -31.046221 -29.484472 44.004952 -1.254515 2.305040 0.118876 -0.035682 86798.900000 0 0 1
10.145810 -31.157871 -30.888332 45.031538 -1.255998 2.326673 0.118469 -0.034903 -64959.700000 0 0 1
-35.831089 -4.630461 -5.364602 36.525156 0.128518 1.718204 0.175264 -0.037969 31378.100000 0 0 1
-35.803780 -3.891061 -4.129002 36.250512 0.108253 1.684946 0.181647 -0.042479 166899.000000 0 0 1
-35.125808 -2.658561 -4.150902 35.469992 0.075543 1.688091 0.198458 -0.047915 -221760.000000 0 0 1
-35.964642 -1.452361 -4.618402 36.289040 0.040361 1.698410 0.161447 -0.029755 -246366.000000 0 0 1
-36.955290 -1.063561 -3.706002 37.155875 0.028772 1.670704 0.143558 -0.037756 -402453.000000 0 0 1
36.974522 -0.115961 -4.278302 37.221400 -0.003136 1.685993 0.152236 -0.036287 -297393.000000 0 0 1
36.161562 0.672339 -3.216702 36.310574 0.018591 1.659501 0.155464 -0.035676 247764.000000 0 0 1
37.032442 1.524039 -2.490502 37.147370 0.041131 1.637890 0.183201 -0.044821 467199.000000 0 0 1
36.299392 2.644839 -2.044602 36.453003 0.072733 1.626914 0.167106 -0.045580 -628542.000000 0 0 1
37.181532 3.635939 -1.267402 37.380379 0.097479 1.604708 0.178596 -0.044978 231680.000000 0 0 1
-36.659720 4.460239 -1.980102 36.983099 -0.121071 1.624363 0.208510 -0.049533 904792.000000 0 0 1
-35.574025 3.819539 -2.685302 35.879116 -0.106959 1.645709 0.183528 -0.038935 -741133.000000 0 0 1
-34.466954 4.794239 -3.025002 34.930019 -0.138210 1.657507 0.182565 -0.049565 -753778.000000 0 0 1
-33.734670 5.164639 -1.887602 34.179884 -0.151916 1.626050 0.190472 -0.055047 69142.400000 0 0 1
-33.289020 6.485939 -1.917902 33.969171 -0.192426 1.627286 0.196600 -0.061365 -368134.000000 0 0 1
-32.835260 7.067839 -0.570502 33.592173 -0.212017 1.587780 0.190272 -0.058829 -17721.900000 0 0 1
-31.472240 6.779539 -0.276602 32.195349 -0.212171 1.579388 0.208889 -0.051147 630843.000000 0 0 1
-30.951790 7.300739 0.942198 31.815119 -0.231641 1.541177 0.207773 -0.045122 41806.300000 0 0 1
-30.901650 8.867439 1.139298 32.168951 -0.279448 1.535373 0.222859 -0.047765 664692.000000 0 0 1
-32.265640 9.324739 1.270998 33.610083 -0.281334 1.532971 0.203874 -0.056313 1051270.000000 0 0 1
-32.328620 10.613939 1.736998 34.070699 -0.317226 1.519792 0.208221 -0.048987 -567066.000000 0 0 1
-33.725630 11.213939 1.741098 35.583732 -0.321005 1.521847 0.208150 -0.050820 -1313520.000000 0 0 1
-34.107408 11.699239 0.456698 36.061004 -0.330436 1.558131 0.186190 -0.050188 983074.000000 0 0 1
-35.275762 12.544439 0.486998 37.443016 -0.341664 1.557790 0.172301 -0.037404 688540.000000 0 0 1
-36.646920 11.926239 0.802898 38.547069 -0.314627 1.549966 0.172920 -0.050268 -641669.000000 0 0 1
-37.187460 11.041539 -0.173602 38.792433 -0.288625 1.575271 0.175104 -0.047196 -961334.000000 0 0 1
36.277662 10.679439 0.202998 37.817462 0.286293 1.565428 0.182648 -0.054920 -579943.000000 0 0 1
35.663502 9.489439 -0.697402 36.910991 0.260057 1.589692 0.187840 -0.049705 241008.000000 0 0 1
35.295142 9.731439 -1.996102 36.666503 0.269032 1.625263 0.183464 -0.042123 22605.800000 0 0 1
34.741572 8.582439 -2.570902 35.878192 0.242188 1.642514 0.175634 -0.050202 -296149.000000 0 0 1
34.230852 8.654539 -3.993002 35.533032 0.247639 1.683409 0.143024 -0.029915 -353303.000000 0 0 1
32.975032 9.294239 -4.087202 34.502766 0.274730 1.689535 0.163227 -0.039246 158017.000000 0 0 1
32.673772 9.576939 -5.447502 34.481422 0.285122 1.729445 0.131169 -0.025528 -464581.000000 0 0 1
31.318342 10.213439 -5.719202 33.434446 0.315242 1.742699 0.145198 -0.035563 -41713.200000 0 0 1
30.181652 9.363239 -5.656202 32.102882 0.300815 1.747911 0.126967 -0.024502 524384.000000 0 0 1
28.956402 10.021039 -5.872002 31.198956 0.333172 1.760137 0.147281 -0.025950 30394.400000 0 0 1
27.741502 9.069739 -5.909502 29.778740 0.315983 1.770569 0.162252 -0.015498 -226214.000000 0 0 1
27.767402 8.159239 -7.048802 29.787370 0.285798 1.809700 0.148472 -0.021907 516553.000000 0 0 1
26.737602 7.168139 -6.936302 28.537587 0.261933 1.816314 0.171921 -0.025249 186666.000000 0 0 1
26.760502 6.085039 -8.076402 28.607350 0.223587 1.857007 0.153536 -0.036339 -847119.000000 0 0 1
27.903502 5.328439 -8.057802 29.528391 0.188688 1.847185 0.138183 -0.030539 -478155.000000 0 0 1
27.969002 4.401039 -9.067602 29.729710 0.156074 1.880736 0.122269 -0.029214 200808.000000 0 0 1
29.017302 3.240539 -8.846902 30.508566 0.111215 1.865003 0.103119 -0.022038 -769450.000000 0 0 1
30.339712 3.614639 -9.037502 31.862834 0.118580 1.858382 0.100841 -0.020520 -397954.000000 0 0 1
31.271122 3.004739 -8.182602 32.463310 0.095793 1.825602 0.082961 -0.020761 -92642.800000 0 0 1
31.435942 1.432439 -8.114402 32.497906 0.045535 1.823156 0.070426 -0.019375 -509863.000000 0 0 1
30.376122 0.870039 -7.320402 31.257864 0.028634 1.807186 0.096451 -0.023291 740408.000000 0 0 1
30.429102 -0.539661 -7.033802 31.236131 -0.017733 1.797926 0.095210 -0.028743 -147540.000000 0 0 1
30.233312 -1.569761 -8.197302 31.364201 -0.051875 1.835226 0.097558 -0.023675 -211107.000000 0 0 1
31.386542 -1.556861 -9.007202 32.690496 -0.049562 1.849937 0.101072 -0.018331 305269.000000 0 0 1
31.279232 -2.542561 -10.035002 32.947781 -0.081108 1.880286 0.099302 -0.036969 -14858.400000 0 0 1
32.478542 -2.706261 -11.012302 34.401313 -0.083133 1.896645 0.106222 -0.026242 619252.000000 0 0 1
33.678702 -3.248061 -10.456902 35.414004 -0.096145 1.870541 0.105955 -0.016229 1060530.000000 0 0 1
34.686332 -3.583761 -11.405602 36.688864 -0.102954 1.886908 0.116742 -0.025492 442055.000000 0 0 1
36.103592 -3.894361 -10.877602 37.907224 -0.107451 1.861841 0.131495 -0.020131 -169124.000000 0 0 1
36.212952 -5.047661 -10.045502 37.917923 -0.138496 1.838925 0.126035 -0.029945 -187675.000000 0 0 1
-37.208050 -5.442461 -9.793302 38.858308 0.145241 1.825570 0.140977 -0.028088 -462111.000000 0 0 1
-37.103970 -6.719761 -8.983902 38.763001 0.179164 1.804688 0.142195 -0.038603 -172156.000000 0 0 1
37.203282 -6.564361 -7.627602 38.540308 -0.174648 1.770024 0.152765 -0.036135 418429.000000 0 0 1
36.904722 -7.851461 -7.095102 38.391984 -0.209624 1.756672 0.151640 -0.032125 -20486.000000 0 0 1
36.271262 -7.833361 -5.662802 37.537093 -0.212699 1.722233 0.155237 -0.028476 19220.200000 0 0 1
37.256472 -7.671261 -4.622902 38.317936 -0.203066 1.691737 0.164152 -0.026312 781375.000000 0 0 1
37.249852 -8.740061 -3.684102 38.438428 -0.230465 1.666788 0.177036 -0.029343 -194452.000000 0 0 1
-36.858020 -10.061061 -4.179702 38.434470 0.266476 1.679761 0.173008 -0.034922 -291026.000000 0 0 1
37.218542 -10.618461 -5.292702 39.063849 -0.277917 1.706703 0.158644 -0.037185 913243.000000 0 0 1
-36.713090 -11.724461 -5.805202 38.974534 0.309117 1.720301 0.138223 -0.032778 497830.000000 0 0 1
-37.289640 -12.178961 -7.163402 39.876793 0.315682 1.751415 0.139552 -0.036645 151326.000000 0 0 1
-37.185070 -11.165161 -8.155202 39.672377 0.291695 1.777836 0.143455 -0.036299 102166.000000 0 0 1
36.990092 -11.773361 -9.262202 39.908236 -0.308146 1.805020 0.148224 -0.021506 -356996.000000 0 0 1
37.072652 -10.961161 -10.579902 40.080705 -0.287477 1.837927 0.125402 -0.033460 -396791.000000 0 0 1
36.291172 -9.785961 -10.600802 39.053697 -0.263387 1.845687 0.119969 -0.032448 423021.000000 0 0 1
36.535612 -9.099161 -11.787802 39.453745 -0.244083 1.874205 0.110886 -0.030082 -797463.000000 0 0 1
35.533032 -8.014861 -11.992602 38.349144 -0.221848 1.888853 0.107079 -0.025482 -823885.000000 0 0 1
35.513462 -7.613761 -13.345702 38.694743 -0.211194 1.922925 0.113972 -0.021693 446022.000000 0 0 1
34.427662 -6.775061 -13.669702 37.656688 -0.194308 1.942291 0.097100 -0.026928 -101232.000000 0 0 1
34.474102 -6.216261 -15.094902 38.143960 -0.178400 1.977664 0.089595 -0.025153 -440768.000000 0 0 1
35.433232 -5.200161 -15.114502 38.871632 -0.145719 1.970159 0.099377 -0.027378 38731.100000 0 0 1
34.954692 -3.912061 -15.483302 38.430032 -0.111454 1.985475 0.109858 -0.024600 -550707.000000 0 0 1
36.053272 -2.888961 -15.559002 39.373431 -0.079959 1.977044 0.126843 -0.029897 -373414.000000 0 0 1
36.980852 -2.932961 -16.657902 40.665359 -0.079145 1.992849 0.119230 -0.028620 365550.000000 0 0 1
-36.484390 -2.457561 -16.288902 40.030970 0.067258 1.989862 0.153149 -0.025143 -81176.500000 0 0 1
-36.310820 -0.899461 -16.198002 39.770088 0.024766 1.990282 0.144940 -0.016122 -480893.000000 0 0 1
-36.548650 -0.173861 -17.408802 40.483335 0.004757 2.015316 0.121222 -0.018936 392305.000000 0 0 1
-36.118870 1.170339 -17.108902 39.983208 -0.032391 2.012967 0.128396 -0.025931 240409.000000 0 0 1
-36.364150 2.276339 -18.185202 40.721427 -0.062517 2.033731 0.108328 -0.021292 94706.700000 0 0 1
-35.448473 2.188139 -19.257902 40.401101 -0.061649 2.067657 0.109856 -0.012536 255800.000000 0 0 1
-35.457566 3.422539 -19.956002 40.831296 -0.096227 2.081444 0.104577 -0.015461 -359395.000000 0 0 1
-34.412056 3.580839 -21.076002 40.511848 -0.103685 2.117932 0.100161 -0.005193 -35950.900000 0 0 1
-33.105060 3.871539 -20.604202 39.185034 -0.116418 2.124473 0.101866 -0.003949 348618.000000 0 0 1
-32.262070 4.206639 -21.702902 39.109499 -0.129658 2.159071 0.087783 0.001623 78602.300000 0 0 1
-30.878370 4.719939 -21.245302 37.777167 -0.151682 2.168063 0.101826 0.000689 94362.400000 0 0 1
-30.012710 3.722239 -20.760002 36.682359 -0.123392 2.172369 0.098107 0.008830 251877.000000 0 0 1
-28.659080 4.170139 -20.740902 35.621874 -0.144494 2.192292 0.081308 0.018487 170434.000000 0 0 1
-27.765350 3.050139 -20.196002 34.468775 -0.109415 2.196813 0.099642 0.015081 -344941.000000 0 0 1
-27.889670 2.884639 -18.817202 33.767468 -0.103064 2.161877 0.112011 0.010368 -308182.000000 0 0 1
-27.126580 1.894339 -18.222302 32.733654 -0.069720 2.161185 0.109515 0.000565 194776.000000 0 0 1
-26.221930 2.375639 -16.986202 31.333118 -0.090351 2.143750 0.103594 -0.007869 1260000.000000 0 0 1
-24.999490 3.049439 -17.371602 30.594870 -0.121380 2.174621 0.102463 -0.007966 685564.000000 0 0 1
-24.292590 3.294139 -16.159802 29.361888 -0.134781 2.153600 0.112736 -0.024223 122661.000000 0 0 1
-23.068590 4.200339 -16.432402 28.632612 -0.180107 2.182063 0.131537 -0.029462 403885.000000 0 0 1
-21.930390 3.631639 -17.067002 28.025227 -0.164109 2.225579 0.144867 -0.040217 830249.000000 0 0 1
-20.825790 4.525639 -16.962802 27.238421 -0.213982 2.243052 0.123362 -0.039222 511047.000000 0 0 1
-19.446390 4.160139 -17.577902 26.541504 -0.210752 2.294654 0.142100 -0.045218 -108834.000000 0 0 1
-18.937590 3.148539 -16.860002 25.550054 -0.164752 2.291457 0.170833 -0.047971 -228842.000000 0 0 1
-17.761990 2.656439 -17.487002 25.066714 -0.148457 2.342864 0.133762 -0.052298 -454576.000000 0 0 1
-17.528890 1.118639 -17.090202 24.506903 -0.063730 2.342508 0.140957 -0.046195 563628.000000 0 1 0
-18.469790 0.100639 -17.520502 25.458029 -0.005449 2.329817 0.115601 -0.042618 901860.000000 0 0 1
-19.818090 0.329539 -17.125902 26.194690 -0.016627 2.283383 0.125668 -0.045486 -431056.000000 0 0 1
-20.772990 -0.766061 -17.537702 27.196965 0.036861 2.271611 0.102008 -0.037230 -558166.000000 0 0 1
-20.642390 -2.005961 -16.857102 26.726279 0.096873 2.253292 0.087506 -0.040277 382400.000000 0 0 1
-21.663390 -2.879461 -17.290202 27.866554 0.132144 2.240131 0.098866 -0.031737 -6502.060000 0 0 1
-22.056790 -4.078561 -16.326802 27.743487 0.182846 2.199988 0.113741 -0.037379 -22643.700000 0 0 1
-22.463890 -3.561461 -15.026302 27.259862 0.157233 2.154627 0.108606 -0.037652 516848.000000 0 0 1
-22.843390 -4.590161 -14.111202 27.239971 0.198300 2.115346 0.104967 -0.048488 -133739.000000 0 0 1
-23.215590 -4.129361 -12.690502 26.778052 0.176029 2.064527 0.127973 -0.048171 14272.100000 0 0 1
-24.224890 -3.135161 -12.640302 27.503668 0.128704 2.048325 0.114136 -0.044953 542258.000000 0 0 1
-24.748590 -2.942661 -11.343802 27.383093 0.118347 1.997929 0.149565 -0.052131 53067.000000 0 0 1
-25.583210 -1.615861 -11.154602 27.955979 0.063077 1.981229 0.185704 -0.059521 139482.000000 0 0 1
-25.983000 -1.435461 -9.811002 27.810656 0.055190 1.931335 0.193313 -0.056714 443862.000000 0 0 1
-26.427710 -0.152561 -9.531202 28.094322 0.005773 1.916924 0.195882 -0.059462 -249385.000000 0 0 1
-26.687900 0.045739 -8.067702 27.880708 -0.001714 1.864360 0.208923 -0.051725 -289125.000000 0 0 1
-25.506570 0.349339 -7.380202 26.555122 -0.013695 1.852425 0.193945 -0.052468 332715.000000 0 0 1
-25.789130 0.579239 -6.023002 26.489456 -0.022457 1.800176 0.206377 -0.059012 101063.000000 0 0 1
-24.505590 1.039139 -5.291802 25.091969 -0.042379 1.783288 0.147384 -0.044339 -68999.700000 0 0 1
-24.220690 2.420339 -5.472602 24.948932 -0.099598 1.791947 0.171229 -0.043813 1033480.000000 0 1 0
-22.851290 2.671339 -5.117002 23.569073 -0.116373 1.789646 0.144732 -0.025734 744604.000000 0 1 0
-22.374990 4.154539 -5.263902 23.358275 -0.183587 1.798104 0.135495 -0.027231 -85300.000000 0 1 0
-22.913590 4.975039 -4.221002 23.824367 -0.213803 1.748908 0.144542 -0.029892 668079.000000 0 1 0
-22.836190 6.378039 -4.542102 24.141285 -0.272355 1.760071 0.161157 -0.029826 -886220.000000 0 1 0
-23.050690 7.288339 -3.310102 24.401044 -0.306241 1.706870 0.139621 -0.026025 100185.000000 0 1 0
-22.023590 7.252339 -2.318602 23.302593 -0.318115 1.670461 0.093479 -0.027818 1145250.000000 0 1 0
-20.698490 7.610439 -2.675102 22.214915 -0.352339 1.691508 0.103716 -0.031138 -352267.000000 0 1 0
-20.326390 9.129439 -2.815702 22.459674 -0.422140 1.696494 0.092737 -0.032707 -1025170.000000 0 1 0
-20.596990 9.678939 -4.081702 23.120946 -0.439295 1.748263 0.102689 -0.021938 798706.000000 0 1 0
-20.127990 11.018839 -4.052202 23.301741 -0.500875 1.745586 0.111349 -0.019924 -147574.000000 0 1 0
-19.754290 11.583039 -5.429302 23.534572 -0.530326 1.803588 0.090390 -0.025882 -128253.000000 0 1 0
-18.676090 10.970739 -6.105402 22.503986 -0.531119 1.845543 0.072122 -0.025322 115655.000000 0 1 0
-18.571390 11.522839 -7.361202 23.062082 -0.555329 1.895672 0.073992 -0.020918 410818.000000 0 1 0
-17.179290 11.204639 -8.001502 22.015812 -0.577933 1.942758 0.059341 -0.015058 24082.300000 0 1 0
-16.952190 9.853339 -8.393902 21.328915 -0.526513 1.975282 0.044925 -0.009438 334499.000000 0 1 0
-17.922290 9.265139 -9.249302 22.194613 -0.477125 2.000648 0.069641 -0.012129 -34560.700000 0 1 0
-17.897190 9.696939 -10.762702 23.025546 -0.496536 2.057171 0.060022 -0.010944 -203103.000000 0 1 0
-16.792490 9.208939 -11.475102 22.326447 -0.501611 2.110602 0.068067 -0.015013 -108283.000000 0 1 0
-16.811990 9.861539 -12.740202 23.285311 -0.530492 2.149734 0.076479 -0.018263 344872.000000 0 1 0
-15.699490 9.462439 -13.763402 22.922543 -0.542419 2.214836 0.053944 -0.010130 -533931.000000 0 1 0
-15.945390 8.396239 -14.596502 23.190734 -0.484671 2.251591 0.075557 -0.028254 1262.570000 0 1 0
-15.850690 7.108039 -13.965002 22.288783 -0.421554 2.247913 0.072239 -0.015291 -216871.000000 0 1 0
-15.830190 5.907039 -14.938902 22.553465 -0.357148 2.294784 0.084618 -0.015084 -295836.000000 0 1 0
-14.614390 5.901439 -15.635502 22.200817 -0.383787 2.352199 0.076087 -0.026699 321753.000000 0 1 0
-14.553090 4.708839 -16.408002 22.431855 -0.312932 2.391257 0.077067 -0.025612 -44107.500000 0 1 0
33.131152 -15.418861 28.335600 46.241980 -0.435577 0.911238 0.063281 -0.006546 -211653.000000 0 0 1
32.126982 -14.443661 28.442720 45.274172 -0.422505 0.891517 0.074071 -0.004931 -13557.100000 0 0 1
31.251502 -14.634561 29.577430 45.449435 -0.437954 0.862189 0.073474 -0.002464 424466.000000 0 0 1
31.759132 -14.566761 31.082080 46.764609 -0.430035 0.843772 0.070196 -0.016812 -88269.300000 0 0 1
32.213392 -13.323061 31.589230 47.043448 -0.392165 0.834578 0.071931 -0.020639 34023.000000 0 0 1
31.877632 -13.184161 32.985333 47.728794 -0.392164 0.807787 0.069549 -0.025505 -7239.090000 0 0 1
32.617862 -11.948361 33.625487 48.346268 -0.351133 0.801662 0.083791 -0.031059 255431.000000 0 0 1
32.343642 -11.721861 -32.819212 47.545913 -0.347693 2.332650 0.080882 -0.041241 -217534.000000 0 0 1
32.776012 -10.443061 -32.431042 47.276812 -0.308450 2.326749 0.062626 -0.031507 -38406.700000 0 0 1
32.274432 -9.910261 -31.065892 45.879645 -0.297923 2.314634 0.075723 -0.037394 -183004.000000 0 0 1
30.868592 -9.843861 -31.048752 44.875345 -0.308701 2.334898 0.094917 -0.041040 -279354.000000 0 0 1
30.486432 -9.331761 -29.810422 43.648202 -0.297040 2.322618 0.087665 -0.038779 -954391.000000 0 0 1
28.978102 -9.466361 -29.650832 42.526629 -0.315744 2.342322 0.075031 -0.020897 -721078.000000 0 0 1
28.625602 -9.417361 -28.307452 41.345176 -0.317831 2.324936 0.070756 -0.033005 -323696.000000 0 0 1
27.750402 -10.460061 -28.080832 40.841533 -0.360465 2.328914 0.104059 -0.034966 -1029570.000000 0 0 1
27.382202 -10.596961 -26.561402 39.592785 -0.369251 2.306171 0.106397 -0.025268 47350.600000 0 0 1
26.545802 -9.568961 -25.948072 38.334672 -0.345971 2.314316 0.096607 -0.025784 904257.000000 0 0 1
25.252102 -9.366061 -26.501912 37.785488 -0.355173 2.348125 0.092199 -0.028270 774988.000000 0 0 1
24.133102 -10.450261 -26.320602 37.207374 -0.408649 2.356613 0.109255 -0.017184 -184842.000000 0 0 1
24.513902 -11.536761 -27.167092 38.367683 -0.439870 2.357561 0.106058 -0.018625 9865.470000 0 0 1
23.929002 -12.805661 -26.851092 38.178046 -0.491372 2.350843 0.116188 -0.024760 49935.100000 0 0 1
24.712902 -13.918861 -27.547502 39.538931 -0.512938 2.341609 0.102069 -0.004928 108410.000000 0 0 1
24.767802 -13.804661 -28.944722 40.519250 -0.508479 2.366484 0.102678 -0.015434 4878.070000 0 0 1
25.564702 -14.836461 -29.490892 41.753889 -0.525845 2.355058 0.091290 -0.016974 8933.640000 0 0 1
25.753002 -15.002961 -30.998622 43.002564 -0.527506 2.375832 0.091154 -0.019114 270458.000000 0 0 1
24.504802 -15.341761 -31.605982 42.834484 -0.559370 2.400695 0.099082 -0.013603 363359.000000 0 0 1
24.574702 -15.626661 -33.013572 44.022772 -0.566388 2.418738 0.088542 -0.013016 -26758.100000 0 0 1
24.836302 -14.472661 33.835460 44.397502 -0.527618 0.704242 0.050431 -0.010494 430063.000000 0 0 1
23.785102 -13.500961 33.760809 43.448812 -0.516272 0.680871 0.068309 -0.016216 249953.000000 0 0 1
24.007302 -12.741961 32.582346 42.430147 -0.487947 0.695231 0.041618 -0.010615 -375525.000000 0 0 1
23.139302 -11.477461 32.739560 41.701777 -0.460455 0.667958 0.070582 -0.025245 848431.000000 0 0 1
21.727702 -11.684161 32.624785 40.902191 -0.493393 0.647442 0.058054 -0.021313 660981.000000 0 0 1
21.346202 -11.660861 31.234210 39.588027 -0.499978 0.661647 0.046701 -0.012492 -1399540.000000 0 0 1
19.847702 -11.792361 31.017930 38.666562 -0.536101 0.639842 0.057515 -0.010318 -695648.000000 0 0 1
19.218102 -10.550961 31.189650 38.124172 -0.502084 0.612685 0.063082 -0.026957 218969.000000 0 0 1
18.247402 -10.642661 32.273426 38.572114 -0.528007 0.579560 0.037421 -0.010201 249190.000000 0 0 1
17.363302 -9.397561 32.275678 37.835404 -0.496086 0.548984 0.046439 -0.019208 631936.000000 0 0 1
16.234002 -9.457761 31.330910 36.532424 -0.527519 0.540174 0.094471 -0.026444 1366730.000000 0 0 1
15.299702 -8.375961 31.487730 35.996038 -0.500890 0.505865 0.106224 -0.027678 1001760.000000 0 0 1
14.174002 -8.615361 32.549925 36.532512 -0.546156 0.471286 0.116480 -0.033973 -1172170.000000 0 0 1
13.241302 -9.592461 32.278705 36.183728 -0.626938 0.468873 0.119384 -0.027911 106069.000000 0 0 1
12.123802 -9.537861 33.197949 36.606846 -0.666582 0.434981 0.116428 -0.028918 1130270.000000 0 0 1
10.992702 -8.600861 32.638843 35.498005 -0.663926 0.404102 0.125430 -0.035327 -521426.000000 0 0 1
11.296302 -7.224061 32.789642 35.425331 -0.568963 0.388182 0.127940 -0.040502 487439.000000 0 0 1
10.265202 -6.472361 32.149701 34.363776 -0.562555 0.360928 0.139742 -0.029797 333920.000000 0 0 1
10.411102 -4.988461 32.264174 34.267371 -0.446827 0.343617 0.120774 -0.030012 41558.300000 0 0 1
10.471702 -4.475361 33.604989 35.482118 -0.403882 0.326731 0.098456 -0.039343 293147.000000 0 0 1
11.072702 -3.179761 33.566478 35.488365 -0.279646 0.330610 0.078649 -0.029063 55480.300000 0 0 1
10.959102 -2.506061 -32.858592 34.728509 -0.224809 2.811944 0.076353 -0.037148 -519585.000000 0 0 1
9.636102 -2.113561 -32.675402 34.132147 -0.215918 2.848381 0.078283 -0.016532 -645368.000000 0 0 1
9.422302 -1.146061 -31.670082 33.061871 -0.121038 2.850405 0.081587 -0.019014 -45429.000000 0 0 1
7.945702 -0.825361 -31.391072 32.391585 -0.103504 2.892400 0.085555 -0.019033 -237050.000000 0 0 1
7.256302 -0.047861 -32.341132 33.145211 -0.006596 2.920876 0.084738 -0.017408 589276.000000 0 0 1
5.863302 -0.019361 -31.968052 32.501308 -0.003302 2.960196 0.105336 -0.021930 860076.000000 0 0 1
5.047102 0.997539 -32.794252 33.195350 0.195131 2.985982 0.115260 -0.023021 -66205.000000 0 0 1
5.498002 2.324239 -32.663482 33.204415 0.399957 2.960842 0.091607 -0.028385 62276.300000 0 0 1
5.029002 3.090839 -33.817692 34.329003 0.551088 2.968783 0.095804 -0.031840 -29434.300000 0 0 1
5.740902 4.415139 33.829130 34.595685 0.655593 0.210902 0.074191 -0.030438 -147518.000000 0 0 1
5.238802 5.230139 32.817258 33.641817 0.784571 0.221859 0.096624 -0.039754 58173.400000 0 0 1
6.214602 6.230239 32.583662 33.751033 0.786655 0.263776 0.079884 -0.038290 262205.000000 0 0 1
5.753102 7.288039 31.572290 32.909318 0.902559 0.286027 0.101668 -0.040623 -141405.000000 0 0 1
4.693202 8.129739 32.018586 33.366280 1.047244 0.285187 0.110223 -0.038227 -36264.800000 0 0 1
4.400202 9.274739 31.215880 32.860519 1.127814 0.317718 0.111615 -0.040413 -212405.000000 0 0 1
3.880202 9.031239 29.818970 31.397297 1.165000 0.318422 0.103723 -0.037818 65696.300000 0 0 1
2.527802 8.571639 29.787010 31.098694 1.284022 0.291472 0.115461 -0.043335 96167.400000 0 0 1
2.269702 8.373739 28.428430 29.722831 1.306106 0.296206 0.096878 -0.026481 62808.400000 0 0 1
0.914502 7.683139 28.168850 29.212173 1.452327 0.268067 0.108464 -0.028525 -860406.000000 0 0 1
-0.196998 8.412639 28.461990 29.679895 -1.547384 0.287466 0.106194 -0.024879 -1042990.000000 0 0 1
-1.228198 8.124339 27.526540 28.726708 -1.420757 0.290079 0.097554 -0.024389 -191913.000000 0 0 1
-2.659498 8.468739 27.877380 29.256466 -1.266512 0.308262 0.087644 -0.020749 -559584.000000 0 0 1
-2.975798 9.811639 28.148720 29.957872 -1.276322 0.349307 0.089966 -0.020461 -791177.000000 0 0 1
-4.303398 9.908539 28.561380 30.536058 -1.161065 0.361597 0.075804 -0.008871 -593026.000000 0 0 1
-4.471198 11.118239 29.541600 31.879664 -1.188438 0.385369 0.075652 -0.012261 -295282.000000 0 0 1
-4.652498 12.399939 28.914750 31.803569 -1.211847 0.429517 0.063491 -0.020954 779509.000000 0 0 1
-5.794198 12.668139 28.072240 31.338557 -1.141819 0.460629 0.054212 -0.022323 443386.000000 0 0 1
-5.753498 14.121339 27.602010 31.533885 -1.183899 0.504714 0.034188 -0.018445 371803.000000 0 0 1
-4.785698 14.450239 26.598640 30.646370 -1.250981 0.519794 0.024747 -0.011184 24825.300000 0 0 1
-4.983398 15.800239 26.324820 31.104308 -1.265272 0.561720 0.035665 -0.009172 -48481.400000 0 0 1
-3.799398 16.463439 25.607390 30.679288 -1.343989 0.583245 0.048288 -0.016531 -425162.000000 0 0 1
-3.746998 16.172439 24.216470 29.360266 -1.343123 0.600941 0.032835 0.003213 114752.000000 0 0 1
-2.701298 16.909439 23.585740 29.146411 -1.412384 0.627980 0.029804 -0.002520 336113.000000 0 0 1
-2.711698 16.646439 22.081050 27.785428 -1.409315 0.652285 0.038841 -0.009758 -161463.000000 0 0 1
-2.106898 15.502339 21.590550 26.662959 -1.435716 0.627056 0.030100 -0.013115 -308263.000000 0 0 1
-2.545698 15.184939 20.292550 25.472545 -1.404695 0.649074 0.033461 -0.017568 -86719.100000 0 0 1
-1.752998 14.062039 19.620350 24.202729 -1.446774 0.625506 0.025995 -0.013174 95124.100000 0 1 0
-2.107198 12.751739 19.987150 23.801960 -1.407028 0.574016 0.022444 -0.009915 505373.000000 0 1 0
-1.151898 11.947139 19.283850 22.714046 -1.474677 0.556738 0.027211 -0.006347 334635.000000 0 1 0
-1.748298 10.572639 18.985550 21.801109 -1.406919 0.513862 0.009425 -0.012913 -661329.000000 0 1 0
-1.944198 9.575539 20.008150 22.266498 -1.370481 0.454282 0.027878 -0.024751 623096.000000 0 1 0
-2.892498 9.933339 21.061150 23.465076 -1.287441 0.456608 0.048549 -0.016844 -88243.400000 0 1 0
-4.335498 10.147139 20.651250 23.414421 -1.167010 0.490731 0.041430 -0.015272 -1437350.000000 0 1 0
-5.052598 8.953539 20.627550 23.047569 -1.057031 0.462367 0.041012 -0.023315 109777.000000 0 1 0
-6.467398 9.042439 20.708950 23.504331 -0.949924 0.492678 0.040876 -0.020478 738338.000000 0 1 0
-7.168898 7.625639 20.747550 23.237993 -0.816261 0.467209 0.046443 -0.022069 185378.000000 0 1 0
-7.082198 6.960339 21.975450 24.114814 -0.776721 0.424404 0.054352 -0.026780 26954.300000 0 1 0
-7.826798 5.772839 21.924250 23.984519 -0.635501 0.417513 0.046399 -0.022897 9536.610000 0 1 0
-7.859098 4.932939 23.189700 24.977219 -0.560519 0.380621 0.051661 -0.030179 -270158.000000 0 1 0
-8.716298 5.451039 24.189780 26.283705 -0.558876 0.401863 0.048759 -0.018474 153396.000000 0 0 1
-8.800598 4.680739 25.397920 27.283955 -0.488814 0.373999 0.049252 -0.009585 -244166.000000 0 0 1
-9.772098 5.202039 26.453490 28.676510 -0.489181 0.396342 0.045632 -0.008072 34596.800000 0 0 1
-9.314698 6.484339 26.935200 29.228672 -0.608131 0.398785 0.040030 -0.008021 731970.000000 0 0 1
-10.312098 6.981839 27.859930 30.516572 -0.595159 0.420355 0.048893 -0.009684 600231.000000 0 0 1
-9.869798 8.297439 28.530560 31.308996 -0.699064 0.424469 0.057442 -0.009758 153657.000000 0 0 1
-8.789498 7.972539 29.382880 31.688646 -0.736698 0.383831 0.055942 -0.012178 160432.000000 0 0 1
-8.358698 9.071639 30.243270 32.662178 -0.826278 0.387275 0.051164 -0.013270 291333.000000 0 0 1
-7.437098 8.629039 31.422740 33.423934 -0.859452 0.347794 0.064749 -0.014183 197559.000000 0 0 1
-6.219998 8.116039 30.917060 32.564138 -0.916892 0.319411 0.071870 -0.014358 -323236.000000 0 0 1
-5.534498 7.540639 32.024046 33.362126 -0.937643 0.284179 0.109578 -0.019185 -16665.200000 0 0 1
-4.031898 7.227639 31.883723 32.940352 -1.061951 0.253969 0.088070 -0.017987 326596.000000 0 0 1
-3.348598 8.448439 31.591620 32.872780 -1.193434 0.280104 0.077695 -0.019549 408445.000000 0 0 1
-1.942498 8.480839 31.883637 33.049421 -1.345635 0.266396 0.092753 -0.032235 862095.000000 0 0 1
-1.305998 9.774239 31.435620 32.946010 -1.437967 0.303971 0.094842 -0.029928 -235838.000000 0 0 1
-1.733198 10.814739 32.255801 34.064634 -1.411885 0.327343 0.096366 -0.041513 -178121.000000 0 0 1
-1.566098 12.030339 31.609230 33.857424 -1.441345 0.366470 0.083173 -0.039052 -227351.000000 0 0 1
-1.758798 13.288939 32.447704 35.107589 -1.439211 0.391766 0.081082 -0.045881 -701215.000000 0 0 1
-0.604898 13.729639 33.088727 35.829217 -1.526767 0.393657 0.115070 -0.042649 -522346.000000 0 0 1
-0.880198 14.688739 -33.692162 36.765413 -1.510945 2.729811 0.109945 -0.045676 -29942.200000 0 0 1
0.424702 15.171339 -33.057092 36.374733 1.542810 2.711178 0.080500 -0.042632 -359189.000000 0 0 1
1.341402 15.779939 33.878320 37.397144 1.485993 0.437281 0.086045 -0.042372 -87252.700000 0 0 1
2.547902 15.988439 -33.216482 36.952086 1.412766 2.688064 0.097581 -0.042073 -180789.000000 0 0 1
3.583502 16.748939 33.790770 37.883830 1.360020 0.469140 0.099380 -0.030358 -227312.000000 0 0 1
3.210802 18.100539 33.670343 38.361840 1.395235 0.499747 0.080780 -0.021901 622205.000000 0 0 1
4.352602 18.899739 33.296016 38.532713 1.344443 0.527442 0.060752 0.001576 670391.000000 0 0 1
4.083202 20.392639 33.311831 39.270986 1.373180 0.558114 0.063582 -0.012649 -51118.600000 0 0 1
3.967202 20.937839 -33.151522 39.410090 1.383541 2.570283 0.077667 -0.037063 179102.000000 0 0 1
4.043002 22.335339 -33.171172 40.193779 1.391722 2.541496 0.073136 -0.028384 26643.600000 0 0 1
3.988702 23.102739 -31.822802 39.526409 1.399831 2.506644 0.090458 -0.026493 111578.000000 0 0 1
3.431002 24.421139 -31.995782 40.396706 1.431217 2.484939 0.090994 -0.033465 409669.000000 0 0 1
3.240402 25.099939 -30.754222 39.828750 1.442406 2.453032 0.104037 -0.039008 232555.000000 0 0 1
2.690102 26.534139 -30.660972 40.637327 1.469759 2.425692 0.112102 -0.044421 -101063.000000 0 0 1
3.770502 27.394439 -30.867422 41.442366 1.434018 2.411073 0.109284 -0.044525 40378.000000 0 0 1
3.420602 28.661339 -30.445272 41.953396 1.452013 2.382837 0.102630 -0.045444 -1052400.000000 0 0 1
4.559702 29.618739 -30.325882 42.634724 1.418049 2.362136 0.118760 -0.053489 -271382.000000 0 0 1
5.407802 29.317539 -29.181332 41.717054 1.388390 2.345502 0.106589 -0.058429 452666.000000 0 0 1
6.154802 30.449539 -28.755072 42.330960 1.371352 2.317593 0.120032 -0.062628 -826122.000000 0 0 1
7.239102 30.071139 -27.732402 41.542317 1.334559 2.301736 0.124176 -0.057052 -352200.000000 0 0 1
8.388202 29.450939 -28.267282 41.674440 1.293324 2.316227 0.124014 -0.050751 896546.000000 0 0 1
9.585302 30.217639 -28.513582 42.638106 1.263627 2.303302 0.126624 -0.051314 819234.000000 0 0 1
9.413102 31.451339 -29.474692 44.119731 1.279990 2.302397 0.143842 -0.059440 -847012.000000 0 0 1
8.660002 32.501539 -28.762742 44.256536 1.310397 2.278262 0.138070 -0.054454 534330.000000 0 0 1
8.498302 33.735639 -29.430412 45.568231 1.324022 2.272937 0.136690 -0.047981 101678.000000 0 0 1
7.296202 33.739239 -30.436262 46.021048 1.357823 2.293420 0.108302 -0.039268 305818.000000 0 0 1
7.528602 33.151039 -31.645162 46.444456 1.347484 2.320409 0.097784 -0.039535 174132.000000 0 0 1
6.258002 33.067939 -32.252642 46.614205 1.383761 2.334922 0.092434 -0.035281 37409.300000 0 0 1
6.218102 32.213839 -33.538352 46.917132 1.380116 2.367195 0.098520 -0.044855 -40166.000000 0 0 1
6.841902 32.908839 33.227770 47.264025 1.365812 0.791155 0.101543 -0.044517 152551.000000 0 0 1
6.808202 32.111939 32.053341 45.879679 1.361875 0.797303 0.103858 -0.042798 -504918.000000 0 0 1
6.358402 32.877739 30.769370 45.476688 1.379759 0.827666 0.093433 -0.048312 342001.000000 0 0 1
7.334602 33.680639 30.098970 45.761664 1.356375 0.852991 0.102257 -0.044925 481434.000000 0 0 1
6.752402 -33.541544 28.928470 44.804983 -1.372137 0.868918 0.082415 -0.055650 -206956.000000 0 0 1
18.274010 -21.110261 29.130450 40.350535 -0.857289 0.764202 0.115625 -0.019643 1037490.000000 0 0 1
17.018410 -20.400061 29.315120 39.562167 -0.875527 0.736255 0.122793 -0.015752 1047040.000000 0 0 1
15.911010 -21.166361 29.727300 39.810645 -0.926200 0.727683 0.130439 -0.010865 58700.800000 0 0 1
15.679310 -21.633261 31.189110 41.068228 -0.943634 0.708335 0.122386 -0.017814 -307015.000000 0 0 1
16.430510 -22.782861 31.585140 42.268682 -0.945998 0.726887 0.125241 -0.026198 166963.000000 0 0 1
16.285310 -23.052761 32.935505 43.374977 -0.955764 0.708528 0.106923 -0.024858 342460.000000 0 0 1
17.265610 -24.131461 33.526024 44.770783 -0.949756 0.724491 0.108253 -0.027730 238502.000000 0 0 1
16.901310 -25.452371 33.177288 45.102216 -0.984617 0.744241 0.125983 -0.033710 -140282.000000 0 0 1
17.641910 -26.349651 -33.858352 46.388889 -0.980813 2.388944 0.127069 -0.034476 -192438.000000 0 0 1
17.227610 -27.792111 33.703996 46.959039 -1.015892 0.770257 0.121083 -0.023878 21990.400000 0 0 1
17.775710 -28.318611 32.534271 46.651885 -1.010255 0.799056 0.114254 -0.026348 -140341.000000 0 0 1
17.451710 -29.656581 32.373161 47.245069 -1.038905 0.815894 0.116403 -0.035430 -169127.000000 0 0 1
18.138110 -30.337901 31.210170 47.153515 -1.031945 0.847467 0.120848 -0.031159 1078740.000000 0 0 1
19.497910 -30.763391 31.469630 48.134108 -1.005892 0.858213 0.122051 -0.040368 1272980.000000 0 0 1
20.152210 -31.219641 30.260060 47.921277 -0.997593 0.887370 0.097666 -0.029200 -180434.000000 0 0 1
21.483810 -31.952981 30.455970 49.092904 -0.978865 0.901577 0.085531 -0.029660 585155.000000 0 0 1
22.553110 -31.070091 30.895330 49.279963 -0.942913 0.893184 0.087950 -0.029133 342523.000000 0 0 1
23.817510 -31.551221 30.537460 49.952876 -0.924177 0.913062 0.061968 -0.023698 -709181.000000 0 0 1
24.828610 -30.434751 30.814030 49.922323 -0.886496 0.905567 0.053811 -0.027637 -264295.000000 0 0 1
26.042310 -30.659271 30.123850 50.255737 -0.866645 0.928031 0.060169 -0.024165 -312663.000000 0 0 1
26.840210 -29.502991 30.090470 49.962583 -0.832623 0.924467 0.055936 -0.016037 484751.000000 0 0 1
27.985210 -29.661491 29.025980 50.054805 -0.814468 0.952210 0.045453 -0.010504 786854.000000 0 0 1
28.967910 -30.669011 29.338590 51.385610 -0.813915 0.963134 0.032313 -0.005852 -108018.000000 0 0 1
29.962110 -30.632641 28.358600 51.383820 -0.796464 0.986158 0.024509 -0.012601 170871.000000 0 0 1
31.143110 -31.609131 28.628070 52.807167 -0.792824 0.997833 0.019019 -0.025214 364320.000000 0 0 1
30.661510 -32.957731 28.496020 53.276293 -0.821476 1.006440 0.016111 -0.013349 478947.000000 0 0 1
31.527410 -33.876361 29.190700 54.714554 -0.821297 1.008053 0.032516 -0.012788 -229242.000000 0 0 1
30.704810 32.867672 29.933900 54.028767 0.819407 0.983591 0.027658 -0.009536 -200277.000000 0 0 1
29.953210 33.301331 31.074940 54.514451 0.838280 0.964252 0.030268 -0.008849 460641.000000 0 0 1
28.834910 -33.635131 30.953590 54.045340 -0.862088 0.960959 0.007584 0.000684 719234.000000 0 0 1
27.675810 33.725067 29.959610 52.923613 0.883602 0.969040 0.022253 -0.008628 388102.000000 0 0 1
27.092810 32.425603 30.266550 51.975996 0.874759 0.949219 0.019479 -0.005787 571923.000000 0 0 1
25.667910 32.431751 30.176000 51.198155 0.901294 0.940485 0.024460 -0.009161 619039.000000 0 0 1
25.069810 31.027353 30.244910 50.059431 0.891202 0.922060 0.048406 -0.018598 -491486.000000 0 0 1
25.213210 30.356773 29.058670 49.006591 0.877695 0.936074 0.054805 -0.017226 83931.300000 0 0 1
24.645110 29.076863 29.148850 47.984381 0.867706 0.917930 0.096532 -0.031353 -220051.000000 0 0 1
24.152010 28.469973 27.788980 46.541233 0.867271 0.930936 0.098802 -0.031009 532418.000000 0 0 1
23.035510 29.302123 27.417300 46.270482 0.904565 0.936583 0.118605 -0.034999 523001.000000 0 0 1
22.321710 28.848483 26.264760 44.948096 0.912263 0.946736 0.113338 -0.031595 1218360.000000 0 0 1
20.924510 29.561703 26.037340 44.605745 0.954838 0.947492 0.116813 -0.028050 976633.000000 0 0 1
20.966110 30.870933 25.522740 45.210646 0.974199 0.970933 0.130025 -0.031880 -225975.000000 0 0 1
19.671710 31.286133 25.135800 44.694594 1.009492 0.973523 0.108831 -0.026576 -274778.000000 0 0 1
19.515810 32.736118 24.662200 45.395422 1.033209 0.996463 0.120391 -0.022765 -195136.000000 0 0 1
20.016210 33.028485 23.371050 45.141283 1.025956 1.026599 0.127176 -0.022745 -570449.000000 0 0 1
21.398110 33.158420 23.293020 45.824935 0.997711 1.037582 0.130108 -0.021054 -1028400.000000 0 0 1
21.853210 33.555678 21.911550 45.647150 0.993541 1.070119 0.137255 -0.027168 -170091.000000 0 0 1
21.327810 -33.041131 21.414050 44.778939 -0.997596 1.072173 0.120090 -0.020757 233120.000000 0 0 1
21.703110 -32.961431 20.048950 44.265577 -0.988511 1.100754 0.123286 -0.025885 -9381.250000 0 0 1
21.494110 -31.491701 19.588750 42.865407 -0.971890 1.096196 0.136467 -0.025950 726357.000000 0 0 1
22.509110 -30.534551 20.016350 42.891411 -0.935558 1.085269 0.131377 -0.020155 1129970.000000 0 0 1
22.066210 -29.301801 19.486150 41.535806 -0.925335 1.082478 0.124332 -0.031680 23751.300000 0 0 1
22.824010 -28.747331 18.275050 41.003926 -0.899754 1.108851 0.099585 -0.027785 -427242.000000 0 0 1
22.717410 -29.553891 17.103250 41.012612 -0.915448 1.140628 0.072407 -0.033396 254324.000000 0 0 1
23.336810 -28.886951 16.036150 40.450225 -0.891277 1.163159 0.064808 -0.026995 -479759.000000 0 0 1
23.074510 -29.524161 14.704650 40.253395 -0.907409 1.196839 0.034115 -0.029832 -22564.400000 0 0 1
23.752810 -30.766571 14.479050 41.477955 -0.913343 1.214209 0.082859 -0.032467 -27559.500000 0 0 1
23.780110 -31.222271 13.121650 41.382382 -0.919888 1.248144 0.077511 -0.032326 388677.000000 0 0 1
22.458710 -31.397071 12.299350 40.514735 -0.949867 1.262352 0.063035 -0.035259 316450.000000 0 0 1
21.483110 -32.259741 12.780250 40.811147 -0.983296 1.252282 0.068329 -0.037703 -337890.000000 0 0 1
20.438610 -32.582761 11.895550 40.260119 -1.010557 1.270852 0.078445 -0.025692 213760.000000 0 0 1
19.281310 -33.366951 12.564150 40.533692 -1.046818 1.255637 0.090418 -0.022525 121839.000000 0 0 1
18.778210 -32.521651 13.626250 39.949388 -1.047155 1.222722 0.075876 -0.017473 100303.000000 0 0 1
19.194810 -32.908321 14.932350 40.919108 -1.042761 1.197246 0.070186 -0.021796 -1115500.000000 0 0 1
18.960810 -31.852741 16.049850 40.394394 -1.033866 1.162192 0.074022 -0.020480 245006.000000 0 0 1
17.601610 -31.694041 16.400350 39.790707 -1.063847 1.145967 0.061978 -0.032198 418459.000000 0 0 1
16.753510 -32.803971 16.753950 40.465732 -1.098613 1.143921 0.063928 -0.024078 -546753.000000 0 0 1
17.076010 -33.501531 18.126750 41.743523 -1.099412 1.121601 0.066804 -0.027605 -288213.000000 0 0 1
18.095310 33.324644 18.072050 42.006799 1.073343 1.126063 0.067768 -0.024042 -69313.400000 0 0 1
18.308810 32.863588 19.374150 42.315312 1.062507 1.095219 0.063054 -0.018844 331677.000000 0 0 1
19.170710 31.554523 19.381450 41.699456 1.024849 1.087400 0.080410 -0.024773 184210.000000 0 0 1
18.459310 30.388823 18.969450 40.299711 1.024926 1.080702 0.050443 -0.024447 -57855.200000 0 0 1
19.339810 29.324213 18.687150 39.788783 0.987760 1.081892 0.057007 -0.030910 -73755.900000 0 0 1
18.684810 27.929413 18.478650 38.348856 0.981179 1.068024 0.059511 -0.026491 101232.000000 0 0 1
18.274910 27.234683 19.645750 38.231607 0.979789 1.031116 0.066250 -0.030044 111389.000000 0 0 1
17.823210 25.915123 19.315950 36.910247 0.968337 1.020051 0.068642 -0.026237 -309377.000000 0 0 1
17.751010 24.946603 20.550850 36.875043 0.952354 0.979653 0.069963 -0.019229 -67042.200000 0 0 1
16.612610 25.158383 21.344650 36.939371 0.987200 0.954730 0.071479 -0.020560 158340.000000 0 0 1
15.594310 24.188723 21.110550 35.692186 0.998161 0.937926 0.073195 -0.022458 310852.000000 0 0 1
14.198410 24.479293 21.713850 35.669622 1.045200 0.916313 0.096149 -0.041680 -93853.700000 0 0 1
13.581010 25.532003 21.014150 35.748028 1.081939 0.942409 0.083992 -0.038919 -266696.000000 0 0 1
12.414310 25.872783 21.735450 35.999247 1.123422 0.922568 0.089768 -0.043821 -135441.000000 0 0 1
11.497310 26.902643 21.052050 36.043434 1.166922 0.947057 0.068437 -0.043155 -246738.000000 0 0 1
12.086210 28.186313 21.199750 37.282356 1.165714 0.965961 0.050496 -0.041129 203093.000000 0 0 1
11.648710 29.043003 20.167350 37.227818 1.189355 0.998305 0.052283 -0.041757 -321644.000000 0 0 1
12.200010 30.466563 20.449150 38.668067 1.189911 1.013565 0.043369 -0.037916 -678935.000000 0 0 1
11.501810 31.303293 21.329950 39.587303 1.218678 1.001775 0.038943 -0.033488 -562465.000000 0 0 1
12.064310 31.237503 22.600350 40.399319 1.202232 0.977106 0.031435 -0.033639 -352536.000000 0 0 1
11.484310 32.246539 23.596420 41.575470 1.228661 0.967262 0.034353 -0.031765 -409178.000000 0 0 1
10.198210 31.842156 23.957580 41.132615 1.260845 0.949060 0.048674 -0.038858 -640427.000000 0 0 1
9.826110 32.310744 25.249270 42.167075 1.275571 0.928805 0.042207 -0.035518 -1346240.000000 0 0 1
8.524410 31.845469 25.840520 41.887133 1.309248 0.905988 0.126065 -0.059000 -1208720.000000 0 0 1
7.393210 32.653126 25.535970 42.106673 1.348134 0.919197 0.127231 -0.056262 301870.000000 0 0 1
6.715210 32.287558 24.348760 40.993201 1.365738 0.934811 0.130535 -0.062083 -434346.000000 0 0 1
5.852910 31.019873 24.324980 39.852148 1.384306 0.914255 0.132049 -0.056293 -664806.000000 0 0 1
6.575910 29.815803 24.573510 39.192883 1.353720 0.893114 0.100305 -0.047788 -609140.000000 0 0 1
5.938010 28.640123 24.147610 37.929193 1.366361 0.880650 0.099797 -0.047504 -392461.000000 0 0 1
6.967010 27.442553 24.210450 37.252903 1.322173 0.863351 0.089942 -0.050794 632785.000000 0 0 1
8.030110 27.510883 23.256160 36.907727 1.286798 0.889093 0.067694 -0.050023 991268.000000 0 0 1
9.053110 28.490503 23.573780 38.070864 1.263128 0.903063 0.083159 -0.048728 -325989.000000 0 0 1
10.270710 27.943903 24.343950 38.457471 1.218575 0.885362 0.086804 -0.056420 -944987.000000 0 0 1
9.975110 27.719513 25.718440 39.106424 1.225366 0.853098 0.083818 -0.049915 220058.000000 0 0 1
11.145510 27.561883 26.495920 39.823530 1.186519 0.842856 0.077593 -0.033510 257745.000000 0 0 1
12.117310 28.769703 26.622950 41.028118 1.172163 0.864665 0.064561 -0.032091 -525288.000000 0 0 1
11.603610 29.932133 27.299490 42.140699 1.200969 0.866080 0.063261 -0.041040 -45864.200000 0 0 1
12.575110 30.938243 27.550330 43.293521 1.184735 0.881024 0.054296 -0.032416 -384546.000000 0 0 1
12.093110 32.218267 28.260880 44.530185 1.211719 0.883247 0.049879 -0.041509 -301717.000000 0 0 1
11.834210 31.962981 29.643450 45.170951 1.216199 0.854958 0.062943 -0.051640 -586646.000000 0 0 1
10.539510 31.602223 29.986610 44.821630 1.248891 0.837906 0.082446 -0.050478 -869355.000000 0 0 1
10.303410 31.372533 31.499030 45.635348 1.253473 0.808985 0.125696 -0.050545 -205047.000000 0 0 1
10.810210 30.107713 31.979825 45.233220 1.226081 0.785551 0.091781 -0.050261 230770.000000 0 0 1
11.020010 30.069903 33.362733 46.246207 1.219516 0.764952 0.121701 -0.044784 -112817.000000 0 0 1
11.251910 28.631073 -33.883832 45.765247 1.196342 2.404437 0.109503 -0.044718 616239.000000 0 0 1
12.455010 27.984323 33.478398 45.376786 1.152049 0.741010 0.112289 -0.043505 463357.000000 0 0 1
12.287910 26.650553 33.785990 44.751959 1.138770 0.715201 0.112408 -0.035902 517767.000000 0 0 1
13.544710 25.853893 33.294114 44.276190 1.088216 0.719759 0.114461 -0.032693 414329.000000 0 0 1
13.658910 24.518893 33.736065 43.884667 1.062536 0.693922 0.092920 -0.025812 -192236.000000 0 0 1
13.974910 24.294163 -32.709002 43.074160 1.048784 2.433133 0.094878 -0.033447 -355535.000000 0 0 1
13.850810 22.738323 -32.344322 41.893095 1.023684 2.452885 0.076284 -0.050227 902832.000000 0 0 1
15.030810 22.034523 -32.820422 42.292145 0.972152 2.459160 0.079654 -0.038625 902489.000000 0 0 1
15.005310 20.606523 -32.557162 41.349207 0.941405 2.477329 0.082315 -0.033996 -559593.000000 0 0 1
16.305610 19.915323 -32.868632 41.747335 0.884728 2.477251 0.111910 -0.047937 -316191.000000 0 0 1
17.445010 20.305523 -32.125692 41.817493 0.861028 2.446877 0.104462 -0.055556 -275579.000000 0 0 1
18.611010 19.690323 -32.590562 42.381874 0.813570 2.448031 0.111646 -0.051958 -586836.000000 0 0 1
19.788610 20.027523 -31.669372 42.374991 0.791398 2.414876 0.086686 -0.044915 -415588.000000 0 0 1
20.140210 21.401023 -31.741562 43.256891 0.815740 2.394683 0.075394 -0.046760 81003.800000 0 0 1
21.211710 21.679023 -30.856092 43.266789 0.796293 2.364790 0.057981 -0.035918 324405.000000 0 0 1
20.721910 22.187823 -29.463272 42.305808 0.819548 2.341215 0.051369 -0.040830 125899.000000 0 0 1
20.106310 23.462983 -29.539172 42.747373 0.862288 2.333692 0.045305 -0.026821 56618.800000 0 0 1
19.700610 24.069893 -28.323802 42.067939 0.884891 2.309442 0.045097 -0.012812 -140673.000000 0 0 1
20.892710 24.587863 -27.471162 42.376091 0.866467 2.276107 0.038618 -0.016502 536152.000000 0 0 1
21.648910 25.727563 -27.958982 43.729709 0.871277 2.264461 0.029075 -0.003379 370896.000000 0 0 1
20.884910 26.950713 -28.152692 44.216450 0.911530 2.261010 0.035699 -0.004559 -11885.500000 0 0 1
21.595610 27.952603 -29.147042 45.795943 0.913000 2.260689 0.034835 -0.002141 -42864.600000 0 0 1
21.566110 27.575053 -30.562282 46.470783 0.907073 2.288513 0.049930 -0.005858 377391.000000 0 0 1
22.282310 26.424053 -31.077562 46.481682 0.870229 2.303118 0.059673 -0.006587 903976.000000 0 0 1
23.636410 25.947063 -30.447112 46.464573 0.831966 2.285344 0.068456 -0.016305 371528.000000 0 0 1
24.718310 26.788893 -30.743152 47.684180 0.825576 2.271459 0.062284 -0.016363 -119279.000000 0 0 1
25.953710 26.395093 -30.173152 47.756833 0.793830 2.254680 0.103761 -0.029164 1023330.000000 0 0 1
27.179310 27.294123 -30.591192 49.188465 0.787506 2.241986 0.085840 -0.019183 553616.000000 0 0 1
27.182110 28.467853 -29.852462 49.400964 0.808498 2.219670 0.057161 -0.007950 217461.000000 0 0 1
28.251110 29.279833 -30.321342 50.742661 0.803277 2.211240 0.059136 -0.011010 243789.000000 0 0 1
28.424110 30.656923 -29.664162 51.261481 0.823173 2.187910 0.047172 0.003185 -142463.000000 0 0 1
29.000710 30.526773 -28.396482 50.786664 0.811029 2.164136 0.069189 -0.004124 189721.000000 0 0 1
28.852110 31.731953 -27.631462 51.018220 0.832897 2.143135 0.045686 0.003370 -626642.000000 0 0 1
29.350010 31.427853 -26.181502 50.344851 0.819572 2.117698 0.065089 0.004762 18937.500000 0 0 1
28.705910 30.476463 -25.371702 48.954748 0.815306 2.115621 0.052921 0.007405 978564.000000 0 0 1
27.260710 30.452233 -25.400312 48.121312 0.840642 2.126851 0.039460 0.009786 607282.000000 0 0 1
26.530110 30.031093 -24.123802 46.772546 0.847217 2.112701 0.037168 0.015653 -255477.000000 0 0 1
26.417810 31.100383 -23.183202 46.931816 0.866629 2.087453 0.067255 0.000669 251237.000000 0 0 1
25.791410 30.628593 -21.956902 45.666323 0.870924 2.072377 0.034653 0.011427 447068.000000 0 0 1
3.361810 -25.906361 -19.364902 32.518313 -1.441750 2.208694 0.083524 -0.015907 -186374.000000 0 0 1
3.016510 -26.989881 -18.579102 32.904954 -1.459494 2.170780 0.084605 -0.016006 50546.100000 0 0 1
3.367510 -26.688681 -17.229102 31.944761 -1.445282 2.140450 0.109816 -0.020938 -148554.000000 0 0 1
3.247710 -27.837271 -16.173402 32.358000 -1.454654 2.094195 0.101168 -0.029276 733737.000000 0 0 1
4.314510 -28.824631 -16.168102 33.329894 -1.422218 2.077266 0.096074 -0.027080 737171.000000 0 0 1
4.197510 -29.617751 -15.008502 33.467676 -1.430011 2.035824 0.096914 -0.032106 78486.900000 0 0 1
5.585710 -30.224591 -14.696602 34.069284 -1.388051 2.016811 0.133731 -0.036413 -46029.000000 0 0 1
6.533510 -29.193481 -14.433902 33.215713 -1.350624 2.020335 0.102565 -0.031997 17156.600000 0 0 1
7.870510 -29.684751 -14.387002 33.913348 -1.311623 2.008906 0.100845 -0.032352 592606.000000 0 0 1
8.318710 -30.326091 -13.057402 34.049500 -1.303073 1.964361 0.084147 -0.037850 -1247650.000000 0 0 1
8.866910 -29.450381 -12.103402 33.052070 -1.278349 1.945710 0.088188 -0.035358 24729.100000 0 0 1
9.015810 -29.946851 -10.800402 33.086967 -1.278367 1.903315 0.096188 -0.036490 372362.000000 0 0 1
10.163010 -30.981141 -10.454002 34.240385 -1.253819 1.881062 0.078384 -0.034096 559521.000000 0 0 1
11.437410 -30.418881 -10.252902 34.077040 -1.211152 1.876406 0.088512 -0.041125 189973.000000 0 0 1
12.404310 -31.392651 -9.852902 35.163121 -1.194492 1.854805 0.089628 -0.035396 396887.000000 0 0 1
13.522810 -30.726111 -9.008202 34.757848 -1.156199 1.832959 0.094723 -0.036716 -156308.000000 0 0 1
14.419110 -29.873871 -9.677102 34.554380 -1.121112 1.854647 0.101922 -0.047928 319737.000000 0 0 1
15.552910 -29.718861 -8.836502 34.686993 -1.088656 1.828385 0.095463 -0.039998 263730.000000 0 0 1
16.787310 -28.939641 -9.362402 34.741490 -1.045153 1.843657 0.102505 -0.045161 191912.000000 0 0 1
16.733310 -27.523261 -9.506202 33.584244 -1.024537 1.857775 0.106473 -0.050965 131330.000000 0 0 1
16.107510 -27.072361 -10.724402 33.277280 -1.034076 1.898927 0.090591 -0.049278 84976.400000 0 0 1
15.705710 -25.576651 -10.789502 31.894321 -1.020099 1.915895 0.097047 -0.049451 -1249720.000000 0 0 1
14.619810 -25.262861 -9.992402 30.851241 -1.046180 1.900634 0.077627 -0.045321 -216160.000000 0 0 1
13.972810 -23.996361 -10.170102 29.571874 -1.043502 1.921875 0.066274 -0.030136 390197.000000 0 0 1
13.414010 -23.717061 -11.612102 29.618838 -1.056067 1.973657 0.051499 -0.027680 -768159.000000 0 0 1
14.421510 -23.306161 -12.495802 30.121456 -1.016678 1.998571 0.056938 -0.028067 -284828.000000 0 0 1
13.957410 -23.319861 -13.828102 30.493304 -1.031466 2.041462 0.068203 -0.025775 -172162.000000 0 0 1
14.961110 -22.803561 -14.869302 31.063376 -0.990154 2.069943 0.058909 -0.029331 -208032.000000 0 0 1
15.977910 -23.651661 -15.348802 32.408030 -0.976668 2.064183 0.055323 -0.028690 -280392.000000 0 0 1
16.446610 -22.998961 -16.461002 32.717087 -0.950006 2.098015 0.064526 -0.035347 -802478.000000 0 0 1
17.382710 -23.899561 -17.329302 34.258609 -0.941967 2.101149 0.064142 -0.030748 1573770.000000 0 0 1
18.721010 -24.152461 -16.836102 34.889424 -0.911412 2.074367 0.085439 -0.031279 730297.000000 0 0 1
19.641510 -23.108561 -16.957702 34.747059 -0.866322 2.080631 0.090418 -0.035278 -746816.000000 0 0 1
21.051910 -23.516461 -16.525902 35.627409 -0.840640 2.053136 0.080456 -0.032634 -9599.550000 0 0 1
21.759410 -24.383361 -17.413702 37.030490 -0.842203 2.060374 0.097134 -0.033262 612475.000000 0 0 1
23.160910 -24.303861 -17.124202 37.687447 -0.809473 2.042466 0.110836 -0.012446 844149.000000 0 0 1
24.031510 -25.351371 -17.854802 39.230083 -0.812119 2.043315 0.089535 -0.010054 -385456.000000 0 0 1
23.955110 -25.161981 -19.243902 39.715240 -0.809965 2.076642 0.116284 -0.019401 28091.000000 0 0 1
24.666710 -26.112991 -19.980402 41.104152 -0.813872 2.078409 0.103062 -0.021371 139244.000000 0 0 1
26.188610 -25.946081 -20.253902 42.062607 -0.780746 2.073182 0.088690 -0.028110 392407.000000 0 0 1
26.314810 -24.954861 -21.269102 42.042704 -0.758879 2.101213 0.104668 -0.035728 -151766.000000 0 0 1
26.682610 -23.706461 -20.804702 41.313358 -0.726403 2.098537 0.107320 -0.032459 282743.000000 0 0 1
25.490010 -22.633661 -20.702302 39.882434 -0.726113 2.116574 0.119432 -0.028739 1133530.000000 0 0 1
24.991010 -21.986061 -21.869002 39.827010 -0.721519 2.152083 0.132048 -0.028427 287224.000000 0 0 1
24.242110 -22.809961 -22.766602 40.327315 -0.754970 2.170679 0.099956 -0.029025 -340555.000000 0 0 1
23.588810 -21.966661 -23.874302 40.111699 -0.749805 2.208305 0.092088 -0.021432 -62412.900000 0 0 1
24.443110 -21.390361 -24.840002 40.890572 -0.718891 2.223674 0.096347 -0.016813 43245.600000 0 0 1
23.621210 -20.620461 -25.716232 40.552306 -0.717676 2.257705 0.084673 -0.014444 88445.700000 0 0 1
24.255910 -20.081761 -26.981752 41.468557 -0.691530 2.279244 0.082668 -0.010017 59712.500000 0 0 1
23.497310 -18.985761 -27.565932 40.895761 -0.679598 2.310479 0.076549 -0.003358 200886.000000 0 0 1
23.907610 -18.742061 -28.874962 41.911837 -0.664869 2.330829 0.076381 0.000451 -211345.000000 0 0 1
23.199910 -17.654961 -29.717362 41.629978 -0.650499 2.365770 0.115464 -0.006287 -630370.000000 0 0 1
21.888210 -17.972861 -30.089832 41.322094 -0.687487 2.386456 0.108405 -0.002907 -151121.000000 0 0 1
21.336110 -16.836961 -30.775142 41.058765 -0.668078 2.418162 0.109591 -0.009502 -91745.900000 0 0 1
20.059710 -17.260961 -31.516922 41.153968 -0.710546 2.443127 0.080706 -0.007669 -351129.000000 0 0 1
20.294110 -18.091361 -32.673242 42.505164 -0.728076 2.447585 0.087877 -0.007592 417303.000000 0 0 1
19.125810 -18.722561 -33.191372 42.637988 -0.774744 2.462983 0.089645 -0.011616 62910.600000 0 0 1
19.367910 -19.466161 33.301869 43.163200 -0.787928 0.689548 0.114131 -0.012654 313741.000000 0 0 1
20.342810 -20.497461 33.489619 44.221379 -0.789185 0.711601 0.111123 -0.009982 284627.000000 0 0 1
20.320310 -21.487161 32.457299 43.910014 -0.813301 0.738948 0.110956 -0.016372 -130958.000000 0 0 1
21.296510 -22.664161 32.598962 45.054388 -0.816499 0.761869 0.100265 -0.009314 -134336.000000 0 0 1
20.843510 -23.703361 33.440975 45.984780 -0.849509 0.756536 0.112838 -0.016466 18556.200000 0 0 1
21.106710 -23.553061 -32.982802 45.695788 -0.840121 2.377183 0.113931 -0.026344 57745.900000 0 0 1
20.235810 -24.454761 -32.015062 45.083118 -0.879523 2.360485 0.108500 -0.027214 40275.900000 0 0 1
20.467410 -25.832561 -32.012322 45.945890 -0.900762 2.341639 0.120600 -0.042328 -191003.000000 0 0 1
21.226910 -26.210611 -30.904342 45.745559 -0.890072 2.312534 0.102539 -0.040588 -140942.000000 0 0 1
21.361710 -27.670741 -30.701202 46.524793 -0.913366 2.291467 0.104363 -0.048185 93204.900000 0 0 1
20.129610 -28.226801 -30.279622 46.030522 -0.951307 2.288712 0.112301 -0.055223 116073.000000 0 0 1
20.203410 -29.685351 -30.217872 46.930988 -0.973220 2.270353 0.112425 -0.054748 112050.000000 0 0 1
18.875110 -30.256981 -29.648862 46.376822 -1.013041 2.264388 0.141533 -0.052410 1188040.000000 0 0 1
17.711110 -30.293091 -30.507742 46.498140 -1.041734 2.286444 0.151635 -0.054515 612975.000000 0 0 1
17.798610 -31.097021 -31.705402 47.843993 -1.050950 2.295192 0.150854 -0.055608 -193993.000000 0 0 1
16.398710 -31.662621 -32.105912 47.981546 -1.092916 2.303834 0.151645 -0.057318 369801.000000 0 0 1
15.506610 -30.670261 -32.499642 47.300598 -1.102686 2.328269 0.151466 -0.054462 -495627.000000 0 0 1
14.277810 -31.214871 -32.929872 47.566800 -1.141802 2.335450 0.119650 -0.044009 235625.000000 0 0 1
13.369310 -30.232231 -33.687432 47.197132 -1.154431 2.365649 0.112728 -0.034205 423151.000000 0 0 1
12.645510 -29.260771 -32.871802 45.789267 -1.162872 2.371568 0.130104 -0.035850 571171.000000 0 0 1
11.803310 -28.516951 -33.796932 45.768627 -1.178361 2.401536 0.101925 -0.028002 477489.000000 0 0 1
10.727710 -27.644181 -33.115762 44.451526 -1.200622 2.411310 0.110911 -0.025884 1125850.000000 0 0 1
9.635910 -28.372291 -32.468312 44.181771 -1.243395 2.396286 0.105406 -0.017853 1227970.000000 0 0 1
8.581810 -27.463821 -32.141332 43.139009 -1.267932 2.411427 0.057566 -0.012524 949454.000000 0 0 1
7.350110 -28.058771 -31.365932 42.721662 -1.314599 2.395273 0.039506 -0.011306 972319.000000 0 0 1
6.360010 -28.702691 -32.186432 43.591978 -1.352737 2.401427 0.045272 -0.008816 393398.000000 0 0 1
6.563810 -30.138301 -32.449022 44.769853 -1.356355 2.381535 0.053757 -0.006920 254750.000000 0 0 1
5.224110 -30.928941 -32.605242 45.243701 -1.403469 2.375547 0.079165 -0.024138 209521.000000 0 0 1
4.688210 -31.361511 -31.428512 44.646108 -1.422406 2.351736 0.085312 -0.036498 -45085.700000 0 0 1
3.600910 -32.239571 -31.701392 45.357851 -1.459565 2.344679 0.101118 -0.058491 -659478.000000 0 0 1
2.701410 -32.524771 -30.499072 44.669360 -1.487930 2.322349 0.082140 -0.057502 786262.000000 0 0 1
1.648910 -31.572301 -30.204462 43.724576 -1.518617 2.333376 0.068257 -0.045153 654968.000000 0 0 1
0.494010 -31.552691 -31.000512 44.236275 -1.555141 2.347306 0.065025 -0.017227 -110951.000000 0 0 1
-0.524890 -30.450411 -30.536662 43.127610 1.553561 2.357534 0.058190 -0.013055 234449.000000 0 0 1
-1.221190 -30.782101 -29.352402 42.551057 1.531145 2.332031 0.056241 -0.023456 -98711.000000 0 0 1
-2.105390 -29.760331 -28.995302 41.603335 1.500169 2.341927 0.104309 -0.024317 44004.200000 0 0 1
-2.694390 -29.921921 -27.553552 40.764927 1.480991 2.312999 0.114195 -0.029971 206325.000000 0 0 1
-1.692190 -29.716791 -26.572922 39.900768 1.513914 2.299597 0.092720 -0.018795 295322.000000 0 0 1
-2.207690 -29.856131 -25.255782 39.167805 1.496986 2.271571 0.106784 -0.020247 105780.000000 0 0 1
-1.134790 -30.355981 -24.277602 38.886697 1.533431 2.245052 0.068781 -0.019943 -31499.500000 0 0 1
-1.595890 -30.281361 -22.906102 38.002594 1.518143 2.217741 0.104563 -0.030137 -145357.000000 0 0 1
-0.641690 -30.627361 -21.954602 37.688878 1.549848 2.192624 0.093518 -0.023152 -205082.000000 0 0 1
-1.232190 -30.371261 -20.546802 36.689274 1.530248 2.165209 0.051212 -0.010083 170664.000000 0 0 1
-1.277890 -29.024201 -20.080702 35.316735 1.526796 2.175586 0.035262 -0.011845 -314448.000000 0 0 1
-0.092990 -28.716461 -19.402802 34.657069 1.567558 2.165003 0.062886 -0.021241 -440106.000000 0 0 1
-0.122190 -27.332131 -18.739802 33.139711 1.566326 2.171810 0.059937 -0.021026 -643537.000000 0 0 1
-1.000290 -27.308351 -17.673902 32.544022 1.534183 2.144893 0.061165 -0.022332 -130580.000000 0 0 1
-0.683790 -26.172821 -16.877102 31.149970 1.544676 2.143375 0.074715 -0.026531 544856.000000 0 0 1
-1.943790 -25.843611 -16.009602 30.462729 1.495724 2.124154 0.062023 -0.026231 259844.000000 0 0 1
-1.849890 -24.634961 -15.265302 29.040193 1.495845 2.124288 0.052681 -0.022605 457572.000000 0 0 1
-2.923190 -24.596161 -14.314502 28.608060 1.452504 2.094818 0.056962 -0.024109 260285.000000 0 0 1
-2.762690 -23.447161 -13.269202 27.082716 1.453511 2.082830 0.057915 -0.024912 -405759.000000 0 0 1
-1.722490 -23.588861 -12.363302 26.688060 1.497904 2.052458 0.078335 -0.034517 -722380.000000 0 0 1
-1.405890 -22.404061 -11.706602 25.317247 1.508127 2.051492 0.080308 -0.026567 -241861.000000 0 0 1
-0.194690 -22.553861 -10.789102 25.002385 1.562164 2.016977 0.079368 -0.028054 -92908.600000 0 0 1
0.305610 -21.285761 -10.355002 23.672834 -1.556440 2.023525 0.070720 -0.022983 -238748.000000 0 1 0
1.473110 -21.424161 -9.577402 23.513641 -1.502145 1.990306 0.059803 -0.019876 141849.000000 0 1 0
2.058710 -20.030361 -9.258602 22.162476 -1.468376 2.001775 0.050966 -0.014333 -798706.000000 0 1 0
2.503410 -19.483861 -10.497502 22.272975 -1.443010 2.061573 0.047877 -0.000390 628767.000000 0 1 0
3.477010 -18.417561 -10.366402 21.418646 -1.384205 2.076004 0.037173 0.001606 1292670.000000 0 1 0
4.920510 -18.752261 -9.865802 21.752994 -1.314186 2.041527 0.055120 -0.013600 175903.000000 0 1 0
4.897110 -19.066761 -8.494002 21.439942 -1.319390 1.978145 0.051109 -0.019442 508865.000000 0 1 0
6.019610 -19.898861 -8.135302 22.324504 -1.277038 1.943797 0.058045 -0.017397 352790.000000 0 1 0
5.560010 -20.880661 -7.068702 22.735044 -1.310559 1.886954 0.058813 -0.021978 228767.000000 0 1 0
4.873110 -22.000161 -7.669202 23.802750 -1.352812 1.898847 0.062346 -0.025005 165914.000000 0 1 0
4.471110 -22.985561 -6.758102 24.372090 -1.378677 1.851767 0.077461 -0.028575 -213645.000000 0 1 0
3.589310 -24.045161 -7.412702 25.416550 -1.422617 1.866746 0.085556 -0.027976 28226.100000 0 0 1
4.239810 -24.711761 -8.462502 26.462446 -1.400880 1.896307 0.094039 -0.028832 -91354.100000 0 0 1
3.305610 -25.606561 -9.001802 27.343289 -1.442414 1.906268 0.087146 -0.027586 203085.000000 0 0 1
3.875610 -26.439851 -10.194602 28.600978 -1.425251 1.935254 0.076576 -0.024515 341707.000000 0 0 1
4.832510 -27.432551 -9.790102 29.525312 -1.396426 1.908778 0.098095 -0.033996 263311.000000 0 0 1
5.381010 -28.051641 -10.905602 30.574204 -1.381273 1.935522 0.110260 -0.023809 -121395.000000 0 0 1
5.207010 -29.575361 -10.961102 31.968119 -1.396523 1.920773 0.095816 -0.038309 475257.000000 0 0 1
3.845410 -29.960501 -11.181502 32.209389 -1.443145 1.925327 0.094132 -0.039075 597868.000000 0 0 1
3.819110 -31.373641 -11.277002 33.556843 -1.449662 1.913523 0.101070 -0.040309 861550.000000 0 0 1
2.481810 -32.057721 -11.789502 34.246886 -1.493534 1.922237 0.096776 -0.052027 682786.000000 0 0 1
2.102710 -31.721591 -13.081902 34.377563 -1.504607 1.961172 0.099662 -0.053501 447346.000000 0 0 1
1.262010 -32.740091 -13.636502 35.488877 -1.532269 1.965189 0.089112 -0.044268 115377.000000 0 0 1
0.820210 -32.368131 -15.128302 35.738412 -1.545462 2.007888 0.088003 -0.040009 -80543.700000 0 0 1
-0.274690 -31.488511 -15.221402 34.975603 1.562073 2.021057 0.091570 -0.039917 -118359.000000 0 0 1
-0.671190 -31.327301 -16.578002 35.449688 1.549375 2.057425 0.064626 -0.036613 823913.000000 0 0 1
-2.034290 -30.577981 -16.830302 34.962984 1.504366 2.073019 0.067817 -0.022973 918292.000000 0 0 1
-3.182890 -31.199641 -16.270402 35.330926 1.469131 2.049371 0.067210 -0.029756 691418.000000 0 0 1
-4.344390 -30.749231 -17.014602 35.410247 1.430441 2.072020 0.072690 -0.018216 650641.000000 0 0 1
-5.674490 -30.926191 -16.285402 35.409651 1.389330 2.048695 0.084632 -0.023986 -704218.000000 0 0 1
-5.784890 -29.979171 -15.214502 34.112999 1.380176 2.033091 0.059159 -0.016191 186801.000000 0 0 1
-7.121190 -29.625891 -14.887402 33.912232 1.334901 2.025279 0.068582 -0.014245 235470.000000 0 0 1
-7.948890 -30.584791 -14.040702 34.579699 1.316525 1.988912 0.070333 -0.022848 -227056.000000 0 0 1
-8.227390 -31.786481 -14.721102 35.983067 1.317522 1.992277 0.087226 -0.030756 -549198.000000 0 0 1
-9.175090 -32.538331 -14.030802 36.603123 1.295954 1.964187 0.086991 -0.017131 -196356.000000 0 0 1
-9.209190 33.817553 -14.596602 37.967049 -1.304924 1.965413 0.135748 -0.032933 9682.590000 0 0 1
-8.119990 32.964433 -14.313102 36.843628 -1.329279 1.969780 0.134524 -0.043055 24910.700000 0 0 1
-8.373390 31.583763 -14.603102 35.789639 -1.311641 1.991087 0.151169 -0.052562 -376009.000000 0 0 1
-7.679690 -21.802161 -3.323702 23.352919 1.232123 1.713606 0.073423 -0.013589 66457.400000 0 1 0
-7.544290 -20.787861 -4.270302 22.523031 1.222660 1.761548 0.063053 -0.013247 131138.000000 0 1 0
-6.332890 -20.724161 -5.012002 22.242223 1.274228 1.798086 0.051594 -0.013673 405134.000000 0 1 0
-6.298990 -19.513861 -6.057502 21.381332 1.258559 1.858038 0.067332 -0.026876 52053.900000 0 1 0
-7.271390 -19.729261 -7.093202 22.190771 1.217685 1.896153 0.075551 -0.028638 365869.000000 0 1 0
-7.160090 -18.863261 -8.211702 21.783515 1.208018 1.957318 0.048332 -0.028696 -145132.000000 0 1 0
-8.163290 -19.131661 -9.351302 22.805845 1.167495 1.993294 0.057901 -0.022427 379201.000000 0 1 0
-7.572290 -19.996061 -10.315502 23.740084 1.208795 2.020300 0.057980 -0.021544 107720.000000 0 1 0
-8.617190 -20.359561 -11.164002 24.766966 1.170409 2.038415 0.076741 -0.022718 83738.700000 0 1 0
-8.104990 -21.241761 -12.322102 25.859958 1.206288 2.067458 0.066856 -0.020435 -631257.000000 0 0 1
-7.243390 -20.608061 -13.178402 25.511353 1.232801 2.113637 0.066853 -0.017518 -464322.000000 0 0 1
-6.844190 -21.464661 -14.258702 26.662430 1.262129 2.135051 0.054875 -0.012842 725448.000000 0 0 1
-5.685090 -20.909761 -15.184302 26.459428 1.305327 2.182021 0.044762 -0.005610 454766.000000 0 0 1
-4.382290 -20.955661 -14.638002 25.934827 1.364645 2.170521 0.041282 -0.009576 182465.000000 0 0 1
-3.400190 -20.194561 -15.332202 25.582376 1.403989 2.213456 0.042289 -0.004270 259477.000000 0 0 1
-3.467090 -18.624061 -15.283902 24.340789 1.386741 2.249665 0.050526 -0.003695 19108.700000 0 1 0
-4.581890 -18.065961 -16.020102 24.576743 1.322413 2.280804 0.044037 -0.004406 580864.000000 0 1 0
-4.419990 -18.191161 -17.402702 25.559903 1.332441 2.319732 0.068968 -0.015066 -151083.000000 0 0 1
-5.826490 -18.015861 -18.049902 26.159475 1.258004 2.332278 0.051451 -0.008958 446040.000000 0 0 1
-6.680690 -19.036261 -17.578002 26.758120 1.233279 2.287526 0.039881 -0.012025 261273.000000 0 0 1
-8.018690 -18.844061 -18.063102 27.307025 1.168478 2.293589 0.035537 -0.013883 568476.000000 0 0 1
-8.976690 -19.922661 -17.551402 28.027577 1.147463 2.247490 0.057465 -0.021824 -350128.000000 0 0 1
-8.585890 -21.170561 -18.009702 29.090539 1.185508 2.238381 0.064511 -0.016884 579356.000000 0 0 1
-9.520090 -22.233561 -17.752902 30.002147 1.166231 2.203988 0.084687 -0.014133 427567.000000 0 0 1
-8.924590 -23.555061 -18.277502 31.121636 1.208627 2.198506 0.103480 -0.021968 -521821.000000 0 0 1
-8.958190 -23.491061 -19.712102 31.947551 1.206475 2.235740 0.104895 -0.024258 354756.000000 0 0 1
-8.126490 -24.406261 -20.400102 32.830923 1.249375 2.241284 0.123200 -0.035378 306128.000000 0 0 1
-6.579890 -24.300461 -20.355802 32.375392 1.306365 2.250732 0.100806 -0.023424 238697.000000 0 0 1
-5.988790 -23.051661 -20.873702 31.669482 1.316617 2.290432 0.128510 -0.041547 265113.000000 0 0 1
-6.051190 -21.872661 -20.039002 30.275266 1.300892 2.294138 0.099289 -0.038815 -281084.000000 0 0 1
-5.164290 -21.990661 -18.735202 29.347348 1.340136 2.263208 0.113703 -0.030142 -150863.000000 0 0 1
-3.832590 -22.220761 -19.088102 29.543300 1.399999 2.273268 0.099760 -0.038193 -611291.000000 0 0 1
-2.985490 -22.405161 -17.979002 28.881635 1.438327 2.242738 0.052566 -0.034234 312713.000000 0 0 1
-1.598890 -23.009261 -18.304002 29.445186 1.501419 2.241618 0.091344 -0.034650 325343.000000 0 0 1
-0.685590 -22.145661 -18.992102 29.182190 1.539848 2.279449 0.125382 -0.033500 -497238.000000 0 0 1
0.420210 -22.938461 -19.314802 29.990183 -1.552479 2.270561 0.082888 -0.026430 -571762.000000 0 0 1
1.496210 -22.113961 -20.040202 29.881024 -1.503240 2.305903 0.080452 -0.025138 -171361.000000 0 0 1
1.268910 -21.803761 -21.387602 30.568670 -1.512665 2.345714 0.078985 -0.032562 -551589.000000 0 0 1
2.283910 -21.004461 -21.923902 30.447678 -1.462487 2.374673 0.073426 -0.027367 -646610.000000 0 0 1
2.255510 -21.011361 -23.466502 31.579127 -1.463859 2.408490 0.093667 -0.029512 722275.000000 0 0 1
1.426110 -20.051361 -24.169702 31.436688 -1.499793 2.447817 0.080287 -0.025672 564748.000000 0 0 1
0.057310 -19.951861 -23.780002 31.041400 -1.567924 2.443507 0.098750 -0.026859 44271.700000 0 0 1
-0.637090 -18.778461 -24.507902 30.881608 1.536883 2.487513 0.107802 -0.033276 -102644.000000 0 0 1
-0.339390 -17.474661 -24.093002 29.764940 1.551377 2.513998 0.067297 -0.023945 -978026.000000 0 0 1
-1.240190 -16.588061 -24.627102 29.718613 1.496171 2.547534 0.095611 -0.038400 -400236.000000 0 0 1
-0.862490 -15.124461 -24.431802 28.747280 1.513832 2.586558 0.084380 -0.016278 259520.000000 0 0 1
0.344010 -14.849161 -25.116892 29.180030 -1.547633 2.607550 0.083870 -0.028994 -209176.000000 0 0 1
1.034310 -13.649261 -24.816502 28.341328 -1.495163 2.637534 0.079334 -0.024876 496369.000000 0 0 1
0.438510 -12.375161 -25.556022 28.398013 -1.535376 2.690389 0.072803 -0.020373 48820.500000 0 0 1
1.089210 -11.199761 -25.175822 27.576131 -1.473848 2.721269 0.066821 -0.019373 -5227.280000 0 0 1
0.701910 -10.215661 -26.053812 27.993812 -1.502195 2.767115 0.065094 -0.019556 -212684.000000 0 0 1
1.580610 -8.937961 -25.831042 27.379338 -1.395764 2.803684 0.073034 -0.030678 1768290.000000 0 0 1
2.999910 -8.992661 -26.144002 27.809643 -1.248810 2.793736 0.076263 -0.029958 1280770.000000 0 0 1
3.360510 -9.242261 -27.518232 29.222688 -1.222055 2.798365 0.080049 -0.031475 -519151.000000 0 0 1
4.790010 -8.855561 -27.906112 29.666753 -1.074963 2.795345 0.094336 -0.039828 -536406.000000 0 0 1
5.028810 -7.470061 -28.109562 29.516744 -0.978287 2.831568 0.085420 -0.030406 1460400.000000 0 0 1
6.315510 -6.965961 -28.604242 30.110013 -0.834333 2.824003 0.089575 -0.031640 1270910.000000 0 0 1
7.482710 -6.896161 -27.564402 29.382720 -0.744628 2.787946 0.101810 -0.032998 257085.000000 0 0 1
7.967410 -8.115461 -27.036812 29.331374 -0.794603 2.743420 0.084542 -0.038401 503372.000000 0 0 1
8.780410 -8.906461 -27.926852 30.599505 -0.792525 2.720535 0.095190 -0.047810 -268759.000000 0 0 1
9.200310 -10.184061 -27.233222 30.496051 -0.836104 2.674782 0.088137 -0.041347 -319693.000000 0 0 1
8.167410 -11.132261 -27.097892 30.412654 -0.937828 2.670355 0.104384 -0.048672 19032.400000 0 0 1
8.532610 -12.324761 -26.365902 30.329292 -0.965247 2.624624 0.097352 -0.041599 -224389.000000 0 0 1
9.536810 -13.288661 -26.976372 31.547803 -0.948313 2.596531 0.096506 -0.050056 -287833.000000 0 0 1
9.007810 -13.980561 -28.101252 32.653898 -0.998432 2.607201 0.114847 -0.057716 -39883.600000 0 0 1
9.919510 -14.934261 -28.607002 33.760767 -0.984495 2.581761 0.094486 -0.051181 95346.900000 0 0 1
9.300410 -15.710961 -29.771012 34.923417 -1.036302 2.591480 0.098924 -0.051177 -33162.100000 0 0 1
8.820310 -14.847861 -30.758602 35.275323 -1.034766 2.629984 0.100856 -0.047851 -118028.000000 0 0 1
8.245810 -15.588961 -31.787462 36.351778 -1.084256 2.635077 0.120026 -0.041109 528455.000000 0 0 1
7.021710 -14.749761 -32.384612 36.271517 -1.126487 2.674405 0.136083 -0.040514 929830.000000 0 0 1
7.348610 -13.609661 -33.183942 36.611459 -1.075698 2.705434 0.138672 -0.040769 1483460.000000 0 0 1
6.065610 -12.985461 -33.510612 36.446878 -1.133807 2.737443 0.111119 -0.047395 1629680.000000 0 0 1
6.302610 -11.710261 33.397166 35.947514 -1.077048 0.378950 0.146187 -0.040097 -64243.200000 0 0 1
6.703410 -12.065461 32.092089 34.934413 -1.063674 0.406176 0.143933 -0.032652 143775.000000 0 0 1
6.937010 -10.909261 31.357270 33.917731 -1.004409 0.391049 0.146311 -0.037460 -270302.000000 0 0 1
7.413310 -11.196061 29.889900 32.767592 -0.985937 0.422227 0.159575 -0.031737 -463448.000000 0 0 1
6.460310 -11.778561 29.076390 32.029776 -1.069120 0.432806 0.136913 -0.022033 -344067.000000 0 0 1
6.831910 -11.735961 27.726290 30.873207 -1.043617 0.455435 0.129367 -0.020913 205897.000000 0 0 1
5.849910 -12.504361 26.791460 30.139058 -1.133215 0.475796 0.102245 -0.032039 -40964.100000 0 0 1
5.990210 -13.891761 26.884980 30.849081 -1.163681 0.512543 0.095348 -0.027320 -36956.800000 0 0 1
5.518710 -14.672061 25.771090 30.164128 -1.211029 0.546474 0.052359 -0.021823 199759.000000 0 0 1
3.992910 -14.953661 25.834120 30.115728 -1.309865 0.539768 0.046706 -0.031712 74080.900000 0 0 1
3.216810 -13.792061 25.622940 29.276336 -1.341656 0.504927 0.047547 -0.036029 -268544.000000 0 0 1
1.910110 -14.193961 25.242270 29.022220 -1.437028 0.516087 0.044728 -0.028046 551663.000000 0 0 1
0.956110 -13.028961 24.831850 28.058666 -1.497544 0.484308 0.048110 -0.025883 -294469.000000 0 0 1
1.436310 -12.296961 23.742280 26.776372 -1.454521 0.480665 0.029325 -0.015420 -417797.000000 0 0 1
0.708210 -11.146761 23.334890 25.870232 -1.507347 0.446422 0.028553 -0.009586 285482.000000 0 0 1
-0.685090 -11.436161 22.720850 25.445867 1.510962 0.467030 0.048866 -0.013233 -26594.500000 0 0 1
-0.565190 -12.151361 21.487450 24.691811 1.524317 0.515136 0.051420 -0.011265 -1654620.000000 0 1 0
-1.754390 -12.682361 21.132550 24.708396 1.433336 0.544709 0.068405 -0.020715 -1287540.000000 0 1 0
-1.788690 -13.410861 19.772050 23.957975 1.438203 0.600098 0.091648 -0.028382 119797.000000 0 1 0
-0.983890 -14.581161 19.840350 24.641789 1.503422 0.634867 0.111824 -0.028665 -4450.130000 0 1 0
-1.220190 -15.343661 18.703850 24.222939 1.491439 0.688572 0.114662 -0.028938 376922.000000 0 1 0
-2.405690 -16.339161 18.786250 25.013570 1.424612 0.721157 0.113265 -0.032855 352474.000000 0 0 1
-2.317090 -17.324161 17.770350 24.925505 1.437836 0.777117 0.087509 -0.032580 34170.300000 0 1 0
-3.397390 -18.241361 17.914850 25.792079 1.386660 0.802950 0.107231 -0.025220 397316.000000 0 0 1
-3.058990 -19.637061 17.259050 26.321975 1.416262 0.855700 0.096398 -0.027175 -122979.000000 0 0 1
-2.086590 -20.359161 17.946050 27.219662 1.468664 0.850903 0.093853 -0.034381 -585760.000000 0 0 1
-2.071190 -21.695861 17.433350 27.909172 1.475620 0.896118 0.098537 -0.052964 78525.200000 0 0 1
-0.880390 -22.533861 17.973250 28.837262 1.531747 0.897886 0.106100 -0.047356 26153.200000 0 0 1
0.343310 -22.229061 17.375450 28.216223 -1.555353 0.907400 0.117458 -0.054104 -8697.710000 0 0 1
1.367610 -23.171261 17.784150 29.241301 -1.511843 0.917023 0.121399 -0.041823 308534.000000 0 0 1
2.699710 -22.989161 17.081350 28.767385 -1.453898 0.935054 0.123174 -0.048941 -530083.000000 0 0 1
3.429410 -21.806761 17.328650 28.063816 -1.414810 0.905270 0.127505 -0.046717 161109.000000 0 0 1
4.483710 -21.716661 16.357150 27.554915 -1.367193 0.935247 0.121587 -0.040008 555106.000000 0 0 1
5.377310 -20.486161 16.664950 26.950302 -1.314102 0.904144 0.111250 -0.033027 -535310.000000 0 0 1
6.034610 -20.495061 17.908950 27.878209 -1.284446 0.873171 0.100573 -0.026740 133738.000000 0 0 1
6.702310 -19.311461 18.369050 27.482276 -1.236740 0.838746 0.095572 -0.012325 648406.000000 0 0 1
7.813210 -18.643961 17.530250 26.757302 -1.173955 0.856405 0.087697 -0.016570 -288656.000000 0 0 1
7.228210 -18.151261 16.321850 25.458163 -1.191825 0.874834 0.085065 -0.013172 377648.000000 0 0 1
8.179910 -17.548661 15.455450 24.773723 -1.134612 0.897118 0.108885 -0.018345 190430.000000 0 1 0
7.458710 -16.665161 14.399750 23.253231 -1.149971 0.902999 0.078222 -0.014192 -14378.500000 0 1 0
6.451510 -17.419861 13.753150 23.113257 -1.216105 0.933490 0.076496 -0.010814 -150319.000000 0 1 0
5.785910 -16.566761 12.869550 21.761425 -1.234791 0.938011 0.050435 -0.008869 -270551.000000 0 1 0
6.255610 -16.661061 11.396150 21.132814 -1.211620 1.001234 0.043925 -0.011915 135657.000000 0 1 0
7.580210 -16.205361 11.200950 21.107690 -1.133272 1.011420 0.048745 -0.012717 59654.800000 0 1 0
8.137110 -16.524161 9.945850 20.932759 -1.113217 1.075681 0.051688 -0.011336 1024330.000000 0 1 0
9.546010 -15.847461 9.753250 20.913972 -1.028637 1.085635 0.045120 -0.012719 1084360.000000 0 1 0
10.319610 -16.437861 8.704650 21.271308 -1.010189 1.149197 0.045965 -0.009203 98310.800000 0 1 0
11.633510 -15.904861 8.687150 21.535314 -0.939277 1.155577 0.046882 -0.012115 281767.000000 0 1 0
12.577610 -16.688861 7.758750 22.291535 -0.924961 1.215297 0.050658 -0.020424 -105102.000000 0 1 0
12.676510 -17.998561 8.293850 23.525094 -0.957186 1.210498 0.055136 -0.018803 54714.200000 0 1 0
13.596710 -18.790661 7.557150 24.394056 -0.944414 1.255819 0.054763 -0.019614 200780.000000 0 1 0
14.234910 -20.026861 8.254250 25.919885 -0.952865 1.246700 0.058732 -0.018349 176510.000000 0 0 1
13.378010 -21.134061 8.558950 26.436250 -1.006460 1.241097 0.067481 -0.017065 694019.000000 0 0 1
14.156110 -22.240161 9.120250 27.896221 -1.003962 1.237738 0.058852 -0.009663 301299.000000 0 0 1
13.234810 -23.200761 9.833150 28.462718 -1.052390 1.218052 0.078891 -0.013689 -220281.000000 0 0 1
12.979610 -22.691561 11.116650 28.406991 -1.051218 1.168714 0.084375 -0.016902 574624.000000 0 0 1
12.001210 -23.546761 11.825850 28.953924 -1.099438 1.150055 0.103287 -0.017052 922464.000000 0 0 1
12.443910 -24.970461 12.265950 30.476685 -1.108473 1.156583 0.075697 -0.026284 -330798.000000 0 0 1
13.388510 -24.908461 13.305750 31.252625 -1.077594 1.131008 0.048300 -0.021176 -175301.000000 0 0 1
13.616910 -26.175271 13.864150 32.600302 -1.091104 1.131529 0.066259 -0.042130 -522224.000000 0 0 1
14.837610 -26.213901 14.772150 33.549064 -1.055736 1.114847 0.053479 -0.033667 -499978.000000 0 0 1
14.820910 -25.395321 15.871050 33.413649 -1.042517 1.075847 0.064826 -0.031429 31796.800000 0 0 1
15.898310 -25.792551 16.684350 34.588719 -1.018411 1.067445 0.078771 -0.033449 -429172.000000 0 0 1
15.754710 -25.380801 18.200250 34.980638 -1.015271 1.023600 0.100497 -0.030948 -18870.200000 0 0 1
16.128010 -24.030161 18.489050 34.342485 -0.979691 1.002292 0.069566 -0.025448 782869.000000 0 0 1
17.493410 -24.009961 18.952450 35.237664 -0.941139 1.002916 0.083343 -0.025294 328569.000000 0 0 1
17.774510 -22.531361 19.360950 34.618518 -0.902874 0.977297 0.078278 -0.025075 -233467.000000 0 0 1
17.862310 -21.628861 18.266650 33.474472 -0.880488 0.993585 0.065099 -0.017681 1355320.000000 0 0 1
16.560610 -21.025161 18.006450 32.257455 -0.903627 0.978569 0.079445 -0.017566 699298.000000 0 0 1
16.642610 -19.990061 16.891650 31.014623 -0.876524 0.994842 0.057294 -0.014733 25563.200000 0 0 1
17.507510 -18.913061 17.193450 30.981148 -0.823971 0.982476 0.048833 -0.017056 224202.000000 0 0 1
18.827910 -19.102361 16.704950 31.598192 -0.792634 1.013766 0.040832 -0.015050 628380.000000 0 0 1
19.793010 -17.863561 17.043550 31.644157 -0.734205 1.002021 0.054042 -0.015388 281926.000000 0 0 1
20.102110 -17.746261 18.411550 32.527062 -0.723234 0.969105 0.056802 -0.015589 97518.100000 0 0 1
20.255010 -16.366961 18.731450 32.078187 -0.679627 0.947234 0.058872 -0.017867 -378255.000000 0 0 1
20.640210 -16.068861 20.189850 33.043254 -0.661507 0.913457 0.056677 -0.013078 62740.400000 0 0 1
21.946010 -16.565661 20.416950 34.247632 -0.646590 0.932091 0.050622 -0.010716 -108040.000000 0 0 1
22.330510 -16.329961 21.743850 35.186849 -0.631415 0.904659 0.046386 -0.009855 150673.000000 0 0 1
34.611122 -1.036561 -7.456702 35.420427 -0.029940 1.782903 0.114992 -0.015917 22267.000000 0 0 1
35.959862 -0.758161 -7.743602 36.791981 -0.021080 1.782852 0.138136 -0.026302 47578.600000 0 0 1
36.808232 -1.878961 -7.729702 37.657997 -0.051003 1.777526 0.158846 -0.035751 188497.000000 0 0 1
-36.484940 -1.543361 -8.178202 37.422129 0.042276 1.791114 0.156128 -0.036157 -73444.800000 0 0 1
-35.627554 -2.642161 -8.268002 36.669653 0.074025 1.798224 0.171990 -0.024598 -1176200.000000 0 0 1
-34.401854 -2.243861 -8.751702 35.568451 0.065133 1.819402 0.249758 -0.036328 -851951.000000 0 0 1
-33.365700 -3.407261 -8.629802 34.631673 0.101766 1.822638 0.242546 -0.031094 -88488.300000 0 0 1
-32.965590 -3.552661 -7.290102 33.948447 0.107354 1.787222 0.239439 -0.039150 764324.000000 0 0 1
-31.807570 -4.409661 -7.202202 32.909547 0.137757 1.791430 0.234996 -0.050766 478910.000000 0 0 1
-31.272740 -4.308261 -5.779702 32.092839 0.136902 1.751878 0.218165 -0.067085 -125925.000000 0 0 1
-30.683250 -3.063861 -5.411002 31.306996 0.099525 1.744505 0.228285 -0.060418 395150.000000 0 0 1
-30.168720 -3.141961 -4.121402 30.610611 0.103772 1.705846 0.227198 -0.058377 -310042.000000 0 0 1
-29.950890 -1.791561 -3.430802 30.199932 0.059745 1.684645 0.247560 -0.054412 -250950.000000 0 0 1
-28.628760 -1.311661 -3.575602 28.880984 0.045784 1.694919 0.241662 -0.050421 337017.000000 0 0 1
-28.431630 -0.085161 -2.946102 28.583987 0.002995 1.674048 0.259403 -0.066899 -288251.000000 0 0 1
-26.987940 0.345039 -2.621302 27.117138 -0.012784 1.667613 0.250280 -0.040939 -254024.000000 0 0 1
-26.442660 -0.433861 -1.580302 26.493392 0.016406 1.630481 0.229436 -0.039825 155076.000000 0 0 1
-25.069720 -0.176661 -1.402702 25.109552 0.007047 1.626689 0.190377 -0.036202 9036.810000 0 0 1
-24.490790 -1.015561 -0.194102 24.512605 0.041443 1.578715 0.180760 -0.038071 -20003.000000 0 1 0
-24.621490 -2.472361 -0.244802 24.746520 0.100079 1.580689 0.182100 -0.034889 173510.000000 0 1 0
-23.878390 -3.136161 0.733498 24.094626 0.130591 1.540349 0.153464 -0.032191 -454342.000000 0 1 0
-24.000390 -4.660261 0.776698 24.460989 0.191788 1.539038 0.154186 -0.029473 -567085.000000 0 1 0
-25.141800 -5.007261 1.487898 25.678718 0.196588 1.512821 0.161495 -0.037511 -316687.000000 0 0 1
-25.241700 -6.417461 1.485098 26.087022 0.248966 1.513837 0.140509 -0.037452 -676058.000000 0 0 1
-26.529180 -7.016161 2.012598 27.514986 0.258550 1.497585 0.153234 -0.032056 -761921.000000 0 0 1
-26.773810 -6.843361 3.377098 27.840137 0.250241 1.449194 0.164539 -0.030140 748113.000000 0 0 1
-28.013060 -7.372061 3.892298 29.227192 0.257330 1.437226 0.145616 -0.020463 444133.000000 0 0 1
-27.997360 -7.601461 5.419298 29.512762 0.265115 1.386123 0.165376 -0.020695 95373.100000 0 0 1
-27.098410 -8.684861 5.778798 29.036961 0.310150 1.370443 0.153105 -0.012594 440134.000000 0 0 1
-26.850360 -8.754161 7.200698 29.144934 0.315168 1.321146 0.144085 -0.024709 2239.830000 0 0 1
-26.032240 -7.627861 7.842998 28.237818 0.285037 1.289347 0.148645 -0.016845 382311.000000 0 0 1
-24.615290 -7.607261 7.626398 26.869031 0.299735 1.283004 0.154488 -0.028357 798357.000000 0 0 1
-24.091490 -6.354561 8.031398 26.177923 0.257894 1.258967 0.150772 -0.036942 -883941.000000 0 0 1
-22.753690 -6.011361 7.450498 24.685558 0.258291 1.264199 0.133256 -0.035210 -298917.000000 0 1 0
-21.643190 -6.736161 7.984598 24.032422 0.301734 1.232116 0.125361 -0.043756 421636.000000 0 1 0
-20.407690 -6.168261 7.622298 22.641128 0.293521 1.227432 0.112706 -0.036903 851916.000000 0 1 0
-19.183790 -6.543861 8.555798 22.000945 0.328737 1.171377 0.101619 -0.032716 760821.000000 0 1 0
-19.111090 -5.672161 9.674698 22.158676 0.288518 1.118969 0.094993 -0.025659 529152.000000 0 1 0
-18.053790 -6.066061 10.546598 21.770787 0.324148 1.065076 0.093447 -0.032258 42954.700000 0 1 0
-17.881190 -4.913161 11.578198 21.861628 0.268150 1.012652 0.097333 -0.016417 -65804.200000 0 1 0
-18.891790 -4.938761 12.553998 23.214089 0.255701 0.999418 0.119725 -0.018919 213402.000000 0 1 0
-19.196290 -3.635661 13.068098 23.505122 0.187177 0.981269 0.130896 -0.015113 244150.000000 0 1 0
-20.408590 -3.624661 14.048698 25.040260 0.175772 0.975149 0.122678 -0.014870 162503.000000 0 0 1
-20.210690 -4.123661 15.290298 25.676249 0.201271 0.932904 0.122713 -0.014597 -120665.000000 0 0 1
-21.459790 -4.077761 15.915298 27.026791 0.187780 0.941135 0.104181 -0.004960 -266385.000000 0 0 1
-21.377190 -4.785861 17.263298 27.891041 0.220245 0.903385 0.104126 0.002885 280336.000000 0 0 1
-22.496590 -4.647061 18.146098 29.274094 0.203702 0.902221 0.080392 0.002176 714812.000000 0 0 1
-22.307790 -5.310661 19.347598 30.002836 0.233713 0.869958 0.094178 0.012242 -42819.900000 0 0 1
-23.304090 -4.928161 20.484798 31.416466 0.208402 0.860524 0.082511 -0.001961 -348595.000000 0 0 1
-23.157590 -3.535961 20.763798 31.303551 0.151521 0.845570 0.101697 -0.010306 256217.000000 0 0 1
-23.565390 -3.195561 22.076598 32.448658 0.134782 0.822550 0.088394 -0.009009 -103398.000000 0 0 1
-23.643090 -1.653361 22.380998 32.598135 0.069816 0.814031 0.080662 -0.012492 -64426.400000 0 0 1
-24.753390 -1.087561 21.731498 32.957110 0.043908 0.850793 0.081388 -0.022641 -177449.000000 0 0 1
-24.787190 0.333739 21.779798 32.998118 -0.013463 0.849936 0.077114 -0.020599 799130.000000 0 0 1
-26.210950 0.825239 21.326298 33.800975 -0.031474 0.888035 0.082353 -0.025844 1086090.000000 0 0 1
-27.277750 0.373939 22.136998 35.132067 -0.013708 0.889104 0.101747 -0.029348 -352767.000000 0 0 1
-28.526660 0.913439 21.782098 35.903544 -0.032010 0.918914 0.096040 -0.028056 77969.800000 0 0 1
-29.429830 1.102739 23.042198 37.393500 -0.037453 0.906877 0.091459 -0.023921 -286219.000000 0 0 1
-28.988970 2.027239 24.025998 37.705685 -0.069818 0.879939 0.080780 -0.024500 -211032.000000 0 0 1
-29.763330 2.003839 25.202298 39.051594 -0.067224 0.869303 0.080402 -0.021608 -354638.000000 0 0 1
-29.422920 3.048439 26.305598 39.585170 -0.103239 0.843929 0.091093 -0.022834 -752345.000000 0 0 1
-28.388200 2.527739 27.058698 39.299523 -0.088808 0.811343 0.075227 -0.026330 -365342.000000 0 0 1
-28.018130 3.350239 28.209698 39.900210 -0.119009 0.785540 0.067050 -0.027692 -298970.000000 0 0 1
-26.691820 2.960139 28.860598 39.422707 -0.110449 0.749425 0.083884 -0.031481 -551489.000000 0 0 1
-26.721360 1.787039 29.635798 39.943774 -0.066777 0.734840 0.082078 -0.030464 -469570.000000 0 0 1
-25.652930 1.677239 30.491798 39.882774 -0.065289 0.700476 0.074226 -0.033757 -688302.000000 0 0 1
-25.900210 0.443339 31.393098 40.700664 -0.017116 0.689889 0.075175 -0.034941 -11898.400000 0 0 1
-26.172400 -0.643061 30.546798 40.230771 0.024565 0.708576 0.065434 -0.033415 -32824.900000 0 0 1
-26.597470 -1.746761 31.261498 41.082330 0.065580 0.706024 0.090003 -0.033302 -751132.000000 0 0 1
-27.510760 -2.678661 30.489198 41.153473 0.097062 0.736438 0.086564 -0.029394 119393.000000 0 0 1
-28.861010 -2.306361 30.257198 41.878100 0.079743 0.763375 0.100556 -0.026430 319026.000000 0 0 1
-29.186700 -1.185361 29.440098 41.472737 0.040591 0.781488 0.096530 -0.016690 887972.000000 0 0 1
-30.726920 -1.151061 29.043598 42.296562 0.037443 0.813904 0.091125 -0.022128 1846800.000000 0 0 1
-31.556750 -0.782961 30.152698 43.653484 0.024806 0.808301 0.116727 -0.010478 -510819.000000 0 0 1
-32.924660 -0.885861 29.891398 44.478238 0.026899 0.833829 0.103617 -0.013904 -149430.000000 0 0 1
-33.788870 -0.477761 31.106998 45.929961 0.014139 0.826750 0.103116 -0.013449 17279.600000 0 0 1
-33.733140 -1.405561 32.204198 46.658447 0.041643 0.809015 0.112059 -0.012323 -3312.480000 0 0 1
-34.763604 -1.178461 33.140698 48.043759 0.033886 0.809580 0.121096 -0.011799 86893.000000 0 0 1
-35.094788 -2.507961 33.834298 48.812844 0.071341 0.804955 0.112393 -0.020238 179250.000000 0 0 1
-35.782812 -3.425761 32.960598 48.770344 0.095447 0.828702 0.083417 -0.031036 63910.400000 0 0 1
-35.846413 -4.733461 33.488398 49.283301 0.131289 0.823704 0.078254 -0.031641 240146.000000 0 0 1
-37.147450 -5.451261 33.001798 49.987678 0.145707 0.849713 0.070638 -0.019440 546891.000000 0 0 1
36.455682 -4.811861 33.565198 49.787482 -0.131233 0.830957 0.062593 -0.027901 -853426.000000 0 0 1
35.264582 -5.352761 33.122398 48.675827 -0.150639 0.822394 0.071027 -0.033125 -310284.000000 0 0 1
33.973812 -4.779661 33.823998 48.178086 -0.139769 0.792507 0.080247 -0.032402 138427.000000 0 0 1
33.773552 -5.269261 -32.642653 47.264794 -0.154770 2.333161 0.071113 -0.036344 263245.000000 0 0 1
33.172362 -6.582561 -32.568253 46.951324 -0.195890 2.337354 0.090240 -0.042455 329927.000000 0 0 1
31.676662 -6.682061 -32.990253 46.221398 -0.207898 2.365626 0.072187 -0.036866 382672.000000 0 0 1
30.714972 -6.474861 -31.946153 44.787164 -0.207763 2.364975 0.077146 -0.041671 207622.000000 0 0 1
29.435702 -6.698261 -32.480353 44.342988 -0.223746 2.392754 0.073248 -0.033709 -255471.000000 0 0 1
28.190802 -6.439861 -31.623953 42.851693 -0.224585 2.400877 0.078015 -0.043267 -24168.400000 0 0 1
26.988202 -6.954361 -32.146353 42.545437 -0.252195 2.427331 0.061945 -0.039895 -533832.000000 0 0 1
25.900702 -6.408861 -31.439353 41.235334 -0.242567 2.437868 0.064382 -0.037621 -692720.000000 0 0 1
24.592002 -6.933261 -32.056353 40.993249 -0.274799 2.468650 0.050489 -0.035286 -457145.000000 0 0 1
24.415202 -8.307361 -31.865153 40.993930 -0.327966 2.461181 0.052626 -0.040638 -111513.000000 0 0 1
24.237202 -8.821761 -30.527653 39.965023 -0.349071 2.440068 0.071848 -0.048190 -443346.000000 0 0 1
23.979002 -10.328661 -30.389153 40.064628 -0.406720 2.431810 0.084068 -0.036202 128485.000000 0 0 1
22.863402 -10.741661 -31.162553 40.115124 -0.439213 2.460409 0.077189 -0.040327 132679.000000 0 0 1
22.665602 -12.122461 -30.965753 40.243775 -0.491129 2.448783 0.076933 -0.021472 -806253.000000 0 0 1
21.637502 -12.852561 -31.863853 40.603879 -0.535992 2.473087 0.068164 -0.016571 1067640.000000 0 0 1
20.240002 -12.637561 -31.604453 39.600595 -0.558157 2.494899 0.067716 -0.014419 561901.000000 0 0 1
19.836202 -11.323061 -31.929853 39.258147 -0.518693 2.520650 0.066090 -0.027813 -1777180.000000 0 0 1
18.439102 -10.983261 -31.494553 38.112195 -0.537215 2.543417 0.048248 -0.033672 -897382.000000 0 0 1
17.402202 -11.293061 -32.399353 38.471911 -0.575633 2.572066 0.035603 -0.017743 -460065.000000 0 0 1
16.182502 -11.049161 -31.737853 37.299446 -0.599078 2.588480 0.077624 -0.027575 -624339.000000 0 0 1
14.960002 -11.194561 -32.607053 37.581109 -0.642412 2.621242 0.080837 -0.022639 -1449140.000000 0 0 1
14.727302 -12.550061 -32.913353 38.179658 -0.705748 2.610127 0.094121 -0.018332 -53455.100000 0 0 1
13.411002 -12.872061 -33.295653 38.133259 -0.764896 2.632402 0.083990 -0.016681 454883.000000 0 0 1
12.365302 -12.870961 -32.121753 36.747372 -0.805432 2.634425 0.069955 -0.019773 -623044.000000 0 0 1
12.137602 -11.707661 -31.361353 35.607937 -0.767370 2.648220 0.138860 -0.017485 -668453.000000 0 0 1
11.069002 -11.791861 -30.470653 34.496833 -0.817008 2.653627 0.139006 -0.038453 403089.000000 0 0 1
9.698802 -11.427761 -31.139253 34.558842 -0.867054 2.692981 0.124962 -0.034741 29343.000000 0 0 1
9.637302 -10.060661 -31.523353 34.464711 -0.806887 2.725452 0.115236 -0.039474 307218.000000 0 0 1
8.349102 -9.699861 -31.991453 34.456463 -0.860097 2.761042 0.108837 -0.034788 189390.000000 0 0 1
8.384302 -8.261961 -32.476153 34.543553 -0.778049 2.793869 0.124551 -0.046557 -169260.000000 0 0 1
8.670802 -7.369361 -31.405553 33.403578 -0.704439 2.793970 0.107172 -0.047294 197564.000000 0 0 1
9.071402 -6.104561 -31.865953 33.689686 -0.592337 2.811051 0.093170 -0.021772 20805.800000 0 0 1
9.374902 -5.036861 -30.744053 32.533914 -0.493018 2.808344 0.093233 -0.037461 117074.000000 0 0 1
8.155402 -4.612261 -30.157053 31.578971 -0.514701 2.840364 0.098203 -0.035987 202746.000000 0 0 1
8.354902 -3.637961 -29.176253 30.566205 -0.410670 2.838864 0.104391 -0.030112 142982.000000 0 0 1
6.994802 -3.156861 -28.615553 29.626726 -0.423947 2.879576 0.093558 -0.022518 732624.000000 0 0 1
6.109902 -2.363461 -29.473853 30.193126 -0.369097 2.922880 0.084011 -0.020598 330510.000000 0 0 1
4.971202 -1.876461 -28.840153 29.325559 -0.360931 2.959394 0.097383 -0.021999 24382.700000 0 0 1
3.712602 -2.777361 -28.789253 29.160217 -0.642278 2.981914 0.080025 -0.025556 92839.300000 0 0 1
3.887702 -3.775061 -27.711553 28.236421 -0.770699 2.948480 0.075771 -0.025231 579385.000000 0 0 1
2.681102 -4.536661 -27.622353 28.120526 -1.037031 2.953082 0.089512 -0.028574 580327.000000 0 0 1
2.837602 -5.611561 -26.538253 27.273072 -1.102622 2.908935 0.070274 -0.033092 -296489.000000 0 0 1
2.861002 -5.031361 -25.246253 25.901220 -1.053759 2.916229 0.083556 -0.036293 67342.300000 0 0 1
3.294202 -5.956461 -24.269553 25.205999 -1.065617 2.868155 0.081967 -0.042669 -98440.700000 0 0 1
3.158602 -5.404561 -22.825653 23.668470 -1.041902 2.873926 0.090313 -0.053528 -195465.000000 0 1 0
4.080202 -4.381061 -22.584453 23.364487 -0.820940 2.882468 0.087115 -0.048889 -188857.000000 0 1 0
4.081702 -3.993561 -21.245653 21.999695 -0.774484 2.879018 0.080100 -0.045929 -407514.000000 0 1 0
4.920902 -2.763061 -20.974853 21.720825 -0.511625 2.878754 0.084172 -0.045136 -520456.000000 0 1 0
6.272102 -3.128961 -20.838553 21.985790 -0.462743 2.817121 0.079607 -0.042909 -118317.000000 0 1 0
7.062102 -1.937161 -20.541853 21.808109 -0.267719 2.799148 0.086526 -0.028983 144435.000000 0 1 0
8.549502 -2.214961 -20.316753 22.153341 -0.253501 2.731532 0.090571 -0.034696 -1327820.000000 0 1 0
9.316102 -2.165761 -21.497853 23.529513 -0.228418 2.722983 0.095228 -0.043039 559557.000000 0 1 0
10.534002 -2.927361 -21.418853 24.047909 -0.271057 2.669622 0.091528 -0.042370 1084630.000000 0 1 0
11.701102 -2.417561 -20.545353 23.767035 -0.203743 2.614847 0.091764 -0.044732 -997731.000000 0 1 0
11.340102 -2.404061 -19.166153 22.399082 -0.208903 2.597634 0.082061 -0.032876 -208322.000000 0 1 0
12.291302 -1.887561 -18.275353 22.104921 -0.152378 2.544111 0.075524 -0.042642 -436806.000000 0 1 0
12.554102 -0.355861 -18.367653 22.250906 -0.028339 2.541846 0.064252 -0.039222 -7555.160000 0 1 0
13.177102 0.144039 -19.550353 23.576961 0.010931 2.548497 0.082907 -0.046547 254016.000000 0 1 0
13.360902 1.541339 -19.499253 23.687767 0.114854 2.537782 0.110753 -0.056726 23714.300000 0 1 0
13.903302 2.190939 -20.780053 25.098060 0.156299 2.546247 0.116314 -0.052309 -1032700.000000 0 0 1
15.222002 1.995039 -21.146553 26.131710 0.130320 2.513636 0.112291 -0.048108 -645946.000000 0 0 1
15.559902 3.140439 -21.947053 27.085902 0.199154 2.515419 0.115652 -0.049405 -322413.000000 0 0 1
16.977102 3.086639 -22.519053 28.370004 0.179847 2.487767 0.093028 -0.037071 -175182.000000 0 0 1
16.916502 2.339439 -23.680453 29.195974 0.137422 2.516803 0.074316 -0.037406 168034.000000 0 0 1
17.896202 1.321039 -23.603553 29.650412 0.073683 2.491556 0.083731 -0.037334 -71870.200000 0 0 1
10.111010 26.655939 3.158998 28.683635 1.208248 1.460440 0.016207 -0.004866 181451.000000 0 0 1
9.905110 27.202739 4.443498 29.288990 1.221597 1.418496 0.025564 -0.007594 -78941.500000 0 0 1
11.142210 27.479139 5.045498 30.078381 1.185576 1.402255 0.037325 -0.009688 -421148.000000 0 0 1
10.964510 28.043739 6.471098 30.798489 1.198091 1.359108 0.040588 -0.014121 -122615.000000 0 0 1
10.811710 27.072639 7.515198 30.104802 1.190842 1.318493 0.040889 -0.022287 17043.600000 0 0 1
10.662410 27.603139 8.804798 30.873043 1.202177 1.281588 0.042051 -0.019879 -752635.000000 0 0 1
10.750210 26.573939 9.910398 30.330798 1.186383 1.237940 0.055595 -0.018777 -698068.000000 0 0 1
11.945610 25.953339 10.229398 30.346565 1.139433 1.226976 0.062931 -0.018676 -636617.000000 0 0 1
12.554010 25.221739 9.176198 29.630085 1.108954 1.255927 0.072429 -0.023370 -979697.000000 0 0 1
13.825010 24.535539 9.662998 29.774102 1.057671 1.240267 0.080471 -0.025053 69273.700000 0 0 1
14.899810 25.483439 9.843998 31.117750 1.041713 1.248920 0.076749 -0.022674 566036.000000 0 0 1
16.019310 24.862239 10.445398 31.366473 0.998422 1.231301 0.088088 -0.024387 -385951.000000 0 0 1
17.175210 25.742939 10.842198 32.790853 0.982437 1.233807 0.076302 -0.026379 -761937.000000 0 0 1
17.874210 26.318839 9.690498 33.257698 0.974207 1.275131 0.074526 -0.033367 908665.000000 0 0 1
19.280010 26.386339 9.927798 34.154339 0.939774 1.275865 0.096023 -0.045757 784245.000000 0 0 1
19.915010 27.232139 11.092698 35.514012 0.939368 1.253134 0.088113 -0.046107 -654420.000000 0 0 1
20.003510 28.614839 10.870298 36.566554 0.960701 1.268960 0.087690 -0.049204 -964290.000000 0 0 1
18.885610 29.312339 11.238298 36.635760 0.998447 1.259012 0.071740 -0.032719 -927270.000000 0 0 1
19.073710 30.880839 11.352798 38.030497 1.017496 1.267657 0.064830 -0.026265 -528547.000000 0 0 1
19.346410 31.649539 10.126798 38.451645 1.022131 1.304288 0.094143 -0.043627 -12976.900000 0 0 1
18.398710 31.547539 9.086298 37.634035 1.042817 1.326949 0.092006 -0.041759 616172.000000 0 0 1
16.962110 32.123739 9.325198 37.504762 1.084982 1.319520 0.079500 -0.035551 374643.000000 0 0 1
16.983010 33.427439 9.878198 38.773640 1.100725 1.313191 0.083054 -0.035221 52755.700000 0 0 1
15.692010 -33.810944 9.714498 38.520002 -1.136270 1.315850 0.086158 -0.024407 377682.000000 0 0 1
15.666510 -32.278344 9.961198 37.236494 -1.118932 1.299987 0.082987 -0.027222 -219323.000000 0 0 1
16.429310 -31.562944 9.049398 36.715573 -1.090864 1.321757 0.096449 -0.029845 -209348.000000 0 0 1
16.509410 -30.161144 9.256998 35.608247 -1.069972 1.307807 0.089142 -0.030722 -23075.300000 0 0 1
17.188710 -29.434744 8.082798 35.031237 -1.042255 1.337967 0.073745 -0.030225 168523.000000 0 0 1
16.458310 -29.653944 6.875698 34.605023 -1.064113 1.370774 0.081756 -0.032354 59823.200000 0 0 1
17.126810 -29.065044 5.821198 34.234350 -1.038313 1.399926 0.066818 -0.024127 10001.600000 0 0 1
16.433610 -29.347544 4.448398 33.928309 -1.060334 1.439306 0.081826 -0.027548 -34291.000000 0 0 1
16.826110 -30.578044 3.890898 35.117999 -1.067748 1.459773 0.082254 -0.030582 15392.300000 0 0 1
16.720610 -30.567544 2.464398 34.928882 -1.070255 1.500183 0.078782 -0.029436 -51327.900000 0 0 1
17.054810 -31.993944 1.970098 36.309231 -1.081049 1.516511 0.076397 -0.036028 -538915.000000 0 0 1
18.384210 -32.353944 2.209498 37.277859 -1.054071 1.511491 0.080921 -0.030350 -439888.000000 0 0 1
18.674010 -33.586944 1.595098 38.462264 -1.063366 1.529313 0.102741 -0.035540 134169.000000 0 0 1
20.153510 33.753139 1.692598 39.348485 1.032523 1.527767 0.116647 -0.038514 231439.000000 0 0 1
20.579110 33.357439 2.983498 39.308012 1.018023 1.494823 0.117589 -0.055659 -79191.300000 0 0 1
21.925310 32.945139 3.026698 39.689575 0.983595 1.494463 0.112331 -0.045619 7122.040000 0 0 1
22.429410 32.457739 4.404898 39.698696 0.966113 1.459609 0.109613 -0.046700 -460501.000000 0 0 1
21.691110 31.395539 4.830198 38.464464 0.966205 1.444888 0.103632 -0.053619 184936.000000 0 0 1
22.424510 30.587639 5.817598 38.370650 0.938184 1.418594 0.090079 -0.052384 840367.000000 0 0 1
21.499210 29.740639 6.755998 37.314410 0.944873 1.388736 0.094490 -0.055412 231792.000000 0 0 1
20.704010 28.850439 5.986998 36.011777 0.948334 1.403770 0.102530 -0.050701 -352431.000000 0 0 1
19.646610 28.349439 6.751598 35.146324 0.964773 1.377495 0.104007 -0.052717 -39055.600000 0 0 1
18.251310 28.651539 6.145698 34.522321 1.003607 1.391821 0.100067 -0.047208 -283290.000000 0 0 1
17.812410 29.976039 5.988198 35.379421 1.034636 1.400721 0.093492 -0.051694 250937.000000 0 0 1
18.201410 30.648839 4.764998 35.963147 1.034897 1.437909 0.111517 -0.052879 -83554.700000 0 0 1
18.156310 32.192439 4.956198 37.290329 1.057273 1.437493 0.114897 -0.051431 -9107.650000 0 0 1
16.841510 32.618439 5.204498 37.076757 1.094179 1.429960 0.101748 -0.044253 -355155.000000 0 0 1
16.846110 -33.809844 5.326498 38.147982 -1.108541 1.430711 0.103229 -0.053256 -660038.000000 0 0 1
15.506010 -33.114144 5.484898 36.973869 -1.132862 1.421902 0.088721 -0.048361 -478136.000000 0 0 1
14.675710 -33.264244 4.337998 36.615633 -1.155296 1.452043 0.088296 -0.040003 -216480.000000 0 0 1
13.658910 -32.298544 4.376398 35.339986 -1.170710 1.446641 0.079749 -0.034790 -439938.000000 0 0 1
12.675710 -32.283744 3.228598 34.832996 -1.196656 1.477975 0.069617 -0.023277 -963920.000000 0 0 1
11.590610 -31.459244 3.410498 33.699522 -1.217796 1.469420 0.071937 -0.031596 -816305.000000 0 0 1
10.756610 -31.408044 2.295498 33.278209 -1.240837 1.501762 0.065191 -0.019558 -678786.000000 0 0 1
9.616710 -30.396644 2.390598 31.971112 -1.264386 1.495953 0.064182 -0.023313 -478379.000000 0 0 1
9.273510 -29.642044 1.217298 31.082641 -1.267593 1.531623 0.081708 -0.010220 722762.000000 0 0 1
8.235910 -30.301944 0.437798 31.404294 -1.305412 1.556855 0.071109 -0.016434 504997.000000 0 0 1
8.779910 -30.739644 -0.962402 31.983413 -1.292582 1.600892 0.079954 -0.023102 746709.000000 0 0 1
9.919910 -31.619044 -0.972602 33.152896 -1.266789 1.600137 0.082335 -0.027145 317401.000000 0 0 1
9.767910 -32.630244 -1.939202 34.116057 -1.279935 1.627668 0.072507 -0.014346 470337.000000 0 0 1
10.954410 -33.681444 -1.974802 35.473069 -1.256351 1.626496 0.068533 -0.020978 621279.000000 0 0 1
11.111310 33.245739 -0.858502 35.063905 1.248250 1.595283 0.062482 -0.016398 -595057.000000 0 0 1
12.318710 32.594939 -1.056502 34.861109 1.209457 1.601107 0.073098 -0.020390 -848346.000000 0 0 1
12.650010 31.866239 0.285398 34.286461 1.192903 1.562472 0.063520 -0.028653 -729321.000000 0 0 1
13.052810 32.688839 1.360498 35.224807 1.190889 1.532163 0.066456 -0.032965 959694.000000 0 0 1
14.378610 33.272239 1.324198 36.270372 1.162885 1.534279 0.079628 -0.026959 140787.000000 0 0 1
15.463210 32.264639 1.597798 35.814394 1.123876 1.526168 0.083800 -0.035487 -1614920.000000 0 0 1
16.021010 31.572239 0.507698 35.408147 1.101215 1.556457 0.085796 -0.037427 -60479.300000 0 0 1
16.930410 30.585439 0.918598 34.970727 1.065236 1.544526 0.090003 -0.033475 -362170.000000 0 0 1
17.830710 30.011939 -0.183002 34.909658 1.034711 1.576038 0.088952 -0.025907 -458258.000000 0 0 1
18.806110 30.903039 -0.647302 36.181302 1.024112 1.588688 0.087181 -0.019737 -613630.000000 0 0 1
18.389210 31.850939 -1.591802 36.812759 1.047196 1.614050 0.091762 -0.028399 -231832.000000 0 0 1
19.464810 32.709439 -2.331902 38.134290 1.034001 1.631984 0.098516 -0.023634 298262.000000 0 0 1
20.093510 33.736639 -1.588002 39.299259 1.033619 1.611215 0.088092 -0.027008 772328.000000 0 0 1
21.245510 -33.520144 -2.283602 39.751561 -1.005884 1.628275 0.091911 -0.024216 524943.000000 0 0 1
22.269110 -32.783344 -1.330102 39.653878 -0.974111 1.604345 0.100978 -0.021768 262710.000000 0 0 1
23.165110 -33.577744 -0.499502 40.796283 -0.966885 1.583040 0.094323 -0.026192 934255.000000 0 0 1
24.003310 33.272939 -1.123002 41.042765 0.945848 1.598161 0.088691 -0.013512 11487.800000 0 0 1
25.042510 33.788139 -2.178602 42.113086 0.932975 1.622552 0.069848 -0.013247 -611453.000000 0 0 1
24.452610 -33.595344 -3.451402 41.695197 -0.941618 1.653668 0.097097 -0.025004 222589.000000 0 0 1
25.328610 -33.141544 -4.494002 41.953504 -0.918234 1.678121 0.085184 -0.023934 -176014.000000 0 0 1
24.614210 -32.747544 -5.799302 41.375027 -0.926249 1.711424 0.083236 -0.030091 -133396.000000 0 0 1
23.690710 -31.679244 -5.612202 39.953987 -0.928685 1.711729 0.099864 -0.031218 228198.000000 0 0 1
23.119010 -31.349744 -6.866002 39.552965 -0.935373 1.745270 0.104661 -0.036852 683213.000000 0 0 1
22.011610 -30.204244 -6.826702 37.992252 -0.941029 1.751464 0.114227 -0.044229 1307010.000000 0 0 1
20.705610 -30.602944 -6.418202 37.502744 -0.975956 1.742782 0.121523 -0.039595 432510.000000 0 0 1
19.847610 -29.459944 -6.268202 36.070851 -0.977930 1.745458 0.129463 -0.046368 335015.000000 0 0 1
18.715010 -29.552044 -5.257302 35.372505 -1.006258 1.719976 0.103029 -0.034630 426523.000000 0 0 1
17.510110 -30.154044 -5.740002 35.338618 -1.044697 1.733948 0.106607 -0.034870 566594.000000 0 0 1
16.462810 -29.954644 -4.781502 34.513295 -1.068267 1.709784 0.072904 -0.025301 1115710.000000 0 0 1
15.092110 -30.669344 -5.029802 34.549665 -1.113496 1.716897 0.060624 -0.020488 632845.000000 0 0 1
15.172310 -32.081344 -5.044602 35.844939 -1.129036 1.711999 0.058290 -0.010709 -288260.000000 0 0 1
13.908010 -32.701044 -5.041802 35.891653 -1.168665 1.711735 0.063982 -0.012402 -44807.800000 0 0 1
14.124510 33.585539 -5.132202 36.794426 1.172698 1.710736 0.055116 -0.012941 -20725.800000 0 0 1
14.475510 32.973939 -3.912102 36.223275 1.157129 1.679007 0.059592 -0.017395 -67148.500000 0 0 1
14.880110 31.611439 -3.917602 35.157480 1.130847 1.682458 0.068194 -0.021062 -337391.000000 0 0 1
13.953910 30.545139 -4.483602 33.879490 1.142278 1.703525 0.064917 -0.021201 301960.000000 0 0 1
12.860210 30.058139 -3.670102 32.899034 1.166519 1.682586 0.060338 -0.017836 480636.000000 0 0 1
13.134910 29.181439 -2.629602 32.109143 1.147849 1.652784 0.064274 -0.020354 -822925.000000 0 0 1
11.914510 28.503139 -2.017102 30.958896 1.174864 1.635997 0.059789 -0.016065 -159566.000000 0 0 1
11.083010 29.346239 -1.249902 31.394222 1.209692 1.610620 0.056812 -0.023926 -394359.000000 0 0 1
10.111410 28.592239 -0.573302 30.332910 1.230881 1.589698 0.035133 -0.014691 -650277.000000 0 0 1
9.011310 29.468539 -0.020502 30.815564 1.274032 1.571462 0.025026 -0.003479 387375.000000 0 0 1
7.999410 28.644239 0.637398 29.747089 1.298467 1.549367 0.018961 -0.008537 186981.000000 0 0 1
6.839910 29.381639 0.900298 30.180717 1.342075 1.540962 0.038174 -0.008802 -554895.000000 0 0 1
5.877010 28.645339 1.853698 29.300698 1.368440 1.507489 0.029942 -0.013386 254382.000000 0 0 1
5.287210 27.507839 1.184598 28.036389 1.380905 1.528532 0.036759 -0.019176 -86732.900000 0 0 1
4.182410 26.935039 1.836898 27.319647 1.416749 1.503508 0.043210 -0.018669 102672.000000 0 0 1
3.485410 25.933639 0.870498 26.181282 1.437200 1.537541 0.045006 -0.024448 604243.000000 0 0 1
2.295210 25.322739 1.419598 25.466142 1.480405 1.515023 0.069487 -0.022934 986407.000000 0 0 1
1.609810 24.579439 0.398898 24.635329 1.505396 1.554603 0.054966 -0.016013 280551.000000 0 1 0
0.266810 23.926939 0.770998 23.940845 1.559646 1.538586 0.061343 -0.016237 601600.000000 0 1 0
-0.858690 24.781739 0.809798 24.809831 -1.536160 1.538150 0.073381 -0.022364 -815753.000000 0 1 0
-2.098390 24.189539 0.765798 24.292458 -1.484265 1.539267 0.066102 -0.015381 -1002730.000000 0 1 0
-3.260390 25.152439 1.035898 25.384019 -1.441890 1.529976 0.085685 -0.032286 -761906.000000 0 0 1
-4.455090 24.422039 0.999198 24.845165 -1.390359 1.530568 0.074306 -0.023374 -410390.000000 0 1 0
-5.425790 24.970839 1.877698 25.622408 -1.356837 1.497447 0.066834 -0.030105 365458.000000 0 0 1
-6.759590 25.300339 1.164698 26.213656 -1.309720 1.526351 0.083640 -0.030647 84883.800000 0 0 1
-6.582290 26.501439 0.406598 27.309671 -1.327348 1.555907 0.099215 -0.026786 -87225.700000 0 0 1
-7.672890 26.646339 -0.456102 27.732809 -1.290428 1.587243 0.091936 -0.020568 -456562.000000 0 0 1
-7.581890 27.793839 -1.435602 28.845164 -1.304486 1.620586 0.091340 -0.010909 -94439.400000 0 0 1
-7.706690 29.090239 -0.871902 30.106400 -1.311822 1.599761 0.120316 -0.031610 24617.000000 0 0 1
-7.600690 30.105539 -1.850502 31.105278 -1.323496 1.630323 0.114319 -0.027874 68385.800000 0 0 1
-7.475490 31.505339 -1.199202 32.402275 -1.337828 1.607815 0.097173 -0.024008 -497490.000000 0 0 1
-7.827990 32.624839 -2.019502 33.611545 -1.335308 1.630916 0.085278 -0.004683 -165210.000000 0 0 1
-7.098090 32.852939 -3.184802 33.761538 -1.358011 1.665269 0.080276 -0.009279 1486440.000000 0 0 1
-5.513090 33.123239 -3.128302 33.724315 -1.405867 1.663691 0.106394 -0.011641 1632940.000000 0 0 1
-5.066290 -33.455044 -2.522502 33.930374 1.420503 1.645208 0.107668 -0.018560 183261.000000 0 0 1
-4.849590 -33.703344 -1.142202 34.069613 1.427887 1.604328 0.128122 -0.028283 -412234.000000 0 0 1
-4.743190 -32.365844 -0.361202 32.713547 1.425283 1.581838 0.124435 -0.029242 402207.000000 0 0 1
-5.999690 -31.695944 -0.231102 32.259611 1.383721 1.577960 0.109082 -0.022032 449106.000000 0 0 1
-6.167590 -30.708844 -1.282502 31.348318 1.372592 1.611719 0.112128 -0.019580 -1091810.000000 0 0 1
-7.477990 -29.987644 -1.276702 30.932330 1.326412 1.612082 0.129420 -0.026462 -953381.000000 0 0 1
-7.517190 -29.343444 -0.014902 30.291023 1.320010 1.571288 0.111563 -0.021964 -67283.800000 0 0 1
-8.574990 -28.415944 -0.090702 29.681720 1.277719 1.573852 0.072444 -0.010852 -174745.000000 0 0 1
-8.763990 -27.709744 1.257898 29.089856 1.264473 1.527541 0.077471 -0.011446 15910.300000 0 0 1
-7.683090 -26.860144 1.588498 27.982504 1.292195 1.513998 0.093937 -0.019024 -216293.000000 0 0 1
-7.609590 -26.467944 2.948898 27.697543 1.290845 1.464126 0.103105 -0.020229 -124597.000000 0 0 1
-8.753590 -25.572344 3.447298 27.248008 1.240991 1.443941 0.085981 -0.012763 -202635.000000 0 0 1
-8.648690 -24.257044 2.840898 25.908970 1.228304 1.460926 0.091813 -0.020045 -233338.000000 0 0 1
-9.562590 -23.280944 3.330198 25.387707 1.181059 1.439244 0.087594 -0.030252 -340940.000000 0 0 1
-9.005990 -21.860944 3.631498 23.920629 1.180016 1.418393 0.065630 -0.011657 -16279.700000 0 1 0
-8.190990 -21.854544 4.782898 23.824137 1.212205 1.368664 0.068898 -0.018747 496639.000000 0 1 0
-7.333090 -20.687544 4.975498 22.505649 1.230146 1.347877 0.045339 -0.016128 852646.000000 0 1 0
-8.066890 -19.518344 5.660298 21.865027 1.178879 1.308940 0.045539 -0.017619 87973.200000 0 1 0
-8.341990 -19.693844 7.051898 22.520336 1.170126 1.252304 0.047652 -0.022279 550535.000000 0 1 0
-9.364790 -18.819044 7.536898 22.330708 1.109052 1.226523 0.042197 -0.019168 -104979.000000 0 1 0
-28.418370 28.617539 -5.454902 40.697951 -0.788890 1.705235 0.121578 -0.013193 -349279.000000 0 0 1
-27.452770 29.468939 -4.897902 40.571694 -0.820803 1.691814 0.112191 -0.023454 513943.000000 0 0 1
-26.529770 28.699839 -4.063302 39.294018 -0.824670 1.674389 0.100992 -0.021391 507622.000000 0 0 1
-25.504840 29.511839 -3.290302 39.144241 -0.858102 1.654951 0.085398 -0.025648 -682377.000000 0 0 1
-26.073140 30.185639 -2.192002 39.947294 -0.858368 1.625696 0.062132 -0.027381 -166306.000000 0 0 1
-25.387620 31.287039 -1.688202 40.326915 -0.889117 1.612671 0.055388 -0.023458 -1170730.000000 0 0 1
-24.198790 30.978239 -0.836302 39.318344 -0.907653 1.592068 0.050402 -0.016222 -709165.000000 0 0 1
-23.151390 30.298239 -1.492202 38.160147 -0.918322 1.609910 0.092712 -0.036297 -368038.000000 0 0 1
-21.955590 30.219339 -0.772102 37.361110 -0.942479 1.591464 0.084138 -0.029476 -673937.000000 0 0 1
-20.881790 29.530439 -1.588502 36.202477 -0.955303 1.614689 0.082278 -0.037008 -405771.000000 0 0 1
-19.672190 29.424839 -0.867402 35.405771 -0.981486 1.595298 0.087059 -0.033679 675584.000000 0 0 1
-18.554590 28.910739 -1.616202 34.390635 -1.000215 1.617809 0.098855 -0.034572 906375.000000 0 0 1
-17.143990 29.323439 -1.161102 33.987183 -1.041739 1.604966 0.116952 -0.037997 -37883.600000 0 0 1
-16.629190 28.562039 -0.086502 33.050379 -1.043558 1.573414 0.118154 -0.038733 145508.000000 0 0 1
-15.462290 29.213039 0.398098 33.055144 -1.083989 1.558753 0.126387 -0.043891 139907.000000 0 0 1
-14.754390 28.369739 1.486998 32.011643 -1.091218 1.524328 0.129434 -0.046795 17976.300000 0 0 1
-15.446190 28.412939 2.734898 32.455501 -1.072855 1.486430 0.122369 -0.049435 -101521.000000 0 0 1
-14.886790 27.611839 3.735598 31.590899 -1.076325 1.452270 0.121148 -0.055968 85603.400000 0 0 1
-13.871090 28.353439 4.652198 31.905605 -1.115809 1.424463 0.114954 -0.045432 273664.000000 0 0 1
-14.391490 29.482539 5.356798 33.241997 -1.116685 1.408945 0.087755 -0.031308 -245039.000000 0 0 1
-14.581590 30.645539 4.564698 34.243369 -1.126684 1.437097 0.095654 -0.033538 -36231.300000 0 0 1
-14.212490 31.970339 5.346698 35.393285 -1.152482 1.419150 0.100302 -0.039334 -515370.000000 0 0 1
-15.162090 32.378639 6.280798 36.300326 -1.132850 1.396898 0.105934 -0.044921 -452277.000000 0 0 1
-14.796390 33.460539 7.144698 37.277172 -1.154444 1.377939 0.091014 -0.047928 -490267.000000 0 0 1
-15.850090 -33.860044 8.128198 38.259581 1.132988 1.356716 0.066545 -0.040866 -272855.000000 0 0 1
-15.994190 33.104039 9.205398 37.900276 -1.120720 1.325458 0.050070 -0.042173 992590.000000 0 0 1
-17.191990 33.470539 9.955298 38.922352 -1.096292 1.312149 0.054785 -0.045251 445342.000000 0 0 1
-17.236490 32.950839 11.436998 38.905775 -1.088842 1.272422 0.051533 -0.031986 358403.000000 0 0 1
-16.261490 33.389839 12.380398 39.148329 -1.117587 1.249029 0.064523 -0.041109 203241.000000 0 0 1
-14.927890 32.988639 12.096898 38.176265 -1.145852 1.248369 0.073397 -0.036793 -410319.000000 0 0 1
-14.075790 33.270939 13.360598 38.517384 -1.170565 1.216562 0.085879 -0.035774 -467838.000000 0 0 1
-14.303490 32.582139 14.559498 38.446907 -1.157129 1.182415 0.066804 -0.030795 -42573.400000 0 0 1
-13.778990 31.264839 14.592398 37.152239 -1.155688 1.167151 0.039549 -0.027469 86845.000000 0 0 1
-14.794790 30.099839 14.277998 36.451987 -1.113953 1.168325 0.039076 -0.032641 150356.000000 0 0 1
-14.864490 29.898839 12.893598 35.792996 -1.109424 1.202285 0.041574 -0.028659 10908.100000 0 0 1
-16.014890 29.392039 12.268198 35.649367 -1.071899 1.219479 0.028940 -0.026384 -387954.000000 0 0 1
-15.961590 29.394639 10.712298 35.122222 -1.073335 1.260857 0.032792 -0.016304 766019.000000 0 0 1
-14.944190 28.510339 10.159598 33.754788 -1.088002 1.265074 0.024162 -0.013700 964483.000000 0 0 1
-15.125890 28.411139 8.756298 33.356531 -1.081571 1.305178 0.047846 -0.017292 -290024.000000 0 0 1
-14.639090 27.029039 8.270298 31.831898 -1.074420 1.307969 0.055566 -0.021818 -1278430.000000 0 0 1
-13.273490 27.003539 8.257498 31.201970 -1.113935 1.302959 0.070888 -0.029715 -1121670.000000 0 0 1
-12.688890 25.712939 8.044798 29.780563 -1.112376 1.297262 0.068861 -0.029369 1263050.000000 0 0 1
-11.246290 25.761039 7.385498 29.062962 -1.159174 1.313858 0.102762 -0.040191 946492.000000 0 0 1
-11.312690 26.065939 5.987698 29.038986 -1.161325 1.363111 0.115550 -0.042094 138272.000000 0 0 1
-10.075790 25.845939 5.364598 28.254434 -1.199079 1.379769 0.118505 -0.037081 -357598.000000 0 0 1
-10.194890 26.167439 3.796198 28.338698 -1.199286 1.436434 0.134449 -0.036454 73507.400000 0 0 1
-10.040790 27.544939 3.531498 29.529860 -1.221242 1.450919 0.135252 -0.032140 30166.500000 0 0 1
-10.175090 27.793039 2.185498 29.677633 -1.219849 1.497088 0.138100 -0.039403 28800.300000 0 0 1
-10.007490 29.263239 1.792498 30.979027 -1.241283 1.512902 0.148303 -0.037374 533365.000000 0 0 1
-11.006990 30.139739 2.322898 32.170694 -1.220646 1.498528 0.138714 -0.041776 272492.000000 0 0 1
-10.762090 31.446539 1.920098 33.292555 -1.241056 1.513091 0.130573 -0.037574 405394.000000 0 0 1
-11.663390 32.479039 2.721798 34.616916 -1.226033 1.492089 0.125109 -0.033429 2520320.000000 0 0 1
-13.103390 32.631039 2.469698 35.250290 -1.188944 1.500677 0.129113 -0.037663 1737860.000000 0 0 1
-13.230390 33.469939 1.366098 36.015917 -1.194355 1.532857 0.109175 -0.031380 -236428.000000 0 0 1
-14.681490 33.813039 0.925798 36.874447 -1.161162 1.545687 0.116707 -0.030774 248060.000000 0 0 1
-15.333290 32.760839 0.250098 36.172433 -1.133044 1.563882 0.103447 -0.025931 -37164.700000 0 0 1
-15.492190 32.906439 -1.186102 36.390226 -1.130784 1.603396 0.109632 -0.033731 594840.000000 0 0 1
-14.185690 32.673839 -2.038202 35.678675 -1.161192 1.627954 0.112107 -0.026363 534975.000000 0 0 1
-13.818690 31.321339 -2.140902 34.301107 -1.155292 1.633252 0.117518 -0.023945 268362.000000 0 0 1
-12.418390 31.155039 -2.295302 33.617277 -1.191498 1.639127 0.113192 -0.017354 253123.000000 0 0 1
-12.045790 29.673739 -2.749002 32.143255 -1.185179 1.656424 0.088145 -0.020005 -5804.270000 0 0 1
-12.105690 29.282239 -4.109102 31.951244 -1.178780 1.699759 0.094336 -0.023593 -112459.000000 0 0 1
-10.878690 29.538539 -4.787402 31.840076 -1.217923 1.721726 0.072864 -0.020828 374449.000000 0 0 1
-10.774890 28.978339 -6.168502 31.526066 -1.214812 1.767730 0.070892 -0.012785 23166.200000 0 0 1
-10.943490 27.572839 -6.145902 30.295108 -1.192971 1.775082 0.079185 -0.010342 -64115.000000 0 0 1
-10.717990 27.012339 -7.400602 29.988509 -1.193068 1.820154 0.074262 -0.006512 -119968.000000 0 0 1
-11.217690 25.594239 -7.509202 28.935960 -1.157723 1.833312 0.090805 -0.020984 131460.000000 0 0 1
-10.533090 24.570839 -6.770202 27.577305 -1.165811 1.818831 0.054297 -0.012572 -343684.000000 0 0 1
-11.093290 23.330139 -6.931902 26.747107 -1.126947 1.832953 0.122076 -0.034670 -303793.000000 0 0 1
-10.637090 22.215039 -5.954702 25.339971 -1.124233 1.808007 0.087262 -0.031567 28887.400000 0 0 1
-9.290990 21.801239 -6.175702 24.489913 -1.167937 1.825722 0.068755 -0.030121 328484.000000 0 1 0
-8.777590 20.734639 -5.416002 23.158247 -1.170341 1.806852 0.055885 -0.024729 -413836.000000 0 1 0
-8.755090 20.825439 -3.903302 22.925669 -1.172825 1.741889 0.050793 -0.033217 -9017.790000 0 1 0
-9.974090 20.833339 -3.151402 23.311839 -1.124288 1.706396 0.080107 -0.037435 260479.000000 0 1 0
-10.585690 19.566639 -3.110902 22.463034 -1.074884 1.709733 0.075687 -0.034980 -838309.000000 0 1 0
-11.869890 19.542339 -2.309502 22.981103 -1.024958 1.671462 0.081597 -0.034539 -905289.000000 0 1 0
-11.759790 19.427839 -0.913802 22.728146 -1.026484 1.611013 0.073562 -0.035996 156404.000000 0 1 0
-11.519090 18.162339 -0.313502 21.509493 -1.005588 1.585372 0.063365 -0.028377 -398967.000000 0 1 0
-11.131390 18.239139 1.169498 21.399574 -1.022836 1.516119 0.058572 -0.029260 534453.000000 0 1 0
-12.203590 18.733739 2.003098 22.447561 -0.993421 1.481443 0.077291 -0.022109 950258.000000 0 1 0
-11.833990 18.616939 3.365898 22.315085 -1.004570 1.419383 0.069758 -0.020558 -255294.000000 0 1 0
-13.095290 18.560639 4.213198 23.102705 -0.956361 1.387402 0.091399 -0.028008 -244192.000000 0 1 0
-13.574990 17.222439 4.324198 22.351543 -0.903283 1.376106 0.054144 -0.023290 319967.000000 0 1 0
-14.898390 17.247639 4.833398 23.298172 -0.858349 1.361820 0.080962 -0.031024 226283.000000 0 1 0
-15.415390 15.835939 5.256998 22.716673 -0.798854 1.337264 0.051352 -0.023313 -273062.000000 0 1 0
-14.747990 15.241039 6.368298 22.143796 -0.801838 1.279088 0.060421 -0.018433 137292.000000 0 1 0
-14.991390 15.816239 7.641698 23.093089 -0.812166 1.233530 0.055828 -0.009620 -242644.000000 0 1 0
-13.873290 15.597339 8.742898 22.631470 -0.843832 1.174162 0.055305 -0.014203 998859.000000 0 1 0
-12.731590 16.446639 8.637498 22.520917 -0.912039 1.177178 0.057549 -0.022504 378617.000000 0 1 0
-11.804690 16.081239 7.631198 21.358655 -0.937571 1.205433 0.056125 -0.019065 394471.000000 0 1 0
-10.621790 17.150339 7.486698 21.517602 -1.016282 1.215430 0.066155 -0.026049 1062590.000000 0 1 0
-9.683790 17.185039 8.547298 21.497853 -1.057647 1.161909 0.059860 -0.026101 118593.000000 0 1 0
-9.028190 18.448639 8.579098 22.258963 -1.115690 1.175131 0.056427 -0.027448 1007640.000000 0 1 0
-7.769090 18.449639 9.584998 22.195048 -1.172236 1.124250 0.046578 -0.028276 498175.000000 0 1 0
-6.717490 17.717739 8.976998 20.967343 -1.208402 1.128361 0.038045 -0.023290 293961.000000 0 1 0
-5.546190 17.757239 9.818098 21.035086 -1.268063 1.085185 0.031141 -0.024912 569942.000000 0 1 0
-4.531490 18.837339 9.452998 21.557805 -1.334723 1.116872 0.020294 -0.019809 -1722950.000000 0 1 0
-5.023290 20.127139 9.523098 22.825963 -1.326215 1.140429 0.032471 -0.024288 -342539.000000 0 1 0
-4.501690 21.042239 8.601898 23.173988 -1.360038 1.190509 0.040099 -0.025990 1701060.000000 0 1 0
-2.959590 21.442639 8.806998 23.368979 -1.433639 1.184385 0.048751 -0.024226 1427320.000000 0 1 0
-1.933090 20.644939 8.286598 22.329758 -1.477434 1.190602 0.040553 -0.010405 -357095.000000 0 1 0
-0.798290 21.489139 8.086098 22.974015 -1.533665 1.211124 0.035744 -0.009251 591888.000000 0 1 0
0.500510 20.646439 7.959198 22.133116 1.546559 1.202951 0.025108 -0.004386 247977.000000 0 1 0
0.872710 19.954139 9.090398 21.944581 1.527088 1.143685 0.026527 -0.010109 -1258810.000000 0 1 0
2.198510 19.573839 9.093298 21.694624 1.458946 1.138288 0.019387 -0.009518 -670469.000000 0 1 0
2.698410 19.068639 10.496898 21.933520 1.430219 1.071762 0.015159 -0.024032 219530.000000 0 1 0
4.076210 18.771039 10.628998 21.953201 1.356962 1.065386 0.032709 -0.007088 23568.300000 0 1 0
4.451210 18.178239 11.870398 22.162311 1.330657 1.005564 0.029567 -0.014000 600627.000000 0 1 0
5.985410 18.100139 12.101998 22.580933 1.251433 1.005177 0.051563 -0.018629 424316.000000 0 1 0
6.782110 17.234739 11.339598 21.716808 1.195894 1.021417 0.042935 -0.018744 674018.000000 0 1 0
7.786810 16.577339 12.164398 21.986705 1.131660 0.984522 0.049288 -0.012517 904870.000000 0 1 0
9.044810 15.963039 11.464798 21.634898 1.055291 1.012288 0.049321 -0.017719 197533.000000 0 1 0
9.913410 17.009439 11.150398 22.625829 1.043106 1.055472 0.064680 -0.021264 -427571.000000 0 1 0
11.083610 16.563639 10.506998 22.529927 0.981074 1.085628 0.056648 -0.017717 -353750.000000 0 1 0
11.831210 17.672439 9.827898 23.428193 0.980854 1.137913 0.048675 -0.009687 647376.000000 0 1 0
12.999010 17.093539 9.142898 23.340008 0.920632 1.168289 0.061801 -0.009684 432625.000000 0 1 0
13.875710 18.168239 8.920298 24.539600 0.918563 1.198767 0.080366 -0.008071 -312179.000000 0 1 0
14.765910 17.810739 7.717098 24.388689 0.878594 1.248842 0.090066 -0.011245 -49837.300000 0 1 0
15.722510 16.778539 7.942098 24.326809 0.817879 1.238224 0.098478 -0.026921 133495.000000 0 1 0
16.444410 16.519539 6.769698 24.272261 0.787677 1.288141 0.075131 -0.023346 -8449.420000 0 1 0
17.979410 16.617339 6.980698 25.458306 0.746049 1.293037 0.095467 -0.020579 125655.000000 0 0 1
18.320910 15.610339 7.967198 25.353791 0.705683 1.251139 0.101402 -0.022985 320323.000000 0 0 1
19.638910 15.864339 8.429798 26.616265 0.679480 1.248531 0.107352 -0.028150 154249.000000 0 0 1
20.217410 14.956439 9.520998 26.890299 0.636928 1.208879 0.113074 -0.033515 5849.410000 0 0 1
20.691410 13.685339 9.128998 26.434099 0.584349 1.218185 0.108143 -0.031873 202393.000000 0 0 1
20.658010 12.708039 10.129298 26.284032 0.551494 1.175178 0.104148 -0.030829 -117773.000000 0 0 1
21.561410 11.459239 9.867598 26.335871 0.488505 1.186742 0.097390 -0.021080 217816.000000 0 0 1
22.955510 11.809739 9.944498 27.664390 0.475150 1.203097 0.106794 -0.030578 950965.000000 0 0 1
23.788410 10.896739 9.307898 27.771647 0.429544 1.229023 0.138884 -0.028227 -406928.000000 0 0 1
23.946910 9.433439 9.808798 27.543726 0.375264 1.206687 0.153767 -0.035383 -1429640.000000 0 0 1
22.870210 8.599139 9.547298 26.232473 0.359645 1.198291 0.156649 -0.032739 -12087.200000 0 0 1
23.024810 7.200239 9.793098 26.036323 0.303082 1.185178 0.151021 -0.032295 -477700.000000 0 0 1
23.986510 6.397539 8.902098 26.372875 0.260647 1.226486 0.178914 -0.035138 -21578.300000 0 0 1
23.549710 6.232739 7.581598 25.513066 0.258731 1.269074 0.149744 -0.020884 -286510.000000 0 0 1
24.631310 5.892539 6.785798 26.219659 0.234816 1.309011 0.160819 -0.019540 -604889.000000 0 0 1
24.349810 5.444539 5.367698 25.521921 0.219978 1.358897 0.162819 -0.025779 -532546.000000 0 0 1
23.548410 4.317539 5.280498 24.516371 0.181333 1.353709 0.146103 -0.022975 125182.000000 0 1 0
23.469210 3.878339 3.910098 24.106726 0.163772 1.407877 0.162844 -0.026685 563065.000000 0 1 0
22.356010 2.775039 3.749698 22.837519 0.123498 1.405859 0.132411 -0.018716 472866.000000 0 1 0
22.868810 1.488239 4.013098 23.265904 0.064986 1.397441 0.160543 -0.025301 859627.000000 0 1 0
21.871410 0.477139 3.754798 22.196504 0.021812 1.400817 0.126865 -0.023598 410475.000000 0 1 0
22.452210 -0.911761 4.020998 22.827647 -0.040587 1.393726 0.156196 -0.030399 -514639.000000 0 1 0
22.705310 -1.295361 5.324798 23.357281 -0.056989 1.340802 0.153978 -0.034362 616991.000000 0 1 0
22.881010 -2.723461 5.341298 23.653485 -0.118470 1.343017 0.155354 -0.039084 -418371.000000 0 1 0
22.939610 -3.346161 6.747298 24.144328 -0.144847 1.287568 0.190467 -0.043872 -65235.900000 0 1 0
22.768710 -4.753261 6.835998 24.243319 -0.205807 1.284945 0.161762 -0.045381 489841.000000 0 1 0
22.914310 -5.180761 8.194298 24.880764 -0.222354 1.235189 0.204995 -0.046069 -128749.000000 0 1 0
22.447210 -6.619061 8.498598 24.898100 -0.286746 1.222459 0.177314 -0.047547 1058210.000000 0 1 0
21.007610 -6.702161 8.558698 23.653540 -0.308827 1.200560 0.151546 -0.045471 1357020.000000 0 1 0
20.668510 -7.938961 9.237398 23.990497 -0.366733 1.175541 0.140250 -0.041488 -212996.000000 0 1 0
-27.366490 -32.623044 5.010998 42.875376 0.872799 1.453655 0.042229 -0.014774 153258.000000 0 0 1
-28.103320 -33.754344 5.427798 44.256223 0.876501 1.447842 0.050568 -0.022522 45822.500000 0 0 1
-27.961690 33.859139 6.839298 44.441798 -0.880506 1.416289 0.050305 -0.013071 -105223.000000 0 0 1
-28.833880 32.737739 7.418398 44.251382 -0.848717 1.402359 0.066262 -0.024707 680828.000000 0 0 1
-30.248090 32.940039 7.286998 45.311074 -0.827975 1.409273 0.068713 -0.025730 551426.000000 0 0 1
-30.891150 31.740039 7.748798 44.963731 -0.798951 1.397597 0.083211 -0.026942 172289.000000 0 0 1
-32.425280 31.841339 7.830998 46.115010 -0.776312 1.400155 0.086003 -0.027085 46402.400000 0 0 1
-33.121210 31.843739 6.581698 46.415052 -0.765737 1.428516 0.072636 -0.031421 141438.000000 0 0 1
-34.513582 31.922139 6.801298 47.502294 -0.746411 1.427124 0.072243 -0.028220 -224122.000000 0 0 1
-35.333079 31.876939 5.536298 47.908416 -0.734020 1.454978 0.060330 -0.023383 -600655.000000 0 0 1
-35.080178 30.675039 4.832198 46.850049 -0.718505 1.467471 0.057224 -0.019095 496324.000000 0 0 1
-35.898567 30.487339 3.655298 47.239244 -0.704066 1.493340 0.067159 -0.008867 423714.000000 0 0 1
-35.505449 29.180539 2.828298 46.044978 -0.687929 1.509333 0.069248 -0.014277 93181.000000 0 0 1
-35.996897 28.007439 3.487298 45.742261 -0.661214 1.494484 0.101849 -0.021368 53048.000000 0 0 1
-35.352718 26.844939 3.084098 44.496933 -0.649456 1.501430 0.086576 -0.022247 -595030.000000 0 0 1
-35.890325 25.609539 3.816998 44.255320 -0.619762 1.484440 0.104082 -0.023474 -1312720.000000 0 0 1
-37.234840 25.445139 3.589898 45.241306 -0.599477 1.491363 0.125325 -0.024046 -1429650.000000 0 0 1
37.013072 24.534839 4.568498 44.640756 0.585369 1.468278 0.124454 -0.023554 134842.000000 0 0 1
35.583442 24.055239 4.222398 43.158598 0.594452 1.472805 0.134261 -0.026795 -127633.000000 0 0 1
35.381052 23.202139 3.070298 42.421514 0.580427 1.498357 0.123995 -0.031897 205576.000000 0 0 1
35.736392 21.838939 3.333498 42.013584 0.548550 1.491369 0.109148 -0.023933 -238521.000000 0 0 1
34.970602 20.796739 2.408298 40.758402 0.536507 1.511675 0.123045 -0.018606 1236540.000000 0 0 1
33.537672 20.794539 2.618098 39.547981 0.555021 1.504547 0.120260 -0.026816 1452670.000000 0 0 1
33.085442 19.955639 3.708598 38.815303 0.542736 1.475106 0.106362 -0.018269 -211465.000000 0 0 1
33.328932 18.413839 3.600298 38.247214 0.504751 1.476524 0.114207 -0.022705 -816865.000000 0 0 1
32.512822 17.881339 2.601998 37.196725 0.502826 1.500787 0.103106 -0.035322 189781.000000 0 0 1
32.467612 16.465639 2.422698 36.484690 0.469344 1.504344 0.103185 -0.033030 -829627.000000 0 0 1
31.617372 15.698939 3.366498 35.460517 0.460867 1.475717 0.124309 -0.034970 -573172.000000 0 0 1
30.240802 15.806839 3.025898 34.256654 0.481642 1.482351 0.109923 -0.026403 72922.600000 0 0 1
29.535502 15.021239 3.947998 33.370200 0.470490 1.452209 0.097777 -0.035514 -773291.000000 0 0 1
28.040202 15.367239 3.921898 32.214691 0.501340 1.448751 0.096784 -0.030846 -316680.000000 0 0 1
27.426102 14.725039 2.785698 31.253448 0.492729 1.481545 0.104438 -0.036410 1290590.000000 0 0 1
26.060102 15.181739 2.605598 30.272154 0.527502 1.484617 0.078683 -0.022893 1049580.000000 0 0 1
25.317302 14.620239 1.379398 29.268070 0.523696 1.523649 0.085108 -0.030941 -161450.000000 0 0 1
25.864002 15.021439 0.123098 29.909955 0.526171 1.566681 0.099163 -0.033631 1059880.000000 0 0 1
27.125802 14.465339 -0.284602 30.743068 0.489907 1.580054 0.106479 -0.033357 291820.000000 0 0 1
27.870202 15.235639 -1.423702 31.794651 0.500278 1.615589 0.125429 -0.035142 106887.000000 0 0 1
28.151702 16.620539 -1.171002 32.712871 0.533325 1.606600 0.091536 -0.036539 428113.000000 0 0 1
29.043102 16.843739 -0.084602 33.574105 0.525551 1.573316 0.097647 -0.034665 -423664.000000 0 0 1
29.691002 18.236239 -0.177402 34.844620 0.550796 1.575888 0.106111 -0.033403 -212549.000000 0 0 1
30.734202 18.413039 -1.098302 35.844630 0.539762 1.601442 0.094747 -0.026818 119931.000000 0 0 1
31.375842 19.675639 -0.869402 37.044975 0.560105 1.594267 0.097831 -0.016671 484005.000000 0 0 1
32.555862 19.959339 -1.852502 38.232070 0.549981 1.619269 0.089059 -0.018085 71570.400000 0 0 1
32.960342 21.308539 -2.014302 39.300069 0.573904 1.622073 0.055790 -0.011254 440521.000000 0 0 1
31.967332 22.201439 -2.502202 39.000965 0.607028 1.634998 0.095027 -0.010701 -202794.000000 0 0 1
32.573632 23.643339 -2.666902 40.338089 0.627860 1.636958 0.108921 -0.015229 115281.000000 0 0 1
32.911162 24.418639 -1.559202 41.010312 0.638333 1.608825 0.126087 -0.015020 -196348.000000 0 0 1
33.827572 23.873939 -0.681502 41.409348 0.614577 1.587255 0.142275 -0.008606 -835711.000000 0 0 1
34.339882 24.914339 0.405198 42.427774 0.627650 1.561246 0.160138 -0.024902 -210881.000000 0 0 1
35.124192 25.976239 -0.052402 43.686115 0.636782 1.571996 0.178929 -0.018770 187409.000000 0 0 1
36.440882 25.927139 0.498198 44.725861 0.618392 1.559657 0.155650 -0.018086 673344.000000 0 0 1
37.284572 27.115039 -0.114202 46.101819 0.628779 1.573273 0.113742 -0.024284 -274728.000000 0 0 1
-37.198250 27.074739 -1.483202 46.032067 -0.629174 1.603023 0.105473 -0.030340 -120338.000000 0 0 1
36.560222 27.515739 -2.385302 45.819815 0.645172 1.622878 0.096799 -0.024647 -336748.000000 0 0 1
36.797362 26.930739 -3.789402 45.756641 0.631794 1.653708 0.095509 -0.022860 307763.000000 0 0 1
-36.766310 27.433539 -4.426402 46.086371 -0.641039 1.666990 0.087171 -0.018657 301533.000000 0 0 1
-36.618460 26.964439 -5.744702 45.836603 -0.634715 1.696457 0.084134 -0.017586 -13672.200000 0 0 1
37.045782 27.280639 -6.845202 46.513225 0.634742 1.718500 0.077016 -0.003735 488553.000000 0 0 1
35.836592 26.574639 -6.598702 45.100063 0.638071 1.717636 0.091805 -0.007690 -152991.000000 0 0 1
34.819972 26.827039 -7.562202 44.601653 0.656461 1.741169 0.078954 -0.006321 -190365.000000 0 0 1
33.553152 26.125739 -7.089602 43.111840 0.661579 1.735993 0.084379 -0.001753 -847425.000000 0 0 1
33.468742 24.694139 -7.115802 42.197060 0.635665 1.740239 0.081678 -0.008964 -65153.900000 0 0 1
34.321932 23.961539 -6.237502 42.320880 0.609477 1.718721 0.082790 -0.007558 104415.000000 0 0 1
34.373082 22.394239 -6.473902 41.532182 0.577433 1.727311 0.086875 -0.002255 882117.000000 0 0 1
33.238932 21.747139 -5.847302 40.149167 0.579369 1.716956 0.071060 -0.003840 749791.000000 0 0 1
33.360962 20.370039 -6.017502 39.548738 0.548174 1.723544 0.067127 -0.005325 -19308.600000 0 0 1
32.213132 19.514239 -5.478102 38.059178 0.544662 1.715234 0.067310 -0.004082 1192270.000000 0 0 1
30.927512 19.566439 -6.134602 37.107815 0.564085 1.736877 0.062980 -0.012087 1053170.000000 0 0 1
29.852172 18.994639 -5.428502 35.796888 0.566677 1.723031 0.074277 -0.026635 397815.000000 0 0 1
28.655202 18.505339 -6.281502 34.684658 0.573412 1.752904 0.050825 -0.025284 -4117.020000 0 0 1
29.085702 17.556939 -7.175402 34.723344 0.543083 1.778941 0.042902 -0.024191 344176.000000 0 0 1
28.070202 17.329039 -8.156202 33.981694 0.553077 1.813180 0.065312 -0.026369 302921.000000 0 0 1
28.322102 16.125439 -9.066702 33.828632 0.517584 1.842132 0.057013 -0.020440 -94661.300000 0 0 1
27.398402 16.180039 -10.127502 33.392101 0.533440 1.878940 0.063114 -0.019273 203499.000000 0 0 1
27.685502 15.205439 -11.110302 33.483298 0.502244 1.909025 0.065131 -0.012266 -175974.000000 0 0 1
27.015502 15.471939 -12.459302 33.532857 0.520109 1.951480 0.078401 -0.013176 463417.000000 0 0 1
25.578102 15.474339 -12.420802 32.372377 0.544076 1.964580 0.076061 -0.015665 944529.000000 0 0 1
24.992202 15.643739 -13.705302 32.514182 0.559278 2.005915 0.074026 -0.024359 -183797.000000 0 0 1
24.883402 14.435839 -14.647302 32.281893 0.525688 2.041744 0.063110 -0.024978 -248031.000000 0 0 1
26.102902 13.803939 -15.024502 33.130740 0.486443 2.041475 0.070645 -0.024911 289859.000000 0 0 1
26.640702 14.266739 -16.231702 34.303571 0.491661 2.063691 0.073842 -0.027422 56197.200000 0 0 1
28.124202 13.881039 -16.470402 35.424965 0.458484 2.054361 0.081128 -0.021253 218446.000000 0 0 1
28.202202 12.509639 -16.766202 35.113542 0.417494 2.068587 0.067924 -0.020899 4156.090000 0 0 1
29.482602 12.035439 -17.141802 36.165135 0.387574 2.064609 0.059347 -0.005587 120193.000000 0 0 1
29.489502 10.670839 -17.919902 36.119530 0.347194 2.089930 0.038124 -0.004644 66279.600000 0 0 1
28.803502 10.770339 -19.185802 36.245509 0.357828 2.128606 0.037750 -0.006073 163828.000000 0 0 1
28.632202 9.521239 -19.823602 36.103077 0.321033 2.152063 0.025198 0.008960 1004650.000000 0 0 1
29.988722 8.976339 -20.465902 37.399883 0.290836 2.149834 0.035046 -0.001562 853687.000000 0 0 1
30.596532 9.943839 -21.357702 38.615789 0.314231 2.156855 0.041578 -0.007036 420744.000000 0 0 1
31.127172 9.342139 -22.561402 39.562524 0.291574 2.177633 0.044364 -0.009013 -325103.000000 0 0 1
32.474832 8.624339 -22.461902 40.416964 0.259578 2.160066 0.053914 -0.007124 -854503.000000 0 0 1
33.572712 9.454939 -22.238802 41.365290 0.274516 2.138408 0.071463 -0.014191 -32644.100000 0 0 1
34.797772 8.740339 -22.035002 42.104867 0.246084 2.121558 0.065074 -0.015448 1098490.000000 0 0 1
35.976082 9.780939 -21.946202 43.261774 0.265457 2.102832 0.089011 -0.023800 336424.000000 0 0 1
35.976812 10.423339 -20.725402 42.807935 0.282003 2.076186 0.065863 -0.015106 119136.000000 0 0 1
37.091792 11.284839 -20.677302 43.939725 0.295343 2.060748 0.042119 0.002291 1109.930000 0 0 1
37.059232 12.028539 -19.348202 43.502016 0.313848 2.031709 0.037043 0.002188 -72845.900000 0 0 1
-37.165640 11.274339 -18.261302 42.917020 -0.294531 2.010313 0.051158 -0.000571 271612.000000 0 0 1
37.282512 12.007039 -17.067002 42.725136 0.311566 1.981725 0.047390 0.002526 -11711.200000 0 0 1
-36.943870 11.243339 -15.821202 41.732153 -0.295430 1.959634 0.050200 0.002624 -391096.000000 0 0 1
37.082442 10.077339 -15.727102 41.521103 0.265347 1.959267 0.044353 0.000868 -80479.000000 0 0 1
-37.246150 9.261539 -14.611902 41.067742 -0.243715 1.934566 0.056760 -0.014795 -130217.000000 0 0 1
36.550392 8.065439 -14.415302 40.109642 0.217186 1.938418 0.092444 -0.013967 469453.000000 0 0 1
35.259022 8.360639 -13.890202 38.807688 0.232821 1.936840 0.105892 -0.021326 789268.000000 0 0 1
35.268922 7.975939 -12.557502 38.277975 0.222405 1.905046 0.108342 -0.026036 -765966.000000 0 0 1
34.132702 8.552339 -11.729802 37.091402 0.245507 1.892560 0.114715 -0.027333 -566917.000000 0 0 1
34.171412 9.957139 -11.661302 37.454185 0.283537 1.887408 0.122195 -0.028993 158077.000000 0 0 1
33.304122 10.466239 -10.662702 36.502054 0.304490 1.867231 0.094822 -0.020377 84051.200000 0 0 1
33.810112 10.215139 -9.162802 36.488761 0.293412 1.824626 0.117396 -0.021177 304916.000000 0 0 1
34.972312 10.923739 -8.763202 37.672064 0.302752 1.805565 0.120285 -0.019165 101625.000000 0 0 1
34.835432 12.285439 -8.367802 37.874259 0.339052 1.793571 0.117116 -0.016647 -362076.000000 0 0 1
34.404262 12.603539 -6.921702 37.288235 0.351154 1.757506 0.112469 -0.022702 -25631.000000 0 0 1
35.329132 12.100239 -5.966402 37.817474 0.329978 1.729227 0.137397 -0.023605 282437.000000 0 0 1
35.017872 12.498239 -4.639002 37.469691 0.342818 1.694922 0.124367 -0.023932 -869441.000000 0 0 1
36.169602 12.355039 -3.690102 38.399271 0.329160 1.667043 0.153162 -0.011445 -796298.000000 0 0 1
37.065982 13.430839 -3.801802 39.607174 0.347634 1.666932 0.153633 -0.003652 -32157.000000 0 0 1
-36.526410 13.250239 -2.986102 38.970043 -0.347995 1.647497 0.152374 -0.021850 142096.000000 0 0 1
-35.545174 14.419839 -3.017702 38.477236 -0.385390 1.649305 0.146614 -0.022726 -15393.600000 0 0 1
-36.060980 15.455339 -2.200502 39.295088 -0.404907 1.626825 0.140631 -0.024443 294596.000000 0 0 1
-35.160674 16.505339 -1.979402 38.892380 -0.438891 1.621713 0.166433 -0.027229 16899.200000 0 0 1
-35.809005 17.515539 -1.015802 39.876193 -0.454920 1.596273 0.143940 -0.022738 289119.000000 0 0 1
-36.867840 18.368539 -1.402402 41.214167 -0.462228 1.604830 0.125298 -0.014463 478710.000000 0 0 1
-37.196260 19.374739 -0.423702 41.941886 -0.480211 1.580899 0.117967 -0.014899 68994.600000 0 0 1
36.868322 20.670239 -0.951002 42.278084 0.510983 1.593292 0.119240 -0.019878 105311.000000 0 0 1
-37.010980 21.578439 -1.585302 42.871376 -0.527847 1.607783 0.101021 -0.009203 -15514.300000 0 0 1
37.037342 22.149139 -2.640902 43.235674 0.538964 1.631916 0.102843 -0.010407 80121.800000 0 0 1
-36.910560 23.368839 -3.184802 43.802226 -0.564418 1.643569 0.111780 -0.015131 207511.000000 0 0 1
-35.667003 23.023239 -3.762702 42.618805 -0.573209 1.659199 0.114942 -0.010037 -237875.000000 0 0 1
-35.024191 24.139439 -4.285502 42.752451 -0.603456 1.671205 0.118752 -0.020365 -191863.000000 0 0 1
-33.569520 23.840039 -4.702602 41.441218 -0.617518 1.684518 0.115800 -0.031316 -117709.000000 0 0 1
-33.480980 22.909339 -5.761302 40.975681 -0.600077 1.711867 0.111767 -0.016943 -253871.000000 0 0 1
-32.161370 22.789839 -6.241702 39.908512 -0.616481 1.727841 0.114922 -0.012710 -146146.000000 0 0 1
-32.056020 21.967039 -7.575802 39.592070 -0.600772 1.763330 0.114244 -0.020802 258279.000000 0 0 1
-32.749540 22.630139 -8.649202 40.736522 -0.604664 1.784745 0.112423 -0.028439 224930.000000 0 0 1
-32.528160 21.851639 -9.836102 40.402032 -0.591532 1.816723 0.082568 -0.020715 -155093.000000 0 0 1
-33.508580 22.171739 -10.993202 41.656469 -0.584538 1.837861 0.073463 -0.011997 -189908.000000 0 0 1
-33.449070 23.522439 -11.473402 42.470983 -0.612891 1.844342 0.072050 -0.013961 -181318.000000 0 0 1
-34.125357 23.699539 -12.715602 43.449910 -0.607015 1.867793 0.046555 -0.010948 -221512.000000 0 0 1
-34.427644 25.164539 -13.177302 44.633597 -0.631191 1.870495 0.060374 -0.007469 537542.000000 0 0 1
-33.210420 25.885739 -13.255702 44.144276 -0.662082 1.875784 0.058645 -0.007294 -49823.200000 0 0 1
-32.365880 25.696839 -14.369402 43.753370 -0.671040 1.905425 0.067380 -0.009745 787103.000000 0 0 1
-30.865530 26.050339 -14.024502 42.754973 -0.700997 1.905004 0.083292 -0.009470 927699.000000 0 0 1
-30.155310 25.196839 -13.081502 41.416773 -0.696056 1.892149 0.081168 -0.011135 89046.700000 0 0 1
-30.645690 24.966039 -11.764602 41.241572 -0.683621 1.860075 0.089447 -0.011714 -745624.000000 0 0 1
-30.841890 26.182339 -10.864202 41.889950 -0.703868 1.833147 0.100695 -0.007642 489189.000000 0 0 1
-29.595830 26.872039 -10.683602 41.378243 -0.737199 1.831948 0.121467 -0.006005 433353.000000 0 0 1
-29.788970 28.158739 -10.071502 42.210573 -0.757273 1.811722 0.103146 -0.007003 555030.000000 0 0 1
-28.459140 28.797839 -9.574102 41.604106 -0.791314 1.803001 0.116063 -0.015362 559713.000000 0 0 1
-28.593800 30.188639 -9.569202 42.667657 -0.812523 1.796993 0.101300 -0.025296 -299559.000000 0 0 1
-27.412780 30.834639 -9.173202 42.265626 -0.844078 1.789574 0.136496 -0.020773 33305.200000 0 0 1
35.760322 -24.516861 33.433530 54.751055 -0.600988 0.913920 0.038721 -0.004534 -167448.000000 0 0 1
35.226612 -23.238361 33.699777 54.005653 -0.583151 0.896939 0.040461 -0.011071 -176278.000000 0 0 1
34.234702 -23.274561 -33.135952 53.025572 -0.597076 2.245806 0.038864 -0.007633 -267326.000000 0 0 1
33.609322 -21.944761 -32.762562 51.812590 -0.578437 2.255351 0.035396 -0.004906 347773.000000 0 0 1
32.905392 -21.288461 -33.848572 51.785029 -0.574235 2.283176 0.021114 -0.002137 321495.000000 0 0 1
32.630162 -19.933661 -33.512242 50.844357 -0.548393 2.290437 0.021739 0.005921 164920.000000 0 0 1
32.377782 -18.995361 33.083390 50.036539 -0.530567 0.848400 0.024242 -0.000769 465192.000000 0 0 1
33.552162 -18.917161 32.288077 50.260586 -0.513387 0.873153 0.042485 -0.012247 540106.000000 0 0 1
33.217512 -18.281061 31.096090 49.036386 -0.503107 0.883896 0.049384 -0.002156 323926.000000 0 0 1
34.457772 -18.307861 30.162860 49.318495 -0.488383 0.912723 0.043852 -0.004602 599743.000000 0 0 1
35.326002 -17.173861 30.309220 49.613675 -0.452509 0.913594 0.049938 -0.014520 98473.900000 0 0 1
36.505232 -17.303161 29.575640 50.067453 -0.442625 0.938851 0.064915 -0.019543 112298.000000 0 0 1
-37.301710 -16.020461 29.699880 50.300652 0.405662 0.939183 0.063065 -0.026897 441641.000000 0 0 1
-35.923998 -16.287761 29.538710 49.278394 0.425674 0.928014 0.067150 -0.017231 24835.400000 0 0 1
-35.166767 -15.224761 30.074350 48.713051 0.408569 0.905391 0.071046 -0.025167 344315.000000 0 0 1
-33.641410 -15.505861 29.913920 47.613220 0.431894 0.891470 0.077421 -0.029685 243801.000000 0 0 1
-32.840940 -14.612961 30.654130 47.241313 0.418656 0.864680 0.085071 -0.031678 -957687.000000 0 0 1
-31.678020 -15.266261 30.985650 46.868605 0.449079 0.848489 0.093487 -0.036454 -340940.000000 0 0 1
-30.538070 -14.347661 31.569120 46.206476 0.439221 0.818635 0.104172 -0.041223 494927.000000 0 0 1
-30.936540 -13.729661 32.785449 47.121744 0.417687 0.801318 0.112037 -0.043439 146049.000000 0 0 1
-29.970180 -12.803061 33.245413 46.555209 0.403727 0.775448 0.112218 -0.044386 -59756.200000 0 0 1
-30.333100 -12.141661 -33.200882 46.581277 0.380746 2.364210 0.092317 -0.025258 -92230.500000 0 0 1
-30.246320 -13.058861 -32.092792 45.992618 0.407574 2.343092 0.107612 -0.022628 192209.000000 0 0 1
-30.518590 -12.493161 -30.843402 45.152838 0.388551 2.322780 0.103278 -0.011994 -409145.000000 0 0 1
-30.635390 -13.627061 -29.765702 44.835487 0.418533 2.296801 0.099513 -0.010160 481219.000000 0 0 1
-31.903290 -14.279961 -29.665192 45.844964 0.420858 2.274540 0.086559 -0.013972 336587.000000 0 0 1
-32.000580 -15.040361 -28.473132 45.397894 0.439363 2.248737 0.084842 -0.013395 734539.000000 0 0 1
-33.276540 -15.941661 -28.361742 46.538726 0.446761 2.226128 0.076535 -0.019899 147864.000000 0 0 1
-33.118390 -17.013361 -29.245202 47.345158 0.474558 2.236614 0.069343 -0.014841 331786.000000 0 0 1
-34.258152 -17.863561 -29.263132 48.467088 0.480652 2.219022 0.050879 -0.009038 -169258.000000 0 0 1
-34.110281 -19.156761 -30.143882 49.387714 0.511715 2.227301 0.041632 -0.007949 466442.000000 0 0 1
-35.287093 -19.956261 -29.989532 50.426216 0.514696 2.207715 0.016848 -0.009534 568044.000000 0 0 1
-34.964538 -21.156361 -30.657232 51.087927 0.544147 2.214407 0.013470 -0.008614 196296.000000 0 0 1
-36.183810 -22.065461 -30.941312 52.473969 0.547606 2.201423 0.019613 -0.005548 64492.800000 0 0 1
-36.729630 -22.668761 -29.760002 52.427055 0.552956 2.174440 0.034055 -0.012830 58256.000000 0 0 1
36.990812 -23.614461 -30.009452 53.165121 -0.568168 2.170572 0.060339 -0.012813 202834.000000 0 0 1
-37.185060 -25.030661 -30.386482 54.153494 0.592469 2.166532 0.052466 -0.013954 -84899.300000 0 0 1
-36.538870 -25.053941 -31.597832 54.417018 0.601050 2.190336 0.054667 -0.009903 -331388.000000 0 0 1
-35.872427 -26.338911 -31.719472 54.650655 0.633337 2.190021 0.053409 -0.013025 110668.000000 0 0 1
-36.367850 -27.256511 -32.854442 56.079873 0.643160 2.196726 0.054680 -0.015902 958418.000000 0 0 1
37.004352 -27.726311 -32.822412 56.704330 -0.643035 2.188095 0.067995 -0.015844 456581.000000 0 0 1
36.754652 -28.812141 -33.720412 57.603039 -0.664849 2.196161 0.051348 -0.018154 -84418.200000 0 0 1
-37.292190 -30.131301 -33.336872 58.394774 0.679587 2.178383 0.049880 -0.023855 54498.000000 0 0 1
36.975062 -30.770501 -32.122932 57.843424 -0.694067 2.159571 0.067672 -0.032339 -292645.000000 0 0 1
-36.829400 -31.676151 -31.651512 57.979318 0.710316 2.148272 0.057313 -0.035846 -437273.000000 0 0 1
37.346302 -32.223111 -30.348682 57.914744 -0.711889 2.122364 0.055242 -0.038660 49093.200000 0 0 1
36.105902 -32.873151 -30.501352 57.572673 -0.738567 2.129148 0.067291 -0.036135 -38383.500000 0 0 1
35.665282 -33.254311 -29.216542 56.846001 -0.750430 2.110591 0.063918 -0.033081 -449817.000000 0 0 1
34.402662 33.694580 -29.068612 56.248129 0.775000 2.113896 0.073451 -0.033516 -358802.000000 0 0 1
33.334142 -33.456351 -29.716962 55.799554 -0.787228 2.132426 0.075365 -0.035471 7392.170000 0 0 1
32.095342 33.732153 -29.329892 55.029189 0.810258 2.132924 0.075867 -0.027804 849317.000000 0 0 1
30.866162 -33.557151 -30.125002 54.647214 -0.827144 2.154674 0.048772 -0.022921 233118.000000 0 0 1
30.671012 33.534176 -31.351842 55.210415 0.829963 2.174701 0.050220 -0.019749 322595.000000 0 0 1
29.401302 33.866903 -31.913782 55.044465 0.855863 2.189257 0.045772 -0.003511 -43358.000000 0 0 1
29.198302 33.112432 -33.249382 55.267489 0.848132 2.216309 0.037984 -0.009245 80848.000000 0 0 1
28.921802 31.733713 -33.011782 54.159735 0.831724 2.226259 0.025142 -0.003912 12774.400000 0 0 1
28.866002 31.011703 33.573823 54.057131 0.821218 0.900676 0.032785 -0.011175 131404.000000 0 0 1
28.676202 29.500223 33.650845 53.150419 0.799561 0.885213 0.051393 -0.025930 626628.000000 0 0 1
29.953372 28.919363 -33.810052 53.634445 0.767836 2.252838 0.055145 -0.025364 736754.000000 0 0 1
29.803652 27.582223 -33.459362 52.617160 0.746707 2.259973 0.071639 -0.034646 75023.900000 0 0 1
31.132592 26.824383 -33.246982 52.859697 0.711200 2.251020 0.078277 -0.037397 540288.000000 0 0 1
31.834542 27.242013 -32.044552 52.748636 0.707816 2.223700 0.073338 -0.035041 1119890.000000 0 0 1
33.103292 26.546653 -31.930022 53.104416 0.675919 2.215884 0.082704 -0.031161 1508020.000000 0 0 1
34.154302 26.986303 -30.879432 53.369619 0.668693 2.187802 0.092963 -0.033759 -17089.500000 0 0 1
34.900462 28.199043 -31.038282 54.558255 0.679591 2.175966 0.088078 -0.028378 241719.000000 0 0 1
34.232422 29.476723 -31.070092 54.827790 0.710889 2.173273 0.095733 -0.027577 -133332.000000 0 0 1
33.229862 29.762353 -29.953032 53.732723 0.730407 2.162101 0.108389 -0.024688 257230.000000 0 0 1
33.879212 29.978653 -28.689282 53.568606 0.724392 2.135969 0.104272 -0.025063 978122.000000 0 0 1
32.861742 30.152133 -27.656442 52.477843 0.742424 2.125877 0.087142 -0.023009 675059.000000 0 0 1
33.406262 30.369623 -26.217062 52.207535 0.737820 2.096903 0.100355 -0.030905 -124641.000000 0 0 1
34.116562 31.584663 -26.136572 53.335271 0.746881 2.082935 0.089975 -0.034343 -2819.230000 0 0 1
34.300972 32.000749 -24.773902 53.050455 0.750719 2.056677 0.081445 -0.042763 110426.000000 0 0 1
34.606612 33.466445 -24.756702 54.134230 0.768651 2.045776 0.092294 -0.036067 1327500.000000 0 0 1
33.427092 -33.505861 -25.064482 53.555965 -0.786575 2.057829 0.085592 -0.025215 1298690.000000 0 0 1
33.696032 -32.093191 -24.938002 52.794880 -0.761040 2.062759 0.069903 -0.024339 -614867.000000 0 0 1
34.277712 -31.325281 -26.166742 53.300405 -0.740424 2.083953 0.066548 -0.022111 -1088050.000000 0 0 1
35.596102 -31.512751 -26.444882 54.400990 -0.724626 2.078430 0.073809 -0.022781 -1545030.000000 0 0 1
36.523872 -30.796201 -25.685902 54.241725 -0.700521 2.064108 0.075658 -0.025948 -168747.000000 0 0 1
-36.723220 -31.210761 -25.845562 54.687288 0.704431 2.063042 0.064319 -0.026247 16198.900000 0 0 1
-36.279020 -32.503311 -25.472142 54.967831 0.730560 2.052626 0.062660 -0.027212 -153338.000000 0 0 1
-36.355500 -32.781451 -24.069102 54.549679 0.733749 2.027768 0.062760 -0.022507 -447478.000000 0 0 1
-35.216026 -32.243081 -23.185102 53.078561 0.741356 2.022843 0.054887 -0.022595 -92551.700000 0 0 1
-35.140671 -30.807881 -23.328402 52.232237 0.719793 2.033790 0.019661 -0.014808 -266719.000000 0 0 1
-34.450023 -30.292041 -22.192202 50.959843 0.721262 2.021372 0.056171 -0.023036 -196851.000000 0 0 1
-34.204806 -28.762091 -22.259302 49.926977 0.699175 2.032906 0.061847 -0.008793 -170291.000000 0 0 1
-35.298808 -27.881741 -22.352502 50.229788 0.668538 2.031976 0.041854 0.003393 -558244.000000 0 0 1
-35.723107 -27.824431 -23.696002 51.106162 0.661737 2.052921 0.048100 -0.007064 66103.200000 0 0 1
-36.921800 -26.866321 -23.954702 51.564001 0.629046 2.053937 0.047086 -0.006206 188518.000000 0 0 1
-36.637950 -25.508611 -23.663202 50.526980 0.608194 2.058194 0.038839 0.002774 -148024.000000 0 0 1
37.216012 -24.513361 -24.183302 50.702746 -0.582451 2.067992 0.041934 0.002506 230009.000000 0 0 1
-37.011920 -23.980561 -25.572512 50.979435 0.574908 2.096271 0.060116 -0.009033 1253610.000000 0 0 1
-35.745526 -23.261161 -25.603492 49.742969 0.576898 2.111472 0.037897 -0.008866 988060.000000 0 0 1
-35.689691 -22.418161 -26.737452 49.912115 0.560855 2.136122 0.032780 -0.021427 -193606.000000 0 0 1
-34.351822 -21.675561 -26.746562 48.633899 0.562893 2.153109 0.032502 -0.023308 -714120.000000 0 0 1
-34.231040 -20.515361 -25.947402 47.601594 0.539920 2.147299 0.049088 -0.015727 126187.000000 0 0 1
-35.109834 -19.423661 -26.188412 47.914632 0.505316 2.149052 0.042418 -0.015608 515002.000000 0 0 1
-36.329430 -19.303461 -25.198792 48.243447 0.488408 2.120372 0.060583 -0.019327 567605.000000 0 0 1
-35.980429 -18.910661 -23.876902 47.141391 0.483903 2.101912 0.061013 -0.032309 193235.000000 0 0 1
-35.212654 -19.819761 -23.038202 46.513574 0.512662 2.088977 0.031799 -0.025943 553166.000000 0 0 1
-35.964335 -21.111361 -22.548202 47.408272 0.530812 2.066462 0.068650 -0.013725 280435.000000 0 0 1
-37.015800 -20.906661 -21.646802 47.705785 0.514138 2.041772 0.052414 -0.013793 -1667.340000 0 0 1
36.956422 -22.087061 -21.359002 48.060611 -0.538691 2.031321 0.046812 0.002099 524219.000000 0 0 1
35.850292 -21.888861 -20.290702 46.648454 -0.548150 2.020802 0.026487 -0.000721 96447.000000 0 0 1
34.764302 -21.091461 -20.716702 45.635383 -0.545331 2.042003 0.053353 0.000661 23004.700000 0 0 1
33.696082 -21.151161 -19.771802 44.426588 -0.560541 2.032020 0.063534 -0.002162 737391.000000 0 0 1
32.349022 -20.603961 -20.319602 43.403556 -0.567130 2.057998 0.065031 -0.003957 116967.000000 0 0 1
31.718832 -21.502861 -21.252702 43.819341 -0.595754 2.077168 0.067568 -0.007134 194288.000000 0 0 1
30.435462 -21.107661 -21.702902 42.928623 -0.606365 2.100825 0.099275 -0.014194 48125.800000 0 0 1
30.194322 -19.828961 -22.614502 42.618077 -0.581079 2.130142 0.096932 -0.015101 -404761.000000 0 0 1
30.273922 -18.677861 -21.831802 41.737278 -0.552798 2.121253 0.096385 -0.016274 -16649.500000 0 0 1
30.454052 -17.523861 -22.617102 41.785982 -0.522150 2.142732 0.083215 -0.013422 224084.000000 0 0 1
31.200172 -16.395861 -21.795802 41.440704 -0.483843 2.124630 0.055079 -0.017412 -136760.000000 0 0 1
30.424322 -15.966161 -20.695202 40.110461 -0.483277 2.112919 0.039786 -0.023313 9736.450000 0 0 1
31.101982 -15.282261 -19.645502 39.834991 -0.456712 2.086529 0.020729 -0.026228 -225394.000000 0 0 1
32.123922 -16.175361 -18.890002 40.625372 -0.466468 2.054409 0.038734 -0.023170 700254.000000 0 0 1
33.352002 -16.288661 -19.643602 41.994614 -0.454314 2.057556 0.033857 -0.019042 319398.000000 0 0 1
34.280282 -17.152861 -19.030302 42.796154 -0.463944 2.031606 0.035942 -0.013140 -291545.000000 0 0 1
35.338942 -17.541961 -20.065802 44.262824 -0.460757 2.041297 0.047272 -0.025117 -131874.000000 0 0 1
36.242472 -16.526461 -20.416402 44.760140 -0.427830 2.044437 0.043816 -0.031971 -43574.800000 0 0 1
37.308592 -16.939161 -21.236102 46.150170 -0.426199 2.048963 0.057432 -0.028025 -109099.000000 0 0 1
-36.499120 -15.795161 -21.630102 45.271781 0.408420 2.068926 0.081854 -0.034853 -400415.000000 0 0 1
-35.552961 -15.479761 -20.639702 43.927591 0.410646 2.059925 0.104423 -0.039690 -303021.000000 0 0 1
-34.661668 -14.531161 -21.119402 43.111657 0.396972 2.082745 0.118061 -0.040871 -10680.100000 0 0 1
-33.347610 -14.330061 -20.294502 41.584618 0.405860 2.080627 0.133440 -0.042541 1126030.000000 0 0 1
-32.263890 -15.235361 -20.594002 41.196938 0.441170 2.094270 0.143441 -0.055675 693774.000000 0 0 1
-32.305090 -16.503961 -19.934602 41.393090 0.472312 2.073267 0.119671 -0.054290 108134.000000 0 0 1
-31.141460 -17.504661 -20.238502 41.058502 0.512087 2.086237 0.103213 -0.060128 73287.800000 0 0 1
-31.319400 -18.684961 -19.494402 41.352923 0.537911 2.061691 0.106361 -0.057066 -325369.000000 0 0 1
-30.361130 -19.683061 -19.638502 41.169064 0.575178 2.068058 0.109886 -0.055489 -453619.000000 0 0 1
-30.896650 -21.128861 -19.314902 42.120032 0.599809 2.047180 0.088941 -0.025167 -236067.000000 0 0 1
-31.722490 -21.679761 -20.295702 43.453928 0.599511 2.056762 0.071394 -0.024796 -127597.000000 0 0 1
-32.218500 -22.900161 -19.859702 44.236374 0.617922 2.036381 0.067586 -0.007149 -337714.000000 0 0 1
-33.254480 -23.510861 -20.802002 45.731217 0.615407 2.043029 0.044479 0.000247 -307329.000000 0 0 1
-32.655190 -23.906561 -22.004902 46.066265 0.631940 2.068808 0.046063 -0.012407 90689.900000 0 0 1
-33.515140 -24.777161 -22.704102 47.462074 0.636607 2.069586 0.043872 -0.008627 -215093.000000 0 0 1
-33.161590 -25.046131 -24.156202 48.067887 0.646869 2.097335 0.045337 -0.008040 -333636.000000 0 0 1
-31.905880 -25.654781 -24.294502 47.606467 0.677222 2.106352 0.037955 -0.017341 -363151.000000 0 0 1
-31.584740 -25.959981 -25.649612 48.264054 0.687962 2.131100 0.038164 -0.016115 259046.000000 0 0 1
-30.082980 -26.197231 -25.955672 47.591779 0.716465 2.147640 0.048588 -0.021425 478165.000000 0 0 1
-29.248550 -25.035281 -26.013212 46.464288 0.707938 2.165006 0.056138 -0.021580 -222360.000000 0 0 1
-27.896430 -25.421671 -26.034602 45.850546 0.739016 2.174645 0.046856 -0.011033 -485297.000000 0 0 1
-27.016840 -24.216261 -26.280442 44.799537 0.730789 2.197679 0.057048 -0.014319 -559478.000000 0 0 1
-27.120930 -23.603361 -27.612592 45.333417 0.716162 2.225722 0.064743 -0.017675 -225620.000000 0 0 1
-26.155100 -22.633261 -27.893102 44.433983 0.713337 2.249446 0.082973 -0.007725 -263541.000000 0 0 1
-26.144500 -22.156061 -29.373832 45.135882 0.703010 2.279416 0.073731 -0.006558 -172041.000000 0 0 1
-25.800530 -23.119261 -30.332132 46.045692 0.730643 2.289939 0.083279 -0.018963 215102.000000 0 0 1
-25.236070 -22.483761 -31.479652 46.188171 0.727786 2.320678 0.092131 -0.011066 -39748.300000 0 0 1
-24.779690 -23.461461 -32.517602 47.136690 0.758079 2.332089 0.084827 -0.014753 213637.000000 0 0 1
-25.878420 -24.085061 -33.158222 48.469066 0.749520 2.324180 0.054647 -0.010223 276027.000000 0 0 1
-25.386060 -24.862261 33.568824 48.882000 0.774974 0.813813 0.075584 -0.014319 245193.000000 0 0 1
-20.025790 -14.464761 -11.729302 27.346628 0.625541 2.014085 0.065335 0.002764 8736.150000 0 0 1
-20.434190 -13.877761 -10.501202 26.840707 0.596591 1.972777 0.069493 -0.001413 169853.000000 0 0 1
-19.661590 -14.251261 -9.349002 26.020768 0.627195 1.938303 0.058027 -0.012899 16725.300000 0 0 1
-20.132390 -13.630761 -8.021002 25.601703 0.595161 1.889462 0.089778 -0.032475 -344052.000000 0 0 1
-21.374390 -14.135661 -7.600302 26.729123 0.584303 1.859120 0.120061 -0.033560 100218.000000 0 0 1
-21.762790 -13.662461 -6.330702 26.464308 0.560603 1.812355 0.121068 -0.036792 340184.000000 0 0 1
-22.923390 -14.477561 -5.656402 27.696145 0.563305 1.776474 0.120461 -0.032918 274586.000000 0 0 1
-22.557190 -15.814461 -5.255602 28.045415 0.611452 1.759307 0.092180 -0.028538 515102.000000 0 0 1
-22.103390 -15.909961 -3.912702 27.513559 0.623890 1.713490 0.101782 -0.029850 -153541.000000 0 0 1
-21.847690 -17.361761 -3.421502 28.115102 0.671484 1.692795 0.070339 -0.016644 169304.000000 0 0 1
-23.013390 -18.131961 -3.163902 29.468532 0.667311 1.678369 0.078101 -0.011990 541637.000000 0 0 1
-22.676790 -19.362661 -2.424802 29.917036 0.706727 1.651936 0.061161 -0.003087 516367.000000 0 0 1
-23.896890 -20.362561 -2.336002 31.482568 0.705712 1.645064 0.091128 -0.020947 531430.000000 0 0 1
-24.035690 -21.289861 -3.365202 32.284627 0.724892 1.675221 0.075768 -0.031630 847024.000000 0 0 1
-25.123280 -22.261961 -3.203002 33.719924 0.725087 1.665928 0.085207 -0.031466 949706.000000 0 0 1
-24.991090 -23.422061 -4.188002 34.506330 0.753000 1.692465 0.078700 -0.033330 -284973.000000 0 0 1
-23.944490 -24.303461 -3.851502 34.334106 0.792838 1.683210 0.081352 -0.028683 -120927.000000 0 0 1
-23.372390 -25.076351 -4.903102 34.628490 0.820554 1.712865 0.076542 -0.031246 696336.000000 0 0 1
-21.959190 -24.641661 -5.390402 33.443592 0.842897 1.732681 0.051875 -0.019475 31837.300000 0 0 1
-21.872990 -23.368361 -6.088502 32.581863 0.818439 1.758769 0.031214 -0.007513 77475.300000 0 0 1
-21.735390 -22.216961 -5.242602 31.519920 0.796354 1.737900 0.026611 -0.009072 -607655.000000 0 0 1
-21.969390 -20.846661 -5.982002 30.871049 0.759182 1.765804 0.035066 0.003200 -147149.000000 0 0 1
-20.795890 -20.444461 -6.650602 29.911126 0.776877 1.795016 0.019273 0.008486 5978.930000 0 0 1
-20.862790 -19.130061 -7.105702 29.184006 0.742099 1.816748 0.014611 0.009367 550296.000000 0 0 1
-19.616190 -18.695161 -7.957302 28.242212 0.761362 1.856416 0.025574 0.006485 527982.000000 0 0 1
-19.485890 -19.433361 -9.162402 29.005258 0.784048 1.892188 0.022957 0.002499 -97896.800000 0 0 1
-18.213690 -19.388061 -9.774902 28.340502 0.816620 1.922938 0.052330 0.006710 -252465.000000 0 0 1
-17.760790 -18.202061 -10.646702 27.570145 0.797668 1.967270 0.064524 0.005454 -149660.000000 0 0 1
-17.448790 -17.026361 -9.874002 26.303101 0.773146 1.955617 0.086359 -0.008294 697576.000000 0 0 1
-16.099790 -17.120661 -9.397302 25.310660 0.816119 1.951182 0.104379 -0.012490 206631.000000 0 0 1
-15.735090 -15.928161 -8.451702 23.931791 0.791496 1.931741 0.093230 -0.016794 53277.600000 0 1 0
-16.492090 -16.090761 -7.270702 24.161223 0.773082 1.876458 0.072997 -0.015161 271601.000000 0 1 0
-16.720190 -14.897561 -6.585202 23.342385 0.727816 1.856793 0.088798 -0.019415 -124912.000000 0 1 0
-17.475790 -15.124661 -5.265302 23.704050 0.713403 1.794791 0.095258 -0.026499 -162838.000000 0 1 0
-17.706490 -13.914061 -4.634702 22.991331 0.666033 1.773772 0.088736 -0.022405 170084.000000 0 1 0
-18.329990 -14.246961 -3.415902 23.465566 0.660713 1.716886 0.086089 -0.016412 -114498.000000 0 1 0
-19.036490 -13.018961 -2.743002 23.225101 0.599835 1.689178 0.087587 -0.019878 -672628.000000 0 1 0
-20.285890 -12.755961 -3.294602 24.188556 0.561334 1.707426 0.118115 -0.035959 -245160.000000 0 1 0
-20.944490 -11.924661 -2.360702 24.216566 0.517575 1.668434 0.120171 -0.022061 -68816.700000 0 1 0
-22.490290 -11.876761 -2.462602 25.552592 0.485862 1.667320 0.114446 -0.024851 182885.000000 0 0 1
-22.990690 -11.298661 -3.641602 25.874559 0.456780 1.712006 0.130956 -0.040413 -323174.000000 0 0 1
-24.373490 -11.338961 -3.794702 27.148458 0.435436 1.711031 0.121545 -0.035725 -472115.000000 0 0 1
-25.003990 -10.800961 -5.117402 27.713680 0.407759 1.756515 0.137410 -0.044646 -113439.000000 0 0 1
-24.613290 -11.434961 -6.305402 27.862707 0.434916 1.799076 0.134737 -0.049529 89513.200000 0 0 1
-25.279880 -10.960061 -7.455502 28.544347 0.409089 1.835051 0.150088 -0.051019 -11085.200000 0 0 1
-24.519390 -11.340561 -8.775102 28.404422 0.433212 1.884869 0.161886 -0.052112 439153.000000 0 0 1
-23.307090 -10.565661 -8.849202 27.076964 0.425615 1.903730 0.158791 -0.050300 359876.000000 0 0 1
-22.618090 -11.246561 -9.884202 27.124906 0.461435 1.943780 0.116460 -0.036097 461197.000000 0 0 1
-21.170590 -10.610661 -10.017302 25.712377 0.464606 1.970983 0.122084 -0.029946 764592.000000 0 0 1
-21.235890 -9.289161 -10.535202 25.460597 0.412350 1.997404 0.115746 -0.032041 234700.000000 0 0 1
-20.122290 -8.606061 -10.036302 24.076922 0.404145 2.000766 0.121441 -0.026185 -303307.000000 0 1 0
-19.901890 -7.207061 -10.601002 23.672942 0.347439 2.035112 0.115248 -0.028569 -165142.000000 0 1 0
-19.584890 -7.237061 -11.967602 24.065877 0.353960 2.091263 0.125621 -0.025495 431250.000000 0 1 0
-19.449190 -5.947861 -12.506502 23.875942 0.296783 2.122116 0.121650 -0.041322 -372450.000000 0 1 0
-18.864990 -5.883561 -13.912802 24.167544 0.302317 2.184233 0.144588 -0.032745 250954.000000 0 1 0
-19.720790 -6.413961 -14.940302 25.558972 0.314448 2.195112 0.143030 -0.045470 900540.000000 0 0 1
-19.079890 -6.160761 -16.174902 25.760912 0.312325 2.249630 0.135231 -0.053859 -48207.000000 0 0 1
-19.523190 -7.275361 -17.210802 27.024017 0.356711 2.261229 0.122659 -0.044618 452916.000000 0 0 1
-20.873290 -7.090161 -17.625802 28.224696 0.327448 2.245264 0.109118 -0.049077 677292.000000 0 0 1
-21.329190 -8.095961 -18.531902 29.392351 0.362773 2.252995 0.104913 -0.045352 807318.000000 0 0 1
-22.773390 -7.792461 -19.097102 30.725380 0.329686 2.241505 0.089851 -0.038611 -80744.200000 0 0 1
-22.877590 -6.673061 -19.916002 31.057382 0.283811 2.266942 0.094310 -0.040707 -16098.400000 0 0 1
-24.074990 -6.432961 -20.606002 32.335668 0.261105 2.261725 0.080090 -0.038880 -149752.000000 0 0 1
-25.370580 -6.261961 -19.804902 32.788909 0.241983 2.219322 0.113651 -0.038234 -844011.000000 0 0 1
-25.458470 -5.022361 -19.162802 32.257879 0.194776 2.206881 0.111931 -0.033411 -387115.000000 0 0 1
-26.615090 -4.873561 -18.403802 32.723302 0.181106 2.168090 0.133610 -0.027099 -805031.000000 0 0 1
-26.832810 -3.410261 -17.878902 32.423520 0.126415 2.154859 0.119143 -0.027267 1219.400000 0 0 1
-27.161970 -2.366561 -18.794902 33.115276 0.086908 2.174335 0.120906 -0.022537 254837.000000 0 0 1
-28.501340 -2.503761 -19.234402 34.475460 0.087622 2.162669 0.143128 -0.011230 -80217.100000 0 0 1
-28.989870 -1.181861 -19.877802 35.170106 0.040745 2.171460 0.134711 -0.010221 -24405.600000 0 0 1
-28.363590 -0.890861 -21.154302 35.394792 0.031398 2.211384 0.118191 -0.001769 458754.000000 0 0 1
-28.725690 -1.706961 -22.244302 36.371526 0.059353 2.228859 0.116333 0.005911 -14426.600000 0 0 1
-27.770630 -1.353761 -23.423702 36.355334 0.048709 2.270903 0.119845 0.000670 -519652.000000 0 0 1
-27.993780 -0.067061 -23.968002 36.852697 0.002396 2.278872 0.110793 -0.001014 128400.000000 0 0 1
-27.311660 1.077539 -23.487602 36.038247 -0.039433 2.280674 0.083824 0.007433 -834318.000000 0 0 1
-25.800400 1.005239 -23.395902 34.843067 -0.038942 2.306980 0.081410 0.003424 -1240750.000000 0 0 1
-25.128010 0.989539 -24.621802 35.194164 -0.039360 2.345632 0.071521 0.010630 -220162.000000 0 0 1
-23.768090 0.716039 -24.352502 34.036438 -0.030117 2.368112 0.064471 0.011963 160488.000000 0 0 1
-22.894390 0.206139 -25.530932 34.293207 -0.009004 2.410566 0.056329 0.009268 82708.200000 0 0 1
-22.721890 1.155639 -26.587162 34.992812 -0.050816 2.433785 0.032400 0.011513 52821.500000 0 0 1
-22.047190 0.563039 -27.669992 35.383951 -0.025532 2.468653 0.016884 0.008080 2786.740000 0 0 1
-21.783490 1.495539 -28.890702 36.213667 -0.068547 2.494408 0.017240 0.021011 -552594.000000 0 0 1
-21.057590 2.661639 -28.623792 35.634644 -0.125731 2.503540 0.026082 0.020448 51368.400000 0 0 1
-20.881290 3.514239 -29.764322 36.527975 -0.166734 2.523243 0.028837 0.014896 -234200.000000 0 0 1
-20.223090 2.970739 -31.009642 37.140228 -0.145855 2.558809 0.022327 0.016476 -1174000.000000 0 0 1
-18.840190 2.874639 -30.999862 36.389665 -0.151412 2.590373 0.015289 0.022242 -751288.000000 0 0 1
-18.358190 2.263339 -32.175472 37.113432 -0.122669 2.619845 0.009772 0.016828 300526.000000 0 0 1
-16.822990 2.064439 -32.216222 36.402745 -0.122105 2.657278 0.023196 0.006639 364312.000000 0 0 1
-16.074190 3.249939 -32.302612 36.227067 -0.199494 2.671819 0.037383 0.011654 275555.000000 0 0 1
-14.741490 3.074939 -32.765192 36.060013 -0.205642 2.710787 0.042286 -0.002006 353213.000000 0 0 1
-14.014690 4.385439 -33.209272 36.311146 -0.303265 2.725252 0.063491 0.003198 -146763.000000 0 0 1
-13.766690 5.211039 -32.038592 35.258304 -0.361858 2.710913 0.081845 -0.007059 412805.000000 0 0 1
-13.195890 6.466839 -32.466402 35.637322 -0.455668 2.716553 0.109223 -0.004910 -4334.890000 0 0 1
-12.850590 7.521639 -31.366022 34.720887 -0.529552 2.698374 0.102351 -0.010028 557086.000000 0 0 1
-11.679690 7.298939 -30.555112 33.515735 -0.558546 2.718113 0.128817 -0.032642 816423.000000 0 0 1
-11.885790 6.361139 -29.523812 32.455994 -0.491401 2.713253 0.122911 -0.034724 -896933.000000 0 0 1
-10.618290 5.620939 -29.185962 31.562056 -0.486862 2.751087 0.134169 -0.043690 -770052.000000 0 0 1
-10.068290 4.769839 -30.239662 32.226681 -0.442427 2.788600 0.112975 -0.044145 427817.000000 0 0 1
-10.900590 3.667239 -30.573712 32.665323 -0.324531 2.781796 0.119058 -0.040500 -188860.000000 0 0 1
-10.549090 2.990539 -31.921982 33.752622 -0.276240 2.810732 0.097030 -0.039577 -121689.000000 0 0 1
-11.372790 1.876939 -32.192382 34.193752 -0.163563 2.797760 0.101259 -0.035549 101022.000000 0 0 1
-10.959790 1.267539 -33.381732 35.157697 -0.115142 2.822389 0.083793 -0.029856 24965.400000 0 0 1
-11.684890 1.645539 33.094937 35.135727 -0.139906 0.342503 0.090373 -0.025668 -100850.000000 0 0 1
-13.026190 1.245139 32.980228 35.481367 -0.095298 0.377719 0.038449 -0.016375 -394231.000000 0 0 1
-13.350590 1.227739 31.613720 34.339087 -0.091704 0.401096 0.043637 -0.018969 -1245800.000000 0 0 1
-14.813490 1.077639 31.307050 34.651582 -0.072619 0.442974 0.061007 -0.008980 -930801.000000 0 0 1
-15.532490 2.286639 31.468190 35.167228 -0.146167 0.462778 0.064196 0.005105 520999.000000 0 0 1
-16.917290 2.144939 31.157180 35.518521 -0.126117 0.500778 0.056755 -0.000509 373344.000000 0 0 1
-17.677790 3.445539 30.976680 35.831979 -0.192494 0.526645 0.058480 -0.001258 -439414.000000 0 0 1
-18.045490 4.098339 32.134330 37.081683 -0.223323 0.522484 0.051130 0.000454 58698.600000 0 0 1
-17.176190 5.148239 32.515800 37.132238 -0.291210 0.503963 0.062569 0.007453 -441015.000000 0 0 1
-17.643090 5.961039 33.742745 38.540698 -0.325826 0.504307 0.058425 0.010919 -114484.000000 0 0 1
-18.931290 6.528039 33.643916 39.152549 -0.332060 0.536890 0.060248 0.002981 -396647.000000 0 0 1
-19.807290 5.803239 -33.322482 39.196863 -0.285009 2.587031 0.042632 0.008790 -628901.000000 0 0 1
-21.257990 6.246439 -33.526322 40.186246 -0.285796 2.557610 0.034971 0.007650 -387425.000000 0 0 1
-21.588390 7.540239 -32.973272 40.126680 -0.336027 2.535235 0.048845 0.003333 260715.000000 0 0 1
-21.243890 8.632039 -33.833222 40.871773 -0.385952 2.545952 0.056012 0.001643 -405622.000000 0 0 1
-21.201190 10.031839 -33.145062 40.604474 -0.441957 2.525757 0.055484 0.001746 38536.700000 0 0 1
-20.066690 10.282539 -32.305212 39.395804 -0.473533 2.532236 0.062987 0.002795 402890.000000 0 0 1
-19.861290 11.658339 -31.915252 39.356969 -0.530797 2.516515 0.061343 -0.000984 -21471.700000 0 0 1
-19.196590 12.544439 -33.029052 40.209330 -0.578812 2.534706 0.060490 -0.016556 -636287.000000 0 0 1
-19.967990 12.770839 33.643292 41.154417 -0.569005 0.613758 0.082243 -0.020196 -156096.000000 0 0 1
-19.235390 12.894139 32.430370 39.849566 -0.590537 0.620101 0.067977 -0.022560 -602094.000000 0 0 1
-19.940290 12.216339 31.324330 39.090507 -0.549666 0.641284 0.084573 -0.032259 -971227.000000 0 0 1
-20.019890 10.792339 31.408940 38.778758 -0.494421 0.626726 0.078778 -0.025583 344639.000000 0 0 1
-18.856290 10.066639 31.026230 37.676569 -0.490368 0.603263 0.077610 -0.029013 215173.000000 0 0 1
-19.092990 8.551439 30.991630 37.391851 -0.421093 0.593776 0.102469 -0.022846 373320.000000 0 0 1
-19.904390 8.092039 29.889000 36.810571 -0.386136 0.623281 0.093321 -0.025520 465058.000000 0 0 1
-19.748590 6.693039 29.783970 36.357784 -0.326763 0.610797 0.085835 -0.020818 -194263.000000 0 0 1
-20.366890 5.983139 28.589770 35.608750 -0.285730 0.638675 0.076746 -0.020075 -271642.000000 0 0 1
-21.770590 6.071539 28.544590 36.409007 -0.271977 0.669716 0.090637 -0.031016 -450939.000000 0 0 1
-22.253290 5.132139 27.688540 35.891545 -0.226661 0.689679 0.082421 -0.032492 -919235.000000 0 0 1
-23.743890 5.156239 27.411880 36.630182 -0.213840 0.725238 0.076271 -0.027031 -773125.000000 0 0 1
-24.141890 6.052439 26.403020 36.284739 -0.245640 0.755889 0.082557 -0.032418 522251.000000 0 0 1
-25.564510 6.104339 26.385340 37.242359 -0.234393 0.783459 0.079407 -0.030629 39156.700000 0 0 1
-26.074730 6.800239 25.081000 36.812924 -0.255115 0.821246 0.077234 -0.028483 -224648.000000 0 0 1
-26.057740 6.120439 23.852220 35.852391 -0.230698 0.842915 0.074808 -0.026944 398531.000000 0 0 1
-27.034550 5.096739 23.772590 36.359038 -0.186340 0.858163 0.068648 -0.023705 -264675.000000 0 0 1
-27.201020 4.482339 22.380150 35.508562 -0.163318 0.888889 0.076929 -0.024553 -291479.000000 0 0 1
-27.751880 5.327739 21.452450 35.478997 -0.189670 0.921467 0.075851 -0.016150 -195890.000000 0 0 1
-27.867960 4.576739 20.269950 34.762632 -0.162776 0.948262 0.094730 -0.014054 -438405.000000 0 0 1
-28.697100 5.280539 19.199850 34.929098 -0.181974 0.988814 0.109388 -0.016932 67266.300000 0 0 1
-30.068130 5.253039 19.577050 36.262208 -0.172959 1.000508 0.117369 -0.018577 537779.000000 0 0 1
-30.845970 6.096139 18.674150 36.569942 -0.195117 1.034865 0.129396 -0.011782 220262.000000 0 0 1
-32.372370 5.990239 18.806150 37.914701 -0.182972 1.051796 0.142088 -0.011951 62649.600000 0 0 1
-32.911430 6.717439 19.931850 39.058480 -0.201341 1.035254 0.131426 -0.022117 316250.000000 0 0 1
-34.315017 6.487639 20.052850 40.270667 -0.186856 1.049561 0.131716 -0.006977 621868.000000 0 0 1
-34.905433 7.707839 20.812550 41.363779 -0.217333 1.043546 0.124625 -0.014514 13066.600000 0 0 1
-34.469004 7.669339 22.157750 41.688090 -0.218933 1.010411 0.114104 -0.015860 -62212.800000 0 0 1
-34.915734 8.764439 22.906150 42.668672 -0.245936 1.004112 0.119340 -0.012459 125982.000000 0 0 1
-0.388890 32.944239 11.770798 34.986081 -1.558992 1.227660 0.109886 -0.033511 -150943.000000 0 0 1
-0.721090 32.895939 13.176698 35.444156 -1.548880 1.189893 0.099782 -0.026286 -72603.000000 0 0 1
-0.457690 -33.665244 13.797898 36.385988 1.557202 1.181855 0.092688 -0.032220 -179373.000000 0 0 1
-0.459890 -33.764444 15.359598 37.096717 1.557177 1.143906 0.081080 -0.022253 -287829.000000 0 0 1
-1.731090 -33.837344 15.938698 37.443352 1.519682 1.131089 0.077201 -0.015629 -579987.000000 0 0 1
-1.636690 -33.730044 17.370398 37.975325 1.522311 1.095713 0.057354 -0.021704 168471.000000 0 0 1
-2.940190 -33.373444 18.141498 38.099152 1.482924 1.074507 0.059199 -0.018691 220776.000000 0 0 1
-3.856090 33.359339 18.293198 38.240764 -1.455715 1.072000 0.062017 -0.014135 -183385.000000 0 0 1
-4.715190 33.537939 19.385898 39.023576 -1.431119 1.050919 0.057762 -0.016041 -659510.000000 0 0 1
-5.717490 32.451039 19.644298 38.362196 -1.396398 1.033198 0.054058 -0.015214 -117057.000000 0 0 1
-6.851090 32.525139 18.790798 38.182669 -1.363191 1.056263 0.056676 -0.017838 -109237.000000 0 0 1
-7.887490 31.687139 19.203298 37.882106 -1.326837 1.039185 0.052576 -0.034865 -366211.000000 0 0 1
-8.893290 31.469839 18.052598 37.354219 -1.295381 1.066397 0.031774 -0.035183 -588787.000000 0 0 1
-9.575890 32.654639 17.747598 38.379687 -1.285546 1.090072 0.048489 -0.029252 -148764.000000 0 0 1
-10.221990 32.680339 16.482698 38.002276 -1.267650 1.122169 0.040508 -0.028028 -150153.000000 0 0 1
-11.155490 33.880739 16.335698 39.232697 -1.252718 1.141337 0.080120 -0.032277 -166895.000000 0 0 1
-12.318890 33.748839 17.115898 39.795643 -1.220807 1.126199 0.079648 -0.030353 63988.600000 0 0 1
-13.366190 -33.180944 16.698998 39.477672 1.187855 1.134044 0.057230 -0.031127 343584.000000 0 0 1
-14.687890 -33.392544 17.463298 40.444565 1.156411 1.124327 0.089745 -0.028640 22869.600000 0 0 1
-14.712890 -32.918944 18.826498 40.676320 1.150488 1.089604 0.080296 -0.019971 -624727.000000 0 0 1
-15.919190 -33.205544 19.449098 41.644881 1.123753 1.084876 0.079376 -0.024308 -340983.000000 0 0 1
-15.898190 -32.766644 20.929698 42.005448 1.119063 1.049204 0.078652 -0.031711 -8779.140000 0 0 1
-15.861390 -31.370544 21.136798 41.017788 1.102668 1.029429 0.078677 -0.030110 120619.000000 0 0 1
-15.850290 -31.137244 22.527598 41.572254 1.099938 0.998112 0.062044 -0.019697 176130.000000 0 0 1
-15.520790 -29.632844 22.752898 40.456084 1.088314 0.973499 0.078096 -0.028981 -7444.930000 0 0 1
-15.540190 -29.262044 24.085398 40.961825 1.082603 0.942217 0.086898 -0.038889 -93758.000000 0 0 1
-15.354790 -27.917044 24.421798 40.144179 1.067942 0.916814 0.065929 -0.014511 -579350.000000 0 0 1
-16.440290 -26.921144 24.001898 39.637384 1.022559 0.920356 0.085509 -0.015176 773632.000000 0 0 1
-17.680990 -27.082144 24.728998 40.713428 0.992410 0.918023 0.091563 -0.016356 790604.000000 0 0 1
-18.737290 -26.291444 24.253898 40.380411 0.951613 0.926501 0.080655 -0.011829 -663037.000000 0 0 1
-19.830390 -25.968044 25.289898 41.317824 0.918619 0.912106 0.088856 -0.014954 140581.000000 0 0 1
-20.668490 -27.012044 25.768398 42.671388 0.917664 0.922436 0.112264 -0.020839 487268.000000 0 0 1
-21.475390 -27.684044 24.823698 42.939663 0.911029 0.954390 0.098847 -0.023917 -281085.000000 0 0 1
-22.978790 -27.285144 24.787998 43.439023 0.870864 0.963513 0.067927 -0.011379 150113.000000 0 0 1
-23.145190 -26.071644 24.148598 42.409730 0.844789 0.965006 0.083547 -0.017747 -132016.000000 0 0 1
-24.502490 -25.865944 23.858998 42.879725 0.812461 0.980729 0.068252 -0.013217 -406880.000000 0 0 1
-24.910090 -24.506444 23.347998 42.026270 0.777230 0.981763 0.061924 0.003717 -100848.000000 0 0 1
-25.119690 -23.537444 24.392098 42.189863 0.752891 0.954336 0.053460 0.001169 159686.000000 0 0 1
-25.684580 -22.294544 23.964998 41.606075 0.714859 0.956972 0.047707 0.014858 83627.000000 0 0 1
-26.229100 -21.414744 25.106398 42.153151 0.684691 0.932784 0.056201 0.011841 -873013.000000 0 0 1
-27.378950 -21.984544 25.601098 43.455072 0.676551 0.940803 0.045708 0.010538 -891814.000000 0 0 1
-27.822470 -21.167444 26.653198 43.960704 0.650380 0.919402 0.037060 0.003553 -916190.000000 0 0 1
-28.980730 -21.854644 27.391598 45.473155 0.646126 0.924331 0.029139 0.008296 367090.000000 0 0 1
-30.272260 -21.667144 26.800598 45.870981 0.621213 0.946828 0.021839 0.008647 625301.000000 0 0 1
-30.622750 -22.390344 25.634998 45.784642 0.631339 0.976527 0.007292 0.012603 -303908.000000 0 0 1
-32.156440 -22.616744 25.559198 46.891644 0.612961 0.994324 0.018711 0.007846 47151.200000 0 0 1
-32.846270 -23.264244 24.562398 47.153090 0.616259 1.022883 0.023303 -0.003737 -94060.000000 0 0 1
-32.497950 -24.638644 24.275698 47.460394 0.648703 1.033874 0.012275 0.001849 -769626.000000 0 0 1
-33.118940 -25.246344 23.013298 47.579974 0.651322 1.065946 0.035942 -0.001493 69985.600000 0 0 1
-34.533118 -25.305444 22.968798 48.584641 0.632394 1.078378 0.042566 -0.007705 89082.100000 0 0 1
-34.836534 -25.854444 21.679298 48.497714 0.638468 1.107369 0.063482 -0.005875 641689.000000 0 0 1
-36.230870 -26.565544 21.572198 49.837373 0.632681 1.123142 0.066469 -0.014911 289693.000000 0 0 1
-36.324540 -27.823744 22.328198 50.913469 0.653648 1.116810 0.057287 -0.020316 248415.000000 0 0 1
-35.457951 -28.913144 22.040298 50.783963 0.684073 1.121867 0.044870 -0.015004 -452382.000000 0 0 1
-35.901369 -29.844944 20.872498 51.139907 0.693539 1.150375 0.066092 -0.015590 -219202.000000 0 0 1
-35.825158 -29.210044 19.597598 50.206916 0.684031 1.169799 0.061840 -0.017638 406774.000000 0 0 1
-35.976952 -30.269844 18.662298 50.585431 0.699461 1.192943 0.063431 -0.015985 -289146.000000 0 0 1
-36.429840 -29.770944 17.270098 50.116849 0.685149 1.218987 0.073186 -0.012020 -861238.000000 0 0 1
-35.404596 -29.368544 16.407198 48.838437 0.692479 1.228184 0.099862 -0.022939 -353791.000000 0 0 1
-35.681664 -28.855244 15.094098 48.307743 0.680015 1.253018 0.109530 -0.020192 -420508.000000 0 0 1
-36.436950 -29.692044 14.072598 49.064313 0.683753 1.279891 0.117650 -0.028226 -454159.000000 0 0 1
-35.650757 -30.693544 13.501398 48.942393 0.710817 1.291309 0.120530 -0.038463 -313097.000000 0 0 1
-36.199130 -31.492244 12.464298 49.573149 0.715975 1.316636 0.119246 -0.032492 -136033.000000 0 0 1
-36.628980 -30.819644 11.138298 49.148695 0.699480 1.342186 0.130775 -0.036237 47147.000000 0 0 1
36.994382 -29.992444 11.394998 48.969143 -0.681249 1.335946 0.132731 -0.040203 -94619.800000 0 0 1
36.699792 -29.210144 10.238998 48.009836 -0.672249 1.355877 0.109959 -0.035626 592233.000000 0 0 1
35.403422 -28.357444 10.499498 46.559493 -0.675338 1.343333 0.140477 -0.021225 512709.000000 0 0 1
35.208742 -27.451844 9.450698 45.635238 -0.662232 1.362195 0.150185 -0.058597 30154.000000 0 0 1
34.128432 -26.554544 9.540298 44.282175 -0.661229 1.353651 0.108207 -0.050046 -478391.000000 0 0 1
34.242662 -25.467444 8.476598 43.508658 -0.639479 1.374717 0.109314 -0.045245 -153730.000000 0 0 1
35.322652 -24.621544 8.749898 43.937124 -0.608741 1.370310 0.129553 -0.049401 -157384.000000 0 0 1
35.598222 -23.951244 7.580298 43.570132 -0.592251 1.395927 0.122532 -0.042754 -11583.300000 0 0 1
36.277462 -22.588044 7.764698 43.434601 -0.556905 1.391063 0.129851 -0.040519 324078.000000 0 0 1
35.358112 -21.529744 8.089798 42.180218 -0.546942 1.377809 0.113845 -0.044618 25368.100000 0 0 1
35.890202 -20.247844 7.882598 41.954942 -0.513650 1.381791 0.124017 -0.036006 -594678.000000 0 0 1
35.288092 -19.161444 8.705398 41.087642 -0.497453 1.357304 0.122754 -0.029311 -432895.000000 0 0 1
35.478082 -19.330144 10.079398 41.640642 -0.498879 1.326311 0.111599 -0.040479 122750.000000 0 0 1
34.708422 -18.449644 10.924598 40.797191 -0.488576 1.299710 0.118846 -0.033705 153949.000000 0 0 1
35.094972 -18.492444 12.377898 41.555264 -0.484955 1.268340 0.095671 -0.041249 239093.000000 0 0 1
36.296142 -17.813244 12.728998 42.388076 -0.456241 1.265793 0.082660 -0.028734 545720.000000 0 0 1
36.759232 -18.216344 14.037598 43.360472 -0.460088 1.241115 0.080449 -0.018675 378096.000000 0 0 1
-36.655720 -17.482844 14.444098 43.103638 0.445036 1.229083 0.104962 -0.020475 469780.000000 0 0 1
-35.526219 -17.929444 13.717098 42.091994 0.467386 1.238850 0.098705 -0.020093 -333219.000000 0 0 1
-34.404144 -17.213244 14.073898 40.963587 0.463907 1.220080 0.086519 -0.017131 -799786.000000 0 0 1
-33.097800 -17.363744 13.300198 39.671894 0.483148 1.228921 0.086188 -0.018822 -39091.600000 0 0 1
-32.423200 -18.616944 13.450898 39.733879 0.521222 1.225448 0.082422 -0.023348 79200.300000 0 0 1
-31.192340 -18.646344 12.790098 38.525768 0.538790 1.232386 0.086599 -0.028112 -555061.000000 0 0 1
-30.585910 -19.974344 12.527198 38.618687 0.578521 1.240438 0.076834 -0.036575 -231482.000000 0 0 1
-31.180950 -20.779044 11.522198 39.201803 0.587819 1.272471 0.084159 -0.031861 -208086.000000 0 0 1
-30.280500 -21.766544 11.063398 38.898456 0.623252 1.282398 0.076700 -0.031585 -522127.000000 0 0 1
-30.706260 -22.550644 9.785998 39.334103 0.633441 1.319364 0.089656 -0.029744 359244.000000 0 0 1
-31.569100 -23.687444 9.874198 40.684184 0.643716 1.325645 0.104802 -0.030092 935089.000000 0 0 1
-32.896780 -23.377944 10.301998 41.651621 0.617835 1.320865 0.130343 -0.036650 211315.000000 0 0 1
-33.968560 -24.494044 10.245198 43.113632 0.624734 1.330869 0.169069 -0.047340 -66384.000000 0 0 1
-34.080298 -25.135544 8.988198 43.290299 0.635478 1.361649 0.161490 -0.042981 53102.800000 0 0 1
-34.850009 -26.329444 9.051798 44.606028 0.647017 1.366449 0.175343 -0.041975 154489.000000 0 0 1
-34.664134 -27.205144 7.799198 44.749855 0.665417 1.395617 0.155842 -0.035843 316119.000000 0 0 1
-33.345680 -27.670444 7.574898 43.988258 0.692653 1.397731 0.150796 -0.035042 37185.500000 0 0 1
-33.284270 -28.453344 6.356498 44.247491 0.707308 1.426640 0.131736 -0.036868 754855.000000 0 0 1
-31.824630 -28.560144 5.777798 43.149413 0.731389 1.436491 0.132004 -0.029498 815079.000000 0 0 1
-31.411210 -27.349644 5.189798 41.971432 0.716388 1.446828 0.113748 -0.018018 68509.100000 0 0 1
-30.208590 -27.606844 4.474898 41.166994 0.740428 1.461880 0.103026 -0.022398 288461.000000 0 0 1
-29.595030 -26.452544 3.646898 39.861042 0.729389 1.479178 0.086965 -0.009844 387936.000000 0 0 1
-30.401650 -25.895244 2.597298 40.019619 0.705521 1.505850 0.088961 -0.007090 222220.000000 0 0 1
-29.638290 -24.898444 1.944098 38.757454 0.698705 1.520615 0.091596 -0.027285 1008.560000 0 0 1
-30.139270 -24.487244 0.539398 38.836730 0.682298 1.556907 0.103294 -0.024478 -209407.000000 0 0 1
-29.830160 -25.468944 -0.444502 39.226306 0.706695 1.582128 0.099431 -0.027076 -47495.400000 0 0 1
-30.130740 -25.000444 -1.775402 39.192291 0.692609 1.616112 0.111220 -0.036711 329430.000000 0 0 1
-31.583670 -24.731744 -2.268802 40.178785 0.664323 1.627294 0.118026 -0.031455 156207.000000 0 0 1
-32.074930 -23.489844 -1.843602 39.799155 0.632104 1.617136 0.109821 -0.020124 284251.000000 0 0 1
-33.464010 -23.335544 -2.148502 40.853440 0.608933 1.623411 0.111709 -0.023901 478298.000000 0 0 1
-34.020290 -21.938044 -1.843302 40.522285 0.572748 1.616301 0.113240 -0.021460 -253663.000000 0 0 1
-34.209200 -21.678444 -0.465602 40.502358 0.564833 1.582292 0.109262 -0.030225 468171.000000 0 0 1
-34.941978 -20.463944 -0.198802 40.493880 0.529805 1.575706 0.112588 -0.029610 -81327.300000 0 0 1
-35.070414 -20.111344 1.289398 40.448271 0.520673 1.538913 0.096032 -0.031699 -1031860.000000 0 0 1
-36.045560 -20.892244 1.825498 41.702526 0.525289 1.527008 0.086718 -0.040131 -563859.000000 0 0 1
-36.252370 -20.639244 3.161398 41.835477 0.517556 1.495157 0.092004 -0.041938 -137675.000000 0 0 1
37.318602 -21.440444 3.889898 43.214604 -0.521477 1.480661 0.115479 -0.034493 390176.000000 0 0 1
36.055202 -21.239644 3.351398 41.980138 -0.532356 1.490878 0.103573 -0.038089 -799167.000000 0 0 1
35.415172 -20.062444 3.700098 40.870855 -0.515417 1.480141 0.113146 -0.042030 -607967.000000 0 0 1
34.133742 -19.812244 2.858498 39.570297 -0.525905 1.498495 0.104998 -0.029560 228642.000000 0 0 1
33.086102 -20.716444 3.137398 39.162539 -0.559417 1.490598 0.093826 -0.032951 328088.000000 0 0 1
31.874602 -20.250644 2.503198 37.846332 -0.565988 1.504607 0.117016 -0.037413 1140630.000000 0 0 1
30.629722 -21.117844 2.847298 37.312871 -0.603614 1.494413 0.108770 -0.022287 294459.000000 0 0 1
30.519122 -22.330444 2.168098 37.878308 -0.631677 1.513527 0.087647 -0.018306 -72996.900000 0 0 1
29.371002 -23.039944 2.614798 37.421010 -0.665184 1.500864 0.090079 -0.013803 239805.000000 0 0 1
28.984602 -24.298144 1.702598 37.860346 -0.697669 1.525811 0.074227 -0.007168 -158407.000000 0 0 1
28.248902 -23.833344 0.622098 36.965061 -0.700820 1.553966 0.074193 -0.011436 -144556.000000 0 0 1
27.687002 -24.838044 -0.174102 37.195817 -0.731211 1.575477 0.076310 -0.016362 -134381.000000 0 0 1
27.009802 -24.221644 -1.438302 36.308211 -0.731029 1.610420 0.093875 -0.028555 -175050.000000 0 0 1
27.808302 -23.636144 -2.450502 36.578326 -0.704475 1.637840 0.071296 -0.046266 -113616.000000 0 0 1
28.376302 -24.498544 -3.401102 37.642538 -0.712191 1.661272 0.075579 -0.048965 -912818.000000 0 0 1
27.463502 -25.242844 -4.394402 37.560030 -0.743290 1.688062 0.081154 -0.048983 -104067.000000 0 0 1
26.773602 -24.363744 -5.282002 36.583020 -0.738308 1.715687 0.090677 -0.059362 641087.000000 0 0 1
25.488002 -23.967044 -4.811802 35.315873 -0.754653 1.707472 0.080414 -0.051687 -297351.000000 0 0 1
24.780202 -22.964344 -5.695402 34.261598 -0.747384 1.737804 0.085733 -0.061761 -359916.000000 0 0 1
24.343502 -23.513644 -6.930102 34.547415 -0.768060 1.772763 0.095207 -0.063689 1580310.000000 0 0 1
23.119002 -22.933144 -7.507702 33.418302 -0.781362 1.797389 0.086592 -0.064037 1256600.000000 0 0 1
23.228102 -21.572244 -8.153402 32.732009 -0.748454 1.822543 0.077520 -0.056446 -507176.000000 0 0 1
23.786002 -21.560644 -9.424202 33.458195 -0.736363 1.856331 0.077643 -0.050337 -12951.800000 0 0 1
23.757002 -20.278244 -9.987802 32.792659 -0.706562 1.880288 0.068300 -0.037495 -223067.000000 0 0 1
24.418402 -20.075344 -11.369402 33.593766 -0.688096 1.916053 0.065206 -0.021771 112171.000000 0 0 1
25.809202 -19.839344 -11.285302 34.453919 -0.655357 1.904503 0.088670 -0.023976 194661.000000 0 0 1
26.365902 -19.718744 -12.615202 35.258091 -0.642148 1.936703 0.081035 -0.022310 750245.000000 0 0 1
27.924302 -19.751944 -12.752502 36.503866 -0.615634 1.927670 0.074264 -0.016522 563409.000000 0 0 1
28.395102 -21.060744 -12.661602 37.552003 -0.638170 1.914711 0.059755 -0.015920 -42097.500000 0 0 1
29.253402 -21.442844 -11.619702 38.086409 -0.632534 1.880827 0.070625 -0.022692 -406970.000000 0 0 1
29.691002 -22.871344 -11.876102 39.315338 -0.656375 1.877663 0.064905 -0.020098 -543972.000000 0 0 1
30.500672 -22.890444 -13.020702 40.296428 -0.643815 1.899824 0.064830 -0.024606 -82482.900000 0 0 1
30.818222 -24.184944 -13.378802 41.396457 -0.665380 1.899892 0.071028 -0.018818 -37689.900000 0 0 1
-3.670590 -8.637461 -27.480422 29.038811 1.168958 2.812495 0.055018 -0.016882 70293.800000 0 0 1
-3.634590 -7.250861 -27.301552 28.480870 1.106139 2.852815 0.057789 -0.013142 -1026140.000000 0 0 1
-4.821490 -6.690961 -27.702402 28.903958 0.946380 2.852242 0.059054 -0.017752 -1083690.000000 0 0 1
-5.096190 -5.351961 -27.014112 28.006729 0.809873 2.874559 0.060011 -0.024407 -27820.100000 0 0 1
-5.663390 -5.494661 -25.732942 26.915601 0.770278 2.844052 0.061571 -0.020873 73440.400000 0 0 1
-5.565190 -4.264461 -25.074962 26.036717 0.653835 2.868946 0.075702 -0.026101 97516.400000 0 0 1
-6.024090 -4.285961 -23.595402 24.726546 0.618383 2.837951 0.059971 -0.026205 -191467.000000 0 1 0
-5.232090 -5.054961 -22.741802 23.877121 0.768181 2.831980 0.057988 -0.035704 224333.000000 0 1 0
-5.712190 -4.956561 -21.391902 22.689426 0.714690 2.801770 0.048171 -0.029617 247694.000000 0 1 0
-5.057990 -6.148561 -20.567602 22.054802 0.882408 2.772259 0.045830 -0.026655 120734.000000 0 1 0
-5.587990 -7.446961 -20.752102 22.744946 0.927057 2.719865 0.045425 -0.023548 363599.000000 0 1 0
-4.729390 -8.448861 -20.196102 22.397162 1.060486 2.694542 0.042355 -0.022475 -403770.000000 0 1 0
-5.502090 -9.813861 -20.094402 23.029759 1.059817 2.631175 0.052815 -0.019351 1036600.000000 0 1 0
-6.598990 -9.894561 -19.186102 22.573336 0.982611 2.586678 0.057589 -0.022072 -243245.000000 0 1 0
-7.700990 -9.086061 -19.403102 22.767127 0.867720 2.591052 0.045289 -0.026068 -1314440.000000 0 1 0
-8.793290 -9.369461 -18.317002 22.374568 0.817110 2.529857 0.037752 -0.020479 60233.400000 0 1 0
-9.450990 -10.611661 -18.633102 23.433331 0.843186 2.490057 0.061356 -0.012997 75415.200000 0 1 0
-10.037490 -11.138261 -17.471402 23.023074 0.837334 2.432365 0.052867 -0.014622 -292272.000000 0 1 0
-10.920490 -12.383161 -17.781502 24.264821 0.848082 2.393239 0.067259 -0.004319 -967515.000000 0 1 0
-12.118290 -12.069961 -18.369602 25.099385 0.783400 2.391865 0.084855 -0.023511 -970414.000000 0 0 1
-12.058790 -11.961661 -19.818802 26.101353 0.781355 2.433036 0.075348 -0.029086 -891875.000000 0 0 1
-13.430190 -11.757961 -20.501202 27.183063 0.719106 2.425216 0.069570 -0.032278 486709.000000 0 0 1
-14.347790 -12.862561 -20.487702 28.125619 0.730869 2.386832 0.078410 -0.027483 390663.000000 0 0 1
-14.956090 -13.148661 -19.220402 27.676628 0.721176 2.338470 0.084339 -0.021749 -261640.000000 0 0 1
-16.154090 -14.121261 -19.398802 28.925389 0.718354 2.305881 0.090715 -0.016665 108756.000000 0 0 1
-15.694890 -15.438461 -19.592202 29.470833 0.777162 2.298022 0.089280 -0.018145 124210.000000 0 0 1
-16.284590 -15.961661 -20.773302 30.846272 0.775384 2.309657 0.101629 -0.022655 -13996.300000 0 0 1
-15.857490 -17.386861 -21.028102 31.558580 0.831370 2.300059 0.056876 -0.017936 -112463.000000 0 0 1
-16.365590 -18.388161 -20.183002 31.832539 0.843530 2.257559 0.065511 -0.010236 -75276.200000 0 0 1
-16.003490 -19.603761 -20.736202 32.717108 0.886166 2.257256 0.059097 -0.010868 74975.900000 0 0 1
-16.782290 -20.813361 -20.098102 33.448093 0.892212 2.215391 0.066368 -0.013507 88058.600000 0 0 1
-16.392290 -22.100061 -20.611002 34.379256 0.932609 2.213696 0.076075 -0.016276 -183999.000000 0 0 1
-17.206890 -23.117261 -20.154702 35.166700 0.930933 2.181103 0.088830 -0.009936 -408184.000000 0 0 1
-16.745890 -24.538261 -20.563402 36.130382 0.971953 2.176261 0.094764 -0.009016 33442.500000 0 0 1
-16.904790 -24.836161 -21.919502 37.189667 0.973174 2.201109 0.073770 -0.017878 213916.000000 0 0 1
-16.273990 -26.049151 -22.157902 37.873125 1.012383 2.195746 0.084112 -0.010943 -338527.000000 0 0 1
-16.571190 -26.451371 -23.597002 39.129245 1.011135 2.218119 0.086888 -0.019051 246462.000000 0 0 1
-17.887190 -26.933881 -23.866802 40.187183 0.984562 2.206683 0.102231 -0.013004 371747.000000 0 0 1
-18.131990 -28.339821 -23.706002 41.156883 1.001621 2.184612 0.101366 -0.004014 -981186.000000 0 0 1
-19.324490 -28.943281 -24.389202 42.496853 0.982101 2.182064 0.105700 -0.009564 -1062580.000000 0 0 1
-19.338190 -28.904211 -25.848522 43.330878 0.981150 2.209977 0.110023 -0.009586 79994.600000 0 0 1
-19.300190 -27.627911 -26.540842 42.897728 0.961027 2.237884 0.118771 -0.025305 -669206.000000 0 0 1
-17.955790 -27.434481 -27.214752 42.611076 0.991266 2.263575 0.114651 -0.033118 -608463.000000 0 0 1
-17.886390 -27.733241 -28.577052 43.654363 0.997984 2.284477 0.115102 -0.024321 -871033.000000 0 0 1
-16.659190 -27.453951 -29.134302 43.359607 1.025388 2.307598 0.080856 -0.016588 -949501.000000 0 0 1
-16.573490 -27.585101 -30.639222 44.433999 1.029779 2.331656 0.103766 -0.019411 -28568.300000 0 0 1
-16.542590 -28.905611 -31.120142 45.581299 1.050996 2.322301 0.078323 -0.017526 422639.000000 0 0 1
-17.256690 -28.981731 -32.356612 46.740607 1.033741 2.335411 0.081576 -0.014901 205648.000000 0 0 1
-17.137390 -30.420971 -32.931252 47.995759 1.057768 2.326950 0.077585 -0.018680 -254804.000000 0 0 1
-15.945390 -30.726481 -33.585242 48.232152 1.092107 2.341060 0.082976 -0.016755 -460726.000000 0 0 1
-16.097890 -31.831391 33.381105 48.853635 1.102580 0.818540 0.080050 -0.014517 -82670.400000 0 0 1
-14.759990 -32.251441 32.761591 48.283895 1.141596 0.825050 0.071014 -0.018576 554207.000000 0 0 1
-13.849490 -33.026911 33.584679 49.097004 1.173730 0.817499 0.085704 -0.016447 346757.000000 0 0 1
-12.833090 -33.593911 32.800026 48.673204 1.205897 0.831345 0.087730 -0.019639 -451647.000000 0 0 1
-11.988290 33.181299 33.553091 48.688064 -1.224093 0.810489 0.095361 -0.021800 -78361.000000 0 0 1
-11.141390 33.843723 -33.298462 48.767978 -1.252769 2.322376 0.102914 -0.029323 174412.000000 0 0 1
-10.622290 32.873987 -32.375792 47.346847 -1.258264 2.323755 0.102207 -0.035131 324435.000000 0 0 1
-9.678190 33.504502 -31.321912 46.875165 -1.289589 2.302581 0.091119 -0.041306 192021.000000 0 0 1
-10.414890 -33.504511 -30.417692 46.435526 1.269415 2.285048 0.101240 -0.038395 -132133.000000 0 0 1
-9.592990 -32.582781 -29.716342 45.130079 1.284468 2.289567 0.107651 -0.042235 -459144.000000 0 0 1
-10.309690 -31.487671 -28.897892 43.964204 1.254377 2.288033 0.120137 -0.034835 112547.000000 0 0 1
-10.733690 -31.718221 -27.522622 43.344576 1.244486 2.258769 0.151925 -0.039164 235660.000000 0 0 1
-11.392890 -32.966891 -27.246912 44.260682 1.238059 2.233944 0.141590 -0.039979 -225752.000000 0 0 1
-11.650690 -33.250881 -25.755552 43.642961 1.233776 2.202031 0.143358 -0.048047 598077.000000 0 0 1
-10.471390 -33.322491 -24.932902 42.914892 1.266323 2.190734 0.160614 -0.059329 275111.000000 0 0 1
-10.785990 -33.434881 -23.542802 42.290570 1.258739 2.161194 0.153411 -0.066225 178091.000000 0 0 1
-9.605190 -33.566481 -22.536702 41.555640 1.292090 2.143999 0.167142 -0.070774 203273.000000 0 0 1
-8.972690 32.990389 -22.495902 40.926037 -1.305241 2.152768 0.151465 -0.071017 -639258.000000 0 0 1
-7.920690 33.039748 -21.587902 40.254189 -1.335505 2.136831 0.164835 -0.071108 -652824.000000 0 0 1
-7.193590 31.715223 -21.380902 38.919738 -1.347752 2.152393 0.163054 -0.077393 -742645.000000 0 0 1
-6.269890 31.338523 -22.334302 38.990198 -1.373334 2.180736 0.143428 -0.083621 -499683.000000 0 0 1
-5.620790 30.137903 -22.001802 37.735470 -1.386412 2.193279 0.125083 -0.069974 -809764.000000 0 0 1
-4.140090 30.289623 -22.288602 37.833627 -1.434955 2.200767 0.130520 -0.072015 -985115.000000 0 0 1
-3.842790 30.314833 -23.710602 38.677496 -1.444706 2.230691 0.141958 -0.062204 768709.000000 0 0 1
-2.533290 30.825113 -24.039002 39.172423 -1.488798 2.231499 0.118541 -0.066976 790930.000000 0 0 1
-2.300090 30.955813 -25.574912 40.219757 -1.496630 2.259944 0.118319 -0.034026 -170226.000000 0 0 1
-1.358790 31.958174 -25.954692 41.192441 -1.528304 2.252458 0.122278 -0.053453 275270.000000 0 0 1
-1.813690 33.318462 -25.870112 42.221701 -1.516415 2.230295 0.117478 -0.041660 -363249.000000 0 0 1
-0.926890 -33.469731 -26.601622 42.763632 1.543110 2.242170 0.055601 -0.018582 283614.000000 0 0 1
0.349510 -33.316821 -25.972752 42.245905 -1.560306 2.232928 0.081280 -0.025630 554389.000000 0 0 1
1.036910 -32.221521 -26.612582 41.803481 -1.538627 2.260893 0.050588 -0.011586 -916149.000000 0 0 1
2.363310 -31.906471 -26.012312 41.234069 -1.496861 2.253438 0.059052 -0.006444 -1557170.000000 0 0 1
2.219610 -31.349371 -24.718302 39.983798 -1.500112 2.237257 0.060020 -0.005627 1322790.000000 0 0 1
3.447510 -30.671471 -24.333402 39.303166 -1.458865 2.238419 0.042784 -0.005305 837900.000000 0 0 1
3.333710 -29.894821 -22.955202 37.838541 -1.459741 2.222651 0.052516 -0.012264 -178227.000000 0 0 1
3.358910 -30.686351 -21.794502 37.788023 -1.461771 2.185549 0.059714 -0.013934 448084.000000 0 0 1
3.433810 -29.801221 -20.688902 36.440835 -1.456078 2.174554 0.067778 -0.011834 -290188.000000 0 0 1
3.280310 -30.449011 -19.256702 36.176280 -1.463479 2.132114 0.071286 -0.010904 -670767.000000 0 0 1
2.044810 -31.068571 -19.051602 36.502066 -1.505075 2.119911 0.076279 -0.020849 -269521.000000 0 0 1
1.840310 -32.443351 -19.342002 37.816276 -1.514133 2.107694 0.078048 -0.016845 -757642.000000 0 0 1
2.652110 -33.461411 -18.507902 38.330694 -1.491703 2.074700 0.057329 -0.031677 163928.000000 0 0 1
3.996010 -33.574141 -18.956702 38.762708 -1.452333 2.081791 0.059319 -0.028680 155791.000000 0 0 1
4.552510 33.144529 -18.205402 38.088342 1.434297 2.069148 0.064928 -0.045326 -117840.000000 0 0 1
5.752310 32.392556 -18.766302 37.875332 1.395047 2.089179 0.068567 -0.035424 -343956.000000 0 0 1
6.992610 33.037502 -18.751702 38.626408 1.362218 2.077689 0.099553 -0.035095 -312107.000000 0 0 1
7.958810 32.163514 -19.333102 38.361479 1.328221 2.098987 0.084082 -0.033188 748448.000000 0 0 1
9.324710 32.870989 -19.645702 39.413269 1.294382 2.092611 0.074830 -0.033144 1149450.000000 0 0 1
10.136110 33.111948 -18.444502 39.234442 1.273738 2.060212 0.070789 -0.026096 326175.000000 0 0 1
11.434010 33.596209 -18.700902 40.114406 1.242756 2.055775 0.069077 -0.017005 -16985.400000 0 0 1
12.036010 33.815903 -17.293302 39.842679 1.228851 2.019768 0.049854 -0.010429 -401487.000000 0 0 1
12.631310 32.654400 -16.743002 38.809637 1.201705 2.016855 0.043446 -0.011849 54978.100000 0 0 1
13.181910 33.071642 -15.457602 38.812803 1.191509 1.980416 0.044557 -0.022121 -157171.000000 0 0 1
14.440710 32.260610 -15.154102 38.456831 1.149918 1.975836 0.036330 -0.013752 -2009.450000 0 0 1
14.129510 30.888803 -14.809602 37.055168 1.141780 1.981946 0.056196 -0.020094 -656675.000000 0 0 1
15.376110 30.290373 -14.759002 37.037273 1.101068 1.980667 0.047433 -0.011670 -351275.000000 0 0 1
15.427410 28.983333 -13.966002 35.680355 1.081655 1.972970 0.065375 -0.019043 -246127.000000 0 0 1
15.435310 29.028343 -12.550602 35.191065 1.082086 1.935467 0.068863 -0.025973 -701020.000000 0 0 1
14.223910 29.244723 -11.901402 34.629710 1.118108 1.921625 0.076565 -0.024044 -153815.000000 0 0 1
13.400010 27.955263 -11.496602 33.064011 1.123815 1.925921 0.078658 -0.024962 -6612.030000 0 0 1
12.786310 27.268473 -12.551402 32.628163 1.132333 1.965657 0.061716 -0.024851 114151.000000 0 0 1
12.176610 26.014533 -12.235002 31.220522 1.133018 1.973481 0.077710 -0.025090 956199.000000 0 0 1
11.013410 25.857183 -11.182602 30.247970 1.168136 1.949480 0.073211 -0.022215 303835.000000 0 0 1
9.810110 26.561293 -11.405602 30.525862 1.216998 1.953724 0.065269 -0.019014 105811.000000 0 0 1
9.191510 26.850703 -10.167102 30.146543 1.240980 1.914797 0.046107 -0.011126 -401777.000000 0 0 1
8.178510 27.948913 -10.300102 30.888863 1.286121 1.910764 0.056108 -0.009621 -496367.000000 0 0 1
8.783110 29.152673 -10.689102 32.268843 1.278166 1.908426 0.061967 -0.012245 -314036.000000 0 0 1
7.855310 30.184453 -10.876702 33.031950 1.316200 1.906335 0.046711 -0.002727 -204333.000000 0 0 1
8.532510 31.500813 -11.081502 34.465992 1.306277 1.898130 0.077755 -0.024345 -407108.000000 0 0 1
9.340710 31.966321 -10.007902 34.774310 1.286506 1.862721 0.071142 -0.027177 -193169.000000 0 0 1
9.908810 33.225189 -10.266002 36.159210 1.280962 1.858667 0.080056 -0.032213 16278.700000 0 0 1
11.147010 33.305065 -11.200402 36.863697 1.247822 1.879509 0.065916 -0.031350 -916719.000000 0 0 1
12.371510 32.945567 -10.632702 36.763011 1.211575 1.864211 0.066637 -0.031719 -625378.000000 0 0 1
13.312510 33.264561 -11.646802 37.674951 1.190117 1.885084 0.077524 -0.034288 -962372.000000 0 0 1
14.736010 32.882504 -11.313502 37.767769 1.149489 1.875022 0.077125 -0.032946 -717956.000000 0 0 1
15.256510 33.597698 -10.203802 38.284252 1.144543 1.840585 0.090549 -0.033197 -475075.000000 0 0 1
16.610210 33.861603 -10.486502 39.146825 1.114752 1.841984 0.085743 -0.034853 -380852.000000 0 0 1
17.118110 -33.021381 -9.368002 38.356235 -1.092541 1.817529 0.100336 -0.041354 -155425.000000 0 0 1
17.263010 -33.797151 -8.187402 38.823865 -1.098560 1.783277 0.097319 -0.038368 -3289.260000 0 0 1
17.514510 -32.898271 -7.097302 37.939768 -1.081578 1.758973 0.088005 -0.037857 -996926.000000 0 0 1
17.822810 -33.656061 -5.771902 38.518798 -1.083783 1.721209 0.095778 -0.031516 -74495.400000 0 0 1
18.934010 33.287260 -5.751902 38.724963 1.053629 1.719880 0.082398 -0.034092 210684.000000 0 0 1
20.220310 33.869473 -5.978602 39.896689 1.032581 1.721215 0.093322 -0.029950 -321544.000000 0 0 1
21.162910 32.936105 -6.776702 39.731341 0.999680 1.742197 0.069034 -0.024931 143231.000000 0 0 1
21.398310 31.688483 -6.199702 38.736080 0.976861 1.731537 0.073657 -0.018769 -728285.000000 0 0 1
22.245210 31.713013 -5.126002 39.074806 0.959095 1.702360 0.074455 -0.017769 -1006330.000000 0 0 1
22.659510 30.300493 -4.669202 38.123152 0.928688 1.693581 0.050867 -0.012263 -64753.800000 0 0 1
23.517710 29.740633 -5.636602 38.332222 0.901715 1.718378 0.051743 -0.007910 -192173.000000 0 0 1
23.811110 28.411323 -5.358202 37.455074 0.873260 1.714346 0.044724 0.002928 444749.000000 0 0 1
24.870910 27.753193 -6.324402 37.799470 0.840115 1.738902 0.034110 0.004294 -1004860.000000 0 0 1
26.080910 28.411243 -6.291402 39.076775 0.828137 1.732501 0.054807 -0.001036 35497.200000 0 0 1
27.155410 27.726863 -7.019402 39.439412 0.795810 1.749729 0.041567 0.002308 997730.000000 0 0 1
27.751410 26.563843 -6.199802 38.912929 0.763537 1.730803 0.039015 0.009800 -918484.000000 0 0 1
28.659610 27.014383 -5.202002 39.726703 0.755856 1.702118 0.063961 0.004358 106906.000000 0 0 1
29.195910 25.993553 -4.414702 39.338983 0.727438 1.683255 0.084913 -0.002152 -482591.000000 0 0 1
30.287210 26.338243 -3.421802 40.283084 0.715773 1.655843 0.083130 -0.004210 -592782.000000 0 0 1
29.968310 27.158923 -2.293102 40.508827 0.736260 1.627434 0.087373 -0.007275 551043.000000 0 0 1
31.120910 27.369453 -1.447802 41.469195 0.721348 1.605716 0.096047 -0.017042 838380.000000 0 0 1
31.104510 28.793083 -0.956402 42.396307 0.746828 1.593357 0.118310 -0.023651 -37243.800000 0 0 1
31.321510 29.699013 -2.055902 43.212210 0.758815 1.618391 0.098063 -0.020233 28856.700000 0 0 1
31.202210 31.041733 -1.681102 44.045354 0.782820 1.608973 0.100372 -0.016973 -266822.000000 0 0 1
34.118822 21.778039 19.308650 44.846416 0.568106 1.125694 0.149702 -0.037962 -224663.000000 0 0 1
34.486622 22.068139 20.641550 45.851974 0.569245 1.103832 0.135401 -0.042521 571624.000000 0 0 1
35.390232 23.191239 20.717450 47.111728 0.580092 1.115474 0.136532 -0.035825 276928.000000 0 0 1
35.517012 23.580639 22.215650 48.073276 0.586102 1.090411 0.103831 -0.020141 -589180.000000 0 0 1
34.424752 24.159239 22.843590 47.859817 0.611932 1.073214 0.086390 -0.009584 -584349.000000 0 0 1
34.660992 24.393039 24.228500 48.820334 0.613245 1.051489 0.070760 -0.015175 -519275.000000 0 0 1
33.438712 24.794939 25.037290 48.577797 0.638041 1.029315 0.082724 -0.012809 -444823.000000 0 0 1
33.023412 26.120539 24.724840 48.827718 0.669211 1.039828 0.052588 -0.011187 -441771.000000 0 0 1
31.718002 26.409839 25.106590 48.309959 0.694332 1.024299 0.050953 -0.010384 -424144.000000 0 0 1
31.421892 27.948439 25.279590 49.066366 0.726960 1.029541 0.045226 -0.007188 -129454.000000 0 0 1
31.455942 28.765839 24.120510 48.977024 0.740758 1.055852 0.044475 -0.020105 158573.000000 0 0 1
30.904292 30.067639 24.276910 49.482387 0.771677 1.057998 0.040848 -0.014317 2933.960000 0 0 1
31.183942 31.023639 23.045540 49.658850 0.782821 1.088204 0.038150 -0.016885 183201.000000 0 0 1
32.532542 31.437939 22.952920 50.730138 0.768289 1.101284 0.012025 -0.020868 -174076.000000 0 0 1
32.742632 32.107539 21.771150 50.763737 0.775605 1.127552 0.008911 -0.022197 -777558.000000 0 0 1
34.196702 32.442739 21.545650 51.828186 0.759084 1.142070 -0.003541 -0.030023 -730145.000000 0 0 1
34.640612 33.470039 22.465650 53.149986 0.768214 1.134391 0.003984 -0.015453 -244000.000000 0 0 1
36.028152 33.615239 22.291150 54.082414 0.750765 1.145962 0.014068 -0.012146 -286447.000000 0 0 1
36.492742 -32.890744 22.919570 54.210958 -0.733530 1.134280 0.019671 -0.006816 -630487.000000 0 0 1
36.007572 -31.730144 22.308850 52.924778 -0.722335 1.135676 0.006576 -0.003685 134969.000000 0 0 1
36.037812 -30.632744 23.169580 52.668001 -0.704504 1.115289 0.016710 -0.004287 -1074970.000000 0 0 1
34.949222 -29.582644 22.932050 51.209959 -0.702427 1.106488 0.008479 -0.012045 -358901.000000 0 0 1
33.694742 -29.969444 23.421600 50.814118 -0.726950 1.091757 0.006025 -0.009724 -29484.800000 0 0 1
32.820492 -30.377944 22.373950 50.005978 -0.746769 1.106912 0.022433 -0.004832 -369481.000000 0 0 1
32.142132 -31.747444 22.470150 50.457155 -0.779221 1.109252 0.019110 -0.004910 421335.000000 0 0 1
31.078052 -31.692044 23.446020 50.199072 -0.795179 1.084832 0.027267 -0.011233 656508.000000 0 0 1
30.506062 -32.999944 23.598150 50.759125 -0.824648 1.087269 0.026278 -0.007254 -68197.500000 0 0 1
29.725452 -33.126444 24.887530 50.993656 -0.839457 1.060940 0.033037 -0.004382 -149809.000000 0 0 1
29.579702 33.302639 25.244340 51.198645 0.844534 1.055185 0.038145 -0.009563 201607.000000 0 0 1
28.766402 33.094839 26.403930 51.185367 0.855254 1.028798 0.043246 -0.006921 -522703.000000 0 0 1
28.278802 31.686839 26.580550 50.102616 0.842170 1.011580 0.049530 -0.009729 177389.000000 0 0 1
27.460902 31.148739 25.581300 48.772411 0.848237 1.018664 0.057729 -0.009227 -277845.000000 0 0 1
26.152402 31.650739 25.495840 48.329653 0.880235 1.015094 0.056777 -0.010939 -431343.000000 0 0 1
25.404702 31.361239 24.125860 47.021095 0.889947 1.032020 0.097942 -0.021807 270887.000000 0 0 1
25.701002 32.166539 22.950000 47.137356 0.896667 1.062288 0.122038 -0.032676 2170750.000000 0 0 1
27.096302 31.992039 22.476350 47.569807 0.868064 1.078680 0.091259 -0.024259 2000940.000000 0 0 1
27.363702 32.693639 21.099150 47.569112 0.873914 1.111244 0.106260 -0.033661 873211.000000 0 0 1
28.763602 32.810939 20.795450 48.335839 0.851034 1.126051 0.102266 -0.032435 809289.000000 0 0 1
28.857302 33.551939 19.601950 48.401580 0.860480 1.153833 0.088083 -0.032166 223294.000000 0 0 1
30.279082 33.882139 19.077350 49.282527 0.841496 1.173310 0.093379 -0.036737 405284.000000 0 0 1
31.103322 32.789639 18.678550 48.902611 0.811785 1.178887 0.087490 -0.049854 210008.000000 0 0 1
32.155742 33.316139 17.869450 49.631383 0.803120 1.202482 0.075627 -0.034960 -86557.700000 0 0 1
33.165032 32.242839 17.452550 49.437957 0.771300 1.210000 0.070304 -0.027251 -486010.000000 0 0 1
33.900922 31.678739 18.497550 49.949719 0.751526 1.191439 0.050260 -0.030031 28257.800000 0 0 1
34.752682 30.671139 17.933950 49.700043 0.723093 1.201624 0.067096 -0.026963 706412.000000 0 0 1
35.691872 29.963339 18.991850 50.322975 0.698367 1.183810 0.060698 -0.039887 782687.000000 0 0 1
36.685162 30.828539 19.544850 51.751340 0.698868 1.183519 0.066254 -0.038008 70498.600000 0 0 1
-37.078040 30.212739 20.340950 51.974464 -0.683726 1.168683 0.087966 -0.029180 665163.000000 0 0 1
-35.953152 31.241739 20.789050 51.969799 -0.715397 1.159256 0.099584 -0.028084 386015.000000 0 0 1
-35.130748 31.579839 19.684450 51.175515 -0.732220 1.175972 0.103549 -0.030457 -451336.000000 0 0 1
-34.060973 32.437839 19.944250 51.089494 -0.760995 1.169753 0.092369 -0.016748 -266214.000000 0 0 1
-34.235505 33.837639 20.568850 52.346282 -0.779554 1.166972 0.074974 -0.016029 -572455.000000 0 0 1
-34.619672 33.736339 21.927050 53.079730 -0.772476 1.144945 0.076797 -0.013081 110704.000000 0 0 1
-34.381584 -32.898944 22.704950 52.725217 0.763365 1.125608 0.067702 -0.013802 -101734.000000 0 0 1
-34.389254 -33.248644 24.209230 53.611378 0.768536 1.102273 0.073653 -0.012503 1266260.000000 0 0 1
-35.733122 -33.524544 24.690000 54.866630 0.753520 1.104031 0.063389 -0.008146 926118.000000 0 0 1
-35.712343 -33.896444 26.069480 55.713177 0.759317 1.083857 0.077997 -0.013800 983527.000000 0 0 1
-37.161730 33.564439 26.568330 56.687229 -0.734580 1.082997 0.055773 -0.020860 686749.000000 0 0 1
-37.123250 32.918639 27.795050 56.871234 -0.725440 1.060155 0.082177 -0.021075 -724361.000000 0 0 1
36.385822 32.764439 28.435500 56.621676 0.733076 1.044653 0.081024 -0.027937 -894050.000000 0 0 1
36.587532 31.904239 29.745890 56.932820 0.717127 1.021047 0.079083 -0.021085 43614.200000 0 0 1
36.707352 30.487939 29.756470 56.235146 0.693104 1.013205 0.069548 -0.017085 575350.000000 0 0 1
-37.003920 29.973239 28.888680 55.697765 -0.680810 1.025503 0.065791 -0.015333 41458.200000 0 0 1
-37.144650 28.484039 28.507760 54.806550 -0.654193 1.023767 0.068587 -0.010197 1005090.000000 0 0 1
36.293052 28.184939 27.909920 53.763743 0.660305 1.024973 0.062278 -0.004798 1351650.000000 0 0 1
36.159382 26.913839 27.306950 52.702232 0.639850 1.026126 0.073677 -0.015541 -105624.000000 0 0 1
36.018692 25.674939 28.193800 52.454162 0.619280 1.003334 0.074461 -0.022186 -194116.000000 0 0 1
37.242682 25.303639 28.848820 53.474723 0.596784 1.000971 0.052128 -0.010440 555410.000000 0 0 1
37.241672 23.882539 29.108390 52.958627 0.570225 0.988858 0.048138 -0.000027 -37295.800000 0 0 1
-37.136220 22.918539 27.966220 51.831146 -0.552933 1.000877 0.059161 0.000798 -91578.100000 0 0 1
36.666002 22.849339 26.886490 50.885866 0.557286 1.014119 0.071130 -0.006530 18079.600000 0 0 1
36.936532 21.895739 25.823850 50.105908 0.535104 1.029339 0.067627 -0.020341 -210448.000000 0 0 1
36.566492 20.369639 25.976200 49.262496 0.508245 1.015375 0.066922 -0.008151 -287689.000000 0 0 1
35.178732 20.141739 25.897640 48.103229 0.519994 1.002287 0.090482 -0.007037 -6152.400000 0 0 1
34.798462 18.875539 26.376480 47.570344 0.497009 0.983067 0.081359 0.001565 -517451.000000 0 0 1
34.715682 18.606439 27.925080 48.282381 0.492005 0.954067 0.058798 0.013918 -294416.000000 0 0 1
33.734612 19.380139 28.578890 48.273873 0.521450 0.937239 0.065223 -0.005671 86650.400000 0 0 1
33.989052 20.814639 28.628570 49.072395 0.549482 0.947894 0.069601 -0.020364 -396075.000000 0 0 1
32.940502 21.572439 29.484390 49.191220 0.579806 0.928066 0.082301 -0.033026 893061.000000 0 0 1
31.550222 21.468239 29.129160 48.008435 0.597482 0.918830 0.109746 -0.042052 993114.000000 0 0 1
31.072832 22.258839 28.005410 47.384384 0.621611 0.938466 0.097199 -0.037565 -148881.000000 0 0 1
31.132412 23.789739 28.224400 48.288669 0.652494 0.946541 0.089753 -0.028344 43743.700000 0 0 1
32.430422 24.384139 28.151840 49.384660 0.644710 0.964227 0.087767 -0.026427 299992.000000 0 0 1
32.561492 25.639339 28.788270 50.461778 0.667019 0.963686 0.060014 -0.017073 -380724.000000 0 0 1
32.614622 25.708339 30.336750 51.429084 0.667533 0.939892 0.060683 -0.027076 -602099.000000 0 0 1
33.859022 25.341239 30.836270 52.340112 0.642498 0.940788 0.052140 -0.022888 -706857.000000 0 0 1
33.917622 25.214239 32.246719 53.160266 0.639261 0.919026 0.070141 -0.022374 -140507.000000 0 0 1
33.649952 23.830439 32.844802 52.716128 0.616199 0.898160 0.086633 -0.028759 -375769.000000 0 0 1
33.993112 23.686339 -33.609062 53.349259 0.608574 2.252326 0.092123 -0.038100 165601.000000 0 0 1
33.537352 22.481239 -33.019822 52.158113 0.590537 2.256311 0.085191 -0.030212 -179356.000000 0 0 1
33.957502 22.447439 -31.586492 51.523839 0.584101 2.230707 0.075241 -0.034704 196053.000000 0 0 1
33.229532 23.484639 -30.856372 51.067071 0.615235 2.219598 0.057536 -0.040153 441107.000000 0 0 1
33.526682 23.489239 -29.470342 50.440894 0.611137 2.194758 0.076330 -0.039343 45754.300000 0 0 1
34.925712 23.833339 -28.893802 51.212159 0.598817 2.170258 0.077778 -0.021014 69651.200000 0 0 1
35.186202 23.241639 -27.633032 50.416536 0.583744 2.150881 0.074402 -0.015485 -586715.000000 0 0 1
36.156772 23.941639 -26.907662 51.034660 0.584877 2.126149 0.078801 -0.007872 -259449.000000 0 0 1
36.707872 22.964339 -25.828602 50.417710 0.559029 2.108648 0.063021 -0.004552 -473428.000000 0 0 1
-37.189290 21.991539 -26.424662 50.645176 -0.534028 2.119710 0.052586 -0.003257 -44574.400000 0 0 1
-37.207270 20.764339 -25.749032 49.785051 -0.509019 2.114377 0.040639 0.000770 -573698.000000 0 0 1
-36.059310 19.835339 -26.189712 48.781303 -0.502901 2.137531 0.046879 0.008244 -459469.000000 0 0 1
-34.862204 20.155439 -25.532962 47.681727 -0.524195 2.135881 0.051372 -0.001464 -852924.000000 0 0 1
-33.954140 19.138939 -25.841722 46.765128 -0.513278 2.156259 0.035271 -0.009920 242310.000000 0 0 1
-32.535400 19.319039 -25.217712 45.472085 -0.535837 2.158649 0.047652 -0.018737 374589.000000 0 0 1
-32.561650 19.433339 -23.786202 44.762698 -0.538076 2.131030 0.053309 -0.018534 1095930.000000 0 0 1
-31.250770 19.810439 -23.272602 43.711304 -0.564987 2.132249 0.071550 -0.021128 1280270.000000 0 0 1
-31.262860 20.384239 -21.852402 43.248249 -0.577799 2.100501 0.064836 -0.026280 188351.000000 0 0 1
-31.704430 19.423939 -20.873402 42.639878 -0.549674 2.082344 0.053315 -0.010214 61447.000000 0 0 1
-32.374890 20.081439 -19.812202 42.940901 -0.555197 2.050350 0.057366 -0.005961 -30171.500000 0 0 1
-33.179000 19.116639 -18.888902 42.697570 -0.522711 2.029056 0.051052 0.006260 831322.000000 0 0 1
-33.978490 19.654639 -17.818702 43.108569 -0.524418 1.996921 0.041499 0.000255 845796.000000 0 0 1
-35.260032 20.238139 -18.116902 44.509260 -0.521059 1.990004 0.033562 0.002947 1348100.000000 0 0 1
-36.304370 19.823039 -16.959102 44.705383 -0.499785 1.959893 0.031623 -0.001857 617773.000000 0 0 1
-36.075480 20.553039 -15.772502 44.414406 -0.517860 1.933840 0.045521 -0.014708 261906.000000 0 0 1
-37.058430 20.207339 -14.786102 44.724630 -0.499215 1.907739 0.055663 -0.010010 -291085.000000 0 0 1
-36.964530 21.067539 -13.485102 44.632562 -0.518023 1.877729 0.068119 -0.018937 -275129.000000 0 0 1
-37.252750 22.434939 -13.716702 45.598703 -0.542062 1.876342 0.078296 -0.022765 1123390.000000 0 0 1
36.125312 22.826539 -14.030302 44.977088 0.563525 1.888034 0.073644 -0.011186 897471.000000 0 0 1
35.924392 24.278139 -14.281502 45.650316 0.594307 1.888984 0.071351 -0.013266 -96281.000000 0 0 1
36.287302 25.160339 -13.270302 46.107612 0.606259 1.862737 0.075632 -0.014465 -131477.000000 0 0 1
36.109152 26.594939 -13.502702 46.834652 0.634815 1.863253 0.085015 -0.001244 -392019.000000 0 0 1
37.087282 27.324039 -14.399902 48.264136 0.634967 1.873766 0.083469 0.007484 -299491.000000 0 0 1
37.179802 26.943239 -15.751602 48.542649 0.627095 1.901269 0.086903 0.006666 -374902.000000 0 0 1
-36.502770 27.686639 -16.292202 48.625487 -0.648907 1.912460 0.091596 0.000694 -620668.000000 0 0 1
-36.359420 27.434239 -17.800402 48.902957 -0.646393 1.943349 0.105810 -0.008015 198817.000000 0 0 1
-35.671948 26.212039 -18.133102 47.836892 -0.633707 1.959578 0.101688 -0.016985 -203368.000000 0 0 1
-34.281042 26.276039 -18.063902 46.817994 -0.653971 1.966906 0.115214 -0.009047 -760481.000000 0 0 1
-33.595470 25.081239 -18.737202 45.921747 -0.641300 1.991086 0.099045 -0.008532 -200262.000000 0 0 1
-33.717810 24.979739 -20.118602 46.536396 -0.637617 2.017860 0.092962 -0.013741 -221953.000000 0 0 1
-32.744120 24.136439 -20.608002 45.600820 -0.635209 2.039715 0.090927 -0.009810 -459449.000000 0 0 1
-32.906440 23.978339 -22.199802 46.374839 -0.629718 2.069974 0.091005 -0.020551 -122462.000000 0 0 1
-33.958430 23.131639 -22.652402 46.918855 -0.597980 2.074645 0.089155 -0.019528 400900.000000 0 0 1
-34.225501 23.218039 -24.019402 47.826707 -0.596071 2.096957 0.072298 -0.015930 90576.800000 0 0 1
-34.917315 24.514339 -24.584402 49.239867 -0.612113 2.093562 0.087096 -0.015658 -27934.200000 0 0 1
-34.068324 25.665739 -24.550702 49.215016 -0.645649 2.093063 0.092296 -0.019163 250022.000000 0 0 1
-34.741716 26.692739 -25.262322 50.573452 -0.655123 2.093838 0.087990 -0.023381 221071.000000 0 0 1
-33.956640 28.013439 -25.467152 50.856484 -0.689786 2.095279 0.074030 -0.018694 332017.000000 0 0 1
-32.752520 27.927239 -26.213242 50.396352 -0.706045 2.117813 0.073752 -0.023455 -211500.000000 0 0 1
-32.186490 29.168539 -26.461952 50.862645 -0.736249 2.117955 0.075097 -0.024546 -159702.000000 0 0 1
-30.849310 29.081839 -27.214262 50.379056 -0.755915 2.141459 0.068148 -0.019512 -1038110.000000 0 0 1
-29.830850 28.527439 -26.480342 49.039809 -0.763067 2.141205 0.065872 -0.017307 266605.000000 0 0 1
-28.538560 28.539239 -27.140682 48.636963 -0.785410 2.162801 0.065405 -0.008854 1439790.000000 0 0 1
-27.696540 29.846039 -27.043112 48.879589 -0.822736 2.157069 0.045742 -0.013745 -383000.000000 0 0 1
-27.124110 30.130839 -25.723382 48.013302 -0.837865 2.136198 0.025038 -0.015655 105047.000000 0 0 1
-28.107350 30.371239 -24.747902 48.217154 -0.824092 2.109774 0.048891 -0.015160 -242011.000000 0 0 1
-27.573180 31.102439 -23.479702 47.738227 -0.845474 2.085001 0.025209 -0.015627 -79503.800000 0 0 1
-27.310560 32.523739 -23.628002 48.599823 -0.872306 2.078503 0.031331 -0.015644 110227.000000 0 0 1
-26.084830 32.858639 -23.017702 47.853141 -0.899817 2.072599 0.023312 0.000637 411.428000 0 0 1
-25.862000 -33.382344 -23.036002 48.102820 0.911661 2.070187 0.010709 0.017102 67673.600000 0 0 1
-26.692240 -32.764244 -22.074402 47.678617 0.887171 2.052154 0.000769 0.004353 129154.000000 0 0 1
-26.364920 -31.411444 -21.956002 46.517242 0.872523 2.062351 0.008398 0.006253 -100003.000000 0 0 1
17.353610 8.288939 -24.740302 31.335871 0.445608 2.480823 0.059055 -0.015730 -64005.200000 0 0 1
16.073510 7.715839 -24.621802 30.399425 0.447548 2.514851 0.062803 -0.020006 -33244.200000 0 0 1
16.202310 6.298339 -24.739702 30.236349 0.370754 2.529088 0.052645 -0.021115 483477.000000 0 0 1
14.793210 5.657739 -24.928702 29.534543 0.365291 2.575592 0.080656 -0.034317 556975.000000 0 0 1
13.998610 5.926539 -23.784102 28.227087 0.400486 2.572887 0.101528 -0.044791 -454730.000000 0 0 1
12.723010 5.397839 -23.960502 27.660754 0.401242 2.618398 0.108664 -0.046600 -158967.000000 0 0 1
11.711610 5.301939 -22.762402 26.141907 0.425104 2.627470 0.116368 -0.048535 226911.000000 0 0 1
12.174710 4.654339 -21.600102 25.227977 0.365152 2.598658 0.110145 -0.042465 -179025.000000 0 0 1
11.432610 4.903539 -20.437402 23.925649 0.405176 2.594816 0.118228 -0.038421 -338222.000000 0 1 0
12.033910 6.020139 -19.608702 23.781469 0.463859 2.540180 0.133407 -0.042349 -246058.000000 0 1 0
11.438110 6.097139 -18.321802 22.443126 0.489740 2.525887 0.109764 -0.040063 -134700.000000 0 1 0
11.550910 7.438139 -17.754102 22.448999 0.572106 2.483016 0.118756 -0.041438 911518.000000 0 1 0
12.988110 8.058439 -17.513402 23.245402 0.555319 2.424034 0.123687 -0.029963 1017630.000000 0 1 0
13.582010 7.562039 -16.309302 22.531062 0.508025 2.380175 0.148142 -0.035992 212527.000000 0 1 0
14.901210 8.034139 -16.115402 23.373054 0.494483 2.331576 0.137940 -0.030044 99527.600000 0 1 0
15.477210 7.718639 -14.700202 22.698400 0.462615 2.275268 0.132756 -0.032987 194787.000000 0 1 0
16.731410 8.367139 -14.524302 23.683422 0.463716 2.230989 0.124298 -0.035410 679676.000000 0 1 0
17.225110 8.168939 -13.223902 23.201456 0.442833 2.177253 0.111688 -0.038226 -457350.000000 0 1 0
18.201710 9.249339 -12.804102 24.099742 0.470152 2.130926 0.154935 -0.046007 -765932.000000 0 1 0
17.592610 10.494439 -12.633002 24.067113 0.537861 2.123402 0.216970 -0.046689 141067.000000 0 1 0
18.438610 11.548639 -12.312102 24.998825 0.559555 2.085765 0.230466 -0.061979 -938707.000000 0 1 0
17.587410 12.779539 -11.870602 24.769837 0.628376 2.070581 0.246691 -0.056169 -921532.000000 0 1 0
16.983910 12.434739 -10.615702 23.574755 0.631978 2.037897 0.289663 -0.047572 648834.000000 0 1 0
15.888210 13.268639 -10.280302 23.112261 0.695795 2.031746 0.151608 -0.038842 824896.000000 0 1 0
14.665010 13.506139 -11.253702 22.893758 0.744285 2.084679 0.120452 -0.045699 -240494.000000 0 1 0
13.675310 14.434139 -10.862102 22.657090 0.812387 2.070782 0.144404 -0.051353 143070.000000 0 1 0
14.064310 15.817139 -10.937902 23.824870 0.843990 2.047774 0.150801 -0.049341 -522854.000000 0 1 0
13.295710 16.799339 -10.117602 23.693028 0.901295 2.012001 0.133053 -0.042356 -381418.000000 0 1 0
13.544010 16.750339 -8.736202 23.245114 0.890845 1.956088 0.143101 -0.028520 21288.100000 0 1 0
12.526910 17.422939 -8.031702 22.912672 0.947439 1.928939 0.118296 -0.012723 128385.000000 0 1 0
12.787510 17.332739 -6.514302 22.502898 0.935171 1.864487 0.099777 -0.008575 433471.000000 0 1 0
13.861610 18.173939 -6.110402 23.659529 0.919205 1.832021 0.129811 -0.006622 270743.000000 0 1 0
14.036910 17.945539 -4.763702 23.275955 0.907007 1.776915 0.106438 -0.007908 -434672.000000 0 1 0
15.156110 18.738239 -4.060602 24.440086 0.890692 1.737716 0.098807 -0.017423 324939.000000 0 1 0
16.424510 18.405439 -4.644302 25.101679 0.842211 1.756888 0.111739 -0.034009 348596.000000 0 0 1
17.069310 19.555439 -5.080502 26.449727 0.853175 1.764079 0.075362 -0.027752 340001.000000 0 0 1
18.396410 19.319139 -5.906302 27.322911 0.809859 1.788683 0.080788 -0.009657 532167.000000 0 0 1
19.456510 18.757539 -5.194902 27.520685 0.767109 1.760699 0.088322 -0.028027 -153775.000000 0 0 1
19.525410 17.368939 -5.262502 26.657375 0.727015 1.769514 0.105184 -0.043350 -920739.000000 0 0 1
20.704810 16.826739 -4.506002 27.057945 0.682435 1.738107 0.124100 -0.045767 -382301.000000 0 0 1
21.976510 17.027639 -5.104302 28.265905 0.659192 1.752374 0.100602 -0.045150 532186.000000 0 0 1
22.968910 16.329639 -4.359802 28.517290 0.618034 1.724281 0.102880 -0.044393 876636.000000 0 0 1
24.489410 16.561039 -4.654702 29.927671 0.594610 1.726962 0.104138 -0.044430 764391.000000 0 0 1
24.861910 17.714939 -3.950302 30.782114 0.619088 1.699482 0.108234 -0.043706 559141.000000 0 0 1
26.255810 17.688839 -3.620802 31.864915 0.592864 1.684672 0.088777 -0.033766 338951.000000 0 0 1
26.748210 19.016639 -2.977602 32.953990 0.618037 1.661276 0.100661 -0.020290 -383130.000000 0 0 1
26.828210 20.180439 -3.793302 33.784496 0.644914 1.683313 0.094150 -0.022918 205835.000000 0 0 1
27.036810 21.319639 -2.970602 34.559234 0.667715 1.656859 0.103574 -0.001080 -217537.000000 0 0 1
27.144410 22.637139 -3.837602 35.552585 0.695103 1.678949 0.079887 -0.000541 588423.000000 0 0 1
28.358710 22.931139 -4.544002 36.751892 0.679969 1.694753 0.070216 0.006240 603975.000000 0 0 1
28.518210 22.137939 -5.685302 36.547221 0.660105 1.726991 0.056109 0.004685 511411.000000 0 0 1
29.526610 22.711039 -6.787902 37.864068 0.655659 1.751041 0.052841 0.007972 481154.000000 0 0 1
28.997610 23.760239 -7.582302 38.247898 0.686450 1.770359 0.028840 0.012225 211554.000000 0 0 1
29.950010 24.570639 -8.282202 39.614572 0.687050 1.781420 0.035931 0.011337 -104795.000000 0 0 1
30.794910 23.901039 -9.368602 40.091856 0.660019 1.806655 0.036120 -0.002154 -262231.000000 0 0 1
29.977910 23.404939 -10.409602 39.431283 0.662886 1.837957 0.028617 0.002604 -91113.800000 0 0 1
30.632710 22.641239 -11.407002 39.763153 0.636501 1.861758 0.012854 -0.009861 -188415.000000 0 0 1
29.793010 22.445039 -12.674102 39.395890 0.645652 1.898333 0.049457 -0.000370 75148.700000 0 0 1
30.051410 23.430939 -13.685902 40.489506 0.662237 1.915599 0.030529 -0.005574 -59029.300000 0 0 1
30.263110 22.723739 -14.896302 40.670923 0.644059 1.945787 0.055906 -0.010532 140008.000000 0 0 1
30.606910 23.671039 -16.087302 41.903489 0.658303 1.964827 0.054783 -0.005551 -283281.000000 0 0 1
31.854010 24.293739 -16.094202 43.172759 0.651554 1.952806 0.053848 -0.000409 -716263.000000 0 0 1
32.132710 24.715639 -17.413802 44.120453 0.655660 1.976524 0.070608 -0.003281 418184.000000 0 0 1
33.565610 25.275539 -17.655802 45.576643 0.645430 1.968592 0.075030 -0.005383 1192150.000000 0 0 1
34.542110 24.192339 -17.713402 45.740477 0.610976 1.968453 0.077394 0.005926 1076090.000000 0 0 1
35.877910 24.636139 -18.025002 47.106948 0.601721 1.963448 0.092963 -0.003256 995365.000000 0 0 1
36.952110 23.532439 -17.890302 47.321212 0.567065 1.958497 0.076900 -0.016374 710.156000 0 0 1
36.990310 22.618639 -18.940102 47.313987 0.548814 1.982648 0.057101 -0.003534 344915.000000 0 0 1
-36.782182 22.905539 -19.971802 47.712320 -0.556969 2.002686 0.080742 0.004078 236168.000000 0 0 1
-36.924182 21.978639 -21.243102 47.934592 -0.536910 2.029926 0.065390 0.001971 31698.000000 0 0 1
-36.449482 20.681739 -21.035202 46.891137 -0.516110 2.035991 0.046403 0.003467 28296.700000 0 0 1
-35.924982 20.092239 -22.215002 46.774017 -0.509942 2.065696 0.050631 0.001393 104006.000000 0 0 1
-35.597682 18.590339 -22.040802 45.810398 -0.481277 2.072741 0.040256 0.002223 344968.000000 0 0 1
-36.734482 17.751439 -21.893402 46.301801 -0.450147 2.063309 0.041187 -0.000906 201927.000000 0 0 1
-36.355282 16.398639 -22.049302 45.571851 -0.423740 2.075829 0.028192 -0.011311 219603.000000 0 0 1
37.205310 15.420639 -21.802902 45.797355 0.392921 2.066981 0.021320 -0.000056 -28346.100000 0 0 1
36.179710 15.556239 -22.740502 45.476350 0.406074 2.094454 0.057975 0.001638 -880486.000000 0 0 1
35.178810 14.607739 -22.643002 44.312981 0.393577 2.107120 0.081151 -0.008992 -700999.000000 0 0 1
35.288810 13.252039 -23.327202 44.329167 0.359236 2.124954 0.061078 -0.016893 -487150.000000 0 0 1
35.428310 13.460939 -24.740302 45.259746 0.363102 2.149130 0.086824 -0.016611 159998.000000 0 0 1
35.784810 12.273839 -25.377512 45.554559 0.330416 2.161661 0.071814 -0.012348 38306.700000 0 0 1
35.807610 12.477939 -26.925062 46.506375 0.335313 2.188242 0.078892 -0.019349 967937.000000 0 0 1
34.424210 12.524939 -27.343002 45.711488 0.348952 2.212005 0.076285 -0.015802 1153690.000000 0 0 1
34.079310 13.710839 -28.056292 46.222744 0.382506 2.223052 0.083582 -0.018132 -267967.000000 0 0 1
34.406810 13.652639 -29.511512 47.340812 0.377745 2.243860 0.081861 -0.030926 577626.000000 0 0 1
35.826810 13.782539 -29.694222 48.531078 0.367247 2.229206 0.071572 -0.019716 718048.000000 0 0 1
36.205410 13.578339 -31.025212 49.575869 0.358802 2.246969 0.072817 -0.023872 480123.000000 0 0 1
-37.002482 13.784339 -31.338622 50.411317 -0.356599 2.241655 0.066945 -0.014224 1773550.000000 0 0 1
-36.005482 12.792739 -30.928772 49.159310 -0.341388 2.251261 0.066007 -0.014291 824978.000000 0 0 1
-35.841082 12.674139 -29.555762 48.153504 -0.339897 2.231639 0.059439 -0.011079 -380025.000000 0 0 1
-34.774082 11.667439 -29.042602 46.785025 -0.323718 2.240517 0.053250 -0.014075 174652.000000 0 0 1
-35.110682 10.351939 -29.432612 46.970216 -0.286714 2.248009 0.060385 -0.014844 911740.000000 0 0 1
-34.019982 9.415439 -29.256062 45.846775 -0.270004 2.262859 0.055909 -0.005088 693203.000000 0 0 1
-34.400182 8.043539 -29.820642 46.231393 -0.229696 2.271859 0.072329 -0.010682 -535213.000000 0 0 1
-34.512982 7.989339 -31.212002 47.214028 -0.227481 2.293047 0.063428 -0.013783 -9010.860000 0 0 1
-35.022382 6.853539 -31.835222 47.822793 -0.193248 2.299216 0.071962 -0.017855 709523.000000 0 0 1
-36.385282 6.196739 -31.392702 48.453999 -0.168690 2.275603 0.094190 -0.014803 489048.000000 0 0 1
-36.226582 5.479939 -30.217422 47.491973 -0.150130 2.260442 0.109489 -0.019217 -146969.000000 0 0 1
37.281610 5.117539 -29.650772 47.909038 0.136415 2.238134 0.104237 -0.015665 -260796.000000 0 0 1
-37.315982 4.405939 -28.313812 47.048557 -0.117527 2.216549 0.107245 -0.023387 184753.000000 0 0 1
-36.539882 3.210839 -28.395322 46.387140 -0.087647 2.229558 0.117844 -0.019088 318475.000000 0 0 1
-36.647482 2.532139 -27.183782 45.699099 -0.068985 2.207866 0.112751 -0.022094 422083.000000 0 0 1
-35.628382 1.329139 -27.122102 44.796837 -0.037288 2.221123 0.118700 -0.021199 564383.000000 0 0 1
-34.280582 1.673939 -26.844002 43.572477 -0.048792 2.234549 0.125876 -0.016079 201688.000000 0 0 1
-33.548382 0.477539 -26.647382 42.846294 -0.014233 2.242001 0.125226 -0.017929 -847407.000000 0 0 1
-32.394182 0.582539 -25.716362 41.364884 -0.017981 2.241702 0.120871 -0.015384 -1131560.000000 0 0 1
-32.753282 0.499239 -24.355102 40.819085 -0.015241 2.210129 0.118201 -0.007044 312715.000000 0 0 1
-31.673182 0.361539 -23.429602 39.398824 -0.011414 2.207661 0.124353 0.001198 39844.400000 0 0 1
-32.116882 0.144639 -21.972602 38.914139 -0.004504 2.170797 0.109108 0.013149 -370340.000000 0 0 1
-32.702882 -1.153861 -21.885702 39.367420 0.035269 2.160283 0.131744 -0.003039 362518.000000 0 0 1
-33.169182 -1.512061 -20.569502 39.058742 0.045555 2.125428 0.143981 -0.010746 -417084.000000 0 0 1
-34.598982 -1.060261 -20.238102 40.097312 0.030635 2.099859 0.139352 -0.010139 -796664.000000 0 0 1
-35.440682 -2.169961 -20.490702 40.995359 0.061152 2.094199 0.144741 -0.018907 -30992.000000 0 0 1
-36.776282 -1.765561 -20.237902 42.014102 0.047971 2.073382 0.134226 -0.013461 846882.000000 0 0 1
36.880110 -2.895561 -19.984202 42.046345 -0.078352 2.066090 0.128789 -0.022021 496425.000000 0 0 1
36.306710 -3.673761 -21.019102 42.112663 -0.100844 2.093375 0.115808 -0.018988 540877.000000 0 0 1
37.239510 -4.489361 -21.725002 43.346409 -0.119975 2.095775 0.114300 -0.020519 218943.000000 0 0 1
36.548610 -5.262361 -22.880702 43.439842 -0.143000 2.125535 0.095626 -0.019403 -339923.000000 0 0 1
36.132310 -6.574061 -22.523002 43.081872 -0.179975 2.120923 0.102198 -0.017809 397475.000000 0 0 1
35.426610 -7.303961 -23.520702 43.146448 -0.203323 2.147348 0.100139 -0.012811 1872610.000000 0 0 1
33.949410 -6.812661 -23.927202 42.089022 -0.198041 2.175466 0.075834 -0.006555 1009630.000000 0 0 1
33.797910 -5.770161 -24.856102 42.348781 -0.169095 2.198068 0.083990 -0.014237 -188447.000000 0 0 1
32.468210 -5.521861 -25.245862 41.497339 -0.168458 2.224805 0.051830 -0.008299 5503.080000 0 0 1
32.337610 -4.223861 -26.064342 41.748197 -0.129882 2.245060 0.081136 -0.038815 111645.000000 0 0 1
32.886810 -4.429561 -27.386462 43.025360 -0.133885 2.260773 0.087293 -0.051675 419025.000000 0 0 1
32.955010 -3.264961 -28.208062 43.501579 -0.098751 2.276327 0.076884 -0.046327 -158503.000000 0 0 1
32.446210 -3.661461 -29.596842 44.069671 -0.112372 2.307152 0.089651 -0.043383 220888.000000 0 0 1
31.979210 -2.596161 -30.406122 44.203418 -0.081005 2.329344 0.078552 -0.049053 480099.000000 0 0 1
31.193210 -3.017661 -31.575502 44.487470 -0.096441 2.359956 0.079671 -0.050300 162915.000000 0 0 1
30.588810 -1.794561 -32.282142 44.508791 -0.058600 2.382264 0.087025 -0.044547 -680215.000000 0 0 1
29.594010 -1.032661 -31.623302 43.323262 -0.034880 2.389028 0.076923 -0.034416 1119370.000000 0 0 1
28.267710 -1.578961 -31.473122 42.333367 -0.055799 2.409024 0.075848 -0.038336 997997.000000 0 0 1
27.474910 -1.968161 -32.758862 42.800553 -0.071513 2.442434 0.069663 -0.031887 -1108480.000000 0 0 1
27.917710 -3.183761 -33.386582 43.637125 -0.113550 2.441986 0.077768 -0.038461 26549.600000 0 0 1
27.448310 -3.422161 33.119668 43.151284 -0.124037 0.695826 0.065621 -0.031749 -595190.000000 0 0 1
27.817110 -4.829061 32.663388 43.174163 -0.171887 0.712776 0.038314 -0.032443 -701594.000000 0 0 1
29.123610 -5.063261 32.222971 43.728036 -0.172134 0.742331 0.050792 -0.026343 -455573.000000 0 0 1
29.432410 -4.647961 30.903870 42.929238 -0.156626 0.767168 0.062840 -0.029350 -494102.000000 0 0 1
30.062610 -3.250461 30.846060 43.194970 -0.107705 0.775441 0.056807 -0.022492 -491499.000000 0 0 1
31.271210 -3.122161 31.570690 44.545987 -0.099512 0.783112 0.054831 -0.022785 -68391.600000 0 0 1
31.714910 -1.809061 31.610720 44.814572 -0.056980 0.787856 0.060734 -0.022777 -184566.000000 0 0 1
33.122510 -1.631361 32.205932 46.227525 -0.049213 0.800033 0.053516 -0.023297 24759.100000 0 0 1
34.176710 -2.122561 31.395620 46.456838 -0.062026 0.828744 0.059395 -0.022122 -742625.000000 0 0 1
35.430910 -1.830061 31.898522 47.709687 -0.051606 0.838477 0.064792 -0.019728 -221639.000000 0 0 1
36.589410 -2.389561 31.004420 48.018424 -0.065215 0.868886 0.077435 -0.020641 204312.000000 0 0 1
36.762010 -1.748261 29.755070 47.327223 -0.047520 0.890904 0.077694 -0.010330 -435889.000000 0 0 1
-37.017882 -2.453361 29.049930 47.119433 0.066178 0.906485 0.082915 -0.012418 -418156.000000 0 0 1
-36.694782 -1.794261 27.706720 46.015092 0.048858 0.924640 0.086194 -0.012853 303683.000000 0 0 1
36.977610 -1.859061 26.792600 45.701676 -0.050233 0.944374 0.053038 -0.025525 198033.000000 0 0 1
-37.160882 -1.305761 25.597290 45.142634 0.035124 0.967899 0.084203 -0.021276 350135.000000 0 0 1
-27.519060 14.673739 11.761698 33.330989 -0.489870 1.210154 0.139208 -0.026200 137166.000000 0 0 1
-28.604670 13.925139 12.277298 34.100860 -0.453043 1.202497 0.105866 -0.011915 700356.000000 0 0 1
-29.620060 14.822039 12.766098 35.496677 -0.463972 1.202912 0.114665 -0.011528 293891.000000 0 0 1
-30.806150 14.118639 13.450098 36.459018 -0.429740 1.192960 0.114986 -0.011151 -283960.000000 0 0 1
-31.734710 15.034939 13.946698 37.784277 -0.442444 1.192741 0.117675 -0.015146 -397870.000000 0 0 1
-32.902850 14.353839 14.367498 38.665944 -0.411360 1.190086 0.137670 -0.022536 56090.400000 0 0 1
-33.855430 15.196339 15.208598 40.105116 -0.421905 1.181845 0.125928 -0.025950 131074.000000 0 0 1
-33.207430 15.476839 16.481598 40.173487 -0.436133 1.148057 0.110696 -0.023732 491988.000000 0 0 1
-34.078811 15.957139 17.503198 41.501296 -0.437920 1.135421 0.118423 -0.037162 146853.000000 0 0 1
-33.352440 16.274839 18.831198 41.615738 -0.453974 1.101227 0.141490 -0.032796 329417.000000 0 0 1
-32.647700 15.147039 19.361698 40.867841 -0.434398 1.077237 0.132392 -0.033053 241631.000000 0 0 1
-31.648600 15.369339 20.359198 40.649076 -0.452081 1.046213 0.114244 -0.030661 400441.000000 0 0 1
-32.074210 15.815939 21.766198 41.864857 -0.458116 1.024044 0.127691 -0.039444 -726673.000000 0 0 1
-32.668260 17.127739 21.760698 42.826425 -0.482893 1.037803 0.118357 -0.043520 433538.000000 0 0 1
-33.312300 17.471339 22.974898 44.077239 -0.483032 1.022491 0.118554 -0.048638 445776.000000 0 0 1
-34.485047 16.524739 23.549998 44.909775 -0.446858 1.018804 0.112679 -0.055978 794740.000000 0 0 1
-35.730070 16.534039 22.874898 45.533211 -0.433405 1.044449 0.135269 -0.048905 503338.000000 0 0 1
-36.541400 17.683639 23.074498 46.694940 -0.450713 1.053935 0.125320 -0.048986 96683.000000 0 0 1
36.662032 17.506539 22.841398 46.608079 0.445495 1.058622 0.112605 -0.047535 446276.000000 0 0 1
36.151592 16.746339 23.871198 46.445792 0.433798 1.031004 0.109725 -0.045983 -726894.000000 0 0 1
34.843442 16.308139 23.673898 45.171610 0.437755 1.019152 0.117347 -0.039872 -239521.000000 0 0 1
34.349622 15.256339 24.733598 44.993370 0.417977 0.988771 0.078361 -0.013272 -217404.000000 0 0 1
33.881082 15.918439 25.936798 45.541651 0.439224 0.964877 0.094468 -0.019471 142440.000000 0 0 1
33.791812 15.008439 27.004398 45.786214 0.417974 0.939994 0.082821 -0.014696 21477.500000 0 0 1
32.626702 14.006939 26.982098 44.595176 0.405515 0.920974 0.078315 -0.014059 -222122.000000 0 0 1
33.175012 12.743139 26.619798 44.402508 0.366741 0.927906 0.078005 -0.009489 -134719.000000 0 0 1
32.315212 11.713739 27.002498 43.710635 0.347753 0.904911 0.077577 -0.010026 -343804.000000 0 0 1
32.862962 10.271439 26.787798 43.624109 0.302934 0.909603 0.078423 -0.006474 1256160.000000 0 0 1
34.053092 9.941639 27.579098 44.933907 0.284051 0.909969 0.070488 -0.004933 1087800.000000 0 0 1
34.514922 8.664239 27.257698 44.825562 0.245947 0.917152 0.067553 -0.006159 279433.000000 0 0 1
35.551702 8.069939 28.251098 46.121275 0.223209 0.911527 0.065436 -0.007707 1262090.000000 0 0 1
36.879312 8.636439 28.252098 47.253072 0.230036 0.929931 0.078872 -0.011302 1008220.000000 0 0 1
-36.903260 7.719539 28.774698 47.428105 -0.206210 0.918892 0.085037 -0.015210 -9062.340000 0 0 1
-35.508789 8.327239 28.909398 46.539986 -0.230350 0.900557 0.092815 -0.022239 -172780.000000 0 0 1
-34.904789 8.753939 27.665798 45.391322 -0.245727 0.915372 0.081735 -0.017327 752079.000000 0 0 1
-33.606530 9.286139 27.989398 44.710599 -0.269593 0.894367 0.087456 -0.013061 987160.000000 0 0 1
-32.788200 9.926139 26.824698 43.510444 -0.293964 0.906492 0.097703 -0.020015 181493.000000 0 0 1
-32.224470 8.962939 25.928798 42.320838 -0.271284 0.911359 0.090942 -0.017845 161906.000000 0 0 1
-31.422880 9.643039 24.974898 41.281123 -0.297756 0.921036 0.082194 -0.016720 221690.000000 0 0 1
-30.495640 8.647139 24.210398 39.886093 -0.276301 0.918531 0.095551 -0.018517 17091.800000 0 0 1
-29.494300 9.268339 23.468898 38.815010 -0.304471 0.921489 0.092595 -0.024633 -504281.000000 0 0 1
-28.754700 8.386339 22.659398 37.558112 -0.283780 0.923144 0.073204 -0.016309 409074.000000 0 0 1
-27.679060 9.108439 21.786298 36.383194 -0.317912 0.928793 0.086117 -0.013173 -532393.000000 0 0 1
-26.538840 9.584039 22.470598 36.070648 -0.346558 0.898274 0.089471 -0.022312 476158.000000 0 0 1
-25.551020 10.197939 21.658598 35.013532 -0.379748 0.903865 0.077187 -0.008383 708182.000000 0 0 1
-24.798390 9.314239 20.564798 33.535446 -0.359295 0.910658 0.064664 -0.000659 -521254.000000 0 0 1
-25.602390 9.064439 19.418898 33.387723 -0.340275 0.950080 0.068959 -0.004160 401076.000000 0 0 1
-24.998590 8.261139 18.420198 32.132221 -0.319166 0.960314 0.065555 -0.008452 -226516.000000 0 0 1
-24.990690 6.720439 18.707198 31.932086 -0.262703 0.944876 0.059704 0.001137 -227385.000000 0 0 1
-24.077490 6.316239 19.727998 31.761837 -0.256549 0.900622 0.072679 0.003586 443775.000000 0 0 1
-24.014290 4.906739 20.062298 31.674248 -0.201552 0.884864 0.090457 -0.008116 -264280.000000 0 0 1
-23.781490 3.885339 18.962098 30.662946 -0.161946 0.904086 0.070996 -0.009780 260732.000000 0 0 1
-24.992390 3.653439 18.214498 31.140570 -0.145154 0.946025 0.084490 -0.012416 968225.000000 0 0 1
-24.956990 2.704639 17.127898 30.389658 -0.107951 0.972047 0.088727 -0.006489 -255200.000000 0 0 1
-24.771690 1.241539 17.525598 30.369798 -0.050077 0.955656 0.090318 -0.011456 -584626.000000 0 0 1
-23.465990 0.815639 17.816998 29.474792 -0.034744 0.921680 0.084287 -0.011144 183506.000000 0 0 1
-23.574990 -0.473761 18.378498 29.896050 0.020093 0.908732 0.091875 -0.017949 -624492.000000 0 0 1
-22.217590 -1.134661 18.563198 28.974145 0.051026 0.875411 0.089196 -0.004826 -138312.000000 0 0 1
-21.294490 -0.523461 19.492198 28.873432 0.024577 0.829708 0.086492 -0.010051 -67612.600000 0 0 1
-20.270690 -1.421461 19.716698 28.313771 0.070009 0.800477 0.094184 -0.009319 -451475.000000 0 0 1
-19.265690 -0.993561 20.815098 28.379963 0.051526 0.747422 0.116316 -0.017345 282575.000000 0 0 1
-19.833690 -0.943161 22.107498 29.715422 0.047518 0.731798 0.117198 -0.025620 -411819.000000 0 0 1
-18.852090 -0.698161 23.075898 29.805801 0.037017 0.685333 0.108185 -0.023202 -539449.000000 0 0 1
-19.368890 -0.612761 24.546498 31.273950 0.031626 0.668284 0.113568 -0.019289 336929.000000 0 0 1
-20.181090 0.480139 24.935998 32.082876 -0.023787 0.680534 0.105788 -0.031185 657843.000000 0 0 1
-21.584290 0.320939 24.684398 32.791830 -0.014868 0.718551 0.110057 -0.035377 471553.000000 0 0 1
-22.510390 1.223739 25.527198 34.056615 -0.054310 0.723412 0.105447 -0.040061 -207400.000000 0 0 1
-22.388890 2.558939 25.139098 33.760699 -0.113801 0.730822 0.098332 -0.035408 1144330.000000 0 0 1
-23.592790 2.987139 24.462098 34.116521 -0.125942 0.771284 0.102648 -0.035221 186403.000000 0 0 1
-23.148690 4.031939 23.447798 33.195144 -0.172446 0.786450 0.101938 -0.030328 97663.800000 0 0 1
-22.471090 3.481439 22.345598 31.880967 -0.153708 0.794128 0.100169 -0.022729 322374.000000 0 0 1
-21.085190 3.256139 22.518898 31.020774 -0.153217 0.758411 0.103670 -0.021284 -350453.000000 0 0 1
-20.367690 2.596439 21.293698 29.580498 -0.126794 0.767202 0.108234 -0.023689 65736.600000 0 0 1
-19.945390 3.411439 20.188098 28.583488 -0.169400 0.786559 0.091149 -0.012982 514267.000000 0 0 1
-19.411890 2.497539 19.193898 27.412860 -0.127957 0.795149 0.109231 -0.022363 230306.000000 0 0 1
-19.049590 3.204139 17.818898 26.280535 -0.166640 0.825722 0.092017 -0.013343 -90406.300000 0 0 1
-17.793790 3.835639 17.886798 25.519965 -0.212312 0.794146 0.109863 -0.023132 -39278.400000 0 0 1
-17.525190 4.374539 16.615498 24.542690 -0.244616 0.827112 0.111480 -0.023026 567034.000000 0 1 0
-16.057490 4.903339 16.414798 23.480445 -0.296368 0.796681 0.119374 -0.020255 440479.000000 0 1 0
-15.736190 6.018739 17.181998 24.063956 -0.365310 0.775582 0.116309 -0.027142 106837.000000 0 1 0
-16.330390 7.310739 16.894098 24.607704 -0.420920 0.814081 0.119361 -0.029896 -217042.000000 0 1 0
-15.994890 8.021239 15.541098 23.700264 -0.464837 0.855640 0.080365 -0.032562 10271.700000 0 1 0
-16.334390 7.344439 14.370198 22.962049 -0.422547 0.894609 0.129087 -0.036544 1115800.000000 0 1 0
-17.740390 7.334339 14.041698 23.784097 -0.392027 0.939264 0.093724 -0.040787 883705.000000 0 1 0
-18.104890 6.367239 12.821698 23.080830 -0.338176 0.981817 0.099891 -0.042854 -69402.600000 0 1 0
-17.751390 5.067939 13.118498 22.647093 -0.278097 0.952979 0.097504 -0.033799 187953.000000 0 1 0
-18.111290 4.128839 12.127198 22.184117 -0.224140 0.992425 0.082323 -0.047178 337877.000000 0 1 0
-17.683490 2.685139 12.637998 21.900566 -0.150693 0.955669 0.080239 -0.016392 -414795.000000 0 1 0
-18.534790 2.367239 13.686598 23.161719 -0.127031 0.938604 0.090876 -0.027374 57558.800000 0 1 0
-18.387490 1.043139 14.225698 23.271408 -0.056670 0.913100 0.089141 -0.011408 -709853.000000 0 1 0
-19.618190 0.644339 15.026998 24.720421 -0.032832 0.917411 0.123790 -0.015290 -1277810.000000 0 1 0
-20.673890 0.408539 14.182098 25.074061 -0.019759 0.969626 0.125146 -0.017470 -1019370.000000 0 0 1
-21.839290 0.269339 14.958598 26.472378 -0.012332 0.970285 0.115964 -0.019694 22512.700000 0 0 1
-23.106390 -0.123261 14.131898 27.085623 0.005334 1.021896 0.114241 -0.016309 82026.600000 0 0 1
-22.970490 -1.427561 13.544998 26.704837 0.062068 1.038850 0.124821 -0.026498 13884.500000 0 0 1
-23.839090 -1.706561 12.493798 26.968677 0.071465 1.089114 0.128543 -0.021991 -488942.000000 0 0 1
-23.445690 -2.982361 11.853598 26.440549 0.126523 1.105921 0.130521 -0.033345 -302853.000000 0 0 1
-23.563290 -4.108061 12.674298 27.069219 0.172607 1.083523 0.111441 -0.024857 231330.000000 0 0 1
-23.502390 -5.237561 11.841298 26.833015 0.219269 1.113754 0.118368 -0.029447 -61847.800000 0 0 1
-23.518190 -6.606161 12.575398 27.475211 0.273839 1.095390 0.115155 -0.022382 622481.000000 0 0 1
-24.771390 -6.864761 13.221998 28.906192 0.270340 1.095715 0.120996 -0.023277 801544.000000 0 0 1
-24.995790 -8.247461 13.453998 29.560449 0.318706 1.098272 0.127459 -0.033243 36241.900000 0 0 1
-25.920930 -8.476861 14.686698 30.975004 0.316065 1.076802 0.128558 -0.016750 349341.000000 0 0 1
-27.202830 -7.889461 14.480798 31.810864 0.282279 1.098182 0.152521 -0.027851 202451.000000 0 0 1
-27.966730 -8.215061 15.632098 33.075485 0.285708 1.078536 0.135546 -0.019690 -361038.000000 0 0 1
-29.358650 -7.496361 15.694398 34.123890 0.249996 1.092887 0.145881 -0.030470 724245.000000 0 0 1
-30.417870 -7.862861 14.811998 34.734229 0.252958 1.130245 0.132344 -0.028089 831272.000000 0 0 1
-30.798680 -9.201461 14.683798 35.338923 0.290320 1.142289 0.134436 -0.034886 -512607.000000 0 0 1
-31.228450 -10.051861 15.934798 36.471547 0.311409 1.118635 0.123183 -0.027415 -111469.000000 0 0 1
-30.058420 -10.457261 16.620598 35.904139 0.334801 1.089514 0.122735 -0.015810 512035.000000 0 0 1
-30.398640 -11.241861 17.713098 36.935221 0.354217 1.070629 0.107567 -0.000990 114408.000000 0 0 1
-29.154810 -11.428461 18.614498 36.429551 0.373584 1.034481 0.109603 0.007399 -213526.000000 0 0 1
-28.183470 -12.254761 18.070698 35.651609 0.410160 1.039247 0.097856 -0.003768 -1150590.000000 0 0 1
-26.996400 -12.016361 18.729498 34.985606 0.418780 1.005876 0.086180 -0.005590 -1274560.000000 0 0 1
-25.830380 -12.849461 18.239098 34.131831 0.461610 1.007032 0.079699 -0.001831 56916.800000 0 0 1
-25.045650 -12.429461 17.076498 32.762522 0.460661 1.022516 0.076499 -0.004440 616781.000000 0 0 1
-24.206290 -13.427361 16.584698 32.269036 0.506449 1.031012 0.076119 -0.018718 -221557.000000 0 0 1
-23.843390 -13.226061 15.152798 31.193640 0.506449 1.063557 0.092446 -0.030592 12899.100000 0 0 1
-23.032490 -12.072961 14.926298 29.984101 0.482797 1.049728 0.082783 -0.029575 119606.000000 0 0 1
-22.502890 -12.001861 13.632898 28.918517 0.489968 1.079891 0.101825 -0.029464 425667.000000 0 0 1
-21.156390 -11.231161 13.488598 27.489527 0.488033 1.057925 0.088573 -0.038819 -224891.000000 0 0 1
-21.274890 -9.755361 13.507498 27.022962 0.429932 1.047368 0.089037 -0.034936 232038.000000 0 0 1
-20.096090 -9.014561 13.226898 25.691749 0.421666 1.029986 0.090159 -0.037808 -375236.000000 0 0 1
-19.548190 -9.065861 11.775998 24.555970 0.434246 1.070646 0.098167 -0.034993 -615634.000000 0 1 0
-18.719690 -10.171961 11.550498 24.234471 0.497749 1.073997 0.084427 -0.043053 199355.000000 0 1 0
-18.410690 -10.204161 10.156198 23.371494 0.506102 1.121252 0.085289 -0.036692 -716794.000000 0 1 0
-17.766090 -11.505061 9.766998 23.310826 0.574676 1.138464 0.051823 -0.025319 182418.000000 0 1 0
-16.357290 -11.629761 9.837798 22.351611 0.618059 1.115044 0.061312 -0.032565 649610.000000 0 1 0
-15.806590 -11.731561 11.188398 22.641953 0.638487 1.053946 0.072324 -0.027775 -690203.000000 0 1 0
-14.330990 -12.121561 11.122998 21.818125 0.702067 1.035838 0.070854 -0.023303 -449939.000000 0 1 0
-14.180390 -13.473461 10.796098 22.342187 0.759840 1.066472 0.072622 -0.029175 707202.000000 0 1 0
-12.840090 -13.944161 10.967598 21.899674 0.826596 1.046261 0.077595 -0.014663 524516.000000 0 1 0
-12.711990 -15.442961 10.663498 22.666934 0.882094 1.081004 0.095441 -0.019135 -130087.000000 0 1 0
-12.885090 -15.846261 9.371698 22.471276 0.888100 1.140597 0.073388 -0.025570 244177.000000 0 1 0
-12.934890 -17.273761 9.337398 23.513426 0.928053 1.162431 0.069941 -0.020006 -64702.300000 0 1 0
-13.342290 -17.884861 7.994698 23.702323 0.929854 1.226753 0.063621 -0.021428 -482045.000000 0 1 0
-12.373590 -17.852861 6.962598 22.810264 0.964725 1.260606 0.064269 -0.020832 43052.300000 0 1 0
-12.810690 -18.674761 5.925698 23.408852 0.969535 1.314873 0.053748 -0.013248 -19505.100000 0 1 0
-11.784190 -18.614461 4.765998 22.540630 1.006417 1.357748 0.051369 -0.008156 -32806.300000 0 1 0
-12.192790 -19.250761 3.591698 23.068511 1.006203 1.414463 0.068706 -0.015956 465703.000000 0 1 0
-11.371890 -18.893761 2.449198 22.187668 1.028991 1.460185 0.090249 -0.033947 464841.000000 0 1 0
-11.498790 -19.912961 1.275598 23.029879 1.047121 1.515379 0.089760 -0.026684 -3774.280000 0 1 0
-11.228990 -21.285561 1.567798 24.116867 1.085360 1.505742 0.079345 -0.030466 -114004.000000 0 1 0
-11.782890 -22.170661 0.566398 25.113651 1.082296 1.548241 0.086707 -0.025453 -73049.300000 0 0 1
-10.898890 -22.477561 -0.652002 24.989030 1.119319 1.596891 0.095407 -0.015915 -135131.000000 0 1 0
-10.790890 -21.400161 -1.543802 24.016525 1.103760 1.635121 0.093118 -0.031479 703049.000000 0 1 0
-11.831990 -21.249661 -2.552002 24.455199 1.062741 1.675341 0.106538 -0.026203 596870.000000 0 1 0
-12.860790 -20.153661 -2.348102 24.022563 1.002806 1.668698 0.106979 -0.028097 280916.000000 0 1 0
-13.814090 -20.327361 -1.288302 24.610778 0.973906 1.623167 0.107266 -0.025696 634268.000000 0 1 0
-14.606390 -19.178461 -1.013502 24.128555 0.919910 1.612813 0.104211 -0.026516 328503.000000 0 1 0
27.040110 -20.093761 -3.965502 33.921262 -0.639077 1.687967 0.107051 -0.034448 256701.000000 0 0 1
25.742110 -19.996361 -3.392902 32.772282 -0.660431 1.674512 0.108107 -0.032352 435011.000000 0 0 1
25.611010 -20.980561 -2.381702 33.193076 -0.686340 1.642611 0.088306 -0.033648 104543.000000 0 0 1
24.182910 -21.144261 -1.795002 32.173202 -0.718460 1.626617 0.081460 -0.034375 171296.000000 0 0 1
23.231010 -21.622761 -2.715602 31.852757 -0.749558 1.656155 0.097599 -0.037691 187797.000000 0 0 1
22.053910 -22.008561 -2.009902 31.221650 -0.784369 1.635216 0.070003 -0.026558 137010.000000 0 0 1
21.093110 -22.890561 -2.802502 31.253017 -0.826242 1.660588 0.081931 -0.035197 -122063.000000 0 0 1
20.286510 -22.183961 -3.714902 30.289785 -0.830045 1.693751 0.087586 -0.041654 89157.100000 0 0 1
19.306510 -23.018061 -4.341802 30.354962 -0.872867 1.714323 0.089720 -0.040499 765459.000000 0 0 1
18.389810 -22.158561 -5.328002 29.284374 -0.878076 1.753755 0.073818 -0.014352 1278120.000000 0 0 1
17.269410 -21.407661 -4.758902 27.913574 -0.891988 1.742120 0.072333 -0.011489 1278800.000000 0 0 1
17.717410 -20.316361 -3.983602 27.249408 -0.853625 1.717513 0.060277 -0.020440 212405.000000 0 0 1
16.668410 -19.783861 -2.927602 26.034744 -0.870658 1.683484 0.065997 -0.007500 398937.000000 0 0 1
16.257710 -20.702261 -1.956702 26.395557 -0.905077 1.644994 0.065909 -0.014601 172519.000000 0 0 1
15.419210 -19.987061 -1.054702 25.265531 -0.913702 1.612553 0.074113 -0.005095 -148147.000000 0 0 1
15.050710 -20.793861 0.203098 25.670017 -0.944272 1.562884 0.065693 -0.012581 287879.000000 0 0 1
14.079110 -21.843261 0.079598 25.987607 -0.998261 1.567733 0.066433 -0.018669 168483.000000 0 0 1
13.471310 -22.097261 1.320798 25.913503 -1.023321 1.519805 0.068153 -0.019213 32755.300000 0 0 1
12.586210 -23.377561 1.359798 26.585185 -1.076912 1.519625 0.074480 -0.023683 -58609.400000 0 0 1
13.252510 -24.546161 1.636698 27.943189 -1.075739 1.512190 0.068514 -0.021054 -369500.000000 0 0 1
12.522910 -25.624601 1.153298 28.544238 -1.116224 1.530381 0.062243 -0.020065 -289821.000000 0 0 1
12.927610 -26.947511 1.782798 29.941106 -1.123493 1.511218 0.071193 -0.024649 -38907.300000 0 0 1
12.465510 -27.144761 3.096898 30.030281 -1.140299 1.467487 0.091097 -0.031682 48229.600000 0 0 1
12.817110 -28.387301 3.659898 31.360995 -1.146689 1.453828 0.092487 -0.033561 28092.600000 0 0 1
12.132210 -28.566181 5.067398 31.446712 -1.169175 1.408948 0.096824 -0.030880 113115.000000 0 0 1
12.673610 -29.600061 5.858198 32.727702 -1.166251 1.390828 0.088796 -0.036496 17634.500000 0 0 1
12.179210 -29.630161 7.223198 32.839826 -1.180808 1.349031 0.076024 -0.036247 -106021.000000 0 0 1
12.871010 -30.731641 7.987598 34.262200 -1.174172 1.335500 0.072139 -0.028086 70706.200000 0 0 1
12.392710 -31.049621 9.318098 34.705694 -1.191044 1.298972 0.065087 -0.022034 -523357.000000 0 0 1
11.434310 -32.030851 9.475698 35.305916 -1.227919 1.299077 0.062811 -0.018183 -338847.000000 0 0 1
11.344810 -32.385071 10.954598 36.020838 -1.233845 1.261783 0.066457 -0.018076 -932739.000000 0 0 1
12.416810 -33.081211 11.449598 37.143465 -1.211725 1.257440 0.057833 -0.023849 -767132.000000 0 0 1
12.350010 -33.298581 12.840198 37.764916 -1.215636 1.223876 0.059732 -0.020160 -313842.000000 0 0 1
11.369010 33.441525 13.309898 37.745773 1.243088 1.210427 0.056290 -0.019489 -210475.000000 0 0 1
11.649210 32.154778 12.768898 36.505871 1.223219 1.213464 0.061571 -0.022421 -681910.000000 0 0 1
10.593510 31.286473 12.906098 35.463125 1.244316 1.198312 0.059291 -0.010941 -741221.000000 0 0 1
10.661410 30.111743 11.920598 34.095211 1.230508 1.213624 0.066597 -0.013768 -258024.000000 0 0 1
10.520210 30.377163 10.527898 33.827259 1.237404 1.254314 0.077851 -0.016791 -223632.000000 0 0 1
11.325710 31.313503 9.856598 34.726930 1.223747 1.283009 0.047137 -0.011324 -16250.600000 0 0 1
10.608410 31.653683 8.524998 34.455328 1.247421 1.320778 0.041740 -0.012537 -97376.400000 0 0 1
9.437610 32.385645 8.719298 34.841421 1.287236 1.317851 0.045315 -0.011119 -722977.000000 0 0 1
8.770310 32.680283 7.497098 34.657260 1.308607 1.352752 0.040502 -0.013463 -114451.000000 0 0 1
9.250210 33.897983 6.691098 35.768847 1.304399 1.382623 0.059975 -0.012777 -282978.000000 0 0 1
8.812110 -32.685081 7.209998 34.611441 -1.307451 1.360947 0.058690 -0.013085 -141349.000000 0 0 1
8.957110 -31.609591 6.303398 33.453384 -1.294668 1.381240 0.079221 -0.028313 -214809.000000 0 0 1
8.141310 -30.391651 6.723698 32.173615 -1.309062 1.360263 0.068486 -0.021996 -93771.600000 0 0 1
8.514910 -29.845791 8.032298 32.059207 -1.292883 1.317552 0.076286 -0.024544 -113484.000000 0 0 1
7.977510 -28.589281 8.299598 30.819977 -1.298679 1.298138 0.084059 -0.019312 -211160.000000 0 0 1
8.755710 -27.384711 7.724498 29.769997 -1.261338 1.308320 0.112612 -0.030222 353531.000000 0 0 1
9.899510 -26.920471 8.468998 29.907122 -1.218413 1.283692 0.109867 -0.032137 940860.000000 0 0 1
10.784710 -26.001081 7.811898 29.212873 -1.177614 1.300089 0.096044 -0.038639 440159.000000 0 0 1
10.125610 -24.797061 7.015098 27.688153 -1.183122 1.314643 0.100736 -0.035824 -501401.000000 0 0 1
9.711410 -25.239831 5.712798 27.640488 -1.203492 1.362614 0.108557 -0.037811 -204975.000000 0 0 1
8.998310 -24.349461 4.899398 26.417228 -1.216813 1.384254 0.093116 -0.031006 51968.100000 0 0 1
8.488810 -24.817861 3.566898 26.470906 -1.241226 1.435637 0.091390 -0.026912 908571.000000 0 0 1
7.440910 -25.820021 3.635998 27.115698 -1.290215 1.436299 0.069297 -0.029100 373215.000000 0 0 1
7.938410 -27.119581 3.950198 28.532334 -1.286033 1.431904 0.070784 -0.025670 -73239.200000 0 0 1
6.990910 -28.299211 3.678098 29.381058 -1.328610 1.445281 0.075009 -0.022734 335536.000000 0 0 1
5.762110 -28.315321 4.412498 29.230625 -1.370040 1.419262 0.063686 -0.013732 595329.000000 0 0 1
4.801310 -29.292311 3.978698 29.948657 -1.408331 1.437552 0.057192 -0.008777 516126.000000 0 0 1
5.074010 -30.807771 4.245998 31.510202 -1.407563 1.435635 0.054505 -0.008644 -291811.000000 0 0 1
6.184710 -31.250921 3.472398 32.045721 -1.375416 1.462226 0.060664 -0.009935 71815.700000 0 0 1
6.388110 -32.653931 3.728698 33.481194 -1.377606 1.459198 0.048713 -0.010993 143276.000000 0 0 1
7.484410 -33.328631 2.863398 34.278464 -1.349897 1.487165 0.059254 -0.013979 121077.000000 0 0 1
7.032310 -33.686491 1.559998 34.448028 -1.364994 1.525495 0.058090 -0.018548 -669030.000000 0 0 1
7.936010 33.299947 0.925998 34.245061 1.336841 1.543753 0.052952 -0.016347 -892215.000000 0 0 1
7.487010 32.887645 -0.526902 33.733220 1.346957 1.586417 0.073873 -0.016168 763519.000000 0 0 1
6.394110 31.969040 -0.651202 32.608714 1.373392 1.590768 0.047788 -0.008555 398157.000000 0 0 1
5.103010 32.442853 -0.314502 32.843238 1.414782 1.580372 0.053160 -0.018420 56096.200000 0 0 1
4.082310 31.297953 -0.046102 31.563099 1.441095 1.572257 0.054117 -0.016160 -252250.000000 0 0 1
3.891410 30.474973 -1.203902 30.745998 1.443792 1.609963 0.066959 -0.013255 521649.000000 0 0 1
2.968610 29.384063 -0.966502 29.549449 1.470110 1.603510 0.073325 -0.025021 472903.000000 0 0 1
2.796410 28.448373 -2.147802 28.666058 1.472813 1.645792 0.074871 -0.015743 -23274.600000 0 0 1
2.193410 29.031653 -3.276102 29.298136 1.495387 1.682850 0.085300 -0.028104 13384.300000 0 0 1
2.245710 28.132203 -4.393802 28.561679 1.491138 1.725245 0.082731 -0.037342 -169638.000000 0 0 1
1.899110 28.960213 -5.685502 29.574067 1.505314 1.764247 0.088049 -0.038728 -956197.000000 0 0 1
0.565810 29.278483 -5.830902 29.858819 1.551474 1.767342 0.103380 -0.037310 -961769.000000 0 0 1
0.335010 30.339743 -6.741302 31.081463 1.559755 1.789425 0.093511 -0.034080 -194134.000000 0 0 1
0.340310 29.855373 -8.208302 30.965066 1.559398 1.839086 0.097903 -0.037440 -44650.700000 0 0 1
-0.866390 29.178933 -8.570402 30.423881 -1.541113 1.856362 0.107128 -0.038204 470240.000000 0 0 1
-0.953690 28.758723 -9.961702 30.450109 -1.537647 1.904081 0.104457 -0.038920 -121243.000000 0 0 1
-1.015090 29.873253 -11.085702 31.880000 -1.536830 1.925948 0.090032 -0.039489 649280.000000 0 0 1
0.208310 30.599343 -11.364102 32.642089 1.563989 1.926385 0.083114 -0.031935 652740.000000 0 0 1
-0.036990 31.913417 -11.789802 34.021566 -1.569637 1.924675 0.079397 -0.038163 114176.000000 0 0 1
-0.446690 32.839014 -10.591702 34.507746 -1.557195 1.882769 0.078219 -0.042019 469448.000000 0 0 1
0.655210 33.149022 -9.733002 34.554569 1.551033 1.856331 0.076855 -0.049098 275732.000000 0 0 1
0.298610 -33.841481 -8.637802 34.927734 -1.561973 1.820694 0.077757 -0.042846 -533779.000000 0 0 1
1.440610 -33.611201 -7.646902 34.500192 -1.527962 1.794301 0.074552 -0.037673 -25876.800000 0 0 1
2.394110 -32.686391 -8.133802 33.768189 -1.497682 1.814060 0.085928 -0.040146 77315.700000 0 0 1
3.379110 -32.313821 -7.166402 33.270989 -1.466603 1.787893 0.087166 -0.035614 523366.000000 0 0 1
4.631210 -31.594671 -7.838102 32.880194 -1.425251 1.811498 0.055720 -0.032104 1549040.000000 0 0 1
5.604310 -32.443501 -8.510002 34.006016 -1.399744 1.823735 0.074888 -0.034883 1013610.000000 0 0 1
6.367510 -33.271351 -7.603802 34.718090 -1.381702 1.791602 0.078794 -0.023245 -632736.000000 0 0 1
6.838510 33.243341 -8.407102 34.965187 1.367916 1.813618 0.069236 -0.018186 585810.000000 0 0 1
5.784910 32.277382 -8.687602 33.922986 1.393454 1.829780 0.057069 -0.021937 847189.000000 0 0 1
4.780310 32.729028 -9.621102 34.447151 1.425765 1.853862 0.073311 -0.027719 582091.000000 0 0 1
3.702710 31.648753 -9.806502 33.339482 1.454332 1.869353 0.071048 -0.038799 199855.000000 0 0 1
4.323910 30.597663 -10.567102 32.658487 1.430411 1.900290 0.049059 -0.022759 165158.000000 0 0 1
3.525410 29.453123 -10.707302 31.536665 1.451667 1.917202 0.044979 -0.033290 227404.000000 0 0 1
4.236110 28.488723 -11.699402 31.087424 1.423184 1.956638 0.037603 -0.026013 249098.000000 0 0 1
4.274810 28.947333 -13.024202 32.028923 1.424181 1.989568 0.045982 -0.020464 254654.000000 0 0 1
5.185010 28.151063 -13.793002 31.774417 1.388652 2.019826 0.040962 -0.028627 277452.000000 0 0 1
5.285810 28.596533 -15.282002 32.851804 1.388018 2.054634 0.053295 -0.025409 74426.400000 0 0 1
4.097010 28.253783 -15.965102 32.710032 1.426793 2.080685 0.051833 -0.023403 15694.000000 0 0 1
4.026610 28.982923 -17.171502 33.927627 1.432750 2.101478 0.099546 -0.022741 391369.000000 0 0 1
2.822310 28.397233 -17.971302 33.724412 1.471735 2.132805 0.097898 -0.033599 379699.000000 0 0 1
3.055910 27.051853 -18.319102 32.813576 1.458308 2.163105 0.120260 -0.021272 896610.000000 0 0 1
1.992210 26.511643 -19.162502 32.772512 1.495793 2.195322 0.112765 -0.037712 805811.000000 0 0 1
2.536410 25.389773 -20.039802 32.444839 1.471228 2.236557 0.132684 -0.041481 54937.800000 0 0 1
2.842110 24.265103 -19.282202 31.123562 1.454200 2.238949 0.130417 -0.047966 -73647.600000 0 0 1
3.842110 23.531773 -19.960302 31.095334 1.408951 2.267779 0.138758 -0.039428 268312.000000 0 0 1
4.512610 22.451623 -19.022402 29.770636 1.372447 2.263949 0.130297 -0.033680 293252.000000 0 0 1
3.774910 21.260023 -18.877302 28.680848 1.395069 2.289202 0.132157 -0.028114 -16048.600000 0 0 1
4.529510 20.308023 -18.162502 27.618992 1.351348 2.288437 0.105255 -0.018213 273301.000000 0 0 1
3.618810 19.145623 -17.752902 26.359366 1.383985 2.309723 0.097727 -0.026565 132427.000000 0 0 1
2.728110 19.376123 -16.672302 25.706854 1.430918 2.276480 0.096066 -0.027928 463395.000000 0 0 1
1.822310 18.241023 -16.549802 24.697199 1.471225 2.305151 0.080976 -0.016588 767956.000000 0 1 0
2.410610 17.044823 -15.673302 23.280666 1.430300 2.309368 0.057357 -0.007545 1035910.000000 0 1 0
3.537010 16.289323 -16.179802 23.230120 1.356979 2.341306 0.063810 -0.018180 402049.000000 0 1 0
3.139710 15.307323 -17.092402 23.158629 1.368491 2.400983 0.075477 -0.020447 -73326.900000 0 1 0
3.174310 15.568323 -18.547902 24.422808 1.369658 2.433264 0.081081 -0.024197 -843906.000000 0 1 0
4.469310 15.753623 -19.019402 25.097589 1.294359 2.430758 0.086055 -0.025603 -753042.000000 0 0 1
4.436210 16.196023 -20.367802 26.397698 1.303446 2.452110 0.097202 -0.033552 -489242.000000 0 0 1
4.684610 15.018523 -21.364702 26.532095 1.268438 2.506876 0.100090 -0.039921 131325.000000 0 0 1
3.672510 14.036023 -21.558302 25.985720 1.314884 2.549225 0.082330 -0.038050 81454.200000 0 0 1
2.460810 14.556523 -22.091802 26.570578 1.403328 2.552488 0.087408 -0.042545 -171203.000000 0 0 1
1.616010 13.437823 -22.698102 26.427077 1.451113 2.603906 0.092469 -0.033653 -256789.000000 0 0 1
1.060310 12.544123 -21.798602 25.172570 1.486470 2.617876 0.092247 -0.026673 40541.200000 0 0 1
0.227510 11.550823 -22.401402 25.205080 1.551102 2.665441 0.069760 -0.019684 337287.000000 0 0 1
-0.383390 10.572023 -21.340302 23.818546 -1.534548 2.681369 0.047210 -0.019638 137277.000000 0 1 0
-1.346390 11.233523 -20.479602 23.396984 -1.451511 2.636872 0.048892 -0.015901 266574.000000 0 1 0
-1.888790 10.455023 -19.478702 22.187718 -1.392066 2.642265 0.033534 -0.011489 189956.000000 0 1 0
-3.053190 9.514523 -19.866802 22.238208 -1.260279 2.675572 0.031763 -0.014450 -42217.500000 0 1 0
-2.588290 8.356323 -20.616302 22.395519 -1.270428 2.740295 0.035351 -0.014310 -554916.000000 0 1 0
-3.630490 7.451623 -20.696002 22.294206 -1.117435 2.760646 0.037590 -0.009752 -636829.000000 0 1 0
-3.301490 6.190523 -21.473502 22.590566 -1.080854 2.825804 0.040780 -0.016716 -32484.900000 0 1 0
-2.400490 5.303423 -20.832702 21.630767 -1.145757 2.869108 0.041076 -0.013908 143704.000000 0 1 0
-2.235890 4.159323 -21.676102 22.184511 -1.077553 2.927091 0.045866 -0.010990 -352170.000000 0 1 0
-1.377590 3.143623 -20.937902 21.217348 -1.157784 2.979114 0.039593 -0.009803 266673.000000 0 1 0
-0.003790 3.479123 -20.751302 21.040932 -1.569707 2.975479 0.045471 -0.013392 286318.000000 0 1 0
0.657210 2.447123 -20.029102 20.188741 1.308423 3.015753 0.044132 -0.010330 2002900.000000 0 1 0
2.244110 2.331923 -20.192502 20.450208 0.804585 2.982670 0.046189 -0.009710 1827930.000000 0 1 0
2.826010 1.826223 -21.364402 21.627739 0.573713 2.985383 0.062964 -0.010003 268216.000000 0 1 0
4.227310 1.632823 -21.198602 21.677568 0.368602 2.930989 0.073431 -0.012709 304104.000000 0 1 0
4.828910 0.721523 -22.280102 22.808812 0.148320 2.925860 0.075101 -0.021312 405259.000000 0 1 0
6.254010 0.766823 -22.148202 23.027017 0.122004 2.864429 0.080760 -0.024378 75427.500000 0 1 0
6.795010 0.504023 -23.408402 24.379899 0.074040 2.858341 0.080092 -0.022246 1563260.000000 0 1 0
8.387210 0.378323 -23.283602 24.751051 0.045077 2.795518 0.075252 -0.032793 2043060.000000 0 1 0
9.188310 1.567323 -23.104102 24.913471 0.168952 2.758128 0.084682 -0.048189 844511.000000 0 1 0
10.549810 1.173023 -22.899402 25.239990 0.110734 2.707535 0.098259 -0.044508 445036.000000 0 0 1
13.406910 -20.006961 22.781710 33.151622 -0.980412 0.813172 0.092410 -0.021179 -411886.000000 0 0 1
12.668910 -21.216961 22.803660 33.625401 -1.032503 0.825530 0.077077 -0.015790 1189690.000000 0 0 1
11.319310 -21.056861 22.266150 32.669552 -1.077555 0.820909 0.074540 -0.015863 1116120.000000 0 0 1
11.183510 -20.887361 20.695850 31.459036 -1.079216 0.852814 0.104385 -0.027728 -676089.000000 0 0 1
11.543310 -19.623561 20.205050 30.439714 -1.039071 0.844945 0.128267 -0.030362 -92832.400000 0 0 1
11.317110 -19.518761 18.844550 29.396872 -1.045357 0.874945 0.123594 -0.026938 680.285000 0 0 1
11.900810 -18.239061 18.196050 28.379374 -0.992672 0.874772 0.126551 -0.030831 119623.000000 0 0 1
11.199410 -17.133161 18.745250 27.755295 -0.991846 0.829322 0.138563 -0.037880 78433.600000 0 0 1
11.202110 -15.930661 18.021150 26.533659 -0.957940 0.824150 0.145195 -0.033461 -524751.000000 0 0 1
10.099710 -15.001861 18.442450 25.829904 -0.978263 0.775607 0.139248 -0.030662 -631586.000000 0 0 1
8.814710 -15.315061 17.984450 25.212906 -1.048543 0.776596 0.115009 -0.026502 -658997.000000 0 0 1
7.809810 -14.618561 18.656750 24.955356 -1.080134 0.726348 0.090823 -0.016190 -58399.700000 0 1 0
6.384310 -15.041761 18.263850 24.506779 -1.169401 0.729876 0.045529 -0.006017 -150872.000000 0 1 0
5.978510 -14.802861 16.911050 23.256201 -1.186954 0.756616 0.034252 -0.014068 28387.900000 0 1 0
4.618710 -15.082861 16.665450 22.946947 -1.273641 0.757931 0.013901 -0.012430 -29531.900000 0 1 0
4.048210 -16.508061 16.573650 23.740049 -1.330316 0.798013 0.001804 -0.007065 202715.000000 0 1 0
2.635010 -16.504361 16.407350 23.420895 -1.412477 0.794638 0.014584 -0.003360 321233.000000 0 1 0
2.051410 -17.812061 16.520850 24.380654 -1.456132 0.826273 0.025292 -0.007686 -201964.000000 0 1 0
0.573410 -17.816861 16.173650 24.069821 -1.538624 0.833961 0.037079 0.000946 -513009.000000 0 1 0
0.189710 -17.564761 14.818650 22.981497 -1.559996 0.870024 0.045206 -0.002449 -88403.200000 0 1 0
-1.205190 -17.744161 14.690150 23.067471 1.502980 0.880411 0.046725 0.003563 -209345.000000 0 1 0
-1.613090 -18.018561 13.252850 22.425624 1.481511 0.938537 0.045563 -0.011055 331389.000000 0 1 0
-2.993490 -18.353461 13.095650 22.744374 1.409118 0.957244 0.044990 -0.014497 540061.000000 0 1 0
-3.210490 -19.579661 12.436350 23.416514 1.408272 1.010906 0.060016 -0.023001 -532559.000000 0 1 0
-4.662490 -20.023661 12.354750 23.985947 1.342024 1.029692 0.055423 -0.022957 -383640.000000 0 1 0
-5.217390 -20.500961 13.558150 25.126360 1.321592 1.000836 0.052622 -0.026275 820738.000000 0 0 1
-6.563590 -20.953261 13.307750 25.675203 1.267229 1.025921 0.054210 -0.027726 806779.000000 0 0 1
-7.293490 -21.663561 14.499750 27.069311 1.246045 1.005516 0.077394 -0.030193 234921.000000 0 0 1
-8.680190 -21.415861 14.418150 27.237251 1.185716 1.012957 0.075656 -0.025578 -215558.000000 0 0 1
-9.453190 -22.216761 15.272050 28.568912 1.168504 1.006799 0.078609 -0.025890 112169.000000 0 0 1
-10.924090 -21.778261 15.395150 28.820809 1.105865 1.007273 0.092157 -0.027903 38806.400000 0 0 1
-11.034790 -20.502361 15.967350 28.232422 1.077042 0.969675 0.090859 -0.028593 -327639.000000 0 0 1
-12.362490 -20.044161 15.873850 28.400328 1.018142 0.977699 0.068484 -0.020175 36154.800000 0 0 1
-12.610190 -18.860561 16.857950 28.265316 0.981456 0.931765 0.078699 -0.020165 -307279.000000 0 0 1
-12.756590 -19.296661 18.189850 29.427238 0.986673 0.904435 0.073378 -0.021164 63887.200000 0 0 1
-13.293690 -18.227661 19.004750 29.498310 0.940666 0.870734 0.077667 -0.027255 -42231.200000 0 0 1
-13.727890 -18.721961 20.353850 30.874682 0.938101 0.850988 0.062130 -0.028490 -252465.000000 0 0 1
-14.967390 -19.376261 20.244550 31.769546 0.913075 0.879896 0.051217 -0.019734 -189629.000000 0 0 1
-15.342590 -20.051061 21.475550 33.145729 0.917653 0.865955 0.052943 -0.008152 -265226.000000 0 0 1
-16.700290 -20.709361 21.237550 34.041310 0.892157 0.897104 0.062471 -0.014392 -1063920.000000 0 0 1
-16.700590 -21.752461 20.237450 34.082747 0.916028 0.935055 0.065461 -0.018345 1018470.000000 0 0 1
-17.962090 -22.037961 19.570850 34.515598 0.886944 0.967919 0.054132 -0.006612 1227350.000000 0 0 1
-19.066290 -22.707961 20.430350 36.007972 0.872353 0.967471 0.057038 -0.012068 -392953.000000 0 0 1
-19.577690 -21.887561 21.485450 36.386478 0.841047 0.939144 0.061297 -0.015498 -12642.600000 0 0 1
-20.553290 -22.597061 22.217950 37.771711 0.832727 0.941944 0.063240 -0.004507 -178412.000000 0 0 1
-21.091490 -21.863961 23.436710 38.368777 0.803379 0.913691 0.065565 -0.001459 -254634.000000 0 0 1
-22.121290 -20.973361 23.123200 38.261151 0.758767 0.921844 0.066872 0.004818 -156635.000000 0 0 1
-22.109490 -19.908361 24.049930 38.256653 0.733060 0.890984 0.073979 -0.000002 175673.000000 0 0 1
-22.965790 -18.687461 23.634880 37.884776 0.683044 0.897121 0.074165 -0.005176 66393.200000 0 0 1
-22.602390 -18.102761 22.423050 36.624734 0.675303 0.911908 0.073035 -0.005718 330084.000000 0 0 1
-23.509590 -17.036061 21.991150 36.421681 0.627074 0.922546 0.071081 -0.000792 624018.000000 0 0 1
-23.162290 -16.409161 20.642950 35.098199 0.616370 0.942029 0.069309 -0.003729 382250.000000 0 0 1
-21.924890 -15.708061 20.628550 33.955574 0.621680 0.917867 0.078420 -0.005895 30325.700000 0 0 1
-21.737190 -15.211961 19.323450 32.822323 0.610600 0.941311 0.070891 -0.005468 -519149.000000 0 0 1
-20.534390 -14.310261 19.175450 31.530027 0.608637 0.917050 0.073656 -0.025110 -537797.000000 0 0 1
-20.306390 -14.330961 17.772450 30.554637 0.614566 0.950027 0.070544 -0.031240 309587.000000 0 0 1
-19.459390 -13.270961 17.278250 29.211713 0.598531 0.937899 0.080269 -0.038198 -117881.000000 0 0 1
-19.319990 -13.322161 15.711750 28.241831 0.603680 0.980835 0.076592 -0.044306 195770.000000 0 0 1
-18.668890 -12.248861 15.033050 26.917552 0.580659 0.978238 0.076054 -0.033432 -31855.200000 0 0 1
-17.358290 -11.902561 15.392850 26.075295 0.601063 0.939337 0.106164 -0.046232 -532075.000000 0 0 1
-16.795090 -10.634661 14.715350 24.732824 0.564475 0.933565 0.098015 -0.036658 -109924.000000 0 1 0
-17.246590 -9.426961 15.302650 24.909507 0.500228 0.909260 0.105318 -0.028143 113352.000000 0 1 0
-16.894490 -8.283161 14.542850 23.780854 0.455848 0.912796 0.094403 -0.013087 -932376.000000 0 1 0
-17.170390 -6.929161 15.323450 24.034219 0.383565 0.879459 0.109164 -0.007351 67242.700000 0 1 0
-16.317590 -6.630161 16.392650 24.061208 0.385943 0.821273 0.107388 -0.008127 47640.500000 0 1 0
-14.962890 -6.430661 16.033450 22.854168 0.405907 0.793219 0.103158 -0.014038 -869556.000000 0 1 0
-13.997090 -6.176961 17.185350 23.008903 0.415598 0.727409 0.088322 -0.026096 -123243.000000 0 1 0
-13.997990 -7.174461 18.224250 24.073635 0.473625 0.712054 0.088556 -0.028238 25033.200000 0 1 0
-13.410390 -8.415561 17.893550 23.892244 0.560424 0.724355 0.086347 -0.025548 -623754.000000 0 1 0
-13.488290 -9.456561 19.098450 25.221247 0.611460 0.711725 0.088712 -0.033253 77943.600000 0 0 1
-14.762490 -10.031061 19.273250 26.268069 0.596832 0.747024 0.110315 -0.037304 -387550.000000 0 0 1
-15.635590 -9.218061 20.015850 27.019966 0.532705 0.736566 0.099329 -0.030839 -710843.000000 0 0 1
-17.012790 -9.908161 20.304650 28.282246 0.527374 0.769973 0.094163 -0.021431 1111890.000000 0 0 1
-17.898990 -9.985961 19.151050 28.050953 0.508893 0.819313 0.096565 -0.016556 625115.000000 0 0 1
-18.316990 -8.788561 18.477650 27.462237 0.447360 0.832757 0.091500 -0.011016 -938441.000000 0 0 1
-19.516990 -9.044061 17.580450 27.780931 0.433937 0.885601 0.107538 -0.008687 -192821.000000 0 0 1
-20.774390 -9.058361 18.239650 29.091476 0.411180 0.893131 0.097622 -0.011602 995332.000000 0 0 1
-21.807690 -9.454761 17.275950 29.384116 0.409092 0.942293 0.101440 -0.006660 -235495.000000 0 0 1
-23.175290 -9.568961 17.856250 30.781565 0.391573 0.951950 0.099196 -0.004852 -1316970.000000 0 0 1
-23.763690 -8.402761 18.338250 31.170671 0.339875 0.941820 0.094828 0.003137 -461110.000000 0 0 1
-25.146240 -8.566761 18.368450 32.297410 0.328346 0.965837 0.094905 0.007832 -689272.000000 0 0 1
-25.833020 -7.425261 19.162250 33.010168 0.279888 0.951459 0.102533 0.003331 -227035.000000 0 0 1
-25.781940 -7.454461 20.585250 33.823511 0.281459 0.916492 0.101253 -0.005265 225032.000000 0 0 1
-26.603340 -6.442261 21.155750 34.594886 0.237586 0.912806 0.092646 -0.008320 -694715.000000 0 0 1
-26.556590 -6.457661 22.684850 35.518393 0.238536 0.878016 0.090426 -0.006193 154560.000000 0 0 1
-25.411130 -5.961261 23.363890 35.030465 0.230426 0.840676 0.079093 -0.012408 213031.000000 0 0 1
-24.306790 -6.873161 23.241490 34.325314 0.275573 0.826989 0.084646 -0.007965 -417817.000000 0 0 1
-23.449990 -6.598261 24.492950 34.544806 0.274284 0.782689 0.091216 -0.013816 -97924.600000 0 0 1
-22.773790 -5.337361 24.481480 33.859648 0.230209 0.762621 0.089152 -0.014474 853875.000000 0 0 1
-21.832890 -5.146561 25.570140 34.014618 0.231499 0.720100 0.092932 -0.023973 936815.000000 0 0 1
-21.213290 -3.697761 25.613600 33.462421 0.172579 0.699066 0.090955 -0.025921 177731.000000 0 0 1
-20.314790 -3.336061 26.645010 33.671598 0.162766 0.657831 0.089766 -0.027863 -301796.000000 0 0 1
-20.849190 -3.236861 27.899980 34.979635 0.154022 0.647480 0.088574 -0.036112 -80733.400000 0 0 1
-21.773890 -2.029461 28.270260 35.741133 0.092938 0.658399 0.089223 -0.041021 468907.000000 0 0 1
-22.969290 -2.087461 27.529300 35.913899 0.090632 0.697366 0.097953 -0.045764 227354.000000 0 0 1
-24.050090 -1.361461 28.170910 37.065625 0.056549 0.707440 0.091335 -0.036504 258779.000000 0 0 1
-25.307600 -1.177061 27.377970 37.301653 0.046477 0.746660 0.084286 -0.036486 -1667590.000000 0 0 1
-25.176520 -0.349561 26.282300 36.396959 0.013883 0.763961 0.084881 -0.039071 -65254.400000 0 0 1
-26.391520 0.094739 25.687920 36.829207 -0.003590 0.798911 0.088555 -0.031666 242911.000000 0 0 1
-27.193880 -1.101861 25.022910 36.971167 0.040497 0.827359 0.081311 -0.027040 -717985.000000 0 0 1
-27.987130 -1.757061 25.957040 38.211708 0.062699 0.823994 0.083949 -0.021584 -395303.000000 0 0 1
-28.372710 -3.123961 25.747900 38.441178 0.109663 0.836857 0.081032 -0.020396 434992.000000 0 0 1
-27.249770 -4.236261 25.786790 37.755190 0.154226 0.818934 0.082058 -0.026930 492059.000000 0 0 1
-26.909610 -4.538661 27.105790 38.463624 0.167091 0.788779 0.075386 -0.032006 -385184.000000 0 0 1
-26.181720 -5.714761 27.205530 38.187456 0.214902 0.777855 0.074135 -0.036452 -88386.300000 0 0 1
-25.597820 -6.112861 28.569010 38.843323 0.234414 0.744402 0.067580 -0.031787 179068.000000 0 0 1
-26.679850 -6.506161 29.392240 40.224971 0.239192 0.751455 0.088173 -0.035142 430186.000000 0 0 1
-26.287610 -6.887361 30.690260 40.992270 0.256241 0.724721 0.086893 -0.027237 -174581.000000 0 0 1
-27.546300 -7.229461 31.507620 42.471094 0.256659 0.734956 0.084536 -0.032735 -202090.000000 0 0 1
-28.255280 -8.293261 30.970990 42.735714 0.285494 0.760183 0.081956 -0.031891 -415340.000000 0 0 1
-29.385710 -8.598261 31.742840 44.102811 0.284654 0.767359 0.091261 -0.034706 169523.000000 0 0 1
-30.614990 -9.096161 30.931020 44.460609 0.288808 0.801409 0.079760 -0.036396 42944.700000 0 0 1
-30.313120 -10.373961 30.378050 44.151220 0.329733 0.812004 0.087005 -0.033349 723189.000000 0 0 1
-31.325030 -10.725561 29.419870 44.292481 0.329885 0.844349 0.078772 -0.038789 371489.000000 0 0 1
-30.940880 -12.039661 28.723110 43.901122 0.371090 0.857582 0.090580 -0.029080 -357809.000000 0 0 1
-29.833060 -11.792561 27.914190 42.523851 0.376435 0.854712 0.088826 -0.022273 -907907.000000 0 0 1
-29.204410 -12.977361 27.559150 42.199718 0.418156 0.859172 0.081627 -0.020459 -362183.000000 0 0 1
-27.768180 -12.771961 27.014230 40.791707 0.431097 0.846981 0.088897 -0.022718 356269.000000 0 0 1
-26.798470 -12.185261 27.896600 40.556859 0.426755 0.812288 0.082600 -0.026649 288724.000000 0 0 1
-27.026230 -10.887861 28.478720 40.743099 0.382972 0.796822 0.093853 -0.028765 -1286360.000000 0 0 1
-26.863570 -9.596561 27.643140 39.722645 0.343104 0.801119 0.075409 -0.015846 -1115660.000000 0 0 1
-25.593360 -9.368261 27.188030 38.496407 0.350895 0.786611 0.078610 -0.019483 -1108740.000000 0 0 1
-25.110640 -10.154061 26.089860 37.607578 0.384270 0.804128 0.072769 -0.015204 -348275.000000 0 0 1
-25.727500 -9.864561 24.705340 37.007670 0.366136 0.839851 0.086058 -0.007048 -1127110.000000 0 0 1
-27.021020 -10.313161 24.568940 37.949039 0.364607 0.866603 0.082154 -0.007754 -1345550.000000 0 0 1
-27.477580 -10.137261 23.277850 37.411759 0.353437 0.899238 0.083977 -0.006673 -659719.000000 0 0 1
-28.756630 -10.936461 22.945350 38.380190 0.363419 0.929988 0.092862 -0.004687 155824.000000 0 0 1
-30.018940 -10.507861 23.383830 39.476010 0.336711 0.936817 0.098629 -0.003955 -23653.700000 0 0 1
-30.139750 -10.400361 24.801060 40.393868 0.332277 0.909702 0.096737 -0.008701 -854870.000000 0 0 1
-31.617470 -10.541261 25.265160 41.822373 0.321810 0.922152 0.085660 -0.014245 343297.000000 0 0 1
-32.357640 -9.361161 24.866000 41.868438 0.281614 0.934889 0.099644 -0.017840 532598.000000 0 0 1
-33.742200 -9.387461 25.203600 43.149530 0.271349 0.947027 0.083034 -0.017973 624023.000000 0 0 1
-34.309113 -9.255861 26.603460 44.390655 0.263505 0.928166 0.069894 -0.022474 -318847.000000 0 0 1
-34.390626 -10.565861 27.279040 45.149735 0.298077 0.922047 0.066018 -0.032041 90510.000000 0 0 1
-35.009378 -10.407761 28.526660 46.343806 0.288964 0.907720 0.079184 -0.035811 -1440860.000000 0 0 1
-35.653295 -11.600861 29.197250 47.520698 0.314575 0.909157 0.084405 -0.026950 -151004.000000 0 0 1
-36.866500 -12.064861 28.669620 48.235327 0.316273 0.934315 0.069801 -0.022891 -837.696000 0 0 1
36.757502 -11.244861 28.919690 48.103112 -0.296879 0.925792 0.077426 -0.021479 -328688.000000 0 0 1
35.391332 -11.702561 28.315430 46.810895 -0.319344 0.921169 0.071686 -0.020398 573810.000000 0 0 1
35.251332 -11.501561 26.922250 45.823028 -0.315383 0.942797 0.072060 -0.018027 -816336.000000 0 0 1
34.123762 -12.160161 26.482300 44.873298 -0.342325 0.939543 0.073750 -0.005287 -758393.000000 0 0 1
33.809782 -11.896061 25.019980 43.710606 -0.338324 0.961366 0.078907 -0.012700 13923.200000 0 0 1
33.499262 -10.508261 24.749560 42.955382 -0.303965 0.956763 0.084416 -0.027618 126428.000000 0 0 1
33.524862 -10.288661 23.357720 42.134974 -0.297772 0.983209 0.081104 -0.029694 -406016.000000 0 0 1
33.116322 -8.826161 23.002620 41.276052 -0.260465 0.979681 0.084511 -0.011393 464018.000000 0 0 1
31.712502 -8.626961 23.145280 40.197155 -0.265609 0.957221 0.096423 -0.020036 -158231.000000 0 0 1
31.367862 -7.294261 22.778450 39.446252 -0.228479 0.955188 0.087159 -0.001573 -1101290.000000 0 0 1
29.888052 -7.065761 22.738650 38.213438 -0.232145 0.933477 0.081126 0.015940 -1457010.000000 0 0 1
29.296002 -7.724961 21.690450 37.261326 -0.257818 0.949466 0.082323 0.015870 -1127590.000000 0 0 1
27.996102 -7.276961 21.561650 36.078257 -0.254300 0.930247 0.093158 -0.015637 -1127240.000000 0 0 1
15.527210 -16.975561 25.476170 34.326362 -0.829930 0.734486 0.108603 -0.021435 -249922.000000 0 0 1
14.931110 -18.262961 25.465920 34.712921 -0.885438 0.747170 0.123045 -0.023033 -156672.000000 0 0 1
15.828010 -19.292661 25.771230 35.873235 -0.883730 0.769301 0.092304 -0.016310 -973421.000000 0 0 1
15.165510 -20.746661 25.823720 36.431870 -0.939576 0.782969 0.089897 -0.022421 143272.000000 0 0 1
14.260910 -20.950761 26.855500 36.925950 -0.973150 0.756446 0.080925 -0.019187 -132725.000000 0 0 1
13.056310 -20.208961 26.833520 36.040354 -0.997192 0.730949 0.092960 -0.026346 -576159.000000 0 0 1
12.147610 -20.526261 28.064320 36.830665 -1.036422 0.704427 0.084657 -0.021104 90962.800000 0 0 1
12.563110 -20.024861 29.329760 37.670434 -1.010490 0.678383 0.086581 -0.025577 101719.000000 0 0 1
11.673410 -19.059561 29.938950 37.361425 -1.021258 0.641276 0.079346 -0.020169 605442.000000 0 0 1
11.556310 -17.577961 29.340450 36.102562 -0.989214 0.622030 0.101347 -0.019059 1169980.000000 0 0 1
12.716510 -16.776561 29.726400 36.425561 -0.922199 0.616190 0.093618 -0.007050 561385.000000 0 0 1
12.634710 -15.429561 29.373430 35.503600 -0.884658 0.596447 0.107650 -0.011978 280110.000000 0 0 1
13.829110 -14.478461 29.657680 35.783349 -0.808333 0.593815 0.092888 -0.005705 196203.000000 0 0 1
13.387510 -13.139761 29.381470 34.858995 -0.776059 0.568209 0.135749 -0.011408 -108841.000000 0 0 1
14.278110 -12.117661 29.713890 35.122890 -0.703732 0.562362 0.124398 -0.006368 -480981.000000 0 0 1
13.847510 -10.716961 29.228600 34.072245 -0.658639 0.539741 0.123132 -0.006686 1109.260000 0 0 1
14.204410 -10.312261 27.881370 32.946605 -0.627957 0.561872 0.161396 -0.018504 699036.000000 0 0 1
15.586110 -10.168861 27.527500 33.227937 -0.578082 0.594472 0.138856 -0.024660 564035.000000 0 0 1
16.012710 -8.964361 26.545310 32.271042 -0.510357 0.604874 0.127085 -0.018933 109154.000000 0 0 1
16.051210 -7.667261 27.095430 32.412815 -0.445629 0.580938 0.139209 -0.026151 895686.000000 0 0 1
17.239910 -7.455061 27.898470 33.632084 -0.408147 0.592550 0.131580 -0.031391 408810.000000 0 0 1
17.665210 -6.010861 27.705340 33.403233 -0.327976 0.592726 0.120897 -0.033183 1589530.000000 0 0 1
19.114910 -5.825061 27.805510 34.241167 -0.295799 0.623141 0.100239 -0.044906 1669430.000000 0 0 1
19.571710 -4.620161 27.237980 33.857131 -0.231819 0.635967 0.092821 -0.039948 -142896.000000 0 0 1
21.097510 -4.519361 27.046760 34.598509 -0.211024 0.673358 0.094215 -0.038970 -888443.000000 0 0 1
21.539110 -5.405961 26.055270 34.234994 -0.245904 0.705833 0.100104 -0.036935 844150.000000 0 0 1
22.929010 -5.432661 25.678810 34.851895 -0.232644 0.742474 0.081657 -0.030631 981873.000000 0 0 1
23.970410 -5.744761 26.759420 36.381993 -0.235224 0.744373 0.067143 -0.027908 -991856.000000 0 0 1
24.234910 -4.624261 27.538020 36.973737 -0.188543 0.730562 0.074906 -0.027952 242010.000000 0 0 1
25.266110 -4.903561 28.492960 38.396224 -0.191694 0.734633 0.078765 -0.038088 144653.000000 0 0 1
25.920910 -3.719661 29.196200 39.219224 -0.142527 0.731107 0.080373 -0.032810 -487349.000000 0 0 1
26.624210 -2.938161 28.254060 38.932933 -0.109912 0.758729 0.066354 -0.023672 37780.600000 0 0 1
26.868810 -1.645061 28.763640 39.395256 -0.061149 0.752285 0.058296 -0.026152 -179880.000000 0 0 1
27.876510 -0.862761 27.861940 39.422480 -0.030939 0.785899 0.056368 -0.021317 424867.000000 0 0 1
29.189510 -1.362861 27.927080 40.420375 -0.046656 0.808041 0.073031 -0.022554 -298861.000000 0 0 1
30.102610 -0.843461 26.969330 40.425528 -0.028012 0.840439 0.061065 -0.001194 757459.000000 0 0 1
31.588610 -0.981361 27.403140 41.829839 -0.031057 0.856468 0.053900 -0.005907 256278.000000 0 0 1
31.906310 0.015039 28.359920 42.688382 0.000471 0.844176 0.043173 -0.004702 -245178.000000 0 0 1
33.244010 -0.035261 28.787040 43.975665 -0.001061 0.857126 0.053729 -0.007108 -138119.000000 0 0 1
33.594210 1.102739 29.790430 44.913881 0.032814 0.845605 0.056617 -0.009150 -169217.000000 0 0 1
33.632110 2.405839 29.246650 44.634891 0.071412 0.856294 0.042322 -0.006590 44484.700000 0 0 1
33.639910 3.406739 30.293900 45.397906 0.100927 0.840222 0.035536 -0.007235 30592.000000 0 0 1
34.102410 4.779039 29.765770 45.517191 0.139231 0.858008 0.044108 -0.001757 219781.000000 0 0 1
34.345610 5.822839 30.710760 46.440039 0.167940 0.848247 0.051480 -0.009691 491352.000000 0 0 1
33.140710 6.566239 30.897060 45.782644 0.195599 0.830016 0.045043 -0.011057 501415.000000 0 0 1
33.230010 7.489039 32.101804 46.806465 0.221666 0.815037 0.055132 -0.012303 -39162.300000 0 0 1
33.354710 6.727539 33.272599 47.590570 0.199027 0.796599 0.056840 -0.009420 5219.090000 0 0 1
33.627110 7.602739 -33.419132 48.014816 0.222351 2.340632 0.070421 -0.022424 -72395.300000 0 0 1
33.700710 6.815439 -32.094812 47.034722 0.199543 2.321788 0.095563 -0.034193 420618.000000 0 0 1
32.519210 6.054539 -31.788542 45.876659 0.184076 2.336318 0.080838 -0.024694 279667.000000 0 0 1
32.485710 4.707639 -32.248462 46.015720 0.143912 2.347334 0.096182 -0.025528 -220648.000000 0 0 1
33.255810 3.675939 -31.431702 45.906572 0.110088 2.324973 0.095177 -0.033792 -112896.000000 0 0 1
33.057010 2.326739 -31.882672 45.985698 0.070270 2.336878 0.096036 -0.032667 258185.000000 0 0 1
33.569210 1.497239 -30.833112 45.604982 0.044572 2.313241 0.073270 -0.025221 138548.000000 0 0 1
33.682710 0.005139 -31.204412 45.915578 0.000153 2.318019 0.075937 -0.037692 -315913.000000 0 0 1
34.653910 -0.234361 -32.248922 47.338582 -0.006763 2.320251 0.074701 -0.034160 611524.000000 0 0 1
35.268910 -1.542461 -32.231062 47.802893 -0.043706 2.310744 0.072979 -0.035994 244013.000000 0 0 1
36.343510 -1.739661 -31.173482 47.913079 -0.047831 2.279204 0.080755 -0.040983 -738934.000000 0 0 1
35.761810 -1.785661 -29.904252 46.651473 -0.049891 2.266615 0.073598 -0.043356 319319.000000 0 0 1
36.583310 -1.010061 -28.996382 46.692065 -0.027603 2.240831 0.075473 -0.043404 -37029.000000 0 0 1
35.862410 -0.801861 -27.660062 45.297179 -0.022356 2.227659 0.083587 -0.040721 -287073.000000 0 0 1
34.971110 0.272739 -27.679092 44.600281 0.007799 2.240308 0.097172 -0.035408 287540.000000 0 0 1
34.149910 0.310939 -26.510782 43.233489 0.009105 2.230902 0.101013 -0.030016 428903.000000 0 0 1
33.476810 1.719239 -26.334112 42.627902 0.051311 2.236696 0.093747 -0.026456 348768.000000 0 0 1
32.583910 2.141739 -27.354642 42.597825 0.065636 2.268110 0.110706 -0.043002 61567.900000 0 0 1
31.695110 3.075739 -26.836012 41.643868 0.096739 2.271057 0.091154 -0.030680 -161880.000000 0 0 1
30.842810 3.681639 -27.982622 41.807422 0.118806 2.304092 0.101830 -0.031063 -37295.100000 0 0 1
29.864210 4.661939 -27.732352 41.020581 0.154855 2.313198 0.085404 -0.032185 479466.000000 0 0 1
29.106610 5.028439 -28.890022 41.317228 0.171071 2.345109 0.070706 -0.032788 -605516.000000 0 0 1
27.932210 5.927239 -28.598752 40.413230 0.209099 2.356975 0.065264 -0.027539 -944629.000000 0 0 1
26.789710 5.157739 -28.279432 39.293983 0.190200 2.374150 0.080674 -0.031313 -34751.500000 0 0 1
25.812310 6.015439 -27.729292 38.358500 0.228959 2.378784 0.083728 -0.034426 1074640.000000 0 0 1
24.389010 5.342939 -27.490362 37.136112 0.215665 2.404253 0.108292 -0.028190 1199230.000000 0 0 1
23.616410 5.001639 -28.605152 37.430014 0.208703 2.440643 0.119138 -0.031649 -396315.000000 0 0 1
22.319510 4.611139 -28.282672 36.322619 0.203731 2.463311 0.106239 -0.019262 -408040.000000 0 0 1
21.396610 4.138539 -29.431632 36.621898 0.191061 2.504220 0.101030 -0.015743 15506.700000 0 0 1
21.598610 2.821439 -29.880662 36.977215 0.129895 2.511687 0.104703 -0.022554 -189404.000000 0 0 1
20.981910 2.584939 -31.110162 37.613357 0.122581 2.544732 0.065413 -0.020889 -390798.000000 0 0 1
21.286910 3.340539 -32.395132 38.906764 0.155660 2.554645 0.075506 -0.022668 -460832.000000 0 0 1
22.607510 3.317939 -32.847422 40.013265 0.145722 2.533805 0.092893 -0.027267 -674913.000000 0 0 1
22.764710 4.011939 33.754239 40.910590 0.174444 0.600464 0.087324 -0.034185 185839.000000 0 0 1
24.010910 3.550739 32.952853 40.927034 0.146816 0.634849 0.092608 -0.026425 217113.000000 0 0 1
24.124410 2.163439 32.574374 40.592579 0.089439 0.639371 0.109381 -0.028086 630374.000000 0 0 1
25.496910 1.849639 32.271620 41.170026 0.072417 0.669935 0.097109 -0.028254 670643.000000 0 0 1
25.760810 0.319139 32.188517 41.228896 0.012388 0.674968 0.077171 -0.025597 -454754.000000 0 0 1
25.378910 -0.354461 30.982660 40.051716 -0.013966 0.686347 0.075101 -0.027517 1010550.000000 0 0 1
23.971410 -0.508161 30.687180 38.943417 -0.021195 0.663252 0.081144 -0.032631 806069.000000 0 0 1
23.288010 -1.627861 31.529720 39.231424 -0.069788 0.637333 0.080550 -0.039542 -419963.000000 0 0 1
23.922410 -2.866961 31.273000 39.477864 -0.119275 0.656447 0.060062 -0.043590 111028.000000 0 0 1
23.267610 -3.845661 32.044062 39.786841 -0.163799 0.634457 0.077404 -0.046996 -44307.000000 0 0 1
23.496210 -5.373561 31.711260 39.831534 -0.224832 0.649916 0.076670 -0.049374 120356.000000 0 0 1
24.822010 -5.815761 31.985231 40.902448 -0.230147 0.672947 0.059487 -0.041335 247398.000000 0 0 1
24.905910 -7.228061 31.854618 41.076343 -0.282455 0.683293 0.082808 -0.046095 142326.000000 0 0 1
26.366410 -7.596661 31.485600 41.764098 -0.280521 0.716831 0.046095 -0.034248 162806.000000 0 0 1
26.540110 -7.396761 30.123220 40.822762 -0.271804 0.740839 0.075016 -0.034659 53743.400000 0 0 1
27.718410 -8.089261 29.712160 41.431375 -0.283951 0.771104 0.048076 -0.011787 329968.000000 0 0 1
27.967210 -7.855961 28.192060 40.480529 -0.273842 0.800379 0.053990 -0.020155 124585.000000 0 0 1
26.970310 -8.421861 27.361170 39.331400 -0.302670 0.801462 0.052547 -0.025708 129677.000000 0 0 1
27.330910 -8.018261 26.057400 38.603876 -0.285370 0.829839 0.070275 -0.024252 347459.000000 0 0 1
26.544910 -8.821561 24.970910 37.496647 -0.320844 0.842029 0.056712 -0.016347 -729691.000000 0 0 1
25.184110 -8.578861 25.010030 36.514899 -0.328317 0.816293 0.057298 -0.016832 -800655.000000 0 0 1
24.487210 -9.480061 24.126590 35.659324 -0.369374 0.827680 0.077812 -0.023292 728034.000000 0 0 1
23.023910 -9.089361 23.755890 34.308297 -0.375998 0.805953 0.059064 -0.020849 73721.200000 0 0 1
22.158810 -9.198161 24.835710 34.531602 -0.393457 0.768122 0.040636 -0.018520 -1774430.000000 0 0 1
20.956110 -8.667961 24.463400 33.357908 -0.392196 0.747543 0.066765 -0.016251 -1115640.000000 0 0 1
19.999010 -8.475361 25.639830 33.603468 -0.400844 0.702837 0.069792 -0.022029 -272172.000000 0 0 1
19.312810 -9.576961 26.184560 33.916574 -0.460351 0.688770 0.086407 -0.019354 -98109.100000 0 0 1
20.132310 -10.413461 26.926020 35.196032 -0.477353 0.699708 0.064382 -0.021889 -156269.000000 0 0 1
19.264010 -11.493861 27.635030 35.593620 -0.537952 0.681857 0.069791 -0.021850 862664.000000 0 0 1
18.447510 -12.370061 26.798840 34.806707 -0.590689 0.692060 0.085352 -0.020803 530695.000000 0 0 1
17.824110 -13.485761 27.418050 35.373919 -0.647713 0.683935 0.082574 -0.016965 -190745.000000 0 0 1
18.653510 -14.669261 27.963030 36.675219 -0.666398 0.703705 0.092637 -0.012896 -674665.000000 0 0 1
17.784610 -15.711361 28.297800 36.931080 -0.723582 0.697839 0.087361 -0.011134 73881.700000 0 0 1
18.460910 -16.702561 28.989580 38.212256 -0.735435 0.709564 0.081132 -0.003321 -495059.000000 0 0 1
19.122510 -17.788861 28.133970 38.387944 -0.749283 0.748243 0.081484 -0.010282 381173.000000 0 0 1
20.231210 -17.312261 27.357740 38.176723 -0.707806 0.771870 0.090732 -0.010867 339073.000000 0 0 1
20.468310 -18.219761 26.297060 37.979557 -0.727343 0.805986 0.088359 -0.004436 -366575.000000 0 0 1
21.698510 -17.742161 25.513810 37.902033 -0.685421 0.832334 0.074428 -0.011572 80040.500000 0 0 1
22.864010 -17.786461 26.328860 39.144987 -0.661134 0.833082 0.056585 -0.007692 -73356.300000 0 0 1
23.924810 -17.079261 25.765240 39.088941 -0.619976 0.851116 0.045090 -0.008480 -1313930.000000 0 0 1
25.096210 -16.752961 26.710830 40.298262 -0.588613 0.846207 0.060951 -0.008333 -153978.000000 0 0 1
25.819410 -17.816561 27.213250 41.528698 -0.604014 0.856233 0.074848 -0.004772 226384.000000 0 0 1
26.636410 -18.413561 26.164920 41.631246 -0.604858 0.891183 0.054367 -0.008190 -752574.000000 0 0 1
27.143510 -19.803461 26.527830 42.809730 -0.630306 0.902476 0.034913 -0.010443 -388507.000000 0 0 1
28.252610 -19.819161 27.385190 44.056302 -0.611731 0.900019 0.041052 -0.003021 -296449.000000 0 0 1
28.734410 -21.098561 27.704990 45.148445 -0.633352 0.910131 0.036248 -0.011134 160142.000000 0 0 1
27.809310 -22.177261 28.416250 45.526606 -0.673200 0.896730 0.053501 -0.010642 120623.000000 0 0 1
27.377310 -21.889461 29.709700 45.949232 -0.674465 0.867708 0.060306 -0.002753 -294046.000000 0 0 1
26.903110 -23.037661 30.311900 46.618906 -0.708151 0.862941 0.078369 -0.006637 -440770.000000 0 0 1
26.498810 -22.968361 31.833369 47.361334 -0.714149 0.833703 0.065033 -0.004823 132449.000000 0 0 1
26.138710 -24.254861 32.332547 48.134437 -0.748033 0.834277 0.066806 -0.011375 39327.900000 0 0 1
25.838010 -24.190061 33.722734 48.887469 -0.752470 0.809579 0.078394 -0.006121 -492090.000000 0 0 1
25.674910 -25.575211 -33.342192 49.244230 -0.783453 2.314581 0.073320 -0.016223 61415.200000 0 0 1
24.427410 -26.221791 -33.428912 49.007885 -0.820811 2.321445 0.098781 -0.024965 -137437.000000 0 0 1
23.864310 -26.523301 33.076603 48.652363 -0.838120 0.823230 0.092071 -0.018578 82617.600000 0 0 1
22.568910 -27.356431 33.183868 48.568499 -0.880999 0.818608 0.116893 -0.022315 194406.000000 0 0 1
22.742610 -28.752121 33.517181 49.672046 -0.901574 0.830144 0.114454 -0.037796 -4378.210000 0 0 1
21.482810 -29.268891 33.882540 49.660906 -0.937626 0.819922 0.137221 -0.042792 -111961.000000 0 0 1
21.463710 -30.810401 -33.801962 50.522710 -0.962330 2.303719 0.112241 -0.039681 -90398.100000 0 0 1
22.119910 -31.313801 -32.650532 50.357738 -0.955791 2.276240 0.093547 -0.049037 10911.500000 0 0 1
23.441510 -31.708931 -32.915692 51.365391 -0.934197 2.266355 0.058323 -0.026307 -392082.000000 0 0 1
24.131410 -32.486271 -31.755692 51.440322 -0.931907 2.236142 0.040775 -0.028840 -513193.000000 0 0 1
25.381710 -33.050311 -32.128952 52.619614 -0.915892 2.227600 0.035293 -0.013541 447272.000000 0 0 1
26.149110 -33.375091 -30.963122 52.501310 -0.906203 2.201557 0.031841 -0.009543 -226264.000000 0 0 1
26.666810 -32.288641 -29.997732 51.512513 -0.880468 2.192399 0.031527 -0.026254 -628513.000000 0 0 1
27.311110 -32.902161 -28.877982 51.598321 -0.877987 2.164783 0.041113 -0.023765 23733.000000 0 0 1
27.507910 -31.941151 -27.899912 50.550245 -0.859832 2.155466 0.044083 -0.020066 -1147240.000000 0 0 1
27.676810 -32.453251 -26.375472 50.148627 -0.864667 2.124623 0.046662 -0.028546 465481.000000 0 0 1
28.868510 -33.176381 -26.139582 51.159954 -0.854718 2.107072 0.044574 -0.008476 687329.000000 0 0 1
30.100610 -32.465661 -26.369012 51.530483 -0.823181 2.107978 0.053994 -0.021579 -9508.360000 0 0 1
-27.620370 -30.645244 9.688698 42.377903 0.837267 1.340130 0.057959 -0.019206 -88068.100000 0 0 1
-27.530510 -31.911944 10.266698 43.378638 0.858974 1.331853 0.066186 -0.021999 -1141200.000000 0 0 1
-26.315750 -32.066044 10.875398 42.883845 0.883576 1.314395 0.049543 -0.021019 -1062420.000000 0 0 1
-26.278940 -33.229244 11.955598 44.019332 0.901667 1.295742 0.057798 -0.022027 7213.770000 0 0 1
-26.323040 33.289839 11.417398 43.948525 -0.901738 1.307991 0.064538 -0.014084 1115330.000000 0 0 1
-27.653290 32.694739 11.457398 44.327445 -0.868744 1.309356 0.047518 -0.029572 1037500.000000 0 0 1
-27.713050 31.219939 11.037198 43.180059 -0.844834 1.312319 0.044818 -0.020119 163595.000000 0 0 1
-27.197890 30.905239 9.766898 42.311362 -0.849118 1.337862 0.072216 -0.029826 81690.900000 0 0 1
-27.375750 29.497939 9.603998 41.373867 -0.822695 1.336532 0.089308 -0.023698 -29100.400000 0 0 1
-26.881200 29.108439 8.236698 40.469042 -0.825157 1.365833 0.070197 -0.008219 -286969.000000 0 0 1
-25.484810 28.988239 8.160698 39.451116 -0.849625 1.362436 0.057589 -0.004461 -306902.000000 0 0 1
-25.018990 28.781739 6.840598 38.744447 -0.855223 1.393309 0.052421 -0.001354 -888569.000000 0 0 1
-23.598890 28.268239 6.786498 37.444058 -0.875181 1.388545 0.052771 0.002741 -796322.000000 0 0 1
-23.433590 26.895939 7.048098 36.362073 -0.854084 1.375731 0.071310 -0.009876 282180.000000 0 0 1
-23.864090 26.076839 5.959898 35.847130 -0.829677 1.403762 0.064377 -0.015755 -524187.000000 0 0 1
-24.099590 24.579939 6.310098 34.996871 -0.795265 1.389500 0.079407 -0.013623 -512148.000000 0 0 1
-25.255580 24.316039 7.064698 35.763446 -0.766447 1.371949 0.085289 -0.016745 203149.000000 0 0 1
-25.646960 22.936939 7.225998 35.157997 -0.729676 1.363792 0.099712 -0.031603 47816.800000 0 0 1
-25.962710 22.038839 5.997298 34.579478 -0.703835 1.396480 0.101758 -0.044904 -1180920.000000 0 0 1
-27.302630 22.160439 5.621398 35.610655 -0.681810 1.412276 0.095304 -0.044885 -448126.000000 0 0 1
-27.619910 21.727739 4.334098 35.408170 -0.666560 1.448085 0.087310 -0.041880 -98565.200000 0 0 1
-27.502080 22.832139 3.279798 35.894680 -0.692884 1.479296 0.068325 -0.042433 -381740.000000 0 0 1
-26.260800 23.494839 3.355898 35.396315 -0.729864 1.475844 0.065121 -0.037619 10195.100000 0 0 1
-25.878910 24.107339 2.147298 35.432932 -0.749972 1.510157 0.053780 -0.031271 741968.000000 0 0 1
-24.489590 24.846739 2.142098 34.952669 -0.792637 1.509472 0.050719 -0.026864 803351.000000 0 0 1
-24.132190 25.427939 0.909898 35.068085 -0.811537 1.544847 0.034403 -0.029139 -472369.000000 0 0 1
-22.915190 26.102339 1.037898 34.749320 -0.850327 1.540924 0.058647 -0.033633 -1054970.000000 0 0 1
-22.461890 26.559139 -0.380302 34.786046 -0.868786 1.581729 0.081952 -0.031672 -66609.100000 0 0 1
-22.122490 25.613639 -1.385402 33.873034 -0.858403 1.611708 0.077264 -0.037997 753746.000000 0 0 1
-21.061190 24.721439 -0.986602 32.491486 -0.865177 1.601166 0.093892 -0.053254 22604.800000 0 0 1
-20.630890 23.733039 -2.145102 31.519712 -0.855210 1.638905 0.107052 -0.059224 -465867.000000 0 0 1
-21.565190 22.731339 -2.460002 31.429648 -0.811718 1.649147 0.086473 -0.052303 118772.000000 0 0 1
-21.126290 21.603039 -3.225302 30.387728 -0.796555 1.677135 0.090551 -0.044866 133118.000000 0 0 1
-22.393590 21.150739 -4.000202 31.061685 -0.756864 1.699937 0.092629 -0.035450 386279.000000 0 0 1
-22.665690 22.073939 -5.062902 32.040993 -0.772172 1.729475 0.084537 -0.033009 1008990.000000 0 0 1
-23.927490 21.749539 -5.711102 32.835711 -0.737753 1.745615 0.086180 -0.021709 1044460.000000 0 0 1
-24.159790 22.437239 -7.049102 33.716687 -0.748448 1.781419 0.092282 -0.019480 361128.000000 0 0 1
-23.356290 21.873839 -8.122102 33.014385 -0.752634 1.819365 0.081991 -0.021699 562840.000000 0 0 1
-22.855890 22.782239 -9.062402 33.519386 -0.783784 1.844566 0.076387 -0.023749 105924.000000 0 0 1
-22.071190 21.944039 -10.115602 32.726192 -0.782509 1.885041 0.076593 -0.024056 388962.000000 0 0 1
-23.048390 21.399439 -11.020102 33.325769 -0.748317 1.907818 0.061651 -0.012140 553676.000000 0 0 1
-22.513690 20.826339 -12.180602 32.999541 -0.746485 1.948852 0.044622 -0.005820 -63899.600000 0 0 1
-23.611590 20.496039 -13.205202 33.940715 -0.714880 1.970415 0.036921 -0.016822 150569.000000 0 0 1
-24.432790 19.365039 -13.001902 33.778920 -0.670203 1.965908 0.045761 -0.007536 -464577.000000 0 0 1
-25.544870 19.492939 -13.821802 34.979383 -0.651824 1.977018 0.070524 -0.020223 -361933.000000 0 0 1
-26.376160 18.221139 -13.930002 34.953636 -0.604537 1.980708 0.123932 -0.023965 113856.000000 0 0 1
-25.666710 17.300339 -14.754602 34.289648 -0.593089 2.015614 0.113513 -0.021586 628363.000000 0 0 1
-26.451300 16.099339 -14.962202 34.390805 -0.546749 2.020906 0.147567 -0.035552 263629.000000 0 0 1
-25.875790 15.195839 -16.058002 34.034239 -0.531000 2.062149 0.141237 -0.027363 -321315.000000 0 0 1
-24.625590 14.668539 -15.730302 32.695995 -0.537224 2.072714 0.124143 -0.023527 -377059.000000 0 0 1
-24.182690 13.897939 -16.862402 32.592879 -0.521613 2.114565 0.126026 -0.035992 295741.000000 0 0 1
-23.127890 12.810739 -16.582702 31.208978 -0.505839 2.130983 0.126257 -0.026733 629622.000000 0 0 1
-21.827690 13.141939 -16.114402 30.146850 -0.541945 2.134748 0.110071 -0.031480 258943.000000 0 0 1
-20.979190 12.048239 -16.003202 29.006705 -0.521304 2.155206 0.104922 -0.037081 -211160.000000 0 0 1
-19.702490 12.377439 -15.205802 27.795782 -0.560909 2.149638 0.098747 -0.038834 243222.000000 0 0 1
-18.771390 13.231939 -15.898602 27.932326 -0.614007 2.176308 0.083574 -0.033529 496084.000000 0 0 1
-17.659490 13.546039 -15.080402 26.884406 -0.654336 2.166311 0.083550 -0.017524 -168419.000000 0 0 1
-16.844590 14.646439 -15.749002 27.318299 -0.715709 2.185235 0.052061 -0.008916 -414071.000000 0 0 1
-16.192590 14.240939 -16.935102 27.419008 -0.721358 2.236536 0.077212 -0.022825 36304.300000 0 0 1
-15.466790 15.353839 -17.395402 27.884798 -0.781733 2.244431 0.071291 -0.016287 -301020.000000 0 0 1
-14.692790 15.164139 -18.698702 28.204089 -0.801184 2.295587 0.083420 -0.024614 -54381.200000 0 0 1
-13.761790 14.125339 -18.636902 27.133856 -0.798434 2.327943 0.080409 -0.019109 -502974.000000 0 0 1
-12.728690 14.269139 -19.575602 27.364796 -0.842395 2.367931 0.103088 -0.028150 305712.000000 0 0 1
-11.644390 13.168839 -19.696202 26.399820 -0.846758 2.412942 0.090660 -0.027720 27018.000000 0 0 1
-12.138290 12.013339 -20.228202 26.473355 -0.780225 2.440436 0.103246 -0.020803 -599938.000000 0 0 1
-11.441990 10.839439 -19.923302 25.403750 -0.758362 2.472309 0.085022 -0.008708 -113543.000000 0 0 1
-11.785790 9.723339 -20.956702 25.935140 -0.689803 2.511618 0.101993 -0.019272 186429.000000 0 0 1
-11.554290 10.070339 -22.329402 27.083492 -0.716882 2.540053 0.115626 -0.033834 -199126.000000 0 0 1
-11.785390 8.990439 -23.254002 27.576657 -0.651672 2.574096 0.106019 -0.005092 -185253.000000 0 0 1
-11.135790 9.251839 -24.621902 28.562920 -0.693253 2.610044 0.099416 -0.024413 529089.000000 0 0 1
-9.744690 8.906539 -24.690602 27.998415 -0.740490 2.650583 0.101098 -0.023165 518442.000000 0 0 1
-9.430390 8.335539 -25.969152 28.858453 -0.723850 2.690291 0.063883 -0.028791 -255887.000000 0 0 1
-9.282290 9.187239 -27.263852 30.230512 -0.780252 2.694864 0.109508 -0.031687 -908687.000000 0 0 1
-8.189690 10.025739 -27.435492 30.336326 -0.885855 2.700715 0.097518 -0.037857 -416437.000000 0 0 1
-8.022590 11.123039 -26.542002 29.875773 -0.945945 2.664671 0.078532 -0.029210 -380883.000000 0 0 1
-6.569090 11.627039 -26.500122 29.674862 -1.056522 2.674799 0.065581 -0.028296 -128388.000000 0 0 1
-6.205090 12.322439 -27.673572 30.922034 -1.104305 2.679108 0.065709 -0.043210 43580.800000 0 0 1
-4.803590 12.417639 -27.765602 30.792870 -1.201690 2.694457 0.082507 -0.034674 -333031.000000 0 0 1
-4.267790 12.723039 -29.177262 32.115453 -1.247153 2.710504 0.088429 -0.033469 -536438.000000 0 0 1
-2.872690 12.691139 -29.099342 31.876152 -1.348194 2.721099 0.099643 -0.046300 -664445.000000 0 0 1
-2.267790 12.605339 -30.333102 32.926198 -1.392793 2.742066 0.105005 -0.044493 -468279.000000 0 0 1
-0.746890 12.636939 -30.418282 32.947260 -1.511761 2.747230 0.115207 -0.052735 -621673.000000 0 0 1
-0.119590 11.617639 -29.663802 31.857887 -1.560503 2.768293 0.088341 -0.023380 460285.000000 0 0 1
1.285210 11.396139 -29.750542 31.884455 1.458495 2.773662 0.113059 -0.030997 599774.000000 0 0 1
1.767610 10.760439 -31.082712 32.940043 1.407981 2.804181 0.115269 -0.033140 -456552.000000 0 0 1
1.957110 11.674739 -32.176072 34.284536 1.404704 2.789059 0.116077 -0.046522 229157.000000 0 0 1
2.029710 10.941439 -33.382382 35.188325 1.387375 2.819825 0.122203 -0.037052 -13434.800000 0 0 1
2.261110 11.827539 33.227010 35.341725 1.381902 0.347686 0.113467 -0.044894 -643934.000000 0 0 1
3.594710 12.221639 33.102896 35.469595 1.284737 0.367370 0.115138 -0.047932 -506954.000000 0 0 1
3.762310 13.167839 32.052503 34.855558 1.292492 0.403784 0.101475 -0.038147 -1168070.000000 0 0 1
5.192210 13.268039 31.649250 34.708428 1.197784 0.423002 0.103582 -0.034454 -1328260.000000 0 0 1
5.706110 12.195139 30.867330 33.676003 1.133157 0.411312 0.107919 -0.034504 -516800.000000 0 0 1
7.066110 12.407739 30.649070 33.811942 1.053111 0.435979 0.102214 -0.021928 -622184.000000 0 0 1
7.879110 11.221439 30.164220 33.134291 0.958630 0.426637 0.065230 -0.012881 -152806.000000 0 0 1
7.563610 10.871639 28.841610 31.737032 0.962949 0.430473 0.068793 -0.024641 -160675.000000 0 0 1
8.325210 9.814839 28.330450 31.116790 0.867333 0.426412 0.072059 -0.031763 246836.000000 0 0 1
7.411810 8.886539 27.487060 29.823547 0.875636 0.398469 0.063022 -0.020666 530504.000000 0 0 1
6.610810 7.972939 28.223740 30.064099 0.878528 0.351709 0.054425 -0.024559 13617.100000 0 0 1
5.939810 7.018639 27.434220 28.934047 0.868460 0.323389 0.075791 -0.027768 -75670.900000 0 0 1
5.294910 5.764739 28.105520 29.175136 0.827854 0.271618 0.095808 -0.039500 -122819.000000 0 0 1
6.172310 4.794739 28.605170 29.653713 0.660443 0.266721 0.065527 -0.036070 -345450.000000 0 0 1
5.601010 4.002839 29.630240 30.419487 0.620500 0.228291 0.075066 -0.040698 44151.700000 0 0 1
6.483410 2.830039 30.148800 30.967626 0.411575 0.230472 0.099985 -0.031523 211476.000000 0 0 1
6.296010 1.611539 29.427230 30.136335 0.250582 0.217360 0.095358 -0.023579 375576.000000 0 0 1
7.275310 1.417539 28.373010 29.325198 0.192432 0.255528 0.097407 -0.023673 355679.000000 0 0 1
7.454110 -0.023161 27.849040 28.829383 -0.003107 0.261532 0.100763 -0.017841 -87471.500000 0 0 1
7.971710 -0.842961 28.877730 29.969685 -0.105352 0.270772 0.080176 -0.025100 -36714.700000 0 0 1
8.075610 -2.155961 28.379980 29.585248 -0.260887 0.286421 0.100735 -0.027108 -404311.000000 0 0 1
8.715310 -3.124461 29.414050 30.836751 -0.344229 0.304945 0.078551 -0.022377 373631.000000 0 0 1
10.103210 -2.944961 29.617080 31.431180 -0.283629 0.341410 0.071564 -0.024325 30352.800000 0 0 1
10.939410 -3.665961 28.725710 30.956040 -0.323353 0.381917 0.096899 -0.021468 -269198.000000 0 0 1
12.435610 -3.388561 28.998290 31.733698 -0.266030 0.418250 0.090673 -0.017578 368218.000000 0 0 1
13.375210 -4.353861 28.553210 31.829831 -0.314700 0.457730 0.113273 -0.025512 78915.600000 0 0 1
13.660210 -5.451761 29.400730 32.874397 -0.379728 0.463853 0.127034 -0.025830 -327322.000000 0 0 1
13.094910 -6.840861 28.976490 32.525544 -0.481411 0.471509 0.132301 -0.025767 424506.000000 0 0 1
11.669910 -6.868061 29.029170 32.032012 -0.531941 0.436457 0.128094 -0.021859 203381.000000 0 0 1
11.135210 -8.095361 28.549310 31.695282 -0.628622 0.449319 0.142437 -0.019957 -1037720.000000 0 0 1
9.689610 -7.928061 28.193810 30.848559 -0.685742 0.417902 0.137235 -0.025615 -851794.000000 0 0 1
8.894110 -7.699161 29.367290 31.635739 -0.713508 0.380996 0.152930 -0.027860 333053.000000 0 0 1
7.529110 -7.469161 29.033060 30.909455 -0.781401 0.350230 0.148540 -0.027600 461117.000000 0 0 1
6.648010 -6.913661 30.157360 31.645870 -0.804984 0.307928 0.123997 -0.032562 -32526.200000 0 0 1
6.492910 -7.849361 31.193880 32.815065 -0.879695 0.315645 0.125644 -0.039125 -494840.000000 0 0 1
5.806510 -7.222461 32.241729 33.547110 -0.893650 0.279882 0.120034 -0.037999 -379071.000000 0 0 1
6.398910 -6.148561 33.256273 34.419915 -0.765449 0.260766 0.126032 -0.027584 -318883.000000 0 0 1
6.539910 -4.856961 32.680334 33.680331 -0.638790 0.244291 0.133561 -0.028277 -155072.000000 0 0 1
6.663210 -3.928061 33.692097 34.568561 -0.532674 0.225665 0.110234 -0.012552 157679.000000 0 0 1
6.895810 -2.454661 33.152077 33.950519 -0.341978 0.217304 0.104565 -0.025956 -9490.400000 0 0 1
5.679510 -2.024361 32.605715 33.158521 -0.342394 0.182856 0.111950 -0.034874 -290313.000000 0 0 1
5.818310 -0.829461 31.826368 32.364463 -0.141606 0.182605 0.100747 -0.022628 115737.000000 0 0 1
4.522510 -0.427461 31.068320 31.398668 -0.094238 0.145187 0.128738 -0.038061 -444160.000000 0 0 1
3.522910 -0.082761 31.942431 32.136220 -0.023488 0.109875 0.119571 -0.034740 -1134170.000000 0 0 1
2.462510 0.522439 31.228980 31.330274 0.209057 0.080435 0.126227 -0.044681 796722.000000 0 0 1
1.268610 0.974239 32.195758 32.235467 0.654895 0.049641 0.121796 -0.043271 788744.000000 0 0 1
1.593410 2.010739 33.185097 33.284121 0.900676 0.077157 0.106208 -0.037905 -392916.000000 0 0 1
0.617510 2.250239 -33.660912 33.741693 1.302970 3.072382 0.087224 -0.043062 -577748.000000 0 0 1
1.086010 3.320339 -32.605972 32.792582 1.254686 3.034859 0.084861 -0.036500 155372.000000 0 0 1
2.096910 2.909039 -31.708842 31.910973 0.946230 3.028979 0.061185 -0.017478 74465.900000 0 0 1
2.716710 4.010439 -31.081082 31.456283 0.975393 2.986987 0.057575 -0.016352 -621453.000000 0 0 1
3.824510 3.800139 -30.084202 30.563493 0.782202 2.964262 0.067384 -0.010426 -99864.400000 0 0 1
3.325410 3.129739 -28.917632 29.275981 0.755095 2.984969 0.066065 -0.007160 487503.000000 0 0 1
4.464610 2.940839 -28.115162 28.618938 0.582467 2.953684 0.091215 -0.015455 -186206.000000 0 0 1
4.298810 2.086939 -26.811392 27.233909 0.451955 2.965214 0.081179 -0.014492 -144186.000000 0 0 1
3.996010 0.732739 -26.912272 27.217189 0.181353 2.991765 0.085199 -0.014875 168102.000000 0 0 1
3.504010 0.274939 -25.669742 25.909251 0.078304 3.005516 0.091343 -0.014830 -157889.000000 0 0 1
3.705910 -1.262061 -25.451132 25.750469 -0.328235 2.988968 0.083088 -0.024367 420797.000000 0 0 1
5.070210 -1.510761 -25.131482 25.682305 -0.289592 2.934109 0.077604 -0.026126 276077.000000 0 0 1
5.396610 -2.883461 -24.996102 25.734079 -0.490717 2.901529 0.074496 -0.027402 447167.000000 0 0 1
6.864310 -3.135661 -24.528202 25.662888 -0.428500 2.843114 0.080212 -0.035711 285283.000000 0 0 1
7.860110 -2.739961 -25.388202 26.717962 -0.335419 2.824769 0.096007 -0.036786 -1192780.000000 0 0 1
9.099410 -3.250061 -24.985602 26.788849 -0.343050 2.772587 0.075517 -0.032053 -152794.000000 0 0 1
-30.829580 -3.587361 17.281150 35.524221 0.115840 1.062762 0.167118 -0.030359 -624747.000000 0 0 1
-32.161610 -3.608561 17.677250 36.876497 0.111734 1.070867 0.145030 -0.014541 -803713.000000 0 0 1
-32.351300 -4.715461 18.570550 37.599302 0.144739 1.054219 0.133138 -0.022751 -505808.000000 0 0 1
-33.770040 -4.934561 19.076150 39.098145 0.145096 1.061109 0.117994 -0.020619 -243421.000000 0 0 1
-34.672468 -5.111661 17.980250 39.390335 0.146373 1.096780 0.112907 -0.021943 922559.000000 0 0 1
-36.038930 -4.991061 18.418250 40.779248 0.137615 1.102174 0.106427 -0.017113 497739.000000 0 0 1
-37.010280 -4.884061 17.244550 41.121641 0.131207 1.138062 0.085094 -0.020232 -422716.000000 0 0 1
36.387562 -4.801761 17.658850 40.730168 -0.131204 1.122360 0.074516 -0.008595 -215435.000000 0 0 1
35.537842 -4.486561 16.540450 39.454454 -0.125583 1.138200 0.054327 -0.015989 1321180.000000 0 0 1
34.042912 -4.856861 16.890750 38.311962 -0.141712 1.114224 0.045527 -0.007521 706277.000000 0 0 1
33.320472 -4.073361 17.801050 37.996362 -0.121644 1.083211 0.056533 -0.008426 702407.000000 0 0 1
32.200212 -4.888961 18.227650 37.322953 -0.150679 1.060568 0.084587 -0.008559 647120.000000 0 0 1
31.316812 -4.246961 19.346950 37.055147 -0.134791 1.021471 0.080905 0.000076 494557.000000 0 0 1
30.383092 -3.245361 18.942050 35.950882 -0.106411 1.015863 0.084905 0.008907 512410.000000 0 0 1
31.007012 -1.985961 18.719250 36.273808 -0.063961 1.028558 0.073834 0.000680 -206945.000000 0 0 1
30.076502 -0.787861 19.001950 35.584980 -0.026189 1.007486 0.068689 0.008684 -289529.000000 0 0 1
30.604542 0.498439 18.739850 35.889670 0.016285 1.021424 0.071166 -0.001878 322150.000000 0 0 1
29.640902 1.501639 19.047650 35.265436 0.050618 1.000214 0.064799 -0.000895 221791.000000 0 0 1
30.095422 2.856939 18.546850 35.466635 0.094646 1.020502 0.060953 -0.004521 27953.200000 0 0 1
30.166042 2.840039 17.163150 34.822832 0.093870 1.055411 0.072144 -0.005322 -205719.000000 0 0 1
29.372402 3.859539 16.645950 33.981197 0.130652 1.058870 0.081888 -0.008012 -86693.900000 0 0 1
29.302502 3.883939 15.084050 33.185090 0.131778 1.098937 0.092596 -0.008130 -18815.400000 0 0 1
28.720702 5.095039 14.624950 32.630160 0.175573 1.106042 0.117453 -0.008808 82496.500000 0 0 1
28.410502 4.948439 13.260350 31.740835 0.172446 1.139807 0.124492 -0.009712 -330613.000000 0 0 1
27.698602 6.198139 12.749650 31.115641 0.220144 1.148616 0.146281 -0.008757 -534455.000000 0 0 1
26.471502 6.446639 13.352150 30.341053 0.238881 1.115121 0.120630 -0.014264 -521063.000000 0 0 1
25.914502 7.704839 13.119450 30.050723 0.288994 1.119006 0.149283 -0.030319 76400.500000 0 0 1
24.606102 8.047039 13.877550 29.373483 0.316071 1.078726 0.138070 -0.034163 -188835.000000 0 0 1
23.443602 7.346139 13.571450 28.066929 0.303662 1.066103 0.132807 -0.022881 9968.000000 0 0 1
23.267002 5.997839 14.000550 27.809043 0.252290 1.043206 0.144252 -0.021255 -1582790.000000 0 0 1
21.841402 5.556939 13.801850 26.427590 0.249136 1.021307 0.149199 -0.023026 -1061430.000000 0 0 1
21.493702 5.548239 12.416950 25.435071 0.252619 1.060791 0.167307 -0.031736 351087.000000 0 0 1
20.219602 4.963739 12.277250 24.170269 0.240731 1.037995 0.138845 -0.025103 -221624.000000 0 1 0
19.851802 4.800739 10.803550 23.105364 0.237274 1.084248 0.145630 -0.025652 -297534.000000 0 1 0
20.820302 4.048739 10.138050 23.508665 0.192064 1.124921 0.162134 -0.028591 354793.000000 0 1 0
20.381702 3.770439 8.809850 22.522066 0.182923 1.168899 0.161870 -0.032992 1051980.000000 0 1 0
21.536502 3.193439 7.850950 23.144252 0.147208 1.224711 0.163437 -0.031197 401676.000000 0 1 0
22.037102 1.955139 8.285750 23.624354 0.088489 1.212447 0.168687 -0.031457 865112.000000 0 1 0
23.027002 1.407339 7.431550 24.237396 0.061041 1.259162 0.167504 -0.023617 1020430.000000 0 1 0
24.541802 1.842439 7.525150 25.735628 0.074933 1.274059 0.176928 -0.025421 1044840.000000 0 0 1
25.324702 1.131139 8.507750 26.739518 0.044636 1.246996 0.179079 -0.023409 645875.000000 0 0 1
25.550802 1.846739 9.697750 27.391610 0.072152 1.208908 0.177932 -0.026042 -271387.000000 0 0 1
26.264102 0.934639 10.690750 28.371971 0.035571 1.184450 0.132493 -0.016370 -502465.000000 0 0 1
27.646702 1.144839 10.724050 29.675850 0.041386 1.201056 0.151131 -0.030521 -340315.000000 0 0 1
28.276202 0.342839 11.695150 30.601270 0.012124 1.178644 0.121712 -0.021590 -575410.000000 0 0 1
29.793752 0.424739 11.587050 31.970421 0.014255 1.199922 0.142075 -0.023220 -517722.000000 0 0 1
30.424122 1.580939 12.139850 32.794856 0.051917 1.191598 0.130797 -0.015514 -183168.000000 0 0 1
31.801832 1.329239 12.131750 34.063217 0.041773 1.206648 0.120167 -0.018794 -369088.000000 0 0 1
32.732752 2.544139 12.523650 35.138975 0.077569 1.206381 0.107616 -0.009829 82218.000000 0 0 1
32.938292 3.514339 11.564050 35.085737 0.106293 1.234923 0.112345 -0.025528 383410.000000 0 0 1
33.511912 4.675939 12.215850 35.974153 0.138636 1.224333 0.108545 -0.025770 372737.000000 0 0 1
35.022552 4.909139 11.945550 37.327939 0.139263 1.245050 0.109925 -0.017557 -426005.000000 0 0 1
35.831902 3.922139 12.485750 38.147115 0.109025 1.237346 0.107696 -0.021064 -371335.000000 0 0 1
37.162822 4.271739 12.174250 39.338728 0.114444 1.256158 0.114680 -0.015508 87072.500000 0 0 1
-36.496290 3.351239 12.828450 38.830131 -0.091567 1.234097 0.146572 -0.008456 -280349.000000 0 0 1
-36.371980 1.995939 12.386950 38.475202 -0.054821 1.243012 0.132732 -0.014504 514520.000000 0 0 1
37.266562 1.108139 12.647750 39.369915 0.029727 1.243743 0.118973 -0.013485 455553.000000 0 0 1
36.798472 0.931739 14.119350 39.425268 0.025315 1.204533 0.115089 -0.007219 -415308.000000 0 0 1
-37.006680 0.196739 14.857250 39.878201 -0.005316 1.189024 0.109879 -0.008026 221551.000000 0 0 1
37.274512 -0.134961 16.177450 40.633944 -0.003621 1.161323 0.099113 -0.020557 -34927.900000 0 0 1
-36.495860 -1.129761 16.862650 40.219064 0.030946 1.138155 0.114941 -0.021766 168921.000000 0 0 1
-35.204507 -0.598361 17.115350 39.149081 0.016995 1.118331 0.142204 -0.020228 312192.000000 0 0 1
-34.452105 -1.366261 18.064750 38.924920 0.039636 1.088187 0.125647 -0.017120 -64090.800000 0 0 1
-34.713912 -1.197861 19.547050 39.856965 0.034493 1.058213 0.123928 -0.017815 -1022120.000000 0 0 1
-35.840789 -1.849261 20.018250 41.093944 0.051551 1.061991 0.111412 -0.025849 -554599.000000 0 0 1
-36.023949 -1.590861 21.442650 41.952866 0.044133 1.034317 0.102008 -0.021123 184646.000000 0 0 1
-36.359800 -2.863561 22.247250 42.722068 0.078594 1.023074 0.082115 -0.014465 -18019.000000 0 0 1
-35.273638 -3.776161 22.136050 41.814993 0.106647 1.012926 0.105668 -0.022862 176984.000000 0 0 1
-35.401191 -5.062661 22.756350 42.387808 0.142045 1.004085 0.101363 -0.021554 -137927.000000 0 0 1
-35.486556 -5.136161 24.319910 43.325902 0.143737 0.974810 0.100417 -0.027860 472428.000000 0 0 1
-34.259026 -4.792861 24.962780 42.659029 0.138999 0.945707 0.109099 -0.024912 144683.000000 0 0 1
-34.451777 -4.856961 26.368740 43.655760 0.140056 0.922267 0.117536 -0.032939 522306.000000 0 0 1
-33.399760 -4.014461 27.195180 43.257804 0.119620 0.890946 0.114839 -0.029081 485229.000000 0 0 1
-33.413330 -2.634561 26.940910 43.002374 0.078685 0.893744 0.097385 -0.023455 150873.000000 0 0 1
-32.726380 -2.332861 25.713180 41.684839 0.071163 0.906065 0.095102 -0.022100 -191725.000000 0 0 1
-32.675950 -0.797761 25.428100 41.411863 0.024409 0.909641 0.091136 -0.020573 202658.000000 0 0 1
-33.909300 -0.276461 24.969170 42.111477 0.008153 0.936103 0.091975 -0.027101 85365.800000 0 0 1
-33.823540 1.076739 24.638100 41.859613 -0.031823 0.941484 0.086117 -0.018236 -200990.000000 0 0 1
-35.139263 1.757239 24.251200 42.731445 -0.049966 0.967299 0.083122 -0.014805 -88397.700000 0 0 1
-35.823409 1.275339 23.089680 42.638907 -0.035586 0.998556 0.091242 -0.010983 -101028.000000 0 0 1
-37.058490 1.872639 22.801630 43.551725 -0.050489 1.019781 0.079348 -0.007019 172900.000000 0 0 1
-36.907900 3.301639 22.188850 43.190727 -0.089219 1.031257 0.081047 -0.002258 -197159.000000 0 0 1
-36.257690 3.398439 20.929550 42.002565 -0.093457 1.049168 0.092544 -0.014363 -192616.000000 0 0 1
-36.988190 2.951439 19.801550 42.058751 -0.079625 1.080591 0.098001 -0.014687 -167075.000000 0 0 1
-36.147980 2.231539 18.713450 40.765787 -0.061655 1.093873 0.129365 -0.012112 -24411.500000 0 0 1
-35.256301 3.126439 18.080850 39.745421 -0.088446 1.098518 0.136822 -0.012055 -20545.000000 0 0 1
-34.787021 2.633539 16.874350 38.753271 -0.075561 1.120280 0.158513 -0.015586 45041.200000 0 0 1
-33.760260 3.507939 16.079250 37.557996 -0.103536 1.128387 0.157386 -0.016168 176039.000000 0 0 1
-34.294124 4.685039 15.532550 37.938063 -0.135773 1.148980 0.168726 -0.025304 -308881.000000 0 0 1
-33.377550 5.386539 14.766550 36.893450 -0.160003 1.159008 0.182697 -0.021862 -373472.000000 0 0 1
-33.972990 6.678939 14.161950 37.407661 -0.194120 1.182530 0.197240 -0.033352 195691.000000 0 0 1
-33.145700 7.079439 13.082850 36.330660 -0.210424 1.202416 0.208992 -0.025533 423008.000000 0 0 1
-33.526230 8.386939 12.712850 36.823435 -0.245130 1.218304 0.192919 -0.030665 -176614.000000 0 0 1
-32.559840 9.041639 11.705350 35.761846 -0.270868 1.237337 0.208726 -0.038447 34834.700000 0 0 1
-33.027180 10.317139 11.327950 36.408246 -0.302779 1.254407 0.184142 -0.023091 466992.000000 0 0 1
-32.126710 11.004639 10.452150 35.531324 -0.330012 1.272212 0.181335 -0.033403 97692.500000 0 0 1
-32.594840 12.429539 10.121750 36.323090 -0.364313 1.288399 0.161916 -0.023925 275710.000000 0 0 1
-31.757030 13.154939 9.199550 35.583607 -0.392719 1.309293 0.164027 -0.021697 456154.000000 0 0 1
-31.909820 14.544239 9.408650 36.308321 -0.427660 1.308673 0.149242 -0.018158 -4050.170000 0 0 1
-30.960340 15.287239 8.434850 35.544184 -0.458650 1.331205 0.152633 -0.024300 406249.000000 0 0 1
-29.609390 15.317239 8.892150 34.502233 -0.477400 1.310128 0.168570 -0.019435 22283.900000 0 0 1
-28.832960 15.880239 7.918950 33.856038 -0.503432 1.334709 0.156447 -0.041609 -641669.000000 0 0 1
-27.299700 15.916939 8.091050 32.620356 -0.527859 1.320143 0.155060 -0.030597 -17412.000000 0 0 1
-26.856050 16.574639 9.279050 32.894784 -0.552946 1.284832 0.135686 -0.029206 166127.000000 0 0 1
-27.077890 17.991439 9.404250 33.842930 -0.586455 1.289211 0.135919 -0.043855 -404129.000000 0 0 1
-27.055840 18.645939 10.789250 34.584642 -0.603417 1.253534 0.146244 -0.021263 -110989.000000 0 0 1
-25.835690 18.430839 11.455650 33.740341 -0.619654 1.224386 0.131102 -0.018707 109157.000000 0 0 1
-25.744990 19.074639 12.741450 34.481747 -0.637656 1.192312 0.136886 -0.032628 -256416.000000 0 0 1
-26.289450 18.264739 13.902450 34.900057 -0.607197 1.161079 0.118034 -0.031910 313923.000000 0 0 1
-25.353070 17.258739 14.278050 33.830533 -0.597680 1.135095 0.127541 -0.032824 607818.000000 0 0 1
-25.920470 16.594239 15.386450 34.409045 -0.569454 1.107205 0.124413 -0.025755 -88456.000000 0 0 1
-24.979190 15.556939 16.013350 33.502323 -0.557013 1.072446 0.119617 -0.021729 154647.000000 0 0 1
-23.872490 16.099039 16.718150 33.295215 -0.593321 1.044749 0.110223 -0.024559 1392690.000000 0 0 1
-22.653390 15.296539 16.752450 32.059394 -0.593916 1.020964 0.091759 -0.040469 1194190.000000 0 0 1
-22.722790 13.960739 17.611450 31.959202 -0.550936 0.987162 0.108044 -0.021745 -466488.000000 0 0 1
-22.656090 14.272439 19.004550 32.835558 -0.562158 0.953565 0.113625 -0.014631 64908.100000 0 0 1
-22.658690 13.084439 19.735950 32.773869 -0.523680 0.924560 0.106699 -0.013884 -326842.000000 0 0 1
-22.434590 13.222539 21.301650 33.643820 -0.532575 0.885178 0.105025 -0.009597 -701915.000000 0 0 1
-21.141090 13.515039 21.702850 33.175528 -0.568801 0.857695 0.107614 -0.004346 -749725.000000 0 0 1
-20.921190 14.910739 21.754750 33.664454 -0.619205 0.868171 0.098209 0.005373 432387.000000 0 0 1
-19.466690 15.179739 22.289650 33.259660 -0.662290 0.836358 0.084435 -0.000481 948321.000000 0 0 1
-18.415890 14.811439 21.436550 31.906886 -0.677342 0.834097 0.062332 -0.000936 59034.300000 0 0 1
-17.742490 15.903539 20.761050 31.602843 -0.730797 0.854049 0.050330 -0.017641 -628615.000000 0 0 1
-16.521690 15.450939 19.956750 30.165703 -0.751921 0.847885 0.051828 -0.003940 470385.000000 0 0 1
-15.395090 15.023039 20.733250 29.875879 -0.773168 0.803795 0.041604 0.010000 297489.000000 0 0 1
-14.596490 16.035239 21.297250 30.393408 -0.832333 0.794391 0.044358 0.003558 -158957.000000 0 0 1
-13.463790 15.387939 22.185850 30.170752 -0.851991 0.744624 0.029657 0.004235 662918.000000 0 0 1
-12.491590 14.613239 21.479550 28.826336 -0.863515 0.730057 0.035138 0.000958 576123.000000 0 0 1
-11.511190 14.104539 22.414150 28.876282 -0.886295 0.682159 0.043444 -0.004475 484379.000000 0 0 1
-10.246390 13.516939 21.768450 27.596405 -0.922169 0.661918 0.055106 -0.002622 -879849.000000 0 0 1
-9.518990 12.683239 22.612950 27.619219 -0.926964 0.611584 0.046798 -0.009441 1178960.000000 0 0 1
-8.175990 12.237439 22.314450 26.730814 -0.981793 0.583056 0.053428 0.001283 1219200.000000 0 0 1
-7.082990 13.312739 22.226350 26.859047 -1.081842 0.596124 0.062917 -0.000842 -1174890.000000 0 0 1
-7.068790 14.083439 21.068350 26.309436 -1.105612 0.642182 0.045119 -0.004601 -342245.000000 0 0 1
-6.338190 15.271339 21.207250 26.891149 -1.177394 0.662214 0.039539 -0.004366 -452145.000000 0 0 1
-6.956190 16.382339 22.123250 28.393799 -1.169252 0.677475 0.045180 0.006001 155479.000000 0 0 1
-8.043790 17.016039 21.464750 28.547918 -1.129211 0.719880 0.023526 0.002398 -326083.000000 0 0 1
-7.777890 17.944639 20.403350 28.263092 -1.161800 0.764241 0.018628 0.001432 -677981.000000 0 0 1
-8.956990 17.998939 19.384350 27.927451 -1.109039 0.803632 0.026696 -0.001588 1296390.000000 0 0 1
-10.119990 18.786039 19.680950 29.028766 -1.076672 0.825784 0.018834 -0.002000 530965.000000 0 0 1
-11.001390 18.221539 20.628350 29.640916 -1.027619 0.801066 0.027042 0.008711 -566699.000000 0 0 1
-12.371290 18.908939 20.741150 30.672334 -0.991435 0.828181 0.028574 0.006428 -363562.000000 0 0 1
-13.187590 18.703439 19.630450 30.151049 -0.956663 0.861803 0.026741 0.005648 -300130.000000 0 0 1
-14.414290 19.378339 19.830550 31.249680 -0.931252 0.883326 0.001576 -0.000325 203086.000000 0 0 1
-15.325190 19.310639 18.552250 30.853658 -0.899962 0.925671 0.022140 0.002038 24436.700000 0 0 1
-15.912890 18.057739 18.286050 30.227167 -0.848453 0.921088 0.039686 0.002416 -40409.300000 0 0 1
-16.670490 18.151939 17.093050 29.992841 -0.827916 0.964407 0.060349 -0.022220 -627442.000000 0 0 1
-17.541290 16.859739 16.806650 29.570444 -0.765589 0.966285 0.063632 -0.029770 702778.000000 0 0 1
-18.602590 16.605539 17.714250 30.587496 -0.728738 0.953131 0.064977 -0.022751 227527.000000 0 0 1
-19.669090 17.538239 17.700850 31.745598 -0.728191 0.979323 0.084957 -0.028800 -772925.000000 0 0 1
34.986692 -9.218061 11.745898 38.039551 -0.257619 1.256885 0.093948 -0.036934 -84052.000000 0 0 1
33.785942 -9.877261 11.390698 36.997273 -0.284422 1.257833 0.089603 -0.038654 1452.690000 0 0 1
33.537962 -11.050361 12.131998 37.337525 -0.318286 1.239861 0.105377 -0.029455 1425260.000000 0 0 1
32.009362 -11.550061 12.101898 36.117297 -0.346294 1.229115 0.101516 -0.023968 1090970.000000 0 0 1
31.215302 -10.447361 12.497398 35.209763 -0.322968 1.207945 0.104602 -0.026424 -606747.000000 0 0 1
29.856272 -10.712261 12.577198 34.122360 -0.344488 1.193303 0.098082 -0.025582 -517510.000000 0 0 1
29.297002 -11.513761 13.800498 34.370551 -0.374459 1.157619 0.080606 -0.016005 -952915.000000 0 0 1
29.558802 -10.885561 15.022398 34.898291 -0.352856 1.125791 0.094873 -0.015367 -85265.600000 0 0 1
28.916002 -11.456961 16.108898 35.027043 -0.377239 1.092915 0.106755 -0.020509 -422139.000000 0 0 1
27.422002 -11.111661 16.222798 33.743361 -0.384989 1.069264 0.106220 -0.030995 -492968.000000 0 0 1
27.105402 -9.776161 16.615798 33.262004 -0.346150 1.047725 0.097886 -0.020266 202504.000000 0 0 1
26.198302 -9.209261 15.652598 31.877349 -0.338029 1.057530 0.116401 -0.022955 401272.000000 0 0 1
26.019602 -7.712161 15.731798 31.368561 -0.288149 1.045447 0.139618 -0.029626 -279870.000000 0 0 1
27.117902 -6.939761 15.359798 31.929051 -0.250534 1.068933 0.114854 -0.025190 -491633.000000 0 0 1
27.083202 -5.654161 15.862298 31.891721 -0.205814 1.050220 0.100756 -0.016609 629593.000000 0 0 1
28.403802 -4.876261 15.514798 32.730152 -0.170019 1.076944 0.101975 -0.015106 604196.000000 0 0 1
28.518902 -4.660861 14.099898 32.153671 -0.161998 1.116850 0.113551 -0.023473 145090.000000 0 0 1
29.679102 -3.866361 13.979598 33.033726 -0.129543 1.133831 0.116677 -0.018855 -35937.600000 0 0 1
30.060702 -3.270361 12.582998 32.751686 -0.108366 1.176462 0.120995 -0.031702 160581.000000 0 0 1
30.625952 -4.197161 11.654598 33.036265 -0.136197 1.210254 0.117027 -0.046271 335240.000000 0 0 1
30.938872 -3.641961 10.406998 32.844837 -0.117175 1.248386 0.129567 -0.050422 -23093.600000 0 0 1
31.562242 -4.585661 9.341798 33.233607 -0.144280 1.285861 0.157869 -0.042055 -878670.000000 0 0 1
32.868062 -4.886661 9.661398 34.605370 -0.147594 1.287848 0.139240 -0.051342 -736014.000000 0 0 1
33.380932 -5.989961 8.902298 35.063046 -0.177553 1.314092 0.147380 -0.053247 -446367.000000 0 0 1
34.838752 -6.296261 9.230798 36.586735 -0.178796 1.315741 0.132155 -0.047016 -962085.000000 0 0 1
35.783482 -5.394061 8.792898 37.240684 -0.149615 1.332436 0.139162 -0.045043 -969024.000000 0 0 1
37.012682 -6.071561 8.777198 38.520666 -0.162592 1.340920 0.149969 -0.053162 -574985.000000 0 0 1
-36.551480 -5.246761 8.263298 37.839414 0.142571 1.350644 0.150231 -0.054076 -342334.000000 0 0 1
-36.575810 -4.945561 6.885798 37.545474 0.134399 1.386353 0.156477 -0.045300 208918.000000 0 0 1
-35.976710 -3.634961 6.635698 36.763692 0.100695 1.389306 0.143605 -0.035977 230557.000000 0 0 1
-35.919143 -3.151861 5.149798 36.423062 0.087525 1.428933 0.133873 -0.042582 -571843.000000 0 0 1
-34.861196 -3.636261 4.397498 35.325109 0.103931 1.445986 0.156779 -0.041493 -343121.000000 0 0 1
-34.853297 -3.194261 3.040798 35.131212 0.091393 1.484132 0.164213 -0.032089 -203489.000000 0 0 1
-34.104756 -4.171261 2.146598 34.425886 0.121703 1.508402 0.166673 -0.041890 -199447.000000 0 0 1
-34.728930 -5.425861 1.873398 35.200115 0.154982 1.517550 0.163417 -0.025338 310463.000000 0 0 1
-35.951458 -5.382761 1.134698 36.369891 0.148619 1.539592 0.143855 -0.029194 279678.000000 0 0 1
-35.798307 -5.405061 -0.430402 36.206611 0.149855 1.582684 0.184722 -0.030773 -1167290.000000 0 0 1
-35.395603 -6.646561 -0.906502 36.025646 0.185618 1.595962 0.173933 -0.037256 401694.000000 0 0 1
-34.576549 -6.618461 -2.082002 35.265797 0.189127 1.629868 0.162926 -0.033471 432128.000000 0 0 1
-33.151620 -6.030161 -1.902202 33.749238 0.179929 1.627189 0.163175 -0.038449 -671391.000000 0 0 1
-32.357130 -6.865761 -1.114702 33.096300 0.209086 1.604483 0.166761 -0.038368 635230.000000 0 0 1
-31.148290 -6.251061 -0.615302 31.775310 0.198056 1.590162 0.172115 -0.048519 974082.000000 0 0 1
-30.293940 -7.132161 0.324198 31.123875 0.231221 1.560380 0.153854 -0.040959 6349.400000 0 0 1
-29.953750 -8.431761 -0.204502 31.118540 0.274392 1.577368 0.145146 -0.040027 353079.000000 0 0 1
-29.259580 -9.179661 0.746598 30.674852 0.304007 1.546455 0.147923 -0.036036 -446920.000000 0 0 1
-28.903920 -10.555661 0.146798 30.771417 0.350150 1.566026 0.116299 -0.031112 -61474.500000 0 0 1
-27.884560 -10.470661 -0.862302 29.798103 0.359209 1.599739 0.131745 -0.038442 810425.000000 0 0 1
-27.298970 -11.673661 -1.443302 29.725262 0.404090 1.619370 0.114689 -0.017147 -217021.000000 0 0 1
-28.129060 -12.626161 -2.298502 30.918393 0.421910 1.645206 0.105120 -0.020442 -810710.000000 0 0 1
-29.069160 -13.373061 -1.591302 32.037276 0.431174 1.620487 0.120868 -0.024745 103365.000000 0 0 1
-29.488030 -14.564461 -2.282602 32.967828 0.458765 1.640089 0.112948 -0.017407 -232837.000000 0 0 1
-30.642860 -15.280561 -1.582002 34.278026 0.462580 1.616965 0.123477 -0.018818 -122857.000000 0 0 1
-30.156920 -15.842661 -0.365302 34.067039 0.483714 1.581520 0.094177 -0.007528 698435.000000 0 0 1
-31.171960 -16.621061 0.283898 35.327487 0.489858 1.562760 0.109550 -0.004732 377817.000000 0 0 1
-31.404480 -18.036061 -0.167702 36.215590 0.521319 1.575427 0.111919 -0.007240 -920091.000000 0 0 1
-30.358260 -18.894961 0.040498 35.758147 0.556727 1.569664 0.129068 -0.013037 -682340.000000 0 0 1
-30.649120 -20.282661 -0.176602 36.753041 0.584605 1.575601 0.116618 -0.018837 176141.000000 0 0 1
-31.509210 -21.015961 0.933198 37.886300 0.588218 1.546162 0.106076 -0.021433 11243.400000 0 0 1
-30.827280 -21.273161 2.170598 37.517729 0.604034 1.512909 0.110408 -0.017679 612866.000000 0 0 1
-31.792110 -21.762561 3.119798 38.653336 0.600266 1.489996 0.094573 -0.015845 474785.000000 0 0 1
-31.219010 -22.087561 4.489398 38.505085 0.615744 1.453938 0.094026 -0.016238 -131380.000000 0 0 1
-30.991180 -20.888061 5.174498 37.729825 0.593062 1.433217 0.077900 -0.018024 164536.000000 0 0 1
-30.183200 -21.028061 6.335898 37.327583 0.608495 1.400233 0.081667 -0.022988 129724.000000 0 0 1
-29.861780 -19.772361 7.076398 36.506815 0.584855 1.375724 0.096719 -0.021552 -116686.000000 0 0 1
-29.045990 -19.967761 8.203798 36.189547 0.602256 1.342119 0.081949 -0.028063 -374410.000000 0 0 1
-28.458070 -18.758561 8.527398 35.134909 0.582791 1.325644 0.118854 -0.033839 429950.000000 0 0 1
-27.227600 -18.862161 9.502398 34.458944 0.605850 1.291416 0.120668 -0.032927 217553.000000 0 0 1
-27.541450 -19.393661 10.765998 35.363148 0.613514 1.261445 0.114306 -0.036607 130199.000000 0 0 1
-26.452680 -19.695461 11.649298 34.976586 0.640007 1.231249 0.093774 -0.019688 222042.000000 0 0 1
-25.856280 -18.472161 12.391698 34.107508 0.620336 1.198975 0.094645 -0.024466 -467660.000000 0 0 1
-25.150730 -17.553161 11.543498 32.770795 0.609328 1.210823 0.104726 -0.029759 570467.000000 0 0 1
-24.638290 -16.354061 12.217898 31.996526 0.585992 1.178998 0.098572 -0.027812 658064.000000 0 0 1
-23.674190 -16.493761 13.469998 31.842617 0.608506 1.134023 0.067975 -0.016123 -188628.000000 0 0 1
-24.214690 -17.032861 14.650798 33.032036 0.613011 1.111260 0.073577 -0.026777 -266051.000000 0 0 1
-23.297690 -17.033261 15.705498 32.856917 0.631304 1.072424 0.070132 -0.027664 -176906.000000 0 0 1
-23.964190 -17.742861 16.892698 34.270319 0.637323 1.055348 0.048572 0.000407 319384.000000 0 0 1
-25.081880 -17.053961 17.394598 34.964415 0.597130 1.050088 0.061850 -0.015338 -63922.400000 0 0 1
-25.905810 -17.873561 18.206698 36.360129 0.603945 1.046352 0.056136 -0.001972 332638.000000 0 0 1
-27.048480 -17.082361 18.920198 37.167206 0.563293 1.036708 0.067567 0.000945 57092.400000 0 0 1
-26.676050 -16.435961 20.130098 37.242090 0.552197 0.999741 0.071031 0.006767 232960.000000 0 0 1
-27.638660 -15.442961 20.429298 37.679394 0.509532 0.997758 0.075782 0.002669 -73036.000000 0 0 1
-27.356610 -14.737861 21.745798 37.927146 0.494150 0.960199 0.076410 0.000221 838371.000000 0 0 1
-26.127400 -13.975661 21.735898 36.747917 0.491180 0.937895 0.068110 0.002761 770696.000000 0 0 1
-25.764370 -13.734061 23.069798 37.210788 0.489748 0.902084 0.061779 0.003947 -1206260.000000 0 0 1
-24.309290 -13.360261 23.199598 36.161575 0.502532 0.874274 0.068390 0.012268 -890908.000000 0 0 1
-24.041690 -11.990861 22.901198 35.302244 0.462649 0.864898 0.088116 -0.000348 105556.000000 0 0 1
-23.652490 -11.744261 21.560298 34.091266 0.460871 0.886112 0.111544 -0.000073 -1337490.000000 0 0 1
-23.350090 -10.206461 21.534698 33.363779 0.412080 0.869182 0.115257 -0.003729 404260.000000 0 0 1
-22.394890 -9.760461 22.517698 33.224154 0.411011 0.826097 0.098060 -0.011537 287004.000000 0 0 1
-21.093090 -10.231661 22.268998 32.334403 0.451634 0.811089 0.066224 -0.024796 -1003650.000000 0 0 1
-20.227890 -10.154461 23.556998 32.668222 0.465249 0.765410 0.083031 -0.016369 -97969.500000 0 0 1
-20.516390 -11.026261 24.636798 33.903871 0.493147 0.757340 0.099544 -0.019164 -545814.000000 0 0 1
-19.691990 -10.844761 25.734698 34.171011 0.503395 0.718012 0.093805 -0.023996 -791486.000000 0 0 1
-19.635890 -12.093761 26.654498 35.246127 0.552029 0.713251 0.090951 -0.032623 -119322.000000 0 0 1
-20.829090 -12.319261 27.345598 36.515708 0.534105 0.724438 0.095515 -0.024812 -269428.000000 0 0 1
-21.911590 -12.864761 26.604798 36.789062 0.530896 0.762413 0.086799 -0.017578 471345.000000 0 0 1
-23.206690 -13.131261 27.460898 38.276382 0.514923 0.770680 0.076164 -0.014418 660917.000000 0 0 1
-23.285390 -14.306561 28.257998 39.311595 0.550941 0.768691 0.082975 -0.024635 -62085.100000 0 0 1
-22.481790 -14.176761 29.436398 39.659967 0.562608 0.734420 0.078383 -0.017701 310343.000000 0 0 1
-22.767190 -15.128661 30.594298 41.027215 0.586497 0.729200 0.084832 -0.021516 -318802.000000 0 0 1
-22.656090 -16.495661 30.226598 41.219564 0.629330 0.747623 0.092769 -0.021862 -121319.000000 0 0 1
-22.802790 -17.358261 31.324298 42.455719 0.650652 0.740975 0.088423 -0.028684 -360782.000000 0 0 1
-24.231190 -17.724061 31.754298 43.699294 0.631527 0.757356 0.110404 -0.026246 -133599.000000 0 0 1
-24.831190 -16.774261 32.647998 44.315410 0.594115 0.742591 0.124046 -0.028831 714306.000000 0 0 1
-26.029480 -17.177061 33.364198 45.670066 0.583309 0.751671 0.117675 -0.027323 1103370.000000 0 0 1
-26.805470 -16.016661 -33.758953 45.986232 0.538590 2.395151 0.111560 -0.022239 255617.000000 0 0 1
-26.234760 -15.566561 -32.529953 44.595720 0.535520 2.388301 0.125289 -0.023868 -170805.000000 0 0 1
-27.034570 -14.560661 -31.954753 44.316893 0.494044 2.376115 0.131958 -0.025405 -15579.400000 0 0 1
-26.551220 -14.000561 -30.587953 42.855639 0.485251 2.365625 0.119275 -0.012968 -19157.700000 0 0 1
-26.695290 -14.938261 -29.502853 42.499511 0.510172 2.338094 0.121955 -0.000701 301061.000000 0 0 1
-26.128200 -14.402461 -28.296553 41.119443 0.503782 2.329740 0.122385 0.006750 75542.200000 0 0 1
-26.477500 -15.327261 -27.097853 40.869017 0.524744 2.295671 0.101037 0.005142 1131820.000000 0 0 1
-27.766770 -15.214961 -26.431553 41.244582 0.501272 2.266400 0.095231 0.001565 1126340.000000 0 0 1
-28.034860 -14.123961 -25.578853 40.493423 0.466683 2.254514 0.095129 -0.005995 -184823.000000 0 0 1
-27.172830 -14.050661 -24.292153 39.062673 0.477222 2.241933 0.103415 -0.019598 209732.000000 0 0 1
-25.912470 -13.383361 -24.394353 38.021768 0.476747 2.267365 0.105349 -0.015632 1217750.000000 0 0 1
-24.908690 -13.653461 -23.407553 36.807246 0.501414 2.260035 0.090633 -0.018056 626000.000000 0 0 1
-24.281090 -15.067961 -23.421853 36.948585 0.555403 2.257387 0.087037 -0.027810 -812465.000000 0 0 1
-23.479990 -15.318761 -24.548653 37.264067 0.578073 2.289986 0.106879 -0.009588 69905.500000 0 0 1
-23.116390 -16.685961 -24.598653 37.654780 0.625223 2.282689 0.120020 -0.008165 -302465.000000 0 0 1
-22.152690 -16.960861 -25.772853 37.982264 0.653432 2.316583 0.103136 -0.009434 192101.000000 0 0 1
-22.734890 -17.067361 -27.107953 39.281180 0.643957 2.332424 0.101147 -0.006730 32516.100000 0 0 1
-23.548290 -18.176261 -27.327053 40.393888 0.657353 2.313816 0.095885 -0.011465 -297680.000000 0 0 1
-24.353090 -18.079861 -28.643553 41.718191 0.638623 2.327593 0.106933 -0.009017 406648.000000 0 0 1
-23.534490 -18.419861 -29.789153 42.196648 0.664087 2.354574 0.099508 -0.006520 606452.000000 0 0 1
-24.288690 -18.330461 -30.974453 43.420767 0.646497 2.365071 0.092551 -0.007786 -597660.000000 0 0 1
-23.611490 -18.973661 -32.150753 44.172086 0.676919 2.385981 0.092543 -0.022321 -248677.000000 0 0 1
-22.562790 -18.238461 -32.762553 43.761922 0.679807 2.416826 0.101797 -0.020533 248421.000000 0 0 1
-21.256190 -18.569261 -32.329153 42.916397 0.718033 2.423870 0.087498 -0.028833 -38936.300000 0 0 1
-20.532890 -19.567361 -33.252653 43.706065 0.761325 2.435379 0.095314 -0.034679 -741222.000000 0 0 1
-20.424590 -19.008761 33.237498 43.396177 0.749509 0.698343 0.083078 -0.034883 -12343.300000 0 0 1
-20.178190 -19.915261 32.203398 42.904962 0.778840 0.721864 0.080118 -0.037736 439294.000000 0 0 1
-21.496790 -20.623361 31.762598 43.546500 0.764665 0.753359 0.087446 -0.029573 166902.000000 0 0 1
-22.093490 -21.542561 32.638598 44.916392 0.772773 0.757360 0.085171 -0.028550 -408257.000000 0 0 1
-23.299490 -22.089061 32.176198 45.454379 0.758736 0.784306 0.081441 -0.016029 -239476.000000 0 0 1
-23.160790 -23.128161 31.017898 45.093725 0.784693 0.812268 0.082115 -0.014880 -624771.000000 0 0 1
-22.596990 -24.317161 31.488198 45.754288 0.822048 0.811788 0.082360 -0.011150 -96360.800000 0 0 1
-22.579790 -25.425691 30.579498 45.732028 0.844612 0.838382 0.106955 -0.005709 26113.000000 0 0 1
-22.021990 -26.691251 31.264298 46.635257 0.880958 0.836048 0.107608 -0.013108 -564695.000000 0 0 1
-22.943790 -27.234711 32.169098 47.989560 0.870704 0.836136 0.105669 -0.011541 -573050.000000 0 0 1
-22.393590 -28.154151 32.993498 48.812908 0.898871 0.828587 0.107231 -0.016942 -1354620.000000 0 0 1
-23.298590 -28.772671 -33.750353 50.097676 0.890140 2.309988 0.096355 -0.017398 -867925.000000 0 0 1
-24.277290 -29.588311 33.496598 50.861351 0.883678 0.851858 0.091493 -0.021130 -264307.000000 0 0 1
-25.494830 -29.023241 33.079198 50.858315 0.850028 0.862661 0.070204 -0.014604 -212629.000000 0 0 1
-26.522090 -28.627651 -33.640153 51.523039 0.823559 2.282223 0.067883 -0.009527 -462948.000000 0 0 1
-27.743400 -28.101761 33.717898 51.925926 0.791815 0.864072 0.050459 -0.006112 247384.000000 0 0 1
-28.669950 -27.915271 -33.011853 51.874953 0.772062 2.260584 0.047832 -0.000472 142062.000000 0 0 1
-29.814220 -26.978341 -33.413253 52.279671 0.735506 2.264157 0.024828 -0.002651 -180935.000000 0 0 1
-30.748050 -27.567521 33.500298 53.175941 0.730912 0.889256 0.017714 -0.002548 1197890.000000 0 0 1
-31.868560 -26.621311 33.315198 53.237221 0.695926 0.894655 0.013896 -0.011519 1040960.000000 0 0 1
