# x y z rho theta phi s1 s2 stress_xx np intf bulk
-0.767178 -10.760774 -14.351054 17.953706 1.499623 2.496987 0.003035 0.002261 -1476910.000000 1 0 0
2.131522 -13.427274 -13.046554 18.842708 -1.413364 2.335596 0.013410 0.006118 265386.000000 1 0 0
2.103722 -11.151874 -14.728854 18.593791 -1.384344 2.485101 0.007160 0.007541 1246140.000000 1 0 0
-5.688378 -6.278774 -16.334354 18.400863 0.834693 2.663111 0.025780 -0.008982 674330.000000 1 0 0
4.481722 -14.099574 -11.400354 18.677577 -1.263034 2.227332 0.011655 -0.000585 1434410.000000 1 0 0
14.139522 -10.574374 -7.941554 19.360056 -0.642130 1.993473 0.049821 -0.010323 636311.000000 1 0 0
7.115022 10.834826 -10.868654 16.915810 0.989739 2.268572 0.033980 -0.011766 981260.000000 1 0 0
5.701322 -4.257874 -12.636854 14.502574 -0.641464 2.628748 0.000249 -0.002273 2315930.000000 1 0 0
13.644822 0.562226 -10.125254 17.000531 0.041181 2.208790 0.038937 -0.002538 1539900.000000 1 0 0
14.096922 5.016026 -10.365054 18.202145 0.341854 2.176622 0.029111 0.003132 -1148090.000000 1 0 0
4.095122 4.289226 -13.376554 14.632146 0.808545 2.724300 0.002793 0.001383 2838430.000000 1 0 0
10.257022 -5.058074 -13.755554 17.888708 -0.458139 2.447996 0.040354 -0.001944 444490.000000 1 0 0
2.519122 -7.637074 -12.101854 14.530167 -1.252180 2.555084 -0.003069 -0.001109 1958690.000000 1 0 0
-5.566078 -2.023874 -15.103254 16.222995 0.348747 2.767879 0.011033 -0.005512 1202300.000000 1 0 0
10.652522 0.103726 -9.698154 14.406290 0.009737 2.309309 0.018860 -0.001367 1634880.000000 1 0 0
-1.715278 -9.489874 -16.889754 19.449002 1.391979 2.622788 0.017205 -0.009056 2281270.000000 1 0 0
8.540422 1.737226 -18.025854 20.022192 0.200674 2.691240 0.043814 -0.009416 -1278970.000000 1 0 0
16.334522 -5.977974 -8.917854 19.546890 -0.350832 2.044549 0.086672 -0.007583 685386.000000 1 0 0
10.149122 7.542626 -9.959154 16.095982 0.639122 2.237928 0.031847 -0.005228 -207297.000000 1 0 0
13.737222 -2.300774 -10.573954 17.487519 -0.165944 2.220132 0.054259 -0.008894 -962933.000000 1 0 0
7.201722 -1.905274 -13.752754 15.640752 -0.258633 2.645165 0.014956 -0.004496 435115.000000 1 0 0
-2.827778 6.595426 -13.842654 15.592147 -1.165755 2.663331 0.008159 -0.000346 1414460.000000 1 0 0
11.301122 1.759326 -13.939654 18.031210 0.154437 2.454486 0.045381 -0.003038 519303.000000 1 0 0
-2.349778 10.704926 -12.884554 16.915337 -1.354719 2.436742 0.006818 -0.001522 -2099.960000 1 0 0
2.883422 -1.083774 -15.331754 15.638138 -0.359528 2.943318 0.007081 -0.007642 367618.000000 1 0 0
-9.105278 0.548126 -15.161154 17.693703 -0.060126 2.599958 0.019786 -0.002093 -731135.000000 1 0 0
2.339622 -1.842874 -18.049554 18.293617 -0.667184 2.978062 0.024563 -0.018562 620250.000000 1 0 0
1.108722 7.900526 -13.173854 15.401234 1.431372 2.597074 0.010413 -0.000263 1670930.000000 1 0 0
9.397122 -9.148874 -9.854954 16.405119 -0.772013 2.215203 0.027540 -0.005722 -339623.000000 1 0 0
3.985322 7.230726 -13.461054 15.791332 1.067059 2.591418 0.004280 0.000099 1186320.000000 1 0 0
-2.767578 9.120126 -15.467854 18.168398 -1.276170 2.589369 0.005980 -0.001775 1237210.000000 1 0 0
5.533122 -7.627174 -15.226554 17.906344 -0.943194 2.587435 0.016275 -0.004770 1215790.000000 1 0 0
4.174222 7.224526 -16.331754 18.339686 1.046872 2.669271 0.018181 -0.003607 -442568.000000 1 0 0
-0.173078 5.088126 -13.474454 14.404162 -1.536793 2.780342 0.007214 -0.002776 3292410.000000 1 0 0
8.790622 4.366326 -16.683354 19.356501 0.461006 2.609800 0.040983 -0.005646 710970.000000 1 0 0
5.323422 0.344526 -14.445454 15.398983 0.064629 2.787838 0.004430 -0.002846 1671690.000000 1 0 0
6.403522 7.939026 -11.697654 15.519934 0.892051 2.424498 0.007594 -0.000646 353679.000000 1 0 0
2.710822 -8.378174 -15.075054 17.458511 -1.257870 2.612923 0.008648 -0.003836 766469.000000 1 0 0
3.925322 11.401526 -13.720154 18.265968 1.239226 2.420572 0.038655 -0.020153 -1576210.000000 1 0 0
0.618622 -4.525074 -13.832454 14.566941 -1.434929 2.822685 0.005974 -0.005020 1926500.000000 1 0 0
8.495722 -0.075474 -11.715554 14.471945 -0.008884 2.514157 0.008160 -0.000951 344356.000000 1 0 0
-1.022378 -5.086574 -16.315854 17.120911 1.372444 2.833713 0.010727 -0.014551 559266.000000 1 0 0
4.462022 0.857626 -11.771054 12.617562 0.189890 2.773208 -0.000471 -0.001018 -465295.000000 1 0 0
-3.006078 -7.188674 -15.589654 17.428449 1.174726 2.678096 0.001140 -0.006140 1929470.000000 1 0 0
11.272122 -3.761674 -11.379954 16.453397 -0.322094 2.334564 0.032107 -0.003840 -218088.000000 1 0 0
6.485222 -7.079174 -12.494854 15.757353 -0.829158 2.486438 0.010084 0.000581 -1310210.000000 1 0 0
3.449522 -3.979574 -14.717554 15.631462 -0.856626 2.797951 0.009830 -0.008288 2476060.000000 1 0 0
-0.549578 -1.582374 -18.222754 18.299582 1.236518 3.049927 0.025497 -0.023713 260726.000000 1 0 0
15.049422 2.924226 -8.549954 17.553858 0.191917 2.079528 0.029805 0.001497 -1444020.000000 1 0 0
6.958222 4.416426 -14.316054 16.518810 0.565549 2.619248 0.014147 -0.001066 3142720.000000 1 0 0
10.180222 -9.758374 -13.921354 19.815824 -0.764244 2.349753 0.067783 -0.011634 -404039.000000 1 0 0
9.028422 -3.177574 -15.587054 18.291135 -0.338413 2.590904 0.060829 -0.011011 1137150.000000 1 0 0
-5.279478 -2.136774 -18.057254 18.934178 0.384579 2.836056 0.012884 -0.001623 -613668.000000 1 0 0
5.048422 -9.193074 -11.240254 15.373434 -1.068602 2.390799 -0.003868 0.002348 2060420.000000 1 0 0
-2.435778 3.992526 -17.261954 17.884304 -1.022995 2.877008 0.009986 0.005231 1931900.000000 1 0 0
9.323322 9.631326 -14.524454 19.764780 0.801646 2.396265 0.076652 -0.005651 -80719.400000 1 0 0
9.905622 9.987526 -11.530454 18.188551 0.789515 2.257434 0.050526 -0.015223 868564.000000 1 0 0
11.952722 -6.002374 -9.683854 16.512816 -0.465387 2.197459 0.035152 -0.002267 -219711.000000 1 0 0
8.191622 7.084526 -13.838254 17.572435 0.713052 2.477535 0.026953 0.000052 -55959.400000 1 0 0
4.003422 -4.191974 -17.588454 18.519010 -0.808401 2.823237 0.034107 -0.020243 -160971.000000 1 0 0
9.305422 -7.536774 -12.334854 17.191349 -0.680769 2.371008 0.029539 -0.004597 925420.000000 1 0 0
12.056422 -8.684474 -8.871654 17.305596 -0.624233 2.109061 0.043805 -0.008850 -413848.000000 1 0 0
-2.907578 -2.611674 -13.853254 14.394009 0.731836 2.866617 0.007192 -0.007258 -2313690.000000 1 0 0
-0.358478 6.172126 -17.656354 18.707498 -1.512781 2.804776 0.018723 0.001781 2234460.000000 1 0 0
0.984822 -8.422274 -17.568554 19.507913 -1.454394 2.691912 0.022043 -0.009217 1350670.000000 1 0 0
0.068422 8.567626 -16.024854 18.171539 1.562810 2.650601 0.014181 0.003027 -124750.000000 1 0 0
1.797722 3.327626 -14.944854 15.416016 1.075476 2.893721 0.010921 0.000354 1413050.000000 1 0 0
-1.926578 -0.555574 -15.727854 15.855149 0.280756 3.014790 0.013721 -0.009830 733921.000000 1 0 0
14.021322 -4.360574 -8.506354 16.969683 -0.301514 2.095860 0.049887 -0.002441 20942.600000 1 0 0
0.549422 0.561226 -14.558654 14.579823 0.796026 3.087698 0.003392 -0.004100 1455010.000000 1 0 0
8.825322 2.733326 -12.608554 15.631155 0.300345 2.509224 0.015068 -0.000680 1823370.000000 1 0 0
5.846122 1.027326 -17.173754 18.170591 0.173952 2.808820 0.026931 -0.005429 -90908.000000 1 0 0
15.361522 1.472026 -12.474654 19.843392 0.095534 2.250619 0.076995 -0.011209 -675730.000000 1 0 0
8.815922 -11.319774 -11.847654 18.607113 -0.909112 2.261043 0.048355 -0.006422 1240380.000000 1 0 0
-4.550178 0.738426 -15.024954 15.716190 -0.160883 2.843906 0.012105 -0.004767 990271.000000 1 0 0
2.371322 5.059026 -17.251254 18.133468 1.132475 2.828381 0.019795 -0.002813 1439320.000000 1 0 0
5.920122 -11.808174 -12.441354 18.145746 -1.106063 2.326272 0.014418 0.001651 -575567.000000 1 0 0
12.805722 7.120426 -8.711854 17.046507 0.507465 2.107218 0.021007 -0.005095 389811.000000 1 0 0
-4.922078 3.519326 -15.662554 16.790715 -0.620728 2.772931 0.011128 0.001501 2600590.000000 1 0 0
-0.682678 -4.455974 -19.133154 19.657043 1.418773 2.910203 0.026483 -0.022905 -1365130.000000 1 0 0
9.756722 4.465326 -10.274154 14.855673 0.429211 2.334496 0.006130 0.000090 -9443.260000 1 0 0
13.331922 3.565626 -12.882854 18.879136 0.261334 2.321818 0.056916 -0.003983 786449.000000 1 0 0
-6.144978 5.733526 -17.203854 19.146975 -0.750774 2.687172 0.010258 0.007517 -6507.350000 1 0 0
-10.059078 3.352126 -15.285954 18.603284 -0.321670 2.535149 0.013768 -0.006282 272940.000000 1 0 0
10.623722 13.600826 -8.164754 19.092123 0.907681 2.012688 0.087154 -0.017092 1292970.000000 1 0 0
7.398722 13.353026 -12.264254 19.582041 1.064822 2.247596 0.075426 -0.026593 -507839.000000 1 0 0
5.371022 15.168926 -11.184954 19.597127 1.230491 2.178209 0.052550 -0.022695 -573209.000000 1 0 0
14.302922 9.516926 -9.808454 19.782599 0.587114 2.089566 0.089738 -0.015808 -1227000.000000 1 0 0
8.431022 -17.165874 -2.057754 19.234961 -1.114254 1.677981 0.023215 -0.002696 -621619.000000 1 0 0
0.744622 -15.853374 -0.037054 15.870895 -1.523862 1.573131 0.017476 -0.014986 2522720.000000 1 0 0
-9.146378 -11.658874 7.665946 16.683893 0.905579 1.093385 0.032386 -0.008232 1261270.000000 1 0 0
2.136422 -15.903374 -2.584754 16.253078 -1.437258 1.730506 0.016265 -0.007769 1301130.000000 1 0 0
-1.242378 -11.022474 -9.450054 14.571958 1.458557 2.276421 0.001102 -0.000213 419496.000000 1 0 0
-4.731278 -12.697574 -12.840554 18.667973 1.214120 2.329304 0.007810 -0.002595 -825909.000000 1 0 0
-8.304978 -17.852674 -1.550354 19.750803 1.135378 1.649373 0.062590 -0.020863 -884409.000000 1 0 0
-11.415678 -7.208174 -8.755754 16.091572 0.563208 2.146137 0.014180 -0.004488 3115450.000000 1 0 0
-13.635578 -11.608574 -4.635854 18.498084 0.705274 1.824109 0.030197 -0.005214 -583833.000000 1 0 0
-5.696878 -13.532574 9.710946 17.603620 1.172340 0.986461 0.024434 -0.005226 -10020.200000 1 0 0
0.165822 -14.010674 -3.658754 14.481470 -1.558961 1.826215 0.012089 -0.008343 1028690.000000 1 0 0
-14.746478 -11.489174 1.992746 18.799754 0.661875 1.464598 0.016162 -0.003931 447364.000000 1 0 0
-3.960778 -16.491774 -7.491654 18.541609 1.335094 1.986731 0.033254 -0.012770 308501.000000 1 0 0
0.454822 -15.277274 -9.327554 17.905452 -1.541034 2.118741 0.006691 0.003025 1124520.000000 1 0 0
4.565622 -14.195774 -2.559854 15.130028 -1.259626 1.740804 0.013202 -0.002902 151871.000000 1 0 0
-3.351878 -18.026574 -2.425054 18.495225 1.386955 1.702293 0.041597 -0.024962 1485590.000000 1 0 0
-0.935778 -13.393874 0.659746 13.442723 1.501044 1.521698 0.013143 -0.009917 2992070.000000 1 0 0
-8.483878 -11.412574 -10.476954 17.663227 0.931546 2.205763 0.013109 -0.008575 2168270.000000 1 0 0
-3.742578 -14.076774 -0.363654 14.570336 1.310939 1.595757 0.013844 -0.010093 4148740.000000 1 0 0
-1.562378 -14.856674 -7.320854 16.636006 1.466018 2.026463 0.012390 -0.001665 1304010.000000 1 0 0
-14.224078 -7.971574 -1.770954 16.401422 0.510814 1.678983 0.008613 -0.004142 1639370.000000 1 0 0
-10.788178 -7.371574 -11.574754 17.455653 0.599431 2.295742 0.021247 -0.007054 -1769060.000000 1 0 0
-9.457478 -14.708974 6.849546 18.780684 0.999377 1.197473 0.025812 -0.001146 -635746.000000 1 0 0
-2.526678 -14.446174 -12.233554 19.098060 1.397645 2.266031 0.018997 0.000460 -809668.000000 1 0 0
2.474722 -17.633374 -4.811954 18.444919 -1.431364 1.834732 0.033866 -0.010373 162976.000000 1 0 0
-6.633178 -9.714874 -9.161054 14.909820 0.971717 2.232461 0.010311 -0.007232 1234490.000000 1 0 0
-10.969778 -15.329774 0.424246 18.855184 0.949686 1.548294 0.035060 -0.013389 1544450.000000 1 0 0
-12.690278 -10.963774 4.191746 17.286359 0.712538 1.325866 0.030647 -0.005614 1713360.000000 1 0 0
-17.085678 -9.045474 -1.501054 19.390569 0.486904 1.648285 0.015205 -0.007085 204710.000000 1 0 0
-1.083178 -18.961574 -3.922354 19.393283 1.513733 1.774454 0.058378 -0.024935 -89735.300000 1 0 0
3.187522 -14.314474 -8.752254 17.078244 -1.351693 2.108866 0.015797 -0.001186 571436.000000 1 0 0
-4.366778 -8.086974 -13.072354 15.979810 1.075681 2.528816 0.005747 -0.002136 1782020.000000 1 0 0
5.652822 -16.499374 1.242246 17.485048 -1.240722 1.499690 0.021336 -0.007726 4351600.000000 1 0 0
-2.826978 -13.755474 -3.243854 14.412753 1.368102 1.797809 0.012420 -0.008343 -1077470.000000 1 0 0
-0.333878 -13.860474 3.661846 14.339921 1.546713 1.312576 0.014817 -0.010122 -4227170.000000 1 0 0
1.337522 -16.120874 7.009246 17.629551 -1.488018 1.161913 0.021905 -0.008900 1593840.000000 1 0 0
-5.559578 -10.412874 -14.524054 18.715902 1.080387 2.459139 0.010645 -0.006049 -926205.000000 1 0 0
-0.112978 -17.097174 -5.993354 18.117572 1.564188 1.907951 0.035769 -0.010350 289992.000000 1 0 0
-6.575078 -13.424274 -1.167654 14.993538 1.115350 1.648752 0.018439 -0.008162 3134850.000000 1 0 0
-1.661478 -17.667574 -0.050154 17.745596 1.477031 1.573623 0.029871 -0.019687 1294270.000000 1 0 0
-9.493378 -9.844074 -4.782954 14.488156 0.803532 1.907236 0.015475 -0.004918 2084410.000000 1 0 0
-0.619878 -16.621774 4.818046 17.317078 1.533520 1.288851 0.026321 -0.011259 2368310.000000 1 0 0
-6.851278 -9.917974 -6.274654 13.589610 0.966276 2.050735 0.012433 -0.007361 1553700.000000 1 0 0
-6.119078 -14.602674 -8.581354 18.008910 1.173986 2.067473 0.017978 -0.009124 1150220.000000 1 0 0
-5.704978 -12.212174 -10.192554 16.898879 1.133768 2.218240 0.007198 -0.007552 1723050.000000 1 0 0
-10.678978 -12.368074 -8.652154 18.489716 0.858556 2.057759 0.030825 -0.014617 -7726.930000 1 0 0
4.194522 -16.904374 6.638446 18.639228 -1.327576 1.206647 0.037162 -0.013869 974755.000000 1 0 0
-6.656378 -14.345474 -4.034754 16.321128 1.136357 1.820597 0.027990 -0.016672 -830095.000000 1 0 0
-2.799278 -12.152174 -7.071654 14.335954 1.344394 2.086654 0.008896 -0.005337 2380850.000000 1 0 0
-6.997178 -12.845474 4.419646 15.280706 1.072016 1.277373 0.012670 -0.005303 3060370.000000 1 0 0
2.703422 -16.257874 2.346446 16.647305 -1.406020 1.429375 0.026499 -0.015370 2977450.000000 1 0 0
-6.171778 -11.971874 7.253546 15.298057 1.094807 1.076800 0.014003 -0.006932 1305450.000000 1 0 0
-11.330478 -12.829974 -0.960854 17.143838 0.847383 1.626872 0.029443 -0.005909 765561.000000 1 0 0
-14.351578 -8.685474 4.771946 17.440663 0.544229 1.293652 0.029475 -0.009846 330549.000000 1 0 0
-7.912278 -15.452074 4.478146 17.928316 1.097553 1.318343 0.024692 -0.003605 766666.000000 1 0 0
-16.567178 -9.135074 1.320646 18.964837 0.503914 1.501103 0.005604 0.001177 -502911.000000 1 0 0
-6.546878 -17.052574 2.476446 18.433249 1.204226 1.436042 0.025510 -0.008918 1514360.000000 1 0 0
-11.641678 -14.941774 -4.578254 19.487064 0.908907 1.807951 0.055878 -0.011677 1364940.000000 1 0 0
-10.087478 -10.015774 -12.554654 18.965555 0.781831 2.294242 0.014133 -0.006033 6958.100000 1 0 0
-4.317778 -15.996174 -4.515254 17.172894 1.307154 1.836853 0.022901 -0.015152 -523016.000000 1 0 0
-11.831978 -8.261974 0.050346 14.431162 0.609567 1.567308 0.003725 -0.002747 375732.000000 1 0 0
-9.677578 -11.250774 3.570746 15.263868 0.860428 1.334674 0.015705 -0.002682 4666890.000000 1 0 0
-14.331378 -12.899374 -0.552554 19.289571 0.732859 1.599445 0.031249 -0.000873 427403.000000 1 0 0
5.559322 -14.839574 -7.091654 17.361180 -1.212352 1.991582 0.015941 -0.011484 691239.000000 1 0 0
-7.560278 -10.601474 -1.153454 13.072089 0.951309 1.659149 0.008034 -0.005702 442671.000000 1 0 0
-11.625078 -8.310774 -6.027554 15.509442 0.620656 1.969949 0.015580 -0.004920 1284480.000000 1 0 0
-14.446078 -6.661874 -9.197154 18.375456 0.432091 2.094988 0.034487 -0.009840 -82149.900000 1 0 0
-3.848178 -16.362874 1.520046 16.877875 1.339816 1.480613 0.029463 -0.017676 230576.000000 1 0 0
-7.940678 -15.620674 0.179246 17.524039 1.100496 1.560568 0.037767 -0.014002 1624180.000000 1 0 0
1.244522 -18.442774 3.633346 18.838417 -1.503418 1.376711 0.036080 -0.014903 -162231.000000 1 0 0
-14.110078 -8.798874 -4.552554 17.240656 0.557583 1.838025 0.014986 -0.009112 -986714.000000 1 0 0
-3.288278 -14.497974 11.185946 18.604553 1.347760 0.925735 0.012230 -0.006814 217291.000000 1 0 0
-10.790278 -12.164474 -3.748154 16.686916 0.845192 1.797346 0.027077 -0.012743 2572230.000000 1 0 0
-10.084278 -10.714974 0.633046 14.727663 0.815712 1.527800 0.011477 -0.004092 1454750.000000 1 0 0
-0.103778 -13.174174 -11.213354 17.300547 1.562919 2.275949 0.008187 -0.000810 379903.000000 1 0 0
-5.843578 -12.652974 -6.297254 15.293808 1.138145 1.995172 0.007675 -0.011653 3226790.000000 1 0 0
1.687522 -15.856274 9.922946 18.781214 -1.464769 1.014147 0.015987 -0.008448 -266569.000000 1 0 0
-8.922278 -15.717474 -5.255354 18.821923 1.054491 1.853772 0.052189 -0.023423 -530283.000000 1 0 0
-3.218878 -15.491574 5.860346 16.872868 1.365929 1.216081 0.012559 -0.007759 -1440720.000000 1 0 0
-17.470778 -5.571474 -6.542054 19.469665 0.308707 1.913477 0.029731 -0.010750 276821.000000 1 0 0
18.798222 5.504926 -3.062454 19.825640 0.284878 1.725887 0.012150 0.002495 -297667.000000 1 0 0
13.122522 -12.343974 -5.853954 18.943153 -0.754836 1.884967 0.051262 -0.003720 -325086.000000 1 0 0
11.002822 -13.442574 -1.662654 17.450768 -0.884873 1.666218 0.023719 -0.004700 2858940.000000 1 0 0
18.867022 -2.817174 4.650546 19.634882 -0.148222 1.331673 0.085301 -0.017912 -523093.000000 1 0 0
9.034322 -16.629574 4.920546 19.554372 -1.073136 1.316428 0.049526 -0.023972 -1176110.000000 1 0 0
18.236822 -1.086474 6.765446 19.481616 -0.059505 1.216134 0.113609 -0.024610 1214040.000000 1 0 0
17.997022 -4.252074 -4.937754 19.140385 -0.232011 1.831723 0.096598 -0.009670 119504.000000 1 0 0
5.343322 -11.797274 14.666746 19.566303 -1.145510 0.723351 -0.007635 -0.006870 -327467.000000 1 0 0
16.086022 -8.925874 -0.749654 18.411771 -0.506585 1.611524 0.038034 -0.009392 -395399.000000 1 0 0
13.895322 -12.481674 -1.537954 18.741330 -0.731855 1.652951 0.030367 -0.001467 -413185.000000 1 0 0
11.357622 -1.910474 13.806146 17.979298 -0.166651 0.695254 0.042111 -0.004854 -340629.000000 1 0 0
16.950122 -6.096674 -1.349754 18.063718 -0.345275 1.645588 0.050104 -0.008196 -1852120.000000 1 0 0
17.744022 3.712726 -1.014054 18.156623 0.206262 1.626676 0.009444 0.004984 -274120.000000 1 0 0
9.720622 -11.010674 9.581846 17.536739 -0.847545 0.992752 0.023192 -0.010317 939104.000000 1 0 0
9.072622 -10.932174 4.277246 14.836433 -0.878087 1.278352 0.006730 -0.010987 506519.000000 1 0 0
14.067922 -10.083274 6.862546 18.619167 -0.621884 1.193321 0.062008 -0.017908 184498.000000 1 0 0
16.336222 -0.588474 -4.673554 17.001781 -0.036007 1.849268 0.043057 -0.000191 -979766.000000 1 0 0
15.738922 -0.452574 -1.723654 15.839491 -0.028747 1.679832 0.028036 0.003428 -97247.100000 1 0 0
12.941222 -5.186774 -0.317554 13.945562 -0.381191 1.593569 0.012606 -0.006255 1557000.000000 1 0 0
14.311122 -7.557374 1.081346 16.220093 -0.485856 1.504080 0.030976 -0.007729 2473680.000000 1 0 0
15.577122 2.455326 3.554546 16.165091 0.156338 1.349094 0.020237 -0.010263 2019010.000000 1 0 0
15.885422 -7.152574 5.042446 18.136488 -0.423070 1.289056 0.061205 -0.019627 -940915.000000 1 0 0
13.656222 -12.161074 3.297046 18.581029 -0.727550 1.392410 0.030510 -0.005841 -85789.500000 1 0 0
14.028322 -0.959574 9.137146 16.769080 -0.068296 0.994550 0.065205 -0.017123 -663740.000000 1 0 0
14.134722 -2.765174 -1.615454 14.492972 -0.193190 1.682493 0.004611 -0.001058 -663131.000000 1 0 0
15.021222 1.897326 9.000746 17.613926 0.125644 1.034447 0.072402 -0.015619 -1558600.000000 1 0 0
14.448722 -10.004674 -2.988354 17.826647 -0.605625 1.739226 0.029774 -0.009825 597291.000000 1 0 0
7.358422 -12.520574 6.105846 15.754127 -1.039465 1.172801 -0.002259 -0.007362 683118.000000 1 0 0
12.354222 -4.573474 6.972246 14.904888 -0.354552 1.084016 0.025771 -0.011546 2339060.000000 1 0 0
14.955522 -8.873474 -5.659354 18.287550 -0.535496 1.885427 0.052788 -0.006955 -425965.000000 1 0 0
14.339122 -4.547174 4.666246 15.749955 -0.307085 1.270011 0.031043 -0.014993 1398170.000000 1 0 0
17.104722 -4.225174 1.005346 17.647502 -0.242170 1.513797 0.032545 -0.014900 -153442.000000 1 0 0
10.310122 -14.394274 1.106746 17.740311 -0.949237 1.508370 0.029498 -0.007448 -744391.000000 1 0 0
16.453122 -2.570674 8.640146 18.760749 -0.154989 1.092189 0.107944 -0.022386 1451580.000000 1 0 0
16.180022 -2.604074 3.314346 16.720024 -0.159575 1.371249 0.029685 -0.010397 1954120.000000 1 0 0
7.887222 -15.060374 2.670246 17.209107 -1.088364 1.415002 0.008878 -0.007812 3030310.000000 1 0 0
16.613322 -6.906974 7.881446 19.642453 -0.394009 1.157920 0.091182 -0.024559 1330840.000000 1 0 0
10.275522 -8.464074 5.135146 14.268729 -0.689033 1.202648 0.009114 -0.008907 725608.000000 1 0 0
10.987622 -11.772474 2.114746 16.241648 -0.819868 1.440220 0.018595 -0.007130 605977.000000 1 0 0
12.264922 -7.235874 12.004546 18.625126 -0.533008 0.870381 0.056913 -0.021441 -476159.000000 1 0 0
15.132922 -9.873274 4.218546 18.554865 -0.578086 1.341435 0.045752 -0.014461 -692782.000000 1 0 0
7.357422 -10.168274 7.784046 14.768779 -0.944428 1.015658 0.000531 -0.005152 -90586.000000 1 0 0
15.190622 -3.312874 -4.417654 16.163100 -0.214725 1.847636 0.047611 -0.000522 1855960.000000 1 0 0
11.803122 -8.922074 9.674946 17.678283 -0.647271 0.991687 0.051654 -0.018264 -1893520.000000 1 0 0
16.933422 -6.659574 2.479646 18.364078 -0.374700 1.435356 0.049526 -0.014992 2044720.000000 1 0 0
17.667822 3.954626 1.994146 18.214489 0.220203 1.461095 0.025033 0.001073 1719550.000000 1 0 0
14.677822 -4.930274 8.797246 17.808358 -0.324058 1.054117 0.082802 -0.022530 500805.000000 1 0 0
12.787722 -12.584074 6.199646 18.982106 -0.777372 1.238087 0.039203 -0.011026 -879402.000000 1 0 0
18.114522 0.829426 -0.745454 18.148817 0.045756 1.611882 0.029906 -0.000654 -105989.000000 1 0 0
11.712822 -2.080674 10.927646 16.153416 -0.175807 0.827808 0.030651 -0.007761 1313820.000000 1 0 0
5.742922 -12.359074 10.480646 17.192202 -1.135808 0.915220 -0.010266 -0.003649 -1290590.000000 1 0 0
10.731522 -4.973774 11.072646 16.202083 -0.434002 0.818374 0.030231 -0.009207 955392.000000 1 0 0
17.838622 1.175726 4.993846 18.561715 0.065814 1.298400 0.055143 -0.013816 -510022.000000 1 0 0
12.268822 -7.686074 7.115246 16.131536 -0.559657 1.113998 0.039678 -0.017611 -564268.000000 1 0 0
10.585422 -7.981674 14.244746 19.459472 -0.646072 0.749512 0.061029 -0.019771 -468452.000000 1 0 0
14.245122 -0.277874 3.734746 14.729190 -0.019504 1.314437 0.008338 -0.004486 1657780.000000 1 0 0
11.716622 -7.681474 2.614046 14.251930 -0.580305 1.386335 0.015215 -0.007086 783725.000000 1 0 0
9.289822 6.055526 3.430446 11.607676 0.577671 1.270783 0.008132 -0.003295 2201020.000000 1 0 0
-4.030378 14.711426 -9.870754 18.168704 -1.303395 2.145139 -0.000809 -0.008092 -340573.000000 1 0 0
8.798622 -6.378374 9.277346 14.288756 -0.627261 0.864164 0.007934 -0.008007 -1072900.000000 1 0 0
5.797222 -10.534674 -8.553254 14.756195 -1.067723 2.189081 0.004116 -0.004468 -330068.000000 1 0 0
5.385522 1.043526 0.483146 5.506925 0.191393 1.482949 0.004579 -0.001023 2978350.000000 1 0 0
-0.535178 9.924826 10.879846 14.736337 -1.516925 0.740249 -0.000373 -0.002259 -807564.000000 1 0 0
-6.317878 -5.207174 1.135446 8.265560 0.689322 1.432990 0.006573 -0.003058 2766770.000000 1 0 0
-0.979178 3.920426 -10.839554 11.568252 -1.326041 2.784763 0.011930 -0.003064 646953.000000 1 0 0
11.023122 5.743526 1.193646 12.486877 0.480340 1.475058 0.007578 -0.002571 970801.000000 1 0 0
-10.218778 -1.767074 -13.594054 17.098078 0.171231 2.489908 0.018902 -0.001798 557545.000000 1 0 0
7.416922 10.784826 -6.027954 14.410393 0.968361 2.002376 0.004286 -0.001191 378170.000000 1 0 0
-12.426578 -2.918574 -9.563654 15.949965 0.230684 2.213802 0.018745 -0.003605 213851.000000 1 0 0
-4.020178 -8.610674 2.557546 9.841066 1.133991 1.307893 0.010459 -0.004604 -290718.000000 1 0 0
7.985822 -6.680774 -5.920054 11.977192 -0.696651 2.087800 0.000994 -0.004336 1436670.000000 1 0 0
14.467522 3.184326 -4.188754 15.394635 0.216647 1.846363 0.018871 0.002121 2595000.000000 1 0 0
-2.534678 -4.928474 9.896646 11.342753 1.095780 0.510484 0.001740 -0.003073 2137000.000000 1 0 0
3.504522 -1.895974 -4.605754 6.090104 -0.495913 2.428387 -0.002049 -0.001524 -1220020.000000 1 0 0
-3.971578 8.398926 -3.508854 9.931135 -1.129089 1.931912 0.003511 -0.002783 871461.000000 1 0 0
5.799122 0.135226 11.646646 13.011244 0.023314 0.462092 0.005367 -0.003304 1379340.000000 1 0 0
7.114422 4.813126 12.317846 15.017008 0.594801 0.608931 0.009845 -0.000336 865586.000000 1 0 0
1.165622 -14.462974 12.448346 19.117992 -1.490377 0.861721 -0.006645 -0.002213 -608913.000000 1 0 0
2.974722 8.623126 -9.058654 12.855601 1.238609 2.352721 0.005622 -0.001522 774630.000000 1 0 0
-4.488978 -8.839474 -4.539454 10.903846 1.100902 2.000187 0.013539 -0.005410 2320790.000000 1 0 0
5.620722 -6.598074 -4.106154 9.591017 -0.865216 2.013213 -0.003303 -0.003322 3350230.000000 1 0 0
-3.091678 3.482426 8.568446 9.752129 -0.844766 0.497825 0.002702 -0.001938 1923870.000000 1 0 0
-3.768378 3.132126 -11.050354 12.088061 -0.693454 2.724213 0.007563 -0.004529 476750.000000 1 0 0
3.041122 -6.119874 8.743146 11.097021 -1.109611 0.663434 -0.005225 -0.003266 1080650.000000 1 0 0
-5.152578 -8.693874 10.543046 14.604394 1.035786 0.764239 0.009303 -0.005808 1250190.000000 1 0 0
-13.240078 -2.531174 6.535346 14.980562 0.188896 1.119364 0.025685 -0.010051 -138149.000000 1 0 0
3.995022 -5.974974 -8.398354 11.054088 -0.981439 2.433726 -0.007822 -0.000612 2193850.000000 1 0 0
2.999622 -0.518874 12.406646 12.774656 -0.171285 0.240612 -0.000293 -0.002146 890058.000000 1 0 0
1.521122 -1.488474 -7.499254 7.795395 -0.774551 2.865071 -0.002012 -0.002319 -319715.000000 1 0 0
3.635822 -3.474174 3.464046 6.106448 -0.762667 0.967601 0.000670 -0.002114 1303020.000000 1 0 0
1.524122 0.373426 -11.836854 11.940415 0.240277 3.009792 0.002119 -0.003662 265124.000000 1 0 0
4.012922 3.516726 -10.589254 11.857622 0.719594 2.674838 -0.001541 -0.001442 -188166.000000 1 0 0
2.837022 3.181726 3.366146 5.431668 0.842607 0.902403 -0.004104 0.000466 -738957.000000 1 0 0
-5.245278 0.886226 2.548346 5.898509 -0.167376 1.124051 0.003940 -0.005009 1806530.000000 1 0 0
-9.414078 -9.294374 5.816646 14.451423 0.779000 1.156554 0.016586 -0.003749 -2023100.000000 1 0 0
-3.105578 3.796126 -0.633854 4.945398 -0.885121 1.699320 0.003229 -0.007441 -231232.000000 1 0 0
-16.006678 -6.424574 5.096146 17.984982 0.381685 1.283505 0.053024 -0.015313 1532500.000000 1 0 0
0.996422 6.607126 -8.016354 10.435943 1.421114 2.446741 0.007917 -0.001978 1529710.000000 1 0 0
-1.634678 6.397726 -9.432954 11.514499 -1.320639 2.530853 0.010352 -0.002888 910809.000000 1 0 0
2.081222 -0.356174 5.285846 5.691969 -0.169495 0.380040 -0.001497 -0.000201 2945050.000000 1 0 0
-3.353578 -0.633574 -6.284454 7.151382 0.186724 2.644085 0.011865 -0.008708 1225140.000000 1 0 0
1.923522 -1.088174 -2.482454 3.323648 -0.514832 2.414194 0.004288 -0.002638 862189.000000 1 0 0
2.439822 -8.640674 -7.690554 11.821954 -1.295596 2.279080 -0.007552 0.000018 1432400.000000 1 0 0
-2.574378 14.062426 -5.529254 15.328141 -1.389733 1.939842 0.006908 -0.000115 3362850.000000 1 0 0
6.888522 -5.122074 -8.164254 11.846621 -0.639371 2.331130 -0.004673 -0.002367 4268190.000000 1 0 0
-14.119578 -5.064474 -2.126954 15.150423 0.344391 1.711651 0.001627 -0.003393 -1015700.000000 1 0 0
-2.763478 6.782826 -6.788054 9.986051 -1.183907 2.318223 0.010629 -0.002849 -2037170.000000 1 0 0
-5.602378 -1.155574 -8.013654 9.845844 0.203412 2.521651 0.017079 -0.008986 1088210.000000 1 0 0
-5.751778 -10.628774 3.508146 12.584152 1.074772 1.288278 0.005970 -0.004509 -3205410.000000 1 0 0
8.059122 -7.515574 6.668346 12.880223 -0.750513 1.026613 0.002348 -0.006969 236715.000000 1 0 0
8.749122 -6.003774 13.248546 16.973992 -0.601414 0.675299 0.024328 -0.007928 754984.000000 1 0 0
-4.743078 9.473626 -0.765854 10.622284 -1.106620 1.642958 0.002980 -0.000069 111968.000000 1 0 0
2.788522 6.625426 12.027146 14.011580 1.172419 0.538709 0.002670 -0.003312 -10699.600000 1 0 0
6.053222 -2.795774 10.949146 12.819581 -0.432677 0.546987 0.004331 -0.003081 528590.000000 1 0 0
-9.674478 -6.573174 -1.032754 11.741751 0.596790 1.658866 0.006308 -0.003145 45858.300000 1 0 0
0.926322 -13.291274 6.265546 14.723216 -1.501215 1.131221 0.008691 -0.007907 -184771.000000 1 0 0
-0.520078 -3.166474 8.826846 9.392031 1.408005 0.348685 -0.001712 -0.003048 1211930.000000 1 0 0
4.209922 0.677526 3.362646 5.430458 0.159567 0.903048 -0.002021 -0.000079 2359570.000000 1 0 0
-10.212178 5.575126 8.265246 14.271822 -0.499712 0.953135 0.004358 -0.007218 662936.000000 1 0 0
9.477722 7.973626 -0.057154 12.385847 0.699423 1.575411 0.005972 -0.003092 971545.000000 1 0 0
4.326222 2.864326 8.083446 9.605345 0.584824 0.570637 -0.006179 -0.002173 3189800.000000 1 0 0
1.345122 2.587726 -9.746054 10.173065 1.091428 2.850829 0.006940 -0.003882 1851030.000000 1 0 0
-1.443978 -10.035374 3.025646 10.580564 1.427888 1.280785 0.009769 -0.006616 -1599320.000000 1 0 0
-9.879178 9.536026 8.965346 16.398518 -0.767726 0.992358 0.015394 -0.012431 902695.000000 1 0 0
9.774022 -2.030574 -7.730254 12.625829 -0.204838 2.229709 0.008419 -0.000171 1020150.000000 1 0 0
-5.126478 -1.804374 6.729346 8.649892 0.338430 0.679370 0.003292 -0.004328 1002280.000000 1 0 0
3.178122 -7.911574 -5.002954 9.885495 -1.188821 2.101442 -0.006629 -0.002906 2086990.000000 1 0 0
-5.131278 4.867326 -13.082354 14.871747 -0.759005 2.645982 0.006968 -0.004990 2042510.000000 1 0 0
-5.714278 9.618226 5.402846 12.423928 -1.034719 1.120898 0.003366 -0.001134 1517800.000000 1 0 0
-0.429678 -1.851474 -9.367254 9.558139 1.342760 2.941404 0.004375 -0.005477 693857.000000 1 0 0
-16.712678 0.065026 6.325346 17.869746 -0.003891 1.208984 0.034924 -0.016646 -1383830.000000 1 0 0
-5.947178 -2.909774 4.195346 7.838153 0.455027 1.005996 -0.000610 -0.003216 2949960.000000 1 0 0
1.039222 -5.762674 -5.109754 7.771614 -1.392377 2.288278 -0.000347 -0.004273 785671.000000 1 0 0
-6.965678 1.396126 -8.442354 11.033729 -0.197808 2.442056 0.010610 -0.004950 545119.000000 1 0 0
7.939922 1.955326 4.672646 9.418030 0.241460 1.051651 0.002298 -0.002474 -558815.000000 1 0 0
0.540622 -8.041274 -0.450054 8.071983 -1.503666 1.626580 0.005308 -0.002351 1913810.000000 1 0 0
5.426922 5.492326 -3.357554 8.419638 0.791388 1.980979 0.003002 -0.001834 -461774.000000 1 0 0
-0.698278 -0.367474 -1.262454 1.488764 0.484432 2.582974 0.004406 -0.006043 159592.000000 1 0 0
9.008122 6.337626 -6.422654 12.749990 0.613102 2.098717 0.005260 -0.002130 1031650.000000 1 0 0
-15.026578 -7.055074 2.577146 16.799220 0.438956 1.416779 0.007401 -0.007541 2475400.000000 1 0 0
-6.377978 6.807926 8.866446 12.870133 -0.817993 0.810803 0.006515 -0.001984 691337.000000 1 0 0
-9.380278 -3.266374 -9.595954 13.810907 0.335086 2.338952 0.006009 -0.004289 2754410.000000 1 0 0
14.877122 3.468026 -1.196854 15.322807 0.229021 1.648985 0.002192 0.004302 -426916.000000 1 0 0
12.129122 1.733926 -5.781054 13.547793 0.141994 2.011654 0.012225 0.002438 -533457.000000 1 0 0
1.668122 -9.428174 12.786446 15.973925 -1.395679 0.642738 -0.009414 -0.002047 -167167.000000 1 0 0
-3.591578 6.373226 7.814646 10.704491 -1.057616 0.752424 0.002318 -0.000554 1118660.000000 1 0 0
-4.194078 12.987926 -12.247054 18.337580 -1.258446 2.302135 0.000185 -0.010839 133132.000000 1 0 0
-10.273078 7.744926 6.435246 14.385145 -0.645996 1.106992 0.005728 -0.007699 125895.000000 1 0 0
7.973022 -9.230874 -7.194754 14.161306 -0.858383 2.103724 0.011847 -0.005951 -270408.000000 1 0 0
5.856222 -3.806174 -0.329954 6.992222 -0.576331 1.618003 0.004056 -0.002270 274091.000000 1 0 0
-1.606778 -4.420474 4.161546 6.280190 1.222159 0.846449 0.001034 -0.000430 1896890.000000 1 0 0
9.960822 -2.082374 -2.675054 10.521890 -0.206088 1.827855 0.006647 0.000205 -2969990.000000 1 0 0
13.642222 7.043626 1.360346 15.413417 0.476611 1.482424 0.006294 -0.001491 1176420.000000 1 0 0
5.392022 -3.720474 -3.306454 7.338152 -0.603980 2.038216 -0.001149 -0.002379 -1994400.000000 1 0 0
-12.214678 -6.018474 2.002446 13.763363 0.457810 1.424787 0.004570 -0.003189 -19903.700000 1 0 0
3.648122 -5.693674 -0.246354 6.766639 -1.000964 1.607212 0.003891 -0.004120 -1026300.000000 1 0 0
-5.284178 3.701326 -8.720954 10.847921 -0.611031 2.504668 0.009005 -0.006456 84530.600000 1 0 0
-1.689478 -9.218574 7.275946 11.864899 1.389539 0.910649 0.003297 -0.003589 2229370.000000 1 0 0
-7.514078 -7.453374 2.666246 10.914349 0.781342 1.324011 0.007912 -0.002833 -2920320.000000 1 0 0
-5.783578 12.951026 -8.433154 16.501422 -1.150796 2.107209 0.000517 -0.009500 1352090.000000 1 0 0
9.281222 -13.879474 -4.217054 17.221046 -0.981386 1.818190 0.025086 -0.002153 1614970.000000 1 0 0
-6.493278 -5.244674 -6.743954 10.730805 0.679423 2.250377 0.013329 -0.004874 2471970.000000 1 0 0
3.409322 0.442126 -6.195254 7.085205 0.128962 2.634980 -0.002296 -0.005154 474302.000000 1 0 0
-3.568078 5.711026 4.948746 8.356859 -1.012362 0.937038 0.002651 -0.001626 1518600.000000 1 0 0
-2.669978 -10.755174 -2.877354 11.449092 1.327465 1.824837 0.013073 -0.004498 88077.000000 1 0 0
-12.568778 -0.447774 1.752046 12.698202 0.035611 1.432379 0.004773 -0.007271 1076930.000000 1 0 0
8.383322 -11.940374 -6.110154 15.817288 -0.958663 1.967409 0.027251 -0.011496 1408220.000000 1 0 0
6.171222 3.875826 0.996046 7.355142 0.560788 1.434957 0.004497 -0.002382 -893052.000000 1 0 0
3.370522 -4.962074 -11.035254 12.560232 -0.974128 2.643691 -0.004509 -0.002018 2879.100000 1 0 0
-7.629678 4.209426 8.554146 12.210842 -0.504161 0.794647 0.004091 -0.002674 1430980.000000 1 0 0
8.246122 8.734726 4.099146 12.692398 0.814164 1.241940 0.009661 -0.000476 3393190.000000 1 0 0
0.267322 10.558726 -6.368154 12.333351 1.545484 2.113363 0.006093 0.002249 2699180.000000 1 0 0
5.499322 8.015726 3.200146 10.234029 0.969483 1.252766 0.005254 -0.000770 2176320.000000 1 0 0
8.063422 6.711826 -3.810354 11.161818 0.694175 1.919175 0.003872 -0.002079 1625990.000000 1 0 0
10.534922 2.546026 -8.247654 13.619495 0.237128 2.221287 0.009186 0.000523 1926760.000000 1 0 0
3.328422 -12.544674 -0.245754 12.981049 -1.311446 1.589729 0.006953 -0.009095 -2605580.000000 1 0 0
0.665122 2.120626 5.248446 5.699616 1.266869 0.400562 -0.000929 0.001566 -216937.000000 1 0 0
-4.821878 13.381026 1.478646 14.299957 -1.224929 1.467209 0.004881 -0.001715 2649080.000000 1 0 0
8.123222 4.019126 -8.070154 12.135382 0.459455 2.298304 0.002741 -0.000257 -1213280.000000 1 0 0
-13.869778 -0.569874 -3.524054 14.321817 0.041064 1.819411 0.006052 -0.008180 884457.000000 1 0 0
-8.586178 -0.032874 -0.419754 8.596495 0.003829 1.619644 -0.000313 -0.003358 557411.000000 1 0 0
1.804822 -3.743974 -1.100154 4.299426 -1.121603 1.829558 0.003023 -0.004245 -2435580.000000 1 0 0
8.101722 -5.615074 -0.236854 9.860175 -0.606061 1.594820 0.006719 -0.004699 2196490.000000 1 0 0
-2.263078 -1.241974 7.392046 7.829838 0.501920 0.335983 0.001122 -0.002519 1207060.000000 1 0 0
-5.913178 8.796426 -11.683554 15.774924 -0.978955 2.404820 0.005312 -0.005096 -13750.200000 1 0 0
-6.259378 9.107226 -8.861954 14.165296 -0.968646 2.246710 0.007007 -0.003462 785025.000000 1 0 0
-1.690578 13.911126 -8.355254 16.315261 -1.449862 2.108439 0.011175 -0.005751 -392908.000000 1 0 0
-1.487578 7.226826 9.732246 12.212965 -1.367791 0.648686 0.001292 -0.003514 -386673.000000 1 0 0
10.049622 2.359926 -4.080954 11.100376 0.230648 1.947267 0.005894 -0.000282 -2156460.000000 1 0 0
-2.981678 -7.511874 -6.902054 10.628123 1.192940 2.277610 0.011546 -0.004865 1660310.000000 1 0 0
-5.552078 -5.057674 -1.581854 7.675148 0.738833 1.778385 0.009823 -0.003840 1013000.000000 1 0 0
5.713522 7.345126 -8.940154 12.904324 0.909698 2.336165 -0.003038 0.000798 1375980.000000 1 0 0
-9.675178 5.258526 -7.486554 13.315767 -0.497844 2.167879 0.006126 -0.003505 198715.000000 1 0 0
-0.451378 6.013626 -5.260054 8.002225 -1.495878 2.288059 0.007871 -0.004145 -1114380.000000 1 0 0
-8.302578 2.809426 -6.331654 10.812748 -0.326286 2.196383 0.007286 -0.004928 1679610.000000 1 0 0
3.706722 1.422426 -2.075654 4.480114 0.366413 2.052516 0.000707 -0.004551 2182180.000000 1 0 0
-6.788978 12.440326 -3.430154 14.581423 -1.071242 1.808263 0.011022 0.001566 1970060.000000 1 0 0
-6.673478 3.106226 -2.435054 7.753285 -0.435634 1.890270 0.004602 -0.004483 -1999750.000000 1 0 0
12.147922 4.083726 -0.845354 12.843810 0.324298 1.636662 0.004808 -0.001204 -1618800.000000 1 0 0
2.287522 12.386926 -5.520554 13.753007 1.388181 1.983849 0.005810 0.000326 1812760.000000 1 0 0
-9.225078 -1.508974 -4.212054 10.252827 0.162137 1.994148 0.000472 -0.000521 812976.000000 1 0 0
-1.148678 5.707126 3.409546 6.746536 -1.372179 1.040977 0.000404 -0.002032 1372780.000000 1 0 0
11.517222 2.704826 11.926846 16.799171 0.230670 0.781346 0.055382 -0.004537 -650333.000000 1 0 0
-7.030778 -2.440374 -5.738754 9.397902 0.334088 2.227667 0.011711 -0.004953 -812029.000000 1 0 0
7.436922 -7.303574 10.875746 15.064258 -0.776352 0.764170 0.002522 -0.004279 -773885.000000 1 0 0
-5.519678 -1.970374 -10.971754 12.438995 0.342873 2.650981 0.012657 -0.007461 -998409.000000 1 0 0
0.767022 -6.189474 4.513846 7.698878 -1.447501 0.944313 -0.001265 -0.001569 443651.000000 1 0 0
-4.811778 -9.344474 7.473746 12.896871 1.095274 0.952680 0.002392 -0.005358 2206980.000000 1 0 0
-8.762778 9.280926 1.581446 12.861681 -0.814107 1.447526 0.008086 -0.002725 903397.000000 1 0 0
-8.224278 7.115726 -9.103254 14.182438 -0.713258 2.267728 0.008964 -0.004142 523087.000000 1 0 0
-1.292278 -10.550274 -0.079254 10.629419 1.448916 1.578252 0.010440 -0.005667 378400.000000 1 0 0
-3.990178 10.303626 7.707046 13.471629 -1.201321 0.961739 0.003506 -0.004083 1829440.000000 1 0 0
-7.536078 12.092026 1.937146 14.379225 -1.013473 1.435667 0.005664 -0.005435 850646.000000 1 0 0
-8.164078 -8.350274 -2.759454 11.999743 0.796672 1.802832 0.014159 -0.005167 -302786.000000 1 0 0
5.377822 4.604626 -8.000654 10.683352 0.708097 2.417182 -0.000086 -0.000580 677634.000000 1 0 0
-8.868678 -0.267774 -10.231854 13.543116 0.030184 2.427217 0.009822 -0.004105 -1575900.000000 1 0 0
-15.159978 -2.319174 -1.527454 15.412223 0.151803 1.670066 0.004269 -0.010306 -1783820.000000 1 0 0
-7.192778 -5.714574 8.785146 12.711066 0.671371 0.807729 0.007877 -0.004286 -921893.000000 1 0 0
8.141522 3.428226 -1.009154 8.891317 0.398545 1.684540 0.005015 -0.001364 1432690.000000 1 0 0
11.852022 7.204026 -5.860754 15.057120 0.546158 1.970597 0.008297 -0.002655 633333.000000 1 0 0
3.817722 13.344326 -9.522954 16.832489 1.292146 2.172137 0.011385 -0.008862 882586.000000 1 0 0
-9.769378 5.330326 -0.502854 11.140286 -0.499471 1.615950 0.001780 -0.004019 2086280.000000 1 0 0
11.255722 -1.239574 -5.260554 12.486042 -0.109686 2.005691 0.017975 -0.001784 -359433.000000 1 0 0
10.625122 1.722026 -1.253554 10.836512 0.160674 1.686735 0.005505 -0.000200 937138.000000 1 0 0
14.687222 5.055926 4.741246 16.240576 0.331534 1.274544 0.012197 -0.010948 1199470.000000 1 0 0
0.872022 -0.765774 10.361746 10.426534 -0.720616 0.111537 0.000879 -0.000315 1644360.000000 1 0 0
-7.938078 1.429926 -12.509754 14.884613 -0.178224 2.568907 0.004137 -0.004140 -285571.000000 1 0 0
3.129222 -11.512774 -7.855854 14.284622 -1.305403 2.153103 -0.007330 -0.000807 -44992.900000 1 0 0
2.886822 4.936826 -6.620454 8.748509 1.041664 2.429127 0.001423 -0.001356 -1326970.000000 1 0 0
6.560422 7.985226 0.509146 10.347087 0.883041 1.521570 0.010111 -0.003629 582115.000000 1 0 0
-9.044378 -5.378974 6.752446 12.503186 0.536536 1.000290 0.006686 -0.004787 -1093420.000000 1 0 0
-0.319178 -6.830274 -11.828254 13.662434 1.524100 2.617444 0.000712 -0.000454 2324420.000000 1 0 0
6.436222 -13.314874 -4.632254 15.497374 -1.120528 1.874342 0.014630 -0.004848 4019900.000000 1 0 0
-3.287278 -0.384274 10.052346 10.583172 0.116369 0.318065 0.005358 -0.001737 -653809.000000 1 0 0
8.668122 8.451626 7.004046 13.986529 0.772753 1.046307 0.001964 -0.001180 420481.000000 1 0 0
-7.986978 5.689526 -2.726154 10.178135 -0.618967 1.841951 0.006468 -0.005009 121125.000000 1 0 0
-5.432778 5.775226 -6.400854 10.190154 -0.815943 2.249958 0.009895 -0.004727 -1640.190000 1 0 0
3.354522 -13.493574 2.591146 14.143670 -1.327134 1.386554 0.015270 -0.010418 -1755050.000000 1 0 0
-11.279878 -7.004574 6.528546 14.796000 0.555703 1.113819 0.022688 -0.007663 -896141.000000 1 0 0
-12.927678 -3.805474 -6.726054 15.061417 0.286280 2.033730 0.009817 -0.004156 319677.000000 1 0 0
5.971322 0.389226 -7.358254 9.484307 0.065090 2.458833 -0.001499 0.001410 -260618.000000 1 0 0
-1.455278 2.098426 -2.442054 3.533391 -0.964440 2.333856 0.005259 -0.007660 3369540.000000 1 0 0
7.625222 0.930726 -5.068954 9.203508 0.121458 2.154075 0.002775 0.000768 643013.000000 1 0 0
3.717722 -4.460274 10.944646 12.389543 -0.875949 0.487775 -0.003417 -0.000710 -559412.000000 1 0 0
6.074522 -2.587974 2.019546 6.904781 -0.402749 1.273972 0.006810 -0.003124 441940.000000 1 0 0
-6.288178 7.644626 1.085346 9.957885 -0.882449 1.461586 0.002671 -0.001186 2281980.000000 1 0 0
6.030322 -3.361974 8.012746 10.576944 -0.508592 0.711218 0.003331 -0.005786 851315.000000 1 0 0
6.732622 -2.234474 -7.999054 10.691396 -0.320449 2.416106 -0.003531 -0.000965 1791910.000000 1 0 0
12.040622 -8.125974 -5.858954 15.663185 -0.593667 1.954178 0.029812 -0.010882 1194790.000000 1 0 0
5.578322 -9.542974 9.975946 14.889779 -1.041816 0.836606 -0.009195 -0.001440 1915720.000000 1 0 0
-6.641578 7.573226 -4.433754 11.005566 -0.850845 1.985441 0.006440 -0.002563 436128.000000 1 0 0
-1.343078 -7.544274 9.762346 12.410613 1.394616 0.665493 -0.000684 -0.002942 -278508.000000 1 0 0
10.170822 -9.192874 0.764846 13.730970 -0.734937 1.515065 0.008647 -0.006997 362279.000000 1 0 0
11.123322 6.148526 9.797846 16.047755 0.504960 0.914050 0.014248 -0.005477 557192.000000 1 0 0
-15.325578 -4.370174 -4.909254 16.675507 0.277783 1.869623 0.009948 -0.007114 1658160.000000 1 0 0
-4.675878 -4.599574 7.821546 10.207668 0.777172 0.697824 0.003626 -0.004353 -737523.000000 1 0 0
2.918822 10.860426 -10.963054 15.705315 1.308243 2.343463 0.004638 -0.005329 -977558.000000 1 0 0
9.975922 -1.438974 1.527346 10.194236 -0.143257 1.420406 0.005144 -0.001675 416486.000000 1 0 0
-1.641478 -2.687874 0.613346 3.208630 1.022548 1.378458 0.004640 -0.003830 -318716.000000 1 0 0
1.561422 2.952326 0.854546 3.447393 1.084314 1.320303 -0.000650 -0.004118 -1026600.000000 1 0 0
-8.954178 -2.331674 4.355446 10.226628 0.254743 1.130848 0.002299 -0.005764 3136360.000000 1 0 0
9.952822 4.947326 -2.748054 11.449302 0.461307 1.813182 0.005766 -0.000824 1710260.000000 1 0 0
2.573322 8.504426 2.513246 9.233832 1.276969 1.295141 0.002614 -0.002749 2404780.000000 1 0 0
-8.089678 -0.036974 2.494146 8.465519 0.004570 1.271734 0.000397 -0.004642 1766300.000000 1 0 0
6.927622 2.114726 13.648746 15.451611 0.296275 0.487894 0.019789 -0.002061 -200333.000000 1 0 0
6.792022 4.334026 3.751046 8.887390 0.567968 1.135076 0.000510 -0.000700 13027.000000 1 0 0
-0.258278 3.436626 7.724746 8.458653 -1.495783 0.419639 -0.002136 -0.001229 447680.000000 1 0 0
2.733922 -10.192974 9.189046 13.993199 -1.308748 0.854389 -0.006866 -0.005985 1575910.000000 1 0 0
1.372722 -4.556274 6.952546 8.425075 -1.278164 0.600204 -0.002094 -0.002285 -182556.000000 1 0 0
-0.166078 10.760626 -2.095654 10.964051 -1.555364 1.763118 0.003984 -0.003280 2807240.000000 1 0 0
8.826322 5.484026 7.996846 13.112134 0.555953 0.914885 0.001083 -0.004309 -819292.000000 1 0 0
2.659322 11.425726 -2.899954 12.084244 1.342119 1.813140 0.006636 -0.003252 1115190.000000 1 0 0
1.437922 2.446426 -6.686554 7.263789 1.039422 2.740238 0.003651 -0.006283 802885.000000 1 0 0
-13.658578 -2.343174 3.592546 14.316201 0.169899 1.317142 0.010594 -0.006020 819524.000000 1 0 0
-0.926478 -10.579074 -5.254354 11.848350 1.483443 2.030260 0.006266 -0.001915 284363.000000 1 0 0
-5.679078 2.770526 0.399546 6.331459 -0.453879 1.507649 0.005935 -0.005870 -878214.000000 1 0 0
3.743822 7.224326 -4.944554 9.521329 1.092676 2.116844 0.003292 -0.001685 -3775330.000000 1 0 0
3.001422 9.694526 -6.485254 12.043708 1.270556 2.139424 0.006361 0.000758 -601731.000000 1 0 0
-12.146578 1.646526 -2.508454 12.511704 -0.134733 1.772653 0.004408 -0.006497 -114231.000000 1 0 0
-2.453878 9.537926 -5.679854 11.369006 -1.318982 2.093923 0.004513 -0.000063 403551.000000 1 0 0
-1.345378 3.365326 1.701546 4.003838 -1.190483 1.131858 -0.000504 -0.003573 -20663.200000 1 0 0
12.855422 3.760926 9.592846 16.475107 0.284613 0.949287 0.039378 -0.007316 855767.000000 1 0 0
-2.521378 -9.507274 11.722346 15.302255 1.311559 0.698118 0.000256 -0.007990 579756.000000 1 0 0
-0.401378 -8.879074 -7.513254 11.638215 1.525622 2.272563 0.004502 -0.001009 1793820.000000 1 0 0
2.302222 7.611126 -0.417754 7.962662 1.277065 1.623285 0.004270 -0.003369 2138040.000000 1 0 0
-11.890478 -1.381374 -5.508754 13.177178 0.115656 2.002097 0.005617 -0.001592 -1594550.000000 1 0 0
-6.200678 -7.224074 -10.900954 14.472956 0.861483 2.423702 0.007712 -0.004348 1299040.000000 1 0 0
-4.753978 -2.303674 -1.391054 5.462806 0.451234 1.828273 0.006130 -0.004106 -244791.000000 1 0 0
-10.513978 3.725426 4.545146 12.044953 -0.340528 1.183865 0.001808 -0.006712 3182620.000000 1 0 0
6.761322 9.274926 -3.619554 12.034987 0.940878 1.876278 0.004440 -0.000155 1119760.000000 1 0 0
1.244122 -2.769774 -11.591254 11.982348 -1.148626 2.885396 0.001442 -0.003319 -984987.000000 1 0 0
1.272922 8.879626 7.518846 11.704748 1.428413 0.873202 -0.004205 -0.000519 1335430.000000 1 0 0
10.357322 0.396526 10.311146 14.620229 0.038266 0.787998 0.017395 -0.002762 741182.000000 1 0 0
-5.225978 -0.946674 -3.939654 6.612708 0.179204 2.209021 0.009934 -0.005693 1582650.000000 1 0 0
11.758122 5.584926 5.310346 14.058613 0.443436 1.183454 0.002815 -0.003336 2234440.000000 1 0 0
9.991222 -3.492574 3.713546 11.216640 -0.336287 1.233354 0.013264 -0.009020 -2780230.000000 1 0 0
7.356322 -1.690574 -3.467954 8.306637 -0.225890 2.001480 0.001269 0.000934 -3482560.000000 1 0 0
2.372722 9.271926 10.419446 14.147907 1.320269 0.742966 -0.003597 -0.001653 2205450.000000 1 0 0
2.404022 -10.841674 6.361946 12.798264 -1.352588 1.050549 -0.002016 -0.004257 2171520.000000 1 0 0
5.834622 -7.487474 -1.332854 9.585488 -0.908836 1.710298 0.003060 -0.006183 2022550.000000 1 0 0
-0.195278 -5.618574 -2.268254 6.062300 1.536055 1.954284 0.004905 -0.002741 3113550.000000 1 0 0
7.768422 -5.114574 2.723046 9.691348 -0.582244 1.285984 0.007969 -0.007652 1306010.000000 1 0 0
-2.656078 -12.481274 4.666146 13.587121 1.361119 1.220236 0.010023 -0.006877 -662800.000000 1 0 0
4.889522 -10.286374 -1.130054 11.445258 -1.127071 1.669693 0.002681 -0.007882 1127800.000000 1 0 0
0.915922 0.206426 1.093046 1.440928 0.221671 0.709680 -0.000746 -0.002963 -1208700.000000 1 0 0
-1.635678 8.547326 2.390146 9.024690 -1.381715 1.302753 0.001027 -0.000660 -197120.000000 1 0 0
-7.535578 0.531326 -3.052854 8.147831 -0.070393 1.954851 0.002551 -0.002492 71422.500000 1 0 0
4.361022 -6.333474 12.959546 15.069215 -0.967785 0.535524 -0.000899 -0.006383 -205728.000000 1 0 0
-5.114278 13.057926 8.420646 16.357645 -1.197500 1.030041 0.010145 -0.013906 2206780.000000 1 0 0
0.648722 6.203526 8.181546 10.287967 1.466602 0.651370 -0.004327 0.000749 379090.000000 1 0 0
7.990322 -0.559674 -0.776454 8.047445 -0.069930 1.667431 0.005939 -0.001137 4414920.000000 1 0 0
2.475722 -9.245174 -2.362454 9.858176 -1.309150 1.812796 -0.002646 -0.003625 620536.000000 1 0 0
-7.211978 12.152326 4.816646 14.929559 -1.035196 1.242295 0.008686 -0.006007 1368460.000000 1 0 0
-14.959678 0.245126 0.145546 14.962394 -0.016384 1.561069 0.004634 -0.011529 435042.000000 1 0 0
6.895222 -0.532374 3.825546 7.903310 -0.077056 1.065527 0.004820 -0.002128 -247359.000000 1 0 0
-4.178578 -5.023874 5.231846 8.370904 0.876997 0.895660 0.003682 -0.003015 -302861.000000 1 0 0
2.938322 5.165726 6.860246 9.076422 1.053626 0.713873 -0.005025 -0.000229 -902975.000000 1 0 0
2.064522 -7.137874 1.889246 7.666860 -1.289245 1.321815 0.000888 -0.002646 2346350.000000 1 0 0
-2.483078 6.366526 -1.773554 7.060016 -1.198922 1.824728 0.003204 -0.003128 1632300.000000 1 0 0
2.779622 -3.847774 -6.530454 8.073320 -0.945196 2.513064 -0.006955 -0.002470 -626808.000000 1 0 0
-5.094878 0.871726 -12.130654 13.185995 -0.169458 2.738788 0.008510 -0.002139 541094.000000 1 0 0
-7.552878 6.323626 -11.894754 15.444073 -0.697044 2.449924 0.009535 -0.007648 2600780.000000 1 0 0
-1.097278 11.144326 -9.014854 14.375939 -1.472652 2.248594 0.008850 0.000116 1129580.000000 1 0 0
4.651722 5.870326 -0.581054 7.512448 0.900699 1.648219 0.005161 -0.002073 1173280.000000 1 0 0
-2.623678 13.335926 3.604146 14.061311 -1.376540 1.311587 0.005265 -0.003597 494017.000000 1 0 0
1.388122 -7.985574 10.252846 13.069703 -1.398687 0.668948 -0.004565 -0.003591 -1999260.000000 1 0 0
13.004622 -0.217574 -1.085254 13.051640 -0.016729 1.654043 0.006024 -0.000596 -1458190.000000 1 0 0
-1.082878 3.048826 -5.399454 6.294606 -1.229516 2.601752 0.008608 -0.009172 1010860.000000 1 0 0
6.515722 1.068526 7.177846 9.752838 0.162545 0.743690 -0.000096 -0.001159 2166370.000000 1 0 0
5.482222 -6.115874 7.024546 10.807540 -0.839978 0.863255 -0.000855 -0.004848 1448110.000000 1 0 0
12.272922 -4.838274 2.642046 13.454141 -0.375517 1.373138 0.012161 -0.006085 219932.000000 1 0 0
4.383422 -9.151974 13.889546 17.201526 -1.124123 0.630962 -0.010461 -0.002009 146812.000000 1 0 0
-2.780178 -4.387274 -1.401254 5.379691 1.005971 1.834306 0.010533 -0.005362 1799370.000000 1 0 0
-9.305478 -5.276474 -7.543854 13.089799 0.515823 2.185009 0.010386 -0.002191 718196.000000 1 0 0
-10.545378 -3.095574 7.857646 13.510373 0.285527 0.950101 0.009475 -0.006931 -331561.000000 1 0 0
12.145422 -0.642474 1.669046 12.276391 -0.052849 1.434418 0.007617 -0.004163 301487.000000 1 0 0
-7.619178 4.614526 4.308646 9.894956 -0.544561 1.120271 0.005300 -0.006900 2077380.000000 1 0 0
-1.122878 10.512026 6.899446 12.624021 -1.464381 0.992578 -0.001322 0.000240 982014.000000 1 0 0
7.415722 -9.858574 1.843046 12.473221 -0.925882 1.422493 0.003941 -0.008079 3501910.000000 1 0 0
-4.313478 -1.765274 1.655946 4.946154 0.388452 1.229409 0.002024 -0.002010 1423000.000000 1 0 0
6.809722 -14.933274 -0.927154 16.438814 -1.142956 1.627227 0.023037 -0.008862 -1370810.000000 1 0 0
-10.398178 1.664626 2.452246 10.812335 -0.158741 1.342005 -0.001105 -0.004421 -350383.000000 1 0 0
-3.026778 8.277926 -11.429954 14.433617 -1.220253 2.484707 0.005995 -0.000090 -587677.000000 1 0 0
-1.252178 -5.192774 -6.842254 8.680397 1.334175 2.478743 0.002787 -0.004882 -647226.000000 1 0 0
12.866622 -0.442374 6.436346 14.393478 -0.034368 1.107196 0.020435 -0.010462 1399130.000000 1 0 0
6.034122 -13.103774 3.717146 14.897540 -1.139255 1.318618 0.001028 -0.006947 520927.000000 1 0 0
-5.665778 3.473126 -4.966354 8.296283 -0.549924 2.212579 0.008598 -0.006116 1504180.000000 1 0 0
-4.365178 8.042826 3.356346 9.747148 -1.073543 1.219259 0.002288 -0.001218 603795.000000 1 0 0
14.028322 6.224426 -4.017754 15.864415 0.417606 1.826841 0.020087 0.000163 781390.000000 1 0 0
-6.699878 -8.484674 5.347246 12.061140 0.902402 1.111469 0.011191 -0.004337 423207.000000 1 0 0
1.680122 11.361126 2.733446 11.805495 1.423977 1.337136 0.002088 -0.006294 977928.000000 1 0 0
-7.426078 7.226226 5.933846 11.940498 -0.771759 1.050714 0.001845 -0.003240 -9200.830000 1 0 0
-17.555878 -4.018674 5.188346 18.742399 0.225031 1.290309 0.059871 -0.017467 -241470.000000 1 0 0
7.469422 -13.059174 -8.588654 17.323373 -1.051244 2.089534 0.030956 -0.009946 -15839.900000 1 0 0
-2.319578 12.799526 -2.770454 13.299764 -1.391518 1.780642 0.001613 0.001447 977088.000000 1 0 0
-5.596178 13.972426 -5.720454 16.101847 -1.189845 1.933996 0.007752 0.003095 2355910.000000 1 0 0
-5.618178 2.374426 7.404446 9.593104 -0.399864 0.689049 0.006430 -0.004817 2781380.000000 1 0 0
-7.362078 5.044526 1.337346 9.024186 -0.600727 1.422053 0.004582 -0.003324 2160930.000000 1 0 0
10.662022 -5.610674 -5.070254 13.071567 -0.484411 1.969131 0.011505 -0.006255 2805020.000000 1 0 0
-9.532778 -0.637874 6.904446 11.787795 0.066814 0.945018 0.001761 -0.005270 883065.000000 1 0 0
-11.201278 -4.592674 -2.514554 12.364637 0.389109 1.775591 -0.001188 -0.001241 1350580.000000 1 0 0
6.490822 -4.286074 13.605646 15.672103 -0.583602 0.519345 0.011978 -0.010176 -511754.000000 1 0 0
0.195322 10.341326 -11.663054 15.588714 1.551911 2.416100 0.007609 0.000938 -584688.000000 1 0 0
-11.817378 -3.290174 1.456646 12.353035 0.271541 1.452603 0.003351 -0.005919 2397920.000000 1 0 0
5.256322 5.983626 5.370246 9.605844 0.850015 0.977544 -0.001327 0.000864 -3661780.000000 1 0 0
-7.142878 -0.010374 8.153946 10.840094 0.001452 0.719398 0.003079 -0.004887 546334.000000 1 0 0
1.777122 2.087226 9.577946 9.962516 0.865474 0.278757 -0.002837 -0.002394 2143710.000000 1 0 0
10.500322 -4.961874 -2.053654 11.793831 -0.441443 1.745818 0.006629 -0.004282 1648950.000000 1 0 0
-9.714778 -2.323174 -1.569254 10.111212 0.234730 1.726626 -0.000243 -0.002370 -1017300.000000 1 0 0
-1.943978 -5.227874 -9.878854 11.344667 1.214791 2.627609 0.010789 -0.005952 23981.700000 1 0 0
7.594322 -1.599374 6.465546 10.101238 -0.207568 0.876201 0.002948 -0.004910 2943320.000000 1 0 0
1.540222 -11.867674 -2.518454 12.229333 -1.441735 1.778216 0.002593 -0.004982 -3484410.000000 1 0 0
-0.754378 -1.472174 4.845446 5.120032 1.097259 0.328987 0.000409 -0.001698 1872290.000000 1 0 0
7.631722 1.549226 9.791346 12.510545 0.200277 0.671889 0.004749 -0.001832 1145690.000000 1 0 0
-3.840078 10.641126 -7.963554 13.834665 -1.224470 2.184162 0.003220 0.002469 2415510.000000 1 0 0
-9.579078 12.713926 6.417646 17.163590 -0.925102 1.187575 0.021289 -0.009790 981415.000000 1 0 0
-2.557778 -2.492074 -11.024154 11.588125 0.772388 2.828326 0.011401 -0.007347 -543332.000000 1 0 0
1.199322 -11.854074 11.082146 16.271798 -1.469966 0.821581 -0.010968 0.001734 1005360.000000 1 0 0
1.352622 3.409626 -1.947554 4.153084 1.193132 2.058888 0.004003 -0.005289 1331470.000000 1 0 0
-1.957178 -9.365374 -12.058654 15.393242 1.364781 2.470871 -0.000196 -0.001222 1603190.000000 1 0 0
1.266522 -2.668174 1.575046 3.347238 -1.127611 1.080881 0.004818 -0.001022 4179210.000000 1 0 0
-0.980578 -2.288674 -6.543554 7.001261 1.166009 2.778000 0.003943 -0.007472 409026.000000 1 0 0
1.848322 5.804426 4.012146 7.294174 1.262515 0.988375 -0.004084 0.000040 -378591.000000 1 0 0
-11.000278 8.549326 3.525646 14.371057 -0.660678 1.322937 0.002880 -0.004931 1696060.000000 1 0 0
-16.389978 -1.591674 3.853346 16.911921 0.096809 1.340929 0.030031 -0.013355 633853.000000 1 0 0
-12.275278 0.286026 6.776746 14.024569 -0.023297 1.066484 0.003233 -0.003260 296582.000000 1 0 0
-5.084878 2.941626 4.663546 7.500520 -0.524464 0.899805 0.003528 -0.002987 1528890.000000 1 0 0
5.126422 -5.975274 4.068546 8.862120 -0.861711 1.093821 0.002464 -0.006225 1358300.000000 1 0 0
9.901922 3.412726 6.187446 12.164672 0.331903 1.037191 0.000426 -0.000911 -87146.600000 1 0 0
-12.207578 5.814026 3.038946 13.858681 -0.444479 1.349719 -0.000140 -0.006278 1046730.000000 1 0 0
-4.837478 12.314326 -1.266854 13.290927 -1.196483 1.666258 -0.000301 0.000541 1094620.000000 1 0 0
-1.724178 -12.133174 10.335346 16.031409 1.429637 0.870174 0.005655 -0.003133 1295030.000000 1 0 0
5.131222 6.400826 13.858446 16.104550 0.895050 0.534487 0.009643 -0.002122 942029.000000 1 0 0
12.893422 -3.676474 -5.991554 14.685214 -0.277772 1.991058 0.011789 -0.003368 476389.000000 1 0 0
3.523922 -2.536574 6.428746 7.757642 -0.623902 0.594018 -0.004017 -0.000830 1620210.000000 1 0 0
7.230622 -11.821374 -0.606154 13.870624 -1.021850 1.614511 0.007995 -0.006346 -845622.000000 1 0 0
-6.139478 -6.596874 -4.097854 9.899714 0.821295 1.997571 0.014427 -0.004995 1283690.000000 1 0 0
0.311922 -8.909974 5.138246 10.290117 -1.535802 1.047962 0.003677 -0.005939 204754.000000 1 0 0
-10.270978 2.406126 -0.308254 10.553551 -0.230115 1.600009 0.000344 -0.003767 -1980280.000000 1 0 0
-1.805978 8.913126 -0.452454 9.105498 -1.370883 1.620507 0.004421 -0.002624 1756840.000000 1 0 0
-3.609078 2.264826 -6.587954 7.845764 -0.560421 2.567495 0.013084 -0.009635 195003.000000 1 0 0
-12.760878 3.059726 6.341146 14.574363 -0.235331 1.120659 0.004209 -0.009511 -827640.000000 1 0 0
11.383422 1.679526 7.853746 13.931419 0.146485 0.971885 0.011648 -0.008776 -2638250.000000 1 0 0
6.027922 2.637526 -3.236154 7.332468 0.412454 2.027894 0.002800 -0.001240 275139.000000 1 0 0
10.485422 -2.349874 6.415146 12.514795 -0.220466 1.032580 0.016779 -0.008013 3616520.000000 1 0 0
-0.936478 10.961326 4.038646 11.719143 -1.485569 1.218963 0.002116 -0.000511 526733.000000 1 0 0
-1.554078 -12.186574 7.407746 14.345816 1.443957 1.028190 0.003203 -0.004104 -202847.000000 1 0 0
8.082122 8.606326 -7.895454 14.203089 0.816799 2.160238 0.003679 -0.001980 2125220.000000 1 0 0
-4.596578 -6.005474 -8.731954 11.551678 0.917513 2.427829 0.012643 -0.006993 869760.000000 1 0 0
-8.571278 -5.378474 -11.662154 15.440227 0.560395 2.426923 0.007447 -0.003244 3205360.000000 1 0 0
6.026122 -0.667774 -10.042354 11.730684 -0.110363 2.598425 -0.001801 0.001440 -82874.400000 1 0 0
-11.185078 -5.544274 -5.318854 13.569641 0.460190 1.973565 0.003139 -0.004271 -1034330.000000 1 0 0
3.881122 8.887426 -2.691354 10.064434 1.159059 1.841503 0.008714 -0.002961 1515630.000000 1 0 0
11.741822 -10.309674 -4.033854 16.137898 -0.720544 1.823437 0.025075 -0.009885 1339450.000000 1 0 0
3.998322 -11.112974 3.927546 12.446300 -1.225428 1.249750 0.002839 -0.005962 186656.000000 1 0 0
-1.000178 0.896126 3.211746 3.481194 -0.730582 0.396032 0.000800 -0.002469 -924582.000000 1 0 0
-10.607078 -5.072274 4.564146 12.612275 0.446054 1.200511 0.011106 -0.005606 2691070.000000 1 0 0
4.584822 -8.550274 2.738246 10.080961 -1.078595 1.295715 0.002284 -0.005625 5744290.000000 1 0 0
-3.708978 -5.682474 2.680146 7.295904 0.992522 1.194639 0.004691 -0.001741 1344080.000000 1 0 0
9.976622 5.104926 12.270246 16.617828 0.472955 0.740134 0.027449 0.000890 480620.000000 1 0 0
1.639222 -12.304974 -5.270454 13.486182 -1.438360 1.972301 -0.000774 -0.004003 1134990.000000 1 0 0
9.790722 -10.708974 -1.730354 14.612819 -0.830162 1.689488 0.013451 -0.008684 392142.000000 1 0 0
9.577522 -4.580574 -9.237854 14.072972 -0.446107 2.286867 0.013113 -0.001855 484408.000000 1 0 0
-7.504678 -3.100274 -13.080354 15.395699 0.391759 2.586043 0.007473 -0.002488 2241330.000000 1 0 0
0.405922 6.143726 -2.492754 6.642587 1.504821 1.955483 0.006549 -0.006039 1822280.000000 1 0 0
-6.060078 -9.497774 1.023046 11.312775 1.002866 1.480240 0.006287 -0.003614 881951.000000 1 0 0
-8.981778 -4.097174 0.658546 9.894082 0.427969 1.504187 -0.001331 -0.001911 3541440.000000 1 0 0
1.906722 3.802726 12.060346 12.788599 1.106022 0.339100 -0.000699 -0.006410 -90293.600000 1 0 0
6.668622 4.321026 9.582646 12.448650 0.574942 0.692309 -0.003202 0.000074 1989870.000000 1 0 0
-8.307878 9.825526 -3.579254 13.355630 -0.868897 1.842109 0.006306 -0.002068 1447490.000000 1 0 0
16.554022 2.072526 -6.084654 17.758210 0.124550 1.920521 0.050072 0.004409 180259.000000 1 0 0
-10.953278 2.581226 -5.065454 12.340820 -0.231435 1.993758 0.006942 -0.003905 392014.000000 1 0 0
-13.777678 3.945826 1.382846 14.398132 -0.278927 1.474605 0.000056 -0.003150 -335780.000000 1 0 0
-17.521978 10.329326 3.188146 20.588321 -0.532668 1.415319 0.059629 -0.021183 -760483.000000 1 0 0
-14.318378 2.844626 -1.223054 14.649358 -0.196116 1.654382 0.003061 -0.005667 1061850.000000 1 0 0
-14.374778 5.193926 4.998646 16.080969 -0.346726 1.254717 0.000934 -0.011313 338584.000000 1 0 0
-17.434678 7.498326 3.023246 19.218036 -0.406167 1.412827 0.025818 -0.013794 -2185920.000000 1 0 0
-14.885078 12.468426 -3.462854 19.723553 -0.697278 1.747281 0.058740 -0.023366 -220667.000000 1 0 0
-8.575378 12.398126 -9.438654 17.785916 -0.965685 2.130201 0.014946 -0.016736 878550.000000 1 0 0
-12.550678 8.821126 -9.781154 18.193481 -0.612630 2.138407 0.018083 -0.008571 -1122740.000000 1 0 0
-13.779678 -3.624474 -12.193854 18.753837 0.257204 2.278652 0.020725 0.000583 -1274930.000000 1 0 0
-14.970378 5.677026 -7.649254 17.744067 -0.362463 2.016495 0.032758 -0.005708 -221055.000000 1 0 0
-10.907378 13.536526 -8.326954 19.275544 -0.892545 2.017501 0.028556 -0.017177 1665770.000000 1 0 0
-10.986178 13.620626 3.959446 17.941426 -0.892054 1.348277 0.022600 -0.004187 -203253.000000 1 0 0
-15.255978 3.224326 2.967146 15.872778 -0.208283 1.382757 0.002361 -0.006150 1383890.000000 1 0 0
-11.185078 9.446226 -12.263954 19.098213 -0.701315 2.268098 0.021748 -0.014386 -646036.000000 1 0 0
-13.020778 11.566026 -8.802654 19.514106 -0.726299 2.038785 0.032384 -0.027764 -1236730.000000 1 0 0
-8.831478 14.606026 -3.335854 17.391346 -1.026968 1.763804 0.015234 -0.012278 1623580.000000 1 0 0
-16.844878 8.235526 -4.177054 19.209934 -0.454731 1.789990 0.045214 -0.008703 -538077.000000 1 0 0
-16.791478 6.637926 0.253246 18.057683 -0.376461 1.556772 0.019238 -0.005282 -768910.000000 1 0 0
-10.453678 2.814226 -12.393354 16.455834 -0.262975 2.423601 0.012522 -0.009966 1037370.000000 1 0 0
-16.929278 0.867126 2.234746 17.098142 -0.051176 1.439720 0.025687 -0.014118 402083.000000 1 0 0
-12.654378 1.144526 -6.885154 14.451594 -0.090200 2.067385 0.010370 -0.007094 804368.000000 1 0 0
-12.356678 8.970526 -5.363554 16.184114 -0.627941 1.908592 0.021955 -0.006335 -1384030.000000 1 0 0
-9.788478 13.978926 1.272546 17.112687 -0.959915 1.496365 0.025144 -0.006849 489753.000000 1 0 0
-12.256978 11.171626 2.708246 16.803968 -0.739105 1.408923 0.013649 -0.007745 1241880.000000 1 0 0
-12.663778 6.746426 -3.653754 14.806602 -0.489491 1.820137 0.007458 -0.002168 30507.200000 1 0 0
-16.013578 3.522026 -9.228154 18.814839 -0.216493 2.083428 0.047233 -0.017313 -676329.000000 1 0 0
-15.287478 5.772226 -4.737454 17.013790 -0.361030 1.852974 0.021702 -0.002701 2777430.000000 1 0 0
-17.899278 5.110326 7.380046 20.024102 -0.278106 1.193339 0.019431 -0.016362 -510722.000000 1 0 0
-15.866678 10.068226 -2.185254 18.918139 -0.565438 1.686566 0.041499 -0.008900 40418.600000 1 0 0
-8.874878 9.771626 -8.348254 15.618626 -0.833453 2.134720 0.009489 -0.008413 142993.000000 1 0 0
-16.996978 4.169326 -1.290254 17.548370 -0.240548 1.644388 0.017698 -0.005788 77229.400000 1 0 0
-10.327678 5.378526 -4.571754 12.509613 -0.480139 1.944922 0.008065 -0.005443 639850.000000 1 0 0
-18.201278 2.585526 5.910646 19.310805 -0.141108 1.259724 0.048245 -0.021572 -1301180.000000 1 0 0
-10.380678 9.995926 -5.657054 15.481578 -0.766518 1.944865 0.011204 -0.010103 270834.000000 1 0 0
-15.349778 0.455726 -5.814654 16.420523 -0.029681 1.932757 0.012900 -0.007231 -1205970.000000 1 0 0
-16.354878 -4.124074 -8.871754 19.057755 0.247012 2.055018 0.031760 -0.014316 -1783870.000000 1 0 0
-9.961578 9.622626 -1.119454 13.895364 -0.768092 1.651447 0.003596 0.000036 990426.000000 1 0 0
-17.303978 -3.117274 -3.192454 17.869997 0.178236 1.750409 0.023599 -0.012520 -298098.000000 1 0 0
-11.997378 5.041526 -11.501754 17.367913 -0.397814 2.294603 0.016357 -0.009516 379022.000000 1 0 0
-16.418678 7.046226 5.796646 18.783594 -0.405388 1.257074 0.023031 -0.009312 -110018.000000 1 0 0
-12.259278 5.983226 -8.706254 16.182946 -0.454048 2.138846 0.019792 -0.007735 1242500.000000 1 0 0
-14.526878 8.344226 -0.166054 16.753622 -0.521383 1.580708 0.024212 -0.005244 1383200.000000 1 0 0
-15.010578 11.670426 3.803946 19.390366 -0.660858 1.373339 0.027804 -0.017339 1066610.000000 1 0 0
-17.454178 4.029826 -4.093054 18.375008 -0.226904 1.795432 0.034894 -0.008430 -1000030.000000 1 0 0
-13.821778 13.395526 -0.885254 19.268247 -0.769738 1.616756 0.045971 -0.016556 -822455.000000 1 0 0
-10.132278 6.881926 -12.999554 17.860917 -0.596635 2.385936 0.004425 -0.012576 840405.000000 1 0 0
-15.859578 -1.232874 -8.229854 17.910240 0.077581 2.048235 0.023875 -0.012680 -946337.000000 1 0 0
-11.430378 11.933326 -0.139954 16.525054 -0.806922 1.579266 0.025454 -0.008085 440905.000000 1 0 0
-11.971978 7.377926 -0.929454 14.093471 -0.552294 1.636793 0.002839 0.002070 1476610.000000 1 0 0
-11.477878 0.127726 -11.580654 16.305506 -0.011128 2.360621 0.015983 -0.008183 -164581.000000 1 0 0
-19.039978 -1.281474 -4.684654 19.649654 0.067203 1.811524 0.036181 -0.022224 -3191340.000000 1 0 0
-18.002678 1.402426 -5.103454 18.764553 -0.077744 1.846239 0.021947 -0.012140 -8107.840000 1 0 0
-13.353078 -0.092174 -9.432154 16.348661 0.006903 2.185770 0.019757 -0.007792 1557050.000000 1 0 0
-6.266778 11.237226 -13.199854 18.433228 -1.062076 2.368981 -0.000345 -0.007907 -283953.000000 1 0 0
16.449822 5.754626 7.048646 18.798824 0.336523 1.186452 0.049431 -0.015441 -915323.000000 1 0 0
14.799722 10.230526 -5.519754 18.819222 0.604839 1.868477 0.059535 -0.019949 401007.000000 1 0 0
2.354422 16.869626 4.287446 17.564447 1.432126 1.324207 0.014230 -0.012992 2974800.000000 1 0 0
-3.928078 18.144026 -5.908154 19.481832 -1.357592 1.878913 0.017986 -0.010772 642749.000000 1 0 0
5.429422 14.522926 5.642646 16.499499 1.213033 1.221764 0.011202 -0.009545 -463998.000000 1 0 0
9.992122 6.036526 15.117846 19.100561 0.543450 0.657558 0.048136 -0.002887 -104600.000000 1 0 0
4.712122 12.721426 -1.094854 13.610198 1.216057 1.651327 0.008710 -0.009932 1375280.000000 1 0 0
3.533122 13.811326 12.951246 19.260593 1.320354 0.833320 0.027976 -0.016861 -149038.000000 1 0 0
-0.777378 12.377826 9.090446 15.376967 -1.508075 0.938284 0.006149 -0.006184 -1180720.000000 1 0 0
-7.771678 13.970226 8.407646 18.062522 -1.063127 1.086626 0.024089 -0.020329 1780230.000000 1 0 0
11.443722 12.775026 -4.117354 17.638386 0.840313 1.806401 0.065511 -0.011559 1566430.000000 1 0 0
-5.728978 16.177426 0.959546 17.188689 -1.230443 1.514943 0.017113 -0.003086 -687782.000000 1 0 0
3.301422 10.670126 6.669746 13.009093 1.270731 1.032471 0.000738 0.001215 1994030.000000 1 0 0
-1.202978 15.527926 2.427046 15.762430 -1.493479 1.416205 0.008173 -0.007251 -1033460.000000 1 0 0
9.865622 8.806926 9.526646 16.298756 0.728761 0.946531 0.016537 -0.005685 743467.000000 1 0 0
7.337722 12.312026 6.200046 15.616297 1.033338 1.162524 0.012236 -0.005173 -120385.000000 1 0 0
11.926722 13.974826 -1.511454 18.434396 0.864307 1.652879 0.059133 -0.007952 1393010.000000 1 0 0
9.683222 15.935626 -1.296654 18.691984 1.024774 1.640222 0.043165 -0.009861 455872.000000 1 0 0
10.261122 13.747726 2.863646 17.392270 0.929612 1.405393 0.027602 -0.007827 1687350.000000 1 0 0
-6.076178 14.503226 6.165046 16.889976 -1.174058 1.197151 0.007269 -0.014596 -147375.000000 1 0 0
-0.991878 18.110926 -6.351354 19.217939 -1.516084 1.907620 0.025572 -0.006870 1093770.000000 1 0 0
-3.579678 15.715426 5.364646 16.987293 -1.346836 1.249493 0.009317 -0.008719 1715250.000000 1 0 0
6.936022 12.270426 10.609146 17.641591 1.056310 0.925580 0.012433 -0.007421 2795980.000000 1 0 0
1.471122 14.653726 6.188946 15.974947 1.470739 1.172970 0.005027 -0.004267 1522350.000000 1 0 0
17.514022 7.651526 -1.570154 19.176867 0.411890 1.652766 0.020900 -0.001045 864465.000000 1 0 0
2.061822 16.240026 -3.313054 16.702272 1.444513 1.770480 0.004213 -0.008653 982926.000000 1 0 0
6.725622 11.144926 0.617646 13.031687 1.027830 1.523383 0.016638 -0.005765 2635820.000000 1 0 0
12.740022 9.265126 3.143046 16.063296 0.628779 1.373859 0.017635 0.000860 -1325100.000000 1 0 0
6.081222 14.344026 -3.337154 15.933265 1.169811 1.781804 0.010431 -0.006282 1904140.000000 1 0 0
3.092522 16.372226 1.576546 16.736158 1.384108 1.476456 0.015531 -0.022645 -2255530.000000 1 0 0
2.930222 18.897526 -2.467554 19.281896 1.416963 1.699121 0.019732 -0.021415 -525636.000000 1 0 0
3.859422 12.000726 10.662746 16.510806 1.259644 0.868720 0.013797 -0.008802 2154220.000000 1 0 0
8.115022 11.503326 3.354546 14.471803 0.956422 1.336870 0.012353 -0.000902 1377220.000000 1 0 0
0.764022 12.483126 0.190546 12.507936 1.509668 1.555562 0.004199 -0.006520 -748287.000000 1 0 0
12.040222 9.835126 -4.567654 16.203707 0.684935 1.856559 0.041416 -0.006905 6475.330000 1 0 0
-1.240578 16.368926 9.805546 19.121441 -1.495152 1.032349 0.009024 -0.013008 -1571990.000000 1 0 0
8.056022 14.818426 -7.832454 18.596574 1.072842 2.005539 0.045587 -0.006383 1617890.000000 1 0 0
14.612622 7.676126 -1.409954 16.566219 0.483688 1.656010 0.023135 -0.000337 252775.000000 1 0 0
12.488622 8.261226 5.923646 16.102892 0.584417 1.194087 0.012187 -0.002099 121635.000000 1 0 0
-3.007178 14.201126 10.114146 17.692118 -1.362123 0.962250 0.009244 -0.018113 412574.000000 1 0 0
-4.598178 17.080126 -3.132954 17.963556 -1.307819 1.746099 0.026645 -0.010599 -482612.000000 1 0 0
-7.054178 16.423826 -1.682954 17.953713 -1.165113 1.664673 0.017956 -0.008792 -513082.000000 1 0 0
8.383422 11.212526 -1.857354 14.122757 0.928779 1.702693 0.015793 -0.006541 -195645.000000 1 0 0
8.544922 12.862026 -4.226654 16.009748 0.984397 1.837969 0.034551 -0.005108 1806840.000000 1 0 0
2.492622 14.861326 -7.336854 16.760120 1.404618 2.023898 0.003282 -0.006466 -150078.000000 1 0 0
11.251122 11.292026 9.786346 18.704817 0.787213 1.020196 0.035257 -0.010433 69246.700000 1 0 0
8.571222 15.621326 1.311746 17.866515 1.068962 1.497311 0.016911 -0.014591 481836.000000 1 0 0
5.999222 9.911026 7.701246 13.911445 1.026483 0.984127 0.001662 0.003387 2142610.000000 1 0 0
14.612822 11.363926 2.567546 18.688651 0.660975 1.432975 0.034274 -0.000491 1460250.000000 1 0 0
12.264822 12.617526 1.081446 17.629446 0.799572 1.509415 0.042689 -0.002817 1025240.000000 1 0 0
5.232522 15.869626 8.207446 18.616834 1.252302 1.114238 0.021520 -0.008139 495163.000000 1 0 0
11.606322 15.012626 5.070446 19.641667 0.912672 1.309692 0.046540 -0.007839 703489.000000 1 0 0
5.920822 16.524226 1.719546 17.636979 1.226736 1.473145 0.007033 -0.028209 1051670.000000 1 0 0
-0.672378 16.162526 -4.173254 16.706148 -1.529219 1.823274 0.006780 -0.003720 1162410.000000 1 0 0
16.127422 6.429226 2.541846 17.546785 0.379344 1.425424 0.000947 -0.002743 -479401.000000 1 0 0
7.662922 16.756626 -3.165454 18.695588 1.141883 1.740931 0.030303 -0.014086 1215580.000000 1 0 0
14.893822 8.120026 7.393146 18.504577 0.499146 1.159792 0.041556 -0.011113 -346521.000000 1 0 0
2.063222 12.969326 8.514846 15.651291 1.413034 0.995558 0.007545 -0.003215 126189.000000 1 0 0
15.944422 7.562126 -5.920654 18.613557 0.442861 1.894503 0.026840 -0.003389 -1248980.000000 1 0 0
-2.971678 17.058926 0.664846 17.328585 -1.398326 1.532420 0.011512 -0.003755 1456440.000000 1 0 0
-2.909378 18.553226 4.479346 19.306766 -1.415251 1.336654 0.013420 -0.007606 352195.000000 1 0 0
-0.772478 18.987226 0.714146 19.016348 -1.530135 1.533233 0.013167 -0.013896 -569310.000000 1 0 0
6.882722 16.816926 -5.992854 19.133614 1.182321 1.889368 0.033761 -0.009196 89923.800000 1 0 0
11.118522 10.047226 0.825346 15.008314 0.734827 1.515776 0.017209 -0.002430 -365931.000000 1 0 0
9.063722 8.575826 14.150646 18.866283 0.757746 0.722659 0.035636 -0.016253 508196.000000 1 0 0
6.367322 12.338026 -8.318354 16.185323 1.094373 2.110573 0.029055 -0.008524 1966750.000000 1 0 0
6.282522 9.049026 13.217046 17.205966 0.963922 0.694824 0.016077 -0.015054 892318.000000 1 0 0
16.827422 9.409326 2.687946 19.465935 0.509853 1.432269 0.033056 0.001396 -383591.000000 1 0 0
2.611422 14.717526 -0.755454 14.966490 1.395188 1.621294 0.005016 -0.008827 -737291.000000 1 0 0
9.063022 12.876226 8.330946 17.814046 0.957486 1.084153 0.025110 -0.010231 2571900.000000 1 0 0
7.152822 9.328026 10.488046 15.753541 0.916623 0.842287 0.005914 -0.006782 566017.000000 1 0 0
4.310522 15.812426 -5.242554 17.207492 1.304660 1.880385 0.018810 -0.008545 581025.000000 1 0 0
0.168422 16.244326 -8.204154 18.199303 1.560429 2.038452 0.013240 -0.006404 -13997.700000 1 0 0
-2.404078 15.611626 -1.918054 15.911675 -1.418004 1.691634 0.002766 -0.004314 1246730.000000 1 0 0
13.225922 10.370126 7.745646 18.505663 0.664955 1.138942 0.041193 -0.008594 2360860.000000 1 0 0
-1.062378 15.907926 6.950446 17.392512 -1.504112 1.159691 0.008645 -0.009820 2012920.000000 1 0 0
13.261622 13.182026 6.679546 19.855799 0.782388 1.227702 0.048114 -0.010152 -375923.000000 1 0 0
5.360222 17.362326 4.476446 18.714190 1.271352 1.329254 0.017107 -0.019661 705251.000000 1 0 0
10.933322 9.553826 -1.827454 14.633958 0.718165 1.696001 0.017038 -0.001102 1080720.000000 1 0 0
3.244522 12.766326 4.702246 13.986319 1.321919 1.227914 0.004362 -0.002630 1931440.000000 1 0 0
-0.180378 18.091226 3.501146 18.427779 -1.560826 1.379641 0.006541 -0.011419 1914660.000000 1 0 0
-7.789178 15.907226 -5.692654 18.604232 -1.115453 1.881771 0.038030 -0.016227 289698.000000 1 0 0
-12.452978 -9.054374 8.350846 17.515564 0.628674 1.073823 0.036926 -0.012473 39586.800000 1 0 0
-13.396678 -11.611574 6.963546 19.047063 0.714138 1.196522 0.051905 -0.008771 -1302530.000000 1 0 0
-6.415478 -12.230774 12.234546 18.450862 1.087713 0.845860 0.035103 -0.012718 -1107460.000000 1 0 0
-1.798478 -10.618774 14.484746 18.049951 1.403021 0.639354 0.006117 -0.002629 2085760.000000 1 0 0
-8.912378 2.858026 10.992246 14.437045 -0.310320 0.705339 0.005591 -0.002689 2231250.000000 1 0 0
0.650722 10.119126 15.032646 18.132860 1.506579 0.593429 0.015170 -0.014123 237978.000000 1 0 0
1.019322 -6.671974 16.572146 17.893861 -1.419192 0.386761 0.010108 -0.019702 374274.000000 1 0 0
6.130422 2.399526 17.618946 18.808696 0.373082 0.357585 0.036789 -0.011595 990932.000000 1 0 0
-5.075078 -2.858274 17.621346 18.559040 0.512920 0.319237 0.038752 -0.018271 -272707.000000 1 0 0
-4.362378 8.093426 12.920346 15.857781 -1.076436 0.618475 0.002448 -0.003622 -855008.000000 1 0 0
0.110122 -4.736074 18.600146 19.193956 -1.547549 0.249392 0.029834 -0.022871 359578.000000 1 0 0
-11.738578 2.199826 11.145346 16.335611 -0.185253 0.819929 0.012447 -0.008654 -121105.000000 1 0 0
-3.384778 -6.075274 14.379446 15.972919 1.062488 0.450478 0.016810 -0.011383 1421540.000000 1 0 0
-7.515378 -2.258674 14.624546 16.596983 0.291952 0.492493 0.021795 -0.007427 1506610.000000 1 0 0
-6.109278 -1.171874 10.632246 12.318329 0.189517 0.529373 0.009282 -0.007095 1241670.000000 1 0 0
-3.952378 2.466026 11.084646 12.023808 -0.557833 0.397862 0.006988 0.000067 1224130.000000 1 0 0
-6.491478 6.253526 13.445046 16.186882 -0.766730 0.590587 -0.004420 -0.000362 477783.000000 1 0 0
-9.056078 5.507626 12.484246 16.376901 -0.546405 0.703924 0.008589 -0.004057 1173100.000000 1 0 0
-12.410778 -2.222274 15.886746 20.281879 0.177182 0.670844 0.037184 -0.008371 1299930.000000 1 0 0
-3.389778 -7.565374 16.986546 18.901540 1.149553 0.454032 0.034495 -0.016349 -1533170.000000 1 0 0
-0.545478 -5.283674 14.393046 15.341921 1.467922 0.353544 0.012332 -0.008143 2296890.000000 1 0 0
-14.351078 -2.140674 13.596746 19.884854 0.148073 0.817874 0.037466 -0.011318 -802323.000000 1 0 0
-6.458778 1.516926 12.170546 13.861424 -0.230682 0.499096 0.009270 -0.005152 2005320.000000 1 0 0
2.227022 -2.190374 14.588346 14.919022 -0.777102 0.210936 0.005838 -0.002624 1181390.000000 1 0 0
-12.643878 4.094626 9.050146 16.079140 -0.313185 0.972966 0.004436 -0.006277 -680457.000000 1 0 0
-9.090878 -2.946674 12.537646 15.764502 0.313450 0.651280 0.012784 -0.003887 2099980.000000 1 0 0
-7.105178 -7.188774 15.312046 18.347228 0.791246 0.583445 0.041114 -0.013858 -794972.000000 1 0 0
-3.526178 6.032226 19.402446 20.622235 -1.041810 0.345664 0.045460 -0.015884 -1322260.000000 1 0 0
0.571522 5.559626 16.042546 16.988212 1.468357 0.335232 0.018268 -0.009095 2108750.000000 1 0 0
3.471522 1.491626 16.759046 17.179698 0.405824 0.221748 0.020622 -0.006503 1182790.000000 1 0 0
-11.679978 11.547826 7.906346 18.228672 -0.779709 1.122167 0.021408 -0.010417 -467919.000000 1 0 0
0.620722 -9.398874 15.542146 18.173674 -1.504850 0.544858 -0.009808 0.000332 636360.000000 1 0 0
-2.566678 -3.571874 18.829346 19.336245 0.947709 0.229479 0.041310 -0.022831 2254960.000000 1 0 0
-12.868378 2.432126 13.746346 18.986111 -0.186797 0.761182 0.013040 -0.011696 -1642650.000000 1 0 0
-5.446778 -0.542974 15.777346 16.699906 0.099359 0.333945 0.025865 -0.005237 1795040.000000 1 0 0
-4.483778 -5.984074 11.723746 13.905381 0.927753 0.567758 0.005374 -0.004270 546472.000000 1 0 0
2.433622 1.876326 13.968046 14.302078 0.656807 0.216550 0.006814 -0.004917 389555.000000 1 0 0
0.047722 3.261026 14.212946 14.582332 1.556163 0.225560 0.013997 -0.005135 2427310.000000 1 0 0
-13.148278 7.020226 12.007346 19.139936 -0.490420 0.892657 0.033721 -0.015831 1620570.000000 1 0 0
0.904622 1.587726 18.236346 18.327671 1.052909 0.099870 0.023047 -0.006633 1794760.000000 1 0 0
-2.041978 6.479526 12.419546 14.156237 -1.265505 0.500548 0.002778 -0.001846 833977.000000 1 0 0
-13.428578 -2.546874 10.870446 17.463673 0.187434 0.898914 0.036578 -0.014821 266943.000000 1 0 0
-2.626478 3.689626 13.442046 14.184510 -0.952158 0.324981 0.010273 -0.002219 272561.000000 1 0 0
3.495022 6.236226 16.295246 17.794402 1.059974 0.413422 0.015390 -0.004498 2534100.000000 1 0 0
-3.687578 12.366826 12.295846 17.824827 -1.281007 0.809562 0.014600 -0.015850 30173.300000 1 0 0
3.790322 -1.418874 17.056446 17.530034 -0.358193 0.232974 0.024950 -0.014557 -879993.000000 1 0 0
-15.834978 0.491426 9.089946 18.265135 -0.031024 1.049890 0.037639 -0.014015 -896850.000000 1 0 0
-4.802278 4.601726 15.161546 16.556275 -0.764075 0.413405 0.010402 -0.003299 1671890.000000 1 0 0
-8.001378 -8.162274 10.524846 15.537604 0.795352 0.826603 0.020487 -0.009824 3982140.000000 1 0 0
-2.659478 -0.431574 14.772346 15.016034 0.160875 0.180403 0.022021 -0.003804 2594040.000000 1 0 0
-1.829978 0.986026 17.266746 17.391423 -0.494218 0.119812 0.030381 -0.011065 617037.000000 1 0 0
-0.663378 -2.433774 14.451046 14.669562 1.304689 0.172818 0.012957 -0.003016 472095.000000 1 0 0
5.162522 -8.373274 16.490546 19.201600 -1.018298 0.537852 0.001607 -0.012609 481217.000000 1 0 0
-4.510178 9.990126 10.590746 15.241661 -1.146726 0.802578 0.005538 -0.009525 -1414560.000000 1 0 0
-6.359678 2.117226 15.200746 16.612972 -0.321373 0.415307 0.012414 -0.001075 465993.000000 1 0 0
-5.050378 6.866726 17.161946 19.162219 -0.936649 0.460987 0.019245 -0.005398 -359087.000000 1 0 0
-4.109278 9.125526 15.633246 18.562321 -1.147688 0.569440 0.014019 -0.007169 419156.000000 1 0 0
-4.682978 -9.865274 18.345846 21.350035 1.127598 0.536919 0.064072 -0.019669 1568160.000000 1 0 0
-6.809678 -4.041974 11.119846 13.651382 0.535673 0.618829 0.012398 -0.003690 1079570.000000 1 0 0
-2.324878 -0.704074 19.624346 19.774118 0.294063 0.123156 0.039017 -0.007886 -766606.000000 1 0 0
-5.725378 -4.499674 15.265446 16.913334 0.666095 0.445097 0.024642 -0.012132 1925060.000000 1 0 0
-12.994278 0.090626 9.723346 16.229693 -0.006974 0.928409 0.017504 -0.007851 1539010.000000 1 0 0
-14.617378 8.782226 10.189546 19.865097 -0.541013 1.032193 0.039877 -0.017593 -2328780.000000 1 0 0
-8.428878 10.536426 12.705846 18.533774 -0.896071 0.815436 0.014554 -0.021935 1218530.000000 1 0 0
-10.525578 7.223326 10.686646 16.648382 -0.601448 0.873819 0.014910 -0.008354 -701109.000000 1 0 0
-9.872078 -6.501574 14.780546 18.925985 0.582385 0.674586 0.042353 -0.018159 -1634170.000000 1 0 0
-0.656978 -13.361674 14.549446 19.764927 1.521667 0.743470 -0.000453 -0.004963 -66534.800000 1 0 0
3.866522 -5.719774 16.904046 18.259589 -0.976365 0.387749 0.013926 -0.019790 3979670.000000 1 0 0
-7.292678 9.356626 10.240746 15.671710 -0.908735 0.858657 0.004459 -0.008107 581637.000000 1 0 0
-10.389878 -6.638474 11.781746 17.053693 0.568558 0.808116 0.039375 -0.019969 1895640.000000 1 0 0
-10.887978 -3.836374 10.682046 15.728062 0.338766 0.824164 0.022996 -0.007209 -1679020.000000 1 0 0
-10.063178 -10.226774 9.851846 17.404405 0.793461 0.969084 0.034786 -0.014806 968779.000000 1 0 0
-9.947078 -3.537774 15.215646 18.519613 0.341708 0.606591 0.036294 -0.017666 1159690.000000 1 0 0
5.653022 -3.267474 16.192246 17.459149 -0.524090 0.383298 0.025771 -0.012926 -523656.000000 1 0 0
-11.405378 0.578126 15.394546 19.167914 -0.050646 0.638247 0.020910 -0.005365 -1423110.000000 1 0 0
-3.288078 3.128626 18.780446 19.321100 -0.760554 0.237125 0.041483 -0.011797 543654.000000 1 0 0
0.536022 7.407526 13.826046 15.694531 1.498560 0.492937 0.005912 -0.008311 1330280.000000 1 0 0
-13.252178 -7.116274 12.268946 19.411043 0.492799 0.886588 0.048940 -0.027545 454600.000000 1 0 0
-1.509378 -1.013274 12.196746 12.331486 0.591216 0.147963 0.008413 -0.002242 1510590.000000 1 0 0
2.001822 -4.851974 13.167646 14.175184 -1.179493 0.379304 0.002804 -0.004463 173302.000000 1 0 0
-14.582778 -4.137274 8.599346 17.427656 0.276445 1.054766 0.043727 -0.019514 -1342110.000000 1 0 0
8.131822 0.957926 15.988846 17.963501 0.117259 0.473289 0.037871 -0.008511 401671.000000 1 0 0
-1.218078 11.342626 13.278146 17.505657 -1.463817 0.709779 0.009263 -0.010791 298627.000000 1 0 0
2.852022 -12.333374 -13.941354 18.831025 -1.343546 2.404372 0.011160 0.011044 -3943.860000 1 0 0
0.763322 -10.643674 -14.005654 17.607635 -1.499203 2.490514 0.002263 0.005237 -1957550.000000 1 0 0
3.144722 -14.346574 -12.271554 19.139083 -1.355012 2.266828 0.018231 0.000000 -546535.000000 1 0 0
-5.134278 -10.308674 -16.098954 19.794087 1.108707 2.520635 0.006927 -0.006071 -162608.000000 1 0 0
-1.146778 -12.224974 -14.936354 19.335453 1.477264 2.453542 0.012833 -0.000030 218658.000000 1 0 0
5.604822 -15.118774 -11.960554 20.076011 -1.215784 2.209012 0.028459 0.000174 495224.000000 1 0 0
1.824722 -11.722874 -16.222454 20.097846 -1.416381 2.510145 0.014098 0.005535 -701636.000000 1 0 0
1.307122 -14.425274 -14.035454 20.169062 -1.480430 2.340455 0.029900 0.015046 -49658.700000 1 0 0
-1.087378 -10.649674 -15.938754 19.200048 1.469045 2.550158 0.010092 -0.004428 -231140.000000 1 0 0
-5.910378 -5.512974 -14.911454 16.961041 0.750623 2.644891 0.017375 -0.007502 -207070.000000 1 0 0
-6.497578 -7.690774 -16.411754 19.253888 0.869298 2.591329 0.021738 -0.004737 514881.000000 1 0 0
4.977922 -12.596174 -11.435454 17.726052 -1.194441 2.271978 0.009744 0.002911 -286755.000000 1 0 0
-1.973878 -15.711374 -13.082854 20.540315 1.445817 2.261313 0.025467 0.002921 -93470.500000 1 0 0
15.863322 -7.492374 -8.764254 19.611038 -0.441250 2.034098 0.070173 -0.004624 511161.000000 1 0 0
19.263922 -3.664674 -4.087454 20.030872 -0.187989 1.776297 0.105565 -0.015152 1758450.000000 1 0 0
14.992722 -11.565574 -8.823254 20.890046 -0.657065 2.006851 0.053593 -0.015273 -120446.000000 1 0 0
17.899422 -3.683174 -6.465254 19.384390 -0.202938 1.910841 0.107352 -0.006921 639959.000000 1 0 0
9.595622 -9.177374 -15.316254 20.270367 -0.763123 2.427363 0.093898 -0.019810 21838.100000 1 0 0
1.273522 1.831726 -15.216854 15.379523 0.963260 2.996020 0.007067 -0.002650 -102503.000000 1 0 0
4.821622 -4.366274 -14.012954 15.449119 -0.735879 2.706994 0.004724 -0.003103 -2884.190000 1 0 0
13.019322 -5.548674 -8.657554 16.590472 -0.402876 2.119802 0.036923 -0.001071 -1928010.000000 1 0 0
2.976622 0.857526 -12.236354 12.622361 0.280492 2.893648 0.001983 -0.002863 -3653450.000000 1 0 0
0.667122 6.358926 -12.894754 14.392904 1.466268 2.681273 0.012484 -0.001931 394390.000000 1 0 0
3.104822 -1.111574 -16.867554 17.186911 -0.343797 2.948516 0.018188 -0.010218 -136601.000000 1 0 0
13.245622 4.178726 -11.408254 17.973773 0.305597 2.258438 0.031454 -0.000039 435825.000000 1 0 0
-3.907778 9.402126 -16.552554 19.433418 -1.176891 2.590126 0.006417 0.000134 -191412.000000 1 0 0
-0.407278 -5.224574 -17.777654 18.533943 1.492999 2.854935 0.016877 -0.015784 154498.000000 1 0 0
-0.611078 -8.488274 -17.540654 19.496121 1.498929 2.689877 0.018994 -0.012464 -642328.000000 1 0 0
5.623722 -10.262074 -12.258054 16.946867 -1.069482 2.379399 0.004774 0.003158 290866.000000 1 0 0
1.586922 -9.742574 -18.171354 20.679318 -1.409329 2.643973 0.033413 -0.006868 -503856.000000 1 0 0
10.773022 9.114626 -14.991654 20.588446 0.702202 2.386428 0.076091 -0.007982 -234766.000000 1 0 0
10.918322 -3.871574 -12.915354 17.349502 -0.340762 2.410465 0.033215 -0.004114 474987.000000 1 0 0
5.092222 7.284526 -12.320654 15.191891 0.960711 2.516659 0.002530 -0.001016 -482251.000000 1 0 0
9.561222 -6.011874 -12.657054 16.963508 -0.561311 2.413033 0.022518 -0.000515 -1322140.000000 1 0 0
-3.300678 0.188626 -15.854554 16.195584 -0.057086 2.936014 0.014696 -0.005462 -2559130.000000 1 0 0
-0.772378 10.878926 -12.810754 16.824477 -1.499918 2.436321 0.006738 -0.000307 -1174650.000000 1 0 0
6.711922 -5.477874 -12.430254 15.151509 -0.684506 2.532902 0.007777 -0.001209 6105.870000 1 0 0
17.920622 -5.969274 -8.465654 20.698991 -0.321536 1.992142 0.104247 -0.011130 2228920.000000 1 0 0
13.040622 4.680826 -13.949854 19.661292 0.344619 2.359597 0.058421 -0.009809 447341.000000 1 0 0
14.310922 0.725026 -11.564754 18.413899 0.050619 2.249834 0.052754 -0.001019 -233514.000000 1 0 0
14.886622 6.126026 -11.193454 19.606966 0.390391 2.178388 0.044034 -0.004665 -119667.000000 1 0 0
8.231022 1.484126 -11.861454 14.513664 0.178392 2.527438 0.002694 0.002131 458035.000000 1 0 0
9.899422 1.329826 -9.087054 13.503390 0.133534 2.308981 0.006539 -0.000928 417888.000000 1 0 0
-0.130678 -5.701074 -12.991754 14.188199 1.547879 2.727976 0.004172 -0.004621 369224.000000 1 0 0
10.480122 -5.850674 -9.055254 15.035324 -0.509166 2.217132 0.020502 -0.005434 -926267.000000 1 0 0
10.265522 8.476326 -11.237554 17.421586 0.690221 2.271867 0.047837 -0.016708 540953.000000 1 0 0
8.265322 8.421026 -14.723554 18.868288 0.794729 2.465995 0.049722 -0.004838 838738.000000 1 0 0
8.696922 10.593626 -10.670254 17.369965 0.883406 2.232286 0.055219 -0.013307 56445.800000 1 0 0
6.975022 1.841726 -17.941954 19.337958 0.258154 2.759296 0.036920 -0.005956 -2470690.000000 1 0 0
12.218522 2.454026 -12.866254 17.912426 0.198208 2.372133 0.045481 -0.005008 -1907760.000000 1 0 0
2.593522 -0.928574 -19.331854 19.527140 -0.343816 3.000048 0.034181 -0.019849 -606806.000000 1 0 0
10.290422 -2.084674 -15.476854 18.702183 -0.199879 2.545513 0.062053 -0.012368 1718340.000000 1 0 0
8.300722 -0.939674 -13.094554 15.532299 -0.112724 2.573731 0.013151 -0.003425 479128.000000 1 0 0
0.614522 4.348126 -14.659054 15.302670 1.430396 2.850535 0.008654 -0.001377 -612614.000000 1 0 0
3.975822 -7.572474 -15.628354 17.815582 -1.087321 2.640857 0.023514 -0.011171 -142751.000000 1 0 0
11.418222 -5.896574 -14.505354 19.379130 -0.476695 2.416599 0.078158 -0.005697 -92574.400000 1 0 0
-5.812378 4.211426 -16.784454 18.254801 -0.627021 2.737487 0.015296 -0.000113 -136022.000000 1 0 0
11.428522 7.846526 -9.085554 16.574872 0.601658 2.150950 0.039608 -0.009458 -1111810.000000 1 0 0
9.678222 6.420226 -13.771354 18.014924 0.585716 2.440971 0.039569 0.006273 715179.000000 1 0 0
12.053922 0.693026 -10.220154 15.818624 0.057431 2.273238 0.021849 0.001955 -842112.000000 1 0 0
5.482522 -7.190374 -13.733554 16.442933 -0.919355 2.559339 0.009832 -0.000791 -316699.000000 1 0 0
8.572122 -10.270074 -10.670754 17.112004 -0.875270 2.244114 0.029238 -0.005828 255128.000000 1 0 0
10.240722 4.438726 -15.967754 19.481885 0.408997 2.531545 0.065532 -0.006253 352843.000000 1 0 0
9.922022 -0.353274 -11.048154 14.853721 -0.035590 2.409530 0.014533 -0.000465 -381939.000000 1 0 0
-1.674178 5.474226 -14.005454 15.130194 -1.274000 2.753579 0.008020 -0.001404 1908030.000000 1 0 0
1.374122 -0.793774 -14.895454 14.979748 -0.523830 3.035456 0.005940 -0.007737 -284167.000000 1 0 0
11.632922 -10.397374 -14.182654 21.085017 -0.729373 2.308569 0.105759 -0.021309 502462.000000 1 0 0
9.310322 -7.872274 -10.792254 16.282738 -0.701901 2.295353 0.026774 -0.003649 -30390.400000 1 0 0
13.929122 -0.932574 -9.767154 17.037824 -0.066852 2.181279 0.035655 -0.002254 838169.000000 1 0 0
3.939222 11.008126 -12.158954 16.868209 1.227148 2.375782 0.022746 -0.015173 -924723.000000 1 0 0
-1.307578 2.833726 -17.265054 17.544853 -1.138475 2.962762 0.009864 0.000453 180769.000000 1 0 0
5.894822 -0.445174 -17.797254 18.753383 -0.075376 2.820895 0.014451 -0.001780 64723.300000 1 0 0
6.424422 -6.580574 -16.102254 18.543455 -0.797405 2.622667 0.035903 -0.004281 401817.000000 1 0 0
-1.890378 -5.131974 -19.904554 20.642237 1.217866 2.873445 0.034078 -0.023708 -1421470.000000 1 0 0
-0.009878 -4.379774 -15.295354 15.910071 1.568541 2.862708 0.007036 -0.011972 -184970.000000 1 0 0
0.520722 0.748726 -12.993554 13.025521 0.963112 3.071519 0.003199 -0.004292 224188.000000 1 0 0
15.816422 0.387626 -13.606654 20.867451 0.024503 2.281084 0.112957 -0.025007 625795.000000 1 0 0
-0.088578 7.022326 -16.314254 17.761638 -1.558183 2.735093 0.015303 0.002874 -142698.000000 1 0 0
-4.961878 -0.556574 -18.276754 18.946497 0.111703 2.874912 0.017528 -0.005534 -168645.000000 1 0 0
10.414622 -8.529674 -12.977254 18.698364 -0.686225 2.337870 0.039353 -0.014909 929301.000000 1 0 0
4.122422 8.691726 -16.961454 19.499523 1.127925 2.625673 0.039669 -0.019075 -254961.000000 1 0 0
9.115922 0.816226 -16.860554 19.184487 0.089300 2.644272 0.044331 -0.010959 -354714.000000 1 0 0
3.398922 4.809526 -18.441854 19.359395 0.955584 2.832483 0.028181 -0.006607 -621691.000000 1 0 0
1.427622 -8.166974 -16.025354 18.042991 -1.397741 2.664157 0.010772 -0.008436 690038.000000 1 0 0
4.617622 7.657726 -14.835654 17.322235 1.028173 2.599152 0.012306 -0.006011 832494.000000 1 0 0
-5.624978 -0.449074 -15.097854 16.117917 0.079667 2.783915 0.008882 -0.005087 -119801.000000 1 0 0
2.857422 3.308026 -13.729954 14.409009 0.858354 2.833366 0.005043 -0.000989 392055.000000 1 0 0
-2.528878 -10.217074 -18.115154 20.950958 1.328158 2.615241 0.029433 -0.005032 342680.000000 1 0 0
6.112522 -9.116174 -15.170554 18.724670 -0.980135 2.515274 0.018385 -0.009800 1321.870000 1 0 0
-1.800178 5.453426 -17.456754 18.377126 -1.251958 2.823768 0.009918 0.005754 938093.000000 1 0 0
9.971022 -12.388674 -11.456354 19.599708 -0.893105 2.195080 0.068398 -0.013750 363040.000000 1 0 0
10.844222 3.725426 -9.321554 14.777257 0.330908 2.253385 0.008546 -0.001759 -1401380.000000 1 0 0
4.862422 -0.522974 -11.124154 12.151685 -0.107142 2.727399 -0.002269 -0.003684 -42842.700000 1 0 0
6.332222 9.519626 -11.433154 16.169024 0.983827 2.356188 0.020128 -0.008660 463293.000000 1 0 0
10.879422 -9.587474 -9.500354 17.336038 -0.722358 2.150782 0.045271 -0.008787 -658409.000000 1 0 0
3.286022 -2.426074 -14.629054 15.188581 -0.635972 2.869317 0.006604 -0.006040 -355287.000000 1 0 0
9.137322 -4.526474 -14.777154 17.953938 -0.459947 2.537573 0.042629 -0.007322 512371.000000 1 0 0
-4.114478 -6.543774 -16.574854 18.288677 1.009496 2.705219 0.006905 -0.007575 361396.000000 1 0 0
5.816322 -7.775174 -11.257554 14.866589 -0.928536 2.429871 -0.001210 -0.001558 -217059.000000 1 0 0
5.434622 6.463426 -16.912754 18.903763 0.871652 2.678503 0.027280 -0.004264 -1236230.000000 1 0 0
8.895422 1.158426 -19.454254 21.422850 0.129498 2.709539 0.058677 -0.017294 313396.000000 1 0 0
13.068222 5.697726 -9.402454 17.077724 0.411150 2.153841 0.012639 -0.001567 -81323.000000 1 0 0
-1.626578 -0.914874 -17.253054 17.353692 0.512354 3.033844 0.017252 -0.014556 360955.000000 1 0 0
-0.393778 -0.525774 -19.420954 19.432060 0.927968 3.107782 0.027678 -0.025164 -602808.000000 1 0 0
2.838822 6.333226 -16.417054 17.823813 1.149405 2.741626 0.015170 -0.002022 -365130.000000 1 0 0
7.682222 3.856826 -15.614754 17.824483 0.465283 2.638361 0.026329 -0.002435 224397.000000 1 0 0
3.078222 -9.874374 -14.866554 18.110581 -1.268605 2.533741 0.012229 -0.000034 472272.000000 1 0 0
9.124822 -10.730874 -13.266754 19.349956 -0.866109 2.326254 0.060954 -0.004219 -88121.400000 1 0 0
3.808522 0.176526 -14.978554 15.456167 0.046317 2.892348 0.005447 -0.005741 -1224900.000000 1 0 0
-1.014778 -2.909674 -18.943854 19.192852 1.235227 2.980337 0.030438 -0.017783 182216.000000 1 0 0
9.419622 10.223326 -13.051054 19.067661 0.826291 2.324659 0.076235 -0.019805 398602.000000 1 0 0
4.671022 2.094826 -10.806654 11.957864 0.421583 2.699195 -0.003665 -0.000413 109608.000000 1 0 0
-0.315178 7.107126 -18.975854 20.265577 -1.526479 2.782907 0.021572 0.004946 120981.000000 1 0 0
0.840622 -1.962774 -17.558254 17.687606 -1.166148 3.020580 0.026279 -0.022215 -2455220.000000 1 0 0
-4.458478 -2.386774 -14.032554 14.916008 0.491513 2.795695 0.009721 -0.006657 -2665680.000000 1 0 0
10.044822 6.036726 -10.514554 15.744725 0.541139 2.302065 0.017955 0.001643 169600.000000 1 0 0
8.537722 5.814026 -17.305254 20.153596 0.597847 2.603462 0.070800 -0.013985 -239482.000000 1 0 0
11.334222 0.198726 -13.557054 17.671949 0.017531 2.445184 0.034696 0.001067 195804.000000 1 0 0
6.731722 11.985426 -11.841354 18.143434 1.059046 2.281876 0.052543 -0.021131 -463184.000000 1 0 0
-0.946878 0.514526 -15.047654 15.086193 -0.497756 3.070099 0.008509 -0.005947 -1011690.000000 1 0 0
-4.286378 -3.043174 -18.933854 19.650058 0.617382 2.870774 0.022107 -0.011484 -128631.000000 1 0 0
5.781822 -12.290074 -13.966154 19.481500 -1.131070 2.370132 0.021471 0.002640 1315.650000 1 0 0
2.205522 -4.809674 -14.062654 15.025163 -1.140847 2.781716 0.005849 -0.004685 1083510.000000 1 0 0
11.939222 1.716926 -15.405354 19.565730 0.142826 2.477318 0.082892 -0.006357 478810.000000 1 0 0
9.766922 2.224226 -13.819454 17.068019 0.223912 2.514385 0.026827 -0.004362 617521.000000 1 0 0
-2.306378 -4.142174 -16.459354 17.128553 1.062745 2.861142 0.008479 -0.013135 -1029250.000000 1 0 0
-2.945378 10.077926 -14.234354 17.687755 -1.286455 2.506063 0.006921 -0.005560 291239.000000 1 0 0
3.493222 5.714826 -13.559254 15.123333 1.022141 2.682779 0.005705 0.001822 -299351.000000 1 0 0
-5.132878 -2.607774 -16.507054 17.482270 0.470069 2.806005 0.013805 -0.007432 495088.000000 1 0 0
-4.332678 6.159826 -13.566454 15.516579 -0.957808 2.634829 0.005654 -0.001345 -424437.000000 1 0 0
5.922222 -1.121974 -14.233154 15.456850 -0.187233 2.741004 0.006719 -0.001232 -1524420.000000 1 0 0
6.667722 -2.975874 -12.678254 14.630532 -0.419781 2.619067 0.005694 -0.005878 1139450.000000 1 0 0
3.015022 -3.244074 -18.410854 18.936048 -0.821977 2.905524 0.031277 -0.021841 -20073.000000 1 0 0
7.408222 -12.055374 -11.986354 18.544176 -1.019771 2.273611 0.032446 -0.006762 -1487580.000000 1 0 0
-6.320478 -5.326674 -17.497054 19.351196 0.700278 2.700263 0.048091 -0.011707 622403.000000 1 0 0
0.507222 8.812226 -11.990654 14.889204 1.513301 2.507020 0.010135 0.001329 8691.250000 1 0 0
0.551422 8.548726 -14.499454 16.840990 1.506382 2.607954 0.012368 0.001430 547957.000000 1 0 0
7.671122 -2.492274 -15.156954 17.169473 -0.314133 2.652554 0.020618 -0.008763 -486281.000000 1 0 0
14.287522 1.586526 -9.039354 16.981174 0.110590 2.132131 0.032171 0.000804 785645.000000 1 0 0
2.627022 10.901526 -14.514254 18.341431 1.334327 2.483789 0.019332 -0.004807 -254217.000000 1 0 0
6.149022 1.124226 -15.578654 16.785971 0.180833 2.760008 0.016028 -0.005433 481044.000000 1 0 0
16.254722 -5.598874 -10.493254 20.141295 -0.331718 2.118797 0.102656 -0.012449 87967.100000 1 0 0
4.804622 -4.299274 -11.321154 13.028303 -0.729946 2.623906 -0.005280 -0.000828 -832222.000000 1 0 0
8.974822 -3.579274 -17.124154 19.662026 -0.379483 2.627878 0.063666 -0.011612 413286.000000 1 0 0
13.355922 -9.509974 -8.815154 18.615241 -0.618762 2.064108 0.061981 -0.010990 -1662590.000000 1 0 0
2.278122 -7.807474 -13.669354 15.905902 -1.286891 2.604869 0.000707 -0.001724 348868.000000 1 0 0
-6.805878 -2.376274 -18.522054 19.875441 0.335918 2.770431 0.025957 -0.002984 80214.300000 1 0 0
-1.597278 -6.448874 -15.641754 16.994227 1.327999 2.739939 0.002266 -0.011943 -115799.000000 1 0 0
1.567622 -7.198774 -18.454054 19.870377 -1.356381 2.761747 0.033480 -0.017819 -431256.000000 1 0 0
5.253522 10.894326 -14.471954 18.860628 1.121469 2.445433 0.054669 -0.026484 64282.100000 1 0 0
5.466722 -3.568574 -17.386854 18.572088 -0.578328 2.782403 0.030209 -0.016757 -242313.000000 1 0 0
3.823022 13.020626 -13.763454 19.328344 1.285210 2.363262 0.046838 -0.029506 229487.000000 1 0 0
8.865222 10.877226 -15.455054 20.874983 0.886960 2.404406 0.088868 -0.022476 282328.000000 1 0 0
2.449822 3.787926 -16.289154 16.902265 0.996713 2.871425 0.012432 0.000394 -141489.000000 1 0 0
16.642922 1.877726 -11.615054 20.381909 0.112349 2.177145 0.096001 -0.007287 42373.500000 1 0 0
9.935522 -3.766274 -10.589754 15.001410 -0.362335 2.354514 0.021075 -0.003424 -1473580.000000 1 0 0
14.583822 -2.222074 -11.970654 18.997948 -0.151203 2.252481 0.092026 -0.012917 729431.000000 1 0 0
-2.795878 -8.679374 -16.031554 18.443405 1.259163 2.624438 0.002799 -0.002263 -122302.000000 1 0 0
13.993822 8.079326 -9.153754 18.571316 0.523598 2.086213 0.057479 -0.006485 113494.000000 1 0 0
-8.330078 0.040926 -16.474054 18.460399 -0.004913 2.673432 0.014559 -0.002932 -285858.000000 1 0 0
-3.347778 3.875726 -15.956754 16.758486 -0.858356 2.831023 0.008727 0.000947 1001230.000000 1 0 0
15.187022 4.061326 -9.674554 18.459063 0.261306 2.122464 0.029989 0.002475 311761.000000 1 0 0
5.343322 1.113226 -13.086654 14.179241 0.205401 2.746458 -0.000509 -0.000125 319871.000000 1 0 0
7.837422 -7.805174 -12.877154 16.975483 -0.783337 2.431918 0.029877 -0.002746 -2376020.000000 1 0 0
3.300822 -6.313874 -11.927554 13.893415 -1.089084 2.603142 -0.001861 -0.002458 -1689580.000000 1 0 0
-3.370578 3.745426 -18.599154 19.269601 -0.838026 2.877030 0.015275 0.003548 123472.000000 1 0 0
0.867522 5.156026 -17.793754 18.546021 1.404104 2.855798 0.022937 -0.008403 -268299.000000 1 0 0
6.394322 7.096126 -10.338754 14.075944 0.837374 2.395723 -0.000976 -0.001397 272472.000000 1 0 0
9.749022 3.648726 -11.657954 15.628964 0.358127 2.412711 0.021142 -0.001889 277664.000000 1 0 0
4.511322 1.866626 -17.566254 18.232104 0.392316 2.870502 0.018671 -0.001848 -339992.000000 1 0 0
2.721022 8.132826 -13.121254 15.675271 1.247931 2.562697 0.007897 -0.001603 667845.000000 1 0 0
14.269722 -3.575074 -9.814354 17.684108 -0.245483 2.159137 0.063376 -0.002595 -122389.000000 1 0 0
-1.304978 9.355326 -16.098154 18.664824 -1.432200 2.610958 0.010840 0.001281 -969537.000000 1 0 0
-5.191278 1.962626 -15.760954 16.709546 -0.361453 2.803022 0.015219 -0.003994 440415.000000 1 0 0
4.487722 4.348726 -11.822054 13.372062 0.769670 2.655331 -0.000997 -0.001212 553721.000000 1 0 0
9.021822 3.237926 -17.795654 20.212935 0.344581 2.647521 0.050772 -0.004432 776803.000000 1 0 0
-4.490778 14.260326 -13.156954 19.915557 -1.265714 2.292463 0.010473 -0.016025 -219204.000000 1 0 0
15.418322 -5.007874 -8.014754 18.084240 -0.314051 2.029950 0.064241 -0.002426 816957.000000 1 0 0
1.170522 9.267726 -16.976854 19.377163 1.445161 2.638565 0.016794 0.002810 -49002.400000 1 0 0
0.465122 -3.170074 -12.941054 13.331789 -1.425113 2.898888 0.003396 -0.004870 -7118.890000 1 0 0
7.573322 3.652826 -13.007554 15.488538 0.449410 2.567744 0.006963 -0.001453 592608.000000 1 0 0
-2.900178 7.618526 -15.051154 17.116957 -1.207060 2.645213 0.005234 0.000319 332118.000000 1 0 0
12.105222 -5.073874 -11.014854 17.134982 -0.396903 2.268981 0.048799 -0.004143 -1187770.000000 1 0 0
0.631822 -4.530174 -20.084554 20.598810 -1.432220 2.917673 0.046607 -0.023990 -77830.100000 1 0 0
3.415422 -4.542974 -16.195754 17.164095 -0.926142 2.804086 0.021337 -0.017523 290452.000000 1 0 0
-5.564778 4.022226 -14.307654 15.869909 -0.625865 2.694155 0.007556 -0.001373 269897.000000 1 0 0
12.284022 -7.510774 -9.861954 17.451850 -0.548779 2.171345 0.035332 -0.003121 405011.000000 1 0 0
-2.041178 -1.889474 -14.898254 15.155675 0.746822 2.957021 0.011329 -0.006704 -151089.000000 1 0 0
7.184222 5.991526 -14.272554 17.065088 0.695122 2.561405 0.021230 0.001515 -982318.000000 1 0 0
4.248922 -5.585974 -18.323554 19.621648 -0.920520 2.775809 0.044540 -0.021417 109752.000000 1 0 0
7.778722 7.560726 -12.408254 16.481440 0.771188 2.423196 0.020466 -0.005866 -844803.000000 1 0 0
12.217422 -2.492474 -11.020954 16.641492 -0.201248 2.294624 0.030287 -0.005700 -347738.000000 1 0 0
7.423422 -0.713074 -10.778654 13.107061 -0.095763 2.536334 -0.002015 -0.000051 -1953500.000000 1 0 0
5.380822 4.055326 -14.325554 15.830995 0.645841 2.701954 0.003781 0.000020 800466.000000 1 0 0
14.714522 2.751326 -13.199354 19.957703 0.184846 2.293435 0.062763 -0.009120 880186.000000 1 0 0
-6.527978 6.570526 -15.901454 18.402243 -0.788646 2.614164 0.010879 0.004797 582437.000000 1 0 0
-11.106578 4.009026 -16.274254 20.106708 -0.346405 2.513916 0.038532 -0.019172 -393277.000000 1 0 0
-4.947578 6.409326 -18.034054 19.768285 -0.913405 2.719594 0.011547 0.015567 -326448.000000 1 0 0
-9.945878 1.807726 -15.605154 18.593257 -0.179794 2.566774 0.030695 -0.007449 -285757.000000 1 0 0
-7.500178 5.783326 -18.133254 20.457625 -0.656864 2.660265 0.016604 0.008269 990145.000000 1 0 0
-8.576878 3.999226 -15.480654 18.144070 -0.436310 2.592900 0.006967 -0.000893 185140.000000 1 0 0
8.983722 13.308826 -12.136154 20.127552 0.977033 2.218005 0.112480 -0.035000 -1098720.000000 1 0 0
14.210522 9.411626 -11.431054 20.522832 0.584973 2.161556 0.085099 -0.005357 302814.000000 1 0 0
8.191022 15.967926 -8.959854 20.058577 1.096829 2.033852 0.071405 -0.020178 -364339.000000 1 0 0
7.090222 13.607526 -13.783754 20.625903 1.090450 2.302682 0.091122 -0.027774 -33375.600000 1 0 0
4.842422 15.910426 -12.547554 20.833430 1.275349 2.217150 0.080187 -0.031295 435900.000000 1 0 0
11.213922 10.940126 -11.323054 19.330027 0.773040 2.196633 0.107937 -0.026392 589859.000000 1 0 0
15.763522 9.823026 -9.293454 20.768937 0.557267 2.034729 0.091279 -0.016645 -1036560.000000 1 0 0
13.312422 10.673726 -9.254354 19.411133 0.675830 2.067756 0.106519 -0.024048 -204763.000000 1 0 0
10.399522 12.017026 -7.964054 17.775971 0.857430 2.035350 0.058352 -0.004805 418670.000000 1 0 0
5.436422 16.216626 -9.970854 19.797767 1.247333 2.098598 0.055485 -0.022223 -491775.000000 1 0 0
6.836922 14.569426 -11.393554 19.718640 1.132038 2.186835 0.065211 -0.020725 -459707.000000 1 0 0
10.652622 14.021426 -9.714054 20.110733 0.921091 2.074906 0.102058 -0.021382 -192269.000000 1 0 0
8.449022 -18.528674 -1.276254 20.404082 -1.142966 1.633386 0.045765 0.000159 -194894.000000 1 0 0
7.463022 -17.302374 -3.342154 19.137368 -1.163577 1.746337 0.031073 -0.003418 26585.700000 1 0 0
4.747222 -18.121474 5.770346 19.601552 -1.314587 1.271987 0.042429 -0.002382 255670.000000 1 0 0
9.912122 -16.956474 -2.610054 19.813747 -1.041805 1.702910 0.041070 -0.002232 -792418.000000 1 0 0
-9.652778 -12.294674 -9.858354 18.480321 0.905195 2.133472 0.026201 -0.013402 -564706.000000 1 0 0
-5.126678 -7.094974 -12.044854 14.889593 0.945077 2.513151 0.003187 -0.004925 -10362.700000 1 0 0
-10.850878 -9.618374 -5.564954 15.531368 0.725258 1.937247 0.017135 -0.003518 -989266.000000 1 0 0
-4.556978 -11.465074 -13.832354 18.535047 1.192476 2.413254 0.005501 -0.006794 294608.000000 1 0 0
-2.823278 -15.348274 7.398146 17.270581 1.388882 1.128112 0.011981 -0.007548 128718.000000 1 0 0
-4.676378 -12.132974 -11.386654 17.283907 1.202916 2.290020 0.006149 -0.001109 234281.000000 1 0 0
-14.468278 -12.859574 -4.134754 19.793835 0.726599 1.781237 0.047688 -0.011295 -258229.000000 1 0 0
-3.134378 -12.210474 -3.302854 13.031840 1.319526 1.827036 0.014636 -0.005192 591494.000000 1 0 0
-2.374778 -17.304074 -1.406554 17.522812 1.434410 1.651153 0.025928 -0.019921 -959247.000000 1 0 0
-5.732478 -12.181574 3.751146 13.975806 1.130956 1.299062 0.009338 -0.005069 -178279.000000 1 0 0
-8.891478 -10.821974 -11.892754 18.374196 0.883015 2.274772 0.010973 -0.005421 -104164.000000 1 0 0
-9.928278 -12.216874 -7.237154 17.326255 0.888378 2.001707 0.029881 -0.009635 10604.900000 1 0 0
-10.845678 -15.073674 6.152746 19.562736 0.947095 1.250852 0.055342 -0.013652 -1001340.000000 1 0 0
-9.445778 -15.763574 0.678346 18.389484 1.030954 1.533900 0.036313 -0.006109 -776834.000000 1 0 0
-14.907178 -7.690974 -8.109354 18.631604 0.476306 2.021109 0.028502 -0.009654 -213701.000000 1 0 0
-2.203378 -16.415574 5.079046 17.324048 1.437369 1.273246 0.018092 -0.010480 -126790.000000 1 0 0
4.564622 -15.515574 5.924746 17.224152 -1.284673 1.219645 0.022726 -0.010997 -508251.000000 1 0 0
4.160422 -14.656974 -9.938854 18.191119 -1.294219 2.148805 0.013251 -0.004635 -480836.000000 1 0 0
-7.625678 -14.112274 -0.161754 16.041615 1.075386 1.580880 0.020456 -0.004485 1160050.000000 1 0 0
3.032022 -14.990874 9.777046 18.152413 -1.371231 1.002011 0.011505 -0.007345 -453524.000000 1 0 0
2.273222 -17.264674 10.410446 20.288270 -1.439880 1.031973 0.039950 -0.010559 -140857.000000 1 0 0
-8.221578 -17.158674 -5.366754 19.769079 1.123967 1.845719 0.067094 -0.021929 37197.500000 1 0 0
-6.492578 -9.169174 -7.648754 13.591569 0.954663 2.168514 0.011098 -0.006983 406554.000000 1 0 0
-6.031678 -13.040374 -4.757454 15.134922 1.137564 1.890554 0.011857 -0.012237 314058.000000 1 0 0
2.462722 -19.218174 -5.166054 20.052215 -1.443345 1.831365 0.038374 -0.012472 152459.000000 1 0 0
-5.423878 -12.949074 8.244546 16.280955 1.174136 1.039801 0.016418 -0.004192 825606.000000 1 0 0
2.357022 -17.308574 3.479546 17.811500 -1.435452 1.374178 0.032815 -0.017164 334305.000000 1 0 0
-17.656878 -10.282674 -2.276454 20.559206 0.527349 1.681751 0.038929 -0.012388 434350.000000 1 0 0
-3.507378 -15.267774 2.641146 15.886544 1.344990 1.403770 0.017134 -0.011075 -22619.800000 1 0 0
-10.117278 -10.293974 -14.122254 20.193149 0.794055 2.345296 0.022191 -0.014692 -124057.000000 1 0 0
6.029122 -14.506174 -5.596254 16.676254 -1.176893 1.913020 0.006888 -0.008520 502306.000000 1 0 0
-7.233578 -12.378474 -10.684854 17.880642 1.041951 2.211258 0.008344 -0.010142 -853223.000000 1 0 0
-7.102078 -14.269874 3.823846 16.391785 1.108993 1.335349 0.016916 -0.005652 897770.000000 1 0 0
3.297722 -14.986074 -3.129454 15.660487 -1.354196 1.771982 0.013435 -0.006321 -949104.000000 1 0 0
-7.566378 -11.421574 7.824446 15.777337 0.985709 1.051891 0.020744 -0.010630 -642206.000000 1 0 0
-12.878378 -12.536274 -1.115554 18.007089 0.771938 1.632787 0.026095 0.002155 -1213520.000000 1 0 0
-1.789378 -13.584274 4.031246 14.282343 1.439826 1.284654 0.008628 -0.006589 -4638240.000000 1 0 0
-3.165578 -13.910174 5.335146 15.230811 1.347034 1.212919 0.010939 -0.006220 491374.000000 1 0 0
-14.532478 -10.319074 -4.408954 18.360694 0.617452 1.813296 0.023386 -0.008878 977694.000000 1 0 0
-6.344678 -8.726874 -10.353554 14.953573 0.942160 2.335579 0.007827 -0.005222 405736.000000 1 0 0
1.137122 -19.378774 2.316446 19.549830 -1.512185 1.452028 0.045297 -0.012401 167426.000000 1 0 0
6.294022 -13.985274 -8.152154 17.368368 -1.147904 2.059371 0.022948 -0.008612 -2886030.000000 1 0 0
-3.910678 -16.676874 -5.890154 18.113681 1.340461 1.901995 0.028254 -0.015887 -261757.000000 1 0 0
-3.628378 -13.764374 -13.114754 19.355100 1.313053 2.315272 0.013952 0.000382 -2348270.000000 1 0 0
-8.196378 -14.616574 -4.314154 17.304241 1.059730 1.822766 0.031308 -0.020115 -914905.000000 1 0 0
-4.442678 -14.433574 10.170246 18.207123 1.272198 0.978116 0.020480 0.002777 -1400340.000000 1 0 0
-0.276178 -12.168474 -10.010154 15.759163 1.548104 2.259058 0.003146 -0.000224 465864.000000 1 0 0
2.626722 -17.038374 6.866446 18.556776 -1.417835 1.191762 0.030235 -0.015718 -1379390.000000 1 0 0
-2.587178 -18.996674 -3.404054 19.471895 1.435438 1.746518 0.048926 -0.026757 -805663.000000 1 0 0
0.727322 -15.399274 -3.137054 15.732379 -1.523600 1.771543 0.012937 -0.008276 -132983.000000 1 0 0
6.160522 -17.921774 0.504546 18.957758 -1.239705 1.544179 0.023343 -0.004970 -146141.000000 1 0 0
-6.957378 -16.679574 3.982146 18.505966 1.175619 1.353918 0.026679 -0.005837 786469.000000 1 0 0
-5.227478 -13.555374 -9.401554 17.305025 1.202731 2.145141 0.009193 -0.008151 264987.000000 1 0 0
5.725722 -15.140774 -2.130754 16.326881 -1.209253 1.701676 0.020034 -0.003583 -334939.000000 1 0 0
-8.963478 -10.334574 -0.433254 13.687040 0.856327 1.602456 0.008153 -0.003509 -393342.000000 1 0 0
-7.317578 -18.302574 -2.786654 19.907200 1.190453 1.711240 0.060090 -0.029243 799758.000000 1 0 0
8.041722 -15.923574 -1.123254 17.874317 -1.103141 1.633680 0.016045 -0.004856 -152253.000000 1 0 0
-8.137278 -10.202474 -9.477054 16.128246 0.897533 2.198893 0.013307 -0.007936 114232.000000 1 0 0
-9.156178 -15.307774 -6.795854 19.087880 1.031746 1.934812 0.049982 -0.018753 -5690.770000 1 0 0
-11.492678 -10.506074 -11.902754 19.599357 0.740580 2.223458 0.033528 -0.004346 157979.000000 1 0 0
6.651522 -16.109674 2.482746 17.604783 -1.179228 1.429298 0.018585 -0.009019 1357470.000000 1 0 0
-2.187478 -11.060174 -6.081354 12.809972 1.375537 2.065460 0.009957 -0.003693 -815472.000000 1 0 0
-12.520778 -15.310274 -3.250754 20.043497 0.885294 1.733701 0.044968 -0.013871 259550.000000 1 0 0
-0.013378 -19.156274 -2.703054 19.346046 1.570098 1.710976 0.061216 -0.031970 293554.000000 1 0 0
-5.835478 -15.613774 -4.606554 17.293440 1.213132 1.840427 0.029033 -0.015977 -2884340.000000 1 0 0
2.011822 -15.938774 -1.004054 16.096586 -1.445238 1.633214 0.011848 -0.012440 585804.000000 1 0 0
-13.334178 -11.849674 5.356946 18.625572 0.726520 1.279063 0.043469 -0.006802 -86904.500000 1 0 0
1.980122 -15.337174 -8.880054 17.832699 -1.442400 2.092046 0.018505 0.003335 -1432860.000000 1 0 0
-11.832078 -16.713174 0.218946 20.478676 0.954755 1.560105 0.069719 -0.017722 710174.000000 1 0 0
-7.555278 -16.602574 -1.003854 18.268426 1.143737 1.625774 0.047181 -0.014714 633269.000000 1 0 0
-3.032078 -14.325674 -1.765454 14.749076 1.362221 1.690783 0.015889 -0.009170 539979.000000 1 0 0
-1.783178 -10.501474 -13.203354 16.964352 1.402598 2.462750 0.003812 -0.001051 -655863.000000 1 0 0
1.843922 -19.216474 4.891546 19.914822 -1.475134 1.322634 0.057220 -0.020342 308119.000000 1 0 0
-17.431578 -9.323574 2.659746 19.946508 0.491151 1.437054 0.026575 -0.008593 -44922.000000 1 0 0
-2.760178 -15.645674 -8.071354 17.820001 1.396175 2.040854 0.016612 -0.006408 -290385.000000 1 0 0
-10.747878 -12.108474 0.358646 16.194463 0.844856 1.548648 0.018536 -0.002522 677031.000000 1 0 0
-6.951678 -11.517174 -6.455854 14.921433 1.027740 2.018234 0.012371 -0.007333 373458.000000 1 0 0
-2.214278 -13.563874 -6.688654 15.284626 1.408976 2.023732 0.010030 -0.003259 422623.000000 1 0 0
-14.637378 -14.437874 -0.879054 20.578575 0.778537 1.613526 0.064688 -0.007110 672500.000000 1 0 0
-9.525078 -11.376974 -4.311154 15.451495 0.873766 1.853562 0.018822 -0.008241 857909.000000 1 0 0
9.476722 -15.171174 -5.164154 18.618305 -1.012446 1.851852 0.027190 -0.001093 352443.000000 1 0 0
-5.537078 -10.885274 -9.307454 15.355036 1.100232 2.222007 0.006958 -0.004767 191500.000000 1 0 0
-10.370778 -15.929874 -4.656054 19.570201 0.993699 1.811015 0.059326 -0.020657 -841689.000000 1 0 0
2.278522 -17.357574 -3.238554 17.803518 -1.440273 1.753720 0.025367 -0.005947 300867.000000 1 0 0
-0.322278 -14.467274 -8.199454 16.632406 1.548524 2.086309 0.006486 -0.000595 -974420.000000 1 0 0
-0.274778 -18.215174 -7.160154 19.573857 1.555712 1.945291 0.046979 -0.007722 109023.000000 1 0 0
-1.791978 -9.965674 -10.559054 14.629404 1.392883 2.377151 0.000992 -0.001422 596258.000000 1 0 0
-4.969378 -17.233574 2.240746 18.075169 1.290057 1.446508 0.033605 -0.014521 -692166.000000 1 0 0
0.269222 -12.794174 -2.598754 13.058212 -1.549757 1.771147 0.006199 -0.007249 -1521340.000000 1 0 0
2.804722 -14.868074 3.139846 15.452661 -1.384347 1.366180 0.021467 -0.008797 -460971.000000 1 0 0
-9.350078 -13.092274 6.932346 17.518248 0.950625 1.163943 0.024588 -0.007386 -183081.000000 1 0 0
-0.777478 -17.599274 -4.655754 18.221278 1.526648 1.829174 0.039690 -0.019631 -147525.000000 1 0 0
-9.697178 -17.452374 -2.217554 20.088259 1.063636 1.681412 0.069472 -0.026657 -852105.000000 1 0 0
1.395322 -16.032774 1.414346 16.155406 -1.483986 1.483138 0.019052 -0.018274 995494.000000 1 0 0
-0.208178 -17.976774 4.057146 18.430089 1.559216 1.348841 0.035609 -0.012832 -509800.000000 1 0 0
-17.462878 -9.188274 0.017446 19.732632 0.484356 1.569912 0.006639 -0.004986 595185.000000 1 0 0
-14.801078 -7.327074 -10.621754 19.636180 0.459669 2.142336 0.049171 -0.013731 496175.000000 1 0 0
2.750122 -12.778274 -8.782654 15.747459 -1.358811 2.162431 0.000727 -0.000162 378523.000000 1 0 0
-11.547578 -14.587074 1.735946 18.685363 0.901179 1.477758 0.038886 -0.009687 272512.000000 1 0 0
-2.085378 -15.466874 10.654046 18.896605 1.436776 0.971808 0.017451 -0.004051 396520.000000 1 0 0
-6.933778 -15.917474 1.407046 17.419042 1.159975 1.489932 0.031581 -0.009796 -1094590.000000 1 0 0
-12.593478 -15.136774 -5.853054 20.542051 0.876858 1.859730 0.054087 -0.010539 511989.000000 1 0 0
1.009922 -13.764374 -5.054854 14.697941 -1.497555 1.921880 0.006981 -0.004005 1129780.000000 1 0 0
5.902222 -16.359174 -7.455154 18.921895 -1.224542 1.975772 0.038349 -0.014102 164744.000000 1 0 0
-6.476278 -12.875574 5.971246 15.600588 1.104760 1.178017 0.018280 -0.007078 356465.000000 1 0 0
-2.570378 -13.445274 0.540346 13.699424 1.381902 1.531343 0.012709 -0.008141 2081340.000000 1 0 0
-4.273778 -15.458774 0.236846 16.040417 1.301071 1.556030 0.023135 -0.016361 112965.000000 1 0 0
-17.781878 -7.714274 -2.095354 19.496043 0.409324 1.678480 0.017637 -0.006510 551663.000000 1 0 0
1.119222 -12.686374 -12.063954 17.542398 -1.482802 2.329116 0.004904 0.004397 -854300.000000 1 0 0
1.426122 -16.831974 -5.738954 17.840537 -1.486271 1.898300 0.035216 -0.012275 -1025300.000000 1 0 0
-12.900678 -6.574674 -8.935654 17.014692 0.471328 2.123715 0.026722 -0.004216 -581418.000000 1 0 0
-11.386478 -13.801774 -8.639854 19.869271 0.880996 2.020651 0.042775 -0.010692 148685.000000 1 0 0
-4.351878 -9.882274 3.566646 11.371857 1.155978 1.251774 0.007676 -0.004839 -4312110.000000 1 0 0
-7.002578 -14.423374 9.658146 18.717628 1.118814 1.028631 0.030450 -0.001924 -1657240.000000 1 0 0
-5.353378 -15.959274 -8.089254 18.676004 1.247151 2.018766 0.020658 -0.013360 2124.010000 1 0 0
-0.246178 -13.376274 2.118846 13.545288 1.552394 1.413724 0.013286 -0.011817 783692.000000 1 0 0
-10.991278 -13.452874 -4.634454 17.979604 0.885763 1.831501 0.046894 -0.011317 -168356.000000 1 0 0
-9.787578 -10.542274 6.706646 15.871840 0.822504 1.134539 0.029974 -0.007469 -271450.000000 1 0 0
-15.497878 -8.083174 -4.775254 18.119740 0.480752 1.837485 0.022379 -0.007728 -720179.000000 1 0 0
-14.646178 -7.281274 5.522846 17.263525 0.461361 1.245157 0.039804 -0.011604 1433780.000000 1 0 0
-1.556678 -19.256774 0.139946 19.320098 1.490134 1.563553 0.039038 -0.018187 -388553.000000 1 0 0
-15.443678 -12.086874 -1.357454 19.658138 0.664067 1.639904 0.028223 -0.000300 77250.300000 1 0 0
-4.375678 -12.105674 -6.778254 14.547805 1.223952 2.055481 0.005701 -0.004961 880403.000000 1 0 0
-7.311878 -18.414374 2.119246 19.925961 1.192814 1.464239 0.041163 -0.009920 98293.900000 1 0 0
-2.442078 -11.724074 -8.631954 14.762394 1.365437 2.195338 0.002662 -0.001759 386764.000000 1 0 0
-0.713578 -20.248174 -4.783154 20.817692 1.535569 1.802631 0.069741 -0.015694 -23438.400000 1 0 0
-5.493478 -8.938474 -13.863554 17.385993 1.019719 2.493767 0.007725 -0.003467 897298.000000 1 0 0
-8.598378 -19.082574 -0.486554 20.935937 1.147454 1.594039 0.070464 -0.016378 239603.000000 1 0 0
-17.279878 -7.226074 5.662746 19.567243 0.396079 1.277197 0.062273 -0.017655 -38342.900000 1 0 0
-3.606778 -14.562974 -4.331854 15.615826 1.328014 1.851885 0.015863 -0.010115 -2992970.000000 1 0 0
-3.031478 -14.993474 -10.806054 18.728719 1.371299 2.185820 0.020508 -0.002534 -171649.000000 1 0 0
0.059422 -16.663274 6.251946 17.797614 -1.567230 1.211858 0.035061 -0.010647 -824874.000000 1 0 0
-11.209878 -11.571474 4.082246 16.620021 0.801269 1.322635 0.024457 -0.005506 1145010.000000 1 0 0
-0.135178 -14.501074 -0.199654 14.503078 1.561475 1.584563 0.016649 -0.012633 1197780.000000 1 0 0
-7.340078 -9.673174 -2.447354 12.386952 0.921682 1.769680 0.011269 -0.002710 -288860.000000 1 0 0
-11.091478 -14.437874 -0.890954 18.228189 0.915735 1.619694 0.036882 -0.012922 665781.000000 1 0 0
0.277422 -14.580474 -10.699954 18.087460 -1.551772 2.203798 0.007952 0.001159 -569746.000000 1 0 0
-1.392878 -14.031974 -3.827654 14.611206 1.471856 1.835856 0.007972 -0.005083 -2965150.000000 1 0 0
-11.297878 -8.240574 -7.552954 15.893276 0.630181 2.066021 0.015448 -0.005609 714035.000000 1 0 0
-0.165178 -17.168574 -0.130454 17.169864 1.561176 1.578394 0.022223 -0.020476 -774200.000000 1 0 0
-12.905578 -9.417574 4.641646 16.636992 0.630401 1.288048 0.027880 -0.008286 617647.000000 1 0 0
4.085722 -16.681474 1.618146 17.250597 -1.330599 1.476856 0.023989 -0.015303 1474320.000000 1 0 0
-3.851178 -17.936074 -8.149754 20.073684 1.359291 1.988860 0.058801 -0.018757 218354.000000 1 0 0
-13.359078 -11.162274 2.725446 17.620709 0.696049 1.415500 0.017176 -0.005296 397385.000000 1 0 0
-8.502178 -12.160974 4.279646 15.443176 0.960650 1.289999 0.022262 -0.007157 2544740.000000 1 0 0
-8.287878 -9.438074 -5.822454 13.844390 0.850195 2.004863 0.015437 -0.007822 -146051.000000 1 0 0
3.972522 -17.129374 -5.187754 18.333281 -1.342912 1.857685 0.014552 -0.009096 -80404.100000 1 0 0
-2.620878 -13.025574 11.313646 17.450879 1.372237 0.865429 0.007043 -0.004321 752535.000000 1 0 0
-0.110178 -16.742174 -9.628654 19.313816 1.564216 2.092707 0.023545 0.000469 -194001.000000 1 0 0
-7.051478 -10.946774 -14.453154 19.453762 0.998537 2.408262 0.008047 0.000604 -1523180.000000 1 0 0
-4.393878 -18.912874 -1.561754 19.479272 1.342524 1.651058 0.049268 -0.024234 -219828.000000 1 0 0
-2.482978 -17.148174 1.238146 17.371185 1.427000 1.499460 0.032219 -0.020128 380135.000000 1 0 0
4.000022 -14.601074 -7.415054 16.857478 -1.303403 2.026247 0.020216 -0.007869 35217.000000 1 0 0
-1.028878 -15.792474 -6.151054 16.979290 1.505738 1.941496 0.015463 -0.005242 -136279.000000 1 0 0
-9.439978 -15.269774 8.387146 19.814727 1.017092 1.133735 0.043278 -0.008783 -514367.000000 1 0 0
-7.387078 -12.075974 -1.638254 14.250682 1.021806 1.686011 0.012175 -0.009222 1348940.000000 1 0 0
-7.462178 -14.987674 -9.419154 19.210282 1.108840 2.083251 0.029506 -0.014372 559118.000000 1 0 0
-5.094478 -13.169374 -0.530454 14.130375 1.201684 1.608345 0.015535 -0.007834 2669220.000000 1 0 0
-6.402078 -13.850674 -7.221754 16.881395 1.137826 2.012847 0.011417 -0.012936 534007.000000 1 0 0
5.850722 -15.285574 0.272246 16.369296 -1.205239 1.554164 0.015571 -0.005010 -85907.000000 1 0 0
-14.417578 -12.611274 0.994646 19.180722 0.718669 1.518917 0.012089 -0.010103 972104.000000 1 0 0
0.808822 -15.200274 11.075746 18.824842 -1.517635 0.941770 0.007818 -0.008814 -378518.000000 1 0 0
-9.392378 -10.785074 2.087946 14.453169 0.854311 1.425826 0.014710 -0.003578 365681.000000 1 0 0
-9.457278 -8.941174 -3.441954 13.462234 0.757354 1.829342 0.012042 -0.005317 -1129430.000000 1 0 0
-12.207278 -7.285274 -12.237554 18.757680 0.538061 2.281546 0.034253 -0.007506 -1839780.000000 1 0 0
-13.296078 -8.296574 -0.534554 15.681345 0.557870 1.604891 0.004817 -0.005799 -1366100.000000 1 0 0
-11.290578 -9.644974 0.607846 14.861768 0.706956 1.529885 0.006925 -0.002056 974349.000000 1 0 0
-15.783778 -12.093274 3.065346 20.118928 0.653779 1.417839 0.036902 -0.003502 174522.000000 1 0 0
-10.452178 -12.420074 -2.231954 16.385600 0.871225 1.707435 0.032205 -0.012318 770181.000000 1 0 0
-3.521378 -9.010474 -12.121654 15.508812 1.198238 2.468020 0.005465 0.000283 -595806.000000 1 0 0
-0.173878 -15.431674 3.902746 15.918487 1.559529 1.323101 0.019737 -0.011789 -760804.000000 1 0 0
-15.750078 -7.723374 1.288646 17.589089 0.455914 1.497467 0.001961 -0.006489 940986.000000 1 0 0
-6.092178 -13.506674 -13.098754 19.776810 1.147070 2.294719 0.009914 -0.005267 -608094.000000 1 0 0
-15.385578 -10.231274 1.237746 18.518288 0.586842 1.503907 0.007741 -0.003126 673431.000000 1 0 0
-9.962178 -8.448974 -12.357254 17.981431 0.703393 2.328456 0.015069 -0.007612 30599.800000 1 0 0
-13.413878 -11.787374 -6.200454 18.902908 0.720947 1.904999 0.040924 -0.006556 -97600.100000 1 0 0
-12.279078 -11.503474 -3.808254 17.251332 0.752797 1.793381 0.022115 -0.004526 324273.000000 1 0 0
-11.782978 -11.202174 -8.818354 18.495692 0.760135 2.067783 0.033820 -0.018598 708747.000000 1 0 0
-13.191378 -8.597474 -5.834154 16.791854 0.577604 1.925635 0.011622 -0.004423 -668341.000000 1 0 0
-13.562078 -8.193174 -3.210654 16.166829 0.543446 1.770721 0.009168 -0.005440 -130006.000000 1 0 0
-4.240278 -16.926074 -3.234654 17.746406 1.325331 1.754092 0.027147 -0.021515 839858.000000 1 0 0
-15.505878 -8.942674 -1.742954 17.984481 0.523132 1.667863 0.013877 -0.007566 -588945.000000 1 0 0
-9.306378 -15.631274 3.722346 18.568825 1.033789 1.368967 0.031046 -0.006962 -1318100.000000 1 0 0
4.962622 -17.046674 8.081746 19.507212 -1.287506 1.143628 0.040065 -0.025285 580405.000000 1 0 0
-8.239578 -15.384074 6.081646 18.480985 1.079083 1.235472 0.026368 -0.003772 -407007.000000 1 0 0
0.922122 -15.916474 8.546546 18.089442 -1.512926 1.078716 0.018751 -0.009790 283852.000000 1 0 0
-10.908778 -7.916274 -10.039054 16.806291 0.627753 2.210975 0.015013 -0.006408 805024.000000 1 0 0
-4.689178 -16.084774 5.795446 17.728382 1.287129 1.237773 0.021081 -0.007061 -1094990.000000 1 0 0
-1.454878 -13.286174 -12.032254 17.983721 1.461728 2.303745 0.008087 0.001091 -1261900.000000 1 0 0
-6.389678 -14.352874 -2.458954 15.902183 1.151954 1.726049 0.024091 -0.011994 415562.000000 1 0 0
-17.639978 -7.042974 -7.169854 20.302195 0.379870 1.931739 0.043963 -0.014681 98047.100000 1 0 0
-17.243578 -3.960774 -10.232354 20.438439 0.225779 2.095137 0.051855 -0.014717 1121460.000000 1 0 0
-15.264978 -5.281874 -9.088454 18.534231 0.333118 2.083300 0.024948 -0.012737 8505.460000 1 0 0
-16.130578 -5.517074 -5.633954 17.954807 0.329553 1.889973 0.018534 -0.009682 210408.000000 1 0 0
-15.105578 -4.578774 -12.241254 19.974783 0.294315 2.230440 0.044060 -0.009304 443538.000000 1 0 0
-18.666578 -5.377674 -5.497354 20.188645 0.280496 1.846578 0.039339 -0.015274 -364515.000000 1 0 0
-17.357778 -4.436674 -7.674554 19.490390 0.250244 1.975516 0.030977 -0.014949 646381.000000 1 0 0
12.205222 -7.722474 8.714746 16.868635 -0.564131 1.027893 0.051544 -0.017878 197642.000000 1 0 0
16.061522 -3.321374 1.848446 16.505174 -0.203916 1.458569 0.025231 -0.011373 500693.000000 1 0 0
12.121222 -1.998574 12.418446 17.468146 -0.163412 0.779991 0.059786 -0.010112 230452.000000 1 0 0
9.702822 -9.907874 5.228846 14.820646 -0.795854 1.210226 0.004807 -0.009379 -218305.000000 1 0 0
17.040822 -2.095974 7.265746 18.643331 -0.122383 1.170465 0.095885 -0.024020 1236100.000000 1 0 0
5.113422 -12.668974 9.055946 16.390855 -1.187175 0.985436 -0.002669 -0.004854 -267531.000000 1 0 0
15.204022 -9.012774 -2.033154 17.791180 -0.535100 1.685325 0.023120 -0.007135 -468478.000000 1 0 0
11.076222 -8.526774 6.504646 15.417490 -0.656070 1.135256 0.021424 -0.014115 -2166730.000000 1 0 0
20.135022 -3.105974 3.725346 20.710973 -0.153051 1.389939 0.114236 -0.020951 -296179.000000 1 0 0
13.587222 -8.565574 6.851546 17.462112 -0.562483 1.167593 0.052423 -0.017074 -1070050.000000 1 0 0
8.291322 -10.894774 8.829546 16.291194 -0.920269 0.998002 0.004158 -0.009199 -692256.000000 1 0 0
16.660022 0.174126 -0.569254 16.670654 0.010451 1.604950 0.028065 0.001635 -610546.000000 1 0 0
12.455622 -12.390574 2.296346 17.718410 -0.782780 1.440828 0.024471 -0.007687 -1552760.000000 1 0 0
10.384322 -11.482374 3.505546 15.873497 -0.835572 1.348118 0.016434 -0.009967 471835.000000 1 0 0
16.451022 2.885926 2.260246 16.854478 0.173658 1.436287 0.012110 -0.003895 500537.000000 1 0 0
18.331122 -3.281774 0.428746 18.627504 -0.177151 1.547777 0.056844 -0.011946 1294190.000000 1 0 0
13.373922 -11.493974 -0.343054 17.637770 -0.709944 1.590248 0.028194 -0.005210 -444639.000000 1 0 0
16.955222 -7.611674 -0.810654 18.603072 -0.421962 1.614386 0.044891 -0.010932 -312088.000000 1 0 0
10.072922 -5.617674 9.782446 15.123434 -0.508736 0.867362 0.024287 -0.010942 -946562.000000 1 0 0
11.264422 -13.033574 6.208546 18.311398 -0.858081 1.224886 0.034875 -0.014046 -938309.000000 1 0 0
13.097222 -1.772374 10.114846 16.642976 -0.134507 0.917566 0.057741 -0.012343 947234.000000 1 0 0
15.502922 -1.996174 -1.350854 15.689172 -0.128057 1.657004 0.023478 -0.002026 -922273.000000 1 0 0
10.427022 -12.398174 9.301446 18.680321 -0.871543 1.049589 0.049660 -0.020189 -51360.800000 1 0 0
14.554522 1.233226 3.265246 14.967191 0.084530 1.350867 0.012351 -0.006085 1073030.000000 1 0 0
14.840922 -5.959274 5.235646 16.827891 -0.381836 1.254415 0.050668 -0.019859 -325537.000000 1 0 0
14.260522 -3.290874 -3.118854 14.963943 -0.226798 1.780760 0.011070 -0.003057 1111320.000000 1 0 0
14.041822 0.647526 9.420146 16.921324 0.046081 0.980385 0.063393 -0.014108 496559.000000 1 0 0
15.570022 -3.562174 4.432646 16.575977 -0.224913 1.300088 0.038644 -0.016911 -824893.000000 1 0 0
18.334822 4.722426 -4.437954 19.446399 0.252087 1.801040 0.013966 0.002623 551889.000000 1 0 0
18.256022 -5.833074 -5.050854 19.819642 -0.309263 1.828479 0.103391 -0.011747 590717.000000 1 0 0
17.403722 0.045626 5.980546 18.402678 0.002622 1.239803 0.078808 -0.014387 797433.000000 1 0 0
17.029422 -6.617874 4.083646 18.720941 -0.370653 1.350896 0.064961 -0.025193 304639.000000 1 0 0
9.651222 -6.688474 14.341746 18.535573 -0.606025 0.686070 0.039399 -0.011386 -840066.000000 1 0 0
8.658122 -12.158474 5.199146 15.805780 -0.951992 1.235616 0.008169 -0.012307 -818633.000000 1 0 0
17.000822 -10.256674 -0.648054 19.865732 -0.542846 1.603424 0.050898 -0.003542 206766.000000 1 0 0
15.086722 -8.820374 0.491546 17.482843 -0.529052 1.542677 0.043016 -0.012164 252307.000000 1 0 0
10.129022 -12.879374 1.351446 16.440857 -0.904371 1.488503 0.017813 -0.007375 161655.000000 1 0 0
17.073322 -8.085374 8.876946 20.872752 -0.442279 1.131515 0.111925 -0.023779 473040.000000 1 0 0
18.940822 -0.193774 -1.673954 19.015636 -0.010230 1.658941 0.065078 -0.006571 -973933.000000 1 0 0
13.537222 -1.249374 7.637446 15.593200 -0.092031 1.058944 0.041073 -0.013597 110079.000000 1 0 0
12.900122 -9.628074 -3.174554 16.407034 -0.641164 1.765512 0.022622 -0.010217 -998227.000000 1 0 0
8.923622 -15.086174 1.479846 17.590157 -1.036643 1.486568 0.020425 -0.005533 -887500.000000 1 0 0
11.447422 -8.220274 11.043346 17.904521 -0.622764 0.906137 0.061229 -0.019489 -173450.000000 1 0 0
13.993322 -3.989574 -0.656454 14.565737 -0.277737 1.615880 0.008707 -0.008020 -659383.000000 1 0 0
7.130322 -13.162374 10.675246 18.386149 -1.074332 0.951314 0.013086 -0.005557 59733.700000 1 0 0
15.411322 -6.705174 1.880146 16.911628 -0.410378 1.459391 0.029582 -0.013130 547152.000000 1 0 0
15.870422 -6.054274 -2.542554 17.175247 -0.364441 1.719378 0.048155 -0.008616 91917.000000 1 0 0
11.261622 -8.497174 3.888046 14.633626 -0.646391 1.301874 0.017491 -0.011178 136097.000000 1 0 0
10.809522 -14.434574 -0.408054 18.037993 -0.928023 1.593420 0.034155 -0.012137 705037.000000 1 0 0
13.384322 -12.848774 4.726146 19.145953 -0.764986 1.321370 0.032443 -0.007632 488232.000000 1 0 0
12.869022 -11.102074 6.714246 18.274268 -0.711820 1.194568 0.041565 -0.012729 -452969.000000 1 0 0
11.087722 -10.419074 1.267746 15.267674 -0.754318 1.487666 0.013883 -0.006841 769610.000000 1 0 0
13.835922 -7.576574 11.852746 19.731315 -0.501000 0.926411 0.085270 -0.029701 -141903.000000 1 0 0
15.432522 -1.866474 -5.012154 16.333039 -0.120360 1.882701 0.043618 0.001227 -198503.000000 1 0 0
13.014222 -11.375274 -7.108454 18.689488 -0.718300 1.960966 0.046474 -0.003950 714797.000000 1 0 0
17.722522 -5.364274 1.952846 18.619260 -0.293915 1.465720 0.072350 -0.015158 898359.000000 1 0 0
10.653322 -9.843974 9.105246 17.126080 -0.745933 1.010237 0.036529 -0.012796 -1438530.000000 1 0 0
16.358522 1.816926 9.850646 19.181702 0.110616 1.031487 0.091936 -0.015553 -528501.000000 1 0 0
18.137122 4.019926 0.473646 18.583308 0.218115 1.545306 0.006880 0.006506 672958.000000 1 0 0
13.323322 -4.010974 5.793446 15.071922 -0.292419 1.176253 0.027657 -0.015325 -328496.000000 1 0 0
12.003622 -6.141274 6.625446 15.023273 -0.472899 1.114070 0.027091 -0.015675 -121869.000000 1 0 0
16.571722 -10.237274 3.596446 19.808033 -0.553373 1.388219 0.044229 -0.013113 124808.000000 1 0 0
16.251422 -7.964374 -5.502354 18.916022 -0.455674 1.865946 0.060278 -0.010217 81883.600000 1 0 0
13.991822 -0.271174 5.365946 14.987928 -0.019378 1.204652 0.021955 -0.009714 -199408.000000 1 0 0
18.445922 -4.198174 5.299446 19.645886 -0.223782 1.297665 0.104661 -0.021351 111468.000000 1 0 0
13.685522 -13.482274 7.199346 20.515745 -0.777917 1.212245 0.076687 -0.016425 364145.000000 1 0 0
14.821622 -13.583574 -0.846154 20.122374 -0.741840 1.612859 0.026990 0.000640 102106.000000 1 0 0
17.816522 -5.817674 7.845046 20.317936 -0.315617 1.174381 0.109997 -0.029858 287438.000000 1 0 0
14.347322 3.334026 9.167346 17.349398 0.228327 1.014087 0.048749 -0.011872 15984.400000 1 0 0
18.949722 3.418426 2.840046 19.463902 0.178475 1.424360 0.055566 -0.008680 572831.000000 1 0 0
14.905522 -10.483174 8.198846 19.982307 -0.612943 1.148008 0.074356 -0.023590 -205818.000000 1 0 0
14.768422 -4.798574 10.396446 18.687394 -0.314161 0.980828 0.098424 -0.025019 211727.000000 1 0 0
17.807722 -7.953874 2.081446 19.614064 -0.420067 1.464476 0.081130 -0.018127 270475.000000 1 0 0
18.412422 -5.838074 -1.915954 19.410597 -0.307045 1.669664 0.068886 -0.005567 -532111.000000 1 0 0
14.616822 -12.669074 -5.347654 20.068740 -0.714136 1.840522 0.056337 -0.007555 -571946.000000 1 0 0
15.496122 -1.453374 9.297846 18.129866 -0.093516 1.032299 0.112278 -0.021651 -1473140.000000 1 0 0
13.033222 -9.861874 10.079346 19.201944 -0.647758 1.018184 0.064056 -0.031134 -1809730.000000 1 0 0
16.598622 2.160526 4.724146 17.392518 0.129435 1.295721 0.035166 -0.014315 -910171.000000 1 0 0
15.025822 2.365726 -0.011754 15.210921 0.156162 1.571569 0.001953 0.004558 -1709220.000000 1 0 0
15.183022 -9.781074 -6.981154 19.363111 -0.572295 1.939642 0.060319 -0.008655 1528540.000000 1 0 0
16.323722 -0.147874 -3.163254 16.628047 -0.009059 1.762199 0.037630 0.004608 -140786.000000 1 0 0
12.111622 2.607426 13.433646 18.274378 0.212047 0.744970 0.077134 -0.011137 4798.330000 1 0 0
17.659022 -3.024274 9.627246 20.338908 -0.169614 1.077716 0.108473 -0.025988 800364.000000 1 0 0
8.338422 -18.020974 4.489846 20.357885 -1.137426 1.348422 0.060747 -0.014761 -247252.000000 1 0 0
6.825422 -11.076174 6.632846 14.603515 -1.018532 1.099328 0.000885 -0.009234 4147.650000 1 0 0
17.952322 2.232126 -1.475854 18.150659 0.123701 1.652198 0.022318 0.004942 139032.000000 1 0 0
17.704722 -2.280374 3.695146 18.229410 -0.128095 1.366679 0.048927 -0.015749 -466696.000000 1 0 0
12.594522 -13.238974 -2.031354 18.385288 -0.810339 1.681510 0.023961 0.000227 908820.000000 1 0 0
15.020822 -8.299874 4.358146 17.706113 -0.504805 1.322103 0.046088 -0.014249 -326760.000000 1 0 0
12.007022 -2.892674 14.873346 19.332681 -0.236410 0.692994 0.066284 -0.015654 -383744.000000 1 0 0
12.492822 -13.692874 -6.438254 19.621838 -0.831195 1.905106 0.057975 -0.009012 111124.000000 1 0 0
10.607022 -11.990374 -1.289454 16.060532 -0.846539 1.651170 0.019417 -0.009822 -1084210.000000 1 0 0
13.206722 -8.019974 2.171446 15.602970 -0.545744 1.431174 0.026560 -0.009598 -713614.000000 1 0 0
8.681722 -7.819774 10.020746 15.392742 -0.733211 0.861889 0.010096 -0.007342 -1132050.000000 1 0 0
15.601922 -3.821974 8.177246 18.024839 -0.240237 1.099922 0.097248 -0.027258 -1050260.000000 1 0 0
10.601522 -16.781474 5.111146 20.497169 -1.007365 1.318778 0.063683 -0.025821 -926079.000000 1 0 0
15.156822 -6.354774 8.393846 18.454513 -0.397006 1.098604 0.077903 -0.017129 1058260.000000 1 0 0
16.519122 -4.967274 -0.299054 17.252381 -0.292097 1.588131 0.031381 -0.008317 -998698.000000 1 0 0
14.005022 -10.605774 3.387846 17.891355 -0.648146 1.380289 0.039674 -0.012499 -278914.000000 1 0 0
15.088722 -9.877274 -4.422554 18.568496 -0.579611 1.811283 0.045049 -0.010238 284803.000000 1 0 0
13.657222 -6.612374 -0.094354 15.174060 -0.450901 1.577014 0.019648 -0.007867 297216.000000 1 0 0
17.855722 -1.005874 -4.927754 18.550508 -0.056274 1.839664 0.085604 -0.002611 -509352.000000 1 0 0
14.359322 0.280426 -1.633654 14.454674 0.019527 1.684057 0.008633 0.002928 -3898770.000000 1 0 0
4.751322 -12.814674 11.643546 17.954473 -1.215738 0.865179 -0.012320 -0.002593 -797993.000000 1 0 0
11.904822 -7.523774 13.506146 19.512764 -0.563613 0.806305 0.068844 -0.020778 -465131.000000 1 0 0
12.027222 -5.716774 11.595546 17.657640 -0.443709 0.854379 0.047784 -0.015463 38735.600000 1 0 0
13.200822 -4.627774 8.303146 16.267152 -0.337180 1.035118 0.047724 -0.018954 -1269610.000000 1 0 0
15.420022 -1.223874 3.210246 15.798121 -0.079203 1.366167 0.023511 -0.005643 -248729.000000 1 0 0
15.166622 -10.385874 5.717046 19.250388 -0.600441 1.269264 0.060627 -0.018339 688641.000000 1 0 0
13.638722 -7.973374 -5.757854 16.814943 -0.529029 1.920293 0.039896 -0.008537 -625494.000000 1 0 0
9.826922 -2.425574 13.645346 16.989623 -0.241992 0.638220 0.032343 0.000311 525463.000000 1 0 0
9.924222 -9.260774 13.483146 19.132364 -0.750830 0.788754 0.070593 -0.016274 -274632.000000 1 0 0
20.259322 6.120026 -3.330454 21.423977 0.293368 1.726884 0.105503 -0.010920 77410.400000 1 0 0
11.239422 -3.555374 10.552146 15.821286 -0.306371 0.840677 0.026576 -0.006164 1009960.000000 1 0 0
10.303122 -13.968674 -2.987554 17.612599 -0.935287 1.741246 0.025801 -0.002639 361614.000000 1 0 0
14.870122 -12.929274 2.597746 19.875486 -0.715695 1.439720 0.036667 -0.002357 -161641.000000 1 0 0
11.251122 -0.431774 14.344946 18.235999 -0.038357 0.665468 0.052016 -0.005181 192441.000000 1 0 0
19.284222 -1.843674 5.856546 20.238070 -0.095316 1.277215 0.124797 -0.019542 719852.000000 1 0 0
19.024522 -0.416774 8.021646 20.650737 -0.021904 1.171854 0.119881 -0.020490 651222.000000 1 0 0
18.780522 0.985426 0.688846 18.818969 0.052423 1.534184 0.054491 -0.009009 -55396.800000 1 0 0
18.527422 0.582426 3.651846 18.892871 0.031426 1.376280 0.051868 -0.018131 452680.000000 1 0 0
16.619422 -4.059974 -4.195954 17.615181 -0.239598 1.811309 0.061046 -0.003582 -38627.900000 1 0 0
10.947622 -8.398274 15.742846 20.933672 -0.654376 0.719653 0.092406 -0.027923 273165.000000 1 0 0
16.591822 -7.590174 6.422546 19.342916 -0.429044 1.232335 0.073306 -0.018129 846811.000000 1 0 0
18.824622 2.091826 5.847446 19.822582 0.110668 1.271352 0.063087 -0.017240 -189462.000000 1 0 0
15.313422 1.755626 7.426546 17.109550 0.114148 1.121803 0.066424 -0.016023 -227844.000000 1 0 0
8.851922 -15.407574 3.924646 18.197602 -1.049325 1.353420 0.026021 -0.020319 999353.000000 1 0 0
11.444722 -15.005074 2.065946 18.984258 -0.919202 1.461756 0.035375 -0.004324 -89857.900000 1 0 0
8.388022 -16.009374 6.239546 19.120432 -1.088177 1.238379 0.040036 -0.013083 164578.000000 1 0 0
14.638522 -11.561774 -2.617654 18.836482 -0.668502 1.710215 0.028468 -0.002593 401339.000000 1 0 0
13.776722 -4.763174 3.169246 14.917440 -0.332875 1.356712 0.020414 -0.008269 -1461600.000000 1 0 0
-0.995178 10.036526 -5.567454 11.520364 -1.471964 2.075183 0.001426 0.005143 -2643070.000000 1 0 0
8.266522 -1.698774 -8.092554 11.692333 -0.202679 2.335225 -0.001112 -0.000246 -1600580.000000 1 0 0
2.975522 -10.109974 7.631446 13.011698 -1.284563 0.944057 -0.003842 -0.004259 763841.000000 1 0 0
-6.258178 1.281226 8.365546 10.525621 -0.201938 0.652152 0.004088 -0.005169 -211982.000000 1 0 0
6.976822 -6.215974 -7.042154 11.700697 -0.727790 2.216622 -0.003310 -0.002256 -328281.000000 1 0 0
-11.304878 -4.548674 -4.081854 12.851157 0.382542 1.894020 0.002474 -0.002030 296475.000000 1 0 0
2.153622 -3.202574 2.885746 4.818931 -0.978790 0.928750 0.001569 -0.000483 1521500.000000 1 0 0
-3.585878 -4.231274 8.915146 10.499620 0.867773 0.556532 0.001511 -0.003560 -2053000.000000 1 0 0
-4.782078 -1.095174 -2.395354 5.459432 0.225134 2.025009 0.005699 -0.002983 -37091.400000 1 0 0
4.894422 -5.176874 -3.747054 8.049584 -0.813436 2.054992 -0.000631 -0.002347 426486.000000 1 0 0
2.701022 14.209626 -8.780854 16.920768 1.382953 2.116406 0.014346 -0.011702 -166550.000000 1 0 0
5.352922 -5.401274 13.767846 15.728354 -0.789894 0.504633 0.008612 -0.007000 -844572.000000 1 0 0
-4.736178 -0.960574 9.826846 10.950844 0.200102 0.457047 0.010098 -0.005017 -2923430.000000 1 0 0
-1.011478 11.929026 -2.807554 12.296630 -1.486207 1.801147 -0.002402 -0.001585 -650293.000000 1 0 0
2.935622 9.308026 -10.454954 14.302562 1.265284 2.390560 0.005294 -0.002481 -393116.000000 1 0 0
-10.680678 2.616526 1.236546 11.065809 -0.240246 1.458818 -0.000963 -0.004322 41165.200000 1 0 0
5.718622 -8.968174 -0.781754 10.664986 -1.003147 1.644163 0.002699 -0.006664 501618.000000 1 0 0
-6.937278 5.402426 9.378146 12.855413 -0.661651 0.753192 0.005746 -0.002364 502857.000000 1 0 0
-5.570778 -1.795474 5.223446 7.844851 0.311790 0.842172 0.002543 -0.004720 657239.000000 1 0 0
6.664522 -3.719374 -7.420954 10.645194 -0.509030 2.342166 -0.004097 -0.001626 369461.000000 1 0 0
6.240322 4.914826 10.979546 13.551663 0.667129 0.626305 0.000413 -0.002998 287526.000000 1 0 0
3.752322 -9.768974 3.265946 10.962626 -1.204066 1.268287 -0.000208 -0.006230 1101320.000000 1 0 0
-6.674778 6.645126 -5.763954 11.042351 -0.783172 2.119974 0.007065 -0.005558 872370.000000 1 0 0
-11.104278 8.283026 5.128746 14.772188 -0.640892 1.216224 0.006267 -0.006757 540209.000000 1 0 0
-9.171078 -5.515274 5.159646 11.880609 0.541431 1.121545 0.005969 -0.004768 -1124420.000000 1 0 0
3.369722 9.686926 -7.986954 12.999346 1.236027 2.232437 0.006041 0.000506 690535.000000 1 0 0
-8.064978 -8.607574 6.180946 13.316842 0.817931 1.088127 0.009523 -0.003674 -2447550.000000 1 0 0
-7.827678 -5.876474 -7.457654 12.305368 0.643968 2.221880 0.008307 -0.002880 675110.000000 1 0 0
9.173922 -1.585374 6.974346 11.632530 -0.171123 0.927851 0.007831 -0.007950 2923000.000000 1 0 0
-3.995678 -0.485374 -4.868254 6.316718 0.120882 2.450725 0.010494 -0.008405 -395231.000000 1 0 0
9.144022 1.206326 -4.731854 10.366234 0.131168 2.044818 0.002708 0.001571 -3018050.000000 1 0 0
-1.887678 -10.615374 10.777946 15.245118 1.394811 0.785582 -0.002781 -0.004024 223013.000000 1 0 0
-12.775378 0.212026 -2.662754 13.051647 -0.016595 1.776256 0.003175 -0.007231 -564256.000000 1 0 0
-9.846078 -5.207074 -6.038954 12.669958 0.486458 2.067620 0.006090 -0.003096 -1722780.000000 1 0 0
-5.548878 8.237626 -0.217854 9.934586 -0.978008 1.592727 0.003695 -0.000150 389499.000000 1 0 0
6.346922 9.583826 0.421846 11.502656 0.985855 1.534114 0.013863 -0.005788 245781.000000 1 0 0
-0.568778 -12.000274 -0.017754 12.013759 1.523435 1.572274 0.011516 -0.005153 -252949.000000 1 0 0
6.175922 4.706426 2.334946 8.108294 0.651175 1.278690 0.004343 -0.001618 394858.000000 1 0 0
3.537322 -7.557874 -8.276354 11.752963 -1.133049 2.352082 -0.007449 -0.002933 1260250.000000 1 0 0
-6.541778 -9.891674 4.666146 12.744135 0.986489 1.195938 0.009929 -0.004291 -2728800.000000 1 0 0
-0.087478 6.384626 -9.096154 11.113556 -1.557096 2.529546 0.010739 -0.001335 -2129420.000000 1 0 0
-17.371778 -2.787574 4.203746 18.089243 0.159109 1.336263 0.052441 -0.013812 309943.000000 1 0 0
-8.245878 0.750126 -9.146954 12.337907 -0.090720 2.405906 0.009942 -0.004420 725172.000000 1 0 0
-10.108578 -5.938574 -11.820254 16.648376 0.531162 2.360287 0.009782 0.000404 1280850.000000 1 0 0
2.135422 9.609926 6.396646 11.740008 1.352139 0.994576 -0.002331 0.001193 -376538.000000 1 0 0
-11.386578 1.589226 -1.094254 11.548904 -0.138674 1.665688 0.001476 -0.006145 -1860840.000000 1 0 0
-6.129178 -5.400374 -3.035054 8.714494 0.722270 1.926528 0.015790 -0.005984 681498.000000 1 0 0
-7.127278 -8.392074 1.358246 11.093684 0.866716 1.448054 0.009121 -0.002942 -157414.000000 1 0 0
0.030722 10.992526 -7.884654 13.527910 1.568002 2.193020 0.010331 0.001218 970366.000000 1 0 0
-2.862478 9.300826 -4.167954 10.586358 -1.272230 1.975460 0.004989 -0.001442 -440834.000000 1 0 0
3.401222 -4.739574 9.435346 11.093134 -0.948341 0.553752 0.000302 -0.003494 -562205.000000 1 0 0
-8.973078 1.518626 -0.327954 9.106586 -0.167654 1.606817 -0.000841 -0.003595 -1971500.000000 1 0 0
2.448822 3.490026 -10.477254 11.311493 0.958955 2.755131 0.004019 -0.001163 -1933730.000000 1 0 0
-13.674478 0.454526 1.090346 13.725407 -0.033227 1.491273 0.004873 -0.009307 -167866.000000 1 0 0
9.469422 -12.555774 -5.117254 16.537947 -0.924620 1.885385 0.035776 -0.009469 -806504.000000 1 0 0
-4.766578 9.372626 -8.353854 13.429567 -1.100321 2.242154 0.005796 -0.002392 86944.900000 1 0 0
-2.303078 7.176926 8.387746 11.276822 -1.260277 0.732053 0.003227 -0.001708 -1156300.000000 1 0 0
-10.780078 -1.295774 -4.401354 11.715845 0.119627 1.955922 0.003843 -0.002022 -2572090.000000 1 0 0
2.634422 -7.145274 9.898746 12.489207 -1.217565 0.655761 -0.006789 -0.003374 -2328730.000000 1 0 0
-16.148078 -6.331974 3.489246 17.692630 0.373694 1.372280 0.031133 -0.009735 423004.000000 1 0 0
-10.768178 0.157326 6.281446 12.467356 -0.014609 1.042768 0.003897 -0.007403 -1202640.000000 1 0 0
-8.355078 9.857326 9.215746 15.871489 -0.867697 0.951272 0.008727 -0.011989 -1646540.000000 1 0 0
0.341522 -6.152774 -3.686754 7.180907 -1.515346 2.109951 0.000717 -0.002591 563508.000000 1 0 0
4.943722 1.515226 -3.038754 5.997527 0.297405 2.102112 -0.000356 -0.001874 -1021900.000000 1 0 0
0.374222 5.301626 3.642946 6.443472 1.500327 0.969915 -0.000808 0.000317 -1133530.000000 1 0 0
6.031522 -11.308974 -1.519054 12.906575 -1.080834 1.688766 0.002431 -0.009015 -2047230.000000 1 0 0
6.306422 -13.347274 5.252346 15.668689 -1.129400 1.228965 0.002412 -0.010998 -650803.000000 1 0 0
8.202122 -8.199274 -6.031154 13.072020 -0.785225 2.050345 0.005561 -0.005426 650985.000000 1 0 0
-13.206278 -1.351374 -4.750454 14.099603 0.101973 1.914441 0.006092 -0.004499 -4638420.000000 1 0 0
-6.753378 -1.632774 -7.040854 9.891799 0.237219 2.362835 0.011679 -0.005016 -382872.000000 1 0 0
-5.733278 12.922026 -4.519554 14.841685 -1.153208 1.880228 0.004139 0.000845 328282.000000 1 0 0
-4.324378 6.845526 -6.672754 10.492241 -1.007387 2.260062 0.009996 -0.003232 -3072100.000000 1 0 0
-9.317478 -3.781774 -8.111054 12.919226 0.385565 2.249556 0.006121 -0.001802 664771.000000 1 0 0
-2.204278 -6.317874 9.258846 11.423686 1.235106 0.625799 -0.000770 -0.002208 -493360.000000 1 0 0
7.439922 -5.922674 10.053546 13.838508 -0.672338 0.757595 0.004767 -0.004467 543661.000000 1 0 0
9.614622 -5.072874 12.257246 16.383378 -0.485499 0.725525 0.023297 -0.006170 610514.000000 1 0 0
-6.516878 2.782226 -9.118054 11.547701 -0.403501 2.480952 0.008731 -0.006995 -616295.000000 1 0 0
7.458222 5.468426 8.801846 12.767194 0.632667 0.810121 -0.002929 -0.002627 -575307.000000 1 0 0
12.717522 3.366726 11.113646 17.221595 0.258795 0.869339 0.052220 -0.006033 119411.000000 1 0 0
-7.537278 -7.386174 -3.930854 11.261338 0.775273 1.927361 0.014575 -0.007390 84079.400000 1 0 0
2.223822 1.403626 -5.794654 6.363456 0.563029 2.715565 0.003371 -0.004466 -112458.000000 1 0 0
12.768922 6.947426 -7.152254 16.200828 0.498293 2.028038 0.010514 -0.000706 480028.000000 1 0 0
0.812022 -7.824474 1.074346 7.939521 -1.467387 1.435064 0.002816 -0.003187 1605610.000000 1 0 0
-10.228078 -6.172674 -8.507154 14.665850 0.542991 2.189605 0.007340 -0.002160 257498.000000 1 0 0
-6.629878 0.230926 3.119746 7.330854 -0.034817 1.131212 0.003172 -0.005890 652173.000000 1 0 0
10.782622 -7.836574 1.343246 13.397057 -0.628473 1.470363 0.007177 -0.006976 -271439.000000 1 0 0
6.234422 1.099926 10.417046 12.189861 0.174631 0.546081 0.004644 -0.001009 -98461.700000 1 0 0
-12.965178 5.275626 1.750146 14.106420 -0.386447 1.446408 0.001693 -0.003580 -319064.000000 1 0 0
2.080222 7.378526 3.585246 8.463094 1.296000 1.133344 -0.001215 -0.000309 254719.000000 1 0 0
10.142622 -9.426574 -0.808054 13.870329 -0.748824 1.629087 0.007521 -0.006708 901114.000000 1 0 0
6.726522 -11.725374 -9.102654 16.296896 -1.049960 2.163435 0.008638 -0.008920 -160791.000000 1 0 0
10.242322 3.598526 11.853746 16.073763 0.337867 0.741496 0.022315 -0.004177 -1615300.000000 1 0 0
-11.042478 -3.136374 -1.880454 11.632251 0.276740 1.733168 -0.004345 -0.001619 -714263.000000 1 0 0
12.383722 1.053426 6.805446 14.169699 0.084861 1.069821 0.014386 -0.006820 -665943.000000 1 0 0
-9.596078 9.067126 2.968046 13.531695 -0.757064 1.349658 0.003194 -0.001615 19880.900000 1 0 0
-6.684078 7.570926 -8.891954 13.455953 -0.847531 2.292706 0.005367 -0.006125 19292.900000 1 0 0
8.475922 5.614026 12.088646 15.795376 0.585008 0.699245 0.016048 -0.000513 -1421250.000000 1 0 0
1.290822 4.832026 -2.643254 5.656986 1.309753 2.056980 0.004887 -0.005383 367071.000000 1 0 0
1.425822 0.496126 9.556446 9.674956 0.334854 0.156679 -0.000921 -0.002500 728051.000000 1 0 0
2.628322 12.608526 -3.964454 13.475901 1.365283 1.869403 0.006700 -0.000893 490677.000000 1 0 0
2.141322 0.706626 12.952646 13.147457 0.318743 0.172361 0.003297 -0.006052 255622.000000 1 0 0
-12.198878 -1.809774 0.882446 12.363924 0.147282 1.499363 -0.000658 -0.006145 -128858.000000 1 0 0
3.194322 8.694626 -1.244454 9.346062 1.218714 1.704346 0.006854 -0.003042 593525.000000 1 0 0
3.736122 -2.883974 -5.800154 7.477814 -0.657381 2.458538 -0.004743 -0.002724 -1895560.000000 1 0 0
-7.745078 -7.108574 9.352746 14.070960 0.742573 0.843725 0.010622 -0.006367 -24252.000000 1 0 0
-7.106278 10.891226 -3.541454 13.478126 -0.992682 1.836673 0.008889 0.000601 324389.000000 1 0 0
0.378722 0.511226 2.508046 2.587485 0.933202 0.248433 -0.000916 -0.002371 -1725260.000000 1 0 0
-7.197878 4.505126 -2.085454 8.743839 -0.559244 1.811623 0.006434 -0.005765 -1410330.000000 1 0 0
-6.965578 -3.982474 -5.917954 9.970033 0.519378 2.206289 0.009850 -0.004004 -121843.000000 1 0 0
2.878022 -6.138274 13.493746 15.101079 -1.132365 0.465579 -0.003600 -0.008101 -1488840.000000 1 0 0
-5.389178 -0.631274 -11.795254 12.983442 0.116606 2.710439 0.011047 -0.006331 -484274.000000 1 0 0
11.938222 2.501326 -0.765054 12.221419 0.206535 1.633437 0.002495 -0.000342 -1078880.000000 1 0 0
6.059122 -10.826374 10.736446 16.407151 -1.060564 0.857439 -0.006819 -0.005407 196021.000000 1 0 0
-8.191078 6.236726 -10.420654 14.648568 -0.650760 2.362252 0.004937 -0.004674 528978.000000 1 0 0
2.909822 7.885426 11.052946 13.885771 1.217285 0.650154 -0.000422 -0.002177 793543.000000 1 0 0
-6.277478 -10.156874 -0.380554 11.946281 1.017209 1.602657 0.012778 -0.003112 -393668.000000 1 0 0
11.262322 4.264726 6.004946 13.456863 0.361986 1.108241 0.002873 -0.004539 463385.000000 1 0 0
-7.917878 10.638326 1.435046 13.338895 -0.930967 1.463004 0.002181 -0.000481 644992.000000 1 0 0
4.353322 -2.598174 -3.471354 6.144284 -0.538082 2.171197 -0.001112 -0.002327 -4727680.000000 1 0 0
6.481522 6.426926 6.240546 11.057121 0.781169 0.971100 -0.000385 0.000170 -4761030.000000 1 0 0
-0.398278 10.306726 -10.197354 14.504250 -1.532173 2.350487 0.007282 -0.000138 -265072.000000 1 0 0
13.969322 6.690826 -2.488454 15.687623 0.446679 1.730095 0.014578 0.000685 875021.000000 1 0 0
1.466522 9.468326 -6.265754 11.448125 1.417130 2.149951 0.005171 0.000398 -1442070.000000 1 0 0
0.791122 7.428826 7.169946 10.354779 1.464703 0.805947 -0.003226 0.000655 91393.700000 1 0 0
12.306222 6.325826 1.879646 13.963963 0.474812 1.435780 0.008956 -0.003751 -1012840.000000 1 0 0
-6.840678 6.671826 -3.120454 10.052133 -0.772903 1.886439 0.005553 -0.003788 -92062.300000 1 0 0
1.019122 9.747426 11.126646 14.827447 1.466622 0.722116 -0.001196 -0.004273 -1244210.000000 1 0 0
-3.657678 13.587926 -10.900354 17.799665 -1.307843 2.229878 -0.001822 -0.006351 -438185.000000 1 0 0
-10.027978 -5.622674 -2.222154 11.709516 0.511020 1.761728 0.003701 -0.000985 -254809.000000 1 0 0
-4.086178 3.885226 -12.427854 13.647102 -0.760194 2.715672 0.008238 -0.005053 -649173.000000 1 0 0
-3.207178 8.533026 2.424946 9.432862 -1.211277 1.310803 0.001658 0.001478 -3230420.000000 1 0 0
7.085022 8.840326 7.143246 13.393090 0.895176 1.008237 0.004193 0.000365 1692160.000000 1 0 0
-1.333678 -2.271574 -8.093554 8.511425 1.039904 2.826942 0.005923 -0.006653 -959682.000000 1 0 0
0.841822 -1.299174 4.820746 5.063211 -0.995851 0.310724 -0.000348 -0.001640 -24470.000000 1 0 0
2.658822 -8.845974 -6.128754 11.085225 -1.278818 2.156608 -0.008191 -0.002512 -95523.900000 1 0 0
5.424822 3.924726 8.639546 10.930413 0.626308 0.659313 -0.004619 -0.002021 298986.000000 1 0 0
5.906522 -7.583474 -2.886654 10.036376 -0.909074 1.862536 -0.000375 -0.005435 762766.000000 1 0 0
1.829422 2.264526 -8.251854 8.750312 0.891280 2.802436 0.002478 -0.004545 119561.000000 1 0 0
-5.347378 10.921226 -0.577554 12.173791 -1.115478 1.618257 0.001688 0.000032 360678.000000 1 0 0
-5.484478 3.263526 -3.425454 7.243192 -0.536770 2.063399 0.006258 -0.004065 -575011.000000 1 0 0
2.014522 13.715926 -6.332454 15.240896 1.424964 1.999279 0.000696 -0.000793 471910.000000 1 0 0
-5.224378 -2.590374 2.786746 6.462980 0.460302 1.124990 -0.000363 -0.003141 1039180.000000 1 0 0
10.520822 -3.412274 -1.997154 11.239214 -0.313631 1.749440 0.004486 -0.000996 17486.600000 1 0 0
2.291222 -3.325674 7.057746 8.131518 -0.967525 0.519738 -0.003207 -0.001874 -1887820.000000 1 0 0
-2.914078 9.851726 -11.628854 15.517042 -1.283203 2.417989 0.004775 -0.000554 -2007230.000000 1 0 0
0.542122 -1.994274 9.298646 9.525536 -1.305371 0.218698 -0.000068 -0.002780 1075930.000000 1 0 0
9.348622 2.697826 4.893946 10.891543 0.280947 1.104776 0.002776 -0.004329 -509528.000000 1 0 0
13.480922 2.093026 -4.976754 14.521849 0.154029 1.920594 0.014471 0.001544 121727.000000 1 0 0
-6.463278 3.728126 7.638046 10.677670 -0.523198 0.773702 0.005434 -0.004670 -351953.000000 1 0 0
10.661322 0.003926 1.833246 10.817791 0.000368 1.400509 0.004050 -0.000895 1972580.000000 1 0 0
15.361322 6.841226 -4.648454 17.446510 0.418984 1.840494 0.022102 0.000192 -32335.800000 1 0 0
8.079022 -5.090574 -9.237954 13.286246 -0.562257 2.339636 0.001655 -0.000051 -1056170.000000 1 0 0
4.407322 5.655326 -2.155554 7.486896 0.908791 1.862840 0.004063 -0.003706 289696.000000 1 0 0
-1.637478 -10.442774 1.503846 10.676817 1.415258 1.429475 0.010297 -0.005506 -460478.000000 1 0 0
-2.974378 12.166026 -12.803854 17.910829 -1.331018 2.367230 0.002895 -0.007183 -491411.000000 1 0 0
8.340822 4.183926 -9.626354 13.406761 0.464943 2.371753 0.003992 -0.000127 -1683110.000000 1 0 0
4.121422 7.564826 -9.137754 12.558315 1.071944 2.385651 0.002062 -0.002260 -384016.000000 1 0 0
-1.725978 -5.033574 -2.452254 5.859131 1.240467 2.002628 0.008681 -0.005246 1799040.000000 1 0 0
-3.281878 -9.201474 7.053446 12.049437 1.228193 0.945453 0.003336 -0.004221 -493356.000000 1 0 0
1.053722 7.167226 -1.370654 7.372798 1.424823 1.757791 0.004008 -0.005002 1015510.000000 1 0 0
0.405722 -0.626174 -2.356654 2.471947 -0.995872 2.834973 0.006103 -0.004077 -1651600.000000 1 0 0
4.287422 -6.712474 7.942146 11.247977 -1.002388 0.786827 -0.004828 -0.003471 78317.100000 1 0 0
-13.958878 3.868926 5.783146 15.596911 -0.270379 1.190939 0.001067 -0.008205 -1002180.000000 1 0 0
4.249822 6.372126 12.513646 14.671616 0.982605 0.549252 0.005281 -0.001979 -2490360.000000 1 0 0
8.195622 10.017326 -7.215554 14.818207 0.885089 2.079377 0.017554 -0.002214 -155870.000000 1 0 0
12.448822 5.303426 9.537846 16.555060 0.402733 0.956812 0.024106 -0.003894 -299653.000000 1 0 0
7.562622 4.061626 0.317046 8.590144 0.492859 1.533880 0.006173 -0.000759 -1733130.000000 1 0 0
-10.864278 -7.619574 -0.976254 13.305770 0.611626 1.644233 0.006041 -0.002313 -1791920.000000 1 0 0
10.523922 6.792826 0.145846 12.526639 0.573181 1.559153 0.007749 -0.004073 -558921.000000 1 0 0
14.690222 3.681326 4.006746 15.665529 0.245540 1.312154 0.012790 -0.008701 407825.000000 1 0 0
2.156522 5.614126 8.225646 10.189713 1.204050 0.631319 -0.006966 -0.000022 578259.000000 1 0 0
4.229822 0.089426 11.669146 12.412428 0.021139 0.347820 0.003486 -0.001864 -3047440.000000 1 0 0
-1.285478 -1.736274 -0.636454 2.252149 0.933490 1.857298 0.003813 -0.005879 -792388.000000 1 0 0
3.039322 -5.323374 -9.500454 11.306388 -1.052019 2.568583 -0.008112 -0.000661 718149.000000 1 0 0
-3.977278 -5.420874 -1.461854 6.880525 0.937811 1.784891 0.009954 -0.004975 -439497.000000 1 0 0
-1.319878 -8.691574 8.689346 12.360836 1.420091 0.791226 -0.001370 -0.003719 -374481.000000 1 0 0
3.924122 8.481326 -5.954054 11.080721 1.137450 2.138070 0.006849 -0.000108 359771.000000 1 0 0
-14.275978 -1.878574 -2.741154 14.657643 0.130838 1.758916 0.004407 -0.008723 -1005370.000000 1 0 0
8.750022 -10.514774 -6.619954 15.196945 -0.876748 2.021513 0.011135 -0.009273 413688.000000 1 0 0
14.971222 6.117426 1.515346 16.243666 0.387909 1.477372 -0.004620 -0.000517 178612.000000 1 0 0
-5.719878 0.390126 -8.324754 10.107954 -0.068100 2.538498 0.013268 -0.008228 -617512.000000 1 0 0
-8.100378 -4.555474 -12.892154 15.892643 0.512297 2.517002 0.008770 -0.005281 447018.000000 1 0 0
0.914422 -10.683074 12.101546 16.168230 -1.485409 0.725034 -0.006831 -0.000308 -290338.000000 1 0 0
0.203522 11.667026 3.247946 12.112393 1.553354 1.299323 0.001535 -0.003118 -2103540.000000 1 0 0
5.156822 -13.140374 -3.644854 14.578999 -1.196823 1.823484 0.011212 -0.007016 1392140.000000 1 0 0
-7.534178 1.592726 -6.960154 10.379998 -0.208333 2.305726 0.005931 -0.004515 377762.000000 1 0 0
1.480822 2.757526 4.055146 5.122596 1.077980 0.657342 -0.003507 0.000213 -2187520.000000 1 0 0
17.380522 5.473526 2.424946 18.382666 0.305091 1.438496 0.011217 -0.001904 -106273.000000 1 0 0
2.518422 -8.198274 -3.567054 9.288596 -1.272757 1.964948 -0.004709 -0.002989 424773.000000 1 0 0
-0.382778 -9.373974 -0.658854 9.404892 1.529985 1.640908 0.010036 -0.004038 -736056.000000 1 0 0
0.766822 11.858126 -5.561954 13.120156 1.506220 2.008570 0.004095 0.001677 248739.000000 1 0 0
6.101622 -4.939774 7.832546 11.089632 -0.680557 0.786546 0.001376 -0.004964 -1019370.000000 1 0 0
-5.960978 -1.832974 -9.449554 11.321975 0.298319 2.558240 0.014752 -0.008121 -520506.000000 1 0 0
2.074322 -1.250374 11.295846 11.552592 -0.542466 0.211220 -0.000798 -0.003468 74789.000000 1 0 0
18.138222 1.994526 -5.809654 19.150074 0.109523 1.879029 0.070895 0.001821 -88608.200000 1 0 0
-8.887778 4.810926 7.751646 12.736782 -0.496137 0.916497 0.005303 -0.007879 -33353.500000 1 0 0
11.435522 -6.973874 -4.949554 14.279502 -0.547626 1.924761 0.017648 -0.009222 -245215.000000 1 0 0
10.818522 0.553126 8.805446 13.960023 0.051083 0.888262 0.010086 -0.006824 26473.200000 1 0 0
-8.380078 -7.449574 -1.405054 11.300267 0.726683 1.695457 0.009070 -0.004437 -319045.000000 1 0 0
10.341722 -10.296374 -3.208654 14.941954 -0.783201 1.787223 0.018500 -0.007469 1632660.000000 1 0 0
7.733522 -13.858174 -3.783254 16.314698 -1.061795 1.804819 0.019876 -0.007539 165879.000000 1 0 0
1.760522 -1.236174 -11.689354 11.885645 -0.612176 2.959600 0.000477 -0.002779 227490.000000 1 0 0
-11.853878 -2.721874 -6.330954 13.711455 0.225706 2.050738 0.003700 -0.003542 -184557.000000 1 0 0
2.709222 -12.085574 -6.413954 13.947752 -1.350272 2.048629 -0.004834 -0.003007 337316.000000 1 0 0
-5.541978 1.352426 1.047946 5.800066 -0.239355 1.389120 0.003976 -0.004764 358112.000000 1 0 0
0.164822 6.740726 -3.957454 7.818312 1.546349 2.101543 0.007736 -0.005034 797820.000000 1 0 0
5.510422 -11.588074 3.658746 13.342962 -1.126919 1.293030 0.000809 -0.012048 -1987790.000000 1 0 0
-4.495578 -9.093074 1.078546 10.200857 1.111642 1.464867 0.009874 -0.005072 836664.000000 1 0 0
7.141822 -6.357274 -4.628454 10.622765 -0.727345 2.021624 0.000796 -0.004185 1112250.000000 1 0 0
-7.055078 -6.081374 2.205946 9.572013 0.711411 1.338248 0.005397 -0.002317 114031.000000 1 0 0
-6.254178 -0.762874 7.112246 9.501619 0.121379 0.724954 0.004936 -0.004944 -577226.000000 1 0 0
4.157122 -4.968674 3.268246 7.256088 -0.874094 1.103567 0.000206 -0.002487 -414518.000000 1 0 0
-2.498878 10.473526 -8.765054 13.883995 -1.336585 2.254033 0.004842 -0.000711 -1793890.000000 1 0 0
-2.375978 -4.756174 2.806246 6.011778 1.107504 1.085137 0.002162 -0.000997 224383.000000 1 0 0
15.175922 5.063326 6.322746 17.202413 0.322028 1.194423 0.030760 -0.011670 717484.000000 1 0 0
6.779322 0.253126 0.077846 6.784493 0.037321 1.559322 0.004892 -0.001620 4399280.000000 1 0 0
-9.734378 9.125026 0.381746 13.348031 -0.753099 1.542193 0.000090 -0.002262 -2058110.000000 1 0 0
7.254322 10.319826 -2.554854 12.870559 0.958093 1.770627 0.006140 -0.001781 144107.000000 1 0 0
1.723122 -4.334074 -5.370754 7.113251 -1.192382 2.426504 -0.002960 -0.003367 287868.000000 1 0 0
0.953922 -8.096674 -7.849654 11.317383 -1.453520 2.337261 -0.004953 -0.000311 -693573.000000 1 0 0
-10.363178 0.162626 -10.436454 14.708551 -0.015691 2.359656 0.009901 -0.005129 -2919540.000000 1 0 0
5.674822 -2.497174 0.491146 6.219382 -0.414544 1.491744 0.002366 -0.001324 592915.000000 1 0 0
-3.401978 5.297526 -1.059554 6.384347 -0.999936 1.737529 0.003481 -0.005666 709100.000000 1 0 0
-0.373878 4.454226 -5.134154 6.807309 -1.487055 2.425250 0.006280 -0.006008 -982530.000000 1 0 0
3.970322 -9.617674 10.020846 14.445777 -1.179291 0.804201 -0.009328 -0.003718 -1632350.000000 1 0 0
7.419122 -13.461874 -0.748454 15.389139 -1.067093 1.619451 0.013678 -0.007952 558650.000000 1 0 0
13.016922 -0.000474 0.536446 13.027971 -0.000036 1.529608 0.002103 -0.003403 -26824.400000 1 0 0
9.267522 2.369926 -0.659554 9.588458 0.250358 1.639637 0.004695 -0.000469 453233.000000 1 0 0
-0.794778 -5.822574 4.424646 7.356054 1.435135 0.925422 0.000389 -0.001333 85447.600000 1 0 0
11.495022 -3.649774 3.391246 12.528245 -0.307442 1.296689 0.013000 -0.009073 -2949140.000000 1 0 0
1.519722 -8.236174 11.763146 14.440073 -1.388331 0.618726 -0.002517 -0.001878 530158.000000 1 0 0
9.367022 -5.902474 -6.004754 12.595133 -0.562282 2.067752 0.002900 -0.005952 -381185.000000 1 0 0
3.253722 6.367526 -0.025554 7.150717 1.098398 1.574370 0.002875 -0.002667 -485566.000000 1 0 0
6.444522 -1.317874 11.490246 13.239880 -0.201714 0.519935 0.005259 -0.001318 636358.000000 1 0 0
-4.878878 -7.512474 -3.738154 9.706416 0.994817 1.966136 0.015898 -0.006494 274070.000000 1 0 0
-3.423878 -8.461174 -5.701354 10.761963 1.186281 2.129124 0.013146 -0.002985 73008.400000 1 0 0
9.856522 5.326626 2.186046 11.415024 0.495456 1.378100 0.005885 -0.003036 96133.200000 1 0 0
8.898822 -1.484674 0.218446 9.024467 -0.165317 1.546588 0.006218 -0.000363 2207530.000000 1 0 0
-3.864278 9.648726 9.161946 13.855389 -1.189862 0.848306 0.003870 -0.005097 118737.000000 1 0 0
-14.399778 -3.613174 -6.058254 16.034683 0.245843 1.958239 0.012360 -0.005096 1188090.000000 1 0 0
10.576022 6.271226 -6.059554 13.707615 0.535232 2.028687 0.003315 -0.002204 -370420.000000 1 0 0
-1.902078 4.567726 2.566446 5.573927 -1.176218 1.092308 0.001846 -0.001250 365053.000000 1 0 0
7.127922 -3.673174 2.572646 8.421282 -0.475830 1.260340 0.005871 -0.005814 -1270770.000000 1 0 0
8.278622 -11.072074 -1.562554 13.912871 -0.928767 1.683344 0.014435 -0.009094 -2480160.000000 1 0 0
4.480822 0.476526 1.753046 4.835082 0.105950 1.199774 0.003110 -0.000607 806583.000000 1 0 0
-10.772778 2.359726 3.790746 11.661510 -0.215639 1.239716 -0.000180 -0.006847 282343.000000 1 0 0
-0.791078 -3.026574 4.345146 5.354087 1.315139 0.623985 0.000067 -0.001600 569450.000000 1 0 0
8.636522 -8.699274 -8.537554 14.938431 -0.789018 2.179149 0.015036 -0.007089 -468995.000000 1 0 0
12.154022 -4.762874 1.042946 13.095532 -0.373484 1.491071 0.008843 -0.005089 561961.000000 1 0 0
2.959622 4.778826 3.505246 6.624447 1.016292 1.013212 -0.003512 -0.001019 -668834.000000 1 0 0
6.232622 7.432426 1.975046 9.898856 0.872975 1.369926 0.006634 -0.001927 -671325.000000 1 0 0
-1.697578 -1.397174 -10.216254 10.450154 0.688633 2.929619 0.008822 -0.004906 1408490.000000 1 0 0
-0.927078 -8.569274 6.042046 10.526075 1.463029 0.959405 0.000481 -0.003720 -1030490.000000 1 0 0
-4.227478 -0.300774 2.283746 4.814305 0.071028 1.076552 0.001421 -0.003464 290874.000000 1 0 0
-8.533278 6.248926 -7.842454 13.167004 -0.632077 2.208826 0.007728 -0.004705 -1128310.000000 1 0 0
6.490422 11.185426 -9.451454 16.017781 1.045020 2.201930 0.015441 -0.003513 73249.300000 1 0 0
-11.155378 -5.708474 3.202046 12.933763 0.472983 1.320622 0.006056 -0.002443 205455.000000 1 0 0
1.535222 -6.279374 3.103746 7.170822 -1.331014 1.123167 -0.001085 -0.002276 313816.000000 1 0 0
10.089822 2.104826 7.100946 12.516319 0.205659 0.967530 0.005152 -0.003301 -1639890.000000 1 0 0
-4.114578 -2.643374 -10.754954 11.814661 0.571043 2.714818 0.011978 -0.011124 -2027100.000000 1 0 0
-8.314178 11.866826 5.955346 15.665671 -0.959652 1.180835 0.014418 -0.006581 64871.000000 1 0 0
6.880022 5.961526 -3.004554 9.586545 0.713994 1.889582 0.006443 -0.001741 -2777640.000000 1 0 0
3.922522 -9.897174 -2.339554 10.900172 -1.193460 1.787114 -0.002302 -0.005565 -2033400.000000 1 0 0
8.557122 -12.826874 -7.406754 17.105936 -0.982477 2.018607 0.029917 -0.009716 1275890.000000 1 0 0
-1.180878 9.457826 3.606846 10.190892 -1.446582 1.209028 0.000025 -0.000568 -174313.000000 1 0 0
0.629022 -13.063474 4.670446 13.887515 -1.522682 1.227805 0.011068 -0.009781 -1101520.000000 1 0 0
-11.178878 -7.087074 -5.048254 14.166114 0.565024 1.935167 0.007020 -0.005041 134777.000000 1 0 0
3.680922 10.314426 -3.352954 11.453335 1.228013 1.867897 0.010566 -0.002760 -475647.000000 1 0 0
11.652022 -8.135074 -7.400454 16.022352 -0.609496 2.050914 0.035357 -0.007490 289439.000000 1 0 0
11.569422 -4.548974 -5.813354 13.723694 -0.374621 2.008212 0.015753 -0.007750 -245591.000000 1 0 0
1.324622 -10.308174 -2.608454 10.715274 -1.442995 1.816700 0.000306 -0.004401 -996409.000000 1 0 0
2.361722 -11.952674 -3.891454 12.790135 -1.375720 1.879952 -0.000059 -0.003899 -1428970.000000 1 0 0
-7.609078 -5.733274 7.275346 11.987458 0.645723 0.918625 0.005226 -0.003841 -2091460.000000 1 0 0
-7.210278 -0.892774 9.499846 11.959608 0.123193 0.652897 0.005692 -0.004824 37950.500000 1 0 0
16.253122 2.508826 -7.634854 18.131442 0.153151 2.005436 0.052035 0.001415 -1119310.000000 1 0 0
-2.012878 6.258926 -5.491754 8.566516 -1.259642 2.266691 0.008239 -0.002808 -491814.000000 1 0 0
7.632222 1.149826 8.302646 11.336086 0.149530 0.748944 0.004788 -0.004898 -77667.000000 1 0 0
7.933522 8.258126 -3.870954 12.088081 0.805443 1.896768 0.003372 0.000614 -384121.000000 1 0 0
8.046922 0.516526 3.970346 8.987959 0.064101 1.113258 0.003356 -0.002970 -107401.000000 1 0 0
-7.018978 5.816926 5.203546 10.496646 -0.692023 1.052116 0.004608 -0.007315 342566.000000 1 0 0
-6.009678 -2.191274 -4.569554 7.861217 0.349643 2.191095 0.009829 -0.005146 -662295.000000 1 0 0
-15.157878 -2.363674 3.099246 15.650992 0.154691 1.371456 0.018032 -0.009729 -640612.000000 1 0 0
1.161122 1.164926 -10.508154 10.636097 0.787034 2.986330 0.003847 -0.004457 460217.000000 1 0 0
1.448222 -9.259074 9.299746 13.202768 -1.415642 0.789249 -0.004189 -0.004983 -703584.000000 1 0 0
-0.075678 -6.677974 -1.007654 6.753994 1.559464 1.720549 0.004853 -0.001975 463969.000000 1 0 0
-0.437678 -10.216374 -8.382154 13.222192 1.527982 2.257441 0.001122 -0.002083 -1096800.000000 1 0 0
-4.310378 6.516326 3.764346 8.672495 -0.986398 1.121806 0.002933 -0.002236 -81670.800000 1 0 0
10.741722 -1.155974 -8.686454 13.862733 -0.107203 2.247985 0.020695 -0.000493 492132.000000 1 0 0
3.140522 -0.978674 6.296946 7.104380 -0.302090 0.481401 -0.002333 0.000038 612741.000000 1 0 0
1.999222 -12.276274 6.823446 14.186726 -1.409361 1.069031 0.001584 -0.005967 -224966.000000 1 0 0
2.903822 -4.823274 -1.338254 5.786802 -1.028875 1.804169 0.004499 -0.004694 -2928590.000000 1 0 0
-1.007278 9.434626 -1.742554 9.646931 -1.464435 1.752426 0.004436 -0.004445 142045.000000 1 0 0
4.622422 -2.573874 2.691246 5.935859 -0.508067 1.100234 0.002979 0.000290 -1019380.000000 1 0 0
17.791822 6.728426 -2.785754 19.224492 0.361552 1.716215 0.015476 0.002781 422031.000000 1 0 0
-7.209478 3.529526 -5.428854 9.690541 -0.455267 2.165450 0.005896 -0.007110 -767521.000000 1 0 0
-13.749978 -6.066674 2.369546 15.214505 0.415523 1.414417 -0.000517 -0.006186 213667.000000 1 0 0
6.663022 -5.946574 3.575446 9.619845 -0.728641 1.189985 0.005537 -0.006249 919647.000000 1 0 0
-4.557478 1.971026 3.498146 6.073926 -0.408191 0.957057 0.003259 -0.005648 518594.000000 1 0 0
6.864622 -11.998474 -5.464654 14.864349 -1.051126 1.947261 0.017585 -0.007983 1528070.000000 1 0 0
3.000622 -12.157274 3.307846 12.951636 -1.328816 1.312535 0.010087 -0.009366 -1100610.000000 1 0 0
3.312822 11.237626 -6.132554 13.223738 1.284119 2.053023 0.006046 0.002478 167261.000000 1 0 0
-5.609978 -8.313874 6.485046 11.943541 0.977203 0.996820 0.006330 -0.003326 -464561.000000 1 0 0
-3.958478 6.550426 6.253246 9.883355 -1.027215 0.885755 0.005548 -0.001713 414039.000000 1 0 0
4.391222 4.432226 -6.778954 9.213125 0.790045 2.397633 -0.000336 -0.001502 -946226.000000 1 0 0
-0.356178 -2.791174 1.578746 3.226446 1.443874 1.059493 0.002603 -0.001803 533650.000000 1 0 0
-13.203978 -0.972074 6.467246 14.734830 0.073487 1.116412 0.015192 -0.005973 227298.000000 1 0 0
-0.450278 -9.198974 -5.919354 10.948179 1.521887 2.142030 0.001862 -0.000937 114475.000000 1 0 0
2.043622 -1.704774 -3.955154 4.767168 -0.695245 2.549304 0.001573 -0.002072 -316544.000000 1 0 0
11.437422 -1.947974 1.063646 11.650776 -0.168697 1.479375 0.005313 -0.004764 586382.000000 1 0 0
0.587022 -4.270274 -1.947554 4.729990 -1.434185 1.995165 0.004052 -0.003635 -1393320.000000 1 0 0
1.114522 -7.359774 -11.326854 13.553821 -1.420504 2.560193 -0.005412 -0.000411 289853.000000 1 0 0
-4.424778 4.107226 -9.982854 11.666419 -0.748196 2.597682 0.008445 -0.005016 154782.000000 1 0 0
-1.066578 5.711826 -2.046554 6.160433 -1.386191 1.909441 0.004921 -0.005854 -1787610.000000 1 0 0
-11.340578 1.653526 -3.851654 12.090413 -0.144786 1.895018 0.006203 -0.005247 -886040.000000 1 0 0
-1.759178 -11.231374 4.086046 12.080324 1.415428 1.225751 0.013148 -0.007177 119965.000000 1 0 0
-3.481878 -5.489174 -9.708454 11.683689 1.005525 2.551593 0.008875 -0.004006 -2382470.000000 1 0 0
-12.878578 -3.808774 -8.319454 15.798033 0.287548 2.125408 0.015526 -0.002970 -4338.890000 1 0 0
11.477522 4.423326 0.498246 12.310466 0.367849 1.530312 0.006610 -0.001741 23117.900000 1 0 0
-8.932978 -2.341374 -2.936254 9.690290 0.256338 1.878646 0.003014 -0.002910 -265716.000000 1 0 0
-2.465278 -6.085174 -6.349954 9.133940 1.185877 2.339500 0.006880 -0.004733 -365882.000000 1 0 0
-0.018878 2.666526 -1.910854 3.280561 -1.563717 2.192570 0.004255 -0.007446 -762319.000000 1 0 0
8.041022 6.039826 -5.249754 11.344490 0.644222 2.051900 0.005063 -0.000745 -583088.000000 1 0 0
-9.854178 -0.928874 -0.845454 9.933903 0.093984 1.656007 -0.001502 -0.002239 -84689.600000 1 0 0
6.050422 0.496426 -8.953654 10.817669 0.081865 2.545771 -0.002148 0.002244 257508.000000 1 0 0
-4.080078 2.471226 7.859346 9.193656 -0.544586 0.545503 0.000680 -0.001263 -360721.000000 1 0 0
-10.196178 -3.395474 1.521846 10.853907 0.321463 1.430121 0.001348 -0.003571 1576430.000000 1 0 0
-1.769778 -8.071074 -7.773454 11.344643 1.354938 2.325687 0.005920 -0.004294 -35550.800000 1 0 0
-9.387778 -9.896474 4.338046 14.313952 0.811771 1.262890 0.008839 -0.003809 -281543.000000 1 0 0
-1.148078 -10.682674 7.288046 12.982805 1.463736 0.974766 0.002743 -0.004262 -220603.000000 1 0 0
9.536722 3.832826 -3.816254 10.963732 0.382145 1.926318 0.006314 -0.000709 -659149.000000 1 0 0
12.931522 -0.882274 3.023746 13.309610 -0.068121 1.341610 0.008035 -0.005263 -225499.000000 1 0 0
6.424922 11.796626 -6.820754 15.065281 1.072077 2.040640 0.011305 -0.001997 679085.000000 1 0 0
-11.765978 -0.140074 -6.476354 13.431345 0.011904 2.073940 0.008343 -0.004097 915648.000000 1 0 0
-7.606378 -6.647774 -11.449154 15.268694 0.718248 2.418624 0.008401 -0.003655 -323416.000000 1 0 0
4.172522 6.052626 6.546646 9.843922 0.967238 0.843243 -0.003844 0.001166 -2941910.000000 1 0 0
-4.158678 -1.541174 -7.373254 8.604342 0.354901 2.600066 0.011657 -0.009831 235119.000000 1 0 0
9.710022 9.269926 0.832446 13.450243 0.762215 1.508866 0.015123 -0.003436 -1005420.000000 1 0 0
-8.942678 3.917426 4.870846 10.910676 -0.412880 1.108025 0.006045 -0.008604 261310.000000 1 0 0
-7.047678 7.801126 -12.191354 16.098337 -0.836096 2.429973 0.008356 -0.007606 -502805.000000 1 0 0
11.141322 -3.524474 7.261446 13.757891 -0.306382 1.014785 0.019448 -0.010534 370681.000000 1 0 0
11.835522 6.848626 6.285946 15.049797 0.524573 1.139910 0.008150 -0.005015 276500.000000 1 0 0
-10.080878 -0.651374 -14.742354 17.871357 0.064525 2.540849 0.022542 0.000596 74822.900000 1 0 0
1.719522 -13.000974 12.073146 17.825345 -1.439299 0.826707 -0.009975 0.001302 -182381.000000 1 0 0
2.960422 3.104326 13.028046 13.716083 0.809122 0.318081 -0.000034 -0.003778 -873677.000000 1 0 0
-2.611778 -1.429774 11.103846 11.496131 0.500870 0.261989 0.008797 -0.003997 179957.000000 1 0 0
2.479022 -10.126274 -8.327054 13.342668 -1.330707 2.244765 -0.010003 0.000185 -1264380.000000 1 0 0
14.119722 3.634726 -7.450154 16.373228 0.251952 2.043192 0.026399 -0.000057 -2220670.000000 1 0 0
7.390522 -1.612074 4.887646 9.005980 -0.214763 0.997135 0.004264 -0.004260 387563.000000 1 0 0
-1.260178 8.768626 10.094846 13.430665 -1.428059 0.720272 -0.000433 -0.003288 -218005.000000 1 0 0
-12.259278 -4.763074 0.950146 13.186339 0.370578 1.498679 0.002700 -0.003865 161709.000000 1 0 0
-4.896178 4.795126 -5.297854 8.662162 -0.774971 2.228889 0.009817 -0.006264 -324865.000000 1 0 0
-11.217578 0.302126 2.214246 11.438016 -0.026927 1.375980 -0.002228 -0.001226 -1039040.000000 1 0 0
-1.355978 2.134926 -4.050354 4.775139 -1.004938 2.583406 0.007292 -0.009180 1012530.000000 1 0 0
3.167222 -9.806674 13.119346 16.682907 -1.258405 0.665846 -0.013316 -0.002342 -2505970.000000 1 0 0
8.894522 4.628926 -1.652254 10.162157 0.479853 1.734110 0.005852 -0.003419 -1515450.000000 1 0 0
4.061922 2.214026 3.776246 5.971696 0.499049 0.886204 -0.003231 0.001226 619284.000000 1 0 0
-5.389578 -3.185174 7.491946 9.763306 0.533766 0.696086 0.004129 -0.004397 87881.400000 1 0 0
1.798822 -5.850274 7.758246 9.881895 -1.272494 0.667944 -0.003963 -0.003555 101822.000000 1 0 0
-5.821678 -6.284174 -9.704954 12.944841 0.823584 2.418429 0.012285 -0.005215 -24366.500000 1 0 0
-11.728278 -5.746174 5.582446 14.203335 0.455569 1.166863 0.015499 -0.006761 -692568.000000 1 0 0
10.554322 6.069326 4.404646 12.947252 0.521876 1.223668 0.003831 -0.001675 -429463.000000 1 0 0
1.411322 -3.746174 0.419746 4.025150 -1.210504 1.466326 0.007559 -0.001946 -1493760.000000 1 0 0
8.854522 4.354026 6.899946 12.040322 0.457009 0.960549 0.001634 -0.000059 -530365.000000 1 0 0
-8.024978 12.089326 3.477546 14.921307 -0.984776 1.335574 0.006604 -0.004127 7315.710000 1 0 0
-6.200878 13.130526 -6.940854 16.094628 -1.129595 2.016677 0.010314 -0.007009 230724.000000 1 0 0
4.399522 -6.859274 -0.999154 8.209978 -1.000492 1.692799 0.002834 -0.006907 86642.900000 1 0 0
-1.936078 -8.135474 11.155946 13.942362 1.337162 0.643255 0.000072 -0.004671 -300349.000000 1 0 0
11.533622 8.742026 -5.683754 15.548393 0.648576 1.945023 0.025096 -0.008558 766738.000000 1 0 0
-3.340978 -2.960774 -1.889254 4.847432 0.725138 1.971149 0.011446 -0.005960 -1401040.000000 1 0 0
-1.966778 5.870326 4.729046 7.790560 -1.247513 0.918488 -0.001935 -0.001728 424247.000000 1 0 0
0.327222 -11.484774 -5.579754 12.772657 -1.542312 2.022892 -0.002259 -0.004608 -799523.000000 1 0 0
-8.950278 6.139326 -1.577654 10.967579 -0.601225 1.715144 0.005788 -0.002609 -1171980.000000 1 0 0
2.873122 -0.062874 3.916546 4.857789 -0.021880 0.633027 -0.001453 -0.000108 339423.000000 1 0 0
-10.222478 3.855526 -1.047854 10.975524 -0.360664 1.666414 0.002995 -0.006253 238494.000000 1 0 0
6.414122 5.496826 13.584246 15.996493 0.708537 0.556325 0.016714 0.000173 -449641.000000 1 0 0
-8.795578 -1.384974 5.679346 10.561028 0.156180 1.003013 0.002033 -0.007508 -69952.800000 1 0 0
12.903622 -1.781374 -1.459154 13.107475 -0.137185 1.682350 0.004277 -0.002119 -2191090.000000 1 0 0
4.969822 -5.583874 5.621346 9.352984 -0.843516 0.926018 0.002886 -0.006015 150744.000000 1 0 0
-8.990078 -1.160474 3.275446 9.638296 0.128374 1.224053 -0.000702 -0.004382 479336.000000 1 0 0
2.042922 5.539726 5.560446 8.110527 1.217493 0.815391 -0.002457 -0.001462 -1027470.000000 1 0 0
9.172122 2.953626 -7.446854 12.178151 0.311536 2.228742 0.004804 0.000309 766444.000000 1 0 0
2.174922 -2.281574 -1.472054 3.478909 -0.809325 2.007701 0.004893 -0.003488 -15636.100000 1 0 0
-6.230578 0.274726 -3.973254 7.394750 -0.044065 2.138038 0.004123 -0.001348 -829826.000000 1 0 0
-4.011778 4.136126 4.897846 7.562460 -0.800658 0.866297 0.002393 -0.003388 774462.000000 1 0 0
-6.411578 1.760926 -12.280054 13.964559 -0.268039 2.645340 0.006903 -0.002766 -2428070.000000 1 0 0
0.011522 3.223726 6.184446 6.974232 1.567222 0.480516 -0.002060 -0.000416 1147500.000000 1 0 0
-8.722178 9.449026 -2.097754 13.029238 -0.825377 1.732504 0.004447 0.000365 -313671.000000 1 0 0
-1.300478 -3.768774 -6.117154 7.301676 1.238523 2.563990 0.003052 -0.004822 450178.000000 1 0 0
-3.291378 7.056226 -3.055054 8.364021 -1.134347 1.944710 0.006801 -0.002568 1182640.000000 1 0 0
7.079722 -0.395374 -4.368954 8.328658 -0.055788 2.123005 0.000564 0.001191 -3463.440000 1 0 0
-5.176878 -10.786574 6.950646 13.836969 1.123327 1.044512 0.007896 -0.005904 -59455.200000 1 0 0
9.891922 8.412526 -1.508354 13.072714 0.704752 1.686436 0.007655 -0.000938 -99415.800000 1 0 0
13.855722 4.668726 -4.321154 15.246325 0.325005 1.858158 0.008997 -0.002041 720658.000000 1 0 0
4.627322 1.146026 -6.885054 8.374333 0.242780 2.535994 -0.000972 -0.000555 -922336.000000 1 0 0
9.094822 -4.799674 3.475946 10.855177 -0.485590 1.244844 0.008166 -0.007607 -1652370.000000 1 0 0
-8.755178 -3.244874 -0.691454 9.362716 0.354928 1.644715 0.000519 -0.001260 573759.000000 1 0 0
-8.507878 -4.350274 -10.442854 14.154931 0.472665 2.400533 0.005476 -0.006144 204707.000000 1 0 0
10.468122 -1.155474 10.653446 14.980408 -0.109935 0.779651 0.019860 -0.004933 339338.000000 1 0 0
2.255922 -11.570174 9.876846 15.378888 -1.378235 0.873387 -0.012309 -0.003772 727596.000000 1 0 0
-6.442878 -10.585674 2.070746 12.564042 1.024047 1.405226 0.010974 -0.003206 -616224.000000 1 0 0
-3.612178 -1.372674 6.608846 7.655645 0.363158 0.529095 0.003189 -0.003578 -2319130.000000 1 0 0
4.708022 -7.509374 3.965946 9.710041 -1.010794 1.150055 0.000540 -0.005487 214121.000000 1 0 0
11.412422 -9.487074 -5.307354 15.761217 -0.693533 1.914244 0.026174 -0.011086 870418.000000 1 0 0
11.277522 1.176026 11.417846 16.091387 0.103905 0.781919 0.039488 -0.004482 464759.000000 1 0 0
-10.178578 -3.439474 4.404346 11.611705 0.325867 1.181754 0.010448 -0.004591 875377.000000 1 0 0
2.126222 8.870626 8.899646 12.744117 1.335542 0.797730 -0.004158 -0.000196 -73230.800000 1 0 0
6.588422 8.752026 4.078346 11.689233 0.925513 1.214402 0.006885 0.000037 1766710.000000 1 0 0
-4.278278 3.443026 0.396246 5.505915 -0.677642 1.498767 0.005309 -0.005261 -2132900.000000 1 0 0
4.913922 6.972726 4.210646 9.512890 0.956900 1.112272 0.001935 0.000134 -1086810.000000 1 0 0
-8.347478 13.226826 1.126046 15.681113 -1.007821 1.498925 0.010150 -0.002168 1462460.000000 1 0 0
8.880422 8.116026 -9.206254 15.148825 0.740455 2.223984 0.009354 -0.006400 -1844810.000000 1 0 0
7.052622 1.935426 5.968946 9.440004 0.267833 0.886274 -0.001772 -0.001194 -1085740.000000 1 0 0
11.636722 -6.210174 3.134746 13.557514 -0.490220 1.337467 0.012329 -0.006531 -18447.200000 1 0 0
11.456122 4.818326 -2.136754 12.610500 0.398129 1.741060 0.005699 -0.001378 1107450.000000 1 0 0
-4.090278 14.504026 -5.943754 16.199548 -1.295925 1.946480 0.001565 0.002402 828615.000000 1 0 0
7.121422 -3.025174 6.917046 10.378432 -0.401700 0.841315 0.004774 -0.005803 -623471.000000 1 0 0
-7.972478 -0.572074 0.966446 8.051192 0.071633 1.450469 0.000681 -0.003952 459260.000000 1 0 0
-3.242178 1.106526 10.679946 11.215942 -0.328895 0.310401 0.007490 -0.000643 -232429.000000 1 0 0
7.192122 -1.335974 -1.913454 7.561267 -0.183662 1.826638 0.005318 0.000416 -2247830.000000 1 0 0
-7.756978 5.264126 2.883846 9.808073 -0.596240 1.272358 0.005582 -0.003652 814586.000000 1 0 0
9.562322 -2.229274 2.842146 10.221813 -0.229040 1.289036 0.007065 -0.005201 -1722980.000000 1 0 0
0.222622 3.428426 1.561746 3.773952 1.505953 1.144147 -0.000637 -0.002280 -3242890.000000 1 0 0
-7.552678 -3.043674 4.025646 9.083651 0.383084 1.111659 -0.000231 -0.004700 576733.000000 1 0 0
-2.289978 8.281826 -6.708454 10.901192 -1.301030 2.233673 0.006502 -0.003082 -219072.000000 1 0 0
4.475022 9.824126 7.353746 13.062039 1.143367 0.972802 0.000578 0.001401 -1630840.000000 1 0 0
-11.770478 -3.080774 6.829446 13.952657 0.255995 1.059311 0.019407 -0.010608 -751622.000000 1 0 0
-4.892678 2.275026 -5.646854 7.810314 -0.435246 2.378931 0.009757 -0.008072 -551473.000000 1 0 0
-2.744278 2.915326 -1.915154 4.438243 -0.815612 2.016964 0.004789 -0.006086 1092470.000000 1 0 0
2.328922 5.223326 11.442546 12.792141 1.151383 0.463489 -0.002092 -0.006668 324371.000000 1 0 0
-0.656178 1.667526 4.549046 4.889277 -1.195903 0.375259 0.000152 -0.000753 -786163.000000 1 0 0
5.014522 1.541126 7.554146 9.197044 0.298170 0.606993 -0.006058 -0.001684 739766.000000 1 0 0
3.302822 -8.179874 1.839546 9.011265 -1.187041 1.365213 0.003215 -0.005110 1748850.000000 1 0 0
4.998922 6.401426 -4.558954 9.314051 0.907806 2.082279 0.006433 -0.002058 -3240860.000000 1 0 0
-4.160078 2.903826 -7.930154 9.414127 -0.609397 2.572458 0.011938 -0.011053 -103931.000000 1 0 0
-8.825578 -2.220774 -12.932254 15.813471 0.246512 2.528374 0.012509 -0.002338 -219857.000000 1 0 0
-7.800178 8.102526 1.302746 11.322140 -0.804408 1.455479 0.004471 -0.000476 -1701550.000000 1 0 0
7.265922 0.926926 -6.645954 9.890476 0.126886 2.307642 -0.001008 0.001913 -603502.000000 1 0 0
9.022222 8.799726 5.543446 13.768278 0.772914 1.156414 0.007236 0.000662 806976.000000 1 0 0
9.410222 -1.172574 -1.412054 9.587550 -0.123967 1.718614 0.005832 -0.000089 1205980.000000 1 0 0
5.429122 -0.002674 4.184546 6.854619 -0.000493 0.914141 -0.001078 -0.000510 -665386.000000 1 0 0
-4.191378 -7.303374 -7.955654 11.584444 1.049792 2.327809 0.012846 -0.007412 -33696.800000 1 0 0
-2.107878 7.385426 -0.642054 7.707133 -1.292778 1.654199 0.004317 -0.003369 209855.000000 1 0 0
13.273222 -3.371874 -7.496054 15.612136 -0.248773 2.071614 0.029111 -0.001582 1078030.000000 1 0 0
-4.781078 -5.028974 1.674446 7.138141 0.810662 1.334013 0.006374 -0.002790 1412760.000000 1 0 0
-8.863978 1.359226 2.594446 9.335349 -0.152157 1.289172 0.001039 -0.005689 -1686630.000000 1 0 0
-0.961378 11.170226 10.063646 15.065695 -1.484942 0.839300 0.000152 -0.009799 377804.000000 1 0 0
-8.553678 0.439926 7.516846 11.395697 -0.051386 0.850481 0.001534 -0.005527 -243548.000000 1 0 0
-6.061278 12.938326 -2.108854 14.442529 -1.132686 1.717337 0.003387 0.000770 734123.000000 1 0 0
-13.085378 -0.879974 3.211546 13.502425 0.067148 1.330645 0.007342 -0.009241 542851.000000 1 0 0
-6.686078 12.812226 8.739346 16.888841 -1.089821 1.026913 0.014966 -0.015062 1140920.000000 1 0 0
-8.096078 0.844426 -13.959054 16.159045 -0.103925 2.613667 0.005978 -0.003735 -180486.000000 1 0 0
7.248822 2.807926 3.663646 8.593729 0.369565 1.130380 0.000834 -0.001542 -1194930.000000 1 0 0
-1.678478 0.582326 -2.054654 2.716246 -0.333944 2.428636 0.006670 -0.008837 26709.100000 1 0 0
-6.388978 9.516426 -10.371854 15.458226 -0.979549 2.306299 0.002403 -0.004263 -299977.000000 1 0 0
-10.067778 13.750626 5.277946 17.840868 -0.938805 1.270467 0.012562 -0.005925 380242.000000 1 0 0
-5.653278 8.238226 2.405646 10.276918 -0.969375 1.334522 0.002350 -0.000154 -624213.000000 1 0 0
-2.483978 -10.688974 -1.218754 11.041271 1.342462 1.681403 0.011883 -0.004132 879414.000000 1 0 0
-2.202778 -12.383374 8.840046 15.373568 1.394756 0.958173 0.004377 -0.000701 516807.000000 1 0 0
-14.755078 -6.471974 -1.673054 16.198700 0.413356 1.674264 0.007424 -0.004333 547563.000000 1 0 0
-2.813878 -9.296374 3.337246 10.270233 1.276878 1.239844 0.008718 -0.005675 -324689.000000 1 0 0
4.640122 -2.638674 7.600246 9.287469 -0.517060 0.612291 -0.003344 -0.000562 -210663.000000 1 0 0
-14.859478 -1.315774 -0.342954 14.921560 0.088317 1.593782 0.001655 -0.011052 -112928.000000 1 0 0
5.478722 8.680726 -2.800454 10.640204 1.007796 1.837129 0.005773 -0.001203 379451.000000 1 0 0
-5.646178 -5.647274 8.500046 11.662839 0.785495 0.754207 0.003779 -0.002932 -2859010.000000 1 0 0
3.438422 3.614526 6.965446 8.567671 0.810362 0.621524 -0.004355 -0.000517 399355.000000 1 0 0
3.332722 2.407826 9.291046 10.160128 0.625655 0.416621 -0.002595 -0.003642 615261.000000 1 0 0
9.971822 -3.256474 5.256246 11.733285 -0.315649 1.106295 0.013832 -0.008341 -576286.000000 1 0 0
6.517522 9.909426 -5.048554 12.890412 0.989021 1.973223 0.003320 -0.000848 163614.000000 1 0 0
-4.538678 11.965026 -8.481854 15.352631 -1.208236 2.156120 -0.002773 -0.002729 -650050.000000 1 0 0
-3.327778 -7.159074 2.266146 8.213517 1.135676 1.291266 0.008849 -0.005757 1379220.000000 1 0 0
-7.453878 -4.097974 1.229146 8.594445 0.502672 1.427288 0.002370 -0.002753 2223160.000000 1 0 0
-1.933778 -4.011174 -10.948854 11.819747 1.121573 2.755318 0.010339 -0.005711 -908679.000000 1 0 0
-5.263578 8.331626 -4.465154 10.819374 -1.007352 1.996212 0.006402 -0.002849 -1022950.000000 1 0 0
-10.950678 -3.269274 -10.054254 15.221482 0.290122 2.292322 0.015125 -0.002185 763535.000000 1 0 0
4.678022 -11.255074 -7.717454 14.426354 -1.176883 2.135251 0.003191 -0.004065 -2568450.000000 1 0 0
-9.338678 -3.900574 7.274546 12.463723 0.395654 0.947571 0.004982 -0.005674 -1093570.000000 1 0 0
-5.809578 -9.614574 -5.111154 12.341601 1.027260 1.997794 0.015124 -0.007884 508837.000000 1 0 0
4.688322 4.295826 -9.390054 11.340529 0.741738 2.546343 0.000788 0.001428 -27357.100000 1 0 0
-3.503978 -7.146974 -14.085854 16.179258 1.114959 2.627241 0.002691 -0.003324 -165597.000000 1 0 0
0.715322 -0.933774 -8.762054 8.840657 -0.917099 3.008144 0.002526 -0.007272 -154199.000000 1 0 0
-7.749878 2.079726 -2.985754 8.561577 -0.262179 1.927021 0.004138 -0.003631 -588457.000000 1 0 0
-2.391078 7.402226 -12.592054 14.801014 -1.258355 2.588219 0.006658 -0.002259 129288.000000 1 0 0
-9.851078 8.860926 7.519346 15.234839 -0.732532 1.054615 0.011176 -0.009808 67005.200000 1 0 0
-10.764778 -3.098474 -14.318454 18.179634 0.280259 2.477716 0.026734 0.006736 -449137.000000 1 0 0
-3.322078 4.822726 7.844246 9.789131 -0.967601 0.641295 0.002895 -0.002732 35382.200000 1 0 0
8.744322 -2.355274 -3.586354 9.740247 -0.263105 1.947868 0.003062 0.001687 -5673270.000000 1 0 0
2.006822 -8.383174 -1.071154 8.686329 -1.335831 1.694426 0.001100 -0.003276 427102.000000 1 0 0
-13.592878 -2.936074 5.047046 14.793902 0.212733 1.222649 0.028497 -0.012526 483484.000000 1 0 0
7.022522 2.704026 -1.975854 7.780204 0.367553 1.827568 0.004420 -0.002031 1125310.000000 1 0 0
-11.125578 4.419126 8.807646 14.862092 -0.378094 0.936483 0.003983 -0.006223 -2524030.000000 1 0 0
-1.742678 -2.551774 8.040446 8.613782 0.971620 0.366912 -0.000715 -0.003361 -1423960.000000 1 0 0
3.155922 11.921526 -9.836154 15.774427 1.312008 2.244073 0.005338 -0.007248 705310.000000 1 0 0
3.682422 -5.061174 -7.115254 9.476421 -0.941797 2.420126 -0.009549 -0.002710 220564.000000 1 0 0
8.066722 -13.975974 -9.750554 18.853996 -1.047322 2.114327 0.038445 -0.003448 7933.890000 1 0 0
-6.282078 -5.772774 -0.347954 8.538764 0.743174 1.611558 0.011253 -0.003612 -326625.000000 1 0 0
-1.181278 -4.048374 9.951446 10.808146 1.286888 0.400835 -0.000659 -0.002757 818522.000000 1 0 0
2.745922 3.196226 1.808346 4.585419 0.861035 1.165415 -0.003199 -0.002177 -1129870.000000 1 0 0
-9.159878 13.436626 7.787746 18.030398 -0.972452 1.124172 0.024418 -0.020675 244845.000000 1 0 0
4.052522 -11.095674 0.004446 11.812575 -1.220615 1.570420 0.004493 -0.006745 167840.000000 1 0 0
-12.519678 -1.415374 -9.064754 15.521449 0.112574 2.194462 0.015718 -0.003240 145609.000000 1 0 0
-4.193178 1.005926 -13.467954 14.141443 -0.235447 2.831728 0.009114 -0.004985 632604.000000 1 0 0
3.961122 -3.113774 5.014646 7.108639 -0.666198 0.787767 -0.001535 0.001119 -29613.900000 1 0 0
1.728322 -1.214574 1.098946 2.381170 -0.612567 1.091094 -0.000046 -0.002423 968504.000000 1 0 0
8.185922 -8.922474 7.370146 14.175292 -0.828424 1.024028 0.005524 -0.007868 -1433250.000000 1 0 0
-0.102478 2.243726 -6.374354 6.758491 -1.525155 2.802817 0.004804 -0.008177 -726244.000000 1 0 0
-3.853078 -9.769674 -3.394654 11.037047 1.195134 1.883433 0.014821 -0.005255 816661.000000 1 0 0
-9.475178 2.193026 -5.441154 11.144259 -0.227445 2.080877 0.005053 -0.003945 -1486900.000000 1 0 0
8.944122 -7.568574 5.310846 12.864125 -0.702288 1.145225 0.005355 -0.008158 1442510.000000 1 0 0
-5.511778 -4.329474 4.758146 8.471363 0.665834 0.974388 0.001149 -0.003295 -943551.000000 1 0 0
-0.153978 -12.362974 10.475546 16.205058 1.558342 0.867891 -0.000458 -0.001759 -2041670.000000 1 0 0
-14.320078 -8.307774 3.197946 16.861512 0.525695 1.379981 0.015836 -0.008293 -1148700.000000 1 0 0
10.884022 -1.274674 -3.705454 11.567935 -0.116583 1.896865 0.011822 -0.000100 -176808.000000 1 0 0
-13.692078 2.901126 2.605046 14.236425 -0.208796 1.386775 0.001175 -0.007292 207786.000000 1 0 0
-6.254178 6.105726 0.913646 8.788025 -0.773388 1.466643 0.004338 -0.002431 495188.000000 1 0 0
7.212822 -6.805774 -0.837954 9.952162 -0.756370 1.655094 0.005929 -0.008944 740298.000000 1 0 0
-6.826678 7.841426 9.965446 14.401445 -0.854469 0.806574 0.000097 -0.003717 164056.000000 1 0 0
-12.577878 -5.221774 -1.968154 13.760217 0.393503 1.714321 -0.002766 -0.003580 -2617980.000000 1 0 0
-9.381078 -5.616974 0.250746 10.936996 0.539504 1.547868 0.002569 -0.002103 -1022750.000000 1 0 0
-1.820778 1.890426 2.238546 3.449642 -0.804163 0.864631 0.002153 -0.002698 28546.400000 1 0 0
-7.062578 7.294626 7.530746 12.641349 -0.801559 0.932630 0.003734 -0.004984 -10008.500000 1 0 0
5.686822 7.104526 -0.471154 9.112421 0.895781 1.622524 0.006857 -0.002049 -1111640.000000 1 0 0
-0.014578 -4.085874 7.600146 8.628835 1.567228 0.493280 -0.001818 -0.002243 -325802.000000 1 0 0
6.421022 0.793126 13.002446 14.523160 0.122898 0.461714 0.011723 -0.002870 605908.000000 1 0 0
5.825222 6.110926 -7.949654 11.596277 0.809330 2.326135 -0.002094 0.000107 -967327.000000 1 0 0
9.969222 5.328526 9.097046 14.509818 0.490863 0.893154 0.004641 -0.006182 -2035970.000000 1 0 0
-1.218678 -4.973374 -8.464254 9.892584 1.330491 2.597536 0.010233 -0.005016 558036.000000 1 0 0
9.893122 -3.582374 -7.991854 13.212759 -0.347420 2.220385 0.008442 -0.003493 243795.000000 1 0 0
8.110622 -5.892074 1.367946 10.117806 -0.628267 1.435179 0.005261 -0.007033 1039540.000000 1 0 0
15.831122 3.119326 -5.066154 16.912142 0.194545 1.875025 0.025714 0.003540 159757.000000 1 0 0
-6.832678 3.548126 1.138346 7.782706 -0.478959 1.424004 0.004912 -0.005640 -92464.500000 1 0 0
-1.811678 3.772926 0.246946 4.192628 -1.123131 1.511862 0.002162 -0.006498 -1178090.000000 1 0 0
-2.633478 9.995626 6.881146 12.417645 -1.313187 0.983464 -0.000456 -0.000764 168059.000000 1 0 0
5.527322 -5.803774 -8.842954 11.934526 -0.809791 2.405289 -0.007244 -0.003934 1179620.000000 1 0 0
-1.144478 -0.877774 6.310746 6.473471 0.654270 0.224692 -0.001392 -0.003067 85074.200000 1 0 0
-5.735178 4.932526 -7.784154 10.854268 -0.710298 2.370503 0.008931 -0.006533 86091.900000 1 0 0
6.844122 -1.292574 2.448046 7.382797 -0.186660 1.232810 0.004921 -0.002466 -1008220.000000 1 0 0
8.874022 7.593326 3.200946 12.110034 0.707783 1.303296 0.007631 -0.001865 -115453.000000 1 0 0
-5.297278 -4.896574 -7.798554 10.623325 0.746110 2.395133 0.013676 -0.008857 1863040.000000 1 0 0
-2.227078 7.770626 -10.107354 12.942222 -1.291676 2.466997 0.008517 -0.001695 1021350.000000 1 0 0
-2.787578 -2.174074 1.619346 3.888376 0.662373 1.141250 0.001746 -0.002063 -840003.000000 1 0 0
5.950122 -2.113374 -9.386254 11.312474 -0.341283 2.549413 -0.005062 0.000333 1115290.000000 1 0 0
1.129822 -7.572574 5.179846 9.243981 -1.422690 0.975990 -0.000475 -0.002899 60950.400000 1 0 0
1.739922 11.694426 1.192146 11.883103 1.423098 1.470304 0.003519 -0.004907 467568.000000 1 0 0
-1.121078 7.038326 2.487846 7.548790 -1.412841 1.234949 0.000576 -0.000815 630772.000000 1 0 0
8.571122 7.767326 -6.727654 13.381211 0.736241 2.097595 0.008410 -0.000558 -118000.000000 1 0 0
3.739822 -11.004874 5.471346 12.846367 -1.243207 1.130833 0.002199 -0.005429 1101070.000000 1 0 0
7.872222 -7.079174 12.416346 16.317237 -0.732406 0.706044 0.012706 -0.007512 419265.000000 1 0 0
-8.754878 -0.022374 -3.870554 9.572334 0.002556 1.987062 0.001124 -0.002347 -1082110.000000 1 0 0
-3.262878 -4.994674 11.328746 12.803657 0.992125 0.484720 0.004244 -0.005038 872452.000000 1 0 0
-8.191378 0.080926 -11.652954 14.244176 -0.009879 2.528870 0.004451 -0.003648 -1368540.000000 1 0 0
1.378622 -5.064174 5.424546 7.547990 -1.305007 0.768903 -0.001587 -0.001317 -325516.000000 1 0 0
6.653822 3.682326 -7.774554 10.875503 0.505461 2.367232 0.000531 -0.000623 -2785720.000000 1 0 0
16.274622 4.178026 -1.332454 16.855108 0.251294 1.649932 0.004572 0.007554 -2356920.000000 1 0 0
7.979422 7.433426 0.044546 10.905457 0.749988 1.566712 0.008883 -0.005088 -1284400.000000 1 0 0
5.415722 -10.377774 13.918446 18.186571 -1.089816 0.699267 -0.010612 -0.007145 -80084.700000 1 0 0
-5.166078 -9.266074 9.028346 13.930525 1.062193 0.865712 0.002300 -0.005706 443849.000000 1 0 0
-12.541978 -3.257274 2.879546 13.274141 0.254096 1.352129 0.008292 -0.007005 -163048.000000 1 0 0
-1.968178 -1.300774 -5.805554 6.266593 0.584001 2.755610 0.010666 -0.009669 -187377.000000 1 0 0
-2.657978 13.015526 -4.322154 13.969602 -1.369350 1.885355 0.004816 0.004510 240774.000000 1 0 0
3.983822 -0.440974 -5.000154 6.408341 -0.110242 2.465873 -0.002286 -0.000779 -272583.000000 1 0 0
-9.030378 3.791926 -7.398254 12.274388 -0.397550 2.217726 0.003952 -0.004500 760872.000000 1 0 0
-4.566378 8.001426 -11.365954 14.630774 -1.052203 2.460448 0.010156 -0.003071 -2418540.000000 1 0 0
-10.110878 -6.355174 7.428546 14.064188 0.561147 1.014330 0.009761 -0.004502 -1078760.000000 1 0 0
8.098322 5.206326 4.056746 10.447289 0.571360 1.172004 0.002450 -0.000119 -1103520.000000 1 0 0
-6.739178 -7.575574 4.033046 10.911980 0.843761 1.192220 0.009177 -0.002166 -1045330.000000 1 0 0
-4.145278 11.851526 8.049446 14.914274 -1.234329 1.000699 0.003984 -0.010070 132323.000000 1 0 0
-7.321478 9.879126 -7.935354 14.634583 -0.933012 2.143889 0.006111 -0.006482 -529006.000000 1 0 0
13.156422 5.385226 4.591446 14.938992 0.388518 1.258393 0.001137 -0.003409 -1661160.000000 1 0 0
5.379622 3.989426 -3.712954 7.657799 0.638091 2.076998 0.003442 -0.001451 495747.000000 1 0 0
-2.824778 -4.211474 5.213946 7.273315 0.979983 0.771509 0.003386 -0.001347 -566232.000000 1 0 0
12.468722 -2.255374 -5.435554 13.787712 -0.178948 1.976028 0.013362 -0.005553 -921587.000000 1 0 0
-5.313978 9.842626 6.945446 13.166430 -1.075745 1.015127 0.002661 -0.000460 -72851.600000 1 0 0
1.798422 3.750626 -0.493454 4.188677 1.123683 1.688877 0.000597 -0.005095 602687.000000 1 0 0
-0.185078 9.553026 7.667446 12.250889 -1.551425 0.894552 -0.002590 -0.000122 -218801.000000 1 0 0
-5.431578 1.942426 5.862146 8.224343 -0.343445 0.777343 0.004396 -0.004846 828936.000000 1 0 0
8.891822 0.949826 10.567046 13.843017 0.106417 0.702315 0.014847 -0.001520 -987951.000000 1 0 0
0.426022 -2.907474 -10.211954 10.626331 -1.425305 2.861409 0.002130 -0.003740 -2200600.000000 1 0 0
1.279622 10.641626 -2.764654 11.069099 1.451124 1.823232 0.005354 -0.002576 -1110720.000000 1 0 0
2.335322 -4.254274 11.704246 12.670515 -1.068771 0.393067 -0.001628 -0.003598 -487800.000000 1 0 0
6.586822 -3.000374 9.458346 11.910029 -0.427428 0.653189 0.004529 -0.002666 221436.000000 1 0 0
-10.555278 -8.190074 5.713246 14.530395 0.659886 1.166695 0.012691 -0.005577 -590637.000000 1 0 0
-3.065978 0.804626 -6.866054 7.562430 -0.256649 2.709082 0.013877 -0.009720 296120.000000 1 0 0
11.167322 2.670426 -5.060154 12.547726 0.234721 1.985887 0.007972 -0.000169 -3989260.000000 1 0 0
-2.082578 -4.110574 0.016146 4.608059 1.101851 1.567292 0.004750 -0.003247 844395.000000 1 0 0
-1.231478 -6.464974 -10.558254 12.441429 1.382567 2.584199 0.006102 -0.002106 589142.000000 1 0 0
0.288522 6.681526 -6.559654 9.367769 1.527641 2.346525 0.008698 -0.000497 -2588750.000000 1 0 0
2.111422 3.730226 -6.058954 7.421834 1.055729 2.525892 0.001304 -0.004537 -1515860.000000 1 0 0
1.666822 -14.698374 6.407146 16.120546 -1.457877 1.162058 0.013141 -0.008500 -55989.400000 1 0 0
-1.581578 5.317226 -10.545654 11.915750 -1.281686 2.657329 0.010129 -0.001713 -378727.000000 1 0 0
13.654122 4.390026 -0.866354 14.368645 0.311078 1.631128 0.002773 -0.001322 -3364030.000000 1 0 0
-2.464178 3.269626 -6.130254 7.371746 -0.924959 2.552757 0.010781 -0.008845 -1208740.000000 1 0 0
5.605022 7.904126 14.096646 17.105757 0.953972 0.602206 0.019100 -0.008443 614811.000000 1 0 0
16.028222 0.577726 -5.748854 17.037811 0.036029 1.914968 0.038855 0.000159 385875.000000 1 0 0
6.104322 -8.176374 10.597246 14.711134 -0.929487 0.766482 -0.005682 -0.000103 631990.000000 1 0 0
0.067222 -5.898174 -6.297654 8.628640 -1.559400 2.388906 -0.000998 -0.003667 -1846850.000000 1 0 0
8.558522 5.427426 -7.577654 12.654094 0.565155 2.212836 0.003684 -0.000024 -1043480.000000 1 0 0
-15.994578 -0.845374 5.210146 16.843004 0.052805 1.256302 0.028897 -0.016611 -436634.000000 1 0 0
-0.339078 4.013126 -12.295654 12.938441 -1.486504 2.825057 0.008230 -0.001296 420788.000000 1 0 0
-11.338878 3.607026 5.914546 13.287688 -0.307989 1.109494 0.004616 -0.008418 -862823.000000 1 0 0
5.128422 -9.699574 -9.736154 14.668849 -1.084432 2.296591 -0.006860 -0.002082 103346.000000 1 0 0
1.498122 11.236026 -11.533154 16.171156 1.438246 2.364839 0.007846 -0.003553 -2370610.000000 1 0 0
5.998522 2.350526 1.159046 6.546039 0.373462 1.392797 0.005616 -0.001003 -56309.700000 1 0 0
5.650022 4.545526 4.814846 8.704441 0.677488 0.984658 -0.003087 -0.000495 -665243.000000 1 0 0
0.481222 -1.646874 -6.281654 6.511754 -1.286508 2.874961 0.000959 -0.005485 -610893.000000 1 0 0
12.643722 6.761726 -4.581054 15.052266 0.491090 1.880045 0.008873 -0.005193 -238676.000000 1 0 0
7.415122 3.241226 12.582446 14.960198 0.412083 0.571554 0.014913 -0.001381 -244578.000000 1 0 0
-2.501378 -0.303374 8.693046 9.050855 0.120693 0.282122 0.001661 -0.002298 332529.000000 1 0 0
2.251422 -15.161974 13.374846 20.343079 -1.423382 0.853348 -0.002108 -0.001013 -378074.000000 1 0 0
18.840022 4.538826 -1.840554 19.466253 0.236409 1.665489 0.007153 0.004428 1043270.000000 1 0 0
-0.289078 -13.170774 7.231346 15.028147 1.548851 1.068788 0.004363 -0.004915 -1901000.000000 1 0 0
4.408122 1.583826 -0.643754 4.728051 0.344933 1.707377 0.004049 -0.003082 175039.000000 1 0 0
2.775522 -0.482774 -7.346254 7.867912 -0.172217 2.775402 -0.004572 -0.001323 366178.000000 1 0 0
7.276922 -11.150074 0.891846 13.344405 -0.992571 1.503914 0.002358 -0.005240 365664.000000 1 0 0
-11.738778 -7.365274 1.332046 13.921943 0.560346 1.474970 0.007407 -0.002895 95848.900000 1 0 0
0.167622 -7.047774 9.928646 12.176914 -1.547017 0.617435 -0.002907 -0.001055 -2065110.000000 1 0 0
-4.690978 -7.150374 10.579746 13.603828 0.990182 0.679792 0.005866 -0.003469 -920471.000000 1 0 0
11.888622 0.800626 -1.651054 12.029394 0.067242 1.708483 0.001854 0.001360 207904.000000 1 0 0
6.465622 -9.536974 -7.517654 13.757662 -0.975021 2.148897 -0.001034 -0.004886 -1630690.000000 1 0 0
-11.007378 4.849126 3.487146 12.523441 -0.414954 1.288617 0.000381 -0.005978 311440.000000 1 0 0
6.018122 -8.972574 1.976646 10.983260 -0.979990 1.389841 0.002676 -0.007016 4616480.000000 1 0 0
11.592722 -1.267674 5.879546 13.060140 -0.108918 1.103818 0.017635 -0.009836 1071180.000000 1 0 0
-6.503578 3.484026 4.221746 8.500477 -0.491805 1.051064 0.004951 -0.007087 -1210680.000000 1 0 0
9.513722 6.339026 -3.247654 11.884503 0.587751 1.847585 0.005370 -0.001507 -105417.000000 1 0 0
-2.293478 6.594626 10.907246 12.950566 -1.236101 0.569406 0.000724 -0.003283 -503918.000000 1 0 0
1.909922 9.834226 3.033046 10.467052 1.378973 1.276809 0.000336 -0.003829 -292301.000000 1 0 0
2.832122 6.108426 -5.505254 8.697218 1.136656 2.256206 0.001118 -0.003367 -2474250.000000 1 0 0
11.937022 0.140626 -5.738254 13.245370 0.011780 2.018867 0.013625 0.000114 621343.000000 1 0 0
-2.600878 -12.508674 6.255146 14.225271 1.365791 1.115509 0.009118 -0.005449 25301.600000 1 0 0
10.823622 1.845326 -2.805554 11.332571 0.168867 1.820963 0.006640 0.001307 463263.000000 1 0 0
-8.864278 5.222026 0.799946 10.319152 -0.532373 1.493198 0.001503 -0.003892 303884.000000 1 0 0
1.159722 -10.136974 5.598446 11.638118 -1.456886 1.068951 0.000608 -0.007044 -366758.000000 1 0 0
9.553422 -5.605374 -0.914954 11.114191 -0.530612 1.653213 0.008334 -0.004132 -95853.200000 1 0 0
-7.838278 8.594226 -4.484754 12.466449 -0.831369 1.938792 0.004636 -0.003312 -1120730.000000 1 0 0
-7.464778 -0.079074 -1.571254 7.628761 0.010593 1.778246 0.001107 -0.003047 -952352.000000 1 0 0
4.196622 8.723526 2.556846 10.012443 1.122407 1.312569 0.007119 -0.004748 1597290.000000 1 0 0
-1.386578 -10.421574 -3.688654 11.141722 1.438524 1.908230 0.009631 -0.001585 -1673660.000000 1 0 0
3.130822 7.911426 -3.699954 9.278059 1.193973 1.980988 0.007889 -0.003155 -193328.000000 1 0 0
-4.392878 1.638426 -10.918454 11.882527 -0.356993 2.735994 0.008434 -0.004893 -211666.000000 1 0 0
1.369222 2.798726 10.964746 11.398829 1.115801 0.276859 -0.001144 -0.002755 456656.000000 1 0 0
2.196422 5.480526 -7.964254 9.914120 1.189628 2.503653 0.003603 -0.000909 767563.000000 1 0 0
15.474722 6.259826 3.977246 17.160155 0.384396 1.336897 0.008099 -0.010407 355862.000000 1 0 0
-4.458978 9.039426 4.598246 11.078699 -1.112538 1.142795 0.003697 -0.000728 -6431.920000 1 0 0
-0.963678 -8.176974 -12.440354 14.918243 1.453485 2.556937 -0.000266 -0.000662 144385.000000 1 0 0
14.211522 -4.195774 -5.300654 15.737497 -0.287082 1.914330 0.027847 -0.001925 50795.700000 1 0 0
-5.965378 -6.226874 -5.639654 10.303659 0.806843 2.149985 0.015015 -0.005861 200440.000000 1 0 0
-8.901378 2.611026 -12.065754 15.219540 -0.285325 2.486154 0.010514 -0.006701 -530352.000000 1 0 0
10.498222 5.346226 13.773846 18.124945 0.471021 0.707578 0.033007 -0.003064 742550.000000 1 0 0
-0.413478 10.803326 5.529746 12.143348 -1.532542 1.098006 0.000399 0.001648 265668.000000 1 0 0
0.290322 11.269726 -0.722154 11.296571 1.545041 1.634767 0.003809 -0.004018 202165.000000 1 0 0
-1.473878 -0.519274 3.728546 4.042773 0.338738 0.396873 0.001361 -0.001825 307253.000000 1 0 0
-4.782278 6.691426 8.777846 12.028963 -0.950281 0.752875 0.003843 -0.001884 -1533380.000000 1 0 0
3.482622 -8.836674 -11.555354 14.957997 -1.195378 2.453597 -0.008146 0.002031 1925770.000000 1 0 0
6.712822 -3.764474 12.071446 14.316182 -0.511088 0.567583 0.010150 -0.003060 -203819.000000 1 0 0
-2.425678 -1.969574 -12.520454 12.904453 0.681996 2.897028 0.008999 -0.007777 956717.000000 1 0 0
-16.214278 -4.870174 5.462346 17.789284 0.291790 1.258696 0.048807 -0.014616 716871.000000 1 0 0
-8.990478 7.238326 5.726246 12.884562 -0.677849 1.110262 0.003209 -0.004390 -3901670.000000 1 0 0
-12.897278 1.515526 5.988146 14.300157 -0.116971 1.138731 0.003749 -0.010279 406310.000000 1 0 0
-3.503378 3.648326 10.128446 11.321191 -0.805663 0.463160 0.007236 -0.002653 582424.000000 1 0 0
2.062222 -12.199674 -1.047154 12.416978 -1.403340 1.655229 0.009326 -0.007171 -3621990.000000 1 0 0
10.145522 -5.361774 -3.570054 12.017717 -0.486176 1.872415 0.013825 -0.003778 464431.000000 1 0 0
2.953622 -13.330674 1.048346 13.694151 -1.352753 1.494167 0.007469 -0.008855 497778.000000 1 0 0
10.017922 -1.613374 -6.203654 11.893152 -0.159678 2.119540 0.012191 0.000243 232425.000000 1 0 0
11.962522 -5.384274 -1.576554 13.212792 -0.422933 1.690402 0.013127 -0.005589 -892981.000000 1 0 0
1.448022 0.955726 5.947146 6.195057 0.583388 0.283857 -0.001577 -0.000616 -34825.400000 1 0 0
-10.848678 11.767526 6.547346 17.292664 -0.826004 1.182492 0.017439 -0.009243 -317861.000000 1 0 0
4.861622 -13.852774 2.957046 14.975942 -1.233276 1.372037 0.009240 -0.010452 -3058410.000000 1 0 0
5.379522 -3.534174 -1.750654 6.670415 -0.581258 1.836357 0.001647 -0.000655 -1368810.000000 1 0 0
2.111322 -2.964774 -7.725854 8.540280 -0.951972 2.701324 -0.006944 -0.000368 -162429.000000 1 0 0
-2.916278 14.832826 -8.741954 17.462507 -1.376663 2.095103 0.006217 -0.007238 -1845660.000000 1 0 0
-2.358078 5.989826 -8.099654 10.346156 -1.195750 2.470055 0.012237 -0.005611 -458001.000000 1 0 0
2.510822 -3.697174 -11.457354 12.298141 -0.974222 2.769677 -0.003086 -0.002524 -1989030.000000 1 0 0
14.668422 2.801526 -2.655854 15.167884 0.188718 1.746801 0.015134 0.003880 307957.000000 1 0 0
-3.514878 13.073826 2.357146 13.741741 -1.308158 1.398412 0.002357 -0.001834 -917145.000000 1 0 0
7.774122 -5.069174 14.119946 16.896934 -0.577820 0.581479 0.017462 -0.011592 -596502.000000 1 0 0
-11.543278 7.228726 2.741146 13.893006 -0.559482 1.372189 -0.001669 -0.004231 1009770.000000 1 0 0
-2.265078 11.874426 4.071746 12.755849 -1.382308 1.245905 0.001591 -0.002427 303825.000000 1 0 0
1.810022 1.382226 0.605546 2.356569 0.652181 1.310920 -0.001221 -0.003869 -1219080.000000 1 0 0
-6.871478 8.544626 5.228746 12.147742 -0.893508 1.125828 0.001318 -0.001350 -1117390.000000 1 0 0
-1.040378 9.067726 0.973546 9.178989 -1.456562 1.464534 0.001815 -0.001440 718174.000000 1 0 0
4.944122 13.070726 -8.450354 16.330851 1.209171 2.114661 0.022331 -0.013274 -1554040.000000 1 0 0
8.957922 6.866826 7.193446 13.384444 0.654018 1.003388 -0.001736 -0.002142 -1390610.000000 1 0 0
7.276122 -13.570674 2.829946 15.656109 -1.078637 1.389041 0.008048 -0.007281 -208775.000000 1 0 0
4.191922 -13.486274 -1.150654 14.169538 -1.269435 1.652092 0.003997 0.001457 -2944160.000000 1 0 0
12.248922 -11.738874 -4.645054 17.590162 -0.764139 1.838037 0.033056 -0.004923 -389956.000000 1 0 0
3.096922 -0.081174 -2.057554 3.719011 -0.026205 2.157061 0.002589 -0.003087 1001610.000000 1 0 0
-13.543078 -3.272574 -10.652154 17.538332 0.237097 2.223535 0.023325 -0.004230 439578.000000 1 0 0
-6.658778 13.666126 4.956846 15.989767 -1.117403 1.255602 0.014005 -0.008923 326746.000000 1 0 0
7.400022 -4.230674 -0.474954 8.537243 -0.519359 1.626458 0.003724 -0.000899 -312822.000000 1 0 0
11.776022 2.205926 -7.292654 14.025819 0.185177 2.117583 0.016302 -0.000022 -407535.000000 1 0 0
-7.459178 -4.412874 9.685346 12.996873 0.534223 0.729953 0.011530 -0.004554 425900.000000 1 0 0
1.018222 2.784726 8.398646 8.906668 1.220252 0.339379 -0.003516 -0.002274 -1670780.000000 1 0 0
1.571722 7.974726 -8.647554 11.867888 1.376202 2.387147 0.005923 -0.002012 -74567.100000 1 0 0
-8.549078 -2.120474 -5.525554 10.397831 0.243129 2.131065 0.008778 -0.002362 -1214470.000000 1 0 0
6.609522 -0.448474 6.950246 9.601710 -0.067749 0.761423 -0.000201 -0.001747 18967.400000 1 0 0
-10.900378 6.465326 7.158446 14.555481 -0.535352 1.056636 0.007078 -0.006977 285062.000000 1 0 0
-5.993278 11.074326 4.760146 13.461763 -1.074745 1.209374 0.001648 -0.001807 772764.000000 1 0 0
5.971022 -1.190974 -7.046754 9.312801 -0.196875 2.429007 -0.004228 0.001245 -406422.000000 1 0 0
4.501722 -5.754374 11.490246 13.616316 -0.906933 0.566362 -0.000251 -0.004158 -1740460.000000 1 0 0
-9.107378 -7.370674 2.828546 12.052877 0.680391 1.333909 0.004355 -0.003923 -1723180.000000 1 0 0
-1.400478 12.667526 -9.269054 15.758900 -1.460687 2.199602 0.015145 -0.004099 333746.000000 1 0 0
-4.580178 9.237626 -2.319554 10.568448 -1.110500 1.792077 0.002565 -0.002137 586966.000000 1 0 0
-3.247678 9.655626 -0.293154 10.191392 -1.246332 1.599565 0.003190 -0.002987 -688505.000000 1 0 0
-3.443878 10.597526 -6.436654 12.868503 -1.256592 2.094611 0.005570 0.000922 1142950.000000 1 0 0
4.902922 -4.939974 0.297146 6.966368 -0.789162 1.528129 0.003602 -0.002187 -1359250.000000 1 0 0
-2.205778 2.922426 -10.878154 11.477816 -0.924245 2.816918 0.010638 -0.002794 -1359240.000000 1 0 0
-3.553178 11.995726 -2.133054 12.691432 -1.282826 1.739668 0.001494 0.001770 -828707.000000 1 0 0
-0.275578 0.342926 0.063746 0.444528 -0.893860 1.426899 0.000903 -0.004248 -1436040.000000 1 0 0
-4.826878 -1.758674 0.141446 5.139230 0.349401 1.543270 0.003194 -0.002810 19574.100000 1 0 0
2.568322 2.500926 -2.511654 4.377136 0.772104 2.181949 -0.001816 -0.004098 1674880.000000 1 0 0
6.084322 -9.580774 8.495046 14.176601 -1.004999 0.928257 -0.003907 -0.003654 -1064010.000000 1 0 0
-4.266678 -5.590674 6.673446 9.695105 0.918915 0.811610 0.001902 -0.003555 -49770.700000 1 0 0
-6.352978 5.264726 -12.096854 14.642798 -0.691999 2.543001 0.006306 -0.004583 773473.000000 1 0 0
-13.139578 3.175226 7.879846 15.646806 -0.237108 1.043027 0.006140 -0.009734 808638.000000 1 0 0
4.732622 -7.482574 -5.114454 10.224689 -1.006832 2.094633 -0.006573 -0.003995 416711.000000 1 0 0
-6.101178 2.497026 -1.099654 6.683468 -0.388472 1.736081 0.005800 -0.005880 -461507.000000 1 0 0
-6.911678 -2.738974 -14.533054 16.324305 0.377297 2.668736 0.007976 -0.003825 704689.000000 1 0 0
2.709222 -5.980174 1.002646 6.641360 -1.145422 1.419247 0.003509 -0.003478 -137277.000000 1 0 0
4.895722 -7.847374 13.142146 16.070637 -1.013012 0.613264 -0.005494 -0.005430 91322.100000 1 0 0
-10.052678 -1.620774 8.060046 12.986438 0.159852 0.901224 0.010659 -0.005097 -206420.000000 1 0 0
-4.405578 13.249426 -0.045454 13.962753 -1.249786 1.574052 0.003348 -0.000373 454463.000000 1 0 0
6.934422 2.224726 -4.436854 8.527678 0.310450 2.117985 0.003544 0.001022 -1680170.000000 1 0 0
5.050422 4.476926 0.055846 6.749278 0.725276 1.562522 0.002318 -0.002346 -765447.000000 1 0 0
-5.990078 12.315526 1.858846 13.820583 -1.118101 1.435889 0.006037 -0.001599 -1301040.000000 1 0 0
6.497922 -7.290974 6.606646 11.791059 -0.842849 0.976037 0.000822 -0.006097 -1543570.000000 1 0 0
-0.261178 5.024526 7.655546 9.160866 -1.518862 0.581428 -0.000967 -0.000919 -947787.000000 1 0 0
-5.804278 -3.499574 -1.532254 6.948702 0.542571 1.793133 0.007047 -0.003375 -856242.000000 1 0 0
2.352122 -6.620274 -5.245954 8.768155 -1.229416 2.212169 -0.005660 -0.001877 -1041500.000000 1 0 0
-14.397278 -4.898174 -3.713454 15.654503 0.327931 1.810292 0.003279 -0.006921 61310.400000 1 0 0
-12.403878 -5.213574 -6.274554 14.846130 0.397898 2.007152 0.010902 -0.006691 -1188010.000000 1 0 0
-14.708778 -3.857574 -1.234254 15.256225 0.256487 1.651787 0.000957 -0.006908 532618.000000 1 0 0
11.857922 3.009126 8.607146 14.958212 0.248519 0.957688 0.011263 -0.008249 -1090330.000000 1 0 0
8.728722 -6.530374 7.694346 13.343138 -0.642315 0.956172 0.007294 -0.010429 -212268.000000 1 0 0
-8.747378 -1.786974 -9.737054 13.210606 0.201514 2.399511 0.004937 -0.004620 -330615.000000 1 0 0
-8.857378 5.176426 -3.942854 10.990661 -0.528885 1.937720 0.006695 -0.004204 -589948.000000 1 0 0
-4.106878 -6.160074 4.151446 8.488077 0.982776 1.059749 0.005727 -0.002601 -1088910.000000 1 0 0
-0.171778 -9.226974 3.608646 9.909030 1.552182 1.198047 0.004419 -0.005454 776743.000000 1 0 0
7.922622 -10.279974 3.334546 13.400187 -0.914188 1.319311 0.002613 -0.008880 362911.000000 1 0 0
-0.029978 6.586126 9.563146 11.611706 -1.566245 0.603106 -0.005225 -0.004480 -135384.000000 1 0 0
-0.037578 3.385826 -9.698754 10.272831 -1.559698 2.805701 0.007675 -0.002817 -887344.000000 1 0 0
4.485922 -3.093874 11.037246 12.309198 -0.603770 0.458615 0.000480 -0.003842 -1821940.000000 1 0 0
8.697322 -9.090474 1.306646 12.648615 -0.807497 1.467308 0.004167 -0.006537 -1300740.000000 1 0 0
-0.294978 -0.320774 11.367446 11.375796 0.827267 0.038317 0.006600 -0.001348 -622923.000000 1 0 0
10.939222 6.027826 11.401746 16.911566 0.503633 0.830918 0.028445 -0.001018 219805.000000 1 0 0
-6.443178 -2.935374 -11.839454 13.795058 0.427483 2.602625 0.009705 -0.005554 124142.000000 1 0 0
-1.635478 2.878126 8.329246 8.962965 -1.054054 0.378295 0.002770 -0.002556 -504024.000000 1 0 0
-1.779278 13.553826 -6.826354 15.279762 -1.440268 2.033934 0.008833 -0.002126 698713.000000 1 0 0
7.726222 3.131626 9.749046 12.827529 0.385088 0.707468 0.005357 -0.002269 568607.000000 1 0 0
6.503322 8.483526 -8.243154 13.498630 0.916767 2.227698 0.000205 -0.000550 217828.000000 1 0 0
6.668822 -3.066974 -3.970154 8.345157 -0.431054 2.066605 -0.000287 0.001346 -1624810.000000 1 0 0
1.938722 8.194126 1.036746 8.483937 1.338470 1.448289 0.003138 -0.001024 753712.000000 1 0 0
-17.682278 6.204526 6.246946 19.753061 -0.337467 1.249020 0.028501 -0.012091 -326709.000000 1 0 0
-14.719778 2.881026 -9.943754 17.995844 -0.193281 2.156227 0.037900 -0.015909 -487772.000000 1 0 0
-18.241978 0.025526 -4.290654 18.739800 -0.001399 1.801805 0.039621 -0.018656 -110629.000000 1 0 0
-12.989978 7.980626 0.089546 15.245915 -0.550917 1.564923 0.002230 -0.000004 -1294560.000000 1 0 0
-12.575278 -4.439174 -12.775754 18.467912 0.339352 2.334749 0.027845 0.003610 -1555310.000000 1 0 0
-17.391078 -0.844074 -8.481654 19.367512 0.048497 2.024093 0.038940 -0.023051 -321520.000000 1 0 0
-16.627578 -2.249774 -2.022454 16.900537 0.134487 1.690752 0.021329 -0.014633 -1772260.000000 1 0 0
-15.370478 4.019526 1.587246 15.966450 -0.255781 1.471221 0.005552 -0.005083 -1035730.000000 1 0 0
-13.149878 5.941726 4.327346 15.064837 -0.424388 1.279444 0.003763 -0.008117 -619222.000000 1 0 0
-10.290078 14.337326 2.712546 17.855042 -0.948281 1.418285 0.032762 -0.003641 159332.000000 1 0 0
-11.850178 2.405426 -6.379654 13.671605 -0.200266 2.056279 0.009980 -0.002321 -192015.000000 1 0 0
-15.960778 10.435326 3.527946 19.393011 -0.579049 1.387859 0.031885 -0.014823 -519012.000000 1 0 0
-12.905478 1.134026 -8.470154 15.478400 -0.087647 2.149840 0.020075 -0.006451 452093.000000 1 0 0
-12.412178 14.264526 4.331646 19.398506 -0.854724 1.345600 0.048001 -0.015141 1358.120000 1 0 0
-10.362478 11.191726 -1.043654 15.288064 -0.823852 1.639115 0.011055 -0.003536 -47747.000000 1 0 0
-16.962178 5.459026 8.667346 19.815129 -0.311367 1.118079 0.019900 -0.015643 422944.000000 1 0 0
-11.689878 12.340926 -9.094854 19.278695 -0.812484 2.062078 0.022595 -0.022077 -2389430.000000 1 0 0
-17.184578 -0.541574 2.961246 17.446260 0.031505 1.400235 0.031266 -0.013732 727768.000000 1 0 0
-13.140778 14.843126 -0.994754 19.849130 -0.846156 1.620933 0.053667 -0.018858 -185116.000000 1 0 0
-16.657678 4.509326 -10.314654 20.104834 -0.264369 2.109523 0.071536 -0.015427 531639.000000 1 0 0
-12.068978 7.590726 -8.861754 16.787198 -0.561431 2.126908 0.018541 -0.006415 300471.000000 1 0 0
-14.910578 13.296626 -2.092854 20.087450 -0.728243 1.675173 0.064427 -0.025543 1075590.000000 1 0 0
-11.893078 10.493726 -5.446754 16.769935 -0.722972 1.901589 0.027944 -0.012054 510219.000000 1 0 0
-17.580578 2.759526 -0.870054 17.817090 -0.155694 1.619648 0.037272 -0.010409 -777747.000000 1 0 0
-9.575078 15.385626 0.584546 18.131224 -1.014113 1.538551 0.039301 -0.012947 305435.000000 1 0 0
-8.181078 13.211126 -3.596054 15.949780 -1.016338 1.798213 0.009035 -0.004635 -612892.000000 1 0 0
-17.896678 11.509926 2.182046 21.389970 -0.571532 1.468606 0.105052 -0.015108 -257164.000000 1 0 0
-8.200878 15.747426 -7.246854 19.176880 -1.090667 1.958318 0.049995 -0.023956 -164806.000000 1 0 0
-6.410278 15.244326 -5.295954 17.364569 -1.172741 1.880720 0.012713 -0.007394 -2181300.000000 1 0 0
-17.375178 5.220926 -0.155354 18.143291 -0.291899 1.579359 0.044004 -0.004616 542874.000000 1 0 0
-5.575478 12.211226 -12.126354 18.090010 -1.142479 2.305456 -0.004713 -0.009270 -186187.000000 1 0 0
-11.137578 3.728826 -11.251654 16.264978 -0.323067 2.334736 0.012671 -0.009297 345495.000000 1 0 0
-11.786278 11.044626 1.164646 16.194336 -0.752925 1.498817 0.012982 -0.006006 228292.000000 1 0 0
-12.945778 0.143526 -10.961654 16.963833 -0.011086 2.273362 0.018708 -0.009084 352464.000000 1 0 0
-14.118878 -2.329674 -13.047654 19.365210 0.163531 2.310092 0.039946 -0.002570 315271.000000 1 0 0
-18.690878 -2.484674 -3.687754 19.212549 0.132160 1.763940 0.032694 -0.018419 939869.000000 1 0 0
-18.492478 4.604626 -5.147654 19.740128 -0.244037 1.834617 0.071567 -0.014453 21074.100000 1 0 0
-8.209578 15.494726 -2.171854 17.669201 -1.083570 1.694025 0.022807 -0.007614 -877400.000000 1 0 0
-16.354278 9.138426 -5.387354 19.493507 -0.509558 1.850808 0.053613 -0.008807 -327997.000000 1 0 0
-18.336578 1.611226 1.938446 18.509017 -0.087644 1.465874 0.074942 -0.020809 192407.000000 1 0 0
-15.627978 -2.781374 -8.553454 18.031398 0.176130 2.065038 0.018786 -0.010006 -707688.000000 1 0 0
-9.759878 10.299026 -7.114954 15.872861 -0.812270 2.035599 0.015658 -0.014318 109620.000000 1 0 0
-13.737078 12.125126 -7.497254 19.797343 -0.723150 1.959188 0.040264 -0.025235 -372470.000000 1 0 0
-11.147578 6.465726 -3.900254 13.464252 -0.525593 1.864683 0.005304 -0.004527 -2693680.000000 1 0 0
-13.132878 4.812926 -12.653854 18.861515 -0.351280 2.306194 0.035461 -0.016957 861834.000000 1 0 0
-17.757278 8.959226 2.467846 20.041929 -0.467272 1.447349 0.046845 -0.021412 709650.000000 1 0 0
-13.555878 8.674926 -6.402654 17.320801 -0.569269 1.949430 0.021973 -0.008435 195981.000000 1 0 0
-15.947978 6.939926 -3.872654 17.818474 -0.410445 1.789884 0.023125 -0.001558 -547849.000000 1 0 0
-14.932378 -0.409474 -9.209354 17.548669 0.027415 2.123264 0.029645 -0.014897 706954.000000 1 0 0
-10.242878 5.742426 -6.115354 13.239696 -0.510965 2.050927 0.005764 -0.005249 297265.000000 1 0 0
-12.789078 12.215926 -0.905954 17.709040 -0.762481 1.621976 0.032268 -0.012400 -1136430.000000 1 0 0
-10.562678 3.543626 -13.785954 17.725123 -0.323686 2.461896 0.012960 -0.011376 23625.500000 1 0 0
-11.032478 6.280426 -11.831954 17.353802 -0.517515 2.321027 0.010582 -0.011779 -359998.000000 1 0 0
-5.813078 11.628126 -14.688654 19.615345 -1.107217 2.417099 0.010224 -0.015258 -353951.000000 1 0 0
-15.721678 13.113326 3.582446 20.783753 -0.695186 1.397564 0.045248 -0.022714 139025.000000 1 0 0
-15.089278 10.905026 -3.278854 18.903883 -0.625799 1.745127 0.048882 -0.014549 555800.000000 1 0 0
-18.295578 7.727626 -4.660154 20.400035 -0.399647 1.801270 0.055092 -0.011020 -64002.400000 1 0 0
-4.154678 16.128126 -10.617954 19.751424 -1.318673 2.138360 0.010169 -0.013374 -298830.000000 1 0 0
-15.935078 4.355326 -4.405254 17.096837 -0.266801 1.831401 0.020151 -0.004336 -788545.000000 1 0 0
-18.797278 -1.782074 -6.181654 19.867720 0.094522 1.887189 0.042875 -0.018625 282313.000000 1 0 0
-10.880678 8.490126 -5.702654 14.932905 -0.662609 1.962631 0.008962 -0.004895 -369146.000000 1 0 0
-11.368578 13.835226 -6.861854 19.176629 -0.882956 1.936733 0.037672 -0.009263 -201161.000000 1 0 0
-9.510278 10.443026 -4.374854 14.786532 -0.832111 1.871160 0.002262 -0.004308 -1296990.000000 1 0 0
-11.078878 6.241126 -0.205754 12.717528 -0.513024 1.586976 0.001304 -0.000783 174875.000000 1 0 0
-14.718978 9.182026 -1.512954 17.413987 -0.557752 1.657788 0.031385 -0.005713 319769.000000 1 0 0
-18.577378 3.381326 4.573746 19.428625 -0.180042 1.333153 0.049509 -0.018276 313496.000000 1 0 0
-14.582978 13.421926 0.501046 19.825801 -0.743963 1.545521 0.033500 -0.007040 66749.200000 1 0 0
-17.033278 2.316926 -8.827154 19.324061 -0.135194 2.045186 0.057963 -0.021344 556635.000000 1 0 0
-9.195278 8.380426 -9.021754 15.368042 -0.739069 2.198202 0.010462 -0.004132 -2413150.000000 1 0 0
-17.768978 4.613026 -2.630954 18.545579 -0.254004 1.713141 0.040997 -0.004305 1056800.000000 1 0 0
-13.702678 5.714126 -4.363254 15.474256 -0.395082 1.856642 0.011537 -0.001342 1239180.000000 1 0 0
-12.175978 9.659726 3.283946 15.885498 -0.670669 1.362569 0.002550 -0.001071 1623370.000000 1 0 0
-17.742978 2.466326 -3.969054 18.348008 -0.138118 1.788841 0.040666 -0.010455 988092.000000 1 0 0
-11.290478 1.448526 -12.470254 16.884323 -0.127599 2.401743 0.019878 -0.005792 376765.000000 1 0 0
-11.228478 12.069426 3.596246 16.872544 -0.821478 1.356007 0.015498 -0.005757 761230.000000 1 0 0
-15.987978 13.030826 -4.517454 21.114574 -0.683844 1.786413 0.057417 -0.023559 672070.000000 1 0 0
-11.079178 3.983026 -4.393754 12.566533 -0.345118 1.927982 0.007074 -0.005302 -81699.400000 1 0 0
-11.086578 14.852526 -9.190554 20.687581 -0.929575 2.031138 0.043745 -0.026393 49490.600000 1 0 0
-15.355578 6.958026 -0.292454 16.861003 -0.425451 1.588142 0.014625 -0.001738 -1469240.000000 1 0 0
-12.853778 8.310426 -3.990554 15.817943 -0.573936 1.825832 0.012541 -0.004741 847181.000000 1 0 0
-19.267078 1.799426 -6.017954 20.265093 -0.093124 1.872305 0.079882 -0.021448 340369.000000 1 0 0
-12.705078 10.034426 -8.729154 18.393119 -0.668488 2.065292 0.023626 -0.017286 816873.000000 1 0 0
-16.651878 10.926626 -1.042154 19.943978 -0.580707 1.623074 0.046168 -0.015026 632519.000000 1 0 0
-10.893678 6.684526 -14.385554 19.243162 -0.550371 2.415188 0.023120 -0.016428 -129888.000000 1 0 0
-13.424978 12.710026 -4.086354 18.933385 -0.758049 1.788336 0.041184 -0.024229 176166.000000 1 0 0
-17.823978 7.718326 -0.377354 19.427021 -0.408653 1.590222 0.050148 -0.011307 116078.000000 1 0 0
-12.735778 6.513626 -2.056854 14.451921 -0.472760 1.713605 0.002601 -0.000350 390622.000000 1 0 0
-13.944878 8.553426 -10.562554 19.472757 -0.550195 2.144120 0.027856 -0.014622 -115746.000000 1 0 0
-14.948278 1.372226 -0.976554 15.042861 -0.091542 1.635760 0.000491 -0.006368 -849281.000000 1 0 0
-13.347778 2.688026 -2.496454 13.842722 -0.198726 1.752133 0.003864 -0.006309 -243541.000000 1 0 0
-11.389878 9.213226 -10.765254 18.179756 -0.680142 2.204528 0.018489 -0.013887 -1051010.000000 1 0 0
-15.640678 4.250426 -7.878254 18.021204 -0.265346 2.023241 0.038190 -0.010706 754210.000000 1 0 0
-18.542678 10.310426 4.436846 21.675364 -0.507467 1.364644 0.104725 -0.039730 167048.000000 1 0 0
-15.504078 6.144226 -6.266854 17.815763 -0.377310 1.930246 0.028197 -0.002490 690703.000000 1 0 0
-7.857678 11.373226 -13.047554 19.008736 -0.966209 2.327320 0.006412 -0.006004 -607955.000000 1 0 0
-16.952278 9.095926 -2.861154 19.449982 -0.492467 1.718435 0.049178 -0.010937 778105.000000 1 0 0
-20.563078 -1.018874 -4.512754 21.077078 0.049508 1.786574 0.068687 -0.030821 -1977810.000000 1 0 0
-15.428378 4.420326 4.056246 16.553769 -0.279032 1.323241 0.009223 -0.011849 277459.000000 1 0 0
-6.982878 12.432626 -9.332354 17.041819 -1.059047 2.150307 0.005320 -0.012209 -921136.000000 1 0 0
-17.087778 1.493626 5.727746 18.083975 -0.087187 1.248516 0.029995 -0.018619 -145522.000000 1 0 0
-10.391478 14.363126 -2.904354 17.964339 -0.944483 1.733182 0.039472 -0.016235 1056750.000000 1 0 0
-10.050678 8.461226 -12.825454 18.360303 -0.699747 2.344155 0.000194 -0.011002 175475.000000 1 0 0
-13.779678 11.655326 2.780246 18.260775 -0.702071 1.417950 0.025000 -0.010023 -108245.000000 1 0 0
-16.672978 6.706326 1.869446 18.068144 -0.382425 1.467144 0.010676 -0.006307 704935.000000 1 0 0
-9.308978 13.235526 -8.253754 18.164820 -0.957837 2.042474 0.025742 -0.018545 791478.000000 1 0 0
-5.684178 9.791926 -12.891754 17.157768 -1.044841 2.420925 0.006138 -0.006353 -128342.000000 1 0 0
-16.010078 1.802926 3.100346 16.406867 -0.112140 1.380687 0.009852 -0.009178 -699724.000000 1 0 0
-18.771978 -4.870774 4.501446 19.909159 0.253872 1.342725 0.068199 -0.015963 910070.000000 1 0 0
-5.347678 14.317326 -9.135754 17.805771 -1.213332 2.109564 -0.001047 -0.007831 -1474160.000000 1 0 0
-15.435378 -0.847674 -6.745954 16.866456 0.054862 1.982273 0.020212 -0.009509 626055.000000 1 0 0
-9.123278 10.882026 -9.459654 17.062759 -0.873087 2.158442 0.011380 -0.011445 236372.000000 1 0 0
-16.647678 1.337526 -5.928754 17.722423 -0.080171 1.911907 0.014197 -0.009534 -1077790.000000 1 0 0
-11.111778 8.622226 -1.584754 14.153651 -0.659906 1.682999 0.005167 -0.003255 -446556.000000 1 0 0
-10.774578 10.975526 -12.500754 19.819752 -0.794637 2.253280 0.027189 -0.013383 -504910.000000 1 0 0
-14.066678 11.889726 -9.982754 20.949759 -0.701724 2.067476 0.059117 -0.019385 359647.000000 1 0 0
-13.380878 5.596226 -7.646654 16.396248 -0.396119 2.055975 0.021144 -0.001436 -621840.000000 1 0 0
-8.973378 15.438826 -4.698854 18.465050 -1.044299 1.828099 0.031819 -0.015636 962561.000000 1 0 0
-8.715778 6.145626 -12.979954 16.799188 -0.614151 2.453807 0.009425 -0.007154 -447490.000000 1 0 0
-16.446878 7.516926 4.234246 18.572367 -0.428695 1.340787 0.025929 -0.008772 -367921.000000 1 0 0
-12.760678 5.455026 -10.163554 17.201455 -0.403975 2.202914 0.021590 -0.008279 796288.000000 1 0 0
-12.464678 9.279026 -13.176854 20.373954 -0.639924 2.274112 0.039555 -0.018631 -1645610.000000 1 0 0
-10.910378 5.165826 -8.475354 14.749703 -0.442206 2.182926 0.010810 -0.003654 -890606.000000 1 0 0
-17.639678 -4.588874 -2.587154 18.409491 0.254504 1.711797 0.016172 -0.011119 381997.000000 1 0 0
-8.930278 13.157026 -10.821354 19.234316 -0.974478 2.168332 0.034975 -0.018747 -125603.000000 1 0 0
-15.140578 6.091426 6.029846 17.398322 -0.382509 1.216878 0.015866 -0.013721 -457174.000000 1 0 0
-16.281778 -3.177874 -4.432954 17.171088 0.192756 1.831917 0.009493 -0.009231 -565140.000000 1 0 0
-11.222778 -1.184274 -12.513054 16.850216 0.105135 2.407748 0.016924 -0.001188 120504.000000 1 0 0
-15.562778 6.791226 -8.681754 19.070754 -0.411467 2.043437 0.032350 -0.004459 417011.000000 1 0 0
-14.933078 9.232326 1.090346 17.590381 -0.553728 1.508771 0.026325 -0.009101 -359742.000000 1 0 0
-19.410778 5.063926 7.962346 21.582877 -0.255194 1.192950 0.063509 -0.024653 158304.000000 1 0 0
-16.332978 0.520026 0.819746 16.361802 -0.031828 1.520674 0.021593 -0.011432 -1415660.000000 1 0 0
-17.513278 3.681826 6.820646 19.151813 -0.207213 1.206667 0.023294 -0.016378 928817.000000 1 0 0
-15.422578 3.982326 -1.497554 15.998672 -0.252694 1.664538 0.005026 -0.005588 -773644.000000 1 0 0
-10.842578 13.341426 0.312846 17.194564 -0.888359 1.552601 0.025584 -0.011279 -1547800.000000 1 0 0
-13.408578 3.302226 0.006446 13.809225 -0.241472 1.570330 0.001662 -0.005062 -749877.000000 1 0 0
-15.073878 0.195526 -4.273854 15.669265 -0.012970 1.847051 0.007592 -0.008958 278779.000000 1 0 0
-18.774478 6.671826 3.344946 20.203538 -0.341448 1.404468 0.033096 -0.013130 335577.000000 1 0 0
-14.077578 1.284626 -6.227454 15.446995 -0.091001 1.985753 0.016792 -0.006298 -1840360.000000 1 0 0
-14.523078 11.551226 5.322846 19.305007 -0.671912 1.291454 0.028343 -0.021727 251838.000000 1 0 0
17.688822 5.417026 6.150646 19.495360 0.297172 1.249820 0.042878 -0.018582 -1515330.000000 1 0 0
18.655522 7.421826 -0.451454 20.082724 0.378639 1.593278 0.032848 -0.004675 388869.000000 1 0 0
16.677522 5.248026 8.527546 19.452521 0.304867 1.117004 0.067964 -0.008471 138085.000000 1 0 0
11.424422 12.470126 10.896046 20.118282 0.829134 0.998458 0.034779 -0.015274 617765.000000 1 0 0
-2.237678 16.309626 -0.514654 16.470458 -1.434448 1.602049 0.004275 -0.004735 -249110.000000 1 0 0
15.188122 12.590426 3.405546 20.019881 0.692155 1.399857 0.051112 -0.005840 258026.000000 1 0 0
13.455322 11.582926 6.743946 18.991858 0.710756 1.207779 0.040274 -0.005137 873914.000000 1 0 0
-0.658978 15.780026 8.480646 17.926651 -1.529060 1.078019 0.007327 -0.010728 -233834.000000 1 0 0
0.660022 12.927626 9.232646 15.899714 1.519785 0.951233 0.002132 -0.008265 -3338640.000000 1 0 0
0.759022 15.561326 -3.890554 16.058250 1.522059 1.815509 0.004328 -0.003308 -1622660.000000 1 0 0
5.360022 10.371826 13.393046 17.767338 1.093810 0.716968 0.022880 -0.020307 393318.000000 1 0 0
-1.359978 16.403226 -2.792754 16.694755 -1.488076 1.738870 0.004091 -0.003344 -903044.000000 1 0 0
8.650322 10.029326 3.312246 13.652342 0.859088 1.325737 0.012614 -0.002768 259912.000000 1 0 0
12.638322 13.611926 -4.791154 19.182463 0.822470 1.823236 0.090758 -0.022674 409292.000000 1 0 0
2.461522 11.657026 7.681246 14.175574 1.362691 0.998142 0.006192 -0.001257 1025420.000000 1 0 0
-0.409178 14.809726 -8.623154 17.142176 -1.543174 2.097906 0.016045 -0.009229 -1121580.000000 1 0 0
2.374322 15.886526 0.272846 16.065291 1.422439 1.553812 0.009861 -0.013655 -1251200.000000 1 0 0
1.905422 13.452226 5.275246 14.574678 1.430089 1.200442 0.005047 -0.002558 708801.000000 1 0 0
17.703822 9.159126 -2.106354 20.043743 0.477433 1.676079 0.032001 -0.005355 302179.000000 1 0 0
-7.250478 14.907726 7.172646 18.062574 -1.118123 1.162442 0.021141 -0.020646 -678539.000000 1 0 0
8.533422 15.902026 -0.236154 18.048532 1.078280 1.583881 0.024805 -0.014739 -1153680.000000 1 0 0
15.728722 10.379726 1.992946 18.950020 0.583319 1.465433 0.033661 -0.000898 -491370.000000 1 0 0
14.171622 7.337526 8.656446 18.155116 0.477756 1.073780 0.037088 -0.010820 -812847.000000 1 0 0
4.174022 18.359926 -1.625754 18.898477 1.347252 1.656928 0.022536 -0.028710 -827304.000000 1 0 0
-0.530778 17.548626 -4.921654 18.233450 -1.540559 1.844111 0.016497 -0.005489 399306.000000 1 0 0
1.393822 13.669126 -0.722754 13.759001 1.469179 1.623350 0.002456 -0.007502 -251580.000000 1 0 0
10.375222 14.784526 4.070346 18.514728 0.958889 1.349142 0.029150 -0.011688 289610.000000 1 0 0
-1.750878 15.294126 -5.018654 16.191441 -1.456812 1.885944 0.009230 -0.005663 341755.000000 1 0 0
15.103622 8.868026 -6.292754 18.610751 0.530914 1.915720 0.047071 -0.014809 414650.000000 1 0 0
-2.278478 18.510326 0.742046 18.664787 -1.448320 1.531029 0.014318 -0.007863 -985901.000000 1 0 0
-3.716578 19.320926 3.322246 19.953658 -1.380757 1.403519 0.022964 -0.013958 185656.000000 1 0 0
1.876422 17.713626 -2.714954 18.018448 1.465259 1.722049 0.006979 -0.011108 -258759.000000 1 0 0
2.796822 12.334326 3.295546 13.069753 1.347816 1.315894 0.006856 -0.003539 79390.400000 1 0 0
-2.594478 16.066826 1.873546 16.382442 -1.410698 1.456183 0.010920 -0.008538 -1454200.000000 1 0 0
11.820022 12.811626 -2.591154 17.622848 0.825634 1.718365 0.046936 -0.002547 194904.000000 1 0 0
7.289022 11.646426 4.743746 14.535206 1.011579 1.238344 0.005875 -0.002877 332701.000000 1 0 0
7.065822 15.413626 1.746846 17.045738 1.140967 1.468136 0.008552 -0.019953 -1263230.000000 1 0 0
5.370222 12.262026 10.205146 16.832753 1.158004 0.919438 0.010763 -0.002718 194758.000000 1 0 0
-1.323978 14.124526 3.142646 14.530361 -1.477333 1.352792 0.003551 -0.006757 -567034.000000 1 0 0
4.520422 15.734826 1.638946 16.453119 1.291043 1.471018 0.006887 -0.022815 -2267160.000000 1 0 0
7.196522 13.151426 11.932646 19.160845 1.070102 0.898528 0.024403 -0.014417 371045.000000 1 0 0
0.559922 17.080926 -9.520254 19.562893 1.538028 2.079046 0.021312 -0.014144 333720.000000 1 0 0
9.803922 9.578026 15.190946 20.460213 0.773744 0.734057 0.041608 -0.025354 258203.000000 1 0 0
13.625722 7.553226 -0.158154 15.580005 0.506166 1.580948 0.007653 -0.000029 85651.800000 1 0 0
12.514522 13.635026 -0.089554 18.507707 0.828222 1.575635 0.051874 -0.005866 279201.000000 1 0 0
9.447022 12.443626 3.416146 15.992502 0.921442 1.355528 0.015897 0.000633 1661250.000000 1 0 0
-0.691078 12.771226 0.765946 12.812825 -1.516737 1.510981 0.002991 -0.005655 -403410.000000 1 0 0
16.084222 7.298426 -0.940954 17.687697 0.425979 1.624020 0.013393 0.001855 -1088740.000000 1 0 0
-4.164578 18.397726 -2.341554 19.007970 -1.348184 1.694298 0.027467 -0.010827 -84912.900000 1 0 0
11.673222 9.218826 -3.173654 15.209305 0.668454 1.781006 0.024476 -0.005473 62998.600000 1 0 0
14.725722 9.655526 7.802646 19.260253 0.580366 1.153690 0.045799 -0.010371 2097980.000000 1 0 0
4.426122 13.832526 4.608446 15.237031 1.261112 1.263534 0.008196 -0.001203 -527945.000000 1 0 0
2.176622 15.950126 5.569246 17.034104 1.435170 1.237725 0.005836 -0.001931 407300.000000 1 0 0
6.246522 18.539826 5.173046 20.236220 1.245817 1.312294 0.036598 -0.021308 585738.000000 1 0 0
10.674822 17.175926 -1.004354 20.247790 1.014718 1.620420 0.063993 -0.016229 -745010.000000 1 0 0
9.994422 13.511826 -4.375154 17.366632 0.933933 1.825469 0.056853 -0.010440 1135360.000000 1 0 0
16.655322 7.894826 2.185346 18.560813 0.442642 1.452783 0.008468 -0.000440 -78192.700000 1 0 0
3.978022 14.031926 -0.494154 14.593279 1.294547 1.604665 0.005464 -0.009798 -1140500.000000 1 0 0
5.685422 13.155326 -2.285354 14.512390 1.162863 1.728931 0.006771 -0.006873 -438180.000000 1 0 0
-6.142578 16.861226 -2.920954 18.181424 -1.221438 1.732152 0.024156 -0.009251 -2159480.000000 1 0 0
18.268622 10.021826 2.307346 20.964336 0.501753 1.460512 0.046228 -0.009960 144854.000000 1 0 0
7.791722 12.870126 9.382046 17.730591 1.026407 1.013204 0.027079 -0.006996 1464610.000000 1 0 0
-2.632878 15.750226 6.661046 17.302347 -1.405163 1.175611 0.009345 -0.007799 217551.000000 1 0 0
11.179722 15.940326 6.285446 20.459399 0.959166 1.258531 0.048303 -0.016120 -67809.700000 1 0 0
13.659022 11.936326 1.379746 18.191989 0.718194 1.494880 0.042999 -0.006057 -348081.000000 1 0 0
17.453022 7.935626 -5.543754 19.957839 0.426743 1.852272 0.039499 0.004162 -338446.000000 1 0 0
9.571822 9.277826 8.020746 15.557320 0.769803 1.029134 0.013882 -0.002130 -519996.000000 1 0 0
-2.040778 14.066426 -1.916354 14.342299 -1.426720 1.704813 0.003095 -0.001878 332474.000000 1 0 0
11.075122 11.631726 0.718146 16.077037 0.809906 1.526112 0.022610 -0.000792 -75734.400000 1 0 0
11.934422 9.630726 -0.550454 15.345498 0.678977 1.606675 0.017977 -0.002216 -1535970.000000 1 0 0
-0.201578 16.064726 10.971046 19.454560 -1.558249 0.971657 0.016751 -0.016247 -216092.000000 1 0 0
2.206222 20.044926 -1.616054 20.230623 1.461174 1.650763 0.027844 -0.022918 -364368.000000 1 0 0
9.420622 14.347426 1.692946 17.247111 0.989790 1.472480 0.022403 -0.010148 -779679.000000 1 0 0
8.477722 11.632826 -5.216754 15.310419 0.941018 1.918492 0.024092 -0.001852 -799644.000000 1 0 0
10.506922 10.008326 10.350046 17.823733 0.761099 0.951222 0.017522 -0.007447 131302.000000 1 0 0
-5.148978 15.750326 5.707446 17.525972 -1.254836 1.239090 0.009360 -0.013153 767566.000000 1 0 0
14.604922 9.246926 -1.764154 17.375892 0.564430 1.672500 0.038540 -0.000276 -496347.000000 1 0 0
12.189622 9.442826 6.983146 16.926848 0.659098 1.145546 0.022385 -0.002580 -2265160.000000 1 0 0
2.960122 12.987926 9.770946 16.520289 1.346711 0.937939 0.007583 -0.009302 -1069950.000000 1 0 0
8.494122 12.541026 -2.656654 15.378077 0.975464 1.744423 0.025071 -0.007035 -868927.000000 1 0 0
9.206122 16.961726 1.953446 19.397649 1.073530 1.469920 0.016490 -0.012200 -422551.000000 1 0 0
9.531322 14.391826 -7.358554 18.764836 0.985841 1.973760 0.075620 -0.017146 -565533.000000 1 0 0
6.441022 11.462726 7.256846 15.018078 1.058855 1.066482 0.004389 -0.000265 -579828.000000 1 0 0
5.391122 16.959226 -5.450054 18.611358 1.263011 1.867987 0.040503 -0.007060 -1674540.000000 1 0 0
-4.020578 17.226526 -4.601554 18.278199 -1.341506 1.825285 0.016325 -0.005461 7440.280000 1 0 0
-0.060078 18.276926 -0.514654 18.284269 -1.567509 1.598947 0.011666 -0.022685 -950961.000000 1 0 0
6.480622 15.747326 -2.692954 17.240323 1.180383 1.727639 0.023148 -0.006746 486824.000000 1 0 0
-0.624578 20.584026 0.451046 20.598439 -1.540463 1.548897 0.018561 -0.014258 93794.300000 1 0 0
-1.338578 18.808426 4.352446 19.351808 -1.499747 1.343944 0.011572 -0.007149 -643571.000000 1 0 0
7.280622 13.815926 -4.306254 16.199725 1.085804 1.839854 0.025300 -0.002166 -43830.500000 1 0 0
-0.937078 11.884326 7.574046 14.123792 -1.492109 1.004795 -0.001397 -0.000995 539215.000000 1 0 0
7.551322 10.821426 10.883146 17.104637 0.961540 0.881144 0.012340 -0.009009 247195.000000 1 0 0
1.486722 16.098326 -7.324754 17.748760 1.478705 1.996203 0.010497 -0.007453 -723494.000000 1 0 0
8.834922 7.099026 14.757646 18.607529 0.676883 0.654913 0.033717 -0.007527 462085.000000 1 0 0
11.416022 11.293526 -4.732554 16.741158 0.780004 1.857393 0.058236 -0.008566 -207950.000000 1 0 0
-3.351878 16.979826 4.435446 17.866806 -1.375899 1.319922 0.009160 -0.007124 -296368.000000 1 0 0
3.874322 15.370626 -6.727954 17.220101 1.323880 1.972192 0.024869 -0.009208 -458302.000000 1 0 0
-4.437178 14.047826 9.483046 17.520220 -1.264851 0.998858 0.013471 -0.015666 -1070280.000000 1 0 0
6.024722 17.420926 0.398546 18.437592 1.237839 1.549179 0.006731 -0.035161 -1005830.000000 1 0 0
9.883122 10.740926 -2.046154 14.738736 0.826967 1.710075 0.021025 -0.004947 -646409.000000 1 0 0
7.430122 18.223026 -2.473754 19.834436 1.183642 1.695842 0.041342 -0.007372 -43249.400000 1 0 0
3.488122 10.443626 10.489846 15.207669 1.248450 0.809620 0.005006 -0.002236 721380.000000 1 0 0
0.070422 18.740126 2.071746 18.854427 1.567039 1.460693 0.012641 -0.012362 817749.000000 1 0 0
-0.982478 16.983026 -7.458554 18.574673 -1.513010 1.983999 0.024700 -0.009138 -752726.000000 1 0 0
10.048322 8.602226 12.911846 18.484665 0.708017 0.797474 0.034035 -0.015039 -560184.000000 1 0 0
3.798122 11.396226 5.345346 13.148096 1.249095 1.152123 0.004900 -0.001489 644421.000000 1 0 0
12.985822 13.774526 8.147646 20.609543 0.814862 1.164365 0.054978 -0.017957 121507.000000 1 0 0
-0.539978 17.434826 6.757546 18.706394 -1.539835 1.201196 0.007353 -0.004268 -66671.500000 1 0 0
12.056822 13.623726 5.763846 19.083888 0.846338 1.263978 0.036465 -0.005914 -699695.000000 1 0 0
4.866322 14.598826 -4.362054 15.994822 1.249043 1.847012 0.013334 -0.006505 -346599.000000 1 0 0
3.789822 17.597826 4.488346 18.552398 1.358679 1.326444 0.016288 -0.016411 -352805.000000 1 0 0
7.146922 11.622526 2.112846 13.806728 1.019479 1.417162 0.014695 -0.003454 279238.000000 1 0 0
6.258022 8.740626 11.659546 15.858953 0.949433 0.744831 0.004567 -0.008968 698993.000000 1 0 0
-5.263578 14.893526 1.832646 15.902231 -1.231083 1.455295 0.009169 -0.000760 -41233.300000 1 0 0
6.798422 13.738226 5.827846 16.398817 1.111274 1.207474 0.012139 -0.005124 -327460.000000 1 0 0
5.839122 15.942126 4.979546 17.693010 1.219701 1.285500 0.010120 -0.014555 743964.000000 1 0 0
1.216222 18.072626 4.280846 18.612486 1.503601 1.338720 0.014859 -0.011450 859374.000000 1 0 0
7.129522 18.078926 -6.961054 20.643012 1.195165 1.914749 0.043464 -0.014593 378054.000000 1 0 0
-2.455878 18.665226 -6.164654 19.809719 -1.439973 1.887245 0.023873 -0.004877 -2162250.000000 1 0 0
13.608022 9.991426 -4.443554 17.457149 0.633332 1.828169 0.041450 -0.011669 -1194920.000000 1 0 0
-1.353078 17.915526 9.623746 20.381692 -1.495414 1.079039 0.015001 -0.014915 -151539.000000 1 0 0
3.460722 11.864626 -1.579454 12.459560 1.286986 1.697905 0.008710 -0.007640 117026.000000 1 0 0
4.337922 14.057726 -10.865154 18.289035 1.271487 2.206918 0.030034 -0.021129 -771739.000000 1 0 0
11.699822 13.344026 2.341446 17.900593 0.850957 1.439618 0.040835 -0.009370 -783644.000000 1 0 0
15.999022 6.484826 -7.112354 18.671027 0.385090 1.961598 0.029359 0.001494 474448.000000 1 0 0
2.314522 15.984526 2.918946 16.412871 1.426998 1.392000 0.010999 -0.014905 -465912.000000 1 0 0
13.644422 10.508326 3.505746 17.575137 0.656276 1.369977 0.028490 0.003536 -220162.000000 1 0 0
-5.074678 19.282526 -5.835454 20.775483 -1.313457 1.855509 0.026124 -0.014441 400847.000000 1 0 0
5.508622 12.087226 0.099946 13.283672 1.143180 1.563272 0.011913 -0.008939 435774.000000 1 0 0
4.830322 15.329126 9.658646 18.751095 1.265538 1.029675 0.022455 -0.011967 -269843.000000 1 0 0
7.764322 9.402726 13.690546 18.333767 0.880549 0.727650 0.023374 -0.022719 -849219.000000 1 0 0
-5.060078 13.623726 6.957146 16.112485 -1.215171 1.124324 0.008408 -0.011598 -1722130.000000 1 0 0
-4.556278 17.152026 0.624846 17.757874 -1.311152 1.535602 0.020612 -0.006386 -2020660.000000 1 0 0
-0.649678 16.570426 3.459646 16.940196 -1.531609 1.365122 0.009994 -0.010157 -1770250.000000 1 0 0
7.772522 17.046626 -4.686954 19.312356 1.143000 1.815936 0.038239 -0.010274 312065.000000 1 0 0
3.052522 16.431526 -4.547854 17.320390 1.387118 1.836483 0.004418 -0.008264 -1237420.000000 1 0 0
9.524422 14.433126 8.230346 19.151197 0.987493 1.126574 0.033873 -0.011983 205098.000000 1 0 0
12.665322 10.832526 9.194846 19.034159 0.707557 1.066638 0.040233 -0.015081 91937.300000 1 0 0
3.743122 12.424626 12.188946 17.803166 1.278178 0.816672 0.022129 -0.012318 289184.000000 1 0 0
-3.309278 19.270526 5.864346 20.413110 -1.400728 1.279407 0.025354 -0.012205 156904.000000 1 0 0
-2.685078 15.763326 9.988846 18.853889 -1.402079 1.012428 0.015219 -0.019865 -1081210.000000 1 0 0
2.102822 14.329826 7.655946 16.382286 1.425092 1.084527 0.010068 -0.004052 27083.400000 1 0 0
4.510522 17.253926 7.752546 19.445944 1.315099 1.160728 0.028613 -0.007970 390964.000000 1 0 0
-1.885778 13.455326 9.297846 16.463654 -1.431552 0.970666 0.007371 -0.011573 -1839740.000000 1 0 0
5.937422 17.481026 2.977846 18.700450 1.243372 1.410876 0.006914 -0.028722 710253.000000 1 0 0
7.090622 15.393926 -6.685554 18.219399 1.139153 1.946521 0.026689 -0.005531 -664958.000000 1 0 0
10.984222 7.691626 9.482546 16.423548 0.610889 0.955286 0.014014 -0.004628 -136497.000000 1 0 0
9.125222 16.180826 -2.773254 18.782432 1.057304 1.718990 0.051128 -0.020583 578416.000000 1 0 0
14.405422 11.361326 -6.606854 19.499909 0.667803 1.916453 0.081747 -0.018691 250518.000000 1 0 0
11.180422 6.794126 15.933346 20.616341 0.546048 0.687476 0.064935 -0.015679 185940.000000 1 0 0
8.447422 8.426826 10.161146 15.672244 0.784178 0.865377 0.005449 -0.005978 -93120.900000 1 0 0
16.602422 9.440726 4.309546 19.579068 0.517038 1.348869 0.047831 -0.003741 -42661.200000 1 0 0
-3.266278 14.323326 4.680546 15.418617 -1.346591 1.262365 -0.000659 -0.006054 -965134.000000 1 0 0
4.556122 14.967426 12.557346 20.061631 1.275305 0.894462 0.023580 -0.007639 -547091.000000 1 0 0
16.055522 10.752126 -4.720854 19.891568 0.590089 1.810412 0.064302 -0.025060 -661340.000000 1 0 0
14.648022 13.803826 6.113646 21.035371 0.755736 1.275904 0.061683 -0.009925 207850.000000 1 0 0
6.193022 9.472726 9.242846 14.612196 0.991773 0.885964 0.000786 -0.001867 510944.000000 1 0 0
10.376922 11.986526 8.650146 18.060519 0.857249 1.071334 0.032605 -0.012895 531312.000000 1 0 0
8.014322 11.486526 -0.319454 14.009700 0.961606 1.593601 0.013615 -0.006837 764962.000000 1 0 0
7.398122 13.563826 -8.580154 17.672822 1.071468 2.077731 0.042435 -0.009199 -720527.000000 1 0 0
2.689022 15.266626 -2.224554 15.660439 1.396447 1.713328 0.004434 -0.010220 323653.000000 1 0 0
12.143422 13.884226 -7.584554 19.943919 0.852182 1.960911 0.097275 -0.025962 1696190.000000 1 0 0
-8.228178 14.766826 9.699046 19.489319 -1.062437 1.049898 0.043143 -0.030955 482979.000000 1 0 0
11.516122 9.640326 2.258846 15.187473 0.696966 1.421512 0.023106 0.000112 -1926370.000000 1 0 0
12.121022 8.590826 4.429246 15.502893 0.616577 1.281055 0.013442 -0.000411 473081.000000 1 0 0
14.080422 7.984426 6.031546 17.273937 0.515846 1.214111 0.017359 -0.005185 -914366.000000 1 0 0
16.252922 7.335926 7.189946 19.226768 0.423985 1.187527 0.056382 -0.011744 -825573.000000 1 0 0
13.669822 8.319526 2.284246 16.164663 0.546723 1.429011 0.011604 0.001082 -1524180.000000 1 0 0
-4.274878 17.214626 -7.167454 19.130874 -1.327392 1.954820 0.012807 -0.016333 143936.000000 1 0 0
3.474322 19.515926 -3.835854 20.190494 1.394617 1.761941 0.033369 -0.016063 112141.000000 1 0 0
-0.137778 14.875326 6.172046 16.105541 -1.561534 1.177511 0.004420 -0.004235 740936.000000 1 0 0
6.863022 15.988726 8.227546 19.246635 1.165339 1.129093 0.038108 -0.016478 642642.000000 1 0 0
12.810722 15.205426 -2.048154 19.987859 0.870667 1.673446 0.091338 -0.019290 -385628.000000 1 0 0
12.815822 15.822926 4.333046 20.817915 0.890016 1.361123 0.053628 -0.006929 363656.000000 1 0 0
3.109222 17.963026 1.382346 18.282463 1.399404 1.495114 0.019899 -0.026016 -979000.000000 1 0 0
10.436722 14.556926 -1.228154 17.953764 0.948779 1.639256 0.048883 -0.001970 -298306.000000 1 0 0
-6.392478 15.735326 -0.396954 16.988874 -1.184914 1.594164 0.015325 -0.008813 -391471.000000 1 0 0
-3.913778 15.831026 -2.488554 16.496422 -1.328434 1.722229 0.016575 -0.006434 -97077.100000 1 0 0
-6.745378 16.988726 1.852646 18.372513 -1.192835 1.469787 0.025410 -0.010648 -486664.000000 1 0 0
0.051022 19.261926 -6.862354 20.447892 1.568147 1.913041 0.032247 -0.010029 705775.000000 1 0 0
4.861322 14.783526 7.116546 17.112286 1.253101 1.141893 0.019443 -0.006899 -551055.000000 1 0 0
8.764922 12.456626 6.832246 16.693441 0.957635 1.149135 0.023334 -0.005051 -1304710.000000 1 0 0
-7.583578 17.483626 -5.524054 19.841951 -1.161535 1.852927 0.044529 -0.017811 76696.900000 1 0 0
-7.847178 17.722126 -1.247454 19.421846 -1.153955 1.635070 0.059607 -0.019592 120029.000000 1 0 0
-13.784678 -8.912074 9.197746 18.815976 0.573925 1.060052 0.059798 -0.025985 -506609.000000 1 0 0
-12.789878 -12.941874 7.664646 19.743857 0.791305 1.172114 0.061495 -0.010583 191807.000000 1 0 0
-3.838578 -15.060074 12.577146 19.993126 1.321226 0.890436 0.022305 -0.008397 237424.000000 1 0 0
-1.943578 -14.042474 15.185246 20.774029 1.433263 0.751050 0.030481 -0.000854 -783233.000000 1 0 0
-7.134678 -13.581174 12.699846 19.915773 1.087086 0.879317 0.047218 -0.014717 -54537.300000 1 0 0
-9.966178 -11.592874 9.021746 17.751375 0.860709 1.037670 0.037380 -0.009813 417877.000000 1 0 0
-10.627478 -10.717774 11.289446 18.848489 0.789628 0.928598 0.058633 -0.019538 676240.000000 1 0 0
-5.974478 -12.311674 10.714546 17.380253 1.119003 0.906534 0.029602 -0.005919 656897.000000 1 0 0
-12.525678 -10.344374 7.424246 17.861078 0.690308 1.142121 0.033500 -0.010277 -397226.000000 1 0 0
-7.444278 -11.020774 12.369746 18.162746 0.976719 0.821600 0.036694 -0.020997 -291702.000000 1 0 0
-14.921778 -11.456274 7.391646 20.212424 0.654768 1.196414 0.061582 -0.011085 -447519.000000 1 0 0
-11.168078 -9.187574 9.333646 17.212043 0.688408 0.997655 0.034789 -0.011128 591672.000000 1 0 0
-5.122678 -11.951374 13.154746 18.496608 1.165858 0.779596 0.032343 -0.014371 -5702.110000 1 0 0
3.857922 -12.395874 14.492746 19.457157 -1.269072 0.730480 -0.019186 -0.002491 21392.500000 1 0 0
6.455522 -12.803874 14.118946 20.123558 -1.103806 0.793138 0.017464 -0.003534 -235250.000000 1 0 0
6.687222 -8.660274 16.039146 19.415805 -0.913255 0.598668 0.007597 -0.010757 -167873.000000 1 0 0
0.727622 -1.645274 14.501446 14.612607 -1.154406 0.123425 0.007358 -0.003065 -1153310.000000 1 0 0
-0.085178 -6.339674 15.484746 16.732486 1.557361 0.388627 0.015921 -0.013542 -329986.000000 1 0 0
-1.373878 -4.438574 18.157446 18.742500 1.270618 0.250516 0.036438 -0.032939 -1095990.000000 1 0 0
-5.151378 12.595526 12.906546 18.755343 -1.182569 0.811856 0.015520 -0.020771 -205683.000000 1 0 0
-4.083678 8.763826 11.495146 15.020634 -1.134742 0.699304 0.002255 -0.002819 -540456.000000 1 0 0
-0.539378 -3.866974 15.061446 15.559292 1.432207 0.253649 0.012133 -0.007790 -288895.000000 1 0 0
-4.493978 9.202426 14.048846 17.385355 -1.116514 0.629902 0.006712 -0.009490 565682.000000 1 0 0
-13.665878 -2.528274 16.833046 21.828876 0.182938 0.690172 0.049001 -0.009312 74292.500000 1 0 0
-0.255278 0.942426 17.313646 17.341155 -1.306271 0.056334 0.024149 -0.008697 -1275630.000000 1 0 0
-3.107678 -7.227774 15.451446 17.339134 1.164729 0.470964 0.026303 -0.015499 322314.000000 1 0 0
-7.436978 5.513226 12.433846 15.501769 -0.637927 0.640006 -0.001501 0.000677 -473186.000000 1 0 0
-9.969878 10.216626 13.124346 19.391399 -0.797621 0.827372 0.027502 -0.023736 873571.000000 1 0 0
-5.551478 2.250726 11.059246 12.577424 -0.385177 0.496420 0.009223 -0.001409 -255780.000000 1 0 0
-7.088978 -7.429774 16.847846 19.730815 0.808867 0.547392 0.043571 -0.015966 -57081.000000 1 0 0
-4.842378 2.677426 18.705446 19.506690 -0.505079 0.287610 0.018126 -0.005185 222183.000000 1 0 0
1.038922 -8.282074 16.651446 18.626400 -1.446006 0.464668 0.008807 -0.009911 847781.000000 1 0 0
-15.210978 -3.461774 13.725846 20.778753 0.223772 0.849217 0.066841 -0.025406 -93651.200000 1 0 0
-14.325578 2.282226 13.172246 19.594356 -0.157984 0.833557 0.018747 -0.002816 -1289580.000000 1 0 0
-5.642378 1.061326 16.134146 17.125230 -0.185927 0.341876 0.022110 -0.002833 644854.000000 1 0 0
4.452722 5.689926 15.121646 16.759062 0.906779 0.445729 0.009926 -0.002568 303301.000000 1 0 0
-0.981978 -11.887974 13.988246 18.383667 1.488381 0.706088 -0.003338 -0.003891 -122805.000000 1 0 0
-5.880678 -3.956274 16.764246 18.200946 0.592208 0.399991 0.033129 -0.017613 167114.000000 1 0 0
-12.960878 -1.504474 9.792246 16.313671 0.115561 0.926985 0.020893 -0.007696 -792467.000000 1 0 0
-14.843078 10.401426 10.110246 20.753884 -0.611235 1.061973 0.042205 -0.010506 514075.000000 1 0 0
-3.533878 -3.183174 17.617946 18.248641 0.733235 0.263675 0.034116 -0.021181 -2060700.000000 1 0 0
-7.982978 9.337826 11.722446 16.980538 -0.863460 0.808829 0.004573 -0.011346 204414.000000 1 0 0
-4.115078 10.587026 16.232946 19.812307 -1.200077 0.610544 0.007466 -0.014428 181959.000000 1 0 0
-12.449078 12.796526 8.455646 19.754204 -0.799160 1.128470 0.038681 -0.020132 132698.000000 1 0 0
-12.634678 3.284126 10.397446 16.689142 -0.254302 0.898216 0.007590 -0.005397 299554.000000 1 0 0
-10.222778 -3.382174 13.635546 17.374476 0.319511 0.668418 0.028846 -0.008492 -20777.200000 1 0 0
-4.289378 -6.451574 17.659646 19.284311 0.984047 0.413421 0.042332 -0.016765 -768986.000000 1 0 0
1.130722 -3.608674 18.028246 18.420606 -1.267151 0.206766 0.024254 -0.018053 -196297.000000 1 0 0
-5.967078 1.945826 13.612746 14.989967 -0.315221 0.432015 0.009050 -0.002192 -862842.000000 1 0 0
-10.549378 8.686826 10.138046 17.015590 -0.688874 0.932523 0.021039 -0.016077 26897.900000 1 0 0
4.567322 2.452426 17.346746 18.104818 0.492769 0.290402 0.023803 -0.005575 -1803590.000000 1 0 0
0.507022 -5.355374 13.208546 14.261935 -1.476402 0.386750 0.006092 -0.006148 -1459980.000000 1 0 0
-4.388478 5.784326 20.709446 21.945348 -0.921760 0.337206 0.062442 -0.017880 -526324.000000 1 0 0
-10.748678 10.892226 8.988346 17.747254 -0.792031 1.039717 0.023722 -0.017380 104157.000000 1 0 0
0.667022 4.150426 12.993946 13.656998 1.411447 0.312884 0.008254 -0.004086 -2196620.000000 1 0 0
-3.152978 7.174026 13.291746 15.429790 -1.156709 0.532710 0.002376 0.002275 -1855710.000000 1 0 0
0.831222 8.948026 13.981846 16.620774 1.478168 0.571247 0.006242 -0.008695 278154.000000 1 0 0
-4.214678 -6.695274 13.130646 15.329842 1.008967 0.542266 0.016527 -0.009625 208635.000000 1 0 0
-5.220878 8.257926 16.365046 19.059529 -1.007017 0.538209 0.018759 -0.006505 -38717.100000 1 0 0
1.640222 -10.598374 15.889246 19.169872 -1.417253 0.593720 -0.013419 -0.000971 -110229.000000 1 0 0
-15.220578 -0.949574 14.269146 20.884832 0.062307 0.818619 0.043799 -0.006337 735684.000000 1 0 0
-13.469978 -5.235674 8.342746 16.686941 0.370720 1.047248 0.043192 -0.018773 -975901.000000 1 0 0
-14.205578 -1.771874 12.071246 18.725730 0.124090 0.870252 0.037141 -0.011263 827184.000000 1 0 0
9.461722 1.199026 16.839346 19.352659 0.126052 0.515329 0.053869 -0.007473 -477237.000000 1 0 0
5.096222 -6.773874 16.685946 18.715706 -0.925803 0.470045 0.010328 -0.025307 1288790.000000 1 0 0
-6.004178 -2.674274 11.082746 12.885230 0.419024 0.535306 0.011045 -0.005113 263250.000000 1 0 0
0.586922 -6.140674 17.994546 19.022514 -1.475506 0.330253 0.024082 -0.023177 -21653.700000 1 0 0
-8.318478 11.942426 12.018346 18.874831 -0.962391 0.880534 0.015994 -0.021155 182420.000000 1 0 0
-6.647878 -5.739774 14.850446 17.253261 0.712222 0.534089 0.034340 -0.011500 -697888.000000 1 0 0
-4.168478 -8.965274 17.147746 19.793876 1.135573 0.523018 0.046899 -0.016151 323422.000000 1 0 0
2.479422 -6.219774 16.195946 17.525461 -1.191467 0.392023 0.011594 -0.019489 -255312.000000 1 0 0
2.169022 5.302126 16.114246 17.102226 1.182482 0.341567 0.018226 -0.004095 493890.000000 1 0 0
0.928022 -8.867574 14.062846 16.651088 -1.466522 0.565053 -0.003331 -0.004341 -561822.000000 1 0 0
-9.920378 -2.629874 11.202846 15.193219 0.259137 0.741645 0.005996 -0.003830 493685.000000 1 0 0
-1.303278 10.109726 12.251546 15.937549 -1.442590 0.693956 -0.002693 -0.008275 -423769.000000 1 0 0
-12.284378 -3.605974 11.340746 17.103260 0.285521 0.845877 0.031509 -0.009243 -1855760.000000 1 0 0
-2.080578 6.449026 19.882446 21.005485 -1.258720 0.328473 0.043455 -0.022065 -1216860.000000 1 0 0
0.486522 -13.279374 15.659346 20.537614 -1.534175 0.703672 -0.007946 -0.007620 -750354.000000 1 0 0
4.060522 -8.809474 15.423146 18.219992 -1.138893 0.561428 -0.009579 -0.007221 -448966.000000 1 0 0
4.425322 -4.294374 16.384846 17.506807 -0.770382 0.359954 0.022342 -0.011990 8620.620000 1 0 0
8.102322 1.882226 14.689646 16.881235 0.228258 0.515237 0.022769 -0.001499 94315.400000 1 0 0
-6.275878 -0.083774 11.842446 13.402880 0.013348 0.487355 0.010832 -0.002318 292756.000000 1 0 0
-3.567978 -11.086774 18.487346 21.850148 1.259441 0.562176 0.072717 -0.015465 1274330.000000 1 0 0
3.315022 -1.466974 13.619646 14.093833 -0.416619 0.260136 0.003720 -0.003316 981422.000000 1 0 0
-2.587278 8.583226 15.843446 18.203861 -1.278024 0.514915 0.017223 -0.007497 297009.000000 1 0 0
-3.362378 3.968326 14.807546 15.694477 -0.867870 0.337795 0.014345 -0.005352 241719.000000 1 0 0
-4.603578 -9.074674 19.717546 22.188381 1.101326 0.476419 0.074160 -0.021629 149716.000000 1 0 0
-5.742478 -2.889874 19.053346 20.108640 0.466240 0.325408 0.038737 -0.021222 -970805.000000 1 0 0
-6.613578 -8.617674 11.163446 15.576464 0.916225 0.771757 0.023714 -0.009541 -1323300.000000 1 0 0
-11.721678 2.528126 12.674446 17.447944 -0.212426 0.757705 0.016951 -0.011869 -674494.000000 1 0 0
-11.764278 -7.435774 11.765846 18.224272 0.563663 0.868969 0.044742 -0.020044 -500799.000000 1 0 0
-11.118478 -7.232574 15.411946 20.333685 0.576727 0.710629 0.065529 -0.035791 -564518.000000 1 0 0
0.112622 5.752926 17.542446 18.462022 1.551222 0.316948 0.026477 -0.013270 -191672.000000 1 0 0
-2.193078 -0.050574 13.265646 13.445799 0.023057 0.163881 0.016592 -0.003094 289711.000000 1 0 0
-6.202678 -10.425974 18.119846 21.806030 1.034116 0.589973 0.094571 -0.027131 1174350.000000 1 0 0
0.462022 2.792926 19.175546 19.383381 1.406855 0.146571 0.037098 -0.011593 -362530.000000 1 0 0
-0.781478 10.799926 14.728546 18.280568 -1.498563 0.633950 0.017097 -0.015006 498709.000000 1 0 0
-12.950378 -2.235474 14.358446 19.464701 0.170934 0.741190 0.036723 -0.007957 -259670.000000 1 0 0
-13.890678 8.379126 11.526546 19.900300 -0.542783 0.953031 0.044405 -0.022504 241776.000000 1 0 0
-17.998378 -0.698074 6.872746 19.278577 0.038766 1.206281 0.073728 -0.026063 -614507.000000 1 0 0
-2.054678 -7.732474 17.835846 19.548152 1.311077 0.421672 0.039137 -0.017647 -1465260.000000 1 0 0
5.686822 2.763126 14.449246 15.771985 0.452290 0.412470 0.019144 -0.004017 -2148340.000000 1 0 0
-14.236578 -6.616674 11.107246 19.231002 0.435065 0.955048 0.064782 -0.027436 646172.000000 1 0 0
3.138322 7.807526 16.121546 18.185455 1.188600 0.481054 0.020954 -0.019485 -477408.000000 1 0 0
0.976522 2.017126 14.579646 14.750880 1.119937 0.152518 0.013039 -0.004542 -1500340.000000 1 0 0
-14.458378 0.758526 9.777846 17.470728 -0.052415 0.976809 0.023108 -0.007036 -1996660.000000 1 0 0
-9.672178 -5.107174 15.510246 18.978988 0.485817 0.614204 0.040000 -0.015318 243735.000000 1 0 0
-2.487278 -0.131574 18.147246 18.317380 0.052849 0.136400 0.034749 -0.012765 -103372.000000 1 0 0
6.765622 3.782826 17.213846 18.878557 0.509822 0.423101 0.041248 -0.012359 -599508.000000 1 0 0
-4.231478 -0.798474 14.748146 15.363944 0.186506 0.284082 0.024654 -0.003334 575997.000000 1 0 0
4.925722 -9.089974 17.885046 20.658297 -1.074205 0.524137 0.005246 -0.008266 -231213.000000 1 0 0
1.932822 6.841726 13.340946 15.117072 1.295466 0.489626 0.009530 -0.002739 -1574330.000000 1 0 0
-3.728678 -0.608674 20.379346 20.726584 0.161814 0.183304 0.048704 -0.011295 -1095000.000000 1 0 0
-10.736278 1.539926 16.462646 19.714405 -0.142460 0.582560 0.018193 -0.001712 -258482.000000 1 0 0
-4.237078 7.138326 18.506146 20.282652 -1.035120 0.421656 0.034807 -0.006709 -284001.000000 1 0 0
-12.701778 1.147326 14.713646 19.471592 -0.090084 0.714155 0.024818 -0.010232 -485284.000000 1 0 0
-16.015378 -4.852274 8.510546 18.774085 0.294185 1.100317 0.066885 -0.025283 -850797.000000 1 0 0
-2.281578 0.779626 15.739746 15.923348 -0.329266 0.152004 0.026026 -0.006592 382572.000000 1 0 0
-13.983078 -8.460074 12.800146 20.759168 0.544104 0.906377 0.071895 -0.039147 653606.000000 1 0 0
6.213222 -3.157174 14.676346 16.247062 -0.470137 0.443342 0.018283 -0.010631 691521.000000 1 0 0
-15.728778 0.333426 7.526946 17.440199 -0.021195 1.124546 0.033956 -0.016378 -178139.000000 1 0 0
-14.244278 5.839726 12.186746 19.634628 -0.389072 0.901192 0.040767 -0.018222 292053.000000 1 0 0
0.605222 9.667426 16.594346 19.214519 1.508274 0.528358 0.023806 -0.013975 -241332.000000 1 0 0
-10.390178 -5.356774 10.846246 15.946532 0.476019 0.822811 0.026748 -0.013739 -168791.000000 1 0 0
-3.203278 -10.970074 15.264146 19.068237 1.286694 0.642665 0.028762 -0.003946 791192.000000 1 0 0
-3.557378 2.758826 12.550546 13.333502 -0.659636 0.344397 0.011562 -0.001032 -1846060.000000 1 0 0
-12.351678 -7.681174 7.498346 16.364277 0.556347 1.094811 0.038228 -0.012212 -70155.400000 1 0 0
-8.214178 -1.797174 13.253946 15.696166 0.215395 0.565340 0.016753 -0.006303 -208401.000000 1 0 0
-9.811778 6.449226 9.493646 15.099431 -0.581486 0.890862 0.005981 -0.005943 -359959.000000 1 0 0
-18.105078 -3.544074 6.632746 19.604786 0.193306 1.225662 0.081551 -0.023468 573238.000000 1 0 0
-1.232278 0.086426 20.475946 20.513175 -0.070021 0.060257 0.040865 -0.011030 -1409350.000000 1 0 0
-2.704478 2.758626 20.223546 20.589221 -0.795309 0.188750 0.045989 -0.009853 -523901.000000 1 0 0
-3.761578 11.306226 11.095146 16.281354 -1.249616 0.821036 0.007416 -0.015986 -482968.000000 1 0 0
-4.169978 -4.795174 14.927646 16.223964 0.855022 0.402464 0.019781 -0.010871 707285.000000 1 0 0
-0.157178 -14.219874 13.311646 19.478949 1.559743 0.818405 0.001223 -0.007080 -357945.000000 1 0 0
-12.281678 0.518826 8.351346 14.861150 -0.042219 0.974045 0.010031 -0.004975 -246806.000000 1 0 0
-7.960878 2.045126 15.323846 17.389030 -0.251459 0.492325 0.008897 -0.001918 -390560.000000 1 0 0
3.775222 -2.159074 18.475746 18.980703 -0.519506 0.231182 0.026730 -0.013945 -501601.000000 1 0 0
-2.084978 4.908326 12.561546 13.646657 -1.169109 0.401476 0.005600 0.000666 -364967.000000 1 0 0
-10.125378 -6.091574 13.223746 17.734092 0.541606 0.729259 0.019961 -0.020901 290818.000000 1 0 0
2.353422 -3.755974 14.291546 14.963095 -1.011061 0.300733 0.005961 -0.006262 -563227.000000 1 0 0
6.848722 1.152126 16.924146 18.293690 0.166664 0.389403 0.032543 -0.005546 -627322.000000 1 0 0
-1.988778 -5.611374 13.777346 15.008598 1.230190 0.407881 0.009295 -0.010106 -1221030.000000 1 0 0
-12.805078 3.752726 14.642846 19.810752 -0.285083 0.739009 0.006685 -0.000810 227482.000000 1 0 0
-13.289778 -5.992774 13.404646 19.804446 0.423628 0.827321 0.044995 -0.035043 72631.500000 1 0 0
-9.618678 6.935126 11.973646 16.851799 -0.624685 0.780551 0.011051 -0.003113 -288092.000000 1 0 0
-0.961578 -2.380174 12.863146 13.116798 1.186851 0.196980 0.008232 -0.002468 638372.000000 1 0 0
0.090722 6.807926 15.165546 16.623774 1.557471 0.421978 0.014259 -0.006463 228397.000000 1 0 0
-16.481778 -0.846774 9.599546 19.092336 0.051331 1.043966 0.059066 -0.016584 -36854.900000 1 0 0
-1.404278 2.720926 13.733546 14.070740 -1.094350 0.219365 0.011900 -0.001666 -423594.000000 1 0 0
-11.246178 -3.301274 16.081146 19.899200 0.285526 0.629826 0.036927 -0.017934 -487654.000000 1 0 0
-5.201178 -1.321674 17.115746 17.937331 0.248844 0.303832 0.041642 -0.009016 324614.000000 1 0 0
-11.950078 6.674126 11.035746 17.582264 -0.509346 0.892248 0.025057 -0.008706 -2458360.000000 1 0 0
-3.240778 4.706426 18.666646 19.521700 -0.967772 0.297065 0.045975 -0.010177 308085.000000 1 0 0
5.198122 -1.751274 16.455546 17.345675 -0.324962 0.321752 0.024824 -0.011753 -1233450.000000 1 0 0
-8.034978 -4.085974 12.131246 15.113675 0.470443 0.639043 0.022078 -0.008413 -1472130.000000 1 0 0
-11.814578 -0.774274 16.138146 20.015582 0.065442 0.632962 0.043692 -0.010754 640773.000000 1 0 0
2.147322 2.118226 17.360846 17.620921 0.778577 0.172023 0.019482 -0.011337 -1184480.000000 1 0 0
-9.094178 -7.574674 11.599946 16.572221 0.694491 0.795450 0.031130 -0.012796 1467740.000000 1 0 0
-7.236878 6.880326 14.713646 17.782088 -0.760147 0.596259 -0.004056 -0.006076 -1060840.000000 1 0 0
-5.766778 3.513126 15.781846 17.165793 -0.547157 0.404301 0.004438 -0.001986 196772.000000 1 0 0
-9.413578 4.283126 11.614146 15.551495 -0.427000 0.727531 0.004076 -0.006383 -101267.000000 1 0 0
-10.314678 0.222826 14.273346 17.611662 -0.021599 0.625879 0.014012 -0.001399 -175631.000000 1 0 0
8.163722 -0.561074 15.459146 17.491322 -0.068620 0.486835 0.033117 -0.010249 48543.300000 1 0 0
-8.606678 -7.385474 14.871746 18.702646 0.709183 0.651512 0.048435 -0.013564 -3155890.000000 1 0 0
-0.041778 4.197326 15.498246 16.056616 -1.560843 0.264494 0.017162 -0.010832 69268.700000 1 0 0
-8.129078 3.138626 9.608546 12.971393 -0.368465 0.736612 0.001641 -0.001787 -135817.000000 1 0 0
-2.159878 -9.639774 13.269546 16.543010 1.350378 0.639953 0.002617 -0.004327 540116.000000 1 0 0
-6.032578 10.278126 10.344146 15.780787 -1.040040 0.855965 0.012563 -0.012305 -3102180.000000 1 0 0
-8.609878 -2.779074 15.671446 18.095510 0.312220 0.523568 0.026475 -0.014115 -47659.600000 1 0 0
4.324022 6.005126 17.688046 19.173567 0.946737 0.396230 0.021632 -0.000029 653160.000000 1 0 0
-6.869578 -0.983274 15.226346 16.733187 0.142169 0.427635 0.018679 -0.003435 -375384.000000 1 0 0
-0.909178 -9.872074 15.612346 18.494048 1.478959 0.565759 -0.005495 -0.003114 -196433.000000 1 0 0
-4.392078 5.799326 16.174746 17.735415 -0.922612 0.422656 0.015690 -0.005299 239575.000000 1 0 0
3.690922 0.103126 17.415146 17.802271 0.027933 0.208926 0.024608 -0.011536 -445900.000000 1 0 0
1.367922 0.493626 19.272946 19.327735 0.346315 0.075313 0.020677 -0.008201 -825110.000000 1 0 0
-6.518878 6.405826 17.637746 19.865056 -0.776651 0.478084 0.009015 -0.010328 -772927.000000 1 0 0
-12.231978 0.706926 10.982046 16.453764 -0.057729 0.840019 0.016313 -0.006246 -298109.000000 1 0 0
-5.463678 5.105926 13.834946 15.726665 -0.751564 0.495539 0.001386 -0.000389 -1118930.000000 1 0 0
-8.674078 -9.494574 9.979046 16.277835 0.830527 0.910887 0.028412 -0.011463 -907959.000000 1 0 0
6.819422 -3.593374 17.234546 18.879789 -0.484961 0.420569 0.026458 -0.006469 -560179.000000 1 0 0
-16.797778 1.753126 9.410246 19.333689 -0.103990 1.062456 0.052305 -0.019117 587115.000000 1 0 0
-4.109778 -9.453174 11.519946 15.458393 1.160695 0.729928 0.010555 -0.010414 255270.000000 1 0 0
-11.083178 -3.813774 9.121746 14.852204 0.331413 0.909465 0.019295 -0.005593 -550025.000000 1 0 0
3.699922 -5.676074 18.491746 19.693956 -0.993125 0.351215 0.015176 -0.019650 -101343.000000 1 0 0
2.589022 -1.906574 16.120346 16.437871 -0.634745 0.196872 0.013252 -0.009889 -350010.000000 1 0 0
-3.172978 -4.400674 20.062546 20.783154 0.946101 0.264102 0.047903 -0.023891 -995741.000000 1 0 0
-6.283278 -3.294774 14.366046 16.022434 0.482954 0.458718 0.021073 -0.007162 1012650.000000 1 0 0
-9.632378 5.067826 13.899346 17.653821 -0.484328 0.664333 0.012445 -0.004707 97116.500000 1 0 0
-5.908078 -5.255474 11.743946 14.157883 0.727006 0.592587 0.009073 -0.002537 290395.000000 1 0 0
6.366522 2.244526 19.197046 20.349375 0.338946 0.338142 0.058176 -0.018728 1105.350000 1 0 0
-2.674278 11.914326 13.406046 18.133532 -1.349997 0.738772 0.017083 -0.020162 -1921740.000000 1 0 0
3.449822 1.451526 15.150046 15.605515 0.398269 0.242196 0.014267 -0.004955 -662897.000000 1 0 0
-5.701978 7.329026 12.666346 15.705524 -0.909615 0.632605 -0.006092 -0.007972 -1809890.000000 1 0 0
-1.822578 -1.700074 15.254846 15.457114 0.750636 0.161953 0.021085 -0.005125 37627.100000 1 0 0
-7.352278 10.555926 13.959246 18.982732 -0.962418 0.744590 0.026811 -0.026012 1162130.000000 1 0 0
-10.275178 2.168526 10.549546 14.885386 -0.207993 0.783116 0.005054 -0.002962 -1617630.000000 1 0 0
-13.603078 5.362626 9.072946 17.208133 -0.375515 1.015438 0.008045 -0.007639 -390545.000000 1 0 0
0.203322 -4.826574 20.202446 20.772000 -1.528696 0.234715 0.034286 -0.023730 -384465.000000 1 0 0
-14.393678 -2.989774 7.502246 16.504557 0.204802 1.098923 0.036971 -0.015376 227942.000000 1 0 0
-2.318878 2.439926 17.740946 18.057453 -0.810829 0.187506 0.030222 -0.007936 -365509.000000 1 0 0
-6.231178 -8.272274 14.569446 17.875314 0.925212 0.617964 0.029736 -0.010619 -346167.000000 1 0 0
-7.994778 2.000226 11.993446 14.551980 -0.245159 0.602044 0.003056 -0.004059 885377.000000 1 0 0
-14.465378 -3.439074 10.086346 17.966880 0.233412 0.974737 0.031318 -0.019489 -63437.800000 1 0 0
-0.592678 7.087826 12.714146 14.568392 -1.487371 0.510048 0.005026 -0.004105 -145977.000000 1 0 0
-1.938078 -2.222474 19.427646 19.650164 0.853647 0.150635 0.035922 -0.013142 8151.860000 1 0 0
-12.825678 10.523526 7.416346 18.172639 -0.687119 1.150419 0.021497 -0.012337 284279.000000 1 0 0
-19.555378 1.969726 6.539146 20.713596 -0.100387 1.249609 0.082182 -0.026792 765063.000000 1 0 0
-16.221578 8.404226 6.704846 19.460873 -0.478014 1.219059 0.028738 -0.008379 456691.000000 1 0 0
-12.502578 7.399126 13.470846 19.812249 -0.534374 0.823136 0.033377 -0.011977 627780.000000 1 0 0
-16.048678 8.127626 10.236446 20.697903 -0.468783 1.053463 0.033364 -0.012683 -1382580.000000 1 0 0
1.887222 11.118526 14.838146 18.637430 1.402662 0.649895 0.023527 -0.024592 -507736.000000 1 0 0
2.034222 14.402326 12.789746 19.368600 1.430482 0.849533 0.018132 -0.014474 -271913.000000 1 0 0
-3.121678 13.726926 11.627646 18.258574 -1.347187 0.880414 0.006156 -0.019735 510581.000000 1 0 0
9.353822 4.985126 16.157046 19.323447 0.489659 0.580594 0.049846 0.016062 73364.400000 1 0 0
-0.175378 12.494326 12.832746 17.911402 -1.556761 0.772086 0.006663 -0.017795 -120679.000000 1 0 0
3.828222 13.602326 14.490546 20.239923 1.296454 0.772828 0.030383 -0.019103 31503.800000 1 0 0
-2.821878 -4.186674 -13.830454 14.723202 0.977724 2.791569 0.003838 -0.007039 -559040.000000 1 0 0
5.674222 -11.703774 16.208546 20.782013 -1.119366 0.676240 -0.003154 -0.008667 177195.000000 1 0 0
7.851322 -13.481474 7.308146 17.227954 -1.043434 1.132715 -0.003301 -0.008028 122786.000000 1 0 0
-0.097178 15.557326 1.252046 15.607929 -1.564550 1.490491 0.004732 -0.010227 -2518260.000000 1 0 0
-13.783978 8.381126 8.877346 18.413272 -0.546306 1.067727 0.018311 -0.009537 491134.000000 1 0 0
-15.526478 -9.711274 5.154646 19.025003 0.558934 1.296426 0.036567 -0.009647 -761868.000000 1 0 0
9.472422 -10.902774 11.142046 18.241229 -0.855484 0.913705 0.038327 -0.013935 -73303.800000 1 0 0
-5.724378 -10.661274 -16.754654 20.667600 1.078042 2.516096 0.019489 -0.001679 -60037.200000 1 0 0
-1.971278 -12.479074 -14.538954 19.261215 1.414124 2.426192 0.018797 -0.002350 -181028.000000 1 0 0
5.218222 -15.831574 -12.455454 20.808818 -1.252402 2.212506 0.036910 -0.007936 178162.000000 1 0 0
1.081522 -12.293574 -16.378854 20.507767 -1.483048 2.495871 0.026014 0.005997 321547.000000 1 0 0
0.388922 -14.186274 -14.083354 19.993561 -1.543388 2.352366 0.030737 0.009683 334433.000000 1 0 0
-6.727278 -5.827574 -14.542354 17.049837 0.713859 2.592373 0.020708 -0.003541 -73570.200000 1 0 0
-6.177278 -8.312374 -17.054754 19.952918 0.931699 2.595865 0.015104 -0.005090 -87045.200000 1 0 0
-2.585778 -16.431974 -13.177454 21.221247 1.414714 2.240758 0.031909 -0.003351 211494.000000 1 0 0
16.094722 -8.140974 -9.418654 20.347643 -0.468290 2.052045 0.078177 -0.005306 -18430.200000 1 0 0
18.917222 -3.120674 -3.390154 19.470312 -0.163492 1.745808 0.095287 -0.016886 156364.000000 1 0 0
15.942522 -11.569974 -8.803254 21.576042 -0.627787 1.991070 0.074432 -0.010460 100291.000000 1 0 0
18.460922 -2.922674 -6.559554 19.808468 -0.157014 1.908317 0.189831 -0.004621 -213990.000000 1 0 0
8.650522 -9.248874 -15.381054 19.923605 -0.818814 2.452780 0.073524 -0.018692 97233.100000 1 0 0
-4.779978 9.363426 -16.178154 19.293901 -1.098788 2.565342 0.006702 -0.008953 457558.000000 1 0 0
2.489022 -9.668974 -18.459954 20.987001 -1.318843 2.645796 0.042561 0.001528 329725.000000 1 0 0
11.156022 8.456626 -14.423454 20.099935 0.648622 2.371128 0.098496 -0.043882 349035.000000 1 0 0
18.086422 -5.862274 -7.536354 20.451933 -0.313441 1.948182 0.078540 -0.022073 221791.000000 1 0 0
12.901122 5.592026 -13.720154 19.645670 0.409008 2.343929 0.080683 -0.007107 25519.700000 1 0 0
15.650522 6.354126 -10.676854 19.982717 0.385669 2.134481 0.028465 -0.013566 182275.000000 1 0 0
3.209222 -0.208374 -19.264254 19.530848 -0.064839 2.976178 0.039990 -0.013212 183951.000000 1 0 0
10.374322 -1.766474 -14.585654 17.985780 -0.168656 2.516578 0.048373 -0.008229 130321.000000 1 0 0
12.214422 -5.934074 -13.988454 19.495697 -0.452244 2.371024 0.077316 -0.005427 434961.000000 1 0 0
9.735622 5.498626 -13.548254 17.566229 0.514131 2.451626 0.038228 0.010149 169546.000000 1 0 0
10.758622 5.189126 -16.234654 20.155371 0.449406 2.507273 0.077387 -0.023151 415440.000000 1 0 0
11.467722 -11.084974 -14.817154 21.770010 -0.768429 2.319408 0.098816 -0.003742 404355.000000 1 0 0
-1.488578 2.001926 -17.686854 17.861925 -0.931421 3.001468 0.005789 -0.005827 209984.000000 1 0 0
6.239122 -1.109374 -17.211754 18.341260 -0.175970 2.788817 0.022988 0.001888 26002.500000 1 0 0
6.778422 -5.841174 -15.622154 18.003278 -0.711265 2.621432 0.025375 -0.008976 332455.000000 1 0 0
-2.355978 -4.510974 -20.452254 21.075915 1.089486 2.897714 0.045088 -0.032260 428491.000000 1 0 0
16.483822 -0.215474 -13.301054 21.182088 -0.013071 2.249698 0.122902 -0.018183 105210.000000 1 0 0
-4.117078 -0.295174 -18.623954 19.075878 0.071573 2.923487 0.022555 -0.009957 179369.000000 1 0 0
3.669122 8.680926 -17.796254 20.137716 1.170905 2.654564 0.047672 -0.021884 161863.000000 1 0 0
9.489222 0.016526 -17.212254 19.654702 0.001742 2.637747 0.067849 -0.015918 5402.690000 1 0 0
4.259922 4.470426 -18.226854 19.244476 0.809505 2.814939 0.029336 -0.010224 513147.000000 1 0 0
-2.975578 -11.024974 -17.890854 21.224674 1.307183 2.573497 0.034984 -0.016428 268337.000000 1 0 0
5.937022 -9.459074 -16.038954 19.544062 -1.010291 2.533355 0.023441 -0.006630 153104.000000 1 0 0
9.829622 -13.313674 -11.620554 20.221589 -0.934819 2.182986 0.042714 0.034610 260636.000000 1 0 0
6.231522 6.909326 -16.650854 19.074108 0.836932 2.632026 0.050440 -0.025387 396074.000000 1 0 0
8.590422 1.734126 -20.145554 21.969203 0.199190 2.731266 0.070201 -0.020235 137042.000000 1 0 0
-0.901578 -0.638274 -20.215954 20.246112 0.616043 3.087005 0.035055 -0.022493 69590.400000 1 0 0
-0.980278 7.015026 -19.647854 20.885634 -1.431956 2.795588 0.016206 0.001474 85108.300000 1 0 0
8.361922 5.781026 -18.238254 20.880036 0.604898 2.633097 0.071133 -0.020771 145009.000000 1 0 0
12.146722 -0.225574 -13.307254 18.018789 -0.018569 2.401670 0.034162 0.002587 -12668.900000 1 0 0
-3.820178 -2.525274 -19.579554 20.107951 0.584094 2.911837 0.010437 -0.021836 375127.000000 1 0 0
5.516622 -11.572474 -14.529354 19.376723 -1.125960 2.418610 0.012500 -0.001515 -25131.500000 1 0 0
11.209922 1.908826 -15.983054 19.615402 0.168662 2.523218 0.062599 -0.006181 53959.900000 1 0 0
-2.871778 -4.310774 -17.203954 17.966800 0.983126 2.849146 0.008898 -0.011093 162849.000000 1 0 0
-6.829978 -4.622274 -17.113954 18.997406 0.594960 2.692537 0.029471 -0.017802 -18763.300000 1 0 0
2.862722 10.540126 -15.360554 18.847707 1.305592 2.523496 0.019098 -0.015812 338126.000000 1 0 0
16.703222 -6.194774 -11.081654 20.980370 -0.355148 2.127266 0.109359 -0.011061 16696.500000 1 0 0
9.812422 -3.495774 -17.564454 20.420923 -0.342241 2.606302 0.072869 -0.017946 101422.000000 1 0 0
-7.153778 -1.522274 -18.750154 20.126155 0.209666 2.769672 0.023262 -0.001954 317602.000000 1 0 0
1.476322 -7.321874 -19.391554 20.780321 -1.371832 2.773928 0.043951 -0.024405 226228.000000 1 0 0
5.626122 10.066926 -14.190654 18.285812 1.061167 2.459170 0.045812 -0.023052 380967.000000 1 0 0
6.177022 -4.187674 -17.507654 19.031820 -0.595769 2.738660 0.055795 -0.033300 529698.000000 1 0 0
4.197022 13.381626 -14.558554 20.214708 1.266873 2.374881 0.058775 -0.028132 124922.000000 1 0 0
9.623122 11.450026 -15.464654 21.514253 0.871875 2.372885 0.124979 -0.029702 207164.000000 1 0 0
17.096922 1.156726 -11.194854 20.468696 0.067554 2.149484 0.118240 -0.013827 98638.500000 1 0 0
14.682722 -2.931174 -12.595154 19.565582 -0.197044 2.270172 0.111697 -0.010625 37539.500000 1 0 0
-8.881578 -0.103074 -17.234054 19.388287 0.011605 2.665713 0.037956 -0.008530 385497.000000 1 0 0
-3.415178 4.532526 -19.129254 19.953335 -0.925070 2.853191 0.019836 0.003381 174807.000000 1 0 0
3.735622 1.414026 -17.256254 17.712500 0.361857 2.914129 0.012431 0.004114 443197.000000 1 0 0
-4.937078 14.129126 -13.985254 20.484000 -1.234633 2.322303 0.009957 -0.016991 267416.000000 1 0 0
0.911222 9.415526 -17.878754 20.227019 1.474318 2.654943 0.019992 -0.000287 334077.000000 1 0 0
1.273322 -5.122874 -19.710754 20.405367 -1.327177 2.879923 0.043129 -0.018079 450057.000000 1 0 0
3.712522 -6.310374 -18.023554 19.453846 -1.039009 2.755739 0.041440 -0.026492 -180302.000000 1 0 0
-6.966078 7.403126 -16.033254 18.984145 -0.815804 2.576540 0.011437 0.002774 -34347.000000 1 0 0
-11.777478 3.387626 -16.531754 20.578724 -0.280075 2.503682 0.057696 -0.025081 331423.000000 1 0 0
-4.386978 6.962626 -17.502854 19.340983 -1.008556 2.702087 0.005915 0.020666 384941.000000 1 0 0
-8.293178 5.815626 -17.611154 20.316276 -0.611567 2.619645 0.022960 -0.002621 357061.000000 1 0 0
-8.487478 4.917526 -15.254154 18.135836 -0.525124 2.570120 0.001862 -0.007252 483113.000000 1 0 0
9.400522 13.801226 -12.833454 21.060418 0.972843 2.226054 0.120129 -0.042372 411364.000000 1 0 0
14.946222 9.885226 -11.801254 21.456394 0.584338 2.153174 0.153447 -0.024048 255730.000000 1 0 0
8.281922 15.590326 -9.826854 20.204345 1.082484 2.078731 0.074524 -0.029819 -52356.800000 1 0 0
7.069222 12.763726 -14.219654 20.373639 1.065000 2.343319 0.129772 -0.057634 68425.800000 1 0 0
4.071022 15.588026 -12.998754 20.700903 1.315339 2.249689 0.066227 -0.026467 208536.000000 1 0 0
11.011622 11.857026 -11.178854 19.667528 0.822349 2.175346 0.110591 -0.028061 326630.000000 1 0 0
15.969622 10.671026 -8.918054 21.176197 0.589069 2.005494 0.097861 -0.043442 400779.000000 1 0 0
12.387122 10.458626 -9.258254 18.669197 0.701184 2.089680 0.079827 -0.045030 242969.000000 1 0 0
10.308322 11.789526 -7.046254 17.172773 0.852327 1.993596 0.057047 -0.013509 -63802.500000 1 0 0
5.626622 17.070826 -10.340554 20.736418 1.252405 2.092856 0.077795 -0.017301 -140642.000000 1 0 0
11.475522 13.962826 -10.185154 20.745734 0.882866 2.083978 0.145888 -0.045789 -70491.700000 1 0 0
8.560122 -19.315974 -1.796154 21.203979 -1.153643 1.655606 0.034619 -0.001457 193155.000000 1 0 0
7.792522 -16.736674 -4.030654 18.896715 -1.135049 1.785747 0.035621 -0.013273 259312.000000 1 0 0
4.213722 -18.148374 4.984746 19.286436 -1.342657 1.309370 0.052055 -0.030992 79255.800000 1 0 0
10.562422 -17.609174 -2.378654 20.671375 -1.030506 1.686122 0.044709 -0.006496 559877.000000 1 0 0
-3.383278 -14.757974 7.888546 17.072596 1.345440 1.090481 0.032805 -0.031268 8404.590000 1 0 0
-15.398078 -12.693074 -4.033154 20.358813 0.689400 1.770219 0.053048 -0.011637 165453.000000 1 0 0
-9.270378 -12.878574 -7.058954 17.367395 0.946886 1.989360 0.032704 -0.010895 166721.000000 1 0 0
-11.556978 -14.833874 6.735046 19.974193 0.908934 1.226869 0.057650 -0.015216 234277.000000 1 0 0
-14.397078 -8.492474 -8.114354 18.580654 0.532941 2.022734 0.028961 -0.010813 -91214.200000 1 0 0
5.260222 -15.128074 6.442846 17.263801 -1.236161 1.188341 0.029953 -0.016446 159128.000000 1 0 0
2.998422 -14.340974 9.084946 17.239209 -1.364685 1.015738 0.005012 -0.002647 462158.000000 1 0 0
3.086322 -17.477174 9.967546 20.355072 -1.396007 1.059069 0.024678 -0.009490 349039.000000 1 0 0
-8.668878 -17.793274 -4.819154 20.370918 1.117441 1.809631 0.074914 -0.023537 -4874.210000 1 0 0
2.623222 -19.806574 -4.437754 20.466444 -1.439121 1.789363 0.050138 -0.005985 140546.000000 1 0 0
-16.950078 -10.568574 -2.843054 20.176294 0.557528 1.712177 -0.062372 -0.019319 -181654.000000 1 0 0
-4.183678 -14.612074 2.764246 15.448525 1.291940 1.390895 0.014816 -0.007981 114274.000000 1 0 0
-10.918778 -9.966074 -14.512854 20.716304 0.739813 2.346967 0.041658 -0.013204 88004.700000 1 0 0
0.539222 -20.093474 2.501446 20.255757 -1.543967 1.446987 0.046187 -0.016435 344438.000000 1 0 0
6.925822 -18.326674 0.895446 19.612134 -1.209477 1.525123 0.035997 -0.004095 320119.000000 1 0 0
-6.683178 -17.643374 -3.042454 19.110469 1.208705 1.730680 0.016192 -0.058786 11295.800000 1 0 0
-9.878578 -15.751374 -7.224754 19.947159 1.010648 1.941418 0.061742 -0.019833 105092.000000 1 0 0
-11.816578 -11.197274 -12.468254 20.505312 0.758495 2.224398 0.030828 -0.001370 287618.000000 1 0 0
-13.396978 -14.943374 -3.266254 20.333516 0.839909 1.732129 0.053369 -0.017953 213777.000000 1 0 0
0.150622 -20.045874 -2.413054 20.191151 -1.563283 1.690593 0.081102 -0.030412 272901.000000 1 0 0
-12.567078 -16.588474 -0.369854 20.814555 0.922462 1.588566 0.080596 -0.021033 231110.000000 1 0 0
1.190722 -19.846974 5.171146 20.544122 -1.510873 1.316350 0.063853 -0.023006 311588.000000 1 0 0
-18.367678 -9.176574 2.726646 20.712694 0.463331 1.438772 0.054140 -0.005440 -11109.300000 1 0 0
-15.364778 -14.823974 -0.405454 21.353946 0.767486 1.589785 0.074100 -0.012534 -103890.000000 1 0 0
10.359322 -15.485774 -5.320354 19.376040 -0.981210 1.848954 0.026849 0.006561 -29652.300000 1 0 0
-0.000878 -19.075574 -6.865054 20.273295 1.570750 1.916252 0.058191 -0.015711 225326.000000 1 0 0
-10.378078 -17.661274 -1.588854 20.546278 1.039531 1.648204 0.070748 0.010114 178247.000000 1 0 0
-14.635078 -6.727074 -11.339354 19.698223 0.430853 2.184200 0.049480 -0.013640 -42287.000000 1 0 0
-12.487278 -14.616874 1.872246 19.315549 0.863808 1.473714 0.063918 -0.025531 242764.000000 1 0 0
-2.318478 -16.219074 10.122746 19.258860 1.428811 1.017358 0.022645 -0.016068 358489.000000 1 0 0
-12.422078 -14.472974 -6.510754 20.153533 0.861506 1.899755 0.047014 -0.011990 199059.000000 1 0 0
5.201122 -16.999874 -7.477654 19.286334 -1.273889 1.968951 0.029945 -0.007853 35677.600000 1 0 0
-18.063178 -7.837374 -2.994454 19.916565 0.409374 1.721719 0.038740 -0.007887 28161.200000 1 0 0
-12.058478 -13.940074 -9.296954 20.643786 0.857645 2.037955 0.052768 -0.021272 63052.800000 1 0 0
-7.781878 -13.880274 9.671146 18.621243 1.059819 1.024693 0.045873 -0.010949 400262.000000 1 0 0
-15.823778 -8.062474 -5.667354 18.641736 0.471232 1.879700 0.034517 -0.008419 237289.000000 1 0 0
-0.652878 -19.539174 0.215946 19.551271 1.537395 1.559751 0.036707 -0.018409 250292.000000 1 0 0
-15.052878 -11.432274 -1.924254 18.999704 0.649537 1.672248 0.018613 -0.003785 -27144.800000 1 0 0
-6.938578 -19.180574 2.538846 20.554416 1.223692 1.446962 0.036274 -0.014539 291926.000000 1 0 0
-1.104678 -21.042774 -4.439254 21.534289 1.518348 1.778433 0.066767 -0.019526 -161420.000000 1 0 0
-9.319078 -19.641274 -0.753254 21.752982 1.127785 1.605431 0.073456 -0.018517 87333.600000 1 0 0
-17.906678 -7.478874 4.995146 20.038317 0.395636 1.318860 0.060682 -0.013080 56072.100000 1 0 0
-3.042278 -15.941774 -10.750354 19.467042 1.382227 2.155837 0.026331 0.002408 66696.300000 1 0 0
-3.584078 -18.652774 -7.586254 20.452942 1.380963 1.950788 0.042756 -0.001274 48888.700000 1 0 0
4.464822 -17.074474 -4.377054 18.183259 -1.315032 1.813903 0.014424 -0.025730 352052.000000 1 0 0
0.452722 -17.463774 -9.373754 19.825630 -1.544879 2.063273 0.032649 0.001284 177076.000000 1 0 0
-7.676178 -10.279774 -14.712454 19.520598 0.929394 2.424453 0.007953 -0.007386 302190.000000 1 0 0
-5.034478 -19.339674 -2.118454 20.096189 1.316130 1.676408 0.061067 -0.030497 354737.000000 1 0 0
-10.080978 -15.950174 8.556246 20.718193 1.007158 1.145070 0.054140 -0.014497 260899.000000 1 0 0
-7.406278 -14.908874 -10.364154 19.609772 1.109736 2.127652 0.026060 -0.018003 277108.000000 1 0 0
-12.633178 -8.128374 -12.338954 19.440098 0.571732 2.258438 0.040910 -0.011110 368973.000000 1 0 0
-15.958278 -13.019274 2.944846 20.804813 0.684320 1.428773 0.055215 -0.002698 22847.100000 1 0 0
-6.096578 -14.412974 -12.814054 20.226271 1.170627 2.256910 -0.006537 -0.002287 412427.000000 1 0 0
-14.148378 -11.629274 -6.781854 19.529725 0.687983 1.925442 0.054180 -0.014903 158626.000000 1 0 0
-11.288378 -10.392574 -8.768054 17.672347 0.744104 2.089950 0.014964 -0.010049 341679.000000 1 0 0
-9.843378 -14.863174 3.877546 18.243941 0.985846 1.356624 0.027174 -0.003363 433485.000000 1 0 0
5.106422 -17.969674 8.254846 20.423692 -1.293926 1.154714 0.047655 -0.025262 236985.000000 1 0 0
-4.748378 -16.848774 5.233846 18.270780 1.296098 1.280266 0.019566 0.003471 367956.000000 1 0 0
-18.374078 -7.527874 -6.811554 20.992210 0.388841 1.901258 0.052087 -0.023993 132156.000000 1 0 0
-16.732278 -3.430874 -10.832654 20.225885 0.202242 2.135995 0.055220 -0.015030 -243671.000000 1 0 0
-15.765778 -4.142474 -12.766754 20.705310 0.256943 2.235204 0.051761 -0.011270 287193.000000 1 0 0
-19.464878 -5.019774 -5.867754 20.940634 0.252390 1.854808 0.060524 -0.017956 91896.700000 1 0 0
5.538222 -13.400674 8.623846 16.870705 -1.178895 1.034248 0.016527 -0.008702 246985.000000 1 0 0
19.889622 -3.541074 2.917346 20.411937 -0.176190 1.427382 0.083182 -0.012467 -79865.100000 1 0 0
18.088422 -2.378474 0.261846 18.246006 -0.130741 1.556445 0.049346 -0.016199 201495.000000 1 0 0
13.993222 -11.212874 0.320346 17.934365 -0.675538 1.552933 0.025567 -0.003573 -33459.000000 1 0 0
11.038422 -13.529774 5.430546 18.286399 -0.886458 1.269276 0.017194 -0.008699 403629.000000 1 0 0
10.015622 -12.898074 8.606146 18.459110 -0.910537 1.085775 0.034914 -0.026979 105828.000000 1 0 0
18.049222 5.324126 -5.115454 19.500990 0.286843 1.836220 0.031178 0.011536 -13506.400000 1 0 0
19.166222 -6.060574 -4.901854 20.690645 -0.306262 1.809982 0.109365 -0.011362 -3601.260000 1 0 0
17.699822 -10.204674 -0.006754 20.430837 -0.522992 1.571127 0.056653 -0.001991 224521.000000 1 0 0
17.856822 -8.550874 8.608746 21.589211 -0.446591 1.160641 0.152211 -0.032350 130250.000000 1 0 0
19.311222 0.305126 -2.392554 19.461262 0.015799 1.694047 0.060601 -0.003786 38836.300000 1 0 0
7.343322 -13.475974 11.546346 19.205321 -1.071862 0.925787 0.018427 -0.001993 418004.000000 1 0 0
16.222422 -6.367174 -3.367654 17.749619 -0.374017 1.761685 0.051516 -0.008563 272551.000000 1 0 0
14.313122 -6.768074 11.707446 19.691028 -0.441699 0.934081 0.100499 -0.045401 288567.000000 1 0 0
16.751822 0.953026 9.811346 19.436932 0.056830 1.041671 0.133629 -0.037033 347218.000000 1 0 0
16.517922 -10.318474 2.651446 19.655605 -0.558372 1.435489 0.028335 -0.009509 256599.000000 1 0 0
16.105422 -7.032374 -5.614054 18.448754 -0.411694 1.880005 0.059847 -0.012040 169375.000000 1 0 0
19.124722 -4.827974 5.511746 20.480324 -0.247280 1.298313 0.217125 -0.031733 -211570.000000 1 0 0
13.477722 -13.284074 8.104946 20.586543 -0.778162 1.166142 0.081805 -0.023357 224913.000000 1 0 0
15.164122 -14.212074 -1.470754 20.834989 -0.753001 1.641446 0.032777 -0.000088 101785.000000 1 0 0
18.629022 -6.304174 7.769146 21.145749 -0.326309 1.194574 0.148524 -0.037593 178909.000000 1 0 0
19.831022 3.635626 2.559646 20.323361 0.181317 1.444515 0.079016 -0.006391 192408.000000 1 0 0
15.837722 -10.328974 8.100046 20.570170 -0.577903 1.166060 0.107055 -0.043244 403928.000000 1 0 0
14.140922 -4.181274 10.753546 18.250684 -0.287494 0.940712 0.085959 -0.020865 -101226.000000 1 0 0
18.699622 -7.683474 1.897646 20.305485 -0.389858 1.477205 0.085484 -0.019806 -34939.000000 1 0 0
19.021622 -5.395174 -1.336954 19.817100 -0.276375 1.638312 0.076018 -0.011820 154405.000000 1 0 0
15.062622 -12.984874 -6.124854 20.808733 -0.711454 1.869562 0.074225 -0.016341 112445.000000 1 0 0
13.772922 -9.319974 10.327946 19.576051 -0.594909 1.015046 0.069607 -0.028292 301324.000000 1 0 0
14.221022 2.196126 0.463746 14.397066 0.153218 1.538580 -0.004881 -0.000663 -131990.000000 1 0 0
13.037222 2.809126 13.362146 18.878753 0.212225 0.784435 0.077766 -0.020895 166182.000000 1 0 0
18.127722 -3.777074 9.286546 20.715225 -0.205420 1.105939 0.121175 -0.025019 97683.200000 1 0 0
7.424122 -18.034974 4.747546 20.072794 -1.180286 1.332017 0.053381 -0.028156 338414.000000 1 0 0
12.950922 -2.884274 14.766446 19.851785 -0.219132 0.732007 0.085989 -0.010501 296454.000000 1 0 0
11.667422 -13.428374 -6.827054 19.054098 -0.855453 1.937241 0.045705 -0.014068 32757.500000 1 0 0
11.027322 -17.004074 4.291546 20.716122 -0.995469 1.362126 0.057486 -0.028005 488517.000000 1 0 0
18.428722 -0.357374 -5.319754 19.184507 -0.019390 1.851773 0.108701 -0.005474 295417.000000 1 0 0
4.060622 -13.394174 11.344146 18.016165 -1.276440 0.889675 -0.011838 -0.012089 15698.800000 1 0 0
9.626222 -3.129274 14.251046 17.479955 -0.314303 0.617585 0.044918 -0.002482 263430.000000 1 0 0
9.150622 -9.615874 13.904946 19.223591 -0.810185 0.762188 0.057307 -0.015141 356244.000000 1 0 0
21.043822 5.639426 -3.093754 22.004929 0.261833 1.711857 0.136844 -0.008949 600677.000000 1 0 0
14.651022 -13.580774 1.942046 20.071408 -0.747507 1.473888 0.033210 -0.006032 132768.000000 1 0 0
11.915522 -0.047774 14.904846 19.082358 -0.004009 0.674403 0.079574 -0.010921 -89185.600000 1 0 0
19.723022 0.192226 7.812346 21.214790 0.009746 1.193670 0.143138 -0.027772 183446.000000 1 0 0
19.684222 1.278326 0.694146 19.737897 0.064851 1.535621 0.071438 -0.011200 175991.000000 1 0 0
17.916422 0.168526 3.053646 18.175570 0.009406 1.401987 0.042023 -0.008179 11009.600000 1 0 0
10.252822 -8.453174 16.388346 21.098682 -0.689486 0.681312 0.066223 -0.015454 29012.300000 1 0 0
18.702422 3.028126 5.743646 19.797465 0.160518 1.276444 0.036015 -0.012453 -47270.100000 1 0 0
15.683922 2.516426 6.994846 17.356431 0.159090 1.155991 0.066910 -0.016072 46345.400000 1 0 0
11.948322 -15.689374 1.641046 19.789186 -0.919941 1.487775 0.039099 -0.009090 188440.000000 1 0 0
8.863322 -16.406874 6.959746 19.904323 -1.075493 1.213588 0.037212 -0.002043 289889.000000 1 0 0
6.204522 6.664326 7.117646 11.557258 0.821113 0.907320 0.000032 0.000099 -1100980.000000 1 0 0
18.606822 2.734526 -6.177354 19.795231 0.145919 1.888160 0.090349 0.000053 295538.000000 1 0 0
14.354022 4.547626 -7.330454 16.746773 0.306815 2.023861 0.021080 0.000393 255432.000000 1 0 0
-10.512778 -3.908574 -13.891054 17.853762 0.355956 2.462346 0.017757 0.001484 -306704.000000 1 0 0
7.494022 -14.674974 -10.043854 19.297519 -1.098652 2.118202 0.030021 0.002440 -182939.000000 1 0 0
1.967222 -15.930274 13.856046 21.204566 -1.447929 0.858668 0.001723 -0.007724 317861.000000 1 0 0
-9.555878 -8.021674 2.301546 12.686968 0.698337 1.388376 0.007612 -0.001433 251510.000000 1 0 0
-13.917678 3.066026 -9.469554 17.110661 -0.216834 2.157273 0.032808 -0.011666 309961.000000 1 0 0
-12.819478 -5.265174 -13.176454 19.122762 0.389711 2.330968 0.033916 0.002360 167594.000000 1 0 0
-18.010678 -1.563774 -8.454754 19.957775 0.086608 2.008248 0.073740 -0.038692 220733.000000 1 0 0
-12.512278 15.195226 4.170046 20.120668 -0.881928 1.362031 0.059293 -0.020658 415908.000000 1 0 0
-17.402778 5.762826 9.452346 20.625559 -0.319779 1.094734 0.037195 -0.024426 42827.100000 1 0 0
-12.766678 15.223326 -0.208654 19.869103 -0.872943 1.581298 0.059312 -0.033958 127272.000000 1 0 0
-15.959678 5.038326 -10.682554 19.854798 -0.305789 2.138899 0.044152 -0.014184 76735.800000 1 0 0
-18.410278 2.872426 -0.421454 18.637778 -0.154775 1.593411 0.083009 -0.013141 -117314.000000 1 0 0
-9.888578 15.519726 -0.302154 18.404814 -1.003499 1.587214 0.039277 -0.014115 -109133.000000 1 0 0
-18.647378 12.046626 2.407746 22.330319 -0.573574 1.462762 0.158973 -0.038528 108371.000000 1 0 0
-8.702178 16.500826 -7.535954 20.119537 -1.085487 1.954717 0.063960 -0.027469 194369.000000 1 0 0
-14.407278 -1.584274 -12.534154 19.162061 0.109523 2.283806 0.017977 -0.028122 19463.000000 1 0 0
-19.273078 5.100626 -4.930554 20.537241 -0.258719 1.813243 0.107824 -0.014129 128032.000000 1 0 0
-17.034178 9.664126 -5.792054 20.423184 -0.516057 1.858344 0.062004 0.002820 -71955.000000 1 0 0
-19.071378 1.225926 2.401146 19.260993 -0.064193 1.445807 0.089527 -0.028869 227331.000000 1 0 0
-14.682978 12.038326 -7.481654 20.407995 -0.686748 1.946153 0.057330 -0.008961 51545.300000 1 0 0
-12.836578 4.971526 -13.542454 19.310408 -0.369505 2.348021 0.040320 -0.024835 44851.300000 1 0 0
-14.153578 9.411026 -6.461454 18.183552 -0.586794 1.934081 0.031112 -0.012919 213571.000000 1 0 0
-6.560978 11.543426 -15.268254 20.234048 -1.053956 2.425814 0.020040 -0.030621 -177075.000000 1 0 0
-15.341078 13.672326 2.915246 20.755236 -0.727945 1.429872 0.073760 -0.030132 -73817.100000 1 0 0
-18.751978 8.323726 -5.242454 21.175562 -0.417757 1.820969 0.084259 -0.014951 67366.800000 1 0 0
-4.670678 16.132026 -11.415654 20.307010 -1.288974 2.167784 0.004870 -0.006971 119766.000000 1 0 0
-19.554178 -1.988874 -6.717154 20.771173 0.101362 1.900104 0.056472 -0.021902 -407345.000000 1 0 0
-10.792278 13.445526 -6.214954 18.327059 -0.894431 1.916771 0.037072 -0.032649 143545.000000 1 0 0
-19.256978 2.881826 4.136446 19.905936 -0.148549 1.361471 0.082082 -0.022045 -55740.000000 1 0 0
-15.396878 12.938726 0.419946 20.115935 -0.698863 1.549919 0.046609 -0.007133 28621.200000 1 0 0
-17.719378 2.566026 -8.219154 19.700643 -0.143815 2.001161 0.055533 -0.024045 267246.000000 1 0 0
-16.344478 13.879526 -4.282654 21.866054 -0.704022 1.767929 0.050006 0.016495 107167.000000 1 0 0
-10.375478 15.480426 -9.139754 20.756426 -0.980329 2.026767 0.037203 -0.023481 174513.000000 1 0 0
-19.253078 1.332426 -6.845154 20.477121 -0.069096 1.911641 0.077835 -0.031937 101185.000000 1 0 0
-17.198278 10.450926 -0.427654 20.129220 -0.546042 1.592043 0.058374 -0.012988 105354.000000 1 0 0
-11.774878 6.997826 -14.552154 19.984557 -0.536219 2.386444 0.031266 -0.017274 392603.000000 1 0 0
-13.454978 12.584326 -5.027454 19.096518 -0.751975 1.837202 0.055473 -0.019549 376239.000000 1 0 0
-18.748278 7.547926 -0.238854 20.212030 -0.382740 1.582614 0.071861 -0.014785 162669.000000 1 0 0
-14.726578 8.780426 -10.072854 19.885431 -0.537643 2.101969 0.037556 -0.016551 508272.000000 1 0 0
-18.874378 11.186526 4.594846 22.416358 -0.535022 1.364356 0.115456 -0.041258 54403.200000 1 0 0
-8.169578 12.257326 -13.200954 19.780021 -0.982905 2.301493 0.007020 -0.006282 501665.000000 1 0 0
-21.038378 -1.739474 -4.909354 21.673506 0.082493 1.799294 0.080032 -0.038179 199828.000000 1 0 0
-10.835878 13.790426 -3.518354 17.887731 -0.904803 1.768778 0.034477 0.001126 545190.000000 1 0 0
-18.795478 -4.882474 3.551846 19.741432 0.254151 1.389893 0.060849 -0.018648 -78854.200000 1 0 0
-11.544878 11.504926 -12.330754 20.437588 -0.783665 2.218475 0.045641 -0.022579 279405.000000 1 0 0
-14.686478 11.182526 -10.118254 21.050430 -0.650768 2.072212 0.058331 -0.028086 182536.000000 1 0 0
-12.468778 9.892326 -13.902254 21.132941 -0.670684 2.288754 0.046874 -0.019418 273282.000000 1 0 0
-17.680978 -5.307374 -3.207254 18.736907 0.291617 1.742817 -0.027294 -0.010342 -311927.000000 1 0 0
-9.465678 12.613126 -11.386954 19.451291 -0.926999 2.196180 0.033382 -0.016540 -77634.800000 1 0 0
-15.923478 7.575326 -8.284854 19.482852 -0.444046 2.010021 0.036699 -0.006160 -156799.000000 1 0 0
-14.729378 8.905726 1.958846 17.323499 -0.543812 1.457479 0.025897 -0.006684 -186265.000000 1 0 0
-19.890578 5.806826 7.615346 22.075955 -0.284045 1.218599 0.079613 -0.026854 212466.000000 1 0 0
-18.548678 5.818826 3.697046 19.788389 -0.303983 1.382863 0.024853 -0.013062 199027.000000 1 0 0
-14.968978 12.159826 5.900246 20.167909 -0.682217 1.273897 0.058212 -0.028546 12012.700000 1 0 0
17.695422 6.016826 5.414046 19.458727 0.327758 1.288843 0.019555 -0.018987 79579.400000 1 0 0
18.334622 7.549126 0.433646 19.832693 0.390587 1.548929 0.031551 -0.003228 -86864.400000 1 0 0
15.937922 5.253926 9.123746 19.101409 0.318431 1.072821 0.040856 0.003374 -98779.900000 1 0 0
11.874922 13.240926 10.571346 20.690318 0.839733 1.034528 0.052307 -0.020434 4968.080000 1 0 0
15.691122 12.443426 4.197946 20.461498 0.670472 1.364166 0.055659 -0.002857 227419.000000 1 0 0
4.846922 10.329326 14.191346 18.209391 1.132059 0.677181 0.030184 -0.021952 126222.000000 1 0 0
12.530222 14.533526 -4.994854 19.828727 0.859285 1.825439 0.077114 0.016461 220212.000000 1 0 0
18.497122 9.273626 -2.616354 20.856389 0.464731 1.696574 0.078052 -0.018008 -63268.100000 1 0 0
14.504222 7.374126 9.545546 18.864455 0.470355 1.040247 0.047840 -0.007699 17.638400 1 0 0
4.388122 18.929126 -0.895954 19.451739 1.343001 1.616873 0.012117 -0.031451 316787.000000 1 0 0
-4.424778 18.810626 2.947446 19.547525 -1.339769 1.419435 0.025846 -0.031053 243547.000000 1 0 0
8.083622 13.459426 12.076946 19.807921 1.029942 0.915111 0.067256 -0.006047 -29411.900000 1 0 0
-0.149178 17.416426 -10.056054 20.111648 -1.562231 2.094408 0.020814 0.001468 8605.290000 1 0 0
10.465922 9.163326 15.731546 20.999610 0.719135 0.724041 0.048324 -0.021885 167525.000000 1 0 0
-1.249678 12.053826 1.041346 12.163093 -1.467491 1.485076 0.000275 -0.003510 588049.000000 1 0 0
-4.753478 19.129526 -2.483554 19.867118 -1.327240 1.696132 0.041443 -0.006121 127506.000000 1 0 0
5.980022 18.649226 6.078346 20.506111 1.260497 1.269858 0.039982 -0.013791 253774.000000 1 0 0
11.270322 17.335226 -1.727254 20.748822 0.994323 1.654139 0.074732 -0.013582 476029.000000 1 0 0
18.433222 10.919626 2.570646 21.578465 0.534804 1.451383 0.036060 -0.005858 319804.000000 1 0 0
11.813922 16.629126 6.446746 21.392922 0.953101 1.264689 0.061538 -0.005874 19827.200000 1 0 0
18.043122 8.150826 -6.256454 20.763753 0.424301 1.876869 0.044624 0.017984 288604.000000 1 0 0
0.091622 15.163626 10.903846 18.677200 1.564754 0.947389 0.011237 -0.019253 212870.000000 1 0 0
1.543622 20.406326 -2.193054 20.581798 1.495296 1.677552 0.024641 -0.005965 316389.000000 1 0 0
14.283122 9.797926 -1.060354 17.353135 0.601254 1.631939 0.031052 -0.012778 -281830.000000 1 0 0
10.153322 16.982626 2.022046 19.889399 1.031948 1.468956 0.047574 -0.026334 172256.000000 1 0 0
0.592322 17.610526 -0.333554 17.623641 1.537174 1.589724 0.008076 -0.012270 49176.600000 1 0 0
0.040622 21.033226 0.959246 21.055128 1.568865 1.525222 0.020505 -0.014440 150439.000000 1 0 0
5.967622 18.369126 0.393346 19.318179 1.256680 1.550433 0.011069 -0.008357 -88449.300000 1 0 0
6.653122 18.451326 -1.977154 19.713564 1.224730 1.671259 0.026885 -0.021280 -28777.700000 1 0 0
10.513422 9.421826 12.791746 19.050764 0.730696 0.834625 0.042959 -0.009394 -132822.000000 1 0 0
13.018522 14.723226 8.185546 21.289868 0.846770 1.176151 0.070733 -0.015791 222724.000000 1 0 0
0.345522 17.620426 7.047046 18.980507 1.551190 1.190411 0.007024 -0.002494 210394.000000 1 0 0
6.799422 17.959526 -7.843854 20.743740 1.208876 1.958573 0.043185 -0.019766 115074.000000 1 0 0
-1.620878 18.329626 8.811746 20.402189 -1.482596 1.124196 0.053969 -0.023546 -5526.080000 1 0 0
15.926922 6.922226 -7.952654 19.100491 0.409994 2.000233 0.051195 0.004758 -239249.000000 1 0 0
-5.458378 19.421226 -6.693354 21.255091 -1.296812 1.891154 0.029687 -0.017130 317119.000000 1 0 0
3.988822 15.719126 9.864346 18.981753 1.322286 1.024326 0.025866 -0.007664 158897.000000 1 0 0
9.206922 14.947626 7.497546 19.089582 1.018735 1.167170 0.035647 -0.007201 37264.700000 1 0 0
-2.514978 19.471926 6.345046 20.633483 -1.442348 1.258219 0.024411 -0.012074 153781.000000 1 0 0
4.915722 18.026626 8.128346 20.376300 1.304577 1.160467 0.034026 -0.010331 128314.000000 1 0 0
14.225522 12.214026 -6.228754 19.757158 0.709465 1.891533 0.040887 -0.017750 92929.000000 1 0 0
11.747922 7.338326 15.400246 20.713094 0.558347 0.732503 0.073099 -0.015329 38572.200000 1 0 0
17.393822 9.250626 4.799646 20.276976 0.488789 1.331824 0.056083 -0.010083 271876.000000 1 0 0
5.183422 14.737726 11.881946 19.627763 1.232598 0.920573 0.020892 -0.038008 104711.000000 1 0 0
16.047022 10.341626 -3.864254 19.477901 0.572469 1.770513 0.069109 -0.030644 247367.000000 1 0 0
15.370822 13.824426 6.729746 21.740893 0.732480 1.256084 0.071930 0.005694 378526.000000 1 0 0
12.866822 13.420426 -7.989654 20.236045 0.806455 1.976671 0.163074 -0.056302 552700.000000 1 0 0
-8.821078 15.503126 9.604946 20.258660 -1.053493 1.076837 0.061957 -0.030519 113293.000000 1 0 0
-3.882778 17.464626 -7.995854 19.596500 -1.352032 1.991086 -0.002444 0.030099 44551.200000 1 0 0
2.992122 19.403726 -4.646654 20.175450 1.417798 1.803195 0.037550 -0.022863 144199.000000 1 0 0
7.116422 16.339926 9.073046 19.998920 1.160046 1.099909 0.038365 -0.018410 456698.000000 1 0 0
13.361922 15.608226 -1.387554 20.593275 0.862782 1.638226 0.092298 -0.021941 195643.000000 1 0 0
12.959922 16.752226 4.467246 21.646084 0.912347 1.362926 0.068545 -0.016422 271101.000000 1 0 0
2.333022 18.461126 1.154746 18.643755 1.445088 1.508819 0.011313 -0.024209 -499779.000000 1 0 0
-7.637078 16.994226 1.525146 18.693709 -1.148448 1.489119 0.038456 -0.013647 256653.000000 1 0 0
0.196622 19.906426 -6.179754 20.844515 1.560919 1.871790 0.037076 -0.003716 181130.000000 1 0 0
-7.303478 17.902426 -6.329354 20.344492 -1.183447 1.887156 0.051864 -0.024011 4721.620000 1 0 0
-7.493078 18.581326 -1.444754 20.087290 -1.187484 1.642782 0.067086 -0.018198 103670.000000 1 0 0
-14.146178 -8.034074 9.167046 18.673388 0.516507 1.057657 0.054260 -0.022706 287218.000000 1 0 0
-13.366678 -13.576074 8.073846 20.692145 0.793170 1.169960 0.061376 -0.005694 -53598.800000 1 0 0
-3.262978 -15.664374 13.031046 20.635595 1.365427 0.887331 0.025512 -0.001219 89796.700000 1 0 0
-1.756978 -14.587574 15.940546 21.679144 1.450930 0.744696 0.025587 0.006626 504636.000000 1 0 0
-7.990678 -13.497874 13.103546 20.438847 1.036283 0.874853 0.057358 -0.018053 191716.000000 1 0 0
-9.951178 -10.921574 11.924746 18.987003 0.831856 0.891754 0.054129 -0.015626 -33194.500000 1 0 0
-7.187978 -10.334974 12.975146 18.078527 0.963097 0.770288 0.039231 -0.014828 319642.000000 1 0 0
-15.126178 -11.712374 8.283346 20.846937 0.658880 1.162179 0.051526 0.004181 268703.000000 1 0 0
-4.698478 -12.770174 13.382946 19.085499 1.218242 0.793703 0.038297 -0.005356 371866.000000 1 0 0
3.893622 -13.304474 14.217446 19.857117 -1.286092 0.772759 -0.018265 0.027540 477955.000000 1 0 0
6.540422 -13.527174 14.728946 21.040518 -1.120434 0.795360 0.023888 -0.000109 240220.000000 1 0 0
7.201722 -9.015474 16.754446 20.343427 -0.896777 0.603102 0.036301 -0.016192 404977.000000 1 0 0
-5.094578 13.371326 13.451946 19.639296 -1.206769 0.816261 0.010269 -0.017211 457988.000000 1 0 0
-13.644278 -2.087374 17.674346 22.425565 0.151808 0.663025 0.055235 -0.009785 397043.000000 1 0 0
-10.408778 10.975526 13.490346 20.268060 -0.811895 0.842504 0.025725 0.023979 330706.000000 1 0 0
-7.521678 -8.253474 17.039846 20.372821 0.831754 0.580113 0.062263 -0.019471 235894.000000 1 0 0
-5.173478 1.842226 19.014146 19.791322 -0.342090 0.281170 0.027924 0.006622 505524.000000 1 0 0
-16.127178 -3.225474 13.640746 21.367253 0.197398 0.878385 0.087759 -0.033865 22163.400000 1 0 0
-14.577378 2.911426 12.506546 19.426529 -0.197128 0.871359 0.023860 -0.003473 283792.000000 1 0 0
-14.433278 10.836126 9.371646 20.336393 -0.643996 1.091865 -0.001033 -0.001967 -188055.000000 1 0 0
-4.807778 11.198126 16.011246 20.121450 -1.165257 0.650584 0.031669 -0.007559 79565.200000 1 0 0
-12.746578 13.410626 7.794646 20.076769 -0.810780 1.172073 0.032766 -0.025405 61729.000000 1 0 0
-4.386278 -6.676074 18.577646 20.222224 0.989506 0.406084 0.050628 -0.015543 331554.000000 1 0 0
0.815722 -2.753974 17.758646 17.989421 -1.282831 0.160349 0.025094 -0.026287 97554.700000 1 0 0
-4.698578 6.572626 21.139546 22.630874 -0.950160 0.365061 0.042204 -0.011874 127096.000000 1 0 0
2.207522 -10.277674 16.580446 19.631987 -1.359223 0.565048 -0.009369 -0.009983 77204.200000 1 0 0
-14.772578 -0.123074 14.405746 20.634188 0.008331 0.797987 0.014261 0.002258 -339095.000000 1 0 0
-13.802878 -5.742474 7.611446 16.775862 0.394252 1.099868 0.040582 -0.016753 45926.800000 1 0 0
10.239322 0.809526 16.457046 19.399315 0.078896 0.557971 0.061587 0.004126 489875.000000 1 0 0
-7.420978 12.216426 11.870746 18.580274 -1.024910 0.877742 0.019910 -0.022461 10382.900000 1 0 0
-1.779978 7.286026 19.548446 20.937914 -1.331189 0.366357 0.054652 -0.037598 636316.000000 1 0 0
1.297222 -12.939674 15.298946 20.079235 -1.470879 0.704510 -0.015683 -0.020047 435769.000000 1 0 0
-3.369478 -11.548974 17.681446 21.386110 1.286920 0.597451 0.062432 -0.022088 213348.000000 1 0 0
-1.906278 9.162826 16.164046 18.677999 -1.365678 0.524837 0.019056 -0.020953 254867.000000 1 0 0
-4.523278 -9.593174 20.509546 23.089619 1.130199 0.477257 0.096010 -0.024067 191042.000000 1 0 0
-6.681278 -3.025974 19.103846 20.463453 0.425266 0.366578 0.039814 -0.019899 288110.000000 1 0 0
-10.905278 -8.115774 15.689446 20.759325 0.639783 0.713955 0.091965 -0.030911 256913.000000 1 0 0
-0.790578 5.524226 17.727646 18.585250 -1.428650 0.304971 0.040786 -0.026304 111592.000000 1 0 0
-6.438978 -11.159574 18.675246 22.688352 1.047467 0.603912 0.118932 -0.034800 518132.000000 1 0 0
0.575122 3.645826 18.772546 19.131944 1.414338 0.194136 0.033702 -0.010967 156216.000000 1 0 0
-18.307778 -0.566574 7.761246 19.893031 0.030937 1.170003 0.061990 -0.024671 66850.000000 1 0 0
-1.565578 -8.536974 17.709146 19.721684 1.389424 0.455700 0.035314 -0.014732 331095.000000 1 0 0
5.172822 3.354626 13.912246 15.217168 0.575327 0.417152 0.020080 -0.010597 -341501.000000 1 0 0
-15.114078 -6.980074 11.127046 20.024184 0.432645 0.981615 0.123038 0.002134 103845.000000 1 0 0
3.332222 8.421326 16.820246 19.103484 1.194012 0.493921 0.034516 -0.010621 82850.900000 1 0 0
6.285922 4.267626 16.552446 18.212878 0.596436 0.430321 0.045195 -0.044940 239064.000000 1 0 0
5.709622 -9.470174 18.263646 21.350521 -1.028243 0.544437 0.014452 0.000270 196994.000000 1 0 0
-4.414578 -0.297274 19.800446 20.288778 0.067238 0.219847 0.041698 -0.014732 697727.000000 1 0 0
-11.342378 1.797626 17.147346 20.637647 -0.157180 0.590114 0.040989 -0.007617 228380.000000 1 0 0
-16.621878 -4.161574 8.270346 19.026406 0.245324 1.121116 0.062342 -0.038629 -37786.200000 1 0 0
-13.484578 -9.265874 12.731246 20.731013 0.602047 0.909531 0.076700 -0.038210 8526.920000 1 0 0
-14.893378 6.089826 12.833746 20.581636 -0.388151 0.897517 0.048766 -0.018475 220522.000000 1 0 0
1.395822 9.433226 17.066246 19.549701 1.423894 0.509544 0.032476 -0.020348 -12316.800000 1 0 0
-3.928878 -10.387474 15.072946 18.722430 1.209195 0.634996 0.037936 -0.011791 607227.000000 1 0 0
-18.946078 -3.103374 6.600146 20.301397 0.162359 1.239670 0.153373 -0.027150 -321498.000000 1 0 0
-0.658178 -0.360674 21.086746 21.100098 0.501298 0.035577 0.045683 -0.009616 566954.000000 1 0 0
-1.775678 2.561326 20.191746 20.430860 -0.964605 0.153143 0.043629 -0.020987 151102.000000 1 0 0
-8.365878 1.515226 16.000446 18.118998 -0.179177 0.488419 0.010784 0.004373 252364.000000 1 0 0
3.475122 -3.059974 18.505346 19.075842 -0.721957 0.245182 0.037030 -0.012919 -36247.200000 1 0 0
-11.897678 3.916826 14.871346 19.443590 -0.318034 0.699995 -0.016984 0.003585 198683.000000 1 0 0
-13.168178 -5.098374 13.108146 19.267014 0.369401 0.822568 0.026260 -0.024741 -13555.400000 1 0 0
-17.376578 -0.794274 9.914046 20.021604 0.045678 1.052769 0.071144 -0.025201 190223.000000 1 0 0
-7.468778 7.791226 14.575546 18.136493 -0.806525 0.637379 0.001575 -0.011235 68943.200000 1 0 0
-9.690378 0.875326 13.978346 17.031259 -0.090085 0.608080 0.018042 -0.005885 215312.000000 1 0 0
7.442122 -0.840774 14.908146 16.683672 -0.112498 0.465545 0.028285 -0.007897 164337.000000 1 0 0
4.221922 6.718726 18.306846 19.952607 1.009769 0.409006 0.030717 0.000777 127378.000000 1 0 0
2.113422 0.721326 19.815946 19.941379 0.328910 0.112220 0.028407 -0.015328 283274.000000 1 0 0
-7.207678 7.010126 17.386746 20.084607 -0.771504 0.524299 0.004528 -0.014352 619524.000000 1 0 0
7.509422 -2.958674 17.081646 18.892533 -0.375319 0.441415 0.022486 0.003315 213815.000000 1 0 0
-16.370078 2.483226 8.978246 18.834935 -0.150545 1.073922 0.034278 -0.019088 321592.000000 1 0 0
3.723622 -6.509074 18.947746 20.377696 -1.051170 0.376852 0.019317 -0.035940 137748.000000 1 0 0
-3.941378 -3.996174 20.447846 21.204204 0.792301 0.267897 0.049203 -0.021330 347195.000000 1 0 0
-10.081478 5.792126 14.319046 18.445053 -0.521482 0.682009 0.016571 -0.005918 52016.500000 1 0 0
6.802322 3.033526 19.496846 20.871053 0.419485 0.364906 0.071939 -0.027931 177218.000000 1 0 0
-7.183678 11.347426 14.456746 19.732380 -1.006417 0.748602 0.024752 -0.026696 234377.000000 1 0 0
-14.480878 5.172326 8.763646 17.698878 -0.343060 1.052786 0.013757 -0.014746 68498.500000 1 0 0
0.650222 -5.600874 20.523746 21.284190 -1.455221 0.268115 0.037222 -0.021460 195320.000000 1 0 0
-6.432678 -8.295274 13.641246 17.212626 0.911197 0.655876 0.032749 -0.006292 327425.000000 1 0 0
-12.481778 10.054626 6.665046 17.358373 -0.678113 1.176707 -0.004789 -0.021658 101900.000000 1 0 0
-19.760678 2.280626 7.413146 21.228292 -0.114904 1.214068 0.074338 -0.027651 -57528.500000 1 0 0
-15.920378 9.242326 6.374246 19.481017 -0.525984 1.237454 0.031039 -0.013538 141283.000000 1 0 0
-13.147278 7.150926 14.123046 20.577830 -0.498155 0.814375 0.043558 -0.018849 240576.000000 1 0 0
-16.695878 8.817426 10.147446 21.435251 -0.485890 1.077650 0.048076 -0.026150 165899.000000 1 0 0
2.561422 10.681026 14.331746 18.056693 1.335431 0.653915 0.026689 -0.057921 225770.000000 1 0 0
1.640422 14.566726 13.638446 20.022180 1.458654 0.821441 0.026852 -0.024562 610507.000000 1 0 0
8.918622 5.309826 16.936546 19.864105 0.537004 0.549816 0.050714 0.007128 171193.000000 1 0 0
-0.169978 13.194226 13.475146 18.859906 -1.557914 0.774907 0.006802 -0.005058 227129.000000 1 0 0
4.720022 13.345226 14.693046 20.402433 1.230841 0.766761 0.053483 -0.008592 166093.000000 1 0 0
-3.581478 -4.657374 -13.507854 14.730249 0.915251 2.731326 0.002378 -0.009441 108307.000000 1 0 0
5.029922 -12.012174 16.834846 21.283902 -1.174244 0.658410 -0.026711 0.005069 109394.000000 1 0 0
8.697022 -13.904974 7.219346 17.919415 -1.011865 1.156137 0.013205 -0.007143 183519.000000 1 0 0
-0.370178 15.186926 0.420946 15.197268 -1.546426 1.543094 0.003281 -0.007970 -333470.000000 1 0 0
-14.154078 7.667526 8.370946 18.143914 -0.496463 1.091265 0.016124 -0.011396 71147.600000 1 0 0
-15.895778 -10.104074 4.372446 19.336141 0.566218 1.342695 0.027652 -0.009122 -15897.500000 1 0 0
8.713122 -10.465174 11.508846 17.829523 -0.876501 0.869127 0.008270 -0.004594 169803.000000 1 0 0
-26.334548 6.473726 30.831152 41.060656 -0.241047 0.721420 0.070519 -0.035386 -636675.000000 0 0 1
-25.286128 5.571026 30.627752 40.105907 -0.216855 0.701815 0.062737 -0.035341 -225938.000000 0 0 1
-24.345978 5.675326 31.683000 40.357756 -0.229021 0.668014 0.050218 -0.030284 589738.000000 0 0 1
-22.920478 5.235226 31.207582 39.072613 -0.224556 0.645652 0.059565 -0.034136 494960.000000 0 0 1
-22.529978 3.852726 31.516581 38.932484 -0.169366 0.627464 0.015893 -0.028823 -152218.000000 0 0 1
-21.389878 3.327226 30.894312 37.723412 -0.154315 0.611184 0.042318 -0.032467 -145754.000000 0 0 1
-20.999278 1.933526 31.475382 37.886777 -0.091817 0.590298 0.036474 -0.033411 -91273.900000 0 0 1
-21.890678 0.907326 31.140722 38.075840 -0.041424 0.613114 0.040518 -0.032316 -36062.000000 0 0 1
-21.870478 0.022826 32.264866 38.978711 -0.001044 0.595700 0.037303 -0.024237 -219473.000000 0 0 1
-22.571078 -1.360374 32.138268 39.295960 0.060198 0.613129 0.047508 -0.031729 -157419.000000 0 0 1
-21.878378 -2.328374 31.362982 38.310852 0.106024 0.611749 0.081831 -0.044548 137531.000000 0 0 1
-22.034878 -3.695374 31.793745 38.859154 0.166159 0.612560 0.074259 -0.046782 540844.000000 0 0 1
-23.398278 -4.420574 31.402012 39.409482 0.186726 0.648793 0.059892 -0.032656 1248410.000000 0 0 1
-24.603078 -4.110774 32.070014 40.628755 0.165554 0.661059 0.044064 -0.030548 297972.000000 0 0 1
-24.602878 -4.534774 33.441206 41.763382 0.182273 0.642283 0.036323 -0.022784 -588697.000000 0 0 1
-25.860188 -4.079474 -33.377344 42.419789 0.156462 2.476459 0.047797 -0.020594 42997.300000 0 0 1
-25.817908 -4.585774 -32.075404 41.429763 0.175787 2.456265 0.050061 -0.017960 442884.000000 0 0 1
-26.976718 -4.171774 -31.364744 41.579973 0.153428 2.425419 0.064192 -0.015028 15400.000000 0 0 1
-27.039348 -4.689774 -29.893544 40.580097 0.171734 2.398907 0.051682 -0.010937 -411818.000000 0 0 1
-27.210198 -6.088374 -29.887734 40.874684 0.220128 2.390882 0.049271 -0.013101 488362.000000 0 0 1
-27.033658 -6.498974 -28.560394 39.859145 0.235926 2.369616 0.035381 -0.009159 -145791.000000 0 0 1
-27.208318 -8.039874 -28.353334 40.110394 0.287317 2.355877 0.041354 -0.009882 88440.500000 0 0 1
-28.548668 -8.492574 -28.440174 41.182445 0.289141 2.333100 0.063196 -0.009274 153196.000000 0 0 1
-28.597268 -9.850774 -28.110984 41.292480 0.331736 2.319620 0.074274 -0.005866 -265413.000000 0 0 1
-30.021098 -10.135874 -27.643624 42.049640 0.325608 2.288166 0.137193 -0.012446 -323749.000000 0 0 1
-30.153668 -11.136774 -26.657354 41.759860 0.353794 2.263147 0.156177 -0.017721 -316564.000000 0 0 1
-31.519268 -11.291474 -26.346624 42.604063 0.343997 2.237510 0.154686 -0.018232 44649.400000 0 0 1
-31.667878 -12.221174 -25.187504 42.268451 0.368307 2.209174 0.148087 -0.028978 8838.050000 0 0 1
-31.327958 -11.461174 -23.982254 41.084644 0.350720 2.194109 0.165866 -0.026277 247454.000000 0 0 1
-31.182268 -12.284274 -22.818854 40.545497 0.375281 2.168561 0.181005 -0.038177 -219308.000000 0 0 1
-30.598818 -11.413674 -21.697454 39.208916 0.357025 2.157214 0.192068 -0.040915 -68393.000000 0 0 1
-30.410368 -12.131274 -20.504454 38.631476 0.379574 2.130306 0.206009 -0.042040 656394.000000 0 0 1
-29.099118 -12.676274 -20.271554 37.661419 0.410835 2.139165 0.211512 -0.048342 356228.000000 0 0 1
-28.895788 -13.061974 -18.818054 36.874122 0.424547 2.106367 0.181550 -0.052077 -60315.000000 0 0 1
-28.397438 -11.951174 -18.118254 35.742358 0.398354 2.102396 0.157238 -0.047456 38841.000000 0 0 1
-28.245838 -12.183274 -16.695154 34.999824 0.407220 2.068042 0.155120 -0.046194 -18119.300000 0 0 1
-27.798108 -10.952774 -15.876754 33.834441 0.375333 2.059236 0.142649 -0.040188 297991.000000 0 0 1
-26.405628 -10.676174 -15.970154 32.654000 0.384220 2.081822 0.126016 -0.034917 520200.000000 0 0 1
-26.104908 -9.427774 -15.400554 31.741553 0.346573 2.077372 0.116295 -0.038070 -320586.000000 0 0 1
-24.624378 -9.067074 -15.557354 30.505788 0.352809 2.105958 0.121385 -0.036419 -828.650000 0 0 1
-23.657378 -9.861074 -14.868554 29.630832 0.394929 2.096467 0.125276 -0.046587 213711.000000 0 0 1
-22.470278 -9.124374 -14.826454 28.425188 0.385723 2.119516 0.136598 -0.050801 -287518.000000 0 0 1
-21.406778 -9.450974 -13.763554 27.147863 0.415758 2.102479 0.120511 -0.031663 -75776.000000 0 0 1
-20.774278 -10.677074 -13.913054 27.187195 0.474750 2.108017 0.122156 -0.032847 1198810.000000 0 0 1
-19.514878 -10.726474 -13.192154 25.882825 0.502579 2.105618 0.134084 -0.029430 1264760.000000 0 0 1
-18.492278 -11.792674 -13.673854 25.845808 0.567686 2.128283 0.121325 -0.032950 837886.000000 0 0 1
-17.606878 -11.485374 -14.775654 25.695056 0.578007 2.183448 0.116367 -0.039855 1206250.000000 0 0 1
-18.355778 -11.434674 -16.030754 26.919722 0.557122 2.208687 0.111951 -0.044907 287744.000000 0 0 1
-17.734178 -10.580774 -17.164054 26.852534 0.537939 2.264250 0.116815 -0.047556 -402552.000000 0 0 1
-18.378378 -10.813274 -18.380554 28.152024 0.531824 2.282208 0.071708 -0.029386 106444.000000 0 0 1
-17.927578 -10.008874 -19.403854 28.250401 0.509189 2.327946 0.072289 -0.032048 -275967.000000 0 0 1
-18.721478 -10.340674 -20.701254 29.765167 0.504640 2.339892 0.072090 -0.030890 -483217.000000 0 0 1
-20.069378 -10.000374 -20.685154 30.506770 0.462279 2.315904 0.063021 -0.039967 -638909.000000 0 0 1
-20.743478 -10.649774 -21.690554 31.846345 0.474313 2.320061 0.055811 -0.022264 -178634.000000 0 0 1
-21.985278 -9.988374 -22.321654 32.884286 0.426441 2.316915 0.048470 -0.023619 136342.000000 0 0 1
-21.754078 -8.909174 -23.143254 32.988233 0.388704 2.348382 0.044170 -0.029115 -453666.000000 0 0 1
-22.885478 -8.717574 -23.911754 34.227375 0.363952 2.344256 0.047964 -0.030487 -716100.000000 0 0 1
-22.578578 -7.696374 -25.007754 34.560297 0.328519 2.379797 0.035402 -0.032992 652928.000000 0 0 1
-21.497878 -8.209674 -25.827624 34.592249 0.364791 2.413779 0.043463 -0.036271 833101.000000 0 0 1
-21.136178 -7.359374 -26.932704 35.018123 0.335060 2.448240 0.032281 -0.048978 -211657.000000 0 0 1
-19.850578 -7.857674 -27.587134 34.883211 0.376916 2.482981 0.059529 -0.049317 -389105.000000 0 0 1
-20.130578 -9.008174 -28.332364 35.904181 0.420762 2.480156 0.052830 -0.037751 746737.000000 0 0 1
-18.961178 -9.561174 -28.944404 35.898758 0.467042 2.508630 0.037795 -0.035034 325662.000000 0 0 1
-19.307378 -10.808674 -29.794984 37.112577 0.510352 2.502818 0.046388 -0.034415 -110688.000000 0 0 1
-20.088278 -10.524574 -30.935054 38.357309 0.482597 2.508999 0.053843 -0.030256 364340.000000 0 0 1
-20.176178 -11.743474 -31.743674 39.403657 0.527114 2.507488 0.035085 -0.025443 -119599.000000 0 0 1
-20.774678 -11.566974 -33.130344 40.779919 0.508035 2.519084 0.037653 -0.022827 -114515.000000 0 0 1
-19.991578 -10.774974 33.577732 40.536741 0.494340 0.594679 0.041662 -0.022876 82982.500000 0 0 1
-20.607478 -10.791174 32.302945 39.807008 0.482391 0.624101 0.056887 -0.022787 387623.000000 0 0 1
-20.068078 -11.920974 31.290312 39.037431 0.536016 0.640919 0.070424 -0.026417 130713.000000 0 0 1
-18.709478 -11.804874 30.905992 38.007630 0.562871 0.621249 0.070066 -0.024806 399407.000000 0 0 1
-18.154878 -12.772574 29.985232 37.307538 0.613094 0.637256 0.066760 -0.021911 223332.000000 0 0 1
-18.210978 -14.219374 30.328582 38.126804 0.662932 0.651020 0.072221 -0.015722 -1347960.000000 0 0 1
-19.480278 -14.779474 30.124492 38.799473 0.649039 0.681839 0.073035 -0.020913 -234227.000000 0 0 1
-19.659578 -16.104874 30.673042 39.833422 0.686331 0.691904 0.089406 -0.025480 -29797.900000 0 0 1
-19.816278 -16.198274 32.173868 41.112367 0.685275 0.671991 0.044801 -0.025534 479619.000000 0 0 1
-18.623378 -15.787474 32.852248 40.930975 0.703171 0.639112 0.067758 -0.023694 657301.000000 0 0 1
-19.040478 -15.121474 -33.564614 41.446135 0.671179 2.514671 0.052508 -0.018127 123503.000000 0 0 1
-17.851478 -14.803474 -32.662794 40.058410 0.692328 2.524180 0.062061 -0.025559 342704.000000 0 0 1
-16.956078 -13.736074 -33.094704 39.641490 0.680868 2.558657 0.050477 -0.026461 546707.000000 0 0 1
-15.748978 -13.621674 -32.373584 38.491937 0.713095 2.570015 0.056625 -0.026418 -54298.200000 0 0 1
-15.878378 -13.021774 -30.973844 37.162730 0.686874 2.556146 0.075810 -0.031364 -402144.000000 0 0 1
-16.322978 -14.039174 -30.090114 36.999364 0.710321 2.520530 0.057912 -0.034836 -79831.500000 0 0 1
-16.881578 -13.616174 -28.849434 36.092627 0.678734 2.496953 0.048509 -0.034963 -58790.200000 0 0 1
-17.202578 -14.891874 -28.016024 36.091470 0.713525 2.459493 0.058436 -0.018439 781241.000000 0 0 1
-16.076678 -15.656774 -27.514604 35.505599 0.772167 2.457412 0.078323 -0.034010 554248.000000 0 0 1
-15.345478 -16.330074 -28.493954 36.249971 0.816472 2.475174 0.087926 -0.038463 -679383.000000 0 0 1
-13.970478 -16.875274 -28.134514 35.658099 0.879293 2.479989 0.131083 -0.033507 -35076.900000 0 0 1
-12.875278 -15.962574 -28.042304 34.741148 0.892049 2.510153 0.108416 -0.042462 -103721.000000 0 0 1
-11.902478 -16.497074 -27.184234 33.952982 0.945793 2.499165 0.150604 -0.049467 -982984.000000 0 0 1
-10.514178 -15.988774 -27.463054 33.472499 0.989099 2.533022 0.138944 -0.056775 -775188.000000 0 0 1
-10.301978 -14.586274 -27.363654 32.675062 0.955869 2.563392 0.120598 -0.051024 -72050.200000 0 0 1
-9.072778 -14.255474 -28.000244 32.703937 1.004012 2.598614 0.158767 -0.054985 409306.000000 0 0 1
-8.602178 -12.773774 -27.791794 31.773426 0.978130 2.635585 0.119833 -0.055275 -101056.000000 0 0 1
-9.470378 -11.880774 -28.447524 32.250620 0.897815 2.651049 0.150878 -0.055397 -24368.800000 0 0 1
-8.933578 -10.604274 -28.809504 31.972597 0.870701 2.693024 0.114394 -0.046204 -5315.330000 0 0 1
-7.869678 -10.610574 -29.940524 32.725389 0.932640 2.726061 0.105811 -0.036641 -825394.000000 0 0 1
-6.574778 -10.851174 -29.474964 32.089705 1.026046 2.735111 0.103814 -0.039171 430934.000000 0 0 1
-5.505078 -10.673374 -30.430764 32.714801 1.094607 2.765708 0.104404 -0.034531 751923.000000 0 0 1
-5.284878 -9.172374 -30.805174 32.573319 1.048081 2.810593 0.101745 -0.032134 -1044600.000000 0 0 1
-4.051078 -8.902674 -31.463154 32.948428 1.143759 2.840191 0.116599 -0.043919 326248.000000 0 0 1
-4.072478 -7.532174 -31.865914 32.996291 1.075139 2.879085 0.125895 -0.045353 -1576760.000000 0 0 1
-2.760178 -6.931474 -32.151254 33.005561 1.191835 2.913574 0.119958 -0.048858 -1631580.000000 0 0 1
-2.224278 -7.196274 -33.419534 34.257832 1.271023 2.919914 0.137985 -0.051727 122506.000000 0 0 1
-1.096978 -6.361774 -33.699424 34.312195 1.400043 2.952320 0.158011 -0.047235 344312.000000 0 0 1
-0.283478 -6.897674 32.686016 33.407094 1.529722 0.208147 0.150932 -0.042367 -177428.000000 0 0 1
-0.862478 -6.771574 31.409862 32.143079 1.444111 0.214001 0.151789 -0.042500 -30620.300000 0 0 1
-0.088778 -7.494774 30.454422 31.363217 1.558952 0.241319 0.125304 -0.040080 112921.000000 0 0 1
-0.269278 -7.106874 28.953892 29.814561 1.532925 0.240862 0.111612 -0.023330 175910.000000 0 0 1
0.468622 -5.925274 28.615952 29.226721 -1.491872 0.204796 0.118411 -0.029655 214990.000000 0 0 1
0.271022 -5.474174 27.257932 27.803505 -1.521327 0.198429 0.107738 -0.024852 -1011100.000000 0 0 1
-0.773378 -4.438274 26.934932 27.309100 1.398277 0.165726 0.086659 -0.011692 -776606.000000 0 0 1
-2.058878 -4.974574 27.052292 27.582819 1.178382 0.196448 0.055147 0.002700 -856196.000000 0 0 1
-3.002678 -3.918974 26.873632 27.323370 0.917014 0.181687 0.039273 -0.001357 453067.000000 0 0 1
-4.452578 -4.368774 27.201192 27.907284 0.775898 0.225427 0.043190 -0.000414 277520.000000 0 0 1
-4.990778 -5.368674 26.324412 27.325907 0.821860 0.271574 0.050230 0.000925 -555501.000000 0 0 1
-6.294678 -5.636974 26.758222 28.060665 0.730331 0.305872 0.046212 -0.005244 -26039.200000 0 0 1
-6.600478 -7.120574 26.602982 28.319385 0.823285 0.349946 0.062147 -0.005888 238790.000000 0 0 1
-5.954178 -7.867174 27.615812 29.325377 0.922933 0.343138 0.058890 -0.002196 -100262.000000 0 0 1
-6.315078 -9.251374 27.553022 29.742851 0.971837 0.386127 0.073427 -0.010188 278807.000000 0 0 1
-5.650378 -10.095474 28.687112 30.932116 1.060541 0.383337 0.068289 -0.012104 155763.000000 0 0 1
-5.872378 -11.468874 28.599522 31.368018 1.097573 0.423292 0.102174 -0.015710 184699.000000 0 0 1
-5.309578 -12.092074 29.765042 32.563286 1.157047 0.417594 0.109616 -0.019195 97214.300000 0 0 1
-5.318878 -13.674074 29.617652 33.052626 1.199830 0.459948 0.138064 -0.031594 1019210.000000 0 0 1
-6.685378 -14.136974 29.507982 33.395648 1.129063 0.487327 0.145779 -0.032052 863907.000000 0 0 1
-6.828178 -15.535074 29.424512 33.967108 1.156681 0.523120 0.165726 -0.035681 78162.300000 0 0 1
-7.021478 -16.095774 30.863732 35.509788 1.159451 0.517293 0.167826 -0.033332 -216784.000000 0 0 1
-8.257678 -15.877374 31.493158 36.222911 1.091205 0.516756 0.170390 -0.036473 -354347.000000 0 0 1
-8.265978 -16.491174 32.787053 37.620155 1.106160 0.512485 0.189759 -0.037102 541031.000000 0 0 1
-9.678578 -16.787274 33.445347 38.653314 1.047804 0.525118 0.191685 -0.029442 1100650.000000 0 0 1
-10.279378 -17.961874 32.884822 38.854936 1.051002 0.561704 0.177558 -0.030268 426475.000000 0 0 1
-11.085878 -17.705574 31.738018 37.995866 1.011389 0.582115 0.157619 -0.041710 -422837.000000 0 0 1
-11.909778 -18.855374 31.165252 38.322851 1.007438 0.621117 0.139682 -0.038365 -553442.000000 0 0 1
-12.912678 -19.291374 32.010777 39.542183 0.980938 0.627437 0.138351 -0.040397 -326350.000000 0 0 1
-13.236378 -20.661374 31.856536 40.211105 1.001034 0.656338 0.125978 -0.032126 -242694.000000 0 0 1
-12.460278 -21.523874 32.867902 41.216922 1.046032 0.647761 0.117791 -0.023463 1143520.000000 0 0 1
-11.057478 -21.720974 32.498698 40.623071 1.099920 0.643491 0.125897 -0.032438 1513050.000000 0 0 1
-10.328578 -22.465274 33.469290 41.612035 1.139858 0.636270 0.126950 -0.033593 158953.000000 0 0 1
-10.773078 -23.943474 33.659042 42.688175 1.147994 0.662452 0.120964 -0.024147 -311498.000000 0 0 1
-10.409278 -24.808574 32.597470 42.265985 1.173522 0.690000 0.115703 -0.029792 -116711.000000 0 0 1
-10.720278 -26.146214 33.071847 43.500528 1.181688 0.707078 0.122372 -0.032965 -742396.000000 0 0 1
-10.238178 -27.252844 32.147022 43.370138 1.211435 0.735903 0.082008 -0.028419 1509720.000000 0 0 1
-8.820778 -27.109334 31.813343 42.717806 1.256223 0.730662 0.111447 -0.034118 2241800.000000 0 0 1
-7.884378 -27.626274 32.796746 43.600470 1.292793 0.719385 0.095052 -0.041011 505109.000000 0 0 1
-6.372878 -27.348124 32.597904 43.025072 1.341854 0.711093 0.114521 -0.039983 450978.000000 0 0 1
-6.078278 -25.963304 32.615702 42.128644 1.340828 0.685357 0.132100 -0.041717 -1498750.000000 0 0 1
-4.800278 -25.698834 32.231391 41.501028 1.386135 0.681481 0.199586 -0.026395 -1356620.000000 0 0 1
-4.344778 -24.279674 32.555083 40.843765 1.393723 0.648379 0.215351 -0.040058 -179063.000000 0 0 1
-3.923978 -24.216674 -33.686214 41.672604 1.410156 2.512147 0.198642 -0.041920 -119971.000000 0 0 1
-3.656978 -22.873974 -33.352454 40.607615 1.412263 2.534544 0.170327 -0.027706 -73662.800000 0 0 1
34.878094 -15.890974 1.738246 38.366991 -0.427513 1.525475 0.215633 -0.059895 -243996.000000 0 0 1
35.736774 -16.230874 2.799346 39.349646 -0.426323 1.499596 0.184408 -0.056561 -25704.500000 0 0 1
35.103624 -16.350474 4.058046 38.936746 -0.435897 1.466385 0.148131 -0.051970 66303.900000 0 0 1
36.106884 -16.316874 5.261846 39.970420 -0.424437 1.438770 0.102757 -0.028671 -427390.000000 0 0 1
37.092564 -17.256774 5.179146 41.236854 -0.435451 1.444869 0.128449 -0.035471 -564002.000000 0 0 1
-37.688698 -17.273274 6.406146 41.950478 0.429747 1.417489 0.116781 -0.025330 354879.000000 0 0 1
-36.250198 -17.821774 6.534846 40.919392 0.456931 1.410409 0.134854 -0.028349 123991.000000 0 0 1
-36.226458 -19.221174 6.570946 41.532964 0.487814 1.411918 0.098348 -0.017572 304245.000000 0 0 1
-34.919362 -19.711174 6.814146 40.673392 0.513890 1.402469 0.078364 -0.004017 125703.000000 0 0 1
-34.984137 -21.262174 7.058646 41.542682 0.546110 1.400055 0.096066 -0.002432 -131265.000000 0 0 1
-34.916549 -22.072574 5.877146 41.724151 0.563726 1.429469 0.112638 -0.014238 299981.000000 0 0 1
-34.997335 -23.490674 6.126146 42.592897 0.591144 1.426466 0.121712 -0.014237 -84327.600000 0 0 1
-34.272163 -24.379374 5.109446 42.367930 0.618300 1.449905 0.126610 -0.014967 -227672.000000 0 0 1
-34.934507 -24.436974 3.866146 42.808090 0.610396 1.480360 0.124776 -0.007737 348954.000000 0 0 1
-34.292412 -25.304184 2.900646 42.716331 0.635709 1.502839 0.120775 -0.014396 277557.000000 0 0 1
-34.820834 -24.982074 1.513946 42.882240 0.622339 1.535484 0.117300 -0.012486 -1553880.000000 0 0 1
-36.090138 -25.345184 1.217246 44.117548 0.612251 1.543202 0.105081 -0.011158 -1474060.000000 0 0 1
-36.485458 -24.854374 -0.048354 44.146697 0.598006 1.571892 0.104600 -0.013576 285503.000000 0 0 1
-37.514348 -23.664674 0.011846 44.354743 0.562771 1.570529 0.109845 -0.021363 -120485.000000 0 0 1
36.662774 -24.091174 0.193046 43.870046 -0.581351 1.566396 0.088030 -0.010042 -8359.220000 0 0 1
35.813584 -22.976474 0.519946 42.553513 -0.570417 1.558577 0.101576 -0.014524 -7327.750000 0 0 1
34.306904 -23.231674 0.468146 41.435414 -0.595240 1.559498 0.086086 -0.010367 -343005.000000 0 0 1
33.902484 -23.110374 -0.864054 41.039181 -0.598319 1.591852 0.097746 -0.018045 397600.000000 0 0 1
32.492584 -22.901974 -0.890554 39.762564 -0.613965 1.593195 0.092623 -0.016311 747762.000000 0 0 1
31.766824 -22.846374 -2.271654 39.195004 -0.623489 1.628787 0.101829 -0.014317 162503.000000 0 0 1
32.115854 -21.644974 -2.828054 38.832086 -0.593039 1.643689 0.145746 -0.024230 283931.000000 0 0 1
31.538974 -21.612374 -4.118754 38.454723 -0.600764 1.678109 0.148418 -0.041246 141918.000000 0 0 1
31.646604 -20.169974 -4.704754 37.821556 -0.567431 1.695513 0.154769 -0.048607 441556.000000 0 0 1
30.851194 -19.267174 -3.902054 36.582047 -0.558254 1.677665 0.181745 -0.052047 478422.000000 0 0 1
30.874474 -17.970674 -4.475054 36.002838 -0.527121 1.695416 0.187592 -0.051286 520898.000000 0 0 1
29.749454 -17.124074 -3.743554 34.529381 -0.522292 1.679426 0.186119 -0.033549 432505.000000 0 0 1
29.991054 -16.702574 -2.384554 34.411123 -0.508139 1.640148 0.173330 -0.032047 -105292.000000 0 0 1
30.289054 -17.699974 -1.390254 35.109097 -0.528847 1.610405 0.148198 -0.018415 52799.700000 0 0 1
29.245854 -18.797374 -0.993254 34.779991 -0.571252 1.599358 0.137346 -0.027503 234648.000000 0 0 1
28.248754 -18.439274 -0.039754 33.734263 -0.578304 1.571975 0.126810 -0.006931 217000.000000 0 0 1
27.672954 -19.681974 0.341146 33.960107 -0.618227 1.560751 0.105300 -0.006852 -741.155000 0 0 1
26.504054 -19.493274 1.348246 32.928261 -0.634145 1.529840 0.102607 -0.002368 -571348.000000 0 0 1
25.854054 -20.698274 1.704846 33.162587 -0.675095 1.519365 0.087524 -0.000569 -306802.000000 0 0 1
24.910654 -20.642674 2.715046 32.465861 -0.691979 1.487071 0.060975 0.012956 -663883.000000 0 0 1
23.524654 -20.134774 2.328446 31.052216 -0.707910 1.495741 0.038563 0.003338 -1260680.000000 0 0 1
23.420754 -18.793674 1.837146 30.085030 -0.676225 1.509693 0.098393 -0.017693 40519.600000 0 0 1
23.415054 -17.791174 2.840446 29.544183 -0.649755 1.474505 0.116194 -0.013803 -469004.000000 0 0 1
23.196854 -16.390574 2.259046 28.492951 -0.615132 1.491429 0.109540 0.003017 -88839.000000 0 0 1
21.871454 -16.087974 1.899046 27.217454 -0.634201 1.500966 0.084232 -0.003394 -432817.000000 0 0 1
21.694054 -14.816674 1.372746 26.306848 -0.599214 1.518591 0.098354 -0.014922 -361834.000000 0 0 1
20.327854 -14.580774 0.714246 25.026601 -0.622230 1.542253 0.060677 -0.011433 -85457.900000 0 0 1
19.327854 -14.621174 1.732446 24.297038 -0.647637 1.499433 0.060796 -0.013864 573104.000000 0 1 0
18.344354 -13.578774 1.782546 22.892704 -0.637210 1.492852 0.067897 -0.019295 302986.000000 0 1 0
18.845754 -12.194974 2.314846 22.566310 -0.574330 1.468036 0.078747 -0.016221 -814339.000000 0 1 0
19.790454 -11.626474 1.472146 23.000091 -0.531162 1.506746 0.090193 -0.018384 235693.000000 0 1 0
20.133654 -10.298674 1.841146 22.689569 -0.472817 1.489562 0.101653 -0.023383 -244428.000000 0 1 0
21.008354 -9.553574 0.803946 23.092597 -0.426798 1.535975 0.107786 -0.022572 138574.000000 0 1 0
20.274554 -9.063774 -0.321654 22.210651 -0.420399 1.585279 0.109014 -0.021597 1481060.000000 0 1 0
21.193054 -8.577674 -1.337354 22.902195 -0.384586 1.629224 0.105836 -0.007773 390172.000000 0 1 0
20.455354 -8.261474 -2.675154 22.222284 -0.383845 1.691471 0.107281 -0.009286 -83573.500000 0 1 0
21.245554 -7.706874 -3.748154 22.908909 -0.347990 1.735146 0.126278 -0.009115 919389.000000 0 1 0
22.310354 -8.559674 -4.192454 24.261010 -0.366345 1.744474 0.112790 -0.003922 -42657.500000 0 1 0
21.853054 -9.630874 -5.212154 24.443327 -0.415102 1.785680 0.090383 -0.009003 -80302.100000 0 1 0
21.535854 -9.110974 -6.506954 24.272274 -0.400227 1.842198 0.109337 -0.022383 781351.000000 0 1 0
20.190254 -8.628974 -6.607954 22.929688 -0.403887 1.863125 0.108083 -0.011129 368596.000000 0 1 0
19.551154 -8.830174 -8.019954 22.902822 -0.424221 1.928552 0.113615 -0.006213 -73419.000000 0 1 0
19.489954 -10.134474 -8.610154 23.594504 -0.479507 1.944345 0.106341 -0.010555 898930.000000 0 1 0
20.761054 -10.532974 -9.125754 25.004885 -0.469505 1.944385 0.111131 -0.006338 360733.000000 0 0 1
20.692454 -11.989774 -9.741754 25.823131 -0.525155 1.957620 0.089107 -0.014537 234451.000000 0 0 1
19.757654 -12.068874 -10.826154 25.558330 -0.548356 2.008197 0.116978 -0.012942 433852.000000 0 0 1
19.587954 -13.425374 -11.191154 26.252058 -0.600853 2.011191 0.105590 -0.013781 385095.000000 0 0 1
18.471154 -13.671974 -12.262654 26.047631 -0.637186 2.060969 0.110014 -0.018714 429150.000000 0 0 1
18.415554 -15.015374 -12.608254 26.899111 -0.684039 2.058642 0.102436 -0.026459 498703.000000 0 0 1
17.385454 -15.263174 -13.567354 26.819612 -0.720486 2.101192 0.098852 -0.024454 41478.100000 0 0 1
17.254854 -16.784974 -13.855654 27.774889 -0.771595 2.093074 0.077325 -0.030114 -606769.000000 0 0 1
16.731954 -17.501074 -12.766354 27.371987 -0.807862 2.056015 0.068377 -0.024724 225496.000000 0 0 1
16.839654 -18.840074 -12.970054 28.403250 -0.841406 2.045011 0.063919 -0.030476 81490.200000 0 0 1
15.825654 -19.582374 -11.999354 27.890952 -0.891101 2.015537 0.048012 -0.024690 1033210.000000 0 0 1
14.484254 -19.311874 -12.409454 27.142893 -0.927284 2.045629 0.034316 -0.021738 640625.000000 0 0 1
13.564754 -20.220774 -11.755354 27.038317 -0.979915 2.020575 0.028229 -0.010580 -31639.300000 0 0 1
12.136854 -20.284574 -12.270254 26.633180 -1.031606 2.049595 0.033813 -0.020339 -635743.000000 0 0 1
11.433654 -21.088974 -11.359054 26.542445 -1.073990 2.013029 0.041916 -0.023741 -212387.000000 0 0 1
10.051154 -20.833874 -11.547154 25.853680 -1.121293 2.033797 0.034513 -0.020136 503236.000000 0 0 1
9.027854 -21.402874 -10.527554 25.503226 -1.171634 1.996315 0.030885 -0.011830 -118214.000000 0 0 1
8.955754 -22.790174 -10.678654 26.713877 -1.196369 1.982032 0.047555 -0.014313 -225533.000000 0 0 1
8.049354 -23.385174 -9.788354 26.598314 -1.239291 1.947661 0.054288 -0.022150 -120757.000000 0 0 1
8.188254 -24.927274 -9.676354 27.965127 -1.253415 1.924117 0.061215 -0.020012 650306.000000 0 0 1
9.507054 -25.197864 -9.211254 28.463373 -1.210014 1.900347 0.047343 -0.009195 53229.100000 0 0 1
9.705954 -26.580664 -9.294054 29.784504 -1.220688 1.888139 0.043799 -0.007542 856955.000000 0 0 1
11.189854 -27.027084 -9.027254 30.613190 -1.178259 1.870128 0.033197 0.006482 745876.000000 0 0 1
11.496954 -27.048294 -7.646954 30.368834 -1.168881 1.825339 0.040789 -0.009215 838885.000000 0 0 1
12.876554 -27.471724 -7.542354 31.263211 -1.132484 1.814453 0.037125 0.004638 542830.000000 0 0 1
13.213754 -27.547094 -6.073854 31.150239 -1.123538 1.767039 0.039129 -0.009626 -145854.000000 0 0 1
12.794254 -28.633714 -5.224854 31.794364 -1.150586 1.735878 0.043802 -0.010341 227928.000000 0 0 1
11.388954 -28.650274 -5.017654 31.236570 -1.192433 1.732129 0.054233 -0.018652 -12721.700000 0 0 1
10.947154 -29.875274 -4.163454 32.089041 -1.219561 1.700910 0.066771 -0.030279 106147.000000 0 0 1
11.125554 -31.197274 -4.733654 33.458263 -1.228237 1.712752 0.067352 -0.021483 -115302.000000 0 0 1
10.084654 -31.501554 -5.647554 33.555074 -1.260974 1.739908 0.083884 -0.022886 208467.000000 0 0 1
10.139154 -32.877814 -6.276354 34.973500 -1.271661 1.751234 0.087634 -0.018037 75508.400000 0 0 1
9.732454 -33.828924 -5.294254 35.596993 -1.290665 1.720078 0.087308 -0.022322 -17521.000000 0 0 1
10.008954 32.522479 -5.744054 34.509201 1.272240 1.738025 0.091580 -0.021562 141501.000000 0 0 1
9.696254 31.391156 -4.690954 33.187755 1.271208 1.712617 0.077544 -0.019111 893396.000000 0 0 1
8.295254 31.089906 -4.648554 32.511576 1.310055 1.714270 0.078363 -0.025866 86748.100000 0 0 1
8.066654 30.205656 -3.621554 31.473294 1.309829 1.686119 0.068102 -0.021966 -343826.000000 0 0 1
6.566654 29.876216 -3.554154 30.795150 1.354441 1.686467 0.060935 -0.029823 -176389.000000 0 0 1
6.047454 29.073226 -4.583654 30.047197 1.365713 1.723943 0.078880 -0.031930 -150498.000000 0 0 1
5.737154 29.813766 -5.749254 30.900316 1.380687 1.757945 0.080298 -0.034189 -671092.000000 0 0 1
5.907154 29.053036 -7.100154 30.485826 1.370208 1.805855 0.086135 -0.036591 -293823.000000 0 0 1
4.993054 28.023036 -7.336154 29.394563 1.394470 1.823038 0.101961 -0.041007 -213750.000000 0 0 1
5.445754 26.751326 -6.972354 28.176292 1.369971 1.820849 0.089808 -0.037530 203232.000000 0 0 1
4.480254 25.688596 -7.573054 27.153781 1.398127 1.853440 0.091841 -0.036257 1797540.000000 0 0 1
3.072454 25.731226 -7.204054 26.896735 1.451953 1.841948 0.093639 -0.034912 1253060.000000 0 0 1
2.185054 26.300556 -8.146354 27.619863 1.487907 1.870195 0.090128 -0.034925 537778.000000 0 0 1
1.695154 25.471506 -9.390454 27.200217 1.504343 1.923285 0.105455 -0.040294 233716.000000 0 0 1
2.850154 25.184116 -10.181154 27.313348 1.458103 1.952771 0.101444 -0.038661 521595.000000 0 0 1
2.589854 24.490896 -11.411154 27.142693 1.465440 2.004697 0.122160 -0.041240 -326236.000000 0 0 1
2.291954 22.974106 -11.359254 25.731212 1.471363 2.028019 0.127521 -0.038933 8065.840000 0 0 1
1.039654 22.758286 -10.749354 25.190655 1.525146 2.011659 0.129022 -0.034273 -115927.000000 0 0 1
0.963454 21.443276 -10.344554 23.827550 1.525896 2.019883 0.084778 -0.029308 -691963.000000 0 1 0
-0.172446 21.015176 -9.447554 23.041781 -1.562591 1.993271 0.084735 -0.020969 -552795.000000 0 1 0
-1.445346 20.920076 -10.020254 23.241001 -1.501817 2.016558 0.083698 -0.027943 -376022.000000 0 1 0
-2.406046 20.371476 -9.155554 22.463532 -1.453232 1.990592 0.061525 -0.023558 1030510.000000 0 1 0
-3.779846 20.010376 -9.836554 22.615486 -1.384102 2.020777 0.045333 -0.034793 920595.000000 0 1 0
-4.780646 19.354776 -9.093354 21.912349 -1.328642 1.998726 0.036151 -0.034697 -404316.000000 0 1 0
-5.745546 18.918376 -9.996054 22.154850 -1.275947 2.038895 0.041122 -0.034826 -1449080.000000 0 1 0
-6.782846 18.001576 -9.399554 21.410637 -1.210456 2.025297 0.043863 -0.032668 -361006.000000 0 1 0
-7.780846 18.641276 -8.622654 21.963354 -1.175382 1.974245 0.069237 -0.022162 35627.900000 0 1 0
-8.921946 19.052476 -9.365354 23.028414 -1.132843 1.989621 0.073106 -0.022022 -103030.000000 0 1 0
-10.086146 19.250376 -8.358354 23.284532 -1.088176 1.937956 0.090672 -0.030664 15815.600000 0 1 0
-10.581346 18.045576 -7.810854 22.329737 -1.040461 1.928150 0.092010 -0.031741 -43915.400000 0 1 0
-11.589146 18.311576 -6.836754 22.723630 -1.006546 1.876396 0.100967 -0.032109 248469.000000 0 1 0
-12.040946 16.998776 -6.091454 21.703654 -0.954494 1.855283 0.082567 -0.037589 279461.000000 0 1 0
-12.994246 17.314876 -5.075554 22.235481 -0.926996 1.801090 0.092060 -0.033202 182144.000000 0 1 0
-13.516246 16.108176 -4.517654 21.507474 -0.872669 1.782423 0.093005 -0.032215 193101.000000 0 1 0
-14.657246 16.510876 -3.540354 22.360188 -0.844800 1.729798 0.079965 -0.035185 749602.000000 0 1 0
-15.970946 16.466076 -4.096054 23.301941 -0.800661 1.747496 0.118573 -0.054875 807971.000000 0 1 0
-17.023146 16.761876 -3.194654 24.102983 -0.777665 1.703729 0.128850 -0.048221 154961.000000 0 1 0
-18.423846 16.905576 -3.797554 25.291462 -0.742450 1.721518 0.133019 -0.054847 -276188.000000 0 0 1
-18.403046 18.005276 -4.719254 26.175054 -0.774473 1.752084 0.119492 -0.049410 -1486070.000000 0 0 1
-19.681046 18.379976 -4.942954 27.378822 -0.751228 1.752331 0.093376 -0.047533 -1639620.000000 0 0 1
-19.771146 19.258576 -6.246954 28.298682 -0.772266 1.793380 0.093620 -0.024776 -312034.000000 0 0 1
-19.115046 20.446276 -6.142954 28.656083 -0.819035 1.786841 0.094351 -0.041363 -220199.000000 0 0 1
-19.196346 21.179476 -7.356254 29.515833 -0.834476 1.822682 0.094195 -0.028437 -99561.100000 0 0 1
-18.969246 22.690376 -7.072054 30.408871 -0.874484 1.805511 0.114618 -0.029980 788423.000000 0 0 1
-17.620746 22.813716 -6.601954 29.572659 -0.913128 1.795939 0.098588 -0.034985 530466.000000 0 0 1
-17.613246 23.733366 -5.562154 30.073854 -0.932351 1.756817 0.117613 -0.040152 191937.000000 0 0 1
-16.228046 24.336106 -5.234554 29.715250 -0.982681 1.747878 0.087648 -0.038634 -100099.000000 0 0 1
-16.391146 25.311596 -4.248054 30.453120 -0.996128 1.710748 0.087841 -0.043944 228784.000000 0 0 1
-15.166046 25.916866 -3.865254 30.275949 -1.041345 1.698813 0.103744 -0.049071 456220.000000 0 0 1
-14.647146 27.002246 -4.827854 31.096115 -1.073775 1.726683 0.119599 -0.039162 -197498.000000 0 0 1
-15.385746 28.166356 -4.631154 32.427032 -1.070840 1.714104 0.128015 -0.036700 -160697.000000 0 0 1
-15.064146 29.157496 -5.541754 33.283616 -1.093920 1.738076 0.100975 -0.041909 -180811.000000 0 0 1
-15.624446 30.516376 -5.095154 34.660253 -1.097593 1.718334 0.103248 -0.038616 675498.000000 0 0 1
-17.049246 30.547776 -5.213154 35.369767 -1.061742 1.718725 0.150164 -0.033588 433996.000000 0 0 1
-17.605046 31.570146 -4.427054 36.417174 -1.062100 1.692663 0.145065 -0.033732 137233.000000 0 0 1
12.963122 -8.718874 18.387852 24.128291 -0.592093 0.704266 0.151922 -0.037481 387340.000000 0 1 0
13.702322 -9.875374 18.818152 25.286350 -0.624489 0.731457 0.166694 -0.041044 104948.000000 0 0 1
13.966022 -10.780074 17.844952 25.093866 -0.657357 0.779695 0.181411 -0.043357 -84364.700000 0 0 1
14.533822 -12.098174 18.420152 26.398860 -0.694196 0.798526 0.223227 -0.063986 -1356350.000000 0 0 1
15.807722 -11.927074 18.901552 27.375315 -0.646381 0.808672 0.203227 -0.055224 -875690.000000 0 0 1
16.351522 -12.901574 19.722752 28.684662 -0.668006 0.812657 0.185652 -0.053018 -237389.000000 0 0 1
17.077722 -14.013774 18.952852 29.107474 -0.687169 0.861719 0.176760 -0.058148 -1114670.000000 0 0 1
16.202122 -14.729574 18.149652 28.440798 -0.737828 0.878696 0.198528 -0.064299 -93601.400000 0 0 1
16.746022 -15.824674 17.463052 28.910340 -0.757118 0.922233 0.201170 -0.065196 -292493.000000 0 0 1
16.021822 -15.938874 16.064052 27.727248 -0.782803 0.952853 0.188162 -0.061677 -225181.000000 0 0 1
14.649722 -16.156374 16.229852 27.185490 -0.834267 0.931035 0.241607 -0.060745 -405762.000000 0 0 1
13.914922 -15.991374 15.037952 25.990173 -0.854719 0.953783 0.257184 -0.065471 -168023.000000 0 0 1
13.342522 -17.303274 14.516852 26.232903 -0.913929 0.984376 0.185915 -0.040282 -994728.000000 0 0 1
14.307922 -18.211974 14.136252 27.133490 -0.904878 1.022787 0.184321 -0.043370 -518234.000000 0 0 1
13.789622 -19.486374 13.705852 27.526766 -0.954951 1.049609 0.145502 -0.036686 -337042.000000 0 0 1
14.807822 -20.414374 13.030652 28.386901 -0.943251 1.093885 0.141261 -0.022071 -443670.000000 0 0 1
15.621822 -21.090974 13.955252 29.725739 -0.933282 1.082109 0.114677 -0.021365 61284.900000 0 0 1
16.214222 -22.234374 13.300152 30.564071 -0.940714 1.120584 0.079118 -0.023725 418641.000000 0 0 1
17.204722 -23.047574 14.236452 32.091583 -0.929547 1.111163 0.088152 -0.030906 -271475.000000 0 0 1
18.381622 -22.368574 14.462552 32.363599 -0.882927 1.107525 0.056088 -0.031038 -1411050.000000 0 0 1
19.084922 -22.924074 15.499152 33.615043 -0.876534 1.091587 0.073291 -0.036833 494249.000000 0 0 1
20.544222 -22.346774 15.562352 34.112024 -0.827400 1.097061 0.037213 -0.035615 530719.000000 0 0 1
21.446722 -22.632074 14.549452 34.407255 -0.812283 1.134197 0.038958 -0.030134 -883428.000000 0 0 1
22.624722 -21.894874 14.762452 34.773461 -0.769006 1.132351 0.039462 -0.022800 237715.000000 0 0 1
23.848622 -22.590274 14.076852 35.738425 -0.758308 1.165941 0.037591 -0.022672 132252.000000 0 0 1
24.237222 -23.710274 14.807352 36.998347 -0.774408 1.159043 0.041433 -0.018331 -96727.300000 0 0 1
25.232222 -24.464474 14.156852 37.889207 -0.769951 1.187868 0.066158 -0.020729 -38999.600000 0 0 1
25.589222 -25.787314 14.897152 39.264730 -0.789254 1.181645 0.076580 -0.018015 -235432.000000 0 0 1
26.377222 -25.658104 16.051452 40.146547 -0.771579 1.159474 0.091666 -0.011937 10396.300000 0 0 1
26.643122 -26.905894 16.548152 41.323413 -0.790305 1.158783 0.113345 -0.004417 254719.000000 0 0 1
27.286822 -26.821924 17.982952 42.277332 -0.776806 1.131440 0.103227 0.005474 897672.000000 0 0 1
26.268722 -26.298134 18.866452 41.684297 -0.785958 1.101114 0.107576 0.002008 666768.000000 0 0 1
26.749722 -26.095204 20.179752 42.470339 -0.773013 1.075663 0.108069 -0.000105 -343886.000000 0 0 1
25.666122 -25.894284 21.219452 42.184463 -0.789823 1.043712 0.088920 -0.012256 -128052.000000 0 0 1
24.965722 -27.059594 21.640652 42.706285 -0.825624 1.039406 0.093420 -0.009630 -245511.000000 0 0 1
24.026022 -26.804274 22.645502 42.526905 -0.840001 1.009247 0.088772 -0.005487 -274199.000000 0 0 1
23.189822 -28.059944 22.919822 43.016817 -0.880141 1.008878 0.109595 -0.012568 -265444.000000 0 0 1
23.974622 -29.189784 23.313502 44.388573 -0.883180 1.017830 0.104868 -0.018136 316383.000000 0 0 1
23.720522 -30.385284 22.559562 44.663884 -0.907961 1.041303 0.114130 -0.020992 -125135.000000 0 0 1
24.612622 -31.563414 23.018732 46.172419 -0.908505 1.048884 0.093475 -0.005615 -292048.000000 0 0 1
24.392522 -31.904664 24.408302 46.996467 -0.918052 1.024689 0.080631 -0.013900 324596.000000 0 0 1
25.551722 -32.207064 25.190862 48.215817 -0.900119 1.021062 0.077123 -0.026795 -552017.000000 0 0 1
25.282922 -32.366244 26.673742 48.972323 -0.907655 0.994801 0.075017 -0.038014 201019.000000 0 0 1
24.637922 -33.554794 27.093822 49.669172 -0.937446 0.993828 0.076916 -0.026245 345661.000000 0 0 1
23.366022 33.830156 26.547902 48.941205 0.966349 0.997452 0.068184 -0.018953 -564216.000000 0 0 1
22.635222 32.658835 27.244162 48.178804 0.964729 0.969781 0.092791 -0.031320 -569307.000000 0 0 1
22.126322 33.024991 28.475252 48.898509 0.980498 0.949200 0.068067 -0.025764 -51687.200000 0 0 1
21.851122 31.847678 29.200612 48.419231 0.969451 0.923441 0.075864 -0.036620 -220678.000000 0 0 1
21.723222 32.097861 30.696812 49.441535 0.975824 0.900943 0.055332 -0.034281 220209.000000 0 0 1
22.974622 32.382574 31.294622 50.555096 0.953740 0.903302 0.057759 -0.015019 134988.000000 0 0 1
22.726922 32.719770 32.630812 51.496274 0.963708 0.884529 0.040490 -0.005931 374641.000000 0 0 1
23.793622 32.191949 33.645412 52.292178 0.934297 0.871849 0.021535 0.006935 285757.000000 0 0 1
23.821922 30.755426 33.669112 51.448900 0.911761 0.857383 0.041662 0.007735 465088.000000 0 0 1
24.958822 30.316456 -33.168834 51.402353 0.882023 2.272184 0.031297 0.024676 375134.000000 0 0 1
24.992222 28.791336 -33.033554 50.445693 0.855918 2.284759 0.058452 -0.000971 -42443.400000 0 0 1
25.311322 28.176146 33.314306 50.442058 0.838908 0.849382 0.076799 -0.005724 251222.000000 0 0 1
24.968522 26.828246 33.214250 49.460776 0.821287 0.834529 0.094543 -0.023069 -174811.000000 0 0 1
25.584722 26.154746 31.970279 48.587524 0.796415 0.852645 0.148863 -0.030871 -46004.100000 0 0 1
26.960522 25.880116 32.112540 49.273374 0.764955 0.860944 0.131375 -0.038792 228813.000000 0 0 1
27.449622 25.162686 30.980022 48.439698 0.741958 0.876872 0.179100 -0.048742 -419075.000000 0 0 1
28.804822 24.549536 31.330772 49.132625 0.705811 0.879317 0.141324 -0.039088 -720491.000000 0 0 1
28.730222 23.601796 32.324364 49.267992 0.687712 0.855167 0.151233 -0.042863 98346.500000 0 0 1
29.472722 23.815606 33.488562 50.569836 0.679634 0.847013 0.132125 -0.047502 -1045910.000000 0 0 1
29.077222 22.841246 -32.974244 49.542993 0.665860 2.299051 0.130474 -0.054738 141209.000000 0 0 1
27.887622 23.265676 -32.296154 48.600954 0.695288 2.297643 0.147377 -0.063007 979275.000000 0 0 1
26.625622 23.002746 -32.888374 48.163215 0.712527 2.322457 0.143282 -0.049768 -235001.000000 0 0 1
26.170622 21.535876 -32.932934 47.257524 0.688551 2.341838 0.128047 -0.049323 -736851.000000 0 0 1
25.918122 21.074276 -31.629284 46.003106 0.682684 2.328901 0.112381 -0.064281 272783.000000 0 0 1
25.858222 19.673376 -31.633244 45.347012 0.650388 2.342813 0.131454 -0.063954 -274045.000000 0 0 1
25.639722 19.140776 -30.182804 43.985979 0.641275 2.327037 0.146230 -0.061433 178161.000000 0 0 1
24.277022 19.226676 -29.787304 42.968854 0.669825 2.336758 0.123435 -0.050560 523739.000000 0 0 1
24.212522 18.791376 -28.427264 41.802768 0.659998 2.318604 0.126717 -0.042299 -116628.000000 0 0 1
22.811622 18.869976 -27.790344 40.604795 0.691113 2.324591 0.111073 -0.033302 -205479.000000 0 0 1
22.693722 18.264776 -26.482984 39.369475 0.677684 2.308619 0.111533 -0.024968 206995.000000 0 0 1
23.376922 18.954476 -25.414134 39.390746 0.681304 2.272056 0.102550 -0.014375 21134.100000 0 0 1
23.702122 18.175376 -24.125354 38.394890 0.654182 2.250224 0.125992 -0.015348 339183.000000 0 0 1
24.662122 17.213176 -24.589554 38.847907 0.609356 2.256180 0.160981 -0.029341 344239.000000 0 0 1
24.799822 16.222076 -23.552854 37.853981 0.579267 2.242350 0.165900 -0.027447 80451.000000 0 0 1
25.920522 15.167576 -23.804454 38.322068 0.529434 2.241029 0.194219 -0.019235 1044490.000000 0 0 1
27.209222 15.603376 -23.336254 39.094602 0.520675 2.210450 0.191326 -0.028075 534880.000000 0 0 1
28.202222 14.705276 -22.944554 39.218147 0.480638 2.195737 0.180295 -0.034716 -11616.600000 0 0 1
27.943322 13.871076 -21.628554 37.960906 0.460764 2.177008 0.167167 -0.025297 -292805.000000 0 0 1
26.729122 13.152776 -21.601454 36.797613 0.457289 2.198187 0.182292 -0.019634 -157660.000000 0 0 1
26.295522 12.768576 -20.333354 35.608093 0.452045 2.178559 0.136675 -0.025419 -485167.000000 0 0 1
24.866022 12.261476 -20.475454 34.466028 0.458114 2.206913 0.160577 -0.023609 -307641.000000 0 0 1
23.896122 13.280076 -20.583754 34.220988 0.507241 2.216168 0.174830 -0.023400 -198267.000000 0 0 1
22.590922 12.837676 -20.880054 33.333652 0.516760 2.247717 0.153822 -0.024582 -52485.800000 0 0 1
21.573822 13.932576 -20.631354 32.942363 0.573424 2.247577 0.141123 -0.024420 -779348.000000 0 0 1
21.869422 15.028676 -21.504554 34.155213 0.602084 2.251851 0.128955 -0.018381 336595.000000 0 0 1
21.075322 16.180876 -21.215654 34.001381 0.654774 2.244602 0.084702 -0.015476 379249.000000 0 0 1
19.711022 16.240776 -21.960754 33.683259 0.689171 2.280987 0.076172 -0.012507 248040.000000 0 0 1
18.787122 15.258376 -21.504154 32.375958 0.682119 2.297221 0.053598 -0.014787 -92434.800000 0 0 1
17.714722 15.171176 -22.405454 32.341619 0.708207 2.336126 0.047748 -0.018547 -331068.000000 0 0 1
16.625722 14.150176 -22.052254 31.031340 0.705133 2.361210 0.037716 -0.017790 -532639.000000 0 0 1
15.575122 14.188876 -22.960154 31.162113 0.738857 2.399117 0.053146 -0.025000 -576859.000000 0 0 1
14.537422 13.367076 -22.439754 29.892439 0.743482 2.419892 0.066403 -0.030067 321449.000000 0 0 1
13.189922 13.426076 -23.212754 29.884202 0.794271 2.460296 0.066349 -0.033432 98410.400000 0 0 1
12.486522 14.628976 -22.916654 29.918109 0.864247 2.443360 0.089343 -0.030547 17836.300000 0 0 1
11.683622 14.993976 -24.011054 30.624452 0.908855 2.471958 0.085659 -0.030227 -639281.000000 0 0 1
11.540222 16.545676 -24.103354 31.431001 0.961766 2.444739 0.078241 -0.033053 410913.000000 0 0 1
12.745222 17.297076 -24.229754 32.383800 0.935769 2.416150 0.064908 -0.018054 673723.000000 0 0 1
13.812722 17.079376 -25.151364 33.392926 0.890751 2.423701 0.066790 -0.024390 210729.000000 0 0 1
13.486522 17.091976 -26.664124 34.423792 0.902764 2.456854 0.100670 -0.026578 -781667.000000 0 0 1
14.648022 17.062576 -27.419714 35.461765 0.861395 2.454698 0.080536 -0.027651 -568734.000000 0 0 1
14.297122 17.047076 -28.780964 36.377938 0.872908 2.483508 0.094108 -0.037873 807901.000000 0 0 1
15.530822 17.437276 -29.724924 37.799949 0.843161 2.475715 0.088445 -0.040040 994834.000000 0 0 1
16.610522 16.537376 -29.677554 37.817344 0.783192 2.473106 0.065092 -0.034665 -347222.000000 0 0 1
17.672422 17.129376 -30.376774 39.095760 0.769795 2.460657 0.067300 -0.028999 520562.000000 0 0 1
18.913922 16.175076 -30.611024 39.451291 0.707502 2.458968 0.087825 -0.028762 531494.000000 0 0 1
20.148322 16.821076 -30.738274 40.419611 0.695640 2.434847 0.106601 -0.036562 -347548.000000 0 0 1
21.179122 15.903676 -30.984654 40.761881 0.644085 2.434322 0.134721 -0.035884 -375420.000000 0 0 1
22.458022 16.566776 -31.490924 42.077300 0.635568 2.416453 0.157309 -0.041483 -358769.000000 0 0 1
22.361422 16.832176 -32.874404 43.175014 0.645248 2.436300 0.141788 -0.043938 222550.000000 0 0 1
23.591422 17.303276 -33.373354 44.381745 0.632829 2.421829 0.153786 -0.052155 -239116.000000 0 0 1
23.619022 17.858976 32.732218 44.138411 0.647411 0.735372 0.127126 -0.044702 -436165.000000 0 0 1
24.811722 18.547776 32.482786 44.886222 0.641925 0.761692 0.129889 -0.039051 -221555.000000 0 0 1
24.980222 19.043976 31.174952 44.255646 0.651366 0.789178 0.133032 -0.037245 442132.000000 0 0 1
26.112822 20.115376 30.955272 45.218765 0.656383 0.816787 0.165940 -0.039104 1280330.000000 0 0 1
27.444622 19.640676 31.175512 45.944271 0.621151 0.825009 0.128414 -0.032224 316861.000000 0 0 1
28.384522 20.688676 31.198792 46.979432 0.629841 0.844514 0.108309 -0.038384 -122640.000000 0 0 1
29.791322 20.132176 31.474792 47.785876 0.594281 0.851756 0.133067 -0.031563 -485504.000000 0 0 1
30.032622 19.802876 32.803562 48.684556 0.582940 0.831459 0.096389 -0.040341 -600742.000000 0 0 1
31.347822 19.435576 33.074130 49.541151 0.554994 0.839803 0.080365 -0.033414 -537487.000000 0 0 1
31.514122 19.038776 -33.043554 49.472127 0.543454 2.302210 0.075469 -0.026254 -623280.000000 0 0 1
31.338422 20.098976 -32.155694 49.194047 0.570272 2.283194 0.062840 -0.045290 -142880.000000 0 0 1
30.665722 19.713576 -30.976884 47.839094 0.571335 2.275125 0.074024 -0.055542 -420648.000000 0 0 1
31.431122 19.714876 -29.676634 47.510992 0.560209 2.245450 0.092454 -0.060867 -1482860.000000 0 0 1
32.667822 19.137476 -29.735284 48.141632 0.529928 2.236563 0.099037 -0.062770 -1196280.000000 0 0 1
33.384622 19.475276 -28.552984 48.053015 0.528095 2.207064 0.114351 -0.066246 824786.000000 0 0 1
34.894222 19.019076 -28.579944 48.950436 0.499034 2.194265 0.061060 -0.046469 691718.000000 0 0 1
35.626022 19.739676 -29.522924 50.303790 0.505970 2.198012 0.055958 -0.047977 -628612.000000 0 0 1
36.921122 19.987376 -29.059174 51.059770 0.496181 2.176232 0.039602 -0.021293 -185498.000000 0 0 1
37.699522 21.098876 -29.811244 52.489302 0.510229 2.174808 0.055266 -0.014034 188060.000000 0 0 1
-37.116210 20.700976 -30.979174 52.591374 -0.508762 2.200684 0.043981 -0.016497 -85765.500000 0 0 1
-35.924910 21.420376 -31.197674 52.179752 -0.537661 2.211661 0.037172 -0.015311 -106134.000000 0 0 1
-35.004910 20.622676 -32.114164 51.787624 -0.532393 2.239683 0.042803 -0.028567 119693.000000 0 0 1
-34.155410 19.585876 -31.541594 50.448694 -0.520657 2.246211 0.044042 -0.023405 698208.000000 0 0 1
-33.325010 19.060776 -32.545884 50.329952 -0.519551 2.273981 0.056935 -0.020357 -503502.000000 0 0 1
-32.657010 17.715976 -32.177804 49.150251 -0.497056 2.284559 0.046101 -0.008857 183019.000000 0 0 1
-33.498310 16.559976 -32.039654 49.223054 -0.459119 2.279576 0.054866 -0.007194 644591.000000 0 0 1
-32.722310 15.410876 -32.374594 48.542342 -0.440146 2.300884 0.049736 -0.005894 229875.000000 0 0 1
-33.638610 14.206876 -32.613744 48.959654 -0.399614 2.299811 0.065714 -0.000731 -239619.000000 0 0 1
-32.963310 13.012176 -32.985994 48.414588 -0.375970 2.320365 0.074889 -0.008469 -522526.000000 0 0 1
-33.849510 11.967976 -33.096784 48.830512 -0.339847 2.315548 0.083390 -0.013519 -310367.000000 0 0 1
-33.225910 10.501476 -33.141414 48.089452 -0.306127 2.331128 0.092626 -0.016119 329612.000000 0 0 1
-32.469610 10.177176 33.283472 47.598739 -0.303738 0.796447 0.062151 -0.018751 170451.000000 0 0 1
-32.887510 8.902976 32.760747 47.266456 -0.264373 0.805005 0.112907 -0.034736 398771.000000 0 0 1
-31.870510 8.297776 31.717804 45.723097 -0.254704 0.804192 0.129747 -0.033764 753923.000000 0 0 1
-30.697610 7.814376 32.394965 45.308294 -0.249266 0.774187 0.083962 -0.020887 273007.000000 0 0 1
-29.912410 7.197576 31.371732 43.940220 -0.236133 0.775653 0.086208 -0.032039 -503923.000000 0 0 1
22.103422 -4.142274 -31.691214 38.859397 -0.185255 2.524450 0.073294 -0.050390 536889.000000 0 0 1
23.385822 -4.220774 -32.362264 40.150065 -0.178562 2.508214 0.065846 -0.048914 906673.000000 0 0 1
24.294422 -3.284474 -31.796204 40.149786 -0.134380 2.484775 0.077213 -0.046016 -185341.000000 0 0 1
24.089022 -1.786974 -32.137164 40.202880 -0.074046 2.497050 0.072087 -0.035271 -1447450.000000 0 0 1
25.026722 -0.962374 -31.582114 40.307480 -0.038435 2.471123 0.085833 -0.029618 -670275.000000 0 0 1
24.846622 0.391926 -31.957354 40.481857 0.015773 2.480667 0.063936 -0.023847 106036.000000 0 0 1
25.836422 1.465326 -31.391754 40.683045 0.056655 2.452177 0.078705 -0.025497 1320140.000000 0 0 1
27.170422 1.476526 -31.939304 41.958683 0.054290 2.435971 0.090945 -0.032546 580387.000000 0 0 1
27.959522 2.514626 -31.433374 42.143982 0.089697 2.412616 0.104472 -0.032795 113346.000000 0 0 1
29.487022 2.270226 -31.591064 43.273938 0.076839 2.389155 0.103228 -0.040212 317102.000000 0 0 1
30.059022 2.620626 -32.836984 44.594619 0.086963 2.398447 0.097158 -0.040030 82547.200000 0 0 1
30.037622 1.589326 33.736132 45.198577 0.052862 0.728163 0.082127 -0.037369 -391791.000000 0 0 1
30.609122 2.059626 32.379668 44.604970 0.067187 0.758424 0.077644 -0.045101 -383338.000000 0 0 1
29.904522 3.063726 31.670969 43.665973 0.102094 0.759325 0.078104 -0.029946 173495.000000 0 0 1
30.067622 4.392326 32.077507 44.185076 0.145056 0.758337 0.084316 -0.030950 -395075.000000 0 0 1
29.429022 5.380326 31.172092 43.205493 0.180827 0.764853 0.086653 -0.024481 -441696.000000 0 0 1
29.626922 6.649126 31.649023 43.859162 0.220770 0.764677 0.095920 -0.032840 65495.400000 0 0 1
29.125522 7.663726 30.812772 43.086607 0.257295 0.773978 0.096595 -0.027836 -198931.000000 0 0 1
29.568522 9.111526 31.150722 43.905409 0.298917 0.782013 0.087058 -0.025508 -69768.900000 0 0 1
30.934522 9.431026 31.113372 44.876841 0.295919 0.804730 0.066227 -0.027078 -420044.000000 0 0 1
31.131422 10.803326 31.295692 45.445546 0.334020 0.811182 0.064690 -0.015401 2076760.000000 0 0 1
32.537322 11.386026 30.667672 46.139192 0.336619 0.843735 0.070896 -0.013904 1517930.000000 0 0 1
33.609022 11.023726 31.503481 47.366214 0.316942 0.843163 0.096481 -0.037860 -205360.000000 0 0 1
34.861322 11.207926 30.871782 47.895682 0.311063 0.870345 0.107094 -0.032690 69725.700000 0 0 1
35.504722 12.591926 30.880982 48.711159 0.340816 0.884132 0.110516 -0.024562 -927003.000000 0 0 1
35.962922 13.020326 32.180403 49.984388 0.347368 0.871330 0.112092 -0.018406 108455.000000 0 0 1
36.279522 14.372526 32.195742 50.589911 0.377192 0.880966 0.121164 -0.014377 88183.500000 0 0 1
35.086422 15.378126 32.164274 50.020839 0.413076 0.872365 0.116264 -0.025342 256681.000000 0 0 1
34.384322 15.446026 30.883302 48.730275 0.422203 0.884392 0.100282 -0.033799 836114.000000 0 0 1
33.280422 16.352626 30.878662 48.254395 0.456711 0.876410 0.084941 -0.031116 143734.000000 0 0 1
31.935322 15.753226 31.297822 47.408677 0.458261 0.849750 0.085334 -0.026190 -495590.000000 0 0 1
31.308222 15.137826 30.163962 46.035021 0.450368 0.856297 0.062158 -0.023163 815361.000000 0 0 1
29.989922 14.647626 30.483562 45.201725 0.454339 0.830659 0.060639 -0.026830 629154.000000 0 0 1
29.391922 13.861226 29.315932 43.765769 0.440670 0.836807 0.075797 -0.020141 27676.500000 0 0 1
29.979822 12.580026 28.987542 43.558287 0.397302 0.842648 0.067551 -0.021202 220177.000000 0 0 1
29.377922 12.194326 27.760702 42.218722 0.393442 0.853241 0.094334 -0.026664 -49850.400000 0 0 1
29.006222 10.737026 27.582472 41.441977 0.354523 0.842541 0.080512 -0.012764 -631047.000000 0 0 1
29.987822 9.894526 27.093612 41.608112 0.318704 0.861682 0.078184 -0.010728 -506037.000000 0 0 1
29.618122 8.561926 27.093232 41.043672 0.281406 0.849835 0.088841 -0.005565 275353.000000 0 0 1
30.743322 7.689726 26.450702 41.278607 0.245098 0.875276 0.077493 -0.016002 374586.000000 0 0 1
30.878722 7.907426 25.055182 40.543619 0.250693 0.904624 0.073428 -0.009026 12168.700000 0 0 1
32.072722 7.244726 24.719362 41.136267 0.222156 0.926152 0.081747 -0.004663 155443.000000 0 0 1
32.722422 7.671626 23.357552 40.929036 0.230286 0.963458 0.094835 -0.001880 -80694.800000 0 0 1
33.154822 9.035026 23.291402 41.513412 0.266050 0.975134 0.096728 -0.010780 651687.000000 0 0 1
32.137022 9.935326 22.813632 40.644320 0.299835 0.974841 0.088129 -0.012789 343650.000000 0 0 1
31.745622 9.771326 21.319552 39.468806 0.298598 1.000167 0.096727 -0.002152 -704987.000000 0 0 1
32.698322 10.165726 20.397752 39.857127 0.301421 1.033550 0.119364 -0.015623 -433653.000000 0 0 1
32.275822 10.101626 19.061552 38.821570 0.303320 1.057554 0.137007 -0.028129 -560702.000000 0 0 1
33.165422 10.918526 18.009452 39.287400 0.318039 1.094599 0.151348 -0.056198 1354420.000000 0 0 1
34.488022 10.446426 17.757052 40.172931 0.294115 1.112952 0.154479 -0.046521 446687.000000 0 0 1
35.422822 10.391126 18.787752 41.421389 0.285341 1.100022 0.146504 -0.033771 -528258.000000 0 0 1
36.848722 10.041026 18.278452 42.340906 0.266034 1.124423 0.191107 -0.030233 110286.000000 0 0 1
36.903422 8.659926 17.847252 41.897271 0.230494 1.130755 0.179130 -0.026810 -183341.000000 0 0 1
-37.487810 8.345226 17.067952 42.027297 -0.219040 1.152597 0.193040 -0.026640 -590074.000000 0 0 1
-37.297010 6.803726 16.883752 41.502033 -0.180436 1.151829 0.193148 -0.029977 -117726.000000 0 0 1
37.126622 6.232026 16.163752 40.969392 0.166308 1.165237 0.177754 -0.032975 157214.000000 0 0 1
37.258222 4.857426 15.850252 40.779900 0.129641 1.171600 0.186391 -0.038993 -546833.000000 0 0 1
35.909722 4.168326 15.652852 39.394097 0.115561 1.162180 0.173453 -0.034990 -500720.000000 0 0 1
35.474222 3.492126 16.801352 39.406863 0.098125 1.130336 0.172229 -0.026295 354889.000000 0 0 1
34.190622 2.891526 16.719852 38.169530 0.084370 1.117377 0.164456 -0.029021 194255.000000 0 0 1
33.933222 2.028926 17.957152 38.445278 0.059721 1.084807 0.146720 -0.027548 -729629.000000 0 0 1
34.753422 0.949726 18.166752 39.226690 0.027321 1.089282 0.158109 -0.023758 -556612.000000 0 0 1
34.566922 0.225626 19.386652 39.632882 0.006527 1.059675 0.148908 -0.020459 278669.000000 0 0 1
35.412422 -1.107174 19.501552 40.442255 -0.031255 1.067624 0.133258 -0.028315 454312.000000 0 0 1
34.990722 -1.937474 20.569652 40.635145 -0.055315 1.040019 0.134231 -0.016051 93059.500000 0 0 1
35.725822 -3.143974 20.573152 41.345780 -0.087777 1.049981 0.111722 -0.013095 117869.000000 0 0 1
35.299622 -4.119774 21.721952 41.651880 -0.116183 1.022174 0.111362 -0.016218 -80693.100000 0 0 1
35.686322 -3.703574 22.992502 42.613205 -0.103411 1.000879 0.120599 -0.019273 -172218.000000 0 0 1
34.982322 -4.270974 24.029662 42.654762 -0.121488 0.972359 0.095959 -0.021106 -279881.000000 0 0 1
35.192122 -3.589874 25.365192 43.528906 -0.101656 0.948724 0.076360 -0.019649 100865.000000 0 0 1
34.350722 -4.038974 26.426672 43.527628 -0.117043 0.918360 0.075242 -0.020050 65648.900000 0 0 1
34.585922 -3.408474 27.687262 44.434088 -0.098234 0.898085 0.090714 -0.025141 -337073.000000 0 0 1
33.664622 -3.937674 28.774782 44.461221 -0.116439 0.866906 0.065995 -0.031789 -190667.000000 0 0 1
33.880022 -5.291674 29.047072 44.939850 -0.154937 0.867999 0.065154 -0.031199 38524.300000 0 0 1
33.035822 -5.678874 30.107412 45.056314 -0.170237 0.838986 0.075977 -0.039744 20488.100000 0 0 1
33.314022 -7.195874 30.441542 45.697836 -0.212733 0.841764 0.067420 -0.029062 -87759.100000 0 0 1
34.535322 -7.303674 31.131612 47.066011 -0.208413 0.848052 0.071164 -0.029282 -520233.000000 0 0 1
35.009122 -8.599374 30.951972 47.514340 -0.240864 0.861337 0.064924 -0.021695 691392.000000 0 0 1
36.463422 -8.695074 31.549859 48.995705 -0.234089 0.871171 0.091834 -0.023525 735451.000000 0 0 1
36.466122 -8.835374 32.929794 49.922072 -0.237709 0.850478 0.079765 -0.025842 69223.000000 0 0 1
-37.726110 -8.746074 33.440055 51.166302 0.227807 0.858523 0.068651 -0.024924 -68847.400000 0 0 1
-37.710010 -9.141674 -32.633094 50.700432 0.237832 2.270048 0.077180 -0.027409 64823.200000 0 0 1
37.089722 -8.222774 -31.787014 49.534592 -0.218171 2.267527 0.072077 -0.032444 641332.000000 0 0 1
-37.583510 -7.123174 -31.386124 49.480790 0.187308 2.257911 0.075458 -0.032700 351192.000000 0 0 1
37.180122 -6.017774 -30.584654 48.517998 -0.160463 2.252836 0.080879 -0.033866 -54184.700000 0 0 1
37.379222 -6.211774 -29.183004 47.827190 -0.164678 2.227079 0.077995 -0.021829 37920.300000 0 0 1
36.722722 -5.266474 -28.393714 46.717203 -0.142441 2.224056 0.092269 -0.040256 -640166.000000 0 0 1
37.390122 -5.113274 -27.051154 46.432012 -0.135912 2.192717 0.094106 -0.036680 242492.000000 0 0 1
-36.879610 -4.390574 -27.177974 46.022006 0.118494 2.202528 0.091408 -0.030609 177917.000000 0 0 1
-36.329610 -4.222474 -25.902514 44.817520 0.115708 2.187017 0.090250 -0.031627 -95169.500000 0 0 1
-34.853810 -3.781474 -25.839184 43.551705 0.108073 2.205947 0.102531 -0.016932 -654587.000000 0 0 1
-34.319710 -3.661274 -24.543954 42.351542 0.106279 2.188947 0.125799 -0.033627 890258.000000 0 0 1
-32.976310 -4.088874 -24.298154 41.164987 0.123365 2.202180 0.160067 -0.034379 753442.000000 0 0 1
-31.829410 -3.288074 -24.946954 40.574293 0.102938 2.232987 0.145771 -0.025412 -707349.000000 0 0 1
-31.756110 -3.326574 -26.316674 41.377336 0.104373 2.260122 0.146665 -0.025509 -511978.000000 0 0 1
-30.812310 -2.447374 -26.835594 40.933326 0.079262 2.285764 0.146896 -0.021579 -234694.000000 0 0 1
-30.470410 -3.131274 -28.203554 41.637618 0.102405 2.314961 0.126266 -0.020633 508027.000000 0 0 1
-31.596010 -3.141974 -29.085424 43.059746 0.099116 2.312394 0.133127 -0.023649 609158.000000 0 0 1
-31.257810 -4.109474 -30.082944 43.576622 0.130721 2.332763 0.103764 -0.012978 -400094.000000 0 0 1
-32.467110 -4.417874 -30.987514 45.098302 0.135242 2.328301 0.098177 -0.020405 -254859.000000 0 0 1
-33.481010 -5.296574 -30.461624 45.573482 0.156896 2.302861 0.097319 -0.019144 575332.000000 0 0 1
-34.355610 -4.715274 -29.524224 45.543622 0.136397 2.276097 0.107853 -0.025306 -925580.000000 0 0 1
-35.392310 -3.723474 -30.050544 46.578053 0.104820 2.272036 0.127497 -0.031318 -1343760.000000 0 0 1
-34.952710 -2.530074 -30.676294 46.573900 0.072260 2.289831 0.148773 -0.025740 -349655.000000 0 0 1
-34.591310 -1.508374 -29.745704 45.646914 0.043578 2.280551 0.158847 -0.020287 -98590.200000 0 0 1
-34.331710 -0.134074 -30.452114 45.891345 0.003905 2.296377 0.143902 -0.022510 170352.000000 0 0 1
-35.517710 0.473026 -30.925174 47.096686 -0.013317 2.287140 0.161418 -0.017166 89099.300000 0 0 1
-35.286910 1.825126 -31.275694 47.187563 -0.051676 2.295342 0.167549 -0.003853 571115.000000 0 0 1
-36.547010 2.624626 -31.780164 48.503107 -0.071692 2.285269 0.141951 -0.003160 400665.000000 0 0 1
-36.974810 2.220226 -33.034724 49.632237 -0.059975 2.299081 0.155139 -0.013148 256498.000000 0 0 1
37.270722 2.821326 -33.340664 50.086590 0.075554 2.299175 0.119432 -0.014546 9573.560000 0 0 1
36.564922 2.150226 33.044960 49.331394 0.058738 0.836781 0.091110 -0.012135 -206974.000000 0 0 1
37.062922 2.382326 31.757316 48.865763 0.064190 0.863358 0.115651 -0.017160 -50049.200000 0 0 1
-37.280710 1.704526 31.352002 48.741202 -0.045690 0.872082 0.117012 -0.014749 -244994.000000 0 0 1
-36.835810 1.806926 29.868522 47.458092 -0.049014 0.890059 0.142460 -0.021042 40510.400000 0 0 1
-36.458510 3.122426 29.499392 47.001985 -0.085435 0.892304 0.147383 -0.024217 152909.000000 0 0 1
-36.068610 3.109426 28.112232 45.835693 -0.085996 0.910531 0.128969 -0.016491 141693.000000 0 0 1
-35.543710 4.496326 27.649572 45.255619 -0.125833 0.913518 0.129199 -0.015924 -340248.000000 0 0 1
-34.890010 4.462026 26.429922 43.997309 -0.127198 0.926399 0.135035 -0.011225 14610.200000 0 0 1
-34.408510 5.752326 26.123632 43.583012 -0.165646 0.928046 0.130417 -0.016312 171083.000000 0 0 1
-33.510910 5.900126 24.844562 42.131281 -0.174280 0.940116 0.120423 -0.015192 1016130.000000 0 0 1
-32.279810 5.135926 24.801342 41.030116 -0.157784 0.921700 0.109062 -0.007715 920633.000000 0 0 1
-31.494610 5.398126 23.651322 39.754688 -0.169749 0.933616 0.104230 -0.012085 33339.300000 0 0 1
-32.068110 5.118426 22.227952 39.352812 -0.158276 0.970560 0.123980 -0.017815 -244927.000000 0 0 1
-32.236810 3.743126 22.080152 39.252465 -0.115596 0.973370 0.102682 -0.009331 -286013.000000 0 0 1
-32.834910 3.498326 20.861852 39.058756 -0.106142 1.007336 0.136630 -0.015767 -631315.000000 0 0 1
-32.758610 1.993326 20.503752 38.697593 -0.060774 1.012378 0.110642 -0.005274 1035020.000000 0 0 1
-31.475510 1.470026 20.059952 37.353318 -0.046670 1.003881 0.096199 -0.004035 1102180.000000 0 0 1
-31.221010 1.894526 18.722852 36.453887 -0.060607 1.031417 0.112154 -0.010139 -796880.000000 0 0 1
-29.927310 1.353726 18.138552 35.021187 -0.045203 1.026366 0.120662 -0.013695 -807359.000000 0 0 1
-29.916310 -0.040074 17.854352 34.839132 0.001340 1.032726 0.124844 -0.010052 30738.700000 0 0 1
-28.796310 -0.656774 17.240152 33.569058 0.022804 1.031453 0.140019 -0.015375 -147625.000000 0 0 1
-28.633810 -0.389874 15.754352 32.684043 0.013615 1.067838 0.156090 -0.010472 -102295.000000 0 0 1
-28.112210 0.899626 15.496952 32.113256 -0.031990 1.067208 0.163704 -0.016899 232966.000000 0 0 1
-28.252410 1.156626 14.117052 31.604234 -0.040916 1.107743 0.197274 -0.027411 21477.200000 0 0 1
-27.547510 2.461726 13.612752 30.825840 -0.089126 1.113413 0.191095 -0.030990 -283029.000000 0 0 1
-26.160110 2.395126 13.791352 29.669671 -0.091302 1.087354 0.175398 -0.039752 -149034.000000 0 0 1
-25.542510 3.435526 12.995452 28.863548 -0.133700 1.103765 0.172557 -0.040801 -58378.400000 0 0 1
-24.014210 3.331726 12.987652 27.503850 -0.137860 1.078998 0.150435 -0.039523 -256865.000000 0 0 1
-23.314710 3.905726 14.083252 27.516693 -0.165981 1.033509 0.124106 -0.025749 1325210.000000 0 0 1
-21.888810 3.953226 13.874252 26.215317 -0.178679 1.013089 0.099027 -0.025239 1035950.000000 0 0 1
-21.113910 4.617826 15.048152 26.335687 -0.215320 0.962588 0.094121 -0.028735 -268365.000000 0 0 1
-21.381210 5.964226 15.395752 27.014021 -0.272032 0.964391 0.076400 -0.013512 220724.000000 0 0 1
-20.505510 6.444726 16.387452 27.028855 -0.304517 0.919403 0.069198 -0.009671 -214791.000000 0 0 1
-20.831710 7.918826 16.824552 27.923708 -0.363263 0.924143 0.063817 -0.016464 -103375.000000 0 0 1
-20.524510 8.836126 15.812152 27.374382 -0.406533 0.954979 0.061175 -0.017791 408199.000000 0 0 1
-21.038910 10.145226 16.042252 28.335758 -0.449317 0.968970 0.063944 -0.009324 -263794.000000 0 0 1
-20.218910 11.111726 16.902552 28.600193 -0.502514 0.938505 0.070878 -0.011218 -402440.000000 0 0 1
-20.410910 10.839926 18.287352 29.470943 -0.488205 0.901389 0.073647 -0.014867 157356.000000 0 0 1
-19.597410 11.596226 19.117552 29.732335 -0.534311 0.872402 0.084974 -0.005956 -552707.000000 0 0 1
-12.663678 -32.938324 -19.987254 40.556038 1.203752 2.086136 0.142218 -0.061084 618463.000000 0 0 1
-13.817178 -33.475524 -19.301154 41.037296 1.179343 2.060463 0.172835 -0.058248 340260.000000 0 0 1
-14.857078 -32.517224 -19.346054 40.649384 1.142220 2.066812 0.149802 -0.074111 -516888.000000 0 0 1
-16.119878 -33.132424 -18.753954 41.343909 1.117984 2.041607 0.144977 -0.062743 -1326720.000000 0 0 1
-16.763578 33.602526 -19.603154 42.360724 -1.108046 2.051911 0.138198 -0.061587 366335.000000 0 0 1
-17.453578 32.489926 -18.996854 41.486180 -1.077834 2.046437 0.151492 -0.049855 308391.000000 0 0 1
-18.755678 32.793126 -18.219854 41.941956 -1.051265 2.020175 0.142023 -0.049044 -338089.000000 0 0 1
-18.586278 33.701026 -17.115954 42.120835 -1.066799 1.989256 0.161051 -0.048199 648146.000000 0 0 1
-19.919078 -33.736724 -16.658554 42.572804 1.037445 1.972835 0.134701 -0.037767 768888.000000 0 0 1
-20.336678 33.290026 -15.315454 41.909061 -1.022405 1.944907 0.145530 -0.038508 -115042.000000 0 0 1
-20.350978 31.893026 -15.339654 40.824409 -1.002831 1.955999 0.144688 -0.039959 213645.000000 0 0 1
-20.891278 31.546326 -14.078054 40.370878 -0.985864 1.926999 0.164848 -0.036126 197054.000000 0 0 1
-21.033978 30.014026 -13.914154 39.202980 -0.959530 1.933631 0.160732 -0.042459 431235.000000 0 0 1
-19.784778 29.437326 -13.560454 37.972089 -0.979043 1.935975 0.180820 -0.055184 297544.000000 0 0 1
-19.845778 28.019826 -13.551254 36.913440 -0.954537 1.946695 0.181903 -0.065221 218705.000000 0 0 1
-18.541078 27.380026 -13.002954 35.531876 -0.975554 1.945452 0.185624 -0.058319 223014.000000 0 0 1
-17.405678 27.616826 -13.791254 35.437909 -1.008426 1.970523 0.191840 -0.063240 115411.000000 0 0 1
-16.290878 26.741226 -13.525554 34.109038 -1.023636 1.978540 0.188243 -0.070182 1357650.000000 0 0 1
-14.948978 27.270526 -14.132654 34.159705 -1.069357 1.997336 0.159155 -0.067541 435227.000000 0 0 1
-14.963078 27.405626 -15.549854 34.882087 -1.071040 2.032846 0.132422 -0.067740 643609.000000 0 0 1
-13.732778 28.040226 -15.969954 35.069686 -1.115380 2.043593 0.152327 -0.066074 760982.000000 0 0 1
-13.711178 28.192526 -17.504254 35.905624 -1.118136 2.080029 0.172438 -0.080893 132623.000000 0 0 1
-13.734578 26.949526 -18.076054 35.237187 -1.099466 2.109452 0.132239 -0.068936 147144.000000 0 0 1
-14.180178 27.041926 -19.445054 36.200184 -1.087837 2.137855 0.105328 -0.064775 17179.700000 0 0 1
-13.522878 26.029126 -20.410154 35.734549 -1.091648 2.178715 0.073640 -0.037016 -989028.000000 0 0 1
-12.166878 26.254126 -20.577354 35.506894 -1.136833 2.188950 0.064573 -0.029485 -1064660.000000 0 0 1
-11.582878 25.196526 -21.300354 34.967600 -1.139904 2.225779 0.064013 -0.033421 337128.000000 0 0 1
-10.207278 25.539226 -21.910954 35.164336 -1.190574 2.243498 0.093691 -0.031633 284255.000000 0 0 1
-10.492578 26.285326 -23.070154 36.513622 -1.190997 2.254699 0.080782 -0.026350 805329.000000 0 0 1
-9.280778 26.483226 -23.797854 36.794456 -1.233730 2.274149 0.076591 -0.032001 481874.000000 0 0 1
-9.640878 27.080626 -25.185484 38.217999 -1.228781 2.290279 0.073332 -0.025464 108720.000000 0 0 1
-10.366578 26.204926 -26.014544 38.352583 -1.194092 2.316242 0.065143 -0.024543 -239496.000000 0 0 1
-10.671778 26.852826 -27.200474 39.684089 -1.192518 2.325984 0.075608 -0.018832 310844.000000 0 0 1
-12.082078 26.404626 -27.686544 40.121386 -1.141662 2.332381 0.061481 -0.015424 364805.000000 0 0 1
-12.427078 26.892826 -29.023304 41.472986 -1.137929 2.345931 0.072060 -0.014186 382355.000000 0 0 1
-13.751478 26.403226 -29.247934 41.733382 -1.090627 2.347354 0.056813 -0.009361 381852.000000 0 0 1
-14.264178 26.553026 -30.705594 43.027473 -1.077837 2.365459 0.061444 -0.014322 -709153.000000 0 0 1
-13.450678 26.033326 -31.679254 43.153562 -1.093901 2.395144 0.059446 -0.015787 -425883.000000 0 0 1
-13.377278 24.613326 -31.804854 42.382970 -1.072959 2.419487 0.045082 -0.024627 252815.000000 0 0 1
-12.407878 24.001226 -32.874784 42.553093 -1.093666 2.453658 0.050370 -0.018297 35794.700000 0 0 1
-12.858978 24.226526 33.401769 43.219857 -1.082828 0.687502 0.053553 -0.015120 -119121.000000 0 0 1
-12.079378 23.628626 32.423054 41.898422 -1.098215 0.685900 0.055593 -0.017082 -595964.000000 0 0 1
-12.732778 23.748726 31.014762 41.085777 -1.078652 0.715328 0.069052 -0.009835 -69174.400000 0 0 1
-13.982978 23.119326 30.849942 41.009095 -1.026842 0.719294 0.073340 -0.017862 153582.000000 0 0 1
-14.552378 23.068126 29.543672 40.208690 -1.008006 0.745486 0.087434 -0.017223 1204970.000000 0 0 1
-15.873278 22.187326 29.485682 40.170186 -0.949796 0.746575 0.072423 -0.012137 947203.000000 0 0 1
-15.602978 20.817026 29.636922 39.435373 -0.927596 0.720416 0.062559 -0.018409 -11970.800000 0 0 1
-16.761078 20.005026 29.690282 39.530338 -0.873402 0.721106 0.059196 -0.020602 106901.000000 0 0 1
-16.384978 18.511526 29.823552 38.737429 -0.846262 0.692128 0.054310 -0.028494 110282.000000 0 0 1
-15.725178 18.014826 28.668402 37.332191 -0.853156 0.695198 0.055566 -0.031556 101152.000000 0 0 1
-15.051078 16.814026 28.918672 36.681549 -0.840667 0.662640 0.041799 -0.038567 -195595.000000 0 0 1
-14.687678 16.081426 27.640482 35.190004 -0.830664 0.667351 0.057353 -0.031588 -143148.000000 0 0 1
-13.763778 16.788126 26.858522 34.534953 -0.884067 0.679766 0.032500 -0.029380 252713.000000 0 0 1
-12.967878 15.871326 26.015442 33.118999 -0.885737 0.667270 0.016217 -0.025139 244068.000000 0 0 1
-11.873278 16.490226 25.163682 32.343673 -0.946761 0.679305 0.031941 -0.018433 -577756.000000 0 0 1
-12.178778 17.484826 24.199212 32.243506 -0.962400 0.721956 0.031012 -0.016929 -361313.000000 0 0 1
-12.721278 18.746626 24.613302 33.452676 -0.974584 0.744001 0.036723 -0.020216 96901.400000 0 0 1
-11.738778 19.684926 25.351772 34.176126 -1.033077 0.735049 0.037147 -0.020779 38098.900000 0 0 1
-11.540678 19.394126 26.712812 34.969897 -1.034017 0.701492 0.047254 -0.022493 174022.000000 0 0 1
-12.629378 19.761426 27.560252 36.188156 -1.002127 0.705045 0.061387 -0.021456 351863.000000 0 0 1
-12.279878 19.408326 29.025602 37.013026 -1.006671 0.669391 0.056275 -0.021782 248127.000000 0 0 1
-11.154578 20.109526 29.518452 37.418667 -1.064359 0.661829 0.054703 -0.021554 -70229.300000 0 0 1
-11.054278 20.052326 30.903302 38.461759 -1.066977 0.637676 0.045475 -0.018836 -228662.000000 0 0 1
-10.016178 20.993826 31.501176 39.158507 -1.125635 0.636042 0.035353 -0.015160 -665822.000000 0 0 1
-8.699278 20.572226 31.332952 38.479187 -1.170735 0.619303 0.035061 -0.015980 -622542.000000 0 0 1
-7.795778 21.330626 32.096942 39.318996 -1.220404 0.615783 0.043435 -0.021517 569815.000000 0 0 1
-6.528478 20.590826 32.646700 39.146011 -1.263765 0.584528 0.043387 -0.013528 409101.000000 0 0 1
-6.791278 19.752426 33.748872 39.689623 -1.239638 0.554204 0.042743 -0.015578 411190.000000 0 0 1
-5.614178 19.301826 -33.165644 38.781947 -1.287743 2.596699 0.046906 -0.009498 898962.000000 0 0 1
-4.736478 18.134826 -33.759484 38.613584 -1.315322 2.634768 0.041298 -0.008816 248728.000000 0 0 1
-5.451778 16.934726 33.683642 38.093235 -1.259345 0.485928 0.039148 -0.007394 146149.000000 0 0 1
-4.928478 16.179626 32.588961 36.716626 -1.275115 0.478730 0.048021 -0.005550 42445.300000 0 0 1
-5.417178 14.706826 32.533344 36.111702 -1.217873 0.448938 0.078174 -0.013380 -185871.000000 0 0 1
-5.002378 13.852226 33.541302 36.632321 -1.224246 0.413748 0.083261 -0.016742 -126950.000000 0 0 1
-5.541978 12.565426 33.328318 36.046917 -1.155410 0.390860 0.097169 -0.026995 79866.300000 0 0 1
-4.598378 11.338126 33.665992 35.820346 -1.185499 0.348586 0.105645 -0.040249 395521.000000 0 0 1
-4.438978 11.198126 -32.506484 34.666613 -1.193394 2.786714 0.137467 -0.053837 36421.800000 0 0 1
-3.565778 10.087626 -32.390494 34.111861 -1.231024 2.822555 0.144869 -0.052269 -80392.600000 0 0 1
-3.222878 9.501426 -30.963634 32.548589 -1.243776 2.828238 0.163611 -0.052416 221144.000000 0 0 1
-4.170678 8.545226 -30.503874 31.951554 -1.116737 2.839417 0.167869 -0.051316 353299.000000 0 0 1
-5.294778 9.183626 -29.886014 31.710369 -1.047801 2.800735 0.179574 -0.066184 330395.000000 0 0 1
-6.401378 8.194026 -29.431994 31.214772 -0.907609 2.801989 0.171510 -0.054027 103659.000000 0 0 1
-5.987278 7.334026 -28.382354 29.919784 -0.886153 2.819626 0.166909 -0.037011 490027.000000 0 0 1
-7.097578 6.507326 -27.994624 29.604389 -0.742040 2.810304 0.181095 -0.051594 132918.000000 0 0 1
-6.875078 5.509626 -26.802214 28.213141 -0.675589 2.824002 0.162043 -0.044406 -93731.500000 0 0 1
-6.671078 6.126326 -25.524754 27.084095 -0.742856 2.800608 0.119998 -0.027862 -40230.200000 0 0 1
-5.491478 6.871726 -25.348184 26.831090 -0.896579 2.807572 0.108581 -0.029483 -647503.000000 0 0 1
-5.595578 8.073626 -24.359254 26.265323 -0.964737 2.758278 0.056297 -0.006110 -81992.400000 0 0 1
-5.879478 7.672126 -23.075654 25.018305 -0.916918 2.744918 0.039363 0.004091 700730.000000 0 0 1
-7.273878 7.627326 -22.668554 24.998975 -0.809113 2.706377 0.050179 0.001137 1059340.000000 0 1 0
-7.511278 7.680726 -21.140454 23.713533 -0.796551 2.671427 0.046175 -0.001565 -175759.000000 0 1 0
-7.206678 8.948026 -20.560254 23.552652 -0.892776 2.632011 0.032055 0.002235 -24269.400000 0 1 0
-7.144578 9.061826 -19.141254 22.350599 -0.903153 2.599070 0.027541 0.000061 -653023.000000 0 1 0
-8.432178 9.300326 -18.388254 22.264896 -0.834317 2.542567 0.039081 0.001122 -793455.000000 0 1 0
-8.116778 9.169926 -17.033754 20.978999 -0.846245 2.518270 0.026052 -0.004522 219463.000000 0 1 0
-9.137878 9.606126 -16.152254 20.896741 -0.810374 2.454283 0.027107 -0.008272 236267.000000 0 1 0
-9.681478 11.112926 -16.146354 21.861676 -0.854128 2.401741 0.049794 -0.020492 996252.000000 0 1 0
-8.613578 12.030926 -15.803754 21.649378 -0.949444 2.389099 0.027158 -0.023942 694440.000000 0 1 0
-9.076278 13.352326 -16.074154 22.782490 -0.973789 2.353993 0.060850 -0.029345 430542.000000 0 1 0
-7.889678 14.325126 -15.884854 22.798790 -1.067371 2.341641 0.057923 -0.030159 -54754.100000 0 1 0
-7.400178 14.548126 -14.595054 21.895803 -1.100238 2.300392 0.048812 -0.016683 3389.910000 0 1 0
-8.284978 15.217026 -13.724354 22.103317 -1.072221 2.240710 0.052979 -0.029558 -485422.000000 0 1 0
-7.522278 16.005026 -12.606354 21.717866 -1.131440 2.190090 0.031697 -0.027165 219814.000000 0 1 0
-7.091178 17.312626 -12.870554 22.708214 -1.182045 2.173388 0.039793 -0.027919 261113.000000 0 1 0
-6.003578 17.369926 -13.800354 22.982755 -1.238019 2.214880 0.040549 -0.027020 -31019.200000 0 1 0
-5.834578 18.808426 -14.434254 24.416119 -1.269998 2.203314 0.068520 -0.020070 29517.900000 0 1 0
-5.317078 19.660926 -13.477554 24.422690 -1.306676 2.155372 0.072162 -0.027733 -307796.000000 0 1 0
-5.690878 20.973626 -13.861654 25.776434 -1.305841 2.138580 0.089664 -0.026089 -116226.000000 0 0 1
-5.158478 22.046826 -12.864354 26.041583 -1.340953 2.087472 0.095098 -0.026567 -877570.000000 0 0 1
-5.285178 23.434326 -13.212354 27.416547 -1.348976 2.073631 0.079502 -0.028211 350393.000000 0 0 1
-6.591778 24.002126 -13.179754 28.164863 -1.302771 2.057766 0.065205 -0.024995 517046.000000 0 0 1
-7.458678 23.920626 -11.899154 27.738387 -1.268541 2.014157 0.035885 -0.019182 -341947.000000 0 0 1
-7.929378 22.632126 -11.556554 26.620333 -1.233801 2.019863 0.044654 -0.016910 -251058.000000 0 0 1
-8.562878 22.516226 -10.265554 26.185586 -1.207389 1.973634 0.066138 -0.017097 15592.100000 0 0 1
-7.831878 22.778826 -8.925254 25.688001 -1.239635 1.925645 0.072839 -0.017952 -178045.000000 0 0 1
-7.697278 24.164326 -8.702654 26.812291 -1.262419 1.901361 0.058760 -0.011898 -371128.000000 0 0 1
-6.973878 24.423326 -7.540754 26.495222 -1.292656 1.859394 0.060075 -0.016013 -159068.000000 0 0 1
-6.890278 25.923026 -7.162154 27.762847 -1.311005 1.831723 0.053876 -0.008370 244638.000000 0 0 1
-5.951578 26.692026 -7.895154 28.464346 -1.351413 1.851852 0.045518 -0.011630 -319074.000000 0 0 1
-6.106078 26.769026 -9.307254 28.991204 -1.346531 1.897621 0.045686 -0.012014 -202302.000000 0 0 1
-5.279178 27.933126 -9.933254 30.113100 -1.384006 1.906957 0.041408 -0.011785 533042.000000 0 0 1
-6.011878 29.163126 -10.091854 31.440040 -1.367498 1.897568 0.038414 -0.007529 38567.000000 0 0 1
-6.982978 29.186526 -11.101554 31.997809 -1.335957 1.925111 0.043610 -0.007388 70507.100000 0 0 1
-8.112078 30.217026 -10.914454 33.136080 -1.308520 1.906446 0.057832 -0.008426 470197.000000 0 0 1
-9.054378 30.007326 -9.857354 32.857097 -1.277745 1.875496 0.081718 -0.014757 719920.000000 0 0 1
-10.174478 30.893226 -9.936654 34.009536 -1.252641 1.867294 0.083269 -0.021585 148191.000000 0 0 1
-11.271678 30.574526 -8.936254 33.789185 -1.217593 1.838452 0.100090 -0.024224 -406653.000000 0 0 1
-12.006378 29.439526 -9.288354 33.122686 -1.183557 1.855031 0.112178 -0.037411 374980.000000 0 0 1
-13.370178 29.600926 -8.853354 33.665388 -1.146545 1.836907 0.140781 -0.035013 1325670.000000 0 0 1
-14.355878 28.501426 -9.405454 33.269883 -1.104201 1.857406 0.159455 -0.044908 428052.000000 0 0 1
-14.213178 27.185726 -8.967554 31.960838 -1.089062 1.855194 0.131822 -0.041314 409208.000000 0 0 1
-15.289278 26.420726 -9.567554 31.989918 -1.046197 1.874525 0.155666 -0.049784 883356.000000 0 0 1
-15.442678 25.033526 -8.883654 30.725772 -1.018058 1.864111 0.139177 -0.046822 845991.000000 0 0 1
-14.300378 24.173626 -9.116554 29.529249 -1.036599 1.884653 0.126338 -0.037746 786666.000000 0 0 1
-14.559478 22.872026 -8.591454 28.441537 -1.003925 1.877664 0.125869 -0.036896 225845.000000 0 0 1
-13.582278 21.777926 -9.094054 27.229729 -1.013153 1.911314 0.120432 -0.030712 74564.900000 0 0 1
-13.826378 21.517526 -10.426154 27.620234 -0.999667 1.957872 0.112267 -0.027459 293604.000000 0 0 1
-13.161478 20.290326 -10.758154 26.469978 -0.995365 1.989338 0.106701 -0.027209 54553.900000 0 0 1
-13.374778 19.881826 -12.211054 26.893894 -0.978619 2.042097 0.111056 -0.020209 729415.000000 0 0 1
-14.743978 19.511726 -12.434254 27.435433 -0.923691 2.041169 0.130578 -0.020023 527190.000000 0 0 1
-14.926978 18.811926 -13.673554 27.634567 -0.900041 2.088400 0.134058 -0.019977 391770.000000 0 0 1
-16.425378 18.628826 -14.035654 28.527632 -0.848174 2.085184 0.138864 -0.011616 437925.000000 0 0 1
-17.090378 19.861626 -14.353654 29.876288 -0.860254 2.071948 0.133994 -0.017316 -231965.000000 0 0 1
-18.349678 19.531526 -14.894754 30.660151 -0.816587 2.078076 0.129731 -0.015267 -345668.000000 0 0 1
-19.004378 20.764826 -15.582354 32.173811 -0.829636 2.076380 0.141935 -0.023118 -258928.000000 0 0 1
-19.598478 21.638226 -14.693154 32.683359 -0.834822 2.037070 0.140159 -0.043767 4492.460000 0 0 1
-19.829778 22.845926 -15.328854 33.913569 -0.855957 2.039800 0.158801 -0.040740 -44377.400000 0 0 1
-20.423978 24.018626 -14.494254 34.700384 -0.866105 2.001706 0.157353 -0.038029 122051.000000 0 0 1
-21.759178 23.781426 -14.100154 35.182842 -0.829774 1.983151 0.169357 -0.041544 261973.000000 0 0 1
-22.253078 24.767226 -13.189054 35.812932 -0.838817 1.947951 0.171466 -0.052088 123673.000000 0 0 1
-26.681528 -0.533974 3.291946 26.889142 0.020010 1.448062 0.217285 -0.048378 -42053.700000 0 0 1
-27.153558 0.266426 4.380746 27.505956 -0.009812 1.410850 0.222164 -0.048495 78170.400000 0 0 1
-28.419728 -0.191674 4.789146 28.821062 0.006744 1.403854 0.217305 -0.044491 -751362.000000 0 0 1
-28.847618 0.516826 6.052446 29.480235 -0.017914 1.364021 0.233299 -0.036346 -566718.000000 0 0 1
-29.174338 1.895926 5.794746 29.804624 -0.064895 1.375126 0.251555 -0.043396 278419.000000 0 0 1
-29.600458 2.477526 7.016946 30.521513 -0.083504 1.338820 0.275548 -0.038890 249217.000000 0 0 1
-28.451258 3.109926 7.900546 29.691149 -0.108875 1.301461 0.273195 -0.038884 616706.000000 0 0 1
-27.767618 2.038926 8.568146 29.130928 -0.073297 1.272256 0.245251 -0.043688 291063.000000 0 0 1
-26.720978 2.368526 9.427646 28.434153 -0.088408 1.232839 0.232582 -0.052986 -349282.000000 0 0 1
-26.005048 1.181326 10.107146 27.925122 -0.045396 1.200451 0.216034 -0.048567 -247360.000000 0 0 1
-24.907878 0.609826 9.437746 26.642922 -0.024478 1.208705 0.208011 -0.049222 588880.000000 0 0 1
-25.303428 -0.434974 8.549346 26.712244 0.017189 1.245010 0.179874 -0.041647 -407701.000000 0 0 1
-24.033078 -1.003974 7.937946 25.329978 0.041750 1.252045 0.157514 -0.047917 -515640.000000 0 0 1
-23.132178 -1.535974 8.862546 24.819379 0.066303 1.205655 0.161679 -0.063595 -65457.000000 0 1 0
-22.040578 -2.160374 8.216446 23.621267 0.097706 1.215529 0.175499 -0.049709 387889.000000 0 1 0
-20.840678 -2.398374 9.201846 22.907641 0.114577 1.157431 0.148521 -0.036468 930275.000000 0 1 0
-20.033978 -1.242074 9.603046 22.251326 0.061919 1.124562 0.124606 -0.037871 1311810.000000 0 1 0
-20.706178 -0.457974 10.563546 23.249603 0.022114 1.099150 0.136758 -0.042284 -466441.000000 0 1 0
-19.990878 0.899626 10.761146 22.721065 -0.044971 1.077400 0.091876 -0.033146 -291836.000000 0 1 0
-20.279578 1.912926 9.814546 22.610747 -0.094049 1.121796 0.103812 -0.029484 789466.000000 0 1 0
-21.672478 2.175326 9.645446 23.821481 -0.100038 1.153921 0.131571 -0.037608 258729.000000 0 1 0
-22.096878 3.693326 9.416146 24.301779 -0.165612 1.172914 0.121785 -0.037813 -265886.000000 0 1 0
-22.028078 4.551026 10.575146 24.855216 -0.203735 1.131315 0.097873 -0.032436 505959.000000 0 1 0
-22.168478 5.917326 10.253446 25.131441 -0.260844 1.150542 0.075837 -0.025468 -206037.000000 0 0 1
-22.375678 6.797826 11.460346 26.042675 -0.294943 1.115131 0.077599 -0.029502 -76785.000000 0 0 1
-23.583478 6.695926 12.189546 27.378840 -0.276644 1.109379 0.096692 -0.024675 295288.000000 0 0 1
-23.698678 7.588726 13.265046 28.198892 -0.309900 1.081041 0.105535 -0.017205 -538091.000000 0 0 1
-24.671678 7.021926 14.275446 29.356217 -0.277283 1.062965 0.134049 -0.025717 -356028.000000 0 0 1
-25.995118 7.294126 13.888346 30.361762 -0.273561 1.095695 0.149855 -0.036854 -15311.400000 0 0 1
-26.979388 6.660426 14.694746 31.435397 -0.242031 1.084383 0.156069 -0.039264 892047.000000 0 0 1
-28.434848 6.754626 14.129946 32.462608 -0.233225 1.120460 0.178538 -0.030745 400270.000000 0 0 1
-28.662248 5.825626 13.133946 32.061861 -0.200519 1.148733 0.197079 -0.025186 576285.000000 0 0 1
-29.854988 6.163326 12.411646 32.914371 -0.203582 1.184145 0.237106 -0.027398 404220.000000 0 0 1
-30.476088 5.023126 11.614846 32.998915 -0.163353 1.211114 0.251530 -0.032277 -287703.000000 0 0 1
-31.260778 4.043026 12.229446 33.810378 -0.128618 1.200698 0.223951 -0.033304 61212.700000 0 0 1
-31.780718 3.186926 11.234746 33.858382 -0.099944 1.232569 0.214758 -0.019375 8921.580000 0 0 1
-32.907168 2.250126 11.780746 35.024716 -0.068272 1.227752 0.161253 -0.013508 145318.000000 0 0 1
-32.525108 1.048226 12.418746 34.831116 -0.032217 1.206233 0.158491 -0.007881 770609.000000 0 0 1
-33.723248 0.322526 12.784646 36.066725 -0.009564 1.208447 0.132448 -0.013208 804633.000000 0 0 1
-33.504898 -0.912174 13.732946 36.221596 0.027218 1.181933 0.121538 -0.015930 -137056.000000 0 0 1
-33.182028 -2.145174 13.150346 35.757242 0.064559 1.194189 0.127680 -0.014723 232394.000000 0 0 1
-32.899598 -3.097374 14.136946 35.942044 0.093870 1.166550 0.112916 -0.016554 -220144.000000 0 0 1
-32.955498 -4.529974 13.581846 35.931213 0.136601 1.183166 0.117534 -0.017698 771893.000000 0 0 1
-34.255918 -4.905574 13.085746 36.996882 0.142237 1.209274 0.116385 -0.031626 911618.000000 0 0 1
-34.299353 -6.281274 12.834846 37.156874 0.181124 1.218107 0.132454 -0.030566 -438328.000000 0 0 1
-35.589905 -6.727774 12.071446 38.178843 0.186831 1.249094 0.135119 -0.028628 581952.000000 0 0 1
-36.797098 -6.765774 12.798746 39.542509 0.181836 1.241190 0.113414 -0.038840 209874.000000 0 0 1
-37.319388 -5.499574 13.169746 39.955278 0.146312 1.234904 0.116920 -0.042273 -715711.000000 0 0 1
36.738204 -5.152774 12.736146 39.223158 -0.139348 1.240091 0.124704 -0.042004 520455.000000 0 0 1
35.734934 -6.098074 13.129946 38.556031 -0.169019 1.223303 0.123711 -0.036595 -129650.000000 0 0 1
34.483584 -5.514874 12.889146 37.224474 -0.158585 1.217221 0.142024 -0.038224 -679511.000000 0 0 1
33.285594 -6.420074 13.125246 36.351344 -0.190539 1.201385 0.134029 -0.026380 -459892.000000 0 0 1
33.005704 -6.647374 14.518046 36.665212 -0.198742 1.163681 0.128578 -0.022466 391560.000000 0 0 1
31.901404 -7.552974 14.605346 35.889596 -0.232479 1.151681 0.108286 -0.028054 569674.000000 0 0 1
31.075664 -7.530974 15.939346 35.727793 -0.237759 1.108357 0.091775 -0.017441 650767.000000 0 0 1
31.898924 -7.950574 17.061346 37.038392 -0.244266 1.092081 0.078954 -0.007234 707444.000000 0 0 1
31.176864 -8.002474 18.301746 37.026887 -0.251256 1.053787 0.059900 -0.009286 243540.000000 0 0 1
32.066124 -8.616674 19.456446 38.484239 -0.262514 1.040755 0.051565 -0.008517 1034150.000000 0 0 1
33.233394 -7.881874 19.838346 39.498638 -0.232865 1.044593 0.055355 -0.005225 618710.000000 0 0 1
34.430044 -8.351674 19.208246 40.300560 -0.237973 1.073985 0.046053 0.006198 72785.200000 0 0 1
35.674754 -7.681574 19.797046 41.516475 -0.212084 1.073731 0.037838 -0.002945 -212636.000000 0 0 1
36.136444 -8.310574 20.987046 42.607092 -0.226047 1.055754 0.040222 -0.001740 130265.000000 0 0 1
37.300864 -7.683374 21.499646 43.733551 -0.203143 1.056864 0.044182 -0.005864 168684.000000 0 0 1
-37.720108 -8.313574 22.839346 44.872684 0.216933 1.036796 0.047670 0.002427 -15540.900000 0 0 1
37.209974 -7.772174 24.031546 44.972259 -0.205913 1.007041 0.057465 0.000978 76992.400000 0 0 1
37.194654 -8.760274 25.085946 45.710933 -0.231310 0.989874 0.052363 -0.007990 -243680.000000 0 0 1
36.552324 -8.126174 26.288446 45.751388 -0.218759 0.958689 0.066351 -0.012083 49000.800000 0 0 1
37.396104 -7.178974 26.923546 46.635647 -0.189664 0.955358 0.074527 -0.025163 -231899.000000 0 0 1
36.742354 -6.520574 27.957746 46.627825 -0.175639 0.927803 0.080164 -0.033769 -830530.000000 0 0 1
37.614044 -5.753274 28.936346 47.804065 -0.151779 0.920639 0.094926 -0.032920 -173334.000000 0 0 1
-37.088428 -6.526574 29.791746 48.017661 0.174190 0.901502 0.094197 -0.035693 -593778.000000 0 0 1
-35.737181 -6.521374 29.399146 46.733117 0.180496 0.890420 0.089296 -0.042965 336983.000000 0 0 1
-34.788438 -7.132674 30.523946 46.827574 0.202227 0.860792 0.086361 -0.034036 525255.000000 0 0 1
-34.797129 -8.577174 30.687046 47.181595 0.241673 0.862682 0.081407 -0.028015 -183752.000000 0 0 1
-34.079653 -8.992274 31.820146 47.484791 0.257981 0.836436 0.070839 -0.021735 -285340.000000 0 0 1
-34.154221 -10.539174 31.994346 47.971066 0.299306 0.840687 0.080377 -0.024342 69073.300000 0 0 1
-35.467067 -10.964974 32.317846 49.219779 0.299839 0.854491 0.071611 -0.024172 92076.000000 0 0 1
-35.675200 -12.374674 32.416246 49.766107 0.333884 0.861405 0.064103 -0.014015 -837558.000000 0 0 1
-37.128388 -12.703874 32.636646 51.039752 0.329674 0.877032 0.063981 -0.017058 -865096.000000 0 0 1
-37.401578 -14.045474 32.950546 51.786985 0.359237 0.881142 0.061348 -0.026108 281775.000000 0 0 1
36.744554 -14.325874 33.292946 51.612142 -0.371750 0.869694 0.059145 -0.026874 336140.000000 0 0 1
36.289354 -15.824774 33.292246 51.727307 -0.411211 0.871590 0.059414 -0.010136 -10278.300000 0 0 1
36.781734 -16.475574 -33.112960 52.161371 -0.421130 2.258569 0.071079 -0.026828 363591.000000 0 0 1
36.739494 -17.880774 -33.227760 52.664946 -0.452944 2.253544 0.067175 -0.042363 -163071.000000 0 0 1
36.990754 -18.730374 -31.941660 52.339397 -0.468717 2.227210 0.068603 -0.025669 52703.600000 0 0 1
35.959444 -18.677374 -30.992660 51.014419 -0.479048 2.223740 0.071777 -0.024991 -54221.100000 0 0 1
36.269274 -19.606474 -29.998760 50.988231 -0.495583 2.199809 0.063640 -0.024132 -589180.000000 0 0 1
35.271354 -19.551174 -28.815160 49.564405 -0.506144 2.191205 0.063772 -0.021647 487477.000000 0 0 1
33.982554 -20.085974 -29.025960 48.997619 -0.533825 2.204825 0.065422 -0.010501 786580.000000 0 0 1
33.074274 -19.308674 -29.845660 48.554052 -0.528421 2.232788 0.057059 -0.007321 32088.900000 0 0 1
31.635124 -19.865774 -29.935360 47.870198 -0.560729 2.246369 0.047121 -0.007486 375227.000000 0 0 1
30.695544 -19.005274 -30.566960 47.304925 -0.554385 2.273350 0.034281 -0.001480 -636421.000000 0 0 1
29.459054 -19.604574 -30.661960 46.822334 -0.587184 2.284790 0.041301 -0.009354 -618388.000000 0 0 1
28.603354 -18.889374 -31.748160 46.721580 -0.583645 2.317902 0.042324 -0.000234 145274.000000 0 0 1
28.997054 -19.309974 -33.037860 48.012545 -0.587492 2.329676 0.042653 -0.007605 -353511.000000 0 0 1
28.014354 -19.093074 33.599246 47.731110 -0.598233 0.789884 0.058965 -0.011029 -392566.000000 0 0 1
28.480754 -19.472074 32.151546 47.159696 -0.599697 0.820632 0.061280 -0.006171 131660.000000 0 0 1
29.591354 -18.729174 31.662346 47.211591 -0.564280 0.835715 0.046119 -0.004706 278441.000000 0 0 1
29.737054 -18.644274 30.251346 46.336220 -0.560015 0.859434 0.046470 -0.014252 -252272.000000 0 0 1
28.697254 -17.817674 29.478446 44.832808 -0.555634 0.853275 0.034531 0.000640 -133912.000000 0 0 1
28.586954 -16.466574 29.929546 44.543683 -0.522598 0.834006 0.047158 -0.010088 589571.000000 0 0 1
27.412654 -15.942474 29.317346 43.187068 -0.526760 0.824607 0.036218 -0.004908 202554.000000 0 0 1
27.213054 -14.515674 29.924246 42.973429 -0.490016 0.800507 0.054653 -0.007950 53751.800000 0 0 1
28.116654 -13.474174 29.553946 42.959694 -0.446889 0.812141 0.048328 -0.006072 220491.000000 0 0 1
27.996854 -12.339774 30.445746 43.162916 -0.415140 0.787854 0.076641 -0.014990 516745.000000 0 0 1
29.380454 -11.614974 30.558846 43.954087 -0.376474 0.802036 0.076127 -0.015385 527378.000000 0 0 1
29.784154 -10.963774 29.345846 43.225905 -0.352714 0.824540 0.062883 -0.017407 115254.000000 0 0 1
31.170014 -10.672174 29.407546 44.161848 -0.329876 0.842092 0.062879 -0.013774 237961.000000 0 0 1
31.727724 -10.079774 28.093146 43.560018 -0.307612 0.869865 0.054587 -0.011281 -72788.600000 0 0 1
31.373744 -8.745974 27.894546 42.882509 -0.271865 0.862570 0.052251 -0.015094 -213246.000000 0 0 1
31.851064 -8.231974 26.681146 42.357281 -0.252918 0.889363 0.054139 -0.011596 -113580.000000 0 0 1
31.741794 -6.643474 26.565046 41.921103 -0.206319 0.884480 0.052583 -0.015466 -673318.000000 0 0 1
30.514154 -6.122874 26.212946 40.690561 -0.198027 0.870817 0.065818 -0.015826 -1174450.000000 0 0 1
30.532644 -4.746574 26.020146 40.395796 -0.154224 0.870911 0.084294 -0.015934 439946.000000 0 0 1
29.071954 -4.220274 25.966546 39.207789 -0.144159 0.846938 0.081316 -0.015108 228980.000000 0 0 1
28.512954 -4.576674 24.730746 38.020314 -0.159155 0.862605 0.086404 -0.014299 365918.000000 0 0 1
27.110954 -4.294974 24.721446 36.940500 -0.157116 0.837633 0.101814 -0.022702 519092.000000 0 0 1
26.406854 -4.676574 23.384046 35.580977 -0.175280 0.853690 0.107668 -0.021580 -38298.600000 0 0 1
26.925554 -3.968774 22.279646 35.172706 -0.146344 0.884811 0.115392 -0.013938 135659.000000 0 0 1
26.531754 -4.589574 21.092546 34.203708 -0.171289 0.906285 0.132968 -0.014026 54819.300000 0 0 1
26.735354 -3.658474 19.882046 33.518045 -0.135996 0.935800 0.155312 -0.022646 500881.000000 0 0 1
25.711054 -2.681174 19.711246 32.508156 -0.103905 0.919337 0.151716 -0.016724 293722.000000 0 0 1
26.122954 -1.789074 18.712846 32.183538 -0.068380 0.950297 0.153048 -0.032983 79028.900000 0 0 1
25.050754 -0.714374 18.400946 31.090922 -0.028509 0.937453 0.121551 -0.042554 323190.000000 0 0 1
23.974554 -1.289074 17.668546 29.809704 -0.053717 0.936375 0.134751 -0.044993 -345791.000000 0 0 1
22.963154 -0.399474 17.305046 28.756402 -0.017395 0.925068 0.134193 -0.044349 -290494.000000 0 0 1
21.755454 -1.210574 16.816546 27.523835 -0.055587 0.913497 0.145598 -0.041238 -547996.000000 0 0 1
21.949054 -1.839974 15.605246 26.993892 -0.083634 0.954395 0.164677 -0.052153 -352475.000000 0 0 1
20.871154 -2.609874 15.179046 25.938773 -0.124401 0.945685 0.171942 -0.052196 -614203.000000 0 0 1
21.075954 -3.158374 13.751646 25.362944 -0.148750 0.997750 0.195463 -0.065083 -707018.000000 0 0 1
20.140254 -4.104674 13.405346 24.539386 -0.201051 0.992881 0.201995 -0.057530 -18989.600000 0 1 0
20.099454 -4.308274 12.051546 23.828324 -0.211153 1.040527 0.189774 -0.054029 -316577.000000 0 1 0
19.107954 -5.422374 11.730746 23.067866 -0.276507 1.037317 0.178809 -0.051375 -263724.000000 0 1 0
19.542154 -6.670774 12.198646 23.983369 -0.328951 1.037204 0.203339 -0.059000 1062160.000000 0 1 0
18.375354 -7.474074 12.383046 23.384936 -0.386307 1.012749 0.192054 -0.036388 436555.000000 0 1 0
18.722254 -8.979074 12.623846 24.300371 -0.447190 1.024540 0.205373 -0.052163 -328144.000000 0 1 0
19.136654 -9.567574 11.438246 24.260739 -0.463616 1.079838 0.181488 -0.059358 209336.000000 0 1 0
18.863554 -10.942474 11.397146 24.606226 -0.525648 1.089215 0.202858 -0.055050 -135405.000000 0 1 0
19.246054 -11.535474 10.077046 24.597248 -0.539955 1.148691 0.174978 -0.052950 -136636.000000 0 1 0
18.655054 -10.948074 8.968646 23.415977 -0.530708 1.177739 0.166859 -0.046536 223503.000000 0 1 0
19.342154 -11.431074 7.823746 23.790741 -0.533770 1.235704 0.175773 -0.057504 200865.000000 0 1 0
18.962754 -10.660174 6.558446 22.720884 -0.512134 1.277977 0.150206 -0.049040 -98389.700000 0 1 0
19.534554 -9.380874 6.536346 22.634562 -0.447698 1.277847 0.159749 -0.042719 427526.000000 0 1 0
19.708554 -9.013474 5.225246 22.292891 -0.428940 1.334205 0.109540 -0.041958 -196168.000000 0 1 0
20.512654 -7.693474 5.159746 22.507365 -0.358823 1.339492 0.166028 -0.039678 -101169.000000 0 1 0
20.655154 -7.212174 3.791346 22.204170 -0.335936 1.399206 0.116648 -0.030584 364315.000000 0 1 0
21.493854 -6.117674 3.737946 22.657977 -0.277292 1.405066 0.167781 -0.028926 -519541.000000 0 1 0
22.009254 -5.800674 2.296846 22.876420 -0.257696 1.470225 0.169887 -0.029513 476402.000000 0 1 0
20.939354 -5.329274 1.462446 21.656326 -0.249219 1.503215 0.118609 -0.044282 1127050.000000 0 1 0
21.437954 -4.878474 0.253346 21.987487 -0.223752 1.559274 0.122952 -0.025807 -243274.000000 0 1 0
-25.219628 -15.358974 -0.545054 29.533452 0.547017 1.589253 0.136264 -0.012015 506800.000000 0 0 1
-24.213478 -14.334574 -0.776254 28.149158 0.534522 1.598376 0.102852 -0.002694 1269730.000000 0 0 1
-22.995578 -14.591074 -0.062454 27.234169 0.565413 1.573090 0.113598 0.008492 584109.000000 0 0 1
-22.916378 -14.113674 1.387746 26.949620 0.552012 1.519279 0.132659 -0.018929 -427096.000000 0 0 1
-23.553478 -14.997874 2.298846 28.017624 0.567010 1.488654 0.131337 0.001859 81051.000000 0 0 1
-23.066278 -14.741474 3.590746 27.609014 0.568669 1.440370 0.120960 -0.000713 -167015.000000 0 0 1
-23.820478 -15.403074 4.720646 28.756814 0.574004 1.405892 0.150414 -0.001818 -338762.000000 0 0 1
-23.639778 -16.778074 4.689946 29.365600 0.617232 1.410401 0.184458 -0.026096 -159154.000000 0 0 1
-24.373478 -17.396874 5.663346 30.476075 0.619903 1.383881 0.199947 -0.030150 -395245.000000 0 0 1
-24.295378 -18.875474 5.453946 31.245710 0.660506 1.395347 0.165524 -0.023397 121931.000000 0 0 1
-25.025408 -19.587474 6.438946 32.425302 0.664105 1.370890 0.172017 -0.031169 146235.000000 0 0 1
-25.320808 -20.937074 6.027546 33.404127 0.690913 1.389359 0.172162 -0.040537 194444.000000 0 0 1
-25.985108 -21.681474 7.251946 34.610733 0.695356 1.359703 0.168381 -0.038814 663811.000000 0 0 1
-25.091518 -21.863874 8.359746 34.314699 0.716768 1.324700 0.164219 -0.036142 603124.000000 0 0 1
-25.848628 -22.508974 9.361946 35.530993 0.716446 1.304161 0.170351 -0.031034 789883.000000 0 0 1
-24.922078 -22.897174 10.572146 35.456464 0.743078 1.268019 0.136736 -0.036219 907512.000000 0 0 1
-24.100578 -21.815174 11.077046 34.342985 0.735665 1.242383 0.143459 -0.027627 424613.000000 0 0 1
-23.328178 -22.209474 12.179646 34.435569 0.760837 1.209279 0.139197 -0.029531 -127436.000000 0 0 1
-23.869278 -21.700274 13.559246 34.992820 0.737836 1.172893 0.108745 -0.015338 -793533.000000 0 0 1
-25.011558 -22.353174 13.983946 36.342718 0.729331 1.175827 0.110859 -0.021256 -736812.000000 0 0 1
-25.565258 -21.426874 14.935546 36.548103 0.697559 1.149817 0.094785 -0.008866 759958.000000 0 0 1
-27.024858 -21.819874 15.376546 37.985366 0.679237 1.154034 0.071437 -0.008443 819181.000000 0 0 1
-28.100898 -21.557974 14.487846 38.266230 0.654395 1.182506 0.078852 -0.004038 293765.000000 0 0 1
-28.451628 -22.656974 13.629446 38.840641 0.672501 1.212257 0.081532 -0.007884 198476.000000 0 0 1
-29.545828 -23.626974 14.164046 40.395669 0.674541 1.212550 0.073568 -0.009641 42943.200000 0 0 1
-29.127558 -24.327774 15.401646 40.956879 0.695848 1.185272 0.063919 -0.003060 170027.000000 0 0 1
-29.877548 -25.489404 15.825746 42.341845 0.706308 1.187735 0.046445 -0.000380 -116544.000000 0 0 1
-29.804548 -26.728204 14.897546 42.715862 0.731035 1.214550 0.051062 -0.010789 -36732.000000 0 0 1
-30.426928 -26.709034 13.624646 42.717694 0.720419 1.246179 0.054998 -0.022808 -90625.400000 0 0 1
-31.791918 -27.045274 13.804546 43.962920 0.704898 1.251389 0.074381 -0.034611 32223.600000 0 0 1
-32.533938 -27.466424 12.486846 44.370969 0.701140 1.285523 0.097137 -0.044567 254132.000000 0 0 1
-31.969978 -28.664784 11.936146 44.567038 0.730942 1.299662 0.092970 -0.048095 498059.000000 0 0 1
-32.661758 -29.053214 10.741646 45.014027 0.726994 1.329843 0.102482 -0.040362 369443.000000 0 0 1
-31.964938 -30.282834 10.081146 45.171194 0.758382 1.345724 0.097694 -0.050044 -172316.000000 0 0 1
-32.158958 -31.502404 10.812546 46.298069 0.775085 1.335077 0.087589 -0.046185 -48091.900000 0 0 1
-31.632068 -32.620684 10.157946 46.560505 0.800783 1.350861 0.100824 -0.045746 -270551.000000 0 0 1
-31.825828 33.741246 10.932046 47.653590 -0.814603 1.339328 0.085984 -0.044921 -270380.000000 0 0 1
-33.183838 33.409300 11.059246 48.369984 -0.788784 1.340117 0.064418 -0.031813 -270449.000000 0 0 1
-33.318518 32.068689 11.582146 47.672535 -0.766286 1.325388 0.086432 -0.034987 -1079250.000000 0 0 1
-34.663714 31.716486 12.214146 48.545792 -0.741028 1.316463 0.102260 -0.025025 -106231.000000 0 0 1
-35.803186 31.596176 11.376546 49.087802 -0.723060 1.336911 0.065972 -0.025403 220764.000000 0 0 1
-36.262958 32.792263 10.843446 50.079087 -0.735181 1.352541 0.079072 -0.027271 -1165210.000000 0 0 1
-37.591738 32.609626 10.079246 50.775168 -0.714548 1.370962 0.072849 -0.017959 42124.700000 0 0 1
-37.537248 31.826624 8.893546 50.010740 -0.703255 1.392013 0.053902 -0.012368 -24447.000000 0 0 1
36.684434 31.914802 8.307946 49.328737 0.715981 1.401570 0.039886 -0.005245 -131960.000000 0 0 1
36.532534 31.178166 6.980946 48.532852 0.706485 1.426456 0.043098 -0.005393 -143647.000000 0 0 1
36.324804 29.804756 7.066146 47.515738 0.687121 1.421531 0.074066 -0.011944 23348.000000 0 0 1
36.108184 29.329616 5.778246 46.876598 0.682178 1.447217 0.102959 -0.015872 76691.600000 0 0 1
36.157094 27.791466 5.665346 45.954295 0.655319 1.447200 0.114488 -0.019327 -366805.000000 0 0 1
35.134704 27.116926 6.302246 44.827374 0.657307 1.429740 0.115143 -0.018740 -397084.000000 0 0 1
35.477004 26.743176 7.647546 45.081041 0.645940 1.400332 0.100641 -0.018871 88385.900000 0 0 1
34.588094 25.527976 8.032646 43.732565 0.635814 1.386071 0.091401 -0.015208 -111867.000000 0 0 1
34.797404 24.344956 7.348846 43.099208 0.610471 1.399449 0.101024 -0.022497 -444148.000000 0 0 1
33.747614 23.456826 7.545946 41.785948 0.607407 1.389214 0.098629 -0.022650 -1034730.000000 0 0 1
33.941894 22.124076 6.762146 41.076192 0.577655 1.405419 0.099507 -0.025107 -97446.900000 0 0 1
34.911474 21.153876 7.044646 41.423720 0.544768 1.399903 0.107106 -0.024857 -549245.000000 0 0 1
36.230364 21.645176 7.043246 42.787384 0.538529 1.405433 0.110137 -0.028414 -610536.000000 0 0 1
37.308954 20.551576 7.037746 43.172389 0.503494 1.407051 0.087059 -0.027226 -129696.000000 0 0 1
37.189914 19.754476 5.838446 42.513721 0.488278 1.433030 0.103964 -0.041980 -76183.400000 0 0 1
-37.731678 18.481376 6.039846 42.446679 -0.455463 1.428019 0.113692 -0.044101 -29899.900000 0 0 1
37.215054 17.370476 5.083946 41.382849 0.436703 1.447634 0.119427 -0.050593 -80917.500000 0 0 1
37.636414 17.510476 3.741846 41.678746 0.435466 1.480897 0.131685 -0.049102 10708.900000 0 0 1
37.142244 16.419376 2.907246 40.713564 0.416238 1.499328 0.125402 -0.048356 -1070980.000000 0 0 1
-37.609008 16.079876 1.583746 40.932971 -0.404032 1.532095 0.142084 -0.033008 68194.300000 0 0 1
-36.451738 15.306276 1.855046 39.578435 -0.397547 1.523909 0.141397 -0.046441 -359322.000000 0 0 1
-35.341903 16.069476 2.181146 38.884901 -0.426744 1.514675 0.156606 -0.046268 -1253550.000000 0 0 1
-34.017640 15.262376 2.166046 37.347446 -0.421740 1.512767 0.156291 -0.041503 83888.100000 0 0 1
-33.792668 14.426676 3.267146 36.888313 -0.403494 1.482112 0.175002 -0.047843 19030.300000 0 0 1
-32.508098 13.850776 3.181446 35.478755 -0.402778 1.481004 0.175704 -0.053091 -156344.000000 0 0 1
-32.087178 13.204776 4.479446 34.985976 -0.390405 1.442408 0.199769 -0.044071 -174635.000000 0 0 1
-32.475488 11.843376 4.687246 34.883996 -0.349698 1.436022 0.227533 -0.054443 363842.000000 0 0 1
-31.901818 11.335176 5.897346 34.365548 -0.341401 1.398336 0.208862 -0.031745 55602.900000 0 0 1
-32.106948 9.834376 5.996246 34.110497 -0.297227 1.394089 0.240938 -0.048766 -399199.000000 0 0 1
-33.439018 9.477076 6.206746 35.305900 -0.276171 1.394079 0.248677 -0.040703 -520944.000000 0 0 1
-33.667988 8.080076 6.267846 35.186744 -0.235538 1.391710 0.275239 -0.046975 123769.000000 0 0 1
-35.118644 7.528176 6.264146 36.458636 -0.211168 1.398124 0.255115 -0.034874 74105.600000 0 0 1
-35.848969 7.666776 7.468546 37.412661 -0.210689 1.369820 0.239910 -0.035343 136220.000000 0 0 1
-37.163668 7.213376 7.157646 38.527950 -0.191714 1.383933 0.188715 -0.033135 394180.000000 0 0 1
37.679504 6.424576 8.318046 39.117900 0.168882 1.356520 0.173067 -0.035044 151471.000000 0 0 1
37.039444 7.156276 9.371046 38.870930 0.190855 1.327317 0.186270 -0.042026 1475100.000000 0 0 1
-37.466458 7.770276 10.244846 39.611482 -0.204494 1.309189 0.200865 -0.043667 548776.000000 0 0 1
37.286874 8.639176 11.207146 39.881656 0.227677 1.285950 0.173080 -0.034621 -24058.200000 0 0 1
36.513724 7.876176 12.149146 39.279612 0.212449 1.256340 0.164940 -0.038182 666292.000000 0 0 1
36.129484 8.678676 13.212946 39.436544 0.235744 1.229145 0.173389 -0.037131 -352926.000000 0 0 1
35.395254 8.042076 14.421446 39.057357 0.223415 1.192608 0.178075 -0.047694 267115.000000 0 0 1
34.023564 7.726576 14.151546 37.650619 0.223307 1.185466 0.177344 -0.053236 685545.000000 0 0 1
33.531324 6.933976 15.225346 37.473202 0.203917 1.152396 0.181265 -0.047406 187919.000000 0 0 1
31.990234 6.900076 15.380046 36.159811 0.212439 1.131464 0.164999 -0.045234 106896.000000 0 0 1
31.365384 8.100776 15.801346 36.042925 0.252748 1.116975 0.134757 -0.042991 -45338.600000 0 0 1
29.965454 8.099076 15.836846 34.847226 0.263973 1.099025 0.132376 -0.030264 96187.900000 0 0 1
29.259054 7.504676 17.115446 34.718164 0.251078 1.055282 0.112956 -0.038083 -166343.000000 0 0 1
29.545654 8.282776 18.269346 35.711610 0.273322 1.033774 0.132517 -0.045641 180866.000000 0 0 1
28.812554 8.032376 19.477246 35.693773 0.271877 0.993600 0.120869 -0.032113 -168957.000000 0 0 1
28.891854 6.663976 20.232946 35.895960 0.226688 0.971992 0.110037 -0.027358 159885.000000 0 0 1
28.010254 6.621376 21.349546 35.836016 0.232130 0.932589 0.078783 -0.013937 212068.000000 0 0 1
28.250554 5.474776 22.170646 36.326361 0.191421 0.914334 0.073134 -0.013902 -596826.000000 0 0 1
27.387454 5.568376 23.447146 36.480791 0.200584 0.872745 0.091518 -0.010702 585603.000000 0 0 1
26.137054 4.903276 23.299346 35.356007 0.185443 0.851318 0.055933 -0.009016 215710.000000 0 0 1
25.096854 5.795976 22.935746 34.489040 0.226965 0.843282 0.085661 -0.006483 170489.000000 0 0 1
23.722354 5.182576 22.532246 33.125689 0.215089 0.822755 0.096866 -0.020518 342638.000000 0 0 1
23.509354 4.873476 21.183846 32.018679 0.204404 0.847834 0.095831 -0.026445 713253.000000 0 0 1
22.143654 4.903376 20.759046 30.746097 0.217918 0.829592 0.073692 -0.023768 -589393.000000 0 0 1
21.376254 3.550276 20.803246 30.038704 0.164583 0.805781 0.109860 -0.031788 711053.000000 0 0 1
19.986054 3.528676 20.433846 28.799930 0.174756 0.781993 0.090404 -0.032731 1309460.000000 0 0 1
19.104854 4.393976 21.138146 28.829216 0.226061 0.747752 0.118899 -0.034931 -354886.000000 0 0 1
17.645854 4.296976 20.595246 27.459139 0.238863 0.722685 0.153675 -0.034719 282929.000000 0 0 1
16.941554 3.168176 21.098246 27.243157 0.184871 0.684964 0.142811 -0.031637 479923.000000 0 0 1
15.881854 2.784176 20.207046 25.851685 0.173542 0.673485 0.157872 -0.036567 -10469.300000 0 0 1
14.843354 1.849276 20.810846 25.628818 0.123947 0.623209 0.150698 -0.031146 -421734.000000 0 0 1
15.145354 0.467476 20.683946 25.640318 0.030856 0.632256 0.119081 -0.032756 204755.000000 0 0 1
14.435754 -0.267024 21.647946 26.021066 -0.018495 0.588203 0.121954 -0.033585 -10909.200000 0 0 1
14.845354 -1.765424 21.682846 26.337180 -0.118365 0.603633 0.091751 -0.016516 -134713.000000 0 0 1
14.362654 -2.434524 20.542746 25.183668 -0.167908 0.616829 0.103364 -0.012275 120937.000000 0 0 1
14.542154 -3.847724 20.559446 25.474890 -0.258664 0.631662 0.110115 -0.011828 -33058.900000 0 0 1
14.169254 -4.372124 19.162546 24.229866 -0.299295 0.658576 0.117229 -0.024202 334319.000000 0 1 0
12.783754 -4.589224 18.936246 23.303793 -0.344660 0.622228 0.103754 -0.023123 275335.000000 0 1 0
12.407954 -4.998424 17.612046 22.116187 -0.382952 0.649573 0.105768 -0.023557 206053.000000 0 1 0
10.896254 -5.116924 17.345446 21.113402 -0.439036 0.606694 0.089463 -0.024108 282329.000000 0 1 0
10.220754 -6.161324 18.068246 21.653804 -0.542494 0.583727 0.086776 -0.025154 1669900.000000 0 1 0
8.793654 -6.069124 17.743146 20.711877 -0.604099 0.542026 0.064236 -0.040283 2126920.000000 0 1 0
7.738654 -6.637824 18.752346 21.344741 -0.708976 0.497986 0.041422 -0.040552 -140063.000000 0 1 0
7.589954 -8.018424 18.920146 21.906037 -0.812843 0.528240 0.035771 -0.035376 -189540.000000 0 1 0
8.736254 -8.649124 19.464646 23.021771 -0.780386 0.563317 0.093743 -0.041835 21422.000000 0 1 0
8.904454 -10.139324 19.102446 23.388002 -0.850151 0.615019 0.127314 -0.050940 11141.100000 0 1 0
9.190354 -10.311724 17.719646 22.467312 -0.842835 0.662128 0.106800 -0.030946 134782.000000 0 1 0
9.490154 -11.621024 17.329346 22.921986 -0.885993 0.713594 0.128534 -0.042293 230036.000000 0 1 0
9.415154 -11.847124 15.793346 21.873025 -0.899283 0.764040 0.120967 -0.037930 360481.000000 0 1 0
10.195854 -12.935224 15.279646 22.466487 -0.903277 0.822886 0.113851 -0.035383 184180.000000 0 1 0
9.792154 -13.249824 13.969346 21.600619 -0.934346 0.867533 0.079205 -0.021591 -94903.100000 0 1 0
10.715854 -14.348824 13.306146 22.310800 -0.929340 0.931789 0.115951 -0.031857 944622.000000 0 1 0
12.055854 -14.011924 12.978546 22.585842 -0.860296 0.958642 0.103797 -0.033610 200723.000000 0 1 0
12.234554 -12.955324 12.003546 21.485107 -0.814004 0.977989 0.067462 -0.033086 -1573410.000000 0 1 0
13.667054 -12.727524 11.614746 21.992739 -0.749818 1.014414 0.117898 -0.038631 -838812.000000 0 1 0
14.286754 -13.720024 10.811346 22.566249 -0.765165 1.071175 0.115265 -0.041205 282803.000000 0 1 0
15.520154 -13.233224 10.274746 22.837771 -0.706029 1.104141 0.116447 -0.051879 413765.000000 0 1 0
16.495154 -14.365824 9.902846 24.011109 -0.716510 1.145679 0.106668 -0.049543 -4901.840000 0 1 0
16.921954 -15.182424 10.950446 25.234318 -0.731268 1.121923 0.103028 -0.040437 82457.700000 0 0 1
16.201354 -16.410824 10.878846 25.498006 -0.791821 1.130006 0.144600 -0.039747 325309.000000 0 0 1
16.554654 -17.387124 12.087546 26.878940 -0.809920 1.104363 0.125613 -0.033755 -524743.000000 0 0 1
17.879354 -17.831124 12.035846 27.972877 -0.784048 1.126006 0.140170 -0.040184 -353883.000000 0 0 1
18.233954 -18.548124 13.189146 29.162708 -0.793939 1.101498 0.093251 -0.035192 390964.000000 0 0 1
19.627554 -19.260024 13.074546 30.448861 -0.775947 1.126975 0.062326 -0.037969 1188720.000000 0 0 1
20.666154 -18.293524 12.819946 30.431792 -0.724574 1.135953 0.077901 -0.040561 84435.300000 0 0 1
21.942754 -18.880924 12.721946 31.619956 -0.710537 1.156726 0.066421 -0.044075 261215.000000 0 0 1
22.879954 -18.156824 11.720446 31.472709 -0.670807 1.189202 0.116150 -0.049049 -470929.000000 0 0 1
22.689354 -18.418624 10.363846 31.007447 -0.681879 1.230000 0.111611 -0.028019 -131716.000000 0 0 1
21.517054 -18.022424 9.682246 29.690693 -0.697244 1.238617 0.114554 -0.030497 71714.700000 0 0 1
21.023154 -16.558524 9.705246 28.466639 -0.667154 1.222886 0.168346 -0.049800 -1100390.000000 0 0 1
22.069854 -15.791924 9.318246 28.693083 -0.621081 1.240043 0.156713 -0.023623 -832282.000000 0 0 1
21.727354 -14.404624 9.245146 27.659426 -0.585440 1.229988 0.162690 -0.038988 12094.800000 0 0 1
-36.541098 24.730726 7.826746 44.812036 -0.594980 1.395239 0.108422 -0.028518 555339.000000 0 0 1
-35.645990 23.874326 8.590246 43.753998 -0.590142 1.373182 0.128502 -0.037656 1541180.000000 0 0 1
-34.567551 24.726926 9.113946 43.467234 -0.620935 1.359555 0.129269 -0.033160 935715.000000 0 0 1
-33.422508 23.951526 9.831446 42.277618 -0.621799 1.336103 0.158970 -0.045476 -95293.000000 0 0 1
-32.626978 23.190326 8.983246 41.024500 -0.617919 1.350035 0.152464 -0.035640 5226.830000 0 0 1
-31.808788 22.259826 9.686346 40.014049 -0.610592 1.326294 0.151086 -0.029846 11002.500000 0 0 1
-31.000188 21.357426 8.712546 38.640131 -0.603268 1.343361 0.115632 -0.028961 -5839.030000 0 0 1
-31.779138 20.600226 7.803046 38.667434 -0.575131 1.367602 0.121386 -0.032906 370083.000000 0 0 1
-30.948088 19.997826 6.824846 37.473667 -0.573680 1.387650 0.133493 -0.035053 54506.000000 0 0 1
-31.822198 19.225026 5.835846 37.633908 -0.543457 1.415099 0.131614 -0.033164 -120790.000000 0 0 1
-32.635428 18.242826 6.437346 37.938256 -0.509718 1.400292 0.150946 -0.037941 124373.000000 0 0 1
-33.442678 17.611826 5.475446 38.191224 -0.484722 1.426931 0.120068 -0.046103 -187614.000000 0 0 1
-34.107725 16.349126 6.057246 38.305627 -0.446982 1.412000 0.117216 -0.031009 -544578.000000 0 0 1
-35.074329 16.588926 7.035046 39.432130 -0.441787 1.391427 0.095395 -0.027264 -123318.000000 0 0 1
-35.575508 15.332826 7.425246 39.444221 -0.406937 1.381420 0.102692 -0.031143 460657.000000 0 0 1
-36.670338 15.507926 8.570146 40.726611 -0.400092 1.358780 0.094860 -0.020142 1274190.000000 0 0 1
37.633514 16.239826 8.252346 41.810460 0.407385 1.372117 0.110746 -0.030399 854496.000000 0 0 1
37.054014 16.757426 9.454946 41.751734 0.424718 1.342358 0.113086 -0.025409 966779.000000 0 0 1
35.931134 17.869326 9.325246 41.198537 0.461503 1.342469 0.083196 -0.020747 795947.000000 0 0 1
34.655584 17.525126 8.835946 39.827296 0.468193 1.347078 0.095318 -0.030180 195795.000000 0 0 1
33.888784 18.745826 8.791146 39.713221 0.505264 1.347582 0.090082 -0.026367 -710739.000000 0 0 1
32.492164 18.697626 8.261446 38.387412 0.522173 1.353887 0.086389 -0.029658 -1042830.000000 0 0 1
31.808964 19.935826 8.282246 38.442723 0.559847 1.353650 0.086829 -0.030648 265327.000000 0 0 1
30.404054 19.933526 8.077546 37.242432 0.580316 1.352168 0.055772 -0.022397 474716.000000 0 0 1
29.934654 19.744626 6.604446 36.463029 0.583088 1.388664 0.059285 -0.016172 -846577.000000 0 0 1
29.890154 18.403226 6.139646 35.634187 0.551880 1.397636 0.077456 -0.023408 141821.000000 0 0 1
29.586754 18.269426 4.766346 35.097949 0.553178 1.434574 0.074295 -0.034741 -5167.820000 0 0 1
28.149354 18.677726 4.332246 34.058948 0.585823 1.443252 0.094203 -0.033272 -1181960.000000 0 0 1
27.199254 17.829526 4.983246 32.901735 0.580243 1.418753 0.107652 -0.036141 1389560.000000 0 0 1
25.833354 18.187226 4.619746 31.929288 0.613420 1.425600 0.122468 -0.031193 1224080.000000 0 0 1
25.288554 19.592326 5.090746 32.392683 0.659154 1.412985 0.118799 -0.023496 -899081.000000 0 0 1
25.754754 20.660526 4.289546 33.295118 0.676082 1.441603 0.093373 -0.027471 -250.455000 0 0 1
25.324754 21.907026 4.764446 33.822491 0.713163 1.429460 0.093406 -0.017722 -213999.000000 0 0 1
26.231254 23.104426 4.349446 35.225145 0.722104 1.447005 0.060726 -0.006892 -115346.000000 0 0 1
27.457754 22.952626 5.015646 36.137349 0.696266 1.431553 0.066595 -0.013500 -363709.000000 0 0 1
28.321454 24.074026 4.915846 37.494387 0.704510 1.439309 0.073489 -0.006112 -484798.000000 0 0 1
29.639354 23.801426 5.668346 38.433440 0.676589 1.422772 0.070404 -0.012568 128698.000000 0 0 1
30.460254 22.729026 5.137946 38.351456 0.641056 1.436422 0.065143 -0.015105 566714.000000 0 0 1
30.911764 22.713726 3.787946 38.546064 0.633697 1.472367 0.070483 -0.022836 -410410.000000 0 0 1
31.952214 23.756226 3.336346 39.955393 0.639323 1.487197 0.112772 -0.032318 -287805.000000 0 0 1
31.384114 25.089826 3.343146 40.319209 0.674402 1.487784 0.084591 -0.024728 -278096.000000 0 0 1
32.098924 26.077526 2.664946 41.442493 0.682263 1.506447 0.138231 -0.022603 -1231410.000000 0 0 1
31.732904 27.543126 2.805346 42.112599 0.714833 1.504132 0.122679 -0.015940 1090520.000000 0 0 1
30.482654 28.016426 2.256546 41.463289 0.743265 1.516347 0.133221 -0.024339 870429.000000 0 0 1
29.275454 27.501126 2.762546 40.261592 0.754157 1.502127 0.091310 -0.010269 -219081.000000 0 0 1
28.007154 28.284926 2.345446 39.874037 0.790333 1.511941 0.062066 -0.006977 170850.000000 0 0 1
27.796554 29.615626 2.825446 40.715069 0.817072 1.501345 0.047957 -0.014490 676041.000000 0 0 1
26.573654 30.162126 2.289446 40.263563 0.848563 1.513904 0.043264 -0.005358 887003.000000 0 0 1
26.213154 31.523926 2.919246 41.102425 0.877122 1.499713 0.046993 -0.017572 -251311.000000 0 0 1
25.908954 31.579926 4.285746 41.072293 0.883725 1.466260 0.035583 -0.036438 378735.000000 0 0 1
27.091754 31.573426 5.098046 41.914609 0.861644 1.448865 0.044347 -0.037701 386692.000000 0 0 1
26.848654 31.256026 6.606946 41.730578 0.861105 1.411803 0.041490 -0.043790 -220605.000000 0 0 1
26.534354 29.898526 6.883446 40.563230 0.844941 1.400274 0.061031 -0.046100 225392.000000 0 0 1
27.456754 28.836926 6.609046 40.362373 0.809911 1.406313 0.060590 -0.044016 187170.000000 0 0 1
26.888054 27.472526 7.129246 39.096461 0.796150 1.387420 0.086009 -0.043139 475993.000000 0 0 1
25.626754 27.117026 6.574946 37.885268 0.813646 1.396364 0.062316 -0.046042 249393.000000 0 0 1
25.090154 25.897326 7.015246 36.734194 0.801228 1.378643 0.083963 -0.040208 258728.000000 0 0 1
23.661054 25.602026 6.441946 35.451486 0.824778 1.388070 0.089460 -0.022984 508238.000000 0 0 1
23.646954 25.360326 5.036246 35.038384 0.820346 1.426562 0.063366 -0.024146 201269.000000 0 0 1
23.832454 26.536326 4.264146 35.921378 0.839028 1.451808 0.056891 -0.017444 -414838.000000 0 0 1
23.782954 26.307426 2.720946 35.568429 0.835754 1.494223 0.049967 -0.002358 310316.000000 0 0 1
24.883054 25.561226 2.166846 35.738465 0.798841 1.510128 0.035076 0.012426 568232.000000 0 0 1
24.863554 25.725026 0.807246 35.785820 0.802426 1.548237 0.050967 0.010514 -377191.000000 0 0 1
26.042254 25.198726 0.019646 36.237759 0.768938 1.570254 0.064710 0.000712 -84911.200000 0 0 1
27.334254 25.801226 0.236846 37.588839 0.756555 1.564495 0.062814 0.008494 1254580.000000 0 0 1
28.394054 25.226826 -0.533554 37.985520 0.726400 1.584843 0.078076 0.003194 312520.000000 0 0 1
29.034454 23.893026 -0.173054 37.601944 0.688561 1.575399 0.077683 -0.007921 -589876.000000 0 0 1
28.183854 22.761326 -0.207254 36.227759 0.679359 1.576517 0.073376 -0.010125 137776.000000 0 0 1
28.512954 21.891326 0.912846 35.959032 0.654776 1.545408 0.074548 -0.020445 -259170.000000 0 0 1
27.403754 20.915626 1.292646 34.497827 0.651921 1.533317 0.077819 -0.022364 -403456.000000 0 0 1
27.087054 19.899726 0.403546 33.613546 0.633610 1.558791 0.103351 -0.040780 264522.000000 0 0 1
25.925854 19.244126 0.844546 32.298600 0.638539 1.544645 0.092393 -0.034041 -171078.000000 0 0 1
25.349354 17.990126 0.108746 31.084501 0.617198 1.567298 0.109016 -0.032356 933059.000000 0 0 1
23.989454 17.686426 0.487646 29.808411 0.635296 1.554436 0.098733 -0.031960 938993.000000 0 0 1
23.581854 16.594226 -0.292354 28.836741 0.613196 1.580935 0.123993 -0.057659 -68278.600000 0 0 1
22.046554 16.445126 -0.324654 27.506329 0.640889 1.582599 0.114401 -0.037524 -786826.000000 0 0 1
21.520554 15.354626 -1.089154 26.459120 0.619720 1.611972 0.124468 -0.044312 1130910.000000 0 0 1
20.114354 15.083926 -0.946554 25.159651 0.643443 1.608427 0.137300 -0.040866 1644660.000000 0 0 1
19.097154 16.231526 -1.450354 25.105124 0.704462 1.628600 0.146505 -0.039429 -38490.400000 0 0 1
19.136254 17.423626 -0.757254 25.891165 0.738588 1.600048 0.126534 -0.028985 -8678.020000 0 0 1
18.287954 18.312426 -1.452354 25.921102 0.786067 1.626855 0.102396 -0.033376 87963.300000 0 0 1
18.273354 19.734126 -0.790654 26.906808 0.823813 1.600185 0.091702 -0.020946 31971.200000 0 0 1
17.548454 19.949126 0.423346 26.572450 0.849333 1.554864 0.090245 -0.015397 96082.000000 0 0 1
17.817254 21.201426 1.035146 27.713292 0.871914 1.533436 0.098266 -0.017631 155801.000000 0 0 1
16.779254 22.331326 0.794146 27.943911 0.926414 1.542373 0.085332 -0.021516 -410488.000000 0 0 1
15.559154 22.169626 1.426646 27.122222 0.958848 1.518171 0.059514 -0.013530 -792106.000000 0 0 1
14.751554 23.285226 1.188346 27.590257 1.006097 1.527712 0.050175 -0.013029 505652.000000 0 0 1
13.277754 23.242026 1.708646 26.821819 1.051761 1.507050 0.056091 -0.012889 705833.000000 0 0 1
13.186054 23.396726 3.114546 27.036627 1.057583 1.455343 0.050407 -0.003328 -788614.000000 0 0 1
11.866054 23.367026 3.540046 26.445285 1.100919 1.436530 0.051053 -0.009008 -479416.000000 0 0 1
11.591154 23.494726 5.065346 26.683604 1.112482 1.379807 0.078567 -0.017509 21255.300000 0 0 1
12.030254 22.299426 5.727946 25.976928 1.076060 1.348468 0.078995 -0.040247 195986.000000 0 0 1
11.505254 22.197026 7.065446 25.980750 1.092597 1.295378 0.071239 -0.034746 -831286.000000 0 0 1
12.210954 21.116326 7.990346 25.668117 1.046507 1.254241 0.080758 -0.030967 438587.000000 0 0 1
13.487154 21.516626 8.442446 26.760856 1.010886 1.249837 0.108745 -0.032503 222422.000000 0 0 1
14.533654 21.603426 7.493346 27.094010 0.978596 1.290575 0.101871 -0.024463 -612070.000000 0 0 1
15.927054 21.752226 8.151846 28.165280 0.938783 1.277166 0.128695 -0.034095 5623.230000 0 0 1
16.392954 20.562226 8.776346 27.722885 0.897743 1.248681 0.144779 -0.040342 1053850.000000 0 0 1
17.749654 20.547026 9.271646 28.691356 0.858313 1.241739 0.131649 -0.045483 957305.000000 0 0 1
17.992454 21.335426 10.628546 29.864608 0.870197 1.206929 0.097900 -0.034181 -592121.000000 0 0 1
17.372654 20.815826 11.758946 29.553012 0.875318 1.161577 0.114283 -0.045182 -46772.000000 0 0 1
17.538154 21.695426 12.804246 30.695718 0.890966 1.140506 0.117118 -0.049400 -189224.000000 0 0 1
18.401154 21.169026 13.964246 31.332576 0.855233 1.108865 0.116329 -0.034544 488047.000000 0 0 1
19.782954 21.296126 13.660246 32.116858 0.822217 1.131470 0.118045 -0.034419 -438658.000000 0 0 1
20.652854 20.753326 14.596046 32.715218 0.787825 1.108332 0.116020 -0.034553 187439.000000 0 0 1
22.079654 21.305326 14.352246 33.873515 0.767552 1.133269 0.123529 -0.039404 500954.000000 0 0 1
22.889454 20.782526 13.298246 33.655369 0.737191 1.164587 0.136303 -0.046689 -214186.000000 0 0 1
24.165754 21.324126 13.211146 34.831543 0.723012 1.181771 0.133925 -0.044037 -494153.000000 0 0 1
25.062354 20.678626 12.145046 34.687596 0.689852 1.213090 0.135663 -0.041623 -237182.000000 0 0 1
24.755654 21.121126 10.849546 34.302435 0.706340 1.248979 0.140205 -0.035929 -31052.000000 0 0 1
25.665054 20.713826 9.867646 34.425688 0.679045 1.280083 0.161530 -0.051607 -568838.000000 0 0 1
25.523554 21.581926 8.610646 34.516294 0.701916 1.318667 0.128271 -0.048051 47404.400000 0 0 1
25.843554 22.953826 8.815046 35.671732 0.726248 1.321094 0.114424 -0.041978 808359.000000 0 0 1
27.265254 23.126126 8.908146 36.845174 0.703443 1.326604 0.090550 -0.042207 264891.000000 0 0 1
27.678954 24.534726 9.380446 38.158486 0.725252 1.322422 0.108589 -0.040257 295549.000000 0 0 1
29.076354 24.781526 9.239546 39.305567 0.705823 1.333506 0.082428 -0.028266 605843.000000 0 0 1
29.447554 26.036726 9.813846 40.513962 0.724002 1.326129 0.080501 -0.031573 352275.000000 0 0 1
30.797724 26.554726 9.264646 41.707157 0.711552 1.346792 0.081300 -0.026814 196023.000000 0 0 1
30.643724 27.038026 7.919346 41.627019 0.722969 1.379384 0.089867 -0.034005 -927754.000000 0 0 1
31.807704 27.539326 7.407046 42.720122 0.713599 1.396530 0.090621 -0.022140 -1457400.000000 0 0 1
31.669394 28.614126 6.308446 43.145280 0.734760 1.424056 0.118880 -0.018509 -15682.500000 0 0 1
31.452974 29.930026 6.707446 43.932743 0.760593 1.417522 0.119281 -0.023114 19013.300000 0 0 1
31.470164 30.794626 5.560146 44.380124 0.774549 1.445182 0.126710 -0.027975 121499.000000 0 0 1
31.433164 32.323326 5.854146 45.465506 0.799359 1.441678 0.084857 -0.025820 360256.000000 0 0 1
30.163454 32.797826 6.268746 44.998095 0.827215 1.431030 0.075435 -0.035253 37624.900000 0 0 1
30.185854 -33.536724 6.479246 45.583750 -0.837935 1.428174 0.068763 -0.025974 20327.100000 0 0 1
28.826854 -32.971524 6.978946 44.348784 -0.852365 1.412774 0.072760 -0.034649 660914.000000 0 0 1
27.811754 -33.344524 5.998446 43.833005 -0.875622 1.433518 0.061827 -0.033780 101616.000000 0 0 1
26.674054 -32.588324 6.399146 42.596398 -0.884867 1.419998 0.061752 -0.042939 -454152.000000 0 0 1
25.557754 -32.566424 5.377446 41.745511 -0.905400 1.441622 0.061546 -0.033480 -418326.000000 0 0 1
25.957454 -31.834024 4.261946 41.295989 -0.886736 1.467407 0.046384 -0.019432 114573.000000 0 0 1
25.124954 -32.157424 3.137446 40.929290 -0.907555 1.494066 0.055447 -0.026682 285451.000000 0 0 1
25.528254 -31.443824 1.819646 40.542779 -0.888860 1.525899 0.063856 -0.017257 94087.800000 0 0 1
25.462554 -30.049224 1.920046 39.433287 -0.867836 1.522086 0.071192 -0.011398 159036.000000 0 0 1
26.282254 -29.382224 0.946046 39.433070 -0.841031 1.546803 0.069685 -0.006203 -66423.200000 0 0 1
26.460454 -27.842524 1.124146 38.426885 -0.810844 1.541538 0.077032 -0.011146 47847.700000 0 0 1
25.295354 -27.033124 1.103146 37.038651 -0.818595 1.541008 0.073863 -0.006907 -24926.200000 0 0 1
24.655254 -26.903024 -0.153654 36.492162 -0.828967 1.575007 0.076590 -0.010890 -65130.600000 0 0 1
23.338154 -26.099624 -0.080754 35.012374 -0.841198 1.573103 0.057435 -0.007904 94946.300000 0 0 1
23.581054 -24.695524 -0.143254 34.146091 -0.808479 1.574992 0.071392 -0.011173 23092.100000 0 0 1
23.826054 -24.026924 1.100146 33.855343 -0.789596 1.538295 0.057123 -0.001423 1290820.000000 0 0 1
22.519354 -23.898624 2.025746 32.899380 -0.815104 1.509183 0.044616 -0.002534 1321720.000000 0 0 1
22.787054 -23.318524 3.241046 32.764429 -0.796925 1.471715 0.038008 -0.000150 -998021.000000 0 0 1
21.611254 -23.049824 3.907746 31.837261 -0.817598 1.447745 0.061831 -0.001545 -560533.000000 0 0 1
21.848354 -22.242524 5.224546 31.612914 -0.794338 1.404768 0.055805 -0.000287 231889.000000 0 0 1
22.070854 -20.836124 5.138446 30.784254 -0.756629 1.403093 0.080406 0.002807 504811.000000 0 0 1
20.798554 -20.205024 5.001546 29.425131 -0.770924 1.399992 0.056079 0.004839 117490.000000 0 0 1
20.794454 -18.673524 5.248046 28.436804 -0.731712 1.385181 0.064250 -0.003856 -85142.700000 0 0 1
20.510354 -18.206224 6.570846 28.201369 -0.725956 1.335638 0.107483 -0.013131 417205.000000 0 0 1
19.116054 -18.327524 6.852246 27.354615 -0.764342 1.317603 0.088701 -0.004072 393231.000000 0 0 1
20.181822 -25.938124 -11.904154 34.954272 -0.909568 1.918313 0.113935 -0.028645 109461.000000 0 0 1
19.889822 -24.750574 -12.605754 34.162860 -0.893858 1.948718 0.130388 -0.031412 -965414.000000 0 0 1
18.540922 -24.445674 -12.702454 33.207064 -0.921906 1.963321 0.099338 -0.033225 -804863.000000 0 0 1
18.206722 -23.081174 -13.307854 32.269557 -0.902914 1.995879 0.091097 -0.037905 -193743.000000 0 0 1
18.443122 -21.870974 -12.599654 31.260831 -0.870223 1.985643 0.107953 -0.034966 262961.000000 0 0 1
19.690122 -21.640374 -11.922054 31.593386 -0.832550 1.957739 0.100685 -0.038400 117617.000000 0 0 1
19.805322 -22.057974 -10.436954 31.428252 -0.839156 1.909313 0.119420 -0.028788 417363.000000 0 0 1
18.823222 -21.557974 -9.524054 30.162353 -0.853018 1.892053 0.105378 -0.037209 1480460.000000 0 0 1
17.462822 -22.069074 -9.530954 29.712510 -0.901395 1.897341 0.095364 -0.008628 1082290.000000 0 0 1
16.657722 -21.409574 -8.401554 28.397811 -0.909583 1.871144 0.067571 -0.010449 -540579.000000 0 0 1
16.410022 -20.012774 -8.568654 27.262094 -0.883992 1.890522 0.050479 -0.018608 545350.000000 0 0 1
15.436422 -19.449374 -7.696454 25.996090 -0.899926 1.871363 0.052428 -0.022297 1641680.000000 0 0 1
13.892422 -19.666674 -7.986554 25.368534 -0.955792 1.891065 0.036854 -0.008198 1171890.000000 0 0 1
13.449122 -20.992674 -7.744954 26.106619 -1.001017 1.871996 0.040819 -0.010711 142075.000000 0 0 1
12.052922 -21.172674 -7.916654 25.616957 -1.053281 1.884979 0.041715 -0.011721 164354.000000 0 0 1
11.655522 -22.610074 -7.720354 26.583275 -1.094825 1.865464 0.037955 -0.007589 -164889.000000 0 0 1
11.746522 -22.933274 -6.361354 26.540208 -1.097433 1.812840 0.037198 -0.009824 212276.000000 0 0 1
11.132122 -24.161274 -6.052454 27.282293 -1.139045 1.794503 0.023110 -0.008216 -221255.000000 0 0 1
11.434722 -24.493974 -4.618554 27.423323 -1.134028 1.740020 0.031154 -0.012420 -90135.400000 0 0 1
10.627522 -25.360434 -3.846054 27.764869 -1.173968 1.709766 0.041542 -0.018836 -382948.000000 0 0 1
11.328522 -25.767394 -2.712654 28.278128 -1.156586 1.666872 0.048873 -0.024140 -239603.000000 0 0 1
10.448822 -26.663214 -1.842554 28.696687 -1.197308 1.635048 0.061212 -0.020870 -522705.000000 0 0 1
9.372322 -26.001984 -1.283254 27.669303 -1.224846 1.617191 0.042018 -0.015843 -1171690.000000 0 0 1
8.598622 -26.897774 -0.551454 28.244126 -1.261386 1.590322 0.049120 -0.026534 -373552.000000 0 0 1
7.802522 -26.166184 0.542046 27.310114 -1.281000 1.550947 0.053066 -0.022613 -770129.000000 0 0 1
6.719822 -25.377924 0.213546 26.253393 -1.311947 1.562662 0.057158 -0.027189 -788043.000000 0 0 1
6.109722 -24.957174 1.406046 25.732590 -1.330710 1.516128 0.058740 -0.026190 861915.000000 0 0 1
4.596322 -24.485774 1.341846 24.949546 -1.385242 1.516988 0.064089 -0.026826 1094260.000000 0 1 0
3.760122 -25.523694 0.927046 25.815826 -1.424530 1.534879 0.062178 -0.032719 -677878.000000 0 0 1
2.422022 -25.108654 0.937946 25.242631 -1.474632 1.533631 0.057633 -0.029336 -48849.600000 0 0 1
1.364622 -25.961704 0.185846 25.998208 -1.518282 1.563648 0.079719 -0.026738 563063.000000 0 0 1
0.864922 -27.086964 0.888946 27.115345 -1.538876 1.538007 0.074406 -0.022264 113663.000000 0 0 1
1.733922 -28.187704 0.662846 28.248761 -1.509360 1.547330 0.061705 -0.029201 4323.730000 0 0 1
1.277622 -29.429764 1.540746 29.497749 -1.527411 1.518540 0.097884 -0.027553 -3485.380000 0 0 1
1.493222 -29.239004 2.899446 29.420331 -1.519771 1.472084 0.068536 -0.024280 -141997.000000 0 0 1
1.082222 -30.316054 3.679046 30.557646 -1.535113 1.450107 0.108288 -0.030318 -6266.210000 0 0 1
1.120222 -30.112374 5.173246 30.574048 -1.533612 1.400775 0.096937 -0.027023 -107846.000000 0 0 1
2.447022 -30.117754 5.663546 30.743174 -1.489726 1.385517 0.032025 -0.008211 -135496.000000 0 0 1
2.564022 -29.994874 7.035646 30.915481 -1.485522 1.341208 0.045892 -0.010905 1305700.000000 0 0 1
3.948422 -30.520784 7.636046 31.708319 -1.442143 1.327584 0.061989 -0.013822 1425620.000000 0 0 1
4.099122 -31.908384 7.356546 33.001008 -1.443031 1.345989 0.062422 -0.014637 336855.000000 0 0 1
5.393822 -32.357374 7.765746 33.710529 -1.405620 1.338343 0.041948 -0.013677 563286.000000 0 0 1
5.574222 33.833076 7.678946 35.138515 1.407507 1.350485 0.028764 0.001066 -19491.100000 0 0 1
5.496222 33.366958 6.371246 34.411555 1.407542 1.384573 0.025127 0.003816 5279.770000 0 0 1
5.428622 31.970940 6.274846 33.030057 1.402602 1.379661 0.033199 -0.002906 -358813.000000 0 0 1
5.525622 31.409836 4.779646 32.248339 1.396658 1.422035 0.041786 -0.009563 -433338.000000 0 0 1
6.812622 31.411616 4.264946 32.423621 1.357222 1.438876 0.052362 -0.008334 -673059.000000 0 0 1
7.694422 30.370726 4.629846 31.670501 1.322667 1.424083 0.041000 -0.014469 -133628.000000 0 0 1
9.037822 30.442866 3.896146 31.994223 1.282206 1.448717 0.045354 -0.013011 -234874.000000 0 0 1
10.061922 31.121436 4.582446 33.027033 1.258092 1.431599 0.050697 -0.013409 -1421870.000000 0 0 1
11.164122 31.271456 3.790546 33.420201 1.227893 1.457131 0.050641 -0.017782 -628614.000000 0 0 1
12.410222 31.720469 4.609746 34.372250 1.197867 1.436279 0.064691 -0.032435 103153.000000 0 0 1
12.819122 30.724706 5.539346 33.749397 1.175529 1.405919 0.067889 -0.032673 -291548.000000 0 0 1
14.008222 31.176746 6.138346 34.726058 1.148511 1.393098 0.101438 -0.033611 -242318.000000 0 0 1
14.804522 30.277796 7.014346 34.425570 1.116023 1.365606 0.082882 -0.036526 -545367.000000 0 0 1
14.229222 30.137966 8.268846 34.338631 1.129687 1.327603 0.074352 -0.032169 145204.000000 0 0 1
14.993222 29.178896 9.021646 34.023445 1.096140 1.302427 0.069400 -0.038838 172446.000000 0 0 1
14.858822 29.182026 10.544046 34.402793 1.099834 1.259295 0.059979 -0.021694 -173609.000000 0 0 1
15.619222 30.195356 11.108846 35.764873 1.093427 1.254964 0.057723 -0.039822 -182452.000000 0 0 1
15.186622 30.362286 12.409046 36.145350 1.107004 1.220358 0.042111 -0.028669 -169023.000000 0 0 1
16.144522 31.252546 13.219746 37.578304 1.093971 1.211312 0.054132 -0.021548 483259.000000 0 0 1
17.360722 30.528696 13.468046 37.613618 1.053733 1.204604 0.059532 -0.031021 202809.000000 0 0 1
18.004722 31.196846 14.535346 38.841853 1.047361 1.187242 0.057819 -0.020232 542933.000000 0 0 1
19.211822 30.325536 15.079346 38.937372 1.006094 1.173126 0.075412 -0.030376 541942.000000 0 0 1
20.361822 30.157126 14.300046 39.096642 0.976915 1.196345 0.065689 -0.034958 -342830.000000 0 0 1
21.000022 28.994936 14.676246 38.692370 0.943970 1.181750 0.063098 -0.027554 163748.000000 0 0 1
22.395122 28.721606 14.024346 39.027611 0.908537 1.203231 0.106301 -0.032722 529042.000000 0 0 1
23.482222 29.136956 14.817446 40.248400 0.892453 1.193778 0.121615 -0.034978 -149461.000000 0 0 1
24.717622 28.737626 14.257846 40.498126 0.860460 1.211023 0.128482 -0.032703 615886.000000 0 0 1
25.916822 28.842496 15.279946 41.677908 0.838775 1.195423 0.124694 -0.035691 428149.000000 0 0 1
26.082522 27.772776 16.265146 41.426803 0.816773 1.167314 0.126304 -0.027880 -430594.000000 0 0 1
27.039422 28.064086 17.225046 42.607810 0.803991 1.154616 0.119154 -0.027257 -852137.000000 0 0 1
27.925922 26.872996 17.602546 42.566004 0.766186 1.144463 0.081777 -0.018800 -238847.000000 0 0 1
27.362522 25.684606 18.208146 41.712626 0.753778 1.119076 0.099761 -0.016029 -15634.900000 0 0 1
26.905522 25.857366 19.575346 42.139111 0.765535 1.087680 0.118336 -0.016074 195162.000000 0 0 1
26.226622 24.533916 20.115046 41.162651 0.752064 1.060229 0.129849 -0.021167 345085.000000 0 0 1
27.108422 23.466596 20.411746 41.257570 0.713514 1.053261 0.079086 -0.006883 142658.000000 0 0 1
26.419522 22.249576 20.191346 40.009065 0.699927 1.041797 0.092314 -0.014156 559217.000000 0 0 1
27.369222 21.001576 20.128846 39.941344 0.654508 1.042619 0.064499 -0.013665 41457.600000 0 0 1
26.643522 19.857876 20.334446 38.957698 0.640497 1.021647 0.063626 -0.000609 92108.000000 0 0 1
27.464222 18.677576 20.271946 38.911273 0.597224 1.022799 0.062644 -0.016068 268162.000000 0 0 1
28.057822 18.261776 21.597346 39.839418 0.576981 0.997850 0.071576 -0.009934 -228527.000000 0 0 1
27.115322 17.716876 22.479546 39.426620 0.578755 0.964094 0.060571 -0.001240 201957.000000 0 0 1
27.782522 17.274076 23.651646 40.369080 0.556266 0.944824 0.092814 0.000975 -471547.000000 0 0 1
26.887922 16.482976 24.553446 39.968995 0.549942 0.909282 0.083404 0.003676 -325969.000000 0 0 1
26.539422 15.230376 24.004946 38.891422 0.520990 0.905579 0.079902 -0.001934 -282117.000000 0 0 1
25.425522 14.739276 24.667346 38.369016 0.525362 0.872521 0.091237 -0.003917 -648645.000000 0 0 1
24.961722 13.411876 24.092446 37.194246 0.493039 0.866173 0.102045 -0.008637 633420.000000 0 0 1
23.696422 12.978776 24.636146 36.563763 0.501084 0.831476 0.086073 -0.012380 939515.000000 0 0 1
23.161222 11.987176 23.763746 35.282435 0.477592 0.831823 0.105030 -0.016688 -731755.000000 0 0 1
21.812722 11.397376 24.065946 34.421865 0.481493 0.796592 0.108551 -0.021908 -880731.000000 0 0 1
20.740022 12.287276 24.060046 34.058941 0.534844 0.786364 0.121122 -0.033023 -120598.000000 0 0 1
19.515622 11.646276 23.753046 32.874039 0.538039 0.763316 0.127894 -0.034454 147931.000000 0 0 1
18.296422 12.584076 23.821546 32.566610 0.602484 0.750319 0.118098 -0.049754 -87427.000000 0 0 1
17.977122 13.021176 25.174946 33.563460 0.626862 0.722628 0.131105 -0.027261 591304.000000 0 0 1
16.729622 13.706376 25.250946 33.246884 0.686392 0.708255 0.129459 -0.038169 153207.000000 0 0 1
16.309222 14.036976 26.706446 34.296672 0.710660 0.678223 0.120631 -0.024166 -314294.000000 0 0 1
15.634622 13.047176 27.453746 34.181550 0.695430 0.638192 0.114119 -0.016312 43745.600000 0 0 1
15.710822 13.269476 28.840846 35.421792 0.701355 0.619426 0.096995 -0.013747 983305.000000 0 0 1
17.175922 12.988576 29.423046 36.461364 0.647463 0.631801 0.111282 -0.006106 1916000.000000 0 0 1
18.166122 13.965976 29.040946 36.992338 0.655420 0.668015 0.139113 -0.037259 532122.000000 0 0 1
19.480522 13.605776 29.425146 37.821252 0.609671 0.679311 0.125316 -0.016808 311983.000000 0 0 1
20.462822 14.840676 29.240146 38.651765 0.627473 0.712848 0.156048 -0.027570 221700.000000 0 0 1
20.489722 15.356076 27.883346 37.856555 0.643151 0.742837 0.154516 -0.042861 220947.000000 0 0 1
20.851422 14.451876 26.876546 36.959265 0.606072 0.756571 0.147778 -0.033637 -447437.000000 0 0 1
20.649622 15.191376 25.561346 36.201757 0.634269 0.786849 0.118960 -0.031121 -131319.000000 0 0 1
21.540022 16.269176 25.338146 37.022700 0.646884 0.817023 0.115816 -0.028803 156248.000000 0 0 1
21.614322 16.705776 23.985346 36.353249 0.657999 0.850263 0.102564 -0.025318 -244480.000000 0 0 1
22.734722 17.701576 23.668746 37.288375 0.661564 0.883113 0.098103 -0.019820 -360367.000000 0 0 1
22.698422 18.184776 22.332846 36.669612 0.675440 0.915961 0.098880 -0.022806 160828.000000 0 0 1
23.836822 18.969276 21.999946 37.576923 0.672173 0.945344 0.098100 -0.015892 140151.000000 0 0 1
24.033522 20.298476 22.667046 38.774132 0.701345 0.946419 0.108260 -0.020160 -397714.000000 0 0 1
23.110022 21.304276 22.264746 38.518362 0.744764 0.954485 0.116647 -0.019388 101010.000000 0 0 1
23.315222 22.554376 22.826446 39.665427 0.768813 0.957612 0.127709 -0.016875 295901.000000 0 0 1
22.356922 23.686636 22.287646 39.466795 0.814270 0.970704 0.133195 -0.034296 467620.000000 0 0 1
22.876022 24.442536 21.212846 39.632497 0.818492 1.006006 0.140821 -0.034214 65737.000000 0 0 1
21.933122 25.401626 20.768146 39.466699 0.858544 1.016648 0.135692 -0.039398 157258.000000 0 0 1
22.414322 26.154266 19.501846 39.582439 0.862250 1.055619 0.131421 -0.037757 -68931.000000 0 0 1
22.360322 25.471766 18.254846 38.497199 0.850356 1.076757 0.113166 -0.037464 32318.200000 0 0 1
23.033822 26.116596 17.176146 38.828515 0.848037 1.112569 0.112902 -0.053769 146801.000000 0 0 1
22.702422 25.401266 15.845246 37.572545 0.841444 1.135450 0.092397 -0.033721 232705.000000 0 0 1
21.365922 25.651536 15.436046 36.780096 0.876296 1.137698 0.089115 -0.039036 -56716.400000 0 0 1
21.147222 25.064166 14.181146 35.728453 0.869957 1.162643 0.101143 -0.029524 175761.000000 0 0 1
19.662622 24.948576 13.763246 34.619028 0.903338 1.161937 0.094599 -0.031081 513100.000000 0 0 1
18.878822 26.127856 13.714646 35.030934 0.945092 1.168534 0.079880 -0.031381 -104834.000000 0 0 1
18.038822 26.494636 14.761246 35.288231 0.973040 1.139218 0.089306 -0.021808 1065080.000000 0 0 1
16.483322 26.359436 14.460046 34.287209 1.011960 1.135441 0.090522 -0.023780 907358.000000 0 0 1
15.978122 25.077576 14.079946 32.900306 1.003509 1.128564 0.091215 -0.028586 16697.100000 0 0 1
15.804322 24.146476 15.137446 32.587899 0.991251 1.087714 0.104286 -0.035743 -143323.000000 0 0 1
14.832322 24.504606 16.280946 32.947575 1.026498 1.053943 0.113482 -0.041083 -500764.000000 0 0 1
15.333322 25.586526 17.077946 34.372043 1.030911 1.050824 0.102256 -0.039916 -6176.300000 0 0 1
14.353222 26.188416 17.881146 34.807808 1.069432 1.031292 0.092910 -0.037792 -273379.000000 0 0 1
14.980422 27.379506 18.538646 36.300576 1.070152 1.034799 0.094997 -0.041096 -544394.000000 0 0 1
15.289222 28.410806 17.632446 36.767341 1.077098 1.070634 0.084611 -0.035556 383912.000000 0 0 1
15.861922 29.529716 18.399246 38.237900 1.077871 1.068798 0.060258 -0.030097 44521.000000 0 0 1
15.734722 30.813216 17.589546 38.812729 1.098666 1.100455 0.056248 -0.026048 571517.000000 0 0 1
14.425022 31.392596 17.675646 38.807278 1.140067 1.097893 0.065866 -0.028730 605412.000000 0 0 1
14.234822 32.649359 17.010646 39.471165 1.159653 1.125236 0.053093 -0.020643 -558779.000000 0 0 1
12.816522 33.229505 17.109546 39.512021 1.202681 1.122954 0.061233 -0.028447 -434352.000000 0 0 1
12.580722 -33.164694 16.643846 39.181489 -1.208225 1.132068 0.061342 -0.025986 20714.100000 0 0 1
13.169622 -32.099974 17.462646 38.843163 -1.181469 1.104515 0.048454 -0.024214 60744.700000 0 0 1
13.068022 -31.975254 18.983946 39.415483 -1.182820 1.068275 0.058373 -0.039941 197277.000000 0 0 1
14.190422 -32.666694 19.550446 40.628819 -1.160991 1.068777 0.062453 -0.032829 788394.000000 0 0 1
14.140222 -32.658634 20.969146 41.306626 -1.162194 1.038346 0.064637 -0.036368 -1411230.000000 0 0 1
15.435622 -33.041974 21.584146 42.378129 -1.133771 1.036399 0.062699 -0.033248 -790890.000000 0 0 1
16.416422 -31.987444 21.469046 41.876192 -1.096633 1.032494 0.068391 -0.027256 1401070.000000 0 0 1
17.708722 -32.489324 21.931146 43.013140 -1.071752 1.035762 0.087372 -0.025598 1175050.000000 0 0 1
18.846222 -31.510544 21.592146 42.594779 -1.031781 1.039188 0.090895 -0.030432 -230987.000000 0 0 1
18.986922 -30.268954 22.292446 42.114913 -1.010564 1.012992 0.098517 -0.039317 -76622.700000 0 0 1
19.852822 -29.483144 21.514746 41.548461 -0.978173 1.026492 0.108998 -0.031756 -361939.000000 0 0 1
-5.006178 12.925626 18.387252 23.026608 -1.201280 0.645960 0.032157 -0.010754 46511.600000 0 1 0
-4.674778 14.156226 17.761952 23.189205 -1.251843 0.698266 0.041031 -0.017590 -341342.000000 0 1 0
-5.833278 14.886526 17.493352 23.699223 -1.197336 0.740487 0.038090 -0.014298 -410797.000000 0 1 0
-5.651778 16.385626 17.180952 24.405255 -1.238652 0.789802 0.049345 -0.021703 -211040.000000 0 1 0
-5.386578 17.104426 18.370652 25.672115 -1.265706 0.773331 0.064457 -0.012302 122757.000000 0 0 1
-5.072578 18.402226 17.974252 26.219205 -1.301826 0.815454 0.068683 -0.012241 -126558.000000 0 0 1
-4.335878 19.207826 19.114452 27.442717 -1.348782 0.800258 0.061913 -0.012598 96195.400000 0 0 1
-5.150178 19.615426 20.217652 28.636388 -1.314034 0.786944 0.053745 -0.009521 -48360.100000 0 0 1
-4.447278 20.315426 21.194752 29.693641 -1.355285 0.775915 0.047333 -0.001481 -399234.000000 0 0 1
-5.329778 20.829426 22.341952 31.007005 -1.320294 0.766208 0.031378 -0.001624 32168.600000 0 0 1
-6.060078 19.758326 22.924132 30.864734 -1.273195 0.733660 0.039916 -0.010482 -141311.000000 0 0 1
-6.817878 20.076626 24.071722 32.078064 -1.243423 0.722113 0.029016 -0.016174 478136.000000 0 0 1
-5.984478 20.531626 25.352042 33.167570 -1.287178 0.700744 0.022414 -0.021913 106152.000000 0 0 1
-5.317978 21.769426 25.105142 33.651998 -1.331202 0.728728 0.031130 -0.019194 -314491.000000 0 0 1
-4.356178 22.141426 26.042282 34.458954 -1.376534 0.714001 0.033523 -0.013183 -121661.000000 0 0 1
-2.943978 21.740526 25.564482 33.687687 -1.436201 0.709224 0.051665 -0.004082 -553472.000000 0 0 1
-2.589178 20.443626 25.950762 33.137407 -1.444817 0.671120 0.062805 0.001804 571361.000000 0 0 1
-1.211678 20.247126 25.608162 32.667909 -1.511023 0.669884 0.072059 0.001321 963543.000000 0 0 1
-0.520078 18.969726 26.206802 32.356104 -1.543387 0.626731 0.082167 0.016067 -79585.100000 0 0 1
-1.138378 17.773626 25.809592 31.358137 -1.506835 0.604020 0.079969 0.006110 -240996.000000 0 0 1
-0.533078 16.547326 26.274482 31.055540 -1.538592 0.562268 0.072038 0.006141 1039980.000000 0 0 1
0.929722 16.232726 25.765032 30.466419 1.513584 0.562947 0.084364 0.004404 792296.000000 0 0 1
1.104322 16.103426 24.353892 29.217322 1.502327 0.585306 0.081689 -0.008941 -245641.000000 0 0 1
0.745222 14.903026 23.667132 27.978361 1.520833 0.562530 0.084624 -0.006229 -257801.000000 0 0 1
0.935122 14.921026 22.115852 26.694988 1.508207 0.594436 0.085095 -0.028721 -413849.000000 0 0 1
2.240822 15.035626 21.622452 26.431454 1.422851 0.612771 0.078327 -0.031407 -529099.000000 0 0 1
2.824622 13.837926 21.183852 25.460210 1.369441 0.588025 0.070953 -0.031452 1146250.000000 0 0 1
4.381122 13.854126 20.913752 25.465979 1.264515 0.607211 0.069595 -0.033857 1143520.000000 0 0 1
4.859122 14.700026 19.909352 25.220709 1.251551 0.660957 0.066182 -0.039052 -1300010.000000 0 0 1
6.198722 14.959626 20.048352 25.771127 1.177969 0.679418 0.069772 -0.035298 -932396.000000 0 0 1
6.824322 15.834626 18.912452 25.592726 1.163876 0.739245 0.077672 -0.044128 -62827.300000 0 0 1
6.771722 15.152526 17.648552 24.226569 1.150520 0.754697 0.080502 -0.054857 232143.000000 0 1 0
7.028522 16.069726 16.589852 24.142482 1.158489 0.813218 0.077649 -0.041123 -198880.000000 0 1 0
7.016822 15.464926 15.165852 22.768461 1.144849 0.841842 0.073683 -0.037871 796262.000000 0 1 0
8.151222 14.744726 14.605452 22.297278 1.065788 0.856570 0.073085 -0.043895 879510.000000 0 1 0
8.532222 13.514226 15.243652 22.086241 1.007643 0.809048 0.074019 -0.045030 377675.000000 0 1 0
9.839522 12.926626 14.618752 21.854560 0.920177 0.838054 0.090310 -0.044812 1147260.000000 0 1 0
11.053822 13.697426 14.834352 23.018785 0.891802 0.870498 0.076099 -0.040549 687846.000000 0 1 0
12.023922 12.933126 14.160052 22.635095 0.821813 0.894922 0.102518 -0.030046 -192786.000000 0 1 0
13.510022 13.342726 14.283852 23.760839 0.779168 0.925856 0.101227 -0.024588 -929538.000000 0 1 0
14.085622 13.092426 15.537752 24.723230 0.748870 0.891215 0.071247 -0.027324 604445.000000 0 1 0
15.455122 13.494326 15.608452 25.779477 0.717770 0.920452 0.079702 -0.025707 1107790.000000 0 0 1
16.490722 12.721726 14.677652 25.479790 0.657087 0.956907 0.102797 -0.029426 -1366600.000000 0 0 1
17.740622 13.317126 14.772352 26.651415 0.643922 0.983298 0.101182 -0.037376 -249900.000000 0 0 1
18.532422 13.077926 13.591052 26.442381 0.614527 1.030969 0.100591 -0.033058 -429971.000000 0 0 1
19.846122 13.827526 13.682552 27.789949 0.608533 1.056002 0.095984 -0.038096 -347365.000000 0 0 1
20.654322 13.434326 14.768852 28.726314 0.576682 1.030812 0.083115 -0.036659 452116.000000 0 0 1
21.989122 13.924526 14.805652 29.943635 0.564507 1.053594 0.106738 -0.050493 617989.000000 0 0 1
22.709922 13.507126 16.140052 30.962628 0.536563 1.022452 0.115054 -0.040304 33020.400000 0 0 1
23.287822 12.229226 16.131452 30.856124 0.483552 1.020669 0.112440 -0.034271 172259.000000 0 0 1
23.954322 11.964226 17.337552 31.898949 0.463216 0.996178 0.102571 -0.040065 -302425.000000 0 0 1
24.190422 10.439226 17.484952 31.620840 0.407400 0.984888 0.105078 -0.035656 606057.000000 0 0 1
22.959922 9.693826 17.638852 30.532891 0.399502 0.954888 0.105139 -0.024883 936807.000000 0 0 1
23.086322 8.317726 17.308852 30.029306 0.345811 0.956482 0.077424 -0.022706 43112.700000 0 0 1
21.813822 7.411226 17.420552 28.883295 0.327514 0.923370 0.116918 -0.016062 113366.000000 0 0 1
21.886522 6.035426 17.212052 28.490366 0.269073 0.922115 0.113507 -0.034026 886348.000000 0 0 1
20.600022 5.400426 17.403752 27.503020 0.256387 0.885640 0.130660 -0.034330 720520.000000 0 0 1
20.568322 3.993026 16.793252 26.851694 0.191750 0.895143 0.155538 -0.021204 -602477.000000 0 0 1
19.902822 3.919826 15.550052 25.559568 0.194459 0.916773 0.159321 -0.027294 366690.000000 0 0 1
19.815722 2.602526 14.978852 24.976029 0.130589 0.927634 0.148476 -0.042983 -295263.000000 0 1 0
18.968622 1.545926 15.737352 24.695400 0.081319 0.879861 0.161818 -0.040571 -316019.000000 0 1 0
19.522522 1.154326 16.991552 25.907030 0.059059 0.855466 0.158408 -0.049550 269092.000000 0 0 1
18.542322 1.156026 18.019052 25.881274 0.062265 0.800679 0.152746 -0.034217 -60889.700000 0 0 1
18.975022 0.459626 19.345352 27.101760 0.024218 0.775881 0.150884 -0.042371 -368554.000000 0 0 1
19.130122 -0.953974 19.280252 27.177192 -0.049826 0.782111 0.157602 -0.038601 -66857.800000 0 0 1
17.934422 -1.684774 19.388252 26.464812 -0.093666 0.748655 0.126653 -0.024633 -249047.000000 0 0 1
18.093622 -3.098274 18.833352 26.299689 -0.169591 0.772590 0.104594 -0.023310 -64003.400000 0 0 1
17.970322 -3.153774 17.409252 25.218264 -0.173730 0.808833 0.127597 -0.040524 260450.000000 0 0 1
17.899622 -4.472374 16.871252 25.000755 -0.244846 0.830062 0.153547 -0.037658 -111381.000000 0 0 1
17.413522 -4.561674 15.379352 23.676235 -0.256205 0.863779 0.146142 -0.048148 -559874.000000 0 1 0
16.033922 -4.334874 15.241052 22.542570 -0.264044 0.828338 0.129691 -0.039013 -177077.000000 0 1 0
15.597522 -4.427874 13.911152 21.363729 -0.276606 0.861688 0.126442 -0.038109 33306.100000 0 1 0
15.893922 -3.144274 13.052952 20.805835 -0.195307 0.892625 0.123993 -0.036787 -434361.000000 0 1 0
15.320922 -1.961274 13.517152 20.525366 -0.127320 0.851895 0.126588 -0.025075 145636.000000 0 1 0
15.554622 -0.871774 12.658352 20.073369 -0.055987 0.888465 0.110815 -0.030025 149598.000000 0 1 0
14.624322 0.310926 13.082952 19.624758 0.021258 0.841084 0.112157 -0.018436 -128697.000000 0 1 0
15.071922 1.565626 12.688852 19.764134 0.103506 0.873674 0.110088 -0.018468 60838.700000 0 1 0
16.070022 2.161026 13.489052 21.091946 0.133674 0.876902 0.132630 -0.024859 -242606.000000 0 1 0
16.369222 3.633426 13.148252 21.307974 0.218426 0.905798 0.115708 -0.018343 331539.000000 0 1 0
15.329422 4.563426 13.510352 20.936706 0.289337 0.869387 0.105610 -0.007767 693283.000000 0 1 0
15.302122 5.562126 12.486652 20.518496 0.348639 0.916557 0.107440 -0.024694 -247246.000000 0 1 0
14.156422 6.526426 12.779452 20.157205 0.431982 0.884095 0.079298 -0.017677 -401035.000000 0 1 0
14.027122 7.568626 11.849552 19.860920 0.494801 0.931505 0.043160 -0.030048 391944.000000 0 1 0
13.169722 8.660226 12.248752 19.961789 0.581690 0.910172 0.037328 -0.017171 -636441.000000 0 1 0
13.567222 9.596626 13.402452 21.349250 0.615635 0.892109 0.046556 -0.023213 -293939.000000 0 1 0
13.357722 8.986526 14.671252 21.781461 0.592208 0.831773 0.064721 -0.025573 472800.000000 0 1 0
13.936622 9.749026 15.685852 23.136960 0.610408 0.825817 0.091261 -0.037016 -288743.000000 0 1 0
13.474822 9.316426 17.089352 23.673035 0.604927 0.764265 0.081010 -0.029817 -486030.000000 0 1 0
12.239822 9.809126 17.502652 23.502660 0.675601 0.730697 0.070603 -0.033897 -447286.000000 0 1 0
11.647522 9.210526 18.618152 23.814579 0.669088 0.673255 0.084603 -0.016101 -77001.200000 0 1 0
12.261022 9.564826 20.002952 25.336469 0.662489 0.660815 0.104734 -0.017299 -1270660.000000 0 0 1
13.403822 8.856026 20.275552 25.868701 0.583867 0.670056 0.145687 -0.030542 -1170470.000000 0 0 1
13.964522 9.386926 21.420452 27.238907 0.591822 0.665850 0.142894 -0.012907 -697041.000000 0 0 1
15.470422 9.119026 21.417452 27.949917 0.532625 0.697766 0.149028 -0.022686 -709436.000000 0 0 1
16.181922 9.923126 20.578952 27.996720 0.550086 0.745058 0.132903 -0.023623 -445463.000000 0 0 1
17.229722 9.297626 19.874552 27.898154 0.494845 0.777889 0.120438 -0.026292 321893.000000 0 0 1
18.099022 10.323626 19.070752 28.246158 0.518368 0.829611 0.116864 -0.025830 978547.000000 0 0 1
19.169222 10.979126 19.781952 29.653430 0.520140 0.840480 0.124003 -0.034893 1556030.000000 0 0 1
20.226122 11.530026 18.967252 30.029888 0.518111 0.887165 0.132546 -0.038342 1677480.000000 0 0 1
21.349122 12.326526 19.770852 31.600868 0.523620 0.894841 0.122883 -0.036173 353677.000000 0 0 1
20.803722 13.534026 20.205952 32.003831 0.576767 0.887490 0.115208 -0.035567 840639.000000 0 0 1
21.749822 14.201826 21.046752 33.432206 0.578455 0.889841 0.100153 -0.032590 1445150.000000 0 0 1
23.025522 14.925726 20.380552 34.180680 0.575127 0.931963 0.093436 -0.024378 482735.000000 0 0 1
24.031022 13.999626 20.205852 34.376679 0.527501 0.942487 0.068103 -0.014066 -786516.000000 0 0 1
25.278922 14.649426 20.342152 35.601022 0.525218 0.962595 0.068196 -0.017612 351790.000000 0 0 1
26.558722 13.764026 20.277052 36.138248 0.478140 0.975086 0.060943 -0.025052 357275.000000 0 0 1
26.733922 13.127726 19.031352 35.344478 0.456463 1.002196 0.071019 -0.036944 571827.000000 0 0 1
27.918722 12.336526 19.196452 36.057575 0.416075 1.009383 0.095041 -0.041438 359955.000000 0 0 1
28.387222 11.664726 17.908752 35.533416 0.389880 1.042575 0.125523 -0.039875 -315131.000000 0 0 1
28.883322 12.509126 16.933652 35.741756 0.408704 1.077221 0.145425 -0.050422 134928.000000 0 0 1
29.063022 11.824726 15.658152 35.066525 0.386410 1.107916 0.181279 -0.054677 -420040.000000 0 0 1
27.760422 11.532726 14.915752 33.557778 0.393744 1.110203 0.164797 -0.057513 -466287.000000 0 0 1
27.162622 12.669026 14.361252 33.234889 0.436420 1.123961 0.183435 -0.051803 -490405.000000 0 0 1
25.917122 12.303226 13.846652 31.855869 0.443215 1.121129 0.182444 -0.050097 -333994.000000 0 0 1
25.355122 13.297726 12.808752 31.365202 0.483023 1.150124 0.172375 -0.045988 -50885.000000 0 0 1
25.175622 14.600426 13.343852 32.016289 0.525541 1.140893 0.153329 -0.047915 184359.000000 0 0 1
24.971522 15.573226 12.332652 31.909193 0.557620 1.173971 0.139634 -0.036886 -384196.000000 0 0 1
24.088222 16.727226 12.778352 31.989511 0.606968 1.159875 0.135443 -0.037538 -315394.000000 0 0 1
22.743622 16.301826 12.899152 30.812498 0.621889 1.138856 0.139073 -0.045523 518787.000000 0 0 1
21.828822 17.359526 13.249952 30.877368 0.671842 1.127283 0.122667 -0.042496 -121045.000000 0 0 1
21.151322 18.164226 12.075552 30.383162 0.709566 1.162069 0.141581 -0.038565 458454.000000 0 0 1
20.051222 17.529526 11.395152 28.968695 0.718398 1.166512 0.124030 -0.038220 203626.000000 0 0 1
18.874322 17.700226 12.119352 28.573007 0.753308 1.132769 0.115792 -0.037436 -338246.000000 0 0 1
17.527622 17.116626 11.567852 27.092649 0.773535 1.129653 0.108938 -0.023772 510066.000000 0 0 1
17.413322 15.743626 11.541552 26.158994 0.735083 1.113852 0.108037 -0.020044 -1281850.000000 0 0 1
16.193622 15.301126 11.150652 24.913749 0.757068 1.106750 0.108645 -0.019618 -1494090.000000 0 1 0
16.040222 14.068526 10.231952 23.662312 0.720006 1.123626 0.103902 -0.020329 -207865.000000 0 1 0
16.324322 12.908426 10.974352 23.527587 0.669074 1.085528 0.104018 -0.019717 377810.000000 0 1 0
16.387922 11.727626 10.212752 22.592068 0.621137 1.101734 0.081448 -0.008647 -116521.000000 0 1 0
16.942822 10.589926 11.049252 22.831814 0.558627 1.065644 0.087935 -0.015851 -733821.000000 0 1 0
17.399222 9.464926 10.357952 22.351844 0.498214 1.088963 0.072011 -0.014403 276401.000000 0 1 0
18.102222 8.494326 11.062152 22.852029 0.438740 1.065488 0.090044 -0.015068 976380.000000 0 1 0
19.469822 8.827526 11.764352 24.400803 0.425674 1.067712 0.094190 -0.025697 368323.000000 0 1 0
19.106622 9.451026 12.999152 24.967236 0.459356 1.023186 0.081591 -0.029311 -109765.000000 0 1 0
20.162222 9.554726 13.883852 26.278686 0.442544 1.014162 0.090055 -0.027313 -1200130.000000 0 0 1
19.683822 9.891226 15.365352 26.858579 0.465650 0.961752 0.074202 -0.021094 300002.000000 0 0 1
19.057022 8.769126 16.023952 26.397627 0.431264 0.918488 0.083431 -0.021996 863047.000000 0 0 1
17.690922 8.555626 15.685152 25.143418 0.450455 0.897166 0.088978 -0.026704 -69958.000000 0 0 1
17.145322 7.169526 16.093752 24.584000 0.396065 0.857086 0.112009 -0.026131 -435411.000000 0 1 0
16.855822 7.041226 17.445652 25.259620 0.395699 0.808404 0.145901 -0.025598 298993.000000 0 0 1
16.259822 5.799426 17.869052 24.845889 0.342606 0.768153 0.142394 -0.002172 458317.000000 0 1 0
14.706522 5.771926 17.690552 23.718191 0.374002 0.728965 0.122377 -0.013997 121752.000000 0 1 0
14.284322 4.457826 17.865552 23.304335 0.302501 0.697237 0.129601 -0.007979 200700.000000 0 1 0
13.904922 3.838726 16.601252 21.992823 0.269360 0.715373 0.129284 -0.011212 -19306.700000 0 1 0
13.623822 2.350926 16.761052 21.727132 0.170877 0.689704 0.128244 -0.014137 -208990.000000 0 1 0
14.822722 1.626826 16.897352 22.536197 0.109315 0.723056 0.127301 -0.014776 -40321.000000 0 1 0
14.827022 0.211126 16.711652 22.341989 0.014238 0.725763 0.134408 -0.016370 -381094.000000 0 1 0
13.940222 -0.644474 17.643852 22.495570 -0.046198 0.669188 0.118650 -0.014741 440827.000000 0 1 0
12.573522 -0.498674 17.259052 21.359237 -0.039640 0.629984 0.109452 -0.015640 607460.000000 0 1 0
11.708522 -1.436374 17.939152 21.470115 -0.122068 0.581680 0.083144 -0.021995 550588.000000 0 1 0
-26.591398 13.886326 28.474452 41.360935 -0.481258 0.811463 0.099463 -0.017288 -635288.000000 0 0 1
-25.607758 14.069526 29.451452 41.486105 -0.502401 0.781424 0.087372 -0.018136 -36119.900000 0 0 1
-24.967978 12.856026 29.669072 40.852554 -0.475497 0.757949 0.076163 -0.020761 -366353.000000 0 0 1
-23.842278 12.911126 30.712682 40.968527 -0.496311 0.723240 0.079038 -0.027914 -231499.000000 0 0 1
-24.330378 13.077126 32.010780 42.280830 -0.493181 0.711935 0.079841 -0.034683 -2723.470000 0 0 1
-23.269778 13.052326 32.942709 42.391837 -0.511183 0.680751 0.064488 -0.026243 -211435.000000 0 0 1
-23.727878 13.305026 -33.187004 42.911690 -0.511047 2.454951 0.069152 -0.027572 -282999.000000 0 0 1
-24.380578 12.195026 -32.686874 42.562460 -0.463803 2.446469 0.057012 -0.022875 -49186.200000 0 0 1
-24.837978 12.459326 -31.354554 41.895919 -0.464946 2.416430 0.046972 -0.023925 -35918.900000 0 0 1
-25.648928 11.337926 -30.673974 41.560904 -0.416217 2.400970 0.032672 -0.024064 -48554.900000 0 0 1
-24.904578 10.253326 -30.109764 40.397606 -0.390556 2.411834 0.045333 -0.029068 332851.000000 0 0 1
-24.462878 9.250426 -31.031364 40.582611 -0.361522 2.441289 0.033384 -0.023503 255390.000000 0 0 1
-23.520578 8.234826 -30.295824 39.228394 -0.336774 2.453240 0.037258 -0.014027 -93226.200000 0 0 1
-24.145578 7.378526 -29.368064 38.728991 -0.296573 2.431493 0.044841 -0.014926 -51826.100000 0 0 1
-23.248178 6.595526 -28.631524 37.466557 -0.276437 2.440579 0.038716 -0.005734 -383529.000000 0 0 1
-23.867278 5.766726 -27.470354 36.844571 -0.237073 2.412192 0.040772 -0.006174 -126153.000000 0 0 1
-24.742878 4.734426 -27.875384 37.572088 -0.189060 2.406722 0.061152 -0.011559 109973.000000 0 0 1
-25.115648 4.019426 -26.719494 36.890147 -0.158691 2.380813 0.108061 -0.016004 -589190.000000 0 0 1
-26.051878 2.823926 -26.985494 37.615047 -0.107975 2.370877 0.113327 -0.020000 932541.000000 0 0 1
-27.374688 3.036126 -27.511934 38.929399 -0.110459 2.355639 0.133152 -0.016698 913182.000000 0 0 1
-27.532468 3.801326 -28.678164 39.936499 -0.137200 2.371856 0.129445 -0.018134 -1770900.000000 0 0 1
-28.786988 3.448326 -29.425324 41.308974 -0.119220 2.363599 0.161678 -0.023101 -370171.000000 0 0 1
-30.000578 3.853526 -28.767544 41.742735 -0.127749 2.331129 0.140212 -0.020085 774247.000000 0 0 1
-31.144918 3.660626 -29.587724 43.114261 -0.116998 2.327135 0.140155 -0.024273 322077.000000 0 0 1
-31.567038 5.011926 -30.314584 44.051916 -0.157457 2.329741 0.141101 -0.034894 -527174.000000 0 0 1
-30.646738 5.496926 -31.257584 44.118877 -0.177477 2.358146 0.141041 -0.037566 29442.800000 0 0 1
-30.991238 6.761626 -31.810574 44.923146 -0.214812 2.357616 0.137209 -0.036811 -451000.000000 0 0 1
-30.747768 8.089626 -31.035224 44.430310 -0.257266 2.344116 0.101401 -0.032476 340102.000000 0 0 1
-29.356528 8.311926 -30.821584 43.368928 -0.275915 2.361266 0.053292 -0.038060 666602.000000 0 0 1
-28.675038 7.740026 -29.703854 42.005770 -0.263639 2.356238 0.044402 -0.032246 -465248.000000 0 0 1
-28.874818 8.414326 -28.288904 41.289443 -0.283555 2.325587 0.029306 -0.017832 524703.000000 0 0 1
-30.233278 8.622626 -27.889674 42.026595 -0.277827 2.296443 0.054120 -0.020928 698591.000000 0 0 1
-30.946538 7.538126 -27.344294 41.978828 -0.238932 2.280202 0.062874 -0.003506 -469001.000000 0 0 1
-32.306768 7.895726 -26.736424 42.672076 -0.239700 2.247922 0.065183 -0.000347 -350266.000000 0 0 1
-32.331938 8.712426 -25.579584 42.137580 -0.263216 2.223138 0.027749 0.003323 -88187.100000 0 0 1
-32.051788 8.021626 -24.345954 41.041309 -0.245234 2.205832 0.044792 -0.002397 -157581.000000 0 0 1
-31.576878 8.915326 -23.186254 40.176917 -0.275175 2.185974 0.044239 -0.000103 -350253.000000 0 0 1
-32.501048 9.758826 -22.574054 40.757094 -0.291697 2.157799 0.061233 -0.006144 -391001.000000 0 0 1
-31.796828 10.520226 -21.645354 39.877748 -0.319521 2.144555 0.077213 -0.011716 208902.000000 0 0 1
-32.611518 11.427626 -20.615054 40.237820 -0.337046 2.108692 0.070375 -0.005099 210388.000000 0 0 1
-33.228148 10.708926 -19.556454 40.015569 -0.311774 2.081420 0.074828 -0.020360 -65592.300000 0 0 1
-33.875168 11.559226 -18.650954 40.360882 -0.328841 2.051163 0.075804 -0.014796 -172933.000000 0 0 1
-32.962418 12.339626 -17.670854 39.383327 -0.358205 2.036094 0.079094 -0.019174 -251654.000000 0 0 1
-32.576548 11.596426 -16.506754 38.316857 -0.341988 2.016171 0.112869 -0.020283 594136.000000 0 0 1
-33.549788 11.350426 -15.460154 38.645010 -0.326228 1.982374 0.108051 -0.020682 424011.000000 0 0 1
-34.045418 12.551226 -14.550354 39.093945 -0.353202 1.952163 0.097756 -0.015400 135103.000000 0 0 1
-34.655596 13.584426 -15.345454 40.262016 -0.373577 1.961825 0.066489 -0.013350 173039.000000 0 0 1
-35.026282 14.664426 -14.594854 40.680408 -0.396496 1.937745 0.032036 -0.008268 55303.100000 0 0 1
-36.030268 15.640426 -15.248954 42.134709 -0.409546 1.941112 0.018746 -0.006153 511869.000000 0 0 1
-37.362308 15.178626 -15.460954 43.189974 -0.385887 1.936895 0.033428 -0.005711 497929.000000 0 0 1
37.284844 16.179026 -15.956254 43.663744 0.409410 1.944896 0.029996 -0.009541 -399354.000000 0 0 1
37.055904 16.354626 -17.505854 44.125602 0.415637 1.978746 0.022886 -0.010239 -68293.200000 0 0 1
36.168154 15.343226 -17.991054 43.211433 0.401209 2.000223 0.058248 -0.016702 -77523.600000 0 0 1
34.868614 15.824226 -18.150654 42.375378 0.426030 2.013440 0.092181 -0.018701 -1112650.000000 0 0 1
33.876424 14.716226 -18.458254 41.290272 0.409813 2.034246 0.103893 -0.016984 -540759.000000 0 0 1
34.030604 14.186326 -19.742654 41.822318 0.394964 2.062423 0.105043 -0.015086 208487.000000 0 0 1
33.163204 13.107626 -20.034054 40.901972 0.376401 2.082664 0.041437 -0.003995 -45532.800000 0 0 1
33.505144 11.746026 -19.410154 40.463785 0.337186 2.071100 0.061816 -0.003013 -112024.000000 0 0 1
33.335384 11.674026 -17.994054 39.639837 0.336852 2.041977 0.097893 -0.009729 73552.500000 0 0 1
33.812294 10.438526 -17.525854 39.489108 0.299437 2.030648 0.090339 -0.021783 -219431.000000 0 0 1
33.769264 10.211926 -16.016954 38.745186 0.293660 1.996973 0.074978 -0.014305 -365013.000000 0 0 1
32.457934 10.052826 -15.546454 37.366683 0.300349 1.999895 0.094663 -0.014110 -199958.000000 0 0 1
32.419494 9.855826 -14.143654 36.717896 0.295131 1.966219 0.076963 -0.005504 -95033.300000 0 0 1
31.664914 10.996526 -13.429354 36.110081 0.334248 1.951852 0.101732 -0.012640 -43035.600000 0 0 1
30.257154 10.849826 -13.498954 34.863102 0.344304 1.968388 0.106421 -0.012105 26837.600000 0 0 1
29.649354 11.887626 -12.761254 34.398393 0.381317 1.950865 0.131138 -0.014037 -460242.000000 0 0 1
28.138454 11.839026 -12.998154 33.179619 0.398258 1.973330 0.118848 0.008826 -1257620.000000 0 0 1
27.499854 10.793626 -12.261654 31.985817 0.374022 1.964213 0.118481 -0.006710 677675.000000 0 0 1
26.145654 10.607726 -12.694354 30.939711 0.385425 1.993572 0.111542 0.016244 265932.000000 0 0 1
25.869654 10.239426 -14.177354 31.226306 0.376888 2.042068 0.104840 -0.009247 -1622420.000000 0 0 1
26.253054 9.023226 -14.772854 31.446441 0.331053 2.059836 0.124260 -0.011044 367867.000000 0 0 1
27.645454 8.984726 -15.077154 32.746252 0.314230 2.049269 0.126220 -0.013124 177015.000000 0 0 1
28.420454 8.136226 -14.060154 32.735429 0.278823 2.014745 0.128646 -0.019940 -756926.000000 0 0 1
28.118354 6.738726 -14.104654 32.171315 0.235219 2.024640 0.142555 -0.039236 620913.000000 0 0 1
27.252354 6.367326 -13.012354 30.863490 0.229526 2.006016 0.156726 -0.034669 177378.000000 0 0 1
26.948554 4.885926 -13.163154 30.386929 0.179357 2.018820 0.167585 -0.042633 -586536.000000 0 0 1
26.161154 4.370826 -12.157854 29.177449 0.165544 2.000594 0.193206 -0.039789 306389.000000 0 0 1
25.994554 2.947426 -12.312854 28.913847 0.112904 2.010693 0.183907 -0.043003 -72318.700000 0 0 1
25.272254 2.273626 -11.103954 27.697545 0.089724 1.983296 0.199823 -0.041995 -9192.550000 0 0 1
26.130254 2.143226 -10.001254 28.060803 0.081838 1.935223 0.216171 -0.040617 339368.000000 0 0 1
25.495054 1.361926 -9.042954 27.085561 0.053369 1.911199 0.242249 -0.029261 -719645.000000 0 0 1
26.301554 1.128926 -7.772454 27.449176 0.042896 1.857882 0.269878 -0.021529 -404275.000000 0 0 1
26.294254 -0.170374 -7.193654 27.261062 -0.006479 1.837839 0.234698 -0.026801 369509.000000 0 0 1
26.805154 -1.194574 -8.030254 28.007647 -0.044536 1.861594 0.181002 -0.027636 -527037.000000 0 0 1
26.882754 -2.515574 -7.240054 27.954051 -0.093304 1.832781 0.160337 -0.029082 57747.500000 0 0 1
27.981354 -2.572274 -6.328754 28.803227 -0.091670 1.792328 0.166997 -0.034580 784659.000000 0 0 1
27.902054 -3.811874 -5.712654 28.734812 -0.135776 1.770936 0.184974 -0.042028 564407.000000 0 0 1
29.318754 -4.156574 -5.111254 30.049815 -0.140833 1.741720 0.131023 -0.033315 960156.000000 0 0 1
30.262954 -4.412374 -6.173054 31.199712 -0.144781 1.769967 0.108119 -0.026964 361788.000000 0 0 1
31.502004 -4.744174 -5.597054 32.345177 -0.149476 1.744713 0.162031 -0.029201 -44071.400000 0 0 1
32.643754 -5.181874 -6.553554 33.695928 -0.157427 1.766535 0.174419 -0.038397 63688.900000 0 0 1
32.367604 -6.340574 -7.359154 33.793813 -0.193443 1.790322 0.150997 -0.035951 229514.000000 0 0 1
33.109244 -6.362174 -8.587854 34.791530 -0.189843 1.820212 0.164371 -0.037424 -695161.000000 0 0 1
32.398254 -7.182674 -9.688554 34.570302 -0.218171 1.854858 0.134675 -0.033086 378083.000000 0 0 1
31.207294 -6.536274 -10.120454 33.452080 -0.206462 1.878148 0.099871 -0.037654 -457623.000000 0 0 1
30.091754 -6.978774 -9.454454 32.304855 -0.227888 1.867808 0.094348 -0.032577 -1826950.000000 0 0 1
28.940854 -5.991874 -9.343454 30.996382 -0.204154 1.876996 0.093611 -0.029221 -1002010.000000 0 0 1
28.246054 -5.884474 -10.514954 30.708808 -0.205391 1.920275 0.083885 -0.026871 -447420.000000 0 0 1
27.125754 -5.052774 -10.412554 29.491666 -0.184162 1.931644 0.131654 -0.025836 1175080.000000 0 0 1
25.743854 -5.855174 -10.281254 28.332548 -0.223635 1.942151 0.184851 -0.019358 482633.000000 0 0 1
25.520154 -6.591674 -9.087854 27.880415 -0.252768 1.902822 0.167485 -0.024527 1837470.000000 0 0 1
24.181954 -7.175074 -8.954554 26.766259 -0.288437 1.911920 0.162007 -0.016199 945936.000000 0 0 1
23.214254 -6.260674 -8.200954 25.403804 -0.263424 1.899508 0.188204 -0.015178 -762146.000000 0 0 1
22.897854 -5.176174 -9.003554 25.142961 -0.222318 1.937022 0.203767 -0.013249 397683.000000 0 0 1
22.368154 -4.056374 -8.280054 24.193962 -0.179396 1.920092 0.200817 -0.022973 -90755.500000 0 1 0
22.486554 -2.794874 -9.158854 24.440561 -0.123657 1.954913 0.232043 -0.028065 925915.000000 0 1 0
23.842354 -2.495274 -9.562454 25.809393 -0.104278 1.950347 0.198815 -0.033556 1533250.000000 0 0 1
23.816754 -1.808274 -10.826254 26.224328 -0.075779 1.996358 0.216888 -0.037864 158598.000000 0 0 1
25.152054 -1.970174 -11.601354 27.768666 -0.078171 2.001803 0.154364 -0.036924 180716.000000 0 0 1
26.201454 -1.088374 -11.275354 28.545304 -0.041515 1.976863 0.144704 -0.043543 780123.000000 0 0 1
27.405454 -1.471074 -11.952554 29.934704 -0.053627 1.981536 0.124434 -0.034694 438876.000000 0 0 1
28.513254 -0.421374 -11.749054 30.841911 -0.014777 1.961614 0.100325 -0.019845 467256.000000 0 0 1
29.827754 -0.721774 -12.272254 32.261805 -0.024193 1.961021 0.084620 -0.023840 1621890.000000 0 0 1
30.835534 0.234826 -11.929954 33.063713 0.007615 1.939940 0.103651 -0.021814 324124.000000 0 0 1
30.736584 1.551226 -12.751354 33.312774 0.050426 1.963596 0.109858 -0.023894 -552360.000000 0 0 1
31.068474 1.222626 -14.067054 34.126630 0.039332 1.995666 0.092760 -0.024062 346056.000000 0 0 1
31.181794 2.422226 -14.839254 34.617552 0.077525 2.013808 0.102313 -0.021120 -199691.000000 0 0 1
31.431234 2.163026 -16.326654 35.484656 0.068709 2.048909 0.100709 -0.024910 21027.200000 0 0 1
30.371454 1.550326 -17.054654 34.866746 0.051001 2.081898 0.089678 -0.018704 108524.000000 0 0 1
30.617864 1.603026 -18.454054 35.785128 0.052308 2.112610 0.073671 -0.012839 -402028.000000 0 0 1
29.445054 1.023326 -19.263954 35.201681 0.034740 2.149866 0.045594 -0.009062 -78884.300000 0 0 1
29.285854 -0.390974 -19.143554 34.989852 -0.013349 2.149713 0.052020 -0.010103 183992.000000 0 0 1
29.235254 -1.072174 -20.391554 35.660414 -0.036658 2.179526 0.039578 -0.010922 -71405.400000 0 0 1
28.910554 -2.574074 -20.321154 35.431558 -0.088802 2.181608 0.052791 -0.014999 916596.000000 0 0 1
27.639254 -2.835674 -19.655454 34.033899 -0.102238 2.186491 0.044196 -0.011701 1316510.000000 0 0 1
27.327254 -4.252574 -19.620254 33.908960 -0.154378 2.187827 0.051893 -0.015960 128170.000000 0 0 1
28.039754 -5.044574 -18.451954 33.943337 -0.178004 2.145529 0.045828 -0.012900 446752.000000 0 0 1
29.414354 -5.258274 -18.720354 35.260535 -0.176897 2.130477 0.057185 -0.016542 119780.000000 0 0 1
30.185654 -5.468474 -17.566354 35.350456 -0.179218 2.090842 0.065857 -0.020864 647619.000000 0 0 1
31.708254 -5.143674 -17.759054 36.704969 -0.160818 2.075825 0.100380 -0.024035 546832.000000 0 0 1
32.409054 -6.130774 -18.483454 37.809671 -0.186959 2.081573 0.076423 -0.021600 -176519.000000 0 0 1
33.720124 -5.677074 -18.739454 38.992859 -0.166794 2.072120 0.106815 -0.023434 -588877.000000 0 0 1
34.542744 -6.724774 -19.410154 40.189275 -0.192275 2.074838 0.095662 -0.013856 -642105.000000 0 0 1
34.915364 -7.700274 -18.466254 40.241513 -0.217066 2.047537 0.114907 -0.025516 -61040.800000 0 0 1
35.538894 -8.802674 -19.047754 41.271261 -0.242805 2.050511 0.089916 -0.018588 -343248.000000 0 0 1
36.399774 -9.646174 -18.088154 41.775274 -0.259052 2.018600 0.100003 -0.018310 -567201.000000 0 0 1
35.711114 -10.335074 -17.052954 40.901108 -0.281711 2.000863 0.104964 -0.023767 141091.000000 0 0 1
36.569904 -11.147174 -16.299854 41.560830 -0.295871 1.973810 0.100743 -0.029993 207501.000000 0 0 1
-37.717568 -10.536174 -15.513554 42.122396 0.272400 1.947973 0.129106 -0.028378 -75272.500000 0 0 1
-37.303748 -11.234174 -14.309954 41.503627 0.292515 1.922809 0.137497 -0.034231 251520.000000 0 0 1
-36.592278 -12.444374 -14.427654 41.255478 0.327812 1.928063 0.126593 -0.029329 214044.000000 0 0 1
-35.176690 -12.427074 -15.088254 40.242851 0.339590 1.955118 0.149732 -0.037870 -45672.500000 0 0 1
-35.055133 -12.076474 -16.452454 40.563368 0.331766 1.988430 0.156887 -0.025644 -623570.000000 0 0 1
-33.714898 -12.158674 -16.850554 39.603899 0.346115 2.010285 0.182474 -0.037646 -239507.000000 0 0 1
-33.408948 -11.229574 -18.112654 39.627381 0.324261 2.045499 0.199839 -0.038190 159916.000000 0 0 1
-33.536688 -9.817974 -17.940554 39.280600 0.284795 2.045110 0.202728 -0.035036 147921.000000 0 0 1
-34.771182 -9.400574 -18.484454 40.485564 0.264043 2.044931 0.179303 -0.028176 131571.000000 0 0 1
-35.310807 -8.028774 -17.920354 40.403631 0.223573 2.030333 0.196539 -0.032320 -19333.600000 0 0 1
-36.445338 -7.546974 -18.605754 41.610017 0.204191 2.034368 0.191078 -0.031035 -3214.470000 0 0 1
-36.890378 -6.343274 -17.998954 41.534316 0.170284 2.019005 0.177043 -0.035491 -63257.100000 0 0 1
25.587922 27.109526 -26.814064 45.920172 0.814264 2.194355 0.054404 0.010926 88752.100000 0 0 1
26.131522 26.189626 -25.930844 45.179217 0.786509 2.182124 0.067730 -0.011709 418996.000000 0 0 1
27.346922 25.589726 -26.394434 45.818712 0.752216 2.184700 0.064491 -0.019777 555432.000000 0 0 1
27.986022 24.575126 -25.347134 45.051431 0.720595 2.168356 0.088534 -0.033749 -114187.000000 0 0 1
28.634422 25.276726 -24.314054 45.277105 0.723196 2.137680 0.092217 -0.029385 50482.400000 0 0 1
28.984022 24.445826 -23.229554 44.466663 0.700664 2.120464 0.109239 -0.030728 192565.000000 0 0 1
29.729822 25.250126 -22.144754 44.853331 0.704099 2.087153 0.089873 -0.022638 483281.000000 0 0 1
28.833322 26.126226 -21.457354 44.433751 0.736182 2.074767 0.098915 -0.025036 372698.000000 0 0 1
29.352022 26.407026 -20.152754 44.328385 0.732631 2.042747 0.077736 -0.018275 203751.000000 0 0 1
28.605622 27.494826 -19.339154 44.138985 0.765601 2.024327 0.088234 -0.020478 -215574.000000 0 0 1
27.459122 27.139526 -18.625954 42.865877 0.779545 2.020298 0.106168 -0.023048 -254926.000000 0 0 1
26.715222 28.282126 -18.239554 42.968164 0.813881 2.009195 0.100244 -0.021074 473088.000000 0 0 1
25.626222 27.946826 -17.169454 41.623533 0.828688 1.995986 0.103762 -0.022747 62950.300000 0 0 1
24.677822 27.036726 -17.669354 40.647085 0.830980 2.020503 0.107836 -0.027180 -169258.000000 0 0 1
23.521422 27.079326 -16.867554 39.636619 0.855596 2.010371 0.095405 -0.022544 129239.000000 0 0 1
22.366522 26.111126 -17.229354 38.456506 0.862489 2.035348 0.094895 -0.025813 74184.000000 0 0 1
21.756822 26.467126 -18.453954 38.915505 0.882765 2.064858 0.083105 -0.024973 -33092.600000 0 0 1
20.933622 25.413626 -18.936654 37.982441 0.881760 2.092737 0.068667 -0.017476 -160755.000000 0 0 1
20.226322 25.749526 -20.237154 38.492657 0.904958 2.124382 0.051379 -0.009000 -86718.300000 0 0 1
19.266022 26.760126 -19.992554 38.561460 0.946804 2.115845 0.042523 -0.010570 -617083.000000 0 0 1
18.350522 26.688926 -21.053454 38.630148 0.968461 2.147186 0.044101 -0.009406 -332080.000000 0 0 1
17.056322 27.480526 -20.794254 38.451248 1.015317 2.142179 0.046091 -0.013550 88898.500000 0 0 1
16.290722 27.131226 -19.624154 37.237058 1.030052 2.125870 0.055120 -0.013569 -112330.000000 0 0 1
15.300422 28.117926 -19.493854 37.479742 1.072454 2.117784 0.065010 -0.020385 -272340.000000 0 0 1
14.545022 28.014526 -18.184954 36.428888 1.091910 2.093461 0.064455 -0.017099 -169937.000000 0 0 1
13.496622 27.074826 -18.097754 35.252429 1.108355 2.109911 0.069870 -0.014858 -282095.000000 0 0 1
13.105522 26.943626 -16.750654 34.326347 1.118084 2.080573 0.080960 -0.010740 -87769.300000 0 0 1
12.065522 25.830826 -16.582154 32.981453 1.133815 2.097599 0.098942 -0.013449 -349233.000000 0 0 1
12.694622 24.581826 -16.603154 32.265838 1.094097 2.111307 0.077119 -0.012615 229753.000000 0 0 1
11.822322 23.436726 -16.626454 31.072277 1.103606 2.135410 0.095756 -0.009189 132832.000000 0 0 1
12.680822 22.177526 -16.725054 30.534789 1.051380 2.150454 0.086211 -0.018873 39926.300000 0 0 1
13.341122 22.010126 -17.943354 31.375072 1.025878 2.179615 0.082026 -0.012249 -703825.000000 0 0 1
14.363022 21.065426 -17.958654 31.185924 0.972370 2.184449 0.084217 -0.010433 -395825.000000 0 0 1
13.999422 19.563726 -17.847454 29.954212 0.949690 2.209088 0.092138 -0.007075 -293417.000000 0 0 1
13.504522 19.213726 -16.549254 28.730075 0.958155 2.184654 0.108980 -0.027700 154201.000000 0 0 1
13.120122 17.836626 -16.413754 27.562550 0.936593 2.208696 0.086750 -0.023388 71172.300000 0 0 1
14.294122 16.830426 -16.538254 27.588023 0.866707 2.213638 0.113007 -0.029747 24923.900000 0 0 1
14.858922 16.513526 -15.273354 26.958477 0.838090 2.173111 0.117746 -0.039310 399820.000000 0 0 1
16.017722 15.704226 -15.426154 27.224187 0.775516 2.173211 0.133637 -0.042011 -746186.000000 0 0 1
16.432622 14.894326 -14.214954 26.342683 0.736333 2.140778 0.195683 -0.042615 -78224.300000 0 0 1
17.316622 15.572626 -13.262154 26.800314 0.732421 2.088459 0.153477 -0.039451 1870050.000000 0 0 1
18.649222 15.873526 -13.704554 28.063804 0.705169 2.080978 0.105963 -0.025555 158697.000000 0 0 1
19.622122 14.777926 -14.247154 28.397116 0.645499 2.096372 0.098025 -0.020966 -647721.000000 0 0 1
20.082522 13.844926 -13.295054 27.780355 0.603578 2.069830 0.135037 -0.030423 667679.000000 0 0 1
21.181022 14.327526 -12.505654 28.465858 0.594733 2.025639 0.118289 -0.018576 -9365.880000 0 0 1
22.080022 13.160726 -12.025754 28.378704 0.537508 2.008389 0.133255 -0.034902 -134424.000000 0 0 1
21.567122 12.434526 -10.879554 27.168417 0.522998 1.982803 0.243898 -0.044160 465750.000000 0 0 1
22.272922 11.248926 -10.508954 27.075072 0.467679 1.969410 0.253155 -0.022881 -96430.600000 0 0 1
21.976922 10.068826 -11.421254 26.735957 0.429614 2.012176 0.189540 -0.010056 -210657.000000 0 0 1
22.781022 10.030326 -12.593054 27.895652 0.414752 2.039168 0.151771 0.006682 297090.000000 0 0 1
22.425522 9.058526 -13.614254 27.754438 0.383897 2.083489 0.121300 -0.002270 -314834.000000 0 0 1
22.557522 7.507526 -13.274554 27.229002 0.321286 2.080038 0.140173 0.019012 -437324.000000 0 0 1
21.733422 7.092226 -12.217954 25.921414 0.315433 2.061613 0.141736 -0.009313 39521.300000 0 0 1
22.119222 5.988926 -11.393354 25.591712 0.264417 2.032191 0.154298 0.000391 -531462.000000 0 0 1
21.990622 4.651526 -12.074854 25.515216 0.208451 2.063763 0.165280 -0.013521 887223.000000 0 0 1
20.696122 4.101826 -12.443154 24.494623 0.195657 2.103652 0.107799 -0.025253 1300940.000000 0 1 0
20.219922 4.533426 -13.710254 24.846897 0.220558 2.155305 0.081359 -0.027593 -311579.000000 0 1 0
19.353422 3.397226 -14.344054 24.327926 0.173766 2.201376 0.082023 -0.025358 189442.000000 0 1 0
20.019722 2.127826 -14.612354 24.876451 0.105889 2.198635 0.117810 -0.058341 396681.000000 0 1 0
19.969122 1.188126 -13.561454 24.167965 0.059428 2.166551 0.164615 -0.065976 -739661.000000 0 1 0
21.024622 0.074626 -13.613254 25.047175 0.003549 2.145403 0.197710 -0.066311 -888738.000000 0 0 1
22.301122 0.423326 -13.091454 25.863206 0.018980 2.101547 0.232258 -0.053821 290309.000000 0 0 1
23.214422 0.855826 -14.050654 27.148899 0.036849 2.114770 0.153261 -0.046081 -430862.000000 0 0 1
23.851722 -0.282074 -14.891554 28.120146 -0.011826 2.128889 0.124617 -0.032868 -890341.000000 0 0 1
22.918922 -0.778174 -15.825954 27.862939 -0.033940 2.174862 0.144741 -0.037460 67800.400000 0 0 1
23.545922 -1.771174 -16.602354 28.864956 -0.075081 2.183612 0.086485 -0.026336 -77712.700000 0 0 1
22.602322 -2.468274 -17.610054 28.758848 -0.108773 2.229807 0.108473 -0.038965 293597.000000 0 0 1
21.499122 -3.158974 -17.047554 27.619024 -0.145891 2.236026 0.132673 -0.034917 98683.000000 0 0 1
20.731622 -3.752874 -18.027054 27.728305 -0.179082 2.278554 0.115166 -0.028843 -60748.900000 0 0 1
19.719922 -4.817174 -17.529154 26.820733 -0.239588 2.283084 0.111326 -0.025843 319365.000000 0 0 1
20.506922 -5.913974 -17.081854 27.336764 -0.280771 2.245758 0.122846 -0.017464 612502.000000 0 0 1
19.725322 -6.881574 -16.432954 26.579811 -0.335668 2.237310 0.128912 -0.005264 -367707.000000 0 0 1
20.609822 -7.951074 -15.814554 27.167710 -0.368197 2.192116 0.164217 -0.008701 -195006.000000 0 0 1
21.107222 -8.804074 -16.829554 28.394725 -0.395170 2.205203 0.135407 -0.015337 190784.000000 0 0 1
21.803022 -9.876674 -16.248754 28.929958 -0.425342 2.167185 0.118431 -0.016915 -381971.000000 0 0 1
22.266622 -10.949874 -17.267654 30.230350 -0.457035 2.178767 0.090539 -0.017721 -178399.000000 0 0 1
23.326122 -10.468774 -18.055954 31.300490 -0.421856 2.185674 0.072662 -0.013353 25982.400000 0 0 1
23.917222 -11.411574 -18.952354 32.579890 -0.445183 2.191637 0.066682 -0.015469 152117.000000 0 0 1
23.091922 -11.599074 -20.291354 32.855965 -0.465486 2.236465 0.084672 -0.014603 418989.000000 0 0 1
21.780522 -12.106274 -20.169454 32.058694 -0.507308 2.251245 0.094147 -0.020651 39235.400000 0 0 1
21.696522 -13.491274 -19.913054 32.392642 -0.556307 2.232853 0.088273 -0.014736 -722199.000000 0 0 1
20.262522 -14.006474 -19.816154 31.613780 -0.604829 2.248262 0.092952 -0.026222 -39023.200000 0 0 1
19.483922 -13.832874 -20.995554 31.808567 -0.617382 2.291695 0.095042 -0.011915 -89093.800000 0 0 1
18.096422 -13.856074 -20.775354 30.839692 -0.653461 2.309941 0.096379 -0.011810 -273606.000000 0 0 1
17.323622 -13.218274 -21.900754 30.894557 -0.651782 2.358715 0.093768 -0.010781 -339835.000000 0 0 1
17.336322 -13.958374 -23.135754 32.103697 -0.677874 2.375546 0.086171 -0.007575 150887.000000 0 0 1
16.704522 -13.243974 -24.173354 32.230342 -0.670358 2.418886 0.101845 -0.014161 -112236.000000 0 0 1
16.678422 -13.937374 -25.601234 33.583379 -0.696106 2.437684 0.098812 -0.018164 -149809.000000 0 0 1
15.826422 -15.073674 -25.641564 33.692449 -0.761042 2.435723 0.096031 -0.017258 225513.000000 0 0 1
15.845322 -15.677374 -26.901634 34.936402 -0.780070 2.449665 0.091305 -0.020047 -47839.800000 0 0 1
16.958922 -16.732374 -27.134594 36.109051 -0.778674 2.421072 0.081567 -0.023811 229910.000000 0 0 1
18.281122 -16.242274 -27.181264 36.562713 -0.726410 2.408958 0.088648 -0.019723 385027.000000 0 0 1
19.226622 -17.228674 -27.610294 37.799716 -0.730648 2.389757 0.103867 -0.021512 884944.000000 0 0 1
20.715422 -16.891774 -27.288124 38.198200 -0.684073 2.366538 0.090061 -0.012708 573936.000000 0 0 1
21.110022 -16.701974 -25.939554 37.382475 -0.669344 2.337682 0.102100 -0.011079 525446.000000 0 0 1
22.529022 -16.496674 -25.883454 38.074273 -0.632038 2.318306 0.096621 -0.010275 567314.000000 0 0 1
22.922122 -15.972274 -24.516854 37.170060 -0.608579 2.291064 0.107791 -0.004832 -43570.400000 0 0 1
22.748522 -14.568874 -24.393554 36.397704 -0.569619 2.305268 0.109497 -0.007494 -606126.000000 0 0 1
21.452122 -14.118974 -24.143154 35.248133 -0.582092 2.325329 0.132647 -0.010740 -410174.000000 0 0 1
21.425522 -12.774874 -23.412454 34.211013 -0.537654 2.324514 0.129972 -0.006803 87355.300000 0 0 1
21.929222 -11.664174 -24.195254 34.674977 -0.488841 2.343080 0.131144 -0.017665 398844.000000 0 0 1
21.571022 -10.428174 -23.586154 33.620864 -0.450308 2.348343 0.132200 -0.023990 80021.500000 0 0 1
22.053022 -9.203374 -24.421254 34.167756 -0.395356 2.367057 0.143646 -0.026497 -48507.200000 0 0 1
21.652522 -7.999674 -23.818954 33.168797 -0.353902 2.371884 0.133332 -0.029783 -87177.100000 0 0 1
21.629322 -6.975874 -24.736954 33.591774 -0.311987 2.398529 0.104076 -0.024243 -475485.000000 0 0 1
21.009922 -5.736374 -24.090054 32.475429 -0.266535 2.406537 0.107603 -0.033084 546585.000000 0 0 1
19.691922 -6.135474 -23.665254 31.392039 -0.302040 2.424716 0.122355 -0.036798 296145.000000 0 0 1
19.009022 -5.292774 -22.784654 30.141281 -0.271557 2.427868 0.116689 -0.041896 -111376.000000 0 0 1
19.539722 -5.222974 -21.313654 29.382853 -0.261194 2.382379 0.102307 -0.035866 -332657.000000 0 0 1
19.334222 -6.268774 -20.393454 28.792406 -0.313537 2.357873 0.113029 -0.029034 203364.000000 0 0 1
19.871322 -7.550274 -20.750454 29.706185 -0.363111 2.344128 0.103171 -0.026615 -139334.000000 0 0 1
19.418222 -8.621174 -19.722054 28.988815 -0.417831 2.319014 0.115687 -0.027247 -729754.000000 0 0 1
18.080122 -8.956674 -19.804054 28.272131 -0.459951 2.346866 0.140784 -0.027012 -919011.000000 0 0 1
17.759722 -10.039474 -18.939954 27.837396 -0.514510 2.319075 0.142921 -0.021210 -240183.000000 0 0 1
16.245722 -10.300074 -18.973654 27.018782 -0.565058 2.349335 0.151966 -0.019651 -113311.000000 0 0 1
15.575722 -9.212474 -18.297754 25.734813 -0.534119 2.361732 0.167982 -0.013329 38267.900000 0 0 1
14.195922 -9.459374 -18.207054 24.949965 -0.587779 2.388742 0.144115 -0.024199 -34942.500000 0 1 0
13.294122 -8.416874 -17.508354 23.539752 -0.564422 2.409501 0.154576 -0.014419 405243.000000 0 1 0
11.962022 -8.343674 -17.998154 23.165501 -0.609055 2.460584 0.144750 -0.020737 268657.000000 0 1 0
11.397222 -7.079274 -17.707154 22.216122 -0.555819 2.493175 0.140715 -0.018953 -690641.000000 0 1 0
9.911922 -6.926874 -17.953554 21.646198 -0.609949 2.548845 0.117226 -0.014222 -759623.000000 0 1 0
9.608222 -6.616874 -19.281054 22.535749 -0.603080 2.597459 0.113843 -0.022992 -880832.000000 0 1 0
8.249122 -6.408774 -19.408254 22.040888 -0.660498 2.647832 0.101185 -0.030860 -1041680.000000 0 1 0
7.741222 -6.075774 -20.796854 23.007622 -0.665441 2.699624 0.110791 -0.045432 -29153.200000 0 1 0
7.811122 -7.122374 -21.757654 24.189612 -0.739310 2.689335 0.109799 -0.039676 102978.000000 0 1 0
6.959822 -6.769674 -22.830254 24.809033 -0.771549 2.739489 0.120459 -0.043918 68912.200000 0 1 0
6.874322 -7.864874 -23.969654 26.146833 -0.852503 2.730620 0.104867 -0.040038 -269942.000000 0 0 1
6.187322 -9.030774 -23.671754 26.080448 -0.970115 2.708432 0.110721 -0.031675 -132253.000000 0 0 1
6.294622 -9.905374 -24.766854 27.406856 -1.004700 2.699069 0.100305 -0.018823 -150695.000000 0 0 1
5.414422 -11.167374 -24.642454 27.591244 -1.119348 2.675044 0.100649 -0.024513 -149405.000000 0 0 1
5.960122 -12.009174 -23.709554 27.237589 -1.110115 2.626956 0.086407 -0.019660 -340143.000000 0 0 1
5.167622 -13.137774 -23.441554 27.364427 -1.196044 2.599524 0.097236 -0.021371 -722869.000000 0 0 1
5.812022 -14.237874 -22.550054 27.294717 -1.183234 2.543071 0.097889 -0.013532 -249872.000000 0 0 1
6.878122 -15.015974 -23.040054 28.348406 -1.141265 2.519646 0.087446 -0.009830 301783.000000 0 0 1
8.121222 -14.366874 -23.316854 28.566361 -1.056302 2.525659 0.088443 -0.015016 622032.000000 0 0 1
9.004722 -13.987174 -22.085454 27.649473 -0.998803 2.496037 0.084529 -0.004009 24810.800000 0 0 1
9.637922 -15.007274 -21.261354 27.751630 -0.999912 2.443594 0.073971 0.002129 389834.000000 0 0 1
8.768422 -15.647774 -20.355954 27.131217 -1.060032 2.419279 0.082692 0.003442 -315458.000000 0 0 1
9.332722 -15.692274 -18.958654 26.320671 -1.034258 2.375024 0.082986 0.001717 161089.000000 0 0 1
10.538222 -16.454874 -18.935854 27.209990 -1.001177 2.340490 0.079092 -0.005019 -140129.000000 0 0 1
10.916922 -16.695674 -17.611854 26.610188 -0.991700 2.294075 0.060414 -0.007539 -66522.000000 0 0 1
10.028422 -17.618374 -16.653254 26.235610 -1.053330 2.258491 0.056458 -0.011587 -278663.000000 0 0 1
9.938222 -18.982574 -17.045454 27.379808 -1.088491 2.242800 0.040836 -0.016323 -138389.000000 0 0 1
9.176922 -19.278374 -18.167554 28.034472 -1.126515 2.275809 0.069459 -0.006862 -541775.000000 0 0 1
7.645422 -19.195274 -18.071854 27.450008 -1.191759 2.289428 0.084143 -0.010435 -512955.000000 0 0 1
7.073422 -17.921874 -17.946954 26.330971 -1.194884 2.320731 0.098874 -0.014025 -721478.000000 0 0 1
5.685722 -18.083774 -17.896054 26.069504 -1.266172 2.327426 0.093213 -0.007594 -336141.000000 0 0 1
4.942522 -16.810874 -17.406354 24.698485 -1.284846 2.352873 0.076346 0.008613 74486.400000 0 1 0
5.141622 -16.523374 -16.021054 23.582458 -1.269121 2.317691 0.051724 0.011833 172958.000000 0 1 0
4.475722 -15.327374 -15.639954 22.351032 -1.286687 2.345832 0.030054 0.018289 192148.000000 0 1 0
11.125322 29.489726 -17.972154 36.282435 1.210045 2.089023 0.098513 -0.026786 505842.000000 0 0 1
10.003022 29.403526 -18.909354 36.361951 1.242880 2.117684 0.132930 -0.036868 1064130.000000 0 0 1
9.128222 28.440226 -18.313654 35.036564 1.260221 2.120813 0.112985 -0.035897 -31171.100000 0 0 1
8.021122 27.810226 -19.156154 34.708865 1.289994 2.155449 0.128425 -0.037628 -187060.000000 0 0 1
7.089322 28.741526 -19.624154 35.516774 1.328966 2.156195 0.140299 -0.050489 -479946.000000 0 0 1
6.553922 28.208626 -20.836354 35.676801 1.342509 2.194482 0.121228 -0.043270 285127.000000 0 0 1
5.480622 29.153726 -21.459954 36.612929 1.384975 2.197071 0.119365 -0.050328 -385808.000000 0 0 1
4.304622 29.148226 -20.729854 36.026042 1.424176 2.183905 0.104602 -0.038908 -923998.000000 0 0 1
3.394922 30.108326 -21.212954 36.986838 1.458514 2.181601 0.100037 -0.051048 -698293.000000 0 0 1
1.993022 29.868426 -20.615954 36.347112 1.504168 2.173894 0.114384 -0.042351 -265262.000000 0 0 1
1.236722 28.710326 -20.895054 35.530488 1.527747 2.199489 0.111114 -0.051698 -189615.000000 0 0 1
0.664422 28.881526 -22.148354 36.402384 1.547795 2.224879 0.140325 -0.072701 -957347.000000 0 0 1
-0.135678 27.608626 -22.573854 35.662775 -1.565882 2.256194 0.142364 -0.062326 496814.000000 0 0 1
-1.283978 27.494026 -21.736754 35.072162 -1.524130 2.239249 0.152402 -0.061769 -28893.400000 0 0 1
-1.994878 26.326826 -21.957754 34.339835 -1.495167 2.264547 0.166260 -0.068131 219313.000000 0 0 1
-3.140878 25.939326 -20.981354 33.510162 -1.450297 2.247362 0.127650 -0.062567 1648330.000000 0 0 1
-4.435278 26.565626 -21.215354 34.285499 -1.405367 2.237991 0.117946 -0.058241 1307730.000000 0 0 1
-5.426678 26.096126 -20.340454 33.528953 -1.365769 2.222640 0.103283 -0.056996 70757.400000 0 0 1
-6.722778 26.898726 -20.183154 34.294269 -1.325884 2.200034 0.101884 -0.064528 313003.000000 0 0 1
-7.752878 26.223726 -19.466254 33.566739 -1.283341 2.189435 0.102823 -0.050824 501809.000000 0 0 1
-8.757478 27.029026 -18.844554 34.093678 -1.257467 2.156431 0.102393 -0.063622 837550.000000 0 0 1
-9.916578 26.247026 -18.140954 33.411661 -1.209558 2.144746 0.110639 -0.060128 350805.000000 0 0 1
-9.613078 25.489026 -16.984954 32.102810 -1.210146 2.128312 0.112822 -0.061983 665577.000000 0 0 1
-10.835578 25.004426 -16.361654 31.785764 -1.161878 2.111510 0.083007 -0.045867 1124030.000000 0 0 1
-10.537778 24.095326 -15.101554 30.326332 -1.158523 2.092051 0.080240 -0.030037 -448752.000000 0 0 1
-10.004578 22.825326 -15.335054 29.261766 -1.157706 2.122413 0.082972 -0.029023 -360485.000000 0 0 1
-9.938178 22.115126 -14.116454 28.055667 -1.148455 2.098046 0.088039 -0.019550 -320468.000000 0 0 1
-9.429378 20.682126 -14.175754 26.788346 -1.143031 2.128426 0.088486 -0.012016 174803.000000 0 0 1
-10.322978 19.615426 -14.565354 26.523166 -1.086356 2.152150 0.090538 -0.012538 -98554.600000 0 0 1
-10.793078 19.446426 -15.908254 27.344589 -1.064110 2.191699 0.110141 -0.005438 8860.780000 0 0 1
-9.763878 19.473926 -17.054954 27.666560 -1.106044 2.235018 0.116021 -0.022587 -638457.000000 0 0 1
-8.938778 18.386726 -16.985954 26.579994 -1.118287 2.264059 0.106494 -0.020793 -1105240.000000 0 0 1
-8.072078 18.391826 -18.063554 27.013139 -1.157216 2.303249 0.117000 -0.030393 -222889.000000 0 0 1
-7.189178 17.118926 -18.090054 25.922808 -1.173207 2.343178 0.095936 -0.031635 111107.000000 0 0 1
-7.914178 15.965326 -18.537154 25.712875 -1.110586 2.375938 0.101618 -0.036352 70775.700000 0 0 1
-7.429778 15.275926 -19.654854 25.978237 -1.118111 2.428877 0.086381 -0.038019 422529.000000 0 0 1
-6.066878 14.500526 -19.587154 25.114316 -1.174538 2.465334 0.055199 -0.029647 32217.200000 0 0 1
-6.178678 13.360826 -18.745554 23.834503 -1.137640 2.475898 0.042253 -0.022663 -797806.000000 0 1 0
-5.069878 12.697126 -18.258754 22.810146 -1.190899 2.498869 0.036120 -0.015840 -719175.000000 0 1 0
-4.429678 13.410826 -17.042354 22.134004 -1.251773 2.449579 0.023014 -0.006675 -186641.000000 0 1 0
-3.761678 14.604126 -17.327254 22.970948 -1.318700 2.425401 0.037856 -0.020197 -561130.000000 0 1 0
-3.212778 15.165726 -16.181654 22.409086 -1.362038 2.377633 0.025918 -0.010814 -85741.800000 0 1 0
-2.482278 16.498426 -16.410054 23.401915 -1.421461 2.347913 0.060066 -0.019392 470436.000000 0 1 0
-3.348478 17.619026 -16.570554 24.417732 -1.382987 2.316689 0.068584 -0.026546 205192.000000 0 1 0
-2.506778 18.716026 -16.929354 25.360927 -1.437651 2.301692 0.085546 -0.026952 371697.000000 0 0 1
-3.146578 20.058426 -17.396054 26.736943 -1.415194 2.279220 0.095220 -0.026240 137865.000000 0 0 1
-3.766178 19.917726 -18.673054 27.560531 -1.383916 2.315194 0.104681 -0.033310 -189498.000000 0 0 1
-4.165678 21.116326 -19.323154 28.924667 -1.376024 2.302383 0.136448 -0.039475 243905.000000 0 0 1
-3.079378 22.242926 -19.514354 29.749628 -1.433228 2.286241 0.117492 -0.043751 721509.000000 0 0 1
-2.001578 21.702826 -20.296354 29.781890 -1.478830 2.320607 0.143791 -0.045592 912404.000000 0 0 1
-0.738978 22.388226 -20.194854 30.159756 -1.537801 2.304461 0.143894 -0.048285 1076600.000000 0 0 1
0.205122 21.922826 -19.079454 29.063344 1.561440 2.286937 0.148171 -0.043520 -186343.000000 0 0 1
-0.252278 22.358526 -17.807254 28.584360 -1.559514 2.243333 0.136994 -0.036114 -39425.800000 0 0 1
0.662622 21.966326 -16.793354 27.658187 1.540640 2.223296 0.139661 -0.039207 229159.000000 0 0 1
0.075922 22.188126 -15.381254 26.998179 1.567375 2.176955 0.132954 -0.042609 735214.000000 0 0 1
-1.039778 21.321126 -15.073054 26.131753 -1.522067 2.185614 0.114203 -0.029115 492519.000000 0 0 1
-1.282478 21.284026 -13.665454 25.325859 -1.510614 2.140740 0.136704 -0.033038 -330080.000000 0 0 1
-2.090078 20.155026 -13.178854 24.171795 -1.467466 2.147443 0.079900 -0.026285 -503649.000000 0 1 0
-1.356178 18.917326 -13.170454 23.090373 -1.499229 2.177774 0.072222 -0.022849 -197850.000000 0 1 0
-2.200378 17.883026 -12.807854 22.106230 -1.448369 2.188761 0.055452 -0.016554 -280689.000000 0 1 0
-1.641978 16.415226 -12.929054 20.959871 -1.471100 2.235528 0.027855 -0.009566 -585491.000000 0 1 0
-0.639278 16.163626 -11.981054 20.130006 -1.531267 2.208291 0.019664 -0.012652 -145665.000000 0 1 0
-0.269378 14.776226 -11.893754 18.970261 -1.552568 2.248452 0.012983 -0.010529 392618.000000 0 1 0
0.484122 14.056926 -13.067454 19.198695 1.536370 2.319436 0.022340 -0.010537 429905.000000 0 1 0
-0.350078 13.860726 -14.216554 19.858315 -1.545545 2.368708 0.022346 -0.017667 339354.000000 0 1 0
0.410322 13.055226 -15.071054 19.943519 1.539377 2.427498 0.025292 -0.016662 -531788.000000 0 1 0
-0.173178 12.772826 -16.439054 20.818683 -1.557239 2.481002 0.024059 -0.011253 -270345.000000 0 1 0
-0.292578 14.003026 -17.130354 22.127344 -1.549905 2.456201 0.038324 -0.019804 -146870.000000 0 1 0
-0.414378 13.811326 -18.536854 23.120108 -1.540803 2.501036 0.044073 -0.019304 -282809.000000 0 1 0
-0.901078 15.017626 -19.317154 24.484556 -1.510867 2.479899 0.051448 -0.022008 -2054.710000 0 1 0
0.053822 16.056626 -19.230154 25.052285 1.567444 2.445886 0.064621 -0.029483 -170839.000000 0 0 1
-0.472478 17.205426 -19.822954 26.252608 -1.543342 2.426580 0.108031 -0.039997 -56975.400000 0 0 1
0.562922 18.296226 -20.128854 27.207343 1.540039 2.403616 0.137723 -0.040469 -71210.100000 0 0 1
1.222822 18.216026 -21.342754 28.086154 1.503768 2.433960 0.138607 -0.052270 -112879.000000 0 0 1
2.160722 19.265626 -21.532254 28.973627 1.459109 2.408588 0.145824 -0.048236 -21330.500000 0 0 1
2.793322 19.209626 -22.908054 30.026510 1.426396 2.438626 0.155390 -0.061518 204102.000000 0 0 1
3.845622 18.228926 -22.974254 29.578690 1.362882 2.460232 0.127266 -0.053629 394719.000000 0 0 1
4.152722 17.849326 -24.327654 30.457812 1.342208 2.495983 0.125783 -0.062488 340759.000000 0 0 1
5.182422 16.692626 -24.375554 29.994481 1.269769 2.519512 0.087348 -0.050163 -1217630.000000 0 0 1
6.437322 16.995026 -23.875554 30.005201 1.208719 2.490982 0.084639 -0.039957 -827741.000000 0 0 1
7.374522 15.957326 -23.935754 29.697477 1.137893 2.508136 0.088006 -0.039022 -2932.120000 0 0 1
7.842822 15.546626 -25.385534 30.783645 1.103578 2.540368 0.077661 -0.041386 -1090220.000000 0 0 1
8.854322 16.419626 -25.906834 31.924398 1.076242 2.517521 0.068659 -0.036983 298927.000000 0 0 1
9.007522 16.514726 -27.319024 33.169274 1.071473 2.538569 0.074940 -0.043026 16473.100000 0 0 1
9.649422 15.287226 -27.994914 33.324553 1.007745 2.568206 0.088477 -0.048565 298787.000000 0 0 1
10.919722 14.928126 -27.439014 33.090615 0.939250 2.548486 0.079402 -0.039405 593743.000000 0 0 1
11.263222 13.529126 -27.642394 32.771930 0.876540 2.574521 0.076619 -0.030886 -10851.800000 0 0 1
10.503322 12.511226 -26.737544 31.332839 0.872423 2.593154 0.082861 -0.031731 1819700.000000 0 0 1
9.075022 12.537526 -27.063574 31.176636 0.944256 2.622102 0.090811 -0.039686 1388970.000000 0 0 1
8.293722 11.571926 -26.399644 29.993941 0.948943 2.647008 0.111507 -0.044476 1180220.000000 0 0 1
6.732122 11.749326 -26.489744 29.750205 1.050482 2.669031 0.091476 -0.048125 673421.000000 0 0 1
6.209222 12.668626 -25.545314 29.182385 1.115079 2.636992 0.099172 -0.036455 894010.000000 0 0 1
4.778222 12.837126 -25.672914 29.098483 1.214466 2.651473 0.119898 -0.048462 978950.000000 0 0 1
4.342322 13.841526 -26.716214 30.400653 1.266803 2.644146 0.133277 -0.039960 -847542.000000 0 0 1
4.293322 13.293826 -27.993754 31.285918 1.258414 2.678716 0.130479 -0.049933 273349.000000 0 0 1
4.151822 14.258726 -28.999504 32.580978 1.287453 2.668305 0.121604 -0.064135 -116020.000000 0 0 1
4.075422 13.532726 -30.325644 33.457263 1.278282 2.705477 0.149908 -0.056739 7206.280000 0 0 1
5.289222 12.881726 -30.638474 33.654581 1.181187 2.714999 0.140002 -0.053854 -336688.000000 0 0 1
5.591622 13.045526 -31.963864 34.973427 1.165860 2.723702 0.139983 -0.055243 -1080170.000000 0 0 1
6.822522 12.229326 -32.371714 35.270825 1.061922 2.733311 0.139459 -0.049065 -804941.000000 0 0 1
8.042222 12.703826 -31.916194 35.280419 1.006426 2.701338 0.152012 -0.044029 -595506.000000 0 0 1
8.275222 12.560126 -30.477744 33.987188 0.988226 2.683149 0.134783 -0.038626 -1061360.000000 0 0 1
8.537122 11.105726 -29.977954 33.089233 0.915426 2.704469 0.144400 -0.036818 58159.100000 0 0 1
9.705222 10.483826 -30.489054 33.670230 0.823945 2.703399 0.125300 -0.034642 36011.200000 0 0 1
9.716022 9.161326 -29.989954 32.828773 0.756022 2.722667 0.118780 -0.037748 -153238.000000 0 0 1
10.889922 8.259026 -30.407324 33.337775 0.648862 2.719169 0.095247 -0.026231 -824587.000000 0 0 1
12.031122 8.496126 -29.686004 33.138963 0.614861 2.681032 0.093446 -0.027196 -1015590.000000 0 0 1
12.943222 7.438026 -29.783854 33.315600 0.521583 2.676971 0.067905 -0.022365 -475671.000000 0 0 1
13.852022 7.309926 -28.517454 32.535499 0.485573 2.639345 0.077077 -0.002164 375743.000000 0 0 1
14.718622 6.213126 -28.345824 32.538078 0.399435 2.628353 0.080719 -0.007691 1239920.000000 0 0 1
15.723122 5.979626 -29.392184 33.865513 0.363416 2.621773 0.061559 -0.001981 -172556.000000 0 0 1
16.604822 4.785326 -29.083694 33.830175 0.280586 2.605472 0.082852 -0.012516 -402223.000000 0 0 1
17.464122 4.970926 -27.999174 33.371536 0.277303 2.566264 0.075500 -0.021713 574335.000000 0 0 1
18.430822 3.916026 -27.813804 33.595210 0.209358 2.546167 0.071147 -0.022622 247247.000000 0 0 1
19.165722 4.047526 -26.511174 32.962854 0.208128 2.505249 0.086154 -0.025606 -108679.000000 0 0 1
20.201822 5.021826 -26.474544 33.678388 0.243644 2.475268 0.126334 -0.028099 534869.000000 0 0 1
20.651422 5.281926 -25.135434 32.957094 0.250398 2.438230 0.135756 -0.033140 127171.000000 0 0 1
21.568422 6.528126 -25.033254 33.681999 0.293905 2.408672 0.127266 -0.023976 10550.100000 0 0 1
20.941522 7.757626 -25.394584 33.817348 0.354769 2.420271 0.136458 -0.021074 623201.000000 0 0 1
21.869422 8.591726 -26.096204 35.115541 0.374340 2.408566 0.143949 -0.033644 13897.200000 0 0 1
22.237422 8.364326 -27.594974 36.413562 0.359767 2.430764 0.175295 -0.039124 -174363.000000 0 0 1
21.139422 8.554726 -28.439464 36.453554 0.384535 2.465712 0.144867 -0.019652 209445.000000 0 0 1
20.176622 7.507626 -28.480124 35.701232 0.356222 2.494326 0.126487 -0.010883 370853.000000 0 0 1
18.767522 7.953026 -29.011414 35.456067 0.400824 2.529131 0.113563 0.006689 200551.000000 0 0 1
18.662222 8.171226 -30.429294 36.619522 0.412703 2.551624 0.076376 0.007363 393806.000000 0 0 1
17.531322 8.985126 -30.717424 36.491641 0.473612 2.571343 0.058197 0.009598 360175.000000 0 0 1
16.847522 8.776426 -32.124624 37.320988 0.480253 2.607568 0.030359 0.013372 91756.200000 0 0 1
16.263922 7.504526 -32.226594 36.869858 0.432311 2.634301 0.048772 0.009510 280849.000000 0 0 1
15.221722 7.563926 -33.186274 37.285957 0.461178 2.668246 0.044550 0.011058 312830.000000 0 0 1
14.420622 6.287126 -33.549904 37.055072 0.411135 2.703133 0.062243 0.001016 244159.000000 0 0 1
13.874022 5.638126 -32.430074 35.720955 0.385994 2.708978 0.065038 0.001343 178769.000000 0 0 1
13.062422 4.517226 -32.682674 35.485059 0.332945 2.741504 0.071700 -0.016995 41491.000000 0 0 1
12.778622 3.630726 -31.465704 34.155027 0.276830 2.742107 0.084991 -0.022929 137656.000000 0 0 1
13.948222 2.954126 -31.036674 34.154866 0.208708 2.710966 0.081946 -0.027862 371003.000000 0 0 1
13.708522 1.941026 -30.125554 33.154791 0.140658 2.710796 0.093758 -0.031002 -437269.000000 0 0 1
13.118922 0.651326 -30.725804 33.415646 0.049607 2.737612 0.102908 -0.029374 141870.000000 0 0 1
13.950822 -0.318774 -31.411174 34.371338 -0.022846 2.723529 0.102288 -0.034076 183260.000000 0 0 1
14.978322 -0.878474 -30.618394 34.097037 -0.058583 2.685949 0.106376 -0.035283 111897.000000 0 0 1
15.460922 -2.173974 -31.291584 34.970409 -0.139695 2.678783 0.120632 -0.038981 353032.000000 0 0 1
14.604622 -3.268074 -30.901014 34.334355 -0.220143 2.690572 0.128954 -0.040306 435358.000000 0 0 1
14.727822 -4.417474 -31.810454 35.331683 -0.291402 2.691342 0.120208 -0.039518 -475089.000000 0 0 1
13.642722 -5.434474 -31.525924 34.778460 -0.379077 2.705664 0.127078 -0.045519 -428453.000000 0 0 1
13.960722 -6.221474 -30.361374 33.991492 -0.419223 2.675220 0.132441 -0.031772 115053.000000 0 0 1
13.526722 -7.517474 -30.482524 34.185800 -0.507247 2.671822 0.146095 -0.044708 -180769.000000 0 0 1
13.917022 -8.367674 -29.221504 33.430492 -0.541342 2.634371 0.119563 -0.037554 -344023.000000 0 0 1
15.302922 -8.560574 -29.102224 33.976496 -0.510037 2.599324 0.139613 -0.034201 -32028.300000 0 0 1
15.701922 -9.488674 -28.026254 33.497107 -0.543575 2.561984 0.141014 -0.040784 155660.000000 0 0 1
15.622622 -10.968474 -28.292724 34.129928 -0.612127 2.548062 0.108638 -0.027843 -287962.000000 0 0 1
14.298122 -11.440374 -28.327914 33.731131 -0.674821 2.567739 0.091489 -0.028979 -159478.000000 0 0 1
14.200122 -12.659174 -28.949804 34.640862 -0.728090 2.560225 0.093124 -0.026454 111055.000000 0 0 1
-10.317178 -2.885174 -17.658854 20.654382 0.272682 2.596287 0.037410 0.004934 457907.000000 0 1 0
-11.283278 -2.410974 -18.589254 21.878883 0.210511 2.586106 0.057859 -0.000075 421487.000000 0 1 0
-12.352678 -3.327274 -18.762954 22.709202 0.263112 2.543173 0.066322 -0.008272 225681.000000 0 1 0
-13.345678 -3.049574 -19.923554 24.173436 0.224649 2.539570 0.070224 -0.017111 -87778.000000 0 1 0
-14.079678 -1.884474 -19.736654 24.317156 0.133053 2.517742 0.049695 -0.008462 -296117.000000 0 1 0
-14.735878 -1.582074 -20.950054 25.662303 0.106952 2.525902 0.046022 -0.003368 -36480.400000 0 0 1
-15.591078 -0.330474 -20.968354 26.131643 0.021193 2.502123 0.049951 0.001666 116684.000000 0 0 1
-14.789978 0.840626 -21.107554 25.787185 -0.056776 2.529642 0.047707 -0.000145 309291.000000 0 0 1
-15.494678 1.985726 -20.615354 25.865440 -0.127461 2.493146 0.046200 0.003006 155554.000000 0 0 1
-15.002778 3.351926 -21.213754 26.198132 -0.219810 2.514510 0.071222 -0.014213 1258070.000000 0 0 1
-13.740078 3.902326 -20.744354 25.186229 -0.276724 2.538594 0.084898 -0.016501 1235060.000000 0 0 1
-13.286078 4.998926 -21.537754 25.795038 -0.359869 2.558851 0.104514 -0.026421 -529660.000000 0 0 1
-12.031978 5.667726 -21.022454 24.876398 -0.440225 2.577504 0.084692 -0.024041 -800522.000000 0 1 0
-12.247678 6.332726 -19.775754 24.107872 -0.477199 2.532737 0.091780 -0.029638 160792.000000 0 1 0
-11.151778 6.493726 -18.909954 22.893601 -0.527306 2.542758 0.068479 -0.023198 -108791.000000 0 1 0
-11.712078 7.026826 -17.579954 22.262162 -0.540393 2.481081 0.087448 -0.021950 104293.000000 0 1 0
-12.051878 8.373126 -17.480854 22.824050 -0.607198 2.443230 0.086599 -0.032017 219596.000000 0 1 0
-13.164378 8.490826 -16.607354 22.829787 -0.572842 2.385383 0.099260 -0.030103 248451.000000 0 1 0
-13.850378 9.918026 -16.727754 23.875049 -0.621439 2.347087 0.115442 -0.032468 247948.000000 0 1 0
-13.162378 10.903426 -15.951354 23.379020 -0.691807 2.321692 0.085413 -0.017930 542105.000000 0 1 0
-13.826778 12.126826 -16.134054 24.465228 -0.719992 2.290908 0.098103 -0.021373 163287.000000 0 1 0
-13.072778 13.288826 -15.425654 24.195893 -0.793594 2.262087 0.102777 -0.014773 27226.300000 0 1 0
-13.107978 13.136826 -14.051154 23.277247 -0.786497 2.218859 0.108392 -0.018052 253216.000000 0 1 0
-12.498578 14.274626 -13.373454 23.212683 -0.851638 2.184779 0.098390 -0.023226 -439734.000000 0 1 0
-13.113578 14.474326 -11.958854 22.901664 -0.834682 2.120205 0.085321 -0.027699 641561.000000 0 1 0
-14.454978 14.923526 -11.814754 23.900762 -0.801345 2.087855 0.090254 -0.022478 572791.000000 0 1 0
-15.454278 14.046726 -12.308754 24.241507 -0.737722 2.103374 0.085902 -0.015380 -128294.000000 0 1 0
-16.855778 14.245226 -11.648554 24.954609 -0.701657 2.056454 0.061661 -0.018581 708089.000000 0 1 0
-17.934178 13.555126 -12.259454 25.606062 -0.647220 2.070051 0.058650 -0.018625 -136216.000000 0 0 1
-19.129478 13.968026 -11.644754 26.393995 -0.630697 2.027720 0.136191 -0.019992 -555698.000000 0 0 1
-20.431478 13.550226 -12.309854 27.433309 -0.585601 2.036128 0.133718 -0.028688 -573388.000000 0 0 1
-20.935878 12.296726 -11.877954 27.029729 -0.531067 2.025772 0.138486 -0.036947 -501812.000000 0 0 1
-21.970378 11.888326 -12.669354 28.009683 -0.495990 2.040162 0.192452 -0.041410 -1017550.000000 0 0 1
-22.529478 10.521626 -12.138854 27.670088 -0.436914 2.024947 0.181905 -0.037906 -829253.000000 0 0 1
-21.642078 9.488126 -12.188454 26.588766 -0.413175 2.046997 0.160153 -0.037129 -195221.000000 0 0 1
-22.090378 8.386626 -11.429354 26.247865 -0.362842 2.021323 0.147212 -0.037727 411296.000000 0 0 1
-20.938278 7.323726 -11.263354 24.877934 -0.336476 2.040638 0.148339 -0.040712 198646.000000 0 1 0
-20.711378 6.499026 -12.400054 24.999197 -0.304060 2.089803 0.149088 -0.037745 1573700.000000 0 1 0
-19.528378 5.636926 -12.343754 23.780259 -0.281015 2.116565 0.143225 -0.041199 1019460.000000 0 1 0
-19.746478 4.411126 -13.278154 24.201049 -0.219780 2.151557 0.163563 -0.052571 -473178.000000 0 1 0
-20.691978 3.550326 -12.715754 24.544921 -0.169925 2.115378 0.158715 -0.052071 170976.000000 0 1 0
-20.947978 2.524526 -13.626254 25.117042 -0.119936 2.144219 0.144514 -0.051381 136510.000000 0 0 1
-21.983878 1.484726 -13.076654 25.622142 -0.067435 2.106406 0.162701 -0.048382 -216692.000000 0 0 1
-22.920578 1.094326 -13.990954 26.875588 -0.047708 2.118329 0.130347 -0.037971 -415124.000000 0 0 1
-23.466278 -0.166874 -13.849554 27.248930 0.007111 2.103960 0.115892 -0.035841 360324.000000 0 0 1
-24.701978 -0.542474 -14.751354 28.776456 0.021957 2.109028 0.115352 -0.030545 965373.000000 0 0 1
-25.939788 -0.014874 -14.280154 29.610735 0.000573 2.074032 0.146148 -0.046393 804902.000000 0 0 1
-27.046418 -0.491174 -15.065554 30.963218 0.018158 2.078948 0.156618 -0.037989 758616.000000 0 0 1
-28.419778 -0.055574 -14.495554 31.903102 0.001955 2.042452 0.158932 -0.046321 -170804.000000 0 0 1
-28.734438 -0.726474 -13.269754 31.658838 0.025277 2.003304 0.177547 -0.044698 -844954.000000 0 0 1
-29.921128 -0.390074 -12.674454 32.497197 0.013036 1.971446 0.204634 -0.048768 -856246.000000 0 0 1
-30.165618 -0.986374 -11.259654 32.213619 0.032687 1.927867 0.203954 -0.057122 -91570.500000 0 0 1
-30.561188 -2.354074 -11.129654 32.609769 0.076876 1.919094 0.229636 -0.047176 1316020.000000 0 0 1
-29.474988 -3.310474 -11.355554 31.759766 0.111846 1.936434 0.224824 -0.052904 775548.000000 0 0 1
-29.797538 -4.711574 -10.892754 32.074044 0.156821 1.917301 0.235393 -0.051214 -38892.600000 0 0 1
-30.958128 -5.236374 -11.510154 33.441126 0.167558 1.922174 0.226412 -0.039878 398176.000000 0 0 1
-31.364608 -6.569574 -11.094954 33.911590 0.206473 1.904107 0.240120 -0.043114 62302.800000 0 0 1
-30.474768 -7.750174 -11.590954 33.513085 0.249035 1.923955 0.231444 -0.049514 971625.000000 0 0 1
-29.136768 -7.739974 -11.036754 32.104024 0.259646 1.921737 0.179693 -0.040281 651538.000000 0 0 1
-28.415638 -8.696774 -11.756054 31.957584 0.297003 1.947508 0.162386 -0.039525 -297338.000000 0 0 1
-26.925848 -8.694474 -11.344154 30.484176 0.312335 1.952102 0.166314 -0.046797 -419646.000000 0 0 1
-26.222388 -7.504474 -11.696554 29.677266 0.278735 1.975912 0.142786 -0.033264 1043600.000000 0 0 1
-24.815178 -7.670674 -11.462654 28.390575 0.299795 1.986407 0.146735 -0.032836 829852.000000 0 0 1
-24.274878 -7.467574 -10.000654 27.295557 0.298438 1.945916 0.144853 -0.038292 -678621.000000 0 0 1
-24.451178 -6.189274 -9.394154 26.915002 0.247920 1.927333 0.149025 -0.026414 589603.000000 0 0 1
-25.773728 -5.926674 -8.954354 27.921156 0.226021 1.897266 0.161056 -0.038899 -90745.900000 0 0 1
-25.997248 -4.501674 -8.416354 27.693988 0.171459 1.879586 0.165104 -0.043003 -258015.000000 0 0 1
-25.703258 -4.398974 -7.063654 27.016729 0.169502 1.835325 0.160910 -0.039924 248535.000000 0 0 1
-26.207748 -3.207874 -6.600354 27.215826 0.121796 1.815758 0.211007 -0.054670 -141470.000000 0 0 1
-25.943538 -3.104474 -5.107654 26.623167 0.119096 1.763843 0.204659 -0.049524 1258770.000000 0 0 1
-24.516378 -2.984674 -4.888254 25.176499 0.121146 1.766197 0.144549 -0.039404 1325330.000000 0 0 1
-24.279778 -2.728674 -3.508954 24.683315 0.111915 1.713438 0.122687 -0.029103 -788221.000000 0 1 0
-22.924778 -3.058474 -2.927054 23.312386 0.132630 1.696686 0.101357 -0.021152 -824808.000000 0 1 0
-22.684878 -4.431174 -2.953754 23.301580 0.192907 1.697900 0.108974 -0.018643 885165.000000 0 1 0
-21.345178 -4.662774 -2.493254 21.990325 0.215068 1.684420 0.074126 -0.014811 376252.000000 0 1 0
-21.028378 -6.161674 -2.627954 22.069550 0.285038 1.690156 0.072735 -0.011661 -308402.000000 0 1 0
-21.678878 -6.961374 -1.677954 22.830900 0.310712 1.644358 0.083601 -0.010757 384941.000000 0 1 0
-22.380078 -8.104774 -2.128154 23.897370 0.347451 1.659968 0.095348 -0.016574 14347.800000 0 1 0
-22.756378 -9.047274 -0.996854 24.509174 0.378411 1.611480 0.107650 -0.015752 -633554.000000 0 1 0
-21.652378 -9.552974 -0.337154 23.668512 0.415510 1.585042 0.066634 -0.005403 -221762.000000 0 1 0
-22.076578 -10.373674 0.738346 24.403556 0.439275 1.540536 0.042322 0.003309 -640114.000000 0 1 0
-20.974378 -10.919874 1.604046 23.701079 0.480014 1.503066 0.060259 -0.002261 -797801.000000 0 1 0
-20.325778 -12.011974 0.988746 23.630539 0.533755 1.528942 0.053580 0.006113 461202.000000 0 1 0
-19.433178 -12.630874 1.900246 23.255071 0.576350 1.488992 0.042269 -0.002186 -147089.000000 0 1 0
-18.618678 -13.789574 1.277246 23.204286 0.637478 1.515725 0.040216 0.000360 -83442.100000 0 1 0
-19.453778 -14.909174 1.056346 24.532607 0.653908 1.527724 0.067846 0.002571 555431.000000 0 1 0
-18.795378 -15.918074 0.326946 24.632462 0.702700 1.557523 0.059383 -0.008195 436918.000000 0 1 0
-17.742878 -16.783974 1.136746 24.450024 0.757633 1.524287 0.068731 -0.001549 60636.800000 0 1 0
-16.453478 -16.248674 1.113746 23.151172 0.779136 1.522670 0.075689 -0.000596 -335121.000000 0 1 0
-15.476278 -16.892974 1.887246 22.988028 0.829137 1.488607 0.092800 -0.003671 243989.000000 0 1 0
-15.403678 -16.624374 3.421346 22.920487 0.823493 1.420966 0.100077 -0.023556 -193069.000000 0 1 0
-15.260578 -15.222474 3.639046 21.859817 0.784148 1.403546 0.080632 -0.014615 488217.000000 0 1 0
-14.428278 -14.909574 4.773046 21.289729 0.801802 1.344680 0.066140 -0.020186 223871.000000 0 1 0
-14.950678 -15.303974 6.214946 22.279137 0.797075 1.288087 0.088157 -0.021575 -345038.000000 0 1 0
-16.022378 -14.489974 6.671046 22.609263 0.735218 1.271280 0.082341 -0.020570 209236.000000 0 1 0
-16.371878 -14.675274 8.013346 23.401191 0.730806 1.221291 0.092657 -0.019636 -264574.000000 0 1 0
-17.197978 -15.885174 8.455546 24.891875 0.745737 1.224208 0.075904 -0.007690 -477148.000000 0 1 0
-16.586278 -17.145574 8.104246 25.194327 0.801977 1.243304 0.075805 -0.003804 -121932.000000 0 0 1
-17.226478 -18.325074 8.491646 26.545582 0.816290 1.245184 0.091769 -0.012551 -372500.000000 0 0 1
-17.018578 -18.758474 9.911846 27.198475 0.833992 1.197779 0.105651 -0.015735 -380183.000000 0 0 1
-15.732278 -19.228274 10.186746 26.851459 0.885065 1.181677 0.067685 -0.011315 -345144.000000 0 0 1
-15.502478 -19.633274 11.553246 27.554850 0.902428 1.138142 0.070730 -0.009999 -459073.000000 0 0 1
-14.169878 -20.306974 11.818846 27.437998 0.961559 1.125476 0.062236 -0.004268 -711599.000000 0 0 1
-13.043378 -19.488974 11.845546 26.272928 0.980994 1.103062 0.065714 -0.009369 -711319.000000 0 0 1
-11.923678 -20.249274 12.216846 26.485062 1.038620 1.091367 0.063131 -0.007957 569192.000000 0 0 1
-10.621078 -19.452974 12.584146 25.486981 1.071039 1.054402 0.090414 -0.012948 1117190.000000 0 0 1
-9.892278 -19.010074 11.388246 24.267926 1.090986 1.082331 0.088233 -0.009994 687809.000000 0 1 0
-8.800778 -18.181074 11.810846 23.398744 1.119980 1.041688 0.083027 -0.011533 797829.000000 0 1 0
-7.874178 -17.471774 10.760146 21.978314 1.147377 1.059188 0.056607 -0.011874 342416.000000 0 1 0
-6.788378 -18.286374 10.365946 22.089056 1.215338 1.082321 0.051460 -0.008459 -467038.000000 0 1 0
-6.055778 -17.437874 9.527046 20.772975 1.236549 1.094347 0.045091 -0.003870 -117759.000000 0 1 0
-4.902178 -18.110374 8.745746 20.700364 1.306448 1.134603 0.039099 -0.013309 345343.000000 0 1 0
-3.692178 -18.282974 9.438046 20.903971 1.371530 1.102356 0.044751 -0.011550 43269.200000 0 1 0
-2.650478 -18.825974 8.647146 20.885772 1.430927 1.143929 0.049369 -0.015108 259032.000000 0 1 0
-1.309578 -19.056974 9.353546 21.269040 1.502185 1.115451 0.051315 -0.014630 298123.000000 0 1 0
-0.269378 -19.389274 8.417046 21.139138 1.556904 1.161271 0.055115 -0.017027 43143.800000 0 1 0
0.857222 -19.809174 9.144946 21.835023 -1.527549 1.138651 0.062441 -0.013566 -36258.400000 0 1 0
2.022022 -20.349274 8.268046 22.057699 -1.471756 1.186575 0.071130 -0.026235 371463.000000 0 1 0
1.809622 -21.662474 7.769446 23.084666 -1.487453 1.227532 0.076646 -0.023558 -44354.200000 0 1 0
2.096322 -22.674674 8.760046 24.398234 -1.478606 1.203553 0.084139 -0.025226 -2355.550000 0 1 0
1.943522 -24.115374 8.209946 25.548615 -1.490377 1.243646 0.082946 -0.029018 85533.400000 0 0 1
2.115322 -25.052604 9.254346 26.790865 -1.486561 1.218100 0.097691 -0.031225 88199.400000 0 0 1
1.613822 -26.300784 8.803346 27.781911 -1.509513 1.248365 0.106302 -0.030226 -729863.000000 0 0 1
1.518022 -27.425174 9.859746 29.183200 -1.515501 1.226157 0.139133 -0.034776 548237.000000 0 0 1
0.525322 -27.176384 10.853146 29.268115 -1.551469 1.190907 0.123022 -0.037523 203916.000000 0 0 1
-0.821078 -27.373714 10.451846 29.312718 1.540810 1.206209 0.099567 -0.023658 78317.300000 0 0 1
-1.728678 -27.374744 11.700146 29.820435 1.507731 1.167608 0.107148 -0.029692 67842.300000 0 0 1
-1.356678 -28.546534 12.467746 31.179959 1.523307 1.159428 0.111635 -0.038748 -48337.000000 0 0 1
-1.608178 -28.417814 13.856546 31.656946 1.514266 1.117747 0.101859 -0.044109 28404.800000 0 0 1
-1.186178 -29.591534 14.772246 33.095092 1.530733 1.108106 0.087090 -0.033137 165316.000000 0 0 1
-1.488378 -29.247524 16.101946 33.420137 1.519951 1.068084 0.098470 -0.040417 29394.900000 0 0 1
-0.981678 -30.197204 16.996746 34.665894 1.538299 1.058360 0.109265 -0.033155 -110720.000000 0 0 1
-1.455078 -29.961824 18.438746 35.211014 1.522270 1.019650 0.118101 -0.035158 -1141020.000000 0 0 1
-2.806378 -30.001544 18.684746 35.455439 1.477527 1.015739 0.107177 -0.036017 -1129230.000000 0 0 1
-3.061178 -29.606524 20.025746 35.874051 1.467767 0.978553 0.119727 -0.043567 187970.000000 0 0 1
-4.547678 -29.517954 20.460946 36.202780 1.417933 0.970150 0.148111 -0.046335 63760.100000 0 0 1
-5.253378 -28.475574 19.782846 35.068751 1.388360 0.971434 0.111374 -0.040760 -50148.100000 0 0 1
-6.466178 -28.170674 20.437846 35.399207 1.345169 0.955313 0.100240 -0.040605 115159.000000 0 0 1
-6.309278 -27.052224 21.463946 35.104569 1.341666 0.912931 0.137451 -0.045139 -329561.000000 0 0 1
-5.355578 -27.353884 22.461846 35.797370 1.377453 0.892494 0.168067 -0.048076 13719.900000 0 0 1
-5.483878 -26.476404 23.580846 35.876583 1.366561 0.853597 0.175812 -0.047132 -482518.000000 0 0 1
-4.624578 -26.884664 24.774646 36.850440 1.400448 0.833481 0.199424 -0.045336 -203286.000000 0 0 1
-4.996178 -28.093124 25.454446 38.237602 1.394793 0.842376 0.202348 -0.050650 120707.000000 0 0 1
-4.465278 -29.282654 24.910246 38.703138 1.419473 0.871573 0.215096 -0.046456 -149955.000000 0 0 1
-4.811378 -30.564154 25.682046 40.210500 1.414659 0.878002 0.220446 -0.037811 2433.510000 0 0 1
-4.264578 -30.524404 26.997946 40.973344 1.431984 0.851421 0.207302 -0.050836 197701.000000 0 0 1
-4.567778 -31.711544 27.672246 42.334853 1.427739 0.858397 0.182839 -0.046471 -29441.100000 0 0 1
-3.919078 -31.747624 29.090546 43.238070 1.447973 0.832810 0.193408 -0.050575 171922.000000 0 0 1
-2.507978 -31.843004 29.163046 43.252169 1.492198 0.830839 0.201295 -0.054972 261859.000000 0 0 1
-2.009778 -31.701344 30.492346 44.031779 1.507484 0.805837 0.196148 -0.055742 57660.800000 0 0 1
-29.100048 2.832126 -10.037154 30.912428 -0.097018 1.901487 0.202898 -0.044226 743303.000000 0 0 1
-30.088888 2.421626 -11.049154 32.144817 -0.080309 1.921683 0.197444 -0.060524 997296.000000 0 0 1
-30.630768 3.507026 -11.755554 32.996003 -0.113997 1.935071 0.180636 -0.060540 -328540.000000 0 0 1
-31.458878 3.059926 -12.933654 34.151187 -0.096962 1.959207 0.172783 -0.053938 -838454.000000 0 0 1
-32.611278 2.375626 -12.576354 35.032895 -0.072718 1.937979 0.160766 -0.049177 -648543.000000 0 0 1
-33.517648 2.308726 -13.619354 36.252582 -0.068772 1.955926 0.172092 -0.047823 -275295.000000 0 0 1
-34.877008 1.694926 -13.218454 37.336390 -0.048559 1.932680 0.167127 -0.049993 270018.000000 0 0 1
-34.645233 0.330426 -12.924054 36.978812 -0.009537 1.927833 0.199652 -0.049253 636614.000000 0 0 1
-35.910046 -0.305774 -12.774654 38.115832 0.008515 1.912564 0.188378 -0.052287 426021.000000 0 0 1
-35.763297 -1.775974 -12.369854 37.883780 0.049618 1.903417 0.216427 -0.053503 -146597.000000 0 0 1
-35.052618 -2.559674 -13.253354 37.561807 0.072894 1.931402 0.209770 -0.046931 -157437.000000 0 0 1
-35.107342 -3.903774 -12.865954 37.593852 0.110740 1.920091 0.223441 -0.049271 112089.000000 0 0 1
-34.428604 -4.837274 -13.877654 37.434172 0.139588 1.950582 0.228458 -0.044140 -16920.900000 0 0 1
-34.200583 -6.127074 -13.382054 37.233053 0.177271 1.938435 0.215958 -0.046768 -9342.530000 0 0 1
-34.932900 -7.113374 -14.045554 38.316905 0.200883 1.946108 0.214915 -0.042247 -573843.000000 0 0 1
-34.759999 -8.567074 -13.415954 38.231402 0.241648 1.929344 0.177501 -0.041193 685765.000000 0 0 1
-33.451148 -9.129374 -13.204254 37.103599 0.266428 1.934647 0.181468 -0.040743 1131850.000000 0 0 1
-32.781558 -9.537274 -14.417854 37.060284 0.283119 1.970383 0.187416 -0.040590 497317.000000 0 0 1
-31.663368 -10.628374 -14.144054 36.271000 0.323850 1.971379 0.163996 -0.042833 329013.000000 0 0 1
-32.133258 -11.907374 -13.595654 36.866972 0.354874 1.948488 0.149810 -0.038356 540220.000000 0 0 1
-31.096858 -12.824574 -13.216154 36.140711 0.391156 1.945166 0.156445 -0.043527 210135.000000 0 0 1
-31.226688 -14.128774 -14.006454 37.025789 0.424896 1.958744 0.166165 -0.037948 -195377.000000 0 0 1
-31.017438 -13.859374 -15.380454 37.292386 0.420211 1.995915 0.161062 -0.047553 46974.200000 0 0 1
-30.904078 -15.094474 -16.112254 37.980388 0.454349 2.008903 0.169705 -0.054245 520657.000000 0 0 1
-29.747828 -16.143674 -15.812054 37.357362 0.497209 2.007842 0.144894 -0.049020 840915.000000 0 0 1
-28.459188 -15.584474 -16.098254 36.220919 0.501005 2.031352 0.150646 -0.054841 -286061.000000 0 0 1
-27.548148 -16.651374 -16.073854 35.979682 0.543682 2.033924 0.158654 -0.051906 -167047.000000 0 0 1
-26.127548 -16.183574 -16.432854 34.851047 0.554567 2.061806 0.151812 -0.058342 80633.400000 0 0 1
-26.211138 -15.692674 -17.751354 35.332624 0.539465 2.097177 0.145768 -0.055738 241128.000000 0 0 1
-24.897578 -15.482974 -18.252354 34.536362 0.556343 2.127625 0.102175 -0.036851 -39286.300000 0 0 1
-24.970378 -15.168574 -19.814154 35.301644 0.545889 2.166730 0.115697 -0.037531 50325.400000 0 0 1
-25.565228 -16.094174 -20.699054 36.620406 0.561853 2.171512 0.115159 -0.038761 305382.000000 0 0 1
-26.979668 -15.981374 -20.688754 37.567690 0.534775 2.154006 0.136492 -0.051020 -153397.000000 0 0 1
-27.644398 -17.074574 -21.541054 38.984238 0.553297 2.156227 0.140080 -0.058615 -226550.000000 0 0 1
-27.379028 -16.879974 -22.944054 39.509167 0.552485 2.190418 0.131002 -0.043341 101953.000000 0 0 1
-27.990178 -17.844674 -23.795054 40.842221 0.567561 2.192732 0.125414 -0.031915 252831.000000 0 0 1
-27.201928 -18.094574 -25.151704 41.230652 0.586983 2.226888 0.109040 -0.021394 834790.000000 0 0 1
-25.896198 -18.664674 -25.118114 40.618995 0.624517 2.237480 0.093513 -0.018622 360220.000000 0 0 1
-25.895828 -20.040974 -24.853454 41.108742 0.658627 2.220033 0.078136 -0.009764 -1475520.000000 0 0 1
-24.543978 -20.675974 -24.758054 40.532259 0.700068 2.227897 0.055365 0.007191 -389099.000000 0 0 1
-23.759878 -20.618574 -25.992714 40.807825 0.714732 2.261337 0.041085 0.000796 48439.300000 0 0 1
-22.448078 -21.019674 -25.765914 40.120135 0.752549 2.268186 0.049391 0.003161 -259137.000000 0 0 1
-21.445578 -21.106374 -26.928444 40.379858 0.777427 2.300808 0.037937 -0.001838 -156431.000000 0 0 1
-21.721278 -22.122474 -27.831794 41.663251 0.794548 2.302338 0.070068 -0.004131 -186308.000000 0 0 1
-22.406278 -21.680774 -28.970454 42.560362 0.768943 2.319502 0.081364 -0.005897 186049.000000 0 0 1
-21.443678 -21.672274 -30.195544 42.910251 0.790700 2.351375 0.077920 -0.018212 461941.000000 0 0 1
-21.142478 -22.974674 -30.692434 43.782023 0.826905 2.347635 0.084057 -0.026476 -56405.600000 0 0 1
-20.412478 -22.988874 -31.880574 44.289147 0.844691 2.374351 0.089104 -0.028702 -88494.000000 0 0 1
-20.001778 -24.411674 -32.321864 45.174150 0.884366 2.368128 0.092612 -0.024804 -295703.000000 0 0 1
-19.183778 -24.374674 -33.456054 45.622907 0.904010 2.393984 0.096459 -0.027828 -542524.000000 0 0 1
-19.815978 -24.146974 32.878505 45.351355 0.883596 0.759801 0.098420 -0.020248 -710493.000000 0 0 1
-18.913278 -24.205974 31.602956 44.072532 0.907533 0.771211 0.107971 -0.015007 -113941.000000 0 0 1
-18.209078 -23.001174 31.441082 43.001932 0.901162 0.750783 0.090202 -0.016920 -129610.000000 0 0 1
-17.449178 -22.998174 30.244662 41.810637 0.921738 0.762122 0.096644 -0.014501 384427.000000 0 0 1
-16.626278 -21.701174 29.992452 40.582278 0.917041 0.739133 0.080396 -0.013080 755632.000000 0 0 1
-17.538178 -20.595774 29.818362 40.260506 0.865407 0.736781 0.088018 -0.018900 711883.000000 0 0 1
-16.843878 -19.385674 29.569552 39.164767 0.855441 0.715136 0.091192 -0.022644 -75985.400000 0 0 1
-16.354378 -18.652074 30.770272 39.524362 0.850941 0.678502 0.093994 -0.028519 -85549.800000 0 0 1
-15.929378 -17.355674 30.498712 38.537462 0.828223 0.657693 0.090846 -0.024501 -230596.000000 0 0 1
-15.435378 -16.759174 31.649338 38.997454 0.826494 0.623954 0.088409 -0.031413 -113296.000000 0 0 1
-14.985778 -15.299574 31.435392 38.037276 0.795759 0.598048 0.091839 -0.035130 71237.400000 0 0 1
-13.875978 -15.302674 30.539092 36.869374 0.834254 0.594720 0.109586 -0.041095 123856.000000 0 0 1
-13.385378 -14.032474 30.229942 35.915569 0.808995 0.570382 0.084221 -0.038373 -576951.000000 0 0 1
-11.879678 -13.972274 30.033672 35.190519 0.866167 0.548209 0.098955 -0.034072 -414203.000000 0 0 1
-11.409078 -12.634474 29.789692 34.310680 0.836320 0.519165 0.091573 -0.029947 993508.000000 0 0 1
-9.978378 -12.478974 29.949412 33.944957 0.896290 0.490084 0.106952 -0.024699 1422940.000000 0 0 1
-9.580078 -11.002274 29.827112 33.203683 0.854386 0.454895 0.096544 -0.017980 -60830.400000 0 0 1
-10.304378 -10.182274 30.732472 33.975635 0.779438 0.440486 0.083531 -0.022439 -20744.600000 0 0 1
-9.918678 -8.844874 30.779702 33.526140 0.728232 0.407585 0.061044 -0.017734 -243274.000000 0 0 1
-10.713978 -8.021874 31.809571 34.510703 0.642688 0.398277 0.041938 -0.021967 -175471.000000 0 0 1
-12.037978 -7.648074 31.535715 34.610797 0.565992 0.424724 0.062032 -0.029499 -418557.000000 0 0 1
-12.710478 -7.030174 32.599715 35.689228 0.505221 0.419156 0.052258 -0.027419 29024.900000 0 0 1
-12.352578 -5.519974 32.884196 35.558777 0.420246 0.390328 0.030448 -0.028315 -274711.000000 0 0 1
-12.824078 -4.594574 31.913556 34.699311 0.344030 0.403437 0.048333 -0.028064 101940.000000 0 0 1
-12.984078 -3.289574 32.382544 35.043355 0.248133 0.392199 0.051244 -0.030710 -429515.000000 0 0 1
-12.300478 -2.186374 31.571816 33.953815 0.175910 0.376802 0.052096 -0.034397 -1300490.000000 0 0 1
-10.933178 -2.165574 31.687000 33.590029 0.195543 0.338224 0.060695 -0.033083 -1126360.000000 0 0 1
-10.419378 -1.173074 30.804602 32.540176 0.112114 0.328077 0.062767 -0.033097 -796931.000000 0 0 1
-8.948778 -0.871674 31.004192 32.281580 0.097101 0.282255 0.062634 -0.032915 -698788.000000 0 0 1
-8.731578 -0.270774 32.289154 33.450011 0.031001 0.264223 0.076416 -0.042933 -21640.900000 0 0 1
-7.351278 -0.106574 32.539042 33.359285 0.014496 0.222214 0.104058 -0.039170 7635.570000 0 0 1
-6.989378 0.638726 -33.730644 34.453094 -0.091132 2.936445 0.143607 -0.049451 -299515.000000 0 0 1
-7.342778 2.065126 -33.605984 34.460750 -0.274164 2.918401 0.160922 -0.045388 82420.900000 0 0 1
-6.867378 2.902626 32.961230 33.793917 -0.399894 0.222450 0.159165 -0.052547 -153471.000000 0 0 1
-7.533778 4.280026 32.983106 34.102225 -0.516642 0.256896 0.163406 -0.055709 -109077.000000 0 0 1
-8.880078 4.143326 32.636105 34.075479 -0.436561 0.291690 0.116580 -0.040532 -248836.000000 0 0 1
-9.703278 5.300826 32.697751 34.516595 -0.499992 0.326080 0.104282 -0.032316 526712.000000 0 0 1
-11.165478 5.012026 32.269801 34.512728 -0.421927 0.362505 0.079362 -0.025948 28326.000000 0 0 1
-11.994978 6.131626 32.212449 34.915873 -0.472554 0.396099 0.084052 -0.025976 -116933.000000 0 0 1
-13.153878 5.874726 31.433072 34.577087 -0.420036 0.429744 0.031330 -0.015390 177767.000000 0 0 1
-14.084878 7.120726 31.379372 35.124828 -0.468084 0.466012 0.047074 -0.020571 -347859.000000 0 0 1
-14.776178 7.301026 32.563113 36.496530 -0.458923 0.468548 0.043512 -0.024780 -245338.000000 0 0 1
-15.647078 8.404826 32.430307 36.975626 -0.492924 0.501063 0.038589 -0.016296 -157056.000000 0 0 1
-16.531278 8.669226 33.675612 38.503058 -0.482987 0.506141 0.020497 -0.011890 -78045.800000 0 0 1
-15.809378 9.094226 -32.759814 37.494623 -0.522017 2.633595 0.012677 -0.011396 -374608.000000 0 0 1
-16.508778 10.008526 -31.958904 37.337406 -0.545006 2.598179 0.028944 -0.006192 -1746800.000000 0 0 1
-16.072478 10.389426 -30.485094 35.994523 -0.573848 2.580994 0.063712 -0.015486 -681813.000000 0 0 1
-15.107278 11.372326 -30.409904 35.809523 -0.645272 2.585289 0.052637 -0.017698 -387919.000000 0 0 1
-13.828478 11.017726 -30.923314 35.621180 -0.672751 2.622190 0.071126 -0.027743 -1035300.000000 0 0 1
-12.915278 12.205126 -30.829344 35.583956 -0.757136 2.618710 0.084489 -0.030573 -619951.000000 0 0 1
-13.293078 13.230026 -31.703204 36.835209 -0.783021 2.607393 0.065200 -0.027976 400456.000000 0 0 1
-12.257278 14.203826 -31.804084 36.925456 -0.858829 2.608629 0.076781 -0.027001 263518.000000 0 0 1
-12.224578 15.315926 -30.652554 36.381272 -0.897178 2.572772 0.066060 -0.026040 -1204420.000000 0 0 1
-13.401678 16.006326 -30.611564 37.052332 -0.873737 2.543074 0.061147 -0.026260 -873511.000000 0 0 1
-13.406578 17.169126 -29.824134 36.932292 -0.907839 2.510758 0.065816 -0.025500 -533134.000000 0 0 1
-14.789478 17.830626 -29.784544 37.732995 -0.878359 2.480546 0.059961 -0.031696 -717570.000000 0 0 1
-15.263278 18.331526 -30.994904 39.111336 -0.876477 2.485659 0.054519 -0.031255 2335400.000000 0 0 1
-16.705878 18.685026 -30.928844 39.809672 -0.841262 2.460552 0.052098 -0.034817 2546550.000000 0 0 1
-17.180078 19.876826 -30.077264 39.936013 -0.858043 2.423613 0.037682 -0.030240 -624509.000000 0 0 1
-16.705778 21.128426 -30.661514 40.812031 -0.901766 2.420805 0.037916 -0.025367 553854.000000 0 0 1
-17.317678 22.406926 -30.330784 41.496129 -0.912817 2.390481 0.025458 -0.021854 -140974.000000 0 0 1
-18.682078 22.755226 -30.942034 42.711003 -0.883380 2.381034 0.041571 -0.019793 -235576.000000 0 0 1
-19.740178 22.005626 -30.401594 42.404942 -0.839613 2.370192 0.047882 -0.018067 77930.300000 0 0 1
-20.813778 21.896126 -31.322804 43.517488 -0.810735 2.374275 0.079994 -0.026633 9675.940000 0 0 1
-22.127178 21.191526 -30.813424 43.452962 -0.763802 2.359048 0.113197 -0.032511 -39848.000000 0 0 1
-22.967578 21.935826 -29.975814 43.671954 -0.762425 2.327304 0.133695 -0.031778 95269.200000 0 0 1
-23.695878 22.929526 -30.677834 45.037621 -0.768963 2.320142 0.129720 -0.029609 -1397100.000000 0 0 1
-25.045538 22.494326 -31.208384 45.904650 -0.731785 2.318358 0.138350 -0.036989 -1259320.000000 0 0 1
-24.889278 21.530426 -32.211344 46.050039 -0.713166 2.345474 0.137456 -0.038139 216647.000000 0 0 1
-26.055388 21.316326 -32.983754 47.129577 -0.685690 2.345987 0.150307 -0.040799 2449.540000 0 0 1
-25.838858 20.209926 33.510422 46.893881 -0.663763 0.774743 0.139856 -0.036617 -104155.000000 0 0 1
-25.748768 18.874826 -33.539634 46.305131 -0.632557 2.380841 0.134175 -0.045890 277873.000000 0 0 1
-25.206678 17.989226 33.114081 45.337967 -0.619841 0.751914 0.122845 -0.055884 -500063.000000 0 0 1
-25.065878 16.549426 33.676722 45.125418 -0.583538 0.728323 0.096078 -0.044885 -420661.000000 0 0 1
-26.150898 15.634726 33.646482 45.391628 -0.538849 0.735868 0.090935 -0.028796 288162.000000 0 0 1
-26.578908 15.219226 32.371583 44.564365 -0.520033 0.757726 0.098336 -0.023509 -490947.000000 0 0 1
-27.463868 13.945126 32.460497 44.748346 -0.469838 0.759179 0.060304 -0.015905 442901.000000 0 0 1
-28.784228 14.218726 32.957261 46.009619 -0.458817 0.772293 0.069226 -0.012704 397762.000000 0 0 1
-29.663498 13.123026 33.011057 46.280307 -0.416513 0.776622 0.056223 -0.008609 104984.000000 0 0 1
-29.403148 12.009326 -33.494504 46.158973 -0.387758 2.382751 0.050387 -0.013547 -513256.000000 0 0 1
-28.287388 11.208126 -33.746934 45.438463 -0.377246 2.407883 0.045575 -0.022072 -618897.000000 0 0 1
-28.645458 9.866026 33.663632 45.289523 -0.331694 0.732809 0.057540 -0.018696 -1192830.000000 0 0 1
-27.615938 8.793426 -33.651854 44.411841 -0.308268 2.430612 0.051495 -0.024647 382720.000000 0 0 1
-26.442908 8.712726 33.113692 43.262635 -0.318289 0.699117 0.037629 -0.022554 1338510.000000 0 0 1
-25.513738 9.801426 32.956148 42.815026 -0.366779 0.692373 0.024873 -0.020548 498874.000000 0 0 1
-24.221778 9.368526 32.163252 41.339311 -0.369059 0.679271 0.042356 -0.017918 282254.000000 0 0 1
-24.394378 9.276326 30.756172 40.337055 -0.363378 0.703660 0.043828 -0.024460 -5634.610000 0 0 1
-23.219978 8.920126 30.065252 39.021217 -0.366775 0.691195 0.058932 -0.023180 -45906.400000 0 0 1
-23.313478 8.826226 28.533732 37.889238 -0.361913 0.718061 0.079389 -0.028910 -103720.000000 0 0 1
-23.594678 10.079926 27.918702 37.917907 -0.403743 0.743220 0.087090 -0.026166 219099.000000 0 0 1
-23.825778 9.965726 26.520972 37.018176 -0.396161 0.772123 0.086178 -0.023099 -582837.000000 0 0 1
-24.197278 11.336926 25.885722 37.203559 -0.438149 0.801282 0.088340 -0.020103 1127740.000000 0 0 1
-25.526958 11.789526 26.209002 38.438656 -0.432661 0.820522 0.099415 -0.022026 1135890.000000 0 0 1
-26.584908 11.322326 25.360232 38.445985 -0.402627 0.850466 0.117680 -0.011959 853358.000000 0 0 1
-27.923918 12.085526 25.633712 39.785579 -0.408460 0.870693 0.117652 -0.016373 376977.000000 0 0 1
-27.971768 13.375326 25.067282 39.870889 -0.446034 0.890901 0.132028 -0.015311 424105.000000 0 0 1
-29.131938 14.145526 25.419202 41.169182 -0.452035 0.905321 0.118454 -0.015544 696303.000000 0 0 1
-29.024898 15.542126 24.744782 41.186243 -0.491624 0.926292 0.130759 -0.012287 220743.000000 0 0 1
-28.217068 16.433026 25.513162 41.438734 -0.527362 0.907543 0.140492 -0.012730 282986.000000 0 0 1
-27.826048 17.565126 24.696792 41.143093 -0.563079 0.926963 0.118483 -0.011170 -144895.000000 0 0 1
-23.660378 -8.436074 31.294222 40.128658 0.342497 0.676375 0.072066 -0.017945 -1010770.000000 0 0 1
-22.633678 -8.276474 30.424422 38.812741 0.350567 0.669911 0.068887 -0.023641 -1146550.000000 0 0 1
-22.925378 -8.731274 29.097952 38.059150 0.363895 0.700460 0.070523 -0.022553 266150.000000 0 0 1
-21.767678 -8.578074 28.053272 36.529457 0.375387 0.695142 0.098145 -0.027041 -169255.000000 0 0 1
-21.382778 -7.191974 27.885142 35.868215 0.324458 0.680222 0.101673 -0.028563 -134290.000000 0 0 1
-20.257278 -6.753974 28.621272 35.709252 0.321819 0.640983 0.089945 -0.028872 805783.000000 0 0 1
-18.874578 -7.237774 27.988052 34.524862 0.366173 0.625512 0.084058 -0.024178 9018.470000 0 0 1
-18.487078 -8.580674 28.109442 34.720898 0.434554 0.627355 0.085932 -0.015274 -147571.000000 0 0 1
-18.200678 -9.076074 29.459012 35.797670 0.462580 0.604246 0.080311 -0.019533 -1006630.000000 0 0 1
-16.875678 -8.588974 30.008692 35.483526 0.470787 0.562906 0.071488 -0.021429 285483.000000 0 0 1
-15.708578 -9.156074 29.327982 34.506864 0.527729 0.554968 0.057991 -0.020267 801701.000000 0 0 1
-14.470578 -8.588774 29.716802 34.150447 0.535651 0.515243 0.061451 -0.024711 1057000.000000 0 0 1
-13.285678 -9.487574 29.164522 33.422936 0.620140 0.510316 0.072112 -0.023558 402647.000000 0 0 1
-13.157178 -9.453274 27.712232 32.100522 0.623027 0.529033 0.077222 -0.022926 -259521.000000 0 0 1
-11.957478 -10.034474 27.247002 31.401769 0.698179 0.520260 0.097143 -0.023325 -55590.100000 0 0 1
-11.502178 -9.565574 25.858532 29.874136 0.693733 0.524484 0.087581 -0.018731 162869.000000 0 0 1
-12.487178 -9.744774 24.857492 29.475162 0.662664 0.567333 0.073053 -0.017245 -72822.500000 0 0 1
-11.877178 -9.717174 23.564752 28.120960 0.685703 0.577229 0.092425 -0.022827 114085.000000 0 0 1
-12.772578 -10.313374 22.487152 27.841991 0.679275 0.630606 0.097948 -0.025302 -589504.000000 0 0 1
-12.939078 -11.669974 22.526542 28.478995 0.733873 0.658374 0.089231 -0.021445 201169.000000 0 0 1
-14.111178 -12.151174 21.897452 28.744996 0.710905 0.704735 0.071595 -0.021420 378527.000000 0 0 1
-15.423478 -12.046174 22.718802 29.985629 0.663065 0.711082 0.077173 -0.021158 -616815.000000 0 0 1
-16.505978 -12.718274 22.142252 30.405281 0.656508 0.755050 0.040341 -0.006933 -354058.000000 0 0 1
-17.638278 -12.585274 22.973722 31.579897 0.619743 0.756155 0.043052 -0.001993 -312182.000000 0 0 1
-18.867478 -13.288674 22.383152 32.149278 0.613617 0.800670 0.084512 -0.012465 -647625.000000 0 0 1
-18.783778 -14.668574 22.426852 32.725542 0.662996 0.815779 0.076295 -0.016218 389238.000000 0 0 1
-19.970878 -15.419874 22.226052 33.624483 0.657507 0.848635 0.088050 -0.016016 477912.000000 0 0 1
-21.025678 -15.559274 23.382402 35.084282 0.637079 0.841341 0.085153 -0.018277 213234.000000 0 0 1
-20.549978 -16.282474 24.513982 35.893675 0.670050 0.818988 0.081033 -0.015458 1042960.000000 0 0 1
-21.535578 -16.268974 25.610022 37.206637 0.646978 0.811628 0.085390 -0.014751 819553.000000 0 0 1
-21.061178 -16.991774 26.946342 38.188990 0.678862 0.787520 0.086594 -0.013362 82339.200000 0 0 1
-20.678478 -18.352474 26.778132 38.490013 0.725875 0.801380 0.089493 -0.011182 202171.000000 0 0 1
-20.637978 -19.066074 28.002722 39.668549 0.745828 0.787079 0.085558 -0.013140 -78321.200000 0 0 1
-20.622178 -20.594474 27.795022 40.273687 0.784726 0.809095 0.092534 -0.008231 -465992.000000 0 0 1
-21.786578 -21.090074 27.226212 40.751844 0.769155 0.839147 0.076978 -0.006860 -584493.000000 0 0 1
-21.716278 -22.464974 27.031212 41.315351 0.802343 0.857585 0.085326 -0.004239 323117.000000 0 0 1
-23.058578 -23.103474 26.567532 42.086842 0.786371 0.887626 0.072741 -0.000736 813036.000000 0 0 1
-24.032478 -23.222274 27.634122 43.364487 0.768254 0.879869 0.065809 -0.002162 133603.000000 0 0 1
-25.167798 -23.839874 27.111632 44.009070 0.758309 0.907083 0.050949 0.001813 -234385.000000 0 0 1
-25.965818 -24.728274 28.094932 45.552568 0.760991 0.906178 0.034569 -0.004136 -102953.000000 0 0 1
-26.304248 -24.226974 29.359562 46.269251 0.744313 0.883387 0.041653 0.001653 170708.000000 0 0 1
-26.941718 -25.267604 30.057012 47.620709 0.753344 0.887729 0.036978 0.002238 -362584.000000 0 0 1
-28.139928 -24.760874 30.869342 48.557931 0.721610 0.881853 0.042095 -0.001860 55931.300000 0 0 1
-29.223588 -24.377074 30.033802 48.479780 0.695224 0.902676 0.026759 -0.003026 535020.000000 0 0 1
-30.214068 -23.601374 30.722332 49.130199 0.663134 0.895249 0.040120 -0.012172 258164.000000 0 0 1
-31.443668 -23.233074 29.859702 49.194327 0.636346 0.918548 0.050388 -0.019641 -315254.000000 0 0 1
-32.258758 -24.366574 29.651102 50.135269 0.646915 0.937975 0.056015 -0.023702 -266008.000000 0 0 1
-33.342748 -24.100774 28.801922 50.220881 0.625877 0.960018 0.055451 -0.026091 -517733.000000 0 0 1
-34.660503 -24.584174 29.396272 51.670813 0.616930 0.965611 0.057757 -0.024531 -667793.000000 0 0 1
-34.724368 -25.986894 29.560162 52.487175 0.642461 0.972557 0.063009 -0.026705 -198370.000000 0 0 1
-35.932456 -26.387594 30.151822 53.819874 0.633420 0.976126 0.066029 -0.017047 27903.000000 0 0 1
-35.845473 -27.889594 30.476022 54.694747 0.661213 0.979784 0.074264 -0.021326 134454.000000 0 0 1
-34.930419 -28.151184 31.526022 54.831683 0.678341 0.958241 0.068649 -0.014161 107872.000000 0 0 1
-34.566886 -29.527924 31.607838 55.369877 0.706942 0.963257 0.078053 -0.025075 24554.700000 0 0 1
-33.586958 -29.828124 32.751163 55.591721 0.726194 0.940805 0.075674 -0.016942 -163779.000000 0 0 1
-34.171695 -29.675344 -33.590204 56.361623 0.715090 2.209278 0.066228 -0.012022 2827.840000 0 0 1
-33.179828 -29.881794 -32.604934 55.289278 0.733147 2.201503 0.064195 -0.013838 228463.000000 0 0 1
-33.715908 -29.503144 -31.204244 54.597644 0.718859 2.179167 0.065195 -0.019344 189533.000000 0 0 1
-33.747158 -28.091764 -31.015834 53.758719 0.694198 2.185780 0.061982 -0.016948 -15011.900000 0 0 1
-32.467978 -27.552204 -30.725644 52.510558 0.703679 2.195840 0.065070 -0.012537 144106.000000 0 0 1
-32.495528 -26.028614 -30.660614 51.706105 0.675345 2.205549 0.042258 -0.001802 -173226.000000 0 0 1
-33.168728 -25.627344 -29.480144 51.244552 0.657831 2.183747 0.044973 -0.010861 -71899.400000 0 0 1
-33.319838 -24.253074 -29.370114 50.606588 0.629198 2.189969 0.058368 -0.013240 769721.000000 0 0 1
-31.989058 -23.590174 -28.819574 49.095458 0.635417 2.198158 0.069946 -0.016660 424178.000000 0 0 1
-32.038418 -22.189074 -28.648384 48.368845 0.605727 2.204694 0.065814 -0.015293 335014.000000 0 0 1
-30.949448 -21.685874 -27.869754 46.956029 0.611187 2.206233 0.088569 -0.015778 368915.000000 0 0 1
-30.683898 -20.166774 -27.997194 46.174054 0.581450 2.222247 0.103944 -0.028260 257383.000000 0 0 1
-30.035428 -19.705374 -29.211164 46.300332 0.580631 2.253517 0.095816 -0.014702 666767.000000 0 0 1
-29.566618 -18.325074 -29.135614 45.374852 0.554844 2.268043 0.093074 -0.022705 12831.000000 0 0 1
-29.021148 -17.795974 -30.492814 45.702685 0.550074 2.301239 0.090440 -0.014192 60534.900000 0 0 1
-29.877868 -17.679774 -31.610334 46.951833 0.534320 2.309392 0.079964 -0.009449 356622.000000 0 0 1
-30.852428 -16.627874 -31.560574 47.163846 0.494319 2.303886 0.096661 -0.013041 -474304.000000 0 0 1
-31.496828 -16.138374 -32.900324 48.321099 0.473503 2.319744 0.091843 -0.018951 -74063.400000 0 0 1
-32.384058 -16.983174 -33.564074 49.635697 0.483000 2.313400 0.091805 -0.025044 -816659.000000 0 0 1
-33.585188 -17.067974 -32.895384 50.013867 0.470186 2.288591 0.089374 -0.033005 -1672410.000000 0 0 1
-34.787405 -17.381974 33.768252 51.503315 0.463378 0.855750 0.087286 -0.031723 -131977.000000 0 0 1
-34.800682 -18.716174 33.273478 51.657594 0.493437 0.870929 0.081793 -0.027957 64748.800000 0 0 1
-35.695472 -18.872774 32.189691 51.638402 0.486356 0.897755 0.078471 -0.027921 -607374.000000 0 0 1
-36.383348 -20.256874 32.358555 52.736752 0.508020 0.910202 0.077788 -0.030504 -80960.300000 0 0 1
-35.588820 -21.420274 32.091669 52.490642 0.541802 0.912994 0.090465 -0.031343 104788.000000 0 0 1
-35.960091 -22.486874 32.964124 53.716116 0.558836 0.910092 0.084540 -0.026981 -1150710.000000 0 0 1
-34.811575 -23.385174 33.371315 53.594373 0.591523 0.898653 0.079238 -0.022018 -338379.000000 0 0 1
-34.065452 -22.879374 -33.139854 52.746286 0.591431 2.250147 0.059633 -0.014647 -19598.600000 0 0 1
-33.109568 -21.878574 -33.408234 51.875096 0.583925 2.270529 0.063132 -0.012354 201299.000000 0 0 1
-31.683628 -22.040774 -32.732844 50.607184 0.607802 2.274180 0.047848 0.001525 976784.000000 0 0 1
-31.061268 -23.283474 -33.165964 51.057846 0.643244 2.277823 0.041867 -0.000195 1540640.000000 0 0 1
-29.635248 -23.435774 -32.965094 50.141608 0.669111 2.288212 0.050898 -0.001787 1406800.000000 0 0 1
-29.228998 -23.689774 -31.484354 49.059191 0.681104 2.267591 0.072277 -0.003095 -800601.000000 0 0 1
-29.441438 -25.036144 -31.050604 49.575667 0.704709 2.247630 0.068590 -0.007233 -29960.200000 0 0 1
-28.925228 -25.180664 -29.726534 48.522175 0.716300 2.230190 0.063697 -0.013410 -132239.000000 0 0 1
-28.433168 -26.603974 -29.317564 48.741523 0.752175 2.216162 0.061121 -0.019247 172009.000000 0 0 1
-29.517638 -27.492544 -29.178604 49.784755 0.749891 2.197027 0.064237 -0.015212 76452.100000 0 0 1
-29.064548 -28.749434 -28.739974 49.972632 0.779948 2.183540 0.064259 -0.019689 151313.000000 0 0 1
-29.702598 -29.991454 -29.482874 51.487586 0.790237 2.180496 0.059310 -0.006608 -6691.010000 0 0 1
-29.351038 -30.094654 -30.854414 52.145628 0.797907 2.203959 0.060555 -0.020238 251911.000000 0 0 1
-29.681958 -31.336964 -31.417454 53.386144 0.812514 2.199992 0.079588 -0.013803 -241629.000000 0 0 1
-29.070128 -31.605224 -32.819004 54.046735 0.827155 2.223371 0.066003 -0.021786 -324675.000000 0 0 1
-27.689458 -31.828224 -32.773474 53.421368 0.854825 2.231269 0.060812 -0.023406 -454384.000000 0 0 1
-27.166428 -32.294454 33.603572 53.945775 0.871427 0.898334 0.070673 -0.030986 714261.000000 0 0 1
-25.651988 -32.711494 33.553852 53.422161 0.905771 0.891702 0.078490 -0.028915 736828.000000 0 0 1
-25.244728 -33.270154 32.379701 52.845477 0.921700 0.911293 0.077257 -0.024885 138783.000000 0 0 1
-24.263578 33.401473 32.529691 52.560065 -0.942556 0.903448 0.067237 -0.015642 -60740.400000 0 0 1
-24.193178 32.562474 31.242912 51.202970 -0.931805 0.914511 0.066726 -0.014816 -330600.000000 0 0 1
-25.343978 31.778884 31.074322 51.164716 -0.897576 0.918090 0.070717 -0.027672 -96881.700000 0 0 1
-25.190518 30.924476 29.940392 49.872964 -0.887227 0.926879 0.066388 -0.017658 -652893.000000 0 0 1
-26.485638 30.298556 29.467362 49.878021 -0.852445 0.938761 0.075090 -0.016190 -570097.000000 0 0 1
-26.987078 29.309596 30.388332 50.107939 -0.826630 0.919199 0.075820 -0.018770 439528.000000 0 0 1
-28.278198 28.908976 29.960102 50.328850 -0.796428 0.933174 0.080424 -0.023165 131691.000000 0 0 1
-28.908788 27.758916 30.732452 50.505040 -0.765109 0.916624 0.077799 -0.034883 -406919.000000 0 0 1
-28.308058 26.499916 30.540712 49.359161 -0.752420 0.903653 0.082341 -0.027505 -318459.000000 0 0 1
-29.025888 25.428726 31.047372 49.528392 -0.719436 0.893280 0.087674 -0.029205 -25482.200000 0 0 1
-30.077248 24.899746 30.060032 49.277213 -0.691499 0.914712 0.095858 -0.031795 -40810.200000 0 0 1
-29.384338 24.467716 28.946722 47.958536 -0.694352 0.922815 0.087261 -0.024493 22055.900000 0 0 1
-30.237318 23.677676 28.138282 47.609775 -0.664327 0.938475 0.104303 -0.023094 360259.000000 0 0 1
-29.567998 23.490996 26.761072 46.284429 -0.671362 0.954291 0.107477 -0.026586 319452.000000 0 0 1
-28.473668 22.591776 26.776282 45.145403 -0.670720 0.935878 0.086908 -0.021091 -202847.000000 0 0 1
-27.800068 22.495176 25.538672 43.944289 -0.680312 0.950643 0.081377 -0.023677 1636450.000000 0 0 1
-26.299478 22.008676 25.868262 42.955923 -0.696809 0.924536 0.085458 -0.019708 1476840.000000 0 0 1
-26.233218 20.712376 26.522152 42.668593 -0.668335 0.900032 0.114185 -0.024265 135830.000000 0 0 1
-24.935678 20.328976 26.965382 41.978413 -0.683975 0.873219 0.092462 -0.020677 368078.000000 0 0 1
-24.995898 18.966176 27.769402 41.900483 -0.649091 0.846316 0.115728 -0.021005 -199195.000000 0 0 1
-23.730478 18.468576 28.096392 41.153750 -0.661346 0.819321 0.101820 -0.011841 -113589.000000 0 0 1
-23.981278 17.464376 29.011282 41.494104 -0.629435 0.796565 0.099836 -0.018015 -178295.000000 0 0 1
-22.867878 16.423176 29.187832 40.553546 -0.622821 0.767375 0.098014 -0.024450 -323099.000000 0 0 1
-21.683978 16.915376 29.747902 40.512499 -0.662480 0.746177 0.120606 -0.028985 -1009280.000000 0 0 1
-20.683778 15.985776 29.663902 39.538725 -0.657975 0.722357 0.092629 -0.028386 -1504890.000000 0 0 1
-19.458478 16.382876 30.434072 39.664389 -0.699796 0.696192 0.081850 -0.033100 -1197340.000000 0 0 1
-19.580678 16.169576 31.830258 40.718835 -0.690271 0.673396 0.073183 -0.034756 193533.000000 0 0 1
-18.477378 16.603776 32.598374 40.984788 -0.732041 0.651166 0.068270 -0.037496 -1104420.000000 0 0 1
-18.468278 16.098976 -33.512564 41.513206 -0.716963 2.510316 0.059697 -0.044604 246377.000000 0 0 1
-19.516378 16.731676 -32.805784 41.678021 -0.708725 2.476929 0.086943 -0.039023 510112.000000 0 0 1
-20.837178 16.313876 -33.094144 42.373965 -0.664240 2.467065 0.098079 -0.030572 -903121.000000 0 0 1
-21.896378 16.985076 -32.208494 42.489190 -0.659749 2.431099 0.096046 -0.045790 -477853.000000 0 0 1
-22.093778 16.553276 -30.870264 41.413997 -0.643007 2.411941 0.105417 -0.046967 258440.000000 0 0 1
-23.075578 17.431176 -30.342094 41.916236 -0.646945 2.380198 0.105186 -0.042421 -373755.000000 0 0 1
-23.213778 17.316176 -28.831224 40.865253 -0.640900 2.353952 0.102246 -0.033032 -60199.800000 0 0 1
-24.017678 16.295276 -28.317974 40.549877 -0.596130 2.343885 0.099253 -0.036086 821468.000000 0 0 1
-25.444508 16.346976 -28.500214 41.556092 -0.571054 2.326533 0.091903 -0.033700 1207130.000000 0 0 1
-26.276248 15.391076 -27.558094 41.070366 -0.529869 2.306349 0.084329 -0.027881 223840.000000 0 0 1
-26.084478 14.018376 -27.849794 40.651272 -0.493135 2.325524 0.072000 -0.022530 -82414.600000 0 0 1
-26.827638 13.152176 -27.034834 40.293723 -0.455815 2.306278 0.051852 -0.018003 -144256.000000 0 0 1
-26.540328 11.637576 -27.202194 39.746466 -0.413238 2.324567 0.060064 -0.022448 684948.000000 0 0 1
-25.386328 11.240976 -26.451514 38.347200 -0.416847 2.331995 0.066288 -0.021355 527352.000000 0 0 1
-24.654778 10.144376 -26.953294 37.911034 -0.390344 2.361661 0.062985 -0.012324 -64967.100000 0 0 1
-23.571678 9.587376 -26.045904 36.413334 -0.386297 2.367828 0.099126 -0.016562 -281240.000000 0 0 1
-24.110878 8.799476 -25.046854 35.862377 -0.349938 2.343978 0.090708 -0.018410 453433.000000 0 0 1
-23.090978 8.018876 -24.385154 34.527255 -0.334243 2.354995 0.119045 -0.014734 452507.000000 0 0 1
-23.637578 6.969476 -23.422554 33.998893 -0.286723 2.330796 0.116909 -0.017275 322326.000000 0 0 1
-24.492778 6.026576 -24.086954 34.876885 -0.241263 2.333153 0.103824 -0.027994 497174.000000 0 0 1
-24.565278 4.820176 -23.300354 34.199320 -0.193757 2.320348 0.108240 -0.019674 -83081.900000 0 0 1
36.335214 24.736426 -9.757854 45.026151 0.597712 1.789245 0.031707 -0.004746 192598.000000 0 0 1
37.023604 24.064726 -8.699454 45.005986 0.576364 1.765316 0.055847 -0.014035 71848.900000 0 0 1
-37.468118 23.206626 -9.215854 45.025985 -0.554540 1.776932 0.077684 -0.023747 277113.000000 0 0 1
-36.628958 22.580226 -8.048854 43.775920 -0.552433 1.755713 0.112692 -0.027904 -163687.000000 0 0 1
-37.372318 21.743026 -7.268254 43.843778 -0.526926 1.737341 0.081893 -0.027899 58351.700000 0 0 1
-36.446958 21.259426 -6.322954 42.665251 -0.528048 1.719543 0.152959 -0.028674 222411.000000 0 0 1
-37.063598 20.278026 -5.285754 42.577551 -0.500625 1.695262 0.111418 -0.016070 -156640.000000 0 0 1
-37.475328 19.064526 -5.827854 42.447853 -0.470601 1.708526 0.070728 -0.005119 253236.000000 0 0 1
37.526954 18.243826 -4.790354 42.000678 0.452508 1.685099 0.082344 -0.018003 -356380.000000 0 0 1
36.832504 17.080926 -5.494154 40.970442 0.434226 1.705302 0.066531 -0.003390 576089.000000 0 0 1
35.715784 17.540126 -6.294054 40.285089 0.456505 1.727677 0.075080 -0.015623 699323.000000 0 0 1
35.014734 16.441926 -6.868054 39.287895 0.439010 1.746513 0.085186 -0.014112 230336.000000 0 0 1
34.170204 16.752526 -8.102754 38.908927 0.455831 1.780581 0.052884 -0.023413 -84910.400000 0 0 1
33.549594 15.626626 -8.675554 38.013576 0.435896 1.801048 0.062882 -0.017677 -57415.400000 0 0 1
33.104904 15.872026 -9.984454 38.046619 0.447070 1.836333 0.063565 -0.016192 -449468.000000 0 0 1
32.521234 14.595026 -10.635254 37.198845 0.421843 1.860745 0.071853 -0.021122 -494533.000000 0 0 1
31.275684 14.121226 -10.233254 35.809174 0.424107 1.860608 0.067472 -0.004320 -77198.600000 0 0 1
31.220724 13.639326 -8.857954 35.202673 0.411880 1.825158 0.069286 -0.008410 -715181.000000 0 0 1
30.250654 12.457626 -8.760654 33.868032 0.390649 1.832442 0.074222 0.006907 -47338.900000 0 0 1
30.797314 11.292426 -9.353154 34.109748 0.351447 1.848562 0.094933 0.002985 351554.000000 0 0 1
29.767654 10.341526 -9.493854 32.911907 0.334364 1.863417 0.143839 -0.005495 116378.000000 0 0 1
30.358754 8.938026 -9.865954 33.149349 0.286324 1.872996 0.158151 -0.006014 -47232.100000 0 0 1
31.225194 8.352426 -8.940354 33.536632 0.261371 1.840644 0.147523 -0.012754 11666.700000 0 0 1
31.561124 7.048026 -9.279154 33.643453 0.219709 1.850227 0.170527 -0.019853 -474455.000000 0 0 1
32.668014 6.507026 -8.363554 34.343698 0.196613 1.816795 0.173162 -0.020565 189996.000000 0 0 1
33.900204 7.196226 -8.596054 35.705765 0.209172 1.813932 0.153335 -0.018733 23926.500000 0 0 1
34.913894 6.592726 -7.856454 36.389118 0.186631 1.788411 0.149818 -0.019827 -168030.000000 0 0 1
36.367874 6.790826 -8.334954 37.923727 0.184600 1.792387 0.138009 -0.014270 164624.000000 0 0 1
36.616984 6.089326 -9.520754 38.321380 0.164790 1.821871 0.135676 -0.021820 -542088.000000 0 0 1
-37.509468 5.985126 -9.701354 39.203293 -0.158229 1.820857 0.117239 -0.024536 -1527690.000000 0 0 1
-37.155898 5.248826 -11.032354 39.112961 -0.140336 1.856741 0.115501 -0.033106 588048.000000 0 0 1
-35.794066 4.826526 -11.253154 37.830464 -0.134033 1.872830 0.125920 -0.044332 1991990.000000 0 0 1
-34.888050 5.846026 -11.833854 37.301369 -0.166023 1.893624 0.121697 -0.040558 692224.000000 0 0 1
-34.185788 6.820226 -10.874654 36.516321 -0.196919 1.873186 0.126523 -0.028442 -914520.000000 0 0 1
-35.091544 7.694326 -10.230854 37.353574 -0.215849 1.848234 0.121874 -0.020446 159517.000000 0 0 1
-35.372450 8.890526 -10.990154 38.092455 -0.246240 1.863469 0.120242 -0.036119 -1167740.000000 0 0 1
-36.376768 9.744126 -10.266854 39.033646 -0.261722 1.836953 0.110173 -0.032927 -536341.000000 0 0 1
-35.888545 10.468526 -9.135054 38.484112 -0.283821 1.810456 0.118087 -0.020398 -255526.000000 0 0 1
-36.920188 11.106226 -8.448754 39.469355 -0.292206 1.786524 0.112982 -0.022605 -277563.000000 0 0 1
-36.409998 12.044026 -7.304254 39.039706 -0.319459 1.759004 0.114198 -0.022285 85582.100000 0 0 1
-35.647509 13.135426 -7.801854 38.783414 -0.353043 1.773343 0.109648 -0.027190 9085.110000 0 0 1
-35.105324 13.865726 -6.722054 38.338338 -0.376167 1.747042 0.132348 -0.019083 404938.000000 0 0 1
-34.299425 15.167026 -7.148954 38.178486 -0.416344 1.759159 0.107261 -0.018556 290498.000000 0 0 1
-35.078797 16.117526 -7.824754 39.389382 -0.430698 1.770778 0.072179 -0.017991 -122217.000000 0 0 1
-34.433067 17.362526 -7.813654 39.346494 -0.467034 1.770711 0.066466 -0.016251 -130537.000000 0 0 1
-34.999740 18.339326 -8.853754 40.493229 -0.482651 1.791225 0.064412 -0.018655 66038.800000 0 0 1
-34.562372 18.142926 -10.167054 40.337232 -0.483394 1.825596 0.050373 -0.014775 -193816.000000 0 0 1
-35.424271 18.777126 -11.073354 41.594213 -0.487408 1.840269 0.041330 -0.019158 -763630.000000 0 0 1
-34.905362 18.802726 -12.521454 41.577802 -0.494109 1.876702 0.011793 -0.000928 93938.600000 0 0 1
-34.000810 19.861126 -12.778954 41.398322 -0.528674 1.884604 0.030070 -0.004049 51297.400000 0 0 1
-33.459638 19.941426 -14.050254 41.407940 -0.537462 1.916983 0.001614 0.002516 -230179.000000 0 0 1
-32.676028 21.235126 -14.328154 41.520469 -0.576283 1.923127 0.033000 -0.000766 -305943.000000 0 0 1
-31.348308 21.109626 -13.828454 40.243743 -0.592643 1.921563 0.050717 0.001802 377215.000000 0 0 1
-30.549048 22.267726 -13.879054 40.270636 -0.629871 1.922656 0.051011 -0.008653 21544.800000 0 0 1
-29.975728 22.626226 -15.270254 40.542213 -0.646578 1.956974 0.065812 -0.013323 -839930.000000 0 0 1
-30.955388 23.082226 -16.202854 41.875502 -0.640718 1.968095 0.054496 0.001663 253330.000000 0 0 1
-30.479908 23.541526 -17.502554 42.303282 -0.657660 1.997355 0.072103 0.003304 251688.000000 0 0 1
-29.534718 24.803426 -17.523154 42.362370 -0.698546 1.997255 0.092089 -0.001166 292675.000000 0 0 1
-30.201008 25.945226 -17.076454 43.322753 -0.709745 1.975959 0.120312 -0.014281 131719.000000 0 0 1
-29.489068 27.179026 -17.305354 43.678139 -0.744656 1.978173 0.121996 -0.019773 381315.000000 0 0 1
-30.350628 28.424526 -16.953854 44.905985 -0.752639 1.957936 0.116865 -0.021267 388464.000000 0 0 1
-30.721848 28.827526 -15.590854 44.921408 -0.753598 1.925241 0.102025 -0.017820 438695.000000 0 0 1
-29.585928 29.356826 -14.949054 44.278941 -0.781511 1.915174 0.097009 -0.011266 1760.790000 0 0 1
-29.905308 30.007326 -13.604654 44.495547 -0.787101 1.881526 0.088235 -0.005351 157302.000000 0 0 1
-30.746758 31.164926 -13.690654 45.869922 -0.792152 1.873882 0.061762 -0.000743 256297.000000 0 0 1
-30.587118 32.087226 -12.618554 46.091103 -0.809329 1.848111 0.056541 -0.004399 106185.000000 0 0 1
-29.335348 33.001126 -12.598054 45.916750 -0.844137 1.848728 0.073105 -0.009513 210002.000000 0 0 1
-29.376038 -33.820624 -13.650454 46.830771 0.855612 1.866575 0.066894 -0.018440 -90685.500000 0 0 1
-28.350448 -32.853824 -13.579054 45.469906 0.858845 1.874062 0.108074 -0.024458 72490.800000 0 0 1
-28.495118 -31.844824 -14.720954 45.197025 0.840855 1.902555 0.094010 -0.019625 10102.700000 0 0 1
-28.091898 -32.392124 -15.947054 45.746180 0.856376 1.926872 0.093389 -0.024160 -174511.000000 0 0 1
-28.625648 -31.782124 -17.092454 46.061732 0.837604 1.950965 0.104451 -0.019217 -48235.200000 0 0 1
-27.822588 -32.170524 -18.358254 46.325636 0.857746 1.978266 0.095319 -0.023175 -60144.400000 0 0 1
-27.998798 -33.452824 -18.906854 47.544645 0.873919 1.979767 0.095917 -0.016738 49774.400000 0 0 1
-27.406008 33.131826 -18.205754 46.693218 -0.879700 1.971321 0.100181 -0.028584 -473047.000000 0 0 1
-27.650528 31.748026 -18.874554 46.138245 -0.854272 1.992250 0.108860 -0.031693 554297.000000 0 0 1
-28.995968 31.291726 -18.999254 46.700213 -0.823460 1.989782 0.119121 -0.033774 690872.000000 0 0 1
-29.757858 31.943526 -20.036354 48.035138 -0.820807 2.001069 0.105708 -0.031918 -810466.000000 0 0 1
-31.243938 31.642026 -20.017754 48.765889 -0.791728 1.993784 0.104900 -0.044282 -699316.000000 0 0 1
-31.480358 30.351326 -20.530154 48.308417 -0.767140 2.009737 0.106744 -0.049093 686155.000000 0 0 1
-32.871338 30.064426 -20.379954 48.987111 -0.740828 1.999868 0.109469 -0.046719 385587.000000 0 0 1
-33.349818 28.672726 -20.819554 48.659936 -0.710131 2.012918 0.113770 -0.041738 787041.000000 0 0 1
-34.783402 28.602226 -20.948354 49.666950 -0.688189 2.006200 0.111448 -0.041452 1066580.000000 0 0 1
-35.207694 27.350626 -21.498054 49.495503 -0.660456 2.020106 0.100854 -0.021207 284587.000000 0 0 1
-36.729158 27.037526 -21.572354 50.452208 -0.634567 2.012610 0.076286 -0.017810 853560.000000 0 0 1
-37.450068 27.751026 -22.628354 51.813796 -0.637725 2.022751 0.102938 -0.022201 56141.000000 0 0 1
37.171264 26.881226 -23.263254 51.434251 0.626109 2.040129 0.088833 -0.020092 -140541.000000 0 0 1
36.341164 27.432126 -24.461954 51.687416 0.646598 2.063792 0.098793 -0.023252 264987.000000 0 0 1
37.176534 27.650626 -25.548744 52.909263 0.639499 2.074735 0.121809 -0.035255 -24243.500000 0 0 1
36.314484 27.811026 -26.675684 52.950798 0.653561 2.098768 0.127837 -0.033957 257038.000000 0 0 1
36.986314 27.823026 -28.022934 54.105388 0.644941 2.115228 0.125605 -0.028481 -265797.000000 0 0 1
37.564014 26.640926 -28.464664 54.138999 0.616883 2.124416 0.104219 -0.009365 -122773.000000 0 0 1
-37.171848 26.948326 -29.633094 54.645025 -0.627286 2.143949 0.077957 -0.005103 -652619.000000 0 0 1
-36.669898 25.714926 -30.404344 54.132827 -0.611567 2.167189 0.067157 -0.004342 977631.000000 0 0 1
-35.764780 24.868126 -29.629194 52.682372 -0.607581 2.168096 0.061807 -0.001453 143215.000000 0 0 1
-34.485378 25.374626 -29.369464 51.919922 -0.634356 2.172040 0.028173 0.005711 -823408.000000 0 0 1
-33.721608 24.417626 -28.461544 50.432398 -0.626714 2.170442 0.012697 0.006429 -238552.000000 0 0 1
-33.349788 23.174226 -29.048274 49.930505 -0.607284 2.191705 0.026227 0.000186 32408.200000 0 0 1
-33.382668 22.170026 -28.069034 48.926304 -0.586236 2.181813 0.027685 0.006564 -127666.000000 0 0 1
-32.887068 20.835426 -28.602744 48.309328 -0.564720 2.204428 0.033508 -0.001292 -524932.000000 0 0 1
-31.506368 20.674326 -28.709064 47.373931 -0.580718 2.221831 0.079161 -0.008768 -688941.000000 0 0 1
-31.177888 19.403626 -29.167984 46.897043 -0.556693 2.242037 0.075842 -0.016833 -24130.200000 0 0 1
-29.728878 18.894226 -29.354744 45.853015 -0.566151 2.265545 0.099648 -0.024209 -374774.000000 0 0 1
-28.997948 19.604726 -30.342914 46.324062 -0.594486 2.284998 0.116540 -0.032531 -351742.000000 0 0 1
-27.799418 18.966726 -30.669644 45.532092 -0.598728 2.309842 0.117323 -0.038435 -485389.000000 0 0 1
-27.878888 17.561226 -31.388884 45.507044 -0.562123 2.331952 0.107817 -0.039490 -754758.000000 0 0 1
-28.330448 16.434126 -30.654364 44.859612 -0.525649 2.323124 0.078670 -0.030404 264520.000000 0 0 1
-28.546598 15.256326 -31.411384 45.103645 -0.490815 2.341202 0.050223 -0.023789 20737.100000 0 0 1
-28.983778 14.015626 -30.546344 44.379909 -0.450416 2.329929 0.046789 -0.020407 -516346.000000 0 0 1
-30.349348 14.051826 -30.252444 45.097085 -0.433614 2.306123 0.038645 -0.012857 -505976.000000 0 0 1
-30.943308 12.773926 -30.102304 45.020109 -0.391507 2.303176 0.035845 -0.000779 -70147.200000 0 0 1
-30.482288 11.856826 -28.965384 43.689217 -0.370965 2.295598 0.030301 -0.013115 -595331.000000 0 0 1
-30.986328 12.331626 -27.768084 43.396866 -0.378755 2.265117 0.017044 -0.008699 106183.000000 0 0 1
-30.933738 11.488126 -26.635624 42.406717 -0.355592 2.249904 0.026764 -0.007717 -30491.400000 0 0 1
-30.935318 12.347326 -25.338484 41.850796 -0.379759 2.221125 0.031567 -0.008771 859858.000000 0 0 1
-29.595058 12.658026 -24.927854 40.712295 -0.404162 2.229754 0.032889 -0.013933 603271.000000 0 0 1
-29.631778 13.427226 -23.770354 40.290972 -0.425459 2.201815 0.038571 -0.004704 29786.600000 0 0 1
-28.254378 13.652226 -23.122454 38.978725 -0.450109 2.205833 0.052429 -0.000454 483471.000000 0 0 1
-27.342698 14.441726 -23.957354 39.117022 -0.485933 2.229957 0.066712 -0.005684 534733.000000 0 0 1
-25.985448 14.426026 -23.604554 37.954297 -0.506795 2.241989 0.066574 -0.008826 104809.000000 0 0 1
-25.574598 15.369926 -22.422154 37.323554 -0.541143 2.215236 0.070995 -0.009497 -861957.000000 0 0 1
-25.901438 16.705826 -22.725454 38.293803 -0.572836 2.206135 0.086958 -0.008538 95925.500000 0 0 1
-26.105108 17.437026 -21.562454 38.084983 -0.588894 2.172644 0.083391 -0.014457 676924.000000 0 0 1
-27.537138 17.343526 -20.911054 38.682865 -0.562060 2.141919 0.070849 -0.006626 318959.000000 0 0 1
-28.042118 16.088026 -20.579854 38.323822 -0.520864 2.137672 0.067058 -0.001101 6794.060000 0 0 1
-29.230438 16.184026 -19.815754 38.845917 -0.505657 2.106111 0.066337 0.005236 -174587.000000 0 0 1
-30.102168 14.879126 -19.993854 39.080470 -0.459067 2.107851 0.068565 -0.007666 526624.000000 0 0 1
-31.016898 14.756126 -21.081654 40.301704 -0.444056 2.121276 0.056593 -0.002440 -311137.000000 0 0 1
-32.223548 15.400626 -20.889454 41.375181 -0.445837 2.100038 0.038269 0.001460 -822504.000000 0 0 1
-32.984728 15.625126 -22.231854 42.736310 -0.442394 2.117893 0.025976 0.018647 319211.000000 0 0 1
-33.907228 14.638126 -22.724054 43.363089 -0.407541 2.122386 0.045174 0.001408 520411.000000 0 0 1
-34.184044 14.913626 -24.074754 44.390977 -0.411381 2.144009 0.034224 0.008893 -896250.000000 0 0 1
-35.493858 14.374526 -24.587054 45.507847 -0.384798 2.141568 0.033463 -0.004838 -787820.000000 0 0 1
-35.489723 13.027326 -24.985354 45.315555 -0.351803 2.154794 0.038799 -0.000104 2100.050000 0 0 1
-35.395741 12.019826 -23.938754 44.389172 -0.327366 2.140393 0.030720 -0.002363 -238301.000000 0 0 1
-35.371435 10.620626 -24.567254 44.356353 -0.291695 2.157791 0.039949 -0.013368 201630.000000 0 0 1
-36.648348 10.273926 -25.078954 45.580795 -0.273322 2.153411 0.038993 -0.009355 165069.000000 0 0 1
-36.501938 9.045126 -25.839484 45.627675 -0.242906 2.172820 0.046264 -0.002107 231261.000000 0 0 1
37.651174 8.481826 -26.367014 46.741542 0.221575 2.170142 0.058262 -0.000727 -25707.800000 0 0 1
36.924604 7.958326 -25.284244 45.453870 0.212282 2.160677 0.042198 0.003763 -355027.000000 0 0 1
35.892744 7.131126 -25.766414 44.755448 0.196125 2.184276 0.045535 0.000920 -10419.200000 0 0 1
34.968974 6.446726 -24.694654 43.292209 0.182309 2.177811 0.063620 -0.011500 185865.000000 0 0 1
35.647324 5.538726 -23.892654 43.269714 0.154143 2.155773 0.060759 -0.018321 -116142.000000 0 0 1
34.764384 4.666726 -23.245554 42.079645 0.133441 2.156059 0.075860 -0.022775 43774.400000 0 0 1
35.571154 3.645026 -22.426654 42.208388 0.102115 2.130968 0.065561 -0.017855 -83053.000000 0 0 1
36.333314 2.770526 -23.177954 43.185681 0.076106 2.137323 0.077350 -0.020319 -362606.000000 0 0 1
37.206764 2.012226 -22.381854 43.466536 0.054030 2.111712 0.129439 -0.023349 108384.000000 0 0 1
-37.590568 0.824426 -23.087154 44.121958 -0.021928 2.121466 0.137396 -0.026552 442894.000000 0 0 1
36.984494 -0.086074 -23.679254 43.915456 -0.002327 2.140284 0.102900 -0.031927 214688.000000 0 0 1
37.660574 -1.242274 -24.076854 44.716406 -0.032974 2.139374 0.113344 -0.035103 111658.000000 0 0 1
-23.742578 29.108326 26.775242 46.129364 -0.886578 0.951530 0.040292 -0.005131 -245127.000000 0 0 1
-25.123128 29.053526 26.463772 46.643437 -0.857819 0.967496 0.031599 -0.011796 502240.000000 0 0 1
-25.431428 28.387326 25.250852 45.718742 -0.840266 0.985665 0.024475 -0.001663 -266924.000000 0 0 1
-25.520878 26.840726 25.285592 44.845300 -0.810599 0.971768 0.043739 -0.011199 811267.000000 0 0 1
-26.816128 26.319026 25.687792 45.515476 -0.776043 0.971120 0.050756 -0.005270 1121880.000000 0 0 1
-27.077198 26.305326 27.091602 46.466114 -0.770940 0.948331 0.052376 -0.006440 -386893.000000 0 0 1
-26.260148 25.311226 27.981832 45.969952 -0.767000 0.916377 0.054097 -0.004470 -893117.000000 0 0 1
-24.910578 25.513226 28.121762 45.412499 -0.797349 0.903007 0.062110 -0.004972 -1311210.000000 0 0 1
-24.586078 26.308326 29.249632 46.391209 -0.819225 0.888600 0.060594 -0.008834 212635.000000 0 0 1
-23.128178 26.037526 29.692562 45.765857 -0.844504 0.864799 0.075535 -0.008288 290253.000000 0 0 1
-22.027778 26.728826 29.053342 45.207852 -0.881520 0.872829 0.087885 -0.015386 1092780.000000 0 0 1
-20.819778 26.377726 29.742732 44.876249 -0.902618 0.846281 0.108754 -0.020599 633287.000000 0 0 1
-20.111878 25.060726 29.287752 43.477581 -0.894517 0.831688 0.099455 -0.017043 -518263.000000 0 0 1
-19.628678 24.956226 27.977202 42.318106 -0.904326 0.848490 0.094353 -0.015458 347480.000000 0 0 1
-20.454078 24.158326 27.092822 41.665514 -0.868240 0.862888 0.094975 -0.021200 375908.000000 0 0 1
-20.428078 22.593226 27.192112 40.831008 -0.835683 0.842007 0.088119 -0.010363 16366.300000 0 0 1
-21.111778 22.114326 28.303852 41.663637 -0.808587 0.823931 0.075022 -0.012210 -183193.000000 0 0 1
-20.900578 20.731726 28.477832 40.958828 -0.781342 0.801988 0.084027 -0.009436 172261.000000 0 0 1
-21.353378 20.165326 29.810372 41.848123 -0.756791 0.777960 0.090167 -0.020285 -68580.900000 0 0 1
-20.330578 20.400426 30.746012 42.128696 -0.787113 0.752750 0.079887 -0.027386 142929.000000 0 0 1
-20.642878 19.842026 32.024210 42.957938 -0.765619 0.729544 0.081662 -0.029777 -132098.000000 0 0 1
-19.699878 20.355726 33.135026 43.593242 -0.801770 0.707336 0.089425 -0.029111 -669945.000000 0 0 1
-19.722678 21.741826 33.309773 44.398559 -0.834056 0.722365 0.061615 -0.025767 145925.000000 0 0 1
-18.839978 22.522526 32.510682 43.808143 -0.874195 0.734576 0.074310 -0.018882 -547915.000000 0 0 1
-17.374178 22.523726 32.940103 43.522761 -0.913757 0.712320 0.070717 -0.016987 -820132.000000 0 0 1
-16.798478 21.269226 32.823149 42.566747 -0.902305 0.690232 0.072733 -0.029165 -1152900.000000 0 0 1
-15.499278 21.353826 33.317859 42.500509 -0.942943 0.669809 0.051838 -0.022029 -791806.000000 0 0 1
-14.669278 20.044526 33.153436 41.426092 -0.939023 0.642996 0.052489 -0.022052 431858.000000 0 0 1
-13.288578 20.060026 33.484808 41.233764 -0.985725 0.623101 0.038040 -0.026545 465157.000000 0 0 1
-13.015478 20.017026 -32.734774 40.517273 -0.994266 2.511413 0.044476 -0.026037 751990.000000 0 0 1
-11.478578 20.116126 -32.370704 39.802999 -1.052263 2.520551 0.046841 -0.022053 1071220.000000 0 0 1
-10.869478 21.349426 -32.562674 40.426121 -1.099877 2.507291 0.050577 -0.026861 -787166.000000 0 0 1
-9.597578 21.326526 -32.002174 39.636768 -1.147917 2.510505 0.053661 -0.023631 -890456.000000 0 0 1
-8.757678 22.587626 -32.023014 40.154342 -1.200921 2.493933 0.060987 -0.028752 -129688.000000 0 0 1
-8.838678 23.459026 -30.870504 39.767275 -1.210474 2.459538 0.066127 -0.030314 595055.000000 0 0 1
-8.158178 22.837326 -29.704394 38.346452 -1.227695 2.456930 0.071265 -0.030071 103355.000000 0 0 1
-7.679278 23.904426 -28.737694 38.160817 -1.259961 2.423509 0.079627 -0.028615 627358.000000 0 0 1
-6.504178 24.554526 -29.262294 38.749335 -1.311856 2.426708 0.090299 -0.028608 608200.000000 0 0 1
-6.022578 25.619426 -28.465464 38.767371 -1.339910 2.395377 0.106394 -0.024415 9354.570000 0 0 1
-4.678278 26.205226 -28.952674 39.330109 -1.394133 2.398154 0.088183 -0.032019 -111782.000000 0 0 1
-3.526678 25.428926 -28.572444 38.411617 -1.432988 2.409607 0.107321 -0.026301 1246540.000000 0 0 1
-2.322878 25.790226 -29.273194 39.082623 -1.480971 2.417360 0.120992 -0.030425 676848.000000 0 0 1
-1.719578 27.176426 -28.997454 39.778982 -1.507606 2.387604 0.130724 -0.048154 -581883.000000 0 0 1
-0.903978 27.278026 -27.803484 38.960770 -1.537669 2.365459 0.138592 -0.063208 579074.000000 0 0 1
-0.122378 28.418626 -27.790134 39.748268 -1.566490 2.345009 0.145372 -0.057904 -876448.000000 0 0 1
0.607622 28.757726 -26.483124 39.099001 1.549670 2.314930 0.143964 -0.068381 -39363.800000 0 0 1
1.601422 27.879026 -25.961194 38.128575 1.513418 2.319767 0.179234 -0.075474 910711.000000 0 0 1
2.842122 27.941726 -26.674904 38.734587 1.469429 2.330434 0.180247 -0.071212 -296011.000000 0 0 1
4.055522 28.109526 -25.754114 38.338846 1.427509 2.307365 0.179988 -0.075231 -408320.000000 0 0 1
4.295222 26.930626 -25.083754 37.052696 1.412636 2.314441 0.190025 -0.068068 -654702.000000 0 0 1
5.537022 26.990426 -24.482354 36.858206 1.368456 2.297261 0.156613 -0.058274 -485335.000000 0 0 1
6.076722 25.762726 -23.643054 35.491388 1.339158 2.299849 0.160812 -0.054637 1386780.000000 0 0 1
7.494522 25.880926 -23.391654 35.681363 1.288929 2.285734 0.137147 -0.047857 750955.000000 0 0 1
8.076922 24.772126 -22.736754 34.581135 1.255616 2.288279 0.124669 -0.035017 360755.000000 0 0 1
9.572322 24.992326 -22.420154 34.912878 1.205021 2.268128 0.118185 -0.017308 -837788.000000 0 0 1
9.740822 26.071026 -21.516354 35.178623 1.213231 2.228917 0.125092 -0.016117 950926.000000 0 0 1
11.082222 26.593826 -21.334654 35.849891 1.175958 2.208200 0.126568 -0.024590 1169180.000000 0 0 1
12.094122 25.627726 -20.661554 35.070614 1.129868 2.200792 0.091079 -0.003769 -483750.000000 0 0 1
12.457522 24.580726 -21.518054 34.963246 1.101723 2.233750 0.085497 -0.011110 -356740.000000 0 0 1
12.833322 23.397826 -20.833854 33.855604 1.069118 2.233657 0.061502 0.000954 -94988.000000 0 0 1
13.021822 22.173326 -21.801754 33.712620 1.039787 2.274039 0.060007 -0.010295 11162.000000 0 0 1
11.818622 21.960226 -22.493554 33.584093 1.077071 2.304693 0.074017 -0.023622 -7031.250000 0 0 1
11.936922 20.815726 -23.265054 33.422258 1.050122 2.340740 0.073881 -0.017675 -183673.000000 0 0 1
11.108922 20.874726 -24.532454 34.073504 1.081744 2.374579 0.088261 -0.022475 -445252.000000 0 0 1
9.713622 20.803026 -24.473954 33.557336 1.133950 2.388120 0.088762 -0.027099 -414441.000000 0 0 1
9.239222 20.482726 -25.755884 34.179977 1.147050 2.424222 0.078873 -0.028556 376585.000000 0 0 1
7.734922 19.986226 -25.821834 33.556599 1.201536 2.448856 0.094629 -0.040463 1196050.000000 0 0 1
6.725922 20.962826 -25.633184 33.789617 1.260323 2.431975 0.122606 -0.045883 50322.800000 0 0 1
6.674222 21.559726 -24.369654 33.215163 1.270584 2.394534 0.124058 -0.050706 -40721.200000 0 0 1
5.216822 21.694726 -23.766554 32.599470 1.334812 2.387725 0.148248 -0.053258 1269160.000000 0 0 1
4.459922 22.826426 -24.236354 33.590735 1.377843 2.376790 0.149902 -0.051479 842591.000000 0 0 1
3.068622 22.765426 -23.892854 33.144374 1.436811 2.375856 0.174974 -0.052108 558206.000000 0 0 1
2.340622 23.947526 -24.495154 34.336207 1.473366 2.365122 0.166660 -0.045813 -1339230.000000 0 0 1
0.972622 23.906426 -24.331654 34.124662 1.530134 2.364596 0.172300 -0.066612 -976655.000000 0 0 1
0.386422 24.895326 -25.204044 35.428384 1.555276 2.362296 0.160057 -0.055075 133512.000000 0 0 1
-1.129978 24.641926 -25.365264 35.382171 -1.524973 2.370133 0.164746 -0.057666 -18512.000000 0 0 1
-1.470178 23.478926 -25.991354 35.056695 -1.508261 2.405964 0.180058 -0.060114 -742524.000000 0 0 1
-2.848478 23.398326 -26.190824 35.235703 -1.449654 2.408792 0.174991 -0.045877 -472613.000000 0 0 1
-3.256678 21.992726 -26.654044 34.709134 -1.423785 2.446393 0.152908 -0.044937 -792336.000000 0 0 1
-2.751678 21.558226 -27.891234 35.358871 -1.443843 2.479658 0.185241 -0.059845 -415598.000000 0 0 1
-3.485678 20.563026 -28.470904 35.292781 -1.402881 2.509353 0.138969 -0.051481 -1109890.000000 0 0 1
-4.694578 20.940426 -29.289944 36.310347 -1.350256 2.509268 0.099330 -0.045584 -857270.000000 0 0 1
-4.454778 21.417326 -30.588124 37.605588 -1.365722 2.520758 0.111949 -0.040545 -144050.000000 0 0 1
-3.954878 22.719326 -30.675474 38.376992 -1.398448 2.496958 0.126384 -0.041431 -160693.000000 0 0 1
-3.599078 22.976926 -32.165724 39.692900 -1.415420 2.515571 0.113687 -0.034139 -119513.000000 0 0 1
-2.618578 22.093926 -32.673354 39.529060 -1.452826 2.543774 0.114718 -0.033637 298536.000000 0 0 1
-2.510478 22.438126 33.538622 40.430325 -1.459375 0.592511 0.119358 -0.015334 -82047.400000 0 0 1
-1.323778 21.641626 32.932327 39.429057 -1.509704 0.582246 0.140959 -0.013233 189184.000000 0 0 1
-1.635878 20.291426 32.702160 38.520765 -1.490351 0.556803 0.119380 -0.007660 92890.100000 0 0 1
-0.496178 19.654126 32.184266 37.714160 -1.545556 0.548374 0.117247 -0.007380 -6814.230000 0 0 1
-0.727978 18.203926 31.762694 36.616685 -1.530827 0.520767 0.095194 0.003617 75908.400000 0 0 1
-1.540378 18.197526 30.607912 35.642208 -1.486350 0.537962 0.083570 0.003547 -70369.400000 0 0 1
-1.810378 16.893826 30.308212 34.745742 -1.464042 0.510939 0.060247 0.008697 -769215.000000 0 0 1
-2.783378 16.670526 29.184582 33.725265 -1.405358 0.524923 0.056717 0.018968 -248455.000000 0 0 1
-4.135378 16.976826 29.468882 34.259729 -1.331860 0.535211 0.038388 0.012984 47034.100000 0 0 1
-4.490478 18.235526 28.928662 34.490090 -1.329351 0.575808 0.040426 0.008907 -683811.000000 0 0 1
-5.984078 18.531226 29.037202 34.962475 -1.258448 0.590747 0.021331 0.003159 -96039.900000 0 0 1
-6.748278 17.721626 28.116932 33.913967 -1.206956 0.593360 0.017688 0.001534 -153092.000000 0 0 1
-8.062778 18.235526 28.069692 34.430371 -1.154492 0.617619 0.031056 0.001009 -365725.000000 0 0 1
-9.063078 17.319026 27.384232 33.644973 -1.088682 0.619933 0.036886 -0.008274 -498572.000000 0 0 1
-9.155078 15.994526 27.898182 33.435743 -1.050927 0.583786 0.041852 -0.014400 236141.000000 0 0 1
-9.807678 15.854126 29.193022 34.637789 -1.016798 0.568316 0.046698 -0.017055 -127993.000000 0 0 1
-10.444078 14.489226 29.422372 34.419361 -0.946236 0.545592 0.040730 -0.022613 480123.000000 0 0 1
-9.519478 13.389726 29.695002 33.936682 -0.952757 0.505336 0.062869 -0.017073 669946.000000 0 0 1
-8.982978 13.370426 31.030282 34.961988 -0.979211 0.478811 0.068361 -0.018314 -206499.000000 0 0 1
-9.832878 12.821426 32.179838 36.008561 -0.916560 0.465334 0.111050 -0.024468 -398676.000000 0 0 1
-10.222278 11.504826 32.030001 35.535573 -0.844360 0.447919 0.130763 -0.037357 578099.000000 0 0 1
-10.990278 11.156626 33.217049 36.723683 -0.792909 0.440560 0.141810 -0.036594 65125.600000 0 0 1
-11.396878 9.697826 33.380555 36.581390 -0.705028 0.421440 0.135620 -0.038654 -723383.000000 0 0 1
-10.363478 8.821626 33.693652 36.338478 -0.705203 0.383884 0.159742 -0.048003 -338749.000000 0 0 1
-10.607178 8.102126 -32.705894 35.324668 -0.652296 2.754116 0.188391 -0.059190 -379914.000000 0 0 1
-9.982578 8.677026 -31.411094 34.082246 -0.715545 2.743047 0.141375 -0.056839 -390247.000000 0 0 1
-10.364378 10.001026 -31.134384 34.304383 -0.767558 2.708309 0.129696 -0.053098 187380.000000 0 0 1
-9.394978 10.564026 -30.274344 33.412575 -0.843904 2.704713 0.121435 -0.059779 210588.000000 0 0 1
-8.344378 11.427226 -30.992094 34.069341 -0.940076 2.713302 0.109054 -0.046276 -30376.700000 0 0 1
-8.880678 12.690226 -31.317004 34.937988 -0.960202 2.682285 0.094900 -0.037590 -406754.000000 0 0 1
-7.933578 13.477726 -31.932434 35.556590 -1.038769 2.686166 0.067396 -0.020693 -596535.000000 0 0 1
-8.334678 14.990326 -32.145544 36.435048 -1.063355 2.651459 0.073555 -0.010669 18700.900000 0 0 1
-8.927978 15.358526 -33.372584 37.806381 -1.044237 2.652423 0.089451 -0.015613 60552.800000 0 0 1
-9.311478 16.723826 -33.344504 38.447964 -1.062763 2.620475 0.079048 -0.010569 -683274.000000 0 0 1
-9.886178 17.233226 32.915888 38.447058 -1.049962 0.543052 0.064595 -0.020744 186933.000000 0 0 1
-10.917478 16.531626 32.277967 37.872855 -0.987145 0.550483 0.052594 -0.022205 -341524.000000 0 0 1
-12.174278 16.590026 32.885065 38.792648 -0.937724 0.559136 0.052004 -0.029214 -280389.000000 0 0 1
-13.390578 16.128726 31.993246 38.249329 -0.877891 0.580042 0.058498 -0.037504 438229.000000 0 0 1
-13.616778 14.744326 32.047840 37.813699 -0.825134 0.559502 0.055204 -0.038662 52979.300000 0 0 1
-14.727378 14.318126 32.789710 38.691982 -0.771309 0.559624 0.031234 -0.027159 -362535.000000 0 0 1
-14.813078 12.748026 32.769396 38.154591 -0.710612 0.537759 0.035944 -0.028687 -14996.100000 0 0 1
-15.050578 12.117526 31.515567 36.967355 -0.677855 0.550000 0.024980 -0.028001 483757.000000 0 0 1
-13.837078 11.639726 30.926482 35.824506 -0.699362 0.529069 0.056566 -0.025734 156690.000000 0 0 1
-13.941678 11.081526 29.470242 34.433498 -0.671592 0.543586 0.045537 -0.020135 -253127.000000 0 0 1
-14.750578 9.935226 29.355372 34.322385 -0.592752 0.544698 0.042155 -0.018120 134186.000000 0 0 1
-14.603178 9.381326 28.065162 32.998718 -0.571026 0.553875 0.034011 -0.015213 226404.000000 0 0 1
-15.549978 8.181926 27.906542 32.977581 -0.484363 0.561931 0.044096 -0.015486 204367.000000 0 0 1
-14.913878 7.004526 28.301912 32.748823 -0.439086 0.527215 0.037375 -0.016121 491715.000000 0 0 1
-15.794178 5.925126 28.000462 32.689281 -0.358899 0.542222 0.054039 -0.015544 881732.000000 0 0 1
-14.940778 4.571226 28.006082 32.069668 -0.296912 0.508884 0.074192 -0.019236 1469590.000000 0 0 1
-13.909578 4.318926 27.011682 30.688116 -0.301062 0.494513 0.069158 -0.023742 886171.000000 0 0 1
-14.401178 4.264226 25.670622 29.741526 -0.287877 0.529373 0.069070 -0.019292 4502.090000 0 0 1
-13.269378 4.131226 24.583752 28.240119 -0.301823 0.514527 0.060863 -0.009459 443267.000000 0 0 1
-12.665378 2.827826 24.677142 27.881351 -0.219669 0.484137 0.056256 -0.014770 -308255.000000 0 0 1
-11.464978 2.801426 23.975612 26.723093 -0.239651 0.457438 0.047142 -0.014958 -412850.000000 0 0 1
-10.539878 1.606226 24.338042 26.570835 -0.151232 0.412882 0.046807 -0.007057 885049.000000 0 0 1
-9.171978 1.889626 24.016012 25.777213 -0.203179 0.371797 0.038811 -0.020197 58969.000000 0 0 1
-8.241578 1.046026 24.561662 25.928614 -0.126246 0.326158 0.054339 -0.013178 -85942.600000 0 0 1
-6.818778 1.663026 24.420162 25.408772 -0.239219 0.279868 0.059540 -0.020944 -730072.000000 0 0 1
-6.439778 1.596926 23.072042 24.007083 -0.243075 0.280014 0.047752 -0.017173 56750.200000 0 1 0
-5.076178 1.893326 22.810172 23.444748 -0.357001 0.233195 0.051391 -0.016645 420364.000000 0 1 0
-4.524278 3.272426 23.219352 23.881294 -0.626195 0.235996 0.072121 -0.023886 -976393.000000 0 1 0
-4.256878 3.323626 24.597152 25.183078 -0.662902 0.216136 0.076055 -0.028310 -117080.000000 0 0 1
-4.024678 4.596626 25.107082 25.839748 -0.851642 0.238702 0.075551 -0.032254 57561.000000 0 0 1
4.288522 -23.887174 12.970546 27.517695 -1.393156 1.079972 0.152794 -0.029010 334697.000000 0 0 1
3.929522 -25.045464 13.690446 28.812232 -1.415169 1.075649 0.167321 -0.040056 -717901.000000 0 0 1
2.606922 -25.407194 13.437046 28.859587 -1.468548 1.086483 0.139871 -0.035199 -542965.000000 0 0 1
2.055522 -26.596194 14.208546 30.223591 -1.493663 1.081376 0.124273 -0.021343 -35725.600000 0 0 1
1.785522 -26.313574 15.593246 30.638890 -1.503045 1.036848 0.158348 -0.036528 -137427.000000 0 0 1
1.873422 -27.462994 16.398646 32.041244 -1.502686 1.033520 0.160737 -0.039938 60771.900000 0 0 1
1.494522 -27.237254 17.884546 32.618378 -1.515981 0.990470 0.146342 -0.041411 -608117.000000 0 0 1
2.365522 -26.433634 18.539846 32.373733 -1.481545 0.961023 0.173592 -0.049717 -818253.000000 0 0 1
2.299522 -26.740434 19.919546 33.423449 -1.485013 0.932317 0.160241 -0.055584 702812.000000 0 0 1
3.325322 -25.931004 20.812846 33.416303 -1.443255 0.898435 0.128201 -0.045389 763543.000000 0 0 1
2.859522 -24.602674 21.111446 32.544763 -1.455087 0.864935 0.122247 -0.039617 478788.000000 0 0 1
3.975522 -23.768274 21.390246 32.222325 -1.405069 0.844864 0.100751 -0.044380 348002.000000 0 0 1
3.492122 -22.454674 22.046746 31.661748 -1.416514 0.800537 0.122409 -0.042267 -56551.900000 0 0 1
2.842322 -21.516074 21.171346 30.319072 -1.439455 0.797798 0.140883 -0.044173 -194849.000000 0 0 1
3.639822 -20.924574 20.210446 29.318053 -1.398570 0.810203 0.115663 -0.026748 -748250.000000 0 0 1
2.904622 -19.891274 19.416746 27.948339 -1.425796 0.802742 0.084566 -0.033705 -218707.000000 0 0 1
2.800222 -18.695574 20.167846 27.642499 -1.422122 0.753066 0.066443 -0.032605 -395732.000000 0 0 1
1.628522 -17.976274 19.933446 26.891277 -1.480450 0.735850 0.067846 -0.042533 -513515.000000 0 0 1
1.489022 -16.794874 20.912246 26.862744 -1.482368 0.678548 0.076085 -0.036621 -336583.000000 0 0 1
2.493022 -15.842874 20.789346 26.256594 -1.414717 0.657085 0.027933 -0.012744 -266844.000000 0 0 1
2.042822 -14.606874 21.345446 25.945365 -1.431844 0.604639 0.045240 -0.010452 705296.000000 0 0 1
3.116322 -13.483674 21.128146 25.257068 -1.343666 0.579888 -0.013699 0.006932 -202372.000000 0 0 1
3.389922 -13.139874 19.772346 23.981108 -1.318314 0.601484 -0.032754 0.000281 -100141.000000 0 1 0
2.370722 -12.731474 18.862946 22.880592 -1.386695 0.601641 -0.024660 0.002117 -56270.600000 0 1 0
1.484622 -11.544174 19.217946 22.467788 -1.442895 0.544560 -0.007583 -0.009137 -110493.000000 0 1 0
2.226722 -10.307974 19.169546 21.878851 -1.358046 0.502943 -0.007337 0.000972 336081.000000 0 1 0
1.742622 -9.450074 20.216846 22.384403 -1.388442 0.443707 0.012734 -0.018850 526132.000000 0 1 0
0.324522 -8.855274 19.971446 21.849024 -1.534165 0.417598 0.039315 -0.030991 348901.000000 0 1 0
-0.067478 -8.128674 21.168146 22.675324 1.562495 0.366654 0.060792 -0.032021 637834.000000 0 1 0
-1.465978 -7.797174 21.082946 22.526332 1.384952 0.359921 0.061338 -0.025955 948737.000000 0 1 0
-2.026278 -6.985674 22.297846 23.454197 1.288482 0.315319 0.060146 -0.021625 -83979.900000 0 1 0
-2.296378 -7.918174 23.347746 24.760615 1.288526 0.339447 0.062962 -0.012970 46916.100000 0 1 0
-2.273078 -7.284674 24.631046 25.786077 1.268335 0.300437 0.061608 -0.004209 -22984.100000 0 0 1
-2.504378 -8.325574 25.752846 27.180805 1.278601 0.325583 0.068173 -0.001948 180185.000000 0 0 1
-1.441278 -9.242074 25.923646 27.559547 1.416095 0.346282 0.070632 -0.003711 46815.800000 0 0 1
-1.737978 -10.133774 26.982646 28.875199 1.400945 0.364064 0.094608 -0.011375 -580732.000000 0 0 1
-0.609778 -11.128974 27.202646 29.397446 1.516059 0.388864 0.108523 -0.014859 115392.000000 0 0 1
0.427022 -10.396774 27.904746 29.781708 -1.529747 0.356924 0.105695 -0.022270 556173.000000 0 0 1
1.538722 -11.213074 28.266046 30.447825 -1.434422 0.380864 0.132092 -0.027995 818259.000000 0 0 1
2.568022 -10.561474 29.232646 31.187931 -1.332275 0.355977 0.155447 -0.038049 237780.000000 0 0 1
2.004622 -10.457874 30.489746 32.295669 -1.381408 0.335998 0.156414 -0.043455 -441324.000000 0 0 1
2.914022 -9.995774 31.434746 33.114201 -1.287132 0.319849 0.208971 -0.055441 -356931.000000 0 0 1
2.324322 -9.589774 32.792146 34.244577 -1.333007 0.292290 0.210496 -0.062930 -384896.000000 0 0 1
1.777222 -10.725874 33.491246 35.211737 -1.406593 0.313893 0.199047 -0.062575 25040.800000 0 0 1
2.164122 -10.868674 -32.741660 34.566282 -1.374251 2.815227 0.176658 -0.058658 -296045.000000 0 0 1
3.651922 -11.082274 -32.411760 34.448157 -1.252474 2.796030 0.161139 -0.048446 316134.000000 0 0 1
4.547122 -9.968974 -32.679760 34.467717 -1.142859 2.818086 0.148704 -0.057882 411424.000000 0 0 1
4.831122 -9.010474 -31.638860 33.249750 -1.078635 2.829040 0.164391 -0.057164 184729.000000 0 0 1
3.759922 -7.896474 -31.311760 32.510270 -1.126408 2.869217 0.151982 -0.046946 334184.000000 0 0 1
3.702022 -6.914674 -32.267960 33.207513 -1.079242 2.903148 0.187860 -0.053987 -85369.600000 0 0 1
2.922622 -5.837274 -31.812460 32.475346 -1.106603 2.939198 0.156506 -0.028370 -25349.900000 0 0 1
3.047722 -4.535074 -32.688160 33.141686 -0.979087 2.975968 0.161109 -0.031005 38661.800000 0 0 1
2.442922 -4.590274 33.612946 34.012771 -1.081725 0.153481 0.163192 -0.042814 -77667.500000 0 0 1
2.606122 -3.395074 32.858946 33.136517 -0.916114 0.129524 0.177540 -0.036602 433371.000000 0 0 1
1.698522 -3.394574 31.565946 31.793349 -1.106858 0.119675 0.189159 -0.036835 -135517.000000 0 0 1
0.352122 -3.211974 31.869746 32.033131 -1.461604 0.101043 0.170096 -0.037285 -1051360.000000 0 0 1
-0.358278 -3.579074 30.723446 30.933287 1.471025 0.116545 0.157227 -0.026189 730675.000000 0 0 1
-1.918178 -3.451974 30.713246 30.966094 1.063606 0.127879 0.125610 -0.029838 935784.000000 0 0 1
-2.514178 -2.154374 30.549046 30.727945 0.708481 0.107960 0.121263 -0.031578 522972.000000 0 0 1
-3.932878 -2.304774 30.496846 30.835647 0.530082 0.148374 0.086251 -0.027560 599884.000000 0 0 1
-4.770878 -1.199274 29.847746 30.250413 0.246271 0.163345 0.056718 -0.020860 -244213.000000 0 0 1
-4.465478 -1.108974 28.463146 28.832638 0.243419 0.160265 0.061805 -0.018558 -127998.000000 0 0 1
-5.323578 -0.381174 27.603346 28.114596 0.071479 0.190997 0.052105 -0.019821 25655.500000 0 0 1
-5.759978 1.068426 27.986646 28.593203 -0.183407 0.206343 0.070849 -0.024043 706933.000000 0 0 1
-7.071478 1.093826 28.565746 29.448329 -0.153465 0.245444 0.061951 -0.023287 234343.000000 0 0 1
-7.441278 2.421026 28.815146 29.858778 -0.314549 0.265171 0.070121 -0.029079 -13631.700000 0 0 1
-8.884878 2.569126 29.341946 30.765098 -0.281480 0.305351 0.069554 -0.029626 -296890.000000 0 0 1
-9.808578 2.177026 28.403846 30.128493 -0.218411 0.339993 0.063410 -0.022106 -866139.000000 0 0 1
-11.151278 2.448626 28.694446 30.882325 -0.216152 0.378678 0.056287 -0.022585 -245561.000000 0 0 1
-12.107578 1.642026 27.792746 30.359948 -0.134797 0.414194 0.057451 -0.019850 -212437.000000 0 0 1
-12.146978 0.274926 28.188446 30.695491 -0.022629 0.406968 0.063160 -0.021924 7312.970000 0 0 1
-12.314778 -0.549174 27.029146 29.707408 0.044565 0.427885 0.065282 -0.019429 -1024400.000000 0 0 1
-12.014378 -2.057074 27.295246 29.893265 0.169573 0.419997 0.077128 -0.019310 201630.000000 0 0 1
-10.700378 -2.357074 27.774246 29.857371 0.216817 0.375755 0.073026 -0.026137 1745870.000000 0 0 1
-9.556478 -2.014074 26.932846 28.648926 0.207715 0.347874 0.092897 -0.028651 396218.000000 0 0 1
-9.473878 -2.632474 25.472346 27.304298 0.271029 0.368396 0.065174 -0.024716 -1080620.000000 0 0 1
-10.571678 -2.251774 24.679746 26.942916 0.209864 0.412800 0.048337 -0.018963 -125157.000000 0 0 1
-10.612778 -2.769674 23.327746 25.777624 0.255281 0.439508 0.051282 -0.024139 99519.500000 0 0 1
-9.482678 -2.394974 22.300546 24.351005 0.247389 0.413312 0.051370 -0.018327 -190634.000000 0 1 0
-8.251678 -2.769774 22.797146 24.402289 0.323845 0.364726 0.050651 -0.016726 -330157.000000 0 1 0
-7.144978 -2.183874 22.033246 23.265510 0.296634 0.326924 0.036330 -0.015950 542300.000000 0 1 0
-5.776278 -2.434374 22.641246 23.492926 0.398854 0.270088 0.033840 -0.008881 -437138.000000 0 1 0
-5.255778 -3.708074 22.469446 23.371971 0.614423 0.278807 0.040917 -0.012096 -266351.000000 0 1 0
-5.819778 -4.625374 23.395746 24.548418 0.671543 0.307659 0.048949 -0.006780 -128728.000000 0 1 0
-5.572878 -6.096274 23.023746 24.460466 0.830221 0.344443 0.067361 -0.009195 -96335.500000 0 1 0
-6.431978 -6.584974 22.002746 23.850640 0.797151 0.396231 0.063728 -0.016908 -62092.600000 0 1 0
-6.289078 -6.036674 20.719046 22.478274 0.764923 0.398262 0.064666 -0.022282 -537672.000000 0 1 0
-7.463678 -6.378074 19.802346 22.102471 0.707129 0.460268 0.061393 -0.019240 -373361.000000 0 1 0
-8.591778 -5.574574 20.075946 22.537483 0.575550 0.471737 0.073786 -0.015942 -5950.000000 0 1 0
-9.266378 -5.199674 18.836946 21.627133 0.511351 0.513589 0.063637 -0.025281 244861.000000 0 1 0
-9.907178 -3.852874 19.008546 21.778926 0.370899 0.509896 0.048237 -0.020292 -38687.000000 0 1 0
-8.956378 -2.797374 18.973146 21.166537 0.302733 0.459274 0.038670 -0.008855 57373.600000 0 1 0
-9.572178 -1.541174 18.775046 21.130645 0.159636 0.476682 0.036071 -0.018891 419819.000000 0 1 0
-8.565678 -0.436774 18.289846 20.200992 0.050947 0.438491 0.013377 -0.007416 606049.000000 0 1 0
-7.532178 0.057526 19.130046 20.559564 -0.007637 0.375104 0.021233 0.000853 552547.000000 0 1 0
-8.015478 0.925026 20.147346 21.702975 -0.114897 0.380923 0.041737 -0.002457 -68963.200000 0 1 0
-7.948678 2.443426 19.820546 21.494321 -0.298232 0.397247 0.031017 -0.015101 -53660.700000 0 1 0
-8.919278 2.833326 18.861346 21.055442 -0.307582 0.460581 0.017020 -0.021735 143466.000000 0 1 0
-8.538578 4.049926 18.233746 20.537252 -0.442885 0.478172 0.008954 -0.028559 -127338.000000 0 1 0
-9.541078 4.623226 17.204346 20.208808 -0.451220 0.552283 0.013281 -0.013009 -131304.000000 0 1 0
-10.768178 4.981826 17.802846 21.394242 -0.433318 0.587854 0.017158 -0.004444 -330125.000000 0 1 0
-11.551678 5.862826 17.024046 21.392338 -0.469654 0.650467 0.015163 0.021578 -54320.200000 0 1 0
-11.233578 7.418126 17.046746 21.721266 -0.583619 0.668431 0.011320 0.016980 -381432.000000 0 1 0
-9.907078 7.629626 16.638246 20.813280 -0.656253 0.644492 -0.003752 0.003376 -110114.000000 0 1 0
-9.574478 8.967726 16.317046 20.936493 -0.752687 0.677154 -0.022538 -0.010912 836505.000000 0 1 0
-8.317278 9.582026 17.061346 21.262217 -0.855940 0.639448 -0.010344 0.000094 520828.000000 0 1 0
-8.577678 9.842326 18.438046 22.592244 -0.853947 0.616127 0.013019 0.017110 -51129.500000 0 1 0
-8.463678 11.217926 18.782646 23.457696 -0.924435 0.642329 0.049366 0.017250 -24659.900000 0 1 0
-9.197278 12.313226 17.930146 23.615579 -0.929255 0.708635 0.065374 -0.002451 348401.000000 0 1 0
-8.537378 12.707326 16.734446 22.680490 -0.979216 0.740940 0.035192 -0.011188 123207.000000 0 1 0
-9.374778 13.685526 16.166846 23.163484 -0.970199 0.798272 0.052770 -0.025300 219028.000000 0 1 0
-8.919578 14.070426 14.712946 22.226258 -1.005806 0.847362 0.050016 -0.027948 380487.000000 0 1 0
-7.642478 14.659426 14.590746 22.049855 -1.090226 0.847691 0.046360 -0.021679 -69671.300000 0 1 0
-7.509178 15.035726 13.241546 21.396246 -1.107611 0.903490 0.037558 -0.036907 -369790.000000 0 1 0
-6.609478 16.263126 13.124346 21.918552 -1.184777 0.928822 0.022515 -0.030574 437764.000000 0 1 0
-5.225178 15.921326 13.112346 21.277329 -1.253684 0.906813 0.015503 -0.032553 -96148.200000 0 1 0
-4.401978 17.022226 13.319846 22.057921 -1.317738 0.922464 0.012531 -0.030351 426334.000000 0 1 0
-2.879178 16.694026 13.380246 21.587292 -1.400009 0.902282 0.019869 -0.039075 104380.000000 0 1 0
-2.292078 16.293726 14.563746 21.973662 -1.431041 0.846269 0.031796 -0.037963 -295222.000000 0 1 0
-2.543778 14.977126 15.017646 21.361526 -1.402558 0.791157 0.034229 -0.032044 -256371.000000 0 1 0
-1.482778 14.477626 16.025046 21.647226 -1.468734 0.737307 0.037053 -0.024932 26727.600000 0 1 0
-0.235978 14.201126 15.428646 20.970713 -1.554181 0.744062 0.033377 -0.041516 115014.000000 0 1 0
0.780522 13.739826 16.322846 21.350113 1.514050 0.700481 0.040233 -0.026399 842794.000000 0 1 0
1.674822 14.814126 17.050246 22.648935 1.458219 0.718482 0.046005 -0.031945 -114118.000000 0 1 0
0.985822 15.538026 18.027146 23.819742 1.507435 0.712369 0.044026 -0.034376 -651825.000000 0 1 0
1.789622 16.494326 18.624646 24.942794 1.462720 0.727718 0.058818 -0.033448 -1189350.000000 0 1 0
0.962322 17.608926 19.227546 26.090206 1.516201 0.742228 0.073637 -0.030687 -163622.000000 0 0 1
0.394222 18.494526 18.284246 26.009932 1.549484 0.791229 0.051414 -0.030659 371326.000000 0 0 1
-0.685178 17.961626 17.500046 25.086672 -1.532668 0.798777 0.058997 -0.027769 -493602.000000 0 0 1
-1.239278 19.022626 16.506346 25.216177 -1.505741 0.857152 0.050590 -0.021192 -254639.000000 0 0 1
-2.049178 20.011426 17.061646 26.377188 -1.468752 0.867371 0.041047 -0.014762 -214868.000000 0 0 1
-2.638778 20.771126 16.055446 26.385226 -1.444433 0.916626 0.035738 -0.014559 -309690.000000 0 0 1
-3.356178 22.042626 16.487446 27.730438 -1.419698 0.934076 0.032578 -0.008830 388569.000000 0 0 1
-4.511078 21.923626 17.341146 28.314494 -1.367865 0.911643 0.044192 -0.006139 677652.000000 0 0 1
-4.855778 23.146426 18.002646 29.722565 -1.364010 0.920164 0.043070 -0.013062 -746553.000000 0 0 1
-5.881278 22.830026 19.028346 30.296493 -1.318667 0.891725 0.043747 -0.013604 447091.000000 0 0 1
-7.261978 22.756426 18.589346 30.268053 -1.261894 0.909479 0.038471 -0.018135 917651.000000 0 0 1
-8.031278 22.175826 19.618546 30.678266 -1.223327 0.876957 0.028344 -0.019415 368957.000000 0 0 1
-9.561478 22.346926 19.396046 31.096842 -1.166501 0.897290 0.034666 -0.022162 284741.000000 0 0 1
-10.124078 23.555326 19.806946 32.398541 -1.164867 0.913027 0.047227 -0.022330 -257281.000000 0 0 1
-11.287878 23.733426 19.026546 32.445356 -1.126850 0.944167 0.037178 -0.018848 -161869.000000 0 0 1
-11.812378 25.172526 19.169446 33.773599 -1.132044 0.967225 0.048054 -0.015464 185317.000000 0 0 1
-12.404078 25.446626 20.443646 34.918972 -1.117235 0.945350 0.047168 -0.016705 180953.000000 0 0 1
-13.154478 26.651226 20.513746 36.112905 -1.112299 0.966668 0.055034 -0.021932 -140584.000000 0 0 1
-14.030278 26.797926 21.775446 37.271270 -1.088480 0.946850 0.083323 -0.030896 -66364.900000 0 0 1
-15.309278 26.180626 21.683546 37.282373 -1.041661 0.950098 0.077891 -0.030137 165092.000000 0 0 1
-15.961078 26.413226 22.905746 38.432899 -1.027233 0.932294 0.066033 -0.018832 713232.000000 0 0 1
-17.510978 26.134226 22.931246 38.929091 -0.980462 0.940912 0.071089 -0.021401 1016270.000000 0 0 1
-17.837478 24.781626 22.718946 38.058575 -0.946914 0.931106 0.073742 -0.021492 -184402.000000 0 0 1
-19.233578 24.582426 22.739646 38.617583 -0.906872 0.941171 0.086653 -0.015845 -969.181000 0 0 1
29.095422 23.961726 23.406642 44.368669 0.688941 1.015084 0.140229 -0.020455 95597.900000 0 0 1
28.785522 23.181426 24.549492 44.369611 0.677974 0.984481 0.142474 -0.025013 99436.100000 0 0 1
28.014222 22.072526 24.114002 43.052040 0.667322 0.976274 0.135100 -0.013049 -68835.000000 0 0 1
27.568322 21.149426 25.252842 42.953657 0.654396 0.942325 0.144158 -0.021741 366432.000000 0 0 1
26.377822 21.632226 25.883402 42.821644 0.686872 0.921725 0.148026 -0.020794 332817.000000 0 0 1
26.060522 20.828126 26.970202 42.899341 0.674266 0.890934 0.150645 -0.030725 -41676.600000 0 0 1
24.669822 21.181326 27.542652 42.612749 0.709461 0.868008 0.167820 -0.032109 5366.250000 0 0 1
24.538222 22.451926 28.138042 43.565614 0.741029 0.868624 0.179141 -0.041236 336940.000000 0 0 1
23.334322 22.472326 28.913062 43.421898 0.766582 0.842146 0.215506 -0.040657 456391.000000 0 0 1
22.970322 23.880226 29.427702 44.315805 0.804817 0.844580 0.204364 -0.040727 -774084.000000 0 0 1
22.337522 24.664326 28.460562 43.786956 0.834862 0.863241 0.188634 -0.045603 -224457.000000 0 0 1
21.790322 25.805526 28.998902 44.516061 0.869559 0.861334 0.155177 -0.044917 24892.700000 0 0 1
20.396422 25.667226 29.660802 44.210674 0.899327 0.835379 0.144850 -0.040644 -454812.000000 0 0 1
19.300822 25.573426 28.738952 43.040089 0.924280 0.839648 0.146103 -0.043245 779231.000000 0 0 1
18.032622 25.925526 29.257742 43.050248 0.963060 0.823554 0.114689 -0.032053 289654.000000 0 0 1
17.288322 24.959626 30.161022 42.796685 0.965019 0.788724 0.073600 -0.033264 -581019.000000 0 0 1
17.881522 24.908826 31.465192 43.934688 0.948172 0.772481 0.097304 -0.031343 405181.000000 0 0 1
17.021622 24.202426 32.355031 43.844511 0.957857 0.740770 0.070157 -0.028657 225581.000000 0 0 1
17.533322 23.993226 -33.757214 44.973790 0.939722 2.419762 0.090904 -0.028267 -113577.000000 0 0 1
17.850022 25.218526 -33.121694 45.295077 0.954845 2.390938 0.088633 -0.030913 -4350.820000 0 0 1
18.696822 25.076826 -32.024624 44.766002 0.930129 2.367962 0.066849 -0.006004 -200510.000000 0 0 1
18.928322 26.369426 -31.297344 45.090484 0.948215 2.337966 0.066544 -0.005326 51630.500000 0 0 1
17.830522 26.810326 -30.525234 44.367905 0.983906 2.329529 0.072469 -0.012268 354644.000000 0 0 1
18.181822 28.057926 -29.921814 44.868038 0.995821 2.300817 0.090923 -0.017242 299129.000000 0 0 1
17.450822 28.392526 -28.566964 43.894626 1.019691 2.279444 0.107049 -0.023453 188716.000000 0 0 1
17.988322 27.614826 -27.515374 42.933136 0.993437 2.266452 0.086134 -0.017357 294804.000000 0 0 1
17.752322 28.232526 -26.280814 42.460589 1.009476 2.238196 0.063805 -0.007174 -252057.000000 0 0 1
18.301622 27.285126 -25.145664 41.373082 0.979969 2.224056 0.050233 -0.015109 210341.000000 0 0 1
19.713722 27.330026 -25.294764 42.135333 0.945904 2.214700 0.050601 -0.006588 -443693.000000 0 0 1
20.349022 26.713526 -24.215654 41.401607 0.919818 2.195549 0.046092 -0.003955 -723235.000000 0 0 1
21.852422 26.916826 -24.295554 42.335775 0.888871 2.182029 0.045625 -0.005161 -808395.000000 0 0 1
22.500822 26.572226 -23.131754 41.802491 0.868175 2.157187 0.055786 -0.005302 -389480.000000 0 0 1
23.839922 26.173626 -23.374854 42.423866 0.832026 2.154339 0.062409 -0.005984 94014.600000 0 0 1
24.551122 26.080626 -22.031154 42.051497 0.815597 2.122230 0.084885 -0.015108 -200682.000000 0 0 1
24.143522 24.978126 -21.326654 40.763251 0.802387 2.121378 0.095194 -0.017710 198711.000000 0 0 1
24.813922 25.039926 -20.086454 40.573320 0.789931 2.088707 0.108154 -0.027260 -29534.300000 0 0 1
24.381622 23.863926 -19.210254 39.153344 0.774668 2.083622 0.119045 -0.028719 -648913.000000 0 0 1
24.891122 22.612426 -19.559754 38.903390 0.737466 2.097605 0.110509 -0.018539 195087.000000 0 0 1
24.617922 21.682926 -18.515854 37.669991 0.722093 2.084640 0.117001 -0.025256 -676679.000000 0 0 1
24.560522 20.192626 -18.995454 37.037666 0.688107 2.109319 0.122007 -0.028662 1287620.000000 0 0 1
23.391522 19.714926 -19.720254 36.396841 0.700313 2.143388 0.106616 -0.023640 2612030.000000 0 0 1
22.047722 19.947126 -19.155954 35.368637 0.735419 2.143146 0.101916 -0.033061 1644280.000000 0 0 1
21.018022 19.829226 -20.340654 35.336917 0.756303 2.184159 0.075096 -0.014176 112735.000000 0 0 1
21.176722 20.744226 -21.447254 36.589086 0.775082 2.197114 0.084143 -0.006680 -105076.000000 0 0 1
21.260822 22.105726 -21.214354 37.292553 0.804879 2.175919 0.078076 -0.012579 -78012.600000 0 0 1
21.120722 22.867526 -22.575554 38.453404 0.825088 2.198254 0.062141 -0.003380 -205132.000000 0 0 1
19.806022 22.726626 -23.016754 37.928209 0.853958 2.222888 0.064785 0.000677 -830549.000000 0 0 1
19.534522 23.011926 -24.360654 38.789016 0.866949 2.249815 0.052706 -0.000142 221676.000000 0 0 1
18.034622 23.057326 -24.764954 38.343068 0.907026 2.272969 0.044758 0.001238 226630.000000 0 0 1
17.372522 24.057326 -24.002654 38.166567 0.945372 2.250924 0.053020 -0.013121 -626411.000000 0 0 1
16.056922 24.145426 -24.451654 37.930327 0.983942 2.271357 0.063808 -0.012857 -604043.000000 0 0 1
15.131122 25.103326 -23.720054 37.706350 1.028355 2.251157 0.064730 -0.017728 -67517.700000 0 0 1
15.476022 26.445626 -23.971254 38.903720 1.041329 2.234665 0.062802 -0.019122 -374012.000000 0 0 1
14.449022 27.290826 -23.547354 38.833508 1.083870 2.222280 0.096127 -0.028958 -88551.300000 0 0 1
14.560122 28.690726 -24.169454 40.240743 1.101178 2.215074 0.093740 -0.032536 46849.200000 0 0 1
14.427822 28.666326 -25.582584 41.041307 1.104511 2.243800 0.099485 -0.042761 -135502.000000 0 0 1
13.932322 29.897826 -26.143234 42.088696 1.134719 2.241001 0.131001 -0.049339 91807.400000 0 0 1
14.815922 31.191426 -26.100654 43.285803 1.127348 2.218033 0.141853 -0.044919 861900.000000 0 0 1
16.014922 31.040626 -26.895724 44.083763 1.094483 2.226989 0.103123 -0.022136 591561.000000 0 0 1
16.814222 32.193126 -26.829994 45.154889 1.089474 2.207038 0.102790 -0.029208 329890.000000 0 0 1
18.221122 32.154926 -27.512004 46.074493 1.055247 2.210702 0.084917 0.000618 484335.000000 0 0 1
19.076622 31.424526 -26.666994 45.415272 1.025201 2.198368 0.044568 0.002875 394133.000000 0 0 1
20.439322 31.303526 -27.091604 46.169597 0.992357 2.197878 0.032939 0.006665 200636.000000 0 0 1
21.237822 30.606926 -25.988754 45.422950 0.964183 2.179922 0.010284 0.012156 -1413780.000000 0 0 1
21.591822 31.408426 -24.877154 45.514490 0.968541 2.149067 0.014224 0.007637 -103853.000000 0 0 1
22.678622 32.278326 -24.994854 46.700674 0.958330 2.135557 0.016435 0.000403 -727712.000000 0 0 1
24.043822 31.606226 -25.204304 47.035262 0.920463 2.136322 0.007475 0.013498 -1161680.000000 0 0 1
24.282522 31.097426 -26.515164 47.536772 0.907840 2.162508 0.014893 0.019471 -191974.000000 0 0 1
25.278722 31.777726 -27.218754 48.884540 0.898814 2.161321 0.009192 0.032382 -877269.000000 0 0 1
25.561622 31.174726 -28.626624 49.444349 0.884010 2.188257 0.016668 0.025785 780917.000000 0 0 1
24.564322 31.427026 -29.697384 49.729252 0.907357 2.210779 0.031326 0.018595 784490.000000 0 0 1
23.315222 30.802826 -29.602324 48.669408 0.922882 2.224628 0.020382 0.015820 -42904.700000 0 0 1
22.313322 31.444726 -30.639474 49.248680 0.953653 2.242267 0.016674 0.019175 -187111.000000 0 0 1
21.829622 32.736026 -30.320044 49.673785 0.982675 2.227341 0.038666 0.011518 -204352.000000 0 0 1
20.855322 33.183126 -31.187174 50.086966 1.009690 2.242934 0.044567 0.002376 1441020.000000 0 0 1
19.307822 32.767926 -31.016414 49.076949 1.038334 2.254922 0.065429 -0.004039 1601270.000000 0 0 1
18.935222 31.438826 -31.500384 48.365449 1.028696 2.280092 0.105462 -0.022627 120297.000000 0 0 1
19.201322 30.983226 -32.824074 49.051717 1.015994 2.303891 0.112775 -0.026807 -299977.000000 0 0 1
18.451622 31.729726 33.624772 49.778140 1.044072 0.829164 0.142306 -0.029993 -425374.000000 0 0 1
18.963022 33.054226 33.408613 50.678531 1.049944 0.851007 0.112775 -0.017368 -130089.000000 0 0 1
18.503522 33.699426 32.281269 50.200717 1.068663 0.872330 0.106242 -0.021908 -967141.000000 0 0 1
17.076522 -33.473324 32.343953 49.580262 -1.099059 0.860108 0.121836 -0.032183 -1640560.000000 0 0 1
16.204422 33.139326 32.228378 48.984351 1.116005 0.852727 0.135309 -0.034177 -934389.000000 0 0 1
14.860822 33.417226 32.525083 48.943192 1.152354 0.843908 0.114739 -0.035121 25890.200000 0 0 1
14.046322 -33.604324 31.403382 48.090770 -1.174877 0.859254 0.098746 -0.033347 -897320.000000 0 0 1
14.323722 -32.256524 31.209852 47.113769 -1.152896 0.846731 0.119583 -0.022857 49632.000000 0 0 1
13.515922 -31.798724 30.178182 45.875502 -1.168887 0.852865 0.119834 -0.028874 -571892.000000 0 0 1
13.986622 -30.480224 29.651092 44.764461 -1.140586 0.846805 0.119769 -0.030076 -414510.000000 0 0 1
13.754222 -29.392624 30.502932 44.536882 -1.133117 0.816342 0.110334 -0.027179 324538.000000 0 0 1
14.290422 -28.134724 30.151342 43.644957 -1.100826 0.808157 0.125128 -0.041041 -786087.000000 0 0 1
13.868122 -27.042424 31.151612 43.520575 -1.096939 0.773041 0.115698 -0.034499 250224.000000 0 0 1
12.476322 -26.775124 31.165052 42.939799 -1.134744 0.758622 0.089717 -0.034667 -3804.730000 0 0 1
11.851722 -26.133524 30.086132 41.576433 -1.145030 0.761743 0.079406 -0.039993 -627878.000000 0 0 1
12.150022 -24.573824 29.984672 40.627287 -1.111615 0.740631 0.078658 -0.032849 87753.900000 0 0 1
11.436822 -23.909624 31.020322 40.801120 -1.124630 0.707051 0.105164 -0.036432 320903.000000 0 0 1
12.217722 -22.832624 31.365022 40.673899 -1.079465 0.690176 0.102508 -0.036865 -46055.400000 0 0 1
11.553422 -22.103624 32.542373 41.000705 -1.089159 0.653924 0.092325 -0.034329 -296216.000000 0 0 1
11.491322 -22.799824 -33.777584 42.341559 -1.103946 2.494335 0.084891 -0.036083 512940.000000 0 0 1
12.713422 -23.119224 -33.114234 42.340077 -1.068025 2.468827 0.076902 -0.031591 792460.000000 0 0 1
13.539922 -21.929324 -32.489804 41.470618 -1.017656 2.470981 0.068778 -0.027982 417629.000000 0 0 1
13.970122 -20.830724 -33.322964 41.707353 -0.980041 2.496378 0.065035 -0.027072 -140557.000000 0 0 1
14.954322 -20.043124 -32.752004 41.207431 -0.929791 2.489488 0.058686 -0.023707 -358454.000000 0 0 1
15.323722 -18.838424 -33.658094 41.503855 -0.887920 2.516593 0.051772 -0.018622 -240530.000000 0 0 1
15.798022 -19.170824 32.594051 40.981339 -0.881552 0.651230 0.068616 -0.005010 431659.000000 0 0 1
15.644322 -18.114424 31.699161 39.720448 -0.858437 0.646733 0.057130 -0.004513 -118570.000000 0 0 1
16.554122 -16.871324 31.889741 39.694283 -0.794888 0.637840 0.059546 -0.008544 -970769.000000 0 0 1
16.210722 -15.940324 32.870497 39.966874 -0.776988 0.605103 0.052856 -0.009758 387158.000000 0 0 1
16.941722 -14.711424 32.776837 39.721141 -0.715054 0.600287 0.063592 -0.022859 1524540.000000 0 0 1
18.514222 -14.770324 33.014877 40.631527 -0.673387 0.622294 0.058982 -0.014082 1194100.000000 0 0 1
19.349922 -15.327524 32.012614 40.424744 -0.669920 0.656872 0.071663 -0.015699 606473.000000 0 0 1
20.702322 -15.400124 32.445704 41.454477 -0.639575 0.671832 0.083482 -0.011791 127418.000000 0 0 1
21.686222 -16.078124 31.494144 41.481073 -0.637973 0.708650 0.096255 -0.016490 -401709.000000 0 0 1
21.796522 -15.401824 30.248592 40.339582 -0.615154 0.722963 0.077917 -0.006414 591986.000000 0 0 1
22.649822 -16.048324 29.298162 40.360197 -0.616435 0.758429 0.066956 -0.002890 -12814.300000 0 0 1
22.929722 -15.138324 28.093552 39.296166 -0.583516 0.774289 0.047852 0.001689 54989.100000 0 0 1
23.932122 -14.161824 28.361302 39.719859 -0.534331 0.775554 0.026492 -0.002902 393147.000000 0 0 1
24.313322 -13.369724 27.248802 38.889387 -0.502761 0.794454 0.021548 -0.003044 100276.000000 0 0 1
24.998122 -12.071324 27.579982 39.131553 -0.449866 0.788653 0.024958 -0.004040 -295549.000000 0 0 1
24.092522 -11.168524 28.132682 38.686346 -0.434080 0.756563 0.041899 -0.013560 -47781.400000 0 0 1
24.694822 -9.900624 28.300952 38.843281 -0.381298 0.754530 0.027306 -0.016703 74642.000000 0 0 1
23.656022 -8.757224 28.384532 37.973386 -0.354547 0.726529 0.055253 -0.020657 -182621.000000 0 0 1
22.774322 -8.862524 29.443132 38.263718 -0.371114 0.692771 0.067167 -0.032894 -595464.000000 0 0 1
21.806422 -7.850624 29.346512 37.394788 -0.345568 0.668463 0.083576 -0.041340 -17624.100000 0 0 1
20.645722 -7.887024 30.371942 37.562027 -0.364909 0.629060 0.067136 -0.033287 3551.520000 0 0 1
20.919422 -7.346624 31.675493 38.664350 -0.337732 0.610707 0.072960 -0.030739 99657.100000 0 0 1
21.484222 -8.380324 32.459757 39.817552 -0.371916 0.617701 0.079334 -0.028047 -468685.000000 0 0 1
21.464622 -7.861524 -33.677324 40.702527 -0.351082 2.545261 0.095063 -0.045140 -131463.000000 0 0 1
20.111222 -7.706324 -33.320634 39.675097 -0.365927 2.567780 0.068837 -0.048331 -116808.000000 0 0 1
19.918922 -7.049724 -32.092524 38.423849 -0.340164 2.559336 0.081339 -0.048607 -1217810.000000 0 0 1
18.534322 -6.884124 -31.540164 37.224914 -0.355633 2.581652 0.082219 -0.045193 -1095710.000000 0 0 1
18.419122 -5.961224 -30.476814 36.105906 -0.313004 2.575671 0.083219 -0.042494 -17078.900000 0 0 1
17.264322 -6.119224 -29.687304 34.883201 -0.340628 2.588776 0.090961 -0.036997 -410852.000000 0 0 1
17.063522 -4.978424 -28.617334 33.688281 -0.283879 2.585785 0.088331 -0.037538 -54693.100000 0 0 1
18.007522 -4.913124 -27.555474 33.282335 -0.266354 2.546205 0.089313 -0.035336 102202.000000 0 0 1
17.834622 -5.790924 -26.405294 32.385924 -0.313962 2.524099 0.096547 -0.038879 100442.000000 0 0 1
16.479422 -5.737624 -25.635114 31.010494 -0.335043 2.543941 0.116515 -0.040633 421264.000000 0 0 1
16.274422 -4.476224 -24.981954 30.149485 -0.268410 2.547404 0.096862 -0.036372 -234039.000000 0 0 1
14.998922 -4.371724 -24.399254 28.972457 -0.283612 2.572061 0.113858 -0.036916 -30754.700000 0 0 1
14.724722 -3.083524 -23.635954 28.017564 -0.206428 2.574771 0.122112 -0.035577 16145.100000 0 0 1
14.450322 -1.942824 -24.409854 28.432857 -0.133647 2.603151 0.094571 -0.041940 -51688.100000 0 0 1
14.208022 -0.841824 -23.588854 27.550147 -0.059181 2.598695 0.103257 -0.041273 4382.840000 0 0 1
14.486422 0.598176 -24.149354 28.167455 0.041269 2.600894 0.099212 -0.040920 -252635.000000 0 0 1
13.585222 1.068176 -25.132534 28.589220 0.078466 2.644749 0.100230 -0.039571 130690.000000 0 0 1
14.080122 2.245176 -25.728244 29.414847 0.158126 2.635548 0.102980 -0.022533 -63546.500000 0 0 1
13.128722 2.904176 -26.766304 29.953841 0.217702 2.676065 0.102234 -0.025914 261841.000000 0 0 1
12.031522 3.613176 -26.194554 29.051114 0.291740 2.694415 0.111950 -0.040463 300597.000000 0 0 1
11.335822 4.252176 -27.218634 29.789862 0.358867 2.723064 0.112890 -0.033274 -68151.700000 0 0 1
10.051622 5.067176 -26.939234 29.196467 0.466934 2.745792 0.099214 -0.026940 73191.300000 0 0 1
10.277722 6.287176 -26.197464 28.835174 0.548999 2.710536 0.104860 -0.045471 299170.000000 0 0 1
9.108922 7.081176 -26.208304 28.635480 0.660801 2.726897 0.115933 -0.046751 24200.000000 0 0 1
8.762522 4.968826 -31.228504 32.812962 0.515842 2.829563 0.106372 -0.036846 -58535.100000 0 0 1
8.845122 4.249126 -30.041064 31.603114 0.447839 2.825872 0.091420 -0.023825 657805.000000 0 0 1
8.236422 2.947926 -30.205684 31.446975 0.343707 2.859689 0.086764 -0.015670 10767.200000 0 0 1
8.111222 2.078826 -28.930724 30.118105 0.250890 2.859862 0.092967 -0.015514 -958143.000000 0 0 1
9.315522 1.517726 -28.544234 30.064194 0.161505 2.822253 0.112595 -0.029702 -456801.000000 0 0 1
9.262122 0.476426 -27.559264 29.077946 0.051393 2.816973 0.115438 -0.030995 -687667.000000 0 0 1
10.599922 -0.063874 -27.094054 29.093817 -0.006026 2.768666 0.118624 -0.038462 -470787.000000 0 0 1
11.233222 -0.978374 -27.978614 30.165300 -0.086877 2.758491 0.109936 -0.037727 -467018.000000 0 0 1
12.451722 -1.374974 -27.447284 30.171002 -0.109979 2.713415 0.105811 -0.041418 -488531.000000 0 0 1
12.907322 -2.795774 -27.975104 30.935768 -0.213309 2.700525 0.095953 -0.043016 -36242.100000 0 0 1
12.076122 -3.802174 -27.464904 30.242523 -0.305025 2.709652 0.109844 -0.031678 -162047.000000 0 0 1
12.682222 -5.052474 -27.432394 30.641516 -0.379118 2.679831 0.105994 -0.033962 -359158.000000 0 0 1
11.843722 -6.027674 -26.623214 29.755708 -0.470769 2.678614 0.104972 -0.051989 -88952.800000 0 0 1
11.874022 -5.785674 -25.255024 28.500573 -0.453400 2.659709 0.127503 -0.035461 111344.000000 0 0 1
11.243022 -6.738174 -24.397154 27.695300 -0.539920 2.648584 0.133539 -0.039443 36351.600000 0 0 1
11.433222 -6.442774 -22.888254 26.383709 -0.513159 2.620980 0.155184 -0.039792 17022.900000 0 0 1
12.795122 -6.408974 -22.531254 26.691712 -0.464361 2.575735 0.136588 -0.037647 -377134.000000 0 0 1
12.997722 -6.581174 -21.160754 25.691052 -0.468701 2.538636 0.179600 -0.041582 759961.000000 0 0 1
14.468322 -6.399274 -20.642254 26.007416 -0.416428 2.487674 0.185305 -0.038899 901245.000000 0 0 1
14.745322 -4.981174 -20.481654 25.724206 -0.325778 2.491787 0.157632 -0.039620 355102.000000 0 0 1
15.832422 -4.803974 -19.558054 25.617596 -0.294597 2.439453 0.164562 -0.035746 468619.000000 0 0 1
16.320422 -3.349374 -19.466854 25.622898 -0.202415 2.433716 0.154665 -0.034894 -239224.000000 0 0 1
17.087422 -2.880874 -20.532754 26.867702 -0.167025 2.440623 0.134486 -0.034751 -159171.000000 0 0 1
17.438422 -1.564174 -20.293854 26.802719 -0.089458 2.429746 0.144440 -0.025028 22927.000000 0 0 1
18.472722 -1.104374 -21.359454 28.261058 -0.059713 2.427658 0.092411 -0.033666 -419000.000000 0 0 1
19.710922 -1.715974 -21.203854 29.001180 -0.086838 2.390784 0.119543 -0.046273 -718016.000000 0 0 1
20.603022 -1.109374 -22.144354 30.266940 -0.053793 2.391514 0.117180 -0.037424 -167680.000000 0 0 1
21.925522 -1.865174 -22.304354 31.331958 -0.084864 2.362957 0.079396 -0.039212 -617224.000000 0 0 1
22.785922 -1.639874 -21.138654 31.124430 -0.071845 2.317422 0.074121 -0.027369 825934.000000 0 0 1
23.969522 -2.460774 -21.151554 32.062153 -0.102304 2.291222 0.054831 -0.026023 1104890.000000 0 0 1
25.126222 -1.797274 -21.959954 33.418510 -0.071408 2.287787 0.056950 -0.029853 -752584.000000 0 0 1
24.752922 -1.638474 -23.318354 34.046107 -0.066097 2.325270 0.068037 -0.036283 597309.000000 0 0 1
25.774722 -0.975374 -24.098054 35.298780 -0.037824 2.322231 0.072666 -0.031530 -203827.000000 0 0 1
27.008522 -1.706574 -24.507654 36.510242 -0.063103 2.306696 0.095877 -0.042058 -1621740.000000 0 0 1
27.970722 -2.008174 -23.511454 36.594843 -0.071673 2.268527 0.088257 -0.027683 981496.000000 0 0 1
29.135122 -2.670574 -24.064554 37.882583 -0.091406 2.259116 0.081083 -0.020926 1231810.000000 0 0 1
30.164922 -1.813674 -24.878554 39.142744 -0.060053 2.259563 0.083211 -0.031122 -747161.000000 0 0 1
29.702322 -1.358374 -26.117724 39.575354 -0.045701 2.291548 0.094482 -0.040561 481458.000000 0 0 1
30.545222 -0.340574 -26.683834 40.560493 -0.011149 2.288793 0.094830 -0.041578 -390610.000000 0 0 1
30.014622 -0.048574 -28.109954 41.122371 -0.001618 2.323437 0.101255 -0.045917 902150.000000 0 0 1
28.616422 0.267626 -28.142574 40.136962 0.009352 2.347824 0.101036 -0.036612 791560.000000 0 0 1
28.280122 1.532026 -27.599434 39.545432 0.054120 2.343281 0.090614 -0.033349 64612.200000 0 0 1
26.751022 1.863526 -27.768274 38.602681 0.069550 2.373641 0.091545 -0.031644 349447.000000 0 0 1
25.953222 1.246126 -26.852384 37.365400 0.047977 2.372645 0.100001 -0.030662 346223.000000 0 0 1
24.564722 1.557526 -27.076764 36.592385 0.063320 2.403802 0.082238 -0.029414 941994.000000 0 0 1
23.626022 1.157326 -25.893884 35.071663 0.048946 2.401363 0.075154 -0.028309 -124928.000000 0 0 1
23.650922 2.056326 -24.821854 34.347038 0.086727 2.378466 0.089510 -0.030895 537628.000000 0 0 1
22.686322 1.752326 -23.808754 32.933215 0.077088 2.378845 0.086632 -0.023222 144017.000000 0 0 1
22.779522 2.613826 -22.514954 32.135057 0.114245 2.347084 0.089273 -0.028993 -394251.000000 0 0 1
22.456022 3.972526 -22.652654 32.143376 0.175091 2.352850 0.110693 -0.032158 168718.000000 0 0 1
22.391022 4.519426 -21.376754 31.284960 0.199165 2.323058 0.104094 -0.031819 -210848.000000 0 0 1
21.855122 5.952826 -21.396754 31.159326 0.265926 2.327720 0.115153 -0.028753 -149759.000000 0 0 1
22.702922 6.904226 -22.037354 32.384193 0.295225 2.319237 0.112344 -0.018932 236673.000000 0 0 1
22.433522 8.247326 -21.730054 32.302888 0.352297 2.308644 0.119039 -0.017504 -325231.000000 0 0 1
22.806622 8.579426 -20.246254 31.680583 0.359806 2.264091 0.118329 -0.029383 374090.000000 0 0 1
24.215922 8.543726 -19.993154 32.544314 0.339180 2.232341 0.112807 -0.028634 804746.000000 0 0 1
24.434922 8.241726 -18.602454 31.796899 0.325310 2.195726 0.116741 -0.042190 -13933.000000 0 0 1
24.452522 9.461926 -17.625154 31.592720 0.369207 2.162633 0.112866 -0.040973 155029.000000 0 0 1
23.118422 9.784326 -17.249454 30.458794 0.400367 2.172831 0.097263 -0.036879 411579.000000 0 0 1
22.878522 11.142626 -16.820654 30.504414 0.453221 2.154858 0.063805 -0.026654 582270.000000 0 0 1
21.362322 11.423726 -16.529154 29.326835 0.491068 2.169556 0.060422 -0.023576 1053880.000000 0 0 1
20.404822 11.322426 -17.566554 29.208525 0.506590 2.216072 0.067534 -0.028778 311360.000000 0 0 1
19.808222 10.063126 -17.716354 28.416569 0.470049 2.243946 0.074678 -0.023145 5731.500000 0 0 1
18.938222 9.987426 -19.033754 28.647665 0.485302 2.297498 0.074144 -0.004162 471096.000000 0 0 1
19.676622 10.143426 -20.247454 30.000299 0.475976 2.311637 0.089078 -0.011564 674283.000000 0 0 1
18.758622 10.114926 -21.344654 30.162757 0.494525 2.356962 0.081900 -0.015083 175683.000000 0 0 1
19.464122 10.346126 -22.669954 31.619949 0.488567 2.370215 0.107231 -0.017733 -258211.000000 0 0 1
19.966222 11.642026 -22.780954 32.452406 0.527890 2.348971 0.111779 -0.024812 76854.600000 0 0 1
20.630722 11.820226 -24.007054 33.788801 0.520287 2.361009 0.133645 -0.022676 -27599.800000 0 0 1
20.903822 13.321726 -24.331854 34.734382 0.567386 2.346911 0.175678 -0.020060 48039.100000 0 0 1
21.581622 13.502626 -25.557034 36.072833 0.559069 2.358144 0.197473 -0.023689 33595.200000 0 0 1
21.680122 14.892326 -25.896544 36.911246 0.601888 2.348422 0.195549 -0.020644 635782.000000 0 0 1
20.474922 15.459726 -26.759504 37.071507 0.646730 2.377246 0.155000 -0.026031 995785.000000 0 0 1
19.293022 15.593626 -25.995814 35.932774 0.679753 2.379593 0.105144 -0.022157 -682473.000000 0 0 1
18.164122 15.840426 -26.771084 36.021457 0.717169 2.408634 0.102853 -0.026556 -276162.000000 0 0 1
16.867322 15.292826 -26.163124 34.682649 0.736479 2.425471 0.081099 -0.024841 -569714.000000 0 0 1
16.747322 13.901626 -26.246884 34.097316 0.692816 2.449268 0.110157 -0.018168 -991511.000000 0 0 1
15.430122 13.544326 -26.109544 33.215143 0.720405 2.475227 0.069286 -0.025054 -1226940.000000 0 0 1
15.288222 11.995826 -25.944134 32.414930 0.665308 2.498719 0.053783 -0.023796 355963.000000 0 0 1
13.958722 11.548726 -25.673024 31.421699 0.691196 2.527068 0.064284 -0.037111 453109.000000 0 0 1
13.914522 10.184926 -25.303104 30.620152 0.631858 2.543400 0.080721 -0.039077 -43965.000000 0 0 1
12.489422 9.600926 -25.193834 29.713511 0.655378 2.582792 0.110105 -0.053775 263979.000000 0 0 1
11.743422 10.094326 -24.082254 28.631422 0.710025 2.570134 0.114915 -0.060862 556494.000000 0 0 1
10.430122 9.554226 -24.028454 27.882562 0.741597 2.609552 0.117598 -0.060710 865190.000000 0 0 1
9.457422 10.099726 -22.872654 26.732108 0.818229 2.597553 0.111351 -0.056131 610912.000000 0 0 1
8.997722 11.393826 -23.169954 27.342733 0.902367 2.581846 0.111267 -0.058878 -463004.000000 0 0 1
8.535722 12.134926 -22.128254 26.641596 0.957791 2.550963 0.103927 -0.056160 193080.000000 0 0 1
9.593922 12.894426 -21.247954 26.641793 0.931123 2.494006 0.106790 -0.054784 221244.000000 0 0 1
10.377222 12.024026 -20.447454 25.891356 0.858780 2.481182 0.140066 -0.056969 -511701.000000 0 0 1
11.235622 12.821526 -19.653254 26.016939 0.851225 2.427064 0.167408 -0.056062 -493374.000000 0 0 1
12.048822 11.736326 -18.889354 25.292749 0.772261 2.414077 0.163841 -0.054942 -576009.000000 0 0 1
13.060122 11.080626 -19.609954 26.036462 0.703583 2.423668 0.135006 -0.050026 -303855.000000 0 0 1
12.773722 10.283626 -20.722054 26.425830 0.677819 2.472136 0.130730 -0.053350 -1715000.000000 0 0 1
13.982422 9.720626 -21.423854 27.367503 0.607499 2.469983 0.134002 -0.051159 -675287.000000 0 0 1
14.526922 8.676626 -20.629454 26.681261 0.538416 2.454639 0.137969 -0.054693 -1572.850000 0 0 1
15.462422 7.963126 -21.392454 27.570545 0.475574 2.458964 0.120289 -0.047364 -327849.000000 0 0 1
16.117022 6.772926 -20.644654 27.052406 0.397827 2.438948 0.163922 -0.049416 745008.000000 0 0 1
17.186322 7.136826 -19.736054 27.125925 0.393594 2.385572 0.127915 -0.035853 581278.000000 0 0 1
17.580822 5.974826 -19.103954 26.641038 0.327603 2.370411 0.131806 -0.042308 10066.000000 0 0 1
18.537122 6.170026 -17.896854 26.495122 0.321313 2.312408 0.159958 -0.031668 1058090.000000 0 0 1
19.939922 6.192326 -18.228554 27.716883 0.301107 2.288517 0.128439 -0.040619 514682.000000 0 0 1
20.716122 6.414526 -17.120654 27.630068 0.300277 2.239078 0.114705 -0.052438 -502262.000000 0 0 1
21.836422 5.376726 -16.953954 28.163364 0.241425 2.216782 0.121607 -0.055349 -1364120.000000 0 0 1
22.703422 5.669626 -15.913954 28.299187 0.244720 2.168017 0.113289 -0.060874 -14129.000000 0 0 1
23.474922 4.595826 -15.467954 28.485982 0.193331 2.144805 0.163441 -0.067665 -86285.900000 0 0 1
24.676822 4.142526 -16.357054 29.894135 0.166320 2.149771 0.078531 -0.011614 -185708.000000 0 0 1
25.361022 3.023726 -15.729054 29.995458 0.118667 2.122785 0.086683 -0.019949 916859.000000 0 0 1
26.541022 2.652926 -16.449454 31.337652 0.099625 2.123406 0.073451 -0.028492 866663.000000 0 0 1
27.476422 1.615826 -15.728254 31.700830 0.058740 2.089951 0.092678 -0.043481 152111.000000 0 0 1
26.856722 0.348126 -15.627554 31.074510 0.012962 2.097754 0.095009 -0.035401 97773.600000 0 0 1
27.836822 -0.673274 -15.729154 31.980435 -0.024182 2.084994 0.097446 -0.025265 -135377.000000 0 0 1
27.303122 -2.089574 -15.933554 31.681303 -0.076384 2.097784 0.075688 -0.025405 -171833.000000 0 0 1
26.571622 -2.753774 -14.901854 30.589208 -0.103267 2.079632 0.082771 -0.026300 511157.000000 0 0 1
26.234822 -4.083674 -15.306954 30.647106 -0.154419 2.093770 0.080016 -0.024775 -905076.000000 0 0 1
25.540722 -4.924374 -14.253554 29.660441 -0.190468 2.072087 0.101944 -0.029289 471636.000000 0 0 1
24.273022 -4.522074 -13.729954 28.251379 -0.184189 2.078295 0.139762 -0.020132 1581850.000000 0 0 1
23.167022 -4.736474 -14.663954 27.824030 -0.201670 2.125892 0.146975 -0.025387 70241.600000 0 0 1
21.795622 -4.656474 -13.990954 26.314990 -0.210478 2.131370 0.162611 -0.026901 -577468.000000 0 0 1
21.382822 -5.895474 -13.421154 25.925066 -0.269027 2.114945 0.181830 -0.021768 407577.000000 0 0 1
21.176722 -5.748974 -12.003454 25.011741 -0.265087 2.071352 0.195213 -0.023181 -142001.000000 0 0 1
20.666422 -7.024074 -11.271654 24.566009 -0.327630 2.047476 0.173233 -0.016341 302065.000000 0 1 0
19.294322 -7.319474 -11.474854 23.611816 -0.362587 2.078280 0.165082 -0.005893 633711.000000 0 1 0
19.231422 -8.577274 -12.153654 24.313135 -0.419525 2.094257 0.159881 -0.015059 -850376.000000 0 1 0
17.914922 -9.313974 -11.936954 23.456032 -0.479441 2.104712 0.164493 -0.018023 -154282.000000 0 1 0
16.883822 -8.362274 -12.264454 22.481279 -0.459867 2.147831 0.151015 -0.010021 407680.000000 0 1 0
15.581922 -8.886474 -12.435154 21.826561 -0.518300 2.176968 0.140702 -0.011669 459866.000000 0 1 0
14.455522 -7.854174 -12.708254 20.788215 -0.497711 2.228524 0.109863 -0.007327 -11427.600000 0 1 0
14.502522 -6.957974 -13.838254 21.218714 -0.447339 2.281243 0.112853 -0.013573 -183695.000000 0 1 0
15.559922 -6.038774 -13.867454 21.699868 -0.370204 2.264068 0.120242 -0.008788 -343249.000000 0 1 0
15.422122 -4.953074 -14.963954 22.052091 -0.310761 2.316615 0.118670 -0.012466 122641.000000 0 1 0
14.358922 -4.042674 -14.678654 20.928085 -0.274440 2.348136 0.119468 -0.013629 424296.000000 0 1 0
14.273022 -2.993274 -15.662054 21.400439 -0.206720 2.391839 0.127966 -0.010687 -21085.600000 0 1 0
15.353722 -1.878074 -15.833954 22.135448 -0.121716 2.367880 0.148294 -0.016976 -628449.000000 0 1 0
16.531922 -2.381574 -16.378354 23.392880 -0.143075 2.346394 0.151202 -0.025076 -116507.000000 0 1 0
17.679122 -1.602274 -16.056754 23.936123 -0.090384 2.306106 0.167035 -0.039477 233830.000000 0 1 0
18.615422 -2.209874 -15.032754 24.029174 -0.118159 2.246702 0.169380 -0.042541 -584509.000000 0 1 0
17.970222 -2.222674 -13.756554 22.740096 -0.123061 2.220496 0.158483 -0.028551 386073.000000 0 1 0
18.704922 -2.910574 -12.780654 22.840549 -0.154367 2.164651 0.160482 -0.028053 -223197.000000 0 1 0
17.967022 -2.796274 -11.429254 21.476985 -0.154395 2.131949 0.147708 -0.025116 -58380.400000 0 1 0
18.175622 -1.578274 -10.776354 21.189007 -0.086617 2.104334 0.153584 -0.020994 633334.000000 0 1 0
17.616822 -1.717874 -9.475654 20.077140 -0.097206 2.062312 0.133224 -0.018639 -582806.000000 0 1 0
17.817622 -0.504974 -8.520254 19.756452 -0.028334 2.016690 0.133143 -0.015764 -442538.000000 0 1 0
19.136422 -0.211674 -8.136554 20.795456 -0.011061 1.972803 0.153406 -0.011586 870360.000000 0 1 0
20.082022 0.418626 -9.015854 22.017005 0.020843 1.992697 0.170279 -0.013626 85906.400000 0 1 0
19.670822 1.728126 -9.666254 21.985544 0.087627 2.026021 0.155764 -0.018189 -687069.000000 0 1 0
19.410022 2.874226 -8.868854 21.532922 0.147011 1.995306 0.125756 -0.009458 689137.000000 0 1 0
18.701122 3.822926 -9.638054 21.383143 0.201644 2.038381 0.108023 -0.021561 -563089.000000 0 1 0
18.844522 5.237026 -9.049054 21.550588 0.271067 2.004130 0.104041 -0.006575 -480043.000000 0 1 0
18.107322 6.228726 -9.705954 21.468062 0.331310 2.039927 0.083065 -0.010822 517563.000000 0 1 0
18.587222 7.529126 -9.403154 22.149309 0.384869 2.009244 0.105615 -0.000955 51676.300000 0 1 0
-26.889928 -28.959654 5.399046 39.885830 0.822440 1.435017 0.100391 -0.027946 158651.000000 0 0 1
-27.310598 -27.869654 6.246646 39.517173 0.795529 1.412056 0.117636 -0.029463 252315.000000 0 0 1
-26.213218 -26.967174 6.367146 38.143175 0.799575 1.403084 0.112202 -0.032426 70742.700000 0 0 1
-26.600478 -25.843184 7.378546 37.813999 0.770959 1.374409 0.118953 -0.030209 -1007370.000000 0 0 1
-27.738048 -25.125414 7.150946 38.102779 0.736016 1.382002 0.111717 -0.031037 229412.000000 0 0 1
-29.035738 -25.748464 7.372046 39.501956 0.725466 1.383071 0.100075 -0.027077 1109060.000000 0 0 1
-29.511278 -26.018664 8.790446 40.313253 0.722585 1.350977 0.097157 -0.022397 294919.000000 0 0 1
-28.577668 -26.953244 9.409546 40.394307 0.756154 1.335694 0.089858 -0.024913 511620.000000 0 0 1
-28.762948 -27.022944 10.803946 40.917868 0.754218 1.303588 0.075871 -0.020607 376263.000000 0 0 1
-27.473108 -27.651224 11.421346 40.617841 0.788629 1.285762 0.053666 -0.018744 1324870.000000 0 0 1
-26.321598 -26.841494 11.727446 39.380519 0.795177 1.268411 0.081576 -0.013104 728069.000000 0 0 1
-26.583578 -25.980334 12.871346 39.336191 0.773922 1.237443 0.087542 -0.013976 -895410.000000 0 0 1
-25.301358 -25.402914 13.442546 38.290583 0.787401 1.212086 0.102645 -0.021459 -635621.000000 0 0 1
-24.572678 -26.402554 14.060446 38.711852 0.821280 1.199088 0.093107 -0.030032 -913085.000000 0 0 1
-23.469578 -25.993164 14.790046 38.015932 0.836374 1.171198 0.105956 -0.032338 -710136.000000 0 0 1
-22.678778 -27.119814 15.360646 38.545567 0.874343 1.160909 0.099749 -0.030607 -572432.000000 0 0 1
-23.368978 -27.737134 16.456746 39.828158 0.870663 1.144838 0.089515 -0.019865 89442.300000 0 0 1
-22.747678 -28.881584 16.895146 40.460458 0.903651 1.140025 0.083920 -0.014485 -205908.000000 0 0 1
-23.652378 -29.825134 17.747246 41.999266 0.900317 1.134527 0.090254 -0.018841 76367.100000 0 0 1
-24.703278 -30.437384 17.054646 42.749821 0.889016 1.160435 0.066424 -0.019521 -46559.300000 0 0 1
-25.446198 -31.322514 17.852346 44.128394 0.888544 1.154305 0.073904 -0.013001 252889.000000 0 0 1
-26.376938 -32.279404 17.016946 45.025317 0.885688 1.183224 0.061822 -0.017397 370112.000000 0 0 1
-25.653248 -33.243344 16.306646 45.045707 0.913563 1.200381 0.067051 -0.023007 106394.000000 0 0 1
-26.562358 33.565309 15.681446 45.586145 -0.901344 1.219627 0.071059 -0.025411 -583547.000000 0 0 1
-26.007418 32.922964 14.354946 44.343791 -0.902215 1.241138 0.083048 -0.035635 132309.000000 0 0 1
-24.902278 32.053373 14.482446 43.096211 -0.910300 1.228077 0.065302 -0.029335 -46256.700000 0 0 1
-23.722078 32.809320 14.565246 43.027141 -0.944782 1.225460 0.060768 -0.029899 -393932.000000 0 0 1
-22.350278 32.053345 14.623646 41.722930 -0.961896 1.212698 0.067831 -0.038926 815085.000000 0 0 1
-22.007478 31.366126 13.443746 40.606616 -0.958976 1.233356 0.054338 -0.027959 -122004.000000 0 0 1
-20.774578 30.685576 13.529946 39.449298 -0.975664 1.220719 0.059083 -0.029662 57812.800000 0 0 1
-20.672778 29.816476 12.260846 38.297707 -0.964558 1.244913 0.056958 -0.029292 63527.900000 0 0 1
-20.346178 30.589516 11.141946 38.390473 -0.983854 1.276332 0.037405 -0.021782 -193076.000000 0 0 1
-20.643978 29.834416 10.006946 37.635159 -0.965492 1.301666 0.058159 -0.023771 -85374.600000 0 0 1
-20.247478 30.470266 8.691846 37.602469 -0.984296 1.337536 0.053733 -0.019228 634376.000000 0 0 1
-18.818678 30.527986 8.563246 36.870446 -1.018376 1.336404 0.053086 -0.025703 387806.000000 0 0 1
-18.405178 31.016436 7.299346 36.797423 -1.035243 1.371106 0.079389 -0.029269 -53076.100000 0 0 1
-18.005578 29.914726 6.252946 35.470988 -1.028983 1.393587 0.091638 -0.031850 230168.000000 0 0 1
-19.024278 29.022396 5.762046 35.177035 -0.990562 1.406253 0.070403 -0.025114 307019.000000 0 0 1
-19.154878 27.837416 6.550546 34.420063 -0.968103 1.379317 0.052765 -0.017866 -50637.800000 0 0 1
-20.215378 26.871336 6.001746 34.157740 -0.925823 1.394173 0.053049 -0.016374 -89051.400000 0 0 1
-19.785678 26.131496 4.871846 33.137034 -0.922730 1.423240 0.070419 -0.025398 159189.000000 0 0 1
-20.855978 25.470286 4.226146 33.189872 -0.884675 1.443117 0.077986 -0.029242 -715594.000000 0 0 1
-20.479578 24.672636 2.945646 32.199828 -0.877998 1.479188 0.084181 -0.033366 -726887.000000 0 0 1
-19.936178 25.435236 1.883146 32.372035 -0.906011 1.512591 0.085182 -0.037816 1097890.000000 0 0 1
-18.670378 26.111246 1.995846 32.161524 -0.950053 1.508699 0.096535 -0.032962 682246.000000 0 0 1
-17.397078 25.289626 2.391546 30.788683 -0.968228 1.493042 0.103002 -0.031277 -214794.000000 0 0 1
-16.934778 24.193326 1.566846 29.572939 -0.960086 1.517789 0.132113 -0.043350 288093.000000 0 0 1
-16.517878 24.553136 0.269646 29.593403 -0.978601 1.561685 0.123838 -0.043753 -297547.000000 0 0 1
-16.276078 23.311886 -0.631254 28.438587 -0.961288 1.592995 0.116860 -0.042397 771251.000000 0 0 1
-17.471278 22.515276 -0.915954 28.513544 -0.910878 1.602925 0.114298 -0.051236 1075590.000000 0 0 1
-17.307978 21.525676 -1.926754 27.688142 -0.893583 1.640440 0.109884 -0.043146 417290.000000 0 0 1
-16.286478 20.323676 -1.633754 26.095408 -0.895230 1.633444 0.119928 -0.047420 734672.000000 0 0 1
-16.604878 19.483676 -0.516754 25.604739 -0.865000 1.590980 0.131556 -0.052560 870793.000000 0 0 1
-15.533978 18.509076 -0.360454 24.166512 -0.872569 1.585712 0.141782 -0.049859 791794.000000 0 1 0
-15.882478 17.378776 0.638146 23.551692 -0.830354 1.543697 0.127707 -0.047014 468528.000000 0 1 0
-16.772478 16.432776 0.009346 23.480891 -0.775168 1.570398 0.128192 -0.043175 321077.000000 0 1 0
-17.455078 15.774876 1.037546 23.550010 -0.734878 1.526725 0.147294 -0.055158 -74727.200000 0 1 0
-18.171878 14.503476 0.503446 23.255568 -0.673598 1.549146 0.148434 -0.054993 773751.000000 0 1 0
-19.469778 14.739576 -0.079454 24.419944 -0.647997 1.574050 0.196813 -0.061903 844661.000000 0 1 0
-20.086978 13.550776 -0.475654 24.235026 -0.593478 1.590424 0.196717 -0.059309 443318.000000 0 1 0
-21.442378 13.679876 -1.255954 25.465506 -0.567881 1.620136 0.215485 -0.054932 -124199.000000 0 0 1
-22.123978 12.465876 -1.426254 25.434281 -0.513115 1.626902 0.192919 -0.062881 608080.000000 0 0 1
-23.136178 12.062976 -0.511354 26.097119 -0.480613 1.590392 0.199206 -0.060446 624199.000000 0 0 1
-24.500678 12.820176 -0.651454 27.659800 -0.482080 1.594351 0.199974 -0.061519 -163103.000000 0 0 1
-24.310878 14.192276 -0.339654 28.152351 -0.528410 1.582861 0.203222 -0.065275 -224030.000000 0 0 1
-25.509928 14.919676 -0.301154 29.554084 -0.529211 1.580986 0.194676 -0.051543 -413804.000000 0 0 1
-25.512598 16.260476 0.494046 30.257889 -0.567432 1.554468 0.181874 -0.052313 -186821.000000 0 0 1
-25.329038 16.025476 1.855546 30.030303 -0.564111 1.508968 0.174934 -0.047242 5440.800000 0 0 1
-25.225858 17.176676 2.721146 30.639627 -0.597802 1.481868 0.144625 -0.037543 -133544.000000 0 0 1
-26.496648 17.990776 3.019946 32.169247 -0.596481 1.476781 0.156210 -0.037326 -283197.000000 0 0 1
-27.550978 17.303276 3.670646 32.740394 -0.560787 1.458446 0.162482 -0.037434 224247.000000 0 0 1
-28.732308 18.043876 3.835946 34.144421 -0.560753 1.458214 0.147692 -0.041268 614151.000000 0 0 1
-29.747638 18.223076 2.622746 34.984014 -0.549625 1.495756 0.128987 -0.039738 473916.000000 0 0 1
-30.936658 18.911476 3.031646 36.385596 -0.548685 1.487380 0.116701 -0.034572 301668.000000 0 0 1
-31.709108 19.106176 1.862446 37.067266 -0.542289 1.520530 0.097555 -0.034999 -200506.000000 0 0 1
-33.016778 19.837476 2.204246 38.580977 -0.541030 1.513632 0.110672 -0.040655 -696282.000000 0 0 1
-34.096780 19.052576 2.652646 39.148788 -0.509559 1.502986 0.118023 -0.036150 641136.000000 0 0 1
-35.344912 19.752276 2.735546 40.581996 -0.509608 1.503337 0.131447 -0.040747 649792.000000 0 0 1
-35.532859 20.517776 4.054346 41.231067 -0.523659 1.472305 0.111737 -0.049835 -1106720.000000 0 0 1
-34.487410 21.384076 4.357846 40.812388 -0.555035 1.463815 0.117005 -0.046824 -194914.000000 0 0 1
-34.653738 22.021076 5.639546 41.444105 -0.566086 1.434297 0.112638 -0.045281 -161590.000000 0 0 1
-33.481758 22.974746 5.947446 41.039483 -0.601395 1.425364 0.125278 -0.047703 -197012.000000 0 0 1
-33.183948 24.134916 5.134946 41.352585 -0.628819 1.446300 0.116366 -0.041139 -63322.900000 0 0 1
-32.302778 24.963916 5.813546 41.236681 -0.657941 1.429345 0.109791 -0.042756 -537615.000000 0 0 1
-32.597478 26.481336 5.622946 42.373037 -0.682241 1.437703 0.112292 -0.036117 -548315.000000 0 0 1
-33.622258 26.852096 6.488546 43.515429 -0.673911 1.421129 0.110837 -0.029267 -367174.000000 0 0 1
-34.161535 28.104406 6.279746 44.680010 -0.688425 1.429780 0.103331 -0.024581 -609280.000000 0 0 1
-35.292484 28.388446 7.236246 45.867489 -0.677404 1.412370 0.092368 -0.018486 -781246.000000 0 0 1
-34.785104 28.549766 8.575046 45.810741 -0.687264 1.382501 0.104811 -0.029045 803119.000000 0 0 1
-35.776528 28.979056 9.534146 47.017503 -0.680810 1.366602 0.107044 -0.025112 384828.000000 0 0 1
-36.964358 28.070726 9.875446 47.453702 -0.649490 1.361157 0.089516 -0.015081 -75235.900000 0 0 1
-36.474768 26.920436 10.521946 46.538478 -0.635813 1.342733 0.114722 -0.028055 -297162.000000 0 0 1
-37.457838 26.354506 11.324246 47.179319 -0.613123 1.328404 0.101692 -0.024519 -233477.000000 0 0 1
-36.970908 25.180176 12.212746 46.368529 -0.597915 1.304268 0.136527 -0.026474 554433.000000 0 0 1
-35.836832 25.483016 13.038546 45.865742 -0.618127 1.282545 0.161038 -0.042379 414822.000000 0 0 1
-35.565288 24.341406 13.831146 45.262505 -0.600189 1.260253 0.177534 -0.040178 411316.000000 0 0 1
-34.258896 24.458256 14.680146 44.580096 -0.620010 1.235236 0.196381 -0.044630 320916.000000 0 0 1
-34.387515 25.627246 15.537746 45.614455 -0.640453 1.223207 0.186781 -0.049033 439649.000000 0 0 1
-33.121408 26.044406 16.037146 45.083576 -0.666351 1.207112 0.215440 -0.044630 357258.000000 0 0 1
-33.329138 27.236986 16.985746 46.273107 -0.685149 1.194933 0.204695 -0.043150 93048.800000 0 0 1
-33.415278 28.425906 16.247246 46.782325 -0.704892 1.216112 0.218648 -0.037990 160502.000000 0 0 1
-33.748078 29.560126 17.021046 47.983850 -0.719343 1.208177 0.175606 -0.032445 45513.800000 0 0 1
-33.440048 30.832326 16.186646 48.279153 -0.744847 1.228902 0.150763 -0.032402 -549746.000000 0 0 1
-32.089138 31.109076 16.001046 47.471264 -0.769892 1.226995 0.138438 -0.028089 -702137.000000 0 0 1
-31.926558 32.311063 15.261946 47.919066 -0.791384 1.246656 0.110031 -0.016432 -1348510.000000 0 0 1
-30.505618 32.551547 14.808046 47.005044 -0.817832 1.250307 0.123958 -0.025835 -878772.000000 0 0 1
-30.132938 31.753948 13.778646 45.892900 -0.811585 1.265858 0.123399 -0.029941 15089.700000 0 0 1
-29.751058 30.406886 13.968546 44.775266 -0.796300 1.253530 0.143444 -0.032313 129235.000000 0 0 1
-30.855828 29.380206 13.497946 44.693100 -0.760906 1.263992 0.181263 -0.038129 587026.000000 0 0 1
-31.130718 29.346076 12.099146 44.460130 -0.755897 1.295186 0.184034 -0.041760 117863.000000 0 0 1
-32.166968 28.444456 11.781246 44.526382 -0.724059 1.303017 0.199069 -0.043722 116091.000000 0 0 1
-32.152978 28.135086 10.232646 43.932950 -0.718852 1.335722 0.162273 -0.034176 -333807.000000 0 0 1
-31.096458 27.261996 9.919846 42.527750 -0.719787 1.335372 0.142583 -0.022622 -330869.000000 0 0 1
-30.835288 27.566536 8.571446 42.239775 -0.729486 1.366454 0.129472 -0.027601 -143731.000000 0 0 1
-29.715668 26.719786 7.950646 40.745315 -0.732363 1.374406 0.147888 -0.033493 -143561.000000 0 0 1
-29.527448 27.149856 6.610946 40.653284 -0.743473 1.407453 0.140060 -0.045643 -10848.900000 0 0 1
-28.415348 26.501126 5.998946 39.315761 -0.750555 1.417614 0.117963 -0.037248 90452.300000 0 0 1
-28.155418 26.870676 4.529246 39.182584 -0.762055 1.454944 0.104494 -0.032859 75148.300000 0 0 1
-27.405748 28.057416 4.326946 39.459043 -0.797147 1.460919 0.084239 -0.033584 194154.000000 0 0 1
-26.959538 28.361886 3.043846 39.248927 -0.810742 1.493166 0.075671 -0.034120 46561.100000 0 0 1
-25.827188 29.430346 2.901346 39.263300 -0.850513 1.496834 0.065918 -0.031094 11075.500000 0 0 1
-24.561778 28.941736 3.273546 38.100146 -0.867079 1.484771 0.067089 -0.030302 -555154.000000 0 0 1
-23.585978 29.837936 2.794846 38.136753 -0.901894 1.497446 0.069906 -0.029440 -717701.000000 0 0 1
-22.191578 29.283046 3.037146 36.867156 -0.922303 1.488322 0.062637 -0.034706 -545115.000000 0 0 1
-21.187378 30.113406 2.500646 36.904952 -0.957668 1.502985 0.069269 -0.029176 -310950.000000 0 0 1
-19.901978 29.541256 2.701346 35.722147 -0.977940 1.495103 0.099598 -0.032210 471123.000000 0 0 1
-18.795078 30.535796 2.245346 35.926750 -1.019051 1.508258 0.098495 -0.036554 87148.100000 0 0 1
-18.518678 31.573546 3.139446 36.738078 -1.040344 1.485237 0.111500 -0.036338 -105534.000000 0 0 1
-17.525378 32.440296 2.647546 36.966487 -1.075481 1.499115 0.118945 -0.032047 29585.300000 0 0 1
-17.191378 33.635751 3.593346 37.944952 -1.098305 1.475955 0.121012 -0.039068 477325.000000 0 0 1
-18.212578 -33.041814 3.639346 37.903882 1.067034 1.474633 0.123752 -0.042939 550030.000000 0 0 1
-17.778978 -31.994054 4.517046 36.879740 1.063590 1.448008 0.102386 -0.047818 -6433.550000 0 0 1
-18.895778 -31.000684 4.820546 36.624179 1.023401 1.438791 0.105887 -0.039524 -202437.000000 0 0 1
-19.161778 -30.169124 3.732546 35.934408 1.004935 1.466738 0.121084 -0.040396 273891.000000 0 0 1
-19.995578 -29.084704 4.150346 35.538268 0.968513 1.453744 0.129702 -0.044321 208501.000000 0 0 1
-20.574778 -28.113864 3.025346 34.969466 0.939021 1.484174 0.113395 -0.056006 101062.000000 0 0 1
-19.648578 -27.131164 2.639046 33.602548 0.944008 1.492178 0.123129 -0.051627 -55425.800000 0 0 1
-20.186378 -26.261344 1.669446 33.165269 0.915451 1.520438 0.121874 -0.047198 -196189.000000 0 0 1
-19.238178 -25.104704 1.433746 31.660848 0.916933 1.525496 0.117917 -0.043449 -589240.000000 0 0 1
-18.013878 -25.471914 0.882946 31.210540 0.955251 1.542503 0.129025 -0.042510 -1131260.000000 0 0 1
-17.131378 -24.386874 1.052046 29.821310 0.958405 1.535511 0.117399 -0.038890 346664.000000 0 0 1
-15.699278 -24.714874 0.518246 29.284141 1.004885 1.553098 0.108727 -0.043381 335497.000000 0 0 1
-15.545578 -24.823074 -0.904954 29.303053 1.011295 1.601684 0.096675 -0.034216 -59162.000000 0 0 1
-15.612078 -23.620574 -1.597054 28.358756 0.986760 1.627142 0.099914 -0.032188 -299445.000000 0 0 1
-15.608578 -23.772574 -3.151154 28.612807 0.989810 1.681151 0.059974 -0.021273 288092.000000 0 0 1
-14.366578 -24.044674 -3.780954 28.263767 1.032221 1.704972 0.088407 -0.017304 30506.000000 0 0 1
-14.563878 -23.993074 -5.195454 28.544122 1.025243 1.753831 0.072735 -0.016535 506682.000000 0 0 1
-13.351778 -24.464874 -6.051854 28.520606 1.071220 1.784614 0.089904 -0.020441 451868.000000 0 0 1
-13.062978 -25.889774 -5.950254 29.602826 1.103506 1.773178 0.061329 -0.012960 295808.000000 0 0 1
-12.023378 -26.272474 -6.875054 29.699678 1.141606 1.804401 0.085056 -0.017364 749484.000000 0 0 1
24.134922 12.256826 27.687902 38.721366 0.469905 0.774094 0.107738 -0.018609 -859949.000000 0 0 1
25.371022 11.807526 28.141672 39.687028 0.435582 0.782590 0.095858 -0.022623 -250007.000000 0 0 1
25.361822 11.020226 29.320872 40.303610 0.409907 0.756125 0.102124 -0.012269 -177350.000000 0 0 1
25.193022 11.751226 30.708822 41.422354 0.436447 0.735704 0.128681 -0.034542 183333.000000 0 0 1
23.973922 12.452026 30.881942 41.030431 0.479046 0.718704 0.129790 -0.025246 139875.000000 0 0 1
23.972922 13.045026 32.162138 42.181475 0.498346 0.703673 0.128996 -0.025906 363936.000000 0 0 1
22.813322 14.082626 32.435698 42.081380 0.553042 0.690724 0.117405 -0.024162 874502.000000 0 0 1
21.601422 13.448326 32.815649 41.525242 0.556848 0.659567 0.104533 -0.006937 -2202.010000 0 0 1
20.572422 14.338726 33.122515 41.544249 0.608701 0.648016 0.108060 -0.008643 -710837.000000 0 0 1
19.414422 13.725726 -33.693494 41.237930 0.615399 2.527074 0.094214 0.005729 -858902.000000 0 0 1
18.514222 13.124326 33.018151 40.065230 0.616660 0.602167 0.080978 0.009798 939545.000000 0 0 1
17.407822 12.549426 -33.769644 40.011364 0.624620 2.575497 0.064535 0.009132 1544680.000000 0 0 1
16.075122 12.196026 33.113313 38.776850 0.649039 0.547276 0.058040 0.011920 603931.000000 0 0 1
16.315222 11.105726 32.212094 37.777542 0.597653 0.549706 0.037437 0.026260 1066000.000000 0 0 1
15.033022 10.571926 31.787405 36.717796 0.612902 0.524205 0.070440 0.007121 1308550.000000 0 0 1
15.237522 9.612526 30.591972 35.502838 0.562792 0.532232 0.083354 0.009765 36203.100000 0 0 1
15.642422 8.339626 30.952142 35.668892 0.489808 0.520113 0.063137 0.007133 -238723.000000 0 0 1
16.004222 7.591526 29.827872 34.691042 0.442914 0.535889 0.062569 -0.007842 251462.000000 0 0 1
16.536722 6.177426 30.241072 35.016371 0.357506 0.528376 0.085319 -0.027729 430850.000000 0 0 1
15.484922 5.337726 30.729762 34.822298 0.331950 0.489701 0.083935 -0.024512 154685.000000 0 0 1
15.973722 4.149026 31.241042 35.332378 0.254125 0.486008 0.078722 -0.029434 -332032.000000 0 0 1
14.832622 3.186526 31.590052 35.044144 0.211616 0.447721 0.060280 -0.026958 -219362.000000 0 0 1
15.172222 1.848326 31.790865 35.274236 0.121226 0.448153 0.062374 -0.033366 -544827.000000 0 0 1
14.117522 1.156226 32.394315 35.355805 0.081718 0.412210 0.065978 -0.037166 -533798.000000 0 0 1
14.475522 -0.256474 32.914575 35.957973 -0.017716 0.414389 0.055744 -0.040101 -149096.000000 0 0 1
14.669322 -1.187174 31.888804 35.121137 -0.080753 0.432392 0.038325 -0.039793 2455.750000 0 0 1
15.070222 -2.376374 32.472984 35.878314 -0.156399 0.439213 0.087329 -0.043665 -369309.000000 0 0 1
15.507322 -3.443674 31.371122 35.163664 -0.218522 0.468723 0.098373 -0.048280 -432478.000000 0 0 1
16.026722 -4.700974 31.830842 35.946592 -0.285318 0.483219 0.103831 -0.045750 377601.000000 0 0 1
17.180622 -4.779574 32.673705 37.223502 -0.271335 0.499607 0.083325 -0.046826 859155.000000 0 0 1
18.518322 -4.508074 31.895349 37.155946 -0.238794 0.538618 0.095669 -0.050304 -34104.600000 0 0 1
18.672822 -3.201574 31.410792 36.681906 -0.169805 0.542730 0.097893 -0.057226 -807364.000000 0 0 1
19.892222 -2.969974 30.807292 36.791446 -0.148208 0.578380 0.120036 -0.059203 -848057.000000 0 0 1
19.960122 -1.450974 30.573952 36.541461 -0.072566 0.579581 0.115328 -0.057856 -49060.400000 0 0 1
20.366522 -0.728574 31.731581 37.712323 -0.035758 0.570906 0.098548 -0.051332 -54493.400000 0 0 1
20.188022 0.630926 31.609867 37.511838 0.031242 0.568585 0.085071 -0.041717 263958.000000 0 0 1
21.264422 1.544626 30.906442 37.546900 0.072512 0.603873 0.103601 -0.038021 141654.000000 0 0 1
21.527822 1.320626 29.497612 36.541761 0.061268 0.631352 0.110569 -0.041790 425741.000000 0 0 1
22.489722 2.238726 28.948332 36.726087 0.099218 0.662881 0.092588 -0.032681 349970.000000 0 0 1
21.969522 3.696726 28.706552 36.337196 0.166704 0.659980 0.072790 -0.015417 -387124.000000 0 0 1
21.728222 4.342526 29.959512 37.263193 0.197258 0.636809 0.065981 -0.012015 188763.000000 0 0 1
20.984922 5.538726 29.815982 36.878683 0.258053 0.629218 0.067555 -0.009691 -257711.000000 0 0 1
20.656822 6.096826 31.190002 37.903718 0.287000 0.604345 0.076712 -0.005556 -30041.400000 0 0 1
19.512322 5.492926 31.770474 37.686417 0.274409 0.567919 0.063748 0.000555 268458.000000 0 0 1
19.279722 6.056926 33.083617 38.767509 0.304397 0.548351 0.058978 -0.003004 -47467.900000 0 0 1
18.194422 5.331626 -33.691334 38.659659 0.285056 2.629020 0.071217 -0.006876 -396415.000000 0 0 1
18.487822 3.960926 -33.477184 38.447501 0.211055 2.627470 0.074501 -0.014243 307562.000000 0 0 1
17.489922 3.345226 -32.678824 37.215500 0.188983 2.642667 0.067778 -0.018522 167372.000000 0 0 1
17.580422 1.808126 -32.899104 37.345570 0.102488 2.648635 0.080643 -0.035349 -341239.000000 0 0 1
18.644222 1.154426 -32.293074 37.306599 0.061840 2.617169 0.066666 -0.024112 -253694.000000 0 0 1
18.624822 -0.174274 -32.742074 37.669056 -0.009357 2.624385 0.074300 -0.029679 -186984.000000 0 0 1
19.603622 -1.016774 -31.909654 37.464141 -0.051820 2.590091 0.086075 -0.026624 -238299.000000 0 0 1
19.277522 -1.157574 -30.541804 36.135365 -0.059976 2.577746 0.088850 -0.029804 294145.000000 0 0 1
19.436222 0.003926 -29.744854 35.532001 0.000202 2.562809 0.085654 -0.022784 -472397.000000 0 0 1
18.958622 -0.126574 -28.294154 34.058839 -0.006676 2.551238 0.086769 -0.027652 267968.000000 0 0 1
17.537522 -0.312774 -28.313794 33.306658 -0.017833 2.586960 0.103635 -0.035584 775922.000000 0 0 1
16.894622 -0.477874 -27.067374 31.910803 -0.028278 2.583411 0.098137 -0.034269 -61002.300000 0 0 1
17.429222 -1.599374 -26.122524 31.443951 -0.091508 2.551276 0.110830 -0.030496 -159030.000000 0 0 1
18.729422 -1.229774 -25.631944 31.769485 -0.065566 2.509529 0.113629 -0.033163 337069.000000 0 0 1
19.541722 -2.276774 -25.216524 31.983366 -0.115985 2.479043 0.093662 -0.033679 -264891.000000 0 0 1
20.404022 -2.861874 -26.327554 33.431341 -0.139351 2.477556 0.107505 -0.045764 -1066920.000000 0 0 1
21.528722 -2.095774 -26.627824 34.306255 -0.097042 2.459381 0.109193 -0.036329 -808812.000000 0 0 1
22.068122 -2.627974 -27.816544 35.604331 -0.118526 2.467492 0.111552 -0.042635 352218.000000 0 0 1
23.386922 -1.916774 -28.265514 36.736378 -0.081776 2.448721 0.091565 -0.039313 1383310.000000 0 0 1
24.596822 -2.524574 -27.742504 37.162127 -0.102280 2.413622 0.088448 -0.047187 155295.000000 0 0 1
25.676422 -2.009074 -28.443364 38.371083 -0.078087 2.405758 0.068692 -0.042911 -557608.000000 0 0 1
27.044022 -2.612574 -28.091804 39.081378 -0.096306 2.372875 0.088796 -0.038551 -195277.000000 0 0 1
27.238222 -3.958174 -28.576994 39.676599 -0.144307 2.374956 0.111396 -0.053532 365181.000000 0 0 1
28.599322 -4.362074 -28.548244 40.644202 -0.151357 2.349552 0.102904 -0.051607 227156.000000 0 0 1
28.869222 -5.728274 -27.844894 40.516456 -0.195877 2.328492 0.094609 -0.037447 -192046.000000 0 0 1
28.769522 -5.562074 -26.456434 39.478665 -0.190976 2.305201 0.080116 -0.025517 352435.000000 0 0 1
29.007222 -6.784374 -25.767514 39.387961 -0.229756 2.283918 0.056022 -0.018176 -217114.000000 0 0 1
28.865822 -6.546774 -24.209654 38.238767 -0.223027 2.256371 0.039580 -0.015543 117247.000000 0 0 1
30.072522 -6.034374 -23.663754 38.739431 -0.198031 2.227923 0.031572 -0.009105 441610.000000 0 0 1
29.982422 -5.772274 -22.284154 37.800110 -0.190195 2.201268 0.043904 -0.012635 696040.000000 0 0 1
31.407022 -5.373774 -21.729454 38.567443 -0.169460 2.169309 0.049234 -0.013373 651838.000000 0 0 1
31.913022 -4.228774 -22.342354 39.185511 -0.131742 2.177508 0.070733 -0.026130 -177062.000000 0 0 1
33.045922 -3.739174 -21.668754 39.693190 -0.112672 2.148267 0.087064 -0.021524 155236.000000 0 0 1
33.596222 -2.372674 -22.332154 40.411147 -0.070506 2.156305 0.097973 -0.034807 414877.000000 0 0 1
32.763722 -1.237774 -22.114954 39.548259 -0.037761 2.164204 0.071878 -0.025744 248579.000000 0 0 1
33.373922 -0.068774 -22.534254 40.269294 -0.002061 2.164686 0.086181 -0.028959 270122.000000 0 0 1
32.330122 1.097226 -22.449454 39.375356 0.033925 2.177472 0.068616 -0.022037 15333.300000 0 0 1
31.200122 0.873826 -23.241654 38.915109 0.028000 2.210852 0.054786 -0.023087 -273638.000000 0 0 1
30.203022 1.782426 -22.832054 37.903856 0.058946 2.217260 0.050351 -0.015974 -800270.000000 0 0 1
28.875622 1.638226 -23.545154 37.294230 0.056673 2.254070 0.062566 -0.020322 -501650.000000 0 0 1
27.931222 2.655426 -23.221654 36.420457 0.094785 2.262174 0.070515 -0.018058 54584.300000 0 0 1
27.091822 2.934126 -24.292654 36.506287 0.107883 2.298876 0.090255 -0.025711 -596620.000000 0 0 1
26.055722 4.016826 -23.990754 35.645362 0.152959 2.309108 0.088394 -0.014527 -442283.000000 0 0 1
26.621222 5.245726 -23.674054 36.009276 0.194558 2.288217 0.071280 -0.005776 60504.900000 0 0 1
25.640822 6.241326 -23.817954 35.548570 0.238770 2.305021 0.108007 -0.010060 10250.600000 0 0 1
26.051522 7.494226 -23.095954 35.612755 0.280106 2.276448 0.127217 -0.013585 -233313.000000 0 0 1
27.025622 8.227026 -23.775354 36.923376 0.295503 2.270395 0.133289 -0.007895 -284525.000000 0 0 1
27.188922 9.496426 -23.164154 36.959405 0.336029 2.248166 0.159869 -0.014678 -28796.300000 0 0 1
28.376022 10.284126 -23.753854 38.408430 0.347699 2.237570 0.194367 -0.016592 -158871.000000 0 0 1
28.324322 10.674026 -25.113274 39.330377 0.360392 2.263371 0.222282 -0.028130 270859.000000 0 0 1
27.399522 11.730426 -25.383134 39.148949 0.404515 2.276242 0.233738 -0.025339 135051.000000 0 0 1
27.394222 12.130726 -26.882964 40.252847 0.416868 2.302116 0.229615 -0.029980 -641735.000000 0 0 1
26.715422 11.301826 -27.769934 40.157369 0.400214 2.334398 0.188462 -0.026671 256537.000000 0 0 1
27.450622 10.154126 -28.182654 40.631329 0.354296 2.337297 0.173016 -0.033863 -67229.700000 0 0 1
28.468322 10.223026 -29.310244 42.119426 0.344760 2.340447 0.162936 -0.031301 -794724.000000 0 0 1
29.754622 10.709326 -29.041874 42.935506 0.345486 2.313670 0.148403 -0.035813 519233.000000 0 0 1
30.596322 10.949226 -30.193764 44.358583 0.343661 2.319480 0.158998 -0.045172 846971.000000 0 0 1
31.246422 9.677226 -30.823164 44.945022 0.300338 2.326495 0.104974 -0.031617 -405269.000000 0 0 1
30.284122 9.009026 -31.611984 44.694610 0.289146 2.356452 0.104063 -0.026779 328114.000000 0 0 1
30.713922 7.670726 -31.896084 44.939351 0.244741 2.359952 0.086277 -0.012421 -1088330.000000 0 0 1
29.615822 6.923226 -32.582974 44.572168 0.229644 2.390606 0.094616 -0.028231 -998016.000000 0 0 1
28.561722 6.759526 -31.701644 43.202516 0.232388 2.394683 0.120914 -0.034091 -772851.000000 0 0 1
27.391722 6.267526 -32.315814 42.824061 0.224939 2.425868 0.087441 -0.032550 -143330.000000 0 0 1
26.180422 6.530026 -31.404204 41.403862 0.244436 2.431781 0.116039 -0.025161 -823698.000000 0 0 1
25.802322 7.876526 -31.379384 41.381943 0.296279 2.431478 0.123902 -0.017999 418044.000000 0 0 1
24.672022 8.242026 -30.578334 40.145662 0.322408 2.436705 0.126857 -0.021530 1470810.000000 0 0 1
23.231222 7.799826 -31.036844 39.545071 0.323922 2.473246 0.134743 -0.016998 479620.000000 0 0 1
22.747322 8.483726 -32.158054 40.293358 0.356977 2.494928 0.131212 -0.012485 538237.000000 0 0 1
21.330922 8.700926 -32.144954 39.547597 0.387300 2.519768 0.102406 -0.004565 651599.000000 0 0 1
20.969822 9.779726 -33.241254 40.501327 0.436385 2.533510 0.104312 0.002813 -72839.800000 0 0 1
20.877322 9.214126 33.093097 40.198455 0.415634 0.603696 0.094207 -0.001031 -2255.050000 0 0 1
21.065222 10.187626 32.096479 39.720464 0.450460 0.629947 0.062041 -0.000353 159206.000000 0 0 1
20.095122 10.027626 30.897472 38.197134 0.462854 0.628526 0.071336 -0.000657 100509.000000 0 0 1
20.342022 8.963426 30.000322 37.338455 0.415040 0.637696 0.069360 -0.005807 -78837.600000 0 0 1
21.414422 9.160326 29.097992 37.271735 0.404210 0.675013 0.083518 -0.008013 -254504.000000 0 0 1
21.077122 10.093726 27.879062 36.378160 0.446621 0.697628 0.103299 -0.010927 188537.000000 0 0 1
20.023922 9.578326 27.072942 35.009227 0.446173 0.686753 0.090153 -0.007947 997491.000000 0 0 1
18.705722 10.016926 27.431552 34.680440 0.491643 0.658386 0.098742 -0.025696 84449.000000 0 0 1
17.601622 9.160226 26.836832 33.375776 0.479849 0.636668 0.123333 -0.024914 -653866.000000 0 0 1
17.398422 9.213926 25.405542 32.140988 0.487034 0.659268 0.128834 -0.024152 -781660.000000 0 0 1
16.101122 8.870126 25.092282 31.105432 0.503535 0.632275 0.140781 -0.023690 -706889.000000 0 0 1
15.840222 7.343526 24.907452 30.417449 0.434106 0.611385 0.142729 -0.019331 -229999.000000 0 0 1
15.900722 6.589126 26.064302 31.234555 0.392851 0.583626 0.113146 -0.028843 19998.400000 0 0 1
15.698922 5.204826 25.743892 30.598927 0.320136 0.571051 0.126573 -0.027938 4477.780000 0 0 1
16.191722 4.288226 26.939222 31.721955 0.258897 0.556272 0.094683 -0.039697 58216.000000 0 0 1
17.598822 4.254126 27.075272 32.571253 0.237178 0.589421 0.097332 -0.025209 115802.000000 0 0 1
18.095522 3.661726 28.277312 33.770735 0.199659 0.578412 0.094314 -0.032278 -502915.000000 0 0 1
18.530922 2.163326 28.048472 33.686672 0.116215 0.586960 0.098801 -0.030835 -276045.000000 0 0 1
17.535122 1.157126 27.851792 32.932382 0.065894 0.562871 0.102317 -0.047161 431752.000000 0 0 1
16.757222 0.971326 29.056202 33.556085 0.057900 0.523850 0.087091 -0.045350 30043.600000 0 0 1
16.296922 -0.466774 29.268122 33.502694 -0.028634 0.508234 0.084851 -0.042980 94149.900000 0 0 1
15.279922 -0.919874 28.352122 32.220568 -0.060129 0.495063 0.081940 -0.040978 529071.000000 0 0 1
15.711522 -1.413374 27.125282 31.378822 -0.089716 0.526750 0.097333 -0.045615 -1292320.000000 0 0 1
16.702822 -2.601574 27.082532 31.925163 -0.154515 0.558005 0.098783 -0.033637 1283130.000000 0 0 1
18.028622 -2.161274 27.487442 32.943312 -0.119311 0.583778 0.108043 -0.053527 1290810.000000 0 0 1
18.791722 -1.520274 26.440972 32.474068 -0.080725 0.619415 0.104900 -0.050274 -745648.000000 0 0 1
20.133622 -0.921974 26.886772 33.602251 -0.045761 0.643255 0.145184 -0.038636 -168435.000000 0 0 1
21.196622 -1.850874 26.785092 34.207656 -0.087098 0.671299 0.125041 -0.040370 -183269.000000 0 0 1
22.374822 -1.226474 27.281802 35.304867 -0.054760 0.687635 0.111463 -0.041049 1647470.000000 0 0 1
23.703122 -1.574174 26.434732 35.540274 -0.066315 0.732064 0.114274 -0.037164 1149960.000000 0 0 1
23.783422 -1.047274 25.109062 34.600765 -0.044005 0.758775 0.126844 -0.019743 142388.000000 0 0 1
23.055022 -1.856474 24.213432 33.485383 -0.080350 0.762510 0.150631 -0.008657 -96966.700000 0 0 1
22.988722 -1.476674 22.720682 32.355700 -0.064147 0.792291 0.134077 -0.039159 648004.000000 0 0 1
22.183322 -0.260074 22.493692 31.593253 -0.011723 0.778486 0.115200 -0.027008 738164.000000 0 0 1
22.044922 0.077526 21.102352 30.517108 0.003517 0.807243 0.107032 -0.022915 -123015.000000 0 0 1
-31.600608 -26.635024 -10.276554 42.586741 0.700337 1.814511 0.060263 0.021978 176260.000000 0 0 1
-31.648438 -25.486924 -9.423654 41.713453 0.677973 1.798678 0.067974 0.023134 -210286.000000 0 0 1
-32.234008 -25.708524 -8.171654 42.032552 0.673251 1.766455 0.081920 0.013015 -363156.000000 0 0 1
-32.310458 -24.425424 -7.280054 41.152961 0.647305 1.748635 0.116471 0.003795 575748.000000 0 0 1
-31.079028 -24.052424 -6.663954 39.860173 0.658630 1.738768 0.114006 0.001092 -148754.000000 0 0 1
-30.471998 -24.869124 -5.727754 39.746989 0.684499 1.715405 0.114177 -0.004426 543128.000000 0 0 1
-29.221758 -24.222424 -5.015754 38.285699 0.692126 1.702183 0.108697 -0.005423 500476.000000 0 0 1
-29.446978 -23.113124 -4.144054 37.663168 0.665470 1.681049 0.125262 -0.015670 -238117.000000 0 0 1
-30.081798 -21.971924 -4.611954 37.535984 0.630843 1.693975 0.144359 -0.017256 -246730.000000 0 0 1
-29.976248 -20.711924 -3.711254 36.624208 0.604623 1.672304 0.142142 -0.023093 -160887.000000 0 0 1
-28.766258 -20.051324 -3.976354 35.289723 0.608739 1.683714 0.161535 -0.022657 43430.400000 0 0 1
-28.577388 -19.057524 -2.979554 34.478023 0.588146 1.657323 0.186723 -0.020396 436579.000000 0 0 1
-27.477448 -17.959424 -3.182854 32.980018 0.578906 1.667455 0.171227 -0.017198 396914.000000 0 0 1
-27.865298 -17.103424 -4.243254 32.969791 0.550497 1.699856 0.170159 -0.028856 298766.000000 0 0 1
-26.912238 -16.100924 -4.571054 31.692315 0.539150 1.715533 0.147209 -0.026931 165623.000000 0 0 1
-27.493738 -15.035824 -5.551654 31.824558 0.500446 1.746139 0.163765 -0.044756 452257.000000 0 0 1
-28.665618 -14.311424 -5.199354 32.458709 0.463051 1.731673 0.154700 -0.027529 323590.000000 0 0 1
-28.932808 -13.154424 -5.990854 32.342489 0.426718 1.757104 0.188962 -0.046822 -18763.900000 0 0 1
-30.367308 -12.619724 -5.837754 33.399254 0.393856 1.746486 0.178073 -0.033902 257819.000000 0 0 1
-31.446628 -13.434224 -6.308154 34.773001 0.403739 1.753216 0.180424 -0.035438 197664.000000 0 0 1
-32.527718 -12.561924 -6.524054 35.474183 0.368546 1.755759 0.174353 -0.034715 781259.000000 0 0 1
-33.802348 -13.205824 -7.256354 37.008745 0.372444 1.768146 0.119088 -0.033441 732781.000000 0 0 1
-34.443291 -14.115524 -6.448554 37.777932 0.388942 1.742333 0.099648 -0.019122 -63981.700000 0 0 1
-34.618122 -15.295324 -7.181454 38.521871 0.416039 1.758319 0.096344 -0.033522 -620304.000000 0 0 1
-35.587375 -16.310324 -6.527754 39.687523 0.429749 1.736026 0.083583 -0.027177 430730.000000 0 0 1
-36.975178 -15.993024 -6.596954 40.822303 0.408235 1.733110 0.073483 -0.029178 512160.000000 0 0 1
-37.408778 -15.247024 -5.480654 40.766726 0.387023 1.705644 0.088536 -0.030015 49901.300000 0 0 1
36.559464 -14.989924 -5.475554 39.890775 -0.389110 1.708495 0.148606 -0.034844 -17147.600000 0 0 1
35.935744 -14.207524 -6.523154 39.189067 -0.376499 1.738028 0.150337 -0.042033 1478350.000000 0 0 1
34.501054 -14.218124 -6.661254 37.905805 -0.390900 1.747445 0.154738 -0.029025 945199.000000 0 0 1
33.713154 -13.578924 -5.518854 36.761688 -0.382899 1.721491 0.181855 -0.050169 -905491.000000 0 0 1
33.682484 -14.323124 -4.291554 36.852124 -0.402074 1.687515 0.177200 -0.045609 399551.000000 0 0 1
32.854364 -13.732724 -3.290254 35.760631 -0.395916 1.662934 0.216141 -0.044948 -606326.000000 0 0 1
32.676114 -14.697124 -2.065354 35.888711 -0.422673 1.628377 0.220905 -0.048752 -393947.000000 0 0 1
33.848554 -15.049824 -1.379154 37.069177 -0.418373 1.608010 0.252977 -0.040197 -374710.000000 0 0 1
34.795474 -15.798724 -2.084754 38.271019 -0.426213 1.625297 0.214332 -0.040070 -984774.000000 0 0 1
34.522224 -17.302424 -2.369654 38.688152 -0.464604 1.632085 0.192567 -0.040437 -832503.000000 0 0 1
34.626084 -18.210324 -1.243154 39.142394 -0.484163 1.602561 0.169146 -0.048083 251059.000000 0 0 1
34.713274 -19.617324 -1.537254 39.902556 -0.514381 1.609331 0.137022 -0.030118 -544840.000000 0 0 1
36.022614 -20.065224 -2.170954 41.291101 -0.508215 1.623397 0.126177 -0.036688 -620156.000000 0 0 1
36.222194 -19.588724 -3.462954 41.325023 -0.495747 1.654693 0.100483 -0.035176 -53389.900000 0 0 1
37.351824 -20.158924 -4.092354 42.641392 -0.494904 1.666916 0.095289 -0.024891 -247719.000000 0 0 1
37.694554 -19.407824 -5.417854 42.742206 -0.475473 1.697895 0.120382 -0.030099 -489360.000000 0 0 1
36.747374 -19.626824 -6.464354 42.158861 -0.490555 1.724737 0.093346 -0.035019 339399.000000 0 0 1
36.543964 -18.551524 -7.371154 41.640777 -0.469748 1.748752 0.102059 -0.039086 -197453.000000 0 0 1
35.318184 -18.649424 -8.296354 40.792213 -0.485827 1.775606 0.108083 -0.039958 -163328.000000 0 0 1
35.508424 -19.601424 -9.345154 41.622060 -0.504394 1.797251 0.107399 -0.036024 -12067.300000 0 0 1
34.336284 -19.785824 -10.106554 40.897453 -0.522763 1.820503 0.102878 -0.047324 -161041.000000 0 0 1
34.195284 -21.156324 -10.848354 41.648461 -0.554050 1.834310 0.115105 -0.039213 -105340.000000 0 0 1
33.525394 -22.122024 -10.096554 41.415896 -0.583275 1.817063 0.100741 -0.043774 -3386.340000 0 0 1
33.332704 -23.310124 -10.804054 42.085136 -0.610267 1.830422 0.086000 -0.037878 55045.200000 0 0 1
32.732214 -24.509724 -9.972354 42.090049 -0.642730 1.810000 0.098139 -0.028318 221594.000000 0 0 1
31.401994 -24.288524 -9.557754 40.833421 -0.658354 1.807055 0.112587 -0.037351 -264138.000000 0 0 1
30.842644 -25.442224 -9.039854 40.991394 -0.689743 1.793155 0.078556 -0.030491 117746.000000 0 0 1
29.398254 -25.213124 -8.478554 39.646499 -0.708913 1.786315 0.070397 -0.034211 559790.000000 0 0 1
28.551854 -24.752824 -9.502854 38.964277 -0.714248 1.817167 0.069393 -0.035090 -235001.000000 0 0 1
27.216154 -24.602424 -9.046154 37.786654 -0.735001 1.812545 0.088111 -0.035752 717578.000000 0 0 1
26.333554 -23.855824 -10.143154 36.951860 -0.736071 1.848862 0.168768 -0.048278 72431.800000 0 0 1
26.012554 -24.692124 -11.267254 37.593949 -0.759362 1.875184 0.134080 -0.049214 -337441.000000 0 0 1
25.080354 -24.110624 -12.116754 36.839681 -0.765687 1.905940 0.139317 -0.035087 -221976.000000 0 0 1
24.131554 -25.233724 -12.661354 37.140041 -0.807721 1.918679 0.133037 -0.045459 237003.000000 0 0 1
24.764754 -26.191624 -13.538254 38.504267 -0.813393 1.930080 0.120673 -0.041848 544882.000000 0 0 1
23.954054 -27.379424 -13.568454 38.826956 -0.852027 1.927791 0.130817 -0.022482 314315.000000 0 0 1
24.634654 -28.656124 -14.213154 40.373920 -0.860718 1.930544 0.098814 -0.025306 -193490.000000 0 0 1
24.732554 -28.636924 -15.599754 40.928291 -0.858425 1.961835 0.094366 -0.027044 406708.000000 0 0 1
25.225454 -29.900924 -16.056654 42.287172 -0.870009 1.960274 0.085444 -0.013396 -170478.000000 0 0 1
25.295354 -29.962624 -17.580954 42.973291 -0.869661 1.992279 0.076950 -0.005700 -872081.000000 0 0 1
24.047954 -29.867124 -18.162154 42.428917 -0.892914 2.013142 0.083995 -0.008603 -581480.000000 0 0 1
24.140154 -29.859624 -19.550754 43.088005 -0.890921 2.041754 0.062381 0.002728 -870397.000000 0 0 1
22.761654 -29.704324 -20.140054 42.497783 -0.916961 2.064520 0.046849 0.006906 -764137.000000 0 0 1
22.675354 -29.643124 -21.549654 43.096103 -0.917799 2.094438 0.033962 0.012967 578451.000000 0 0 1
21.293054 -29.662924 -21.915654 42.586138 -0.948201 2.111360 0.049028 -0.001666 295102.000000 0 0 1
21.025254 -29.786624 -23.397454 43.321417 -0.956147 2.141340 0.043947 -0.002188 -368708.000000 0 0 1
21.482954 -28.622424 -24.076254 43.132661 -0.926935 2.163000 0.050160 0.001687 344638.000000 0 0 1
21.263454 -28.815424 -25.424814 43.919066 -0.935072 2.188177 0.042080 -0.003215 -166514.000000 0 0 1
21.743854 -27.619324 -26.294224 43.897705 -0.903866 2.213034 0.032128 -0.006521 376337.000000 0 0 1
20.794554 -26.552624 -26.276884 42.754298 -0.906418 2.232678 0.058245 -0.020920 161845.000000 0 0 1
20.052154 -26.549824 -27.452104 43.134674 -0.923934 2.260654 0.091648 -0.031976 -223190.000000 0 0 1
19.141354 -25.302724 -27.675064 42.101407 -0.923152 2.288084 0.092661 -0.030132 -259230.000000 0 0 1
18.221754 -25.163824 -26.637584 40.924458 -0.944062 2.279561 0.078910 -0.014993 -487171.000000 0 0 1
17.588254 -23.935924 -26.708414 39.945144 -0.937091 2.303158 0.060373 -0.009932 -51926.900000 0 0 1
16.418354 -23.700924 -25.709094 38.629699 -0.964966 2.298996 0.060314 -0.014934 -538228.000000 0 0 1
15.274854 -24.465124 -25.934584 38.787448 -1.012663 2.303166 0.106551 -0.024591 -186879.000000 0 0 1
14.068754 -24.008624 -25.347064 37.640637 -1.040744 2.309590 0.086830 -0.020529 327150.000000 0 0 1
13.972654 -24.219524 -23.788154 36.710989 -1.047523 2.275732 0.077370 -0.020592 -570234.000000 0 0 1
14.944854 -23.422024 -23.122354 36.146689 -1.002855 2.264880 0.034766 -0.012693 35728.300000 0 0 1
15.103654 -23.873924 -21.799854 35.683585 -1.006720 2.228020 0.047983 -0.016279 -120594.000000 0 0 1
16.177354 -23.130324 -21.013654 35.189378 -0.960473 2.210751 0.029859 -0.014103 -17956.500000 0 0 1
15.839454 -21.792624 -20.752854 34.007172 -0.942292 2.227172 0.013584 -0.013968 150611.000000 0 0 1
17.025654 -21.074924 -20.508954 33.980031 -0.891279 2.218754 0.018508 -0.017842 -66914.900000 0 0 1
16.677454 -19.679624 -19.993954 32.637146 -0.867786 2.230159 0.031214 -0.010434 130384.000000 0 0 1
16.142554 -19.739324 -18.686154 31.613214 -0.885304 2.203202 0.031498 -0.015652 1073280.000000 0 0 1
14.716554 -19.519424 -18.684554 30.768449 -0.924776 2.223408 0.013129 -0.014471 754341.000000 0 0 1
13.983354 -19.540624 -17.328454 29.625082 -0.949674 2.195584 0.022629 -0.011594 -72388.600000 0 0 1
13.997754 -18.296424 -16.681054 28.442113 -0.917730 2.197516 0.054056 -0.027086 128500.000000 0 0 1
13.807854 -18.482324 -15.319554 27.693715 -0.929164 2.156971 0.040178 -0.027014 -242927.000000 0 0 1
13.779654 -17.087224 -14.733054 26.437000 -0.892147 2.161914 0.059510 -0.029009 -627159.000000 0 0 1
12.463354 -16.596124 -14.679354 25.421447 -0.926668 2.186386 0.071578 -0.038228 -12390.700000 0 0 1
12.419554 -15.259624 -14.233654 24.283706 -0.887647 2.197083 0.070573 -0.041150 -162843.000000 0 1 0
10.987554 -14.707424 -14.092054 23.143480 -0.929170 2.225469 0.078701 -0.033761 -65966.000000 0 1 0
10.287154 -14.403224 -15.267954 23.374961 -0.950587 2.282567 0.106021 -0.026370 -454255.000000 0 1 0
8.988654 -13.987624 -14.946954 22.357571 -0.999630 2.303042 0.101556 -0.021846 -241546.000000 0 1 0
8.189154 -13.493824 -16.191354 22.612065 -1.025332 2.368923 0.081064 -0.005138 106175.000000 0 1 0
8.622954 -12.255224 -16.849754 22.549059 -0.957649 2.414709 0.078806 -0.003765 -49301.700000 0 1 0
9.890854 -12.229824 -17.457954 23.498463 -0.890744 2.408249 0.112591 -0.012706 -199406.000000 0 1 0
10.164754 -11.002324 -18.306054 23.653435 -0.824947 2.455817 0.120178 -0.014595 -202056.000000 0 1 0
9.499754 -11.002824 -19.543354 24.356727 -0.858579 2.502069 0.125112 -0.016509 71021.400000 0 1 0
9.780354 -9.834224 -20.219354 24.519167 -0.788145 2.540352 0.129757 -0.025357 155782.000000 0 1 0
9.292854 -9.784724 -21.706954 25.559535 -0.811175 2.585398 0.123971 -0.024963 -56768.500000 0 0 1
10.206954 -10.459824 -22.532254 26.856886 -0.797633 2.566193 0.139214 -0.025132 -380521.000000 0 0 1
9.913254 -10.372924 -23.890754 27.868231 -0.808054 2.600751 0.134706 -0.021817 501199.000000 0 0 1
11.085954 -10.921524 -24.810854 29.287481 -0.777927 2.581393 0.132382 -0.019148 598328.000000 0 0 1
11.335654 -12.313824 -24.628554 29.777391 -0.826736 2.544705 0.115285 -0.015493 -124547.000000 0 0 1
12.415154 -12.821024 -25.380764 31.027373 -0.801480 2.528743 0.098728 -0.021629 -72497.600000 0 0 1
12.696154 -14.327324 -25.160304 31.614956 -0.845686 2.491182 0.078730 -0.011213 -60682.100000 0 0 1
11.673154 -15.167424 -25.656704 32.009057 -0.914856 2.500671 0.066592 -0.008167 21426.900000 0 0 1
11.957954 -16.482624 -25.251674 32.439430 -0.943168 2.462950 0.049075 -0.006142 307541.000000 0 0 1
10.770654 -17.436724 -25.564384 32.765593 -1.017464 2.465814 0.047305 -0.004282 465954.000000 0 0 1
10.822454 -17.891824 -26.907254 34.077019 -1.026794 2.480955 0.058225 -0.022263 -9294.750000 0 0 1
9.661954 -18.647324 -27.166184 34.337700 -1.092741 2.483479 0.064934 -0.020437 27970.600000 0 0 1
9.914854 -19.468924 -28.399884 35.831505 -1.099764 2.485850 0.065401 -0.024332 -235831.000000 0 0 1
10.647754 -20.643524 -28.173094 36.513737 -1.094595 2.452110 0.053237 -0.025798 -35211.600000 0 0 1
10.823454 -21.524324 -29.283394 37.920454 -1.104873 2.453143 0.072407 -0.025335 -49077.000000 0 0 1
11.557954 -22.820524 -28.865144 38.568889 -1.101985 2.416450 0.066088 -0.018388 -53068.500000 0 0 1
11.631854 -23.729824 -29.956434 39.947372 -1.115037 2.418703 0.068908 -0.013390 7441.000000 0 0 1
12.235254 -24.953324 -29.494234 40.525050 -1.114918 2.385909 0.101165 -0.020020 -102273.000000 0 0 1
11.396154 -25.995524 -28.714934 40.375575 -1.157640 2.361994 0.108977 -0.020505 110647.000000 0 0 1
10.779254 -25.379024 -27.579764 38.999110 -1.169154 2.356312 0.116408 -0.028412 -248087.000000 0 0 1
10.556354 -26.198024 -26.456064 38.700083 -1.187754 2.323504 0.116567 -0.027135 380804.000000 0 0 1
9.784554 -25.385724 -25.371464 37.200587 -1.202908 2.321315 0.097377 -0.021978 193248.000000 0 0 1
10.567254 -24.350124 -24.806954 36.331534 -1.161352 2.322376 0.082301 -0.021560 -85059.400000 0 0 1
10.110854 -23.093724 -25.250214 35.680846 -1.158119 2.356989 0.062634 0.000278 127436.000000 0 0 1
11.098454 -21.922524 -24.976454 35.037066 -1.102155 2.364361 0.061241 0.003758 -28019.500000 0 0 1
11.314854 -21.601324 -23.573154 33.916614 -1.088288 2.339262 0.050607 -0.001069 -398239.000000 0 0 1
12.335554 -20.675124 -23.433954 33.597274 -1.032853 2.342693 0.043295 -0.009761 -652837.000000 0 0 1
12.726054 -20.461324 -21.954154 32.597594 -1.014389 2.309716 0.021773 0.002048 55065.800000 0 0 1
11.858954 -19.704324 -21.088354 31.202786 -1.029021 2.312912 0.015897 0.006670 -27377.200000 0 0 1
11.642154 -18.311824 -21.271654 30.386608 -1.004488 2.346241 0.022834 0.003672 185518.000000 0 0 1
12.863254 -17.339724 -21.095654 30.185360 -0.932540 2.344613 0.036075 -0.005151 468372.000000 0 0 1
13.796354 -17.477124 -22.147854 31.405679 -0.902555 2.353527 0.029499 0.000064 -914212.000000 0 0 1
14.739954 -16.483124 -22.066754 31.239418 -0.841170 2.355161 0.052687 -0.002366 -365089.000000 0 0 1
16.040054 -16.645624 -22.876854 32.522463 -0.803923 2.350990 0.038604 0.000016 -213988.000000 0 0 1
17.116254 -17.351524 -22.306454 33.039665 -0.792224 2.311953 0.041256 0.009416 326788.000000 0 0 1
18.266454 -17.053724 -23.109354 34.037260 -0.751076 2.317118 0.075449 -0.005062 58131.900000 0 0 1
19.577154 -17.321224 -22.364154 34.401238 -0.724335 2.278509 0.078154 -0.008656 -360363.000000 0 0 1
19.758654 -18.681924 -22.038154 35.001413 -0.757395 2.251881 0.072337 -0.016704 465581.000000 0 0 1
21.144154 -18.926324 -21.819554 35.796284 -0.730106 2.226287 0.061136 -0.022044 459474.000000 0 0 1
21.481654 -20.269524 -21.140054 36.321026 -0.756374 2.192024 0.072817 -0.021771 -247450.000000 0 0 1
21.109254 -20.469124 -19.826854 35.463922 -0.770004 2.164061 0.076277 -0.023420 128163.000000 0 0 1
21.310054 -21.866924 -19.536554 36.248555 -0.798295 2.139999 0.085831 -0.015384 -128016.000000 0 0 1
-16.810278 13.382226 29.305672 36.338572 -0.672342 0.632653 0.069991 -0.020321 -898708.000000 0 0 1
-18.048978 13.526126 28.674072 36.481833 -0.643125 0.666513 0.075876 -0.028234 -397444.000000 0 0 1
-17.881778 13.631926 27.248122 35.327717 -0.651350 0.689922 0.070897 -0.024633 -314421.000000 0 0 1
-19.020878 14.268126 26.469742 35.581181 -0.643584 0.731871 0.085121 -0.023114 -287519.000000 0 0 1
-19.333878 15.613426 26.908852 36.628735 -0.679339 0.745664 0.094582 -0.023205 95992.300000 0 0 1
-20.326478 16.168426 26.054612 36.788946 -0.671952 0.783825 0.100205 -0.021379 -180943.000000 0 0 1
-20.347578 17.744926 26.085752 37.541614 -0.717180 0.802586 0.103659 -0.007933 -252599.000000 0 0 1
-19.265278 18.448926 25.549952 36.936620 -0.763756 0.806922 0.059513 -0.015256 -38840.600000 0 0 1
-18.172978 18.583726 26.473612 37.100730 -0.796572 0.776229 0.063827 -0.014644 351222.000000 0 0 1
-17.031378 19.451026 25.872542 36.575930 -0.851625 0.785033 0.064176 -0.018159 14292.100000 0 0 1
-17.302378 20.854226 25.842382 37.444622 -0.878217 0.809101 0.071593 -0.015330 -42365.800000 0 0 1
-16.309978 21.636426 25.202552 37.004310 -0.924855 0.821572 0.083839 -0.024649 128259.000000 0 0 1
-16.529778 23.142726 25.293562 38.060263 -0.950568 0.843883 0.089589 -0.022867 72680.100000 0 0 1
-16.141778 23.733926 26.543632 39.095021 -0.973542 0.824462 0.092130 -0.019297 64734.400000 0 0 1
-16.406878 25.120426 26.498382 40.029810 -0.992225 0.847357 0.094698 -0.014141 -65011.600000 0 0 1
-15.592478 25.934926 27.531852 40.911473 -1.029484 0.832591 0.071355 -0.012400 171940.000000 0 0 1
-14.195178 25.955426 27.305202 40.258680 -1.070332 0.825426 0.072180 -0.017616 -62142.900000 0 0 1
-13.565178 26.652726 28.378742 41.227841 -1.100006 0.811599 0.079049 -0.014049 294030.000000 0 0 1
-12.036878 26.615026 28.147822 40.565329 -1.146066 0.803921 0.087615 -0.019125 169137.000000 0 0 1
-11.414278 27.433326 27.192692 40.277980 -1.176511 0.829661 0.062545 -0.007443 309573.000000 0 0 1
-9.998678 27.250026 27.239162 39.805897 -1.219125 0.817153 0.066006 -0.006562 215138.000000 0 0 1
-9.316678 28.226126 26.208352 39.628177 -1.251983 0.848171 0.070455 -0.008770 568834.000000 0 0 1
-7.951778 27.770426 26.082562 38.919499 -1.291918 0.836363 0.084932 -0.016161 630319.000000 0 0 1
-7.399478 28.446026 24.970492 38.567527 -1.316313 0.866564 0.097191 -0.015322 113079.000000 0 0 1
-5.852478 28.317426 24.978662 38.210754 -1.366992 0.858323 0.104757 -0.027929 314199.000000 0 0 1
-5.135478 29.218626 25.825622 39.332735 -1.396813 0.854503 0.116597 -0.028806 -51674.800000 0 0 1
-3.744478 29.114126 25.798472 39.079593 -1.442885 0.849775 0.095587 -0.028452 268878.000000 0 0 1
-2.883778 29.925426 24.750962 38.941718 -1.474727 0.882024 0.099581 -0.026244 230697.000000 0 0 1
-3.092578 29.363126 23.489802 37.729670 -1.465861 0.898759 0.095315 -0.022283 -44142.800000 0 0 1
-2.333878 29.969626 22.442552 37.513912 -1.493078 0.929486 0.097641 -0.028487 -544073.000000 0 0 1
-2.716378 29.466126 21.011752 36.292217 -1.478870 0.953343 0.092674 -0.025036 1648820.000000 0 0 1
-4.111878 29.671726 20.637252 36.376023 -1.433094 0.967535 0.085447 -0.017074 1249070.000000 0 0 1
-4.951378 28.696726 21.232652 36.039475 -1.399937 0.940790 0.084350 -0.012949 -238514.000000 0 0 1
-6.453578 28.844926 20.837852 36.164824 -1.350688 0.956736 0.076126 -0.021308 299831.000000 0 0 1
-6.587678 28.725726 19.420952 35.295017 -1.345364 0.988137 0.057314 -0.019813 -26561.200000 0 0 1
-7.392578 27.682126 18.929152 34.340401 -1.309834 0.986969 0.039976 -0.017800 -909575.000000 0 0 1
-6.683678 26.331526 18.777752 33.024609 -1.322218 0.965995 0.023452 -0.020135 255980.000000 0 0 1
-5.849078 26.332726 17.606452 32.211975 -1.352223 0.992520 0.029876 -0.021430 824525.000000 0 0 1
-4.502678 26.754726 17.841552 32.471687 -1.404064 0.989091 0.048386 -0.018465 -62484.900000 0 0 1
-3.599378 26.877326 16.618352 31.804336 -1.437670 1.020994 0.039772 -0.013893 -62449.400000 0 0 1
-3.256878 25.642626 16.015152 30.407838 -1.444462 1.016108 0.040940 -0.016966 -283119.000000 0 0 1
-2.561978 25.801026 14.828752 29.868856 -1.471823 1.051278 0.047425 -0.023319 -383421.000000 0 0 1
-2.021178 24.526326 14.195552 28.410201 -1.488574 1.047586 0.041852 -0.023222 386202.000000 0 0 1
-0.888578 23.930326 14.837752 28.171066 -1.533682 1.016080 0.051924 -0.021852 516076.000000 0 0 1
-0.261578 22.985826 13.960952 26.894699 -1.559417 1.025002 0.051468 -0.037223 -42184.600000 0 0 1
1.002422 22.326626 14.590052 26.689936 1.525928 0.992438 0.050046 -0.027621 439936.000000 0 0 1
2.063122 23.267526 14.649952 27.572728 1.482358 1.010638 0.049814 -0.032587 408885.000000 0 0 1
3.216522 22.731326 15.309552 27.594231 1.430228 0.982662 0.045660 -0.027120 941840.000000 0 0 1
4.381022 23.776526 15.386952 28.657893 1.388582 1.004016 0.077493 -0.036877 1099730.000000 0 0 1
5.678022 23.288226 15.730252 28.670930 1.331647 0.990050 0.086099 -0.027582 125250.000000 0 0 1
6.667422 24.246326 15.528752 29.554712 1.302442 1.017583 0.102184 -0.033461 -932432.000000 0 0 1
8.128022 23.822926 15.667452 29.649041 1.241996 1.014046 0.116289 -0.033141 -247293.000000 0 0 1
8.555722 22.913626 14.688252 28.530324 1.213438 1.029988 0.100934 -0.033415 -16440.700000 0 0 1
8.771622 23.517426 13.419552 28.462169 1.213794 1.079820 0.113149 -0.040569 -907304.000000 0 0 1
9.260622 22.549826 12.366152 27.334511 1.181122 1.101341 0.099184 -0.042587 -907085.000000 0 0 1
10.594122 22.240426 12.603152 27.671491 1.126251 1.097912 0.096914 -0.032708 -752292.000000 0 0 1
11.041522 21.517426 11.470252 26.767173 1.096689 1.127943 0.088900 -0.039453 726349.000000 0 0 1
12.549322 21.103626 11.653852 27.178315 1.034318 1.127641 0.131315 -0.038141 762876.000000 0 0 1
12.726722 20.187926 12.725852 27.045686 1.008314 1.080903 0.120218 -0.031209 -475499.000000 0 0 1
13.993922 19.616826 12.839252 27.303775 0.951158 1.081237 0.109725 -0.032180 -598653.000000 0 0 1
14.348422 18.932326 14.157252 27.653896 0.922271 1.033350 0.109534 -0.031001 -606104.000000 0 0 1
15.626622 18.367826 14.131952 27.951394 0.865861 1.040730 0.117341 -0.034327 -152095.000000 0 0 1
15.953222 17.916126 15.431352 28.524016 0.843289 0.999177 0.106395 -0.038772 1347430.000000 0 0 1
17.300422 17.040726 15.451052 28.782390 0.777836 1.004129 0.089534 -0.035571 1261170.000000 0 0 1
17.748922 16.732626 16.754552 29.592567 0.755933 0.968939 0.096713 -0.043527 45646.400000 0 0 1
18.838122 15.836426 16.654252 29.715844 0.699046 0.975867 0.090973 -0.041159 101367.000000 0 0 1
19.499122 15.523226 18.030552 30.761780 0.672358 0.944516 0.101255 -0.044328 122413.000000 0 0 1
20.194222 16.576226 18.697552 32.127501 0.687320 0.949635 0.114995 -0.039657 1275550.000000 0 0 1
19.261022 17.478426 19.374852 32.432503 0.736916 0.930554 0.105131 -0.036103 629539.000000 0 0 1
19.964422 18.622926 20.112452 33.910209 0.750647 0.935881 0.093055 -0.032088 -329162.000000 0 0 1
19.016822 19.444426 20.753852 34.211805 0.796515 0.918984 0.111627 -0.043929 61834.200000 0 0 1
19.594922 20.307726 21.672052 35.581492 0.803260 0.915894 0.106900 -0.035492 -89472.300000 0 0 1
18.582622 21.380726 22.147552 35.957800 0.855301 0.907228 0.115384 -0.035937 -383284.000000 0 0 1
17.628122 20.847126 23.001542 35.699080 0.868868 0.870666 0.108934 -0.037974 -294448.000000 0 0 1
16.897522 21.974726 23.493492 36.336745 0.915276 0.867744 0.100505 -0.041807 -133927.000000 0 0 1
16.162022 21.675526 24.776392 36.673001 0.930095 0.829014 0.113358 -0.041351 288607.000000 0 0 1
15.017322 20.826326 24.754272 35.665527 0.946066 0.803673 0.120297 -0.046723 142849.000000 0 0 1
14.488122 20.571626 26.034672 36.206376 0.957206 0.768343 0.114695 -0.036945 291579.000000 0 0 1
13.468422 19.399226 26.014832 35.135450 0.963922 0.737108 0.120398 -0.036681 367850.000000 0 0 1
14.070522 18.102826 25.867282 34.565998 0.910079 0.725233 0.109993 -0.052400 -6724.720000 0 0 1
14.498322 17.657526 24.591512 33.566830 0.883331 0.748643 0.125745 -0.055230 -251912.000000 0 0 1
13.473422 17.466126 23.403772 32.161082 0.913737 0.755827 0.124321 -0.051337 -154178.000000 0 0 1
12.918222 18.568026 22.713532 32.055524 0.962946 0.783329 0.109769 -0.047818 -407331.000000 0 0 1
13.786122 19.390826 22.003252 32.406858 0.952752 0.824439 0.113757 -0.047129 -460182.000000 0 0 1
14.564922 18.730226 20.832652 31.574637 0.909854 0.850256 0.131989 -0.051179 -65463.700000 0 0 1
13.692722 18.202826 19.860552 30.220441 0.925869 0.853713 0.098664 -0.043246 -350316.000000 0 0 1
14.307122 17.267026 19.076952 29.441027 0.878870 0.865878 0.086396 -0.038031 -519399.000000 0 0 1
13.340422 16.462226 18.215052 27.942081 0.889767 0.860727 0.089311 -0.031009 -248490.000000 0 0 1
12.798622 17.120526 17.096552 27.371687 0.928859 0.896168 0.110286 -0.032525 257978.000000 0 0 1
11.898922 16.317126 16.338652 25.976615 0.940722 0.890562 0.088409 -0.033512 107968.000000 0 0 1
11.324522 17.090826 15.147952 25.491206 0.985609 0.934473 0.097968 -0.029609 -126685.000000 0 0 1
10.288722 17.985026 15.518152 25.886908 1.051166 0.927971 0.101799 -0.034920 100967.000000 0 0 1
9.852822 18.645026 14.398752 25.535058 1.084655 0.971718 0.093201 -0.018580 -471366.000000 0 0 1
8.740222 19.663226 14.632852 26.022189 1.152529 0.973605 0.095100 -0.020751 -188445.000000 0 0 1
7.472922 19.076826 14.814552 25.283212 1.197441 0.944752 0.057571 -0.021101 240094.000000 0 0 1
6.475422 20.105526 15.017352 25.916870 1.259215 0.952751 0.067500 -0.023803 1045870.000000 0 0 1
5.135822 19.612326 15.650252 25.611529 1.314680 0.913394 0.049447 -0.026873 223140.000000 0 0 1
4.223022 19.021426 14.761352 24.444756 1.352326 0.922454 0.039275 -0.032264 -781573.000000 0 1 0
3.172822 18.555626 15.558252 24.422065 1.401444 0.880122 0.035030 -0.032674 556317.000000 0 1 0
1.951122 18.015226 14.699552 23.333069 1.462913 0.889259 0.042934 -0.033072 771356.000000 0 1 0
1.189422 18.988126 14.039152 23.644480 1.508238 0.935072 0.037598 -0.032170 423645.000000 0 1 0
0.243522 18.479726 13.053852 22.626591 1.557619 0.955837 0.031905 -0.041334 633215.000000 0 1 0
-0.562778 19.596726 12.325952 23.157666 -1.542086 1.009526 0.027915 -0.038028 893761.000000 0 1 0
-1.762078 20.025626 12.995052 23.937460 -1.483031 0.996939 0.032976 -0.041134 362081.000000 0 1 0
-2.705478 20.521526 12.080052 23.966233 -1.439716 1.042521 0.036222 -0.034505 60982.100000 0 1 0
-3.770478 21.428126 12.717852 25.201684 -1.396620 1.041828 0.027174 -0.025936 761875.000000 0 0 1
-4.800678 20.681126 13.406152 25.109369 -1.342707 1.007578 0.032602 -0.027796 174945.000000 0 0 1
-5.853878 21.424126 13.911852 26.206883 -1.304069 1.011196 0.028743 -0.017638 -543755.000000 0 0 1
-6.577678 20.693826 15.087652 26.441209 -1.263039 0.963546 0.037020 -0.019733 -480373.000000 0 0 1
-7.380078 19.614826 14.637652 25.563017 -1.210930 0.961110 0.044770 -0.021923 -89515.600000 0 0 1
-7.987678 18.842826 15.621952 25.746854 -1.169849 0.918828 0.049204 -0.014089 477919.000000 0 0 1
-9.164278 19.431826 16.470852 27.071550 -1.130116 0.916729 0.042388 -0.003714 804225.000000 0 0 1
-10.375878 19.821426 15.834552 27.409502 -1.088551 0.954885 0.038304 -0.013992 1257730.000000 0 0 1
-11.573078 19.579426 16.608352 28.162518 -1.036959 0.940069 0.035126 0.002309 852868.000000 0 0 1
-12.845178 19.452126 15.775052 28.146689 -0.987181 0.975857 0.046636 -0.012638 -343299.000000 0 0 1
-13.452978 20.616426 15.300152 28.984725 -0.992640 1.014706 0.037931 -0.010074 205242.000000 0 0 1
-14.518578 20.341726 14.397652 28.842110 -0.950912 1.048134 0.047439 -0.018125 64924.200000 0 0 1
-15.361278 21.579226 14.046052 29.982052 -0.952158 1.083225 0.041833 -0.019944 -74777.800000 0 0 1
-16.524278 21.633326 14.866252 31.017060 -0.918500 1.070948 0.027322 -0.024100 161509.000000 0 0 1
-17.486578 22.517626 14.295852 31.893499 -0.910504 1.106004 0.049733 -0.025379 198226.000000 0 0 1
-18.819978 22.430426 15.061052 32.926446 -0.872701 1.095710 0.098172 -0.034803 -474925.000000 0 0 1
-19.689878 21.302726 14.894152 32.608790 -0.824723 1.096455 0.106058 -0.035744 1312200.000000 0 0 1
-20.878378 21.241526 15.715152 33.676032 -0.794020 1.085289 0.105581 -0.031096 553951.000000 0 0 1
-21.908578 22.308726 15.556852 34.923927 -0.794448 1.109120 0.108152 -0.038752 -1648820.000000 0 0 1
-22.712278 22.225226 14.405152 34.890065 -0.774560 1.145191 0.112633 -0.029457 181048.000000 0 0 1
-23.503378 23.416326 14.252252 36.108999 -0.783543 1.165054 0.137196 -0.037181 128161.000000 0 0 1
-22.857778 24.594326 13.475452 36.179368 -0.821978 1.189135 0.123799 -0.034936 -23918.000000 0 0 1
-21.722378 25.111526 14.150952 36.092934 -0.857638 1.167916 0.104280 -0.043546 256123.000000 0 0 1
-21.061978 26.165726 13.424652 36.172827 -0.893047 1.190576 0.076368 -0.039443 -169326.000000 0 0 1
-19.641378 26.412326 13.927252 35.740216 -0.931375 1.170512 0.059624 -0.029406 124807.000000 0 0 1
-18.625178 25.695626 13.206952 34.374206 -0.943594 1.176443 0.073156 -0.020971 114885.000000 0 0 1
-17.335478 26.154426 13.503552 34.160192 -0.985467 1.164401 0.019793 -0.018168 -172969.000000 0 0 1
-16.275078 25.650926 12.495152 32.847785 -1.005407 1.180572 0.046471 -0.023463 649186.000000 0 0 1
-14.972078 26.206526 12.702152 32.745836 -1.051739 1.172443 0.038989 -0.026198 661436.000000 0 0 1
-14.042278 25.773826 11.727652 31.607175 -1.071933 1.190663 0.049295 -0.019600 183929.000000 0 0 1
-12.603578 26.299426 11.979752 31.528153 -1.123899 1.181032 0.040497 -0.015673 -929149.000000 0 0 1
-11.691278 25.474926 11.377052 30.250540 -1.140539 1.185219 0.023210 -0.011682 -378213.000000 0 0 1
-10.329178 25.844326 11.519552 30.121773 -1.190575 1.178369 0.045255 -0.016910 474005.000000 0 0 1
-9.830478 27.147326 10.803552 30.827461 -1.223369 1.212742 0.051149 -0.023327 -896069.000000 0 0 1
-8.566078 27.606526 11.212152 31.003392 -1.269924 1.200767 0.080598 -0.028477 -68165.600000 0 0 1
-8.394178 28.920726 10.797852 31.991628 -1.288310 1.226514 0.090201 -0.038461 -393242.000000 0 0 1
-7.216678 29.580426 11.515152 32.552738 -1.331503 1.209231 0.087782 -0.041478 -428416.000000 0 0 1
-5.975478 29.119926 11.086652 31.726807 -1.368404 1.213822 0.087714 -0.038079 -221891.000000 0 0 1
-4.888678 29.645026 11.879752 32.308749 -1.407360 1.194268 0.107484 -0.041807 678697.000000 0 0 1
-3.532478 29.277626 11.228852 31.555426 -1.450722 1.206978 0.103494 -0.038809 -65113.800000 0 0 1
-3.133978 30.045026 10.137952 31.863827 -1.466863 1.247003 0.130928 -0.053600 404386.000000 0 0 1
-1.795578 29.874926 9.676552 31.454268 -1.510765 1.258086 0.133028 -0.051656 719985.000000 0 0 1
-1.686178 30.671226 8.360752 31.835036 -1.515876 1.305052 0.136735 -0.053849 288542.000000 0 0 1
-2.363678 29.969026 7.310552 30.938224 -1.492089 1.332245 0.149003 -0.049662 136065.000000 0 0 1
-2.588878 30.784526 6.155252 31.500420 -1.486897 1.374129 0.150557 -0.045453 64703.700000 0 0 1
11.654122 -33.612324 -25.794614 43.942792 -1.237045 2.198150 0.222134 -0.062824 -150803.000000 0 0 1
12.302422 -33.187224 -24.632854 43.122140 -1.215803 2.178805 0.204353 -0.059584 924175.000000 0 0 1
13.662422 -32.771924 -24.859354 43.343376 -1.175811 2.181623 0.188724 -0.054976 788077.000000 0 0 1
14.558622 -32.562824 -23.633354 42.788157 -1.150362 2.155958 0.168119 -0.051836 -569826.000000 0 0 1
14.196622 -31.547424 -22.733754 41.395744 -1.147935 2.152180 0.175360 -0.053770 148309.000000 0 0 1
14.833222 -31.607524 -21.462254 40.984002 -1.132014 2.121954 0.127873 -0.041295 717241.000000 0 0 1
16.356822 -31.251924 -21.360254 41.236984 -1.088615 2.115293 0.092600 -0.028086 542880.000000 0 0 1
17.219522 -32.264224 -21.810154 42.581392 -1.080551 2.108540 0.093966 -0.023828 -520844.000000 0 0 1
18.551522 -32.026824 -21.465754 42.786155 -1.045774 2.096358 0.061991 -0.020919 -1007030.000000 0 0 1
19.444422 -33.196024 -21.812054 44.224736 -1.040924 2.086572 0.039551 -0.007308 -143461.000000 0 0 1
20.757522 -33.017824 -21.306854 44.441349 -1.009558 2.070810 0.024059 0.011962 635650.000000 0 0 1
21.646822 33.575326 -21.471654 45.353273 0.998139 2.063978 0.025716 0.008550 549202.000000 0 0 1
23.144922 -33.826424 -21.167754 46.130123 -0.970736 2.047520 0.037150 0.010931 430875.000000 0 0 1
23.832122 -33.333524 -22.348354 46.674863 -0.950101 2.070094 0.023175 0.015420 -600760.000000 0 0 1
25.189422 -33.386824 -22.075554 47.291829 -0.924439 2.056459 0.025820 0.017762 -774188.000000 0 0 1
26.029922 -32.764624 -23.224254 47.858577 -0.899447 2.077466 0.041058 0.007240 -67708.300000 0 0 1
26.107722 -31.353024 -23.451454 47.059494 -0.876431 2.092475 0.039022 0.009233 440348.000000 0 0 1
24.938222 -30.771924 -24.063854 46.345391 -0.889733 2.116744 0.014695 0.014610 652478.000000 0 0 1
24.835722 -29.218724 -24.027354 45.253295 -0.866306 2.130521 0.014995 0.001779 -669696.000000 0 0 1
25.865022 -28.701624 -24.784854 45.902849 -0.837336 2.141164 0.029635 0.006582 -441458.000000 0 0 1
25.843122 -27.307124 -24.517654 44.884979 -0.812936 2.148657 0.047472 0.009920 300516.000000 0 0 1
26.392122 -26.378824 -25.598544 45.251209 -0.785146 2.172076 0.054047 0.008808 -884849.000000 0 0 1
25.482022 -26.254824 -26.639844 45.258486 -0.800334 2.200141 0.037380 0.002964 -538045.000000 0 0 1
26.071422 -25.662524 -27.768934 45.928182 -0.777494 2.220081 0.041919 -0.002675 -533254.000000 0 0 1
25.067422 -25.086224 -28.824974 45.700913 -0.785773 2.253291 0.039250 -0.011353 81329.300000 0 0 1
24.301722 -23.989124 -28.543624 44.506070 -0.778925 2.267043 0.053657 -0.019042 -209665.000000 0 0 1
23.258622 -24.110224 -27.582674 43.394358 -0.803374 2.259618 0.042354 -0.010816 204169.000000 0 0 1
22.406322 -22.793024 -27.410174 42.105616 -0.793953 2.279679 0.053347 -0.013622 200575.000000 0 0 1
21.821122 -22.322924 -28.592374 42.331999 -0.796765 2.312346 0.081314 -0.026206 -81147.300000 0 0 1
21.313522 -21.037024 -28.317774 41.215518 -0.778869 2.328239 0.072324 -0.014110 -226669.000000 0 0 1
20.320222 -20.555924 -29.428214 41.248966 -0.791164 2.365176 0.090565 -0.024988 -39595.700000 0 0 1
19.091622 -21.187024 -29.166614 40.793031 -0.837374 2.367406 0.074096 -0.022036 74680.300000 0 0 1
17.993222 -20.588324 -29.863154 40.490037 -0.852560 2.400221 0.062985 -0.025190 203574.000000 0 0 1
16.707022 -21.401324 -29.716424 40.251797 -0.907964 2.401288 0.060063 -0.027669 -515603.000000 0 0 1
16.792222 -22.590524 -30.498584 41.502700 -0.931577 2.396253 0.063422 -0.024966 76600.600000 0 0 1
16.007622 -23.615724 -29.960494 41.371217 -0.975100 2.380651 0.073149 -0.026328 -327775.000000 0 0 1
16.257122 -25.050424 -30.602634 42.759081 -0.995141 2.368421 0.101285 -0.028660 397091.000000 0 0 1
15.442122 -26.048824 -29.961064 42.598894 -1.035677 2.350867 0.112438 -0.031328 416005.000000 0 0 1
15.797722 -27.362424 -30.437004 43.871192 -1.047197 2.337522 0.143642 -0.025168 468057.000000 0 0 1
15.095522 -28.556224 -29.634924 43.835619 -1.084512 2.313181 0.157200 -0.029903 351351.000000 0 0 1
15.550622 -28.862224 -28.323554 43.325207 -1.076602 2.283317 0.178306 -0.042998 -196764.000000 0 0 1
15.160422 -27.898224 -27.407554 41.944288 -1.073020 2.282900 0.150967 -0.037763 456943.000000 0 0 1
16.237722 -27.602824 -26.274554 41.423806 -1.039052 2.257881 0.112541 -0.027244 329019.000000 0 0 1
16.411122 -28.639924 -25.323504 41.603486 -1.050455 2.225201 0.124394 -0.033898 51959.500000 0 0 1
17.156222 -28.239624 -24.183254 40.946820 -1.024864 2.202600 0.141784 -0.039200 -584823.000000 0 0 1
16.469622 -27.243124 -23.157554 39.366338 -1.027044 2.199699 0.120120 -0.036683 1304630.000000 0 0 1
15.331422 -27.681124 -22.352454 38.741829 -1.064996 2.185797 0.115860 -0.043636 981800.000000 0 0 1
14.176922 -27.940424 -23.137254 38.948491 -1.101248 2.206877 0.136477 -0.043940 -367437.000000 0 0 1
12.864722 -27.832424 -22.303254 37.915433 -1.137826 2.199673 0.107900 -0.038219 310297.000000 0 0 1
12.568022 -26.481324 -21.911554 36.596884 -1.127675 2.212708 0.073862 -0.030377 -295910.000000 0 0 1
11.247322 -26.293424 -21.487854 35.771138 -1.166589 2.215177 0.073488 -0.028914 -504100.000000 0 0 1
10.936122 -24.761824 -21.306554 34.448744 -1.154906 2.237629 0.055998 -0.021459 193964.000000 0 0 1
11.632422 -24.196624 -20.172954 33.581810 -1.122670 2.215186 0.028342 -0.013209 402272.000000 0 0 1
11.235922 -22.854524 -19.981654 32.370383 -1.113869 2.236080 0.024974 -0.011341 -143013.000000 0 0 1
11.636222 -22.147324 -18.643554 31.200765 -1.087035 2.211220 0.016908 -0.010992 -128526.000000 0 0 1
10.953722 -22.678224 -17.514554 30.676465 -1.120836 2.178452 0.036154 -0.014735 157155.000000 0 0 1
11.159822 -22.050624 -16.293354 29.601436 -1.102281 2.153669 0.026338 -0.012206 -123861.000000 0 0 1
10.133222 -22.576624 -15.261454 29.074011 -1.148910 2.123414 0.020580 -0.005358 365539.000000 0 0 1
10.631722 -23.818024 -14.733154 29.956596 -1.150963 2.084971 0.036445 -0.004668 103129.000000 0 0 1
9.765122 -24.361824 -13.743954 29.626886 -1.189569 2.053190 0.039247 -0.007684 9215.060000 0 0 1
9.930922 -25.874224 -13.427254 30.795939 -1.204320 2.021954 0.052368 -0.007562 360082.000000 0 0 1
11.188422 -26.248424 -12.874454 31.303548 -1.167866 1.994652 0.042541 -0.007909 78883.000000 0 0 1
11.410222 -27.626824 -12.963854 32.580609 -1.179123 1.980024 0.051906 -0.007711 -124498.000000 0 0 1
12.758322 -28.159124 -12.373454 33.298850 -1.145384 1.951515 0.050887 -0.009668 951730.000000 0 0 1
13.981822 -27.863524 -13.045154 33.794132 -1.105712 1.967108 0.063687 -0.011958 478569.000000 0 0 1
14.116122 -28.201624 -14.417154 34.676373 -1.106715 1.999578 0.063533 -0.015875 -855336.000000 0 0 1
15.378822 -27.630424 -15.100154 35.042305 -1.062908 2.016300 0.049440 -0.016999 -317594.000000 0 0 1
16.525322 -28.389124 -14.878854 36.061183 -1.043642 1.996103 0.112977 -0.016912 -1401840.000000 0 0 1
17.636522 -27.626524 -15.142654 36.105010 -1.002625 2.003587 0.138906 -0.025426 -105268.000000 0 0 1
19.003022 -28.364924 -14.964654 37.277670 -0.980526 1.983882 0.125124 -0.023569 642578.000000 0 0 1
19.120922 -29.524624 -15.729354 38.532138 -0.996092 1.991293 0.106694 -0.015047 -28958.400000 0 0 1
20.490722 -29.805924 -15.958554 39.534014 -0.968528 1.986317 0.107885 -0.011268 436343.000000 0 0 1
20.842422 -30.865124 -16.999954 40.939723 -0.976858 1.999007 0.090039 -0.015164 -1164.520000 0 0 1
20.655022 -32.164924 -16.547154 41.653578 -0.999952 1.979322 0.086647 -0.010264 6669.780000 0 0 1
21.171822 -33.099124 -17.466854 42.998710 -1.001732 1.989108 0.078652 -0.007352 78558.500000 0 0 1
20.930322 33.114026 -17.126354 42.754288 1.007130 1.982942 0.059451 -0.003709 -497761.000000 0 0 1
21.722622 32.731026 -16.038454 42.431408 0.984871 1.958416 0.093376 -0.008279 -15275.100000 0 0 1
21.411422 31.421026 -15.583454 41.092261 0.972638 1.959761 0.089938 -0.017850 -350263.000000 0 0 1
22.479522 30.864426 -14.617354 40.885312 0.941308 1.936408 0.099786 -0.024021 -258694.000000 0 0 1
23.643422 30.430426 -15.281854 41.455486 0.910259 1.948334 0.099175 -0.017466 309116.000000 0 0 1
24.676822 29.916226 -14.413854 41.372519 0.881077 1.926651 0.102954 -0.030840 453696.000000 0 0 1
24.462622 28.788626 -13.355554 40.069636 0.866458 1.910607 0.102138 -0.020119 -1265000.000000 0 0 1
24.230122 27.520526 -13.840454 39.192300 0.848895 1.931724 0.116316 -0.013420 3848.000000 0 0 1
23.786722 26.585226 -12.912754 37.938392 0.840898 1.918097 0.053658 -0.016900 767899.000000 0 0 1
22.225222 26.634826 -12.737054 36.954120 0.875404 1.922686 0.066603 -0.025494 -695286.000000 0 0 1
21.543922 26.095326 -13.826754 36.555243 0.880648 1.958694 0.084526 -0.029326 1198710.000000 0 0 1
20.122822 25.974926 -13.534254 35.535908 0.911673 1.961524 0.098024 -0.029547 1521310.000000 0 0 1
19.330822 27.363626 -13.558554 36.142539 0.955760 1.955345 0.099137 -0.033673 -756874.000000 0 0 1
19.399522 28.230026 -14.724954 37.284046 0.968716 1.976799 0.094540 -0.029326 133494.000000 0 0 1
18.723722 27.714726 -15.852354 37.013254 0.976643 2.013394 0.074754 -0.024558 -232334.000000 0 0 1
18.942222 28.458226 -17.209354 38.273232 0.983522 2.037164 0.069384 -0.019541 -173652.000000 0 0 1
18.303522 29.691726 -17.281854 38.926598 1.018368 2.030810 0.064581 -0.016311 155056.000000 0 0 1
18.816722 30.474426 -18.406654 40.268655 1.017638 2.045524 0.049804 -0.005397 254957.000000 0 0 1
17.863722 31.629326 -18.923654 40.958900 1.056674 2.051063 0.042973 -0.004348 344251.000000 0 0 1
17.818522 32.758026 -18.141854 41.469445 1.072615 2.023585 0.074263 -0.021430 -393520.000000 0 0 1
16.818122 33.600826 -18.586754 41.920546 1.106727 2.030163 0.077044 -0.023125 -435981.000000 0 0 1
16.749322 -32.746424 -17.776854 40.851984 -1.098003 2.021004 0.079416 -0.020073 180187.000000 0 0 1
15.727922 -31.921724 -18.297754 40.014645 -1.113004 2.045727 0.072635 -0.018612 -40386.800000 0 0 1
15.237322 -30.975324 -17.353654 38.636718 -1.113635 2.036609 0.076834 -0.024546 -190431.000000 0 0 1
14.062622 -30.089224 -17.778554 37.672214 -1.133597 2.062272 0.068063 -0.022665 68037.700000 0 0 1
12.848322 -30.819824 -17.681754 37.783401 -1.175819 2.057796 0.064598 -0.016478 -289603.000000 0 0 1
11.740522 -30.004924 -17.946354 36.880984 -1.197824 2.078992 0.052829 -0.014952 -80833.700000 0 0 1
10.384822 -30.723824 -18.088654 37.134853 -1.244847 2.079571 0.083455 -0.023917 -1011670.000000 0 0 1
9.719622 -31.125924 -16.910854 36.732427 -1.268123 2.049219 0.085060 -0.021601 -127548.000000 0 0 1
8.608922 -31.928724 -17.180254 37.265508 -1.307430 2.049944 0.106042 -0.016789 -43347.100000 0 0 1
7.318922 -31.273324 -17.744454 36.694047 -1.340903 2.075535 0.108156 -0.013762 -700825.000000 0 0 1
7.353422 -30.767424 -19.065954 36.935319 -1.336197 2.113203 0.100846 -0.013980 -177410.000000 0 0 1
7.242722 -31.691024 -20.129454 38.235755 -1.346113 2.125223 0.120245 -0.027541 -1237850.000000 0 0 1
7.438622 -30.990624 -21.510154 38.450470 -1.335225 2.164488 0.126304 -0.029097 14650.200000 0 0 1
8.792622 -30.537924 -21.690954 38.475609 -1.290454 2.169726 0.131603 -0.039740 1668480.000000 0 0 1
9.819022 -31.575024 -21.845254 39.630928 -1.269302 2.154619 0.141880 -0.045687 335445.000000 0 0 1
9.485422 -32.693924 -22.855054 41.002676 -1.288421 2.162052 0.163309 -0.059053 -523409.000000 0 0 1
8.478722 -33.646524 -22.447354 41.326275 -1.323942 2.145009 0.174098 -0.063423 370751.000000 0 0 1
8.238222 32.949026 -23.358154 41.220262 1.325790 2.173251 0.184552 -0.075486 -239408.000000 0 0 1
7.031322 32.052726 -22.976754 40.059306 1.354850 2.181652 0.171899 -0.076506 715802.000000 0 0 1
5.742022 32.646426 -23.116954 40.412294 1.396692 2.179772 0.158925 -0.072871 517541.000000 0 0 1
5.285722 33.548526 -22.100254 40.519917 1.414526 2.147683 0.128871 -0.057847 -242563.000000 0 0 1
3.907322 -33.575624 -22.520454 40.617245 -1.454944 2.158505 0.110873 -0.050964 397106.000000 0 0 1
2.808822 33.194326 -22.611354 40.261968 1.486380 2.167122 0.102823 -0.056311 608669.000000 0 0 1
1.706722 -33.715224 -23.058554 40.881856 -1.520218 2.170053 0.094101 -0.047591 -355100.000000 0 0 1
0.298222 33.504626 -22.710454 40.477322 1.561896 2.166469 0.084215 -0.054907 -346724.000000 0 0 1
0.092922 33.507326 -21.317754 39.713929 1.568023 2.137416 0.066569 -0.050861 -40675.100000 0 0 1
-1.200378 33.090426 -20.925654 39.170144 -1.534537 2.134387 0.059597 -0.051727 324350.000000 0 0 1
-1.492478 33.296926 -19.383354 38.556805 -1.526003 2.097541 0.069826 -0.045694 279490.000000 0 0 1
-0.700378 32.462626 -18.561554 37.401122 -1.549225 2.090109 0.074204 -0.046171 86174.100000 0 0 1
-1.260878 32.467226 -17.249554 36.786651 -1.531980 2.058850 0.044329 -0.029713 408824.000000 0 0 1
-0.485478 31.497126 -16.306554 35.471233 -1.555384 2.048467 0.038717 -0.015326 -32056.400000 0 0 1
0.813722 31.882926 -15.975554 35.670737 1.545280 2.035169 0.040090 -0.013506 -555098.000000 0 0 1
1.428722 30.798626 -15.279954 34.410371 1.524440 2.030911 0.050891 -0.008024 -139146.000000 0 0 1
2.397622 31.255126 -14.200754 34.413557 1.494235 1.996158 0.068170 -0.008157 395712.000000 0 0 1
3.552722 31.904826 -14.769454 35.336617 1.459899 2.002000 0.081402 -0.012986 448334.000000 0 0 1
4.423622 32.371726 -13.775254 35.457788 1.434987 1.969797 0.091374 -0.019705 155787.000000 0 0 1
5.845222 32.759126 -14.276954 36.209921 1.394224 1.976084 0.098177 -0.029342 487642.000000 0 0 1
6.644422 31.591526 -14.456254 35.371686 1.363495 1.991821 0.092942 -0.019217 -102540.000000 0 0 1
7.829622 31.897626 -15.168854 36.178110 1.330094 2.003451 0.081445 -0.008370 74647.600000 0 0 1
8.897622 30.806526 -15.260754 35.511975 1.289625 2.014996 0.075648 -0.013763 -212227.000000 0 0 1
9.605222 30.634726 -14.073154 35.054249 1.266964 1.983915 0.070671 -0.019382 -411299.000000 0 0 1
10.539622 29.575926 -14.086454 34.412893 1.228469 1.992523 0.078664 -0.020011 244966.000000 0 0 1
9.966322 28.109026 -13.930854 32.916768 1.230065 2.007787 0.083437 -0.016284 289759.000000 0 0 1
9.200122 27.495826 -14.998454 32.643779 1.247906 2.048181 0.087635 -0.019935 551803.000000 0 0 1
8.780422 26.128826 -14.824054 31.297986 1.246609 2.064218 0.078534 -0.013767 -486044.000000 0 0 1
8.020922 25.542626 -15.974454 31.176018 1.266526 2.108768 0.083902 -0.015248 -628986.000000 0 0 1
8.770022 25.101726 -17.060054 31.592015 1.234675 2.141247 0.094077 -0.013851 -331742.000000 0 0 1
8.062822 24.222326 -17.954854 31.210687 1.249465 2.183742 0.091180 -0.009652 -29796.200000 0 0 1
8.988522 23.532326 -18.916554 31.502380 1.205933 2.214898 0.100696 -0.010391 -347150.000000 0 0 1
8.265522 22.593126 -19.668754 31.074557 1.220078 2.256159 0.116007 -0.015280 278282.000000 0 0 1
9.176522 21.765826 -20.366354 31.188910 1.171807 2.282335 0.103349 -0.010695 -58013.100000 0 0 1
8.516922 20.556126 -20.967054 30.573021 1.178002 2.326502 0.094639 -0.023856 -172690.000000 0 0 1
7.986322 19.661326 -20.039154 29.187613 1.184961 2.327548 0.102027 -0.028666 26627.600000 0 0 1
7.075222 18.769026 -20.622654 28.768541 1.210306 2.370066 0.096627 -0.037297 -239579.000000 0 0 1
26.437822 -12.687074 -9.743054 30.900605 -0.447425 1.891572 0.131924 -0.018747 17770.300000 0 0 1
26.623222 -11.789674 -8.665254 30.378924 -0.416879 1.860052 0.137148 -0.030877 821154.000000 0 0 1
25.527822 -11.930374 -7.742954 29.222540 -0.437186 1.838964 0.120321 -0.017699 338223.000000 0 0 1
25.798122 -11.278874 -6.385154 28.870855 -0.412156 1.793803 0.108551 -0.024448 -237919.000000 0 0 1
25.511022 -9.919674 -6.212854 28.067984 -0.370848 1.793995 0.118828 -0.033751 739728.000000 0 0 1
26.484022 -9.067074 -6.824454 28.812991 -0.329853 1.809922 0.078498 -0.030893 -529561.000000 0 0 1
26.759222 -7.697374 -6.225554 28.531790 -0.280091 1.790763 0.113847 -0.031978 -195238.000000 0 0 1
27.230422 -7.664774 -4.886254 28.707493 -0.274379 1.741837 0.135233 -0.037468 240036.000000 0 0 1
28.577922 -8.041174 -4.743054 30.064176 -0.274285 1.729223 0.122843 -0.043640 -493100.000000 0 0 1
29.086422 -7.945774 -3.257754 30.327681 -0.266672 1.678422 0.147767 -0.050918 -165383.000000 0 0 1
29.659122 -6.629274 -3.019454 30.540594 -0.219901 1.669825 0.179384 -0.042657 1261580.000000 0 0 1
30.676922 -6.625074 -1.993954 31.447433 -0.212696 1.634245 0.216582 -0.037284 538066.000000 0 0 1
31.188822 -5.240874 -1.572654 31.665164 -0.166482 1.620482 0.223080 -0.044261 -40556.900000 0 0 1
30.252422 -4.524474 -0.782154 30.598884 -0.148457 1.596361 0.248326 -0.033464 166143.000000 0 0 1
30.656022 -3.219474 -0.414254 30.827396 -0.104636 1.584235 0.227549 -0.027472 -252017.000000 0 0 1
31.449222 -3.174574 0.889346 31.621550 -0.100602 1.542668 0.213328 -0.028431 261598.000000 0 0 1
30.611722 -3.446774 2.029146 30.871916 -0.112124 1.505021 0.257100 -0.045073 795367.000000 0 0 1
31.277722 -3.073474 3.235346 31.594455 -0.097950 1.468214 0.205739 -0.036041 123212.000000 0 0 1
30.926322 -4.022874 4.422046 31.498816 -0.129353 1.429943 0.216814 -0.037600 167606.000000 0 0 1
31.522922 -5.324874 4.447146 32.277330 -0.167341 1.432577 0.182048 -0.036246 152022.000000 0 0 1
31.252522 -5.918674 5.700146 32.314741 -0.187166 1.393474 0.181264 -0.030419 -164886.000000 0 0 1
32.030122 -7.205674 5.789346 33.337171 -0.221282 1.396251 0.135393 -0.034872 1258400.000000 0 0 1
33.474222 -7.060474 5.764346 34.692961 -0.207876 1.403869 0.154234 -0.049050 1144880.000000 0 0 1
34.166322 -8.189374 5.343246 35.538060 -0.235253 1.419871 0.150231 -0.050516 -213979.000000 0 0 1
35.663122 -8.206674 5.679646 37.033311 -0.226179 1.416823 0.189830 -0.055614 -326719.000000 0 0 1
36.435622 -7.430074 4.798746 37.493847 -0.201165 1.442457 0.207867 -0.050532 -343238.000000 0 0 1
-37.718310 -7.573974 5.200846 38.821190 0.198168 1.436423 0.229270 -0.050443 260058.000000 0 0 1
-36.699410 -7.625874 4.012146 37.697453 0.204877 1.464164 0.252841 -0.050615 183657.000000 0 0 1
-36.469410 -8.957574 3.559246 37.721668 0.240851 1.476300 0.299591 -0.059505 346305.000000 0 0 1
-35.597210 -9.039174 2.443646 36.808143 0.248673 1.504359 0.312618 -0.065006 -152403.000000 0 0 1
-35.469310 -10.408674 1.742346 37.006056 0.285442 1.523696 0.329848 -0.048580 -223384.000000 0 0 1
-34.525110 -11.286374 2.273546 36.394154 0.315952 1.508286 0.319638 -0.053286 -179848.000000 0 0 1
-33.984010 -12.088774 1.222946 36.090815 0.341761 1.536905 0.333227 -0.052815 353373.000000 0 0 1
-33.110710 -13.306874 1.718346 35.725967 0.382135 1.522680 0.226088 -0.047196 1066650.000000 0 0 1
-31.841410 -12.968974 2.300246 34.458102 0.386783 1.503992 0.252124 -0.041502 833878.000000 0 0 1
-30.750910 -13.358574 1.488546 33.560180 0.409816 1.526427 0.267961 -0.038169 142403.000000 0 0 1
-29.454810 -13.709474 2.272846 32.568410 0.435620 1.500953 0.251782 -0.038600 258032.000000 0 0 1
-28.751410 -12.528174 2.688546 31.477404 0.410933 1.485280 0.220564 -0.043677 -397497.000000 0 0 1
-27.488810 -12.911874 3.122446 30.530326 0.439126 1.468344 0.188907 -0.023799 -706621.000000 0 0 1
-26.656710 -11.763074 3.717446 29.372938 0.415579 1.443896 0.163749 -0.021320 -278433.000000 0 0 1
-25.419010 -12.200574 4.230046 28.510934 0.447502 1.421881 0.124230 -0.011505 -220957.000000 0 0 1
-24.869410 -11.153274 4.947646 27.701304 0.421584 1.391226 0.117275 -0.010334 -77553.700000 0 0 1
-23.454710 -11.390274 5.533546 26.654866 0.452084 1.361676 0.102310 0.002803 141700.000000 0 0 1
-23.384110 -12.395074 6.551546 27.264944 0.487409 1.328130 0.100127 -0.011129 -326722.000000 0 0 1
-22.102910 -12.547874 7.107046 26.391246 0.516333 1.298135 0.075088 -0.003091 -253403.000000 0 0 1
-21.767010 -11.968174 8.502446 26.255123 0.502713 1.241011 0.099314 -0.009708 -938288.000000 0 0 1
-21.552410 -10.545374 8.532746 25.466037 0.455043 1.229123 0.096712 -0.011142 463161.000000 0 0 1
-22.714310 -9.722074 8.662346 26.181956 0.404422 1.233590 0.132765 -0.026008 -354100.000000 0 0 1
-23.270210 -9.778174 10.119246 27.194016 0.397799 1.189512 0.098106 -0.012752 -372351.000000 0 0 1
-23.905110 -11.026474 10.458446 28.326957 0.432178 1.192643 0.094973 -0.027394 -100003.000000 0 0 1
-25.154510 -11.379374 9.934446 29.341655 0.424831 1.225391 0.089215 -0.023477 -572592.000000 0 0 1
-26.296810 -10.873774 10.854046 30.456058 0.392091 1.206402 0.095266 -0.024194 -1190830.000000 0 0 1
-26.414210 -11.658774 12.009746 31.270937 0.415665 1.176613 0.092888 -0.021682 374461.000000 0 0 1
-27.565510 -11.235374 12.732546 32.376051 0.387031 1.166610 0.080141 -0.020732 356760.000000 0 0 1
-27.868610 -12.120474 14.001146 33.460385 0.410239 1.139070 0.078470 -0.014924 -84634.600000 0 0 1
-28.087610 -13.491574 13.764746 34.064712 0.447795 1.154827 0.077942 -0.019375 352764.000000 0 0 1
-28.467310 -14.166274 14.960146 35.140817 0.461752 1.131039 0.093815 -0.012437 -320358.000000 0 0 1
-28.264910 -15.701374 14.858046 35.583701 0.507062 1.140047 0.097241 -0.008412 -226102.000000 0 0 1
-29.320410 -16.524774 15.258146 36.953560 0.513219 1.145160 0.090562 0.000297 -248886.000000 0 0 1
-28.899010 -17.878774 15.243046 37.244513 0.554030 1.149143 0.078196 -0.001450 -301290.000000 0 0 1
-29.926910 -18.797974 15.857746 38.735666 0.560847 1.149018 0.062044 0.008341 -305625.000000 0 0 1
-29.784310 -18.668474 17.247046 39.154535 0.559885 1.114656 0.067530 0.015040 -19794.600000 0 0 1
-30.185010 -19.773974 18.116846 40.377778 0.579947 1.105505 0.077758 0.013122 -546122.000000 0 0 1
-29.384310 -21.079574 18.124846 40.451157 0.622292 1.106194 0.056417 0.010610 -711632.000000 0 0 1
-28.244810 -20.794074 18.882546 39.833570 0.634616 1.076927 0.059455 0.014394 -570388.000000 0 0 1
-27.474910 -21.937574 19.152046 40.036592 0.673800 1.072006 0.051118 0.009321 774956.000000 0 0 1
-26.066610 -21.632174 19.797546 39.234703 0.692697 1.041886 0.050406 0.009706 452013.000000 0 0 1
-25.116210 -21.188174 18.896046 37.905452 0.700770 1.048923 0.058552 0.002166 -358253.000000 0 0 1
-23.859310 -21.110574 19.540646 37.373250 0.724350 1.020604 0.070565 0.001801 255091.000000 0 0 1
-22.608410 -20.898274 18.668146 36.005246 0.746111 1.025719 0.089905 -0.015354 44504.800000 0 0 1
-22.368610 -21.845274 17.627946 35.893108 0.773562 1.057417 0.086447 -0.023925 505607.000000 0 0 1
-21.053010 -21.704774 17.093846 34.735083 0.800640 1.056272 0.098032 -0.026647 456710.000000 0 0 1
-20.731010 -22.559374 15.878446 34.508335 0.827608 1.092651 0.102846 -0.016233 -381653.000000 0 0 1
-20.707510 -23.976774 15.962646 35.475241 0.858432 1.104069 0.105697 -0.023521 331553.000000 0 0 1
-19.780210 -24.671874 16.803746 35.809551 0.895001 1.082351 0.114345 -0.029849 -831144.000000 0 0 1
-18.333210 -24.759374 16.407146 34.904550 0.933432 1.081440 0.099806 -0.027391 -653884.000000 0 0 1
-17.646310 -23.510674 16.499646 33.710271 0.926933 1.059332 0.100444 -0.032931 1228550.000000 0 0 1
-16.215310 -23.636674 16.256346 32.952957 0.969512 1.054894 0.105173 -0.033547 1548840.000000 0 0 1
-15.507810 -22.252474 16.200546 31.593076 0.962152 1.032367 0.092737 -0.023576 -514727.000000 0 0 1
-15.709010 -21.387674 15.079646 30.522144 0.937296 1.054048 0.090894 -0.010740 582082.000000 0 0 1
-16.977910 -20.701174 15.034446 30.705416 0.883894 1.059125 0.081789 -0.009024 634830.000000 0 0 1
-16.941910 -19.495474 16.002346 30.383826 0.855365 1.016114 0.087493 -0.017489 -378644.000000 0 0 1
-16.224110 -18.392074 15.472546 28.998100 0.847945 1.007979 0.076640 -0.017319 210550.000000 0 0 1
-16.235910 -17.304874 16.301746 28.789066 0.817258 0.968850 0.074716 -0.020635 -207708.000000 0 0 1
-15.521110 -16.096674 15.590446 27.259306 0.803600 0.961938 0.065934 -0.017273 190552.000000 0 0 1
-16.292910 -15.343874 14.679746 26.765431 0.755409 0.990276 0.055241 -0.016128 141890.000000 0 0 1
-16.114910 -15.826274 13.376646 26.250636 0.776362 1.036107 0.080987 -0.021153 40618.100000 0 0 1
-16.997310 -15.106374 12.305446 25.856045 0.726565 1.074785 0.068670 -0.012464 367036.000000 0 0 1
-18.372010 -15.453974 12.416346 27.028165 0.699345 1.093493 0.063594 -0.012949 346338.000000 0 0 1
-19.144010 -14.465574 11.714446 26.701576 0.647087 1.116625 0.093135 -0.017483 -179939.000000 0 0 1
-20.662110 -14.715174 11.909246 28.023013 0.618855 1.131856 0.091340 -0.022884 124963.000000 0 0 1
-21.236810 -15.829374 11.209446 28.761482 0.640534 1.170449 0.103783 -0.030350 217636.000000 0 0 1
-21.227710 -15.723274 9.783446 28.170069 0.637520 1.216107 0.121230 -0.030216 -545569.000000 0 0 1
-21.907610 -16.883274 9.058646 29.104078 0.656592 1.254288 0.118857 -0.019095 467824.000000 0 0 1
-21.104610 -18.071274 9.028646 29.214584 0.708124 1.256607 0.122505 -0.003575 -3342.660000 0 0 1
-21.935810 -19.128274 8.723846 30.383813 0.717135 1.279576 0.126137 -0.021464 -109042.000000 0 0 1
-21.295710 -20.521674 8.885646 30.880432 0.766890 1.278926 0.138107 -0.018409 193515.000000 0 0 1
-20.312710 -20.750874 7.888846 30.090511 0.796068 1.305526 0.168317 -0.019663 -226838.000000 0 0 1
-19.775010 -22.028074 8.153146 30.704411 0.839243 1.302036 0.154878 -0.023536 1069880.000000 0 0 1
-18.405010 -22.368174 7.413246 29.900431 0.882294 1.320252 0.136699 -0.027997 946263.000000 0 0 1
-17.329210 -21.563074 7.793146 28.740229 0.893832 1.296200 0.107247 -0.025950 167054.000000 0 0 1
-16.111610 -22.019374 7.186646 28.214972 0.939109 1.313248 0.124835 -0.022672 -131435.000000 0 0 1
-14.857810 -21.352074 7.733146 27.137928 0.962862 1.281835 0.042016 -0.019384 -1136010.000000 0 0 1
-13.741410 -21.948174 7.134846 26.859909 1.011418 1.301937 0.062602 -0.013613 230852.000000 0 0 1
-12.612710 -21.673474 8.020746 26.327785 1.043760 1.261226 0.057534 -0.007199 1301610.000000 0 0 1
-11.215210 -22.101974 7.492346 25.892343 1.101222 1.277233 0.063302 -0.015996 513050.000000 0 0 1
-11.237910 -23.486074 7.444146 27.079542 1.124502 1.292311 0.064802 -0.015997 327581.000000 0 0 1
-9.934110 -24.021074 7.197246 26.972187 1.178657 1.300684 0.088496 -0.019904 706014.000000 0 0 1
-9.927110 -25.526814 6.980746 28.264758 1.199905 1.321237 0.096562 -0.023686 9303.640000 0 0 1
-10.547710 -25.972904 5.804246 28.627525 1.185039 1.366630 0.108746 -0.032010 -368911.000000 0 0 1
-10.554910 -27.385314 5.687546 29.894978 1.202920 1.379379 0.128000 -0.025134 -14602.000000 0 0 1
-9.321110 -28.094404 5.082546 30.033496 1.250446 1.400749 0.136139 -0.033802 -575735.000000 0 0 1
-8.141110 -27.940194 5.768646 29.668323 1.287270 1.375112 0.142961 -0.033921 -808229.000000 0 0 1
-7.020110 -28.699044 5.379346 30.030891 1.330896 1.390697 0.158184 -0.028060 281944.000000 0 0 1
-6.911110 -30.125074 6.029546 31.490299 1.345285 1.378134 0.177759 -0.040453 -193777.000000 0 0 1
-6.910110 -30.085364 7.411446 31.745996 1.345029 1.335161 0.176489 -0.036351 120420.000000 0 0 1
-6.852110 -31.390694 7.925846 33.092992 1.355883 1.328943 0.215489 -0.040684 -19167.900000 0 0 1
-7.271110 -31.394504 9.425746 33.575714 1.343205 1.286241 0.173610 -0.043937 -155150.000000 0 0 1
-6.331110 -30.856044 10.331046 33.149795 1.368423 1.253870 0.150333 -0.035815 78657.600000 0 0 1
-6.714110 -31.061404 11.678946 33.856873 1.357915 1.218610 0.133738 -0.032157 -40636.700000 0 0 1
-5.850110 -30.245874 12.690646 33.318001 1.379737 1.180033 0.105337 -0.027069 379367.000000 0 0 1
-6.277110 -28.869754 12.753046 32.179263 1.356700 1.163299 0.100203 -0.018153 66129.800000 0 0 1
-5.469110 -28.094524 13.643846 31.707538 1.378533 1.125968 0.086253 -0.024337 -40798.600000 0 0 1
-6.173110 -27.372994 14.821246 31.734168 1.348989 1.084852 0.095572 -0.022274 -22123.500000 0 0 1
-6.806110 -28.240454 15.793646 33.064870 1.334301 1.072811 0.081054 -0.019872 436027.000000 0 0 1
-5.948110 -29.262544 16.371346 34.054331 1.370261 1.069296 0.068164 -0.025113 638953.000000 0 0 1
-6.717110 -30.597004 16.689246 35.494044 1.354690 1.081281 0.072038 -0.028939 263212.000000 0 0 1
-7.281110 -31.205834 15.556546 35.620566 1.341572 1.118837 0.085884 -0.026672 -277261.000000 0 0 1
-7.413110 -32.610194 15.793046 36.983770 1.347270 1.129595 0.090051 -0.032583 369024.000000 0 0 1
-6.200110 -33.590214 15.559046 37.534354 1.388270 1.143372 0.083963 -0.033257 375319.000000 0 0 1
-5.792110 -33.525144 14.228946 36.877455 1.399716 1.174674 0.107092 -0.039638 140279.000000 0 0 1
-4.667110 33.315422 14.016446 36.443930 -1.431614 1.176019 0.123436 -0.048502 329102.000000 0 0 1
-3.776110 33.674637 12.799746 36.222558 -1.459128 1.209632 0.132141 -0.053396 -284836.000000 0 0 1
-4.337110 33.383970 11.510046 35.577818 -1.441604 1.241352 0.146442 -0.049700 -126811.000000 0 0 1
-3.408110 33.689280 10.513046 35.455704 -1.469976 1.269758 0.157253 -0.044169 -1020730.000000 0 0 1
-3.971110 -33.577164 9.183646 35.036196 1.453075 1.305579 0.163479 -0.049788 -599144.000000 0 0 1
-4.450110 33.112335 8.266346 34.417477 -1.437202 1.328246 0.168742 -0.065809 833995.000000 0 0 1
-5.301110 31.997242 8.664546 33.570815 -1.406614 1.309744 0.178861 -0.061770 615299.000000 0 0 1
-6.704110 32.350110 9.242746 34.306021 -1.366453 1.298005 0.187701 -0.056957 -90276.600000 0 0 1
-7.629110 32.824252 8.320646 34.711209 -1.342428 1.328729 0.180812 -0.051209 -775161.000000 0 0 1
-8.882110 33.121197 8.925646 35.434062 -1.308791 1.316159 0.149061 -0.048262 -9717.700000 0 0 1
-9.906110 33.350655 7.825646 35.660033 -1.282068 1.349544 0.152919 -0.056609 -537985.000000 0 0 1
-9.857110 -33.131584 7.121346 35.292748 1.281622 1.367622 0.163960 -0.047191 -188809.000000 0 0 1
-10.577310 -33.236244 5.919246 35.377463 1.262685 1.402689 0.146728 -0.037854 121227.000000 0 0 1
-11.137810 -31.962144 5.238946 34.250197 1.235486 1.417232 0.139426 -0.045145 643430.000000 0 0 1
-12.147410 -31.314764 6.009846 34.121727 1.200753 1.393743 0.138488 -0.046084 14831.200000 0 0 1
-12.919710 -30.402664 5.277346 33.452821 1.168965 1.412380 0.133128 -0.043596 -226055.000000 0 0 1
-13.902210 -29.585844 6.117546 33.256848 1.131522 1.385794 0.113743 -0.042884 328014.000000 0 0 1
-14.959310 -30.445284 6.625546 34.562901 1.114092 1.377907 0.122938 -0.040403 727802.000000 0 0 1
-15.829910 -29.654704 7.441046 34.429009 1.080470 1.352950 0.112235 -0.042597 167762.000000 0 0 1
34.647284 -12.103374 -12.490354 38.767704 -0.336079 1.898832 0.123529 -0.034294 -145417.000000 0 0 1
33.489814 -12.317474 -11.692854 37.550108 -0.352441 1.887455 0.139554 -0.039082 107642.000000 0 0 1
33.242684 -13.634374 -11.266354 37.655052 -0.389223 1.874649 0.147996 -0.039291 -91561.400000 0 0 1
34.212124 -14.132874 -10.187454 38.392601 -0.391744 1.839363 0.133894 -0.029620 640519.000000 0 0 1
35.533554 -14.449374 -10.626354 39.803734 -0.386218 1.841043 0.130942 -0.032176 474497.000000 0 0 1
36.402594 -14.719774 -9.522954 40.404297 -0.384260 1.808726 0.110649 -0.022187 1048430.000000 0 0 1
-37.660068 -15.205274 -9.958354 41.816861 0.383735 1.811249 0.078279 -0.030255 878543.000000 0 0 1
-36.907218 -14.304174 -10.718954 41.007903 0.369746 1.835256 0.093751 -0.044724 357600.000000 0 0 1
-35.554435 -14.734974 -10.871154 39.992740 0.392887 1.846089 0.090582 -0.046762 411083.000000 0 0 1
-34.645517 -13.585174 -11.287654 38.888043 0.373694 1.865295 0.118006 -0.050800 -403059.000000 0 0 1
-34.676596 -12.532474 -10.377854 38.304426 0.346803 1.845156 0.135495 -0.048482 86089.200000 0 0 1
-33.928188 -11.402174 -10.750654 37.372558 0.324210 1.862581 0.150815 -0.039897 -209827.000000 0 0 1
-34.309752 -10.094274 -9.986954 37.132098 0.286136 1.843107 0.171865 -0.037320 -176519.000000 0 0 1
-33.872378 -10.131174 -8.631854 36.393510 0.290629 1.810259 0.177675 -0.037483 278296.000000 0 0 1
-34.255271 -8.901974 -8.040954 36.294981 0.254248 1.794194 0.224911 -0.053248 220789.000000 0 0 1
-33.594728 -8.631574 -6.624954 35.312885 0.251493 1.759522 0.209564 -0.048451 840608.000000 0 0 1
-32.215288 -8.207974 -6.592354 33.891809 0.249477 1.766556 0.209745 -0.051750 1092910.000000 0 0 1
-31.772718 -7.907474 -5.307754 33.169353 0.243921 1.731507 0.225008 -0.039292 -68223.900000 0 0 1
-31.359278 -9.089874 -4.320154 32.934691 0.282130 1.702349 0.213667 -0.036855 -108971.000000 0 0 1
-32.450638 -9.967074 -4.047254 34.187230 0.298000 1.689460 0.204937 -0.031954 504850.000000 0 0 1
-32.210668 -10.794974 -2.927954 34.097383 0.323373 1.656773 0.215058 -0.037023 -43775.300000 0 0 1
-33.099588 -12.057674 -2.837454 35.341496 0.349344 1.651170 0.222005 -0.045382 -109132.000000 0 0 1
-34.453669 -11.794374 -2.575354 36.507465 0.329822 1.641398 0.239134 -0.050278 175888.000000 0 0 1
-35.218731 -12.997274 -2.552954 37.627194 0.353539 1.638697 0.245270 -0.053786 948454.000000 0 0 1
-36.788028 -12.901974 -2.542954 39.067717 0.337308 1.635933 0.244599 -0.045137 870612.000000 0 0 1
-37.346518 -12.332274 -1.379254 39.354158 0.318939 1.605851 0.279718 -0.056423 101397.000000 0 0 1
36.761204 -12.562074 -1.349154 38.871738 -0.329280 1.605511 0.278270 -0.053032 137878.000000 0 0 1
36.096844 -11.852274 -0.135054 37.993115 -0.317256 1.574351 0.276612 -0.068574 20847.500000 0 0 1
36.530014 -12.388574 1.089446 38.588931 -0.326962 1.542560 0.284241 -0.055975 473027.000000 0 0 1
35.694204 -11.921874 2.164446 37.694723 -0.322351 1.513344 0.289908 -0.049723 552564.000000 0 0 1
36.203804 -12.382674 3.574346 38.429442 -0.329554 1.477651 0.244572 -0.056584 48270.600000 0 0 1
35.296684 -12.105274 4.620546 37.599774 -0.330387 1.447597 0.207263 -0.060720 46635.300000 0 0 1
35.909904 -12.177074 5.924146 38.378351 -0.326932 1.415815 0.194209 -0.053608 365674.000000 0 0 1
34.859014 -12.173374 7.078846 37.595903 -0.335977 1.381378 0.162061 -0.053148 -27122.000000 0 0 1
34.155194 -10.984174 7.208346 36.594940 -0.311150 1.372523 0.158637 -0.043270 -147871.000000 0 0 1
33.817444 -10.756874 8.559846 36.504805 -0.307966 1.334107 0.130400 -0.032380 -824451.000000 0 0 1
33.144074 -9.386774 8.759446 35.543903 -0.275984 1.321791 0.131418 -0.056000 -455265.000000 0 0 1
31.822254 -9.339874 8.296946 34.186670 -0.285484 1.325653 0.142949 -0.050201 -336864.000000 0 0 1
30.948284 -8.581774 9.128746 33.388278 -0.270498 1.293858 0.160627 -0.037609 759760.000000 0 0 1
29.478154 -8.812174 8.617346 31.951129 -0.290483 1.297711 0.144030 -0.024419 351300.000000 0 0 1
29.106054 -8.212174 7.400446 31.134688 -0.274998 1.330808 0.159971 -0.025598 47751.300000 0 0 1
28.231554 -9.040374 6.684246 30.387961 -0.309905 1.349019 0.171960 -0.035657 125250.000000 0 0 1
27.217254 -8.536774 5.625446 29.074062 -0.303935 1.376081 0.184783 -0.035565 -275347.000000 0 0 1
26.207954 -7.735174 6.133146 28.005450 -0.286998 1.350009 0.197910 -0.036115 29862.100000 0 0 1
25.208154 -7.377174 5.198546 26.774962 -0.284700 1.375398 0.212024 -0.045547 30943.100000 0 0 1
25.515254 -6.019874 4.513246 26.601437 -0.231695 1.400310 0.209495 -0.041415 -538288.000000 0 0 1
26.559354 -6.089674 3.588046 27.483768 -0.225390 1.439871 0.201812 -0.040245 73680.700000 0 0 1
26.652054 -4.779174 2.984946 27.241189 -0.177432 1.461001 0.208058 -0.041187 272509.000000 0 0 1
27.362554 -4.870074 1.591646 27.838109 -0.176139 1.513590 0.222142 -0.049869 216918.000000 0 0 1
26.521854 -5.406374 0.599346 27.073914 -0.201091 1.548657 0.204877 -0.040553 269930.000000 0 0 1
27.015854 -5.068974 -0.719454 27.496699 -0.185473 1.596964 0.211364 -0.047675 -361863.000000 0 0 1
26.111854 -5.537874 -1.854354 26.756973 -0.208986 1.640156 0.181697 -0.030137 729210.000000 0 0 1
24.979454 -4.628474 -2.012554 25.484236 -0.183213 1.649851 0.211266 -0.027106 831664.000000 0 0 1
24.235754 -4.895274 -3.174354 24.928137 -0.199304 1.698483 0.199361 -0.028216 328770.000000 0 1 0
23.170254 -3.735374 -3.375954 23.710984 -0.159839 1.713661 0.179513 -0.023737 150977.000000 0 1 0
23.685354 -2.408074 -3.419454 24.051767 -0.101321 1.713450 0.195013 -0.028060 217438.000000 0 1 0
24.221254 -1.939974 -4.660454 24.741715 -0.079923 1.760293 0.209031 -0.024819 -375040.000000 0 1 0
23.292354 -1.178674 -5.611654 23.987782 -0.050560 1.806922 0.217891 -0.016380 -192111.000000 0 1 0
22.707254 -0.022674 -5.003154 23.251913 -0.000999 1.787664 0.201898 -0.006983 358178.000000 0 1 0
21.933754 0.685226 -5.952154 22.737353 0.031231 1.835661 0.201258 -0.000288 -250620.000000 0 1 0
21.486654 2.125626 -5.603854 22.306900 0.098607 1.824733 0.177995 0.006525 255748.000000 0 1 0
22.583054 3.065526 -5.591354 23.466040 0.134920 1.811385 0.215036 -0.006737 716842.000000 0 1 0
23.202654 3.022526 -4.338254 23.797463 0.129537 1.754120 0.227898 -0.007325 -900439.000000 0 1 0
24.368854 3.977926 -4.247554 25.054075 0.161811 1.741155 0.257443 -0.026440 -609025.000000 0 0 1
23.977154 5.335226 -4.248454 24.928255 0.218946 1.742060 0.214143 -0.007475 48425.800000 0 1 0
24.911654 6.124926 -3.583554 25.902646 0.241084 1.709589 0.208024 -0.017987 -409910.000000 0 0 1
24.537354 7.601826 -3.370554 25.908110 0.300429 1.701263 0.185844 -0.026037 140905.000000 0 0 1
23.458454 7.830626 -2.469754 24.853922 0.322178 1.670331 0.197994 -0.033070 369950.000000 0 1 0
22.669154 8.945126 -2.761854 24.526183 0.375838 1.683644 0.174849 -0.027678 -804762.000000 0 1 0
21.652754 9.137726 -1.667954 23.561024 0.399337 1.641649 0.131957 -0.027752 -792397.000000 0 1 0
22.208754 9.548326 -0.432954 24.178229 0.406043 1.588704 0.104846 -0.028392 288330.000000 0 1 0
21.193654 9.882326 0.484546 23.389445 0.436315 1.550078 0.064225 -0.024802 -293163.000000 0 1 0
21.663954 10.382326 1.861746 24.095346 0.446906 1.493453 0.079967 -0.021635 -115108.000000 0 1 0
22.485154 11.568226 1.870046 25.355534 0.475167 1.496976 0.092465 -0.029480 599953.000000 0 0 1
21.968254 12.734226 1.249046 25.422919 0.525333 1.521646 0.107499 -0.024366 -263590.000000 0 0 1
21.056754 13.480726 2.298546 25.107771 0.569462 1.479121 0.102490 -0.014072 257341.000000 0 0 1
19.709154 12.997126 2.303046 23.720878 0.582987 1.473554 0.116405 -0.011734 723520.000000 0 1 0
18.994954 13.755626 3.315046 23.685756 0.626766 1.430376 0.123951 -0.014613 124708.000000 0 1 0
19.226154 13.489426 4.810146 23.973884 0.611811 1.368784 0.127665 -0.011660 -883395.000000 0 1 0
18.660754 12.326826 5.242646 22.970845 0.583773 1.340537 0.099465 -0.002008 61145.400000 0 1 0
18.600054 12.217326 6.652146 23.226625 0.581171 1.280327 0.095919 -0.011302 50871.900000 0 1 0
18.339854 10.778426 7.156346 22.444108 0.531330 1.246278 0.038532 -0.013610 -541116.000000 0 1 0
19.413554 9.970326 6.872446 22.880647 0.474449 1.265726 0.028269 -0.019906 -193257.000000 0 1 0
19.225854 8.792526 7.581446 22.459303 0.428931 1.226469 0.015067 -0.008580 -268307.000000 0 1 0
20.047254 7.681926 6.963446 22.569758 0.365932 1.257149 0.018513 -0.013389 -552654.000000 0 1 0
19.709654 7.449126 5.632046 21.810087 0.361348 1.309605 0.004279 -0.023768 453191.000000 0 1 0
20.704554 6.716626 4.955046 22.323622 0.313692 1.346968 0.032621 -0.028612 -197275.000000 0 1 0
20.430954 6.700326 3.423346 21.772403 0.316898 1.412908 0.050295 -0.016225 -1021480.000000 0 1 0
21.364254 6.072526 2.674046 22.370906 0.276934 1.450978 0.062160 -0.024043 -359830.000000 0 1 0
20.930154 6.083826 1.339946 21.837576 0.282878 1.509398 0.058719 -0.005767 -491701.000000 0 1 0
21.914754 5.451826 0.331546 22.585145 0.243825 1.556116 0.147643 -0.015771 -71131.600000 0 1 0
21.899754 4.054426 0.390746 22.275329 0.183063 1.553254 0.129082 -0.018409 463596.000000 0 1 0
23.005654 3.515326 -0.295154 23.274552 0.151630 1.583478 0.175798 -0.027490 -79372.000000 0 1 0
23.003054 1.975126 -0.321054 23.089926 0.085654 1.584701 0.207596 -0.024205 -300685.000000 0 1 0
22.039954 1.289126 -1.093854 22.104704 0.058424 1.620302 0.139024 -0.019320 491623.000000 0 1 0
22.269154 -0.147974 -1.434054 22.315771 -0.006645 1.635103 0.177658 -0.026502 -1290840.000000 0 1 0
22.310954 -1.164074 -0.268054 22.342909 -0.052128 1.582794 0.195684 -0.024745 -188599.000000 0 1 0
23.325854 -1.056574 0.688446 23.359918 -0.045265 1.541321 0.214172 -0.029447 809863.000000 0 1 0
24.648654 -1.326474 0.183546 24.685003 -0.053763 1.563361 0.237311 -0.040715 167325.000000 0 1 0
25.739654 -0.984974 1.232346 25.787955 -0.038248 1.522990 0.252528 -0.038009 -190898.000000 0 0 1
25.900154 0.417926 1.463846 25.944855 0.016135 1.514345 0.253456 -0.034341 169050.000000 0 0 1
26.676054 0.586726 2.625946 26.811410 0.021991 1.472698 0.253537 -0.039589 -165810.000000 0 0 1
26.626854 2.050926 3.103846 26.885489 0.076873 1.455091 0.233651 -0.037139 108522.000000 0 0 1
27.214854 3.042926 2.279146 27.479123 0.111349 1.487760 0.265680 -0.035458 637975.000000 0 0 1
28.639954 3.163026 2.201746 28.898086 0.109995 1.494532 0.259335 -0.036882 716852.000000 0 0 1
29.096354 4.107926 1.097546 29.405399 0.140257 1.533463 0.293516 -0.046120 -220196.000000 0 0 1
29.015754 3.398326 -0.104254 29.214268 0.116589 1.574365 0.357334 -0.034608 258161.000000 0 0 1
29.494354 4.060426 -1.301554 29.800974 0.136808 1.614485 0.343519 -0.033398 -238037.000000 0 0 1
30.918554 3.697226 -1.767954 31.188974 0.119014 1.627512 0.299098 -0.031131 -658885.000000 0 0 1
31.817994 4.188026 -0.834254 32.103275 0.130872 1.596786 0.242563 -0.030742 -686209.000000 0 0 1
33.139774 3.841526 -1.198454 33.383203 0.115404 1.606704 0.208125 -0.028318 -189284.000000 0 0 1
34.199204 4.268226 -0.193454 34.465065 0.124163 1.576409 0.139764 -0.021655 -289955.000000 0 0 1
34.179584 3.556126 1.011246 34.378956 0.103669 1.541377 0.168751 -0.028583 -240939.000000 0 0 1
33.283854 4.052926 1.966846 33.587343 0.121172 1.512204 0.168632 -0.018070 -222246.000000 0 0 1
33.272164 3.366826 3.303946 33.604888 0.100847 1.472320 0.180026 -0.023887 -30340.500000 0 0 1
32.287994 2.320326 3.417746 32.551182 0.071740 1.465606 0.205298 -0.029220 713703.000000 0 0 1
32.636614 1.425426 4.492246 32.975153 0.043648 1.434140 0.188491 -0.030841 -129825.000000 0 0 1
33.742394 0.428326 4.172046 34.002038 0.012693 1.447786 0.184767 -0.025301 -486530.000000 0 0 1
35.053184 0.903726 4.133546 35.307629 0.025776 1.453455 0.174489 -0.034879 -311430.000000 0 0 1
35.992314 -0.123574 3.922646 36.205650 -0.003433 1.462240 0.152641 -0.039955 -86135.400000 0 0 1
37.464124 0.276926 4.114246 37.690374 0.007392 1.461419 0.185936 -0.047961 142703.000000 0 0 1
-37.395248 0.929426 3.001946 37.527058 -0.024849 1.490717 0.163250 -0.037490 406179.000000 0 0 1
-36.151408 0.293026 2.717346 36.254574 -0.008105 1.495774 0.169909 -0.035840 195622.000000 0 0 1
-35.435377 0.977726 1.539746 35.482287 -0.027585 1.527388 0.181388 -0.038996 -270841.000000 0 0 1
-34.765623 2.133126 1.993046 34.887978 -0.061281 1.513638 0.168843 -0.064055 25848.900000 0 0 1
-34.112590 2.800826 0.937946 34.240227 -0.081922 1.543400 0.188762 -0.041890 -194083.000000 0 0 1
-33.387328 4.059926 1.469346 33.665348 -0.121007 1.527137 0.225411 -0.042453 1432540.000000 0 0 1
-32.069008 3.757726 2.045846 32.353164 -0.116644 1.507519 0.231056 -0.052626 1422220.000000 0 0 1
-31.524178 4.747026 2.899346 32.011158 -0.149461 1.480099 0.252249 -0.045673 -360946.000000 0 0 1
-31.792538 4.776326 4.386846 32.447237 -0.149119 1.435182 0.263860 -0.037106 296976.000000 0 0 1
-33.074968 5.128526 4.900746 33.827098 -0.153833 1.425408 0.260130 -0.024085 932315.000000 0 0 1
-34.165637 4.207926 4.934746 34.775697 -0.122545 1.428414 0.246092 -0.026701 335508.000000 0 0 1
-34.134110 3.268626 6.133446 34.834473 -0.095467 1.393800 0.207457 -0.025270 -831601.000000 0 0 1
-34.717626 3.971826 7.212046 35.680563 -0.113909 1.367266 0.219383 -0.038491 376925.000000 0 0 1
-34.914986 3.255226 8.437346 36.067181 -0.092964 1.334674 0.181584 -0.032484 319622.000000 0 0 1
-36.025068 2.146526 8.363746 37.045450 -0.059514 1.343063 0.164185 -0.034761 -33483.700000 0 0 1
-35.673042 1.115826 7.477246 36.465329 -0.031269 1.364281 0.159202 -0.035742 1085480.000000 0 0 1
-36.680588 0.037426 7.507246 37.440962 -0.001020 1.368919 0.153838 -0.030148 1026970.000000 0 0 1
-36.615658 -0.834074 8.798846 37.667251 0.022775 1.335024 0.152781 -0.022516 -639446.000000 0 0 1
-35.374998 -1.490774 8.869946 36.500532 0.042117 1.325330 0.139241 -0.042110 80734.800000 0 0 1
-35.232778 -2.174674 10.130746 36.724785 0.061645 1.291316 0.123920 -0.027324 -179358.000000 0 0 1
-33.938798 -2.992674 10.289246 35.590261 0.087951 1.277507 0.121703 -0.018655 -306598.000000 0 0 1
-33.890428 -4.139274 9.487646 35.436000 0.121535 1.299749 0.146957 -0.030032 1284880.000000 0 0 1
-32.641098 -4.864374 9.703646 34.398607 0.147937 1.284820 0.171631 -0.026990 1245300.000000 0 0 1
-32.672898 -6.136674 8.847446 34.401371 0.185659 1.310690 0.180524 -0.034707 151260.000000 0 0 1
-33.673738 -7.076974 9.171646 35.610718 0.207148 1.310307 0.188050 -0.042079 171664.000000 0 0 1
-34.306455 -7.546274 7.950746 36.015184 0.216518 1.348202 0.200453 -0.051305 630272.000000 0 0 1
-35.353080 -8.683074 8.183746 37.312327 0.240843 1.349668 0.206434 -0.060104 82388.300000 0 0 1
-36.575738 -8.362574 8.783246 38.533916 0.224774 1.340840 0.207476 -0.055018 376576.000000 0 0 1
-37.491728 -9.470574 8.633946 39.621540 0.247428 1.351123 0.205512 -0.059888 361765.000000 0 0 1
8.242722 -23.859674 10.463346 27.325960 -1.238166 1.177853 0.162864 -0.039724 -123114.000000 0 0 1
7.590322 -24.419374 9.377646 27.237090 -1.269432 1.219307 0.150425 -0.047356 -612882.000000 0 0 1
6.198922 -24.494974 9.580846 27.022639 -1.322931 1.208365 0.155309 -0.055045 129857.000000 0 0 1
5.558522 -25.635984 8.789746 27.665149 -1.357276 1.247473 0.124283 -0.033490 -426675.000000 0 0 1
5.210922 -25.261074 7.478146 26.855134 -1.367367 1.288603 0.121694 -0.029287 -224678.000000 0 0 1
4.952622 -26.366234 6.635946 27.635892 -1.385120 1.328306 0.097716 -0.026650 -91172.100000 0 0 1
4.316322 -25.997654 5.275546 26.876384 -1.406270 1.373224 0.080641 -0.018984 1433060.000000 0 0 1
2.889522 -25.736694 5.293846 26.433909 -1.458992 1.369166 0.060978 -0.023427 1041650.000000 0 0 1
2.131022 -26.744534 4.610246 27.222522 -1.491284 1.400622 0.054276 -0.019516 1192440.000000 0 0 1
0.575522 -26.529304 4.763446 26.959703 -1.549106 1.393176 0.086970 -0.029560 708816.000000 0 0 1
0.133022 -26.464564 6.066046 27.151202 -1.565770 1.345477 0.078073 -0.018808 -336016.000000 0 0 1
-1.262578 -26.610974 6.237646 27.361401 1.523386 1.340802 0.080916 -0.016702 575024.000000 0 0 1
-1.838478 -28.078304 6.318146 28.839038 1.505413 1.349922 0.108129 -0.021191 -64675.900000 0 0 1
-1.344978 -28.826804 7.443446 29.802659 1.524173 1.318366 0.086965 -0.019522 28074.400000 0 0 1
-1.774778 -30.159574 7.446546 31.115925 1.512018 1.329135 0.138802 -0.025408 -127021.000000 0 0 1
-1.501078 -30.903224 8.765646 32.157410 1.522261 1.294717 0.126986 -0.033305 49781.200000 0 0 1
-0.159378 -31.062394 9.167946 32.387481 1.565665 1.283802 0.114622 -0.022466 -120805.000000 0 0 1
-0.139878 -31.336454 10.525346 33.057160 1.566333 1.246757 0.123661 -0.018472 479817.000000 0 0 1
1.299622 -31.326424 11.125146 33.268645 -1.529334 1.229824 0.102832 -0.015702 408913.000000 0 0 1
1.996922 -32.538884 10.805946 34.344361 -1.509503 1.250724 0.113243 -0.015388 370327.000000 0 0 1
3.336122 -32.463634 11.302246 34.536329 -1.468391 1.237397 0.101869 -0.013733 549696.000000 0 0 1
3.615322 -33.163294 12.655946 35.679792 -1.462209 1.208193 0.120526 -0.012470 -364894.000000 0 0 1
2.991622 -32.568714 13.757246 35.481442 -1.479198 1.172628 0.132441 -0.020870 -95641.600000 0 0 1
3.741022 -32.670544 14.944646 36.120661 -1.456785 1.144235 0.137977 -0.025044 -280686.000000 0 0 1
3.386722 -31.488354 15.898746 35.436654 -1.463653 1.105539 0.155767 -0.035950 163060.000000 0 0 1
4.013122 -30.234664 15.698146 34.302651 -1.438835 1.095461 0.167690 -0.037362 -948863.000000 0 0 1
5.349222 -30.142724 16.034546 34.558713 -1.395162 1.088314 0.147364 -0.029833 -697650.000000 0 0 1
6.012322 -28.882514 15.359546 33.260536 -1.365562 1.090779 0.156720 -0.024947 94718.600000 0 0 1
6.261122 -29.005234 13.945346 32.786856 -1.358197 1.131466 0.134978 -0.022956 969764.000000 0 0 1
5.066622 -28.896464 13.098946 32.128783 -1.397224 1.150861 0.125562 -0.014067 712732.000000 0 0 1
5.346522 -28.945024 11.598446 31.637378 -1.388142 1.195438 0.101445 -0.019477 198048.000000 0 0 1
5.761222 -30.233174 11.063846 32.705430 -1.382494 1.225700 0.090937 -0.020297 231915.000000 0 0 1
7.066322 -30.667154 11.399446 33.471699 -1.344329 1.223274 0.089289 -0.020198 -93474.100000 0 0 1
7.670822 -31.929484 10.752346 34.553529 -1.335022 1.254363 0.063044 -0.014540 -271935.000000 0 0 1
7.304122 -33.014204 11.476846 35.707224 -1.353062 1.243573 0.057255 -0.018698 82167.100000 0 0 1
7.719822 33.394196 10.999146 35.996517 1.343615 1.260268 0.069709 -0.016137 -84841.200000 0 0 1
7.409622 32.329607 12.076546 35.298002 1.345497 1.221612 0.075204 -0.017948 -839791.000000 0 0 1
6.114322 32.175599 12.541746 35.070636 1.383006 1.205085 0.079793 -0.015140 -777281.000000 0 0 1
5.907422 30.839596 13.040546 34.000503 1.381536 1.177170 0.093281 -0.012276 33961.700000 0 0 1
4.787922 30.717326 14.073546 34.125402 1.416170 1.145702 0.103306 -0.025808 61632.700000 0 0 1
5.171322 31.252266 15.329846 35.191631 1.406812 1.120080 0.094112 -0.027361 -37432.200000 0 0 1
4.124622 31.132526 16.256346 35.362628 1.439077 1.093134 0.130094 -0.034413 43113.600000 0 0 1
4.604422 31.439746 17.697046 36.370920 1.425378 1.062635 0.162488 -0.036615 11212.400000 0 0 1
4.605822 32.800435 17.917146 37.657752 1.431289 1.074935 0.174972 -0.040245 10546.500000 0 0 1
5.195122 33.149196 19.168446 38.643083 1.415341 1.051766 0.157835 -0.035765 -287983.000000 0 0 1
5.038822 -32.981454 19.419646 38.604257 -1.419191 1.043679 0.150171 -0.044169 90220.600000 0 0 1
3.692122 -32.579144 19.467746 38.131687 -1.457950 1.034984 0.151441 -0.046155 -325610.000000 0 0 1
3.541022 -31.330994 20.174746 37.432478 -1.458254 1.001590 0.131429 -0.040594 -85297.600000 0 0 1
2.222222 -30.575844 19.854846 36.524449 -1.498245 0.996071 0.151390 -0.038519 209345.000000 0 0 1
1.001422 -31.148724 20.228046 37.154000 -1.538658 0.995077 0.174180 -0.043636 -226898.000000 0 0 1
0.711122 -31.138494 21.644946 37.929081 -1.547963 0.963476 0.164179 -0.044886 -175408.000000 0 0 1
-0.266678 -32.286334 22.095546 39.124054 1.562537 0.970659 0.196626 -0.043781 -644412.000000 0 0 1
-1.610278 -32.163714 21.797046 38.887128 1.520773 0.975782 0.185426 -0.039862 -1336900.000000 0 0 1
-2.183678 -33.359704 21.943546 39.989467 1.505431 0.989948 0.173150 -0.031441 -898876.000000 0 0 1
-3.468278 -33.397514 22.753546 40.560409 1.467319 0.975228 0.180632 -0.031199 -382408.000000 0 0 1
-4.513378 -32.800754 22.009946 39.757990 1.434055 0.984118 0.159764 -0.035733 -1065440.000000 0 0 1
-5.699478 -32.738104 22.717946 40.253852 1.398431 0.971130 0.140079 -0.038480 -64780.900000 0 0 1
-6.860078 -32.032014 21.919846 39.415609 1.359820 0.981085 0.091375 -0.021916 139764.000000 0 0 1
-7.542678 -32.888964 21.086446 39.789624 1.345357 1.012257 0.084771 -0.018563 -551238.000000 0 0 1
-8.483278 -32.165544 20.326446 38.984005 1.312930 1.022300 0.083586 -0.022761 573175.000000 0 0 1
-9.633278 -33.101524 19.763746 39.738100 1.287596 1.050255 0.083321 -0.020691 860907.000000 0 0 1
-10.416378 -33.589694 20.855746 40.886802 1.270094 1.035513 0.088409 -0.019498 -542932.000000 0 0 1
-11.698578 33.684453 20.478846 41.120339 -1.236530 1.049480 0.075766 -0.019940 94574.300000 0 0 1
-12.633178 33.400990 21.672846 41.772426 -1.209199 1.025313 0.072817 -0.011880 -119777.000000 0 0 1
-12.991678 -33.106444 22.498646 42.083362 1.196840 1.006737 0.084021 -0.012618 63049.700000 0 0 1
-11.906178 -32.489694 23.161646 41.638914 1.219534 0.980930 0.074546 -0.006666 -220319.000000 0 0 1
-12.196878 -31.151644 23.854646 41.088111 1.197611 0.951364 0.072100 -0.008872 79411.200000 0 0 1
-12.981578 -31.354154 25.029446 42.167256 1.178253 0.935302 0.075129 -0.004581 146352.000000 0 0 1
-13.227578 -30.113154 25.623946 41.693614 1.156908 0.908946 0.103475 -0.010653 64928.400000 0 0 1
-14.025878 -30.109244 26.950146 42.773849 1.134854 0.889164 0.085785 -0.007870 -50492.300000 0 0 1
-13.213678 -30.139834 28.093046 43.269274 1.157620 0.864184 0.063117 -0.004434 -13432.600000 0 0 1
-13.982678 -29.994614 29.275546 44.184270 1.134575 0.846540 0.071404 -0.006422 -150052.000000 0 0 1
-13.295278 -29.612354 30.603346 44.611890 1.148793 0.814832 0.057191 -0.009820 -573149.000000 0 0 1
-14.256278 -29.513924 31.619146 45.542107 1.120812 0.803372 0.072671 -0.007919 105501.000000 0 0 1
-13.867878 -28.767874 32.751346 45.744500 1.121602 0.772795 0.065540 -0.010676 -423738.000000 0 0 1
-13.054278 -29.620374 33.748646 46.762718 1.155687 0.764541 0.065957 -0.011923 291371.000000 0 0 1
-11.727978 -29.881244 33.293846 46.248399 1.196784 0.767150 0.048801 -0.015313 75951.300000 0 0 1
-11.142478 -30.812664 -33.434960 46.813157 1.223807 2.366307 0.041442 -0.013062 -916702.000000 0 0 1
-9.692278 -31.149794 -33.723260 46.920232 1.269141 2.372779 0.054165 -0.020460 -655540.000000 0 0 1
-8.843078 -30.142714 -33.185960 45.695636 1.285430 2.383632 0.094610 -0.029956 326670.000000 0 0 1
-7.540178 -30.638674 -32.898160 45.583677 1.329492 2.377065 0.108928 -0.038356 178652.000000 0 0 1
-6.821278 -29.733324 -31.927360 44.158314 1.345283 2.378961 0.139688 -0.039492 -223660.000000 0 0 1
-7.273578 -29.940574 -30.604060 43.427542 1.332479 2.352818 0.144134 -0.042202 325597.000000 0 0 1
-6.529278 -29.098064 -29.716060 42.099561 1.350064 2.354422 0.155829 -0.041635 295419.000000 0 0 1
-7.058578 -29.250234 -28.301860 41.308534 1.334006 2.325583 0.159079 -0.040219 -18598.700000 0 0 1
-6.796678 -30.518694 -27.724560 41.787998 1.351667 2.296227 0.132696 -0.042853 67098.800000 0 0 1
-7.452178 -30.608984 -26.453260 41.136600 1.331979 2.269282 0.135526 -0.044601 -3236.940000 0 0 1
-7.115178 -31.844134 -25.676060 41.520293 1.350969 2.237499 0.109256 -0.050666 342513.000000 0 0 1
-5.891378 -31.766074 -24.963660 40.828619 1.387419 2.228657 0.070010 -0.048328 93910.700000 0 0 1
-5.545478 -33.010484 -24.384560 41.413176 1.404359 2.200384 0.074232 -0.053629 334868.000000 0 0 1
-4.441878 -32.865274 -23.275260 40.516592 1.436456 2.182744 0.093815 -0.063452 189330.000000 0 0 1
-4.859378 -32.243524 -22.091560 39.386488 1.421213 2.166259 0.100700 -0.061220 -19886.800000 0 0 1
-4.903678 -30.833514 -22.136060 38.272141 1.413080 2.187545 0.077494 -0.039105 -757369.000000 0 0 1
-5.388978 -30.171674 -20.879660 37.085458 1.394050 2.168825 0.127482 -0.051343 52293.400000 0 0 1
-6.795578 -30.344884 -20.677960 37.343941 1.350487 2.157617 0.133824 -0.056260 570392.000000 0 0 1
-7.428878 -29.160614 -20.299060 36.298505 1.321345 2.164248 0.141766 -0.051836 218657.000000 0 0 1
-7.938478 -28.292344 -21.538760 36.433424 1.297243 2.203319 0.189214 -0.062105 69788.300000 0 0 1
-6.794678 -27.748614 -22.191560 36.174833 1.330656 2.231222 0.205175 -0.042141 297663.000000 0 0 1
-7.024678 -27.436034 -23.576760 36.850315 1.320143 2.265032 0.258239 -0.055265 -646589.000000 0 0 1
-5.699778 -27.482094 -24.378260 37.175967 1.366296 2.285976 0.240124 -0.050207 630072.000000 0 0 1
-4.802978 -26.348174 -24.240560 36.123394 1.390487 2.306419 0.242493 -0.053981 780174.000000 0 0 1
-4.204778 -26.294454 -22.909460 35.127224 1.412228 2.281260 0.162090 -0.042349 -1430590.000000 0 0 1
-2.769478 -26.866784 -22.755160 35.317013 1.468077 2.270919 0.123754 -0.038369 712004.000000 0 0 1
-1.687478 -25.967034 -23.060160 34.769317 1.505902 2.295927 0.117300 -0.042108 743837.000000 0 0 1
-1.569378 -24.882274 -22.140060 33.343257 1.507808 2.296958 0.135525 -0.050149 -1073110.000000 0 0 1
-0.938978 -23.630974 -22.765160 32.826165 1.531082 2.337141 0.156635 -0.047969 183087.000000 0 0 1
-1.799378 -22.974274 -23.722860 33.073088 1.492634 2.370696 0.260333 -0.054917 783479.000000 0 0 1
-2.809478 -22.157474 -23.100760 32.132413 1.444673 2.373049 0.277077 -0.063181 374436.000000 0 0 1
-3.927578 -21.679674 -24.064060 32.626877 1.391576 2.400236 0.271994 -0.068071 -290998.000000 0 0 1
-3.598978 -20.680374 -24.924660 32.586335 1.398493 2.441653 0.261515 -0.052130 -157963.000000 0 0 1
-4.558478 -20.359274 -25.916660 33.270904 1.350527 2.463800 0.334505 -0.054492 -147628.000000 0 0 1
-4.418378 -21.165774 -27.226560 34.767767 1.365001 2.470428 0.280681 -0.041351 -31274.300000 0 0 1
-5.391178 -20.929574 -28.216360 35.542578 1.318690 2.487951 0.293332 -0.034363 -210596.000000 0 0 1
-5.202778 -21.819674 -29.304960 36.904576 1.336723 2.488279 0.298892 -0.024260 645466.000000 0 0 1
-6.208978 -21.888374 -30.543060 38.085835 1.294392 2.501354 0.294471 -0.031724 335615.000000 0 0 1
-5.937978 -20.934374 -31.495360 38.281396 1.294409 2.536998 0.288172 -0.040365 -50090.600000 0 0 1
-6.882278 -21.006874 -32.547960 39.344939 1.254196 2.544985 0.258547 -0.035594 89843.100000 0 0 1
-6.572178 -20.035874 -33.699660 39.752948 1.253835 2.582482 0.223125 -0.033618 87939.000000 0 0 1
-5.307478 -20.289874 33.324846 39.375039 1.314946 0.561712 0.220292 -0.031253 -312561.000000 0 0 1
-4.993778 -19.594374 32.126646 37.960488 1.321251 0.561762 0.213548 -0.030432 -16376.200000 0 0 1
-3.650078 -19.930674 31.463046 37.422962 1.389665 0.572145 0.151333 -0.034760 -1214790.000000 0 0 1
-3.452978 -21.311974 31.069646 37.834458 1.410172 0.607286 0.194605 -0.039872 -744183.000000 0 0 1
-2.299978 -21.671174 30.409646 37.412247 1.465061 0.621809 0.160609 -0.028823 -284763.000000 0 0 1
-0.921478 -21.265474 30.987746 37.594014 1.527491 0.601879 0.110165 -0.033552 -662011.000000 0 0 1
-0.443978 -20.009174 30.560546 36.530961 1.548611 0.579812 0.092427 -0.037222 -535013.000000 0 0 1
0.619822 -19.446974 31.245746 36.808499 -1.538935 0.556947 0.097796 -0.034793 -622499.000000 0 0 1
0.286422 -18.842374 32.658346 37.705234 -1.555597 0.523352 0.094897 -0.032936 -641590.000000 0 0 1
-0.687778 -17.817874 32.621146 37.176455 1.532215 0.500239 0.093057 -0.031452 -308232.000000 0 0 1
-1.200478 -17.854374 -33.665060 38.125531 1.503660 2.653024 0.107961 -0.034901 202548.000000 0 0 1
-2.528478 -17.035974 -33.567960 37.728313 1.423452 2.667547 0.118759 -0.040994 424709.000000 0 0 1
-2.343578 -15.686974 -33.700560 37.246493 1.422497 2.701702 0.134988 -0.034265 517143.000000 0 0 1
-3.502678 -15.040674 -33.137760 36.559565 1.341994 2.705490 0.159521 -0.047394 878511.000000 0 0 1
-3.491778 -13.513374 -33.311160 36.116993 1.317933 2.744819 0.141660 -0.052949 -79409.300000 0 0 1
-2.583978 -12.927474 -32.404560 34.983597 1.373514 2.755211 0.136728 -0.049493 -146247.000000 0 0 1
-2.467678 -11.510374 -32.462760 34.531275 1.359606 2.793712 0.130767 -0.050046 -64205.300000 0 0 1
-1.899478 -10.835074 -33.709260 35.458724 1.397252 2.826159 0.130490 -0.048482 -300586.000000 0 0 1
-2.819978 -10.823774 32.821046 34.674593 1.315927 0.328447 0.119184 -0.042283 -180485.000000 0 0 1
-2.240878 -10.498174 31.578646 33.353322 1.360498 0.327680 0.117596 -0.032035 464141.000000 0 0 1
-1.249178 -11.492974 30.853746 32.948483 1.462531 0.358501 0.119025 -0.041379 453294.000000 0 0 1
-1.879378 -12.611874 30.323646 32.895515 1.422868 0.398054 0.120788 -0.036733 -371691.000000 0 0 1
-1.009578 -13.705074 30.425846 33.385332 1.497265 0.424235 0.115918 -0.042200 -539510.000000 0 0 1
-1.590778 -15.095874 30.640546 34.194430 1.465805 0.459964 0.091390 -0.029203 -327665.000000 0 0 1
-1.978378 -15.675974 29.405946 33.382028 1.445256 0.493054 0.125480 -0.033892 100153.000000 0 0 1
-2.028478 -17.052574 29.629046 34.245954 1.452398 0.525279 0.131114 -0.027549 -134944.000000 0 0 1
-2.247078 -17.993374 28.401946 33.696905 1.446556 0.568211 0.145397 -0.024871 751044.000000 0 0 1
-3.607378 -17.913274 27.938846 33.383794 1.372074 0.579204 0.158274 -0.028466 768937.000000 0 0 1
-3.772878 -19.150774 27.242546 33.513327 1.376278 0.621704 0.173309 -0.033598 264165.000000 0 0 1
-4.816678 -19.018474 26.117346 32.665249 1.322749 0.644259 0.156145 -0.041080 -223142.000000 0 0 1
-5.393178 -20.195174 25.581646 33.035618 1.309833 0.685084 0.175902 -0.042860 -292616.000000 0 0 1
-4.584878 -21.109874 24.860546 32.934702 1.356927 0.715381 0.179557 -0.045186 -225904.000000 0 0 1
-30.853728 -32.906224 -1.174054 45.123724 0.817578 1.596818 0.097827 -0.034572 -281586.000000 0 0 1
-30.097638 -31.850824 -0.654154 43.826598 0.813691 1.585723 0.104215 -0.048683 -252198.000000 0 0 1
-30.485118 -31.575724 0.720646 43.896333 0.802970 1.554379 0.084828 -0.028674 191016.000000 0 0 1
-29.627388 -30.440224 1.343246 42.499337 0.798929 1.539185 0.097662 -0.034046 490129.000000 0 0 1
-28.235728 -30.691924 1.398046 41.727749 0.827056 1.537286 0.111554 -0.037077 41060.800000 0 0 1
-27.471178 -29.496924 1.585846 40.339175 0.820942 1.531473 0.118453 -0.036890 1791770.000000 0 0 1
-25.892798 -29.635124 1.661146 39.388285 0.852692 1.528610 0.107219 -0.036377 1212340.000000 0 0 1
-25.436028 -30.363924 2.753346 39.705671 0.873483 1.501397 0.095782 -0.030692 853548.000000 0 0 1
-24.007578 -30.136924 2.837046 38.634788 0.898122 1.497298 0.104747 -0.023958 1491620.000000 0 0 1
-23.320678 -30.589024 4.211546 38.694696 0.919414 1.461740 0.111263 -0.032954 118671.000000 0 0 1
-23.819678 -29.918324 5.342746 38.613833 0.898403 1.431987 0.105082 -0.034594 -58444.900000 0 0 1
-23.255778 -30.578824 6.431846 38.952077 0.920597 1.404915 0.093372 -0.032629 176406.000000 0 0 1
-23.891078 -30.132924 7.770346 39.232066 0.900427 1.371417 0.099617 -0.025909 239977.000000 0 0 1
-23.328678 -28.888724 8.153946 38.016739 0.891477 1.354634 0.111777 -0.034332 69885.300000 0 0 1
-23.925978 -28.475424 9.362546 38.353089 0.872000 1.324190 0.095648 -0.029225 -44812.600000 0 0 1
-23.230478 -27.325924 10.124946 37.267623 0.866229 1.295656 0.108340 -0.034830 -694933.000000 0 0 1
-22.002578 -27.678424 10.640046 36.924506 0.899151 1.278495 0.096478 -0.037476 -1219780.000000 0 0 1
-21.591578 -26.637724 11.481546 36.160621 0.889647 1.247688 0.115022 -0.033313 814288.000000 0 0 1
-20.260878 -26.897224 12.287646 35.846200 0.925206 1.220913 0.099214 -0.030224 751458.000000 0 0 1
-20.308178 -27.789824 13.325446 36.908860 0.939712 1.201417 0.101003 -0.032234 -185071.000000 0 0 1
-19.037578 -27.801824 13.946146 36.467325 0.970372 1.178373 0.101670 -0.034977 217210.000000 0 0 1
-19.010578 -28.907824 14.947146 37.689276 0.989078 1.162998 0.103388 -0.036012 89324.800000 0 0 1
-18.856578 -30.088024 14.211046 38.246746 1.010966 1.190105 0.101105 -0.032408 -25095.200000 0 0 1
-18.843478 -31.142324 15.171746 39.434793 1.026653 1.175881 0.106931 -0.030574 199143.000000 0 0 1
-18.670778 -32.595824 14.620546 40.309379 1.050620 1.199624 0.099020 -0.035468 223309.000000 0 0 1
-18.811378 -33.556124 15.644746 41.528779 1.059856 1.184543 0.095318 -0.027894 109247.000000 0 0 1
-18.022578 33.031626 15.270546 40.609004 -1.071325 1.185279 0.090592 -0.034031 -77602.400000 0 0 1
-17.999278 31.906426 16.281546 40.088437 -1.057172 1.152570 0.090197 -0.031917 140504.000000 0 0 1
-19.237178 31.191626 16.272346 40.097080 -1.018158 1.152916 0.091687 -0.035694 568104.000000 0 0 1
-19.266478 30.083926 17.111046 39.610954 -1.001182 1.124112 0.070809 -0.023827 -463126.000000 0 0 1
-19.945378 30.267826 18.423446 40.661810 -0.988146 1.100568 0.079257 -0.024087 62126.600000 0 0 1
-19.206278 31.084526 19.388346 41.364681 -1.017339 1.082958 0.089156 -0.024759 940060.000000 0 0 1
-20.080778 31.341826 20.491146 42.490408 -1.000985 1.067571 0.088281 -0.017197 460005.000000 0 0 1
-19.563278 32.452026 21.473246 43.554060 -1.028294 1.055233 0.079057 -0.013400 314798.000000 0 0 1
-18.442178 32.134426 22.286446 43.236801 -1.049784 1.029263 0.074314 -0.014695 87522.500000 0 0 1
-18.378778 32.884726 23.481946 44.391288 -1.061157 1.013402 0.075850 -0.014761 -594056.000000 0 0 1
-19.208078 32.533426 24.704246 45.140601 -1.037458 0.991693 0.071688 -0.011995 -652095.000000 0 0 1
-20.559878 32.720326 24.408146 45.706519 -1.009790 1.007449 0.054525 -0.015659 -548239.000000 0 0 1
-21.433278 31.948726 25.216746 45.999900 -0.979893 0.990596 0.039293 -0.008268 84597.700000 0 0 1
-22.920578 32.306026 25.060346 46.872734 -0.953734 1.006707 0.049247 -0.016302 -148221.000000 0 0 1
-23.389378 31.904226 23.782346 46.157801 -0.938191 1.029509 0.039777 -0.003987 -66784.200000 0 0 1
-24.752678 32.149226 23.555146 46.916018 -0.914661 1.044805 0.031488 -0.008683 -24627.500000 0 0 1
-25.262508 31.757926 22.114846 46.215004 -0.898823 1.071827 0.030434 -0.014869 -28276.000000 0 0 1
-24.575978 32.572626 21.191746 45.978742 -0.924423 1.091784 0.025531 -0.010915 212966.000000 0 0 1
-24.559678 31.926826 19.942446 44.946648 -0.915089 1.111083 0.025472 -0.006482 -156781.000000 0 0 1
-24.043278 32.894926 18.888846 44.910398 -0.939624 1.136701 0.042008 -0.008295 -163983.000000 0 0 1
-22.636178 32.993326 18.983946 44.287090 -0.969471 1.127791 0.063369 -0.009802 51271.700000 0 0 1
-22.096778 33.802026 17.973846 44.202983 -0.991816 1.152044 0.071551 -0.010541 246762.000000 0 0 1
-20.741478 -33.228624 18.314446 43.240829 1.012769 1.133441 0.086426 -0.012545 71067.200000 0 0 1
-20.900178 -31.942324 18.952846 42.618539 0.991397 1.109947 0.091350 -0.022784 489585.000000 0 0 1
-19.684178 -31.473024 19.509046 41.935915 1.011888 1.086923 0.099370 -0.028626 189715.000000 0 0 1
-19.944278 -30.321324 20.505946 41.685138 0.988982 1.056497 0.080604 -0.023593 -113609.000000 0 0 1
-20.584078 -29.236724 19.925746 40.933185 0.957358 1.062388 0.101265 -0.023453 97489.100000 0 0 1
-20.864078 -28.331324 20.960446 40.955024 0.936036 1.033527 0.104572 -0.020026 -94611.900000 0 0 1
-21.769378 -27.143624 20.487246 40.378328 0.894833 1.038652 0.091143 -0.030203 -457513.000000 0 0 1
-21.192578 -26.013924 19.879446 39.000538 0.887178 1.035934 0.097782 -0.023255 -14431.700000 0 0 1
-21.983878 -24.837024 19.766246 38.611826 0.846260 1.033376 0.085188 -0.013107 -524199.000000 0 0 1
-23.075478 -24.804824 18.677846 38.686159 0.821501 1.066942 0.078595 -0.016932 -710105.000000 0 0 1
-24.279078 -25.314224 19.182946 39.978356 0.806268 1.070332 0.072941 -0.014127 -432424.000000 0 0 1
-25.224828 -25.316824 18.114146 40.066892 0.787218 1.101681 0.055569 -0.006536 933402.000000 0 0 1
-26.718758 -25.444824 18.632246 41.333905 0.760981 1.103164 0.048694 -0.004717 1221350.000000 0 0 1
-27.194108 -26.740424 19.069746 42.640650 0.776987 1.107142 0.046449 -0.009444 49780.800000 0 0 1
-27.365428 -27.792024 18.096446 42.997030 0.793132 1.136385 0.057539 -0.014523 -727642.000000 0 0 1
-28.288588 -28.882124 18.647846 44.521494 0.795780 1.138617 0.064840 -0.017795 -548057.000000 0 0 1
-29.624158 -28.477924 18.621146 45.114631 0.765673 1.145323 0.044464 -0.016687 -310616.000000 0 0 1
-30.396788 -29.058924 17.526346 45.558299 0.762900 1.175912 0.047736 -0.014083 -261006.000000 0 0 1
-31.890558 -28.797124 17.700246 46.471289 0.734469 1.180042 0.050979 -0.015918 -404657.000000 0 0 1
-32.271768 -27.491524 17.246846 45.767943 0.705582 1.184422 0.057846 -0.016400 266393.000000 0 0 1
-33.617508 -27.265424 17.641446 46.741425 0.681442 1.183781 0.066709 -0.007695 -22371.700000 0 0 1
-34.330562 -26.008424 17.124846 46.349606 0.648340 1.192356 0.069897 -0.018636 -143077.000000 0 0 1
-34.545198 -26.027224 15.706846 46.016216 0.645690 1.222462 0.090625 -0.026759 23832.400000 0 0 1
-35.187574 -24.861324 15.288046 45.716246 0.615100 1.229815 0.092065 -0.024721 -524813.000000 0 0 1
-34.311359 -23.695524 14.822646 44.254469 0.604391 1.229253 0.082558 -0.024330 -87980.800000 0 0 1
-33.556618 -23.023424 15.812846 43.659715 0.601341 1.200187 0.067242 -0.005911 72647.900000 0 0 1
-33.307628 -21.663924 15.441046 42.628037 0.576670 1.200140 0.071267 0.004043 485531.000000 0 0 1
-34.465451 -20.648224 15.849646 43.190598 0.539757 1.195047 0.074553 -0.007244 756910.000000 0 0 1
-34.553274 -20.440924 17.260546 43.699961 0.534203 1.164752 0.075817 0.000444 622513.000000 0 0 1
-35.405086 -19.291424 17.517146 43.960545 0.498902 1.160944 0.083250 0.003082 513988.000000 0 0 1
-35.892509 -19.039424 19.027046 44.864243 0.487715 1.132826 0.076264 -0.004892 784235.000000 0 0 1
-37.012958 -19.881124 19.398646 46.276621 0.492916 1.138245 0.077340 -0.001826 862216.000000 0 0 1
-37.251578 -19.558724 20.758246 46.916186 0.483482 1.112463 0.081090 -0.000026 -667027.000000 0 0 1
36.969054 -20.068924 21.444346 47.215809 -0.497343 1.099348 0.076616 0.001433 -274706.000000 0 0 1
36.730644 -21.514424 21.490446 47.684903 -0.529864 1.103274 0.094267 -0.014125 23513.200000 0 0 1
37.596964 -22.242624 22.343446 49.066237 -0.534225 1.098005 0.070459 0.003062 150855.000000 0 0 1
36.870174 -23.503424 22.978946 49.394865 -0.567512 1.086925 0.071881 0.010703 89561.700000 0 0 1
35.994694 -23.130824 23.999246 49.057281 -0.571168 1.059614 0.102870 -0.018657 -108285.000000 0 0 1
35.489804 -24.230024 24.762146 49.596211 -0.599042 1.048035 0.105415 -0.034420 -284024.000000 0 0 1
34.389524 -23.827824 25.776546 49.140970 -0.605932 1.018618 0.121666 -0.040615 928434.000000 0 0 1
33.087394 -23.614324 25.208046 47.831554 -0.619859 1.015710 0.133738 -0.039450 1301630.000000 0 0 1
32.088364 -23.374324 26.241346 47.588133 -0.629557 0.986723 0.103733 -0.038625 730420.000000 0 0 1
30.797294 -24.195524 26.059846 47.042664 -0.665922 0.983681 0.092411 -0.031256 -101775.000000 0 0 1
29.883954 -23.686524 25.100946 45.652597 -0.670223 0.988641 0.086983 -0.023493 6317.300000 0 0 1
28.772554 -24.561724 24.952146 45.318294 -0.706610 0.987716 0.082528 -0.014174 855047.000000 0 0 1
27.495654 -23.780524 24.452346 43.811432 -0.713071 0.978669 0.072997 -0.006695 432681.000000 0 0 1
27.535254 -23.281824 23.115946 42.832003 -0.701892 1.000729 0.078109 -0.013765 245395.000000 0 0 1
28.465954 -22.196324 22.894146 42.744933 -0.662271 1.005579 0.087623 -0.007530 382618.000000 0 0 1
28.378954 -21.459324 21.549146 41.596073 -0.647438 1.026218 0.095533 -0.011477 326162.000000 0 0 1
27.391754 -20.433624 21.647746 40.453258 -0.640922 1.006135 0.073984 -0.006709 222669.000000 0 0 1
27.360354 -19.818424 20.345446 39.437242 -0.626881 1.028745 0.052393 -0.005744 516212.000000 0 0 1
26.335054 -18.649524 20.067546 38.000608 -0.616184 1.014453 0.056138 -0.005920 585074.000000 0 0 1
26.819654 -17.418424 20.654646 38.069801 -0.575999 0.997330 0.064914 -0.011785 339371.000000 0 0 1
26.768754 -17.388024 22.091546 38.819402 -0.576069 0.965403 0.062587 -0.010041 -222167.000000 0 0 1
26.733754 -15.999024 22.730246 38.565872 -0.539285 0.940496 0.054440 -0.003010 -228100.000000 0 0 1
25.584654 -15.234324 22.450446 37.291845 -0.537066 0.924767 0.014726 -0.006057 -444442.000000 0 0 1
25.595554 -13.997424 23.143246 37.238020 -0.500436 0.900147 0.002568 -0.000092 376235.000000 0 0 1
24.277654 -13.176624 22.981646 35.933048 -0.497258 0.876859 -0.002739 0.000463 832766.000000 0 0 1
23.154054 -13.819924 23.576546 35.818348 -0.538114 0.852337 0.035345 -0.002108 250314.000000 0 0 1
21.997554 -13.003024 23.603146 34.786197 -0.533859 0.825050 0.068960 -0.009836 -339755.000000 0 0 1
20.708454 -13.721924 23.898146 34.471041 -0.585199 0.804763 0.081670 -0.011256 -557032.000000 0 0 1
20.131854 -14.521724 22.884146 33.761756 -0.624899 0.826013 0.102083 -0.017227 910863.000000 0 0 1
18.759754 -14.885424 23.128346 33.293011 -0.670751 0.802806 0.115049 -0.024097 828137.000000 0 0 1
18.421954 -16.047924 22.183546 33.000212 -0.716634 0.833587 0.118618 -0.027365 -222976.000000 0 0 1
19.102854 -17.231124 22.533146 34.199025 -0.733929 0.851464 0.099726 -0.018710 43080.300000 0 0 1
18.822354 -18.332324 21.620146 34.026252 -0.772210 0.882275 0.114989 -0.020537 138680.000000 0 0 1
19.460854 -19.690924 22.024846 35.377269 -0.791274 0.898773 0.094829 -0.010706 -194215.000000 0 0 1
18.900054 -20.093224 23.251846 36.077667 -0.815988 0.870435 0.107141 -0.010453 155174.000000 0 0 1
19.315154 -21.349024 23.781846 37.342097 -0.835373 0.880372 0.108570 -0.008763 -207079.000000 0 0 1
18.703854 -22.639224 23.115946 37.372658 -0.880300 0.903931 0.107262 -0.015091 -86770.900000 0 0 1
19.278854 -23.087124 21.937146 37.228052 -0.875047 0.940649 0.104931 0.000395 523281.000000 0 0 1
20.508254 -23.836124 22.160846 38.468850 -0.860304 0.956881 0.099676 -0.007344 716338.000000 0 0 1
21.137654 -24.103224 20.761746 38.194449 -0.850855 0.996100 0.086159 0.000023 50743.400000 0 0 1
20.428254 -24.957724 19.882346 37.888115 -0.884868 1.018358 0.087323 -0.008467 532093.000000 0 0 1
21.360954 -25.279224 18.859146 38.091953 -0.869212 1.052852 0.081877 -0.012556 585152.000000 0 0 1
20.611554 -25.805624 17.618946 37.432521 -0.896834 1.080729 0.079442 -0.021099 59972.500000 0 0 1
20.037654 -27.022224 17.934846 38.123049 -0.932741 1.081000 0.093932 -0.029563 211101.000000 0 0 1
19.077054 -27.489124 16.962646 37.514228 -0.964118 1.101604 0.102053 -0.030135 276192.000000 0 0 1
18.330754 -28.696024 17.540346 38.303291 -1.002341 1.095127 0.083490 -0.015410 -365556.000000 0 0 1
17.237254 -28.309924 18.326046 37.873720 -1.023875 1.065722 0.082594 -0.030878 -393024.000000 0 0 1
16.555554 -29.443424 18.822846 38.669124 -1.058571 1.062412 0.083184 -0.035459 -66306.600000 0 0 1
15.366854 -29.048224 19.729046 38.329816 -1.084210 1.030118 0.075118 -0.029498 -452379.000000 0 0 1
14.340654 -28.559224 18.958546 37.157908 -1.105440 1.035361 0.082766 -0.034842 -940765.000000 0 0 1
13.133954 -28.197824 19.580246 36.756007 -1.134898 1.008998 0.069948 -0.038298 -645672.000000 0 0 1
12.139154 -27.775324 18.571546 35.548980 -1.158765 1.021108 0.094976 -0.046066 -1113810.000000 0 0 1
11.909654 -28.821624 17.628146 35.822862 -1.178946 1.056305 0.071652 -0.046591 -36193.600000 0 0 1
11.481554 -28.288324 16.383346 34.647791 -1.185235 1.078269 0.106699 -0.039975 23405.100000 0 0 1
11.135454 -29.302324 15.259546 34.863710 -1.207632 1.117767 0.082998 -0.033840 268832.000000 0 0 1
10.040554 -30.145824 15.596546 35.395419 -1.249286 1.114488 0.108380 -0.034453 152510.000000 0 0 1
9.718454 -31.001324 14.528846 35.589575 -1.267014 1.150279 0.078293 -0.023025 -187913.000000 0 0 1
8.614654 -32.028324 14.814046 36.324672 -1.308045 1.150728 0.078979 -0.024324 -311278.000000 0 0 1
8.903254 -33.051124 15.740446 37.675010 -1.307664 1.139779 0.095264 -0.030219 -449162.000000 0 0 1
7.967554 33.598926 15.691446 37.928765 1.337960 1.144273 0.098017 -0.019444 -90021.000000 0 0 1
8.342554 32.497426 16.682046 37.469609 1.319508 1.109382 0.114797 -0.026088 5168.060000 0 0 1
9.566554 31.887326 16.351346 37.090255 1.279329 1.114248 0.099477 -0.030803 -269313.000000 0 0 1
9.874354 30.847226 17.244946 36.693901 1.260998 1.081542 0.125662 -0.035447 281101.000000 0 0 1
11.259054 30.235926 16.868846 36.407904 1.214330 1.089048 0.073420 -0.044230 -4813.570000 0 0 1
11.316254 29.355426 15.812846 35.211429 1.202860 1.105058 0.118373 -0.034929 509111.000000 0 0 1
12.645654 28.845126 15.638546 35.164158 1.157632 1.109924 0.096022 -0.043036 629305.000000 0 0 1
12.728254 27.772226 14.525546 33.827452 1.141054 1.126967 0.083822 -0.037194 224012.000000 0 0 1
11.944154 26.587626 14.784546 32.682526 1.148577 1.101377 0.093021 -0.039276 471255.000000 0 0 1
12.170754 25.614526 13.723446 31.504986 1.127225 1.120096 0.089132 -0.031551 55010.900000 0 0 1
-9.685178 -9.155074 19.169552 23.347158 0.757269 0.607521 0.109791 -0.034361 120737.000000 0 1 0
-9.928578 -9.267674 17.765052 22.362100 0.750983 0.652733 0.101954 -0.033812 180270.000000 0 1 0
-9.735278 -10.625974 17.442252 22.625630 0.829115 0.690533 0.103421 -0.036802 87816.300000 0 1 0
-9.997678 -10.894974 15.939652 21.742275 0.828320 0.747901 0.098339 -0.032917 946107.000000 0 1 0
-11.395778 -10.711474 15.618652 22.102980 0.754454 0.786071 0.099767 -0.035034 1199670.000000 0 1 0
-11.884278 -11.316474 14.444552 21.861924 0.760930 0.849022 0.107345 -0.028166 -99202.600000 0 1 0
-11.858178 -12.856974 14.310352 22.598769 0.825788 0.885069 0.080030 -0.027080 -522150.000000 0 1 0
-10.535378 -13.287374 14.065752 22.031656 0.900408 0.878335 0.099778 -0.029241 176335.000000 0 1 0
-10.373178 -14.711674 14.100952 22.866417 0.956657 0.906295 0.105908 -0.030222 -58259.700000 0 1 0
-10.248578 -15.342874 15.525752 24.114023 0.981892 0.871280 0.127920 -0.033304 -373314.000000 0 1 0
-11.379378 -15.094474 16.311452 24.967917 0.924819 0.858866 0.125944 -0.027985 -608613.000000 0 1 0
-11.218178 -15.157174 17.712052 25.870915 0.933646 0.816698 0.151012 -0.030585 -864930.000000 0 0 1
-12.444778 -14.754274 18.488052 26.727685 0.870106 0.806929 0.090682 -0.027156 -1118660.000000 0 0 1
-12.860778 -13.424674 18.282152 26.074098 0.806848 0.793771 0.089137 -0.028641 158390.000000 0 0 1
-14.029778 -13.228674 17.497652 26.038439 0.756017 0.833899 0.118668 -0.039719 427822.000000 0 0 1
-15.369578 -13.411974 18.261552 27.378628 0.717487 0.840621 0.064478 -0.025549 -239208.000000 0 0 1
-15.701378 -14.777874 18.537952 28.435444 0.755108 0.860668 0.073693 -0.024777 -307760.000000 0 0 1
-16.522478 -14.869874 19.668052 29.680595 0.732803 0.846435 0.067280 -0.018590 -248431.000000 0 0 1
-17.153278 -16.251674 19.913852 30.901672 0.758415 0.870523 0.080260 -0.029468 -562881.000000 0 0 1
-18.281378 -16.477974 19.115452 31.163006 0.733562 0.910435 0.073284 -0.019280 -161176.000000 0 0 1
-18.684178 -17.823674 19.327652 32.254302 0.761832 0.928261 0.083647 -0.027720 188622.000000 0 0 1
-20.025978 -18.249374 18.650452 32.892534 0.739015 0.967923 0.086725 -0.019975 177509.000000 0 0 1
-20.019078 -18.545374 17.262952 32.290926 0.747203 1.006754 0.090628 -0.020856 72832.000000 0 0 1
-20.179678 -17.350874 16.473752 31.299469 0.710167 1.016521 0.082893 -0.021260 -625619.000000 0 0 1
-19.820678 -17.504074 15.004852 30.403905 0.723412 1.054667 0.089137 -0.025522 -314746.000000 0 0 1
-20.444978 -18.558974 14.284752 31.088370 0.737082 1.093377 0.100933 -0.016193 -45564.900000 0 0 1
-19.934578 -18.599974 12.996952 30.203761 0.750778 1.125961 0.116580 -0.027105 -18856.600000 0 0 1
-20.001078 -20.013974 12.334752 30.866622 0.785720 1.159700 0.137507 -0.029782 194472.000000 0 0 1
-19.111878 -21.011574 12.861052 31.179429 0.832709 1.145616 0.133143 -0.018970 232654.000000 0 0 1
-19.129178 -22.131674 12.033352 31.631282 0.858039 1.180540 0.112862 -0.013791 -261480.000000 0 0 1
-18.206678 -23.277074 12.500652 32.086938 0.907021 1.170613 0.099932 -0.005604 20722.800000 0 0 1
-18.039178 -24.459674 11.777752 32.594525 0.935339 1.201090 0.119013 -0.032378 114467.000000 0 0 1
-17.369278 -24.322374 10.511652 31.682243 0.950652 1.232603 0.098225 -0.027106 -86369.700000 0 0 1
-17.507178 -25.587864 9.622952 32.462921 0.970754 1.269845 0.095364 -0.031594 915817.000000 0 0 1
-18.856778 -25.770084 9.134452 33.213153 0.939090 1.292180 0.103838 -0.027906 679145.000000 0 0 1
-18.831278 -26.645154 7.993752 33.592876 0.955559 1.330532 0.118401 -0.037073 -137619.000000 0 0 1
-20.135678 -26.536674 7.207852 34.082161 0.921695 1.357703 0.107951 -0.035666 -48915.900000 0 0 1
-20.385478 -25.245364 6.628652 33.118501 0.891503 1.369286 0.121429 -0.039019 788194.000000 0 0 1
-21.572578 -25.235294 5.794152 33.701163 0.863489 1.398010 0.135176 -0.035854 851124.000000 0 0 1
-21.664378 -23.939374 5.021652 32.675004 0.835243 1.416500 0.142137 -0.041766 357287.000000 0 0 1
-22.598378 -23.996374 3.928552 33.195574 0.815392 1.452173 0.138897 -0.042469 462950.000000 0 0 1
-22.531178 -22.850674 3.090052 32.239040 0.792438 1.474801 0.136262 -0.029044 57372.300000 0 0 1
-23.166678 -22.989674 1.684552 32.681153 0.781563 1.519228 0.114999 -0.023525 -77286.300000 0 0 1
-22.414978 -23.761774 0.772452 32.674911 0.814556 1.547154 0.120375 -0.040632 -26178.800000 0 0 1
-22.693678 -23.520274 -0.573848 32.688463 0.803283 1.588352 0.107962 -0.038424 -505878.000000 0 0 1
-21.897878 -24.304074 -1.628148 32.754479 0.837431 1.620524 0.114582 -0.044707 -102513.000000 0 0 1
-20.540078 -23.889074 -1.707848 31.551535 0.860634 1.624952 0.113460 -0.039908 515686.000000 0 0 1
-19.811478 -24.347274 -2.855148 31.518824 0.887755 1.661506 0.104781 -0.030160 294420.000000 0 0 1
-19.253478 -25.778794 -2.871048 32.303027 0.929300 1.659792 0.128545 -0.034602 -284048.000000 0 0 1
-20.303378 -26.727774 -3.007048 33.699308 0.921157 1.660147 0.164157 -0.047916 120492.000000 0 0 1
-19.887678 -27.927714 -3.677848 34.481930 0.951987 1.677660 0.155689 -0.043484 214362.000000 0 0 1
-21.104378 -28.790514 -4.126948 35.934943 0.938243 1.685895 0.166599 -0.049909 630087.000000 0 0 1
-21.928678 -28.257014 -5.181948 36.141089 0.910835 1.714673 0.152249 -0.044730 208307.000000 0 0 1
-22.586378 -29.334994 -5.792448 37.473174 0.914651 1.725994 0.162148 -0.060646 1412.610000 0 0 1
-23.346478 -28.956454 -7.123548 37.871878 0.892249 1.760019 0.151757 -0.014820 137492.000000 0 0 1
-22.487978 -28.541784 -8.175148 37.244807 0.903479 1.792096 0.172432 -0.016486 478749.000000 0 0 1
-23.161178 -28.582324 -9.452248 37.983343 0.889787 1.822292 0.168357 -0.017145 1570610.000000 0 0 1
-24.387378 -27.537784 -9.614248 38.019830 0.845996 1.826447 0.134651 -0.012286 844616.000000 0 0 1
-24.086878 -26.152134 -9.919148 36.912075 0.826484 1.842864 0.126985 -0.016246 -121436.000000 0 0 1
-23.324278 -25.503404 -8.947348 35.700148 0.829997 1.824122 0.100716 -0.017741 -405043.000000 0 0 1
-22.767878 -24.113474 -9.334748 34.452480 0.814092 1.845172 0.084308 -0.022152 141196.000000 0 0 1
-23.730278 -23.095774 -9.501348 34.450203 0.771849 1.850218 0.095355 -0.013104 235298.000000 0 0 1
-23.050378 -21.971774 -10.058148 33.395286 0.761446 1.876731 0.103297 -0.014890 879952.000000 0 0 1
-24.047078 -20.740874 -10.196848 33.352983 0.711713 1.881496 0.115979 -0.011686 -367941.000000 0 0 1
-24.864378 -20.907974 -11.285248 34.390950 0.699176 1.905136 0.110084 -0.008138 -367862.000000 0 0 1
-26.138938 -20.331374 -11.116748 34.931231 0.661069 1.894676 0.114175 -0.004481 -88112.100000 0 0 1
-26.289598 -18.809374 -11.176448 34.203048 0.621032 1.903678 0.127343 -0.031058 -1347070.000000 0 0 1
-25.841818 -18.276474 -12.426748 34.003722 0.615571 1.944915 0.143495 -0.033285 441309.000000 0 0 1
-25.608958 -16.875674 -12.571048 33.145714 0.582659 1.959799 0.129333 -0.046986 420024.000000 0 0 1
-24.396478 -16.329074 -11.723448 31.611169 0.589838 1.950736 0.116572 -0.039127 124966.000000 0 0 1
-24.652078 -16.409074 -10.314548 31.358771 0.587282 1.905957 0.146937 -0.042483 534710.000000 0 0 1
-23.488478 -16.852374 -9.612648 30.464965 0.622358 1.891813 0.146435 -0.042747 230385.000000 0 0 1
-23.713778 -17.245774 -8.131148 30.428203 0.628779 1.841307 0.128734 -0.046510 -330481.000000 0 0 1
-24.337978 -18.456574 -7.958148 31.564448 0.648820 1.825671 0.139187 -0.035765 46323.200000 0 0 1
-24.988188 -18.595674 -6.679748 31.856360 0.639765 1.782047 0.143867 -0.018692 177667.000000 0 0 1
-25.630538 -19.986374 -6.595748 33.164492 0.662294 1.771011 0.157777 -0.018135 -57647.000000 0 0 1
-26.638678 -20.237774 -7.552148 34.296087 0.649689 1.792820 0.134274 -0.024966 -102146.000000 0 0 1
-27.183678 -21.526574 -7.317548 35.438570 0.669778 1.778778 0.131036 -0.010786 -96016.900000 0 0 1
-26.496528 -22.653374 -8.043148 35.776159 0.707364 1.797553 0.119110 -0.000979 -191663.000000 0 0 1
-27.377278 -23.765574 -8.061648 37.139036 0.714895 1.789605 0.121588 0.002024 -60978.600000 0 0 1
-26.943218 -24.754874 -8.923348 37.661212 0.743094 1.810009 0.105853 0.011589 -206991.000000 0 0 1
-27.676478 -26.062064 -8.604548 38.977645 0.755365 1.793386 0.103139 -0.010323 105366.000000 0 0 1
-27.224148 -26.607504 -7.346848 38.769700 0.773944 1.761449 0.137621 -0.028824 30888.200000 0 0 1
-27.756838 -27.838134 -6.989048 39.928067 0.786860 1.746744 0.130302 -0.028258 -214229.000000 0 0 1
-27.390708 -28.354954 -5.575348 39.816313 0.802694 1.711285 0.159255 -0.048226 53543.700000 0 0 1
-28.330408 -27.920404 -4.606448 40.042232 0.778109 1.686091 0.116960 -0.046939 175193.000000 0 0 1
-27.820788 -28.039324 -3.312548 39.638023 0.789310 1.654464 0.136956 -0.054402 -19337.800000 0 0 1
-28.310948 -29.347024 -2.619048 40.860947 0.803366 1.634937 0.117467 -0.037603 -437615.000000 0 0 1
-27.830158 -30.503344 -3.286848 41.421915 0.831192 1.650230 0.153119 -0.053736 -88479.100000 0 0 1
-27.590118 -31.687124 -2.504948 42.089942 0.854404 1.630346 0.147183 -0.059301 213919.000000 0 0 1
-26.441768 -31.627184 -1.428648 41.249083 0.874460 1.605438 0.156570 -0.061812 -112992.000000 0 0 1
-25.181628 -31.445464 -2.021048 40.336289 0.895566 1.620922 0.170457 -0.071743 -700567.000000 0 0 1
-24.242178 -31.567274 -0.965248 39.813411 0.915904 1.595043 0.177052 -0.048448 -142104.000000 0 0 1
-23.083978 -30.575254 -1.079348 38.325986 0.924110 1.598962 0.180816 -0.049764 -203716.000000 0 0 1
-23.431878 -29.254874 -0.728048 37.489073 0.895472 1.590218 0.152648 -0.054830 -197397.000000 0 0 1
-23.993278 -28.498754 -1.780948 37.296489 0.871020 1.618566 0.175463 -0.067341 -154114.000000 0 0 1
-24.514178 -27.127584 -1.290448 36.585735 0.835961 1.606076 0.112065 -0.054619 489610.000000 0 0 1
-25.793238 -27.345314 -0.690948 37.597004 0.814598 1.589175 0.124572 -0.059173 639454.000000 0 0 1
-26.554138 -26.221284 -0.143248 37.318876 0.779091 1.574635 0.130290 -0.062316 434536.000000 0 0 1
-26.011928 -25.504714 1.072952 36.445330 0.775553 1.541352 0.128796 -0.049137 -438178.000000 0 0 1
-25.930038 -26.267104 2.205952 36.975584 0.791856 1.511101 0.122074 -0.046852 -57698.000000 0 0 1
-25.538288 -25.539354 3.404852 36.277483 0.785419 1.476802 0.126338 -0.041181 110211.000000 0 0 1
-26.606438 -24.539474 3.911752 36.405908 0.745007 1.463140 0.140255 -0.040467 -258528.000000 0 0 1
-26.819248 -23.391774 3.111752 35.722964 0.717243 1.483578 0.127116 -0.036792 -91745.000000 0 0 1
-27.757648 -22.455574 3.577552 35.882289 0.680197 1.470928 0.120223 -0.027065 -357897.000000 0 0 1
-27.722568 -21.187774 2.627652 34.990957 0.652577 1.495630 0.121636 -0.018697 1050270.000000 0 0 1
-26.471758 -20.464674 2.728852 33.570872 0.658107 1.489420 0.121731 -0.015497 815558.000000 0 0 1
-26.356238 -19.548874 1.666052 32.857046 0.638179 1.520068 0.096411 -0.010990 59453.400000 0 0 1
-25.094998 -18.659474 1.735752 31.320085 0.639363 1.515348 0.108345 -0.007668 -664839.000000 0 0 1
-23.902878 -19.368174 1.541552 30.803411 0.680982 1.520731 0.122562 -0.018231 -1036130.000000 0 0 1
-22.954978 -18.352174 1.659452 29.436153 0.674427 1.514392 0.124586 -0.009083 -1292750.000000 0 0 1
-21.543078 -18.909874 1.625452 28.711141 0.720397 1.514152 0.102307 -0.019377 -663380.000000 0 0 1
-20.963378 -19.413874 0.441552 28.575456 0.747041 1.555344 0.056205 -0.005454 286100.000000 0 0 1
-19.739378 -20.087974 0.674352 28.171342 0.794151 1.546857 0.092022 -0.009427 179116.000000 0 0 1
-19.255478 -20.847674 -0.607848 28.386060 0.825080 1.592212 0.092939 -0.012491 18053.700000 0 0 1
-18.804678 -20.015674 -1.641048 27.512473 0.816583 1.630479 0.098738 -0.018218 -5761.150000 0 0 1
-18.704378 -20.809374 -2.804148 28.120225 0.838620 1.670682 0.093093 -0.011487 -23666.500000 0 0 1
-18.074078 -19.991974 -3.954448 27.239474 0.835739 1.716485 0.108776 -0.002035 810646.000000 0 0 1
-16.719678 -19.586174 -3.698548 26.016247 0.864189 1.713443 0.142232 -0.017970 755536.000000 0 0 1
-16.169878 -18.787674 -4.756448 25.240155 0.860144 1.760378 0.151912 -0.010392 -44562.500000 0 0 1
-14.703778 -18.369674 -4.671548 23.988942 0.895789 1.766786 0.170467 -0.026715 -193294.000000 0 1 0
-13.721678 -19.302574 -5.035748 24.212240 0.952810 1.780309 0.130807 -0.030033 667050.000000 0 1 0
-12.460378 -18.706974 -5.393048 23.114862 0.983199 1.806282 0.129649 -0.045873 1452370.000000 0 1 0
-11.282078 -19.683874 -5.734548 23.401393 1.050343 1.818369 0.139899 -0.052166 565083.000000 0 1 0
-11.415178 -20.480474 -6.903348 24.442019 1.062313 1.857131 0.119116 -0.043974 -239018.000000 0 1 0
-10.201478 -21.136774 -7.229448 24.558059 1.121132 1.869605 0.136726 -0.033076 -70016.600000 0 1 0
-10.346878 -22.477374 -8.016748 26.010737 1.139390 1.884106 0.116427 -0.013203 -307224.000000 0 0 1
-10.894878 -22.249674 -9.275548 26.453396 1.115451 1.929048 0.106942 -0.030470 -90355.200000 0 0 1
-10.801178 -23.420674 -10.012048 27.666487 1.138683 1.941084 0.117202 -0.023554 -89263.600000 0 0 1
-11.525378 -23.323274 -11.351748 28.384355 1.111833 1.982237 0.142738 -0.029398 -120245.000000 0 0 1
-10.922778 -22.403274 -12.190948 27.745864 1.117156 2.025703 0.125541 -0.022356 439893.000000 0 0 1
-11.848078 -22.147974 -13.262948 28.404497 1.079581 2.056614 0.133894 -0.030957 95609.400000 0 0 1
-11.370678 -20.957074 -14.080748 27.690408 1.073675 2.104246 0.112731 -0.023271 25590.500000 0 0 1
-11.121778 -19.821474 -13.299648 26.333731 1.059473 2.100227 0.106744 -0.026196 18118.600000 0 0 1
-10.655178 -18.669374 -13.980848 25.642590 1.052177 2.147448 0.098107 -0.014677 -103268.000000 0 0 1
-10.364378 -17.532674 -12.999048 24.161751 1.036912 2.138860 0.096684 -0.012342 -626769.000000 0 1 0
-11.428578 -17.070274 -12.221048 23.903151 0.980834 2.107462 0.109268 -0.023124 -290586.000000 0 1 0
-11.048578 -16.151274 -11.174448 22.534485 0.970843 2.089647 0.099905 -0.033740 127245.000000 0 1 0
-10.506178 -14.791574 -11.762548 21.622395 0.953203 2.145991 0.083190 -0.021021 -367014.000000 0 1 0
-11.449678 -13.957874 -12.334448 21.864491 0.883798 2.170177 0.075324 -0.020520 -609809.000000 0 1 0
-11.445478 -14.030374 -13.758348 22.740767 0.886517 2.220572 0.082511 -0.024645 -454249.000000 0 1 0
-12.720278 -13.532274 -14.433648 23.521439 0.816318 2.231456 0.082670 -0.028619 -676583.000000 0 1 0
-12.886778 -12.181474 -14.140148 22.680413 0.757270 2.243946 0.070443 -0.013583 -134438.000000 0 1 0
-13.714778 -11.532974 -15.106948 23.437672 0.699197 2.271242 0.074485 -0.023678 -193270.000000 0 1 0
-14.193178 -10.170374 -14.560048 22.734946 0.621759 2.265849 0.072569 -0.020455 -224531.000000 0 1 0
-13.284778 -9.083474 -14.476148 21.646101 0.599737 2.303342 0.057573 -0.013788 63213.100000 0 1 0
-13.212978 -8.333674 -15.721548 22.163031 0.562701 2.359385 0.057260 -0.016684 -235.416000 0 1 0
-12.145678 -7.207674 -15.601448 21.044553 0.535579 2.405881 0.040848 -0.005829 168033.000000 0 1 0
-10.844078 -7.737074 -15.563548 20.486101 0.619718 2.433667 0.035198 -0.015973 -54130.300000 0 1 0
-9.821578 -6.762274 -15.587648 19.625659 0.602974 2.488566 0.018819 0.002125 251730.000000 0 1 0
12.128222 21.919826 15.627752 29.526246 1.065424 1.013041 0.125671 -0.035083 -375934.000000 0 0 1
12.990622 22.178526 16.685152 30.643720 1.040936 0.995017 0.137528 -0.037901 -521006.000000 0 0 1
13.321022 20.896026 17.189652 30.159206 1.003265 0.964335 0.126973 -0.034133 -960271.000000 0 0 1
14.502522 20.930426 18.112352 31.248411 0.964857 0.952528 0.141596 -0.047573 563250.000000 0 0 1
15.770422 21.222526 17.429152 31.668236 0.931727 0.987993 0.134939 -0.036341 783351.000000 0 0 1
16.803822 20.808026 18.271452 32.391177 0.891460 0.971469 0.127895 -0.047562 900217.000000 0 0 1
18.246722 21.255826 17.763252 33.170561 0.861426 1.005682 0.107801 -0.035822 670098.000000 0 0 1
18.558722 22.661726 17.883252 34.318956 0.884609 1.022669 0.110331 -0.037937 528304.000000 0 0 1
19.842222 23.153726 17.498252 35.156758 0.862265 1.049827 0.109840 -0.032295 913728.000000 0 0 1
21.138222 22.639026 18.182252 35.915794 0.819667 1.039969 0.110218 -0.034188 -87467.600000 0 0 1
21.451922 21.298326 17.823152 35.092284 0.781805 1.038058 0.121237 -0.033098 -422756.000000 0 0 1
22.613722 20.927226 18.499952 35.938523 0.746684 1.030061 0.131146 -0.031421 -461039.000000 0 0 1
22.971222 19.494226 18.210252 35.203909 0.703702 1.027128 0.116561 -0.033106 -30001.100000 0 0 1
23.600622 19.323126 16.899052 34.870482 0.686073 1.064864 0.099610 -0.033314 343930.000000 0 0 1
23.511922 18.015926 16.354052 33.835471 0.653818 1.066330 0.083021 -0.020538 -35349.800000 0 0 1
24.465022 16.924026 16.918552 34.222761 0.605177 1.053692 0.087511 -0.030741 279301.000000 0 0 1
25.804122 16.955326 16.451752 34.985654 0.581335 1.081230 0.115664 -0.045824 195917.000000 0 0 1
26.400322 15.689426 16.657952 34.937408 0.536210 1.073792 0.103967 -0.030080 -626847.000000 0 0 1
27.714122 15.621326 15.846752 35.541778 0.513270 1.108659 0.194836 -0.055038 -290922.000000 0 0 1
28.654022 16.608526 16.293652 36.910422 0.525302 1.113596 0.162682 -0.051294 127003.000000 0 0 1
29.548722 16.337526 17.326752 37.950732 0.505068 1.096672 0.166021 -0.055252 32837.500000 0 0 1
30.714822 15.373326 16.901252 38.280436 0.464062 1.113514 0.150336 -0.058984 -116762.000000 0 0 1
31.620422 15.835426 15.902852 38.775154 0.464285 1.148200 0.184623 -0.047758 326702.000000 0 0 1
32.277022 14.863826 15.154452 38.631553 0.431558 1.167685 0.172559 -0.047634 423630.000000 0 0 1
31.506422 14.774626 13.803152 37.436229 0.438492 1.193174 0.157307 -0.043948 99397.800000 0 0 1
31.876122 15.813226 12.943252 37.863875 0.460510 1.221926 0.157967 -0.028144 -70271.200000 0 0 1
31.270722 15.725426 11.640652 36.887015 0.465949 1.249733 0.156324 -0.033830 75804.400000 0 0 1
29.888922 16.410626 11.653452 36.034140 0.502116 1.241476 0.136726 -0.040131 -323075.000000 0 0 1
29.902322 17.881926 11.604152 36.722861 0.538956 1.249294 0.140190 -0.034826 10116.200000 0 0 1
30.373522 18.588626 12.741152 37.820958 0.549197 1.227194 0.165355 -0.034852 -604039.000000 0 0 1
29.383322 18.609626 13.873952 37.445752 0.564574 1.191240 0.158891 -0.037724 -661944.000000 0 0 1
28.207622 19.322226 13.569352 36.785129 0.600588 1.192991 0.167900 -0.037400 522771.000000 0 0 1
27.185622 19.304226 14.584452 36.392547 0.617465 1.158457 0.137666 -0.041459 161838.000000 0 0 1
27.459722 20.019626 15.932452 37.532184 0.629960 1.132386 0.130309 -0.043804 -579290.000000 0 0 1
27.471922 21.425826 15.939952 38.312591 0.662375 1.141699 0.106104 -0.037240 65704.400000 0 0 1
26.227422 22.034726 16.217852 37.900205 0.698742 1.128618 0.096620 -0.035679 -96345.600000 0 0 1
26.177622 23.548926 15.928152 38.646162 0.732584 1.145980 0.100689 -0.027878 -156729.000000 0 0 1
25.986222 23.756326 14.576952 38.106880 0.740599 1.178265 0.119951 -0.044785 137692.000000 0 0 1
26.271822 25.111726 14.197452 39.017625 0.762825 1.198374 0.125557 -0.044865 -320926.000000 0 0 1
25.772122 25.363426 12.784852 38.353072 0.777406 1.230946 0.125794 -0.047725 1349570.000000 0 0 1
24.332722 25.422426 12.573252 37.369343 0.807296 1.227642 0.119917 -0.041806 1293680.000000 0 0 1
23.998122 25.473326 11.211652 36.749168 0.815209 1.260768 0.106763 -0.057040 98051.300000 0 0 1
23.427122 24.156826 10.571752 35.272429 0.800732 1.266400 0.119197 -0.054717 33696.300000 0 0 1
22.090522 23.828226 10.954552 34.289616 0.823223 1.245625 0.117746 -0.051750 441508.000000 0 0 1
21.691622 22.522426 10.642452 33.031015 0.804186 1.242748 0.125068 -0.044646 -97629.700000 0 0 1
21.330222 22.285726 9.147852 32.176314 0.807302 1.282516 0.139045 -0.038275 -339599.000000 0 0 1
20.130622 22.758426 8.578752 31.571869 0.846591 1.295615 0.135547 -0.038546 196450.000000 0 0 1
20.499722 23.236026 7.286852 31.831584 0.847881 1.339829 0.124064 -0.038615 1074440.000000 0 0 1
19.232122 23.616226 6.408352 31.123426 0.887360 1.363412 0.114480 -0.032751 114209.000000 0 0 1
18.652222 22.527826 5.749952 29.807219 0.879235 1.376675 0.110497 -0.021275 116213.000000 0 0 1
17.781922 22.787726 4.670152 29.279473 0.908166 1.410610 0.124769 -0.031623 -395591.000000 0 0 1
16.456022 23.506626 4.853652 29.101891 0.960031 1.403232 0.085140 -0.014479 -833648.000000 0 0 1
16.641522 24.848026 5.110652 30.339470 0.980674 1.401540 0.087024 -0.024162 -279451.000000 0 0 1
15.393222 25.391226 5.409552 30.181599 1.025800 1.390589 0.086574 -0.027635 -386677.000000 0 0 1
15.269722 26.852326 4.960852 31.286129 1.053743 1.411560 0.083900 -0.033699 -324939.000000 0 0 1
14.865122 26.796626 3.596652 30.853961 1.064322 1.453960 0.074038 -0.014510 277520.000000 0 0 1
14.783022 28.115926 3.147152 31.920959 1.086732 1.472044 0.078919 -0.020969 -154385.000000 0 0 1
14.293822 28.238626 1.690252 31.695273 1.102217 1.517443 0.080879 -0.019933 -482420.000000 0 0 1
15.259722 28.001126 0.705452 31.897019 1.071825 1.548678 0.088978 -0.023781 -470026.000000 0 0 1
15.264222 26.676026 0.193352 30.735065 1.051063 1.564505 0.077092 -0.016104 40941.900000 0 0 1
16.333022 26.514726 -0.894648 31.154433 1.018696 1.599517 0.080830 -0.023476 258695.000000 0 0 1
15.867422 26.964126 -2.166448 31.361325 1.038902 1.639932 0.078267 -0.021704 127489.000000 0 0 1
16.894722 26.785226 -3.134948 31.823071 1.008074 1.669468 0.078503 -0.020191 188565.000000 0 0 1
16.445522 27.210326 -4.557048 32.118900 1.027159 1.713157 0.092345 -0.022447 -665312.000000 0 0 1
15.540722 26.377726 -5.194848 31.052937 1.038385 1.738877 0.114229 -0.032792 -667409.000000 0 0 1
15.263722 26.927026 -6.483948 31.624161 1.055105 1.777292 0.117397 -0.036646 -25936.700000 0 0 1
13.933422 26.416726 -7.055848 30.688250 1.085433 1.802792 0.123855 -0.048150 -319790.000000 0 0 1
13.791122 25.014626 -7.284348 29.478607 1.066938 1.820489 0.142123 -0.050507 308720.000000 0 0 1
12.473222 24.763526 -7.779748 28.798229 1.104198 1.844342 0.113417 -0.043321 449285.000000 0 0 1
12.121422 23.365526 -8.286048 27.595929 1.092243 1.875765 0.131233 -0.044304 -6401.680000 0 0 1
12.815822 23.031926 -9.502348 28.018022 1.063024 1.916811 0.116897 -0.040582 5919.880000 0 0 1
12.438222 21.816326 -10.020648 27.038396 1.052627 1.950460 0.131764 -0.039616 -555868.000000 0 0 1
13.147722 21.324126 -11.235148 27.455591 1.018285 1.992386 0.122125 -0.037642 -568221.000000 0 0 1
12.877222 19.977126 -11.461348 26.386946 0.998228 2.020120 0.136982 -0.040669 -166954.000000 0 0 1
12.981922 19.645326 -12.863348 26.831602 0.986856 2.070779 0.130567 -0.035852 -671417.000000 0 0 1
14.364722 19.136726 -13.232248 27.343224 0.926888 2.075938 0.115348 -0.036626 -1331400.000000 0 0 1
15.219122 20.185926 -13.304548 28.567539 0.924774 2.055247 0.109887 -0.033528 -1495220.000000 0 0 1
16.500722 19.754026 -13.682248 29.149602 0.874893 2.059385 0.099022 -0.028294 304481.000000 0 0 1
17.523222 20.940826 -13.388548 30.411095 0.874017 2.026676 0.101271 -0.022717 51863.800000 0 0 1
17.673122 22.050826 -14.259948 31.653188 0.895158 2.038128 0.103047 -0.026473 -158201.000000 0 0 1
16.563522 22.919326 -14.284448 31.681086 0.945005 2.038550 0.100012 -0.023363 -9074.450000 0 0 1
16.894522 24.315326 -14.892548 33.142841 0.963562 2.036828 0.112349 -0.020812 236093.000000 0 0 1
17.248522 24.450626 -16.274548 34.061790 0.956427 2.068939 0.096897 -0.026137 -48614.600000 0 0 1
16.072222 24.337126 -17.044648 33.780646 0.987145 2.099678 0.066770 -0.016627 117592.000000 0 0 1
16.234722 24.277026 -18.585848 34.617538 0.981368 2.137544 0.072158 -0.018539 133920.000000 0 0 1
16.806122 23.067526 -19.077148 34.329201 0.941157 2.160015 0.065176 -0.007679 -43363.800000 0 0 1
16.833322 22.965726 -20.480148 35.074517 0.938280 2.194326 0.063213 -0.000404 60835.100000 0 0 1
17.396422 21.607426 -20.923248 34.746204 0.892945 2.217017 0.067348 0.002786 476020.000000 0 0 1
16.370522 20.571826 -20.876148 33.570933 0.898638 2.241902 0.080243 0.001747 584208.000000 0 0 1
16.828122 19.288026 -21.197348 33.234639 0.853404 2.262446 0.053664 0.000092 -202467.000000 0 0 1
15.737522 18.199026 -21.306948 32.138142 0.857804 2.295589 0.054941 0.005920 -836868.000000 0 0 1
15.310222 17.603226 -20.103548 30.796576 0.854953 2.282052 0.057312 0.000001 615838.000000 0 0 1
14.327222 16.561226 -20.250548 29.826636 0.857597 2.317117 0.058708 -0.014521 16790.700000 0 0 1
12.934322 16.974426 -20.720348 29.744926 0.919666 2.341445 0.083300 -0.024272 -1214290.000000 0 0 1
11.984422 16.681426 -19.721248 28.474971 0.947809 2.335858 0.090907 -0.026579 -107592.000000 0 0 1
10.673722 17.095126 -20.043248 28.423643 1.012649 2.353447 0.100373 -0.029099 -223973.000000 0 0 1
9.668522 16.690826 -18.988048 27.066768 1.045758 2.348333 0.109814 -0.040798 -963946.000000 0 0 1
9.331022 15.339826 -19.189448 26.279519 1.024305 2.389419 0.129497 -0.052098 4738.880000 0 0 1
8.165222 14.797226 -18.596748 25.129023 1.066566 2.403942 0.135013 -0.052234 173893.000000 0 0 1
7.868922 14.977526 -17.103348 24.057654 1.087050 2.361618 0.141619 -0.059400 -135043.000000 0 1 0
7.579222 16.352526 -16.799448 24.638814 1.136781 2.321056 0.142864 -0.052649 -260693.000000 0 1 0
6.827622 16.536326 -15.628948 23.755642 1.179231 2.288829 0.135189 -0.052851 -390654.000000 0 1 0
6.545222 17.967626 -15.190248 24.421694 1.221458 2.242088 0.129702 -0.041082 -952943.000000 0 1 0
7.572222 18.790826 -14.768048 25.070479 1.187728 2.200693 0.120862 -0.043045 -635472.000000 0 0 1
8.261822 19.305926 -15.930648 26.358339 1.166436 2.219793 0.137938 -0.032423 -145970.000000 0 0 1
9.546122 20.138826 -15.723248 27.274920 1.128151 2.185202 0.102796 -0.010629 -87468.600000 0 0 1
9.533322 21.370126 -15.054348 27.824448 1.151186 2.142478 0.105418 -0.016718 -190909.000000 0 0 1
9.345422 21.219626 -13.654648 26.908342 1.155943 2.103020 0.106551 -0.032874 -168814.000000 0 0 1
8.785522 22.499826 -12.958348 27.410698 1.198532 2.063203 0.099217 -0.029888 337719.000000 0 0 1
7.400122 22.744726 -13.286348 27.360764 1.256243 2.077844 0.096456 -0.027822 735132.000000 0 0 1
6.930922 23.906526 -12.590548 27.894113 1.288615 2.039096 0.079066 -0.029530 -95936.500000 0 0 1
6.337022 23.618426 -11.244248 26.915070 1.308662 2.001783 0.070110 -0.027366 -569367.000000 0 0 1
7.333222 23.280426 -10.304248 26.493998 1.265640 1.970264 0.060175 -0.026359 332205.000000 0 0 1
6.702022 22.882526 -9.070348 25.510749 1.285877 1.934299 0.064285 -0.033973 301660.000000 0 0 1
7.733822 22.694126 -7.945748 25.258073 1.242354 1.890813 0.069102 -0.033615 -94368.600000 0 0 1
8.076222 23.938626 -7.404548 26.326992 1.245415 1.855896 0.063480 -0.026949 216714.000000 0 0 1
8.939422 23.718426 -6.298748 26.118025 1.210363 1.814362 0.072598 -0.030142 -202156.000000 0 0 1
9.170422 25.075826 -5.633748 27.287961 1.220197 1.778747 0.055721 -0.027287 -122909.000000 0 0 1
9.836522 26.028426 -6.419948 28.556118 1.209473 1.797553 0.066508 -0.034244 -87954.400000 0 0 1
9.980522 27.234226 -5.730448 29.566060 1.219525 1.765849 0.067910 -0.032867 155768.000000 0 0 1
10.409322 28.483826 -6.531448 31.021640 1.220427 1.782929 0.068571 -0.026815 1273090.000000 0 0 1
11.680822 28.380126 -7.234648 31.531148 1.180343 1.802303 0.083156 -0.030176 748564.000000 0 0 1
11.975522 29.642626 -7.797948 32.907543 1.186849 1.810037 0.087972 -0.029694 490951.000000 0 0 1
13.361422 29.704826 -8.541748 33.672923 1.148103 1.827267 0.101428 -0.032039 631144.000000 0 0 1
14.419722 29.885026 -7.644148 34.051082 1.121241 1.797217 0.090242 -0.028901 -297092.000000 0 0 1
15.590222 30.297826 -8.346048 35.080904 1.095564 1.811008 0.096312 -0.027259 410182.000000 0 0 1
16.819122 30.704826 -7.515948 35.807244 1.069668 1.782269 0.092808 -0.029758 -23152.600000 0 0 1
17.528422 29.602826 -6.969948 35.102038 1.036191 1.770687 0.087046 -0.033740 -121342.000000 0 0 1
18.678722 30.129426 -6.328548 36.010103 1.015837 1.747457 0.069781 -0.022223 11747.700000 0 0 1
19.685322 29.056326 -5.874648 35.585018 0.975339 1.736643 0.067392 -0.021800 -436552.000000 0 0 1
19.344022 28.216326 -4.814648 34.547548 0.969827 1.710614 0.080345 -0.025320 -132439.000000 0 0 1
20.335222 27.212226 -4.576448 34.277841 0.929037 1.704707 0.072048 -0.020416 -32474.200000 0 0 1
20.454022 25.994726 -5.544248 33.538508 0.904124 1.736869 0.078462 -0.010040 -8090.290000 0 0 1
21.190422 26.435526 -6.687748 34.533998 0.895087 1.765685 0.072544 -0.013669 426658.000000 0 0 1
21.135322 25.388026 -7.641248 33.906377 0.876555 1.798112 0.075952 -0.018771 -409061.000000 0 0 1
21.727022 25.825726 -9.072748 34.947766 0.871378 1.833413 0.083999 -0.026318 -257739.000000 0 0 1
23.104622 25.973126 -9.133248 35.942218 0.843780 1.827723 0.053032 -0.019098 -343860.000000 0 0 1
23.867022 24.759726 -9.191548 35.597238 0.803754 1.831965 0.055567 -0.015258 -674237.000000 0 0 1
25.377522 24.930226 -9.126948 36.726502 0.776507 1.821939 0.007482 -0.001381 -166491.000000 0 0 1
26.001422 25.371726 -10.358948 37.777060 0.773141 1.848567 0.022775 -0.005130 381213.000000 0 0 1
27.416222 25.389926 -10.271948 38.753200 0.747045 1.839063 0.020998 0.006627 430588.000000 0 0 1
28.145122 25.511126 -11.638748 39.729409 0.736347 1.868108 0.039145 -0.001101 134728.000000 0 0 1
28.043722 26.799926 -12.203048 40.664490 0.762723 1.875584 0.049777 -0.000040 15786.600000 0 0 1
28.908722 26.775026 -13.337548 41.599356 0.747099 1.897179 0.055668 -0.000893 289639.000000 0 0 1
28.772322 27.792126 -14.438948 42.529190 0.768071 1.917189 0.067441 -0.010807 -169866.000000 0 0 1
29.313122 29.005426 -14.043748 43.563755 0.780122 1.899031 0.067273 -0.011570 21715.600000 0 0 1
29.346122 29.913926 -15.105248 44.544431 0.794979 1.916762 0.080768 -0.008998 -276130.000000 0 0 1
29.738622 31.339726 -14.698948 45.635766 0.811606 1.898736 0.071463 -0.011954 49833.000000 0 0 1
31.133122 31.524626 -14.567548 46.639970 0.791646 1.888452 0.067814 -0.011029 -155477.000000 0 0 1
31.475122 32.880026 -14.460948 47.758753 0.807225 1.878417 0.071159 -0.016362 -200142.000000 0 0 1
16.792022 -31.558224 -27.341344 45.004918 -1.081802 2.223730 0.142731 -0.043850 -53951.200000 0 0 1
18.040022 -32.192724 -27.137014 45.806456 -1.060022 2.204865 0.106034 -0.026336 113346.000000 0 0 1
18.612022 -31.696724 -25.968764 45.005182 -1.039849 2.185868 0.094458 -0.026776 304710.000000 0 0 1
19.916722 -32.476924 -25.592404 45.895507 -1.020686 2.162316 0.023687 -0.019907 974816.000000 0 0 1
21.162022 -32.214024 -26.237664 46.626061 -0.989572 2.168475 0.023581 -0.011929 776564.000000 0 0 1
21.399122 -32.823924 -27.479694 47.858813 -0.993061 2.182402 0.039955 -0.007957 -876436.000000 0 0 1
22.815222 -32.471824 -27.896634 48.509545 -0.958317 2.183492 0.040543 0.002507 -676570.000000 0 0 1
22.952522 -31.152624 -28.433134 48.018198 -0.935812 2.204499 0.038914 -0.012089 62284.700000 0 0 1
24.113522 -30.510624 -27.949654 47.890952 -0.901978 2.193964 0.008784 -0.002430 -285576.000000 0 0 1
24.555722 -29.224924 -28.738694 47.780668 -0.872000 2.216138 -0.002513 0.002128 142843.000000 0 0 1
25.060122 -29.593224 -30.030754 49.047067 -0.868152 2.229743 0.010076 -0.007351 30085.800000 0 0 1
25.438522 -28.474424 -30.863974 49.096804 -0.841650 2.250593 0.023982 -0.025779 253033.000000 0 0 1
25.908422 -28.737024 -32.322844 50.416556 -0.837115 2.266747 0.038854 -0.002637 707443.000000 0 0 1
27.130222 -29.485424 -32.377224 51.514307 -0.826974 2.250432 0.064427 -0.020866 361066.000000 0 0 1
27.281122 -30.158024 -33.581644 52.739860 -0.835442 2.261061 0.058030 -0.020343 -381366.000000 0 0 1
28.646622 -30.819224 -33.671854 53.891069 -0.821917 2.245689 0.060278 -0.021561 -185921.000000 0 0 1
29.731422 -29.990424 33.598252 53.965040 -0.789735 0.898745 0.082362 -0.032789 -167044.000000 0 0 1
30.985722 -30.617124 33.545132 54.979989 -0.779415 0.914567 0.091903 -0.022235 1484160.000000 0 0 1
32.296222 -29.702324 33.618332 55.276272 -0.743585 0.917021 0.097225 -0.031087 1310050.000000 0 0 1
32.484222 -28.908824 32.417112 54.238491 -0.727226 0.930196 0.081352 -0.019804 -9942.540000 0 0 1
33.695222 -28.186624 32.365921 54.565618 -0.696614 0.935823 0.089914 -0.025928 6446.010000 0 0 1
33.884922 -27.619824 30.932972 53.552698 -0.683885 0.954989 0.092194 -0.032442 -129964.000000 0 0 1
35.037722 -26.830324 30.674852 53.744347 -0.653509 0.963371 0.080592 -0.034426 335188.000000 0 0 1
35.164522 -26.114224 29.444402 52.777544 -0.638768 0.978947 0.105875 -0.032016 -457431.000000 0 0 1
35.642222 -26.934424 28.187102 52.823706 -0.647132 1.007936 0.096084 -0.028513 17483.900000 0 0 1
34.711422 -27.719824 27.451502 52.219311 -0.673874 1.017263 0.077299 -0.042808 661253.000000 0 0 1
33.509422 -27.143524 26.957182 50.856091 -0.680825 1.012116 0.094137 -0.044853 85234.000000 0 0 1
32.712322 -28.149824 26.130812 50.451244 -0.710574 1.026353 0.090560 -0.034748 -1109280.000000 0 0 1
31.600422 -27.664124 25.489082 49.128238 -0.719076 1.025317 0.095872 -0.024248 -857546.000000 0 0 1
30.911022 -28.799624 25.008242 49.095029 -0.750052 1.036327 0.073004 -0.011700 -344760.000000 0 0 1
29.533922 -28.483524 24.411282 47.743842 -0.767295 1.034103 0.076055 -0.005522 -275567.000000 0 0 1
28.524622 -28.301324 25.394682 47.534292 -0.781469 1.007189 0.079241 -0.009452 161937.000000 0 0 1
27.312722 -28.048724 24.677672 46.278540 -0.798692 1.008368 0.083228 -0.000631 -397114.000000 0 0 1
26.152522 -27.844524 25.608152 45.989666 -0.816723 0.980239 0.087173 -0.003731 -836293.000000 0 0 1
26.230322 -26.661424 26.326022 45.737521 -0.793549 0.957472 0.069645 -0.008210 -557665.000000 0 0 1
25.198022 -26.671924 27.232052 45.693725 -0.813806 0.932324 0.073648 -0.020011 -575873.000000 0 0 1
25.264122 -25.390624 28.107242 45.529954 -0.787895 0.905445 0.068971 -0.009925 -171131.000000 0 0 1
24.246822 -25.529924 29.085382 45.668861 -0.811170 0.880357 0.083896 -0.016630 278845.000000 0 0 1
24.171722 -24.337524 29.851652 45.472062 -0.788816 0.854649 0.088227 -0.023585 -566969.000000 0 0 1
23.407522 -23.085824 29.275832 44.022060 -0.778479 0.843267 0.077833 -0.014313 -316437.000000 0 0 1
24.051022 -22.460524 28.165772 43.315558 -0.751216 0.862888 0.070492 -0.008723 247000.000000 0 0 1
23.652222 -21.097224 28.003102 42.292957 -0.728364 0.847149 0.077790 -0.005491 276708.000000 0 0 1
24.435422 -20.037424 28.903312 42.825106 -0.686827 0.829947 0.076628 -0.004029 331906.000000 0 0 1
24.175922 -20.090524 30.324162 43.676758 -0.693368 0.803369 0.083248 -0.008292 159268.000000 0 0 1
24.910722 -19.069824 30.974262 44.086361 -0.653364 0.791778 0.071171 -0.012067 180194.000000 0 0 1
24.269722 -18.719124 32.396236 44.597546 -0.656991 0.757708 0.084883 -0.008514 191060.000000 0 0 1
24.523622 -19.647024 33.395123 45.854638 -0.675440 0.754984 0.072944 -0.007563 -197684.000000 0 0 1
23.636122 -19.457524 -33.144854 45.120315 -0.688735 2.395856 0.083658 -0.018872 -446650.000000 0 0 1
23.796922 -20.545824 -32.116854 44.943483 -0.712212 2.366856 0.066375 -0.016035 77494.700000 0 0 1
25.045922 -20.518024 -31.468874 45.150610 -0.686349 2.341968 0.055050 -0.022471 -144721.000000 0 0 1
24.925922 -21.458324 -30.448734 44.820605 -0.710779 2.317668 0.047131 -0.024914 -58457.500000 0 0 1
26.178822 -21.653224 -29.586914 45.050842 -0.691065 2.287291 0.039641 -0.008719 -341989.000000 0 0 1
27.287922 -22.203624 -30.242054 46.391955 -0.683027 2.280859 0.042561 -0.011999 -595776.000000 0 0 1
28.075722 -22.884324 -29.289654 46.581351 -0.683876 2.250786 0.039987 -0.009303 336894.000000 0 0 1
29.236922 -23.727624 -29.959484 48.118276 -0.681752 2.242885 0.044515 -0.008678 770970.000000 0 0 1
30.079222 -22.905724 -30.798304 48.764406 -0.650829 2.254377 0.055464 -0.007928 404933.000000 0 0 1
29.766722 -22.965824 -32.200554 49.501136 -0.657137 2.279041 0.058323 -0.012172 5102.250000 0 0 1
30.178522 -24.328224 -32.907774 50.848080 -0.678476 2.274674 0.058147 -0.024903 -12636.100000 0 0 1
29.344122 -25.392024 -32.488544 50.609662 -0.713321 2.267827 0.064931 -0.029370 93675.300000 0 0 1
29.471722 -26.634524 -33.154544 51.741705 -0.734873 2.266297 0.075853 -0.033249 -8842.660000 0 0 1
29.013822 -26.845924 32.955755 51.464428 -0.746608 0.875830 0.073041 -0.025746 -219364.000000 0 0 1
29.876022 -26.194424 32.090593 51.073777 -0.719832 0.891407 0.064595 -0.024777 -300758.000000 0 0 1
29.477322 -26.399824 30.762162 50.121591 -0.730378 0.909994 0.062846 -0.026406 -343132.000000 0 0 1
30.503022 -25.901024 29.711472 49.840435 -0.703989 0.932122 0.074906 -0.031148 2333.550000 0 0 1
30.786122 -24.523724 29.483022 49.177708 -0.672654 0.927895 0.062208 -0.033011 364797.000000 0 0 1
31.320722 -23.862924 30.649752 49.898237 -0.651067 0.909367 0.058165 -0.021663 -1650600.000000 0 0 1
31.752822 -22.383124 30.420342 49.342104 -0.614019 0.906483 0.060682 -0.012993 1025530.000000 0 0 1
33.070322 -22.160324 29.896832 49.785005 -0.590374 0.926647 0.096191 -0.029790 939521.000000 0 0 1
34.125722 -22.724524 30.653062 51.191592 -0.587476 0.928806 0.084432 -0.029182 -443816.000000 0 0 1
35.539022 -22.057624 30.516072 51.776361 -0.555472 0.940502 0.084188 -0.039989 534107.000000 0 0 1
36.102622 -22.350224 29.234592 51.551850 -0.554327 0.967827 0.096047 -0.050286 447552.000000 0 0 1
37.466922 -21.935024 29.350022 52.405528 -0.529653 0.976343 0.080829 -0.050378 451664.000000 0 0 1
-37.273210 -21.985224 28.001132 51.543241 0.532915 0.996487 0.087717 -0.048652 -225487.000000 0 0 1
-36.978210 -23.318424 27.638202 51.720471 0.562615 1.007026 0.082263 -0.037815 141071.000000 0 0 1
-36.466610 -23.330824 26.305122 50.656692 0.569161 1.024785 0.060936 -0.019317 -42156.200000 0 0 1
-36.252210 -24.780324 25.854582 50.958283 0.599603 1.038669 0.063727 -0.029213 -334045.000000 0 0 1
-37.473110 -25.476024 25.750702 52.118715 0.597073 1.054022 0.074058 -0.026876 -416761.000000 0 0 1
-37.379810 -26.882824 25.368562 52.569006 0.623483 1.067202 0.067698 -0.016965 -50363.100000 0 0 1
-36.647310 -27.948024 26.238922 53.033936 0.651530 1.053241 0.066405 -0.023925 -612344.000000 0 0 1
-36.615210 -29.251524 25.719872 53.458742 0.674064 1.068869 0.069420 -0.023097 569307.000000 0 0 1
-35.529710 -29.999724 26.249282 53.398207 0.701208 1.056898 0.070741 -0.035425 521368.000000 0 0 1
-34.043910 -29.641024 26.061532 52.122755 0.716373 1.047194 0.075418 -0.030666 -580977.000000 0 0 1
-33.574210 -29.748324 24.737462 51.226286 0.725053 1.066826 0.066634 -0.027982 -894469.000000 0 0 1
-32.364010 -29.120024 24.558082 49.985041 0.732686 1.057205 0.048898 -0.024873 -1006420.000000 0 0 1
-31.861410 -29.044124 23.113492 48.917728 0.739174 1.078674 0.049402 -0.024299 -147259.000000 0 0 1
-31.669810 -30.400524 22.574432 49.363688 0.764952 1.095830 0.059361 -0.024913 311056.000000 0 0 1
-31.190010 -30.333724 21.279552 48.433159 0.771481 1.115911 0.052665 -0.020723 -616100.000000 0 0 1
-31.042010 -31.699724 20.593952 48.914106 0.795881 1.136224 0.063432 -0.018716 85087.900000 0 0 1
-30.003110 -32.509224 21.097352 49.011575 0.825467 1.125798 0.066579 -0.026498 529489.000000 0 0 1
-28.716710 -32.273924 20.512852 47.822931 0.843656 1.127485 0.075956 -0.022649 6125.080000 0 0 1
-27.821210 -33.497524 20.513452 48.134245 0.877706 1.130540 0.070931 -0.013015 -687602.000000 0 0 1
-27.907910 33.207026 19.494852 47.556359 -0.871889 1.148417 0.062619 -0.009581 529674.000000 0 0 1
-29.042410 32.307326 19.466652 47.604364 -0.838566 1.149520 0.070826 -0.014206 711384.000000 0 0 1
-29.116210 31.239526 20.569452 47.400042 -0.820564 1.121919 0.077988 -0.013278 -355652.000000 0 0 1
-28.116710 30.277026 20.464952 46.109239 -0.822377 1.110921 0.076225 -0.014686 -431327.000000 0 0 1
-28.097310 29.379826 21.576352 46.023602 -0.807708 1.082853 0.083674 -0.017239 -555497.000000 0 0 1
-27.249410 28.155226 21.354952 44.623772 -0.801746 1.071787 0.074223 -0.022139 474995.000000 0 0 1
-25.877410 28.581826 21.347552 44.071296 -0.835017 1.065134 0.057967 -0.012996 664737.000000 0 0 1
-24.944510 27.628026 20.864052 42.671361 -0.836398 1.059914 0.057294 -0.020258 1017810.000000 0 0 1
-23.444810 28.073626 20.997352 42.174357 -0.875005 1.049655 0.044456 -0.012437 648329.000000 0 0 1
-22.941810 28.023226 22.317652 42.540633 -0.884774 1.018528 0.054096 -0.010074 207816.000000 0 0 1
-21.650910 28.609826 22.316352 42.252853 -0.922980 1.014362 0.079639 -0.010631 97260.900000 0 0 1
-21.072610 28.700026 23.760722 42.805587 -0.937460 0.982332 0.066753 -0.000511 -425702.000000 0 0 1
-20.826610 27.390526 24.303792 42.126748 -0.920699 0.955843 0.081434 -0.016970 209848.000000 0 0 1
-20.615810 27.384826 25.691262 42.836681 -0.925494 0.927609 0.084076 -0.020120 72985.600000 0 0 1
-19.270710 27.894426 26.284182 42.898922 -0.966241 0.911324 0.097874 -0.016923 -304201.000000 0 0 1
-18.813610 29.218526 26.056702 43.435307 -0.998726 0.927424 0.078277 -0.011559 612141.000000 0 0 1
-17.475110 29.412126 26.521292 43.287776 -1.034692 0.911357 0.079968 -0.011887 386453.000000 0 0 1
-17.293310 29.690326 28.010382 44.330075 -1.043377 0.886846 0.072454 -0.008606 -503244.000000 0 0 1
-17.423410 28.485726 28.673132 44.013183 -1.021852 0.861280 0.073905 -0.015633 136673.000000 0 0 1
-17.412610 28.648526 30.093832 45.050813 -1.024660 0.839282 0.059914 -0.007042 -158061.000000 0 0 1
-17.144710 27.363826 30.860702 44.666576 -1.011086 0.808046 0.051969 -0.009207 -62885.100000 0 0 1
-15.751810 27.113526 30.979342 44.079275 -1.044496 0.791457 0.058245 -0.002994 365767.000000 0 0 1
-15.395110 26.199626 31.999309 44.129192 -1.039538 0.759576 0.066086 -0.005123 -246307.000000 0 0 1
-15.873310 26.367226 33.470904 45.469704 -1.028901 0.743485 0.072430 0.000387 -768427.000000 0 0 1
-17.207910 26.044026 33.698302 45.934508 -0.986919 0.747168 0.081562 -0.006151 -664273.000000 0 0 1
-17.717210 26.657126 -32.698954 45.757223 -0.984203 2.366875 0.082117 -0.005589 2831.650000 0 0 1
-19.046510 26.058326 -32.208194 45.597957 -0.939620 2.355127 0.063259 -0.004144 74058.500000 0 0 1
-20.065710 26.136626 -33.208044 46.781728 -0.916048 2.360083 0.053187 -0.004626 137541.000000 0 0 1
-21.252710 25.605826 -32.632614 46.607119 -0.878031 2.346423 0.067134 -0.008644 -167515.000000 0 0 1
-22.466910 25.652326 -33.576694 47.856016 -0.851500 2.348464 0.100139 -0.019618 -272904.000000 0 0 1
-22.486110 24.888426 32.844855 46.945111 -0.836064 0.795897 0.096990 -0.015705 -73383.200000 0 0 1
-22.568510 23.479226 33.060405 46.406919 -0.805173 0.777881 0.090736 -0.020677 -302289.000000 0 0 1
-23.111610 22.641726 31.878355 45.420522 -0.775129 0.792806 0.088410 -0.018855 121101.000000 0 0 1
-24.525010 22.607026 31.783561 46.073295 -0.744727 0.809518 0.095602 -0.027280 95409.000000 0 0 1
-24.928510 22.365826 30.437282 45.255816 -0.731265 0.833133 0.100056 -0.024433 469768.000000 0 0 1
-26.413510 22.088326 30.075062 45.717360 -0.696458 0.852839 0.090830 -0.018106 491694.000000 0 0 1
-26.751410 20.739526 30.463902 45.539161 -0.659478 0.837987 0.098979 -0.029922 -200105.000000 0 0 1
-28.083510 20.414126 30.179222 46.002234 -0.628558 0.855239 0.094191 -0.031483 -547788.000000 0 0 1
-28.522910 19.062626 30.693192 46.032729 -0.589151 0.840931 0.116910 -0.041105 -432388.000000 0 0 1
-29.174610 19.082926 31.950500 47.287952 -0.579248 0.828939 0.116012 -0.032865 -5430.370000 0 0 1
-29.431710 17.895826 32.623641 47.442471 -0.546315 0.812554 0.102622 -0.019959 -15012.500000 0 0 1
-30.387110 16.829126 32.022608 47.244506 -0.505775 0.826022 0.079281 -0.026738 90713.200000 0 0 1
-31.736010 17.251526 31.890258 48.184832 -0.497912 0.847537 0.082513 -0.028931 115186.000000 0 0 1
-32.514110 16.168026 31.426332 48.022773 -0.461455 0.857401 0.086746 -0.021123 -167392.000000 0 0 1
-34.015810 16.488226 31.386712 49.133111 -0.451351 0.877846 0.087817 -0.016305 -157024.000000 0 0 1
-34.575910 16.935826 32.618237 50.460531 -0.455467 0.867925 0.082158 -0.017095 -104051.000000 0 0 1
-35.957510 16.761726 32.701685 51.413016 -0.436206 0.881417 0.107203 -0.020994 -367936.000000 0 0 1
-36.631910 17.446826 -33.640914 52.706732 -0.444487 2.263040 0.094770 -0.009149 290544.000000 0 0 1
37.455722 17.512226 -33.751184 53.373698 0.437348 2.255387 0.091945 -0.021135 159770.000000 0 0 1
36.924522 17.958026 -32.511014 52.372484 0.452663 2.240515 0.074347 -0.030642 13601.500000 0 0 1
35.395022 18.024626 -32.427864 51.276321 0.471014 2.255462 0.082992 -0.033584 282480.000000 0 0 1
34.618722 16.811426 -32.378744 50.293767 0.452075 2.270240 0.084271 -0.026236 -299169.000000 0 0 1
33.598222 16.859826 -31.477074 49.029588 0.465092 2.267902 0.076269 -0.037703 -1158570.000000 0 0 1
32.614522 15.676526 -31.520584 47.989663 0.448057 2.287390 0.079399 -0.036062 -16050.600000 0 0 1
31.938722 15.549526 -32.767384 48.327748 0.453076 2.315868 0.093482 -0.037670 160863.000000 0 0 1
31.181622 14.355526 -32.908294 47.553449 0.431456 2.335090 0.088792 -0.039110 325407.000000 0 0 1
31.971922 13.076526 -33.443874 48.080059 0.388241 2.340033 0.084365 -0.025248 1574830.000000 0 0 1
33.053822 12.612526 -32.559204 48.080482 0.364523 2.314721 0.087015 -0.019892 1268030.000000 0 0 1
33.697122 11.431826 -32.989434 48.523040 0.327068 2.318384 0.093226 -0.019375 -170281.000000 0 0 1
18.039422 -20.688074 10.027546 29.222745 -0.853684 1.220537 0.052931 -0.011249 -47815.700000 0 0 1
17.873222 -22.077474 10.368746 30.238681 -0.890248 1.220797 0.052399 -0.012501 -46994.700000 0 0 1
19.090422 -22.780874 10.405146 31.490943 -0.873309 1.234051 0.033572 -0.020161 -338802.000000 0 0 1
19.001722 -24.173674 11.182046 32.718039 -0.904619 1.221997 0.029424 -0.010568 236553.000000 0 0 1
18.228322 -25.253414 10.626946 32.908033 -0.945578 1.241974 0.037424 -0.008145 800311.000000 0 0 1
16.823422 -25.235654 10.899146 32.228204 -0.982803 1.225807 0.035571 -0.008449 262409.000000 0 0 1
16.092822 -26.262444 10.084646 32.409797 -1.021040 1.254383 0.073152 -0.020269 -405876.000000 0 0 1
15.650422 -25.709124 8.859146 31.374818 -1.023968 1.284538 0.080408 -0.022888 282840.000000 0 0 1
14.946922 -26.592924 8.010046 31.539736 -1.058738 1.314017 0.099548 -0.024564 -83112.400000 0 0 1
14.824722 -25.859174 6.654846 30.541058 -1.050251 1.351136 0.101098 -0.023345 -433664.000000 0 0 1
13.933122 -24.781474 6.688846 29.206061 -1.058605 1.339723 0.105518 -0.023809 -89129.800000 0 0 1
13.726722 -24.105574 5.492946 28.278509 -1.053149 1.375309 0.120732 -0.017806 -9067.040000 0 0 1
12.822922 -22.897874 5.803346 26.877849 -1.060304 1.353167 0.128220 -0.018907 -229011.000000 0 0 1
12.283222 -22.138574 4.751046 25.759783 -1.064250 1.385298 0.120532 -0.021493 -154703.000000 0 0 1
11.517122 -21.052774 5.212546 24.556751 -1.070213 1.356904 0.122373 -0.019933 -376009.000000 0 1 0
10.627922 -20.548174 4.088246 23.492423 -1.093468 1.395882 0.090756 -0.017398 -89777.100000 0 1 0
11.330722 -20.030374 2.940046 23.200108 -1.055997 1.443729 0.083819 -0.016578 -123755.000000 0 1 0
10.423622 -19.496074 2.033046 22.200948 -1.079813 1.479093 0.039415 0.000301 -243389.000000 0 1 0
11.073122 -19.055174 0.729646 22.050988 -1.044384 1.537701 0.045396 0.000517 19329.400000 0 1 0
11.884422 -17.898774 0.821746 21.500718 -0.984656 1.532568 0.037395 -0.000596 10322.500000 0 1 0
12.709522 -17.817274 -0.320954 21.888130 -0.951183 1.585460 0.043460 -0.005606 -89802.500000 0 1 0
13.866222 -16.782174 -0.195754 21.770434 -0.880255 1.579788 0.033535 0.002619 686044.000000 0 1 0
14.826322 -17.322974 0.781746 22.814828 -0.862901 1.536525 0.050291 -0.011151 -329851.000000 0 1 0
15.970522 -16.570474 0.662346 23.023399 -0.803833 1.542024 0.054457 -0.020795 -1091040.000000 0 1 0
17.151322 -17.047774 1.497646 24.228855 -0.782370 1.508944 0.045400 -0.016574 -215594.000000 0 1 0
17.830722 -18.195374 0.978046 25.494369 -0.795520 1.532424 0.061097 -0.011414 -154967.000000 0 0 1
18.872922 -18.589474 1.815246 26.552794 -0.777832 1.502379 0.060237 -0.008996 74939.900000 0 0 1
19.688822 -19.797874 1.254246 27.949574 -0.788160 1.525906 0.037170 -0.011958 387333.000000 0 0 1
18.845222 -20.928774 1.155546 28.186721 -0.837735 1.529789 0.051690 -0.005388 494968.000000 0 0 1
19.388322 -21.843374 0.208446 29.207593 -0.844871 1.563660 0.067759 -0.017721 338102.000000 0 0 1
18.509622 -23.121374 0.286546 29.619017 -0.895725 1.561122 0.082056 -0.015175 330688.000000 0 0 1
18.529022 -23.789174 1.550146 30.193582 -0.909064 1.519433 0.061613 -0.007308 -204727.000000 0 0 1
17.442422 -24.665774 1.618446 30.253229 -0.955287 1.517274 0.083164 -0.010613 -441230.000000 0 0 1
17.375522 -25.620764 2.859546 31.088733 -0.974864 1.478686 0.085340 -0.011510 671012.000000 0 0 1
18.365122 -26.666074 2.917846 32.509553 -0.967690 1.480922 0.076418 -0.020393 1032490.000000 0 0 1
19.658922 -26.244294 3.369746 32.963485 -0.927888 1.468391 0.073493 -0.009825 230521.000000 0 0 1
20.710422 -27.328394 3.547546 34.472421 -0.922299 1.467704 0.072522 -0.008536 -111962.000000 0 0 1
21.166722 -27.852064 2.271746 35.056075 -0.920945 1.505948 0.068526 -0.008779 315486.000000 0 0 1
22.267722 -28.767174 2.364046 36.455321 -0.912069 1.505903 0.071716 -0.007304 476639.000000 0 0 1
21.912122 -30.233584 2.799446 37.443926 -0.943645 1.495963 0.075108 -0.012980 -42265.500000 0 0 1
21.644922 -30.366224 4.198946 37.526542 -0.951534 1.458669 0.090670 -0.016190 -303840.000000 0 0 1
20.955322 -31.565414 4.391646 38.141676 -0.984733 1.455400 0.086824 -0.031757 -475411.000000 0 0 1
20.843922 -31.890894 5.882546 38.550001 -0.991894 1.417603 0.100570 -0.037299 -233173.000000 0 0 1
22.002822 -32.308774 6.548946 39.634199 -0.972925 1.404800 0.080589 -0.048706 -180955.000000 0 0 1
21.592422 -33.159084 7.587746 40.290587 -0.993594 1.381339 0.074170 -0.045151 668673.000000 0 0 1
22.738422 33.558691 8.073346 41.332802 0.975282 1.374207 0.091536 -0.054332 1071490.000000 0 0 1
23.612722 -33.475344 9.020946 41.946833 -0.956471 1.354046 0.090690 -0.044250 1061270.000000 0 0 1
24.838122 33.471216 9.188346 42.681147 0.932387 1.353819 0.120593 -0.050712 763760.000000 0 0 1
25.902622 -33.596044 10.127346 43.614254 -0.913989 1.336455 0.115521 -0.041288 -315856.000000 0 0 1
26.491122 -32.505194 9.513146 42.998455 -0.886987 1.347707 0.091646 -0.034343 9185.570000 0 0 1
27.218222 -31.587864 10.339246 42.959571 -0.859568 1.327736 0.085303 -0.031735 355948.000000 0 0 1
27.841322 -30.418704 9.544646 42.326552 -0.829609 1.343340 0.078629 -0.031568 -555033.000000 0 0 1
26.876022 -29.629064 8.955246 40.992663 -0.834082 1.350561 0.068670 -0.024868 -161796.000000 0 0 1
27.509122 -28.850994 7.957246 40.650331 -0.809203 1.373776 0.063055 -0.019619 106004.000000 0 0 1
26.962322 -27.426264 7.838846 39.250660 -0.793928 1.369732 0.058666 -0.020543 -266609.000000 0 0 1
27.415622 -26.638764 8.920346 39.253187 -0.771027 1.341542 0.075575 -0.022527 140933.000000 0 0 1
26.897722 -25.330524 8.855646 37.994018 -0.755400 1.335553 0.070984 -0.023826 -114358.000000 0 0 1
27.749822 -24.429374 9.735746 38.231292 -0.721848 1.313307 0.088214 -0.041384 516371.000000 0 0 1
29.055822 -24.172074 9.233046 38.907314 -0.693903 1.331202 0.104618 -0.040504 -115539.000000 0 0 1
29.855222 -23.462374 10.132546 39.299946 -0.666067 1.310025 0.086083 -0.042203 -388430.000000 0 0 1
31.271022 -23.223774 9.624046 40.122846 -0.638788 1.328570 0.095983 -0.032483 -300353.000000 0 0 1
31.328722 -22.393374 8.559846 39.448992 -0.620582 1.352071 0.095889 -0.023126 -177282.000000 0 0 1
32.630622 -22.301874 8.011946 40.327687 -0.599542 1.370795 0.085176 -0.023758 20583.500000 0 0 1
32.623022 -21.433074 6.754546 39.613913 -0.581275 1.399450 0.074918 -0.003021 -198926.000000 0 0 1
32.268522 -20.113174 7.057546 38.673069 -0.557380 1.387275 0.069382 0.002534 -20865.600000 0 0 1
32.639022 -19.228774 5.981746 38.351438 -0.532392 1.414185 0.064695 0.000371 165763.000000 0 0 1
32.099022 -17.837174 6.230746 37.246935 -0.507203 1.402724 0.079474 0.001711 -303535.000000 0 0 1
32.751622 -17.334274 7.327146 37.773441 -0.486784 1.375583 0.078992 -0.002838 -158579.000000 0 0 1
32.514222 -15.931674 7.511146 36.978510 -0.455608 1.366251 0.089518 -0.006196 -10648.700000 0 0 1
33.329122 -15.419974 8.725846 37.745813 -0.433330 1.337512 0.089692 -0.031119 443922.000000 0 0 1
34.733822 -15.473674 8.496946 38.962432 -0.419100 1.350949 0.092462 -0.031277 102310.000000 0 0 1
35.394622 -14.833674 9.573046 39.553260 -0.396858 1.326340 0.088618 -0.043063 -79896.400000 0 0 1
36.919622 -14.810574 9.372146 40.868677 -0.381504 1.339414 0.102092 -0.052888 -200744.000000 0 0 1
37.454622 -13.844674 8.549146 40.836401 -0.354062 1.359885 0.143845 -0.045390 -981209.000000 0 0 1
-36.671610 -13.873274 8.402046 40.098243 0.361670 1.359695 0.155307 -0.041141 -824439.000000 0 0 1
-35.981610 -12.723174 7.748446 38.943469 0.339880 1.370493 0.175188 -0.054724 -611484.000000 0 0 1
-36.339210 -12.473074 6.368646 38.944517 0.330640 1.406527 0.197017 -0.070884 892151.000000 0 0 1
-35.274510 -11.758874 5.685646 37.615007 0.321769 1.419061 0.214955 -0.055506 994440.000000 0 0 1
-34.104410 -12.625974 5.165346 36.731550 0.354569 1.429704 0.215723 -0.062972 -137889.000000 0 0 1
-33.393610 -13.240574 6.229546 36.458925 0.377486 1.399089 0.212398 -0.060700 -482392.000000 0 0 1
-32.594410 -14.256774 5.740446 36.036147 0.412326 1.410818 0.216936 -0.037391 -409935.000000 0 0 1
-31.994910 -15.133374 6.878446 36.055600 0.441810 1.378846 0.162420 -0.034259 147988.000000 0 0 1
-32.842510 -16.150474 7.345846 37.328671 0.457030 1.372715 0.140493 -0.047868 -200.699000 0 0 1
-32.312910 -16.667174 8.544046 37.348622 0.476212 1.339988 0.121441 -0.036921 317422.000000 0 0 1
-33.428910 -17.384074 9.356446 38.823203 0.479544 1.327399 0.065271 -0.024529 -335651.000000 0 0 1
-34.561610 -16.518374 9.613446 39.494049 0.445844 1.324911 0.081839 -0.026990 1338790.000000 0 0 1
-35.469010 -17.068474 10.597746 40.763902 0.448513 1.307796 0.089714 -0.021859 340477.000000 0 0 1
-36.108910 -18.426974 10.344246 41.837903 0.471867 1.320960 0.087618 -0.018194 -1472500.000000 0 0 1
-35.266510 -19.532374 10.533846 41.667760 0.505795 1.315217 0.108010 -0.010804 -372777.000000 0 0 1
-35.342110 -20.125974 11.890746 42.373451 0.517662 1.286359 0.102238 -0.028018 610262.000000 0 0 1
-36.636910 -20.962974 12.179946 43.932454 0.519714 1.289873 0.064924 -0.035910 701350.000000 0 0 1
-36.466110 -22.379174 11.971646 44.428874 0.550431 1.297968 0.100129 -0.034710 -290261.000000 0 0 1
-37.718710 -22.939374 11.685346 45.666872 0.546405 1.312036 0.101115 -0.026621 -126300.000000 0 0 1
-37.717910 -24.473674 11.600746 46.434672 0.575574 1.318292 0.094138 -0.028599 -570550.000000 0 0 1
-37.421210 -25.062834 12.868546 46.841136 0.590134 1.292490 0.103128 -0.031019 165372.000000 0 0 1
37.380622 -26.277244 13.005346 47.507299 -0.612713 1.293502 0.112062 -0.039654 160116.000000 0 0 1
35.913022 -26.159714 13.478046 46.429877 -0.629545 1.276268 0.113492 -0.051191 -213602.000000 0 0 1
34.972122 -25.718904 12.527146 45.182306 -0.634099 1.289858 0.097657 -0.042782 -265801.000000 0 0 1
33.840822 -25.049014 13.028746 44.072696 -0.637200 1.270692 0.095204 -0.015836 84915.000000 0 0 1
33.952822 -23.575774 13.409846 43.456130 -0.606936 1.257093 0.096759 -0.017256 -506617.000000 0 0 1
34.870322 -23.336174 14.433946 44.371784 -0.589773 1.239472 0.097138 -0.024903 -455469.000000 0 0 1
34.968822 -22.002974 14.753746 43.870519 -0.561626 1.227809 0.100570 -0.037709 -21022.800000 0 0 1
36.129922 -21.698474 15.709046 44.977430 -0.540837 1.214010 0.080672 -0.026942 -136333.000000 0 0 1
36.255322 -20.378074 16.264546 44.657023 -0.512064 1.198012 0.089302 -0.008892 49695.600000 0 0 1
35.403122 -20.187474 17.378346 44.304876 -0.518233 1.167726 0.085932 -0.009760 144763.000000 0 0 1
35.416822 -18.772074 17.875046 43.889171 -0.487384 1.151326 0.095513 0.003391 -392742.000000 0 0 1
34.911122 -17.835274 16.982046 42.723218 -0.472311 1.162017 0.084690 -0.007162 -71054.600000 0 0 1
35.035922 -16.475274 17.428646 42.458311 -0.439557 1.147807 0.079982 -0.002786 318933.000000 0 0 1
36.444322 -15.869174 17.735446 43.526605 -0.410677 1.151123 0.054355 -0.008674 59237.900000 0 0 1
37.010322 -16.308274 18.927546 44.653956 -0.415044 1.133081 0.067265 0.003381 45393.300000 0 0 1
-37.438210 -15.407574 19.237346 44.822855 0.390421 1.127205 0.057995 -0.001071 55564.300000 0 0 1
-36.913210 -15.463074 20.722546 45.067900 0.396696 1.093018 0.067178 0.005899 -28177.900000 0 0 1
-35.998610 -16.495074 21.043746 44.842241 0.429664 1.082317 0.074226 0.013173 131628.000000 0 0 1
-35.789210 -16.470974 22.412546 45.326402 0.431322 1.053571 0.079904 0.007526 54400.400000 0 0 1
-34.766010 -17.540274 22.868246 45.158535 0.467260 1.039792 0.077970 0.012673 -670238.000000 0 0 1
-35.237610 -18.867574 22.864346 46.048375 0.491595 1.051201 0.069752 -0.002897 338.173000 0 0 1
-34.324510 -19.855474 23.289646 45.987166 0.524433 1.039748 0.056947 -0.003994 -43475.200000 0 0 1
-33.128410 -20.257374 22.403346 44.830376 0.548818 1.047503 0.040572 0.007468 396198.000000 0 0 1
-31.970210 -19.422274 22.438646 43.621232 0.545924 1.030492 0.054542 0.015203 251867.000000 0 0 1
-30.892310 -20.109074 21.867446 42.859011 0.577037 1.035358 0.044862 0.018021 402219.000000 0 0 1
-29.592210 -19.236074 21.696146 41.430039 0.576402 1.019630 0.069386 0.015256 658498.000000 0 0 1
-29.071310 -18.795174 22.916446 41.515817 0.573925 0.986044 0.050581 0.013786 483758.000000 0 0 1
-27.883010 -18.007874 22.848546 40.296424 0.573443 0.967923 0.074357 0.007350 318580.000000 0 0 1
-27.553210 -17.428674 24.235246 40.623702 0.564007 0.931565 0.066588 -0.008068 -438297.000000 0 0 1
-26.511110 -16.470574 24.205546 39.497180 0.555913 0.911144 0.085952 -0.014060 157656.000000 0 0 1
-26.122210 -15.990874 25.471546 39.835632 0.549310 0.877058 0.067813 -0.014336 -144582.000000 0 0 1
-25.161310 -16.751274 26.376946 40.117826 0.587371 0.853318 0.057513 -0.006490 -577151.000000 0 0 1
-25.596910 -18.044874 26.704846 41.157843 0.614049 0.864738 0.045570 -0.003157 122705.000000 0 0 1
-24.588310 -18.587374 27.537846 41.332897 0.647294 0.841634 0.053589 -0.007971 204369.000000 0 0 1
-25.044510 -19.974874 28.106746 42.617041 0.673261 0.850618 0.046835 0.001502 -670781.000000 0 0 1
-26.090710 -19.907874 28.995346 43.792450 0.651785 0.847168 0.033167 -0.003736 -635463.000000 0 0 1
-26.343710 -21.107274 29.588546 44.888641 0.675488 0.851103 0.031744 -0.002212 -274044.000000 0 0 1
-27.476110 -21.023674 30.650246 46.220872 0.653134 0.845809 0.039312 0.001390 -704703.000000 0 0 1
-27.267510 -20.261074 31.793546 46.528032 0.639037 0.818496 0.051116 -0.010135 372293.000000 0 0 1
-28.326410 -20.202674 32.755746 47.785693 0.619537 0.815545 0.061901 -0.007772 -178929.000000 0 0 1
-29.618410 -19.508274 32.391346 48.031471 0.582435 0.830675 0.042915 -0.013549 -269935.000000 0 0 1
-30.490810 -20.033474 31.356346 48.106652 0.581304 0.860829 0.048815 -0.016920 659344.000000 0 0 1
-31.741410 -19.391774 31.410346 48.684369 0.548417 0.869533 0.073469 -0.021757 339052.000000 0 0 1
-32.854610 -19.916274 30.434746 49.013846 0.544962 0.900853 0.067236 -0.013117 -118709.000000 0 0 1
-32.722210 -19.556674 29.076246 47.944078 0.538695 0.919193 0.066670 -0.024326 -68306.400000 0 0 1
-33.844210 -19.990974 28.363746 48.472380 0.533536 0.945728 0.071545 -0.029890 -377548.000000 0 0 1
-34.775110 -18.875874 27.879546 48.403264 0.497297 0.956988 0.069343 -0.023682 -598018.000000 0 0 1
-35.642110 -19.337574 26.898046 48.660113 0.497104 0.985107 0.054828 -0.026308 -347513.000000 0 0 1
-36.361410 -18.250374 26.317246 48.454367 0.465179 0.996630 0.107758 -0.024140 -1017170.000000 0 0 1
-37.449110 -18.762874 25.445646 49.009817 0.464466 1.024888 0.079997 -0.028048 -1589600.000000 0 0 1
36.985422 -19.235374 26.180346 49.227346 -0.479582 1.010042 0.089897 -0.031957 -613540.000000 0 0 1
35.965422 -19.851074 25.428046 48.313169 -0.504338 1.016533 0.118953 -0.028493 416946.000000 0 0 1
34.688522 -20.224474 26.246446 47.970812 -0.527849 0.991860 0.108341 -0.036566 -88944.800000 0 0 1
33.881722 -19.132074 26.406746 47.024712 -0.514038 0.974538 0.105730 -0.044010 176078.000000 0 0 1
32.624622 -19.458574 27.014546 46.613172 -0.537796 0.952623 0.092731 -0.031713 661786.000000 0 0 1
-30.103348 -5.000974 33.614362 45.399853 0.164623 0.737121 0.084462 -0.031104 -281382.000000 0 0 1
-31.164198 -5.187474 32.715554 45.479936 0.164944 0.767944 0.094827 -0.025995 -59286.300000 0 0 1
-31.314968 -4.049974 31.843618 44.844682 0.128616 0.781175 0.105928 -0.024417 305207.000000 0 0 1
-32.253178 -4.300174 30.615142 44.677130 0.132544 0.815845 0.097273 -0.028744 445725.000000 0 0 1
-31.747628 -5.332174 29.784872 43.857526 0.166402 0.824222 0.097279 -0.028730 23187.900000 0 0 1
-30.529288 -5.126574 29.100112 42.486889 0.166371 0.816303 0.091727 -0.032191 45951.300000 0 0 1
-30.385768 -6.100674 27.927862 41.719044 0.198140 0.837359 0.097218 -0.033666 281814.000000 0 0 1
-31.141448 -5.759274 26.760132 41.461593 0.182873 0.869224 0.095841 -0.031162 -64483.500000 0 0 1
-30.920358 -6.669974 25.644452 40.720941 0.212459 0.889551 0.110007 -0.028603 137169.000000 0 0 1
-31.467168 -6.209974 24.265432 40.218872 0.194844 0.923121 0.108035 -0.020527 266110.000000 0 0 1
-30.828978 -5.052274 23.731442 39.231782 0.162437 0.921152 0.106536 -0.026735 -299524.000000 0 0 1
-31.469868 -4.639074 22.595632 39.018408 0.146359 0.953170 0.110120 -0.021477 59163.900000 0 0 1
-30.838788 -3.322974 21.993052 38.023247 0.107339 0.954017 0.104539 -0.019086 551000.000000 0 0 1
-29.512838 -3.430274 21.509152 36.679940 0.115711 0.944188 0.117975 -0.020564 75664.700000 0 0 1
-29.080458 -2.233874 20.869652 35.863709 0.076666 0.949714 0.125318 -0.016254 -574236.000000 0 0 1
-27.653818 -2.309474 20.374552 34.426584 0.083320 0.937474 0.119355 -0.015525 -867000.000000 0 0 1
-27.449178 -3.095574 19.229252 33.657155 0.112300 0.962674 0.144009 -0.018930 229231.000000 0 0 1
-26.155258 -2.816374 18.701652 32.276637 0.107266 0.952782 0.130406 -0.013431 143475.000000 0 0 1
-25.827508 -3.745874 17.531652 31.439634 0.144030 0.979270 0.142200 -0.014855 555550.000000 0 0 1
-26.698888 -3.435074 16.409552 31.526239 0.127957 1.023355 0.142604 -0.010798 1229190.000000 0 0 1
-26.043488 -3.868474 15.175252 30.389416 0.147461 1.047937 0.154481 -0.024826 587888.000000 0 0 1
-27.044898 -4.107574 14.009452 30.733750 0.150728 1.097489 0.170074 -0.028480 100505.000000 0 0 1
-27.629208 -2.964774 13.404552 30.851986 0.106897 1.121336 0.169861 -0.020832 193559.000000 0 0 1
-28.902578 -3.251574 12.872352 31.806119 0.112030 1.154131 0.163787 -0.026575 73217.800000 0 0 1
-29.646968 -2.027674 12.262052 32.146727 0.068288 1.179443 0.158495 -0.015067 -176914.000000 0 0 1
-29.030518 -1.433874 11.116452 31.119166 0.049352 1.205504 0.184003 -0.022371 51253.400000 0 0 1
-29.646558 -0.301374 10.567452 31.475074 0.010165 1.228405 0.188471 -0.019964 202361.000000 0 0 1
-30.954688 -0.473074 9.723152 32.449286 0.015282 1.266479 0.176891 -0.018584 471626.000000 0 0 1
-30.800948 -1.001674 8.435752 31.950957 0.032509 1.303607 0.177517 -0.025176 -298702.000000 0 0 1
-32.047378 -1.036174 7.799752 32.999155 0.032321 1.332176 0.177672 -0.030972 -291837.000000 0 0 1
-32.107538 -1.810974 6.384352 32.786179 0.056344 1.374817 0.202563 -0.036637 -119979.000000 0 0 1
-31.474888 -1.343474 5.202052 31.930156 0.042658 1.407147 0.208949 -0.047064 33389.800000 0 0 1
-32.188118 -0.355074 4.544352 32.509262 0.011031 1.430551 0.222671 -0.036165 -521323.000000 0 0 1
-31.747838 -0.180274 3.082652 31.897656 0.005678 1.474003 0.201812 -0.039874 -261236.000000 0 0 1
-32.242748 -1.170174 2.208952 32.339505 0.036277 1.502438 0.184827 -0.059544 180619.000000 0 0 1
-31.840048 -1.041174 0.856052 31.868566 0.032688 1.543931 0.169960 -0.061690 148705.000000 0 0 1
-32.677658 -1.939574 -0.156548 32.735543 0.059285 1.575579 0.150528 -0.057931 323513.000000 0 0 1
-33.989974 -1.431874 -0.262648 34.021134 0.042101 1.578517 0.182197 -0.058689 -243454.000000 0 0 1
-34.725635 -2.279374 -1.115548 34.818238 0.065545 1.602841 0.187424 -0.066913 327811.000000 0 0 1
-36.251148 -1.922574 -1.163048 36.320720 0.052985 1.602823 0.186512 -0.049709 466681.000000 0 0 1
-36.883388 -2.425974 0.030252 36.963097 0.065680 1.569978 0.203320 -0.053579 -738607.000000 0 0 1
37.428154 -1.748274 0.214652 37.469578 -0.046676 1.565068 0.182486 -0.041568 -471319.000000 0 0 1
36.310024 -2.695874 0.786152 36.418452 -0.074110 1.549208 0.206062 -0.048158 180083.000000 0 0 1
36.300954 -2.888774 2.158352 36.479621 -0.079411 1.511596 0.205127 -0.044566 -7365.350000 0 0 1
35.378414 -3.907874 2.443652 35.677375 -0.110013 1.502250 0.205640 -0.035081 50435.600000 0 0 1
35.449764 -4.227974 3.948052 35.918639 -0.118706 1.460657 0.197125 -0.031751 137274.000000 0 0 1
34.886414 -3.174774 4.675252 35.341181 -0.090753 1.438118 0.191668 -0.039119 15402.300000 0 0 1
34.995814 -3.386674 6.081352 35.681359 -0.096473 1.399525 0.167094 -0.047020 -357607.000000 0 0 1
34.218544 -2.360974 6.846452 34.976519 -0.068888 1.373780 0.166649 -0.039570 771248.000000 0 0 1
32.777404 -2.350674 6.709852 33.539618 -0.071594 1.369380 0.191472 -0.032342 1274220.000000 0 0 1
32.309494 -1.269074 7.549552 33.204061 -0.039258 1.341422 0.190992 -0.032078 196047.000000 0 0 1
30.787384 -1.227374 7.812852 31.786949 -0.039845 1.322464 0.178814 -0.021927 -18027.300000 0 0 1
29.984654 -0.805274 6.709452 30.736699 -0.026850 1.350737 0.220847 -0.023955 547349.000000 0 0 1
28.590954 -0.849474 6.980452 29.443012 -0.029703 1.331434 0.201550 -0.009136 426075.000000 0 0 1
27.840954 -2.179474 6.789352 28.739592 -0.078124 1.332305 0.243307 -0.028204 -565928.000000 0 0 1
28.062854 -3.089774 7.815452 29.294228 -0.109660 1.300734 0.206138 -0.032880 540842.000000 0 0 1
27.441854 -4.359374 7.565052 28.797387 -0.157542 1.304978 0.214718 -0.043828 -2044.630000 0 0 1
27.785954 -5.298474 8.745852 29.607820 -0.188427 1.270933 0.191325 -0.041427 -404519.000000 0 0 1
27.084854 -5.203474 9.954852 29.321742 -0.189805 1.224407 0.185908 -0.038285 31399.700000 0 0 1
27.457254 -6.069474 10.962952 30.181545 -0.217553 1.199060 0.165670 -0.035222 -275285.000000 0 0 1
26.418454 -6.096074 12.093252 29.687431 -0.226781 1.151243 0.139830 -0.031562 204496.000000 0 0 1
25.100954 -6.439674 11.736952 28.447906 -0.251135 1.145515 0.170240 -0.035784 -242095.000000 0 0 1
24.121854 -6.053474 12.655252 27.904548 -0.245876 1.100086 0.186522 -0.044236 175219.000000 0 0 1
22.974154 -7.093974 12.771552 27.225884 -0.299493 1.082529 0.171415 -0.047551 35085.100000 0 0 1
23.420254 -8.295174 13.385352 28.222081 -0.340401 1.076643 0.142324 -0.037848 -317275.000000 0 0 1
22.532454 -9.352574 13.307852 27.789945 -0.393431 1.071426 0.202453 -0.062612 -640552.000000 0 0 1
22.873154 -10.568774 14.203552 28.924402 -0.432838 1.057493 0.127903 -0.049639 -281351.000000 0 0 1
22.881654 -10.266574 15.602152 29.536415 -0.421757 1.014276 0.117768 -0.045185 311774.000000 0 0 1
23.294354 -11.396774 16.353452 30.658584 -0.455011 1.008175 0.100660 -0.042451 -378923.000000 0 0 1
23.160054 -11.164074 17.884552 31.319034 -0.449177 0.963019 0.116034 -0.039049 -565491.000000 0 0 1
21.838054 -10.942674 18.258952 30.496427 -0.464513 0.928889 0.121600 -0.053985 -527631.000000 0 0 1
21.485654 -11.283774 19.609452 31.200761 -0.483586 0.891182 0.145189 -0.046172 21889.800000 0 0 1
22.031254 -10.396474 20.732152 31.988826 -0.440913 0.865701 0.136306 -0.036408 -495002.000000 0 0 1
21.341454 -9.213674 21.027352 31.344840 -0.407554 0.835456 0.156798 -0.035343 -100824.000000 0 0 1
21.601954 -8.103974 20.205652 30.668994 -0.358902 0.851534 0.144921 -0.032113 -850586.000000 0 0 1
22.753754 -7.164874 20.712452 31.592316 -0.305059 0.855797 0.122875 -0.015679 453183.000000 0 0 1
24.044254 -7.699474 20.842852 32.738854 -0.309903 0.880663 0.129500 -0.024671 -129397.000000 0 0 1
24.589554 -7.988074 19.573052 32.427764 -0.314102 0.922801 0.131171 -0.033323 -1258430.000000 0 0 1
26.006454 -8.596374 19.487052 33.615153 -0.319241 0.952423 0.093468 -0.023459 43620.800000 0 0 1
26.029554 -9.912974 19.971152 34.273192 -0.363877 0.948743 0.074214 -0.024870 230406.000000 0 0 1
27.187654 -10.600174 19.522752 35.109402 -0.371760 0.981165 0.067229 -0.022567 218279.000000 0 0 1
27.090354 -12.120774 19.850252 35.704803 -0.420707 0.981285 0.018502 -0.009357 -382688.000000 0 0 1
26.139954 -12.690374 19.023952 34.731161 -0.451963 0.991125 0.071112 -0.030172 -284459.000000 0 0 1
25.990054 -14.091874 19.140952 35.219879 -0.496837 0.996231 0.045088 -0.021956 -109447.000000 0 0 1
24.935754 -14.574374 18.130352 34.101523 -0.528927 1.010239 0.080730 -0.026675 -348171.000000 0 0 1
25.340554 -14.511574 16.742252 33.660548 -0.520075 1.050214 0.086493 -0.032142 -76022.200000 0 0 1
24.395454 -15.086174 15.898852 32.794883 -0.553840 1.064666 0.082214 -0.035057 -392198.000000 0 0 1
23.994954 -16.583674 16.083152 33.308315 -0.604749 1.066882 0.059787 -0.034381 -885501.000000 0 0 1
25.083454 -17.405374 15.857252 34.403185 -0.606619 1.091760 0.093464 -0.039160 -409999.000000 0 0 1
24.807654 -18.708874 16.150352 35.018217 -0.646156 1.091451 0.070541 -0.026036 439221.000000 0 0 1
26.019254 -19.668574 15.831952 36.256104 -0.647282 1.118903 0.076253 -0.016516 518124.000000 0 0 1
26.192454 -19.889774 14.457552 35.925876 -0.649471 1.156630 0.088461 -0.033026 781638.000000 0 0 1
27.290854 -20.816074 14.316252 37.189444 -0.651611 1.175638 0.109235 -0.030775 606053.000000 0 0 1
27.831454 -21.130174 12.893752 37.246784 -0.649375 1.217310 0.096704 -0.048476 -370171.000000 0 0 1
26.875754 -21.743674 12.087952 36.622563 -0.680231 1.234420 0.099120 -0.035479 -188260.000000 0 0 1
26.535854 -20.952374 10.958052 35.541981 -0.668359 1.257377 0.135321 -0.032580 290348.000000 0 0 1
25.020054 -20.965374 10.622152 34.327542 -0.697452 1.256197 0.078054 -0.024553 130316.000000 0 0 1
24.608454 -22.193074 10.112952 34.646506 -0.733835 1.274595 0.063459 -0.025593 -106552.000000 0 0 1
23.269754 -22.303774 9.688452 33.657182 -0.764205 1.278808 0.048764 -0.020163 49725.600000 0 0 1
23.056654 -23.218874 8.468652 33.800051 -0.788904 1.317546 0.044562 -0.014114 -160916.000000 0 0 1
23.401454 -24.569774 8.704652 35.029599 -0.809748 1.319671 0.041325 -0.005810 177944.000000 0 0 1
23.050454 -25.260054 7.522152 35.013948 -0.831104 1.354275 0.045705 -0.000658 1363990.000000 0 0 1
21.576354 -25.851404 7.314952 34.457839 -0.875293 1.356882 0.050255 0.001618 1216450.000000 0 0 1
20.650154 -24.823574 7.122752 33.066180 -0.876918 1.353686 0.050712 0.001031 -630387.000000 0 0 1
19.327754 -25.340394 7.118152 32.655256 -0.919201 1.351053 0.069404 -0.019355 74465.900000 0 0 1
18.350454 -24.165574 7.058552 31.153447 -0.921329 1.342238 0.069473 -0.017231 -460511.000000 0 0 1
18.150654 -23.607374 5.783752 30.334900 -0.915337 1.378959 0.083718 -0.024636 26951.800000 0 0 1
17.352054 -22.468174 5.953352 29.006120 -0.913179 1.364083 0.090128 -0.010643 -139133.000000 0 0 1
16.896054 -21.777974 4.637352 27.951061 -0.910967 1.404116 0.109351 -0.007793 -10457.500000 0 0 1
16.261354 -20.560974 4.950652 26.677598 -0.901638 1.384141 0.141024 -0.013387 155588.000000 0 0 1
15.734654 -19.854874 3.817252 25.619656 -0.900656 1.421242 0.136171 -0.015974 614177.000000 0 0 1
14.879254 -18.630474 4.327652 24.232526 -0.896878 1.391245 0.134592 -0.011690 636191.000000 0 1 0
15.736254 -17.541374 4.624952 24.014989 -0.839589 1.376999 0.102754 -0.011909 672920.000000 0 1 0
14.967254 -16.463974 5.165452 22.842133 -0.832981 1.342686 0.083740 -0.000315 89003.800000 0 1 0
15.832854 -15.220874 5.366552 22.608719 -0.765694 1.331142 0.067425 -0.002965 17580.200000 0 1 0
16.900454 -15.441674 6.313452 23.747217 -0.740324 1.301700 0.123677 -0.013567 666288.000000 0 1 0
17.833554 -14.372074 6.291952 23.752491 -0.678329 1.302700 0.117859 -0.015902 259679.000000 0 1 0
19.104754 -14.639774 5.456152 24.679631 -0.653845 1.347875 0.146666 -0.041759 -351784.000000 0 1 0
19.957054 -13.538874 5.294252 24.690367 -0.596082 1.354692 0.150694 -0.041963 -648825.000000 0 1 0
21.267554 -13.980474 5.166652 25.970306 -0.581533 1.370515 0.152168 -0.027718 -376467.000000 0 0 1
22.304054 -12.830874 4.983052 26.209406 -0.522038 1.379507 0.154651 -0.027605 15425.400000 0 0 1
22.422954 -12.160574 6.203852 26.251785 -0.496933 1.332218 0.180898 -0.039289 488077.000000 0 0 1
23.434454 -11.149374 6.239252 26.691018 -0.444075 1.334855 0.183510 -0.036098 318272.000000 0 0 1
23.657354 -10.568374 7.607852 27.004450 -0.420129 1.285204 0.196995 -0.036786 -472.578000 0 0 1
24.146654 -11.444574 8.594752 28.069716 -0.442600 1.259605 0.190363 -0.027229 290810.000000 0 0 1
24.607854 -10.818774 9.781752 28.605507 -0.414211 1.221801 0.210353 -0.042376 175997.000000 0 0 1
25.174954 -11.837074 10.768552 29.830460 -0.439519 1.201465 0.171588 -0.037803 158103.000000 0 0 1
24.064454 -12.480274 11.353352 29.389689 -0.478431 1.174175 0.182746 -0.046835 490255.000000 0 0 1
24.498854 -13.603974 12.186252 30.557596 -0.506896 1.160593 0.182455 -0.046556 260234.000000 0 0 1
23.426154 -14.702174 12.492052 30.347817 -0.560464 1.146555 0.155726 -0.054367 -234231.000000 0 0 1
22.323254 -14.158574 13.146252 29.523158 -0.565225 1.109303 0.130546 -0.054931 -483160.000000 0 0 1
21.381954 -15.184174 13.461652 29.478181 -0.617499 1.096554 0.097546 -0.058912 964987.000000 0 0 1
20.110654 -14.570374 14.187352 28.600964 -0.626987 1.051759 0.098308 -0.059341 245342.000000 0 0 1
20.480054 -13.919574 15.355252 29.137106 -0.596947 1.015730 0.099320 -0.053871 84930.400000 0 0 1
19.986754 -12.603274 15.597452 28.312424 -0.562603 0.987348 0.127762 -0.071984 61654.800000 0 0 1
18.454354 -12.427574 15.822552 27.301299 -0.592665 0.952616 0.177035 -0.067946 874609.000000 0 0 1
17.700854 -12.614474 14.558752 26.161087 -0.619164 0.980624 0.190665 -0.077402 771249.000000 0 0 1
16.289554 -12.491374 14.619252 25.201320 -0.654188 0.951947 0.249645 -0.072416 325028.000000 0 0 1
15.744354 -11.099274 14.322952 24.004698 -0.614053 0.931448 0.207908 -0.064376 -451969.000000 0 1 0
16.103454 -10.141974 15.280852 24.406665 -0.562044 0.894263 0.192020 -0.055539 253082.000000 0 1 0
15.531754 -8.880974 15.021952 23.361638 -0.519422 0.872364 0.175737 -0.049669 -511768.000000 0 1 0
15.993954 -7.863174 16.102752 24.019465 -0.456933 0.836043 0.185238 -0.041978 1328150.000000 0 1 0
17.424454 -7.602474 16.116552 24.922931 -0.411412 0.867605 0.178909 -0.052946 1261230.000000 0 1 0
18.185754 -8.469874 16.924352 26.246792 -0.435868 0.870014 0.182009 -0.048016 -250348.000000 0 0 1
19.679954 -8.422174 16.517252 27.037996 -0.404373 0.913612 0.157852 -0.045868 -308918.000000 0 0 1
20.230154 -7.269374 16.951652 27.376293 -0.344966 0.903061 0.136689 -0.047361 -150416.000000 0 0 1
21.547154 -7.242174 16.409352 28.035616 -0.324246 0.945542 0.126568 -0.044172 331070.000000 0 0 1
22.182954 -5.793874 16.625452 28.320630 -0.255479 0.943394 0.128078 -0.041708 -174872.000000 0 0 1
22.736254 -5.628874 17.863052 29.456920 -0.242693 0.919255 0.146999 -0.036688 -105670.000000 0 0 1
23.113754 -4.319474 18.088752 29.666588 -0.184748 0.915070 0.158790 -0.037624 -106197.000000 0 0 1
-5.425478 -32.643024 -6.300554 33.685306 1.406096 1.758946 0.088148 -0.027696 -358843.000000 0 0 1
-6.218078 -31.515624 -6.386354 32.751864 1.375997 1.767046 0.085635 -0.026220 -457550.000000 0 0 1
-5.851078 -30.484224 -5.531654 31.529704 1.381165 1.747152 0.104293 -0.036080 -582917.000000 0 0 1
-6.750278 -29.195124 -5.526854 30.470767 1.343577 1.753188 0.102778 -0.032006 303352.000000 0 0 1
-8.095078 -29.292224 -5.140854 30.821957 1.301170 1.738371 0.095536 -0.030111 41856.500000 0 0 1
-8.952178 -29.971324 -6.066254 31.862536 1.280540 1.762354 0.086505 -0.025608 -299637.000000 0 0 1
-10.431878 -29.795524 -5.661454 32.072565 1.234019 1.748246 0.076634 -0.017533 451486.000000 0 0 1
-11.421778 -30.312124 -6.541454 33.046520 1.210444 1.770059 0.060168 -0.017474 206572.000000 0 0 1
-12.737878 -30.102424 -6.064054 33.244281 1.170493 1.754232 0.073683 -0.015437 52974.500000 0 0 1
-13.812478 -30.516224 -7.058754 34.232302 1.145760 1.778488 0.074619 -0.023920 -288829.000000 0 0 1
-13.855978 -29.757624 -8.244854 33.844969 1.135023 1.816879 0.093197 -0.032370 88959.300000 0 0 1
-14.888078 -30.237624 -9.084054 34.906859 1.113272 1.834064 0.112745 -0.033519 76917.300000 0 0 1
-15.109778 -29.356024 -10.319754 34.591601 1.095452 1.873740 0.146337 -0.035597 47523.100000 0 0 1
-15.761878 -28.119624 -10.083654 33.776177 1.059905 1.873962 0.158761 -0.042000 1110850.000000 0 0 1
-14.742778 -27.099324 -9.886354 32.395414 1.072550 1.880921 0.137747 -0.033806 714202.000000 0 0 1
-15.343178 -25.743124 -9.598054 31.468146 1.033315 1.880744 0.132152 -0.021134 -143499.000000 0 0 1
-15.780978 -25.021224 -10.776254 31.483783 1.008106 1.920138 0.152746 -0.039268 325655.000000 0 0 1
-16.017678 -23.649124 -10.475454 30.423383 0.975465 1.922313 0.119538 -0.015342 -642822.000000 0 0 1
-16.669978 -22.870424 -11.569754 30.574559 0.940944 1.958876 0.128463 -0.014592 -889759.000000 0 0 1
-17.999678 -23.284724 -11.669254 31.659726 0.912721 1.948281 0.138716 -0.027208 -558676.000000 0 0 1
-18.505078 -22.985724 -12.952754 32.226623 0.892973 1.984417 0.140727 -0.037990 840503.000000 0 0 1
-20.055878 -23.248324 -13.144154 33.398976 0.858986 1.975286 0.126488 -0.023944 1218250.000000 0 0 1
-20.439378 -24.607624 -13.454154 34.703279 0.877666 1.968922 0.165964 -0.033199 117550.000000 0 0 1
-20.293078 -25.540624 -12.390754 34.895032 0.899393 1.933803 0.183943 -0.037063 -1259780.000000 0 0 1
-20.164878 -27.007824 -12.799154 36.053616 0.929455 1.933714 0.183149 -0.046386 1204410.000000 0 0 1
-19.044378 -27.401224 -13.672554 36.061810 0.963421 1.959665 0.184294 -0.047141 1906390.000000 0 0 1
-17.750078 -27.076524 -13.120354 34.933467 0.990528 1.955820 0.183353 -0.048024 -131364.000000 0 0 1
-16.702778 -28.159524 -13.400654 35.376816 1.035430 1.959293 0.158191 -0.044884 -319827.000000 0 0 1
-16.423978 -28.294424 -14.837554 35.923175 1.044863 1.996581 0.163463 -0.050869 279716.000000 0 0 1
-15.646478 -29.408824 -15.337254 36.673186 1.081852 2.002275 0.155321 -0.043670 298816.000000 0 0 1
-16.394978 -30.767124 -15.333354 38.085732 1.081197 1.985153 0.157187 -0.049976 -63775.500000 0 0 1
-16.551278 -31.325324 -14.061154 38.117408 1.084713 1.948612 0.151728 -0.043970 80824.100000 0 0 1
-17.157678 -32.608124 -14.030354 39.427484 1.086426 1.934622 0.143996 -0.042909 -333844.000000 0 0 1
-17.724078 -32.907324 -12.575054 39.435604 1.076743 1.895339 0.181946 -0.039269 1029210.000000 0 0 1
-19.072678 -32.488224 -12.266254 39.619600 1.039943 1.885569 0.205148 -0.040060 1091560.000000 0 0 1
-19.426278 -31.070724 -12.228854 38.630494 1.012033 1.892897 0.207451 -0.044497 -226783.000000 0 0 1
-18.849078 -30.234924 -11.099454 37.318042 1.013333 1.872795 0.205848 -0.047472 -337349.000000 0 0 1
-19.344578 -30.604624 -9.836154 37.518071 1.007122 1.836068 0.209714 -0.051347 280590.000000 0 0 1
-18.798378 -29.753124 -8.813854 36.281006 1.007314 1.816185 0.190401 -0.046707 58397.500000 0 0 1
-19.043178 -30.185524 -7.376654 36.444801 1.007986 1.774611 0.199662 -0.046336 42187.800000 0 0 1
-18.272978 -31.307724 -6.965154 36.913259 1.042480 1.760624 0.185168 -0.048702 168057.000000 0 0 1
-18.404178 -31.514424 -5.589954 36.920459 1.042230 1.722786 0.197358 -0.061903 -520601.000000 0 0 1
-17.513778 -32.628924 -5.031054 37.372324 1.078178 1.705826 0.168126 -0.050341 91147.500000 0 0 1
-16.280378 -32.263424 -4.431854 36.409073 1.103469 1.692823 0.150529 -0.033587 213865.000000 0 0 1
-16.331278 -31.665224 -3.187854 35.770930 1.094630 1.660033 0.130064 -0.033472 107137.000000 0 0 1
-14.982678 -31.011424 -2.749954 34.550706 1.120732 1.650472 0.119551 -0.029797 497130.000000 0 0 1
-13.843778 -31.832624 -2.772454 34.823162 1.160576 1.650496 0.078682 -0.018034 -435382.000000 0 0 1
-12.711378 -31.075924 -2.398354 33.660723 1.182519 1.642108 0.088351 -0.023338 484166.000000 0 0 1
-11.378078 -31.876424 -2.447254 33.934586 1.227949 1.642976 0.078726 -0.026711 -303107.000000 0 0 1
-11.380578 -32.916724 -1.490754 34.860445 1.237923 1.613573 0.085869 -0.020294 -1117180.000000 0 0 1
-10.169778 -33.558424 -1.390854 35.093115 1.276547 1.610440 0.115086 -0.032863 -758452.000000 0 0 1
-9.084878 -32.761024 -0.595554 34.002565 1.300286 1.588312 0.140276 -0.041460 -595772.000000 0 0 1
-9.457478 -32.444124 0.721746 33.802160 1.287155 1.549443 0.143571 -0.038887 -303330.000000 0 0 1
-8.431578 -31.889824 1.518446 33.020570 1.312314 1.524795 0.133012 -0.040691 633108.000000 0 0 1
-7.435478 -32.826324 2.288146 33.735582 1.348045 1.502918 0.145916 -0.047759 175674.000000 0 0 1
-8.084078 -33.594624 3.278346 34.708769 1.334650 1.476202 0.152155 -0.056015 -356687.000000 0 0 1
-7.344778 33.010226 3.757446 34.025567 -1.351863 1.460141 0.164472 -0.052898 -309554.000000 0 0 1
-6.356678 33.353126 4.914746 34.307333 -1.382468 1.427045 0.184345 -0.054171 373074.000000 0 0 1
-5.229978 -33.614724 4.450146 34.308981 1.416448 1.440722 0.200164 -0.057901 -172361.000000 0 0 1
-4.191478 -33.561524 5.407946 34.251865 1.446550 1.412245 0.198505 -0.060219 1229730.000000 0 0 1
-2.853578 -32.918624 4.825846 33.392627 1.484327 1.425770 0.206005 -0.048456 1051650.000000 0 0 1
-3.028778 -31.570124 4.301446 32.005448 1.475151 1.435991 0.183488 -0.032026 -22571.300000 0 0 1
-3.255978 -31.545324 2.887946 31.844138 1.467945 1.479982 0.184637 -0.036860 20456.400000 0 0 1
-3.388878 -30.113624 2.354046 30.395006 1.458731 1.493270 0.158451 -0.040979 1191160.000000 0 0 1
-2.180878 -29.295424 2.446846 29.478215 1.496489 1.487695 0.123226 -0.039727 869030.000000 0 0 1
-2.323178 -28.049324 1.829546 28.204769 1.488160 1.505884 0.123347 -0.039589 97565.400000 0 0 1
-2.809378 -26.798624 2.616346 27.072202 1.466345 1.474002 0.125741 -0.035854 -132572.000000 0 0 1
-3.398778 -25.970524 1.660346 26.244553 1.440665 1.507490 0.146185 -0.034848 -386313.000000 0 0 1
-3.442678 -24.579724 1.950746 24.896190 1.431640 1.492361 0.121622 -0.028684 84611.400000 0 1 0
-4.408278 -24.040024 3.053746 24.630896 1.389439 1.446496 0.091963 -0.021789 -8824.110000 0 1 0
-4.128778 -24.570124 4.342346 25.290191 1.404311 1.398240 0.100046 -0.019043 -197778.000000 0 0 1
-4.909478 -23.942524 5.315546 25.012046 1.368547 1.356644 0.070046 -0.014488 107497.000000 0 0 1
-5.761978 -24.935624 6.133846 26.317481 1.343708 1.335562 0.100706 -0.012037 314962.000000 0 0 1
-4.908878 -25.659524 7.037346 27.056099 1.381772 1.307668 0.082376 -0.017254 370593.000000 0 0 1
-5.612678 -26.625624 7.832346 28.315573 1.363038 1.290533 0.095494 -0.020604 139108.000000 0 0 1
-4.909778 -27.233324 9.087646 29.126366 1.392427 1.253491 0.091642 -0.020378 298153.000000 0 0 1
-4.494378 -26.361724 10.139746 28.599902 1.401931 1.208377 0.078531 -0.025549 -502070.000000 0 0 1
-5.590978 -25.943624 10.866846 28.677849 1.358538 1.182158 0.087176 -0.031773 -353284.000000 0 0 1
-5.192478 -24.853524 11.869846 28.027714 1.364836 1.133487 0.066036 -0.031342 166446.000000 0 0 1
-4.386678 -25.331524 12.927246 28.775732 1.399326 1.104880 0.062228 -0.030727 -305235.000000 0 0 1
-3.852078 -24.183824 13.567946 27.996161 1.412840 1.064849 0.062536 -0.035555 146761.000000 0 0 1
-2.877878 -24.557024 14.718046 28.774129 1.454137 1.033864 0.060821 -0.038434 166711.000000 0 0 1
-3.514678 -25.115324 15.871546 29.917193 1.431758 1.011587 0.064054 -0.043266 -284527.000000 0 0 1
-2.773578 -26.130124 16.470946 31.012388 1.465047 1.010888 0.085970 -0.032904 -222380.000000 0 0 1
-3.218278 -26.437824 17.875846 32.075875 1.449662 0.979667 0.122194 -0.036261 -141809.000000 0 0 1
-2.872478 -25.322824 18.659746 31.586115 1.457845 0.938799 0.119823 -0.026650 -39653.600000 0 0 1
-3.331978 -25.403924 20.004146 32.505804 1.440381 0.907900 0.153521 -0.037823 -294799.000000 0 0 1
-2.687778 -24.444524 21.012146 32.346085 1.461282 0.863733 0.130004 -0.042280 -185941.000000 0 0 1
-1.440378 -24.916824 21.515346 32.951979 1.513053 0.859349 0.083042 -0.055845 568792.000000 0 0 1
-0.649178 -24.008724 22.299346 32.773482 1.543764 0.822477 0.081741 -0.048514 681198.000000 0 0 1
-0.247178 -22.635024 21.714446 31.367540 1.559877 0.806182 0.095572 -0.055935 -528533.000000 0 0 1
-1.356878 -21.762924 21.650146 30.727753 1.508529 0.788966 0.132722 -0.050639 -165897.000000 0 0 1
-0.976578 -20.556524 20.992846 29.397687 1.523325 0.775461 0.149251 -0.046286 18586.400000 0 0 1
-2.111578 -19.625124 20.486646 28.448320 1.463613 0.766799 0.143333 -0.026954 -359661.000000 0 0 1
-2.661278 -18.730924 21.493346 28.633788 1.429662 0.721783 0.158749 -0.054323 1341460.000000 0 0 1
-3.984678 -19.157424 21.904946 29.371946 1.365724 0.729095 0.167508 -0.059188 1829770.000000 0 0 1
-5.222078 -18.802624 20.949946 28.630561 1.299893 0.749934 0.139905 -0.055486 610106.000000 0 0 1
-5.467278 -19.649424 19.816046 28.437065 1.299419 0.799816 0.149635 -0.054464 -213062.000000 0 0 1
-6.030178 -20.898924 20.100346 29.616752 1.289886 0.824830 0.153859 -0.048069 -178555.000000 0 0 1
-6.027378 -21.814324 18.831646 29.441890 1.301219 0.876791 0.104288 -0.047160 7219.090000 0 0 1
-6.576978 -23.087424 18.952846 30.585882 1.293275 0.902487 0.094528 -0.047668 -291427.000000 0 0 1
-6.368378 -23.896724 17.803346 30.472427 1.310353 0.946848 0.089662 -0.039115 -72408.300000 0 0 1
-6.927478 -25.299424 17.884546 31.747564 1.303528 0.972378 0.083595 -0.036342 426725.000000 0 0 1
-8.350078 -25.230424 17.916246 32.051365 1.251190 0.977635 0.087588 -0.038863 -41514.200000 0 0 1
-8.921278 -26.484224 17.501346 32.974239 1.245882 1.011301 0.078684 -0.041444 -968492.000000 0 0 1
-10.371178 -26.558424 17.853146 33.639947 1.198503 1.011355 0.071813 -0.036800 -1218920.000000 0 0 1
-11.242978 -25.941824 16.881546 32.929764 1.161839 1.032524 0.084175 -0.035237 904060.000000 0 0 1
-12.617578 -25.850324 17.296146 33.564851 1.116713 1.029432 0.093189 -0.032266 1006000.000000 0 0 1
-12.978278 -24.866624 18.387146 33.539109 1.089770 0.990550 0.090372 -0.046106 -1152320.000000 0 0 1
-12.950978 -23.535024 17.896546 32.278655 1.067734 0.983108 0.085550 -0.033001 76682.000000 0 0 1
-12.947978 -22.576824 18.922146 32.177799 1.050084 0.942151 0.089775 -0.042406 876487.000000 0 0 1
-11.495878 -22.329124 19.507746 31.800898 1.095349 0.910395 0.100988 -0.038152 883215.000000 0 0 1
-11.084178 -23.267524 20.449046 32.899850 1.126223 0.900071 0.114104 -0.046564 -1463290.000000 0 0 1
-9.735278 -23.118024 20.607546 32.463666 1.172223 0.883062 0.118528 -0.052524 -1191600.000000 0 0 1
-9.051478 -24.034324 21.644546 33.586669 1.210618 0.870507 0.118731 -0.055540 63357.100000 0 0 1
-9.134978 -23.548424 22.945746 34.124527 1.200744 0.833333 0.130430 -0.058242 -10850.300000 0 0 1
-8.259778 -24.238424 23.785046 34.949300 1.242366 0.822272 0.123895 -0.061131 -380721.000000 0 0 1
-8.028878 -23.561724 25.096046 35.347266 1.242377 0.781319 0.131625 -0.052116 -339538.000000 0 0 1
-6.898078 -24.100924 25.699846 35.901533 1.292033 0.772966 0.150662 -0.049281 -579250.000000 0 0 1
-6.574178 -23.391524 26.861046 36.220146 1.296815 0.735336 0.162209 -0.059539 49463.900000 0 0 1
-5.227478 -23.835324 27.476146 36.747623 1.354898 0.726207 0.183474 -0.056743 997507.000000 0 0 1
-4.061178 -23.779224 26.645446 35.943351 1.401642 0.735765 0.176367 -0.050888 -200215.000000 0 0 1
-2.864178 -24.122624 27.280546 36.528519 1.452616 0.727516 0.166498 -0.039162 -330967.000000 0 0 1
-1.758278 -23.516824 26.412646 35.408480 1.496168 0.728849 0.136089 -0.032376 -938637.000000 0 0 1
-1.761478 -22.117124 26.404846 34.488924 1.491321 0.698817 0.130676 -0.033475 256989.000000 0 0 1
-0.578578 -21.533124 25.823646 33.628424 1.543934 0.695222 0.115057 -0.033319 806305.000000 0 0 1
0.458122 -21.303024 26.949946 34.355906 -1.549295 0.669013 0.094353 -0.017239 -377548.000000 0 0 1
0.962222 -22.454824 27.591246 35.586821 -1.527971 0.683572 0.096104 -0.024549 -50985.600000 0 0 1
1.956522 -22.045724 28.515046 36.096396 -1.482280 0.660037 0.069952 -0.034650 -42215.800000 0 0 1
2.445322 -23.260124 29.335446 37.517747 -1.466052 0.673075 0.102427 -0.044337 -760380.000000 0 0 1
3.164622 -24.138424 28.543446 37.515419 -1.440437 0.706181 0.080618 -0.048941 -141509.000000 0 0 1
3.694022 -25.235424 29.246546 38.805063 -1.425446 0.717155 0.082651 -0.034424 -703028.000000 0 0 1
4.860522 -25.073224 30.243446 39.584811 -1.379318 0.701281 0.062713 -0.037330 305532.000000 0 0 1
6.137722 -24.696324 29.712046 39.120145 -1.327204 0.708241 0.082725 -0.041301 858463.000000 0 0 1
6.794522 -25.674424 28.918046 39.263150 -1.312085 0.742887 0.058237 -0.031030 -446377.000000 0 0 1
8.218322 -25.313124 28.415946 38.932776 -1.256866 0.752662 0.053854 -0.026149 179539.000000 0 0 1
8.307722 -24.234324 27.490146 37.576972 -1.240543 0.750176 0.062264 -0.035675 18866.700000 0 0 1
9.587122 -24.036124 26.920346 37.341039 -1.191270 0.765650 0.067917 -0.014705 -45604.800000 0 0 1
9.612722 -23.004824 25.715946 35.818099 -1.174992 0.769930 0.091802 -0.015173 102259.000000 0 0 1
8.811522 -23.411624 24.606946 35.089156 -1.210822 0.793620 0.079203 -0.014809 248537.000000 0 0 1
8.502222 -22.278224 23.768346 33.668105 -1.206219 0.787018 0.081417 -0.024485 -85361.500000 0 0 1
7.763822 -22.672924 22.472146 32.853246 -1.240884 0.817542 0.076411 -0.024425 -202823.000000 0 0 1
8.480822 -23.363824 21.473246 32.846505 -1.222597 0.858273 0.068197 -0.017357 -582907.000000 0 0 1
7.769522 -23.547124 20.303746 32.048005 -1.252088 0.884674 0.085021 -0.015643 -254943.000000 0 0 1
8.524722 -24.414824 19.239746 32.232318 -1.234868 0.931154 0.115770 -0.027508 167963.000000 0 0 1
9.804422 -23.890924 18.978846 32.048394 -1.181372 0.937018 0.125237 -0.023567 -441829.000000 0 0 1
10.369522 -24.602924 17.881746 32.133903 -1.171915 0.980658 0.136230 -0.029032 894732.000000 0 0 1
11.780622 -24.040124 17.447646 31.955140 -1.115148 0.993209 0.126891 -0.029605 706569.000000 0 0 1
11.717522 -22.726624 16.914746 30.657926 -1.094758 0.986365 0.134622 -0.023067 -331959.000000 0 0 1
12.928522 -22.276224 16.357746 30.511518 -1.044933 1.004966 0.122571 -0.027217 32097.800000 0 0 1
-12.734278 22.409926 11.528546 28.236041 -1.054055 1.150214 0.066144 -0.032183 -92116.800000 0 0 1
-13.718578 21.582626 10.949946 27.819246 -1.004589 1.166241 0.058527 -0.033491 55257.400000 0 0 1
-13.191078 20.368526 10.467546 26.428222 -0.996096 1.163559 0.084966 -0.037371 682513.000000 0 0 1
-14.239578 19.643726 9.511746 26.059832 -0.943559 1.197167 0.100907 -0.036861 350988.000000 0 0 1
-14.620678 20.419826 8.434346 26.492861 -0.949410 1.246794 0.108779 -0.037333 -35245.700000 0 0 1
-15.184378 19.691226 7.357646 25.931538 -0.913912 1.283111 0.110474 -0.034045 -7368.380000 0 0 1
-16.712778 19.472726 7.370046 26.698719 -0.861523 1.291120 0.104539 -0.027832 -49656.700000 0 0 1
-17.321178 18.699226 8.396446 26.836255 -0.823637 1.252576 0.101985 -0.030718 1671550.000000 0 0 1
-18.771578 18.808326 8.357546 27.856307 -0.786376 1.266079 0.105531 -0.022993 1254770.000000 0 0 1
-19.491178 17.777626 9.193246 27.936818 -0.739452 1.235475 0.098112 -0.019678 -236071.000000 0 0 1
-19.180778 16.468126 8.670046 26.725851 -0.709451 1.240412 0.098251 -0.021085 355063.000000 0 0 1
-19.585578 15.429726 9.564946 26.705046 -0.667264 1.204489 0.096250 -0.027611 -218810.000000 0 0 1
-18.505578 14.962626 10.541946 26.028239 -0.679931 1.153796 0.093735 -0.020864 237485.000000 0 0 1
-17.427978 14.187526 9.986046 24.591491 -0.683259 1.152639 0.073688 -0.011893 660475.000000 0 1 0
-16.795878 13.302226 10.942846 24.058192 -0.669840 1.098594 0.075153 -0.019885 711651.000000 0 1 0
-17.727978 12.303826 11.781446 24.585927 -0.606711 1.071059 0.067618 -0.012062 736533.000000 0 1 0
-18.449178 11.314526 10.970646 24.264083 -0.550128 1.101639 0.057140 -0.012482 923388.000000 0 1 0
-19.468278 10.617826 11.722746 25.083358 -0.499298 1.084504 0.064690 -0.007968 446430.000000 0 0 1
-20.410478 9.803926 10.824246 25.097189 -0.447795 1.124871 0.065510 -0.008703 -284946.000000 0 0 1
-19.799278 8.756426 10.069946 23.876562 -0.416399 1.135422 0.050893 -0.010509 246125.000000 0 1 0
-19.227378 9.130326 8.815246 23.038304 -0.443335 1.178150 0.060303 -0.014503 -76919.300000 0 1 0
-20.173678 9.192626 7.567946 23.425530 -0.427563 1.241831 0.075407 -0.022955 115382.000000 0 1 0
-20.529078 7.954826 7.071046 23.124056 -0.369676 1.260031 0.052036 -0.029912 297218.000000 0 1 0
-21.344978 8.001226 5.922346 23.552110 -0.358642 1.316611 0.069075 -0.029914 -37563.400000 0 1 0
-21.685678 6.646726 5.318846 23.296732 -0.297412 1.340456 0.102237 -0.028982 -7445.520000 0 1 0
-22.468778 5.703126 6.056146 23.959310 -0.248575 1.315256 0.124856 -0.028416 591820.000000 0 1 0
-22.224178 4.371426 5.620246 23.336894 -0.194217 1.327574 0.141506 -0.043390 -572157.000000 0 1 0
-23.404678 3.406026 5.793246 24.350393 -0.144513 1.330581 0.171306 -0.036507 -11768.800000 0 1 0
-24.412578 3.771926 4.853946 25.174634 -0.153295 1.376770 0.198853 -0.043311 1059440.000000 0 0 1
-25.575498 2.916026 4.912046 26.205677 -0.113526 1.382239 0.221322 -0.044953 839231.000000 0 0 1
-26.771318 3.220526 3.972446 27.255377 -0.119722 1.424526 0.230022 -0.045665 57959.000000 0 0 1
-26.605428 3.041426 2.604046 26.905020 -0.113822 1.473858 0.229945 -0.046023 288226.000000 0 0 1
-27.888218 3.080826 2.002546 28.129244 -0.110024 1.499545 0.227105 -0.042412 179403.000000 0 0 1
-27.954038 3.169926 0.468646 28.137098 -0.112915 1.554140 0.254005 -0.047021 -234454.000000 0 0 1
-27.577228 4.452026 -0.014554 27.934284 -0.160058 1.571317 0.264382 -0.048162 -5266.450000 0 0 1
-27.566218 4.657126 -1.441754 27.993997 -0.167363 1.622321 0.310549 -0.041474 -76088.900000 0 0 1
-28.925788 4.820926 -2.167154 29.404746 -0.165147 1.644564 0.279082 -0.047672 137690.000000 0 0 1
-29.640688 3.591826 -2.277654 29.944270 -0.120591 1.646933 0.220916 -0.049644 742733.000000 0 0 1
-31.043118 3.802826 -2.117254 31.346761 -0.121894 1.638391 0.171423 -0.020075 152666.000000 0 0 1
-31.911858 2.549326 -2.313654 32.097021 -0.079717 1.642942 0.133845 -0.019235 -478771.000000 0 0 1
-32.155668 2.255326 -3.680054 32.444048 -0.070023 1.684469 0.118019 -0.034326 537420.000000 0 0 1
-32.824238 1.006826 -3.828954 33.062141 -0.030664 1.686868 0.133600 -0.044208 -62420.200000 0 0 1
-32.889508 0.592426 -5.301854 33.319369 -0.018011 1.730598 0.137434 -0.035737 -286132.000000 0 0 1
-31.604938 0.366026 -5.859354 32.145577 -0.011581 1.754097 0.170780 -0.053157 254895.000000 0 0 1
-31.546038 -0.235874 -7.154954 32.348130 0.007477 1.793827 0.189968 -0.058532 -334456.000000 0 0 1
-32.158048 0.379526 -8.424354 33.245358 -0.011801 1.826989 0.175896 -0.044711 -439072.000000 0 0 1
-33.549108 0.573626 -8.329354 34.572385 -0.017096 1.814115 0.169830 -0.036824 135248.000000 0 0 1
-33.943028 1.475926 -9.414354 35.255320 -0.043455 1.841110 0.172106 -0.036853 321045.000000 0 0 1
-35.458624 1.809126 -9.300454 36.702662 -0.050977 1.826990 0.175624 -0.033658 316830.000000 0 0 1
-35.677828 2.577526 -8.152954 36.688168 -0.072119 1.794890 0.138557 -0.027632 -41738.600000 0 0 1
-37.076278 2.593426 -7.987254 38.015424 -0.069835 1.782479 0.148537 -0.023106 -229743.000000 0 0 1
-37.482258 3.224026 -6.605054 38.196083 -0.085804 1.744595 0.156440 -0.018567 477243.000000 0 0 1
36.621464 3.154526 -6.336154 37.299189 0.085927 1.741498 0.166588 -0.020823 508424.000000 0 0 1
36.198874 3.861226 -5.218454 36.776349 0.106265 1.713174 0.164500 -0.021389 705886.000000 0 0 1
34.735634 3.548726 -4.748054 35.237789 0.101811 1.705951 0.198870 -0.028002 807782.000000 0 0 1
34.661544 2.250726 -4.171254 34.984107 0.064843 1.690313 0.184482 -0.027313 999678.000000 0 0 1
33.335114 1.693426 -4.389454 33.665484 0.050756 1.701553 0.220486 -0.032943 1239110.000000 0 0 1
33.143994 0.390626 -3.697354 33.351872 0.011785 1.681884 0.258674 -0.034758 92605.700000 0 0 1
33.807564 -0.751874 -4.233154 34.079852 -0.022236 1.695331 0.173702 -0.032554 267169.000000 0 0 1
33.543954 -1.836774 -3.311854 33.757058 -0.054703 1.669063 0.186173 -0.028132 564209.000000 0 0 1
34.678494 -2.911974 -3.404054 34.966629 -0.083774 1.668302 0.156657 -0.024409 363158.000000 0 0 1
34.471884 -3.965374 -2.435254 34.784558 -0.114529 1.640863 0.167430 -0.034508 652588.000000 0 0 1
35.598714 -4.825874 -2.233054 35.993667 -0.134742 1.632876 0.203331 -0.032261 245111.000000 0 0 1
35.209054 -6.071474 -1.493554 35.759908 -0.170761 1.612575 0.243869 -0.047837 -169606.000000 0 0 1
35.128434 -6.030374 -0.061654 35.642336 -0.170009 1.572526 0.236387 -0.065661 232629.000000 0 0 1
35.338184 -7.331674 0.479446 36.093913 -0.204569 1.557513 0.253834 -0.059143 -52814.300000 0 0 1
34.137964 -7.729674 1.378346 35.029249 -0.222670 1.531438 0.258440 -0.042558 -166367.000000 0 0 1
32.994514 -7.917174 0.539846 33.935395 -0.235502 1.554888 0.224701 -0.033244 1264290.000000 0 0 1
31.799584 -7.448474 1.243046 32.683918 -0.230084 1.532755 0.274718 -0.050464 855753.000000 0 0 1
31.150834 -8.354474 2.335346 32.336134 -0.262028 1.498512 0.224634 -0.048632 -1100170.000000 0 0 1
30.349154 -9.398074 1.942146 31.830282 -0.300300 1.509743 0.204062 -0.044186 -371760.000000 0 0 1
29.017054 -9.049674 2.211546 30.475842 -0.302315 1.498165 0.214751 -0.043247 -1423510.000000 0 0 1
27.921154 -10.132274 1.985746 29.769061 -0.348111 1.504042 0.172620 -0.036420 115107.000000 0 0 1
26.604654 -9.793374 2.409546 28.452130 -0.352714 1.486007 0.153181 -0.043255 1030340.000000 0 0 1
25.992254 -8.713874 1.661346 27.464321 -0.323474 1.510268 0.170696 -0.041061 -818538.000000 0 0 1
25.436654 -8.973474 0.206246 26.973860 -0.339147 1.563150 0.142911 -0.031137 -701808.000000 0 0 1
26.448254 -9.322674 -0.685354 28.051597 -0.338889 1.595231 0.147374 -0.043351 241049.000000 0 0 1
25.973154 -9.646774 -2.002054 27.779006 -0.355622 1.642930 0.121377 -0.038888 -152425.000000 0 0 1
25.253554 -10.989474 -2.324654 27.639004 -0.410449 1.655004 0.114255 -0.027658 -1204150.000000 0 0 1
23.963954 -11.035374 -1.889254 26.450328 -0.431550 1.642284 0.092449 -0.003964 -1206730.000000 0 0 1
23.390554 -12.282474 -2.145554 26.506237 -0.483529 1.651830 0.084948 -0.005528 830707.000000 0 0 1
21.869354 -12.429974 -1.754954 25.216121 -0.516840 1.640449 0.086209 -0.008853 262558.000000 0 0 1
20.954654 -11.843374 -2.578254 24.207652 -0.514431 1.677504 0.087579 -0.007099 375959.000000 0 1 0
19.626854 -12.307874 -2.237854 23.274560 -0.560103 1.667095 0.089220 -0.009488 503355.000000 0 1 0
18.605654 -11.697174 -3.180154 22.206027 -0.561248 1.714502 0.074290 -0.005946 -643061.000000 0 1 0
18.692454 -12.224174 -4.501554 22.783816 -0.579156 1.769682 0.081183 -0.010997 223437.000000 0 1 0
17.793454 -11.623474 -5.391654 21.926744 -0.578653 1.819238 0.074359 -0.011549 -723957.000000 0 1 0
17.823954 -12.217174 -6.781254 22.648136 -0.600884 1.874879 0.090166 -0.021578 -471422.000000 0 1 0
17.132554 -13.461574 -6.918954 22.860672 -0.665979 1.878276 0.069432 -0.018887 472683.000000 0 1 0
17.768754 -14.286674 -7.883054 24.124266 -0.677196 1.903679 0.085297 -0.020862 -3647.570000 0 1 0
16.836654 -15.385674 -8.454954 24.324435 -0.740398 1.925797 0.077145 -0.021849 4720.070000 0 1 0
15.843154 -14.905274 -9.340454 23.673124 -0.754906 1.976385 0.103682 -0.013113 444540.000000 0 1 0
15.146754 -15.964174 -10.006454 24.174535 -0.811666 1.997558 0.088983 -0.011894 -70993.100000 0 1 0
14.455454 -15.533574 -11.313954 24.046988 -0.821333 2.060646 0.082842 -0.032737 414451.000000 0 1 0
13.276054 -14.717974 -11.079154 22.707268 -0.836861 2.080493 0.081168 -0.037594 937280.000000 0 1 0
13.539554 -13.336774 -10.880754 21.899312 -0.777853 2.090766 0.080388 -0.028400 -426909.000000 0 1 0
13.551754 -12.424374 -12.139854 22.031595 -0.742025 2.154383 0.097957 -0.024438 127428.000000 0 1 0
14.692854 -12.568874 -12.987754 23.292452 -0.707645 2.162282 0.109936 -0.022699 473559.000000 0 1 0
14.618454 -11.890774 -14.209554 23.600871 -0.682864 2.216897 0.142935 -0.026501 635465.000000 0 1 0
16.040354 -11.557874 -14.823854 24.710808 -0.624385 2.214164 0.160088 -0.036419 995666.000000 0 1 0
16.802354 -12.660874 -15.274554 25.998631 -0.645749 2.198779 0.150141 -0.035139 143166.000000 0 0 1
17.913754 -12.243274 -16.035354 26.980232 -0.599537 2.207237 0.143627 -0.024044 -117458.000000 0 0 1
18.982454 -13.334174 -16.236254 28.315185 -0.612367 2.181460 0.114412 -0.023244 -497140.000000 0 0 1
20.028254 -13.340774 -15.301954 28.517661 -0.587609 2.137173 0.096535 -0.026483 -223982.000000 0 0 1
21.037654 -14.239374 -15.655454 29.840173 -0.595021 2.123093 0.065522 -0.025501 -8554.060000 0 0 1
22.180654 -14.292474 -14.596154 30.154667 -0.572405 2.076065 0.071442 -0.031277 306587.000000 0 0 1
23.045254 -13.158074 -14.668454 30.321316 -0.518798 2.075750 0.088618 -0.020320 -195978.000000 0 0 1
23.922854 -13.159074 -13.581554 30.494635 -0.502891 2.032390 0.108478 -0.022832 -145015.000000 0 0 1
24.841854 -11.959274 -13.558754 30.724286 -0.448670 2.027848 0.122712 -0.016243 -767601.000000 0 0 1
24.087554 -10.858374 -13.060754 29.473680 -0.423509 2.029887 0.115979 -0.008545 441640.000000 0 0 1
24.744854 -9.611374 -12.962054 29.541516 -0.370483 2.025030 0.139300 -0.019145 -31030.600000 0 0 1
25.895854 -9.384274 -11.960854 30.028684 -0.347666 1.980475 0.150575 -0.018591 -257634.000000 0 0 1
27.115554 -9.989674 -12.262654 31.391393 -0.352982 1.972120 0.133588 -0.025964 -333437.000000 0 0 1
28.051954 -9.735174 -11.234454 31.747420 -0.334036 1.932502 0.128879 -0.022912 259622.000000 0 0 1
29.440654 -10.385974 -11.531854 33.280688 -0.339146 1.924637 0.131373 -0.031802 377369.000000 0 0 1
30.064754 -9.761974 -12.627954 34.038960 -0.313959 1.950866 0.115030 -0.029661 1461990.000000 0 0 1
31.428044 -10.274274 -12.805054 35.457750 -0.315962 1.940282 0.119291 -0.030936 1433770.000000 0 0 1
32.166834 -9.870774 -14.118354 36.489249 -0.297740 1.968083 0.102765 -0.027158 -135673.000000 0 0 1
31.680364 -10.426774 -15.331854 36.707340 -0.317958 2.001685 0.096366 -0.026159 60118.300000 0 0 1
32.478054 -10.080074 -16.448654 37.775523 -0.300939 2.021314 0.072740 -0.030336 -249548.000000 0 0 1
31.968844 -10.766374 -17.698854 38.094241 -0.324847 2.053987 0.047065 -0.020583 638553.000000 0 0 1
30.706654 -10.399974 -18.274554 37.215822 -0.326562 2.084083 0.062130 -0.015884 687226.000000 0 0 1
30.557994 -9.120974 -18.804454 37.021489 -0.290062 2.103580 0.050054 -0.014504 642704.000000 0 0 1
29.101054 -8.628474 -19.218054 35.925694 -0.288243 2.135232 0.024245 -0.017415 1074340.000000 0 0 1
28.716254 -9.095974 -20.509254 36.441590 -0.306755 2.168563 0.021592 -0.007379 -68347.900000 0 0 1
27.360054 -8.795474 -20.706954 35.421898 -0.311037 2.195159 0.047358 -0.005195 -137746.000000 0 0 1
26.785154 -9.478774 -21.978754 35.921543 -0.340129 2.229199 0.061468 -0.012018 -31547.000000 0 0 1
26.716954 -10.901174 -22.064154 36.324346 -0.387405 2.223606 0.065379 -0.005785 302599.000000 0 0 1
25.942054 -11.098974 -23.257954 36.566512 -0.404271 2.260159 0.092017 -0.011987 -752904.000000 0 0 1
26.063754 -12.517974 -23.815854 37.459496 -0.447750 2.259810 0.092140 -0.002382 1169800.000000 0 0 1
27.331654 -12.898374 -24.391054 38.836978 -0.440933 2.249824 0.080100 -0.000073 851232.000000 0 0 1
28.453054 -12.787174 -23.544054 39.082101 -0.422366 2.217333 0.047900 0.008536 -1053130.000000 0 0 1
29.722554 -13.548874 -23.970854 40.516713 -0.427704 2.203874 0.031284 0.013234 270741.000000 0 0 1
30.262154 -12.922774 -25.184104 41.437123 -0.403587 2.224042 0.048110 -0.003673 -176145.000000 0 0 1
31.609064 -13.262974 -25.342694 42.629703 -0.397283 2.207421 0.005282 0.000980 -298728.000000 0 0 1
32.266114 -12.711174 -26.638894 43.729929 -0.375278 2.225808 0.024876 -0.004746 -62615.800000 0 0 1
32.080864 -13.464674 -27.843684 44.561755 -0.397382 2.245715 0.038741 -0.017500 339492.000000 0 0 1
32.861424 -12.809674 -28.860324 45.572791 -0.371690 2.256580 0.044972 -0.019946 334331.000000 0 0 1
32.990544 -13.655774 -30.165204 46.741798 -0.392457 2.272288 0.061549 -0.026281 217082.000000 0 0 1
33.792064 -14.831774 -30.025904 47.575624 -0.413596 2.253792 0.069601 -0.026666 -123365.000000 0 0 1
34.111404 -15.430074 -31.271824 48.781165 -0.424801 2.266679 0.056635 -0.024982 254239.000000 0 0 1
32.935974 -16.200974 -31.972954 48.677713 -0.457141 2.287403 0.048810 -0.019796 677520.000000 0 0 1
32.040514 -15.390474 -32.701234 48.299399 -0.447800 2.314547 0.055409 -0.025747 -158757.000000 0 0 1
30.894854 -16.086274 -33.101474 48.051720 -0.480053 2.330728 0.048639 -0.021668 -197661.000000 0 0 1
29.853854 -15.344974 33.640992 47.523017 -0.474787 0.784292 0.071479 -0.017159 40527.800000 0 0 1
29.083054 -14.303874 -33.359954 46.511411 -0.457089 2.370633 0.079337 -0.030220 709734.000000 0 0 1
29.850254 -13.132274 -33.073814 46.447513 -0.414455 2.363236 0.093941 -0.028836 -257394.000000 0 0 1
28.910254 -11.976274 -32.831054 45.355397 -0.392736 2.380180 0.100106 -0.030583 -44665.100000 0 0 1
28.283854 -11.547374 33.558852 45.381878 -0.387613 0.738503 0.096102 -0.034027 -183881.000000 0 0 1
27.349954 -10.538974 -33.758374 44.707022 -0.367803 2.426606 0.065178 -0.035887 -26871.300000 0 0 1
21.804022 -29.259224 8.887546 37.556705 -0.930373 1.331887 0.055762 -0.018798 55883.400000 0 0 1
22.170622 -28.925224 7.603146 37.229194 -0.916831 1.365124 0.061809 -0.023865 -133939.000000 0 0 1
23.376122 -29.548524 7.242446 38.366801 -0.901500 1.380888 0.062557 -0.023455 -70894.100000 0 0 1
24.049522 -29.090124 5.896346 38.201855 -0.879971 1.415830 0.059535 -0.021244 59538.700000 0 0 1
24.482022 -27.733824 5.890046 37.459672 -0.847594 1.412904 0.061005 -0.007651 75693.100000 0 0 1
24.955022 -27.396724 4.614946 37.344763 -0.832005 1.446903 0.056529 -0.004997 -202954.000000 0 0 1
25.059822 -25.887524 4.292646 36.284782 -0.801643 1.452214 0.061439 -0.007059 -388907.000000 0 0 1
26.144422 -25.204324 4.828046 36.634667 -0.767092 1.438623 0.059231 -0.005930 -376065.000000 0 0 1
25.972722 -23.822224 4.697246 35.554814 -0.742238 1.438296 0.054035 -0.001372 221224.000000 0 0 1
26.868422 -22.941224 5.613446 35.773211 -0.706717 1.413228 0.062368 -0.009840 1286880.000000 0 0 1
28.236622 -22.702124 5.191246 36.601124 -0.677173 1.428483 0.065907 -0.010866 1352410.000000 0 0 1
29.024822 -22.028724 6.187646 36.959328 -0.649212 1.402587 0.064789 -0.009162 55684.000000 0 0 1
28.773222 -20.525024 6.457146 35.928675 -0.619621 1.390093 0.082470 -0.006924 -372111.000000 0 0 1
28.989222 -19.677024 5.362246 35.444520 -0.596335 1.418928 0.077652 0.006434 110540.000000 0 0 1
28.213322 -18.485924 5.406246 34.160627 -0.580036 1.411869 0.097906 0.005034 113225.000000 0 0 1
28.348522 -17.583024 4.137746 33.614318 -0.555173 1.447389 0.108185 0.010579 1084140.000000 0 0 1
29.700222 -17.107224 3.911446 34.497242 -0.522583 1.457168 0.112827 0.008955 1092640.000000 0 0 1
29.957722 -16.446524 2.728046 34.284042 -0.502068 1.491140 0.128177 0.018434 11255.700000 0 0 1
31.186422 -15.545124 2.920746 34.968194 -0.462413 1.487173 0.140633 -0.008366 -68744.200000 0 0 1
30.877022 -14.498024 3.899846 34.333540 -0.438985 1.456964 0.150230 -0.011416 -4376.710000 0 0 1
32.006522 -13.788324 4.317146 35.116564 -0.406771 1.447547 0.146435 -0.021767 -253187.000000 0 0 1
31.658522 -12.603224 5.227746 34.473651 -0.378866 1.418564 0.155504 -0.030130 45895.300000 0 0 1
31.255122 -13.151924 6.506746 34.528155 -0.398302 1.381215 0.130220 -0.033112 74134.400000 0 0 1
30.847922 -12.115124 7.360346 33.949157 -0.374230 1.352256 0.120697 -0.018592 -583444.000000 0 0 1
30.536122 -12.449724 8.838946 34.140553 -0.387131 1.308914 0.151143 -0.019200 -478368.000000 0 0 1
29.352122 -13.176524 9.015346 33.413236 -0.421949 1.297597 0.132956 -0.010109 -438325.000000 0 0 1
29.059422 -13.715024 10.299046 33.743477 -0.440969 1.260631 0.159887 -0.015939 -239186.000000 0 0 1
29.980022 -14.763624 10.966546 35.171458 -0.457588 1.253707 0.155274 -0.022391 54332.700000 0 0 1
31.003422 -14.111524 11.736146 36.028939 -0.427137 1.239000 0.130138 -0.008376 55538.400000 0 0 1
31.576922 -15.097424 12.534046 37.177097 -0.445987 1.226914 0.132417 -0.015465 278585.000000 0 0 1
32.736722 -14.675524 13.516946 38.337603 -0.421430 1.210473 0.121107 -0.019868 1455850.000000 0 0 1
33.998222 -14.572724 12.817946 39.147709 -0.404943 1.237219 0.094108 -0.013686 166294.000000 0 0 1
35.037022 -14.387724 13.703246 40.278760 -0.389648 1.223656 0.070701 -0.011141 356815.000000 0 0 1
36.482922 -14.303924 13.080946 41.312432 -0.373653 1.248617 0.094386 -0.014205 694019.000000 0 0 1
36.938722 -13.045824 12.785046 41.208253 -0.339500 1.255336 0.123456 -0.022671 270099.000000 0 0 1
-37.275510 -13.074024 12.187146 41.339089 0.337334 1.271540 0.126695 -0.013193 128911.000000 0 0 1
-36.471910 -11.772424 12.290646 40.247362 0.312223 1.260461 0.146444 -0.028384 143932.000000 0 0 1
-35.232310 -11.789324 11.608246 38.923710 0.322905 1.267958 0.137651 -0.031625 82962.000000 0 0 1
-34.507010 -10.574324 11.572746 37.900904 0.297354 1.260499 0.126197 -0.039922 579498.000000 0 0 1
-33.127110 -10.724524 10.836646 36.467159 0.313091 1.269078 0.135073 -0.038674 588374.000000 0 0 1
-32.125710 -11.547324 11.375446 35.983367 0.345061 1.249148 0.118546 -0.035500 26525.800000 0 0 1
-32.444510 -12.942724 11.229046 36.691304 0.379574 1.259765 0.125726 -0.031706 -602995.000000 0 0 1
-31.337310 -13.952424 11.606446 36.213350 0.418883 1.244537 0.083300 -0.025553 38694.900000 0 0 1
-30.235110 -13.894424 10.743846 34.966371 0.430764 1.258482 0.098510 -0.030501 783684.000000 0 0 1
-29.271410 -15.025424 10.907546 34.663430 0.474242 1.250687 0.098122 -0.014447 912388.000000 0 0 1
-27.995310 -14.846824 10.104846 33.260689 0.487618 1.262110 0.107484 -0.015152 -331681.000000 0 0 1
-28.282610 -15.068924 8.725546 33.213155 0.489541 1.304963 0.119264 -0.036597 -228646.000000 0 0 1
-27.101810 -15.005524 8.000846 31.995115 0.505658 1.318049 0.098223 -0.032587 -489336.000000 0 0 1
-27.272010 -14.932424 6.484946 31.761523 0.500950 1.365174 0.128548 -0.028987 -11699.000000 0 0 1
-27.836910 -16.143724 5.964046 32.727408 0.525539 1.387538 0.137909 -0.009768 222231.000000 0 0 1
-27.971310 -16.117524 4.542746 32.600695 0.522748 1.430996 0.148517 -0.005459 -187113.000000 0 0 1
-28.790210 -17.318924 3.994446 33.834552 0.541563 1.452462 0.132439 -0.008481 -395485.000000 0 0 1
-30.148110 -17.077824 4.205446 34.903386 0.515396 1.450015 0.102281 -0.027061 -793189.000000 0 0 1
-30.922810 -18.133924 3.715746 36.039785 0.530378 1.467512 0.111382 -0.015519 437226.000000 0 0 1
-32.441410 -17.950724 4.040846 37.296139 0.505394 1.462238 0.148938 -0.035606 743116.000000 0 0 1
-33.148910 -16.977224 3.263446 37.386180 0.473321 1.483395 0.210837 -0.043195 -198609.000000 0 0 1
-34.476810 -16.872524 3.712546 38.563136 0.455122 1.474375 0.219990 -0.035909 -199198.000000 0 0 1
-35.362910 -15.994524 2.822346 38.914339 0.424762 1.498205 0.208975 -0.049639 -77085.400000 0 0 1
-35.602210 -16.470324 1.574946 39.259004 0.433300 1.530669 0.197296 -0.044152 -269741.000000 0 0 1
-36.612610 -15.736024 0.943846 39.862219 0.405928 1.547116 0.226484 -0.045408 -235079.000000 0 0 1
-37.014410 -16.336324 -0.387954 40.461000 0.415638 1.580385 0.185700 -0.038956 25061.500000 0 0 1
-35.960910 -16.385024 -1.351454 39.540896 0.427530 1.604982 0.192656 -0.035607 439284.000000 0 0 1
-36.117310 -17.511724 -2.236954 40.201051 0.451460 1.626469 0.147345 -0.021684 -58898.000000 0 0 1
-34.861510 -17.849224 -3.064854 39.285022 0.473204 1.648892 0.120327 -0.016938 -147546.000000 0 0 1
-35.109610 -18.932724 -3.885654 40.077812 0.494549 1.667902 0.104768 -0.015100 -563098.000000 0 0 1
-33.967910 -19.442624 -4.476254 39.393799 0.519865 1.684671 0.114113 -0.014856 -751947.000000 0 0 1
-34.377010 -20.466224 -5.504154 40.384909 0.536991 1.707514 0.116219 -0.018799 -229656.000000 0 0 1
-34.857010 -21.705024 -4.987454 41.364162 0.556935 1.691665 0.108687 -0.024745 45348.700000 0 0 1
-35.441410 -22.493824 -6.026554 42.407370 0.565527 1.713390 0.099342 -0.012244 442668.000000 0 0 1
-36.135910 -23.755324 -5.406554 43.581535 0.581552 1.695173 0.103518 -0.017109 -18116.400000 0 0 1
-35.145910 -24.548424 -4.873254 43.146364 0.609700 1.683985 0.123323 -0.016881 -350739.000000 0 0 1
-35.740310 -25.777024 -4.560454 44.301495 0.624833 1.673920 0.107385 -0.009719 149151.000000 0 0 1
-34.706710 -26.745224 -3.983954 43.996984 0.656560 1.661471 0.093023 -0.014260 -139698.000000 0 0 1
-33.704110 -27.095124 -4.959254 43.528232 0.677122 1.684976 0.093630 -0.011556 698734.000000 0 0 1
-32.848110 -28.151424 -4.546254 43.499074 0.708554 1.675501 0.100405 -0.021616 325142.000000 0 0 1
-31.834410 -28.020924 -3.394154 42.545530 0.721772 1.650658 0.109668 -0.035301 -624541.000000 0 0 1
-32.438410 -28.012224 -2.129054 42.912329 0.712309 1.620431 0.102515 -0.034179 422890.000000 0 0 1
-31.458210 -28.077724 -1.080754 42.179919 0.728678 1.596422 0.104335 -0.039490 284607.000000 0 0 1
-32.086010 -27.868124 0.329246 42.500032 0.715162 1.563049 0.093855 -0.031523 87550.100000 0 0 1
-32.629710 -29.125424 0.742146 43.744017 0.728714 1.553830 0.093826 -0.025000 310243.000000 0 0 1
-33.587210 -28.978324 1.800246 44.396901 0.711866 1.530236 0.094134 -0.017519 181169.000000 0 0 1
-34.143110 -30.304124 2.278946 45.708702 0.725901 1.520918 0.081766 -0.018813 -158192.000000 0 0 1
-35.166110 -30.105224 3.273346 46.407915 0.708017 1.500203 0.071780 -0.016363 433116.000000 0 0 1
-35.872610 -31.167524 3.797746 47.672650 0.715330 1.491049 0.063476 -0.015567 150401.000000 0 0 1
-36.777210 -31.952124 2.812146 48.799688 0.715309 1.513138 0.057908 -0.010943 -490084.000000 0 0 1
-37.346410 -33.077424 3.423046 50.005875 0.724854 1.502290 0.067217 -0.009867 149625.000000 0 0 1
37.084422 -33.593924 2.627246 50.106971 -0.736053 1.518340 0.074900 -0.015012 75839.800000 0 0 1
35.996922 33.337826 3.478046 49.186237 0.747065 1.500025 0.078439 -0.019054 15544.800000 0 0 1
35.323722 -33.660124 4.520346 49.002070 -0.761287 1.478417 0.056619 -0.016918 691825.000000 0 0 1
34.525122 -32.546124 4.062846 47.620804 -0.755901 1.485376 0.059557 -0.018938 708287.000000 0 0 1
33.287922 -32.610324 3.083646 46.701476 -0.775116 1.504719 0.064933 -0.017201 365914.000000 0 0 1
33.725922 -32.918824 1.769646 47.161621 -0.773288 1.533265 0.070972 -0.017490 548635.000000 0 0 1
32.703122 -32.711024 0.737646 46.260668 -0.785519 1.554850 0.060831 -0.017978 -15221.100000 0 0 1
33.114322 -33.437424 -0.615854 47.063775 -0.790253 1.583882 0.071769 -0.021251 840108.000000 0 0 1
34.233122 -32.962124 -1.386854 47.542945 -0.766485 1.599971 0.050760 -0.007997 428142.000000 0 0 1
35.429422 -32.987124 -0.623354 48.412631 -0.749716 1.583673 0.049980 -0.007394 -857423.000000 0 0 1
36.759722 -32.657624 -1.330754 49.189110 -0.726374 1.597853 0.049623 -0.001646 -47037.100000 0 0 1
37.133322 -33.724124 -2.125654 50.206758 -0.737322 1.613147 0.047114 -0.015003 154783.000000 0 0 1
-37.590510 -33.256924 -3.234854 50.294470 0.724306 1.635159 0.055901 -0.015932 -516506.000000 0 0 1
-37.034310 33.279526 -4.088954 49.957847 -0.732048 1.652736 0.048656 -0.021740 36644.900000 0 0 1
-35.865910 32.704026 -3.510954 48.664603 -0.739319 1.643005 0.058896 -0.018960 112911.000000 0 0 1
-35.361910 31.746626 -4.413754 47.726242 -0.731578 1.663409 0.074313 -0.029945 33019.500000 0 0 1
-34.013410 31.173226 -3.908354 46.302886 -0.741856 1.655305 0.090055 -0.035857 -491014.000000 0 0 1
-32.998310 32.150826 -3.818454 46.229262 -0.772391 1.653489 0.082149 -0.039273 -102089.000000 0 0 1
-31.712310 31.571626 -3.775554 44.907605 -0.783175 1.654970 0.143167 -0.043932 187514.000000 0 0 1
-31.182710 31.163026 -2.389254 44.149792 -0.785082 1.624940 0.125906 -0.040970 -23193.600000 0 0 1
-31.956910 30.124026 -1.741254 43.951484 -0.755883 1.610424 0.094921 -0.030462 512109.000000 0 0 1
-31.366910 29.937826 -0.441554 43.363019 -0.762091 1.580979 0.099785 -0.025877 680796.000000 0 0 1
-32.359810 29.243226 0.583646 43.619539 -0.734850 1.557416 0.092619 -0.027063 357322.000000 0 0 1
-32.787110 27.988826 0.147646 43.109056 -0.706611 1.567371 0.096607 -0.042814 645324.000000 0 0 1
-34.129510 28.016426 -0.368954 44.157442 -0.687347 1.579152 0.092374 -0.031826 432236.000000 0 0 1
-34.513510 26.612626 -0.868854 43.590929 -0.656855 1.590730 0.092249 -0.021317 -84106.800000 0 0 1
-34.531810 25.561126 0.059546 42.963014 -0.637212 1.569410 0.084974 -0.023111 9917.950000 0 0 1
-34.890110 24.344626 -0.564154 42.547607 -0.609215 1.584056 0.107813 -0.023785 -399919.000000 0 0 1
-34.785910 23.004826 0.326446 41.705972 -0.584296 1.562969 0.132288 -0.033557 489377.000000 0 0 1
-33.460810 22.678126 0.782246 40.429384 -0.595638 1.551447 0.127829 -0.044661 680236.000000 0 0 1
-33.072310 23.383426 1.945646 40.550559 -0.615435 1.522797 0.123940 -0.045023 -1428300.000000 0 0 1
-31.568110 23.322126 2.111246 39.305527 -0.636286 1.517057 0.112470 -0.051392 -121133.000000 0 0 1
-30.745910 24.179726 1.257246 39.135033 -0.666416 1.538665 0.131514 -0.043505 571954.000000 0 0 1
-30.727310 25.514026 1.711746 39.975782 -0.692967 1.527964 0.098463 -0.042750 -276889.000000 0 0 1
-30.011110 26.454626 0.709646 40.012717 -0.722496 1.553060 0.096088 -0.041947 338172.000000 0 0 1
-28.600410 26.323926 0.666646 38.876432 -0.743974 1.553648 0.103053 -0.041528 56599.200000 0 0 1
-27.991110 27.122226 -0.325654 38.977217 -0.769634 1.579151 0.110280 -0.035735 -317493.000000 0 0 1
-26.890410 26.414226 -1.084954 37.709185 -0.776465 1.599572 0.111187 -0.044619 -930596.000000 0 0 1
-27.251210 25.378926 -2.032054 37.294069 -0.749839 1.625311 0.136658 -0.050556 585648.000000 0 0 1
-26.136810 24.806726 -2.756254 36.140053 -0.759295 1.647136 0.128093 -0.035526 1201160.000000 0 0 1
-24.997110 24.000526 -2.093854 34.716926 -0.765062 1.631145 0.097384 -0.028478 210666.000000 0 0 1
-25.426410 22.684626 -1.711854 34.117811 -0.728471 1.620992 0.117238 -0.027397 -658093.000000 0 0 1
-24.427810 21.791926 -1.352454 32.763319 -0.728430 1.612088 0.102964 -0.034232 -1312840.000000 0 0 1
-24.958510 20.347826 -0.967454 32.216412 -0.683980 1.600831 0.108118 -0.030238 -43730.400000 0 0 1
-25.764910 20.197026 0.196346 32.738188 -0.664844 1.564799 0.122686 -0.028657 171826.000000 0 0 1
-27.012810 20.835126 0.195146 34.114989 -0.656998 1.565076 0.112279 -0.031963 247476.000000 0 0 1
-28.149210 20.633226 -0.891154 34.912780 -0.632529 1.596324 0.121210 -0.047366 396767.000000 0 0 1
-28.743310 19.325026 -0.717754 34.643176 -0.591914 1.591516 0.129172 -0.055189 -204961.000000 0 0 1
-29.826510 19.113326 -1.562754 35.459584 -0.569892 1.614882 0.147116 -0.050342 -359563.000000 0 0 1
-30.181510 17.567426 -1.635654 34.960168 -0.527123 1.617600 0.145702 -0.031547 707066.000000 0 0 1
-31.065010 17.117326 -0.553354 35.473143 -0.503623 1.586396 0.131086 -0.032909 678493.000000 0 0 1
-31.231010 15.703126 -0.477254 34.959861 -0.465890 1.584448 0.133416 -0.042650 594228.000000 0 0 1
-30.003010 14.842226 0.049346 33.473492 -0.459392 1.569322 0.182012 -0.046453 537236.000000 0 0 1
-29.813210 15.019226 1.470946 33.415091 -0.466665 1.526762 0.198495 -0.043248 111039.000000 0 0 1
-28.563210 14.629226 2.006146 32.154250 -0.473336 1.508364 0.231454 -0.048467 3886.620000 0 0 1
-28.192410 13.108926 2.032246 31.157438 -0.435242 1.505525 0.241837 -0.054496 -259354.000000 0 0 1
-27.959610 12.445626 0.817146 30.615374 -0.418796 1.544102 0.234898 -0.057514 363921.000000 0 0 1
-27.570210 11.101926 1.151146 29.743812 -0.382813 1.532085 0.273833 -0.059737 -140470.000000 0 0 1
-27.526110 10.098626 -0.046354 29.320149 -0.351628 1.572377 0.266751 -0.054614 -1107710.000000 0 0 1
-28.713310 9.819626 -0.668954 30.353364 -0.329520 1.592837 0.243847 -0.045046 -877403.000000 0 0 1
-28.488810 8.977526 -1.782054 29.922967 -0.305274 1.630386 0.262630 -0.037129 395234.000000 0 0 1
-29.716210 8.712526 -2.715454 31.085928 -0.285198 1.658261 0.231676 -0.040144 226621.000000 0 0 1
-29.285610 7.872026 -3.757454 30.557064 -0.262595 1.694073 0.221401 -0.030856 311893.000000 0 0 1
-30.376810 7.323526 -4.456254 31.563314 -0.236575 1.712454 0.202773 -0.029723 -162696.000000 0 0 1
-11.676678 18.277226 -20.038554 29.528722 -1.002289 2.316668 0.148722 -0.018707 295549.000000 0 0 1
-11.735078 17.432726 -21.212154 29.859127 -0.978309 2.360874 0.152982 -0.029019 220649.000000 0 0 1
-10.665878 16.479626 -21.154854 28.859433 -0.996381 2.393563 0.139000 -0.039878 142406.000000 0 0 1
-10.807178 15.313926 -22.196054 29.051269 -0.956249 2.440334 0.127172 -0.029083 -20581.400000 0 0 1
-9.799378 14.341926 -22.032154 28.055917 -0.971388 2.473968 0.147161 -0.046795 -35291.000000 0 0 1
-9.949078 13.293826 -22.878254 28.268790 -0.928321 2.513775 0.127086 -0.046615 269219.000000 0 0 1
-8.895278 12.183026 -22.584154 27.158721 -0.940129 2.552710 0.122658 -0.036304 742397.000000 0 0 1
-7.519278 12.531226 -22.743954 27.034397 -1.030345 2.570474 0.078593 -0.036525 284975.000000 0 0 1
-6.738078 11.474626 -22.235454 25.913011 -1.039830 2.602317 0.069278 -0.028345 -277051.000000 0 0 1
-5.226578 11.696326 -22.342454 25.754736 -1.150560 2.620968 0.041356 -0.020586 -276370.000000 0 0 1
-4.755478 11.449726 -23.650654 26.703263 -1.177140 2.658762 0.033417 -0.027058 -1115880.000000 0 0 1
-3.391178 11.666526 -23.772654 26.697322 -1.287916 2.669131 0.022861 -0.019703 -682991.000000 0 0 1
-2.926178 11.426026 -25.250244 27.869184 -1.320087 2.704597 0.051463 -0.036731 -232899.000000 0 0 1
-2.925778 10.055726 -25.652434 27.707854 -1.287657 2.753991 0.057629 -0.032643 -182019.000000 0 0 1
-2.521978 9.810926 -26.968394 28.808140 -1.319186 2.782278 0.070324 -0.034956 -51365.600000 0 0 1
-2.298678 8.241526 -27.263854 28.574891 -1.298795 2.837501 0.076581 -0.013070 404500.000000 0 0 1
-1.256078 7.593426 -26.526674 27.620686 -1.406864 2.859200 0.063856 -0.020517 307758.000000 0 0 1
-1.512478 7.345526 -25.182544 26.275556 -1.367730 2.852146 0.072745 -0.031354 71181.100000 0 0 1
-0.444078 6.389926 -24.562554 25.383999 -1.501411 2.886497 -0.004215 -0.020817 984551.000000 0 0 1
0.908322 6.846826 -24.365754 25.325759 1.438903 2.865375 0.029468 0.001514 846068.000000 0 0 1
1.572722 5.936426 -23.512554 24.301333 1.311818 2.886111 0.020886 0.012283 -35240.600000 0 1 0
1.641522 6.374626 -22.065454 23.026392 1.318763 2.851677 0.032699 0.001237 -10224.200000 0 1 0
2.459222 7.536326 -21.943954 23.331976 1.255375 2.794924 0.042634 -0.012014 227982.000000 0 1 0
2.398222 8.134726 -20.670754 22.342903 1.284105 2.752253 0.059308 -0.013029 -81184.800000 0 1 0
3.089522 9.500026 -20.576554 22.873352 1.256373 2.689618 0.056467 -0.020758 -115170.000000 0 1 0
2.965822 10.156826 -19.359254 22.062138 1.286692 2.641395 0.062919 -0.029680 -91644.800000 0 1 0
3.553122 11.432926 -19.341154 22.746796 1.269479 2.587314 0.070031 -0.032798 1260180.000000 0 1 0
4.938322 11.496626 -18.534054 22.362258 1.165082 2.547773 0.081875 -0.042124 846329.000000 0 1 0
5.937522 10.817026 -19.206554 22.828796 1.068794 2.570536 0.087658 -0.034141 -379715.000000 0 1 0
7.084122 10.645326 -18.361754 22.375472 0.983624 2.533291 0.095195 -0.022872 976616.000000 0 1 0
8.157322 9.643026 -18.936754 22.762480 0.868670 2.553370 0.127303 -0.029112 383716.000000 0 1 0
7.773322 8.286226 -19.133454 22.252531 0.817325 2.605738 0.112462 -0.025420 296839.000000 0 1 0
6.892122 8.085226 -20.264054 22.880212 0.864891 2.658707 0.083779 -0.020741 630310.000000 0 1 0
6.476222 6.585826 -20.413954 22.406340 0.793789 2.716691 0.093617 -0.017673 -77071.100000 0 1 0
7.699722 5.918426 -20.596854 22.771559 0.655333 2.701000 0.089019 -0.012046 130559.000000 0 1 0
7.574122 4.531326 -20.899454 22.686723 0.539142 2.742000 0.075285 -0.008579 -127802.000000 0 1 0
7.593822 4.230626 -22.458054 24.081705 0.508289 2.772285 0.090903 -0.018997 -1050180.000000 0 1 0
6.539622 4.833526 -23.070954 24.462186 0.636498 2.802712 0.086323 -0.018277 -969376.000000 0 1 0
6.621422 4.611626 -24.458654 25.755312 0.608353 2.822928 0.085358 -0.021323 532753.000000 0 0 1
5.562222 5.432626 -25.315634 26.482694 0.773612 2.843612 0.070481 -0.020524 531441.000000 0 0 1
5.772022 6.837426 -25.300644 26.836341 0.869690 2.801655 0.079321 -0.035426 154720.000000 0 0 1
5.529122 7.496526 -24.048854 25.789852 0.935306 2.772051 0.093048 -0.039703 -1120450.000000 0 0 1
5.550822 9.072626 -24.236654 26.467708 1.021730 2.728059 0.110562 -0.052595 64322.000000 0 0 1
4.468522 9.619226 -24.945454 27.106694 1.135916 2.739564 0.099693 -0.056142 -651943.000000 0 0 1
3.225322 9.453126 -24.350254 26.319179 1.241991 2.752334 0.096544 -0.044048 -973494.000000 0 0 1
2.025322 9.876526 -25.236634 27.176008 1.368536 2.761517 0.090830 -0.028244 57421.300000 0 0 1
1.837822 11.290026 -25.351944 27.813007 1.409429 2.717747 0.115426 -0.050461 -572592.000000 0 0 1
0.813822 11.640226 -26.210064 28.690149 1.500995 2.722740 0.114762 -0.052466 -536296.000000 0 0 1
0.738622 13.143526 -26.320754 29.429236 1.514659 2.677827 0.106235 -0.055276 -280490.000000 0 0 1
0.192722 13.746226 -25.183774 28.691782 1.556777 2.641910 0.099644 -0.054005 -1523.400000 0 0 1
-0.163578 15.092126 -25.461184 29.598495 -1.559958 2.606495 0.103966 -0.055422 -38099.300000 0 0 1
-0.837678 15.815826 -24.259054 28.971430 -1.517881 2.563203 0.107648 -0.048805 -68562.500000 0 0 1
-2.083578 15.319826 -23.848054 28.421261 -1.435620 2.566408 0.091167 -0.043219 -499477.000000 0 0 1
-2.377078 15.519726 -22.491954 27.429918 -1.418813 2.532170 0.090701 -0.054670 -450985.000000 0 0 1
-3.700878 14.766526 -22.215654 26.931061 -1.325228 2.540836 0.077686 -0.046008 -1042660.000000 0 0 1
-4.825878 15.435826 -22.592954 27.784805 -1.267783 2.520324 0.084783 -0.046563 -1143630.000000 0 0 1
-5.232078 15.217126 -23.928154 28.835605 -1.239630 2.549568 0.080847 -0.049584 67704.000000 0 0 1
-6.743878 15.308526 -24.322454 29.519699 -1.155845 2.539125 0.067704 -0.043869 530804.000000 0 0 1
-7.265778 16.561426 -24.618754 30.547593 -1.157365 2.508015 0.075201 -0.044899 -475952.000000 0 0 1
-8.582078 16.357326 -25.064454 31.135848 -1.087614 2.506477 0.083298 -0.039125 -164289.000000 0 0 1
-9.477278 17.580426 -25.367474 32.286203 -1.076375 2.474633 0.087008 -0.034371 242076.000000 0 0 1
-9.870978 18.432126 -24.283354 32.044668 -1.079129 2.430727 0.093776 -0.035976 326577.000000 0 0 1
-11.036878 19.153126 -24.681154 33.133280 -1.048028 2.411189 0.091616 -0.023144 470377.000000 0 0 1
-11.476078 20.192126 -23.603154 33.113912 -1.053978 2.364260 0.080538 -0.027064 440210.000000 0 0 1
-10.648278 21.353626 -23.571654 33.540812 -1.108218 2.350087 0.092831 -0.024558 742029.000000 0 0 1
-11.435978 22.465426 -24.036954 34.831769 -1.099937 2.332406 0.085257 -0.031800 483119.000000 0 0 1
-11.181078 22.920426 -25.538604 36.091311 -1.116939 2.356908 0.080508 -0.025683 -150525.000000 0 0 1
-11.739978 22.020426 -26.428234 36.348010 -1.080989 2.384868 0.069846 -0.028207 -51593.000000 0 0 1
-11.686378 22.560926 -27.707794 37.593732 -1.092859 2.399465 0.084970 -0.025405 -390730.000000 0 0 1
-12.253378 21.722726 -28.893254 38.168603 -1.057207 2.429491 0.074425 -0.027617 -278950.000000 0 0 1
-11.504078 20.661626 -29.390504 37.723313 -1.062759 2.464037 0.074463 -0.028690 -376362.000000 0 0 1
-11.051878 19.693326 -28.485544 36.351029 -1.059396 2.471275 0.063554 -0.025811 -549913.000000 0 0 1
-10.066578 18.713526 -29.080624 36.016867 -1.077267 2.510557 0.058553 -0.024826 -1215680.000000 0 0 1
-8.777078 19.276026 -29.238034 36.103530 -1.143513 2.514673 0.057636 -0.032443 -190378.000000 0 0 1
-7.791578 18.397426 -29.698204 35.793258 -1.170185 2.549393 0.062520 -0.027048 229803.000000 0 0 1
-7.411478 17.188726 -28.757414 34.312843 -1.163701 2.564578 0.080893 -0.040375 -422864.000000 0 0 1
-8.412578 16.166826 -28.846414 34.121157 -1.090993 2.578131 0.063289 -0.026327 546345.000000 0 0 1
-7.980878 14.974126 -28.207754 32.918023 -1.081116 2.600039 0.062583 -0.036228 -295269.000000 0 0 1
-9.215878 14.097226 -28.047184 32.715573 -0.991799 2.600806 0.073318 -0.025284 48324.200000 0 0 1
-10.068878 14.515126 -26.995634 32.261981 -0.964323 2.562141 0.076371 -0.034259 -352077.000000 0 0 1
-11.262078 13.796426 -26.827454 32.200746 -0.886193 2.555542 0.098696 -0.035511 179621.000000 0 0 1
-12.227478 14.539126 -25.861594 32.089242 -0.871548 2.508036 0.102823 -0.033304 315468.000000 0 0 1
-13.052178 15.519926 -26.488444 33.359633 -0.871554 2.488201 0.091175 -0.031626 -397737.000000 0 0 1
-13.987778 16.016926 -25.579414 33.264189 -0.852923 2.448037 0.117550 -0.030682 221206.000000 0 0 1
-14.946678 17.074726 -26.180784 34.646542 -0.851758 2.427448 0.100181 -0.020508 533697.000000 0 0 1
-14.311278 18.328826 -26.112764 34.966198 -0.907868 2.414034 0.086220 -0.022021 318367.000000 0 0 1
-15.343878 19.280026 -26.237904 35.994188 -0.898595 2.387581 0.078420 -0.016587 57371.900000 0 0 1
-14.912278 20.765126 -26.156864 36.575238 -0.947999 2.367638 0.071628 -0.019255 1261420.000000 0 0 1
-15.957178 21.773626 -26.476564 37.811781 -0.938351 2.346502 0.045174 -0.017114 1489470.000000 0 0 1
-15.276978 23.001926 -26.639074 38.368150 -0.984531 2.338246 0.037931 -0.017876 131385.000000 0 0 1
-15.301978 23.859326 -25.351544 38.027868 -1.000532 2.300511 0.022169 -0.016543 -357267.000000 0 0 1
-14.653878 25.046826 -25.589054 38.689525 -1.041435 2.293473 0.046696 -0.022329 -233103.000000 0 0 1
-14.169578 25.558326 -24.357454 38.043272 -1.064580 2.265629 0.061068 -0.030311 -486139.000000 0 0 1
-13.689278 27.022926 -24.514754 38.969322 -1.101898 2.251163 0.081451 -0.024490 521272.000000 0 0 1
-14.607078 28.033226 -25.043654 40.328812 -1.090441 2.240797 0.090710 -0.033431 166563.000000 0 0 1
-15.339878 28.724126 -24.056854 40.486041 -1.080288 2.207068 0.095885 -0.037276 -160187.000000 0 0 1
-16.484978 29.591326 -24.624754 41.878152 -1.062527 2.199392 0.086689 -0.043972 -178233.000000 0 0 1
-17.589478 28.760126 -24.885454 41.902511 -1.021896 2.206681 0.071731 -0.033476 -1353570.000000 0 0 1
-18.687678 29.566626 -25.112394 43.058646 -1.007141 2.193476 0.075140 -0.039632 -268244.000000 0 0 1
-19.998078 28.740726 -25.329434 43.214959 -0.962888 2.197066 0.090740 -0.008513 219647.000000 0 0 1
-20.368778 28.081626 -24.143554 42.265542 -0.943264 2.178806 0.095386 -0.019347 -1037270.000000 0 0 1
-21.473778 27.337326 -24.451454 42.500896 -0.904953 2.183787 0.082013 -0.035741 -872980.000000 0 0 1
-22.123778 26.482926 -23.308454 41.642418 -0.874841 2.164855 0.089455 -0.032850 151768.000000 0 0 1
-22.927678 27.292726 -22.475354 42.139208 -0.872098 2.133364 0.088241 -0.028412 -26670.700000 0 0 1
-23.355678 26.709326 -21.242354 41.353517 -0.852284 2.110261 0.082443 -0.020496 -515752.000000 0 0 1
-24.402778 27.552526 -20.514454 42.136446 -0.845948 2.079285 0.062591 -0.012849 -1116880.000000 0 0 1
-25.641878 27.320226 -21.071654 42.987385 -0.817077 2.083095 0.092892 -0.024538 -1092940.000000 0 0 1
-26.605228 28.269326 -20.719654 44.003375 -0.815714 2.061067 0.090367 -0.024205 61617.000000 0 0 1
-28.070978 27.798026 -20.863254 44.676453 -0.780513 2.056675 0.099675 -0.026948 216796.000000 0 0 1
-28.508938 27.514326 -22.189254 45.411019 -0.767646 2.081317 0.097789 -0.029069 -947195.000000 0 0 1
-29.877488 27.474726 -22.368454 46.345146 -0.743528 2.074474 0.093108 -0.023553 -826983.000000 0 0 1
-30.265928 27.047226 -23.797654 47.052175 -0.729297 2.101072 0.089835 -0.021827 -66443.000000 0 0 1
-30.145028 25.648926 -24.115854 46.348296 -0.704988 2.118020 0.101265 -0.006194 -129789.000000 0 0 1
-30.463618 25.342026 -25.425704 47.082021 -0.693879 2.141269 0.083241 -0.001609 -154330.000000 0 0 1
-30.763868 23.828826 -25.617304 46.588355 -0.659043 2.152999 0.074303 -0.004240 400983.000000 0 0 1
-29.664628 22.924926 -25.353404 45.258562 -0.657936 2.165412 0.097053 -0.019186 490867.000000 0 0 1
-30.069058 21.686226 -25.862374 45.202910 -0.624822 2.179909 0.083567 -0.013966 76877.000000 0 0 1
-28.929088 20.668226 -26.171714 44.147778 -0.620355 2.205353 0.096997 -0.010453 39605.900000 0 0 1
-28.367098 20.161326 -24.983954 42.841210 -0.617891 2.193429 0.089946 -0.006240 180641.000000 0 0 1
-27.511028 19.042226 -25.243564 41.913012 -0.605450 2.217156 0.082901 -0.011811 50647.200000 0 0 1
-28.181378 17.658926 -25.231054 41.744866 -0.559761 2.219823 0.081577 0.000816 298824.000000 0 0 1
-29.103548 17.448126 -26.323384 42.946177 -0.540066 2.230571 0.087189 -0.010276 391878.000000 0 0 1
-29.805128 16.278126 -26.125904 42.847239 -0.499884 2.226536 0.071422 -0.006631 -146804.000000 0 0 1
-30.835928 15.758126 -27.144414 43.999911 -0.472434 2.235619 0.043199 -0.009924 1191140.000000 0 0 1
-32.057198 16.534126 -27.319194 45.247979 -0.476184 2.219013 0.034554 -0.003837 994349.000000 0 0 1
-32.714078 15.956726 -28.460664 46.204301 -0.453810 2.234419 0.035453 -0.007167 389018.000000 0 0 1
-34.071650 16.636826 -28.744894 47.580776 -0.454235 2.219468 0.036498 -0.013841 420397.000000 0 0 1
-35.181700 16.501526 -27.864794 47.817352 -0.438572 2.192885 0.021525 -0.003914 664838.000000 0 0 1
-36.377888 16.827626 -28.574634 49.224277 -0.433265 2.190137 0.032123 -0.008452 54670.600000 0 0 1
-37.644688 16.470626 -27.802924 49.612565 -0.412434 2.165666 0.040651 -0.009509 -478504.000000 0 0 1
37.554904 17.399326 -26.794334 49.305615 0.433862 2.145318 0.044516 -0.021076 153414.000000 0 0 1
36.483564 16.961826 -25.965184 47.884703 0.435189 2.143902 0.041152 -0.018951 161774.000000 0 0 1
36.095144 18.033526 -24.958454 47.444619 0.463336 2.124751 0.043432 -0.008784 -118749.000000 0 0 1
35.381124 19.150326 -25.473094 47.617617 0.496107 2.135246 0.053320 -0.028493 69040.400000 0 0 1
34.925014 19.861326 -24.357254 46.984090 0.517075 2.115793 0.071220 -0.017136 -540131.000000 0 0 1
34.007394 20.971326 -24.792654 47.021007 0.552586 2.126178 0.096458 -0.036198 80155.900000 0 0 1
32.782524 20.492426 -25.350514 46.230747 0.558673 2.151183 0.101355 -0.049035 341160.000000 0 0 1
31.797814 21.509426 -25.386624 46.024310 0.594741 2.155068 0.127728 -0.040562 199113.000000 0 0 1
30.615314 21.245326 -26.325794 45.625747 0.606650 2.185840 0.096515 -0.041499 218836.000000 0 0 1
29.840954 20.114726 -25.964394 44.376058 0.593107 2.195799 0.124161 -0.056455 200107.000000 0 0 1
28.736254 19.845226 -26.827104 44.037470 0.604389 2.225833 0.145814 -0.058985 135300.000000 0 0 1
28.475554 18.293426 -27.023794 43.310415 0.571032 2.244591 0.153073 -0.045248 -217128.000000 0 0 1
29.469054 17.507726 -27.648354 44.038359 0.536074 2.249551 0.128336 -0.055273 -946514.000000 0 0 1
30.416654 17.120126 -26.723034 43.958982 0.512658 2.224220 0.120531 -0.044292 -1092890.000000 0 0 1
31.479174 16.292526 -27.455174 44.834935 0.477601 2.229840 0.083941 -0.032492 -542624.000000 0 0 1
31.107874 15.045626 -28.072344 44.521087 0.450490 2.253046 0.104676 -0.040505 126578.000000 0 0 1
30.491254 13.986126 -27.340274 43.276077 0.430060 2.254623 0.117180 -0.030915 -265086.000000 0 0 1
31.363784 13.344626 -26.247954 43.020008 0.402276 2.227026 0.092528 -0.015713 -276269.000000 0 0 1
31.681584 14.203726 -25.196864 42.899307 0.421462 2.198576 0.079781 -0.022227 -43306.300000 0 0 1
31.891954 13.502526 -23.991854 42.131034 0.400501 2.176643 0.055337 -0.009955 -228907.000000 0 0 1
-15.240378 -30.742424 -23.034654 41.327485 1.110559 2.162010 0.116697 -0.024294 6462.840000 0 0 1
-14.677578 -29.712824 -23.841154 40.825039 1.111975 2.194424 0.104693 -0.044764 -11183.200000 0 0 1
-14.936778 -29.773824 -25.195894 41.766266 1.105810 2.218378 0.069199 -0.031982 1805.690000 0 0 1
-14.293278 -28.645024 -26.067024 41.283471 1.107966 2.254174 0.092481 -0.035327 466457.000000 0 0 1
-14.985278 -27.395824 -25.847114 40.535947 1.070266 2.262220 0.093933 -0.020229 547320.000000 0 0 1
-14.230778 -26.329524 -26.407724 39.913992 1.075286 2.293768 0.096352 -0.024041 -153913.000000 0 0 1
-14.792578 -24.927424 -26.095154 39.001973 1.035225 2.303757 0.037875 -0.007741 -139534.000000 0 0 1
-14.558478 -24.479724 -24.757654 37.737880 1.034271 2.286359 0.092180 -0.029217 222307.000000 0 0 1
-15.131078 -23.166424 -24.570854 37.004859 0.992212 2.296939 0.035308 -0.022435 35817.200000 0 0 1
-14.707378 -22.435424 -23.251054 35.500236 0.990535 2.284919 0.086724 -0.017482 272952.000000 0 0 1
-13.343078 -22.047924 -23.178954 34.661399 1.026573 2.303289 0.147809 -0.038187 151088.000000 0 0 1
-13.001078 -21.613224 -21.869854 33.383379 1.029250 2.285127 0.111916 -0.033723 -16015.800000 0 0 1
-11.521878 -21.367624 -21.525054 32.444676 1.076266 2.296202 0.152400 -0.047082 64215.500000 0 0 1
-11.005078 -20.292624 -22.343254 32.126676 1.073869 2.339875 0.192628 -0.056337 -1218860.000000 0 0 1
-9.632278 -20.336524 -22.419254 31.764413 1.128455 2.354345 0.254467 -0.062829 -983225.000000 0 0 1
-9.163878 -19.177124 -23.414954 31.622758 1.125021 2.404530 0.301755 -0.061725 -257120.000000 0 0 1
-9.350578 -17.883424 -22.892354 30.517373 1.089026 2.419073 0.199300 -0.063067 -121313.000000 0 0 1
-9.155978 -16.806724 -23.794854 30.536748 1.071969 2.464217 0.196517 -0.056526 -630871.000000 0 0 1
-7.773478 -16.557224 -24.385154 30.482854 1.131852 2.498030 0.232940 -0.058175 -579563.000000 0 0 1
-7.406578 -17.305624 -25.518724 31.710366 1.166399 2.506040 0.224355 -0.058880 -205836.000000 0 0 1
-6.194978 -16.799124 -26.025174 31.589524 1.217501 2.538975 0.211538 -0.053154 -121744.000000 0 0 1
-5.857178 -17.468024 -27.356224 32.981834 1.247269 2.548888 0.210358 -0.041841 -94080.700000 0 0 1
-6.690778 -17.030824 -28.397134 33.781840 1.196458 2.569193 0.228573 -0.044019 -143764.000000 0 0 1
-6.259678 -17.610124 -29.589374 34.997587 1.229267 2.578239 0.234171 -0.044324 29719.600000 0 0 1
-6.934478 -17.161724 -30.917904 36.035102 1.186789 2.602148 0.226971 -0.040863 34962.000000 0 0 1
-6.546878 -15.906024 -31.501344 35.891474 1.180332 2.641803 0.192523 -0.040190 37588.900000 0 0 1
-7.149878 -14.747424 -30.926324 35.000640 1.119365 2.654277 0.158167 -0.038088 -13929.300000 0 0 1
-8.033278 -13.909724 -31.853384 35.674249 1.047063 2.674532 0.118773 -0.037676 -141282.000000 0 0 1
-7.281278 -13.354524 -32.918884 36.263111 1.071623 2.708754 0.138472 -0.046097 -42791.700000 0 0 1
-8.058978 -12.703324 33.674922 36.882543 1.005467 0.420141 0.121512 -0.037451 -71780.400000 0 0 1
-8.474978 -11.210324 -33.588864 36.410279 0.923468 2.745331 0.083076 -0.035789 217677.000000 0 0 1
-7.384878 -10.312124 -33.591534 35.906371 0.949323 2.780556 0.063661 -0.037996 -221741.000000 0 0 1
-6.895978 -9.909324 32.727983 34.883665 0.962822 0.353393 0.051695 -0.036365 52.611700 0 0 1
-5.701078 -8.943024 32.830509 34.501048 1.003267 0.312461 0.080684 -0.041511 86962.500000 0 0 1
-5.317778 -8.300624 31.605321 33.107030 1.001024 0.302345 0.062403 -0.028212 -217144.000000 0 0 1
-4.240378 -7.403624 31.723480 32.850779 1.050660 0.262731 0.066193 -0.035935 -877049.000000 0 0 1
-4.303478 -6.339324 30.481232 31.429484 0.974403 0.246267 0.056784 -0.026421 340220.000000 0 0 1
-5.357278 -5.382424 30.585212 31.513904 0.787740 0.243373 0.036173 -0.019642 1023190.000000 0 0 1
-6.646278 -5.998224 30.341742 31.634997 0.734191 0.286922 0.041291 -0.016118 128826.000000 0 0 1
-7.839478 -5.031624 30.420152 31.814467 0.570611 0.297154 0.030279 -0.020893 318994.000000 0 0 1
-9.019278 -5.668424 29.922742 31.762382 0.561097 0.342014 0.049088 -0.022839 188222.000000 0 0 1
-10.100678 -4.737724 29.857162 31.873498 0.438583 0.357600 0.048407 -0.026632 255183.000000 0 0 1
-11.297078 -5.322324 29.073882 31.642404 0.440281 0.405699 0.066156 -0.026382 -239955.000000 0 0 1
-11.003378 -5.346824 27.665472 30.249648 0.452325 0.416349 0.062191 -0.022078 421788.000000 0 0 1
-11.865678 -6.081024 26.802002 29.935272 0.473588 0.461621 0.070214 -0.027667 162055.000000 0 0 1
-11.304678 -5.940424 25.355222 28.389640 0.483826 0.466573 0.056188 -0.022964 1358920.000000 0 0 1
-10.120878 -6.773324 25.071722 27.872950 0.589784 0.452172 0.068338 -0.018337 1071840.000000 0 0 1
-9.585978 -6.316924 23.834552 26.455252 0.582659 0.448869 0.067102 -0.019365 -242830.000000 0 0 1
-10.289078 -6.615224 22.461252 25.576047 0.571394 0.498681 0.074298 -0.022722 -598638.000000 0 0 1
-11.484778 -5.919624 22.288952 25.763142 0.475917 0.525349 0.057462 -0.025634 -470348.000000 0 0 1
-12.125278 -6.276224 21.042552 25.083906 0.477640 0.575562 0.059788 -0.022716 26135.900000 0 0 1
-13.283078 -5.286324 20.806452 25.244679 0.378759 0.602023 0.058251 -0.018568 -330339.000000 0 0 1
-12.935378 -3.959924 20.509552 24.569223 0.297072 0.583089 0.052946 -0.015929 -454809.000000 0 1 0
-14.003278 -3.090324 20.798752 25.263214 0.217204 0.603627 0.063014 -0.012724 -66400.900000 0 0 1
-13.910378 -1.588824 20.491752 24.818035 0.113726 0.599390 0.055592 -0.009057 -374582.000000 0 1 0
-12.914078 -0.910824 21.199052 24.839542 0.070413 0.548246 0.058322 -0.017126 -325823.000000 0 1 0
-13.070478 0.499176 21.083052 24.810918 -0.038173 0.555287 0.061137 -0.017434 -179213.000000 0 1 0
-12.510878 1.200176 19.839552 23.485534 -0.095638 0.564687 0.054027 -0.013479 -155195.000000 0 1 0
-13.153378 0.916176 18.617552 22.813680 -0.069541 0.616219 0.054453 -0.014588 494429.000000 0 1 0
-14.365078 1.673176 18.443852 23.437804 -0.115953 0.664983 0.059879 -0.014576 1038990.000000 0 1 0
-15.487778 0.964176 17.613252 23.473976 -0.062174 0.722234 0.069451 -0.010525 437458.000000 0 1 0
-15.866878 -0.368824 18.023552 24.015459 0.023241 0.721981 0.065046 -0.011105 53729.500000 0 1 0
-16.958678 -0.802824 17.281852 24.226095 0.047305 0.776520 0.079319 -0.014163 -458988.000000 0 1 0
-17.172778 -2.295824 17.477252 24.609540 0.132902 0.781040 0.079780 -0.012604 -162899.000000 0 1 0
-17.675478 -2.657824 18.729052 25.889456 0.149250 0.762047 0.086379 -0.011429 47302.800000 0 0 1
-17.700578 -4.044724 18.787652 26.127498 0.224651 0.768325 0.100433 -0.014513 -103271.000000 0 0 1
-18.364578 -4.555624 20.080052 27.590214 0.243157 0.755693 0.095477 -0.006353 -29592.400000 0 0 1
-17.628778 -4.070024 21.205052 27.874597 0.226898 0.706359 0.096868 -0.002703 228281.000000 0 0 1
-18.277678 -4.153124 22.453652 29.248734 0.223430 0.695584 0.084706 -0.012032 -598312.000000 0 0 1
-18.577478 -5.572124 23.025402 30.105488 0.291402 0.700028 0.102335 -0.007241 47712.000000 0 0 1
-17.462778 -6.265124 23.534232 29.967657 0.344466 0.667582 0.051949 -0.015042 60880.600000 0 0 1
-16.526578 -6.698724 22.551162 28.749880 0.385093 0.669082 0.069977 -0.010369 298035.000000 0 0 1
-15.267678 -7.391024 23.175332 28.719771 0.450844 0.631832 0.087068 -0.009356 234562.000000 0 0 1
-15.615478 -8.614024 23.804532 29.743912 0.504097 0.642974 0.072440 -0.014655 -24910.000000 0 0 1
-15.523578 -8.605224 25.200152 30.823352 0.506163 0.613623 0.073040 -0.013257 783262.000000 0 0 1
-16.624878 -9.509124 25.943962 32.247468 0.519563 0.635918 0.057132 -0.013389 143434.000000 0 0 1
-16.528778 -10.944724 25.889652 32.607692 0.584877 0.653479 0.069110 -0.025100 -259883.000000 0 0 1
-15.595678 -11.459924 26.849522 33.097611 0.633711 0.624557 0.060670 -0.021138 258711.000000 0 0 1
-15.406078 -12.974924 26.601212 33.366456 0.699945 0.648080 0.063264 -0.025812 -461114.000000 0 0 1
-16.553578 -13.676724 26.970682 34.474504 0.690519 0.672387 0.069746 -0.031965 -350443.000000 0 0 1
-16.524178 -15.107424 26.853372 34.962642 0.740639 0.694992 0.090626 -0.024814 -160016.000000 0 0 1
-15.440578 -15.913224 27.594852 35.399407 0.800472 0.676883 0.099989 -0.025855 384709.000000 0 0 1
-14.143878 -15.883824 27.012442 34.380477 0.843278 0.666983 0.072370 -0.028468 509349.000000 0 0 1
-13.236978 -16.743024 27.686672 34.958522 0.901816 0.656741 0.093896 -0.024904 -48143.500000 0 0 1
-11.919278 -17.056424 26.975272 34.068403 0.960866 0.657050 0.107286 -0.034489 -177180.000000 0 0 1
-10.997178 -17.726924 27.827222 34.778385 1.015536 0.643285 0.135948 -0.044354 -134415.000000 0 0 1
-10.005578 -18.359124 27.055082 34.192784 1.071806 0.657944 0.133686 -0.049372 63064.000000 0 0 1
-8.871578 -18.912124 27.964762 34.905605 1.132177 0.641575 0.167242 -0.057738 203178.000000 0 0 1
-9.235378 -20.146524 28.428072 36.046219 1.140970 0.662176 0.161663 -0.049170 282571.000000 0 0 1
-8.205178 -20.645324 29.266002 36.743071 1.192503 0.649305 0.190810 -0.049778 329972.000000 0 0 1
-8.573778 -21.951424 30.003902 38.152442 1.198437 0.665802 0.150737 -0.045109 45361.300000 0 0 1
-8.569678 -23.031124 29.158692 38.132681 1.214578 0.700276 0.159622 -0.052553 -86163.200000 0 0 1
-9.049678 -24.178724 29.852892 39.467741 1.212655 0.713024 0.127018 -0.044845 -210673.000000 0 0 1
-9.021678 -25.444624 28.993102 39.615900 1.230064 0.749756 0.122988 -0.036831 -726477.000000 0 0 1
-9.995478 -25.402024 28.021232 39.119840 1.195913 0.772322 0.116159 -0.041954 -389326.000000 0 0 1
-9.977578 -26.573124 27.225422 39.330734 1.211608 0.806239 0.090453 -0.038084 -425077.000000 0 0 1
-11.326178 -26.751224 26.506332 39.325513 1.170291 0.831154 0.091208 -0.035066 -156608.000000 0 0 1
-11.602378 -26.000824 25.358792 38.127764 1.151081 0.843168 0.105555 -0.039873 55442.400000 0 0 1
-12.077478 -24.720224 25.650692 37.615329 1.116337 0.820410 0.096681 -0.039949 -425977.000000 0 0 1
-12.274978 -23.867224 24.380042 36.258874 1.095772 0.833366 0.122507 -0.060514 729407.000000 0 0 1
-13.502478 -24.302524 23.748452 36.563897 1.063664 0.863862 0.108916 -0.046981 821716.000000 0 0 1
-13.637478 -23.831224 22.449852 35.466941 1.051029 0.885400 0.114951 -0.049344 -191082.000000 0 0 1
-15.061778 -23.844224 21.865252 35.686040 1.007412 0.911309 0.110926 -0.042143 -413515.000000 0 0 1
-15.478378 -25.107024 21.374452 36.425404 1.018336 0.943694 0.108861 -0.050322 38483.400000 0 0 1
-16.241878 -24.984424 20.206552 36.004511 0.994365 0.974934 0.110409 -0.049363 -385016.000000 0 0 1
-16.952278 -26.296424 19.775452 37.012838 0.998184 1.007133 0.109441 -0.038857 46861.500000 0 0 1
-16.054778 -27.178424 19.154752 36.923260 1.037230 1.025382 0.103474 -0.040693 -19276.400000 0 0 1
-16.655278 -28.382624 18.723652 37.862208 1.040130 1.053513 0.104510 -0.039933 -158466.000000 0 0 1
-15.840178 -29.135524 17.705852 37.593712 1.072824 1.080396 0.113372 -0.042250 -114640.000000 0 0 1
-15.810378 -28.419324 16.485152 36.460750 1.063110 1.101640 0.100626 -0.036731 -250060.000000 0 0 1
-14.767178 -28.860424 15.656552 36.001684 1.097852 1.120887 0.096098 -0.036809 -10627.300000 0 0 1
-14.819078 -28.290524 14.240652 34.967914 1.088277 1.151356 0.088858 -0.030633 -34905.000000 0 0 1
-14.568478 -26.888624 14.174852 33.707048 1.074264 1.136766 0.085460 -0.033243 -241434.000000 0 0 1
-14.693378 -26.282624 12.908252 32.761176 1.061029 1.165805 0.078486 -0.031402 237959.000000 0 0 1
-14.005578 -26.878124 11.645452 32.468544 1.090429 1.203955 0.078746 -0.017122 293416.000000 0 0 1
-14.364578 -26.151324 10.434352 31.608679 1.068501 1.234376 0.067694 -0.020011 -107669.000000 0 0 1
-13.553478 -26.533624 9.349952 31.227417 1.098543 1.266717 0.081427 -0.020593 40613.700000 0 0 1
-13.983678 -25.835924 8.017052 30.451787 1.074696 1.304386 0.082562 -0.024741 -338879.000000 0 0 1
-15.181178 -26.306624 7.483152 31.281052 1.047396 1.329231 0.081116 -0.036633 -482102.000000 0 0 1
-15.440878 -25.557824 6.337752 30.525239 1.027328 1.361652 0.083940 -0.036902 156636.000000 0 0 1
-16.351478 -26.203324 5.244552 31.328746 1.012900 1.402601 0.083179 -0.042123 -62343.200000 0 0 1
-15.740378 -27.261724 4.633952 31.818778 1.047175 1.424641 0.097891 -0.039860 -368397.000000 0 0 1
-16.398278 -27.602924 3.455652 32.291895 1.034743 1.463578 0.116984 -0.033338 -258821.000000 0 0 1
-15.717478 -28.758424 2.638252 32.879271 1.070617 1.490469 0.118083 -0.036513 277072.000000 0 0 1
-14.395478 -28.410224 2.258352 31.929152 1.101803 1.500007 0.094577 -0.026245 -210667.000000 0 0 1
-13.774978 -29.528824 1.707552 32.628472 1.134312 1.518439 0.093751 -0.031223 150019.000000 0 0 1
-12.335078 -29.238424 1.189952 31.756190 1.171572 1.533316 0.099208 -0.031423 230777.000000 0 0 1
-12.178278 -28.544024 -0.018448 31.033403 1.167530 1.571391 0.096158 -0.029788 -128948.000000 0 0 1
-12.570878 -27.196124 0.028052 29.960923 1.137818 1.569860 0.087262 -0.029807 -296218.000000 0 0 1
-12.444578 -26.546424 -1.360648 29.350154 1.132431 1.617172 0.077598 -0.018094 -675303.000000 0 0 1
-11.122178 -26.441724 -1.746748 28.738802 1.172633 1.631614 0.102226 -0.023740 -1226230.000000 0 0 1
-10.921878 -25.733624 -2.896548 28.105103 1.169417 1.674041 0.122315 -0.026468 1067460.000000 0 0 1
-9.477078 -25.976824 -3.478648 27.869542 1.220973 1.695942 0.113968 -0.028059 1104260.000000 0 0 1
-9.057678 -25.248324 -4.647748 27.223537 1.226353 1.742362 0.122074 -0.033917 22156.700000 0 0 1
-7.673678 -25.447124 -4.874048 27.022172 1.277915 1.752161 0.142600 -0.029621 491985.000000 0 0 1
-6.939378 -24.447824 -5.833448 26.074512 1.294226 1.796428 0.122984 -0.031396 89965.900000 0 0 1
-7.393278 -24.334624 -7.099248 26.405185 1.275841 1.843004 0.129654 -0.028877 -471186.000000 0 0 1
-6.682478 -23.310724 -7.734548 25.453263 1.291614 1.879551 0.139070 -0.029054 -100119.000000 0 0 1
-6.719678 -23.237524 -9.279448 25.908391 1.289301 1.937097 0.117370 -0.028185 422305.000000 0 0 1
-5.914878 -24.273624 -9.948948 26.891935 1.331779 1.949763 0.101031 -0.028199 585887.000000 0 0 1
-6.039078 -24.262224 -11.406048 27.481337 1.326845 1.998791 0.074633 -0.011177 946531.000000 0 0 1
-7.461578 -24.707024 -11.948748 28.440899 1.277504 2.004380 0.082687 -0.014010 942153.000000 0 0 1
-7.557678 -24.792024 -13.406348 29.180355 1.274902 2.048150 0.096142 -0.007922 -180476.000000 0 0 1
-8.715278 -25.393524 -13.924148 30.243496 1.240184 2.049244 0.117922 -0.012484 -678363.000000 0 0 1
-8.790178 -25.265724 -15.462548 30.898453 1.235985 2.094893 0.120776 -0.014950 44497.100000 0 0 1
-7.864178 -25.955324 -16.285948 31.634731 1.276600 2.111585 0.113643 -0.023244 1330880.000000 0 0 1
-6.549878 -25.337124 -16.305348 30.833993 1.317825 2.127995 0.110029 -0.015978 1189660.000000 0 0 1
-5.363378 -26.141024 -16.919648 31.597365 1.368434 2.135868 0.102077 -0.011112 289113.000000 0 0 1
-5.524978 -26.330024 -18.315248 32.546027 1.363962 2.168504 0.171640 -0.019695 -549724.000000 0 0 1
-4.365578 -26.844424 -18.834348 33.081929 1.409583 2.176480 0.146911 -0.026850 -843696.000000 0 0 1
-26.317238 14.534426 -4.828254 30.449279 -0.504590 1.730036 0.173268 -0.046488 -127815.000000 0 0 1
-25.739208 13.421526 -4.163954 29.325462 -0.480654 1.713269 0.175278 -0.046394 847506.000000 0 0 1
-24.437278 13.192926 -4.731054 28.171204 -0.495032 1.739535 0.179363 -0.042350 351714.000000 0 0 1
-23.954978 11.759726 -4.382254 27.043230 -0.456349 1.733560 0.177661 -0.041924 -325570.000000 0 0 1
-24.555778 10.696226 -5.077554 27.261273 -0.410805 1.758146 0.171374 -0.021147 211796.000000 0 0 1
-25.897958 10.392626 -4.730854 28.303566 -0.381619 1.738731 0.200916 -0.029394 -151768.000000 0 0 1
-26.502928 9.449026 -5.772754 28.723056 -0.342478 1.773154 0.212533 -0.023962 -181166.000000 0 0 1
-26.869268 10.210626 -6.930854 29.567739 -0.363157 1.807404 0.259756 -0.033108 151233.000000 0 0 1
-26.947048 9.375326 -8.063954 29.649072 -0.334818 1.846246 0.239785 -0.033830 -220802.000000 0 0 1
-27.325478 10.178326 -9.284154 30.601888 -0.356564 1.879039 0.240141 -0.037891 -447755.000000 0 0 1
-26.352358 10.933126 -9.927354 30.208151 -0.393270 1.905651 0.230455 -0.034489 -311183.000000 0 0 1
-26.929318 11.632326 -11.023154 31.337024 -0.407749 1.930248 0.223277 -0.041193 306851.000000 0 0 1
-25.970668 12.589626 -11.819754 31.187832 -0.451384 1.959497 0.191455 -0.032470 155818.000000 0 0 1
-25.691038 13.828726 -11.212554 31.256751 -0.493793 1.937697 0.179325 -0.037538 127498.000000 0 0 1
-24.870878 14.613426 -12.051954 31.262795 -0.531231 1.966551 0.151566 -0.028558 -76581.300000 0 0 1
-24.724378 16.091526 -11.550654 31.680431 -0.576963 1.943998 0.158479 -0.032749 -94658.100000 0 0 1
-23.781278 16.358526 -10.530154 30.725148 -0.602541 1.920608 0.145026 -0.022293 4308.620000 0 0 1
-23.758878 17.700926 -10.131154 31.312096 -0.640309 1.900279 0.103075 -0.014757 -313956.000000 0 0 1
-22.686078 18.076526 -9.107554 30.403396 -0.672794 1.875025 0.108321 -0.020459 -371989.000000 0 0 1
-22.911178 17.529426 -7.846554 29.896007 -0.653098 1.836369 0.133846 -0.037356 218310.000000 0 0 1
-23.748578 18.225226 -6.936954 30.729060 -0.654559 1.798505 0.130407 -0.030823 -54660.700000 0 0 1
-24.024478 17.516526 -5.599554 30.254904 -0.629998 1.756949 0.132603 -0.024064 -1067510.000000 0 0 1
-22.985078 17.504226 -4.717254 29.273951 -0.650851 1.732644 0.115434 -0.034566 -786708.000000 0 0 1
-23.255778 16.951026 -3.481254 28.987715 -0.629857 1.691181 0.121984 -0.036251 -488884.000000 0 0 1
-21.979678 16.764226 -2.650754 27.769984 -0.651589 1.666396 0.118525 -0.048686 -506348.000000 0 0 1
-21.536978 17.991826 -2.076354 28.139980 -0.695952 1.644650 0.111935 -0.039889 -88539.200000 0 0 1
-20.631678 17.790826 -1.018654 27.262012 -0.711595 1.608170 0.165236 -0.061892 -74298.400000 0 0 1
-20.092078 19.187426 -0.651354 27.789803 -0.762371 1.594237 0.131191 -0.040330 -279328.000000 0 0 1
-21.113478 19.835726 0.028846 28.969567 -0.754205 1.569801 0.114865 -0.029980 -100463.000000 0 0 1
-20.713778 21.148026 0.310946 29.603991 -0.795771 1.560293 0.115546 -0.031373 771353.000000 0 0 1
-21.808378 21.930326 1.150046 30.949429 -0.788186 1.533629 0.096978 -0.021951 559261.000000 0 0 1
-21.918278 21.485526 2.500546 30.794341 -0.775428 1.489505 0.118510 -0.020695 8936.840000 0 0 1
-23.179478 21.739626 3.059946 31.925896 -0.753355 1.474804 0.108011 -0.025114 -88979.700000 0 0 1
-23.052178 21.405926 4.569046 31.788249 -0.748386 1.426563 0.112779 -0.016393 79091.400000 0 0 1
-22.322878 22.422426 5.233046 32.069625 -0.787623 1.406886 0.100994 -0.021622 102668.000000 0 0 1
-21.526078 21.977626 6.311446 31.404178 -0.795777 1.368443 0.104234 -0.013623 152774.000000 0 0 1
-22.204878 21.914926 7.742846 32.144552 -0.778826 1.327528 0.085330 -0.007628 -214854.000000 0 0 1
-23.278678 20.986826 7.800846 32.298559 -0.733669 1.326861 0.105504 -0.010831 565792.000000 0 0 1
-23.706278 20.711426 9.147646 32.781553 -0.718075 1.287993 0.123988 -0.021164 71849.800000 0 0 1
-24.305878 21.826526 10.043046 34.176537 -0.731706 1.272536 0.118873 -0.010758 633732.000000 0 0 1
-25.593388 22.376026 9.629746 35.333271 -0.718427 1.294764 0.141331 -0.010119 1200360.000000 0 0 1
-26.135238 23.079326 10.732646 36.481442 -0.723384 1.272184 0.151803 -0.013523 1450600.000000 0 0 1
-27.671498 23.496726 10.542546 37.801497 -0.703989 1.288156 0.160642 -0.030668 1728510.000000 0 0 1
-28.272358 24.252426 11.583646 39.008810 -0.709013 1.269300 0.161946 -0.033978 122493.000000 0 0 1
-27.625008 25.519126 11.816246 39.420686 -0.745793 1.266369 0.143863 -0.035746 15285.600000 0 0 1
-27.976708 26.140326 13.134946 40.478879 -0.751478 1.240325 0.182051 -0.041168 133758.000000 0 0 1
-27.216908 25.513526 14.149146 39.898602 -0.753106 1.208281 0.148526 -0.037196 -28918.200000 0 0 1
-27.526548 25.968626 15.444446 40.873112 -0.756284 1.183309 0.172474 -0.040247 -28216.200000 0 0 1
-26.291928 26.085326 16.368546 40.492456 -0.781454 1.154652 0.144512 -0.044226 -132716.000000 0 0 1
-25.737988 24.783726 16.662446 39.424792 -0.766512 1.134441 0.158572 -0.046157 -183426.000000 0 0 1
-24.736578 25.054626 17.601646 39.363060 -0.791786 1.107207 0.123763 -0.043027 -445580.000000 0 0 1
-24.169778 23.796326 18.285246 38.533019 -0.777613 1.076361 0.133677 -0.035783 -21436.600000 0 0 1
-22.905778 23.961026 18.904946 38.160220 -0.807910 1.052490 0.137748 -0.042487 406515.000000 0 0 1
-22.521178 22.720426 19.489246 37.460004 -0.789802 1.023631 0.136953 -0.041592 501659.000000 0 0 1
-21.049578 22.703826 20.021546 36.870188 -0.823189 0.996757 0.081628 -0.039398 25336.000000 0 0 1
-20.072578 22.831226 19.004946 35.851935 -0.849608 1.012083 0.073920 -0.044884 1413060.000000 0 0 1
-18.761178 22.375926 19.499746 35.112732 -0.873044 0.982016 0.075458 -0.037996 1046470.000000 0 0 1
-18.526078 20.838126 19.460146 34.002064 -0.844066 0.961461 0.056194 -0.025332 -1100680.000000 0 0 1
-19.102278 20.027026 20.439546 34.405724 -0.809027 0.934682 0.078182 -0.023708 -103384.000000 0 0 1
-18.457778 20.075126 21.690646 34.845148 -0.827347 0.898880 0.070551 -0.019876 -394483.000000 0 0 1
-19.395378 19.876426 22.871746 35.977351 -0.797647 0.881847 0.067266 -0.019712 -22795.700000 0 0 1
-20.428478 20.848926 22.899446 37.099664 -0.795584 0.905565 0.071685 -0.016740 -146754.000000 0 0 1
-21.373478 20.750526 23.908346 38.197106 -0.770611 0.894485 0.084447 -0.010672 680653.000000 0 0 1
-22.582378 21.757426 23.763146 39.345095 -0.766795 0.922327 0.086099 -0.011312 149486.000000 0 0 1
-22.083978 23.059326 23.924546 39.897600 -0.807000 0.927734 0.095846 -0.026589 109295.000000 0 0 1
-23.023178 24.128626 23.959946 41.065026 -0.808838 0.947809 0.098048 -0.033026 -641478.000000 0 0 1
-23.855678 24.327226 22.763946 40.976878 -0.795184 0.981794 0.091886 -0.032802 -166179.000000 0 0 1
-24.918578 23.362326 22.665646 40.993479 -0.753176 0.984945 0.081990 -0.034202 441057.000000 0 0 1
-25.764228 23.582026 21.539446 41.034804 -0.741205 1.018191 0.088634 -0.038950 147444.000000 0 0 1
-26.915698 22.562626 21.377646 41.116063 -0.697645 1.024022 0.106640 -0.035224 211482.000000 0 0 1
-28.056018 22.930426 22.147746 42.467249 -0.685206 1.022159 0.104260 -0.036433 314247.000000 0 0 1
-29.085308 21.967026 21.901246 42.522582 -0.646860 1.029731 0.118929 -0.032624 391017.000000 0 0 1
-30.489758 22.408626 22.381146 43.962342 -0.633803 1.036660 0.142749 -0.023290 -212238.000000 0 0 1
-31.039328 23.329826 21.508746 44.388589 -0.644538 1.064941 0.158296 -0.032288 23781.800000 0 0 1
-32.430018 23.554326 21.632546 45.546453 -0.628168 1.075883 0.162350 -0.031156 580025.000000 0 0 1
-33.387698 22.718926 20.707146 45.383630 -0.597490 1.096998 0.167950 -0.040505 -312114.000000 0 0 1
-33.446518 21.378626 21.085246 44.947779 -0.568737 1.082519 0.157714 -0.036273 105442.000000 0 0 1
-34.129118 20.509226 20.223446 44.658849 -0.541103 1.100845 0.161112 -0.037717 -623566.000000 0 0 1
-35.642781 20.501826 20.358146 45.882315 -0.521987 1.111069 0.171229 -0.039680 -774096.000000 0 0 1
-36.357978 19.881526 19.309946 45.717083 -0.500404 1.134728 0.151900 -0.034847 174343.000000 0 0 1
37.750334 19.854726 19.577946 46.931800 0.484190 1.140481 0.163334 -0.039106 474219.000000 0 0 1
36.918284 19.070026 18.513146 45.490243 0.476797 1.151662 0.157013 -0.039109 23639.300000 0 0 1
37.218964 17.681926 18.416846 45.134045 0.443512 1.150482 0.158146 -0.041514 500269.000000 0 0 1
36.499024 16.958826 17.366646 43.833559 0.434960 1.163427 0.170141 -0.051768 342496.000000 0 0 1
37.007274 15.495326 17.178346 43.643316 0.396531 1.166244 0.179634 -0.055140 25876.400000 0 0 1
36.157904 14.682826 16.402646 42.332330 0.385733 1.172907 0.206638 -0.051929 48556.000000 0 0 1
36.678424 13.374326 16.217446 42.275110 0.349655 1.177087 0.206357 -0.043619 208118.000000 0 0 1
35.750884 12.583926 15.236946 40.849057 0.338446 1.188550 0.189601 -0.048978 121686.000000 0 0 1
35.724794 13.043926 13.877846 40.484559 0.350083 1.220907 0.184651 -0.047962 112867.000000 0 0 1
34.942584 12.126526 13.139046 39.251387 0.334037 1.229466 0.178822 -0.039794 -234336.000000 0 0 1
34.790944 12.379426 11.633546 38.716913 0.341853 1.265603 0.201912 -0.038280 -793530.000000 0 0 1
35.887124 12.004226 10.868746 39.371522 0.322800 1.291108 0.191142 -0.037954 -220390.000000 0 0 1
35.698494 12.182226 9.494746 38.896521 0.328861 1.324202 0.183341 -0.042027 156194.000000 0 0 1
37.096784 12.331126 8.829546 40.077287 0.320914 1.348661 0.135652 -0.020632 619228.000000 0 0 1
-37.519208 11.219826 9.170846 40.220391 -0.290578 1.340758 0.205441 -0.038328 1567150.000000 0 0 1
-36.168148 11.220826 8.661646 38.846698 -0.300825 1.345936 0.221991 -0.039856 1184110.000000 0 0 1
-35.913402 11.192926 7.115746 38.284303 -0.302123 1.383843 0.194541 -0.054256 -775221.000000 0 0 1
-36.349868 12.338826 6.484246 38.930771 -0.327242 1.403458 0.174088 -0.058476 -34007.100000 0 0 1
-35.955830 12.441026 5.122246 38.390601 -0.333115 1.436973 0.193064 -0.061541 171455.000000 0 0 1
-37.059028 13.045526 4.180846 39.509958 -0.338473 1.464780 0.175173 -0.071501 -921904.000000 0 0 1
37.293954 12.296826 4.099646 39.482376 0.318501 1.466774 0.176899 -0.063352 -117497.000000 0 0 1
36.069694 13.053426 4.167846 38.584786 0.347232 1.462567 0.138601 -0.059848 789555.000000 0 0 1
35.682894 13.894026 5.399646 38.671295 0.371313 1.430709 0.139061 -0.048429 -481575.000000 0 0 1
34.639614 14.863026 5.179846 38.047907 0.405318 1.434232 0.121045 -0.040455 424795.000000 0 0 1
34.168744 15.539226 6.316446 38.064000 0.426821 1.404082 0.101415 -0.032250 448896.000000 0 0 1
32.875964 15.004026 7.008046 36.811174 0.428149 1.379249 0.183721 -0.036977 206589.000000 0 0 1
33.103924 13.722126 7.593146 36.630894 0.392958 1.361994 0.213798 -0.041397 190319.000000 0 0 1
31.958684 12.997426 8.026646 35.421993 0.386264 1.342210 0.221785 -0.038313 -154426.000000 0 0 1
31.787474 11.710526 7.236946 34.640342 0.352972 1.360329 0.232597 -0.044196 -77979.100000 0 0 1
31.346604 11.958526 5.897446 34.064583 0.364451 1.396794 0.216446 -0.059642 309608.000000 0 0 1
31.453344 10.776426 5.144046 33.643802 0.330082 1.417297 0.215889 -0.057506 -64758.000000 0 0 1
30.911894 11.081326 3.699446 33.045830 0.344210 1.458612 0.171546 -0.059046 283905.000000 0 0 1
29.512154 10.898926 3.569746 31.662232 0.353767 1.457811 0.141845 -0.049591 249900.000000 0 0 1
29.096154 11.208426 2.252046 31.261585 0.367701 1.498695 0.159396 -0.053179 -319140.000000 0 0 1
27.606054 10.956726 2.001146 29.768249 0.377827 1.503521 0.191051 -0.045692 -264212.000000 0 0 1
27.272254 9.622826 1.669646 28.968299 0.339205 1.513127 0.165944 -0.046009 335055.000000 0 0 1
25.887354 9.365726 1.885246 27.593950 0.347137 1.502422 0.173044 -0.041660 236039.000000 0 0 1
25.476054 7.875526 1.707646 26.720204 0.299816 1.506844 0.183840 -0.044272 55676.500000 0 0 1
25.929454 7.188926 2.828446 27.055819 0.270456 1.466064 0.200927 -0.033626 807908.000000 0 0 1
27.309354 6.804826 2.783146 28.281662 0.244203 1.472229 0.236082 -0.044943 62517.000000 0 0 1
27.879854 6.367526 4.146446 28.896793 0.224540 1.426808 0.230849 -0.054922 -1071810.000000 0 0 1
29.202754 5.964026 3.993646 30.071908 0.201458 1.437600 0.255536 -0.064984 -561578.000000 0 0 1
29.673554 5.517626 5.234446 30.632718 0.183845 1.399076 0.248563 -0.046877 -1023950.000000 0 0 1
31.173284 5.363926 5.282746 32.069499 0.170399 1.405314 0.224548 -0.052413 -1045960.000000 0 0 1
31.860344 6.506126 5.753846 33.022991 0.201438 1.395665 0.245996 -0.056141 318023.000000 0 0 1
33.233154 6.301426 6.068746 34.365392 0.187388 1.393271 0.243414 -0.052073 524691.000000 0 0 1
33.839704 7.452526 6.897946 35.330544 0.216770 1.374294 0.215784 -0.054684 -299989.000000 0 0 1
33.230264 7.658826 8.125546 35.056134 0.226522 1.336882 0.230977 -0.053430 -523808.000000 0 0 1
33.841134 8.581626 8.908146 36.030844 0.248351 1.320969 0.240691 -0.055979 -389631.000000 0 0 1
33.364934 8.656526 10.399846 36.004320 0.253853 1.277771 0.230829 -0.047769 -1329970.000000 0 0 1
32.140484 9.192826 10.635646 35.080418 0.278582 1.262769 0.231665 -0.050807 -1124160.000000 0 0 1
31.763254 9.063226 12.000546 35.143413 0.277951 1.222312 0.227704 -0.050053 656155.000000 0 0 1
30.264354 9.488226 12.248946 33.999915 0.303806 1.202245 0.192941 -0.041529 613416.000000 0 0 1
29.907154 10.844026 12.414946 34.149109 0.347846 1.198719 0.225011 -0.051326 77000.400000 0 0 1
29.998554 11.659826 11.251146 34.094766 0.370709 1.234497 0.224877 -0.055140 31389.800000 0 0 1
28.874254 11.528926 10.163646 32.709913 0.379886 1.254845 0.183672 -0.037751 120151.000000 0 0 1
28.956654 12.595826 9.231246 32.899218 0.410301 1.286386 0.157748 -0.021658 -104856.000000 0 0 1
27.966554 12.614526 8.243646 31.768099 0.423733 1.308298 0.148769 -0.024029 -343035.000000 0 0 1
28.006154 13.943526 7.515846 32.175371 0.461945 1.335028 0.137609 -0.022086 -160934.000000 0 0 1
27.455354 15.003326 8.217046 32.348356 0.500123 1.313965 0.126363 -0.009397 91252.000000 0 0 1
27.705254 16.254426 7.673346 33.025259 0.530576 1.336305 0.122062 -0.007537 -740860.000000 0 0 1
27.075054 17.437526 8.486446 33.303838 0.572177 1.313136 0.141140 -0.022789 1247690.000000 0 0 1
25.674654 17.728926 8.358346 32.301155 0.604337 1.309055 0.156556 -0.029605 1256470.000000 0 0 1
24.707154 16.701826 8.633246 31.047180 0.594431 1.289014 0.161780 -0.022523 110785.000000 0 0 1
23.288454 17.315926 8.791346 30.322948 0.639355 1.276649 0.154340 -0.038003 63200.200000 0 0 1
22.816354 17.963326 7.618846 30.021891 0.666949 1.314214 0.145831 -0.037183 -321219.000000 0 0 1
21.768054 18.830026 7.906346 29.848423 0.713155 1.302714 0.178546 -0.043388 -313846.000000 0 0 1
20.980954 19.347626 6.680646 29.311467 0.744920 1.340856 0.154751 -0.039134 151394.000000 0 0 1
21.671654 20.300826 5.889346 30.273231 0.752750 1.375008 0.110543 -0.022486 320594.000000 0 0 1
20.880654 20.548526 4.722846 29.674044 0.777382 1.410959 0.124789 -0.033081 262267.000000 0 0 1
17.897022 17.084626 32.904113 41.168781 0.762179 0.644751 0.160725 -0.032308 -127701.000000 0 0 1
17.529122 17.771126 31.726432 40.368918 0.792254 0.666626 0.135249 -0.037262 283571.000000 0 0 1
17.335722 16.820226 30.703852 39.066275 0.770307 0.666577 0.141538 -0.041193 263598.000000 0 0 1
16.756522 17.362526 29.318012 37.970833 0.803158 0.688627 0.144374 -0.047430 1372800.000000 0 0 1
17.843122 17.868926 28.498792 38.076984 0.786121 0.725072 0.149272 -0.048437 1033740.000000 0 0 1
17.325822 18.061626 27.202562 36.964657 0.806188 0.743791 0.140938 -0.048631 351925.000000 0 0 1
18.418922 18.462726 26.175972 36.950108 0.786586 0.783548 0.130505 -0.042873 429756.000000 0 0 1
19.091522 19.728226 26.353022 38.054841 0.801798 0.805846 0.134569 -0.040315 968303.000000 0 0 1
20.070322 20.008126 25.327072 38.007940 0.783846 0.841476 0.124999 -0.035128 732480.000000 0 0 1
20.818022 21.375326 25.363542 39.161255 0.798606 0.866275 0.151669 -0.030878 76610.600000 0 0 1
19.929122 22.422226 25.064162 39.091410 0.844197 0.874777 0.129666 -0.039596 98978.100000 0 0 1
20.231522 23.580626 25.782202 40.374279 0.861692 0.878145 0.136478 -0.031673 -234686.000000 0 0 1
19.369222 24.810526 25.480202 40.496539 0.907944 0.890280 0.141020 -0.036597 -112903.000000 0 0 1
19.498322 25.205926 24.141822 39.979380 0.912386 0.922465 0.146806 -0.038335 -1134.730000 0 0 1
18.756922 26.375326 24.060302 40.328378 0.952624 0.931526 0.136272 -0.042039 -382653.000000 0 0 1
18.972722 27.253626 22.790242 40.275544 0.962656 0.969323 0.102118 -0.044361 -87461.300000 0 0 1
20.178422 27.997126 22.925022 41.431443 0.946291 0.984446 0.126444 -0.044023 173493.000000 0 0 1
20.271222 29.044826 22.018252 41.705249 0.961462 1.014612 0.106197 -0.038751 -78941.900000 0 0 1
21.681722 29.649926 22.102552 42.868847 0.939399 1.029106 0.115591 -0.031375 -350924.000000 0 0 1
22.649322 29.029626 21.312852 42.543491 0.908237 1.046081 0.142539 -0.037254 -474787.000000 0 0 1
23.794222 29.838726 21.171252 43.643287 0.897626 1.064322 0.139104 -0.040230 56355.600000 0 0 1
24.250522 29.803826 19.712752 43.185049 0.887775 1.096771 0.142107 -0.039664 35937.500000 0 0 1
23.376522 30.612626 18.942352 42.923273 0.918633 1.113741 0.114486 -0.029366 328093.000000 0 0 1
23.714222 30.617126 17.594352 42.536267 0.911773 1.144357 0.122187 -0.017356 -242340.000000 0 0 1
23.108622 31.771126 16.739252 42.703811 0.941952 1.168008 0.125888 -0.026648 -437075.000000 0 0 1
23.697022 33.033326 16.915452 44.032738 0.948509 1.176503 0.135902 -0.023194 120955.000000 0 0 1
23.552022 33.815226 15.751852 44.116756 0.962429 1.205689 0.131983 -0.020792 469451.000000 0 0 1
24.668922 33.562526 14.658252 44.157256 0.936956 1.232420 0.110719 -0.024502 313928.000000 0 0 1
24.528822 32.404826 13.809552 42.923649 0.922862 1.243247 0.126695 -0.027277 -329866.000000 0 0 1
23.558122 32.546126 12.821652 42.173810 0.944250 1.261887 0.107287 -0.024930 -339665.000000 0 0 1
23.237822 31.287826 12.008252 40.781400 0.931976 1.271912 0.116886 -0.055280 208305.000000 0 0 1
24.242222 30.937826 11.027652 40.822096 0.906149 1.297259 0.127645 -0.072020 300219.000000 0 0 1
23.876622 29.677826 10.457652 39.499733 0.893301 1.302849 0.116081 -0.072295 -1290300.000000 0 0 1
25.046522 28.978226 9.746552 39.522919 0.858046 1.321621 0.109643 -0.066656 123811.000000 0 0 1
26.034322 28.415226 10.613352 39.973169 0.829097 1.302061 0.109656 -0.060105 393448.000000 0 0 1
26.791222 29.426726 11.285552 41.365027 0.832244 1.294465 0.101774 -0.055731 -1750470.000000 0 0 1
28.190122 28.961826 11.722952 42.082039 0.798900 1.288488 0.096608 -0.046066 -9817.680000 0 0 1
28.215022 27.973426 12.731652 41.721637 0.781098 1.260693 0.100586 -0.041152 -1262980.000000 0 0 1
29.513422 27.762826 13.122452 42.591259 0.754844 1.257599 0.073713 -0.031082 -1038880.000000 0 0 1
29.743022 26.573626 14.086452 42.299328 0.729179 1.231293 0.058966 -0.037187 -1170930.000000 0 0 1
30.937822 26.755626 14.719552 43.470422 0.713035 1.225356 0.041600 -0.031725 -1074200.000000 0 0 1
31.301022 25.561726 15.414952 43.252475 0.684806 1.206390 0.054990 -0.030134 -88792.000000 0 0 1
32.362222 25.861926 16.507552 44.594304 0.674216 1.191602 0.071572 -0.031551 -342634.000000 0 0 1
33.580422 26.040226 15.845352 45.352104 0.659596 1.213881 0.091169 -0.032758 -1085410.000000 0 0 1
34.604922 26.319826 16.731652 46.585213 0.650238 1.203426 0.084506 -0.034968 146088.000000 0 0 1
36.052022 26.383826 16.168552 47.510806 0.631768 1.223546 0.109112 -0.043702 589508.000000 0 0 1
36.221622 27.592026 15.432652 48.077984 0.650982 1.244020 0.097165 -0.030864 905010.000000 0 0 1
37.631722 27.853826 15.211952 49.227895 0.637179 1.256644 0.146453 -0.035049 1488600.000000 0 0 1
-37.585810 29.011126 14.250752 49.572396 -0.657348 1.279208 0.096917 -0.025114 -47460.100000 0 0 1
37.561222 30.246226 14.821052 50.451394 0.677935 1.272629 0.094426 -0.022313 -16898.400000 0 0 1
37.628122 31.313426 13.925552 50.895258 0.694058 1.293650 0.076355 -0.014335 329604.000000 0 0 1
36.562522 32.396726 14.358052 50.916791 0.725062 1.284928 0.055921 -0.015302 -328697.000000 0 0 1
36.415022 33.486526 13.490252 51.277560 0.743528 1.304580 0.028988 -0.017952 595818.000000 0 0 1
35.313222 -33.326024 13.803452 50.479529 -0.756455 1.293822 0.027380 -0.010985 1108380.000000 0 0 1
33.930222 33.791526 13.330152 49.707345 0.783350 1.299301 0.061526 -0.012116 -238803.000000 0 0 1
33.507422 32.762526 14.166052 48.957201 0.774158 1.277242 0.052693 -0.019491 -627488.000000 0 0 1
32.566622 31.996626 13.478152 47.602831 0.776570 1.283732 0.059685 -0.016610 -577171.000000 0 0 1
32.098722 30.705926 14.188852 46.631592 0.763225 1.261619 0.078383 -0.022877 -699065.000000 0 0 1
31.213522 31.006326 15.177752 46.540739 0.782068 1.238603 0.080166 -0.019623 -466291.000000 0 0 1
30.843722 29.917926 16.041952 45.866782 0.770163 1.213491 0.077725 -0.025778 -308560.000000 0 0 1
29.989222 30.289926 17.222052 45.972080 0.790387 1.186810 0.084416 -0.026946 -576442.000000 0 0 1
29.855222 29.339326 18.256652 45.666571 0.776683 1.159518 0.085301 -0.024916 -65549.200000 0 0 1
30.044622 29.978526 19.519252 46.716085 0.784297 1.139744 0.069479 -0.025961 -130887.000000 0 0 1
29.794122 29.050526 20.726552 46.488845 0.772762 1.108685 0.081979 -0.022807 -345115.000000 0 0 1
28.461322 28.801926 21.070652 45.646141 0.791346 1.090989 0.107512 -0.035227 -399305.000000 0 0 1
28.428622 28.044426 22.203752 45.691170 0.778595 1.063343 0.112156 -0.034360 -75287.300000 0 0 1
27.045422 27.997426 22.860212 45.143106 0.802692 1.039798 0.145269 -0.034914 -145502.000000 0 0 1
26.091922 27.055626 22.347152 43.728601 0.803529 1.034400 0.154255 -0.039507 718019.000000 0 0 1
24.972122 26.964326 23.252972 43.490027 0.823738 1.006675 0.168072 -0.045204 549682.000000 0 0 1
25.088422 25.858026 24.320482 43.468981 0.800503 0.977025 0.158370 -0.039839 -211859.000000 0 0 1
26.099222 26.096626 25.286272 44.739232 0.785348 0.970130 0.151984 -0.038984 100787.000000 0 0 1
26.156722 25.027126 26.181262 44.676500 0.763332 0.944660 0.166997 -0.035490 301257.000000 0 0 1
27.559522 24.896126 26.867252 45.838778 0.734667 0.944529 0.162917 -0.032740 487014.000000 0 0 1
27.873322 25.749026 27.959712 47.134700 0.745803 0.935784 0.200435 -0.045526 201607.000000 0 0 1
27.955322 27.164926 27.643482 47.786979 0.771060 0.953941 0.162602 -0.041201 -551658.000000 0 0 1
28.419922 28.059026 28.811542 49.245364 0.779008 0.945841 0.107741 -0.029454 552853.000000 0 0 1
29.842822 27.930926 28.993752 50.113554 0.752317 0.953833 0.099834 -0.022478 773060.000000 0 0 1
30.326622 29.004026 29.797732 51.466906 0.763110 0.953333 0.094441 -0.020288 -594311.000000 0 0 1
31.842922 29.036026 29.762462 52.372385 0.739325 0.966376 0.075096 -0.017513 -664252.000000 0 0 1
32.397922 29.701426 28.618232 52.448101 0.742003 0.993633 0.064821 -0.021191 -1395370.000000 0 0 1
33.765022 29.699926 28.681022 53.336323 0.721433 1.003043 0.068925 -0.025359 -1334080.000000 0 0 1
34.318522 30.217426 27.347952 53.280055 0.721936 1.031786 0.060533 -0.018956 -356678.000000 0 0 1
34.085722 31.585826 27.183422 53.837156 0.747350 1.041508 0.061296 -0.019217 376664.000000 0 0 1
34.594722 32.101526 25.932262 53.849652 0.748034 1.068354 0.065230 -0.024378 -178803.000000 0 0 1
34.264722 33.564726 25.740602 54.435656 0.775079 1.078259 0.062611 -0.028306 -476448.000000 0 0 1
35.108422 -33.283924 26.514502 55.167379 -0.758728 1.069436 0.067202 -0.031594 366643.000000 0 0 1
34.775722 -31.925324 26.383352 54.080111 -0.742690 1.061163 0.067364 -0.026423 -521099.000000 0 0 1
35.908822 -31.228224 27.118302 54.772692 -0.715794 1.052839 0.061153 -0.028029 -107091.000000 0 0 1
35.764822 -31.148524 28.503122 55.333363 -0.716518 1.029653 0.073905 -0.031170 -176552.000000 0 0 1
37.014422 -30.849324 29.021212 56.249258 -0.694802 1.028692 0.069073 -0.035894 -848150.000000 0 0 1
36.861922 -30.386624 30.492412 56.673940 -0.689405 1.002695 0.086230 -0.033922 -42959.400000 0 0 1
36.583022 -31.344224 31.521766 57.570823 -0.708427 0.991386 0.093229 -0.025019 -286527.000000 0 0 1
35.296722 -31.870424 31.398002 56.986113 -0.734431 0.987263 0.082500 -0.026548 -864123.000000 0 0 1
34.823222 -32.834524 32.484182 57.844488 -0.756013 0.974505 0.093341 -0.024401 -298742.000000 0 0 1
34.553722 -32.193224 33.671682 58.001255 -0.750048 0.951412 0.096376 -0.025631 102232.000000 0 0 1
34.900222 -32.867124 -32.685944 58.022791 -0.755406 2.169206 0.108741 -0.024982 -142726.000000 0 0 1
34.187722 33.481326 -32.344134 57.757619 0.774960 2.165179 0.125514 -0.025800 -115834.000000 0 0 1
34.451122 32.493026 -33.279174 57.880739 0.756157 2.183353 0.124886 -0.026402 -46783.800000 0 0 1
33.651022 31.380926 -33.035434 56.643567 0.750505 2.193478 0.130757 -0.019934 -128616.000000 0 0 1
33.794022 30.426126 33.359728 56.397310 0.733003 0.937863 0.103072 -0.014387 281871.000000 0 0 1
35.026822 29.738726 33.200511 56.688130 0.703929 0.945090 0.108521 -0.021769 214240.000000 0 0 1
35.100722 28.909126 32.049742 55.632583 0.688969 0.956851 0.094582 -0.016380 -467402.000000 0 0 1
36.506022 28.408026 31.711373 56.083124 0.661290 0.969836 0.097077 -0.013133 -424654.000000 0 0 1
36.852822 27.239826 32.410138 56.129811 0.636522 0.955239 0.094332 -0.007068 -959741.000000 0 0 1
-37.407410 26.773726 32.076578 56.080777 -0.621207 0.961890 0.087739 -0.010196 -1040860.000000 0 0 1
-37.006710 25.562126 32.909898 55.731322 -0.604486 0.939106 0.086200 -0.011122 -112574.000000 0 0 1
-37.560410 24.394226 32.391849 55.272909 -0.576000 0.944640 0.082277 -0.011399 84160.700000 0 0 1
-37.545510 23.345226 33.285072 55.340409 -0.556284 0.925468 0.070766 -0.007297 48115.500000 0 0 1
37.504522 22.021026 32.653931 54.385605 0.530922 0.926776 0.070986 -0.025794 433778.000000 0 0 1
-36.974010 21.502626 31.772793 53.281805 -0.526751 0.931892 0.080612 -0.019329 561677.000000 0 0 1
-37.164110 20.183126 31.250392 52.584376 -0.497516 0.934413 0.082390 -0.022543 -315493.000000 0 0 1
-35.980210 19.659526 30.441922 51.066458 -0.500074 0.932132 0.084205 -0.032333 -204507.000000 0 0 1
-35.928810 20.238826 29.169382 50.510814 -0.513000 0.955148 0.083904 -0.020457 301446.000000 0 0 1
-34.843110 19.760326 28.364842 49.082350 -0.515894 0.954639 0.106322 -0.023506 686721.000000 0 0 1
-35.344810 18.555826 27.450922 48.447161 -0.483443 0.968404 0.127358 -0.016232 184615.000000 0 0 1
-35.686510 17.490426 28.247742 48.758352 -0.455707 0.952876 0.113731 -0.022591 -160184.000000 0 0 1
-36.634310 16.728826 27.557652 48.799083 -0.428365 0.970707 0.131413 -0.033107 -37012.600000 0 0 1
-37.269210 15.545626 28.320992 49.322805 -0.395175 0.959174 0.109659 -0.033546 176490.000000 0 0 1
-36.296910 14.534526 28.554512 48.415682 -0.380881 0.940012 0.110485 -0.031044 176357.000000 0 0 1
-36.743110 13.483326 29.390842 48.945662 -0.351705 0.926696 0.111023 -0.040912 -85768.300000 0 0 1
-35.666110 12.367726 29.589652 47.964357 -0.333789 0.905987 0.114682 -0.031572 -97152.500000 0 0 1
-34.548610 12.803726 30.298392 47.702562 -0.354908 0.882591 0.118291 -0.027329 -281848.000000 0 0 1
-33.702910 11.701926 30.598872 47.001193 -0.334186 0.861865 0.094308 -0.029936 -519356.000000 0 0 1
-32.217310 12.001726 30.505662 45.962941 -0.356598 0.845040 0.103932 -0.023550 -1721040.000000 0 0 1
-31.741810 12.288526 29.174082 44.829426 -0.369371 0.862185 0.096321 -0.022193 158433.000000 0 0 1
-30.423410 12.762126 29.002162 43.926998 -0.397189 0.849664 0.089321 -0.021899 804093.000000 0 0 1
-29.277610 11.835026 29.595992 43.280123 -0.384152 0.817805 0.081113 -0.027132 -598897.000000 0 0 1
-29.120210 10.683826 28.810332 42.333982 -0.351639 0.822285 0.086049 -0.035910 148686.000000 0 0 1
-28.121510 9.857726 29.405162 41.864754 -0.337156 0.792054 0.061989 -0.025352 23585.800000 0 0 1
-27.777210 8.704126 28.411252 40.675969 -0.303664 0.797528 0.064457 -0.033001 93895.600000 0 0 1
-28.652910 7.584426 28.313742 40.990008 -0.258765 0.808274 0.071050 -0.037012 319529.000000 0 0 1
-29.852610 7.851526 27.575822 41.391433 -0.257185 0.841667 0.094816 -0.037876 -14122.500000 0 0 1
-30.653410 6.527326 27.581292 41.748835 -0.209806 0.849114 0.093451 -0.028872 -560582.000000 0 0 1
-31.201910 6.363526 28.850862 42.970058 -0.201188 0.834676 0.103518 -0.026026 -348288.000000 0 0 1
-31.905210 5.138726 28.875892 43.337813 -0.159691 0.841563 0.112051 -0.026248 -237587.000000 0 0 1
-32.525810 4.857826 30.243802 44.679015 -0.148257 0.827236 0.114516 -0.029034 -118205.000000 0 0 1
-33.770310 5.460026 30.523032 45.846496 -0.160294 0.842277 0.136295 -0.032978 -115528.000000 0 0 1
-34.269610 5.085026 31.804842 47.029901 -0.147308 0.828111 0.141272 -0.030541 774605.000000 0 0 1
-35.825210 5.140826 31.953615 48.279470 -0.142524 0.847517 0.150196 -0.022990 568193.000000 0 0 1
-36.286810 6.433526 32.214819 48.948109 -0.175473 0.852448 0.140369 -0.027197 700128.000000 0 0 1
-37.723810 6.482826 32.124126 49.970715 -0.170187 0.872571 0.139570 -0.023251 1120700.000000 0 0 1
37.285522 7.962326 32.331212 49.989160 0.210390 0.867462 0.118082 -0.029456 -234551.000000 0 0 1
37.313522 8.311326 33.728762 50.980452 0.219165 0.847843 0.113498 -0.027909 66572.200000 0 0 1
37.196222 9.719626 -33.689544 51.117663 0.255592 2.290363 0.109095 -0.023313 -128543.000000 0 0 1
37.210222 10.106526 -32.175524 50.219586 0.265208 2.266202 0.099123 -0.018613 -1109510.000000 0 0 1
36.239222 9.468226 -31.503014 48.942501 0.255557 2.270086 0.078458 -0.013199 -979346.000000 0 0 1
36.356022 9.910226 -30.149944 48.259632 0.266123 2.245601 0.045854 -0.003846 354905.000000 0 0 1
35.315822 9.335026 -29.136594 46.725701 0.258419 2.244093 0.039857 -0.000486 46022.000000 0 0 1
35.213022 7.918226 -29.061894 46.338417 0.221187 2.248706 0.042628 -0.008009 -1152890.000000 0 0 1
34.014722 7.460726 -28.621114 45.075846 0.215919 2.258746 0.061269 -0.019302 -1631120.000000 0 0 1
36.620114 6.047526 -19.941754 42.134058 0.163665 2.063822 0.074449 -0.014573 -161343.000000 0 0 1
35.800144 6.861726 -19.125054 41.164321 0.189371 2.053982 0.049171 -0.022732 353052.000000 0 0 1
36.305634 8.171526 -18.860854 41.720555 0.221387 2.039887 0.039732 -0.015481 -197135.000000 0 0 1
37.563704 8.431526 -17.952954 42.478595 0.220800 2.007147 0.059418 -0.020438 984606.000000 0 0 1
-36.708588 7.918526 -18.441454 41.836715 -0.212458 2.027282 0.074485 -0.019718 398250.000000 0 0 1
-36.072358 8.688226 -19.466654 41.900488 -0.236354 2.053971 0.081561 -0.016668 -613356.000000 0 0 1
-34.902097 8.002526 -20.178054 41.101711 -0.225389 2.083953 0.078141 -0.010921 -267982.000000 0 0 1
-35.200562 6.969726 -21.105154 41.630327 -0.195472 2.102457 0.071202 -0.005110 198691.000000 0 0 1
-35.997148 7.208226 -22.274154 42.940553 -0.197631 2.116150 0.058849 0.001677 420664.000000 0 0 1
-36.101508 5.915526 -23.144354 43.289415 -0.162415 2.134881 0.076857 0.000130 822836.000000 0 0 1
-34.824768 5.707926 -23.756654 42.540845 -0.162460 2.163304 0.087405 -0.007094 729424.000000 0 0 1
-34.812650 4.448926 -24.385054 42.735751 -0.127107 2.178034 0.098970 -0.002302 677127.000000 0 0 1
-33.595108 4.413126 -25.384864 42.337906 -0.130614 2.213770 0.123678 -0.011073 331102.000000 0 0 1
-32.325208 4.344626 -24.837554 40.996328 -0.133603 2.221628 0.113212 -0.011519 -976685.000000 0 0 1
-31.282358 4.166026 -25.733514 40.720455 -0.132396 2.254870 0.114225 -0.010919 120845.000000 0 0 1
-29.895148 4.508426 -25.135934 39.317438 -0.149680 2.264394 0.099028 -0.015268 68462.200000 0 0 1
-29.553298 5.843226 -25.100424 39.211886 -0.195201 2.265454 0.071425 -0.008243 12736.200000 0 0 1
-28.218068 6.043426 -24.669754 37.965499 -0.210981 2.278110 0.083882 -0.008771 287668.000000 0 0 1
-27.801088 7.512126 -24.772454 37.986932 -0.263907 2.281188 0.063784 -0.015257 185678.000000 0 0 1
-28.450238 8.353126 -23.786554 38.013036 -0.285579 2.246886 0.060464 -0.013230 81381.300000 0 0 1
-28.020798 9.679126 -23.984054 38.132472 -0.332595 2.251020 0.037088 -0.009213 1309170.000000 0 0 1
-26.568528 10.079226 -23.460754 36.849484 -0.362594 2.260961 0.068629 -0.009015 1065310.000000 0 0 1
-26.423868 10.312126 -22.085454 35.948964 -0.372080 2.232366 0.045067 -0.006234 -799359.000000 0 0 1
-25.086458 10.450926 -21.772354 34.822229 -0.394731 2.246239 0.091508 -0.021890 -1178860.000000 0 0 1
-24.957378 10.745526 -20.270554 33.900330 -0.406566 2.211732 0.110479 -0.035522 -1119690.000000 0 0 1
-25.307648 12.061626 -19.824154 34.335942 -0.444753 2.186286 0.108274 -0.031340 440068.000000 0 0 1
-26.668238 12.431226 -19.945454 35.546469 -0.436197 2.166522 0.081470 -0.016578 -603298.000000 0 0 1
-27.631768 11.665526 -19.054554 35.534140 -0.399478 2.136763 0.086031 -0.017776 -1414230.000000 0 0 1
-27.269458 11.744026 -17.662254 34.547079 -0.406660 2.107437 0.099325 -0.033477 395382.000000 0 0 1
-28.108198 11.034126 -16.769154 34.540227 -0.374075 2.077727 0.117485 -0.036942 -338750.000000 0 0 1
-27.451288 10.947626 -15.356754 33.305459 -0.379473 2.050017 0.149302 -0.048197 685215.000000 0 0 1
-26.496278 9.894326 -15.146954 32.083962 -0.357388 2.062472 0.185564 -0.051010 696032.000000 0 0 1
-25.168288 10.217626 -15.499854 31.274400 -0.385644 2.089331 0.171767 -0.045657 -174211.000000 0 0 1
-24.231778 8.975026 -15.346254 30.053913 -0.354716 2.106707 0.135947 -0.039413 -796803.000000 0 0 1
-22.884578 9.169826 -15.566554 29.156598 -0.381109 2.133996 0.114450 -0.033884 -762275.000000 0 0 1
-22.141078 7.991426 -15.309854 28.079919 -0.346381 2.147453 0.131033 -0.036379 448769.000000 0 0 1
-20.627878 8.317226 -15.101054 26.883590 -0.383265 2.167260 0.151240 -0.044177 168516.000000 0 0 1
-20.026478 8.636426 -16.306954 27.231680 -0.407153 2.212827 0.155284 -0.058329 95216.100000 0 0 1
-18.613578 8.609526 -16.245554 26.163089 -0.433233 2.240730 0.137792 -0.047174 -2390.090000 0 0 1
-17.871878 9.230226 -17.482954 26.650605 -0.476734 2.286311 0.116328 -0.037702 55188.400000 0 0 1
-17.665078 8.390626 -18.618054 27.001658 -0.443435 2.331616 0.160874 -0.049916 524641.000000 0 0 1
-16.690278 7.343326 -18.483854 25.964258 -0.414487 2.362991 0.155126 -0.049600 -159495.000000 0 0 1
-16.321178 6.788026 -19.877154 26.599989 -0.394140 2.414728 0.132281 -0.047304 511396.000000 0 0 1
-17.372378 6.023626 -20.491354 27.531422 -0.333764 2.410267 0.127918 -0.037583 468586.000000 0 0 1
-18.360678 6.833026 -21.125054 28.810981 -0.356274 2.393855 0.131299 -0.038775 532595.000000 0 0 1
-19.458178 5.852626 -21.763054 29.774224 -0.292172 2.390489 0.122974 -0.029487 678318.000000 0 0 1
-20.323278 5.233526 -20.820154 29.561871 -0.252038 2.352220 0.144559 -0.039108 411347.000000 0 0 1
-21.114978 4.233726 -21.444754 30.391515 -0.197884 2.354089 0.104171 -0.018834 -29249.600000 0 0 1
-21.963078 3.390526 -20.462954 30.209352 -0.153165 2.314980 0.129168 -0.024836 -333234.000000 0 0 1
-22.541978 2.264526 -21.059054 30.931418 -0.100122 2.319692 0.138337 -0.018641 3352.720000 0 0 1
-23.071378 1.653026 -19.924354 30.528689 -0.071526 2.281865 0.129632 -0.021151 -718331.000000 0 0 1
-23.838478 0.381326 -20.226254 31.265313 -0.015995 2.274339 0.123608 -0.015247 -153727.000000 0 0 1
-23.015178 -0.792674 -20.342954 30.727228 0.034428 2.294347 0.101105 -0.018787 324264.000000 0 0 1
-23.776978 -1.957574 -20.498054 31.453887 0.082145 2.280601 0.102590 -0.025053 -346492.000000 0 0 1
-24.317178 -2.259674 -21.907454 32.808045 0.092659 2.301974 0.106706 -0.029388 701225.000000 0 0 1
-23.304678 -2.381074 -22.948054 32.793150 0.101818 2.345889 0.072297 -0.028596 1102200.000000 0 0 1
-22.585878 -3.673674 -22.925154 32.391055 0.161242 2.357121 0.067181 -0.032828 140059.000000 0 0 1
-21.534778 -3.732074 -24.022254 32.476818 0.171600 2.403382 0.056785 -0.022091 -267430.000000 0 0 1
-22.140278 -3.669774 -25.291034 33.812654 0.164258 2.415803 0.052880 -0.026167 749274.000000 0 0 1
-21.116278 -3.786874 -26.296304 33.937195 0.177448 2.457277 0.047039 -0.027779 237026.000000 0 0 1
-21.685278 -3.685774 -27.675764 35.352286 0.168358 2.470040 0.043647 -0.030918 43425.100000 0 0 1
-22.571078 -4.752874 -27.980234 36.262058 0.207542 2.452168 0.044862 -0.027258 623409.000000 0 0 1
-23.357578 -4.577274 -29.166114 37.645585 0.193513 2.457124 0.027302 -0.026027 45229.200000 0 0 1
-23.031278 -5.722574 -30.099464 38.329693 0.243538 2.473941 0.035921 -0.025569 -109860.000000 0 0 1
-21.722878 -5.774874 -30.621764 37.985853 0.259833 2.508389 0.028912 -0.024616 -100627.000000 0 0 1
-21.293778 -7.054474 -30.944434 38.219741 0.319913 2.514344 0.032752 -0.022742 52766.200000 0 0 1
-19.837678 -7.070074 -31.490124 37.883338 0.342362 2.552130 0.054204 -0.030128 -203176.000000 0 0 1
-19.599978 -6.601874 -32.802374 38.778082 0.324895 2.579046 0.060246 -0.037570 174154.000000 0 0 1
-19.837978 -7.533674 33.773162 39.886440 0.362937 0.560982 0.057862 -0.033061 -492238.000000 0 0 1
-19.579278 -6.941174 32.368346 38.460861 0.340693 0.570573 0.054149 -0.029690 136256.000000 0 0 1
-18.220378 -6.797274 32.011357 37.455468 0.357068 0.545918 0.075918 -0.029397 67064.900000 0 0 1
-17.565678 -5.615874 32.383018 37.265949 0.309437 0.517678 0.064076 -0.039095 -271467.000000 0 0 1
-16.299378 -5.284374 31.586774 35.934922 0.313515 0.497037 0.074037 -0.041366 -328408.000000 0 0 1
-16.573578 -5.030074 30.252752 34.859922 0.294664 0.519963 0.082342 -0.036288 236066.000000 0 0 1
-15.468178 -4.445374 29.589402 33.683209 0.279847 0.498164 0.074626 -0.028559 72366.900000 0 0 1
-15.600278 -4.697174 28.064182 32.450430 0.292462 0.525980 0.080876 -0.030673 753399.000000 0 0 1
-16.632378 -3.854474 27.487862 32.358547 0.227725 0.555802 0.085684 -0.033555 548764.000000 0 0 1
-16.833678 -4.045174 26.069682 31.294799 0.235831 0.586224 0.093645 -0.031197 471412.000000 0 0 1
-15.755878 -3.428974 25.092812 29.827081 0.214290 0.571157 0.108207 -0.025836 452086.000000 0 0 1
-15.827378 -2.001474 25.068382 29.714232 0.125789 0.566752 0.111900 -0.029684 117033.000000 0 0 1
-14.846478 -1.467974 24.206862 28.434926 0.098557 0.552324 0.103055 -0.037835 105380.000000 0 0 1
-14.952678 0.086626 24.270372 28.506860 -0.005793 0.552172 0.090970 -0.022538 177962.000000 0 0 1
-15.820878 0.696926 23.305522 28.176821 -0.044023 0.596838 0.099779 -0.029523 323251.000000 0 0 1
-16.232578 1.921426 23.841752 28.907051 -0.117820 0.600996 0.080882 -0.024494 -223814.000000 0 0 1
-16.782878 2.867626 22.756762 28.421092 -0.169232 0.642334 0.090620 -0.022716 -238220.000000 0 0 1
-15.668178 3.360226 22.075052 27.278029 -0.211262 0.627903 0.081098 -0.015102 199679.000000 0 0 1
-16.024978 4.407126 21.221352 26.954934 -0.268381 0.664395 0.084276 -0.021943 -389683.000000 0 0 1
-14.848978 4.809326 20.363852 25.657518 -0.313221 0.653962 0.084611 -0.010858 -76652.500000 0 0 1
-13.856478 5.635726 20.947852 25.740550 -0.386287 0.620122 0.049247 -0.014883 -128542.000000 0 0 1
-12.683278 5.653526 20.189752 24.504163 -0.419311 0.602482 0.037299 -0.010936 -312429.000000 0 1 0
-11.809078 6.831726 20.679452 24.774312 -0.524472 0.583184 0.037044 -0.008084 -2669.890000 0 1 0
-12.338478 8.045326 20.208852 25.007259 -0.577816 0.629844 0.046112 -0.011750 57834.400000 0 0 1
-11.391178 9.056826 20.398852 25.057897 -0.671730 0.619672 0.031404 -0.012030 -194932.000000 0 0 1
-11.977878 10.478826 20.363052 25.844327 -0.718744 0.663386 0.024305 -0.007671 -135860.000000 0 0 1
-12.438878 10.907626 19.108152 25.274957 -0.719904 0.713599 0.027618 -0.008906 621944.000000 0 0 1
-13.301878 12.056826 19.180952 26.271961 -0.736340 0.752340 0.026999 -0.005225 75178.900000 0 0 1
-13.587778 12.617526 17.760152 25.675916 -0.748390 0.806949 0.046139 -0.012548 -220898.000000 0 0 1
-12.616978 13.504926 17.217952 25.259237 -0.819378 0.820781 0.035157 -0.011266 271905.000000 0 0 1
-12.541578 14.813026 17.705952 26.271994 -0.868245 0.831257 0.050041 -0.016776 -301780.000000 0 0 1
-13.559778 15.857826 17.143552 27.004437 -0.863358 0.882992 0.051037 -0.007530 57631.300000 0 0 1
-13.530278 16.200026 15.797552 26.364217 -0.874957 0.928289 0.047519 -0.015941 98134.700000 0 0 1
-14.063178 15.259126 14.856052 25.520897 -0.826162 0.949471 0.077307 -0.027249 -189935.000000 0 0 1
-14.511078 15.990426 13.546552 25.490669 -0.833861 1.010506 0.065910 -0.030423 65603.500000 0 0 1
-15.676978 16.776926 13.616052 26.695126 -0.819278 1.035545 0.059742 -0.027942 -227031.000000 0 0 1
-16.088178 17.302626 12.379252 26.673137 -0.821753 1.088167 0.069153 -0.026651 799624.000000 0 0 1
-17.410878 18.157626 12.408052 28.049916 -0.806390 1.112572 0.073482 -0.022266 1826000.000000 0 0 1
-18.656578 17.450726 12.676652 28.518297 -0.752014 1.110170 0.084251 -0.023562 1394800.000000 0 0 1
-19.700778 18.352426 13.000052 29.898722 -0.749980 1.120977 0.082293 -0.020961 9586.810000 0 0 1
-21.147678 17.880126 13.121852 30.644840 -0.701869 1.128306 0.087396 -0.016129 -210407.000000 0 0 1
-21.684078 17.436426 11.875552 30.253214 -0.677243 1.167406 0.095475 -0.015006 -429832.000000 0 0 1
-22.963378 16.940426 12.164952 31.020652 -0.635592 1.167822 0.100669 -0.019274 -204732.000000 0 0 1
-23.612078 16.275926 10.898752 30.679289 -0.603512 1.207617 0.109184 -0.011705 44444.700000 0 0 1
-22.998078 15.067826 10.578852 29.459516 -0.580006 1.203495 0.088293 0.004086 530836.000000 0 0 1
-23.733478 14.470026 9.454352 29.360593 -0.547513 1.242946 0.098374 0.000103 578931.000000 0 0 1
-23.068778 13.226226 8.793352 28.007581 -0.520585 1.251432 0.107142 0.000556 -410442.000000 0 0 1
-23.021078 12.027826 9.520252 27.663583 -0.481462 1.219470 0.101522 -0.006222 137644.000000 0 0 1
-24.223878 11.350026 9.832252 28.500746 -0.438170 1.218576 0.143908 -0.001583 171112.000000 0 0 1
-25.001958 10.626726 8.673852 28.517730 -0.401901 1.261743 0.165797 -0.007866 -130053.000000 0 0 1
-25.542638 11.587926 7.776252 29.106296 -0.425902 1.300344 0.175256 -0.014275 1058450.000000 0 0 1
-26.629578 11.020926 6.976352 29.652398 -0.392398 1.333299 0.226421 -0.024014 617464.000000 0 0 1
-27.163028 12.020726 5.888452 30.282038 -0.416633 1.375096 0.206893 -0.028787 111141.000000 0 0 1
-26.377778 12.320226 4.721652 29.493544 -0.436957 1.410013 0.210162 -0.043237 829583.000000 0 0 1
-25.086858 12.921126 4.757052 28.617049 -0.475619 1.403790 0.190722 -0.041542 132845.000000 0 0 1
-24.955678 14.411926 5.346452 29.309965 -0.523712 1.387359 0.175328 -0.027132 -541914.000000 0 0 1
-23.625978 14.867526 5.285852 28.410744 -0.561676 1.383655 0.154629 -0.027818 186489.000000 0 0 1
-23.623978 16.176026 5.852452 29.223404 -0.600403 1.369167 0.142553 -0.019505 -515434.000000 0 0 1
-22.246578 16.789626 6.100752 28.531052 -0.646506 1.355304 0.132202 -0.016016 -419629.000000 0 0 1
-21.720378 17.326026 4.898652 28.212812 -0.673328 1.396280 0.147066 -0.033127 466041.000000 0 0 1
-20.434478 17.875226 5.095652 27.623491 -0.718693 1.385266 0.158509 -0.026543 -76343.800000 0 0 1
-19.836878 18.769826 3.998752 27.600690 -0.757766 1.425406 0.141686 -0.024354 474327.000000 0 0 1
-18.471278 19.106226 4.258952 26.914209 -0.802294 1.411887 0.134321 -0.023463 717312.000000 0 0 1
-17.954978 20.157726 3.461052 27.215695 -0.843130 1.443280 0.139540 -0.025610 26547.800000 0 0 1
-18.164578 21.615426 3.938652 28.507745 -0.871930 1.432192 0.118916 -0.029672 104663.000000 0 0 1
-17.381578 21.860826 5.114652 28.393215 -0.899049 1.389671 0.122926 -0.035438 432134.000000 0 0 1
-17.406278 23.260326 5.303152 29.532096 -0.928368 1.390244 0.096791 -0.027637 -113444.000000 0 0 1
-16.781678 23.734526 6.607952 29.809688 -0.955349 1.347268 0.090217 -0.019063 -18462.100000 0 0 1
-17.470078 23.293526 7.762952 30.133958 -0.927297 1.310243 0.086515 -0.021062 385600.000000 0 0 1
-16.564478 23.113026 8.833752 29.776317 -0.948968 1.269592 0.083691 -0.024076 211935.000000 0 0 1
-17.194178 22.246326 9.918452 29.814669 -0.912800 1.231663 0.065046 -0.020580 358064.000000 0 0 1
-18.394278 22.735526 10.486052 31.067843 -0.890559 1.226514 0.072869 -0.016886 -421402.000000 0 0 1
-19.226278 21.715326 11.072452 31.045198 -0.846119 1.206110 0.080985 -0.022361 611159.000000 0 0 1
-20.495978 22.381026 11.704252 32.526681 -0.829334 1.202705 0.083756 -0.024733 649655.000000 0 0 1
-21.368978 23.093626 10.794752 33.263726 -0.824167 1.240292 0.085204 -0.013027 510831.000000 0 0 1
-20.749178 24.256426 10.283152 33.535739 -0.863170 1.259143 0.064472 -0.011889 -1272500.000000 0 0 1
-21.717878 25.168026 9.529852 34.581987 -0.858852 1.291611 0.071051 -0.014104 15478.600000 0 0 1
-22.691378 25.756826 10.356952 35.854974 -0.848587 1.277764 0.085728 -0.026878 -102069.000000 0 0 1
-23.320878 26.875926 9.835452 36.917677 -0.856102 1.301124 0.104329 -0.022008 109195.000000 0 0 1
-24.317478 27.598626 10.804152 38.337366 -0.848515 1.285108 0.116044 -0.031215 36722.400000 0 0 1
-23.676278 28.291926 11.848552 38.747741 -0.873982 1.260031 0.123850 -0.037065 914475.000000 0 0 1
-24.636878 29.008926 12.661452 40.109923 -0.866717 1.249635 0.123050 -0.038635 527773.000000 0 0 1
10.310422 -32.720524 27.762242 44.132523 -1.265539 0.890446 0.047959 -0.026878 -403204.000000 0 0 1
11.644422 -32.890124 27.381742 44.352144 -1.230527 0.905400 0.052936 -0.035198 -185613.000000 0 0 1
11.818822 -32.459224 26.045932 43.262875 -1.221605 0.924744 0.068318 -0.024385 -406017.000000 0 0 1
13.324022 -32.473824 25.757902 43.537896 -1.181442 0.937729 0.036948 -0.016759 -142681.000000 0 0 1
13.886322 -33.788924 25.835602 44.743711 -1.180867 0.955240 0.051903 -0.033818 716670.000000 0 0 1
15.317322 -33.788724 25.764012 45.167273 -1.145180 0.963787 0.056358 -0.026487 109905.000000 0 0 1
15.900822 32.593126 25.454942 44.306908 1.116909 0.958786 0.085951 -0.026160 -554656.000000 0 0 1
15.780622 32.266126 24.069302 43.237278 1.115925 0.980413 0.067927 -0.031113 -145720.000000 0 0 1
16.594722 31.212726 23.714012 42.567282 1.082139 0.979913 0.065746 -0.029600 -939474.000000 0 0 1
16.524122 30.814926 22.209752 41.423174 1.078581 1.004906 0.067621 -0.039775 559975.000000 0 0 1
15.464022 29.921426 21.765652 40.102012 1.093783 0.997080 0.069645 -0.029461 579427.000000 0 0 1
15.654022 28.508626 22.017152 39.275249 1.068646 0.975703 0.070857 -0.025601 -438918.000000 0 0 1
15.175922 27.985826 23.372762 39.494317 1.073906 0.937505 0.083029 -0.032146 -285120.000000 0 0 1
15.934522 28.324326 24.531782 40.718359 1.058351 0.924198 0.077105 -0.027638 377260.000000 0 0 1
15.368722 27.732326 25.677052 40.799394 1.064749 0.890081 0.072625 -0.032290 210641.000000 0 0 1
16.324022 28.101426 26.859952 42.161842 1.044542 0.880108 0.080358 -0.036666 449901.000000 0 0 1
16.465222 29.484726 27.143982 43.327225 1.061502 0.893757 0.084215 -0.035809 -33497.300000 0 0 1
17.477222 29.652426 28.096002 44.430902 1.038205 0.886210 0.100350 -0.041523 -149823.000000 0 0 1
17.518122 31.081626 28.624152 45.741602 1.057559 0.894666 0.105415 -0.052804 514243.000000 0 0 1
18.353322 31.972826 27.836042 46.194711 1.049692 0.924065 0.088538 -0.040806 361963.000000 0 0 1
18.300622 33.302026 28.376362 47.425264 1.068310 0.929370 0.107630 -0.027257 245621.000000 0 0 1
18.989922 -33.299524 27.462842 47.155945 -1.052519 0.949139 0.083012 -0.031143 -126230.000000 0 0 1
18.162122 -32.855324 26.404822 45.897164 -1.065813 0.957821 0.085255 -0.026850 -463107.000000 0 0 1
18.397122 -31.501924 25.952402 44.769996 -1.042225 0.952457 0.074726 -0.032203 -756225.000000 0 0 1
19.723122 -30.965524 25.398782 44.642618 -1.003658 0.965585 0.089130 -0.025142 -167170.000000 0 0 1
20.723022 -30.927224 26.412642 45.646079 -0.980450 0.953736 0.091777 -0.025335 -192807.000000 0 0 1
21.732322 -30.027924 26.039782 45.299452 -0.944316 0.958392 0.101688 -0.028697 -300700.000000 0 0 1
22.146022 -29.087124 27.214082 45.575359 -0.920059 0.930887 0.118738 -0.027688 -1141880.000000 0 0 1
21.084122 -28.402924 27.749812 44.959075 -0.932227 0.905587 0.111964 -0.026475 -659375.000000 0 0 1
21.404122 -27.648324 28.865192 45.340551 -0.912014 0.880675 0.131488 -0.023608 -821823.000000 0 0 1
20.192422 -27.251524 29.672172 45.064590 -0.933103 0.852057 0.110801 -0.032812 -597251.000000 0 0 1
19.388622 -26.297624 29.004652 43.689284 -0.935488 0.844795 0.129807 -0.033133 1085560.000000 0 0 1
18.035022 -26.319624 29.509422 43.460219 -0.970051 0.824399 0.108920 -0.041077 1042490.000000 0 0 1
16.991222 -25.481624 28.742452 42.001707 -0.982699 0.817131 0.125208 -0.021071 -347475.000000 0 0 1
16.613522 -25.802924 27.389142 41.133504 -0.998748 0.842151 0.122404 -0.027307 390830.000000 0 0 1
15.720322 -24.964324 26.707622 39.795014 -1.008816 0.835064 0.120872 -0.038859 -663360.000000 0 0 1
14.258422 -24.788124 27.118212 39.410039 -1.048803 0.811923 0.094674 -0.030822 -709600.000000 0 0 1
13.412922 -25.894624 27.062312 39.784504 -1.092868 0.822730 0.081092 -0.016843 119260.000000 0 0 1
12.903522 -26.170824 25.754632 38.919327 -1.112724 0.847654 0.062650 -0.023367 -362257.000000 0 0 1
11.991222 -27.423124 25.732912 39.471508 -1.158582 0.860661 0.052684 -0.020974 -248267.000000 0 0 1
10.661122 -27.251624 26.172192 39.259320 -1.197890 0.841092 0.047713 -0.031557 -429277.000000 0 0 1
10.006622 -28.449224 25.976232 39.802707 -1.232576 0.859753 0.031951 -0.021044 -527785.000000 0 0 1
8.535722 -28.451924 26.485732 39.797796 -1.279335 0.842623 0.021764 -0.030303 1416220.000000 0 0 1
7.461622 -28.077424 25.570112 38.702044 -1.311048 0.849057 0.056778 -0.035911 1076310.000000 0 0 1
7.653822 -26.718424 25.095732 37.446642 -1.291805 0.836354 0.079678 -0.038789 -808317.000000 0 0 1
6.462522 -26.405924 24.140602 36.356646 -1.330777 0.844648 0.087184 -0.039659 -67119.100000 0 0 1
6.270922 -27.122324 22.898502 36.045615 -1.343580 0.882445 0.082172 -0.037720 -326975.000000 0 0 1
5.874822 -28.464724 23.065082 37.104610 -1.367265 0.899983 0.087151 -0.039707 128518.000000 0 0 1
4.487022 -28.737924 23.733982 37.540692 -1.415911 0.886381 0.143824 -0.037035 1372960.000000 0 0 1
3.276022 -28.764224 22.886032 36.903704 -1.457393 0.901856 0.154105 -0.034505 1609030.000000 0 0 1
2.019222 -28.741424 23.522992 37.195133 -1.500657 0.886121 0.179216 -0.026776 170897.000000 0 0 1
1.533022 -27.333024 23.849692 36.307743 -1.514768 0.854128 0.157415 -0.035787 -843033.000000 0 0 1
2.458622 -26.652824 24.619552 36.366746 -1.478810 0.827145 0.118269 -0.039029 -309968.000000 0 0 1
2.080322 -25.268524 24.676212 35.379959 -1.488653 0.798945 0.104361 -0.026488 162833.000000 0 0 1
3.069622 -24.350824 25.426632 35.339763 -1.445400 0.767728 0.100570 -0.027289 -466464.000000 0 0 1
4.294822 -24.018124 24.846522 34.823346 -1.393851 0.776313 0.094823 -0.035992 333940.000000 0 0 1
5.186722 -23.333824 25.780902 35.157138 -1.352069 0.747626 0.078367 -0.029068 855148.000000 0 0 1
4.818322 -21.816924 25.915232 34.216862 -1.353433 0.711502 0.065414 -0.015522 -378901.000000 0 0 1
4.805722 -21.080524 24.705932 32.830878 -1.346657 0.718914 0.070766 -0.019965 237620.000000 0 0 1
4.110422 -19.855124 24.856772 32.077728 -1.366659 0.684252 0.091944 -0.032045 -20944.800000 0 0 1
4.064222 -18.943924 23.603102 30.536807 -1.359460 0.687335 0.110906 -0.035077 333634.000000 0 0 1
5.264322 -18.216424 23.366922 30.092595 -1.289473 0.681703 0.079920 -0.024011 110229.000000 0 0 1
5.351622 -18.002624 21.950352 28.888619 -1.281847 0.707749 0.077903 -0.026793 125451.000000 0 0 1
6.615322 -17.212624 21.507952 28.330706 -1.203871 0.708752 0.070352 -0.012683 205515.000000 0 0 1
7.784322 -17.930824 21.747352 29.241366 -1.161217 0.732180 0.073027 -0.016315 -665698.000000 0 0 1
8.924022 -17.371424 21.136152 28.777447 -1.096234 0.745912 0.080466 -0.015851 658672.000000 0 0 1
10.302422 -17.597224 21.822652 29.866877 -1.041139 0.751502 0.084829 -0.006217 414989.000000 0 0 1
10.313122 -16.732524 22.976752 30.236881 -1.018440 0.707650 0.086503 0.000288 -128973.000000 0 0 1
11.412922 -16.884324 23.850672 31.371799 -0.976396 0.707086 0.101108 -0.005813 -37350.800000 0 0 1
11.490922 -15.995624 25.093432 31.899555 -0.947842 0.665450 0.118662 -0.023839 -100987.000000 0 0 1
11.664622 -14.574124 25.070132 31.256680 -0.895833 0.640038 0.134778 -0.026157 201907.000000 0 0 1
11.350322 -14.012624 26.359892 31.937867 -0.889983 0.599976 0.131559 -0.030887 -199431.000000 0 0 1
11.512722 -12.477224 26.403072 31.390223 -0.825581 0.571438 0.130285 -0.026825 136415.000000 0 0 1
10.530922 -11.778324 25.653292 30.128403 -0.841254 0.552023 0.142661 -0.022146 112378.000000 0 0 1
10.951622 -10.431224 25.392272 29.555303 -0.761066 0.537201 0.131589 -0.021348 396197.000000 0 0 1
9.902722 -9.568124 24.590302 28.183255 -0.768215 0.510471 0.111335 -0.016390 441968.000000 0 0 1
8.747022 -9.210924 25.355542 28.359391 -0.811225 0.464425 0.116238 -0.028809 210792.000000 0 0 1
7.816422 -8.681224 24.440392 27.088612 -0.837770 0.445863 0.093953 -0.031931 -450729.000000 0 0 1
6.327522 -8.823424 24.736082 27.014147 -0.948667 0.413621 0.087355 -0.034967 -1084340.000000 0 0 1
5.866122 -8.161024 25.914102 27.794863 -0.947566 0.369981 0.107341 -0.026819 1028950.000000 0 0 1
4.563822 -8.506124 26.434172 28.141572 -1.078351 0.350130 0.124502 -0.029944 1304640.000000 0 0 1
3.327722 -8.392324 25.522282 27.071973 -1.193294 0.339994 0.093116 -0.026520 -539455.000000 0 0 1
2.969522 -7.092824 25.114652 26.265414 -1.174303 0.297108 0.097378 -0.026313 -157874.000000 0 0 1
1.844222 -7.082424 24.259642 25.339537 -1.316059 0.292995 0.083052 -0.021941 285454.000000 0 0 1
1.827422 -5.867724 23.341802 24.137303 -1.268881 0.257449 0.065417 -0.024326 156223.000000 0 1 0
1.665122 -4.633824 23.979072 24.479397 -1.225824 0.202527 0.074066 -0.019341 -250064.000000 0 1 0
2.229722 -3.569024 23.248762 23.626564 -1.012382 0.179072 0.070552 -0.029005 -946086.000000 0 1 0
1.376322 -2.782124 22.233952 22.449568 -1.111396 0.138707 0.058574 -0.026085 -37315.700000 0 1 0
0.407222 -1.866824 22.648572 22.729027 -1.356024 0.084165 0.060291 -0.023874 56802.500000 0 1 0
-0.662978 -2.356824 23.436682 23.564215 1.296581 0.104087 0.058525 -0.013020 -54358.100000 0 1 0
-1.696078 -1.272824 23.898402 23.992299 0.643790 0.088500 0.057627 -0.019129 150260.000000 0 1 0
-1.190378 -0.454824 24.909952 24.942526 0.364967 0.051112 0.071287 -0.021338 -365145.000000 0 1 0
-1.953078 0.661176 25.257672 25.341698 -0.326420 0.081456 0.077748 -0.024534 -531021.000000 0 0 1
-1.535678 1.462176 26.502092 26.586785 -0.760885 0.079840 0.107805 -0.037273 -391557.000000 0 0 1
-1.810978 0.835176 27.767052 27.838577 -0.432107 0.071699 0.133350 -0.035447 137992.000000 0 0 1
-1.102478 -0.353824 28.205472 28.229228 0.310551 0.041028 0.138687 -0.038303 923002.000000 0 0 1
0.366522 -0.052824 28.729602 28.731989 -0.143137 0.012889 0.155099 -0.037627 905907.000000 0 0 1
1.331222 0.444176 27.813772 27.849154 0.322045 0.050413 0.121053 -0.033158 205116.000000 0 0 1
1.884722 -0.453824 26.857292 26.927166 -0.236293 0.072056 0.102269 -0.031586 -100315.000000 0 0 1
2.898022 -1.579824 27.200472 27.400001 -0.499103 0.120755 0.102022 -0.032124 -392351.000000 0 0 1
2.416422 -2.630824 27.999962 28.226906 -0.827852 0.126892 0.125462 -0.035633 128861.000000 0 0 1
3.306422 -3.751324 28.206982 28.646792 -0.848352 0.175455 0.146815 -0.028818 168484.000000 0 0 1
3.952522 -4.513124 27.032172 27.689873 -0.851522 0.218390 0.130991 -0.027334 537812.000000 0 0 1
5.090822 -3.822524 26.492852 27.247007 -0.644055 0.235827 0.126316 -0.024779 495143.000000 0 0 1
5.746622 -4.602624 25.499922 26.541550 -0.675306 0.281086 0.109346 -0.022930 -813295.000000 0 0 1
6.821722 -3.821624 24.771242 25.976050 -0.510651 0.305760 0.095204 -0.025476 -54684.200000 0 0 1
8.113322 -3.714524 25.370732 26.894195 -0.429346 0.338200 0.085030 -0.022106 626610.000000 0 0 1
8.928322 -4.868724 25.346122 27.310169 -0.499237 0.381563 0.095628 -0.023989 -668522.000000 0 0 1
9.735322 -5.117924 24.075562 26.468894 -0.484001 0.428525 0.082752 -0.022983 -806003.000000 0 0 1
9.036722 -5.641624 22.939272 25.292301 -0.558096 0.434771 0.078490 -0.033323 -366889.000000 0 0 1
9.750022 -5.635124 21.746852 24.489654 -0.524056 0.477815 0.086519 -0.030387 -219986.000000 0 1 0
9.814222 -4.249624 21.081052 23.638719 -0.408633 0.469484 0.088805 -0.037523 720049.000000 0 1 0
8.518222 -3.726724 20.801952 22.785298 -0.412411 0.420328 0.069967 -0.042244 -81798.600000 0 1 0
8.662522 -2.417824 20.187852 22.100555 -0.272186 0.419103 0.071990 -0.035458 -171266.000000 0 1 0
7.363422 -1.637824 19.938452 21.317700 -0.218864 0.361689 0.063299 -0.029514 2445.580000 0 1 0
6.619022 -1.350824 21.117052 22.171290 -0.201318 0.309617 0.065895 -0.022092 628450.000000 0 1 0
5.440922 -0.554824 20.900952 21.604659 -0.101621 0.255931 0.045849 -0.016891 560189.000000 0 1 0
4.625122 -0.328824 22.168952 22.648672 -0.070976 0.206185 0.031560 -0.019909 -377779.000000 0 1 0
3.518622 0.506176 22.096852 22.380970 0.142876 0.159509 0.039123 -0.018621 142169.000000 0 1 0
2.772822 0.696176 23.366552 23.540794 0.245987 0.121744 0.051893 -0.019121 1357530.000000 0 1 0
1.292922 1.167176 23.184582 23.249921 0.734328 0.074988 0.064923 -0.032276 300653.000000 0 1 0
1.084222 2.488176 22.793092 22.954120 1.159856 0.118519 0.069664 -0.029174 1243060.000000 0 1 0
-0.311878 2.903176 22.745342 22.931993 -1.463780 0.127674 0.055181 -0.028043 1445260.000000 0 1 0
-0.574278 4.413176 22.365552 22.804031 -1.441395 0.196418 0.060400 -0.021414 -9692.050000 0 1 0
-0.394178 5.362176 23.381482 23.991707 -1.497418 0.226024 0.071950 -0.022199 -163510.000000 0 1 0
-1.284078 6.417176 23.063362 23.973896 -1.373304 0.276489 0.063290 -0.020924 181714.000000 0 1 0
-1.205078 7.649176 23.930242 25.151910 -1.414537 0.312954 0.074256 -0.011359 443332.000000 0 0 1
-0.144378 8.427176 23.381882 24.854588 -1.553666 0.345970 0.067294 -0.007317 143650.000000 0 1 0
-0.169678 9.711176 23.984302 25.876292 -1.553326 0.384774 0.086422 -0.004003 241235.000000 0 0 1
0.761022 10.756176 23.208042 25.590774 1.500162 0.434950 0.093917 -0.013018 509013.000000 0 0 1
2.155222 10.707176 23.318292 25.749395 1.372163 0.438037 0.078115 -0.013323 -420001.000000 0 0 1
2.723222 11.059176 24.560862 27.073184 1.329359 0.434210 0.092793 -0.007186 -247864.000000 0 0 1
3.993922 11.980176 24.536402 27.595490 1.249006 0.475322 0.078838 -0.014322 1628890.000000 0 0 1
5.255322 11.453176 24.036362 27.139277 1.140605 0.482868 0.079390 -0.009148 1151920.000000 0 0 1
5.216922 10.882176 22.753732 25.755977 1.123764 0.487653 0.077745 -0.014612 -1560420.000000 0 0 1
6.569322 10.448176 22.196452 25.396907 1.009503 0.507458 0.074183 -0.012932 -316682.000000 0 0 1
7.401522 11.511176 21.773552 25.717256 0.999368 0.561135 0.065636 -0.019011 180822.000000 0 0 1
8.513822 10.983176 21.075352 25.244520 0.911380 0.582939 0.066707 -0.019383 -173214.000000 0 0 1
9.401022 12.076176 20.486752 25.571865 0.909318 0.641592 0.059659 -0.040697 -658027.000000 0 0 1
8.960922 12.541176 19.223052 24.639500 0.950392 0.675855 0.056385 -0.047372 68698.000000 0 1 0
9.816522 13.527176 18.733452 25.105594 0.943037 0.728481 0.068716 -0.045394 880065.000000 0 0 1
11.281422 13.172176 18.230352 25.161925 0.862565 0.760457 0.063754 -0.044757 764750.000000 0 0 1
12.172122 13.191176 19.324952 26.374637 0.825555 0.748501 0.073621 -0.048365 981553.000000 0 0 1
13.502222 12.827176 18.830952 26.484924 0.759765 0.779868 0.085733 -0.047974 1688620.000000 0 0 1
14.568222 12.850176 19.986852 27.871749 0.722820 0.771163 0.114418 -0.045426 366084.000000 0 0 1
14.974622 14.150176 20.441352 29.022675 0.757098 0.789327 0.122181 -0.047681 228604.000000 0 0 1
16.212922 14.032176 21.119452 30.096380 0.713420 0.792977 0.128347 -0.050720 432936.000000 0 0 1
16.985322 15.366176 21.361552 31.319905 0.735391 0.820242 0.127232 -0.047397 285907.000000 0 0 1
16.555722 16.016176 22.563542 32.244740 0.768835 0.795736 0.139640 -0.044836 504026.000000 0 0 1
17.469422 17.071176 22.832192 33.435232 0.773869 0.819101 0.131250 -0.039976 -227950.000000 0 0 1
-22.460878 12.937526 -24.385354 35.588146 -0.522588 2.325688 0.099109 -0.010883 54815.100000 0 0 1
-22.031078 12.633126 -25.641624 36.089571 -0.520648 2.361004 0.085913 -0.022313 -76106.400000 0 0 1
-22.563678 13.592626 -26.561334 37.408335 -0.542191 2.360348 0.089101 -0.023754 -18586.000000 0 0 1
-22.179278 13.329526 -27.998554 38.125000 -0.541147 2.395561 0.084375 -0.027473 -784314.000000 0 0 1
-20.911278 13.824726 -28.242264 37.762813 -0.584148 2.415667 0.104420 -0.024367 -920681.000000 0 0 1
-20.633978 14.087626 -29.622004 38.751585 -0.599047 2.440918 0.098084 -0.036839 -646906.000000 0 0 1
-19.279178 14.681326 -29.952844 38.527924 -0.650828 2.461369 0.079024 -0.032271 -1031420.000000 0 0 1
-18.225978 13.771026 -29.910114 37.635653 -0.647057 2.489356 0.077576 -0.029825 -710352.000000 0 0 1
-17.030078 14.528626 -30.012504 37.441353 -0.706300 2.500741 0.058797 -0.024277 -60036.500000 0 0 1
-15.944778 14.161126 -29.002994 35.999265 -0.726221 2.507577 0.085143 -0.010431 -549224.000000 0 0 1
-16.215178 14.376426 -27.605984 35.095640 -0.725364 2.476068 0.115305 -0.021286 -139334.000000 0 0 1
-16.917078 13.291226 -26.970654 34.500151 -0.665941 2.468271 0.142575 -0.015500 43380.600000 0 0 1
-17.668478 13.733426 -25.719074 34.091830 -0.660735 2.425545 0.130063 -0.022688 -164016.000000 0 0 1
-16.776678 14.283326 -24.777954 33.157463 -0.705295 2.414758 0.159465 -0.036322 -27571.300000 0 0 1
-17.448178 14.625726 -23.575154 32.774055 -0.697626 2.373625 0.163108 -0.032241 103836.000000 0 0 1
-16.592178 15.442726 -22.572954 31.989317 -0.749532 2.354123 0.174132 -0.029633 15971.100000 0 0 1
-16.253478 16.695926 -23.092254 32.805208 -0.798825 2.351698 0.162790 -0.029148 -110024.000000 0 0 1
-15.642478 17.440626 -22.034654 32.161911 -0.839697 2.325560 0.154545 -0.023494 -467488.000000 0 0 1
-15.554778 18.933526 -22.407254 33.204135 -0.883054 2.311535 0.126988 -0.018839 -255179.000000 0 0 1
-16.648978 19.804226 -22.298854 34.156035 -0.871739 2.282140 0.108396 -0.009218 -440449.000000 0 0 1
-17.674578 19.502826 -23.229154 35.104765 -0.834535 2.293893 0.093773 -0.006264 -759340.000000 0 0 1
-18.887878 20.395126 -23.037554 36.103213 -0.823748 2.262828 0.078725 -0.007888 -340504.000000 0 0 1
-18.639878 21.711926 -23.413254 36.973413 -0.861383 2.256536 0.060481 -0.005918 293293.000000 0 0 1
-19.876078 22.351126 -23.670854 38.143684 -0.843944 2.240267 0.097903 -0.018663 417347.000000 0 0 1
-19.584278 23.830726 -23.942854 39.047506 -0.882899 2.230867 0.075473 -0.023955 82335.700000 0 0 1
-18.929478 24.382726 -22.822754 38.389068 -0.910645 2.207455 0.068829 -0.020092 -266155.000000 0 0 1
-18.104578 25.453826 -23.202054 38.910260 -0.952546 2.209676 0.058861 -0.017237 -356737.000000 0 0 1
-17.100978 25.711826 -22.052054 37.945152 -0.983878 2.190945 0.054540 -0.024212 137542.000000 0 0 1
-15.980378 24.841726 -21.850354 36.741282 -0.999154 2.207699 0.061072 -0.034674 441750.000000 0 0 1
-16.315678 23.517926 -21.409854 35.744595 -0.964274 2.213008 0.075932 -0.012051 -715502.000000 0 0 1
-15.042878 22.691626 -21.198854 34.504920 -0.985388 2.232386 0.090840 -0.017795 44516.500000 0 0 1
-14.387578 22.985426 -19.987054 33.687008 -1.011519 2.205969 0.108149 -0.030977 223916.000000 0 0 1
-13.354778 22.037526 -19.658654 32.410883 -1.025976 2.222504 0.104153 -0.025854 481773.000000 0 0 1
-12.534678 22.416726 -18.388554 31.587445 -1.060943 2.192164 0.090729 -0.025331 185393.000000 0 0 1
-13.140778 22.216026 -17.117254 30.971475 -1.036650 2.156371 0.107295 -0.023878 258632.000000 0 0 1
-14.231378 23.070926 -16.741454 31.860258 -1.018077 2.124058 0.102504 -0.032183 327886.000000 0 0 1
-14.522278 22.969126 -15.293854 31.182997 -1.006999 2.083408 0.124855 -0.036460 1282810.000000 0 0 1
-13.365778 23.322826 -14.467154 30.526984 -1.050408 2.064526 0.118201 -0.044901 652819.000000 0 0 1
-13.833478 23.451826 -13.170654 30.245981 -1.037860 2.021336 0.137942 -0.044863 -607085.000000 0 0 1
-12.832878 23.949626 -12.150954 29.764291 -1.078899 1.991321 0.177862 -0.046057 -523258.000000 0 0 1
-12.526378 25.311026 -12.473054 30.872889 -1.111239 1.986696 0.165397 -0.054095 363935.000000 0 0 1
-11.688578 26.012726 -11.555554 30.770369 -1.148491 1.955777 0.109318 -0.044662 208421.000000 0 0 1
-11.534978 27.458526 -12.058554 32.131528 -1.173094 1.955503 0.139173 -0.043251 173561.000000 0 0 1
-10.719878 27.528626 -13.237654 32.372465 -1.199454 1.992063 0.130587 -0.038987 339968.000000 0 0 1
-10.666578 28.833526 -13.825054 33.708756 -1.216472 1.993396 0.095548 -0.012257 -457721.000000 0 0 1
-9.741278 28.955226 -15.053054 34.057188 -1.246265 2.028616 0.133466 -0.042207 1094330.000000 0 0 1
-8.309378 28.931326 -14.974954 33.620182 -1.291114 2.032435 0.086691 -0.042039 897126.000000 0 0 1
-7.770078 27.646326 -14.593054 32.212586 -1.296812 2.040950 0.092479 -0.039810 -896521.000000 0 0 1
-6.304578 27.472726 -14.961954 31.911729 -1.345217 2.058790 0.086610 -0.040051 -477383.000000 0 0 1
-5.522078 28.379526 -14.215854 32.217718 -1.378618 2.027780 0.067638 -0.031493 -1403930.000000 0 0 1
-4.205878 28.314226 -14.619654 32.142170 -1.423332 2.042993 0.089574 -0.034242 -692860.000000 0 0 1
-3.240378 29.314226 -13.908254 32.607720 -1.460704 2.011452 0.064000 -0.026976 160396.000000 0 0 1
-3.375878 30.697726 -14.250554 34.012134 -1.461265 2.003123 0.050028 -0.021423 269552.000000 0 0 1
-4.449678 31.303226 -13.517354 34.386196 -1.429595 1.974801 0.039242 -0.021416 517547.000000 0 0 1
-4.589078 32.843926 -13.807554 35.922579 -1.431971 1.965321 0.046133 -0.020360 104126.000000 0 0 1
-3.540178 33.526226 -13.161054 36.190524 -1.465592 1.942990 0.021085 -0.017740 -82090.500000 0 0 1
-3.684478 -32.756324 -13.348254 35.563015 1.458786 1.955561 0.039988 -0.014744 121612.000000 0 0 1
-2.773178 -31.832924 -12.552154 34.330484 1.483899 1.945103 0.049229 -0.017868 -166328.000000 0 0 1
-3.121778 -31.956324 -11.187254 34.001571 1.473416 1.906064 0.045989 -0.024723 -690508.000000 0 0 1
-2.171478 -31.413324 -10.378954 33.154712 1.501780 1.889195 0.042734 -0.034129 -1023300.000000 0 0 1
-2.475778 -31.318024 -8.855754 32.640044 1.491908 1.845556 0.049662 -0.027445 -673820.000000 0 0 1
-1.478778 -30.629424 -8.190754 31.740146 1.522554 1.831806 0.054338 -0.036993 -523387.000000 0 0 1
-1.670278 -30.818624 -6.823654 31.609171 1.516652 1.788385 0.059082 -0.039576 618088.000000 0 0 1
-0.491278 -30.218324 -5.986554 30.809533 1.554540 1.766349 0.078750 -0.040497 492035.000000 0 0 1
-0.752478 -30.446824 -4.584354 30.799215 1.546087 1.720198 0.094148 -0.045631 493142.000000 0 0 1
0.323522 -29.882324 -3.817354 30.126901 -1.559970 1.697847 0.088048 -0.040061 89569.900000 0 0 1
0.246922 -30.415724 -2.409754 30.512033 -1.562678 1.649856 0.091330 -0.029628 -287088.000000 0 0 1
0.659622 -31.802424 -2.246154 31.888470 -1.550058 1.641293 0.095649 -0.041188 2161110.000000 0 0 1
2.063522 -32.148224 -2.569554 32.316699 -1.506697 1.650392 0.081225 -0.036722 2079340.000000 0 0 1
3.209222 -31.445624 -1.811154 31.660806 -1.469092 1.628032 0.072617 -0.034415 -1052300.000000 0 0 1
3.225622 -31.789424 -0.419854 31.955413 -1.469674 1.583935 0.063929 -0.027458 -143407.000000 0 0 1
4.443022 -31.529324 0.227846 31.841649 -1.430801 1.563641 0.054242 -0.020137 -94286.200000 0 0 1
4.819322 -30.027624 0.397346 30.414503 -1.411657 1.557732 0.040947 -0.023024 -769394.000000 0 0 1
5.340322 -29.487324 -0.785954 29.977309 -1.391633 1.597018 0.046421 -0.035898 24604.400000 0 0 1
5.176022 -28.063724 -0.708754 28.545860 -1.388408 1.595627 0.065229 -0.029452 -827709.000000 0 0 1
4.762922 -27.477824 -2.094054 27.966074 -1.399165 1.645745 0.057996 -0.022877 519072.000000 0 0 1
3.461422 -27.967124 -2.456854 28.287411 -1.447655 1.657759 0.078721 -0.028161 1032030.000000 0 0 1
2.669722 -27.127424 -3.321154 27.460055 -1.472698 1.692038 0.071834 -0.023899 376713.000000 0 0 1
2.990622 -27.295724 -4.847654 27.883689 -1.461668 1.745537 0.062019 -0.023524 -160405.000000 0 0 1
2.585322 -28.453924 -5.573254 29.109635 -1.480185 1.763443 0.064143 -0.031040 -270520.000000 0 0 1
2.983922 -28.358324 -6.946854 29.348886 -1.465960 1.809763 0.078759 -0.044357 -180241.000000 0 0 1
2.176522 -28.985524 -8.133854 30.183728 -1.495847 1.843647 0.071409 -0.044980 948831.000000 0 0 1
0.891222 -28.309224 -8.364454 29.532534 -1.539325 1.857955 0.078855 -0.038682 1092580.000000 0 0 1
0.628522 -28.185824 -9.756854 29.833403 -1.548501 1.903971 0.075460 -0.032277 225999.000000 0 0 1
-0.683378 -27.394724 -10.016954 29.176657 1.545856 1.921247 0.069470 -0.029764 -367636.000000 0 0 1
-0.750778 -26.049624 -9.570254 27.762139 1.541983 1.922740 0.073495 -0.020141 -648311.000000 0 0 1
-2.028578 -25.478224 -9.585354 27.297144 1.491344 1.929594 0.097417 -0.027327 432310.000000 0 0 1
-2.968178 -26.042024 -8.419654 27.529760 1.457310 1.881615 0.106750 -0.026268 -45725.400000 0 0 1
-2.541778 -25.781124 -7.106854 26.863253 1.472523 1.838541 0.115810 -0.031042 51700.700000 0 0 1
-1.472578 -26.624524 -6.661754 27.484773 1.515544 1.815614 0.104512 -0.032819 354553.000000 0 0 1
-1.076678 -26.356024 -5.203954 26.886435 1.529968 1.765579 0.127832 -0.031055 254419.000000 0 0 1
-2.061278 -26.734724 -4.219654 27.144057 1.493847 1.726883 0.145621 -0.037133 286740.000000 0 0 1
-1.731278 -26.454024 -2.886354 26.667279 1.505445 1.679245 0.146050 -0.032750 64691.500000 0 0 1
-2.874078 -26.869824 -1.918954 27.091145 1.464238 1.641689 0.137119 -0.033208 666175.000000 0 0 1
-4.037878 -26.067424 -2.040154 26.457084 1.417116 1.647985 0.130473 -0.026072 39640.900000 0 0 1
-4.991378 -26.269024 -1.008354 26.758032 1.383025 1.608489 0.138207 -0.033894 667825.000000 0 0 1
-6.139578 -25.186524 -1.155254 25.949760 1.331695 1.615330 0.128358 -0.024569 282653.000000 0 0 1
-5.765078 -23.846124 -0.834654 24.547310 1.333586 1.604805 0.110140 -0.027577 318152.000000 0 1 0
-6.708578 -23.164624 0.000846 24.116485 1.288904 1.570761 0.118113 -0.029425 215904.000000 0 1 0
-6.189078 -21.746124 0.168246 22.610327 1.293522 1.563355 0.090877 -0.037879 109154.000000 0 1 0
-5.154078 -21.730824 1.117146 22.361602 1.337921 1.520817 0.081968 -0.038165 -534696.000000 0 1 0
-4.479678 -20.547524 1.213946 21.065183 1.356140 1.513136 0.051442 -0.023152 -677572.000000 0 1 0
-3.502978 -20.450524 2.371646 20.883474 1.401152 1.456985 0.041894 -0.007881 -651397.000000 0 1 0
-4.060378 -20.164524 3.660846 20.892499 1.372091 1.394664 0.036836 -0.006354 218716.000000 0 1 0
-3.117078 -19.662924 4.607446 20.434660 1.413579 1.343369 0.051445 -0.022163 464793.000000 0 1 0
-2.178178 -20.760224 5.262546 21.527326 1.466258 1.323835 0.053469 -0.023828 505789.000000 0 1 0
-1.301878 -21.296024 4.277646 21.760372 1.509740 1.372928 0.057747 -0.021989 -492615.000000 0 1 0
-0.810678 -22.541424 4.671146 23.034596 1.534848 1.366592 0.062451 -0.022457 -336513.000000 0 1 0
0.247722 -22.926524 3.600446 23.208836 -1.559992 1.415035 0.066780 -0.025803 407063.000000 0 1 0
1.504322 -22.298524 3.635946 22.643040 -1.503436 1.409521 0.059744 -0.025935 85150.100000 0 1 0
2.429522 -22.888424 4.562946 23.464932 -1.465046 1.375091 0.075753 -0.021236 335541.000000 0 1 0
3.710022 -22.024324 4.760946 22.836412 -1.403912 1.360775 0.084670 -0.022846 583205.000000 0 1 0
4.633322 -21.939224 3.700146 22.726379 -1.362666 1.407255 0.066462 -0.012412 76151.000000 0 1 0
5.780122 -21.140924 3.968946 22.273325 -1.303910 1.391647 0.069272 -0.013042 665717.000000 0 1 0
6.344722 -20.687824 2.600646 21.794608 -1.273214 1.451186 0.060340 -0.007076 51649.200000 0 1 0
6.829322 -21.727824 1.812046 22.847790 -1.266261 1.491403 0.067660 -0.005762 -343182.000000 0 1 0
6.969522 -21.338024 0.489346 22.452728 -1.255096 1.549000 0.046577 -0.016810 -109245.000000 0 1 0
7.992722 -22.170924 -0.318354 23.569786 -1.224794 1.584304 0.056916 -0.011091 -174279.000000 0 1 0
9.276322 -21.612824 -0.361754 23.522228 -1.165370 1.586176 0.047026 -0.010347 -1164250.000000 0 1 0
10.120622 -22.484224 -1.016954 24.677956 -1.147842 1.612017 0.053197 -0.015569 153214.000000 0 1 0
11.499122 -21.921124 -1.474154 24.797956 -1.087688 1.630278 0.061346 -0.015949 547169.000000 0 1 0
11.445322 -20.888424 -2.410354 23.940164 -1.069546 1.671650 0.050856 -0.010449 -366059.000000 0 1 0
12.731822 -20.765724 -2.960454 24.537296 -1.020788 1.691742 0.054589 -0.014018 -194865.000000 0 1 0
12.839022 -19.692024 -4.099254 23.862527 -0.993023 1.743439 0.041338 -0.010371 -110096.000000 0 1 0
12.869622 -18.348324 -3.586054 22.696871 -0.959127 1.729459 0.057569 -0.010864 186261.000000 0 1 0
13.011522 -17.336124 -4.557554 22.149768 -0.926947 1.778037 0.063117 -0.014142 -777543.000000 0 1 0
13.457022 -16.041824 -3.755454 21.272870 -0.872799 1.748264 0.066819 -0.011701 -130400.000000 0 1 0
14.788322 -16.049524 -3.333454 22.076993 -0.826273 1.722368 0.060664 -0.004437 191772.000000 0 1 0
15.733622 -15.803824 -4.391454 22.728673 -0.787624 1.765231 0.062137 -0.013133 -417240.000000 0 1 0
17.178022 -15.523524 -3.970654 23.491069 -0.734847 1.740640 0.070338 -0.006997 -435278.000000 0 1 0
17.829222 -16.555824 -3.321154 24.556192 -0.748382 1.706459 0.080082 -0.008685 -424627.000000 0 1 0
19.117422 -16.117524 -3.008754 25.185373 -0.700463 1.690547 0.064748 0.003679 -772470.000000 0 0 1
19.879222 -17.008124 -2.035154 26.241220 -0.707721 1.648430 0.057896 -0.008675 137144.000000 0 0 1
21.252622 -16.983524 -2.412754 27.311818 -0.674208 1.659253 0.063627 -0.009886 806584.000000 0 0 1
22.081022 -17.547524 -1.363954 28.237343 -0.671494 1.619118 0.064833 -0.010740 408710.000000 0 0 1
23.596122 -17.564624 -1.653754 29.462313 -0.639898 1.626957 0.089543 -0.015606 87260.800000 0 0 1
24.184622 -16.268824 -1.445154 29.183198 -0.592163 1.620337 0.098356 -0.014973 475722.000000 0 0 1
25.534822 -16.407524 -1.017854 30.368899 -0.571124 1.604319 0.146042 -0.010540 323786.000000 0 0 1
26.193422 -15.099324 -0.671554 30.241295 -0.522927 1.593005 0.131681 -0.015122 -475120.000000 0 0 1
25.501022 -14.575424 0.402046 29.375275 -0.519247 1.557109 0.121886 -0.017973 138913.000000 0 0 1
25.954722 -13.267524 0.820746 29.160734 -0.472551 1.542647 0.075464 -0.008864 207752.000000 0 0 1
25.296122 -12.750324 2.171046 28.410878 -0.466876 1.494306 0.107753 -0.022294 -177113.000000 0 0 1
25.209622 -13.596324 3.300346 28.831881 -0.494615 1.456076 0.128541 -0.015397 -168360.000000 0 0 1
26.378222 -14.090424 3.906746 30.159796 -0.490608 1.440896 0.153954 -0.002162 -330303.000000 0 0 1
26.212822 -14.661324 5.308946 30.500023 -0.509970 1.395841 0.143087 0.000271 157325.000000 0 0 1
25.321222 -15.770424 5.343946 30.305582 -0.557026 1.393534 0.149043 -0.011670 163814.000000 0 0 1
24.943722 -15.882524 6.713546 30.323515 -0.566993 1.347549 0.124361 -0.007019 157742.000000 0 0 1
24.227422 -17.212224 7.025646 30.538310 -0.617701 1.338657 0.109556 -0.006737 -74283.000000 0 0 1
25.126722 -18.256324 6.812846 31.797176 -0.628337 1.354863 0.108365 -0.013709 36922.100000 0 0 1
24.454522 -19.478624 7.059546 32.051172 -0.672618 1.348717 0.079955 -0.002813 291711.000000 0 0 1
1.948222 23.336826 -3.131054 23.626395 1.487507 1.703711 0.046057 -0.021038 -25817.400000 0 1 0
2.898222 24.263526 -2.688754 24.583486 1.451912 1.680388 0.053830 -0.025812 38109.000000 0 1 0
3.875522 24.565226 -3.685854 25.140715 1.414321 1.717936 0.075713 -0.025906 113494.000000 0 0 1
4.955922 25.557826 -3.294354 26.241502 1.379263 1.696668 0.056629 -0.023119 -130800.000000 0 0 1
6.099122 25.012726 -2.657654 25.882405 1.331623 1.673660 0.046753 -0.027145 -80956.300000 0 0 1
6.711822 26.008326 -1.845654 26.923745 1.318242 1.639401 0.036110 -0.022719 -238657.000000 0 0 1
7.956522 25.443226 -1.165154 26.683733 1.267714 1.614476 0.029191 -0.033143 -519398.000000 0 0 1
9.068322 25.218126 -1.980254 26.872100 1.225599 1.644555 0.036554 -0.034504 -428535.000000 0 0 1
9.992922 24.307626 -1.433554 26.320605 1.180756 1.625288 0.029826 -0.026499 -355219.000000 0 0 1
11.106622 24.032626 -2.415854 26.584968 1.137886 1.661795 0.045029 -0.023475 -1376720.000000 0 0 1
12.179022 24.914226 -2.525154 27.846430 1.116118 1.661602 0.045603 -0.018772 208657.000000 0 0 1
13.031822 24.592126 -3.662754 28.071637 1.083501 1.701648 0.072165 -0.031107 810866.000000 0 0 1
14.010422 23.406926 -3.570154 27.512218 1.031437 1.700929 0.078995 -0.025938 -540019.000000 0 0 1
13.390522 22.129626 -3.824054 26.146698 1.026639 1.717577 0.093227 -0.029278 188736.000000 0 0 1
13.063622 21.854826 -5.199854 25.987115 1.032036 1.772250 0.123411 -0.042680 -435250.000000 0 0 1
12.089822 20.701826 -5.248554 24.541327 1.042226 1.786327 0.127095 -0.042491 -952570.000000 0 1 0
10.792122 21.038926 -4.887954 24.145360 1.096835 1.774644 0.098688 -0.036855 37136.300000 0 1 0
9.843122 19.920626 -4.914754 22.756828 1.111866 1.788480 0.078784 -0.033817 2084840.000000 0 1 0
8.336222 20.367326 -4.702354 22.504060 1.182304 1.781303 0.065765 -0.026160 1059470.000000 0 1 0
7.995522 21.017926 -3.483054 22.755511 1.207287 1.724465 0.067387 -0.023200 121389.000000 0 1 0
6.588822 21.198126 -3.500754 22.472837 1.269442 1.727210 0.059878 -0.022703 332165.000000 0 1 0
6.100122 21.952026 -2.236454 22.893332 1.299751 1.668643 0.040962 -0.022117 33909.500000 0 1 0
6.081422 21.137926 -1.077054 22.021709 1.290660 1.619725 0.040191 -0.027577 -114040.000000 0 1 0
5.390422 21.867626 -0.109354 22.522471 1.329112 1.575652 0.051308 -0.021885 67414.400000 0 1 0
4.856722 21.075526 1.081646 21.654919 1.344307 1.520826 0.021787 -0.022888 331053.000000 0 1 0
3.913422 21.836226 1.863246 22.262240 1.393462 1.487003 0.025760 -0.020443 558408.000000 0 1 0
3.514622 21.053226 2.982846 21.551990 1.405382 1.431948 0.032897 -0.016347 297293.000000 0 1 0
2.458222 21.798526 3.866046 22.274759 1.458501 1.396351 0.022911 -0.010627 -743198.000000 0 1 0
1.168522 21.831426 3.394146 22.124575 1.517323 1.416777 0.023884 -0.013853 -1431480.000000 0 1 0
0.289822 22.330626 4.332546 22.748886 1.557818 1.379175 0.033832 -0.018221 280477.000000 0 1 0
-1.169978 22.338226 3.786346 22.687036 -1.518469 1.403117 0.034720 -0.020681 116502.000000 0 1 0
-2.148778 22.916426 4.578646 23.467932 -1.477304 1.374435 0.057970 -0.027339 72977.000000 0 1 0
-3.441578 22.637426 4.028146 23.249161 -1.419921 1.396658 0.079338 -0.032630 572970.000000 0 1 0
-4.658978 22.842626 4.923746 23.827189 -1.369596 1.362653 0.091321 -0.047141 -168317.000000 0 1 0
-5.011678 24.165626 5.236946 25.229348 -1.366306 1.361702 0.122562 -0.030867 -56490.800000 0 0 1
-6.305878 24.169926 5.808246 25.645373 -1.315588 1.342331 0.125949 -0.032420 255160.000000 0 0 1
-6.728378 25.650126 6.108046 27.212281 -1.314262 1.344408 0.129472 -0.043247 -441387.000000 0 0 1
-6.143378 26.101426 7.275846 27.784231 -1.339638 1.305837 0.096022 -0.056960 -164141.000000 0 0 1
-6.678278 27.313126 7.899546 29.206319 -1.330993 1.296911 0.131794 -0.046815 135703.000000 0 0 1
-6.864478 28.647326 7.119246 30.306336 -1.335610 1.333671 0.141018 -0.057833 866703.000000 0 0 1
-8.000278 28.392126 6.246646 30.151913 -1.296140 1.362113 0.118950 -0.061765 359912.000000 0 0 1
-8.375578 29.601826 5.625146 31.273962 -1.295062 1.389945 0.154854 -0.055806 -420279.000000 0 0 1
-9.873778 29.907926 5.658846 31.999970 -1.251923 1.393022 0.168533 -0.056010 -240466.000000 0 0 1
-10.246278 30.417126 6.948046 32.839962 -1.245876 1.357612 0.131489 -0.052846 -319408.000000 0 0 1
-11.086778 29.470526 7.569546 32.384048 -1.210975 1.334871 0.113652 -0.041153 -447323.000000 0 0 1
-11.896778 29.952526 8.750446 33.395470 -1.192717 1.305676 0.089801 -0.036454 -391198.000000 0 0 1
-11.164378 30.313126 9.890246 33.783811 -1.217911 1.273694 0.108293 -0.036363 -657069.000000 0 0 1
-12.006478 30.568426 10.954446 34.620573 -1.196535 1.248849 0.095994 -0.025194 -331994.000000 0 0 1
-11.267278 31.214726 12.129346 35.333153 -1.224391 1.220384 0.096399 -0.036851 -139097.000000 0 0 1
-10.826778 32.478926 11.791546 36.209672 -1.249033 1.239101 0.107557 -0.038441 245924.000000 0 0 1
-9.720078 32.941126 12.555646 36.568319 -1.283865 1.220317 0.103863 -0.044202 288287.000000 0 0 1
-9.552778 -33.201924 12.504646 36.742203 1.290646 1.223524 0.114762 -0.044122 -559816.000000 0 0 1
-10.539678 -32.476024 13.135946 36.583193 1.256983 1.203525 0.110330 -0.034956 -639523.000000 0 0 1
-10.222078 -31.096324 13.153946 35.277451 1.253201 1.188695 0.110531 -0.031361 563851.000000 0 0 1
-11.343978 -30.163524 13.750146 35.036988 1.211077 1.167506 0.098345 -0.024936 460465.000000 0 0 1
-11.698578 -30.376924 15.124946 35.893986 1.203188 1.135832 0.084591 -0.028027 304785.000000 0 0 1
-10.674578 -30.026724 16.055546 35.683768 1.229228 1.104098 0.096582 -0.027004 274758.000000 0 0 1
-11.024078 -30.418924 17.519846 36.793834 1.223110 1.074511 0.097857 -0.041201 40668.800000 0 0 1
-11.973478 -29.566324 18.123046 36.687552 1.186013 1.054131 0.097763 -0.045029 237661.000000 0 0 1
-12.413078 -30.091524 19.383446 37.885384 1.179552 1.033711 0.101791 -0.050503 41628.200000 0 0 1
-12.611578 -28.995824 20.453846 37.658592 1.160533 0.996625 0.113008 -0.059076 -124902.000000 0 0 1
-11.399178 -28.511224 20.983646 37.190651 1.190451 0.971310 0.085278 -0.056556 88824.700000 0 0 1
-11.554678 -27.585024 22.046846 37.155182 1.174125 0.935555 0.090906 -0.052419 76155.900000 0 0 1
-10.218978 -27.494124 22.815446 37.160449 1.214941 0.909714 0.110611 -0.052007 125068.000000 0 0 1
-9.907178 -28.683324 23.510046 38.387596 1.238227 0.911655 0.079371 -0.025633 145198.000000 0 0 1
-8.691778 -28.674724 24.242546 38.542027 1.276483 0.890543 0.107943 -0.029556 227141.000000 0 0 1
-8.560478 -29.686724 25.400646 39.997202 1.290052 0.882709 0.098434 -0.023187 -146404.000000 0 0 1
-8.653478 -31.014524 24.907046 40.708038 1.298702 0.912404 0.107615 -0.005901 307618.000000 0 0 1
-8.650678 -31.943524 25.969746 42.067216 1.306328 0.905440 0.122058 -0.005661 -463252.000000 0 0 1
-8.747578 -33.361924 25.430046 42.851200 1.314366 0.935458 0.130043 -0.004212 -606505.000000 0 0 1
-7.574278 33.630926 25.103046 42.644716 -1.349275 0.941402 0.129112 -0.009756 -221941.000000 0 0 1
-7.716578 32.331326 24.636446 41.374082 -1.336508 0.932963 0.107967 -0.013046 189990.000000 0 0 1
-8.473878 32.048826 23.262846 40.498072 -1.312306 0.958903 0.111532 -0.008664 325148.000000 0 0 1
-8.889778 30.718126 23.113746 39.457277 -1.289094 0.944940 0.104917 -0.007014 66213.500000 0 0 1
-9.651178 30.553426 21.930646 38.827958 -1.264836 0.970586 0.093114 -0.015840 401219.000000 0 0 1
-10.524778 29.243926 22.020046 38.090164 -1.225333 0.954394 0.087220 -0.016256 433366.000000 0 0 1
-9.673678 28.113926 21.890046 36.920821 -1.239398 0.936151 0.068498 -0.011799 234474.000000 0 0 1
-10.084778 27.025326 22.641946 36.670543 -1.213640 0.905309 0.049243 -0.007242 -229584.000000 0 0 1
-9.133678 25.847226 22.386446 35.392882 -1.231121 0.886003 0.065621 -0.026636 1409310.000000 0 0 1
-7.754078 25.962926 22.821646 35.426357 -1.280570 0.870820 0.051264 -0.035344 1194880.000000 0 0 1
-7.210378 24.637826 22.974446 34.450504 -1.286092 0.840779 0.042345 -0.034056 470011.000000 0 0 1
-5.753178 24.656926 23.508446 34.550110 -1.341568 0.822466 0.041347 -0.031927 342572.000000 0 0 1
-4.800378 25.205526 22.608746 34.198210 -1.382601 0.848500 0.053409 -0.029981 219681.000000 0 0 1
-3.491378 25.065026 23.165846 34.308915 -1.432394 0.829542 0.063837 -0.030738 311722.000000 0 0 1
-2.462778 25.582426 22.132946 33.917445 -1.474824 0.859847 0.071268 -0.017935 -383812.000000 0 0 1
-2.163578 24.610126 21.160946 32.528834 -1.483108 0.862516 0.045793 -0.013765 -69235.000000 0 0 1
-1.656478 25.218426 19.989546 32.222583 -1.505205 0.901597 0.046014 -0.006014 93587.300000 0 0 1
-1.190378 24.135826 18.970346 30.721802 -1.521516 0.905251 0.032568 -0.010571 264782.000000 0 0 1
-0.000578 23.404926 19.232346 30.293130 -1.570772 0.882950 0.043638 -0.005562 190275.000000 0 0 1
0.351222 22.361726 18.268146 28.877246 1.555091 0.885873 0.046649 -0.008139 -367445.000000 0 0 1
1.457322 21.426326 18.716346 28.487065 1.502885 0.853948 0.052947 -0.007347 -112311.000000 0 0 1
2.758522 21.965826 18.518146 28.862236 1.445868 0.874208 0.047987 -0.010747 84669.900000 0 0 1
3.687422 21.144226 19.251446 28.832162 1.398139 0.839672 0.055632 -0.009126 -286880.000000 0 0 1
5.110822 21.651626 19.135246 29.344012 1.338991 0.860445 0.052681 -0.009419 -1061620.000000 0 0 1
6.034622 20.687826 18.807746 28.603044 1.286972 0.853243 0.060709 -0.017489 -591647.000000 0 0 1
7.287622 21.278226 18.528546 29.140682 1.240826 0.881712 0.084660 -0.021178 14833.100000 0 0 1
8.409822 20.259026 18.243946 28.530594 1.177328 0.877011 0.081195 -0.019544 -110837.000000 0 0 1
8.961422 19.537526 19.375846 28.938649 1.140750 0.837195 0.089111 -0.024412 140845.000000 0 0 1
9.761522 18.460326 19.020346 28.246142 1.084388 0.832027 0.090161 -0.032371 -176512.000000 0 0 1
10.421822 17.651226 20.202546 28.780602 1.037443 0.792664 0.097974 -0.037102 -365190.000000 0 0 1
9.563722 16.882426 21.015246 28.602826 1.055381 0.745533 0.084693 -0.037814 -280770.000000 0 0 1
10.100322 16.421426 22.234846 29.429035 1.019370 0.714317 0.078168 -0.038309 -492863.000000 0 0 1
9.286322 15.225926 22.788346 28.937403 1.023128 0.664046 0.073853 -0.038537 -395161.000000 0 0 1
8.100622 15.690526 23.371646 29.292431 1.094214 0.647037 0.077014 -0.028093 164166.000000 0 0 1
7.087122 14.679326 23.612446 28.692465 1.121006 0.604213 0.079758 -0.023295 641692.000000 0 0 1
7.417222 13.565126 24.617146 29.069429 1.070424 0.560782 0.092806 -0.019703 -907981.000000 0 0 1
7.522122 14.043526 25.981546 30.476937 1.079053 0.550050 0.102348 -0.025646 98343.700000 0 0 1
8.043922 13.017426 26.789546 30.851869 1.017294 0.518975 0.119057 -0.028732 -795893.000000 0 0 1
8.991722 13.493226 27.891346 32.262136 0.982987 0.526597 0.098200 -0.028508 -960986.000000 0 0 1
10.247222 13.815926 27.403146 32.354564 0.932631 0.560548 0.133457 -0.031987 -692007.000000 0 0 1
10.400822 15.116926 26.790946 32.472347 0.968153 0.600525 0.102823 -0.033000 -1179210.000000 0 0 1
11.730322 15.251026 26.064046 32.396431 0.915152 0.635905 0.125659 -0.041023 -367632.000000 0 0 1
11.791722 14.397426 24.958946 31.133255 0.884567 0.640694 0.114676 -0.048451 -706417.000000 0 0 1
13.101722 14.108526 24.617746 31.252825 0.822382 0.663735 0.147910 -0.061628 -1413170.000000 0 0 1
13.253422 13.124626 23.453946 29.966591 0.780516 0.671853 0.113493 -0.049259 -120694.000000 0 0 1
12.744022 11.829626 23.778846 29.458168 0.748205 0.631391 0.114672 -0.036933 -382969.000000 0 0 1
11.368522 11.742626 23.588546 28.697597 0.801584 0.605936 0.117056 -0.025146 -1078340.000000 0 0 1
10.734622 10.470826 24.179146 28.451738 0.772959 0.555133 0.126935 -0.022081 -121982.000000 0 0 1
11.081722 9.311826 23.444246 27.552629 0.698828 0.553120 0.120094 -0.017065 153481.000000 0 0 1
10.787822 8.162726 24.189946 27.715712 0.647751 0.509911 0.126290 -0.025445 -39682.300000 0 0 1
11.108022 6.773426 23.469646 26.834525 0.547578 0.506173 0.121976 -0.014478 -34676.700000 0 0 1
12.486422 6.534026 23.300046 27.230431 0.482106 0.543968 0.137843 -0.016452 9916.900000 0 0 1
12.792422 5.445726 22.480846 26.432753 0.402463 0.553876 0.150054 -0.028929 2804.390000 0 0 1
12.545822 3.958126 23.044946 26.535522 0.305610 0.518716 0.142133 -0.028487 -499718.000000 0 0 1
13.440322 3.605826 24.028446 27.767075 0.262112 0.524933 0.140383 -0.024728 -416240.000000 0 0 1
13.277022 2.209326 24.325846 27.801209 0.164891 0.505376 0.118998 -0.022870 281183.000000 0 0 1
14.523822 1.546226 25.038846 28.987515 0.106062 0.528072 0.082368 -0.016915 630582.000000 0 0 1
15.509022 1.316226 24.045346 28.643339 0.084666 0.574481 0.107977 -0.022657 -248042.000000 0 0 1
16.800022 1.198026 24.568846 29.787652 0.071190 0.600948 0.111345 -0.028783 251034.000000 0 0 1
17.906422 0.530726 23.648946 29.668068 0.029630 0.648289 0.106057 -0.029972 643936.000000 0 0 1
17.707322 -0.886574 23.521146 29.454704 -0.050026 0.645909 0.097245 -0.028039 303903.000000 0 0 1
18.730022 -1.517874 22.771946 29.524214 -0.080863 0.689919 0.126082 -0.025607 -72553.700000 0 0 1
18.993022 -3.011874 23.033146 30.005534 -0.157268 0.695661 0.121726 -0.021230 -2501.580000 0 0 1
17.904822 -3.888374 22.786646 29.239243 -0.213848 0.677221 0.115865 -0.017974 151586.000000 0 0 1
18.219322 -5.256174 23.090546 29.878828 -0.280868 0.687545 0.132008 -0.015575 35352.400000 0 0 1
17.212422 -6.312074 22.595246 29.097335 -0.351488 0.681641 0.125871 -0.016422 -111676.000000 0 0 1
17.214022 -6.240774 21.119046 27.951457 -0.347802 0.714285 0.127258 -0.018097 188834.000000 0 0 1
16.582222 -7.246074 20.310546 27.202830 -0.411973 0.727809 0.155144 -0.029841 111346.000000 0 0 1
17.135122 -8.692674 20.552046 28.134704 -0.469472 0.751761 0.165575 -0.038759 243289.000000 0 0 1
17.013622 -9.232974 21.797046 29.151713 -0.497207 0.726189 0.147081 -0.028519 604857.000000 0 0 1
18.018522 -10.255774 21.965046 30.204491 -0.517449 0.756546 0.137705 -0.033822 636532.000000 0 0 1
17.689522 -11.055274 23.201246 31.199937 -0.558572 0.732311 0.142648 -0.034825 -141296.000000 0 0 1
16.571422 -11.877374 23.034746 30.761722 -0.621872 0.724529 0.154463 -0.044179 -385830.000000 0 0 1
16.150322 -12.557074 24.162046 31.659398 -0.660878 0.702565 0.161859 -0.036077 -288413.000000 0 0 1
14.968122 -13.461174 23.826346 31.192029 -0.732441 0.701523 0.157538 -0.038666 -252679.000000 0 0 1
15.307422 -14.361874 22.807646 30.996279 -0.753539 0.743921 0.187288 -0.050772 313257.000000 0 0 1
14.135622 -14.980974 22.316946 30.369252 -0.814423 0.745346 0.180286 -0.050112 -97052.300000 0 0 1
14.411222 -15.837174 21.083346 30.050073 -0.832505 0.793146 0.180069 -0.056540 -201893.000000 0 0 1
15.099422 -17.027774 21.354546 31.208240 -0.845349 0.817208 0.195299 -0.055712 125186.000000 0 0 1
15.344522 -17.735674 20.186346 30.943449 -0.857556 0.860099 0.169517 -0.045532 -163069.000000 0 0 1
-24.741578 -31.357324 25.611942 47.448910 0.902786 1.000621 0.057293 -0.027115 -768424.000000 0 0 1
-25.176748 -32.701124 25.440892 48.481658 0.914677 1.018371 0.061192 -0.016774 195994.000000 0 0 1
-26.388578 -33.038124 26.076532 49.677563 0.896830 1.018180 0.053348 -0.023533 -72596.300000 0 0 1
-26.308398 -33.021124 27.649642 50.468100 0.898062 0.990988 0.047038 -0.019555 -363625.000000 0 0 1
-27.568228 -33.133724 28.289912 51.557444 0.876828 0.989980 0.079224 -0.023659 609285.000000 0 0 1
-27.390118 -33.050024 29.663602 52.177121 0.878771 0.966094 0.058232 -0.026290 -339072.000000 0 0 1
-28.606918 -32.432724 30.343692 52.829698 0.847994 0.958964 0.058605 -0.029480 -503243.000000 0 0 1
-28.834358 -31.090524 30.027482 51.958547 0.823030 0.954628 0.048106 -0.025529 -259449.000000 0 0 1
-29.951278 -30.699424 30.745552 52.771419 0.797733 0.948851 0.058008 -0.014291 -819347.000000 0 0 1
-30.211978 -29.218324 30.535612 51.950916 0.768680 0.942487 0.050531 -0.021663 -254889.000000 0 0 1
-30.793968 -28.982124 29.271952 51.430333 0.755097 0.965316 0.049882 -0.016180 333848.000000 0 0 1
-31.263498 -27.647624 29.223132 50.948885 0.724097 0.959930 0.044244 -0.011833 -239972.000000 0 0 1
-31.765468 -27.312524 27.801992 50.278919 0.710166 0.984889 0.035568 -0.020395 276281.000000 0 0 1
-30.757208 -27.116724 26.783302 48.976197 0.722577 0.992183 0.037517 -0.022527 954891.000000 0 0 1
-30.023038 -25.871124 26.958672 47.931909 0.711253 0.973466 0.027687 -0.015681 -238201.000000 0 0 1
-28.992048 -25.759224 25.821922 46.592361 0.726421 0.983384 0.029385 -0.005627 -347739.000000 0 0 1
-29.532848 -25.806424 24.487372 46.236263 0.718162 1.012651 0.023159 -0.005818 430192.000000 0 0 1
-28.520548 -25.584224 23.510812 44.952558 0.731180 1.020413 0.027068 0.006144 4490.950000 0 0 1
-28.950708 -26.008124 22.091952 44.750646 0.731908 1.054494 0.035819 0.006878 -20782.600000 0 0 1
-29.866908 -25.095124 21.516752 44.550736 0.698796 1.066751 0.033108 0.001392 295453.000000 0 0 1
-30.464888 -25.629824 20.348852 44.710995 0.699416 1.098290 0.032191 0.006188 76022.100000 0 0 1
-31.189018 -24.574224 19.426252 44.204373 0.667327 1.115794 0.041264 0.006108 274157.000000 0 0 1
-32.525898 -24.297024 19.793752 45.167157 0.641582 1.117164 0.062150 -0.002274 133871.000000 0 0 1
-32.967488 -23.051524 19.184552 44.567646 0.610202 1.125795 0.063405 0.007941 340284.000000 0 0 1
-34.476406 -22.797924 19.416052 45.665643 0.584251 1.131637 0.076749 0.008971 786955.000000 0 0 1
-35.440856 -23.719724 18.840452 46.622336 0.589807 1.154793 0.055248 -0.003504 1016610.000000 0 0 1
-36.763508 -23.301624 19.164152 47.558237 0.564920 1.156046 0.057414 -0.007839 1215970.000000 0 0 1
37.586004 -23.794224 18.182152 48.056877 -0.564375 1.182787 0.071076 -0.011993 779136.000000 0 0 1
37.343394 -25.157724 18.269952 48.592503 -0.592846 1.185339 0.061837 -0.008275 -438788.000000 0 0 1
36.467374 -25.595024 17.267552 47.782246 -0.611974 1.201049 0.075701 -0.007262 171648.000000 0 0 1
35.967224 -27.065124 17.549552 48.313031 -0.645095 1.199046 0.080965 0.005869 33723.200000 0 0 1
35.021664 -27.232724 18.593752 48.102659 -0.660930 1.173916 0.085642 -0.007695 57529.900000 0 0 1
35.521564 -27.086824 19.915752 48.909250 -0.651482 1.151412 0.094602 -0.004841 54954.900000 0 0 1
34.366144 -27.228924 20.941952 48.590241 -0.670039 1.125206 0.089716 -0.010361 542138.000000 0 0 1
33.404744 -26.174224 20.866252 47.290247 -0.664628 1.113819 0.087916 -0.007573 -72840.400000 0 0 1
32.720754 -25.915924 22.076152 47.219057 -0.669864 1.084306 0.099042 -0.005501 119905.000000 0 0 1
31.627904 -24.813024 21.866152 45.761765 -0.665236 1.072618 0.110242 0.002787 84659.500000 0 0 1
31.971684 -23.579124 21.236052 45.045905 -0.635453 1.079883 0.091898 0.006069 216607.000000 0 0 1
33.023664 -22.850524 21.896552 45.740221 -0.605299 1.071605 0.103567 -0.010352 585506.000000 0 0 1
33.486634 -21.586824 21.163752 45.113746 -0.572598 1.082502 0.099184 -0.006304 424234.000000 0 0 1
32.390994 -20.653524 21.066852 43.812747 -0.567631 1.069186 0.092640 -0.016286 610356.000000 0 0 1
32.791794 -19.376824 20.706552 43.353482 -0.533705 1.072851 0.092984 -0.006652 70772.900000 0 0 1
31.672194 -18.270624 20.867252 42.099713 -0.523236 1.052199 0.067260 -0.004227 495771.000000 0 0 1
31.393324 -17.895424 22.192652 42.406377 -0.518098 1.020039 0.090011 -0.024692 -330450.000000 0 0 1
30.364354 -18.620824 22.776232 42.278669 -0.550102 1.001883 0.091038 -0.020994 -794505.000000 0 0 1
30.063454 -18.205224 24.251272 42.700886 -0.544498 0.966803 0.078054 -0.020899 -87586.300000 0 0 1
29.538554 -16.897124 24.412922 41.881138 -0.519604 0.948491 0.071338 -0.022891 130117.000000 0 0 1
29.434354 -16.464424 25.740342 42.426686 -0.510002 0.918892 0.076909 -0.023748 -94616.200000 0 0 1
29.483954 -14.985624 25.803222 41.948525 -0.470237 0.908263 0.029504 -0.014469 871763.000000 0 0 1
28.323954 -14.311324 25.234452 40.544272 -0.467857 0.899001 0.045057 -0.022148 926508.000000 0 0 1
28.143154 -13.074624 25.849212 40.387680 -0.434909 0.876263 0.030975 -0.015487 -329755.000000 0 0 1
29.020054 -11.936524 25.337492 40.331534 -0.390227 0.891520 0.044232 -0.014746 -461723.000000 0 0 1
28.655254 -11.595924 24.013542 39.143828 -0.384526 0.910350 0.036805 -0.008531 488824.000000 0 0 1
29.643554 -10.885124 23.263162 39.222455 -0.351915 0.935882 0.041638 -0.004128 152907.000000 0 0 1
30.718974 -11.673924 22.512192 39.833838 -0.363167 0.970178 0.053959 -0.006595 -484518.000000 0 0 1
30.262754 -12.449124 21.425052 39.113269 -0.390268 0.991101 0.045465 -0.006083 -38690.700000 0 0 1
30.270054 -13.833424 21.754752 39.760647 -0.428660 0.991849 0.060964 -0.010465 -186372.000000 0 0 1
29.712754 -14.833224 20.704952 39.135244 -0.463024 1.013302 0.062289 -0.010021 -112360.000000 0 0 1
30.425854 -14.869924 19.498852 39.077519 -0.454588 1.048376 0.070369 -0.009056 -155565.000000 0 0 1
29.925054 -15.948324 18.761852 38.753903 -0.489653 1.065430 0.079129 -0.017174 -174074.000000 0 0 1
30.414254 -15.977524 17.305752 38.468132 -0.483706 1.104174 0.103536 -0.019017 -211298.000000 0 0 1
29.907054 -16.938624 16.402552 38.084020 -0.515329 1.125535 0.094011 -0.026718 601366.000000 0 0 1
28.521554 -16.787724 16.057752 36.785298 -0.531993 1.119062 0.109793 -0.035501 469733.000000 0 0 1
28.070954 -15.659424 15.073152 35.502056 -0.508851 1.132308 0.116290 -0.028702 -432791.000000 0 0 1
27.888754 -15.862624 13.718852 34.894303 -0.517149 1.166736 0.140367 -0.041139 243786.000000 0 0 1
26.819854 -16.728724 13.373752 34.322180 -0.557696 1.170541 0.152514 -0.057635 -386330.000000 0 0 1
26.946254 -17.462324 11.997852 34.278008 -0.574998 1.213208 0.145053 -0.041753 -335167.000000 0 0 1
26.713454 -16.609024 10.897452 33.289980 -0.556257 1.237299 0.156698 -0.038923 14315.000000 0 0 1
26.936254 -17.211924 9.598552 33.375804 -0.568594 1.279087 0.132104 -0.038393 -375325.000000 0 0 1
28.393854 -17.451624 9.201052 34.574984 -0.551105 1.301432 0.145279 -0.024497 -235982.000000 0 0 1
29.092654 -18.466424 9.895852 35.851349 -0.565576 1.291141 0.147212 -0.020601 498225.000000 0 0 1
30.458254 -18.604324 9.474152 36.926761 -0.548333 1.311329 0.134920 -0.007251 893647.000000 0 0 1
31.268634 -19.539024 10.422752 38.316246 -0.558510 1.295306 0.120870 -0.024857 95957.900000 0 0 1
31.209664 -18.906724 11.701452 38.320117 -0.544671 1.260479 0.125080 -0.041000 206930.000000 0 0 1
31.651564 -19.830124 12.689652 39.447213 -0.559687 1.243286 0.090593 -0.031447 -67607.700000 0 0 1
31.433214 -19.320424 14.073152 39.488978 -0.551122 1.206404 0.107788 -0.022197 37285.100000 0 0 1
31.509164 -20.338824 15.068852 40.417391 -0.573198 1.188738 0.111468 -0.019612 167893.000000 0 0 1
31.177964 -19.827324 16.373052 40.413674 -0.566428 1.153668 0.113908 -0.029306 82729.400000 0 0 1
30.755244 -20.922424 17.397652 41.064719 -0.597374 1.133310 0.106163 -0.019836 1097110.000000 0 0 1
29.458254 -21.505224 17.118852 40.290427 -0.630593 1.131960 0.057431 -0.009628 940617.000000 0 0 1
29.115654 -22.518424 18.088452 41.012106 -0.658318 1.114026 0.077579 -0.015740 256528.000000 0 0 1
27.768054 -23.239724 17.810152 40.352833 -0.696853 1.113682 0.083334 -0.005518 -79829.800000 0 0 1
26.692854 -22.464324 18.254852 39.375042 -0.699589 1.088726 0.094781 0.004293 -913142.000000 0 0 1
25.492954 -22.993224 17.779252 38.661103 -0.733888 1.092943 0.093349 -0.004869 -599419.000000 0 0 1
24.250654 -22.480724 18.505052 37.893458 -0.747542 1.060605 0.072532 0.003514 -505694.000000 0 0 1
23.764454 -21.220324 18.164052 36.674027 -0.728903 1.052635 0.070305 -0.009154 137217.000000 0 0 1
22.571854 -20.742924 18.754952 35.937525 -0.743199 1.021747 0.062245 -0.007646 340947.000000 0 0 1
22.742054 -20.275624 20.243452 36.580040 -0.728126 0.984354 0.049438 -0.005634 -141310.000000 0 0 1
23.165654 -21.405824 21.002652 37.894172 -0.745935 0.983341 0.064384 -0.003215 -204021.000000 0 0 1
23.826354 -21.085324 22.197652 38.794611 -0.724442 0.961630 0.037935 0.001262 98864.200000 0 0 1
24.046254 -22.223124 23.262082 40.164836 -0.746016 0.953092 0.058436 0.000907 -350825.000000 0 0 1
22.896654 -22.571524 23.969252 40.103061 -0.778248 0.930178 0.063072 0.002146 -417699.000000 0 0 1
23.169854 -23.270924 25.154122 41.365540 -0.787574 0.917139 0.065398 0.003423 95958.700000 0 0 1
21.887454 -23.717324 25.907142 41.385410 -0.825501 0.894387 0.085128 -0.011415 467211.000000 0 0 1
21.170154 -24.812524 25.288532 41.271620 -0.864445 0.911281 0.093682 -0.003103 -149521.000000 0 0 1
20.166354 -25.317224 26.086782 41.571191 -0.898165 0.892432 0.104057 -0.022159 -617891.000000 0 0 1
19.231254 -26.350824 25.437832 41.367746 -0.940339 0.908512 0.111499 -0.020130 -268179.000000 0 0 1
18.476954 -25.781324 24.400692 40.018349 -0.948963 0.915067 0.127758 -0.020962 -130404.000000 0 0 1
18.051954 -26.809324 23.583582 40.009977 -0.978184 0.940428 0.107178 -0.026877 -309122.000000 0 0 1
17.122954 -26.300024 22.443552 38.582378 -0.993675 0.949973 0.109080 -0.032050 611805.000000 0 0 1
15.790854 -26.072024 22.916422 38.134813 -1.026223 0.926130 0.095220 -0.032376 94223.100000 0 0 1
15.093754 -25.371024 21.970752 36.799786 -1.034120 0.930997 0.069381 -0.030807 -337636.000000 0 0 1
13.702154 -24.831924 22.336152 36.100930 -1.066575 0.903692 0.053813 -0.024457 101246.000000 0 0 1
12.658854 -25.766524 22.234152 36.311402 -1.114140 0.911806 0.059110 -0.029855 -991860.000000 0 0 1
11.406654 -25.195024 22.298452 35.526356 -1.145671 0.892253 0.063806 -0.021219 -192970.000000 0 0 1
10.212954 -26.206324 22.339452 35.918338 -1.199189 0.899564 0.063632 -0.026431 361076.000000 0 0 1
10.088554 -27.077924 21.230052 35.856771 -1.214153 0.937160 0.075269 -0.037815 -574466.000000 0 0 1
8.796454 -27.577424 21.149752 35.849741 -1.262025 0.939793 0.085391 -0.043740 -936590.000000 0 0 1
8.489654 -28.466924 19.877352 35.742819 -1.280965 0.981084 0.109683 -0.044966 29365.400000 0 0 1
9.050254 -29.783924 19.885552 36.938116 -1.275799 1.002321 0.112680 -0.046427 297680.000000 0 0 1
8.686954 -30.505524 18.698852 36.819794 -1.293373 1.038112 0.115099 -0.043210 -135903.000000 0 0 1
9.238154 -31.912424 18.754052 38.150502 -1.289014 1.056892 0.108806 -0.037344 -184589.000000 0 0 1
8.577954 -32.790124 19.640052 39.172761 -1.314929 1.045615 0.106230 -0.039723 591149.000000 0 0 1
9.519654 -33.746824 20.145752 40.439131 -1.295850 1.049304 0.098344 -0.043809 269441.000000 0 0 1
8.871254 32.824926 20.962552 39.945006 1.306842 1.018333 0.123432 -0.051679 765370.000000 0 0 1
7.930354 31.953326 20.219352 38.635835 1.327526 1.020040 0.117752 -0.052361 791763.000000 0 0 1
7.638454 30.799026 21.059952 38.084742 1.327692 0.984864 0.126853 -0.059030 528135.000000 0 0 1
6.489354 29.870926 20.521352 36.817249 1.356874 0.979564 0.105269 -0.045526 1133550.000000 0 0 1
5.127854 30.187926 20.824752 37.030745 1.402538 0.973555 0.137826 -0.047925 253154.000000 0 0 1
4.378954 29.026926 20.607652 35.866600 1.421067 0.958725 0.139149 -0.040602 166327.000000 0 0 1
2.907654 28.883126 21.056352 35.861670 1.470465 0.943257 0.121453 -0.031998 166563.000000 0 0 1
2.646154 29.023226 22.459252 36.793584 1.479874 0.914215 0.097011 -0.031438 233866.000000 0 0 1
1.271254 28.826926 22.737702 36.737050 1.526725 0.903415 0.082611 -0.024881 93994.800000 0 0 1
1.105854 28.217026 24.130462 37.144349 1.531625 0.863685 0.078366 -0.021952 -162026.000000 0 0 1
1.455354 29.149826 25.102452 38.496279 1.520911 0.860479 0.086510 -0.029532 156946.000000 0 0 1
1.277354 28.678226 26.420952 39.014600 1.526285 0.826837 0.095295 -0.030499 434099.000000 0 0 1
2.524254 27.951826 27.055792 38.983232 1.480733 0.803715 0.067453 -0.023159 315095.000000 0 0 1
2.843154 26.679126 26.539672 37.738753 1.464629 0.790842 0.072150 -0.023411 696171.000000 0 0 1
3.809954 26.032326 27.395542 37.983068 1.425473 0.765181 0.059321 -0.017340 442912.000000 0 0 1
4.296254 24.646726 26.870872 36.714611 1.398217 0.749712 0.056869 -0.009819 -206580.000000 0 0 1
3.274354 23.685426 26.779892 35.901023 1.433424 0.728856 0.067188 -0.007229 54208.700000 0 0 1
3.846854 22.401326 26.690682 35.057242 1.400731 0.705410 0.074909 -0.002350 442296.000000 0 0 1
2.713954 21.431126 26.251402 33.996983 1.444831 0.688549 0.080504 -0.000087 249481.000000 0 0 1
2.979154 20.031026 26.404602 33.276424 1.423152 0.654269 0.092973 0.004735 39446.900000 0 0 1
3.765954 19.599226 25.310152 32.232218 1.380962 0.667706 0.094672 -0.003124 -456417.000000 0 0 1
4.384454 18.245026 25.390242 31.571646 1.334959 0.636451 0.086073 -0.010346 -431451.000000 0 0 1
5.371054 18.132026 26.381552 32.459281 1.282812 0.621925 0.070371 -0.010721 70645.600000 0 0 1
6.608754 17.843326 25.730782 32.002079 1.216085 0.636746 0.079524 -0.011054 -301031.000000 0 0 1
7.840154 17.693126 26.649142 32.934655 1.153680 0.628089 0.067843 -0.019970 -41231.100000 0 0 1
8.404354 18.827526 27.318162 34.225588 1.150951 0.646529 0.061669 -0.014701 351247.000000 0 0 1
8.839854 19.909826 26.506732 34.309635 1.152948 0.687911 0.055538 -0.019338 -421404.000000 0 0 1
9.435654 21.074726 27.315272 35.767300 1.149837 0.701780 0.046968 -0.015019 169365.000000 0 0 1
10.663054 20.757826 27.948182 36.410012 1.096258 0.695714 0.074761 -0.031195 80779.700000 0 0 1
10.952054 21.733926 28.917162 37.795678 1.104022 0.699612 0.084598 -0.037792 174839.000000 0 0 1
12.175954 21.447726 29.822852 38.699630 1.054463 0.690977 0.104485 -0.038946 173232.000000 0 0 1
13.417254 21.421626 29.168742 38.596947 1.011233 0.714033 0.099783 -0.041388 -115268.000000 0 0 1
14.462954 21.129826 30.076392 39.499822 0.970562 0.705278 0.103452 -0.027653 346711.000000 0 0 1
15.880654 20.853226 29.558682 39.506555 0.919948 0.725456 0.096809 -0.033471 56228.100000 0 0 1
16.531754 21.921826 28.986042 39.925631 0.924662 0.758308 0.093932 -0.040114 -9447.030000 0 0 1
17.884354 21.673826 28.641412 40.124000 0.880902 0.775855 0.135121 -0.034481 358573.000000 0 0 1
-9.069678 16.817926 4.779946 19.696436 -1.076216 1.325668 0.048668 -0.019308 -14235.100000 0 1 0
-8.754078 18.127826 5.211546 20.794523 -1.120915 1.317475 0.065334 -0.023546 -176075.000000 0 1 0
-7.383578 18.428626 5.188546 20.519564 -1.189723 1.315163 0.067220 -0.018838 -279637.000000 0 1 0
-6.974878 19.851126 5.663646 21.789746 -1.232911 1.307854 0.073019 -0.021134 -47893.700000 0 1 0
-7.314178 20.882026 4.727946 22.625421 -1.233888 1.360279 0.091942 -0.028700 -336441.000000 0 1 0
-8.646278 21.201626 4.453446 23.325957 -1.183574 1.378695 0.096512 -0.027887 -392721.000000 0 1 0
-8.683278 22.378326 3.396346 24.243019 -1.200658 1.430238 0.135556 -0.038022 438300.000000 0 1 0
-8.049778 22.213026 2.079146 23.717932 -1.223127 1.483022 0.108015 -0.041168 209645.000000 0 1 0
-8.521178 21.126926 1.320446 22.818875 -1.187420 1.512898 0.119564 -0.044591 -810417.000000 0 1 0
-7.899478 21.018626 -0.062054 22.454136 -1.211296 1.573560 0.094298 -0.028692 194614.000000 0 1 0
-6.563378 20.651726 -0.323954 21.672025 -1.263079 1.585745 0.078517 -0.021353 -162609.000000 0 1 0
-5.633778 21.614226 0.126346 22.336745 -1.315818 1.565140 0.082937 -0.022969 -711860.000000 0 1 0
-4.199478 21.348726 -0.352454 21.760697 -1.376568 1.586994 0.060456 -0.015434 -110312.000000 0 1 0
-4.092978 21.479426 -1.728654 21.934139 -1.382500 1.649689 0.054307 -0.022233 793513.000000 0 1 0
-2.712878 21.341626 -2.120254 21.617590 -1.444358 1.669034 0.040847 -0.018043 855912.000000 0 1 0
-2.575378 21.475626 -3.669554 21.938567 -1.451445 1.738851 0.038808 -0.014424 785244.000000 0 1 0
-1.239178 21.769726 -4.080054 22.183403 -1.513936 1.755773 0.052950 -0.018561 729055.000000 0 1 0
-1.434478 22.247226 -5.388854 22.935487 -1.506407 1.807971 0.061803 -0.026091 -80179.000000 0 1 0
-0.214978 22.906926 -6.044254 23.691908 -1.561412 1.828767 0.069614 -0.024534 -110652.000000 0 1 0
0.847822 21.970326 -6.190354 22.841509 1.532226 1.845242 0.060848 -0.014407 -103110.000000 0 1 0
1.978422 22.599026 -6.769854 23.674059 1.483474 1.860805 0.067781 -0.013129 -252371.000000 0 1 0
3.147522 21.623826 -6.856654 22.902193 1.426253 1.874848 0.061063 -0.007445 -336650.000000 0 1 0
2.969422 20.709026 -7.933254 22.374489 1.428379 1.933247 0.063611 -0.016341 -355304.000000 0 1 0
3.832422 19.634626 -7.772554 21.462027 1.378033 1.941374 0.053458 -0.021022 -83573.500000 0 1 0
3.720922 18.558026 -8.883354 20.908361 1.372918 2.009616 0.048601 -0.023671 -42043.100000 0 1 0
4.244322 18.944626 -10.152754 21.908709 1.350397 2.052638 0.060630 -0.030397 291062.000000 0 1 0
3.182922 18.875526 -11.096554 22.125777 1.403741 2.096153 0.060225 -0.030979 325572.000000 0 1 0
3.676922 19.216626 -12.557554 23.248455 1.381741 2.141407 0.067561 -0.032377 327161.000000 0 1 0
3.895322 20.588326 -12.835754 24.572531 1.383806 2.120415 0.117541 -0.034851 -210775.000000 0 1 0
4.240022 20.852426 -14.199154 25.581584 1.370196 2.159224 0.135313 -0.038360 224989.000000 0 0 1
4.482022 22.259426 -14.712354 27.055941 1.372099 2.145726 0.125611 -0.036467 -219489.000000 0 0 1
3.327722 23.056826 -14.752654 27.574114 1.427459 2.135326 0.149595 -0.038927 -349416.000000 0 0 1
3.495322 24.299426 -15.472754 29.018710 1.427932 2.133174 0.133898 -0.030840 1048450.000000 0 0 1
2.175822 25.208326 -15.597254 29.723194 1.484696 2.123218 0.130331 -0.031326 1189900.000000 0 0 1
1.564022 25.525026 -14.343354 29.320725 1.509599 2.081955 0.130201 -0.040797 80162.600000 0 0 1
1.369422 26.892026 -14.129654 30.408938 1.519917 2.054041 0.095887 -0.028443 -562491.000000 0 0 1
0.496722 27.180326 -12.886554 30.084550 1.552523 2.013456 0.095411 -0.037212 -636653.000000 0 0 1
-0.889478 27.203126 -12.955654 30.143825 -1.538110 2.015062 0.070363 -0.037674 -406529.000000 0 0 1
-1.594478 25.973526 -13.203554 29.180477 -1.509485 2.040340 0.071274 -0.037770 -63205.900000 0 0 1
-1.525078 24.884726 -12.084354 27.705723 -1.509587 2.022132 0.100306 -0.042409 -543783.000000 0 0 1
-2.337178 25.276126 -11.032654 27.677869 -1.478593 1.980796 0.087101 -0.033734 -316787.000000 0 0 1
-2.604078 24.114826 -10.305154 26.353411 -1.463227 1.972554 0.114307 -0.029189 -75434.700000 0 0 1
-3.503978 24.142926 -9.060554 26.024073 -1.426668 1.926404 0.075166 -0.024391 -187764.000000 0 0 1
-3.005778 24.680726 -7.827754 26.066198 -1.449607 1.875806 0.093739 -0.027992 -221317.000000 0 0 1
-2.737578 26.067626 -7.811054 27.350101 -1.466162 1.860424 0.094230 -0.031532 -344768.000000 0 0 1
-2.364678 26.537426 -6.436054 27.408931 -1.481924 1.807826 0.089493 -0.029162 -13593.800000 0 0 1
-1.269678 25.824226 -5.919954 26.524490 -1.521670 1.795880 0.093250 -0.035291 -343286.000000 0 0 1
-0.885478 26.195526 -4.608554 26.612561 -1.537007 1.744846 0.089569 -0.037858 -28046.700000 0 0 1
-1.762978 25.537626 -3.479754 25.833837 -1.501871 1.705905 0.087822 -0.031036 636077.000000 0 0 1
-3.030878 26.202126 -3.337654 26.587169 -1.455635 1.696665 0.085426 -0.027668 246718.000000 0 0 1
-3.701478 25.728726 -2.204054 26.086896 -1.427911 1.655386 0.086939 -0.024471 278938.000000 0 0 1
-4.836178 24.702926 -2.583254 25.304078 -1.377468 1.673063 0.099536 -0.029569 157927.000000 0 0 1
-6.025978 25.240126 -3.132554 26.137890 -1.336437 1.690932 0.093496 -0.025755 97641.500000 0 0 1
-7.008578 24.208826 -3.275454 25.414878 -1.288996 1.700035 0.061692 -0.028020 638338.000000 0 0 1
-8.381378 24.780426 -3.713454 26.421710 -1.244649 1.711809 0.066676 -0.021755 -150836.000000 0 0 1
-9.227278 25.018026 -2.665254 26.798281 -1.217450 1.670417 0.099359 -0.026421 -319919.000000 0 0 1
-10.459378 25.680026 -2.965454 27.886489 -1.184016 1.677338 0.109755 -0.026810 697914.000000 0 0 1
-11.283578 25.939326 -1.682954 28.337256 -1.160487 1.630221 0.128782 -0.032809 89099.300000 0 0 1
-12.053178 24.818026 -1.222754 27.617180 -1.118685 1.615086 0.137380 -0.031344 253568.000000 0 0 1
-11.287478 23.684226 -0.800954 26.248643 -1.126058 1.601315 0.163588 -0.036634 -430175.000000 0 0 1
-12.117678 22.456526 -0.504154 25.522301 -1.075968 1.590551 0.160775 -0.035135 9708.470000 0 0 1
-12.880178 22.691226 0.702846 26.101431 -1.054520 1.543866 0.165302 -0.037682 63612.300000 0 0 1
-13.729978 21.595026 0.925746 25.606922 -1.004473 1.534636 0.149388 -0.034402 -299542.000000 0 0 1
-14.555778 21.592826 2.263346 26.138928 -0.977663 1.484099 0.160417 -0.045627 390045.000000 0 0 1
-13.801678 21.574526 3.499546 25.849435 -1.001681 1.434997 0.149902 -0.039712 42206.000000 0 0 1
-13.405478 22.820526 3.919146 26.755242 -1.039670 1.423786 0.154119 -0.042692 -55207.400000 0 0 1
-13.019978 22.817126 5.394346 26.818651 -1.052258 1.368273 0.152218 -0.044938 -1018820.000000 0 0 1
-11.877278 22.143126 5.729146 25.772289 -1.078465 1.346625 0.136845 -0.041089 -972917.000000 0 0 1
-11.830878 21.787926 7.106246 25.791125 -1.073342 1.291655 0.107280 -0.041573 -820462.000000 0 0 1
-10.492478 21.613526 7.793646 25.258217 -1.118849 1.257119 0.093285 -0.036098 -1292970.000000 0 0 1
-9.771878 22.795926 7.874946 26.022272 -1.165823 1.263353 0.098694 -0.037456 -53407.600000 0 0 1
-8.542778 22.636726 8.562546 25.665495 -1.209936 1.230654 0.081906 -0.037095 116720.000000 0 0 1
-8.650878 22.596926 10.123746 26.228782 -1.205175 1.174528 0.051907 -0.030071 -916072.000000 0 0 1
-9.346678 21.530026 10.620046 25.762139 -1.161224 1.145891 0.068253 -0.035347 -485097.000000 0 0 1
-8.864578 20.947226 11.854346 25.649416 -1.170463 1.090358 0.055295 -0.032488 385552.000000 0 0 1
-9.831478 19.894926 12.578946 25.508742 -1.111823 1.055120 0.059767 -0.027061 379140.000000 0 0 1
-9.971178 18.613026 11.906746 24.241281 -1.078991 1.057357 0.077936 -0.040875 -59146.300000 0 1 0
-10.530478 17.545826 12.663746 24.064859 -1.030252 1.016631 0.079084 -0.036108 4898.390000 0 1 0
-10.932178 16.347226 11.768946 22.918386 -0.981354 1.031520 0.077393 -0.042738 -151559.000000 0 1 0
-11.155278 15.105626 12.459446 22.535704 -0.934706 0.984985 0.069725 -0.038136 91251.300000 0 1 0
-11.695278 14.270626 11.454246 21.717045 -0.884257 1.015222 0.066507 -0.028808 -18919.700000 0 1 0
-11.891978 12.830326 11.917446 21.167473 -0.823335 0.972776 0.051025 -0.031990 -526215.000000 0 1 0
-12.965478 12.789626 12.786246 22.252331 -0.778570 0.958678 0.057141 -0.028245 -268338.000000 0 1 0
-13.380978 11.441426 13.044246 21.911393 -0.707419 0.933135 0.055622 -0.025565 -191860.000000 0 1 0
-14.285778 11.344126 14.270046 23.160459 -0.671124 0.906966 0.064524 -0.028101 73040.800000 0 1 0
-15.447978 12.144826 14.175146 24.229560 -0.666255 0.945873 0.083930 -0.028172 -63095.300000 0 1 0
-16.219878 12.143326 15.326646 25.405725 -0.642649 0.923195 0.070322 -0.022354 -147034.000000 0 0 1
-17.254278 13.286626 15.503046 26.731797 -0.656209 0.952132 0.072829 -0.014374 951892.000000 0 0 1
-18.491178 13.047326 14.803846 27.042748 -0.614473 0.991514 0.063372 -0.011303 760725.000000 0 0 1
-19.292778 14.202426 14.619946 28.065335 -0.634580 1.022862 0.079597 -0.017064 47912.600000 0 0 1
-20.431678 13.962426 13.607946 28.241441 -0.599478 1.068039 0.087745 -0.014471 -376154.000000 0 0 1
-21.461278 13.190026 14.173846 28.904345 -0.551083 1.058281 0.085346 -0.008855 140776.000000 0 0 1
-22.539878 13.092926 13.220146 29.227437 -0.526241 1.101432 0.070931 -0.007991 363241.000000 0 0 1
-23.579378 12.096926 13.780746 29.870247 -0.474017 1.091276 0.082177 -0.012806 333256.000000 0 0 1
-24.336278 12.597326 14.929446 31.206336 -0.477656 1.071952 0.098259 -0.013351 331247.000000 0 0 1
-25.303808 11.700326 15.366246 31.832402 -0.433113 1.067035 0.100609 -0.014573 -233454.000000 0 0 1
-26.175838 12.160726 16.564046 33.278001 -0.434911 1.049796 0.102339 -0.019414 -321541.000000 0 0 1
-27.229178 13.014126 16.232146 34.267742 -0.445851 1.077325 0.106212 -0.007444 -172679.000000 0 0 1
-27.645568 13.642226 17.447146 35.423024 -0.458409 1.055794 0.086820 0.005783 759149.000000 0 0 1
-29.026168 14.370926 17.295646 36.717588 -0.459722 1.080321 0.095155 0.003232 679134.000000 0 0 1
-28.724638 15.640726 16.825446 36.780875 -0.498615 1.095670 0.103827 -0.001351 72224.400000 0 0 1
-29.914748 16.344126 16.604646 37.917501 -0.500042 1.117518 0.105431 -0.004564 -233539.000000 0 0 1
-29.582558 17.826126 16.384746 38.227718 -0.542321 1.127844 0.114812 -0.007195 170572.000000 0 0 1
-29.053898 18.495326 17.546846 38.653562 -0.566888 1.099601 0.121066 -0.014782 813147.000000 0 0 1
-30.032968 18.698926 18.570946 39.956339 -0.556881 1.087409 0.122093 -0.025783 -202856.000000 0 0 1
-29.215158 19.065226 19.801046 40.113461 -0.578187 1.054542 0.113660 -0.023116 381102.000000 0 0 1
-28.741988 18.018026 20.662146 39.719962 -0.559956 1.023716 0.112111 -0.013922 233333.000000 0 0 1
-27.767348 17.182126 20.049146 38.317350 -0.554120 1.020149 0.119503 -0.008243 -51807.100000 0 0 1
-27.200998 16.104726 21.054146 37.980700 -0.534564 0.983229 0.111376 -0.003936 1108100.000000 0 0 1
-28.290508 15.176026 21.248746 38.499010 -0.492369 0.986120 0.090272 0.001125 1018440.000000 0 0 1
-27.820198 13.968426 21.758946 37.980680 -0.465323 0.960763 0.092786 0.002138 136027.000000 0 0 1
-28.992008 12.956126 21.984546 38.622765 -0.420261 0.965249 0.100280 -0.017540 205293.000000 0 0 1
-29.618888 12.807026 20.734246 38.356321 -0.408117 0.999683 0.111220 -0.021383 65145.900000 0 0 1
-30.583218 11.751026 20.771246 38.792583 -0.366839 1.005763 0.143963 -0.021646 489523.000000 0 0 1
-31.407978 11.603726 19.421246 38.707781 -0.353897 1.045187 0.143559 -0.022497 312019.000000 0 0 1
-30.671268 11.023826 18.354346 37.404992 -0.345041 1.057912 0.164463 -0.024915 433427.000000 0 0 1
-30.148278 9.681326 18.467446 36.656422 -0.310722 1.042806 0.179840 -0.024073 -326972.000000 0 0 1
-29.268938 9.394626 17.282846 35.265089 -0.310588 1.058611 0.190291 -0.032307 -360994.000000 0 0 1
-29.975158 8.942126 16.126946 35.193040 -0.289913 1.094779 0.199750 -0.028545 586843.000000 0 0 1
-30.712258 9.864326 15.292346 35.698789 -0.310778 1.128106 0.196141 -0.028643 214380.000000 0 0 1
-29.898378 10.977726 14.565846 35.022669 -0.351887 1.141867 0.181551 -0.011877 -255921.000000 0 0 1
-29.214988 10.529626 13.455246 33.844234 -0.345926 1.161936 0.190791 -0.023139 614422.000000 0 0 1
-28.287738 11.537826 12.952046 33.182421 -0.387276 1.169808 0.129773 -0.011646 450102.000000 0 0 1
-27.896488 11.241126 11.521746 32.207570 -0.383054 1.204956 0.162731 -0.002657 -35024.600000 0 0 1
-26.975458 10.194326 11.203346 30.937268 -0.361320 1.200243 0.163822 -0.006396 703485.000000 0 0 1
-27.561228 8.905926 11.140846 31.033131 -0.312542 1.203602 0.198469 -0.011684 -224808.000000 0 0 1
-26.622358 7.908126 10.432046 29.666749 -0.288747 1.211473 0.205698 -0.019417 -211049.000000 0 0 1
-26.527438 8.014226 9.056146 29.153843 -0.293392 1.254937 0.196989 -0.021184 195931.000000 0 0 1
-25.864998 6.888326 8.513446 28.087825 -0.260277 1.262851 0.234347 -0.044232 -233744.000000 0 0 1
-25.317058 7.160026 7.079546 27.245905 -0.275616 1.307941 0.216430 -0.031905 -544035.000000 0 0 1
-26.265368 7.647226 6.198746 28.049493 -0.283320 1.347964 0.233540 -0.039763 -116720.000000 0 0 1
-25.619718 7.982226 4.974046 27.291519 -0.302033 1.387516 0.225360 -0.039397 -29517.600000 0 0 1
-26.547598 8.632826 3.913546 28.188942 -0.314397 1.431514 0.220582 -0.046422 -349902.000000 0 0 1
-27.508798 7.825726 3.281446 28.787911 -0.277159 1.456561 0.268962 -0.046442 -23384.900000 0 0 1
-27.110368 6.731826 2.479646 28.043505 -0.243389 1.482259 0.271957 -0.046711 -338942.000000 0 0 1
-26.150448 6.844226 1.238846 27.059640 -0.255983 1.524998 0.273049 -0.046579 26441.600000 0 0 1
-24.982518 7.501126 1.658346 26.137008 -0.291691 1.507305 0.241552 -0.042585 -107638.000000 0 0 1
-24.012178 7.618526 0.616146 25.199331 -0.307231 1.546343 0.242472 -0.029521 344552.000000 0 0 1
-22.621678 8.021226 1.182946 24.030808 -0.340750 1.521550 0.180097 -0.033246 -25731.700000 0 1 0
-22.544578 9.238726 1.886946 24.437115 -0.388924 1.493503 0.158188 -0.043802 606996.000000 0 1 0
-21.225878 9.490926 2.334646 23.368058 -0.420472 1.470722 0.122104 -0.044381 -137695.000000 0 1 0
-21.379078 10.834526 3.112546 24.168986 -0.469058 1.441655 0.106120 -0.064579 -874705.000000 0 1 0
-21.478778 11.961126 2.292746 24.691357 -0.508111 1.477806 0.202685 -0.056044 403920.000000 0 1 0
-21.837278 13.185226 2.931446 25.677038 -0.543205 1.456381 0.188506 -0.061223 -311791.000000 0 0 1
-20.745178 13.962726 3.713346 25.280606 -0.592415 1.423378 0.156802 -0.038929 -42336.100000 0 0 1
-20.084678 13.198826 4.692946 24.487283 -0.581391 1.377955 0.139612 -0.048172 281102.000000 0 1 0
-19.120078 14.003526 5.379346 24.302541 -0.632141 1.347599 0.132596 -0.037154 213551.000000 0 1 0
-18.604278 13.402426 6.696446 23.886954 -0.624283 1.286649 0.102645 -0.034737 -298312.000000 0 1 0
-17.669878 12.398026 6.425346 22.521561 -0.611831 1.281479 0.095469 -0.030213 90156.200000 0 1 0
-17.150578 11.937426 7.681046 22.263040 -0.608061 1.218543 0.083470 -0.021853 -147524.000000 0 1 0
10.524922 -33.204324 -14.194354 37.613572 -1.263840 1.957754 0.060981 -0.006547 -259269.000000 0 0 1
11.684922 -32.992124 -13.416554 37.483618 -1.230409 1.936848 0.056821 -0.005189 150868.000000 0 0 1
12.551522 -32.199324 -14.211454 37.367133 -1.199108 1.960938 0.055854 -0.010331 413188.000000 0 0 1
13.948822 -31.814824 -13.660954 37.327930 -1.157599 1.945473 0.076350 -0.015879 106406.000000 0 0 1
15.062522 -32.514724 -14.112254 38.512888 -1.136977 1.945965 0.096062 -0.018117 219078.000000 0 0 1
16.279022 -31.929224 -13.597254 38.332326 -1.099302 1.933411 0.096373 -0.019010 801227.000000 0 0 1
17.522622 -32.703124 -14.083954 39.684939 -1.078914 1.933597 0.118245 -0.018914 -7545.920000 0 0 1
17.680122 -33.775424 -13.223654 40.351345 -1.088556 1.904678 0.119165 -0.019994 9717.840000 0 0 1
18.508822 32.915226 -13.836354 40.217326 1.058545 1.922012 0.117607 -0.007907 164801.000000 0 0 1
18.560122 31.575326 -12.992854 38.862496 1.039392 1.911689 0.104063 -0.018638 440335.000000 0 0 1
19.487622 31.703226 -11.880654 39.064202 1.019646 1.879823 0.093890 -0.021759 601706.000000 0 0 1
19.642922 30.415026 -11.295054 37.927516 0.997358 1.873190 0.073923 -0.027813 390736.000000 0 0 1
20.575622 30.346026 -10.013754 38.006747 0.974966 1.837417 0.070842 -0.027446 560711.000000 0 0 1
21.891122 29.938026 -10.341254 38.502574 0.939427 1.842721 0.073488 -0.027803 100949.000000 0 0 1
22.636122 29.847326 -9.116654 38.553473 0.921943 1.809525 0.059286 -0.023305 174081.000000 0 0 1
23.951622 29.050026 -9.275654 38.776565 0.881296 1.812346 0.040669 -0.008866 -411214.000000 0 0 1
24.909522 29.672226 -10.059254 40.026415 0.872436 1.824835 0.067618 -0.020164 -1638840.000000 0 0 1
26.033322 28.913926 -10.023654 40.177390 0.837775 1.822945 0.059789 -0.004253 -659898.000000 0 0 1
27.237522 29.408826 -10.903854 41.541012 0.823710 1.836392 0.053763 -0.010660 424210.000000 0 0 1
27.855222 30.586826 -10.436754 42.666066 0.832105 1.817919 0.056514 -0.024625 -502895.000000 0 0 1
28.927322 30.930026 -11.237954 43.814930 0.818844 1.830182 0.054105 -0.014647 -441116.000000 0 0 1
29.544622 32.340426 -11.045854 45.175201 0.830545 1.817812 0.041761 -0.014706 -123434.000000 0 0 1
28.772122 33.435326 -11.541754 45.595703 0.860220 1.826713 0.065280 -0.012384 -98852.700000 0 0 1
29.313922 -33.005624 -11.184954 45.538780 -0.844567 1.818949 0.068828 -0.007595 -727214.000000 0 0 1
28.395922 -31.845524 -11.414354 44.167333 -0.842599 1.832197 0.064009 -0.013485 -561244.000000 0 0 1
27.319422 -31.865124 -10.525954 43.272771 -0.862053 1.816508 0.082966 -0.015538 34625.300000 0 0 1
26.155222 -31.089924 -10.881654 42.060545 -0.871389 1.832487 0.094872 -0.011721 963023.000000 0 0 1
26.129722 -29.548424 -10.597154 40.843254 -0.846722 1.833258 0.069068 -0.022881 -576997.000000 0 0 1
26.904722 -28.964124 -11.592154 41.196633 -0.822243 1.856034 0.049593 -0.015180 -247262.000000 0 0 1
27.428722 -27.712924 -11.134754 40.550262 -0.790552 1.848961 0.042696 -0.016652 229463.000000 0 0 1
28.184022 -26.964024 -12.301954 40.899093 -0.763280 1.876315 0.056226 -0.026919 -134627.000000 0 0 1
29.393022 -27.498224 -12.744954 42.220089 -0.752105 1.877449 0.041831 -0.014148 -439137.000000 0 0 1
29.244122 -28.636124 -13.614254 43.134606 -0.774894 1.891909 0.058387 -0.020957 -331272.000000 0 0 1
30.590222 -29.144524 -14.179554 44.567081 -0.761201 1.894586 0.042302 -0.009304 93815.200000 0 0 1
31.247422 -29.918024 -13.209654 45.232560 -0.763667 1.867154 0.058545 -0.024716 -156371.000000 0 0 1
32.468222 -30.453824 -13.664354 46.565389 -0.753395 1.868624 0.068178 -0.019151 -307167.000000 0 0 1
32.992322 -31.536924 -12.773254 47.394377 -0.762848 1.843680 0.063606 -0.015500 25882.400000 0 0 1
34.096122 -32.251224 -13.328554 48.788701 -0.757599 1.847503 0.053121 -0.011207 547282.000000 0 0 1
34.963322 -32.850524 -12.337454 49.535882 -0.754252 1.822507 0.058710 -0.005909 284961.000000 0 0 1
34.576522 33.617726 -11.537954 49.586407 0.771339 1.805633 0.038119 -0.005044 -431543.000000 0 0 1
33.701322 -33.816024 -10.470454 48.876712 -0.787097 1.786691 0.039070 -0.009580 -171484.000000 0 0 1
33.219222 32.649926 -9.932154 47.625435 0.776756 1.780886 0.042729 -0.016209 -84415.600000 0 0 1
32.410622 32.681826 -8.588754 46.822184 0.789565 1.755274 0.022406 -0.016003 -148598.000000 0 0 1
31.386222 33.619226 -8.631054 46.795752 0.819736 1.756299 0.033775 -0.017115 -1035680.000000 0 0 1
30.734522 33.661626 -7.407854 46.179998 0.830822 1.731905 0.031602 -0.013339 255078.000000 0 0 1
29.640122 -32.953124 -7.240654 44.909601 -0.838278 1.732730 0.032938 -0.018186 224856.000000 0 0 1
30.212222 -31.650324 -7.350254 44.368318 -0.808641 1.737228 0.021746 -0.018076 753663.000000 0 0 1
29.245822 -30.641524 -7.752854 43.061907 -0.808699 1.751823 0.016279 -0.012818 1164230.000000 0 0 1
28.108722 -30.142524 -6.789954 41.770510 -0.820298 1.734075 0.032372 -0.012826 299919.000000 0 0 1
27.400422 -29.149824 -7.406954 40.686095 -0.816324 1.753868 0.037189 -0.025733 -360498.000000 0 0 1
26.371422 -28.628624 -6.565854 39.473541 -0.826415 1.737909 0.064756 -0.034518 656912.000000 0 0 1
25.444222 -27.577524 -7.306954 38.227214 -0.825611 1.763125 0.123040 -0.036602 477909.000000 0 0 1
24.465522 -28.275224 -8.065354 38.250490 -0.857507 1.783247 0.154418 -0.037587 606424.000000 0 0 1
23.521722 -27.452224 -8.758054 37.196768 -0.862354 1.808480 0.173677 -0.037325 361281.000000 0 0 1
22.414022 -28.179024 -9.552254 37.251729 -0.898857 1.830117 0.162781 -0.029326 -395373.000000 0 0 1
22.757922 -28.696824 -10.776154 38.177955 -0.900310 1.856947 0.173264 -0.029283 44995.000000 0 0 1
21.774222 -29.506124 -11.432654 38.411375 -0.935048 1.873013 0.149980 -0.026395 324050.000000 0 0 1
21.343922 -30.833924 -10.822454 39.031006 -0.965310 1.851757 0.151287 -0.030404 -150116.000000 0 0 1
22.378522 -31.764224 -10.899454 40.355449 -0.957043 1.844279 0.127607 -0.019572 -365867.000000 0 0 1
22.010922 -33.032224 -10.354154 41.022153 -0.983015 1.825960 0.095960 -0.026421 924438.000000 0 0 1
23.100722 33.489726 -10.526854 42.024038 0.966959 1.823989 0.083653 -0.019968 1423930.000000 0 0 1
24.151622 33.578726 -9.560554 42.452749 0.947265 1.797949 0.092479 -0.021855 -528907.000000 0 0 1
25.229122 32.756626 -9.787954 42.488930 0.914493 1.803249 0.096603 -0.023366 373042.000000 0 0 1
26.491622 33.159526 -8.893854 43.364281 0.896718 1.777358 0.085962 -0.022176 575868.000000 0 0 1
26.481322 32.922026 -7.511254 42.913158 0.893400 1.746736 0.066103 -0.028568 -4193.150000 0 0 1
26.684322 31.556826 -7.101654 41.932324 0.868865 1.740976 0.055176 -0.025935 -352716.000000 0 0 1
26.501822 31.474726 -5.563254 41.520534 0.870963 1.705189 0.043883 -0.021012 -712762.000000 0 0 1
27.521922 32.154526 -4.825054 42.598719 0.862871 1.684308 0.048406 -0.025041 663611.000000 0 0 1
28.726622 31.435226 -4.592654 42.830885 0.830390 1.678230 0.054850 -0.027802 222773.000000 0 0 1
28.495022 30.294426 -3.602154 41.745587 0.815996 1.657192 0.072513 -0.008059 -1013400.000000 0 0 1
28.178922 30.726726 -2.258454 41.752652 0.828624 1.624914 0.071966 -0.016628 65012.300000 0 0 1
27.928522 29.607126 -1.386854 40.724779 0.814565 1.604857 0.063726 -0.008599 -147909.000000 0 0 1
26.569022 28.913626 -1.605854 39.299993 0.827631 1.611669 0.051734 0.001328 339735.000000 0 0 1
25.417822 29.446426 -0.932954 38.910514 0.858695 1.594776 0.038802 0.003536 195160.000000 0 0 1
24.264822 28.747126 -1.316654 37.641897 0.869750 1.605782 0.038858 0.010551 -152454.000000 0 0 1
22.949522 29.226426 -0.689054 37.166374 0.905125 1.589337 0.062859 0.002075 -46472.000000 0 0 1
22.704522 28.904126 0.622946 36.760466 0.904953 1.553849 0.069365 -0.007140 -381792.000000 0 0 1
21.583922 29.605126 1.094046 36.654142 0.940832 1.540944 0.059082 -0.009588 -283448.000000 0 0 1
20.930222 28.846626 2.268146 35.711994 0.943115 1.507241 0.073533 -0.029391 112691.000000 0 0 1
20.016322 27.821326 1.840346 34.322969 0.947129 1.517152 0.087050 -0.020108 505185.000000 0 0 1
19.581622 27.023926 2.905246 33.498850 0.943748 1.483961 0.100794 -0.021354 68259.400000 0 0 1
19.041422 25.617726 2.456946 32.013751 0.931603 1.493974 0.101304 -0.013951 219225.000000 0 0 1
20.048122 24.801526 1.900546 31.947691 0.890989 1.511272 0.104438 -0.018164 46322.900000 0 0 1
20.806322 24.065426 2.840846 31.939289 0.857902 1.481733 0.098422 -0.011864 -363428.000000 0 0 1
21.940922 23.341226 2.111546 32.104136 0.816312 1.504977 0.083847 -0.009434 -481711.000000 0 0 1
21.416122 22.327326 1.285646 30.964700 0.806226 1.529265 0.093073 -0.008443 434256.000000 0 0 1
22.373222 21.318726 0.976546 30.919295 0.761268 1.539207 0.071318 -0.015824 113308.000000 0 0 1
21.932622 20.375126 -0.159854 29.936787 0.748601 1.576136 0.104484 -0.019588 -213588.000000 0 0 1
21.988822 20.974926 -1.406554 30.420950 0.761804 1.617049 0.060754 -0.004571 143037.000000 0 0 1
22.455222 20.139726 -2.382154 30.257565 0.731091 1.649607 0.090116 -0.008434 -78752.500000 0 0 1
22.336022 20.704526 -3.789254 30.690939 0.747510 1.694577 0.065163 -0.007115 -137489.000000 0 0 1
23.360322 21.643626 -4.002954 32.096337 0.747271 1.695839 0.065676 -0.002453 171196.000000 0 0 1
23.029222 22.457526 -5.066854 32.563147 0.772830 1.727032 0.043272 -0.001613 130117.000000 0 0 1
23.879822 23.785526 -5.177954 34.099976 0.783420 1.723232 0.038208 0.003698 111446.000000 0 0 1
23.478722 24.897326 -4.397854 34.503165 0.814714 1.698606 0.041610 0.001889 12314.800000 0 0 1
23.878022 24.786226 -3.047454 34.551468 0.804059 1.659112 0.038540 0.005501 -765221.000000 0 0 1
22.780922 24.460426 -2.085654 33.490787 0.820935 1.633112 0.045330 0.000905 -1082520.000000 0 0 1
21.715122 25.454526 -1.934954 33.514526 0.864508 1.628563 0.059805 -0.000066 1568140.000000 0 0 1
20.554222 24.927326 -1.311654 32.335245 0.881255 1.611372 0.062722 0.004477 77245.500000 0 0 1
19.799222 23.801626 -2.011254 31.025340 0.876938 1.635668 0.092737 -0.015803 -1423620.000000 0 0 1
19.130022 24.226326 -3.184154 31.032426 0.902406 1.673585 0.086041 -0.021068 364695.000000 0 0 1
18.191622 23.209926 -3.591354 29.707467 0.906020 1.691983 0.097583 -0.024824 578096.000000 0 0 1
17.619722 23.571026 -5.017854 29.853421 0.928887 1.739681 0.104958 -0.029529 -112074.000000 0 0 1
16.917122 22.556726 -5.701754 28.766385 0.927307 1.770327 0.112334 -0.039238 114298.000000 0 0 1
16.790122 22.815526 -7.069454 29.196466 0.936375 1.815361 0.102986 -0.037967 -168467.000000 0 0 1
16.018822 21.867726 -7.941654 28.246592 0.938568 1.855793 0.134207 -0.043194 -456519.000000 0 0 1
16.761822 20.724126 -8.255954 27.903564 0.890708 1.871167 0.128702 -0.041508 240337.000000 0 0 1
15.961822 19.751126 -8.875554 26.900970 0.891107 1.907030 0.174535 -0.054687 21996.800000 0 0 1
16.798122 18.475626 -9.231954 26.622446 0.832919 1.924925 0.159386 -0.050293 259574.000000 0 0 1
17.836822 18.709826 -10.183054 27.783168 0.809281 1.946061 0.131594 -0.039007 -233091.000000 0 0 1
18.587922 17.584626 -10.345154 27.599858 0.757669 1.955006 0.123617 -0.041717 -969556.000000 0 0 1
20.071222 17.934626 -10.436654 28.869162 0.729240 1.940689 0.090925 -0.034159 -745288.000000 0 0 1
20.357922 18.479126 -11.689954 29.876046 0.737059 1.972820 0.097117 -0.033279 -742894.000000 0 0 1
21.722122 18.519526 -11.940054 30.941692 0.705981 1.966967 0.088185 -0.014155 -838952.000000 0 0 1
22.034722 18.806426 -13.404554 31.920099 0.706517 2.004176 0.091673 -0.017845 -178527.000000 0 0 1
21.821422 17.731626 -14.256854 31.525274 0.682364 2.040067 0.086222 -0.016670 207770.000000 0 0 1
22.020722 18.201826 -15.618954 32.560258 0.690738 2.071102 0.089814 -0.022839 98532.900000 0 0 1
22.258622 17.142426 -16.700354 32.683495 0.656271 2.107112 0.078518 -0.015827 424943.000000 0 0 1
23.591022 16.630426 -16.773754 33.383622 0.614039 2.097232 0.093834 -0.013145 581393.000000 0 0 1
23.827622 15.760126 -17.932954 33.730224 0.584363 2.131354 0.101521 -0.019453 -93743.600000 0 0 1
24.625422 16.442626 -19.103054 35.237736 0.588724 2.143753 0.130825 -0.013433 732152.000000 0 0 1
26.009622 16.533626 -18.714854 36.056997 0.566238 2.116518 0.144689 -0.013457 923517.000000 0 0 1
26.797022 17.119326 -19.753054 37.434408 0.568498 2.126653 0.156458 -0.022023 -88101.300000 0 0 1
28.281222 17.312926 -19.444054 38.440034 0.549320 2.101138 0.131983 -0.019914 -295524.000000 0 0 1
28.524122 18.414626 -18.586754 38.706478 0.573262 2.071676 0.120308 -0.021746 44534.600000 0 0 1
29.838322 18.417426 -18.068454 39.446116 0.553000 2.046601 0.108139 -0.022591 72918.800000 0 0 1
29.843822 19.457826 -16.940554 39.449247 0.577772 2.014654 0.103919 -0.032654 97284.200000 0 0 1
29.068222 19.039326 -15.852854 38.193854 0.579873 1.998808 0.075205 -0.026266 227856.000000 0 0 1
27.816522 19.720126 -15.785254 37.574147 0.616698 2.004362 0.086359 -0.022615 332603.000000 0 0 1
26.776322 19.155526 -14.791554 36.092876 0.620981 1.993052 0.066427 -0.009871 7994.960000 0 0 1
27.088122 19.329626 -13.400954 35.874592 0.619784 1.953629 0.054184 -0.015689 1089580.000000 0 0 1
25.913722 19.121326 -12.577254 34.573594 0.635702 1.943121 0.055372 -0.013310 876706.000000 0 0 1
26.276322 19.432226 -11.062154 34.502576 0.636769 1.897178 0.054048 -0.013493 129872.000000 0 0 1
26.367122 20.837126 -10.922854 35.337228 0.668779 1.885046 0.049438 -0.015090 1970.330000 0 0 1
27.191122 21.318126 -9.894154 35.940422 0.664915 1.849691 0.037017 -0.008650 226459.000000 0 0 1
26.549622 21.208726 -8.461054 35.018309 0.674029 1.814829 0.045574 -0.009884 -84854.700000 0 0 1
26.477322 19.936026 -7.835754 34.057198 0.645385 1.802952 0.058566 -0.014783 425696.000000 0 0 1
25.569722 19.773826 -6.736654 33.018137 0.658266 1.776268 0.069942 -0.018638 86247.500000 0 0 1
24.128822 19.377326 -7.090254 31.748268 0.676615 1.796023 0.100719 -0.023241 -16207.300000 0 0 1
23.352722 20.495326 -7.549254 31.974979 0.720324 1.809146 0.075905 -0.019364 -145712.000000 0 0 1
22.142722 20.107626 -8.136354 30.997049 0.737268 1.836396 0.056189 -0.023890 -90641.000000 0 0 1
21.258722 21.335926 -8.525654 31.302425 0.787211 1.846645 0.096888 -0.028886 -306116.000000 0 0 1
21.886422 22.118026 -9.516254 32.538925 0.790661 1.867592 0.094231 -0.024177 3947.190000 0 0 1
21.349722 22.138026 -10.840654 32.610161 0.803523 1.909677 0.103148 -0.015215 785051.000000 0 0 1
19.808722 22.386826 -11.060454 31.873015 0.846421 1.925184 0.104787 -0.030557 667728.000000 0 0 1
19.382722 23.662226 -10.570054 32.362276 0.884492 1.903518 0.115887 -0.040596 169760.000000 0 0 1
18.049222 23.994726 -10.905654 31.944555 0.925878 1.919195 0.119191 -0.036563 69164.200000 0 0 1
17.547522 25.238926 -10.148654 32.371501 0.963261 1.889679 0.101348 -0.036799 -43020.500000 0 0 1
18.276322 26.411426 -10.403554 33.761240 0.965470 1.884045 0.148703 -0.026001 -132355.000000 0 0 1
17.743322 27.440826 -9.641054 34.070139 0.996813 1.857693 0.131697 -0.047821 99027.800000 0 0 1
21.152722 28.620926 32.066375 47.904567 0.934330 0.837422 0.059906 0.016774 707379.000000 0 0 1
19.761022 28.928626 32.136588 47.540758 0.971506 0.828503 0.084656 -0.017483 174160.000000 0 0 1
19.036922 27.770826 32.524829 46.813328 0.969868 0.802686 0.080170 -0.018315 93167.300000 0 0 1
17.562322 28.117226 32.832055 46.657876 1.012477 0.790237 0.135144 -0.037956 163844.000000 0 0 1
16.793522 28.440426 31.676539 45.763341 1.037406 0.806289 0.114058 -0.039656 325452.000000 0 0 1
15.550622 29.054226 32.020823 45.948918 1.079365 0.799760 0.162999 -0.048317 364030.000000 0 0 1
14.549122 29.193326 30.872022 44.911123 1.108452 0.812890 0.147683 -0.048069 -74515.400000 0 0 1
14.047322 27.959226 30.428082 43.645318 1.105213 0.799358 0.141041 -0.049586 8741.620000 0 0 1
12.638922 27.878726 30.495122 43.207849 1.145157 0.787276 0.137284 -0.035630 -92250.600000 0 0 1
11.983022 26.506726 30.578142 42.204527 1.146218 0.760455 0.092000 -0.031961 -202298.000000 0 0 1
12.060822 25.649126 29.444162 40.869301 1.131252 0.766350 0.089068 -0.031379 1147620.000000 0 0 1
13.369522 25.117126 29.100902 40.699836 1.081654 0.774154 0.066056 -0.026786 890307.000000 0 0 1
13.511022 24.400726 27.753672 39.347293 1.065106 0.787877 0.085935 -0.024773 -342567.000000 0 0 1
13.314622 25.187926 26.540782 38.937436 1.084523 0.820813 0.072434 -0.027147 239629.000000 0 0 1
13.368722 24.402026 25.378092 37.659384 1.069603 0.831342 0.088803 -0.029394 621703.000000 0 0 1
12.154822 23.407926 25.095662 36.406908 1.091859 0.810260 0.092598 -0.024141 380689.000000 0 0 1
12.091922 22.945126 23.785542 35.191553 1.085788 0.828628 0.112625 -0.033076 299761.000000 0 0 1
11.080222 22.020626 23.363552 33.963729 1.104612 0.812209 0.112341 -0.034259 82332.300000 0 0 1
11.194922 21.791026 21.847252 32.824953 1.096217 0.842541 0.117445 -0.036800 -301996.000000 0 0 1
10.716722 22.855026 21.078652 32.886318 1.132337 0.875054 0.126638 -0.038223 203423.000000 0 0 1
10.927322 22.560026 19.667552 31.861792 1.119734 0.905519 0.134383 -0.036472 -451958.000000 0 0 1
10.523922 23.818826 18.853952 32.149042 1.154756 0.944122 0.111570 -0.035981 271982.000000 0 0 1
9.146222 24.148326 18.768652 31.922678 1.208740 0.942285 0.115561 -0.034898 346633.000000 0 0 1
8.697122 24.932426 19.922352 33.078179 1.235166 0.924441 0.122811 -0.036151 -384832.000000 0 0 1
7.391622 25.714926 19.754952 33.258858 1.290897 0.934805 0.120363 -0.037076 -144882.000000 0 0 1
7.424922 26.698726 18.697452 33.429720 1.299550 0.977248 0.117693 -0.040044 141215.000000 0 0 1
6.184222 26.779126 18.001652 32.854614 1.343841 0.990922 0.110101 -0.044279 232504.000000 0 0 1
6.154722 27.775326 16.821252 33.050021 1.352730 1.036816 0.121700 -0.046099 132509.000000 0 0 1
6.844522 27.332326 15.676952 32.243920 1.325424 1.063062 0.112159 -0.039519 -390840.000000 0 0 1
8.054422 27.966526 15.375052 32.914929 1.290383 1.084771 0.105548 -0.039710 -209204.000000 0 0 1
8.685122 27.558226 14.025352 32.118494 1.265494 1.118897 0.094060 -0.035655 -361447.000000 0 0 1
7.935022 27.830126 12.889252 31.679857 1.293043 1.151783 0.103742 -0.038406 -377925.000000 0 0 1
7.129222 26.753526 12.446752 30.356196 1.310370 1.148317 0.086385 -0.035986 -101813.000000 0 0 1
6.307022 27.145926 11.195352 30.033577 1.342509 1.188813 0.087951 -0.046698 -391772.000000 0 0 1
7.004422 27.511926 10.000652 30.099519 1.321497 1.232105 0.069794 -0.038329 -147186.000000 0 0 1
7.475022 28.813026 9.989152 31.398242 1.316960 1.247026 0.074508 -0.037644 -497182.000000 0 0 1
7.581222 29.446526 8.592152 31.597435 1.318811 1.295403 0.053711 -0.022401 233299.000000 0 0 1
6.379422 29.577926 7.830552 31.254892 1.358369 1.317560 0.052389 -0.031308 -9033.280000 0 0 1
6.014222 28.336026 7.227052 29.855176 1.361653 1.326297 0.041734 -0.026985 -154228.000000 0 0 1
4.475522 28.203326 7.130952 29.433117 1.413421 1.326085 0.065434 -0.036973 57818.800000 0 0 1
3.931622 29.066926 6.148152 29.969044 1.436351 1.364179 0.078183 -0.023045 -754674.000000 0 0 1
2.548922 28.949926 5.986052 29.672008 1.482977 1.367661 0.077701 -0.021676 -223830.000000 0 0 1
1.992922 29.849226 4.856352 30.307296 1.504129 1.409866 0.095410 -0.031608 -81377.200000 0 0 1
2.552122 29.486926 3.604952 29.815899 1.484461 1.449593 0.070329 -0.025917 -88820.900000 0 0 1
2.084822 30.341926 2.584352 30.523071 1.502193 1.486026 0.049794 -0.031346 659882.000000 0 0 1
0.858222 29.643826 1.898352 29.716943 1.541853 1.506872 0.111560 -0.045226 386469.000000 0 0 1
1.269422 28.428326 1.253952 28.484269 1.526173 1.526759 0.101211 -0.044127 573564.000000 0 0 1
0.180622 27.630626 0.722352 27.640657 1.564259 1.544660 0.110677 -0.050202 610818.000000 0 0 1
-0.287978 28.025026 -0.675748 28.034651 -1.560521 1.594903 0.096857 -0.047293 202599.000000 0 0 1
-1.175578 29.149526 -0.705648 29.181754 -1.530489 1.594980 0.105094 -0.044984 19080.900000 0 0 1
-1.184778 29.752726 -1.974748 29.841716 -1.530997 1.637019 0.100524 -0.045272 402263.000000 0 0 1
-2.477878 30.614626 -2.231248 30.795676 -1.490035 1.643313 0.146177 -0.040099 1579450.000000 0 0 1
-3.732478 30.020526 -2.620348 30.364940 -1.447100 1.657199 0.112509 -0.044201 818113.000000 0 0 1
-3.653178 29.374126 -3.859248 29.850943 -1.447064 1.700443 0.077880 -0.036476 -841071.000000 0 0 1
-4.923778 28.839426 -4.528048 29.605055 -1.401696 1.724347 0.080000 -0.026848 32644.100000 0 0 1
-5.787778 29.783426 -5.133548 30.771808 -1.378860 1.738406 0.071401 -0.023983 343608.000000 0 0 1
-6.791078 29.268926 -6.005848 30.640806 -1.342807 1.768082 0.062836 -0.024117 465920.000000 0 0 1
-7.429078 30.444926 -6.818248 32.071377 -1.331457 1.785027 0.061877 -0.015722 -186158.000000 0 0 1
-8.170278 31.331626 -6.042248 32.938321 -1.315709 1.755282 0.062112 -0.011488 -201642.000000 0 0 1
-8.440478 32.436226 -6.867848 34.212830 -1.316224 1.772908 0.068213 -0.021349 81483.800000 0 0 1
-9.526078 33.369926 -6.252748 35.261806 -1.292724 1.749063 0.069649 -0.022597 709224.000000 0 0 1
-10.851378 32.871826 -6.367448 35.197354 -1.251948 1.752705 0.072114 -0.018354 196710.000000 0 0 1
-11.823178 33.751726 -5.823948 36.233754 -1.233856 1.732229 0.064053 -0.023629 204813.000000 0 0 1
-13.293678 33.385626 -6.060048 36.442367 -1.191855 1.737864 0.096521 -0.024130 52773.500000 0 0 1
-13.640578 33.485726 -7.453148 36.917592 -1.183966 1.774080 0.087212 -0.022374 -355107.000000 0 0 1
-15.022978 33.291326 -7.613648 37.309113 -1.146897 1.776309 0.124797 -0.025346 -983741.000000 0 0 1
-15.401578 33.339926 -9.086848 37.832923 -1.138044 1.813351 0.178662 -0.036095 413069.000000 0 0 1
-16.751578 32.989126 -9.384048 38.170121 -1.100935 1.819191 0.228389 -0.044956 1189790.000000 0 0 1
-17.700878 -33.619824 -9.083348 39.065597 1.086173 1.805459 0.209552 -0.049453 548648.000000 0 0 1
-19.206878 33.718726 -9.338848 39.913290 -1.053014 1.806964 0.206551 -0.048818 1104460.000000 0 0 1
-19.890878 32.819626 -8.363648 39.277544 -1.025928 1.785376 0.196384 -0.047880 670686.000000 0 0 1
-20.160178 33.462026 -7.109048 39.707411 -1.028556 1.750803 0.165367 -0.042346 -1081740.000000 0 0 1
-21.203878 32.837826 -6.239748 39.583604 -0.997439 1.729091 0.177591 -0.043753 -1119540.000000 0 0 1
-20.995978 33.165426 -4.840148 39.550014 -1.006416 1.693484 0.153772 -0.046512 983608.000000 0 0 1
-22.133578 32.943226 -3.970048 39.886247 -0.979200 1.670496 0.166947 -0.045385 1087210.000000 0 0 1
-23.340378 -33.773024 -4.109748 41.258701 0.966072 1.670571 0.188683 -0.056255 131026.000000 0 0 1
-24.053378 -33.808524 -5.359848 41.836697 0.952421 1.699263 0.197710 -0.058528 312172.000000 0 0 1
-24.962078 -32.690024 -5.286548 41.469152 0.918648 1.698626 0.202983 -0.071600 342977.000000 0 0 1
-25.567278 -32.477924 -6.728348 41.878060 0.903897 1.732161 0.227098 -0.052689 -486424.000000 0 0 1
-24.591378 -32.142424 -7.655348 41.188295 0.917717 1.757746 0.246996 -0.050945 -471699.000000 0 0 1
-24.939478 -32.326024 -9.009648 41.810563 0.913678 1.787987 0.212352 -0.043067 164609.000000 0 0 1
-26.135888 -31.525624 -9.607248 42.062440 0.878599 1.801235 0.172450 -0.028757 929880.000000 0 0 1
-27.445908 -32.040124 -9.216948 43.183325 0.862477 1.785889 0.168906 -0.020955 1767300.000000 0 0 1
-28.533068 -31.404024 -9.922248 43.575219 0.833261 1.800515 0.092023 -0.009935 709157.000000 0 0 1
-28.829718 -29.884624 -9.758448 42.655254 0.803363 1.801615 0.066701 0.005295 -798678.000000 0 0 1
-27.892088 -29.023724 -10.371048 41.568062 0.805278 1.822956 0.083243 0.007061 -60398.300000 0 0 1
-28.182028 -28.708924 -11.711548 41.899754 0.794659 1.854084 0.079215 0.003078 18274.000000 0 0 1
-27.041118 -27.889524 -12.385748 40.773206 0.800842 1.879445 0.113510 -0.006199 292179.000000 0 0 1
-25.884388 -28.706224 -12.518248 40.629489 0.837043 1.883999 0.126711 -0.018416 186808.000000 0 0 1
-24.883278 -28.025824 -13.284348 39.763026 0.844724 1.911434 0.134334 -0.023180 1091940.000000 0 0 1
-23.484278 -28.788024 -13.254748 39.445532 0.886516 1.913491 0.161387 -0.035736 816831.000000 0 0 1
-23.396978 -29.952924 -14.060748 40.525311 0.907671 1.925126 0.174163 -0.040307 120877.000000 0 0 1
-24.250278 -31.020024 -13.649148 41.672738 0.907275 1.904486 0.169421 -0.042491 156635.000000 0 0 1
-24.100878 -32.278024 -14.577048 42.839392 0.929433 1.918003 0.187758 -0.036939 53978.600000 0 0 1
-24.971978 -33.264024 -14.091948 43.916716 0.926834 1.897454 0.170968 -0.039079 -120908.000000 0 0 1
-24.857778 33.174726 -14.747148 43.999431 -0.927744 1.912579 0.174661 -0.026113 -65412.900000 0 0 1
-25.494548 31.981726 -13.990448 43.226559 -0.897790 1.900385 0.159105 -0.027232 36283.700000 0 0 1
-24.879178 31.544226 -12.768648 42.155071 -0.902979 1.878527 0.172021 -0.032870 224259.000000 0 0 1
-24.906478 32.377826 -11.617548 42.469091 -0.915092 1.847881 0.210649 -0.028007 109555.000000 0 0 1
-24.093478 31.880326 -10.387748 41.288693 -0.923627 1.825117 0.212433 -0.025591 231954.000000 0 0 1
-24.864678 31.005926 -9.596048 40.886474 -0.894878 1.807706 0.194693 -0.023366 482528.000000 0 0 1
-24.170178 30.674726 -8.382348 39.942459 -0.903446 1.782229 0.169277 -0.024538 301857.000000 0 0 1
-24.827878 29.477826 -7.636748 39.289765 -0.870815 1.766411 0.161550 -0.022837 -56164.600000 0 0 1
-24.506778 28.281426 -8.300148 38.331628 -0.856782 1.789060 0.154395 -0.011531 -192041.000000 0 0 1
-24.889278 27.098226 -7.652148 37.581184 -0.827863 1.775847 0.145617 -0.018173 -396293.000000 0 0 1
-23.863278 26.406926 -6.724348 36.221522 -0.835955 1.757525 0.135074 -0.019226 -19931.900000 0 0 1
-23.546478 27.075926 -5.475548 36.297714 -0.855007 1.722225 0.147750 -0.022668 -155364.000000 0 0 1
-22.641978 26.290126 -4.768948 35.022461 -0.859816 1.707389 0.117960 -0.019402 -119904.000000 0 0 1
-21.232978 26.905226 -4.550148 34.575054 -0.902690 1.702781 0.100766 -0.029119 461623.000000 0 0 1
-20.440078 26.849226 -5.746848 34.230162 -0.920108 1.739484 0.117958 -0.033551 833591.000000 0 0 1
-19.216578 27.601226 -5.639048 34.101370 -0.962611 1.736921 0.121962 -0.035134 1095520.000000 0 0 1
-18.193278 27.488426 -6.817748 33.661411 -0.986134 1.774746 0.140004 -0.039414 -79285.200000 0 0 1
-18.505378 27.983726 -8.072948 34.506672 -0.986525 1.806938 0.167041 -0.042343 -102438.000000 0 0 1
-18.551278 29.437726 -8.097848 35.725408 -1.008476 1.799453 0.182447 -0.046673 -175894.000000 0 0 1
-18.553078 30.068626 -9.496248 36.585758 -1.017953 1.833364 0.194466 -0.043446 -613811.000000 0 0 1
-17.438378 29.777026 -10.265648 36.002109 -1.041009 1.859949 0.188902 -0.048492 -532047.000000 0 0 1
-17.331278 30.526326 -11.446748 36.922321 -1.054429 1.886013 0.198822 -0.052301 480591.000000 0 0 1
-15.971378 30.305626 -12.199648 36.364093 -1.085775 1.912918 0.178182 -0.049628 669305.000000 0 0 1
-15.709678 31.192326 -13.288148 37.367500 -1.104242 1.934360 0.170105 -0.046417 -230377.000000 0 0 1
-16.176478 30.694826 -14.510848 37.608716 -1.085775 1.966912 0.181628 -0.053896 -22835.800000 0 0 1
-15.616578 31.481426 -15.721248 38.498251 -1.110308 1.991456 0.189894 -0.055592 775635.000000 0 0 1
-14.203578 31.389826 -15.907048 37.948610 -1.145874 2.003331 0.164505 -0.061191 335729.000000 0 0 1
-13.772678 31.816326 -17.172948 38.689474 -1.162270 2.030705 0.136829 -0.065521 701689.000000 0 0 1
-12.236578 32.089926 -17.348348 38.476777 -1.206495 2.038546 0.153360 -0.068922 835053.000000 0 0 1
-11.472678 30.879526 -17.445848 37.276334 -1.215071 2.057838 0.158009 -0.077523 359815.000000 0 0 1
-10.154278 31.139226 -17.929448 37.339334 -1.255576 2.071652 0.149465 -0.067389 572887.000000 0 0 1
-10.066078 30.958926 -19.507048 37.951363 -1.256435 2.110639 0.146044 -0.074165 -476285.000000 0 0 1
-10.060378 29.603226 -19.911848 37.068098 -1.243201 2.137874 0.143441 -0.078685 -6213.710000 0 0 1
-10.325678 29.471126 -21.326048 37.814907 -1.233796 2.169968 0.108612 -0.080279 -252143.000000 0 0 1
-11.775278 29.391426 -21.832048 38.459737 -1.189741 2.174457 0.114031 -0.066720 -317492.000000 0 0 1
-12.432878 30.629826 -21.733648 39.561523 -1.185208 2.152398 0.130882 -0.067843 63177.800000 0 0 1
-13.652978 30.516726 -20.990248 39.474864 -1.150112 2.131447 0.135278 -0.067419 -141838.000000 0 0 1
-14.494678 31.734626 -21.168348 40.807856 -1.142346 2.116164 0.159114 -0.078154 -793555.000000 0 0 1
-15.087878 31.737326 -22.443548 41.696700 -1.127023 2.139164 0.135890 -0.063889 -129051.000000 0 0 1
-15.758678 32.979926 -22.652548 43.001737 -1.125044 2.125607 0.133892 -0.064918 206458.000000 0 0 1
-16.422378 33.192826 -24.032048 44.147452 -1.111352 2.146421 0.122451 -0.045857 512354.000000 0 0 1
-15.431178 33.261926 -25.073548 44.420263 -1.136419 2.170578 0.124205 -0.042382 226954.000000 0 0 1
-15.925078 33.361226 -26.382948 45.416290 -1.125430 2.190647 0.135806 -0.031875 -128352.000000 0 0 1
-16.483578 -32.964024 -26.806448 45.573247 1.107111 2.199635 0.123486 -0.021547 210561.000000 0 0 1
-17.730178 -32.560524 -26.263348 45.434682 1.072163 2.187129 0.118291 -0.029838 323278.000000 0 0 1
-18.524678 -32.084024 -27.373448 46.063586 1.047175 2.207134 0.086394 -0.017335 -580650.000000 0 0 1
-19.961178 -31.770924 -27.015948 46.235286 1.009839 2.194831 0.084387 -0.032950 -955274.000000 0 0 1
-20.838878 -32.853524 -27.158148 47.446579 1.005540 2.180219 0.095212 -0.032967 -1240860.000000 0 0 1
-22.118178 -32.295524 -27.234048 47.685512 0.970298 2.178663 0.083779 -0.028659 81438.900000 0 0 1
-23.219778 -33.424724 -27.123248 48.908494 0.963644 2.158644 0.064915 -0.017496 81453.300000 0 0 1
-23.259378 33.554626 -25.866648 48.332133 -0.964663 2.135523 0.103481 -0.032026 -264272.000000 0 0 1
-24.370178 32.692726 -25.694148 48.196568 -0.930226 2.133070 0.071809 -0.024079 123611.000000 0 0 1
-24.594778 31.564726 -26.760348 48.138874 -0.908877 2.160240 0.081916 -0.023417 -273646.000000 0 0 1
-23.735278 30.417826 -26.737548 46.941496 -0.908178 2.176807 0.094054 -0.048638 -147307.000000 0 0 1
-24.053578 29.408126 -25.790148 45.918887 -0.885222 2.167170 0.068808 -0.042757 -409858.000000 0 0 1
33.101814 10.140026 -26.173114 43.400255 0.297253 2.218132 0.027950 -0.002181 27833.700000 0 0 1
32.817824 8.784026 -25.907154 42.724107 0.261530 2.222300 0.009970 0.001047 -639648.000000 0 0 1
31.475784 8.550726 -26.197324 41.834671 0.265259 2.247480 0.039801 -0.009078 -582733.000000 0 0 1
30.916454 7.208326 -25.746824 40.874027 0.229063 2.252229 0.036724 -0.013048 -146654.000000 0 0 1
30.842974 6.975826 -24.341054 39.905364 0.222430 2.226818 0.021575 0.000424 118865.000000 0 0 1
30.327154 5.674526 -24.133654 39.171032 0.184972 2.234590 0.040355 -0.008915 106994.000000 0 0 1
30.206854 5.368526 -22.634154 38.125845 0.175889 2.206408 0.063077 -0.016960 419146.000000 0 0 1
31.432984 4.930126 -22.063254 38.718546 0.155578 2.177104 0.059586 -0.014488 616799.000000 0 0 1
31.199674 4.785826 -20.663954 37.726950 0.152207 2.150438 0.067669 -0.014126 389854.000000 0 0 1
32.542554 4.472026 -19.932054 38.422697 0.136566 2.116193 0.057816 -0.011073 588696.000000 0 0 1
33.105594 3.138326 -20.047254 38.829394 0.094515 2.113310 0.075698 -0.010704 565993.000000 0 0 1
34.206034 2.982926 -19.158054 39.318973 0.086985 2.079731 0.092288 -0.019660 -33165.500000 0 0 1
34.678764 1.531126 -19.049454 39.595994 0.044123 2.072700 0.107524 -0.020658 -527637.000000 0 0 1
33.695134 0.655126 -18.615254 38.500895 0.019440 2.075447 0.101614 -0.020268 -548427.000000 0 0 1
34.207454 -0.649674 -18.375954 38.836165 -0.018990 2.063677 0.115006 -0.020016 -701.216000 0 0 1
33.167424 -1.722374 -17.926054 37.741065 -0.051883 2.065732 0.103560 -0.016952 157378.000000 0 0 1
33.012414 -1.896174 -16.525854 36.966455 -0.057375 2.034261 0.112161 -0.021889 402510.000000 0 0 1
31.691884 -1.457774 -16.217354 35.630088 -0.045966 2.043347 0.099880 -0.020834 204664.000000 0 0 1
31.215464 -2.035874 -14.845454 34.625677 -0.065128 2.013895 0.111797 -0.027487 -293242.000000 0 0 1
31.060004 -3.439574 -14.883154 34.613044 -0.110290 2.015275 0.100415 -0.031506 504423.000000 0 0 1
30.202354 -3.817274 -13.810054 33.428601 -0.125723 1.996675 0.083335 -0.023832 30088.500000 0 0 1
30.039954 -5.328174 -13.559254 33.386249 -0.175544 1.989015 0.087750 -0.020845 200694.000000 0 0 1
29.279854 -5.914774 -14.633954 33.263298 -0.199326 2.026331 0.070083 -0.024693 593764.000000 0 0 1
28.954754 -7.244474 -14.282954 33.088713 -0.245167 2.017125 0.074718 -0.031407 12097.900000 0 0 1
28.176354 -8.142274 -15.302754 33.081382 -0.281312 2.051698 0.070906 -0.026319 279170.000000 0 0 1
26.855354 -7.710374 -15.554054 31.977938 -0.279587 2.078761 0.051545 -0.019900 -118296.000000 0 0 1
26.260754 -8.436374 -16.592054 32.188443 -0.310840 2.112348 0.061621 -0.021464 124908.000000 0 0 1
24.863654 -7.877674 -16.953754 31.107697 -0.306829 2.147188 0.065851 -0.023361 -129119.000000 0 0 1
24.908754 -6.594274 -17.532554 31.166022 -0.258800 2.168267 0.051825 -0.014774 -179601.000000 0 0 1
23.667954 -6.179274 -18.053354 30.401958 -0.255381 2.206597 0.062117 -0.018659 -132354.000000 0 0 1
23.324854 -6.489774 -19.522354 31.101259 -0.271371 2.249395 0.050363 -0.015000 -276036.000000 0 0 1
24.211854 -5.867574 -20.412654 32.207433 -0.237759 2.257236 0.048105 -0.026200 102408.000000 0 0 1
23.958554 -6.305574 -21.723954 32.950004 -0.257351 2.290684 0.072974 -0.031889 151838.000000 0 0 1
25.027554 -5.677474 -22.665854 34.239642 -0.223074 2.294250 0.078534 -0.033498 109971.000000 0 0 1
24.990854 -6.107474 -24.035654 35.207339 -0.239690 2.322232 0.097937 -0.043427 55859.600000 0 0 1
25.180854 -5.098574 -25.022354 35.863478 -0.199777 2.342994 0.100068 -0.045155 -151670.000000 0 0 1
25.093454 -5.531774 -26.459834 36.883665 -0.216977 2.370840 0.126604 -0.048102 -178655.000000 0 0 1
23.848054 -6.070674 -26.839384 36.413394 -0.249262 2.399528 0.137313 -0.042573 -230509.000000 0 0 1
23.647754 -6.087974 -28.231224 37.326689 -0.251972 2.428478 0.126122 -0.044223 -205618.000000 0 0 1
22.221554 -6.580074 -28.487754 36.723929 -0.287886 2.458663 0.104606 -0.046571 -157871.000000 0 0 1
22.156254 -7.966774 -28.308174 36.820128 -0.345177 2.447795 0.095336 -0.037118 5853.470000 0 0 1
20.815254 -8.398574 -28.268964 36.096332 -0.383504 2.470517 0.100627 -0.047391 -85886.200000 0 0 1
20.728054 -9.931074 -28.029134 36.247908 -0.446799 2.454766 0.120657 -0.035644 -989964.000000 0 0 1
19.535654 -10.409374 -27.530964 35.326347 -0.489573 2.464396 0.139975 -0.036187 -632531.000000 0 0 1
19.521254 -11.803474 -27.109464 35.430557 -0.543830 2.442061 0.136154 -0.035251 -102997.000000 0 0 1
19.605554 -12.795874 -28.304984 36.732605 -0.578247 2.450529 0.115782 -0.023935 -535282.000000 0 0 1
18.388654 -12.883774 -28.958014 36.642882 -0.611153 2.482057 0.112479 -0.022808 -187036.000000 0 0 1
18.628354 -13.923574 -29.941474 37.912707 -0.641861 2.481194 0.081063 -0.022571 304563.000000 0 0 1
17.412654 -14.235474 -30.867894 38.192619 -0.685343 2.511913 0.076701 -0.026679 -258775.000000 0 0 1
16.399654 -14.957674 -30.274334 37.539525 -0.739445 2.508946 0.062278 -0.028502 109283.000000 0 0 1
15.452654 -15.490474 -31.201354 38.108579 -0.786620 2.530025 0.057872 -0.033474 147322.000000 0 0 1
14.211854 -16.193474 -30.606914 37.429782 -0.850480 2.528227 0.073184 -0.039297 255538.000000 0 0 1
14.528054 -17.424874 -30.015094 37.624413 -0.875810 2.494360 0.051269 -0.032424 753341.000000 0 0 1
13.427054 -17.720974 -29.145264 36.657402 -0.922390 2.489922 0.049269 -0.031587 553400.000000 0 0 1
13.652854 -19.094074 -28.421434 36.861389 -0.950054 2.451262 0.048634 -0.022832 -135075.000000 0 0 1
14.660154 -19.077174 -27.426944 36.484188 -0.915582 2.421506 0.043226 -0.017038 104338.000000 0 0 1
14.565454 -20.240274 -26.627444 36.480706 -0.947019 2.388979 0.041745 -0.011726 45617.300000 0 0 1
15.531654 -20.178674 -25.413544 35.975817 -0.914802 2.355204 0.031427 -0.005328 1603390.000000 0 0 1
16.922754 -20.376474 -25.824234 36.992855 -0.877730 2.343519 0.057308 -0.016911 1580860.000000 0 0 1
17.837454 -20.173074 -24.780554 36.595130 -0.846768 2.314685 0.074079 -0.021255 -62545.500000 0 0 1
19.330954 -20.454974 -25.105524 37.714441 -0.813642 2.299193 0.067294 -0.009319 314684.000000 0 0 1
19.757754 -21.832474 -25.149024 38.723367 -0.835242 2.277662 0.078718 -0.014443 408980.000000 0 0 1
19.546354 -22.564274 -23.934954 38.263409 -0.856942 2.246608 0.066341 -0.010291 -1230500.000000 0 0 1
20.173954 -23.906674 -23.867854 39.347070 -0.869876 2.222571 0.053202 -0.008158 -108007.000000 0 0 1
21.567554 -23.754274 -23.566954 39.809876 -0.833609 2.204319 0.072796 -0.005556 626924.000000 0 0 1
22.125654 -24.995254 -23.184954 40.642950 -0.846222 2.177855 0.076431 -0.011264 -87272.500000 0 0 1
21.970654 -25.335644 -21.634654 39.908179 -0.856411 2.143743 0.090661 -0.012927 -116218.000000 0 0 1
20.658854 -25.635444 -21.209754 39.163987 -0.892486 2.143091 0.072883 -0.015141 223848.000000 0 0 1
20.830854 -25.908634 -19.831054 38.709850 -0.893614 2.108657 0.064699 -0.020374 404603.000000 0 0 1
19.529254 -26.462654 -19.179254 38.072399 -0.935024 2.098739 0.061701 -0.022202 -118332.000000 0 0 1
19.303954 -27.833234 -19.494754 39.081671 -0.964407 2.093034 0.069020 -0.020443 521879.000000 0 0 1
18.115554 -28.397474 -18.938054 38.642460 -1.002954 2.082983 0.060862 -0.018028 1284250.000000 0 0 1
16.726654 -27.938744 -19.516454 37.963750 -1.031340 2.110733 0.080701 -0.026949 380623.000000 0 0 1
16.024654 -27.043994 -18.628554 36.540254 -1.035880 2.105759 0.073650 -0.024728 1358250.000000 0 0 1
14.720554 -26.776024 -19.246354 36.111941 -1.068133 2.132896 0.062885 -0.014148 1839720.000000 0 0 1
13.729354 -25.960974 -18.338954 34.623468 -1.084339 2.129006 0.031620 -0.013909 -304664.000000 0 0 1
13.192554 -26.645874 -17.267954 34.383547 -1.111071 2.096955 0.033740 -0.015459 479237.000000 0 0 1
12.026454 -26.071314 -16.656654 33.193269 -1.138593 2.096484 0.033103 -0.016314 433416.000000 0 0 1
10.676554 -26.124494 -17.364054 33.135907 -1.182830 2.122367 0.045570 -0.019753 -991105.000000 0 0 1
9.964754 -27.337244 -17.185954 33.793169 -1.221252 2.104311 0.065932 -0.007661 -741636.000000 0 0 1
8.593054 -27.094984 -17.249854 33.249604 -1.263685 2.116242 0.072047 0.004998 -538162.000000 0 0 1
7.934054 -27.588624 -18.506654 34.155199 -1.290769 2.143421 0.096831 -0.009910 -441472.000000 0 0 1
8.215754 -26.883424 -19.701854 34.327542 -1.274204 2.182102 0.105641 -0.021529 -153578.000000 0 0 1
7.815254 -27.651524 -20.780354 35.461360 -1.295347 2.196910 0.102956 -0.021118 -214878.000000 0 0 1
7.509554 -26.781974 -21.986754 35.455393 -1.297421 2.239698 0.112102 -0.020453 -339998.000000 0 0 1
6.292754 -26.085744 -21.953354 34.670081 -1.334085 2.256487 0.112658 -0.018513 -65383.200000 0 0 1
6.354454 -25.078304 -22.948654 34.582382 -1.322635 2.296409 0.091539 -0.019551 -108231.000000 0 0 1
4.948654 -24.469174 -23.145754 34.043437 -1.371248 2.318407 0.072590 -0.014690 132463.000000 0 0 1
3.995254 -25.459844 -23.556054 34.914945 -1.415142 2.311313 0.069709 -0.013084 -408408.000000 0 0 1
2.783854 -24.785274 -23.767554 34.452232 -1.458946 2.332106 0.068885 -0.017394 34883.300000 0 0 1
1.675154 -25.764414 -24.259454 35.427846 -1.505870 2.325066 0.033195 -0.012501 89346.000000 0 0 1
2.172954 -26.491394 -25.376304 36.748775 -1.488955 2.333024 0.047579 -0.010856 4119.310000 0 0 1
1.197954 -27.238414 -26.103564 37.746024 -1.526844 2.334440 0.063104 -0.014500 46398.200000 0 0 1
1.683254 -28.158364 -27.255984 39.225189 -1.511089 2.339020 0.062853 -0.011628 -482473.000000 0 0 1
2.218854 -27.426404 -28.321494 39.487187 -1.490070 2.370619 0.059682 -0.003391 -155622.000000 0 0 1
2.761854 -28.196114 -29.374534 40.810684 -1.473156 2.374275 0.076628 -0.014856 1060410.000000 0 0 1
4.158054 -28.939684 -29.244294 41.352430 -1.428093 2.356321 0.091753 -0.021090 583852.000000 0 0 1
4.274454 -29.912244 -28.177074 41.315382 -1.428857 2.321290 0.077374 -0.028377 -588878.000000 0 0 1
5.321354 -30.786224 -28.430184 42.241967 -1.399639 2.309097 0.096524 -0.035224 -390860.000000 0 0 1
5.747854 -31.621954 -27.237934 42.129453 -1.390992 2.273823 0.130414 -0.059143 -453339.000000 0 0 1
4.913554 -32.761054 -27.142174 42.826712 -1.421924 2.257210 0.118086 -0.067068 259944.000000 0 0 1
5.378154 33.838606 -26.370774 43.236484 1.413179 2.226755 0.129795 -0.073533 -487017.000000 0 0 1
4.168154 33.004361 -26.001374 42.222421 1.445170 2.234222 0.144800 -0.074888 -297041.000000 0 0 1
3.633654 32.187511 -27.060314 42.207818 1.458382 2.266754 0.128926 -0.072072 535784.000000 0 0 1
2.266754 31.922235 -26.791284 41.736557 1.499907 2.267788 0.110853 -0.068448 -191809.000000 0 0 1
1.323654 32.142749 -27.948934 42.615154 1.529639 2.286098 0.108748 -0.046953 -474462.000000 0 0 1
1.199054 31.103596 -28.929374 42.494472 1.532265 2.319623 0.123901 -0.050180 268186.000000 0 0 1
0.248254 31.575066 -29.880014 43.472539 1.562934 2.328604 0.118366 -0.044521 281430.000000 0 0 1
-0.029846 30.543176 -30.965304 43.494098 -1.569819 2.363057 0.117768 -0.043718 314615.000000 0 0 1
0.995654 30.553906 -31.965984 44.230721 1.538221 2.378512 0.131260 -0.046378 442521.000000 0 0 1
0.745754 29.574276 -32.952214 44.283658 1.545585 2.410008 0.143606 -0.052026 -591979.000000 0 0 1
1.951854 29.220656 33.761852 44.693614 1.504098 0.714522 0.123849 -0.043799 -337727.000000 0 0 1
2.205354 30.307696 32.876125 44.768959 1.498159 0.746086 0.116906 -0.041915 -575848.000000 0 0 1
3.301154 30.024576 32.052982 44.042780 1.461288 0.755733 0.090490 -0.039294 -274906.000000 0 0 1
3.100254 28.994856 30.832052 42.437351 1.464277 0.757536 0.090182 -0.030943 -337366.000000 0 0 1
2.958954 27.613876 31.204212 41.773011 1.464049 0.727266 0.105174 -0.034948 -497337.000000 0 0 1
4.131454 26.935106 31.506608 41.656155 1.418597 0.713082 0.102678 -0.025929 -705002.000000 0 0 1
3.858954 25.428546 31.745336 40.856687 1.420189 0.680922 0.109952 -0.030341 36201.900000 0 0 1
3.152154 24.816026 30.671342 39.579066 1.444452 0.684179 0.110010 -0.022922 308061.000000 0 0 1
2.997654 23.441286 30.788412 38.812449 1.443607 0.654650 0.091352 -0.013814 -55289.700000 0 0 1
2.110454 22.695376 29.774632 37.497505 1.478072 0.653365 0.087067 -0.006889 -872257.000000 0 0 1
0.770054 22.569776 30.082202 37.615511 1.536691 0.643953 0.089622 -0.012837 -1129310.000000 0 0 1
0.090754 22.050676 28.974592 36.411091 1.566681 0.650530 0.096980 -0.007712 565575.000000 0 0 1
-1.335146 21.443776 29.199532 36.252322 -1.508614 0.634357 0.094134 -0.004473 448086.000000 0 0 1
-2.274546 22.403876 29.582592 37.178448 -1.469618 0.650647 0.097782 -0.014815 -198346.000000 0 0 1
-3.538146 21.838976 29.857352 37.160743 -1.410181 0.637704 0.067422 -0.017238 330669.000000 0 0 1
-4.635246 22.912066 30.138772 38.141760 -1.371185 0.659697 0.042293 -0.023720 226264.000000 0 0 1
-4.273346 23.760986 31.175432 39.430363 -1.392851 0.658934 0.062695 -0.022362 -395191.000000 0 0 1
-5.370246 24.507526 31.593800 40.343855 -1.355079 0.671140 0.055425 -0.031607 -344653.000000 0 0 1
-5.290646 25.059836 33.000777 41.773648 -1.362731 0.660003 0.074904 -0.032117 -285504.000000 0 0 1
-6.552146 25.549686 33.357427 42.525699 -1.319759 0.669058 0.072473 -0.026139 -147736.000000 0 0 1
-6.463346 26.027036 -32.892304 42.439193 -1.327388 2.457583 0.082431 -0.023747 498003.000000 0 0 1
-7.810246 26.469436 -32.212034 42.417522 -1.283872 2.433193 0.084645 -0.016824 317399.000000 0 0 1
-8.506546 27.570176 -32.799974 43.684256 -1.271522 2.420132 0.086256 -0.013239 301426.000000 0 0 1
-9.794846 27.765846 -32.243364 43.663666 -1.231660 2.401563 0.074245 -0.007696 275665.000000 0 0 1
-9.868446 28.285576 -30.810174 42.973560 -1.235114 2.370223 0.077398 -0.008751 -534178.000000 0 0 1
-9.308446 29.547436 -30.533254 43.496871 -1.265605 2.348948 0.078708 -0.004268 175451.000000 0 0 1
-9.579846 29.868146 -29.172824 42.836121 -1.260424 2.319969 0.088289 -0.009085 -166685.000000 0 0 1
-9.100646 31.265146 -28.753664 43.440814 -1.287543 2.294153 0.073130 -0.011189 553518.000000 0 0 1
-7.675646 31.363206 -28.682464 43.188540 -1.330780 2.297115 0.068972 -0.016261 461929.000000 0 0 1
-7.168946 32.635580 -28.225744 43.739770 -1.354564 2.272226 0.070687 -0.012607 -68342.700000 0 0 1
-5.639246 32.619477 -28.357484 43.588741 -1.399609 2.279130 0.072657 -0.018337 -308487.000000 0 0 1
-4.876746 33.746566 -27.911204 44.064143 -1.427279 2.256764 0.088164 -0.025767 249315.000000 0 0 1
-4.847446 -32.838254 -28.823594 43.961895 1.424239 2.285839 0.094864 -0.034684 84073.400000 0 0 1
-3.722846 -33.086694 -29.886514 44.741397 1.458750 2.302292 0.095771 -0.029646 74035.200000 0 0 1
-3.959846 33.540055 -30.802444 45.710024 -1.453277 2.310226 0.092724 -0.028590 -277776.000000 0 0 1
-4.807346 33.827166 -31.880654 46.730759 -1.429627 2.321591 0.109135 -0.027023 -186555.000000 0 0 1
-4.248146 -32.990654 -33.035744 46.880597 1.442733 2.352766 0.083043 -0.030171 -234621.000000 0 0 1
-4.054446 -31.613874 -32.749944 45.699392 1.443244 2.369767 0.090516 -0.031915 613572.000000 0 0 1
-3.312646 -31.032884 33.721912 45.947588 1.464453 0.746719 0.099763 -0.042032 413215.000000 0 0 1
34.459354 17.984426 13.094152 41.016381 0.481016 1.245867 0.099296 -0.036638 -744671.000000 0 0 1
35.814704 17.803426 12.884652 42.019868 0.461324 1.259143 0.109958 -0.040709 -943511.000000 0 0 1
36.137134 16.550626 13.484052 41.971840 0.429483 1.243732 0.118834 -0.016481 337146.000000 0 0 1
37.651954 16.198326 13.466552 43.143985 0.406277 1.253362 0.084825 -0.028723 362556.000000 0 0 1
-37.221228 15.692926 12.324552 42.232479 -0.398998 1.274661 0.103327 -0.015441 -192187.000000 0 0 1
-37.577988 14.355126 11.978652 41.972168 -0.364901 1.281378 0.151369 -0.027920 -571133.000000 0 0 1
-36.408668 13.342426 11.856452 40.548574 -0.351265 1.274059 0.169454 -0.013689 -58907.800000 0 0 1
-35.840613 12.972526 13.092852 40.302094 -0.347281 1.239924 0.154229 -0.011400 -8018.350000 0 0 1
-36.396578 11.823226 13.795352 40.679372 -0.314091 1.224811 0.161313 -0.014127 -97434.400000 0 0 1
-35.532942 11.360226 14.996752 40.206309 -0.309440 1.188561 0.189363 -0.026004 139032.000000 0 0 1
-35.840489 12.133426 16.118452 41.128642 -0.326429 1.168097 0.182042 -0.014831 -213569.000000 0 0 1
-35.000270 11.784526 17.156952 40.721677 -0.324776 1.135893 0.171892 -0.010352 -376114.000000 0 0 1
-35.106202 12.760926 18.363352 41.623303 -0.348646 1.113884 0.158698 -0.019250 -801160.000000 0 0 1
-36.275358 12.715426 19.101652 42.923848 -0.337143 1.109608 0.178959 -0.036192 -745254.000000 0 0 1
-36.246408 13.484226 20.237952 43.648610 -0.356152 1.088679 0.178396 -0.037529 -294693.000000 0 0 1
-37.511248 13.492426 21.095152 45.101494 -0.345281 1.084080 0.171737 -0.056496 -229201.000000 0 0 1
-37.730618 12.157126 21.632152 45.159110 -0.311705 1.071257 0.151562 -0.046899 47293.700000 0 0 1
36.530524 12.057426 22.292252 44.461278 0.318806 1.045597 0.146215 -0.049595 110814.000000 0 0 1
36.382454 10.625426 22.811422 44.237356 0.284146 1.029019 0.129184 -0.036560 -443587.000000 0 0 1
37.193304 10.327926 23.883892 45.392161 0.270858 1.016709 0.133448 -0.028065 -687914.000000 0 0 1
36.855384 10.893326 25.145162 45.926714 0.287387 0.991415 0.121167 -0.025508 -1477010.000000 0 0 1
-37.534798 11.063526 26.187702 47.085650 -0.286637 0.981024 0.117584 -0.032603 324267.000000 0 0 1
-36.510508 12.044926 25.993832 46.408800 -0.318660 0.976283 0.140648 -0.039773 202836.000000 0 0 1
-35.614002 11.673726 24.991622 45.046800 -0.316749 0.982683 0.138617 -0.043159 -1320290.000000 0 0 1
-34.676562 12.756926 24.434782 44.297423 -0.352517 0.986506 0.139918 -0.050287 -219005.000000 0 0 1
-33.689688 13.314626 25.224092 44.142147 -0.376373 0.962551 0.134556 -0.045276 -492461.000000 0 0 1
-34.148463 14.110726 26.300752 45.353717 -0.391848 0.952187 0.120800 -0.034964 -1311550.000000 0 0 1
-33.086378 14.587026 27.235932 45.269037 -0.415241 0.925236 0.123087 -0.024527 -537949.000000 0 0 1
-32.208278 15.579226 26.681362 44.631609 -0.450525 0.930026 0.133780 -0.022997 348562.000000 0 0 1
-31.662158 16.360926 27.741762 45.163896 -0.476945 0.909366 0.122592 -0.020814 109277.000000 0 0 1
-30.835148 17.587926 27.283832 44.772190 -0.518360 0.915502 0.109003 -0.018074 185874.000000 0 0 1
-31.661028 18.561526 26.646132 45.353801 -0.530254 0.942809 0.123121 -0.025761 649475.000000 0 0 1
-30.922398 19.676126 26.127432 45.010969 -0.566689 0.951493 0.119562 -0.027309 447301.000000 0 0 1
-31.855178 20.628526 25.288642 45.604867 -0.574667 0.983015 0.126675 -0.014722 159833.000000 0 0 1
-32.604218 21.457226 26.142032 46.977159 -0.582057 0.980648 0.127081 -0.025007 120689.000000 0 0 1
-33.642818 22.064826 25.393142 47.576333 -0.580481 1.007785 0.133855 -0.023707 -89286.900000 0 0 1
-33.682508 23.614926 25.339882 48.314446 -0.611466 1.018694 0.127258 -0.023129 -694530.000000 0 0 1
-34.707668 23.957126 24.486522 48.766340 -0.604155 1.044749 0.141927 -0.026938 -573951.000000 0 0 1
-35.004982 25.357526 24.558312 49.713817 -0.626913 1.054119 0.135087 -0.030904 122970.000000 0 0 1
-36.225688 25.751926 23.708322 50.374068 -0.617987 1.080774 0.142575 -0.021843 -37878.500000 0 0 1
-36.072048 25.493226 22.361252 49.508816 -0.615229 1.102169 0.144758 -0.032807 -681924.000000 0 0 1
-37.133978 25.952026 21.605052 50.191815 -0.609971 1.125805 0.152207 -0.034894 -662469.000000 0 0 1
-36.912208 25.836526 20.129652 49.348152 -0.610689 1.150631 0.193302 -0.048845 69441.700000 0 0 1
-37.011228 24.488626 19.647752 48.534091 -0.584524 1.154010 0.176166 -0.046690 60742.000000 0 0 1
-36.351458 24.353526 18.394952 47.464692 -0.590270 1.172824 0.183782 -0.051796 95257.700000 0 0 1
-36.753818 23.123126 17.550252 46.835173 -0.561568 1.186698 0.188898 -0.049776 1112870.000000 0 0 1
37.406524 23.188026 17.011152 47.183810 0.554918 1.201961 0.158516 -0.055483 626729.000000 0 0 1
37.204994 22.396426 15.843752 46.225923 0.541869 1.220958 0.154329 -0.048985 363913.000000 0 0 1
35.828374 22.588426 15.123752 44.973740 0.562517 1.227833 0.137759 -0.037422 1117730.000000 0 0 1
34.806404 21.809926 15.771052 43.998690 0.559754 1.204196 0.129500 -0.044448 -306193.000000 0 0 1
33.639854 21.728626 15.002952 42.765191 0.573501 1.212348 0.121111 -0.036680 -843921.000000 0 0 1
32.734694 20.624026 15.609652 41.720162 0.562212 1.187315 0.092185 -0.041955 194974.000000 0 0 1
32.034524 21.029926 16.791052 41.837877 0.580915 1.157821 0.092271 -0.039347 303851.000000 0 0 1
30.886734 21.842426 16.587452 41.306482 0.615527 1.157566 0.088111 -0.033864 69045.800000 0 0 1
30.289654 22.509426 17.897552 41.766731 0.639096 1.127951 0.074547 -0.020660 69528.800000 0 0 1
31.243124 23.302026 18.548252 43.164278 0.640826 1.126621 0.033707 -0.015313 -387992.000000 0 0 1
30.625854 24.232626 19.449252 43.628391 0.669381 1.108736 0.048297 -0.006431 561790.000000 0 0 1
31.550504 24.974126 20.503452 45.161187 0.669574 1.099540 0.035825 -0.011747 134612.000000 0 0 1
32.392844 25.950926 19.941852 46.048066 0.675430 1.122905 0.046111 -0.024051 -292718.000000 0 0 1
33.293904 26.231226 20.983652 47.295612 0.667300 1.111106 0.071001 -0.027303 -964100.000000 0 0 1
34.493804 27.049726 20.512952 48.397225 0.665027 1.133109 0.083989 -0.028050 103910.000000 0 0 1
35.468844 27.324926 21.558252 49.693548 0.656425 1.122064 0.095981 -0.019009 505040.000000 0 0 1
35.119284 28.301326 22.509652 50.408468 0.678306 1.107896 0.065262 -0.015294 117352.000000 0 0 1
36.272234 28.517726 23.567582 51.810873 0.666278 1.098562 0.063890 -0.020723 269532.000000 0 0 1
37.328724 29.300726 23.117982 52.786431 0.665489 1.117476 0.096346 -0.025602 -823175.000000 0 0 1
-37.475688 29.682226 24.264182 53.611680 -0.669868 1.101127 0.100737 -0.018022 765385.000000 0 0 1
-36.213888 30.620226 24.008332 53.154905 -0.701898 1.102163 0.124196 -0.027554 1294480.000000 0 0 1
-35.009715 29.982626 23.597542 51.783028 -0.708203 1.097638 0.122115 -0.029426 -505994.000000 0 0 1
-34.025960 30.925326 23.454312 51.616339 -0.737697 1.099101 0.123293 -0.027663 76244.100000 0 0 1
-32.595418 30.323726 23.174352 50.190041 -0.749309 1.090849 0.131829 -0.023367 729903.000000 0 0 1
-32.208098 29.947526 21.886252 49.124576 -0.749045 1.109035 0.112779 -0.023538 250155.000000 0 0 1
-32.852608 28.734526 21.468152 48.639988 -0.718632 1.113673 0.147644 -0.027041 -83770.900000 0 0 1
-32.352698 27.393726 22.063952 47.790494 -0.702588 1.090907 0.133611 -0.023880 -314608.000000 0 0 1
-30.991458 27.115626 21.835152 46.610101 -0.718795 1.083245 0.116357 -0.028014 198169.000000 0 0 1
-30.300278 26.273626 22.731592 46.099193 -0.714343 1.055145 0.105420 -0.029248 100934.000000 0 0 1
-30.019958 26.782326 24.162582 46.928896 -0.728462 1.029933 0.095811 -0.019530 -258645.000000 0 0 1
-31.225018 26.795126 24.903332 48.095285 -0.709195 1.026529 0.102877 -0.019281 237606.000000 0 0 1
-30.989058 27.247526 26.216392 48.888123 -0.721239 1.004805 0.107418 -0.019172 -56106.800000 0 0 1
-32.273988 27.418026 27.051512 50.250799 -0.704227 1.002342 0.119526 -0.030669 27324.100000 0 0 1
-32.780398 26.180726 27.499112 50.161600 -0.673930 0.990573 0.106395 -0.031094 -703240.000000 0 0 1
-33.831528 26.302926 28.366582 51.391431 -0.660850 0.986070 0.102774 -0.026494 -581919.000000 0 0 1
-34.382739 25.008426 28.944622 51.433309 -0.628850 0.973075 0.093446 -0.024912 379072.000000 0 0 1
-33.447508 24.450626 29.825982 51.050545 -0.631240 0.946848 0.086711 -0.031088 176038.000000 0 0 1
-34.133637 23.375826 30.400042 51.339040 -0.600474 0.937081 0.076495 -0.033945 128989.000000 0 0 1
-33.278398 22.643526 31.456882 51.085384 -0.597469 0.907433 0.074735 -0.039307 -608901.000000 0 0 1
-32.218718 21.956926 30.826712 49.703507 -0.598199 0.901783 0.086010 -0.034750 241678.000000 0 0 1
-31.434048 21.153426 31.729565 49.419957 -0.592337 0.873641 0.085461 -0.032344 208946.000000 0 0 1
-30.470288 21.922026 32.709423 49.788754 -0.623665 0.854011 0.091300 -0.031358 -583616.000000 0 0 1
-31.070878 22.674226 33.770152 51.185380 -0.630420 0.850295 0.098816 -0.032257 102194.000000 0 0 1
-31.277898 21.867326 -32.670264 50.237765 -0.610142 2.278793 0.082609 -0.027828 -12628.400000 0 0 1
-30.324498 22.237326 -31.482954 49.043351 -0.632735 2.267824 0.111675 -0.031152 329449.000000 0 0 1
-30.566978 23.588126 -31.019164 49.527047 -0.657237 2.247604 0.082177 -0.018166 308950.000000 0 0 1
-29.734468 23.869026 -29.880164 48.442679 -0.676409 2.235486 0.111942 -0.023098 230834.000000 0 0 1
-29.934358 25.191326 -29.167604 48.799773 -0.699569 2.211425 0.075807 -0.012894 -171961.000000 0 0 1
-29.489438 26.381326 -29.858604 49.569522 -0.729825 2.217248 0.090584 -0.016142 449579.000000 0 0 1
-30.222668 26.790126 -31.044544 50.940006 -0.725264 2.226142 0.062141 0.001538 214425.000000 0 0 1
-29.802898 28.205626 -31.581054 51.779658 -0.757870 2.226746 0.072507 -0.001588 -206896.000000 0 0 1
-30.165318 29.249026 -30.700914 52.038429 -0.769977 2.201813 0.053207 -0.011111 85126.400000 0 0 1
-29.948618 30.519626 -31.276334 52.977130 -0.794841 2.202319 0.059275 -0.021110 -385433.000000 0 0 1
-30.293428 31.649126 -30.361584 53.302765 -0.807281 2.176823 0.051896 -0.009228 24043.200000 0 0 1
-29.435938 31.867926 -29.254334 52.324518 -0.825048 2.164089 0.041192 -0.013696 217897.000000 0 0 1
-29.877898 33.024226 -28.522954 52.885227 -0.835376 2.140446 0.028198 -0.012512 -423549.000000 0 0 1
-29.153308 33.226526 -27.190044 51.896203 -0.850603 2.122256 0.007165 -0.016206 831845.000000 0 0 1
-27.779158 33.633926 -27.090194 51.349793 -0.880445 2.126524 0.046956 -0.015769 842476.000000 0 0 1
-27.401548 -32.731324 -27.412354 50.730874 0.873800 2.141648 0.050031 -0.007651 -230688.000000 0 0 1
-27.888758 -31.625924 -26.421024 49.759948 0.848110 2.130541 0.063288 -0.018021 514875.000000 0 0 1
-29.278928 -31.303924 -26.442354 50.362579 0.818811 2.123558 0.046067 -0.026145 253784.000000 0 0 1
-29.616408 -30.442424 -25.390114 49.482630 0.799151 2.109602 0.050638 -0.021991 768344.000000 0 0 1
-31.145468 -30.216124 -25.106024 50.133489 0.770254 2.095300 0.029615 -0.019596 858809.000000 0 0 1
-31.664608 -29.225024 -25.992354 50.322479 0.745354 2.113573 0.038040 -0.023647 -480120.000000 0 0 1
-33.031038 -29.055124 -25.765124 50.981284 0.721447 2.100623 0.036296 -0.023404 -780080.000000 0 0 1
-33.656868 -28.176624 -26.826874 51.443057 0.697000 2.119389 0.052178 -0.025769 -729922.000000 0 0 1
-35.052487 -28.280224 -26.794014 52.405792 0.678871 2.107469 0.058143 -0.030958 -355742.000000 0 0 1
-35.625369 -27.446024 -27.797984 52.869453 0.656434 2.124434 0.068564 -0.032727 771291.000000 0 0 1
-37.120368 -27.771624 -28.120024 54.221034 0.642316 2.116031 0.066525 -0.033738 1063200.000000 0 0 1
37.466854 -27.454924 -27.081364 53.767446 -0.632388 2.098645 0.068502 -0.022910 -668295.000000 0 0 1
36.131574 -27.614624 -27.398134 53.091580 -0.652578 2.113034 0.074299 -0.023830 -817374.000000 0 0 1
35.096574 -26.908124 -26.547644 51.580947 -0.654096 2.111430 0.064192 -0.015954 -359503.000000 0 0 1
35.006934 -27.520924 -25.300814 51.215407 -0.666243 2.087490 0.063206 -0.016661 432619.000000 0 0 1
33.985834 -26.883824 -24.532554 49.795814 -0.669248 2.085944 0.064630 -0.014275 240786.000000 0 0 1
33.691424 -27.550824 -23.200454 49.319581 -0.685465 2.060552 0.067252 -0.016668 -25681.300000 0 0 1
33.136204 -28.859724 -23.292954 49.733826 -0.716527 2.058221 0.075063 -0.017275 206837.000000 0 0 1
32.713074 -29.511224 -22.044654 49.264839 -0.733987 2.034733 0.081830 -0.020156 -194798.000000 0 0 1
33.770344 -29.660924 -20.943354 49.586597 -0.720703 2.006843 0.071686 -0.022007 -993310.000000 0 0 1
34.812264 -30.565924 -21.309754 50.992892 -0.720539 2.001925 0.065978 -0.029776 89066.700000 0 0 1
35.805214 -30.645624 -20.328954 51.326738 -0.707908 1.978029 0.043932 -0.025211 688221.000000 0 0 1
36.818444 -29.416224 -20.223754 51.282670 -0.674102 1.976166 0.033934 -0.019807 -10069.400000 0 0 1
36.160364 -28.297224 -19.620854 49.932782 -0.664009 1.974629 0.033667 -0.006838 372829.000000 0 0 1
36.853014 -27.161124 -20.076754 49.989473 -0.635137 1.984081 0.019721 -0.006736 199404.000000 0 0 1
35.946414 -25.919424 -19.837154 48.553825 -0.624719 1.991672 0.022811 -0.007536 611304.000000 0 0 1
34.861564 -25.736724 -20.742454 48.041201 -0.635942 2.017244 0.048808 -0.007780 215223.000000 0 0 1
33.868544 -24.927624 -20.142054 46.627964 -0.634488 2.017476 0.082109 -0.017274 18559.400000 0 0 1
32.601934 -24.760524 -21.017954 46.018736 -0.649541 2.045108 0.085184 -0.014565 443808.000000 0 0 1
31.723504 -25.892524 -21.074954 46.053851 -0.684537 2.046108 0.104690 -0.011506 318785.000000 0 0 1
30.559204 -25.609724 -21.831654 45.457057 -0.697507 2.071759 0.097280 -0.013609 287118.000000 0 0 1
29.862454 -26.933224 -22.310454 45.988271 -0.733869 2.077312 0.092465 -0.009217 -31754.200000 0 0 1
29.253554 -27.615624 -21.268854 45.505574 -0.756604 2.057133 0.092201 -0.011600 -333153.000000 0 0 1
28.592754 -28.776024 -21.633254 45.973936 -0.788593 2.060716 0.081911 -0.010080 -172765.000000 0 0 1
27.804154 -29.471624 -20.536954 45.424818 -0.814503 2.039924 0.080321 -0.000681 -281797.000000 0 0 1
28.650054 -30.057824 -19.567854 45.904241 -0.809373 2.011168 0.099484 -0.015996 -41332.900000 0 0 1
29.301954 -31.215624 -20.030054 47.267566 -0.817009 2.008388 0.104489 -0.016213 -70342.200000 0 0 1
30.164954 -31.893924 -18.945954 47.813137 -0.813251 1.978225 0.076442 -0.019862 103947.000000 0 0 1
29.447054 -32.501424 -17.862254 47.355376 -0.834663 1.957563 0.080530 -0.017973 85785.400000 0 0 1
28.961554 -31.560424 -16.904654 46.049965 -0.828313 1.946679 0.069759 -0.021601 83189.300000 0 0 1
28.398354 -32.294824 -15.659854 45.767381 -0.849510 1.920013 0.071982 -0.014186 -125908.000000 0 0 1
27.252854 -33.080424 -15.871054 45.704736 -0.881689 1.925435 0.072202 -0.013720 -260929.000000 0 0 1
26.841454 -33.557424 -14.602454 45.384976 -0.896137 1.898370 0.079810 -0.009657 -572163.000000 0 0 1
25.350254 -33.836924 -14.407254 44.667010 -0.927814 1.899216 0.090082 -0.016101 -336273.000000 0 0 1
24.678054 -32.577824 -14.452754 43.349776 -0.922506 1.910702 0.085953 -0.008828 -584821.000000 0 0 1
23.317654 -32.803324 -14.227554 42.687169 -0.952837 1.910596 0.098828 -0.013749 -523225.000000 0 0 1
-0.627078 -7.214474 -28.864544 29.759095 1.484095 2.895781 0.127496 -0.038236 191987.000000 0 0 1
-0.336678 -8.548774 -28.464884 29.722794 1.531434 2.849622 0.130127 -0.039860 -81163.900000 0 0 1
-0.352678 -9.367774 -29.652404 31.098949 1.533166 2.835392 0.138799 -0.049335 43737.900000 0 0 1
-0.023878 -10.842374 -29.436304 31.369629 1.568594 2.788679 0.160084 -0.041516 -544180.000000 0 0 1
1.321922 -11.019874 -29.145274 31.187050 -1.451409 2.777736 0.107594 -0.043825 -844905.000000 0 0 1
1.584422 -12.353474 -28.639704 31.230616 -1.443236 2.731388 0.131082 -0.043854 -371084.000000 0 0 1
3.069522 -12.611774 -28.374334 31.202270 -1.332053 2.712558 0.101071 -0.033754 -818036.000000 0 0 1
3.796622 -12.509374 -29.572334 32.332982 -1.276130 2.725359 0.117016 -0.041244 -375106.000000 0 0 1
5.181322 -12.716474 -29.430514 32.476298 -1.183884 2.705041 0.116175 -0.041030 275491.000000 0 0 1
5.770322 -14.145574 -29.258844 33.007178 -1.183477 2.660390 0.122343 -0.038513 -615109.000000 0 0 1
5.345022 -14.694874 -28.053934 32.117469 -1.221939 2.633099 0.103373 -0.036400 -2566.230000 0 0 1
6.037422 -15.854074 -27.595604 32.393201 -1.206940 2.590389 0.112463 -0.025316 -48779.200000 0 0 1
5.839422 -17.194774 -28.408444 33.716447 -1.243412 2.572832 0.076161 -0.024975 -194019.000000 0 0 1
6.385522 -17.242174 -29.717194 34.945373 -1.216115 2.587522 0.104486 -0.043845 232360.000000 0 0 1
6.113822 -18.600074 -30.092554 35.901301 -1.253223 2.564775 0.088299 -0.033943 -418129.000000 0 0 1
6.690322 -19.052074 -31.418304 37.347714 -1.233089 2.570365 0.102299 -0.060352 -170381.000000 0 0 1
8.098922 -19.152374 -31.270604 37.553384 -1.170733 2.554758 0.110540 -0.049255 126198.000000 0 0 1
8.621622 -19.732174 -32.441674 38.937813 -1.158863 2.555605 0.113983 -0.046540 -1613920.000000 0 0 1
10.063422 -19.470974 -32.662894 39.335174 -1.093766 2.550574 0.096772 -0.047937 -1539870.000000 0 0 1
10.337822 -18.133274 -33.030274 39.072819 -1.052651 2.578020 0.113438 -0.054161 -159841.000000 0 0 1
11.426422 -18.021374 33.685452 39.875340 -1.005717 0.564663 0.097525 -0.041155 -350698.000000 0 0 1
11.511922 -16.574974 33.183467 38.838082 -0.963747 0.546391 0.104647 -0.036277 -345031.000000 0 0 1
10.566122 -16.324374 32.179482 37.598500 -0.996349 0.543563 0.127494 -0.035789 68464.200000 0 0 1
10.576222 -15.003974 31.686941 36.620185 -0.956793 0.525075 0.119347 -0.024423 -64108.100000 0 0 1
9.439822 -14.832674 30.661862 35.344989 -1.004026 0.520637 0.163699 -0.034709 21725.400000 0 0 1
9.609522 -15.627374 29.448672 34.695562 -1.019481 0.557135 0.156826 -0.031479 -228488.000000 0 0 1
8.498522 -15.458374 28.609832 33.611140 -1.068131 0.552527 0.162627 -0.028201 -358055.000000 0 0 1
8.543322 -16.259974 27.289792 32.895408 -1.087020 0.592418 0.117219 -0.033627 -635921.000000 0 0 1
8.197022 -17.599374 27.578002 33.726478 -1.134917 0.613399 0.116928 -0.032512 321291.000000 0 0 1
8.258722 -18.447874 26.419372 33.264302 -1.149874 0.653064 0.094515 -0.023311 -107573.000000 0 0 1
7.963822 -19.885174 26.860862 34.356201 -1.189867 0.673194 0.098112 -0.029983 -541993.000000 0 0 1
8.718822 -20.296374 27.965482 35.637464 -1.165057 0.668550 0.117970 -0.028805 115703.000000 0 0 1
8.140222 -21.250474 28.857132 36.750237 -1.204978 0.667740 0.097249 -0.026389 -70478.700000 0 0 1
8.852822 -21.193074 30.231712 37.966765 -1.175106 0.649696 0.113502 -0.042041 -90367.300000 0 0 1
8.221422 -20.296674 31.185162 38.105920 -1.185933 0.612208 0.121455 -0.047334 464010.000000 0 0 1
8.111322 -18.867174 30.942842 37.137896 -1.164768 0.585949 0.122043 -0.041369 272259.000000 0 0 1
7.285122 -18.044474 32.039082 37.485715 -1.187077 0.545822 0.121939 -0.041941 902127.000000 0 0 1
5.896222 -18.359674 31.997876 37.359164 -1.260050 0.542359 0.135583 -0.050986 187163.000000 0 0 1
5.170722 -17.372174 32.718253 37.403381 -1.281502 0.505896 0.132806 -0.048204 585757.000000 0 0 1
3.706422 -17.757574 33.088888 37.735176 -1.365027 0.501482 0.144924 -0.052131 122892.000000 0 0 1
3.659122 -18.826774 -33.563034 38.656356 -1.378832 2.622442 0.125678 -0.053109 5389.200000 0 0 1
3.019422 -18.377874 -32.384644 37.358109 -1.407955 2.619687 0.125833 -0.063892 -334152.000000 0 0 1
2.471822 -19.558874 -31.524324 37.181211 -1.445084 2.582725 0.098776 -0.036446 -403258.000000 0 0 1
1.390322 -20.174874 -32.223754 38.043776 -1.501992 2.581146 0.096194 -0.028441 461994.000000 0 0 1
0.589722 -21.052574 -31.413284 37.820009 -1.542792 2.550980 0.107258 -0.028048 379474.000000 0 0 1
-0.346278 -20.377374 -30.401914 36.601006 1.553805 2.551035 0.114771 -0.035760 -1116150.000000 0 0 1
-1.417878 -19.732874 -31.031144 36.801204 1.499066 2.574023 0.131334 -0.044124 -651510.000000 0 0 1
-2.074578 -18.901974 -30.071184 35.578991 1.461479 2.577726 0.175351 -0.036467 -13551.400000 0 0 1
-1.509178 -17.506974 -29.681394 34.492853 1.484805 2.607063 0.154783 -0.041169 -502048.000000 0 0 1
-2.462078 -16.595174 -29.230124 33.702548 1.423510 2.620543 0.173981 -0.043144 -376059.000000 0 0 1
-1.890678 -15.325274 -29.220834 33.049899 1.448047 2.655453 0.165945 -0.043285 -104359.000000 0 0 1
-2.927378 -14.260874 -28.895604 32.355803 1.368335 2.674892 0.160727 -0.033567 -8055.720000 0 0 1
-3.123478 -14.054074 -27.534974 31.071658 1.352104 2.659823 0.157917 -0.039707 9064.510000 0 0 1
-4.206478 -13.184474 -27.260214 30.571949 1.261957 2.671826 0.135877 -0.041688 219416.000000 0 0 1
-4.305678 -12.906574 -25.743144 29.117486 1.248803 2.655388 0.143024 -0.044031 -519225.000000 0 0 1
-4.715478 -14.044174 -25.030954 29.086478 1.246863 2.607184 0.158941 -0.038968 110950.000000 0 0 1
-5.067578 -13.859774 -23.667554 27.891339 1.220264 2.584059 0.146937 -0.034344 64692.900000 0 0 1
-6.170778 -12.818974 -23.352254 27.344695 1.122157 2.594414 0.116020 -0.031350 74150.300000 0 0 1
-7.474878 -13.194674 -23.785754 28.208781 1.055368 2.574012 0.114890 -0.034505 822177.000000 0 0 1
-8.441178 -12.132874 -23.547354 27.801762 0.962943 2.581063 0.088712 -0.037002 743558.000000 0 0 1
-9.910278 -12.550874 -23.771754 28.650206 0.902424 2.549409 0.102324 -0.045504 15704.900000 0 0 1
-10.450378 -13.330174 -22.747254 28.360915 0.905910 2.501539 0.096241 -0.052330 -506583.000000 0 0 1
-11.638978 -13.974774 -23.084254 29.387802 0.876340 2.474307 0.079982 -0.044794 -339798.000000 0 0 1
-12.334878 -14.766774 -21.982954 29.213988 0.874891 2.422616 0.071341 -0.037934 334181.000000 0 0 1
-11.570078 -15.914474 -21.587354 29.208749 0.942168 2.402487 0.107356 -0.042577 569889.000000 0 0 1
-12.450678 -17.050274 -21.349254 30.025354 0.940066 2.361774 0.102738 -0.036109 796838.000000 0 0 1
-13.060178 -17.826974 -22.557154 31.578386 0.938520 2.366452 0.101353 -0.033944 -14419.600000 0 0 1
-14.157878 -17.172174 -23.123254 32.093830 0.881314 2.375304 0.056391 -0.025663 -543052.000000 0 0 1
-14.833578 -17.997874 -24.056054 33.506003 0.881481 2.371667 0.017077 -0.015454 279877.000000 0 0 1
-16.032378 -17.377674 -24.823654 34.281693 0.825643 2.380537 0.021079 -0.013594 -414390.000000 0 0 1
-17.111178 -17.164774 -23.967854 34.086359 0.786962 2.350616 0.028712 -0.006923 -387956.000000 0 0 1
-18.285478 -17.113474 -24.772254 35.226329 0.752302 2.350729 0.031200 -0.007076 -61230.700000 0 0 1
-19.111478 -15.878874 -24.454754 34.862906 0.693274 2.348233 0.040726 -0.006178 -535608.000000 0 0 1
-19.550778 -15.821174 -23.112554 34.157468 0.680347 2.313996 0.037237 -0.005248 286813.000000 0 0 1
-20.406878 -14.689474 -22.939054 34.035592 0.623911 2.310369 0.043907 -0.014888 74457.400000 0 0 1
-20.850078 -14.642674 -21.482654 33.326237 0.612257 2.271318 0.043673 -0.019063 -484119.000000 0 0 1
-19.833678 -14.237474 -20.618654 31.956366 0.622601 2.272098 0.052221 -0.015492 -139445.000000 0 0 1
-20.174678 -14.109274 -19.238254 31.244194 0.610293 2.234119 0.069120 -0.019376 -115321.000000 0 0 1
-20.856978 -12.778874 -18.738954 30.813334 0.549699 2.224517 0.071910 -0.030864 -128701.000000 0 0 1
-22.236178 -12.730974 -19.007954 31.903411 0.519979 2.209054 0.067562 -0.032426 -86685.700000 0 0 1
-22.851778 -11.670374 -18.288954 31.510113 0.472170 2.190035 0.079534 -0.029596 1034420.000000 0 0 1
-24.393278 -11.469374 -18.523654 32.706334 0.439513 2.172882 0.104522 -0.032171 900553.000000 0 0 1
-24.703578 -10.734274 -19.690454 33.364732 0.409909 2.202051 0.095816 -0.038250 654022.000000 0 0 1
-26.118038 -10.578774 -19.882454 34.487307 0.384841 2.185254 0.106399 -0.041487 638091.000000 0 0 1
-26.594938 -9.613074 -21.038854 35.246777 0.346850 2.210430 0.107283 -0.030995 -54068.700000 0 0 1
-26.255298 -10.007774 -22.381954 35.922807 0.364170 2.243441 0.090172 -0.036625 243653.000000 0 0 1
-27.049308 -9.343374 -23.348154 36.933724 0.332589 2.255139 0.066331 -0.021092 -234328.000000 0 0 1
-27.053458 -9.754974 -24.827754 37.992979 0.346070 2.282973 0.067912 -0.018970 150157.000000 0 0 1
-25.933948 -9.506574 -25.667934 37.706597 0.351358 2.319552 0.036997 -0.018785 639569.000000 0 0 1
-25.064558 -10.637174 -25.859644 37.551334 0.401355 2.330419 0.034128 -0.013015 404049.000000 0 0 1
-24.038278 -10.615474 -27.029644 37.697861 0.415852 2.370296 0.035944 -0.013822 83001.700000 0 0 1
-24.562978 -10.888574 -28.319114 39.036818 0.417262 2.382479 0.045090 -0.007714 741833.000000 0 0 1
-23.527278 -10.676974 -29.299224 39.063731 0.426020 2.418914 0.042640 -0.008448 796077.000000 0 0 1
-24.085678 -11.105174 -30.655564 40.536507 0.432021 2.428352 0.041447 -0.009492 833779.000000 0 0 1
-25.145458 -10.278074 -31.182004 41.355172 0.388022 2.424934 0.035635 -0.015301 498664.000000 0 0 1
-24.639978 -9.131674 -31.857124 41.296396 0.354911 2.451876 0.038849 -0.022462 -264438.000000 0 0 1
-25.657648 -7.987274 -32.253644 41.981055 0.301793 2.446962 0.042344 -0.016442 -633014.000000 0 0 1
-26.413508 -8.388974 -33.404504 43.404022 0.307526 2.449039 0.068242 -0.021121 1440150.000000 0 0 1
-27.680158 -9.058474 -33.186254 44.153987 0.316270 2.421285 0.064878 -0.020527 1127060.000000 0 0 1
-28.732338 -8.238574 -32.353714 44.047521 0.279243 2.395753 0.071990 -0.009947 -800226.000000 0 0 1
-30.077988 -8.645374 -32.430964 45.068784 0.279887 2.374005 0.076644 -0.011040 268231.000000 0 0 1
-30.808878 -8.199474 -31.275794 44.660873 0.260111 2.346607 0.080150 -0.004648 1295870.000000 0 0 1
-32.359308 -8.478174 -31.308304 45.817182 0.256242 2.323112 0.075461 -0.008549 938456.000000 0 0 1
-32.614688 -9.852374 -31.278944 46.251048 0.293368 2.313506 0.072782 -0.011401 234908.000000 0 0 1
-33.985574 -10.232174 -31.285094 47.312511 0.292442 2.293272 0.067274 -0.009405 266457.000000 0 0 1
-34.177173 -11.789974 -31.461084 47.925801 0.332183 2.286905 0.067753 -0.015325 -1571940.000000 0 0 1
-35.488107 -12.173674 -31.383064 48.913196 0.330457 2.267388 0.057762 -0.007991 -1436770.000000 0 0 1
-35.592074 -13.613774 -31.358864 49.350875 0.365325 2.259357 0.049782 -0.020217 102565.000000 0 0 1
-36.945948 -14.345774 -31.204554 50.443319 0.370372 2.237764 0.051072 -0.024900 -120932.000000 0 0 1
-37.348828 -14.328374 -29.868904 49.923829 0.366321 2.212161 0.064016 -0.024483 -132923.000000 0 0 1
37.586254 -15.613774 -29.581224 50.314662 -0.393721 2.199287 0.059183 -0.022634 -145273.000000 0 0 1
37.480084 -15.851374 -28.077454 49.440532 -0.400114 2.174753 0.067393 -0.003875 -639263.000000 0 0 1
-36.837768 -15.776574 -27.353604 48.519492 0.404639 2.169734 0.087322 -0.028317 -711122.000000 0 0 1
-36.937788 -16.087774 -25.975224 47.936718 0.410762 2.143451 0.092005 -0.024671 309194.000000 0 0 1
-35.772225 -15.584874 -25.062754 46.375446 0.410873 2.141746 0.149778 -0.036952 1502740.000000 0 0 1
-34.480191 -16.221474 -25.206144 45.687739 0.439736 2.155203 0.145773 -0.040354 832157.000000 0 0 1
-33.562958 -15.784874 -24.231954 44.303747 0.439612 2.149513 0.159697 -0.026836 151425.000000 0 0 1
-32.116868 -16.297174 -24.474254 43.544003 0.469577 2.167668 0.146921 -0.047329 357527.000000 0 0 1
-31.846448 -17.610274 -23.966254 43.574067 0.505124 2.153175 0.154195 -0.054528 99694.400000 0 0 1
-32.393678 -18.606974 -24.820454 44.851140 0.521384 2.157233 0.131400 -0.053692 -143246.000000 0 0 1
-32.165608 -20.017674 -24.291354 45.004483 0.556678 2.140941 0.128469 -0.050999 -80436.000000 0 0 1
-30.794078 -20.331374 -24.279754 44.171783 0.583538 2.152761 0.125072 -0.034968 -151375.000000 0 0 1
-30.593588 -21.622074 -23.769854 44.367642 0.615243 2.136189 0.113566 -0.019557 589960.000000 0 0 1
-29.097988 -22.084074 -23.834854 43.617651 0.649208 2.148916 0.112194 -0.022179 1359880.000000 0 0 1
-28.019358 -21.442674 -23.118654 42.182281 0.653209 2.150846 0.102568 -0.009379 654728.000000 0 0 1
-28.120288 -21.376074 -21.695254 41.453241 0.649975 2.121594 0.121950 -0.019852 -596122.000000 0 0 1
-27.967468 -22.718774 -20.926354 41.668144 0.682213 2.096954 0.105073 -0.010427 32403.300000 0 0 1
-27.720678 -22.427374 -19.556154 40.667754 0.680234 2.072450 0.106025 -0.015860 28807.600000 0 0 1
-27.952908 -23.511074 -18.724254 41.045503 0.699302 2.044497 0.106488 0.017217 77223.300000 0 0 1
-27.986488 -23.083274 -17.218654 40.156731 0.689681 2.013945 0.099994 0.009279 -74796.600000 0 0 1
-29.178238 -22.379874 -16.967154 40.498304 0.654296 2.003096 0.108920 -0.000567 -452136.000000 0 0 1
-29.125438 -21.303274 -16.056154 39.495831 0.631511 1.989447 0.104346 -0.017401 214697.000000 0 0 1
-30.435338 -20.618574 -15.548754 39.914899 0.595434 1.970937 0.113639 -0.007707 174031.000000 0 0 1
-31.117988 -19.875374 -16.489354 40.438329 0.568398 1.990802 0.122664 -0.017455 -334810.000000 0 0 1
-32.264598 -19.244774 -15.938754 40.809429 0.537818 1.972042 0.131761 -0.019001 -217901.000000 0 0 1
-33.114518 -18.691374 -17.076154 41.683735 0.513867 1.992878 0.140858 -0.057660 -481337.000000 0 0 1
-34.043640 -19.673274 -17.519454 43.045771 0.523999 1.989959 0.094217 -0.039791 -670723.000000 0 0 1
-34.693550 -19.129174 -18.607554 43.769953 0.503899 2.009893 0.089334 -0.039815 -370152.000000 0 0 1
-35.945641 -19.969574 -19.015154 45.303963 0.507094 2.003937 0.061893 -0.026469 1290580.000000 0 0 1
-37.105718 -19.909574 -18.144554 45.852484 0.492469 1.977644 0.046817 -0.014891 925093.000000 0 0 1
-36.927778 -20.633374 -16.951654 45.571433 0.509536 1.951937 0.069579 -0.026877 -723179.000000 0 0 1
-37.429138 -22.109574 -16.972454 46.667310 0.533557 1.943023 0.061357 0.005832 418628.000000 0 0 1
36.649964 -22.159674 -16.907654 46.044976 -0.543817 1.946792 0.056471 -0.019127 319861.000000 0 0 1
36.154904 -23.469874 -17.075354 46.363561 -0.575776 1.947968 0.065490 -0.019434 -81713.100000 0 0 1
34.753294 -23.590774 -16.478354 45.120419 -0.596360 1.944653 0.058244 -0.028352 -39702.800000 0 0 1
33.609474 -23.384774 -17.279754 44.441358 -0.607888 1.970148 0.070887 -0.035623 516768.000000 0 0 1
32.425804 -23.833674 -16.606154 43.534367 -0.633846 1.962160 0.098099 -0.040435 610070.000000 0 0 1
31.287334 -24.181674 -17.585954 43.277204 -0.657991 1.989259 0.103065 -0.053819 -529494.000000 0 0 1
30.516954 -23.141474 -18.051754 42.340030 -0.648802 2.011252 0.099062 -0.046231 -764597.000000 0 0 1
29.361354 -23.695674 -18.576254 42.055336 -0.679017 2.028300 0.122620 -0.035051 -888763.000000 0 0 1
35.998924 29.836726 -18.160454 50.159295 0.692070 1.941268 0.038096 -0.011162 -93221.400000 0 0 1
35.063914 29.849226 -19.202454 49.891769 0.705237 1.965877 0.037285 -0.021752 108567.000000 0 0 1
35.645084 29.290326 -20.392954 50.441727 0.687846 1.986996 0.045210 -0.012044 -47961.200000 0 0 1
34.715234 29.335726 -21.625754 50.332947 0.701607 2.014906 0.068170 -0.024388 -12975.000000 0 0 1
33.525614 28.569226 -21.458154 48.996121 0.705747 2.024120 0.051182 -0.023745 723907.000000 0 0 1
32.612154 28.586326 -22.562754 48.885668 0.719710 2.050528 0.077911 -0.022635 82701.400000 0 0 1
31.561764 29.672726 -22.594554 48.858259 0.754559 2.051554 0.077333 -0.019427 -1266800.000000 0 0 1
32.079984 31.020026 -22.643454 50.040917 0.768602 2.040362 0.085630 -0.029642 393227.000000 0 0 1
31.103664 32.000026 -23.000654 50.204279 0.799602 2.046699 0.081864 -0.017216 -290664.000000 0 0 1
31.678574 33.368426 -22.740154 51.323469 0.811371 2.029822 0.082896 -0.016556 -144845.000000 0 0 1
31.940884 33.588326 -21.338254 51.026628 0.810533 2.002236 0.084650 -0.017323 -361312.000000 0 0 1
33.301264 33.417626 -21.073454 51.670131 0.787142 1.990890 0.080669 -0.024964 -868281.000000 0 0 1
33.608824 33.407626 -19.586854 51.276382 0.782396 1.962741 0.072739 -0.029546 -192804.000000 0 0 1
33.430334 -33.006124 -18.967054 50.663010 -0.779013 1.954521 0.069202 -0.028346 194043.000000 0 0 1
33.650324 -33.076624 -17.581954 50.354071 -0.776801 1.927478 0.055714 -0.037360 -413595.000000 0 0 1
33.802034 -31.613824 -16.986754 49.300722 -0.751960 1.922560 0.059405 -0.015159 981972.000000 0 0 1
35.102684 -30.994524 -17.134054 49.864163 -0.723325 1.921559 0.070338 -0.026136 1087490.000000 0 0 1
36.084184 -31.401524 -16.187654 50.499150 -0.716122 1.897110 0.072807 -0.024760 -260221.000000 0 0 1
37.465454 -30.825524 -16.488754 51.242094 -0.688473 1.898407 0.062491 -0.009353 -470525.000000 0 0 1
-37.323658 -31.509824 -17.497254 51.885242 0.701136 1.914769 0.065223 -0.017233 -757097.000000 0 0 1
-36.125748 -30.823024 -17.701154 50.679970 0.706357 1.927592 0.050144 -0.006296 -380018.000000 0 0 1
-35.242251 -31.386224 -18.832554 50.811184 0.727589 1.950492 0.058940 -0.022626 -894125.000000 0 0 1
-34.707775 -32.606224 -18.436654 51.065700 0.754188 1.940177 0.053651 -0.019899 -141698.000000 0 0 1
-33.778078 -33.165624 -19.342354 51.137499 0.776250 1.958693 0.063788 -0.025659 969371.000000 0 0 1
-32.354618 -32.494824 -19.436454 49.804725 0.787560 1.971703 0.068864 -0.025973 -793675.000000 0 0 1
-32.352588 -31.480624 -20.420454 49.545076 0.771739 1.995619 0.068471 -0.023510 687243.000000 0 0 1
-31.081918 -30.832424 -20.613054 48.390309 0.781369 2.010835 0.086017 -0.027149 818919.000000 0 0 1
-30.029588 -31.762724 -21.263054 48.608274 0.813439 2.023543 0.089946 -0.025032 -723881.000000 0 0 1
-30.582768 -32.306524 -22.443354 49.826914 0.812801 2.038039 0.074686 -0.017355 -467115.000000 0 0 1
-29.949728 -33.445824 -22.795254 50.351097 0.840490 2.040617 0.071694 -0.018952 -589830.000000 0 0 1
-30.645438 33.452226 -23.885654 51.271032 -0.829159 2.055414 0.047538 -0.029705 -38095.300000 0 0 1
-31.881818 32.846326 -23.505554 51.457191 -0.800298 2.045189 0.059573 -0.044411 348821.000000 0 0 1
-32.450788 32.013926 -24.497154 51.749934 -0.778622 2.063915 0.057615 -0.035753 38408.700000 0 0 1
-33.279138 32.683226 -25.586254 53.201040 -0.776364 2.072517 0.057824 -0.045429 -1074220.000000 0 0 1
-32.519828 33.550826 -26.395134 53.664702 -0.801001 2.085013 0.041023 -0.034437 786.550000 0 0 1
-33.335498 -33.168024 -27.098914 54.274528 0.782880 2.093579 0.047135 -0.031273 -48690.500000 0 0 1
-32.646378 -32.492324 -28.244724 54.030561 0.783033 2.120875 0.034277 -0.025159 -429324.000000 0 0 1
-32.469008 -33.175924 -29.470044 54.985106 0.796167 2.136446 0.039712 -0.025307 -90044.200000 0 0 1
-33.546298 -32.980624 -30.361464 55.990126 0.776895 2.143926 0.060829 -0.021816 -49961.500000 0 0 1
-33.456268 33.778326 -31.639954 57.108527 -0.790188 2.157996 0.084087 -0.010918 126429.000000 0 0 1
-32.521748 -33.459324 -32.621214 56.932715 0.799607 2.180932 0.066386 -0.024770 -8868.930000 0 0 1
-32.518008 33.476526 33.754142 57.597229 -0.799921 0.944636 0.075542 -0.038362 -549474.000000 0 0 1
-31.537888 33.791526 32.640259 56.585264 -0.819881 0.955950 0.072723 -0.037425 209434.000000 0 0 1
-30.180148 33.388626 32.771589 55.674220 -0.835828 0.941432 0.078972 -0.031674 362537.000000 0 0 1
-29.951628 32.034426 32.475893 54.570945 -0.818987 0.933390 0.077562 -0.031850 -390271.000000 0 0 1
-28.471958 31.607526 32.566423 53.574807 -0.837541 0.917423 0.078261 -0.027122 -507820.000000 0 0 1
-28.077358 31.482726 -33.675204 53.977027 -0.842511 2.244494 0.079760 -0.031384 295513.000000 0 0 1
-26.777578 30.970326 -33.425144 52.853004 -0.857875 2.255466 0.076878 -0.024579 79841.000000 0 0 1
-26.486338 29.521926 33.647732 52.011923 -0.839544 0.867253 0.099699 -0.025290 -709632.000000 0 0 1
-27.068888 28.516326 -33.150224 51.428036 -0.811432 2.271289 0.102899 -0.022372 200479.000000 0 0 1
-26.526648 27.242126 -33.455884 50.646744 -0.798704 2.292378 0.102959 -0.025053 -178640.000000 0 0 1
-26.321248 26.362726 -32.181164 49.228333 -0.786185 2.283276 0.128092 -0.027418 530515.000000 0 0 1
-25.196578 26.651626 -31.322164 48.231262 -0.813454 2.277613 0.118673 -0.023861 606032.000000 0 0 1
-25.257658 27.887626 -30.574024 48.481336 -0.834844 2.253167 0.107391 -0.028422 756755.000000 0 0 1
-24.036078 28.070026 -29.569824 47.328996 -0.862662 2.245636 0.136064 -0.036113 980705.000000 0 0 1
-22.785278 28.301426 -30.216514 47.256506 -0.892958 2.264533 0.123490 -0.031904 686323.000000 0 0 1
-21.718178 28.277026 -29.247004 46.115688 -0.915843 2.257782 0.089410 -0.036532 663387.000000 0 0 1
-21.322778 29.592926 -28.576744 46.336081 -0.946420 2.235375 0.081872 -0.028712 -588748.000000 0 0 1
-20.763478 30.566226 -29.426154 47.236794 -0.974102 2.243304 0.084507 -0.022263 -160216.000000 0 0 1
-20.522778 31.795926 -28.697904 47.494579 -0.997624 2.219602 0.104521 -0.030335 172485.000000 0 0 1
-19.859378 32.892226 -29.589894 48.495930 -1.027609 2.227049 0.103305 -0.023484 492841.000000 0 0 1
-18.552378 32.621426 -30.081244 48.096044 -1.053696 2.246493 0.098565 -0.020172 50848.900000 0 0 1
-18.104578 33.618226 -30.959024 49.157116 -1.076798 2.252089 0.098862 -0.012373 994693.000000 0 0 1
-16.564678 33.575326 -31.312474 48.807398 -1.112476 2.267316 0.085076 -0.001917 450884.000000 0 0 1
-15.841078 -33.640724 -30.200864 47.903343 1.130707 2.252935 0.086183 -0.010249 1257290.000000 0 0 1
-14.402778 -33.467524 -30.406874 47.456224 1.164402 2.266252 0.105963 -0.006258 1907960.000000 0 0 1
-13.656478 32.879726 -30.235014 46.709012 -1.177131 2.274841 0.103580 -0.009450 -669779.000000 0 0 1
-13.696678 32.458126 -28.862634 45.543173 -1.171486 2.257178 0.101906 -0.014571 -202053.000000 0 0 1
-13.222578 31.148126 -28.673974 44.353569 -1.169344 2.273766 0.090741 -0.011005 -83872.800000 0 0 1
-13.050878 30.660026 -27.219234 43.026147 -1.168363 2.255729 0.075991 -0.019046 638604.000000 0 0 1
-11.772978 31.081926 -26.727574 42.650350 -1.208722 2.248065 0.073402 -0.015511 250560.000000 0 0 1
-11.588478 30.697826 -25.352684 41.465744 -1.209834 2.228641 0.050458 -0.019705 761021.000000 0 0 1
-10.151878 31.079226 -24.867554 41.077660 -1.255077 2.221038 0.067153 -0.025832 1188880.000000 0 0 1
-9.108278 30.330126 -25.503274 40.660721 -1.279060 2.248777 0.085060 -0.017275 1512980.000000 0 0 1
-7.779578 30.875726 -25.243824 40.633520 -1.323970 2.241141 0.102445 -0.032543 1610990.000000 0 0 1
-6.583978 30.042326 -25.760254 40.118335 -1.355051 2.268040 0.100191 -0.030980 59389.300000 0 0 1
-6.397878 28.886726 -24.966554 38.713106 -1.352833 2.271705 0.109969 -0.044028 177771.000000 0 0 1
-5.379678 28.073526 -25.514994 38.315515 -1.381463 2.299520 0.116647 -0.048466 -82034.300000 0 0 1
-5.022478 26.804926 -24.744354 36.824074 -1.385573 2.307650 0.129228 -0.044149 -234789.000000 0 0 1
-6.060178 25.866726 -24.642554 36.236290 -1.340662 2.318630 0.117535 -0.041183 130417.000000 0 0 1
-5.597078 24.828926 -23.827554 34.864813 -1.349077 2.323243 0.125243 -0.050805 -331366.000000 0 0 1
-6.472878 23.597326 -23.844554 34.165695 -1.303076 2.343270 0.114701 -0.047121 -242385.000000 0 0 1
-6.258678 22.923126 -25.067454 34.540093 -1.304263 2.382920 0.122108 -0.050187 703869.000000 0 0 1
-7.106878 21.750226 -25.039554 33.919896 -1.254983 2.401190 0.106980 -0.052440 305900.000000 0 0 1
-7.013278 20.856226 -26.289434 34.282686 -1.246407 2.444704 0.088448 -0.042213 487306.000000 0 0 1
-5.755278 20.173126 -26.389624 33.711875 -1.292885 2.469948 0.108026 -0.055317 -109370.000000 0 0 1
-5.725778 19.006326 -25.655364 32.437982 -1.278187 2.483083 0.110120 -0.048952 -353876.000000 0 0 1
-4.426978 18.185926 -25.759584 31.841517 -1.332012 2.513234 0.110289 -0.058836 -279025.000000 0 0 1
-4.299178 17.530226 -26.990844 32.469946 -1.330299 2.552160 0.112861 -0.051381 -546120.000000 0 0 1
-3.199078 16.679426 -27.037614 31.929139 -1.381300 2.580738 0.110726 -0.053453 -605873.000000 0 0 1
-2.902478 16.322926 -28.548784 33.013563 -1.394820 2.615467 0.105412 -0.040301 -126816.000000 0 0 1
-2.404478 17.497526 -29.194644 34.121433 -1.434233 2.597525 0.126305 -0.046110 121726.000000 0 0 1
-2.215278 17.443126 -30.577994 35.272990 -1.444473 2.619737 0.123354 -0.047342 -4515.090000 0 0 1
-1.408478 18.660926 -31.134604 36.325990 -1.495462 2.600388 0.129958 -0.029667 -192904.000000 0 0 1
-0.015078 18.499926 -30.942074 36.050790 -1.569981 2.602727 0.157897 -0.040530 -424454.000000 0 0 1
0.672222 19.584426 -31.478064 37.079241 1.536485 2.584773 0.173752 -0.027728 -16184.400000 0 0 1
0.668822 20.975926 -30.728594 37.211333 1.538922 2.542391 0.156671 -0.036070 50222.400000 0 0 1
1.423222 20.960226 -29.507964 36.222598 1.502999 2.522885 0.186062 -0.060418 -23595.100000 0 0 1
1.179022 22.184926 -28.882484 36.438426 1.517701 2.485920 0.173247 -0.070110 813936.000000 0 0 1
2.359222 22.536626 -27.876634 35.924534 1.466492 2.459060 0.184054 -0.070226 1040460.000000 0 0 1
3.563922 22.624226 -28.654944 36.683279 1.414553 2.467293 0.172576 -0.069204 457850.000000 0 0 1
4.725822 22.552326 -27.819184 36.122677 1.364236 2.449842 0.148565 -0.064543 295194.000000 0 0 1
5.321822 23.852426 -27.331084 36.663990 1.351277 2.412002 0.153426 -0.067289 -585462.000000 0 0 1
6.077822 24.432626 -28.392314 37.947551 1.326987 2.416140 0.140705 -0.066597 136754.000000 0 0 1
6.352422 25.804726 -28.023114 38.620358 1.329423 2.382709 0.142291 -0.071647 -32555.200000 0 0 1
7.245922 26.597826 -29.028894 40.032792 1.304825 2.382016 0.146134 -0.061771 424893.000000 0 0 1
8.617322 26.244926 -28.912144 39.987079 1.253544 2.378985 0.124566 -0.054715 184679.000000 0 0 1
9.387622 26.983826 -29.816934 41.295325 1.235995 2.377545 0.132705 -0.049531 -761786.000000 0 0 1
10.855022 27.108926 -29.459574 41.480018 1.189926 2.360595 0.134810 -0.046538 -398014.000000 0 0 1
11.640822 27.967926 -30.296564 42.843849 1.176385 2.356240 0.130748 -0.041164 69847.900000 0 0 1
12.886722 28.195426 -29.705224 42.935417 1.142095 2.334856 0.129288 -0.043655 96387.800000 0 0 1
13.916222 29.204426 -30.309064 44.330566 1.126116 2.323625 0.137282 -0.036145 430262.000000 0 0 1
13.593022 30.561026 -30.108514 45.002991 1.152289 2.303704 0.146180 -0.030665 -405242.000000 0 0 1
14.553922 31.252326 -30.785064 46.219527 1.134971 2.299713 0.185946 -0.041732 -695832.000000 0 0 1
14.177422 32.685526 -31.124064 47.308036 1.161536 2.288826 0.188342 -0.048164 -712779.000000 0 0 1
13.075622 32.727426 -31.944854 47.566059 1.190694 2.307148 0.157942 -0.050664 30137.400000 0 0 1
12.111622 33.716226 -31.509314 47.710713 1.225929 2.292180 0.153921 -0.045306 296381.000000 0 0 1
10.859822 -33.819524 -32.369864 48.057300 -1.260086 2.309822 0.114434 -0.041692 -230298.000000 0 0 1
11.088622 -33.230724 -33.622724 48.556422 -1.248729 2.335671 0.093846 -0.027555 1099570.000000 0 0 1
9.813922 -32.969624 33.322978 47.892902 -1.281483 0.801289 0.101392 -0.032574 1153220.000000 0 0 1
9.994722 -32.217924 31.999907 46.496055 -1.269988 0.811752 0.101721 -0.022637 47993.900000 0 0 1
9.899122 -30.834924 32.200752 45.669176 -1.260154 0.788250 0.089383 -0.030695 48994.300000 0 0 1
10.261022 -30.047524 31.106342 44.449374 -1.241720 0.795658 0.100087 -0.031853 -465564.000000 0 0 1
9.809522 -28.582524 31.220652 43.450162 -1.240192 0.769096 0.092135 -0.038556 -226283.000000 0 0 1
8.421122 -28.374424 31.053672 42.899345 -1.282291 0.761397 0.061799 -0.034625 -372432.000000 0 0 1
7.782822 -28.065524 32.242757 43.449296 -1.300285 0.734632 0.073096 -0.037912 -1922.460000 0 0 1
6.232122 -27.968224 32.141273 43.059521 -1.351550 0.728103 0.070444 -0.033728 290956.000000 0 0 1
5.458222 -29.079524 31.747811 43.397401 -1.385255 0.750189 0.111704 -0.043785 -20433.100000 0 0 1
5.781222 -29.902424 30.641132 43.202506 -1.379816 0.782371 0.102549 -0.036241 -854559.000000 0 0 1
5.579822 -29.255724 29.240422 41.737682 -1.382334 0.794592 0.097310 -0.046704 -419655.000000 0 0 1
4.223722 -29.219524 28.901222 41.314659 -1.427239 0.796044 0.154265 -0.054300 -389573.000000 0 0 1
4.018522 -28.445124 27.714202 39.916796 -1.430452 0.803351 0.174854 -0.044950 -69833.900000 0 0 1
2.599922 -28.596724 27.097742 39.481893 -1.480129 0.814361 0.143815 -0.047009 219108.000000 0 0 1
2.294722 -29.953324 26.649932 40.158265 -1.494336 0.845145 0.160235 -0.056014 129573.000000 0 0 1
2.091122 -30.949424 27.673302 41.569837 -1.503333 0.842356 0.206174 -0.064639 -1167830.000000 0 0 1
2.507622 -32.381624 27.270922 42.409444 -1.493511 0.872337 0.232031 -0.060677 490245.000000 0 0 1
3.928822 -32.543924 27.194932 42.592335 -1.450654 0.878257 0.182656 -0.054031 683797.000000 0 0 1
4.347322 -32.150424 25.890292 41.507303 -1.436393 0.897262 0.166646 -0.057515 -695158.000000 0 0 1
5.867922 -31.918624 25.854172 41.493003 -1.388986 0.898100 0.160002 -0.041776 -35759.000000 0 0 1
6.415922 -31.752324 24.552952 40.647529 -1.371419 0.922229 0.106865 -0.049370 444721.000000 0 0 1
7.835922 -31.719124 24.632682 40.917888 -1.328605 0.924789 0.089577 -0.048840 99108.800000 0 0 1
8.599222 -31.631524 23.295882 40.214401 -1.305355 0.952936 0.078545 -0.034742 -916541.000000 0 0 1
9.832122 -31.056824 23.548452 40.196101 -1.264194 0.944881 0.070498 -0.020439 -858647.000000 0 0 1
10.493022 -30.903524 22.314152 39.535461 -1.243469 0.971080 0.084133 -0.034590 -747172.000000 0 0 1
11.633622 -29.928924 22.415452 39.160365 -1.200062 0.961365 0.038708 -0.024150 -968145.000000 0 0 1
12.699222 -30.248224 23.272852 40.222518 -1.173310 0.953782 0.048071 -0.020172 15171.500000 0 0 1
13.659722 -29.202424 23.125152 39.675462 -1.133272 0.948555 0.051805 -0.017067 -145178.000000 0 0 1
14.867022 -29.311524 24.056522 40.729720 -1.101399 0.938947 0.080525 -0.021400 -319542.000000 0 0 1
14.571522 -29.086124 25.421962 41.286899 -1.106366 0.907473 0.078660 -0.022664 167114.000000 0 0 1
15.779922 -29.002924 26.154482 42.121639 -1.072509 0.900871 0.092543 -0.023451 60093.700000 0 0 1
-11.578978 -13.597574 25.704432 31.299913 0.865405 0.607233 0.103606 -0.038339 -899869.000000 0 0 1
-10.267078 -13.856674 25.387582 30.691198 0.933114 0.596700 0.111850 -0.034026 -1668110.000000 0 0 1
-9.499978 -14.154474 26.540282 31.543387 0.979686 0.570947 0.117102 -0.036643 -78443.300000 0 0 1
-7.989278 -14.173574 26.225492 30.862521 1.057515 0.555281 0.136935 -0.029058 -123031.000000 0 0 1
-7.643678 -15.234874 25.391692 30.582106 1.105772 0.591188 0.138756 -0.034151 -182837.000000 0 0 1
-7.940878 -15.028274 24.032592 29.435897 1.084691 0.615581 0.150285 -0.037313 -447772.000000 0 0 1
-7.065778 -15.914474 23.073912 28.906766 1.152956 0.646465 0.149932 -0.048377 115714.000000 0 0 1
-7.582478 -17.187374 22.797742 29.540427 1.155313 0.689212 0.156636 -0.054873 -221241.000000 0 0 1
-7.529078 -18.213874 23.825942 30.920992 1.178817 0.691104 0.163812 -0.053720 -669619.000000 0 0 1
-8.255478 -19.531674 23.578512 31.710967 1.170900 0.732441 0.155267 -0.057431 -95900.900000 0 0 1
-9.644578 -19.279674 23.590412 31.956709 1.106952 0.740400 0.127525 -0.050178 -364456.000000 0 0 1
-10.425178 -20.433874 23.584192 32.900481 1.099029 0.771545 0.111891 -0.043141 -693547.000000 0 0 1
-11.929278 -20.225574 23.580922 33.278242 1.037902 0.783286 0.084998 -0.046703 -641220.000000 0 0 1
-12.425678 -20.082274 24.867102 34.293847 1.016712 0.759590 0.097912 -0.047252 -827495.000000 0 0 1
-13.816878 -20.082274 24.891032 34.839164 0.968160 0.774951 0.101822 -0.041799 -460879.000000 0 0 1
-14.360778 -19.939274 26.391102 36.059629 0.946625 0.749728 0.114255 -0.037865 47745.300000 0 0 1
-13.866878 -20.954274 27.243672 37.061969 0.986192 0.745005 0.106750 -0.038603 686680.000000 0 0 1
-12.760378 -20.655774 28.127172 37.156777 1.017418 0.712108 0.113134 -0.040168 465202.000000 0 0 1
-12.287478 -22.015474 28.686232 38.191139 1.061733 0.721035 0.117079 -0.027572 -153400.000000 0 0 1
-13.203378 -22.745674 29.493502 39.516598 1.044854 0.728224 0.097427 -0.018943 47425.300000 0 0 1
-12.761078 -24.089574 29.641062 40.270898 1.083645 0.743592 0.091697 -0.023461 360376.000000 0 0 1
-13.802278 -24.977054 30.412112 41.704348 1.065960 0.753599 0.082731 -0.018914 609150.000000 0 0 1
-13.819078 -24.567874 31.789995 42.487070 1.058418 0.725410 0.075761 -0.017706 -539587.000000 0 0 1
-14.910878 -25.090264 32.475730 43.663814 1.034586 0.732107 0.069713 -0.019812 -611733.000000 0 0 1
-14.865678 -24.813774 -33.583504 44.323397 1.031046 2.430566 0.072021 -0.017958 98816.800000 0 0 1
-15.116978 -23.502874 -33.064334 43.291550 0.999218 2.439914 0.081284 -0.027003 -789.252000 0 0 1
-16.334378 -22.906074 -33.468044 43.721963 0.951331 2.442575 0.084110 -0.029666 -351381.000000 0 0 1
-16.356978 -21.348874 -33.320994 42.820717 0.917023 2.462513 0.068823 -0.028478 -13782.500000 0 0 1
-16.519078 -20.902574 -31.987494 41.629284 0.902005 2.447117 0.071984 -0.028595 92844.300000 0 0 1
-16.847178 -19.514874 -32.096674 41.168607 0.858632 2.464886 0.061778 -0.034769 -44357.100000 0 0 1
-17.175578 -18.813874 -30.752354 39.933314 0.830888 2.449783 0.063542 -0.022888 113493.000000 0 0 1
-18.381278 -19.254374 -30.145004 40.215961 0.808593 2.418221 0.064505 -0.020774 178842.000000 0 0 1
-18.550578 -18.940274 -28.752734 39.109815 0.795792 2.396728 0.051540 -0.020761 21224.700000 0 0 1
-17.744878 -19.806974 -27.734794 38.424155 0.840256 2.377205 0.036829 -0.010675 -539602.000000 0 0 1
-16.366678 -19.748374 -27.919194 37.912370 0.878763 2.398550 0.032316 -0.016358 -714559.000000 0 0 1
-15.775378 -20.763674 -27.150634 37.645048 0.921079 2.376369 0.015490 -0.012269 340663.000000 0 0 1
-14.240078 -20.931974 -27.297054 37.229780 0.973413 2.393819 0.127028 -0.020706 150584.000000 0 0 1
-13.414478 -19.916174 -26.720904 35.925046 0.978046 2.409528 0.132033 -0.032963 246952.000000 0 0 1
-12.027778 -20.131774 -26.776654 35.594170 1.032252 2.422307 0.125955 -0.037974 128745.000000 0 0 1
-11.455278 -21.225074 -25.819604 35.332409 1.075892 2.390235 0.195999 -0.056320 -690455.000000 0 0 1
-11.393078 -22.537374 -26.283354 36.449282 1.102743 2.376176 0.210061 -0.053530 7312.570000 0 0 1
-10.831378 -23.329374 -25.271994 36.059009 1.136130 2.347386 0.270516 -0.057001 114611.000000 0 0 1
-11.014478 -24.872974 -25.552174 37.321537 1.153922 2.324919 0.255687 -0.050914 -556520.000000 0 0 1
-10.142278 -25.402034 -26.518554 38.096756 1.190919 2.340725 0.263758 -0.057386 -233876.000000 0 0 1
-10.453878 -26.684554 -27.084984 39.432795 1.197416 2.327962 0.243838 -0.037588 -198883.000000 0 0 1
-10.114878 -27.985954 -26.303814 39.716684 1.223978 2.294662 0.251824 -0.038295 -382398.000000 0 0 1
-10.888378 -27.932874 -25.147824 39.130746 1.199109 2.268763 0.196931 -0.048464 -74622.300000 0 0 1
-10.733078 -29.067404 -24.305254 39.380938 1.217078 2.235954 0.167348 -0.053790 1678.290000 0 0 1
-11.698778 -28.908704 -23.092554 38.805162 1.186262 2.208174 0.168281 -0.053589 -127328.000000 0 0 1
-11.615478 -27.689364 -22.309254 37.407526 1.173600 2.209785 0.167344 -0.056315 207077.000000 0 0 1
-12.638478 -26.785804 -22.743454 37.342671 1.129934 2.225655 0.160645 -0.059835 341400.000000 0 0 1
-12.583878 -25.492774 -21.837554 35.848490 1.112261 2.225800 0.170329 -0.058592 61559.600000 0 0 1
-13.060778 -25.792734 -20.555854 35.473824 1.102062 2.188869 0.100113 -0.041527 62058.400000 0 0 1
-12.702778 -24.767374 -19.662454 34.079253 1.096895 2.185801 0.098824 -0.023406 121734.000000 0 0 1
-13.342778 -25.134214 -18.257654 33.809767 1.082766 2.141247 0.121073 -0.025703 -206610.000000 0 0 1
-14.707478 -25.439984 -18.310054 34.623125 1.046617 2.128028 0.140764 -0.038195 -600267.000000 0 0 1
-15.032178 -25.977134 -17.069854 34.527638 1.046209 2.087920 0.125318 -0.033264 -567789.000000 0 0 1
-16.543778 -26.105334 -16.903054 35.226386 1.005943 2.071269 0.120925 -0.039546 -1970090.000000 0 0 1
-17.203978 -24.872074 -16.955954 34.671332 0.965664 2.081795 0.103337 -0.029762 251785.000000 0 0 1
-18.582278 -24.984774 -16.605554 35.288587 0.931311 2.060727 0.118529 -0.029186 825710.000000 0 0 1
-19.532678 -25.760424 -17.582854 36.800567 0.922040 2.068931 0.116066 -0.023531 -1142020.000000 0 0 1
-19.328278 -27.165774 -17.677354 37.736593 0.952398 2.058321 0.120288 -0.035040 -161822.000000 0 0 1
-19.714278 -27.991874 -16.578654 38.040104 0.957200 2.021746 0.128131 -0.041467 826828.000000 0 0 1
-21.227878 -28.419264 -16.351154 39.059411 0.929248 2.002724 0.150554 -0.035186 1310150.000000 0 0 1
-21.630478 -29.337184 -17.384154 40.382629 0.935469 2.015827 0.123521 -0.027524 -210254.000000 0 0 1
-22.944078 -29.789064 -17.151154 41.327728 0.914481 1.998743 0.136164 -0.024785 101626.000000 0 0 1
-23.516678 -30.682704 -18.289754 42.766547 0.916852 2.012704 0.113451 -0.032619 148643.000000 0 0 1
-23.131778 -32.026524 -18.079454 43.447026 0.945280 1.999978 0.113580 -0.037560 108453.000000 0 0 1
-23.384178 -32.725394 -19.278054 44.602854 0.950367 2.017745 0.094497 -0.015178 -38277.200000 0 0 1
-22.834778 33.541352 -19.294754 44.930356 -0.973076 2.014666 0.082367 -0.016080 -401154.000000 0 0 1
-23.462378 32.612614 -18.434254 44.202800 -0.947151 2.000980 0.093168 -0.015192 179574.000000 0 0 1
-22.727378 31.450756 -18.075354 42.806567 -0.945041 2.006730 0.088966 -0.021320 105080.000000 0 0 1
-23.776278 30.327836 -17.921954 42.500417 -0.905903 2.006103 0.111361 -0.033242 453488.000000 0 0 1
-24.335078 30.158476 -16.629154 42.169402 -0.891858 1.976148 0.103059 -0.038691 183361.000000 0 0 1
-25.123338 28.990736 -16.383254 41.713977 -0.856744 1.974419 0.112676 -0.028795 66829.000000 0 0 1
-24.373878 27.676036 -16.048554 40.219460 -0.848755 1.981249 0.111116 -0.030301 -283170.000000 0 0 1
-23.679078 27.175516 -17.137054 39.910976 -0.854044 2.014605 0.087616 -0.024428 56353.500000 0 0 1
-22.941878 25.949776 -16.928254 38.552386 -0.846842 2.025390 0.101759 -0.033624 274992.000000 0 0 1
-22.083878 25.550156 -18.141754 38.335772 -0.858039 2.063754 0.093560 -0.028854 -1085340.000000 0 0 1
-21.691978 24.229906 -18.061654 37.200183 -0.840608 2.077761 0.120266 -0.035759 557027.000000 0 0 1
-20.872278 23.808906 -19.192654 37.025315 -0.851028 2.115735 0.108149 -0.022341 894537.000000 0 0 1
-19.430978 24.381066 -19.207654 36.618756 -0.897906 2.122960 0.091935 -0.028636 -388305.000000 0 0 1
-18.514578 23.970376 -18.167054 35.318697 -0.913116 2.111075 0.114183 -0.029892 141760.000000 0 0 1
-17.333378 24.704496 -18.115354 35.198355 -0.958978 2.111413 0.116636 -0.040764 -438551.000000 0 0 1
-17.353478 26.050676 -17.344954 35.785868 -0.983156 2.076802 0.131543 -0.055745 -242855.000000 0 0 1
-18.217378 27.032686 -17.902954 37.190788 -0.977801 2.073026 0.101563 -0.046123 33655.600000 0 0 1
-17.951978 28.213556 -17.234554 37.620581 -1.004120 2.046670 0.125338 -0.059641 -287115.000000 0 0 1
-19.124778 29.221176 -17.297154 38.972116 -0.991276 2.030669 0.104230 -0.047363 14199.200000 0 0 1
-19.359478 29.746626 -18.577554 40.059664 -0.993850 2.053016 0.090035 -0.047820 358305.000000 0 0 1
-20.129978 28.870156 -19.405454 40.190466 -0.961912 2.074688 0.080529 -0.039970 -445994.000000 0 0 1
-20.434478 29.323306 -20.882754 41.394608 -0.962175 2.099576 0.077821 -0.040672 1714.370000 0 0 1
-21.321678 30.407066 -21.036854 42.681997 -0.959260 2.086186 0.085114 -0.039147 90475.600000 0 0 1
-21.608278 30.503136 -22.400354 43.579064 -0.954458 2.110657 0.084124 -0.036174 124853.000000 0 0 1
-22.174678 31.838635 -22.891354 45.049186 -0.962443 2.103822 0.085631 -0.038681 23593.300000 0 0 1
-21.162278 32.803308 -22.672754 45.143690 -0.997855 2.096978 0.069471 -0.035145 -68099.000000 0 0 1
-21.287778 -33.731114 -23.429954 46.259272 1.007821 2.101908 0.083314 -0.031707 -733549.000000 0 0 1
-20.161178 -32.687674 -23.503954 45.026581 1.018128 2.119992 0.098266 -0.032172 -187605.000000 0 0 1
-19.869378 -31.828394 -22.432854 43.715807 1.012725 2.109649 0.091640 -0.031349 113244.000000 0 0 1
-19.264078 -32.482674 -21.345354 43.380329 1.035498 2.085241 0.101885 -0.040471 -451064.000000 0 0 1
-19.034578 -31.543614 -20.127454 41.981295 1.027854 2.070811 0.123865 -0.044253 -223095.000000 0 0 1
-18.156278 -30.467434 -20.427854 40.929356 1.033379 2.093357 0.099278 -0.041903 273161.000000 0 0 1
-17.872778 -29.764354 -19.239154 39.692543 1.030027 2.076822 0.102519 -0.042028 -311697.000000 0 0 1
-16.685778 -28.816724 -19.417854 38.547008 1.045938 2.098725 0.115763 -0.040447 -214017.000000 0 0 1
-15.449778 -29.441684 -19.628554 38.610731 1.087539 2.104088 0.133161 -0.051108 -541665.000000 0 0 1
-14.382378 -28.546934 -19.772754 37.586461 1.104101 2.124758 0.117356 -0.048426 -1025130.000000 0 0 1
-13.085978 -29.280834 -20.088854 37.844050 1.150513 2.130379 0.163035 -0.057813 -381854.000000 0 0 1
-12.303078 -29.962244 -19.079854 37.591789 1.181169 2.103140 0.154954 -0.051151 192298.000000 0 0 1
-11.560278 -29.029774 -18.368954 36.246190 1.191824 2.102245 0.134506 -0.038398 -1035570.000000 0 0 1
-10.722578 -29.686584 -17.268254 35.978598 1.224185 2.071404 0.126698 -0.013455 -237218.000000 0 0 1
-11.407578 -30.331704 -16.192254 36.226153 1.211067 2.034179 0.145718 -0.029416 -258148.000000 0 0 1
-11.906778 -31.575984 -16.439054 37.537403 1.210200 2.024100 0.150841 -0.029628 -506074.000000 0 0 1
-12.890278 -32.159314 -15.436454 37.929736 1.189578 1.989936 0.149494 -0.041216 -562365.000000 0 0 1
-12.384278 -32.536354 -14.159054 37.582755 1.207100 1.957074 0.133085 -0.034003 258186.000000 0 0 1
-13.421278 -33.025654 -13.295954 38.047430 1.184794 1.927788 0.137896 -0.032056 465004.000000 0 0 1
-12.863978 -33.515914 -11.891254 37.817990 1.204318 1.890656 0.113101 -0.028254 382812.000000 0 0 1
-12.197478 -32.446094 -11.212154 36.431303 1.211210 1.883636 0.095188 -0.016403 230868.000000 0 0 1
-11.852878 -32.817914 -9.846354 36.255439 1.224205 1.845834 0.097029 -0.019354 -454355.000000 0 0 1
-10.599078 -32.085204 -9.334854 35.056244 1.251741 1.840330 0.090977 -0.020767 154094.000000 0 0 1
-9.459578 -32.771764 -9.870054 35.509014 1.289784 1.852465 0.063379 -0.016449 -349587.000000 0 0 1
-8.295678 -32.035434 -9.551954 34.443100 1.317409 1.851806 0.065330 -0.026593 276791.000000 0 0 1
-7.048578 -32.738794 -10.168854 34.998810 1.358736 1.865596 0.062368 -0.035976 311651.000000 0 0 1
-6.667578 33.713916 -9.562754 35.672553 -1.375547 1.842186 0.049081 -0.018149 -823035.000000 0 0 1
-5.459378 33.258489 -10.030654 35.164555 -1.408097 1.860063 0.044970 -0.014734 -446155.000000 0 0 1
-4.624078 32.236299 -9.210654 33.843718 -1.428325 1.846426 0.051848 -0.019752 234588.000000 0 0 1
-3.996878 32.838122 -8.084654 34.054059 -1.449678 1.810491 0.073347 -0.026264 223754.000000 0 0 1
-3.150378 31.867556 -7.444554 32.876852 -1.472258 1.799215 0.076218 -0.032757 422630.000000 0 0 1
-2.622578 32.395835 -6.053854 33.060811 -1.490018 1.754948 0.093824 -0.038493 -777827.000000 0 0 1
-1.650678 33.379383 -6.164454 33.983944 -1.521385 1.753199 0.085339 -0.035980 -298415.000000 0 0 1
-1.139178 33.823376 -4.880654 34.192679 -1.537129 1.714025 0.095622 -0.043060 255104.000000 0 0 1
-0.121078 32.918529 -4.127054 33.176450 -1.567118 1.695517 0.093122 -0.047965 169964.000000 0 0 1
1.180022 33.071123 -4.705954 33.425105 1.535130 1.712057 0.092424 -0.045782 -19615.900000 0 0 1
2.112722 32.282071 -4.063954 32.605390 1.505444 1.695762 0.082372 -0.042711 351595.000000 0 0 1
3.616022 32.462206 -4.452254 32.965027 1.459862 1.706270 0.073183 -0.032585 714685.000000 0 0 1
4.225622 33.684373 -3.976654 34.180501 1.446001 1.687403 0.069198 -0.036862 379463.000000 0 0 1
5.634722 33.494624 -4.167254 34.219964 1.404129 1.692878 0.077687 -0.028464 903488.000000 0 0 1
6.568022 -33.079484 -3.664654 33.923751 -1.374793 1.679034 0.073018 -0.021190 123714.000000 0 0 1
6.335222 -31.927194 -4.434454 32.850344 -1.374914 1.706199 0.071967 -0.024939 -92519.400000 0 0 1
6.622822 -30.729294 -3.741854 31.656796 -1.358522 1.689274 0.067298 -0.029447 40288.800000 0 0 1
6.510922 -29.465964 -4.651154 30.533070 -1.353327 1.723723 0.066045 -0.029542 -25774.200000 0 0 1
7.458522 -29.542884 -5.708754 31.000023 -1.323500 1.756007 0.078718 -0.028703 -8737.540000 0 0 1
7.391522 -28.427804 -6.615954 30.108894 -1.316419 1.792338 0.073203 -0.027087 299189.000000 0 0 1
7.960022 -27.085494 -6.023854 28.866464 -1.284959 1.781021 0.070251 -0.022671 89788.400000 0 0 1
7.105022 -26.478824 -5.066054 27.879641 -1.308643 1.753523 0.060637 -0.023242 -202983.000000 0 0 1
7.566822 -25.226084 -4.661154 26.745812 -1.279376 1.745967 0.052215 -0.023624 -173653.000000 0 0 1
6.613222 -24.657974 -3.581954 25.779464 -1.308765 1.710193 0.046225 -0.022846 350935.000000 0 0 1
5.321122 -24.407974 -4.108354 25.316834 -1.356147 1.733795 0.046844 -0.021161 -192444.000000 0 0 1
4.557422 -23.699374 -3.166754 24.340476 -1.380814 1.701269 0.048671 -0.019420 295136.000000 0 1 0
3.233522 -23.066874 -3.677254 23.580893 -1.431524 1.727377 0.058283 -0.016746 151108.000000 0 1 0
2.294922 -24.000474 -4.093654 24.455008 -1.475466 1.738983 0.073889 -0.020859 -951279.000000 0 1 0
1.075822 -23.350074 -4.327154 23.771992 -1.524755 1.753844 0.099649 -0.023023 -59287.500000 0 1 0
-15.219778 22.835126 17.837352 32.730044 -0.982904 0.994426 0.024805 -0.021250 -123822.000000 0 0 1
-15.654078 22.455726 19.099452 33.378120 -0.962014 0.961592 0.035188 -0.018111 -180333.000000 0 0 1
-15.286278 23.391526 20.062752 34.399823 -0.991967 0.948106 0.040111 -0.022143 -1127340.000000 0 0 1
-15.475978 22.914026 21.491452 35.020580 -0.976777 0.910082 0.062229 -0.024883 -891673.000000 0 0 1
-14.681778 21.855426 21.933052 34.267667 -0.979270 0.876232 0.051319 -0.024477 -87493.300000 0 0 1
-13.278578 22.011726 21.914752 33.780069 -1.027990 0.864858 0.038900 -0.031496 -63767.500000 0 0 1
-12.631578 23.086526 22.861772 34.859792 -1.070151 0.855527 0.064161 -0.017520 -585036.000000 0 0 1
-12.637678 22.758726 24.236202 35.567738 -1.063901 0.821109 0.055611 -0.021323 8761.380000 0 0 1
-12.376078 23.891126 25.069932 36.775735 -1.092837 0.820716 0.086110 -0.022136 -31362.800000 0 0 1
-11.802378 23.443126 26.410682 37.234398 -1.104395 0.782279 0.076540 -0.025351 922438.000000 0 0 1
-10.429578 23.010126 26.375392 36.522641 -1.145234 0.763868 0.050587 -0.021999 568579.000000 0 0 1
-10.010978 22.503726 27.627332 37.012253 -1.152226 0.728104 0.032804 -0.017686 -578345.000000 0 0 1
-8.510578 22.155526 27.547622 36.361639 -1.204046 0.711166 0.029671 -0.020547 481988.000000 0 0 1
-7.617978 23.238026 27.889052 37.092299 -1.254013 0.719884 0.032746 -0.022174 310416.000000 0 0 1
-7.528478 24.324726 26.905912 37.044546 -1.270648 0.757855 0.039943 -0.022056 -809125.000000 0 0 1
-6.524878 25.384326 27.395162 37.913493 -1.319199 0.763283 0.054177 -0.033466 -430117.000000 0 0 1
-5.184878 24.996426 27.327722 37.396640 -1.366272 0.751371 0.059323 -0.036663 -669529.000000 0 0 1
-4.326778 25.959426 27.905412 38.357852 -1.405640 0.756122 0.076149 -0.026144 -1124020.000000 0 0 1
-2.924578 25.463226 27.993872 37.955051 -1.456442 0.741356 0.065647 -0.029349 -1242340.000000 0 0 1
-2.242578 25.467426 26.715362 36.977419 -1.482966 0.763417 0.067014 -0.032347 6599.170000 0 0 1
-0.934278 24.977026 26.889882 36.712266 -1.533408 0.748883 0.078115 -0.022333 -199962.000000 0 0 1
-0.130678 24.889126 25.620212 35.719476 -1.565546 0.770932 0.078845 -0.025206 -113618.000000 0 0 1
-0.434478 23.751926 24.818672 34.355629 -1.552506 0.763522 0.073057 -0.013415 -294152.000000 0 0 1
0.318422 23.795526 23.647152 33.548715 1.557416 0.788570 0.074985 -0.008093 -314405.000000 0 0 1
0.107822 22.627226 22.644512 32.012137 1.566031 0.785022 0.045546 -0.007109 -293534.000000 0 0 1
0.844022 21.517626 22.963762 31.481026 1.531592 0.753282 0.078239 -0.009858 -162132.000000 0 0 1
0.397622 20.348126 22.183252 30.104834 1.551258 0.742372 0.081183 -0.013292 227762.000000 0 0 1
1.165722 19.063726 22.568472 29.565529 1.509724 0.702333 0.090792 -0.007753 -86174.900000 0 0 1
2.534022 19.150826 22.284652 29.492052 1.439241 0.714203 0.078129 -0.015609 -507222.000000 0 0 1
3.182122 17.966026 21.955852 28.547565 1.395495 0.693369 0.075385 -0.015890 -357019.000000 0 0 1
4.649722 18.112226 21.542552 28.526377 1.319506 0.714868 0.072903 -0.022120 -379372.000000 0 0 1
5.569022 18.412826 22.535072 29.628967 1.277090 0.706597 0.066620 -0.015847 -407233.000000 0 0 1
6.836022 18.640826 21.939152 29.589491 1.219302 0.735566 0.066143 -0.017752 220387.000000 0 0 1
7.960322 19.242926 22.818422 30.892351 1.178557 0.739741 0.075984 -0.024308 -316966.000000 0 0 1
7.727222 20.434926 23.456982 32.055049 1.209277 0.749878 0.056982 -0.017718 -89077.500000 0 0 1
7.365222 21.641326 22.774632 32.268830 1.242761 0.787275 0.071118 -0.021932 -674318.000000 0 0 1
5.925422 22.078326 23.001992 32.429227 1.308593 0.782294 0.058892 -0.012443 -468046.000000 0 0 1
5.670422 23.415826 22.618712 33.046342 1.333208 0.816941 0.056868 -0.017001 -568889.000000 0 0 1
4.404022 23.877926 22.965362 33.420931 1.388407 0.813230 0.040685 -0.018023 -731928.000000 0 0 1
4.240622 25.365626 22.419752 34.118077 1.405148 0.853801 0.051287 -0.009568 268.383000 0 0 1
3.999022 25.599626 21.063852 33.391899 1.415835 0.888203 0.058119 -0.022742 -420176.000000 0 0 1
2.908622 24.933526 20.516752 32.420332 1.454666 0.885586 0.054403 -0.021621 -628169.000000 0 0 1
2.585422 25.270126 19.029652 31.739429 1.468840 0.927847 0.058188 -0.028464 -297349.000000 0 0 1
2.023422 26.563026 18.990352 32.715777 1.494769 0.951497 0.082559 -0.036510 10133.300000 0 0 1
1.693022 26.946426 17.712552 32.291031 1.508050 0.990193 0.094160 -0.035303 104817.000000 0 0 1
0.614522 28.062526 17.773452 33.223164 1.548902 1.006322 0.097568 -0.023045 300881.000000 0 0 1
1.142522 29.293426 18.210752 34.511472 1.531813 1.014938 0.120872 -0.025972 361048.000000 0 0 1
0.048322 30.177626 18.300652 35.293134 1.569195 1.025662 0.088476 -0.026799 314736.000000 0 0 1
0.493322 31.533926 18.848552 36.740982 1.555153 1.032107 0.103794 -0.025238 -6308.750000 0 0 1
0.918222 31.455426 20.172152 37.379175 1.541613 1.000760 0.125173 -0.029699 -268163.000000 0 0 1
1.826622 32.512026 20.398552 38.424853 1.514672 1.011171 0.146391 -0.033964 -453915.000000 0 0 1
2.296522 32.515426 21.828652 39.230307 1.500285 0.980722 0.138913 -0.047104 -13319.200000 0 0 1
1.262822 32.780026 22.777612 39.936756 1.532291 0.963874 0.158420 -0.038932 333767.000000 0 0 1
1.739622 32.785726 24.075052 40.712876 1.517786 0.938080 0.174094 -0.056353 -73260.200000 0 0 1
0.535422 32.649126 25.028242 41.142010 1.554399 0.916832 0.194382 -0.033786 -213920.000000 0 0 1
-0.431678 33.684926 24.925162 41.906137 -1.557982 0.933798 0.196345 -0.029427 353922.000000 0 0 1
-1.482378 33.577326 25.870442 42.413607 -1.526677 0.914791 0.188506 -0.026440 -132273.000000 0 0 1
-1.130178 33.792126 27.332822 43.477215 -1.537364 0.890954 0.201443 -0.042957 -1157300.000000 0 0 1
-0.320078 32.806926 27.879192 43.053992 -1.561040 0.866444 0.197332 -0.054064 -175863.000000 0 0 1
-0.175678 32.962826 29.277232 44.087811 -1.565467 0.844552 0.192002 -0.056411 -1094330.000000 0 0 1
0.907422 32.016126 29.765932 43.724895 1.542461 0.822004 0.158652 -0.050601 -288388.000000 0 0 1
2.258022 32.343526 29.496632 43.832108 1.501096 0.832612 0.141996 -0.050897 64305.900000 0 0 1
2.608422 31.770626 28.270212 42.607293 1.488878 0.845301 0.128575 -0.047569 -2147510.000000 0 0 1
4.082522 31.787826 28.038492 42.582742 1.443065 0.852042 0.086012 -0.042022 -1182600.000000 0 0 1
4.746122 30.693326 28.709672 42.294813 1.417381 0.824671 0.074261 -0.035295 157930.000000 0 0 1
6.092322 30.637726 28.269662 42.130280 1.374506 0.835232 0.076178 -0.045333 -330444.000000 0 0 1
6.804122 29.432826 28.889342 41.799299 1.343613 0.807725 0.085438 -0.029056 -121532.000000 0 0 1
7.104222 29.664126 30.352862 43.031693 1.335735 0.787865 0.102976 -0.045721 341964.000000 0 0 1
7.736322 28.535126 30.950922 42.802613 1.306045 0.762505 0.078042 -0.035665 175571.000000 0 0 1
7.865522 28.572826 32.514154 43.993670 1.302170 0.739116 0.114271 -0.045760 -883193.000000 0 0 1
6.582122 28.505326 33.024081 44.118793 1.343865 0.724959 0.112087 -0.049350 -821274.000000 0 0 1
6.522422 28.407126 -33.175584 44.160233 1.345103 2.420757 0.129627 -0.046655 19857.900000 0 0 1
6.580122 26.982126 -32.585414 42.815212 1.331596 2.435759 0.114656 -0.041499 -346514.000000 0 0 1
7.783822 26.327726 -32.893604 42.845376 1.283334 2.446085 0.096479 -0.040959 -269626.000000 0 0 1
7.799322 24.938126 -32.703494 41.859982 1.267687 2.467477 0.098326 -0.041624 -405190.000000 0 0 1
9.170222 24.273526 -32.893494 41.896050 1.209585 2.473689 0.096166 -0.039794 -676884.000000 0 0 1
9.532622 24.225626 33.358903 42.315107 1.195912 0.662682 0.066849 -0.025379 547376.000000 0 0 1
10.751722 23.480426 33.186859 42.051130 1.141391 0.661287 0.079709 -0.040740 286064.000000 0 0 1
10.739522 21.946126 33.493242 41.458016 1.115698 0.630245 0.065440 -0.038047 -1359670.000000 0 0 1
10.060422 21.116426 32.582990 40.109435 1.126185 0.622622 0.057685 -0.030138 -374121.000000 0 0 1
9.876722 19.817026 32.996356 39.736931 1.108433 0.591025 0.059110 -0.029397 -269714.000000 0 0 1
8.715522 19.671926 -33.602214 39.900549 1.153742 2.572053 0.085772 -0.036285 -752280.000000 0 0 1
8.939222 20.198926 -32.331684 39.156661 1.154147 2.542240 0.088602 -0.036305 -214964.000000 0 0 1
7.773722 20.840026 -31.860864 38.856815 1.213764 2.532130 0.101038 -0.040212 -74555.600000 0 0 1
7.798722 21.371426 -30.434794 37.997824 1.220898 2.499696 0.117558 -0.049412 -63699.700000 0 0 1
8.878822 22.255126 -30.208174 38.557203 1.191190 2.471017 0.126964 -0.047742 109871.000000 0 0 1
8.776222 22.868226 -28.947794 37.920346 1.204356 2.439333 0.100948 -0.043233 892385.000000 0 0 1
10.274122 23.183026 -28.519714 38.162604 1.153633 2.414817 0.109216 -0.047370 1357570.000000 0 0 1
10.888322 21.934026 -28.276924 37.406437 1.110023 2.427881 0.094592 -0.033942 -915864.000000 0 0 1
12.276822 21.975926 -28.382484 37.937147 1.061337 2.416058 0.105363 -0.040278 -247290.000000 0 0 1
12.919622 20.530126 -28.475524 37.406660 1.009110 2.436023 0.107059 -0.044324 163181.000000 0 0 1
12.705422 19.773526 -29.722284 37.892404 0.999678 2.472503 0.095748 -0.043502 361391.000000 0 0 1
11.383722 19.268626 -29.898004 37.346482 1.037176 2.499021 0.095421 -0.039884 254803.000000 0 0 1
11.294922 18.274426 -31.088154 37.788930 1.017194 2.536904 0.092442 -0.039720 -625478.000000 0 0 1
11.839222 17.049026 -30.655924 37.021914 0.963824 2.546413 0.103177 -0.036654 177251.000000 0 0 1
11.898522 16.017726 -31.652234 37.416658 0.931897 2.579121 0.087098 -0.027726 503899.000000 0 0 1
13.029122 16.193026 -32.769014 38.804386 0.893249 2.576365 0.075996 -0.010889 345365.000000 0 0 1
12.833722 17.361626 -33.510774 39.863548 0.934243 2.569255 0.072930 -0.019482 148002.000000 0 0 1
13.631222 17.573426 32.923771 39.731728 0.911066 0.594101 0.090323 -0.024970 39918.000000 0 0 1
12.940222 16.960826 31.670123 38.185281 0.919060 0.592799 0.103193 -0.037782 -287151.000000 0 0 1
13.081222 17.760326 30.519902 37.656500 0.935964 0.625822 0.092240 -0.029815 -16474.900000 0 0 1
12.319422 17.337426 29.437982 36.317342 0.953013 0.625661 0.078474 -0.027995 1193440.000000 0 0 1
10.740422 17.482826 29.403162 35.854593 1.019898 0.609269 0.055600 -0.027003 973414.000000 0 0 1
10.088722 16.710626 30.365092 36.098008 1.027638 0.571326 0.073355 -0.024227 -1400470.000000 0 0 1
8.728122 16.927126 30.335732 35.818492 1.094724 0.560613 0.074808 -0.024888 -994962.000000 0 0 1
8.079122 16.006126 31.364882 36.127886 1.103354 0.519308 0.090624 -0.027834 -284925.000000 0 0 1
8.136422 16.565726 32.674858 37.526937 1.114246 0.514164 0.093177 -0.027616 56691.400000 0 0 1
8.231222 15.521526 33.560902 37.881459 1.083196 0.482268 0.121172 -0.037162 -178782.000000 0 0 1
8.211322 16.051326 -32.557154 37.216114 1.097938 2.635847 0.124441 -0.033881 84981.300000 0 0 1
6.911122 16.445226 -32.168024 36.783024 1.172955 2.635271 0.121505 -0.033284 517887.000000 0 0 1
7.162422 17.139726 -30.957914 36.103503 1.174968 2.601142 0.120843 -0.047366 326448.000000 0 0 1
5.825722 17.635826 -30.352954 35.584592 1.251747 2.592465 0.124929 -0.049246 -850221.000000 0 0 1
5.946222 17.960226 -28.986714 34.614403 1.251078 2.563338 0.114837 -0.056390 179779.000000 0 0 1
5.014522 18.928526 -28.512414 34.588904 1.311826 2.539801 0.133489 -0.056523 1370990.000000 0 0 1
3.490722 18.524626 -28.637534 34.284913 1.384543 2.559440 0.165297 -0.066835 -485437.000000 0 0 1
2.943622 17.586826 -27.748024 32.983544 1.404957 2.570422 0.165381 -0.061021 1270710.000000 0 0 1
1.555022 17.274326 -28.057304 32.985341 1.481019 2.587920 0.159052 -0.057631 2029580.000000 0 0 1
0.448622 18.356626 -27.778254 33.298624 1.546362 2.557506 0.157902 -0.063100 -412475.000000 0 0 1
0.242922 18.454626 -26.422604 32.230207 1.557634 2.531873 0.161340 -0.069010 -232597.000000 0 0 1
-0.449378 19.645626 -26.154674 32.714210 -1.547926 2.497242 0.170662 -0.074408 -179551.000000 0 0 1
-0.864978 20.011326 -24.712654 31.810637 -1.527599 2.460472 0.148570 -0.074270 -221965.000000 0 0 1
-1.980978 19.268326 -24.297854 31.073757 -1.468346 2.468570 0.143363 -0.063098 -354180.000000 0 0 1
-2.367778 19.806426 -23.019854 30.460049 -1.451815 2.427579 0.143582 -0.059226 -185488.000000 0 0 1
-3.493478 19.100026 -22.289554 29.560778 -1.389892 2.424964 0.116015 -0.051864 -707945.000000 0 0 1
-4.830478 19.429726 -22.510054 30.125576 -1.327124 2.414646 0.114708 -0.039986 -350233.000000 0 0 1
-5.618178 18.430526 -21.874454 29.150299 -1.274914 2.419467 0.105311 -0.043409 -345081.000000 0 0 1
-7.140078 18.611626 -21.901254 29.614832 -1.204477 2.403178 0.130113 -0.032442 203946.000000 0 0 1
-7.691478 19.613326 -20.983154 29.734393 -1.197071 2.354188 0.091919 -0.028612 202849.000000 0 0 1
-7.693378 20.886026 -21.544954 30.977398 -1.217868 2.339920 0.103849 -0.034937 -86086.800000 0 0 1
-8.241278 21.979126 -20.583054 31.219589 -1.212061 2.290683 0.101568 -0.039562 77848.000000 0 0 1
-7.497078 21.952826 -19.382454 30.229328 -1.241706 2.266832 0.110437 -0.041920 73146.600000 0 0 1
-7.828778 23.025126 -18.539254 30.580225 -1.243049 2.222133 0.105863 -0.038180 767.678000 0 0 1
-7.025978 23.169726 -17.179154 29.687100 -1.276370 2.187898 0.116702 -0.043980 631176.000000 0 0 1
-5.657178 23.457726 -17.417254 29.759525 -1.334150 2.196005 0.118886 -0.048250 -119303.000000 0 0 1
-4.943478 23.695226 -16.239254 29.148157 -1.365119 2.161720 0.115774 -0.036819 1603560.000000 0 0 1
-3.379178 24.008126 -16.294554 29.211666 -1.430963 2.162541 0.112912 -0.038088 1734740.000000 0 0 1
-3.122978 25.370926 -16.619454 30.490050 -1.448320 2.147278 0.086546 -0.039503 -159315.000000 0 0 1
-1.777878 25.430526 -17.043354 30.665101 -1.500999 2.160109 0.088723 -0.042483 148365.000000 0 0 1
-1.305678 26.913026 -17.275354 32.007087 -1.522320 2.140919 0.071752 -0.047686 22940.800000 0 0 1
-2.031578 27.644526 -18.237854 33.180815 -1.497439 2.152742 0.070874 -0.044747 -76087.000000 0 0 1
-1.324478 28.802326 -18.632454 34.329238 -1.524844 2.144513 0.084253 -0.054263 -655233.000000 0 0 1
-2.198078 29.707226 -19.511354 35.609602 -1.496940 2.150677 0.129872 -0.051656 227721.000000 0 0 1
-3.323978 30.227526 -18.824054 35.764468 -1.461271 2.125080 0.095434 -0.048366 513920.000000 0 0 1
-4.488978 29.366426 -18.962454 35.243617 -1.419110 2.138906 0.060687 -0.048213 321149.000000 0 0 1
-5.617178 29.872326 -18.002154 35.326847 -1.384927 2.105503 0.091003 -0.038547 530998.000000 0 0 1
-6.219478 31.091326 -18.463554 36.691352 -1.373363 2.098109 0.126714 -0.043558 161502.000000 0 0 1
-6.063978 32.099426 -17.491354 37.055262 -1.384084 2.062393 0.124550 -0.071178 -25051.300000 0 0 1
-6.313178 33.501826 -18.010454 38.556517 -1.384538 2.056825 0.118455 -0.044092 -80078.700000 0 0 1
-7.670178 33.723926 -18.306154 39.131191 -1.347160 2.057613 0.132091 -0.062707 44521.100000 0 0 1
-8.067778 -32.606324 -18.313754 38.257744 1.328238 2.069963 0.178362 -0.062987 61270.100000 0 0 1
30.675122 -20.051774 -26.232774 45.068783 -0.578959 2.192057 0.073393 0.001733 -174792.000000 0 0 1
30.112822 -21.280974 -25.904444 45.063312 -0.615214 2.183212 0.084344 -0.005103 -625774.000000 0 0 1
28.724422 -21.320274 -26.063754 44.260205 -0.638513 2.200463 0.068791 0.004048 -415629.000000 0 0 1
28.182622 -22.630574 -25.480624 44.222904 -0.676566 2.184851 0.063063 -0.001425 -122867.000000 0 0 1
28.384222 -23.881974 -26.112314 45.363705 -0.699470 2.184160 0.068232 0.014528 248873.000000 0 0 1
29.728922 -24.359774 -25.999874 46.402595 -0.686457 2.165557 0.064217 0.010915 515818.000000 0 0 1
29.896222 -25.734574 -26.681974 47.623315 -0.710729 2.165510 0.070386 0.012805 -221193.000000 0 0 1
29.449622 -26.795314 -25.834534 47.462535 -0.738241 2.146368 0.086504 0.000810 -412612.000000 0 0 1
29.611122 -28.107454 -26.360564 48.597601 -0.759352 2.144118 0.076797 -0.000454 380201.000000 0 0 1
28.575722 -28.579504 -27.461184 48.861811 -0.785464 2.167619 0.097756 -0.009498 -183770.000000 0 0 1
28.551922 -27.990444 -28.772344 49.259771 -0.775468 2.194560 0.063861 -0.017435 -772801.000000 0 0 1
29.598622 -28.161924 -29.652644 50.482192 -0.760530 2.198624 0.058006 -0.017331 -862028.000000 0 0 1
29.990122 -29.553304 -30.219154 51.826658 -0.778062 2.193313 0.079519 -0.009873 -481254.000000 0 0 1
30.496522 -30.496434 -29.248694 52.111001 -0.785397 2.166724 0.094889 -0.016174 -241697.000000 0 0 1
31.719622 -30.293234 -28.602334 52.363231 -0.762401 2.148652 0.086828 -0.013239 289530.000000 0 0 1
33.017522 -30.188774 -29.489824 53.583286 -0.740674 2.153586 0.086284 -0.016928 24093.200000 0 0 1
33.117722 -28.967054 -30.194034 53.362472 -0.718643 2.172235 0.093733 -0.025958 -185787.000000 0 0 1
34.459822 -28.771114 -30.587274 54.321613 -0.695673 2.168901 0.086148 -0.024910 55580.300000 0 0 1
34.638222 -27.429714 -31.278854 54.134669 -0.669777 2.186823 0.078003 -0.011616 -89777.500000 0 0 1
34.513722 -26.168644 -30.604284 53.034113 -0.648735 2.185930 0.066473 -0.005172 -307303.000000 0 0 1
33.187922 -25.860954 -30.274084 51.833843 -0.661946 2.194518 0.071904 -0.003701 -297042.000000 0 0 1
33.029222 -24.499574 -29.570274 50.651355 -0.638203 2.194198 0.069089 -0.009944 217840.000000 0 0 1
33.854122 -24.325374 -28.398584 50.441104 -0.623058 2.168813 0.069876 -0.004755 510832.000000 0 0 1
33.662822 -23.068074 -27.723364 49.334638 -0.600771 2.167532 0.062639 -0.001924 491942.000000 0 0 1
34.636322 -22.833974 -26.481964 49.217472 -0.582850 2.138930 0.063876 -0.004129 129691.000000 0 0 1
34.300322 -23.559874 -25.323554 48.712033 -0.601860 2.117486 0.061592 -0.006492 630911.000000 0 0 1
33.311422 -22.896874 -24.491454 47.262554 -0.602191 2.115541 0.070495 0.001739 531032.000000 0 0 1
33.710122 -21.567474 -23.804854 46.563927 -0.569166 2.107411 0.064641 0.004724 -307081.000000 0 0 1
34.165922 -20.542274 -24.640654 46.866375 -0.541338 2.124409 0.063450 0.000553 85737.800000 0 0 1
34.132022 -19.350074 -23.948554 45.966874 -0.515740 2.118814 0.036867 -0.012592 68252.000000 0 0 1
34.231122 -18.124874 -24.851054 46.020166 -0.486957 2.141238 0.025896 -0.019191 -375431.000000 0 0 1
33.008822 -17.781174 -25.417034 45.296557 -0.494110 2.166541 0.049267 -0.006354 -289753.000000 0 0 1
33.179522 -16.807774 -26.454214 45.642167 -0.468890 2.189034 0.046885 0.005269 -105359.000000 0 0 1
32.009822 -16.857874 -27.443614 45.408904 -0.484737 2.219767 0.035555 0.012607 381318.000000 0 0 1
30.745122 -16.497074 -26.865804 44.036206 -0.492478 2.226963 0.041509 0.008296 355408.000000 0 0 1
29.754822 -16.668574 -27.852854 44.033763 -0.510639 2.255617 0.033766 -0.015012 453304.000000 0 0 1
28.296422 -16.420274 -27.337434 42.633886 -0.525805 2.266875 0.027303 -0.011815 513204.000000 0 0 1
27.866822 -17.335974 -26.392474 42.114825 -0.556512 2.248080 0.051385 -0.004039 -108058.000000 0 0 1
27.843822 -16.791674 -25.045454 41.042825 -0.542671 2.227144 0.062748 0.008320 74018.900000 0 0 1
27.162622 -17.747174 -24.019054 40.369359 -0.578739 2.208040 0.072996 0.009904 -9953.660000 0 0 1
26.937622 -17.093574 -22.771954 39.196781 -0.565445 2.190710 0.088474 -0.001802 310343.000000 0 0 1
26.420822 -18.045874 -21.811154 38.722601 -0.599237 2.169130 0.095215 -0.010163 -79388.300000 0 0 1
26.381722 -17.442674 -20.351954 37.609097 -0.584184 2.142594 0.105633 -0.009438 560001.000000 0 0 1
25.232622 -16.653474 -19.987754 36.242706 -0.583371 2.154954 0.108255 -0.014483 482970.000000 0 0 1
25.203122 -15.369574 -20.657654 36.029985 -0.547615 2.181380 0.101565 -0.009120 171115.000000 0 0 1
26.439822 -14.429974 -20.458354 36.411984 -0.499587 2.167426 0.088759 -0.016477 414431.000000 0 0 1
26.461122 -13.809174 -19.203954 35.491916 -0.480987 2.142517 0.098593 -0.033832 -504814.000000 0 0 1
27.680222 -13.204074 -18.942654 36.046725 -0.445097 2.124102 0.075426 -0.032170 -619893.000000 0 0 1
27.721822 -12.259974 -17.763354 35.133220 -0.416390 2.100874 0.088197 -0.027090 -89093.700000 0 0 1
27.762522 -12.865174 -16.497654 34.762666 -0.433942 2.065283 0.087658 -0.024160 37292.500000 0 0 1
27.975422 -12.004774 -15.390954 34.111879 -0.405354 2.038895 0.077679 -0.014984 -85227.600000 0 0 1
28.477322 -12.740874 -14.112854 34.241209 -0.420693 1.995620 0.097686 -0.018916 -344193.000000 0 0 1
27.668022 -13.836874 -13.803454 33.874974 -0.463730 1.990492 0.132147 -0.031520 54113.700000 0 0 1
28.159622 -14.512974 -12.659254 34.115208 -0.475878 1.950961 0.133963 -0.035500 -261405.000000 0 0 1
27.365422 -15.724074 -12.245154 33.853458 -0.521531 1.940898 0.136462 -0.060108 48829.600000 0 0 1
26.092622 -15.493774 -11.663954 32.510457 -0.535847 1.937752 0.123581 -0.050099 301418.000000 0 0 1
25.302822 -16.616574 -11.418854 32.353262 -0.581077 1.931511 0.099613 -0.045289 -492432.000000 0 0 1
23.871322 -16.217274 -11.050254 30.902235 -0.596740 1.936480 0.115964 -0.051707 -705325.000000 0 0 1
23.681922 -15.827274 -9.728354 30.099450 -0.589151 1.899913 0.098744 -0.031743 -1135200.000000 0 0 1
22.365022 -15.665874 -9.439454 28.891471 -0.611037 1.903629 0.100767 -0.031531 -1821300.000000 0 0 1
22.219122 -15.278074 -7.956454 28.114304 -0.602362 1.857721 0.081574 -0.019008 -378208.000000 0 0 1
22.486522 -13.921674 -7.666054 27.535887 -0.554354 1.852927 0.103088 -0.018121 575271.000000 0 0 1
22.103922 -13.604674 -6.336354 26.717408 -0.551729 1.810240 0.088753 -0.011759 486678.000000 0 0 1
23.026622 -14.368274 -5.262754 27.647228 -0.557869 1.762319 0.091724 -0.011832 547705.000000 0 0 1
24.386422 -13.955174 -5.303754 28.593256 -0.519766 1.757366 0.122514 -0.024351 471831.000000 0 0 1
25.114122 -14.665474 -4.337654 29.404260 -0.528537 1.718855 0.125214 -0.035501 -78233.200000 0 0 1
26.655822 -14.533774 -4.407354 30.678791 -0.499180 1.714956 0.124624 -0.031928 1012.980000 0 0 1
27.152522 -13.289174 -4.033954 30.498105 -0.455153 1.703454 0.144886 -0.031757 -611411.000000 0 0 1
28.539422 -13.364574 -3.971754 31.762955 -0.437955 1.696168 0.146714 -0.050524 -791790.000000 0 0 1
29.200122 -12.163974 -3.300754 31.804157 -0.394711 1.674767 0.176732 -0.054283 -814379.000000 0 0 1
29.366122 -12.303174 -1.873354 31.894305 -0.396742 1.629566 0.192332 -0.056191 431477.000000 0 0 1
29.859822 -11.141074 -1.245854 31.894900 -0.357115 1.609867 0.191026 -0.048704 190721.000000 0 0 1
31.281622 -10.578674 -1.528154 33.057276 -0.326102 1.617040 0.222999 -0.051661 -122683.000000 0 0 1
31.346522 -10.003474 -2.828454 33.025355 -0.308909 1.656546 0.205895 -0.060160 -761614.000000 0 0 1
32.657722 -9.763674 -3.168754 34.232983 -0.290511 1.663493 0.236283 -0.064657 -998366.000000 0 0 1
32.649022 -9.433874 -4.658854 34.302501 -0.281287 1.707034 0.198572 -0.062706 -117659.000000 0 0 1
32.013522 -10.492874 -5.373754 34.115147 -0.316730 1.728973 0.178002 -0.059895 487678.000000 0 0 1
31.734522 -10.209374 -6.778954 34.018604 -0.311255 1.771411 0.161521 -0.054205 171477.000000 0 0 1
30.574722 -11.186374 -7.149954 33.332723 -0.350742 1.786979 0.158163 -0.041881 281012.000000 0 0 1
30.974622 -12.577074 -7.223254 34.202126 -0.385706 1.783592 0.162288 -0.045840 710682.000000 0 0 1
29.805122 -13.389674 -7.333154 33.487368 -0.422222 1.791568 0.160980 -0.042038 413676.000000 0 0 1
30.097422 -14.869774 -7.578654 34.415127 -0.458880 1.792829 0.172202 -0.033180 35094.500000 0 0 1
30.692322 -15.141074 -8.846654 35.348749 -0.458288 1.823753 0.191550 -0.045912 413979.000000 0 0 1
30.701322 -16.553374 -9.042254 36.032593 -0.494494 1.824454 0.176319 -0.040462 -15745.900000 0 0 1
30.807222 -17.086374 -10.470854 36.751434 -0.506385 1.859709 0.152960 -0.042645 475787.000000 0 0 1
32.059622 -16.825774 -11.116654 37.874873 -0.483312 1.868693 0.161861 -0.033678 691004.000000 0 0 1
32.259322 -17.586574 -12.331554 38.755886 -0.499122 1.894611 0.135724 -0.024434 201470.000000 0 0 1
31.675622 -16.939874 -13.635354 38.421703 -0.491092 1.933589 0.133602 -0.027875 85869.800000 0 0 1
32.472622 -15.825974 -13.956054 38.726013 -0.453487 1.939471 0.118055 -0.031318 -75311.500000 0 0 1
31.933222 -15.017774 -14.945454 38.322719 -0.439596 1.971416 0.100254 -0.029814 -1429430.000000 0 0 1
32.736322 -13.747474 -15.326954 38.672669 -0.397582 1.978307 0.087653 -0.026370 -102478.000000 0 0 1
33.780022 -13.978274 -16.237454 40.001712 -0.392349 1.988780 0.061221 -0.029176 -295014.000000 0 0 1
34.907722 -14.586374 -15.654654 40.943614 -0.395803 1.963131 0.076074 -0.033926 -1188420.000000 0 0 1
36.022522 -14.660374 -16.739954 42.341171 -0.386507 1.977255 0.084382 -0.035744 -592517.000000 0 0 1
37.293222 -15.015474 -16.303054 43.382467 -0.382774 1.956054 0.094293 -0.042181 -386154.000000 0 0 1
-37.465710 -15.612274 -17.342754 44.138346 0.394827 1.974599 0.106219 -0.043215 1014240.000000 0 0 1
-35.894510 -15.635074 -17.116354 42.729860 0.410801 1.982937 0.135567 -0.053385 1201230.000000 0 0 1
-35.489010 -16.531674 -16.111454 42.336096 0.435936 1.961199 0.125621 -0.057594 79522.300000 0 0 1
-35.377310 -15.979674 -14.796454 41.543219 0.424261 1.934962 0.117361 -0.053624 -298920.000000 0 0 1
-34.874210 -16.905774 -13.670354 41.096159 0.451385 1.909901 0.102179 -0.049586 -716021.000000 0 0 1
-33.515110 -17.199674 -13.770054 40.108674 0.474145 1.921244 0.133479 -0.052633 -666128.000000 0 0 1
-33.057510 -17.808174 -12.571554 39.597651 0.494128 1.893870 0.136019 -0.031686 925895.000000 0 0 1
-31.548010 -18.256574 -12.692154 38.596246 0.524604 1.905876 0.183291 -0.035542 1394400.000000 0 0 1
-30.653410 -17.126374 -12.721454 37.346748 0.509506 1.918384 0.179677 -0.052294 454817.000000 0 0 1
-29.580910 -17.120874 -11.779454 36.151211 0.524671 1.902695 0.187353 -0.044174 140627.000000 0 0 1
-29.843610 -16.535374 -10.398754 35.667825 0.505961 1.866637 0.195735 -0.054612 -235268.000000 0 0 1
-30.743110 -17.338374 -9.661254 36.593686 0.513510 1.837978 0.167332 -0.047725 -304797.000000 0 0 1
-30.994210 -16.699174 -8.385154 36.191356 0.494191 1.804610 0.190531 -0.045244 -165255.000000 0 0 1
-31.706910 -17.640574 -7.356554 37.022113 0.507716 1.770835 0.170976 -0.027514 765276.000000 0 0 1
-32.961910 -18.132074 -7.855854 38.431420 0.502914 1.776660 0.121310 -0.021111 485824.000000 0 0 1
-32.791510 -19.197774 -8.812354 39.006348 0.529652 1.798685 0.120784 -0.015553 -467093.000000 0 0 1
-34.136710 -19.844474 -9.215954 40.546910 0.526574 1.800091 0.083944 -0.009170 481796.000000 0 0 1
-35.030010 -19.016374 -9.971254 41.087102 0.497345 1.815930 0.084573 -0.006824 542294.000000 0 0 1
-36.309510 -19.674174 -10.029554 42.497595 0.496562 1.809047 0.074188 -0.016615 1066060.000000 0 0 1
-37.322110 -18.722174 -10.798554 43.128511 0.464957 1.823870 0.070945 -0.038592 36949.300000 0 0 1
-37.233810 -18.649874 -12.178554 43.387689 0.464356 1.855311 0.065683 -0.042421 2637.650000 0 0 1
37.230822 -17.826974 -12.678854 43.182039 -0.446563 1.868802 0.094904 -0.041548 -57998.800000 0 0 1
36.689322 -18.213974 -14.075054 43.312381 -0.460794 1.901772 0.091569 -0.046145 17228.000000 0 0 1
35.860122 -19.361074 -14.122954 43.130701 -0.495060 1.904395 0.063250 -0.040648 20170.800000 0 0 1
35.304022 -19.383174 -15.445754 43.135284 -0.502103 1.937004 0.054947 -0.038680 737128.000000 0 0 1
33.963722 -20.200774 -15.492054 42.445370 -0.536569 1.944416 0.077673 -0.043806 631953.000000 0 0 1
32.828622 -19.700074 -14.787854 41.042563 -0.540484 1.939392 0.100379 -0.036359 436853.000000 0 0 1
31.662622 -20.497674 -14.859354 40.539816 -0.574530 1.946081 0.136429 -0.040593 206800.000000 0 0 1
30.819222 -20.181874 -16.113154 40.209032 -0.579775 1.983115 0.146998 -0.050665 -1048140.000000 0 0 1
30.173722 -18.974374 -16.012454 39.075300 -0.561354 1.993014 0.135945 -0.042072 -260190.000000 0 0 1
29.494022 -18.620374 -17.176854 38.880072 -0.563136 2.028390 0.125844 -0.041597 -154790.000000 0 0 1
28.721122 -17.300274 -17.071554 37.624996 -0.542148 2.041742 0.115334 -0.027512 -450284.000000 0 0 1
27.595422 -17.392874 -16.268854 36.451269 -0.562388 2.033443 0.141823 -0.037235 -394840.000000 0 0 1
26.787322 -16.230074 -16.327254 35.320747 -0.544736 2.051335 0.112894 -0.029479 -81690.400000 0 0 1
25.431422 -16.316474 -15.522254 33.969470 -0.570438 2.045356 0.105381 -0.028940 1049730.000000 0 0 1
24.404922 -17.018074 -16.226854 33.889908 -0.608926 2.070096 0.099172 -0.033546 547643.000000 0 0 1
23.850322 -16.320674 -17.377954 33.722330 -0.600108 2.112183 0.100741 -0.024480 -1152530.000000 0 0 1
22.707522 -17.113174 -17.986954 33.645547 -0.645823 2.134832 0.090957 -0.018483 346661.000000 0 0 1
21.364922 -16.878574 -17.546654 32.391839 -0.668622 2.143254 0.067108 -0.018548 678892.000000 0 0 1
20.455022 -17.405374 -18.525454 32.627403 -0.705022 2.174613 0.058647 -0.022588 -15904.900000 0 0 1
19.029922 -17.509574 -17.981754 31.497089 -0.743814 2.178401 0.059641 -0.016641 -433994.000000 0 0 1
18.471222 -16.220774 -17.703354 30.293701 -0.720620 2.194925 0.067271 -0.020529 867386.000000 0 0 1
17.063222 -16.454774 -17.512654 29.472126 -0.767247 2.207080 0.069082 -0.023055 696206.000000 0 0 1
16.155022 -15.246474 -17.273454 28.139153 -0.756473 2.231735 0.087336 -0.029492 -448303.000000 0 0 1
15.604822 -14.770674 -18.481754 28.341816 -0.757944 2.281150 0.091371 -0.028917 1846930.000000 0 0 1
14.225722 -14.331274 -18.213954 27.193836 -0.789094 2.304712 0.107066 -0.023112 1861180.000000 0 0 1
13.343622 -13.871574 -19.395754 27.325228 -0.804795 2.360027 0.096684 -0.020945 244653.000000 0 0 1
13.800522 -12.697274 -20.056654 27.458051 -0.743787 2.389773 0.126780 -0.024639 -129728.000000 0 0 1
13.000322 -12.502774 -21.199154 27.834006 -0.765891 2.436618 0.124569 -0.017693 107456.000000 0 0 1
13.259222 -11.206874 -21.996854 28.022537 -0.701709 2.473444 0.140692 -0.018821 -259506.000000 0 0 1
14.610222 -11.080774 -22.384054 28.935930 -0.648872 2.455256 0.138468 -0.019056 -154121.000000 0 0 1
14.763722 -9.718374 -22.761254 28.818206 -0.582160 2.481315 0.128006 -0.032457 -733263.000000 0 0 1
16.198622 -9.395374 -23.093954 29.732123 -0.525592 2.460260 0.113057 -0.025999 -790744.000000 0 0 1
16.581422 -9.681474 -24.422654 31.066711 -0.528478 2.475328 0.145722 -0.022665 118620.000000 0 0 1
17.915222 -9.286874 -24.670954 31.872515 -0.478242 2.456011 0.133551 -0.029114 1701.680000 0 0 1
22.029222 5.632626 -7.432754 23.921934 0.250326 1.886735 0.171297 0.023195 -285535.000000 0 1 0
21.616722 6.977726 -7.484154 23.916185 0.312234 1.889075 0.175927 0.005346 541641.000000 0 1 0
21.410522 7.500226 -6.184754 23.514145 0.336947 1.836950 0.177232 0.002434 -256346.000000 0 1 0
21.111122 8.991726 -6.151754 23.756572 0.402653 1.832731 0.145284 0.008933 397816.000000 0 1 0
19.846622 9.421926 -6.715554 22.973023 0.443234 1.867452 0.045186 -0.016161 1200500.000000 0 1 0
19.538722 10.828126 -6.629154 23.301409 0.506053 1.859277 0.054391 -0.007930 -238018.000000 0 1 0
19.371422 11.341826 -5.111554 23.022098 0.529684 1.794690 0.102048 -0.011521 1076870.000000 0 1 0
20.609422 11.318626 -4.304654 23.903758 0.502226 1.751867 0.135659 -0.013106 2067490.000000 0 1 0
21.482122 12.454026 -4.563454 25.246969 0.525389 1.752548 0.208523 -0.034303 28814.100000 0 0 1
22.386422 12.842226 -3.455654 26.038744 0.520828 1.703901 0.172719 -0.046241 -596676.000000 0 0 1
23.408122 11.956426 -3.112854 26.468588 0.472235 1.688675 0.161971 -0.069383 -73178.000000 0 0 1
24.176922 12.380226 -2.016354 27.237093 0.473255 1.644894 0.162486 -0.073252 -274008.000000 0 0 1
25.123722 11.284326 -1.536654 27.584393 0.422147 1.626533 0.149531 -0.067325 -103028.000000 0 0 1
26.276422 11.109426 -2.359154 28.625781 0.399998 1.653304 0.119534 -0.049281 307298.000000 0 0 1
27.112022 10.120826 -1.794054 28.995025 0.357276 1.632710 0.167974 -0.048680 -232229.000000 0 0 1
28.548222 10.015326 -2.316854 30.342636 0.337406 1.647227 0.155002 -0.050151 -179518.000000 0 0 1
29.341022 11.123026 -1.909454 31.436655 0.362356 1.631573 0.134854 -0.058357 -880694.000000 0 0 1
30.671922 10.862926 -2.138954 32.608973 0.340381 1.636437 0.121510 -0.050602 -678475.000000 0 0 1
31.688022 11.923226 -1.609154 33.895183 0.359883 1.618289 0.099606 -0.045380 -407411.000000 0 0 1
31.737222 11.971826 -0.173554 33.920584 0.360713 1.575913 0.132586 -0.057422 527992.000000 0 0 1
32.753022 12.845026 0.321146 35.183210 0.373745 1.561668 0.121310 -0.054525 101567.000000 0 0 1
34.217622 12.345526 0.244946 36.377434 0.346259 1.564063 0.131421 -0.051805 -283446.000000 0 0 1
35.149122 13.346026 0.615246 37.602603 0.362882 1.554434 0.127350 -0.066080 232496.000000 0 0 1
35.803122 13.902226 -0.541154 38.411304 0.370377 1.584885 0.132466 -0.039440 -209366.000000 0 0 1
35.144922 15.181026 -1.141554 38.300552 0.407747 1.600606 0.086723 -0.014493 -711654.000000 0 0 1
33.896022 15.059626 -1.723554 37.130894 0.418094 1.617231 0.090727 -0.009630 -717729.000000 0 0 1
33.507422 16.195026 -2.444954 37.296166 0.450220 1.636398 0.062636 0.009113 -118983.000000 0 0 1
32.176522 16.070326 -3.199054 36.108419 0.463202 1.659508 0.082907 -0.015784 -421115.000000 0 0 1
32.174722 15.208826 -4.362254 35.854573 0.441566 1.692764 0.050790 -0.013610 989705.000000 0 0 1
30.891222 14.969526 -4.972854 34.685496 0.451242 1.714662 0.038906 -0.020632 1035140.000000 0 0 1
29.916222 13.927526 -4.341654 33.283724 0.435711 1.701613 0.066057 -0.038602 947254.000000 0 0 1
28.796522 13.631426 -5.211954 32.283431 0.442118 1.732950 0.096194 -0.039696 870545.000000 0 0 1
27.723222 12.891326 -4.682254 30.930355 0.435258 1.722761 0.096056 -0.022263 723649.000000 0 0 1
26.583622 12.796126 -5.787554 30.065355 0.448620 1.764505 0.083970 -0.021095 355803.000000 0 0 1
26.998522 11.967926 -6.859654 30.318415 0.417252 1.799026 0.080594 -0.004007 249852.000000 0 0 1
26.105422 11.945426 -7.952654 29.789780 0.429143 1.841033 0.094957 0.000468 -144157.000000 0 0 1
25.876322 13.259826 -8.764454 30.368120 0.473543 1.863568 0.105655 0.009487 -400904.000000 0 0 1
24.845922 14.033926 -8.223654 29.696791 0.514164 1.851384 0.111824 -0.013249 -302184.000000 0 0 1
24.648722 15.142626 -9.006554 30.298129 0.550895 1.872623 0.103483 -0.021751 -308397.000000 0 0 1
23.452222 15.941226 -8.421654 29.581306 0.596993 1.859485 0.094276 -0.012481 1357450.000000 0 0 1
22.087822 15.497426 -8.539254 28.301254 0.611817 1.877300 0.125821 -0.032915 1136040.000000 0 0 1
21.702722 14.237226 -8.073054 27.182365 0.580589 1.872342 0.151926 -0.037626 -1291110.000000 0 0 1
20.211622 13.993026 -8.290154 25.943036 0.605557 1.896053 0.178051 -0.039085 -658448.000000 0 0 1
19.450522 14.668026 -7.332054 25.440771 0.646133 1.863144 0.238208 -0.068314 -693740.000000 0 0 1
18.099722 14.615626 -7.686654 24.501043 0.679301 1.889913 0.244526 -0.064392 -665809.000000 0 1 0
17.176622 15.158726 -6.571654 23.832960 0.723074 1.850154 0.230250 -0.040005 -183810.000000 0 1 0
17.070022 14.242426 -5.537854 22.910700 0.695340 1.814929 0.186883 -0.044334 446282.000000 0 1 0
16.534022 14.895126 -4.393554 22.683518 0.733300 1.765718 0.164665 -0.027441 -16432.400000 0 1 0
16.233522 13.924726 -3.215454 21.627861 0.708991 1.720021 0.119317 -0.017703 -125787.000000 0 1 0
17.400322 13.403826 -2.618654 22.119926 0.656380 1.689459 0.111886 -0.022139 155885.000000 0 1 0
17.138922 12.455926 -1.600254 21.247437 0.628462 1.646183 0.094549 -0.020661 -70576.700000 0 1 0
16.976022 13.082426 -0.206954 21.433106 0.656581 1.580452 0.102556 -0.022184 -745860.000000 0 1 0
15.910722 13.953126 -0.068754 21.162361 0.719941 1.574045 0.098853 -0.025376 -358943.000000 0 1 0
16.066522 14.904226 0.933646 21.934922 0.747887 1.528219 0.096534 -0.014388 544399.000000 0 1 0
14.738422 15.671926 1.329046 21.554506 0.816085 1.509097 0.085746 -0.010749 299425.000000 0 1 0
14.398822 16.664626 0.449246 22.028111 0.858210 1.550401 0.087100 -0.013877 -19536.300000 0 1 0
13.443622 17.478826 1.060246 22.076333 0.915159 1.522751 0.069947 -0.019131 -335059.000000 0 1 0
13.632822 18.869426 0.409146 23.282536 0.945141 1.553222 0.071895 -0.020255 96475.100000 0 1 0
13.243622 18.918326 -0.986154 23.114262 0.960042 1.613474 0.076594 -0.025953 73779.800000 0 1 0
12.836922 20.220826 -1.434554 23.994298 1.005155 1.630619 0.083905 -0.023883 -676298.000000 0 1 0
11.324622 20.368526 -1.440754 23.349512 1.063369 1.632539 0.064780 -0.024924 -577587.000000 0 1 0
10.853522 20.518526 -0.124754 23.212592 1.084248 1.576171 0.054039 -0.022823 -167457.000000 0 1 0
9.468622 20.272026 0.029846 22.374332 1.133831 1.569462 0.041520 -0.029279 293644.000000 0 1 0
9.028822 20.241526 1.505446 22.214981 1.151228 1.502977 0.026071 -0.027112 -43775.300000 0 1 0
8.927822 21.546726 2.122546 23.419492 1.177983 1.480040 0.033787 -0.016513 130865.000000 0 1 0
7.912222 21.553726 3.095246 23.167799 1.218976 1.436794 0.030099 -0.024529 -295754.000000 0 1 0
7.471722 22.974926 3.303146 24.384106 1.256373 1.434915 0.033048 -0.022169 196548.000000 0 1 0
8.305322 23.701026 4.218246 25.465872 1.233747 1.404386 0.040959 -0.022524 355641.000000 0 0 1
7.747222 24.966526 4.480346 26.522073 1.269913 1.401053 0.036126 -0.025622 105648.000000 0 0 1
7.955622 25.483926 5.936046 27.348840 1.268201 1.352006 0.044162 -0.030209 392019.000000 0 0 1
7.209422 24.816826 6.989646 26.771361 1.288073 1.306649 0.036350 -0.022316 355854.000000 0 0 1
7.844222 25.003526 8.257846 27.475446 1.266796 1.265523 0.050725 -0.014142 87722.700000 0 0 1
7.394922 24.055726 9.399246 26.864636 1.272557 1.213359 0.055911 -0.022866 143946.000000 0 0 1
6.109022 24.311226 9.928746 26.961748 1.324610 1.193667 0.061172 -0.020322 62494.200000 0 0 1
5.692622 23.316226 10.869646 26.347705 1.331332 1.145549 0.060339 -0.028892 -99552.700000 0 0 1
4.404322 23.768026 11.604046 26.813635 1.387570 1.123237 0.043589 -0.026795 -233730.000000 0 0 1
3.336622 23.766026 10.706946 26.279188 1.431313 1.151158 0.038379 -0.017731 26384.800000 0 0 1
2.068522 23.900426 11.363946 26.545215 1.484464 1.128410 0.039374 -0.019804 234455.000000 0 0 1
0.879822 23.863426 10.401546 26.046676 1.533944 1.159997 0.064448 -0.021687 -433472.000000 0 0 1
0.806122 25.048226 9.680546 26.865897 1.538625 1.202176 0.063690 -0.025895 262798.000000 0 0 1
-0.121678 24.997626 8.591046 26.432975 -1.565929 1.239771 0.065023 -0.028766 30663.300000 0 0 1
-1.461178 25.655526 8.882446 27.188948 -1.513904 1.237994 0.084601 -0.036605 -331664.000000 0 0 1
-2.405778 24.871326 9.557846 26.753001 -1.474367 1.205461 0.071909 -0.028872 -389834.000000 0 0 1
-3.737578 25.271426 9.434546 27.232795 -1.423963 1.217022 0.085216 -0.033783 -443013.000000 0 0 1
-4.790578 24.365926 10.113446 26.812866 -1.376663 1.184040 0.074916 -0.036530 -6501.380000 0 0 1
-4.980078 24.441526 11.475146 27.456663 -1.369793 1.139623 0.050923 -0.019534 94749.100000 0 0 1
-5.817978 25.521226 11.841046 28.729640 -1.346660 1.145979 0.063026 -0.025569 -214106.000000 0 0 1
-6.162278 25.630626 13.359646 29.553051 -1.334848 1.101727 0.034088 -0.010106 478696.000000 0 0 1
-7.159278 24.667026 13.764846 29.140838 -1.288321 1.078835 0.035588 -0.017523 494400.000000 0 0 1
-7.432378 24.708926 15.175046 29.934149 -1.278608 1.039156 0.026264 -0.006556 -85083.100000 0 0 1
-8.604178 23.825926 15.627146 29.764313 -1.224244 1.018046 0.031554 -0.012228 -170623.000000 0 0 1
-9.852478 24.270426 15.153146 30.261241 -1.185175 1.046338 0.037793 -0.008392 -519576.000000 0 0 1
-10.829878 23.252826 15.311246 29.873306 -1.134927 1.032657 0.043345 -0.010448 -430254.000000 0 0 1
-12.191578 23.883326 15.078446 30.763735 -1.098813 1.058549 0.043917 -0.016085 -856557.000000 0 0 1
-12.693478 24.730626 16.065546 32.106542 -1.096590 1.046756 0.052457 -0.022513 -25423.700000 0 0 1
-13.768878 25.480526 15.519046 32.858484 -1.075378 1.078899 0.039081 -0.023938 -184568.000000 0 0 1
-14.459878 26.442026 16.443546 34.331604 -1.070373 1.071324 0.042541 -0.021331 -632890.000000 0 0 1
-15.424778 25.937926 17.311746 34.790751 -1.034297 1.049971 0.044970 -0.026157 -531559.000000 0 0 1
-15.954078 26.977526 18.008746 36.147399 -1.036736 1.049271 0.052377 -0.028559 -418602.000000 0 0 1
-17.374478 26.739326 18.549346 36.890951 -0.994581 1.043943 0.048005 -0.029116 -780434.000000 0 0 1
-18.400078 26.780226 17.639546 36.971570 -0.968796 1.073432 0.047978 -0.035422 -679976.000000 0 0 1
-19.562978 26.282226 18.277946 37.517314 -0.930926 1.061931 0.062527 -0.034354 823683.000000 0 0 1
-20.876678 26.412626 17.415246 37.904529 -0.901933 1.093420 0.084022 -0.039200 730383.000000 0 0 1
-21.540678 27.683726 17.438846 39.172731 -0.909553 1.109423 0.063186 -0.035596 668527.000000 0 0 1
-22.554578 27.762726 16.435746 39.365107 -0.888537 1.140081 0.076464 -0.039168 312908.000000 0 0 1
-23.552978 28.980426 16.504446 40.828968 -0.888347 1.154655 0.077050 -0.036499 441102.000000 0 0 1
-24.697878 28.667226 17.285446 41.600260 -0.859642 1.142290 0.079870 -0.038483 92199.300000 0 0 1
-25.635148 29.725926 17.236246 42.870499 -0.859157 1.157038 0.076904 -0.033248 -487334.000000 0 0 1
-26.963158 29.366726 17.879246 43.693065 -0.828042 1.149218 0.080079 -0.032732 -783795.000000 0 0 1
-27.904448 28.776926 16.982746 43.533704 -0.800790 1.170050 0.121874 -0.030738 -286016.000000 0 0 1
-29.241518 28.796426 17.368046 44.563994 -0.777729 1.170455 0.165739 -0.032776 -156498.000000 0 0 1
-29.661988 27.740326 18.442246 44.603539 -0.751934 1.144534 0.148903 -0.029979 -678748.000000 0 0 1
-29.692668 26.382526 17.940946 43.584054 -0.726436 1.146543 0.178324 -0.040766 195080.000000 0 0 1
-29.940358 25.414826 18.948346 43.604796 -0.703825 1.121261 0.172650 -0.040900 -103178.000000 0 0 1
-30.154138 24.052026 18.349946 42.714079 -0.673298 1.126747 0.163982 -0.049129 -292295.000000 0 0 1
-31.384298 23.911926 17.687346 43.238832 -0.651078 1.149371 0.189727 -0.046256 -156427.000000 0 0 1
-31.277628 23.072726 16.562346 42.248692 -0.635566 1.167970 0.178274 -0.040666 -243327.000000 0 0 1
-31.660568 21.603026 16.815346 41.854966 -0.598770 1.157366 0.162408 -0.036210 -464389.000000 0 0 1
-33.030758 21.382626 16.653546 42.726903 -0.574514 1.170418 0.170818 -0.033098 -535413.000000 0 0 1
-33.373318 20.029026 16.664246 42.339548 -0.540530 1.166267 0.137872 -0.028858 689037.000000 0 0 1
-34.878386 19.850726 16.254346 43.298463 -0.517420 1.185965 0.145116 -0.033635 642713.000000 0 0 1
-35.085728 20.146226 14.895246 43.113189 -0.521233 1.218034 0.125117 -0.028442 120748.000000 0 0 1
-36.338288 19.628526 14.494746 43.770399 -0.495258 1.233270 0.129233 -0.034578 60905.100000 0 0 1
-36.574698 19.880726 12.994746 43.609806 -0.497889 1.268223 0.126459 -0.029037 -75629.300000 0 0 1
-36.561838 21.299626 12.755846 44.194498 -0.527501 1.278001 0.140385 -0.038057 34525.300000 0 0 1
-36.667918 21.639226 11.364246 44.067430 -0.533138 1.309966 0.088092 -0.028818 273089.000000 0 0 1
-35.525790 21.129026 10.422346 42.627958 -0.536552 1.323797 0.113619 -0.027794 -230191.000000 0 0 1
-35.827413 19.890226 9.789746 42.131505 -0.506802 1.336291 0.132854 -0.032830 30799.100000 0 0 1
-34.765705 19.558926 8.945346 40.880619 -0.512460 1.350195 0.141397 -0.031231 -230044.000000 0 0 1
-33.689208 18.607426 9.490546 39.639242 -0.504627 1.329025 0.112799 -0.022870 -152275.000000 0 0 1
-33.180668 19.164626 10.715446 39.787691 -0.523774 1.298114 0.122788 -0.023249 56572.600000 0 0 1
-32.269808 18.269826 11.332046 38.775537 -0.515164 1.274220 0.115485 -0.021114 208708.000000 0 0 1
-31.825858 18.692126 12.793146 39.063351 -0.531048 1.237143 0.103406 -0.001573 1296450.000000 0 0 1
-30.626908 19.521426 12.782746 38.503145 -0.567463 1.232381 0.125906 -0.009386 980450.000000 0 0 1
-30.946238 20.840926 13.148146 39.558660 -0.592688 1.231980 0.150815 -0.021682 99449.100000 0 0 1
-29.657278 21.663326 13.298646 39.060310 -0.630875 1.223386 0.157719 -0.026649 -286845.000000 0 0 1
-28.924848 21.261126 14.396646 38.677458 -0.633862 1.189393 0.151459 -0.029237 -429386.000000 0 0 1
-27.804958 22.116726 14.527546 38.383784 -0.671944 1.182641 0.157302 -0.033467 -90371.900000 0 0 1
-27.201528 22.029126 15.948546 38.465070 -0.680718 1.143267 0.135680 -0.036158 -296503.000000 0 0 1
-26.441068 20.858426 16.114246 37.334608 -0.667914 1.124512 0.138071 -0.031933 -253749.000000 0 0 1
-26.004018 20.718726 17.403746 37.528188 -0.672757 1.088572 0.128228 -0.027874 -183515.000000 0 0 1
-24.989878 19.588426 17.630746 36.318640 -0.664818 1.063923 0.128462 -0.025126 94029.000000 0 0 1
-24.421778 19.541626 18.950146 36.570568 -0.674846 1.026074 0.115631 -0.025707 53523.900000 0 0 1
-23.703678 18.363026 19.151546 35.578741 -0.659117 1.002394 0.102322 -0.022833 83349.000000 0 0 1
-23.011978 18.328326 20.571446 35.897953 -0.672584 0.960569 0.098460 -0.024226 901725.000000 0 0 1
-23.949478 17.905026 21.583446 36.878348 -0.641974 0.945595 0.113930 -0.013626 757266.000000 0 0 1
-23.312778 17.980126 22.824546 37.252254 -0.656967 0.911321 0.127865 -0.017899 -34538.900000 0 0 1
-24.137478 17.284726 23.918546 38.124486 -0.621446 0.892612 0.136322 -0.013885 -103587.000000 0 0 1
-23.784478 15.938226 24.158646 37.461562 -0.590383 0.869915 0.126289 -0.017617 316132.000000 0 0 1
-24.796678 15.284726 24.905746 38.324852 -0.552393 0.863398 0.132242 -0.022262 262955.000000 0 0 1
21.177822 24.115026 32.748982 45.853358 0.850157 0.775300 0.131425 -0.026001 -19081.500000 0 0 1
22.226222 23.264826 32.325746 45.609330 0.808225 0.783067 0.146036 -0.038256 -114224.000000 0 0 1
22.129422 21.950926 32.807001 45.253219 0.781349 0.759813 0.150960 -0.039716 -101359.000000 0 0 1
21.199422 20.918626 32.124504 43.806258 0.778731 0.747587 0.142572 -0.042937 -240891.000000 0 0 1
21.534022 20.555826 30.795002 42.832094 0.762162 0.768477 0.172015 -0.043162 -457498.000000 0 0 1
20.782822 19.479726 30.323992 41.604446 0.753044 0.754135 0.161861 -0.051661 -406044.000000 0 0 1
21.216222 18.889226 28.986632 40.585167 0.727441 0.775291 0.161892 -0.045170 -451433.000000 0 0 1
22.417522 18.198826 29.146162 41.027324 0.681902 0.780718 0.163765 -0.039455 -592086.000000 0 0 1
22.712722 17.658626 27.867772 40.053808 0.660856 0.801321 0.142554 -0.042989 -90851.700000 0 0 1
23.935022 16.700126 27.900702 40.376091 0.609199 0.807897 0.153621 -0.036689 590107.000000 0 0 1
25.145722 17.433126 28.145932 41.574208 0.606204 0.827111 0.157946 -0.030812 408329.000000 0 0 1
26.140022 16.464326 28.515892 42.042014 0.562080 0.825389 0.137470 -0.020188 296407.000000 0 0 1
27.502322 17.057626 28.917072 43.399740 0.555158 0.841566 0.099678 -0.027750 711989.000000 0 0 1
28.491922 17.189526 27.856142 43.396245 0.542851 0.873820 0.099113 -0.014818 375546.000000 0 0 1
29.680222 17.816326 28.245202 44.678054 0.540622 0.886415 0.080188 -0.006681 138384.000000 0 0 1
30.768122 17.699126 27.147742 44.687093 0.522016 0.917878 0.075939 0.005029 153117.000000 0 0 1
30.340322 18.331826 25.991292 43.956095 0.543507 0.938125 0.085764 -0.002000 67029.000000 0 0 1
31.201022 17.919126 24.966492 43.794116 0.521317 0.964184 0.071398 0.002776 -186207.000000 0 0 1
31.630822 19.186626 24.095102 44.149853 0.545244 0.993504 0.094998 -0.014469 503677.000000 0 0 1
30.634222 19.602926 23.140402 43.106943 0.569244 1.004140 0.088637 -0.018835 847904.000000 0 0 1
31.162022 20.615026 22.216852 43.469983 0.584447 1.034350 0.083814 -0.020471 -42381.800000 0 0 1
31.932922 19.952126 21.090252 43.157822 0.558465 1.060223 0.091691 -0.022883 -730100.000000 0 0 1
31.158022 19.227826 20.186152 41.809238 0.552903 1.066929 0.102541 -0.030805 -102596.000000 0 0 1
31.779122 18.910726 18.952752 41.554001 0.536785 1.097189 0.109486 -0.033150 -46937.900000 0 0 1
32.938722 17.894226 18.971352 42.012795 0.497652 1.102282 0.145528 -0.049492 30169.700000 0 0 1
32.459622 16.638926 19.405952 41.316727 0.473680 1.081859 0.148169 -0.049870 631127.000000 0 0 1
33.576122 15.763726 19.537652 41.923393 0.438945 1.085995 0.149023 -0.044344 -5410.380000 0 0 1
33.135022 14.346326 20.110652 41.330196 0.408598 1.062620 0.141999 -0.042756 408325.000000 0 0 1
32.541322 14.207126 21.405252 41.460402 0.411644 1.028293 0.116833 -0.044450 878625.000000 0 0 1
31.392022 15.031626 21.659252 40.994293 0.446573 1.014143 0.108460 -0.027397 208203.000000 0 0 1
30.482222 14.488726 22.801502 40.730794 0.443707 0.976640 0.089153 -0.026074 262776.000000 0 0 1
29.911022 13.195126 22.600102 39.743493 0.415467 0.965934 0.086348 -0.020806 -33372.700000 0 0 1
28.999322 12.849226 23.600812 39.535574 0.417090 0.931101 0.070417 -0.005587 -115717.000000 0 0 1
28.580222 11.360826 23.392982 38.641029 0.378355 0.920538 0.089267 -0.007275 176079.000000 0 0 1
27.614122 11.187826 22.348552 37.244664 0.384937 0.927236 0.106501 -0.008388 375927.000000 0 0 1
27.142522 9.821326 22.438752 36.560533 0.347186 0.910004 0.088593 -0.002667 309948.000000 0 0 1
26.034622 9.541826 21.381752 35.014673 0.351303 0.913914 0.093441 -0.017952 842946.000000 0 0 1
24.663522 9.583726 21.809752 34.289976 0.370622 0.881442 0.101592 -0.014669 1009770.000000 0 0 1
23.847922 8.905226 20.869452 32.917480 0.357382 0.884091 0.105975 -0.019186 205720.000000 0 0 1
22.323322 9.020626 21.119052 32.026813 0.384027 0.850752 0.089702 -0.015576 85964.100000 0 0 1
21.828722 8.170526 22.107852 32.124877 0.358158 0.811812 0.080119 -0.005908 -267297.000000 0 0 1
20.446222 8.329126 22.263752 31.354378 0.386841 0.781201 0.109744 -0.009863 -453635.000000 0 0 1
19.959022 7.755326 23.579932 31.851544 0.370608 0.737269 0.104632 -0.014899 -233571.000000 0 0 1
20.076122 6.382326 23.624512 31.652841 0.307803 0.728216 0.094698 -0.019355 126332.000000 0 0 1
19.766622 5.802326 24.839582 32.270593 0.285521 0.692381 0.102789 -0.029330 -147534.000000 0 0 1
20.052622 4.324926 24.860452 32.231269 0.212425 0.689892 0.091355 -0.029325 1678150.000000 0 0 1
21.458622 3.968326 24.643972 32.917252 0.182863 0.724751 0.094590 -0.028112 1490520.000000 0 0 1
21.637022 2.597026 24.780282 32.999510 0.119456 0.721329 0.085036 -0.034852 303981.000000 0 0 1
23.107122 2.100426 24.676042 33.871196 0.090650 0.754629 0.076546 -0.026691 168951.000000 0 0 1
23.960122 2.724326 25.603062 35.171383 0.113216 0.755467 0.074860 -0.033492 -587328.000000 0 0 1
25.280422 2.367826 25.280762 35.830480 0.093390 0.787575 0.087101 -0.034690 -248982.000000 0 0 1
26.271622 2.882926 26.346462 37.318165 0.109298 0.786968 0.077752 -0.036795 -637904.000000 0 0 1
26.248722 2.166326 27.593742 38.145812 0.082344 0.762118 0.077669 -0.040182 -2593.750000 0 0 1
26.873722 2.731726 28.750122 39.449066 0.101302 0.754242 0.087142 -0.023940 -297377.000000 0 0 1
28.400122 2.672726 28.640972 40.422960 0.093833 0.783380 0.076742 -0.028449 -1005890.000000 0 0 1
28.941122 3.835326 27.966262 40.427838 0.131754 0.806876 0.079211 -0.015089 407174.000000 0 0 1
30.275722 3.574326 27.532412 41.078326 0.117515 0.836262 0.079850 -0.006942 349240.000000 0 0 1
30.556522 2.679626 26.369282 40.450222 0.087470 0.860716 0.101532 -0.010693 -498754.000000 0 0 1
30.046322 3.067726 25.102082 39.272216 0.101747 0.877363 0.076650 -0.005280 147448.000000 0 0 1
30.505822 2.142326 24.165692 38.976601 0.070112 0.902047 0.099116 -0.000607 -286314.000000 0 0 1
30.273722 2.622426 22.743972 37.956075 0.086408 0.928272 0.098599 -0.005233 -32959.100000 0 0 1
31.110222 3.638426 22.254652 38.423347 0.116424 0.953054 0.104260 -0.009334 -25919.000000 0 0 1
32.445522 3.275926 21.951352 39.310374 0.100626 0.978327 0.098108 -0.010158 120573.000000 0 0 1
33.222522 4.386726 21.239352 39.674796 0.131281 1.005891 0.109175 -0.010693 -448432.000000 0 0 1
32.675722 4.645426 19.934852 38.557504 0.141221 1.027435 0.107064 -0.023990 182188.000000 0 0 1
33.220022 5.831726 19.330152 38.874589 0.173778 1.050377 0.133356 -0.017896 -1383690.000000 0 0 1
34.672722 5.953026 18.989752 39.978080 0.170034 1.075828 0.135832 -0.024685 -1126650.000000 0 0 1
35.580922 5.842226 20.068252 41.265826 0.162743 1.062927 0.127981 -0.017327 97032.700000 0 0 1
35.798222 7.103326 20.692252 41.954014 0.195882 1.055017 0.134403 -0.017353 -613981.000000 0 0 1
36.556322 7.052426 22.023052 43.256401 0.190578 1.036625 0.153258 -0.023371 -74787.500000 0 0 1
35.871622 6.279226 22.991732 43.067641 0.173291 1.007647 0.156028 -0.011801 153546.000000 0 0 1
36.490422 6.284826 24.237372 44.254945 0.170559 0.991212 0.156682 -0.012068 -147333.000000 0 0 1
35.700222 5.351426 25.165452 44.005041 0.148791 0.962005 0.163970 -0.006085 71610.100000 0 0 1
35.866122 3.999526 24.829442 43.804978 0.111054 0.968158 0.159827 -0.009942 220429.000000 0 0 1
35.170722 3.147426 25.726422 43.689070 0.089252 0.941158 0.149715 -0.010543 54291.300000 0 0 1
35.249822 1.623926 25.246922 43.388872 0.046037 0.949763 0.134962 -0.007493 -358529.000000 0 0 1
34.203422 1.171326 24.455632 42.063334 0.034232 0.950348 0.147003 -0.009305 -607641.000000 0 0 1
34.422322 -0.103074 24.060002 41.997507 -0.002994 0.960767 0.132825 -0.015476 -399537.000000 0 0 1
33.520022 -0.746374 23.015702 40.667819 -0.022263 0.969219 0.124468 -0.003022 -808843.000000 0 0 1
32.246022 -1.060874 23.460212 39.891264 -0.032888 0.942084 0.118736 -0.002591 -810551.000000 0 0 1
31.520522 -1.912774 22.589782 38.826541 -0.060609 0.949840 0.112741 -0.009919 605595.000000 0 0 1
30.035522 -2.037974 23.029062 37.902818 -0.067748 0.917784 0.105921 -0.003754 419900.000000 0 0 1
29.254722 -0.853074 22.934172 37.182560 -0.029152 0.906127 0.107205 -0.010836 -136222.000000 0 0 1
27.890622 -1.185174 22.910782 36.113645 -0.042468 0.883554 0.105594 -0.009980 -604867.000000 0 0 1
26.858522 -0.111074 22.767282 35.209966 -0.004135 0.867658 0.106852 -0.022851 -528395.000000 0 0 1
26.921122 0.522926 21.505752 34.460378 0.019422 0.896853 0.096500 -0.025543 87398.300000 0 0 1
26.261722 1.744326 21.614652 34.057509 0.066323 0.883239 0.094092 -0.018775 -268525.000000 0 0 1
26.698322 2.671426 20.457552 33.740901 0.099728 0.919380 0.091700 -0.023953 -298568.000000 0 0 1
26.092122 2.401326 19.219152 32.495246 0.091774 0.937947 0.096968 -0.031756 449389.000000 0 0 1
24.846622 3.080426 19.064452 31.468985 0.123348 0.920004 0.096237 -0.030055 112229.000000 0 0 1
24.382022 3.146426 17.580252 30.223307 0.128338 0.950005 0.104951 -0.035436 -378434.000000 0 0 1
25.264322 3.943926 16.841452 30.618214 0.154857 0.988376 0.100745 -0.022809 185332.000000 0 0 1
24.828822 4.201526 15.483852 29.561342 0.167632 1.019506 0.077710 -0.011206 -347543.000000 0 0 1
24.690422 2.958626 14.561052 28.816569 0.119260 1.041065 0.090483 -0.011536 -302861.000000 0 0 1
23.446622 2.314526 14.533952 27.682791 0.098396 1.018061 0.108762 -0.014722 -30044.200000 0 0 1
23.508422 1.257826 13.603952 27.189990 0.053454 1.046817 0.117335 -0.015984 -263370.000000 0 0 1
22.197822 0.481726 13.351352 25.908184 0.021698 1.029400 0.186798 -0.037372 511889.000000 0 0 1
21.258822 1.125926 12.403552 24.638452 0.052913 1.043241 0.215364 -0.033016 1491710.000000 0 1 0
21.506522 0.843826 11.013352 24.177189 0.039216 1.097833 0.223503 -0.028551 -845089.000000 0 1 0
21.275822 -0.595474 10.478252 23.723595 -0.027981 1.113325 0.237354 -0.027728 268281.000000 0 1 0
22.205122 -1.623074 10.877252 24.779355 -0.072965 1.116351 0.235077 -0.048889 1041270.000000 0 1 0
23.518822 -1.599174 10.332552 25.738182 -0.067891 1.157699 0.254717 -0.033354 67886.800000 0 0 1
24.541722 -2.454274 11.096152 27.045225 -0.099673 1.148034 0.238763 -0.040276 -117900.000000 0 0 1
24.689522 -1.972274 12.399452 27.698534 -0.079714 1.106653 0.196243 -0.045631 53194.800000 0 0 1
25.459022 -2.823174 13.241352 28.835144 -0.110440 1.093692 0.124470 -0.019736 4025.930000 0 0 1
25.870522 -1.999474 14.431252 29.690787 -0.077134 1.063230 0.138974 -0.045148 421943.000000 0 0 1
26.808422 -0.960674 14.065852 30.289645 -0.035819 1.087864 0.099751 -0.030677 264526.000000 0 0 1
27.155422 -0.318774 15.240452 31.141451 -0.011738 1.059401 0.087201 -0.038237 -355787.000000 0 0 1
28.419222 0.537226 15.227652 32.246274 0.018901 1.078978 0.118104 -0.031622 421456.000000 0 0 1
29.642622 -0.203674 15.100152 33.267719 -0.006871 1.099661 0.158079 -0.037762 1041530.000000 0 0 1
30.781222 0.658726 15.183852 34.328806 0.021397 1.112628 0.165126 -0.041471 1738720.000000 0 0 1
32.166322 -0.110874 15.435952 35.678470 -0.003447 1.123377 0.180363 -0.035368 1211090.000000 0 0 1
32.731822 -0.764074 14.329252 35.739103 -0.023339 1.158253 0.184139 -0.039869 426432.000000 0 0 1
34.062022 -1.138474 14.671252 37.104759 -0.033411 1.164292 0.145637 -0.033335 202832.000000 0 0 1
34.785822 -1.925474 13.583652 37.393535 -0.055296 1.199030 0.132081 -0.041750 -203339.000000 0 0 1
35.052322 -1.139374 12.442052 37.212473 -0.032494 1.229879 0.145068 -0.043287 319686.000000 0 0 1
35.918322 -1.754074 11.495552 37.753813 -0.048796 1.261396 0.145745 -0.049394 1027.610000 0 0 1
35.634422 -1.453474 9.993252 37.037680 -0.040766 1.297597 0.198241 -0.041192 -768862.000000 0 0 1
35.865322 -0.124374 9.564952 37.119067 -0.003468 1.310173 0.154304 -0.038762 170214.000000 0 0 1
34.944922 0.870626 9.932352 36.339472 0.024909 1.293952 0.175396 -0.040075 -419178.000000 0 0 1
35.332622 2.244226 9.313352 36.608322 0.063432 1.313564 0.191719 -0.044919 -80813.800000 0 0 1
35.536622 2.216326 7.909652 36.473637 0.062287 1.352200 0.190632 -0.049976 432101.000000 0 0 1
35.623622 3.494926 7.398652 36.551293 0.097794 1.366970 0.194620 -0.046269 -173568.000000 0 0 1
36.045822 3.417126 5.914252 36.687279 0.094517 1.408883 0.164693 -0.040187 -198823.000000 0 0 1
36.305822 4.702226 5.441152 37.011212 0.128800 1.423248 0.150237 -0.027098 148849.000000 0 0 1
36.633322 4.627926 4.081152 37.149345 0.125665 1.460716 0.179702 -0.028327 -415007.000000 0 0 1
36.939322 6.097926 3.536252 37.605895 0.163604 1.476623 0.204545 -0.049950 -113147.000000 0 0 1
35.905722 7.056026 3.686052 36.777648 0.194043 1.470402 0.194176 -0.052555 -100833.000000 0 0 1
36.297122 8.418826 3.544952 37.428925 0.227912 1.475943 0.189489 -0.057479 -669086.000000 0 0 1
35.102422 9.426726 3.531652 36.517335 0.262359 1.473933 0.203417 -0.064057 143229.000000 0 0 1
34.324622 9.491626 2.377652 35.692070 0.269784 1.504131 0.211041 -0.064803 -122897.000000 0 0 1
33.401522 8.419426 2.341152 34.525779 0.246923 1.502935 0.241709 -0.049576 -1091190.000000 0 0 1
32.330622 8.599726 1.269352 33.478884 0.259974 1.532872 0.238669 -0.058562 -65538.100000 0 0 1
32.693422 7.980226 -0.006348 33.653290 0.239411 1.570985 0.257610 -0.051087 747826.000000 0 0 1
31.517422 7.741426 -0.771448 32.463406 0.240856 1.594562 0.243216 -0.045797 338577.000000 0 0 1
31.925422 7.111826 -2.137748 32.777746 0.219185 1.636062 0.212627 -0.041478 -137629.000000 0 0 1
30.822222 6.720326 -2.935748 31.682657 0.214675 1.663590 0.253603 -0.048623 607792.000000 0 0 1
31.218722 6.506026 -4.277648 32.175072 0.205461 1.704140 0.212595 -0.036733 -559845.000000 0 0 1
30.271922 5.646826 -5.095948 31.212892 0.184417 1.734795 0.257647 -0.030362 -537400.000000 0 0 1
30.286022 4.247726 -4.849348 30.964536 0.139345 1.728053 0.264461 -0.028827 1178850.000000 0 0 1
29.108922 3.725726 -5.481248 29.853885 0.127300 1.755446 0.248411 -0.029366 295410.000000 0 0 1
29.020422 2.174026 -5.302048 29.580788 0.074774 1.751010 0.284794 -0.022820 -334358.000000 0 0 1
28.868922 1.772326 -3.953748 29.192258 0.061315 1.706652 0.317223 -0.041567 536158.000000 0 0 1
28.663222 0.385826 -3.720048 28.906192 0.013460 1.699848 0.276461 -0.043737 -22662.700000 0 0 1
28.591322 0.052326 -2.236448 28.678705 0.001830 1.648858 0.285378 -0.036075 359904.000000 0 0 1
29.908022 0.283426 -1.745548 29.960258 0.009476 1.629091 0.267436 -0.034704 602690.000000 0 0 1
30.062922 0.251926 -0.342348 30.065927 0.008380 1.582183 0.274987 -0.027164 -216179.000000 0 0 1
31.413222 0.754426 0.205352 31.422951 0.024012 1.564261 0.298527 -0.029412 267782.000000 0 0 1
32.472022 -0.161474 -0.067848 32.472495 -0.004973 1.572886 0.256390 -0.028433 521911.000000 0 0 1
33.722722 0.330626 0.401252 33.726730 0.009804 1.558899 0.189259 -0.032935 376569.000000 0 0 1
-3.057678 -21.138874 -8.605154 23.027159 1.427146 1.953787 0.095006 -0.012010 293937.000000 0 1 0
-3.418378 -21.522874 -7.286454 22.978508 1.413287 1.893465 0.102481 -0.022292 283141.000000 0 1 0
-2.479278 -22.465674 -6.708054 23.576499 1.460883 1.859305 0.097345 -0.023321 465181.000000 0 1 0
-2.929578 -23.138374 -5.412054 23.942788 1.444855 1.798808 0.107700 -0.021816 -271817.000000 0 1 0
-2.714078 -22.386574 -4.240754 22.945782 1.450148 1.756681 0.105226 -0.028101 -308182.000000 0 1 0
-3.166178 -23.079174 -3.098254 23.500471 1.434460 1.703019 0.112773 -0.035774 -325857.000000 0 1 0
-2.587178 -22.541774 -1.811754 22.761975 1.456524 1.650476 0.104629 -0.039100 16004.400000 0 1 0
-1.189778 -22.698974 -1.690054 22.792878 1.518429 1.645013 0.103745 -0.029019 -597602.000000 0 1 0
-0.823678 -22.324074 -0.443954 22.343675 1.533917 1.590667 0.075069 -0.033731 227564.000000 0 1 0
0.699222 -22.227974 -0.158854 22.239536 -1.539350 1.577939 0.067278 -0.033595 400331.000000 0 1 0
1.297822 -21.170974 -0.902854 21.229923 -1.509571 1.613337 0.056516 -0.030249 151939.000000 0 1 0
2.559922 -20.802174 -0.352354 20.962056 -1.448352 1.587606 0.049630 -0.033390 194492.000000 0 1 0
3.400522 -19.802074 -1.115954 20.122898 -1.400730 1.626282 0.046396 -0.027266 164893.000000 0 1 0
4.274322 -20.453774 -2.040354 20.994993 -1.364786 1.668133 0.029482 -0.009929 -689670.000000 0 1 0
5.139022 -19.507374 -2.518054 20.329481 -1.313209 1.694977 0.035027 -0.001401 -849701.000000 0 1 0
6.094022 -20.094174 -3.578754 21.300714 -1.276339 1.739608 0.026838 0.004535 -1390810.000000 0 1 0
6.984322 -21.014574 -3.069054 22.356479 -1.249926 1.708509 0.041046 -0.002411 -32703.400000 0 1 0
7.939822 -21.579174 -3.976354 23.334800 -1.218230 1.742036 0.031185 0.000304 245666.000000 0 1 0
8.965922 -20.667274 -4.649754 23.003134 -1.161477 1.774334 0.042590 -0.006203 -1218760.000000 0 1 0
8.627622 -19.940974 -5.772954 22.481221 -1.162457 1.830496 0.035464 0.005934 -196673.000000 0 1 0
9.602622 -18.921974 -6.016654 22.055647 -1.101178 1.847093 0.048609 -0.013311 93497.000000 0 1 0
9.528422 -17.986074 -7.248254 21.606177 -1.083620 1.912902 0.046733 0.004113 147857.000000 0 1 0
10.728822 -17.213974 -7.276754 21.549470 -1.013448 1.915244 0.064723 -0.016987 557565.000000 0 1 0
10.928922 -16.323974 -8.429754 21.376955 -0.980834 1.976144 0.077792 -0.003822 -40055.900000 0 1 0
11.235322 -16.969474 -9.857254 22.613292 -0.985969 2.021840 0.074218 0.007709 -358415.000000 0 1 0
10.142122 -17.581374 -10.472554 22.839478 -1.047560 2.047135 0.066165 -0.007060 -503397.000000 0 1 0
9.239122 -16.744374 -11.114554 22.119420 -1.066592 2.097260 0.042147 -0.023863 -178704.000000 0 1 0
8.675222 -17.243974 -12.477354 22.984744 -1.104682 2.144628 0.049776 -0.031951 223962.000000 0 1 0
7.535222 -18.080674 -12.356354 23.159659 -1.175929 2.133564 0.048478 -0.021843 389930.000000 0 1 0
7.084622 -18.417474 -13.679854 24.011115 -1.203576 2.176974 0.055656 -0.019553 -148985.000000 0 1 0
5.909722 -19.388074 -13.712454 24.471486 -1.274931 2.165598 0.069437 -0.003844 -156422.000000 0 1 0
6.312722 -20.709974 -13.408054 25.466240 -1.274927 2.125278 0.072201 -0.003820 -671776.000000 0 0 1
5.209422 -21.462674 -13.086754 25.671922 -1.332681 2.105713 0.110949 -0.017501 -688988.000000 0 0 1
5.432922 -22.900974 -12.654754 26.722912 -1.337867 2.064118 0.077401 -0.017969 -128955.000000 0 0 1
6.101022 -23.560974 -13.754554 27.955853 -1.317416 2.085193 0.084085 -0.021232 44155.300000 0 0 1
5.840122 -24.919174 -13.903854 29.127125 -1.340589 2.068434 0.086543 -0.018068 2112970.000000 0 0 1
4.321322 -25.296374 -14.335554 29.395382 -1.401602 2.080227 0.100232 -0.024513 2773950.000000 0 0 1
3.276722 -25.136574 -13.360354 28.654551 -1.441171 2.055850 0.100165 -0.023557 453385.000000 0 0 1
1.975022 -25.140184 -13.892154 28.790997 -1.492397 2.074323 0.099931 -0.031478 795579.000000 0 0 1
0.928322 -26.190754 -13.361154 29.416625 -1.535367 2.042275 0.085364 -0.028466 78352.000000 0 0 1
1.243122 -27.470884 -13.896054 30.810633 -1.525575 2.038698 0.090794 -0.027485 191918.000000 0 0 1
0.687422 -28.657314 -13.311054 31.605353 -1.546813 2.005525 0.062986 -0.026261 454511.000000 0 0 1
-0.817178 -28.942884 -13.586954 31.983803 1.542570 2.009545 0.044967 -0.023522 976226.000000 0 0 1
-1.737778 -28.002904 -12.975354 30.911847 1.508819 2.003970 0.057604 -0.025997 1635510.000000 0 0 1
-3.117178 -28.275454 -13.338954 31.418876 1.460996 2.009264 0.065061 -0.022987 1537080.000000 0 0 1
-4.236378 -27.508814 -12.559754 30.535703 1.417996 1.994691 0.060976 -0.018060 409687.000000 0 0 1
-4.485378 -27.710384 -11.176254 30.214113 1.410322 1.949700 0.070990 -0.029689 86960.400000 0 0 1
-4.912978 -29.012284 -10.756854 31.329856 1.403046 1.921269 0.051480 -0.020036 -657207.000000 0 0 1
-5.345678 -28.964744 -9.242154 30.869889 1.388292 1.874850 0.070624 -0.016568 -312704.000000 0 0 1
-6.705878 -28.679944 -9.052454 30.813226 1.341105 1.868980 0.079590 -0.012811 -278391.000000 0 0 1
-7.000478 -27.275144 -9.141954 29.606004 1.319558 1.884714 0.088817 -0.019274 -1268220.000000 0 0 1
-8.461178 -26.956314 -8.825854 29.599495 1.266650 1.873577 0.091166 -0.018422 105622.000000 0 0 1
-9.472278 -27.058164 -9.821954 30.304110 1.234058 1.900870 0.093376 -0.021315 140619.000000 0 0 1
-9.708478 -28.402504 -10.180254 31.695336 1.241429 1.897783 0.089746 -0.027984 -913503.000000 0 0 1
-11.052178 -28.756564 -10.851754 32.662688 1.203866 1.909471 0.095178 -0.031220 -103918.000000 0 0 1
-11.284278 -27.972614 -11.974754 32.452994 1.187359 1.948716 0.112884 -0.035935 35736.400000 0 0 1
-11.976278 -28.694584 -12.982054 33.694868 1.175405 1.966311 0.127507 -0.041044 -218140.000000 0 0 1
-12.143778 -27.792314 -14.234354 33.503744 1.158850 2.009602 0.134452 -0.036985 166478.000000 0 0 1
-13.306978 -26.970594 -14.272454 33.289511 1.112452 2.013891 0.118271 -0.050748 280459.000000 0 0 1
-13.225378 -25.892164 -13.379554 32.005113 1.098556 2.002088 0.125416 -0.038828 -136947.000000 0 0 1
-14.248778 -24.785674 -13.707854 31.705876 1.049053 2.017887 0.151894 -0.034963 -267936.000000 0 0 1
-13.898278 -23.940474 -14.813554 31.396653 1.044812 2.062150 0.146378 -0.036063 212051.000000 0 0 1
-14.888978 -22.935674 -15.037154 31.206454 0.995010 2.073573 0.153362 -0.038914 -249518.000000 0 0 1
-14.883178 -22.102874 -16.326554 31.250638 0.978175 2.120505 0.138594 -0.035412 52511.500000 0 0 1
-14.194778 -20.856774 -16.141354 29.950627 0.973221 2.139965 0.123801 -0.030227 413608.000000 0 0 1
-14.413378 -20.124974 -17.344154 30.225481 0.949285 2.181966 0.122170 -0.022119 -115274.000000 0 0 1
-14.021278 -18.622774 -17.297854 29.027912 0.925435 2.209187 0.088928 -0.022970 1363240.000000 0 0 1
-12.597578 -18.351574 -17.369854 28.234572 0.969217 2.233433 0.085863 -0.013317 1246160.000000 0 0 1
-12.434078 -16.939074 -17.653254 27.444050 0.937584 2.269526 0.079945 -0.016500 331673.000000 0 0 1
-11.010378 -16.330274 -17.660054 26.453426 0.977575 2.301764 0.077112 -0.016996 -82807.000000 0 0 1
-10.355678 -16.049674 -16.488354 25.232874 0.997784 2.282926 0.098320 -0.019705 -1252740.000000 0 0 1
-9.105578 -15.590074 -16.829554 24.681893 1.042178 2.321096 0.076632 -0.012892 -1578890.000000 0 1 0
-8.389778 -14.846274 -15.672854 23.161144 1.056426 2.314050 0.056053 -0.006772 -82287.000000 0 1 0
-7.997278 -15.651074 -14.562054 22.824679 1.098409 2.262689 0.052085 -0.006959 -189931.000000 0 1 0
-6.929578 -16.509974 -14.816454 23.240602 1.173406 2.262077 0.048221 -0.002194 -868945.000000 0 1 0
-6.546178 -17.430174 -13.656854 23.090541 1.211530 2.203650 0.045443 -0.002653 -852995.000000 0 1 0
-5.859278 -16.748774 -12.671054 21.803857 1.234270 2.190923 0.040374 -0.004741 -51387.100000 0 1 0
-5.652178 -17.498174 -11.500054 21.688348 1.258361 2.129681 0.050343 -0.011304 -157163.000000 0 1 0
-4.557678 -18.596174 -11.610954 22.392060 1.330447 2.115927 0.068932 -0.010091 260521.000000 0 1 0
-3.268778 -17.999574 -11.786754 21.762287 1.391151 2.143152 0.053431 -0.005930 431068.000000 0 1 0
-2.217778 -18.963974 -11.747054 22.417496 1.454378 2.122352 0.062034 -0.002089 757565.000000 0 1 0
-0.778478 -18.553374 -12.113454 22.171366 1.528862 2.148803 0.050565 -0.002336 -267536.000000 0 1 0
-0.531978 -18.274374 -13.500054 22.726355 1.541694 2.206851 0.062146 -0.004435 -472036.000000 0 1 0
0.773422 -17.879974 -13.803854 22.601726 -1.527567 2.227795 0.075301 0.001997 230002.000000 0 1 0
1.876822 -18.982274 -13.845454 23.570019 -1.472244 2.198661 0.092570 -0.011597 -192418.000000 0 1 0
1.859622 -19.753574 -15.000554 24.873249 -1.476932 2.218153 0.112085 -0.008734 202397.000000 0 1 0
1.384022 -21.070674 -14.716554 25.738411 -1.505206 2.179463 0.119393 -0.013075 -427085.000000 0 0 1
1.508222 -22.002774 -15.992254 27.242411 -1.502356 2.198188 0.136911 -0.019181 623706.000000 0 0 1
2.760222 -22.577274 -16.343454 28.008224 -1.449143 2.193857 0.125862 -0.020593 824092.000000 0 0 1
3.851422 -21.718374 -16.704854 27.668996 -1.395286 2.218980 0.120576 -0.026137 205751.000000 0 0 1
5.223022 -22.359574 -16.882754 28.500138 -1.341319 2.204799 0.127459 -0.024736 -214918.000000 0 0 1
5.296322 -23.091674 -18.081254 29.802822 -1.345335 2.222694 0.117745 -0.023194 1089000.000000 0 0 1
6.601222 -23.703674 -18.263754 30.643188 -1.299189 2.209324 0.113495 -0.024594 1154080.000000 0 0 1
7.071122 -23.626974 -19.739554 31.589312 -1.279999 2.245775 0.105315 -0.021792 -78720.200000 0 0 1
7.400222 -22.298274 -20.066554 30.897296 -1.250360 2.277670 0.113896 -0.026368 55329.700000 0 0 1
7.786722 -22.159974 -21.409854 31.781745 -1.232887 2.309936 0.088525 -0.014256 -2850.880000 0 0 1
8.172222 -20.752974 -21.739254 31.145887 -1.195659 2.343371 0.069594 -0.013114 1166130.000000 0 0 1
6.923722 -20.067474 -21.984954 30.561080 -1.238563 2.373702 0.114608 -0.016873 1085550.000000 0 0 1
7.183422 -18.739074 -22.398254 30.073846 -1.204735 2.410994 0.117669 -0.013705 141432.000000 0 0 1
5.897322 -17.909674 -22.638854 29.462731 -1.252697 2.447117 0.115861 -0.017791 -381707.000000 0 0 1
5.243522 -18.357574 -23.817554 30.524923 -1.292572 2.465887 0.103586 -0.014375 -209301.000000 0 0 1
4.284722 -17.475874 -24.304154 30.239989 -1.330360 2.504299 0.115752 -0.018589 1394640.000000 0 0 1
2.876122 -17.194874 -23.590054 29.333026 -1.405064 2.505150 0.119822 -0.016801 1127180.000000 0 0 1
2.942122 -16.528874 -22.374254 27.972612 -1.394642 2.497863 0.127547 -0.009382 -497348.000000 0 0 1
1.658922 -16.043574 -22.097654 27.357898 -1.467761 2.511079 0.109425 -0.016012 21897.200000 0 0 1
1.742822 -15.182674 -20.866054 25.863937 -1.456506 2.509449 0.103149 -0.008933 205028.000000 0 0 1
2.567222 -14.064974 -21.105454 25.492240 -1.390258 2.546179 0.098782 -0.000060 -154358.000000 0 0 1
2.404622 -13.168174 -20.054854 24.111827 -1.390178 2.553037 0.095765 -0.007616 -607581.000000 0 1 0
3.588522 -12.276974 -19.857354 23.620247 -1.286421 2.569356 0.084782 -0.011952 -1085410.000000 0 1 0
4.832222 -12.936274 -19.652554 24.019168 -1.213306 2.529075 0.081986 -0.009773 -29096.600000 0 1 0
5.907322 -12.020974 -19.689054 23.813003 -1.114038 2.544226 0.073597 -0.007592 233495.000000 0 1 0
6.119522 -11.060874 -18.479154 22.389074 -1.065455 2.541644 0.081111 -0.010272 -1019740.000000 0 1 0
5.164422 -10.035874 -18.421254 21.603995 -1.095540 2.591887 0.051848 0.002532 -403831.000000 0 1 0
5.364622 -8.868174 -19.143354 21.769053 -1.026760 2.645363 0.070132 -0.011131 -409192.000000 0 1 0
4.765822 -8.649274 -20.575454 22.822627 -1.067179 2.694106 0.093425 -0.025360 74078.000000 0 1 0
3.349122 -8.632274 -20.497254 22.491558 -1.200698 2.717302 0.065946 -0.024353 -186342.000000 0 1 0
2.852022 -8.751374 -21.812554 23.675052 -1.255756 2.742286 0.077205 -0.038656 -8373.090000 0 1 0
1.314622 -8.740074 -21.806154 23.529247 -1.421502 2.756512 0.069748 -0.036459 26094.300000 0 1 0
0.712722 -7.483074 -21.526554 22.801248 -1.475838 2.805636 0.057801 -0.038841 -1290840.000000 0 1 0
-0.659578 -7.554274 -21.672754 22.961062 1.483705 2.805019 0.058127 -0.029789 -638712.000000 0 1 0
-1.212778 -6.587874 -22.769054 23.733957 1.388742 2.855469 0.067330 -0.027092 -146204.000000 0 1 0
-0.684278 -6.923274 -24.047154 25.033289 1.472279 2.859975 0.071768 -0.029701 -246178.000000 0 0 1
-1.098778 -6.172274 -25.197434 25.965650 1.394624 2.897737 0.088662 -0.037012 60471.900000 0 0 1
-0.588578 -4.731174 -25.343114 25.787669 1.447028 2.955642 0.085781 -0.033446 -347568.000000 0 0 1
-0.990478 -4.202974 -26.610394 26.958470 1.339358 2.980723 0.083103 -0.029066 -229355.000000 0 0 1
-0.708078 -2.828174 -26.846654 27.004495 1.325473 3.033420 0.078819 -0.025173 -619075.000000 0 0 1
-1.257678 -1.681274 -26.028974 26.113520 0.928544 3.061102 0.069426 -0.031378 658388.000000 0 0 1
-2.686778 -1.671274 -25.923884 26.116273 0.556465 3.020137 0.071442 -0.037390 572006.000000 0 0 1
-3.383278 -0.935074 -26.908064 27.136043 0.269650 3.011877 0.087043 -0.027829 20590.400000 0 0 1
-4.917978 -1.098274 -26.802124 27.271717 0.219713 2.955750 0.112440 -0.037462 155954.000000 0 0 1
-5.578378 -0.367174 -25.805234 26.403849 0.065726 2.928249 0.118479 -0.032097 -210259.000000 0 0 1
-6.958578 -0.574574 -25.953934 26.876730 0.082384 2.878790 0.134477 -0.042114 -35191.000000 0 0 1
-7.988678 0.331026 -25.218954 26.456080 -0.041413 2.834573 0.133834 -0.030679 -183067.000000 0 0 1
-8.190978 1.622726 -25.851174 27.166313 -0.195579 2.829162 0.150499 -0.034864 167466.000000 0 0 1
-9.047278 1.780826 -26.987154 28.518960 -0.194351 2.812352 0.155895 -0.036925 1905990.000000 0 0 1
-10.595678 1.458526 -26.680134 28.744134 -0.136793 2.760326 0.139612 -0.038537 1630780.000000 0 0 1
-11.508678 2.065726 -27.609454 29.983309 -0.177602 2.740993 0.141704 -0.040069 399318.000000 0 0 1
-12.830978 1.677726 -27.319854 30.229508 -0.130018 2.699242 0.070989 -0.025594 447997.000000 0 0 1
-13.938578 2.221226 -28.321754 31.643950 -0.158029 2.679257 0.039033 -0.012737 1253520.000000 0 0 1
-15.224478 1.676326 -27.955464 31.876367 -0.109666 2.640372 0.020319 -0.012750 1335040.000000 0 0 1
-16.365878 2.078526 -28.724414 33.124827 -0.126327 2.620261 0.012943 -0.014246 576697.000000 0 0 1
-17.156878 3.205326 -28.020474 33.011809 -0.184695 2.584511 0.016894 0.000073 -461131.000000 0 0 1
-16.586578 4.538826 -27.992604 32.852723 -0.267106 2.590711 0.034918 -0.004224 257877.000000 0 0 1
-16.304778 5.169526 -29.227014 33.864260 -0.307030 2.612101 0.026810 -0.008850 -609958.000000 0 0 1
-17.498278 5.810626 -29.936824 35.159160 -0.320612 2.589571 0.010498 0.005776 -400502.000000 0 0 1
-18.060478 6.873826 -29.187054 35.004492 -0.363672 2.556768 0.019170 0.011608 218751.000000 0 0 1
-18.897678 7.655026 -30.022594 36.291567 -0.384876 2.545011 0.018731 0.004990 -134681.000000 0 0 1
-19.581078 8.834326 -29.304444 36.334754 -0.423824 2.509026 0.022162 0.006022 -144247.000000 0 0 1
-18.651278 9.754326 -28.770994 35.648101 -0.481866 2.509992 0.036706 0.007638 171931.000000 0 0 1
-19.271578 11.007026 -28.506944 36.127471 -0.518939 2.480083 0.069616 -0.005572 -189228.000000 0 0 1
-9.075678 24.729926 30.546052 40.336069 -1.219065 0.711645 0.051481 -0.016866 -374538.000000 0 0 1
-9.865978 25.910826 30.595242 41.288949 -1.206980 0.736233 0.057137 -0.019265 128755.000000 0 0 1
-9.506078 26.828526 31.603463 42.531332 -1.230272 0.733160 0.070389 -0.019325 -327856.000000 0 0 1
-8.231878 27.652126 31.389882 42.634829 -1.281456 0.743285 0.073336 -0.022356 -338415.000000 0 0 1
-8.173178 28.436426 30.253862 42.316987 -1.290921 0.774266 0.083387 -0.007559 64627.800000 0 0 1
-6.844578 28.699626 29.850442 41.971010 -1.336679 0.779570 0.093735 -0.007711 117002.000000 0 0 1
-6.723378 29.803626 28.813352 41.996062 -1.348921 0.814686 0.118776 -0.017537 -165662.000000 0 0 1
-7.096378 30.998526 29.382442 43.296595 -1.345748 0.824898 0.112290 -0.017562 419594.000000 0 0 1
-6.608278 32.038626 28.515092 43.396467 -1.367389 0.853853 0.117289 -0.010183 243515.000000 0 0 1
-6.961378 33.376626 29.166412 44.868024 -1.365174 0.863147 0.133217 -0.023036 -11953.300000 0 0 1
-6.094278 33.592926 30.286552 45.638801 -1.391333 0.845157 0.146312 -0.033068 235062.000000 0 0 1
-6.572578 -33.193124 31.306842 46.098814 1.375315 0.824227 0.140305 -0.037842 -3712.640000 0 0 1
-7.671278 -33.810324 32.227533 47.334981 1.347682 0.821888 0.076074 -0.028083 15996.900000 0 0 1
-7.274678 32.890026 33.207515 47.301309 -1.353119 0.792535 0.080028 -0.019973 -24901.900000 0 0 1
-7.176578 31.579326 32.668499 45.999869 -1.347336 0.781033 0.088374 -0.014050 -86159.300000 0 0 1
-7.022678 30.431626 33.674192 45.927694 -1.343998 0.747780 0.086315 -0.007413 269855.000000 0 0 1
-5.747878 30.429926 -33.277624 45.457879 -1.384107 2.392129 0.092018 -0.021939 115332.000000 0 0 1
-5.808978 30.112326 -31.890664 44.243766 -1.380227 2.375744 0.091077 -0.014877 385266.000000 0 0 1
-4.354078 30.104026 -31.283404 43.633264 -1.427158 2.370231 0.088621 -0.025683 1259630.000000 0 0 1
-3.514178 28.977926 -31.430194 42.894367 -1.450115 2.393128 0.097492 -0.023995 277107.000000 0 0 1
-3.184978 28.596626 -32.747714 43.592704 -1.459877 2.420705 0.102217 -0.027329 -651940.000000 0 0 1
-2.392978 27.275026 -32.803424 42.728422 -1.483285 2.446070 0.108575 -0.029713 -586360.000000 0 0 1
-1.065378 27.217826 -32.342784 42.284758 -1.531674 2.441652 0.126161 -0.031340 161219.000000 0 0 1
-0.425678 25.964126 -32.530364 41.623811 -1.554403 2.467915 0.132327 -0.033023 173859.000000 0 0 1
0.022522 25.591426 33.594252 42.231450 1.569916 0.650998 0.126315 -0.028453 -466043.000000 0 0 1
-1.068678 25.294326 32.762335 41.404295 -1.528572 0.657899 0.123658 -0.027814 44871.700000 0 0 1
-0.659978 25.110226 31.437732 40.240403 -1.544519 0.674134 0.127273 -0.023413 328734.000000 0 0 1
-0.096178 26.387526 30.711462 40.490798 -1.567152 0.709819 0.103978 -0.024684 742202.000000 0 0 1
-1.179578 27.243726 30.316422 40.776188 -1.527526 0.732532 0.110194 -0.027331 504863.000000 0 0 1
-0.741478 28.405826 29.689802 41.096534 -1.544699 0.763471 0.108782 -0.024924 -315957.000000 0 0 1
-1.800578 29.512526 29.669032 41.886546 -1.509861 0.783682 0.125431 -0.026245 -314433.000000 0 0 1
-2.178178 29.951926 30.953822 43.127734 -1.498202 0.770268 0.129664 -0.034171 54185.000000 0 0 1
-3.074578 31.034326 30.917212 43.914194 -1.472048 0.789730 0.126445 -0.034414 -3431.450000 0 0 1
-2.954178 31.744826 32.233333 45.337059 -1.478003 0.779918 0.127680 -0.021771 272579.000000 0 0 1
-1.719578 32.430126 32.248819 45.767416 -1.517822 0.788903 0.181771 -0.044797 -193244.000000 0 0 1
-1.188678 32.740326 33.515912 46.868521 -1.534506 0.774022 0.149604 -0.037532 37350.600000 0 0 1
0.312522 33.097026 33.397731 47.020413 1.561354 0.780898 0.153869 -0.054375 -14114.100000 0 0 1
0.569922 -33.472224 32.627428 46.746804 -1.553771 0.798251 0.178241 -0.057159 27980.400000 0 0 1
1.930622 -33.210424 32.364487 46.412494 -1.512729 0.799141 0.162425 -0.059350 2485.800000 0 0 1
2.022422 -31.787224 31.741086 44.966814 -1.507258 0.787134 0.167054 -0.060495 1288.980000 0 0 1
1.748622 -30.812824 32.702288 44.965848 -1.514107 0.756461 0.154246 -0.048143 110514.000000 0 0 1
1.885222 -29.553424 32.151434 43.711253 -1.507092 0.744331 0.143693 -0.047060 514.212000 0 0 1
1.531422 -28.371024 33.104832 43.625568 -1.516870 0.709266 0.141810 -0.036402 -242231.000000 0 0 1
0.159522 -28.269324 33.367483 43.732929 -1.565153 0.702881 0.144009 -0.032547 -272653.000000 0 0 1
-0.059178 -27.634224 -32.923914 42.984159 1.568655 2.443321 0.125596 -0.020289 703101.000000 0 0 1
-1.592678 -27.469924 -32.645064 42.694655 1.512882 2.441243 0.173671 -0.018678 613185.000000 0 0 1
-1.925678 -27.005624 -31.345244 41.419033 1.499610 2.429175 0.179780 -0.015799 703794.000000 0 0 1
-3.222278 -26.390224 -31.381674 41.129508 1.449297 2.438733 0.205767 -0.022178 584055.000000 0 0 1
-3.445578 -25.551924 -30.120824 39.648920 1.436759 2.433630 0.221602 -0.031544 -29117.700000 0 0 1
-3.883778 -26.202924 -28.939614 39.232362 1.423648 2.400374 0.210268 -0.036883 94468.300000 0 0 1
-4.073878 -25.343624 -27.832314 37.862032 1.411414 2.396608 0.233725 -0.031363 1201820.000000 0 0 1
-2.767378 -25.107524 -26.918054 36.913788 1.461018 2.387969 0.227440 -0.041635 1255890.000000 0 0 1
-1.778078 -24.328224 -27.524114 36.777723 1.497839 2.416429 0.238816 -0.042114 -620281.000000 0 0 1
-0.763278 -23.964024 -26.661314 35.856418 1.538956 2.409172 0.184821 -0.040359 -1025100.000000 0 0 1
0.076622 -22.773524 -27.271854 35.530174 -1.567432 2.445836 0.128054 -0.030435 822006.000000 0 0 1
0.970622 -23.068924 -28.349034 36.562072 -1.528746 2.458093 0.072830 -0.027537 1136250.000000 0 0 1
1.985022 -24.096124 -28.107824 37.075778 -1.488603 2.431219 0.047565 -0.011176 460876.000000 0 0 1
2.814822 -24.494024 -29.401564 38.370984 -1.456380 2.443773 0.048999 -0.015875 1292890.000000 0 0 1
3.965522 -23.644624 -29.642354 38.124307 -1.404629 2.461506 0.078991 -0.022164 1025200.000000 0 0 1
4.691522 -23.854024 -30.866864 39.291070 -1.376599 2.474453 0.086700 -0.020475 41349.600000 0 0 1
5.637622 -22.648224 -31.090484 38.875996 -1.326833 2.497650 0.105695 -0.032988 1036170.000000 0 0 1
6.923622 -22.542924 -30.399744 38.474204 -1.272811 2.481823 0.070749 -0.034026 2426860.000000 0 0 1
7.995922 -23.474424 -30.656354 39.430894 -1.242500 2.461430 0.084609 -0.029226 497492.000000 0 0 1
8.457322 -23.659124 -32.134644 40.791124 -1.227486 2.478001 0.084381 -0.027361 -1119990.000000 0 0 1
7.531122 -24.374324 -32.880704 41.616898 -1.271124 2.481737 0.078309 -0.028338 -326503.000000 0 0 1
7.594522 -24.183524 33.294281 41.845296 -1.266512 0.650714 0.094005 -0.037651 -19051.400000 0 0 1
6.983222 -22.862224 32.728859 40.529309 -1.274349 0.630835 0.090023 -0.031886 913301.000000 0 0 1
5.559622 -22.813624 32.986474 40.490472 -1.331758 0.618632 0.096673 -0.032041 1028960.000000 0 0 1
4.980422 -21.665024 32.406687 39.298489 -1.344839 0.601250 0.117908 -0.045266 541503.000000 0 0 1
3.459622 -21.512624 32.721383 39.312223 -1.411343 0.587469 0.094181 -0.040832 800103.000000 0 0 1
2.494922 -22.434924 32.233705 39.351775 -1.460044 0.610926 0.095922 -0.037914 256376.000000 0 0 1
2.386622 -23.636924 33.013569 40.673037 -1.470167 0.623770 0.090193 -0.026710 639410.000000 0 0 1
0.965922 -24.302024 32.806435 40.838506 -1.531071 0.637945 0.106458 -0.022994 1011730.000000 0 0 1
0.751722 -24.992724 31.588673 40.287040 -1.540728 0.669567 0.115594 -0.029075 -723774.000000 0 0 1
-0.599078 -25.294224 31.532965 40.428759 1.547116 0.676188 0.133382 -0.034403 -811069.000000 0 0 1
-0.865578 -26.432324 30.493082 40.363908 1.538061 0.714449 0.140183 -0.049537 363683.000000 0 0 1
-2.218478 -26.515724 30.057872 40.143255 1.487324 0.724599 0.156680 -0.050796 360963.000000 0 0 1
-2.271278 -27.588324 29.171582 40.215116 1.488654 0.759198 0.175044 -0.062477 -92092.100000 0 0 1
-3.659078 -27.638024 28.526792 39.887681 1.439169 0.773918 0.191033 -0.054153 -156742.000000 0 0 1
-4.724778 -27.961724 29.412272 40.856619 1.403404 0.767152 0.186152 -0.054340 462636.000000 0 0 1
-5.835378 -28.339724 28.599632 40.683296 1.367726 0.791214 0.149774 -0.041850 46979.600000 0 0 1
-7.120978 -28.731724 29.342692 41.679898 1.327848 0.789781 0.089487 -0.027930 468742.000000 0 0 1
-8.183178 -29.341124 28.544372 41.745026 1.298810 0.817867 0.086843 -0.025826 1486170.000000 0 0 1
-9.383978 -29.632724 29.262232 42.689994 1.264111 0.815563 0.066823 -0.017863 114295.000000 0 0 1
-9.253478 -30.818524 30.290522 44.191900 1.279104 0.815600 0.030715 -0.007388 -733385.000000 0 0 1
-9.399678 -32.101724 29.721342 44.746316 1.285950 0.844348 0.057193 -0.009810 19074.700000 0 0 1
-10.684078 -32.309924 29.190292 44.834740 1.251440 0.861811 0.045856 -0.004265 -647696.000000 0 0 1
-10.866878 -33.698624 28.598742 45.514551 1.258852 0.891375 0.061744 0.000324 -341737.000000 0 0 1
-10.959778 32.979626 29.554542 45.620647 -1.249958 0.866061 0.059933 -0.001203 254870.000000 0 0 1
-10.807278 31.637626 29.007292 44.262395 -1.241628 0.856152 0.069728 -0.008284 -166600.000000 0 0 1
-11.176778 30.527826 29.965292 44.212976 -1.219836 0.826100 0.069560 -0.000956 -489841.000000 0 0 1
-12.553878 30.395026 30.138762 44.607202 -1.179113 0.828953 0.056398 0.011748 -606726.000000 0 0 1
-12.913578 29.186126 30.820682 44.367836 -1.154234 0.802845 0.063978 -0.005137 97241.600000 0 0 1
-12.708878 29.159526 32.370664 45.383405 -1.159780 0.776642 0.062780 -0.015801 -476818.000000 0 0 1
-13.711378 29.841626 33.074688 46.609651 -1.140094 0.781851 0.062726 -0.006429 67549.200000 0 0 1
-13.796178 29.389226 -33.182324 46.423354 -1.131903 2.367101 0.069183 -0.004654 -904252.000000 0 0 1
-15.191978 29.731626 -32.722964 46.749954 -1.098411 2.346134 0.071141 -0.006041 -820980.000000 0 0 1
-15.387778 29.547726 -31.328124 45.730768 -1.090666 2.325476 0.059624 -0.007183 -144531.000000 0 0 1
-16.743178 29.690126 -30.964854 46.050622 -1.057321 2.308255 0.073247 -0.012336 98288.200000 0 0 1
-17.064078 29.334726 -29.473774 44.948996 -1.043940 2.285927 0.095300 -0.022216 44028.100000 0 0 1
-17.090978 27.913026 -29.182674 43.850508 -1.021386 2.298965 0.081220 -0.023322 22679.200000 0 0 1
-17.129878 27.546726 -27.806414 42.725303 -1.014467 2.279458 0.087575 -0.022301 -237600.000000 0 0 1
-17.729278 26.155626 -27.547714 41.920408 -0.975100 2.287819 0.060150 -0.029383 -265660.000000 0 0 1
-19.073078 26.128726 -27.941684 42.746115 -0.940241 2.283215 0.070262 -0.029955 -481580.000000 0 0 1
-19.599978 24.824126 -27.898994 42.175232 -0.902458 2.293616 0.052902 -0.028550 862947.000000 0 0 1
-21.138678 24.708826 -28.197274 43.040168 -0.863111 2.285162 0.084435 -0.023306 859155.000000 0 0 1
-22.014978 25.037826 -27.126774 42.981552 -0.849554 2.253800 0.089395 -0.025676 -585121.000000 0 0 1
-23.276678 24.570126 -27.432384 43.566392 -0.812425 2.251923 0.107711 -0.029668 -451189.000000 0 0 1
-24.390878 24.624626 -26.346814 43.536671 -0.790167 2.220768 0.112414 -0.032092 420570.000000 0 0 1
-25.051938 25.895126 -26.247124 44.576548 -0.801947 2.200382 0.081372 -0.024930 76669.900000 0 0 1
-26.200178 25.925126 -25.424844 44.777050 -0.780121 2.174639 0.092916 -0.033385 25597.500000 0 0 1
-26.122778 25.630226 -23.884354 43.700920 -0.775881 2.149025 0.080277 -0.019939 -704870.000000 0 0 1
-26.043798 24.210926 -23.644254 42.702448 -0.748943 2.157595 0.091072 -0.014371 -452473.000000 0 0 1
-27.291628 23.601726 -23.458054 43.036667 -0.713022 2.147271 0.105758 -0.011606 -185165.000000 0 0 1
-28.048668 23.899626 -22.090454 42.964032 -0.705699 2.110826 0.088171 -0.013941 -32820.900000 0 0 1
-27.436018 23.352726 -20.940854 41.672584 -0.705173 2.097295 0.093157 -0.007773 -203880.000000 0 0 1
-26.372368 24.102726 -20.461354 41.171716 -0.740463 2.090907 0.103402 -0.007390 -630229.000000 0 0 1
-25.549768 23.506226 -19.329454 39.736143 -0.743765 2.078813 0.094658 -0.013482 -187684.000000 0 0 1
-26.253548 23.462526 -18.126754 39.601996 -0.729318 2.046229 0.089994 -0.006648 598025.000000 0 0 1
-25.347518 23.113026 -17.086654 38.323131 -0.739321 2.032928 0.113810 -0.021607 220890.000000 0 0 1
-26.028498 23.323226 -15.729654 38.325939 -0.730637 1.993709 0.110835 -0.027469 -63590.300000 0 0 1
-26.364188 24.601026 -15.378454 39.201757 -0.750817 1.973916 0.115126 -0.029700 -32309.900000 0 0 1
-26.781608 24.679926 -14.045354 39.033642 -0.744581 1.938879 0.084476 -0.034088 163419.000000 0 0 1
-26.948708 26.075326 -13.419254 39.827526 -0.768928 1.914455 0.086414 -0.024381 651946.000000 0 0 1
-25.643658 26.619826 -13.203054 39.249624 -0.804074 1.913874 0.106097 -0.032095 447871.000000 0 0 1
-25.677058 27.602826 -12.224754 39.631703 -0.821527 1.884369 0.116416 -0.030256 -249708.000000 0 0 1
-24.305978 28.130326 -11.809854 39.007287 -0.858202 1.878384 0.134974 -0.032506 -539683.000000 0 0 1
-23.466278 27.204226 -11.166554 37.622175 -0.859034 1.872144 0.133431 -0.037090 393792.000000 0 0 1
-22.414478 27.973226 -10.529754 37.360218 -0.895273 1.856512 0.129165 -0.041803 631170.000000 0 0 1
-21.408278 27.044326 -9.760754 35.846649 -0.901199 1.846571 0.191684 -0.046706 265722.000000 0 0 1
-20.640578 26.225026 -10.606054 35.018193 -0.903998 1.878502 0.183381 -0.046551 15998.500000 0 0 1
-19.789178 25.339226 -9.874554 33.633239 -0.907767 1.868782 0.173111 -0.041381 480836.000000 0 0 1
-18.913878 24.486626 -10.879054 32.797613 -0.913102 1.908904 0.157202 -0.049472 66950.100000 0 0 1
-18.334478 23.329626 -10.369654 31.431740 -0.904720 1.907005 0.120271 -0.040230 105098.000000 0 0 1
-17.812078 22.471326 -11.379554 30.850038 -0.900548 1.948586 0.140082 -0.029066 283641.000000 0 0 1
-17.330078 21.025326 -10.964854 29.370461 -0.881444 1.953392 0.115498 -0.012447 838199.000000 0 0 1
-18.412578 20.151526 -10.569854 29.271639 -0.830460 1.940239 0.114250 -0.008150 807414.000000 0 0 1
-17.930978 18.782126 -10.538954 28.024236 -0.808578 1.956343 0.136006 -0.029855 -151411.000000 0 0 1
-19.085778 17.728826 -10.454154 28.068978 -0.748556 1.952439 0.121399 -0.013601 252350.000000 0 0 1
-19.714378 17.269626 -11.640154 28.677341 -0.719391 1.988761 0.116685 -0.008092 52760.300000 0 0 1
-20.534978 18.213026 -12.274354 30.067581 -0.725545 1.991306 0.137786 -0.011984 -1009570.000000 0 0 1
-21.494178 17.603726 -13.285054 30.795836 -0.686219 2.016831 0.155069 -0.015775 -349960.000000 0 0 1
-20.801378 17.047626 -14.405954 30.509841 -0.686544 2.062552 0.149771 -0.025814 67322.000000 0 0 1
-21.598178 16.670926 -15.493454 31.375917 -0.657350 2.087252 0.129609 -0.022414 -187867.000000 0 0 1
-20.732578 16.378726 -16.740354 31.278458 -0.668613 2.135545 0.159392 -0.024183 81985.100000 0 0 1
-20.068878 17.542526 -17.210954 31.728804 -0.718329 2.144134 0.144211 -0.025971 49293.500000 0 0 1
-19.384978 17.336026 -18.387354 31.849803 -0.729658 2.186232 0.137430 -0.018132 25387.400000 0 0 1
-18.347778 18.442026 -18.818654 32.107492 -0.787960 2.197051 0.108539 -0.007875 1024120.000000 0 0 1
-17.136278 18.580526 -18.063554 31.067345 -0.825812 2.191284 0.119104 -0.014019 1141420.000000 0 0 1
-16.397378 19.783626 -18.337454 31.567833 -0.878718 2.190619 0.120048 -0.010459 316452.000000 0 0 1
34.235054 30.258626 2.021746 45.735225 0.723820 1.526576 0.107604 -0.029303 220657.000000 0 0 1
35.558114 30.290626 1.524946 46.735714 0.705574 1.538161 0.119895 -0.030418 114067.000000 0 0 1
35.649564 31.233526 0.512946 47.399237 0.719468 1.559974 0.099437 -0.024190 -11546.100000 0 0 1
36.938124 31.156626 -0.325454 48.324593 0.700698 1.577531 0.075042 -0.020679 578031.000000 0 0 1
-37.393168 31.612226 0.362246 48.966448 -0.701818 1.563398 0.052458 -0.018410 496017.000000 0 0 1
-36.258538 31.668026 -0.463554 48.143123 -0.717920 1.580425 0.058394 -0.015460 628137.000000 0 0 1
-35.160598 32.731926 -0.086054 48.038048 -0.749641 1.572588 0.051195 -0.021291 778408.000000 0 0 1
-34.290835 32.453426 0.995846 47.223701 -0.757876 1.549707 0.048496 -0.012632 -46160.400000 0 0 1
-33.596908 33.565526 1.431846 47.512598 -0.784931 1.540656 0.046539 -0.010497 -139114.000000 0 0 1
-32.736678 33.363326 2.697146 46.819613 -0.794878 1.513157 0.082105 -0.015029 13411.600000 0 0 1
-32.562368 -33.170624 3.463746 46.611111 0.794651 1.496416 0.065982 -0.011648 144290.000000 0 0 1
-31.971638 -33.578624 4.716446 46.604232 0.809909 1.469421 0.080896 -0.018002 -325980.000000 0 0 1
-31.887478 -32.301324 5.661846 45.741046 0.791845 1.446698 0.097308 -0.017459 734748.000000 0 0 1
-33.076888 -31.708224 6.238746 46.242988 0.764275 1.435471 0.081871 -0.016720 698829.000000 0 0 1
-33.780768 -32.504824 7.144846 47.421015 0.766151 1.419552 0.067628 -0.028903 -458327.000000 0 0 1
-34.837036 -31.752824 8.076946 47.823613 0.739115 1.401093 0.082942 -0.025425 130305.000000 0 0 1
-36.106948 -31.496224 7.606146 48.513681 0.717301 1.413363 0.060138 -0.017666 -558274.000000 0 0 1
-36.908348 -32.625924 7.299446 49.799186 0.723889 1.423689 0.064146 -0.018313 -1176800.000000 0 0 1
37.114604 -32.441024 6.992246 49.787603 -0.718307 1.429889 0.064877 -0.014746 -471808.000000 0 0 1
36.342904 -32.303224 8.154946 49.303226 -0.726618 1.404629 0.055705 -0.012075 1830530.000000 0 0 1
34.901874 -32.146924 7.924146 48.107771 -0.744333 1.405326 0.051219 -0.005301 1801490.000000 0 0 1
34.085884 -32.121724 9.232646 47.737767 -0.755740 1.376166 0.047084 -0.018395 52062.500000 0 0 1
32.703484 -32.353624 9.024646 46.879837 -0.780020 1.377081 0.054805 -0.021808 474030.000000 0 0 1
31.752734 -32.285624 10.061846 46.387912 -0.793719 1.352152 0.061762 -0.027200 274213.000000 0 0 1
31.642714 -31.048424 10.956746 45.665263 -0.775919 1.328496 0.076486 -0.024269 -878606.000000 0 0 1
31.035334 -29.870324 10.496646 44.335176 -0.766272 1.331770 0.067249 -0.031207 -121830.000000 0 0 1
31.569294 -29.196924 9.394746 44.015247 -0.746377 1.355699 0.066423 -0.027341 -228902.000000 0 0 1
30.988714 -27.771824 9.180946 42.612960 -0.730707 1.353644 0.066896 -0.027238 55545.500000 0 0 1
31.482364 -27.287424 7.946546 42.413328 -0.714140 1.382323 0.074811 -0.025677 -139064.000000 0 0 1
30.748474 -26.199524 7.421946 41.072728 -0.705688 1.389096 0.074415 -0.025552 -98107.500000 0 0 1
31.132694 -25.728624 6.003446 40.831950 -0.690643 1.423233 0.071052 -0.019621 -35276.000000 0 0 1
32.426214 -25.197924 5.903346 41.487881 -0.660611 1.428021 0.071517 -0.015456 -664030.000000 0 0 1
32.721574 -24.649424 4.655446 41.230677 -0.645615 1.457643 0.064210 -0.005715 -385081.000000 0 0 1
34.159884 -24.165824 4.437446 42.078209 -0.615697 1.465143 0.064322 -0.007703 -490618.000000 0 0 1
34.902044 -25.314724 4.157046 43.315921 -0.627510 1.474678 0.063615 -0.006893 -890736.000000 0 0 1
36.253844 -24.962824 3.951646 44.193883 -0.603004 1.481261 0.080149 -0.009593 -185507.000000 0 0 1
37.025814 -26.248424 3.707446 45.537192 -0.616689 1.489290 0.084849 -0.010610 -393008.000000 0 0 1
37.048164 -26.908824 4.934246 46.054295 -0.628173 1.463451 0.072888 -0.005973 -368003.000000 0 0 1
37.561394 -28.203524 4.809546 47.216828 -0.644054 1.468759 0.070682 -0.009482 -1123250.000000 0 0 1
36.927904 -29.136624 5.812346 47.396164 -0.668006 1.447854 0.077256 -0.011521 366983.000000 0 0 1
35.600344 -29.503624 5.478246 46.560278 -0.692025 1.452864 0.062671 -0.013765 445768.000000 0 0 1
34.586894 -28.520524 5.738446 45.195169 -0.689565 1.443482 0.062427 -0.011757 -8858.710000 0 0 1
33.142614 -29.115924 5.661346 44.477194 -0.720811 1.443164 0.056619 -0.011171 219719.000000 0 0 1
32.889524 -29.564424 4.346146 44.437202 -0.732208 1.472836 0.045251 -0.010213 497003.000000 0 0 1
31.613534 -29.134624 3.862046 43.164305 -0.744614 1.481203 0.052563 -0.011701 1417870.000000 0 0 1
30.327354 -30.002024 4.168446 42.863105 -0.780006 1.473392 0.052398 -0.019953 840464.000000 0 0 1
30.273954 -31.108724 3.301746 43.533511 -0.798997 1.494880 0.060920 -0.009452 -416347.000000 0 0 1
29.091854 -31.805724 3.589346 43.253017 -0.829933 1.487716 0.066385 -0.013753 -304552.000000 0 0 1
29.161054 -33.157824 2.833146 44.247430 -0.849445 1.506723 0.069344 -0.017550 -95050.500000 0 0 1
28.928254 -32.960924 1.448746 43.878984 -0.850466 1.537773 0.070075 -0.025318 143409.000000 0 0 1
28.918754 33.476126 0.807546 44.244745 0.858309 1.552544 0.070566 -0.021350 -20084.700000 0 0 1
28.643854 33.646726 -0.701754 44.193495 0.865541 1.586676 0.063189 -0.020087 -738835.000000 0 0 1
29.791454 -33.563424 -1.285254 44.896392 -0.844865 1.599427 0.059719 -0.026198 -618471.000000 0 0 1
29.574854 -33.501124 -2.692054 44.768789 -0.847565 1.630965 0.057053 -0.023280 221459.000000 0 0 1
30.716014 -32.864524 -3.532054 45.122343 -0.819177 1.649154 0.038589 -0.016047 78495.300000 0 0 1
30.827694 -31.505424 -3.333554 44.204650 -0.796270 1.646280 0.031257 -0.010812 -5082.610000 0 0 1
31.731654 -31.014524 -4.300654 44.579078 -0.773970 1.667419 0.024570 -0.009757 -109261.000000 0 0 1
31.996154 -29.510324 -4.228154 43.732029 -0.745004 1.667631 0.023194 0.003237 936798.000000 0 0 1
30.782354 -28.728924 -4.508354 42.346542 -0.750907 1.677462 0.029766 -0.018028 1311560.000000 0 0 1
31.003654 -27.291724 -4.556654 41.555118 -0.721809 1.680671 0.033647 -0.015381 399672.000000 0 0 1
31.892094 -26.702924 -5.734454 41.988520 -0.697069 1.707796 0.057451 -0.011002 1578020.000000 0 0 1
33.312854 -26.947824 -5.532754 43.203505 -0.680163 1.699212 0.056250 -0.004831 1434600.000000 0 0 1
34.171394 -26.435124 -6.552654 43.697108 -0.658437 1.721320 0.072701 -0.008307 284136.000000 0 0 1
34.282514 -27.472324 -7.721754 44.605435 -0.675564 1.744785 0.078529 -0.001012 -278051.000000 0 0 1
33.116784 -27.482724 -8.558754 43.877942 -0.692693 1.767113 0.077762 -0.003948 279746.000000 0 0 1
32.981574 -28.555124 -9.468454 44.641135 -0.713590 1.784521 0.059907 0.001892 -35025.800000 0 0 1
32.967994 -29.967824 -8.858254 45.424969 -0.737764 1.767062 0.059826 0.005161 -792016.000000 0 0 1
34.123514 -30.428324 -8.249054 46.457981 -0.728217 1.749302 0.064378 0.005183 -1077280.000000 0 0 1
33.903224 -31.710324 -7.691454 47.054561 -0.751989 1.734991 0.064360 -0.005138 956547.000000 0 0 1
35.214594 -32.420724 -7.158154 48.398452 -0.744114 1.719241 0.055240 -0.005103 977025.000000 0 0 1
35.006324 -33.646224 -6.482354 48.985018 -0.765589 1.703519 0.046790 -0.011714 -177463.000000 0 0 1
34.613684 -33.463924 -5.135054 48.418076 -0.768511 1.677053 0.046172 -0.011593 -218693.000000 0 0 1
34.503484 32.910126 -4.397154 47.884254 0.761767 1.662755 0.028933 -0.013609 240679.000000 0 0 1
33.481944 32.036126 -4.897654 46.597650 0.763334 1.676096 0.049022 -0.025489 440787.000000 0 0 1
33.496644 30.768526 -4.291454 45.685270 0.742973 1.664870 0.050493 -0.017212 -821034.000000 0 0 1
32.342874 29.909826 -4.679254 44.300729 0.746335 1.676618 0.065153 -0.032839 -820147.000000 0 0 1
32.369694 29.598226 -6.043754 44.276168 0.740704 1.707725 0.045346 -0.014347 -426105.000000 0 0 1
31.095914 29.181226 -6.430654 43.126015 0.753644 1.720468 0.030113 -0.008060 -381249.000000 0 0 1
30.949944 28.945326 -7.931654 43.111971 0.751942 1.755828 0.030787 -0.006785 -210765.000000 0 0 1
31.785564 27.892026 -8.357054 43.106004 0.720248 1.765904 0.041983 -0.007911 -222662.000000 0 0 1
31.880984 27.770626 -9.750454 43.389816 0.716601 1.797450 0.034813 -0.009654 693957.000000 0 0 1
33.041564 28.676326 -10.369554 44.962254 0.714787 1.803519 0.049402 -0.004897 -270319.000000 0 0 1
34.302664 28.146826 -10.075254 45.501949 0.687143 1.794071 0.047786 -0.011210 274368.000000 0 0 1
35.419344 28.690426 -10.788354 46.840784 0.680822 1.803202 0.053703 -0.004022 510765.000000 0 0 1
35.870414 30.105526 -10.417154 47.974435 0.698241 1.789680 0.051174 -0.015296 -1069990.000000 0 0 1
36.424134 30.129226 -9.102754 48.138840 0.691094 1.761035 0.052124 -0.012001 190279.000000 0 0 1
36.492244 31.400226 -8.613854 48.906611 0.710537 1.747849 0.038994 -0.013228 -798370.000000 0 0 1
37.416504 31.599026 -7.371354 49.526055 0.701305 1.720189 0.047221 -0.014078 802547.000000 0 0 1
-36.681738 31.620026 -7.613054 49.023816 -0.711425 1.726720 0.063801 -0.014855 229261.000000 0 0 1
-36.070898 30.380926 -7.887754 47.815552 -0.699981 1.736516 0.073285 -0.017560 -626792.000000 0 0 1
-34.625062 30.609826 -8.385554 46.969925 -0.723925 1.750289 0.119884 -0.018359 87379.900000 0 0 1
-33.790978 31.236326 -7.388554 46.606105 -0.746133 1.730000 0.113159 -0.021930 98227.300000 0 0 1
-32.459328 31.427726 -7.806454 45.850307 -0.769252 1.741889 0.120209 -0.024300 -1082.440000 0 0 1
-32.086498 32.678526 -8.640654 46.605690 -0.794539 1.757274 0.093099 -0.016568 -383748.000000 0 0 1
-32.129938 -33.741924 -7.997354 47.273756 0.809865 1.740785 0.088608 -0.012984 540526.000000 0 0 1
-31.104538 -33.473924 -7.014154 46.229798 0.822072 1.723108 0.110715 -0.030024 190106.000000 0 0 1
-31.132788 -32.021724 -6.453554 45.125266 0.799473 1.714303 0.102593 -0.028470 129090.000000 0 0 1
-32.223198 -31.682724 -5.614354 45.537352 0.776941 1.694402 0.088788 -0.034186 -65477.500000 0 0 1
-32.347718 -32.511124 -4.443054 46.076987 0.787918 1.667373 0.096342 -0.035496 -742232.000000 0 0 1
-33.578458 -32.467324 -3.544254 46.842307 0.768576 1.646532 0.078771 -0.031995 -753540.000000 0 0 1
-33.766348 -31.357624 -2.640854 46.156700 0.748428 1.628043 0.068359 -0.035276 -222424.000000 0 0 1
-34.890316 -31.496624 -1.807454 47.038690 0.734323 1.609231 0.073035 -0.030294 -353235.000000 0 0 1
-35.385415 -30.104324 -1.367054 46.478670 0.704932 1.600213 0.094365 -0.026129 25086.800000 0 0 1
-36.527008 -30.244224 -0.558554 47.426231 0.691580 1.582574 0.080915 -0.013407 -378509.000000 0 0 1
-37.122928 -28.992524 -0.342654 47.104094 0.663040 1.578071 0.095103 -0.016010 -966406.000000 0 0 1
37.428634 -28.981324 0.773446 47.343616 -0.658878 1.554459 0.087462 -0.008719 -2213200.000000 0 0 1
36.284934 -29.703424 0.538346 46.895412 -0.685989 1.559316 0.053582 -0.008707 -669013.000000 0 0 1
35.309954 -29.645724 1.578446 46.131912 -0.698417 1.536574 0.055155 -0.010413 527980.000000 0 0 1
34.530864 -28.309524 1.737846 44.685902 -0.686717 1.531896 0.041984 0.013007 -1376010.000000 0 0 1
33.559234 -28.076924 0.773646 43.762248 -0.696685 1.553117 0.038010 -0.001353 -511957.000000 0 0 1
33.043824 -26.774724 0.850946 42.538268 -0.680977 1.550791 0.039572 0.000133 -263071.000000 0 0 1
31.819954 -26.676924 -0.105654 41.523234 -0.697704 1.573341 0.036095 -0.009925 84497.700000 0 0 1
30.686914 -27.306824 0.473646 41.080089 -0.727180 1.559266 0.037664 0.000250 -36335.500000 0 0 1
30.486954 -28.668024 0.092346 41.848757 -0.754659 1.568590 0.041127 -0.004902 -287779.000000 0 0 1
29.822254 -28.966024 -1.260854 41.593114 -0.770835 1.601115 0.043856 -0.010613 -264427.000000 0 0 1
28.428554 -28.861324 -1.437454 40.536712 -0.792952 1.606264 0.057075 -0.008204 -128831.000000 0 0 1
28.017954 -29.258624 -2.738654 40.602624 -0.807056 1.638298 0.059288 -0.007291 121136.000000 0 0 1
26.569854 -29.799424 -2.798854 40.022449 -0.842629 1.640786 0.078432 -0.024148 -170231.000000 0 0 1
25.646454 -28.781824 -2.994154 38.666510 -0.842940 1.648309 0.101982 -0.022253 -451089.000000 0 0 1
24.391454 -29.373424 -3.303154 38.322994 -0.877796 1.657096 0.083174 -0.024383 160292.000000 0 0 1
23.215454 -28.399524 -3.506554 36.848151 -0.885500 1.666103 0.075919 -0.023031 -84532.500000 0 0 1
23.254454 -27.582124 -4.644054 36.374585 -0.870322 1.698819 0.088224 -0.028320 -256444.000000 0 0 1
22.612254 -26.376524 -4.425054 35.023080 -0.862087 1.697482 0.091953 -0.028939 -17073.200000 0 0 1
22.029154 -25.656124 -5.670154 34.288059 -0.861313 1.736928 0.099757 -0.037814 33499.700000 0 0 1
20.901054 -26.201024 -6.316554 34.106401 -0.897448 1.757073 0.105653 -0.032004 -339140.000000 0 0 1
20.447654 -25.244524 -7.245254 33.284925 -0.889997 1.790227 0.133270 -0.036775 232330.000000 0 0 1
18.926654 -25.453224 -7.494054 32.592111 -0.931413 1.802807 0.111644 -0.031515 559846.000000 0 0 1
18.100154 -24.753524 -6.560054 31.358999 -0.939426 1.781545 0.089467 -0.024795 -355047.000000 0 0 1
16.762454 -25.142924 -6.640454 30.939330 -0.982780 1.787108 0.077378 -0.020827 -354136.000000 0 0 1
15.846254 -24.289524 -5.756854 29.567315 -0.992742 1.766751 0.063158 -0.014451 -128104.000000 0 0 1
16.150154 -24.626324 -4.417154 29.779096 -0.990349 1.719676 0.058018 -0.010067 243396.000000 0 0 1
15.370854 -23.820524 -3.547954 28.570413 -0.997748 1.695301 0.064914 -0.016599 1932.560000 0 0 1
15.314954 -24.185524 -2.043754 28.699553 -1.006302 1.642069 0.068178 -0.021091 231614.000000 0 0 1
14.480054 -25.332824 -1.709854 29.229224 -1.051527 1.629328 0.056495 -0.013383 809503.000000 0 0 1
15.206554 -26.571724 -1.688854 30.661834 -1.051006 1.625904 0.070742 -0.021809 -263437.000000 0 0 1
14.350454 -27.849324 -1.862354 31.384530 -1.094992 1.630171 0.073131 -0.014836 -336597.000000 0 0 1
13.411554 -28.065024 -0.840954 31.116275 -1.125005 1.597826 0.078079 -0.025681 -692315.000000 0 0 1
12.762354 -29.260524 -1.056054 31.940119 -1.159509 1.603866 0.065498 -0.019209 -721054.000000 0 0 1
13.418854 -30.633824 -0.659054 33.450429 -1.157932 1.590500 0.071178 -0.019287 -142099.000000 0 0 1
14.539954 -31.017824 -1.423854 34.286193 -1.132451 1.612337 0.076084 -0.016045 -271889.000000 0 0 1
15.077554 -32.238224 -0.933454 35.602066 -1.133328 1.597018 0.073669 -0.017505 -287597.000000 0 0 1
16.473154 -32.497424 -1.537954 36.466597 -1.101639 1.612983 0.060836 -0.013082 -90233.100000 0 0 1
17.348354 -31.522124 -0.982454 35.994096 -1.067681 1.598095 0.062354 -0.010357 -118916.000000 0 0 1
18.616054 -31.563124 -1.618354 36.679795 -1.037908 1.614932 0.062831 -0.016762 237530.000000 0 0 1
19.607554 -30.501724 -1.050354 36.275537 -0.999475 1.599755 0.062758 -0.015746 144961.000000 0 0 1
19.213054 -29.193424 -1.452454 34.978666 -0.988727 1.612332 0.076303 -0.019340 487189.000000 0 0 1
19.953054 -28.266424 -0.681354 34.606059 -0.956127 1.590486 0.068761 -0.016258 354493.000000 0 0 1
19.287754 -26.869924 -0.966854 33.089954 -0.948211 1.600019 0.065464 -0.010442 387960.000000 0 0 1
19.663054 -26.365924 -2.230554 32.966241 -0.930005 1.638510 0.062703 -0.011241 -150352.000000 0 0 1
18.529254 -25.879524 -2.869454 31.958047 -0.949425 1.660706 0.079161 -0.016700 -1045520.000000 0 0 1
33.973584 -29.319324 13.630846 46.900183 -0.711995 1.275906 0.070804 -0.045138 149413.000000 0 0 1
34.683794 -30.011324 14.657246 48.150597 -0.713300 1.261483 0.077967 -0.039168 74168.600000 0 0 1
33.966254 -30.122924 15.852546 48.087422 -0.725501 1.234852 0.069601 -0.030113 -242602.000000 0 0 1
34.837014 -30.793824 16.906446 49.474287 -0.723871 1.222048 0.067942 -0.017997 -220330.000000 0 0 1
34.076214 -31.062624 18.090046 49.531048 -0.739167 1.196920 0.059599 -0.013295 84156.900000 0 0 1
34.803674 -31.220224 19.260346 50.566383 -0.731176 1.180035 0.044082 -0.014023 -224607.000000 0 0 1
35.698674 -32.500124 19.280346 51.984470 -0.738532 1.190833 0.036161 -0.009004 313185.000000 0 0 1
36.889664 -32.476024 18.508246 52.517565 -0.721855 1.210640 0.045041 -0.003615 26031.100000 0 0 1
37.447824 -33.719124 18.402946 53.646876 -0.733052 1.220647 0.056698 -0.014193 -467238.000000 0 0 1
-36.987478 -33.803524 17.313046 53.014086 0.740452 1.238119 0.062531 -0.011552 -380600.000000 0 0 1
-35.764125 -33.211924 17.657146 51.902595 0.748414 1.223669 0.079575 -0.017934 3450.530000 0 0 1
-34.952978 -32.926324 16.519846 50.781481 0.755550 1.239454 0.086515 -0.012122 184534.000000 0 0 1
-33.609298 -32.247024 16.932846 49.559830 0.764716 1.222109 0.075627 -0.015487 389293.000000 0 0 1
-32.593948 -32.266924 15.947146 48.557505 0.780356 1.236168 0.085138 -0.021239 117606.000000 0 0 1
-32.729118 -31.285724 14.925646 47.673542 0.762854 1.252362 0.085319 -0.026265 -499918.000000 0 0 1
-31.535828 -31.158024 13.962446 46.478821 0.779372 1.265680 0.080954 -0.032077 697266.000000 0 0 1
-30.269108 -30.845324 14.547446 45.599135 0.794826 1.246092 0.069470 -0.029808 260445.000000 0 0 1
-29.278428 -30.629324 13.568246 44.491338 0.807944 1.260896 0.072571 -0.027020 543587.000000 0 0 1
-27.972478 -30.058424 14.203446 43.447742 0.821328 1.237766 0.080422 -0.029999 32764.500000 0 0 1
-26.878228 -30.153524 13.361046 42.546348 0.842765 1.251356 0.084547 -0.028688 -337159.000000 0 0 1
-25.704198 -29.642524 14.034346 41.669508 0.856436 1.227279 0.071688 -0.024829 418112.000000 0 0 1
-24.454278 -29.671724 13.166346 40.642042 0.881496 1.240885 0.085358 -0.024088 -347032.000000 0 0 1
-23.965578 -30.931724 12.756046 41.156253 0.911618 1.255664 0.089424 -0.029160 404001.000000 0 0 1
-22.691278 -30.864524 12.113246 40.177651 0.936841 1.264539 0.086452 -0.036848 552806.000000 0 0 1
-22.202278 -32.320624 11.986946 41.003058 0.968890 1.274121 0.072654 -0.034825 90933.000000 0 0 1
-22.945878 -33.042424 10.996746 41.704239 0.963814 1.303957 0.064553 -0.032529 159496.000000 0 0 1
-22.662978 33.240326 11.026246 41.714601 -0.972396 1.303292 0.076493 -0.021860 228794.000000 0 0 1
-23.531578 32.487426 9.987246 41.339002 -0.943928 1.326788 0.074624 -0.013200 202247.000000 0 0 1
-23.179378 32.747326 8.624246 41.037160 -0.954838 1.359061 0.070559 -0.016848 -735610.000000 0 0 1
-24.240878 32.545226 7.753346 41.314964 -0.930608 1.382013 0.076570 -0.024480 -940192.000000 0 0 1
-24.110778 33.055426 6.278846 41.393414 -0.940607 1.418521 0.077110 -0.018289 -355660.000000 0 0 1
-23.375878 32.181426 5.404146 40.140760 -0.942586 1.435756 0.077438 -0.024080 474346.000000 0 0 1
-21.980078 31.991626 5.582846 39.214234 -0.968810 1.427943 0.070975 -0.023331 117849.000000 0 0 1
-21.066378 33.189526 5.242446 39.658797 -1.005231 1.438220 0.084593 -0.026108 -629645.000000 0 0 1
-21.132578 -33.402624 6.168046 40.004574 1.006706 1.415995 0.089413 -0.029912 -5148.740000 0 0 1
-20.537178 -33.605324 7.465946 40.085332 1.022234 1.383451 0.081795 -0.034644 -238221.000000 0 0 1
-20.721778 -32.487024 8.501646 39.459812 1.003011 1.353643 0.078718 -0.035249 -353278.000000 0 0 1
-19.777878 -31.506924 8.154546 38.083426 1.010235 1.355002 0.074077 -0.045679 -240510.000000 0 0 1
-19.799278 -30.327724 8.922546 37.301395 0.992424 1.329253 0.079889 -0.049329 -69724.200000 0 0 1
-19.075678 -30.347924 10.275846 37.289020 1.009637 1.291611 0.070679 -0.041162 121825.000000 0 0 1
-17.683178 -30.553124 10.127746 36.725460 1.046135 1.291407 0.068332 -0.044510 -278136.000000 0 0 1
-17.002278 -30.186724 11.298246 36.441270 1.057847 1.255561 0.087842 -0.040013 653031.000000 0 0 1
-15.561278 -30.795424 11.431546 36.348202 1.102909 1.250865 0.097887 -0.040088 606262.000000 0 0 1
-14.703878 -30.255824 10.466346 35.230148 1.118423 1.269158 0.110871 -0.042490 -146900.000000 0 0 1
-13.595178 -31.138624 10.235046 35.485193 1.159140 1.278208 0.113190 -0.036374 484432.000000 0 0 1
-12.460078 -30.506324 9.406146 34.269008 1.183033 1.292748 0.124073 -0.028823 -56213.800000 0 0 1
-11.634878 -29.684324 10.198146 33.474343 1.197246 1.261220 0.127346 -0.028990 -300996.000000 0 0 1
-10.608578 -29.084524 9.432046 32.363791 1.221042 1.275066 0.134846 -0.026805 751317.000000 0 0 1
-9.454878 -28.384124 10.220946 31.615201 1.249252 1.241590 0.138361 -0.020414 870618.000000 0 0 1
-9.992378 -27.368224 11.132546 31.189756 1.220726 1.205817 0.104765 -0.026902 -171809.000000 0 0 1
-9.131578 -27.180724 12.222046 31.169791 1.246686 1.167870 0.099095 -0.017774 -16898.600000 0 0 1
-9.397278 -25.869024 12.959246 30.421330 1.222354 1.130738 0.080105 -0.020844 91057.200000 0 0 1
-8.917278 -24.725224 12.289546 29.015298 1.224661 1.133431 0.062333 -0.021445 -166068.000000 0 0 1
-9.797278 -24.170624 11.332946 28.436621 1.185697 1.160879 0.067696 -0.016991 136979.000000 0 0 1
-9.270778 -22.783224 10.844346 26.881638 1.184345 1.155555 0.066805 -0.020209 368288.000000 0 0 1
-8.115078 -22.927724 10.024746 26.306474 1.230614 1.179837 0.059823 -0.026435 -76233.000000 0 0 1
-7.600478 -21.658824 9.700146 24.919164 1.233304 1.170963 0.066230 -0.018393 227509.000000 0 1 0
-6.298878 -21.781124 8.855346 24.341536 1.289286 1.198457 0.064140 -0.021041 969259.000000 0 1 0
-5.139478 -22.199424 9.594046 24.723964 1.343290 1.172285 0.058755 -0.024475 780740.000000 0 1 0
-4.006678 -22.390224 8.736046 24.365839 1.393723 1.204096 0.055860 -0.022833 376356.000000 0 1 0
-2.879078 -23.232124 9.305846 25.191654 1.447498 1.192431 0.064656 -0.024099 -336355.000000 0 0 1
-2.017978 -22.581124 10.212046 24.864941 1.481667 1.147574 0.061029 -0.023054 -318192.000000 0 1 0
-1.148478 -23.568624 10.730346 25.921793 1.522106 1.144006 0.072235 -0.031560 348.347000 0 0 1
-0.085378 -23.099424 11.725046 25.904968 1.567100 1.101098 0.079721 -0.029109 -283357.000000 0 0 1
-0.632878 -22.691824 12.945746 26.132580 1.542913 1.052516 0.079378 -0.032564 279985.000000 0 0 1
0.422622 -22.528524 13.906746 26.478493 -1.552039 1.017835 0.111361 -0.035038 227630.000000 0 0 1
0.942522 -21.107124 13.842246 25.258797 -1.526172 0.990805 0.086386 -0.032554 -466434.000000 0 0 1
1.691922 -20.871124 12.653846 24.466022 -1.489908 1.027219 0.082775 -0.044316 -50973.800000 0 1 0
2.317922 -19.558824 12.692946 23.431416 -1.452836 0.998331 0.063723 -0.038231 -296939.000000 0 1 0
3.828122 -19.679924 12.621146 23.690658 -1.378676 1.008952 0.072882 -0.026783 -626211.000000 0 1 0
4.338822 -20.128224 11.406746 23.539003 -1.358486 1.064903 0.076873 -0.020937 -1310950.000000 0 1 0
5.717122 -20.194024 11.291446 23.832349 -1.294906 1.077211 0.117699 -0.025035 -613196.000000 0 1 0
6.184422 -20.786124 9.977646 23.871813 -1.281610 1.139589 0.115597 -0.033070 -554019.000000 0 1 0
6.168622 -19.928324 8.856546 22.663372 -1.270610 1.169310 0.095435 -0.029666 -392324.000000 0 1 0
6.418622 -20.613824 7.651946 22.905910 -1.268937 1.230189 0.099986 -0.037335 78490.100000 0 1 0
7.856522 -21.212324 7.466346 23.820872 -1.216086 1.251986 0.096685 -0.018950 137730.000000 0 1 0
8.839922 -20.326224 6.963746 23.233454 -1.160568 1.266387 0.108220 -0.031121 44054.200000 0 1 0
9.293922 -19.274824 7.818646 22.782165 -1.121507 1.220484 0.108185 -0.022285 -421884.000000 0 1 0
10.135322 -19.599324 9.044046 23.846447 -1.093542 1.181798 0.094741 -0.011928 -92532.900000 0 1 0
9.285422 -19.876924 10.164046 24.178896 -1.133776 1.136945 0.111267 -0.017621 -214959.000000 0 1 0
10.066222 -19.894224 11.309446 25.000251 -1.102370 1.101372 0.099223 -0.005974 -162866.000000 0 0 1
9.278922 -20.133324 12.584846 25.491714 -1.138937 1.054476 0.132634 -0.018872 -202816.000000 0 0 1
9.173122 -21.497824 12.807246 26.651982 -1.167487 1.069530 0.116929 -0.023359 -136576.000000 0 0 1
8.406322 -21.742924 13.956446 27.169899 -1.201874 1.031336 0.158459 -0.028715 -20750.700000 0 0 1
8.715922 -23.150224 14.658446 28.753612 -1.210716 1.035850 0.154635 -0.035147 146055.000000 0 0 1
8.271722 -24.274624 13.944846 29.191394 -1.242380 1.072757 0.166104 -0.031435 -160456.000000 0 0 1
8.440622 -25.549324 14.556546 30.592566 -1.251719 1.074901 0.175892 -0.037028 112002.000000 0 0 1
8.567022 -26.704324 13.542846 31.143594 -1.260359 1.120923 0.186372 -0.046722 293127.000000 0 0 1
9.803122 -26.783624 12.838346 31.277578 -1.219929 1.147833 0.150058 -0.038467 167731.000000 0 0 1
9.933422 -27.841824 11.913346 31.871113 -1.228094 1.187696 0.134965 -0.043587 -559436.000000 0 0 1
11.343222 -28.035224 11.367246 32.308772 -1.186326 1.211269 0.105926 -0.041543 -734331.000000 0 0 1
12.222522 -28.588424 12.288646 33.432004 -1.166781 1.194400 0.081877 -0.032074 1038070.000000 0 0 1
13.499022 -28.897124 11.629346 33.948624 -1.133780 1.221159 0.117865 -0.029469 1014750.000000 0 0 1
14.451022 -29.623524 12.570146 35.275966 -1.116938 1.206451 0.082220 -0.032016 -887702.000000 0 0 1
14.984422 -28.856024 13.628646 35.255397 -1.091842 1.173888 0.064026 -0.025371 167789.000000 0 0 1
15.976922 -29.564024 14.322246 36.529718 -1.075340 1.167914 0.041743 -0.020735 473658.000000 0 0 1
17.431422 -29.617024 13.779646 37.025684 -1.038830 1.189456 0.062483 -0.019083 -60642.300000 0 0 1
18.057922 -28.347124 13.639046 36.272187 -1.003594 1.185300 0.056453 -0.017211 232202.000000 0 0 1
19.376122 -28.498224 13.156146 36.887221 -0.973684 1.206107 0.068255 -0.011642 -143560.000000 0 0 1
20.115522 -27.168024 12.829646 36.157096 -0.933460 1.208063 0.034945 -0.010704 1504800.000000 0 0 1
21.490222 -27.498424 12.432846 37.048193 -0.907434 1.228569 0.050378 -0.016420 1260120.000000 0 0 1
22.133022 -26.347024 11.937146 36.421584 -0.872103 1.236876 0.046407 -0.015321 402255.000000 0 0 1
23.511922 -26.759724 11.322346 37.377652 -0.849914 1.263044 0.062928 -0.012900 483631.000000 0 0 1
24.474322 -27.243424 12.255646 38.618616 -0.838890 1.247862 0.078380 -0.022452 355358.000000 0 0 1
25.419522 -28.045124 11.561746 39.577204 -0.834468 1.274342 0.063463 -0.027302 -974175.000000 0 0 1
26.476122 -28.735224 12.362246 40.981987 -0.826293 1.264373 0.078513 -0.027569 -374557.000000 0 0 1
27.425122 -27.877624 12.981546 41.204609 -0.793580 1.250286 0.071727 -0.029353 1072000.000000 0 0 1
28.634522 -27.728624 12.199446 41.684997 -0.769327 1.273791 0.056164 -0.031667 -52244.300000 0 0 1
29.865322 -27.181624 12.880246 42.387249 -0.738389 1.262043 0.082189 -0.044097 -536033.000000 0 0 1
29.989922 -25.805124 13.069346 41.666625 -0.710535 1.251746 0.090852 -0.044253 -129612.000000 0 0 1
29.292022 -25.282624 14.178946 41.210146 -0.712064 1.219554 0.108239 -0.032499 44471.900000 0 0 1
30.093822 -25.190424 15.543746 42.211416 -0.696935 1.193686 0.092504 -0.019451 295745.000000 0 0 1
30.597122 -26.350624 16.185746 43.503076 -0.710968 1.189569 0.101446 -0.020081 251112.000000 0 0 1
31.257022 -26.072024 17.433546 44.279571 -0.695201 1.166126 0.103010 -0.007122 442201.000000 0 0 1
31.711722 -27.436124 18.040146 45.648889 -0.713237 1.164518 0.091212 0.002527 450029.000000 0 0 1
30.568822 -28.102424 18.580246 45.490930 -0.743385 1.150054 0.084782 -0.005349 563609.000000 0 0 1
30.940922 -29.099124 19.581146 46.770942 -0.754732 1.138826 0.095789 -0.011577 483051.000000 0 0 1
29.723222 -29.889324 20.148446 46.720461 -0.788185 1.124913 0.090731 -0.009960 -144467.000000 0 0 1
28.724622 -29.092924 20.843046 45.890464 -0.791768 1.099332 0.098377 -0.008005 1468240.000000 0 0 1
27.513722 -29.801824 21.167246 45.751568 -0.825298 1.089807 0.117019 -0.014052 1097590.000000 0 0 1
26.664522 -30.356124 19.965446 45.067838 -0.850049 1.111844 0.127412 -0.017856 -1157880.000000 0 0 1
27.203122 -31.495824 19.338346 45.890832 -0.858399 1.135809 0.111653 -0.011266 -295912.000000 0 0 1
26.701722 -31.971124 18.117146 45.424286 -0.874968 1.160542 0.132567 -0.008705 -321859.000000 0 0 1
26.987022 -31.079224 16.866246 44.482444 -0.855757 1.181901 0.130243 -0.006638 -109487.000000 0 0 1
28.341222 -31.104224 16.506246 45.201259 -0.831844 1.196978 0.118116 -0.017929 -309587.000000 0 0 1
28.763122 -29.951224 15.811746 44.434270 -0.805631 1.206977 0.112489 -0.031043 341131.000000 0 0 1
30.229622 -30.103924 15.291046 45.319890 -0.783315 1.226640 0.118658 -0.026966 270499.000000 0 0 1
30.363022 -31.084424 14.248746 45.729436 -0.797138 1.253932 0.141510 -0.020647 191625.000000 0 0 1
30.646022 -32.385924 14.716146 46.953080 -0.812995 1.252001 0.153880 -0.030835 -107527.000000 0 0 1
29.663522 -33.489124 14.182346 46.931705 -0.845901 1.263806 0.133717 -0.031585 201641.000000 0 0 1
29.723622 -33.687624 12.757046 46.702162 -0.847830 1.294122 0.129946 -0.034292 -267358.000000 0 0 1
28.818022 33.045526 12.373746 45.558696 0.853628 1.295741 0.111059 -0.040888 -651891.000000 0 0 1
29.147222 32.557926 10.962346 45.052771 0.840616 1.325007 0.112152 -0.047007 358920.000000 0 0 1
30.482022 32.044426 10.923046 45.555591 0.810381 1.328663 0.090546 -0.035192 557511.000000 0 0 1
30.804822 31.410726 9.732846 45.058840 0.795137 1.353077 0.081785 -0.040693 -177179.000000 0 0 1
32.258022 30.912926 9.637546 45.706359 0.764108 1.358344 0.061440 -0.027982 -72623.900000 0 0 1
32.578122 29.914226 10.539946 45.467411 0.742796 1.336855 0.052120 -0.020346 672970.000000 0 0 1
33.975122 29.595326 10.486746 46.261908 0.716610 1.342127 0.062705 -0.014973 883698.000000 0 0 1
34.555522 28.625026 11.558346 46.336504 0.691807 1.318691 0.060490 -0.012794 26625.800000 0 0 1
34.224722 27.267426 11.399746 45.219447 0.672736 1.315948 0.053970 -0.020766 74894.100000 0 0 1
34.063522 26.625526 12.638246 45.044061 0.663447 1.286403 0.070984 -0.027343 -26798.400000 0 0 1
33.951822 25.104526 12.414946 44.012434 0.636693 1.284837 0.065342 -0.034569 650807.000000 0 0 1
35.118922 24.529226 11.780846 44.427581 0.609693 1.302416 0.077075 -0.022826 483207.000000 0 0 1
35.103322 23.146426 11.600346 43.618440 0.582941 1.301607 0.078769 -0.031659 -459053.000000 0 0 1
33.922622 22.502226 10.859046 42.130907 0.585696 1.310108 0.069676 -0.028590 -297938.000000 0 0 1
32.826122 22.331726 11.729546 41.398581 0.597384 1.283530 0.086867 -0.040946 -155961.000000 0 0 1
31.678322 22.211326 10.896946 40.194559 0.611499 1.296255 0.090141 -0.033787 -335396.000000 0 0 1
30.335922 21.836726 11.503546 39.108086 0.623912 1.272233 0.087468 -0.031774 -216282.000000 0 0 1
29.742022 22.979726 12.176446 39.508500 0.657831 1.257498 0.081591 -0.031063 508710.000000 0 0 1
28.846522 22.505326 13.201346 38.895849 0.662535 1.224515 0.139449 -0.035089 245301.000000 0 0 1
25.811022 9.489126 25.804722 37.711219 0.352301 0.817192 0.070301 -0.004810 -241484.000000 0 0 1
25.454022 8.165826 26.026492 37.309064 0.310435 0.798766 0.054497 -0.011102 -506628.000000 0 0 1
24.076222 8.107026 25.794592 36.204272 0.324798 0.777779 0.052644 -0.011053 -521465.000000 0 0 1
23.464522 6.775226 26.258132 35.860522 0.281098 0.749207 0.061130 -0.016540 -199549.000000 0 0 1
23.440122 6.566426 27.692082 36.870160 0.273135 0.721115 0.055330 -0.006067 786884.000000 0 0 1
24.718022 6.122726 28.205012 37.999883 0.242816 0.734390 0.048644 -0.004928 709425.000000 0 0 1
24.880922 6.111926 29.734522 39.249939 0.240878 0.711216 0.058509 -0.016684 -212076.000000 0 0 1
24.972022 7.333126 30.466182 40.069501 0.285624 0.706970 0.104095 -0.020692 106229.000000 0 0 1
25.188922 7.101626 31.819615 41.199549 0.274802 0.688297 0.108601 -0.024093 16165.700000 0 0 1
25.119422 8.270426 32.817087 42.146726 0.318066 0.678302 0.156409 -0.025857 1114910.000000 0 0 1
26.210422 9.245526 32.723122 42.933305 0.339116 0.704115 0.124669 -0.029551 794415.000000 0 0 1
26.340722 9.863926 -33.555324 43.784592 0.358310 2.443972 0.134909 -0.026290 92141.100000 0 0 1
27.475922 10.893926 -33.534944 44.701190 0.377477 2.419165 0.112294 -0.029502 -85592.100000 0 0 1
27.113822 12.057026 33.382304 44.664409 0.418423 0.726652 0.116872 -0.037251 189314.000000 0 0 1
27.366222 13.162726 -33.334934 45.093074 0.448320 2.402748 0.116317 -0.037833 -133108.000000 0 0 1
26.875322 14.568126 -33.774204 45.554474 0.496729 2.405954 0.117800 -0.038297 -120310.000000 0 0 1
27.782022 15.169226 32.871765 45.634407 0.499774 0.766520 0.098380 -0.042803 554247.000000 0 0 1
27.638722 16.572326 32.897891 46.052277 0.540129 0.775088 0.103822 -0.049295 -57965.900000 0 0 1
28.320022 17.403826 -33.552974 47.230487 0.551043 2.360876 0.097237 -0.056890 -191266.000000 0 0 1
27.673922 17.223826 -32.256024 45.858012 0.556716 2.350951 0.116905 -0.064035 325018.000000 0 0 1
28.529222 16.637526 -31.303384 45.504128 0.527956 2.329421 0.099090 -0.057883 -274688.000000 0 0 1
27.744822 16.064226 -30.111464 43.983347 0.524834 2.324866 0.114620 -0.049947 280808.000000 0 0 1
26.906522 14.959226 -30.432394 43.288220 0.507415 2.350429 0.129979 -0.036512 294862.000000 0 0 1
25.947222 14.672326 -29.433314 41.890995 0.514641 2.349865 0.163105 -0.037771 -57063.900000 0 0 1
24.999122 13.494726 -29.712614 41.108432 0.494985 2.378622 0.154457 -0.029315 -1085840.000000 0 0 1
24.012322 13.954926 -30.619504 41.338670 0.526449 2.404906 0.167236 -0.031134 -27892.400000 0 0 1
23.476822 12.886126 -31.386964 41.259604 0.501988 2.435216 0.141141 -0.017345 -371722.000000 0 0 1
22.529822 11.981926 -30.636474 39.871707 0.488782 2.447097 0.144305 -0.017341 -2264620.000000 0 0 1
21.343122 12.544926 -30.256964 39.094602 0.531381 2.455839 0.170595 -0.015316 -717231.000000 0 0 1
20.679022 11.778726 -29.244074 37.703796 0.517765 2.458504 0.147646 -0.006207 -337271.000000 0 0 1
19.345022 12.388526 -28.860014 36.886391 0.569596 2.469311 0.135028 0.000030 70428.600000 0 0 1
18.270522 12.318926 -29.812734 37.072457 0.593235 2.505082 0.086427 0.007511 486547.000000 0 0 1
17.098822 12.923226 -29.348534 36.341656 0.647200 2.510821 0.076052 -0.007914 -799432.000000 0 0 1
16.088022 13.434126 -30.364224 36.895614 0.695744 2.537427 0.060665 -0.002865 -104325.000000 0 0 1
15.348122 12.358626 -30.906314 36.653796 0.677916 2.573996 0.058296 0.004277 790043.000000 0 0 1
14.019722 12.202726 -30.376094 35.611322 0.716217 2.592483 0.076188 -0.009283 570910.000000 0 0 1
12.959222 11.614226 -31.307294 35.818687 0.730719 2.634272 0.079151 -0.006811 -243.928000 0 0 1
12.752822 12.491826 -32.371234 36.967242 0.775060 2.637625 0.091436 -0.010487 225101.000000 0 0 1
11.563922 12.110926 -33.047694 37.047927 0.808499 2.672603 0.106317 -0.012569 409670.000000 0 0 1
11.128222 12.916026 33.273554 37.387036 0.859616 0.473504 0.120138 -0.016198 296450.000000 0 0 1
12.118122 12.807826 32.243527 36.749617 0.813061 0.500414 0.092242 0.001843 508968.000000 0 0 1
11.571122 13.096326 30.989842 35.577731 0.847150 0.513468 0.117076 -0.022231 -501900.000000 0 0 1
12.393222 12.760726 29.758862 34.670131 0.800007 0.538765 0.105666 -0.022091 -983716.000000 0 0 1
12.520422 11.388326 29.498582 34.009136 0.738083 0.520899 0.113147 -0.019783 224735.000000 0 0 1
12.183622 11.111526 28.147862 32.622214 0.739408 0.529928 0.152448 -0.022177 122574.000000 0 0 1
12.893422 9.821526 27.579152 31.989254 0.650977 0.531322 0.156514 -0.021949 129690.000000 0 0 1
12.223722 8.633526 27.920042 31.677846 0.614937 0.492033 0.156499 -0.031947 80328.300000 0 0 1
12.758622 7.521426 27.227422 30.994948 0.532676 0.498194 0.130387 -0.025759 -484464.000000 0 0 1
12.080422 6.165226 27.470412 30.636093 0.471892 0.458611 0.134061 -0.026475 751761.000000 0 0 1
10.723822 6.234126 26.951752 29.669204 0.526582 0.431335 0.132165 -0.028416 544106.000000 0 0 1
9.989222 5.042926 27.116472 29.334600 0.467509 0.391375 0.120482 -0.023895 -190385.000000 0 0 1
10.509622 3.689926 26.670372 28.902880 0.337654 0.395619 0.107150 -0.028382 -568718.000000 0 0 1
11.451422 3.142326 27.584922 30.032270 0.267813 0.406502 0.107915 -0.036359 296694.000000 0 0 1
11.510622 1.767226 27.323822 29.702000 0.152340 0.402889 0.077987 -0.030261 -606449.000000 0 0 1
12.227622 1.002926 28.419702 30.954807 0.081838 0.407529 0.054937 -0.027012 -257472.000000 0 0 1
11.402422 0.916526 29.541422 31.678871 0.080208 0.369446 0.051965 -0.027871 -185740.000000 0 0 1
11.611422 -0.223974 30.343262 32.489827 -0.019287 0.365539 0.047668 -0.027826 163310.000000 0 0 1
10.516422 -0.198174 31.446502 33.158964 -0.018842 0.322784 0.075672 -0.023400 325454.000000 0 0 1
10.730122 0.874126 32.342857 34.087535 0.081285 0.321325 0.065679 -0.025723 21351.400000 0 0 1
9.567522 1.166826 33.079894 34.455455 0.121358 0.283519 0.084697 -0.034334 -298104.000000 0 0 1
9.662622 2.534526 33.695392 35.144979 0.256523 0.288210 0.088895 -0.033626 -226335.000000 0 0 1
9.752622 3.676226 32.918334 34.528901 0.360477 0.306631 0.080336 -0.032649 42239.500000 0 0 1
10.812122 3.761626 31.999958 33.986014 0.334810 0.343557 0.081841 -0.029712 -475855.000000 0 0 1
10.904222 5.028126 31.129702 33.365289 0.432061 0.368145 0.096641 -0.029500 79103.300000 0 0 1
11.280322 6.167526 31.886251 34.380475 0.500345 0.383255 0.091175 -0.026890 93036.900000 0 0 1
11.237622 7.345326 31.090822 33.865575 0.578928 0.407623 0.102432 -0.021265 -217870.000000 0 0 1
11.204022 8.614526 32.007249 34.988629 0.655474 0.415809 0.128792 -0.027937 -45324.700000 0 0 1
9.969222 9.030026 32.555366 35.224688 0.736005 0.391808 0.136171 -0.034131 -75160.200000 0 0 1
9.492922 8.306726 33.662812 35.948605 0.718855 0.358526 0.127079 -0.032687 -888537.000000 0 0 1
8.131622 8.795326 -33.485704 35.563653 0.824588 2.798061 0.132377 -0.043364 -662070.000000 0 0 1
7.600722 8.060726 -32.374784 34.218020 0.814761 2.811871 0.132941 -0.037526 355545.000000 0 0 1
6.265522 8.478726 -32.100244 33.787146 0.934392 2.824265 0.114573 -0.035792 513279.000000 0 0 1
5.679522 7.899026 -30.794864 32.295127 0.947422 2.835589 0.110669 -0.031771 -142641.000000 0 0 1
6.029922 8.620926 -29.598654 31.412747 0.960438 2.800082 0.112875 -0.036805 282379.000000 0 0 1
5.539722 7.994026 -28.399614 30.018845 0.964795 2.811646 0.101799 -0.034374 561103.000000 0 0 1
4.033022 8.091426 -27.997804 29.421310 1.108404 2.829251 0.086674 -0.030453 670625.000000 0 0 1
3.171322 7.287726 -28.803524 29.879947 1.160352 2.872359 0.070666 -0.024688 -754890.000000 0 0 1
1.918722 7.149526 -28.243214 29.197198 1.308604 2.885260 0.086779 -0.014302 -600592.000000 0 0 1
0.872222 6.513926 -29.186884 29.917657 1.437687 2.920115 0.089924 -0.029663 -176018.000000 0 0 1
0.675622 7.227626 -30.386194 31.241252 1.477589 2.907092 0.088167 -0.033975 24091.200000 0 0 1
0.057122 6.402726 -31.380364 32.026948 1.561875 2.940311 0.122766 -0.038494 -469631.000000 0 0 1
-0.182478 7.172226 -32.660354 33.439092 -1.545360 2.925356 0.137698 -0.046232 491981.000000 0 0 1
0.988622 7.718626 -33.315904 34.212630 1.443407 2.912134 0.095138 -0.037444 1057680.000000 0 0 1
1.899822 6.787226 33.653882 34.384001 1.297870 0.206445 0.106813 -0.039817 113771.000000 0 0 1
1.426022 6.243626 32.279834 32.909028 1.346251 0.195859 0.137847 -0.042144 -125137.000000 0 0 1
0.386722 5.296426 32.201232 32.636192 1.497910 0.163446 0.131913 -0.044222 -326529.000000 0 0 1
0.145622 4.886926 30.864592 31.249421 1.541007 0.157099 0.151640 -0.041729 189130.000000 0 0 1
1.258722 4.033626 30.145942 30.440637 1.268315 0.139260 0.164500 -0.044863 491061.000000 0 0 1
1.022422 4.094926 28.728462 29.036844 1.326119 0.145871 0.144153 -0.040436 -179719.000000 0 0 1
2.041322 3.567026 27.926592 28.227384 1.051012 0.146117 0.128733 -0.032121 -304622.000000 0 0 1
1.971022 4.032626 26.420072 26.798642 1.116174 0.168285 0.124055 -0.025771 86340.800000 0 0 1
2.430322 5.366926 26.329482 26.980586 1.145589 0.220136 0.116579 -0.016838 -106936.000000 0 0 1
2.349822 5.845926 25.018882 25.800019 1.188602 0.246701 0.102196 -0.013493 -283453.000000 0 0 1
3.035422 7.201626 24.660512 25.869250 1.171901 0.306898 0.097351 -0.003691 1514110.000000 0 0 1
4.478022 7.306326 24.661452 26.107898 1.020948 0.334430 0.085026 0.004464 1083140.000000 0 0 1
5.114722 6.815826 23.487122 24.985211 0.927027 0.348046 0.073119 -0.003486 -357366.000000 0 1 0
6.643722 6.689426 23.604012 25.417255 0.788826 0.380010 0.081818 -0.007926 64566.300000 0 0 1
7.203322 5.680026 24.471522 26.134383 0.667707 0.358647 0.093763 -0.003712 143614.000000 0 0 1
6.907122 4.259526 24.223392 25.546519 0.552598 0.323253 0.090956 -0.009579 -568677.000000 0 0 1
7.078422 3.705626 22.766692 24.127951 0.482278 0.337511 0.078795 -0.013659 -47716.600000 0 1 0
6.195222 4.179226 21.774352 23.021058 0.593467 0.330609 0.064362 -0.014281 -67595.400000 0 1 0
4.937122 3.508726 21.816052 22.641256 0.617859 0.270815 0.061022 -0.018960 298759.000000 0 1 0
3.890322 4.025026 20.800452 21.540526 0.802415 0.262891 0.042056 -0.019798 201357.000000 0 1 0
3.354222 5.291426 21.155052 22.063233 1.005824 0.287917 0.040150 -0.011848 -246173.000000 0 1 0
2.221222 5.582826 20.379352 21.246642 1.192130 0.286708 0.037348 -0.012725 -271585.000000 0 1 0
1.759022 7.051926 20.508352 21.758133 1.326346 0.340582 0.043534 -0.006517 47951.700000 0 1 0
2.604622 8.026826 19.949352 21.660809 1.257026 0.400187 0.039223 -0.004540 -409796.000000 0 1 0
2.076922 9.298726 20.201652 22.335771 1.351048 0.440701 0.051647 -0.011084 48108.800000 0 1 0
2.965322 10.417026 19.637352 22.426172 1.293471 0.504028 0.057426 -0.023215 -303200.000000 0 1 0
3.126422 10.469626 18.196652 21.225121 1.280608 0.540762 0.044577 -0.025745 -48927.200000 0 1 0
3.848322 11.595426 17.658052 21.472548 1.250352 0.605259 0.044066 -0.025034 126818.000000 0 1 0
5.381322 11.538426 17.792352 21.878339 1.134402 0.621097 0.048531 -0.023806 -187766.000000 0 1 0
5.843022 10.335226 17.139552 20.849989 1.056244 0.605810 0.046959 -0.017966 -463232.000000 0 1 0
7.181422 10.059726 17.417952 21.357808 0.950817 0.617150 0.043650 -0.008510 -430453.000000 0 1 0
7.447322 8.604026 17.695352 21.038473 0.857337 0.571492 0.052426 -0.009167 -31362.600000 0 1 0
6.979022 8.270026 18.998652 21.864329 0.869858 0.517753 0.057019 -0.014064 62405.200000 0 1 0
7.089122 6.841526 19.279752 21.651120 0.767627 0.472411 0.055212 -0.025431 7684.320000 0 1 0
8.424522 6.341926 19.887852 22.510426 0.645287 0.487525 0.077867 -0.015945 1459450.000000 0 1 0
9.584922 6.456626 18.970552 22.213523 0.592803 0.547153 0.087919 -0.008057 1002920.000000 0 1 0
10.679822 5.677226 19.409752 22.869805 0.488595 0.557262 0.100210 -0.008129 -112346.000000 0 1 0
10.684722 4.128626 19.304452 22.447065 0.368732 0.535529 0.100955 -0.009341 -432537.000000 0 1 0
9.759222 3.458626 20.135952 22.642020 0.340585 0.474945 0.102291 -0.020293 54454.300000 0 1 0
10.007822 2.066026 20.109852 22.557285 0.203581 0.470148 0.101300 -0.026636 286069.000000 0 1 0
9.051922 1.201426 20.972952 22.874559 0.131955 0.410634 0.089691 -0.033284 -97529.100000 0 1 0
9.456522 1.248826 22.330752 24.282666 0.131300 0.403692 0.101948 -0.030373 39562.700000 0 1 0
8.783522 0.288926 23.082762 24.699143 0.032882 0.363784 0.088311 -0.033229 -671239.000000 0 1 0
9.314322 0.178226 24.522732 26.232666 0.019132 0.363054 0.094659 -0.024640 853668.000000 0 0 1
10.685722 -0.238674 24.678022 26.893241 -0.022332 0.408723 0.085674 -0.035528 1002570.000000 0 0 1
10.859222 -1.614674 24.465122 26.815520 -0.147610 0.421810 0.085891 -0.034836 -324060.000000 0 0 1
12.307822 -2.054774 24.784742 27.748658 -0.165423 0.466413 0.081161 -0.030913 196821.000000 0 0 1
12.397222 -3.423674 24.424712 27.603971 -0.269449 0.484676 0.082039 -0.018216 -305134.000000 0 0 1
13.649822 -3.942974 24.778472 28.562867 -0.281211 0.520629 0.085081 -0.020039 -330310.000000 0 0 1
13.639822 -5.514874 24.745922 28.789221 -0.384226 0.536398 0.099314 -0.018092 -25938.000000 0 0 1
13.522922 -6.086074 23.475472 27.767022 -0.422901 0.563400 0.113918 -0.026502 211850.000000 0 0 1
13.050122 -7.435274 23.677032 28.039095 -0.517878 0.565298 0.125446 -0.036381 141826.000000 0 0 1
13.125422 -8.393574 22.448052 27.324784 -0.568951 0.606712 0.149004 -0.037042 132235.000000 0 0 1
12.474822 -9.621274 22.685232 27.619013 -0.656966 0.607000 0.142332 -0.031645 -310008.000000 0 0 1
12.626522 -10.612874 21.643352 27.212072 -0.698966 0.651198 0.163257 -0.039246 -141188.000000 0 0 1
11.829222 -11.881874 21.895452 27.577532 -0.787619 0.653502 0.156970 -0.039491 259580.000000 0 0 1
10.429022 -11.650774 21.759952 26.795532 -0.840675 0.623099 0.120003 -0.033960 -245383.000000 0 0 1
9.726422 -12.791174 22.125552 27.345155 -0.920672 0.628141 0.118906 -0.034116 -1490920.000000 0 0 1
8.343722 -12.391274 22.496262 27.004503 -0.978178 0.586187 0.079046 -0.032798 -1478270.000000 0 0 1
7.576722 -11.837774 21.476052 25.666329 -1.001450 0.579493 0.071550 -0.034319 -785875.000000 0 0 1
6.238722 -11.663574 21.852652 25.544060 -1.079628 0.544303 0.037437 -0.036786 -259471.000000 0 0 1
5.565022 -10.542974 21.101052 24.235886 -1.085124 0.514268 0.026660 -0.038956 -182500.000000 0 1 0
5.968122 -9.274074 21.626752 24.276395 -0.998985 0.471572 0.037781 -0.032055 -411025.000000 0 1 0
5.257222 -8.246874 21.083052 23.241007 -1.003272 0.434338 0.022553 -0.028629 -757055.000000 0 1 0
5.670522 -6.809874 21.643752 23.387630 -0.876437 0.388612 0.040604 -0.027184 -127308.000000 0 1 0
4.840822 -5.686774 21.365752 22.633345 -0.865582 0.336263 0.027329 -0.023829 -480662.000000 0 1 0
5.507922 -4.481074 21.340352 22.490617 -0.682960 0.321205 0.055378 -0.051671 -421169.000000 0 1 0
-8.556478 -15.378074 -20.770754 27.223569 1.063047 2.438691 0.108044 -0.023797 -552.479000 0 0 1
-7.770178 -15.072674 -19.650554 25.955836 1.094815 2.429623 0.067579 -0.013652 -88055.600000 0 0 1
-6.931778 -13.956874 -19.844354 25.231771 1.109827 2.475890 0.080811 -0.024835 205008.000000 0 0 1
-6.200578 -13.400774 -18.604954 23.752310 1.137429 2.470737 0.057533 -0.022334 -148608.000000 0 1 0
-5.185978 -14.183674 -18.068254 23.548520 1.220266 2.445382 0.049098 -0.011697 -581580.000000 0 1 0
-4.616278 -13.611174 -16.969554 22.238252 1.243817 2.438861 0.044910 -0.010102 -142777.000000 0 1 0
-3.557578 -14.499674 -16.292254 22.098291 1.330194 2.399807 0.039224 -0.006792 -487504.000000 0 1 0
-2.374578 -14.660274 -16.995054 22.569761 1.410217 2.423407 0.043799 -0.010087 -960831.000000 0 1 0
-1.419378 -15.350574 -16.243554 22.394370 1.478594 2.382326 0.052101 -0.006590 656469.000000 0 1 0
-0.096078 -15.584174 -17.097354 23.134287 1.564631 2.402453 0.066890 -0.003016 883072.000000 0 1 0
-0.150678 -16.406774 -18.254454 24.544450 1.561613 2.409430 0.106777 -0.017937 -305060.000000 0 1 0
-0.349778 -17.775374 -18.020954 25.314838 1.551121 2.362958 0.106527 -0.016155 -129138.000000 0 0 1
-0.621278 -18.474374 -19.393054 26.791398 1.537180 2.380168 0.118959 -0.030253 724267.000000 0 0 1
-1.965978 -18.142774 -19.764754 26.901130 1.462856 2.396048 0.149580 -0.032496 501916.000000 0 0 1
-2.086678 -18.402974 -21.137554 28.103734 1.457890 2.422079 0.164497 -0.042104 467561.000000 0 0 1
-3.356978 -17.728274 -21.765554 28.271900 1.383655 2.449426 0.168106 -0.046839 511109.000000 0 0 1
-3.327478 -16.281474 -21.886154 27.480215 1.369200 2.492170 0.143483 -0.043172 -148100.000000 0 0 1
-3.569578 -15.564174 -20.741554 26.176277 1.345349 2.485497 0.124650 -0.029789 -106611.000000 0 0 1
-2.566378 -14.383274 -20.515054 25.185955 1.394227 2.522738 0.101517 -0.023565 151395.000000 0 0 1
-2.774778 -13.342574 -21.394254 25.366075 1.365755 2.574414 0.088366 -0.030466 -163655.000000 0 0 1
-1.847178 -12.311774 -21.236454 24.616637 1.421874 2.611355 0.063383 -0.017191 -90855.400000 0 1 0
-1.804978 -11.392974 -22.463054 25.251665 1.413673 2.667193 0.069854 -0.019817 261578.000000 0 0 1
-2.840678 -10.420174 -22.453954 24.916451 1.304650 2.693257 0.071988 -0.021446 188030.000000 0 1 0
-2.980678 -9.953374 -23.753454 25.926447 1.279831 2.729254 0.093753 -0.025266 -256387.000000 0 0 1
-3.968378 -8.795074 -23.843054 25.721442 1.146941 2.757055 0.075794 -0.019967 1305540.000000 0 0 1
-5.357178 -9.203374 -23.609654 25.900139 1.043651 2.717870 0.092675 -0.022027 2001780.000000 0 0 1
-6.251678 -8.076474 -23.642654 25.754378 0.912074 2.733817 0.090791 -0.026634 -663127.000000 0 0 1
-7.717278 -8.485474 -23.444654 26.100028 0.832774 2.686594 0.084882 -0.032810 -194037.000000 0 0 1
-8.491778 -8.873174 -24.552454 27.452987 0.807358 2.677762 0.086069 -0.032771 -79155.800000 0 0 1
-8.909178 -7.733674 -25.237234 27.858592 0.714884 2.704308 0.081989 -0.035170 -748603.000000 0 0 1
-10.053278 -8.090074 -26.209254 29.213741 0.677612 2.684082 0.064949 -0.036690 -71952.200000 0 0 1
-10.641078 -6.983674 -26.857894 29.721216 0.580787 2.699038 0.077153 -0.050316 -204195.000000 0 0 1
-11.443278 -7.511674 -27.889554 31.067685 0.580880 2.685324 0.068235 -0.044834 -15565.200000 0 0 1
-12.236078 -6.439474 -28.667704 31.828064 0.484442 2.692186 0.063430 -0.046825 233785.000000 0 0 1
-11.362778 -5.600274 -29.387014 32.001131 0.457920 2.734591 0.043146 -0.033064 -141103.000000 0 0 1
-12.096078 -5.040574 -30.434624 33.135914 0.394829 2.735012 0.069682 -0.034406 -262243.000000 0 0 1
-11.484678 -3.930374 -31.259114 33.533235 0.329734 2.771194 0.057910 -0.033508 -564020.000000 0 0 1
-10.340078 -4.229374 -32.000284 33.894291 0.388264 2.805711 0.043027 -0.030071 -432348.000000 0 0 1
-9.902078 -3.152974 -32.754804 34.363783 0.308265 2.834373 0.043109 -0.026547 -128925.000000 0 0 1
-8.734078 -3.561374 -33.674684 34.970728 0.387175 2.868492 0.033601 -0.024034 -620151.000000 0 0 1
-7.497378 -3.724174 -33.075134 34.118098 0.461028 2.893696 0.036388 -0.030729 -719711.000000 0 0 1
-6.567278 -4.180274 33.548082 34.439478 0.566848 0.228015 0.040629 -0.029277 -25210.900000 0 0 1
-5.084478 -3.882574 -33.758134 34.358957 0.652157 2.954308 0.085868 -0.039326 -27620.500000 0 0 1
-4.861978 -2.468274 -33.732674 34.170521 0.469764 2.981336 0.116599 -0.045097 116404.000000 0 0 1
-3.488178 -2.146174 -33.614274 33.862854 0.551572 3.020351 0.120818 -0.045886 -28913.500000 0 0 1
-3.210778 -0.672974 -33.327304 33.488374 0.206608 3.043475 0.133768 -0.049806 -75658.500000 0 0 1
-3.553078 -0.349274 -31.985784 32.184418 0.097987 3.030434 0.131278 -0.042741 190885.000000 0 0 1
-4.016678 0.959026 -31.695474 31.963362 -0.234373 3.012033 0.161940 -0.043438 -606473.000000 0 0 1
-4.450678 1.044426 -30.207454 30.551426 -0.230496 2.991393 0.170561 -0.049099 440826.000000 0 0 1
-5.493978 0.196026 -29.771334 30.274652 -0.035665 2.958993 0.145431 -0.049423 -87300.500000 0 0 1
-6.796078 0.601626 -30.100934 30.864459 -0.088295 2.918699 0.144788 -0.048445 181312.000000 0 0 1
-7.873678 -0.548874 -30.064584 31.083360 0.069597 2.884858 0.119456 -0.050513 649841.000000 0 0 1
-8.299178 -1.125474 -28.814684 30.007150 0.134790 2.858731 0.114830 -0.048761 23162.800000 0 0 1
-9.359278 -2.020774 -29.019884 30.558686 0.212647 2.822895 0.077181 -0.035302 -179342.000000 0 0 1
-9.877778 -2.843074 -27.798404 29.637895 0.280250 2.787422 0.077963 -0.037562 161944.000000 0 0 1
-10.590178 -1.993574 -26.878304 28.958063 0.186070 2.760289 0.081192 -0.037212 400116.000000 0 0 1
-10.927478 -2.690074 -25.655904 28.015561 0.241376 2.728225 0.076742 -0.031378 356455.000000 0 0 1
-11.994078 -1.930574 -24.802454 27.617870 0.159592 2.686131 0.077836 -0.026386 497085.000000 0 0 1
-11.469978 -0.665574 -24.296354 26.875941 0.057962 2.699875 0.097930 -0.023616 -68882.200000 0 0 1
-12.333678 -0.003874 -23.414754 26.464511 0.000314 2.656776 0.099594 -0.027112 -301609.000000 0 0 1
-11.695778 1.234526 -22.808854 25.662406 -0.105164 2.665526 0.119025 -0.026750 40718.100000 0 0 1
-11.545378 2.304326 -23.684954 26.449626 -0.197000 2.680291 0.091294 -0.025947 -584064.000000 0 0 1
-10.436078 3.063126 -23.349854 25.758691 -0.285495 2.705679 0.099140 -0.021843 -689233.000000 0 0 1
-10.149178 4.293826 -24.282654 26.666272 -0.400236 2.715561 0.129445 -0.027424 811246.000000 0 0 1
-11.223178 5.266026 -24.477054 27.437509 -0.438714 2.672772 0.125440 -0.021984 909313.000000 0 0 1
-12.120778 4.934926 -25.542054 28.699534 -0.386651 2.668101 0.103820 -0.021812 511120.000000 0 0 1
-13.451478 5.751726 -25.456074 29.360455 -0.404063 2.619985 0.084720 -0.010024 299977.000000 0 0 1
-13.504278 7.107426 -25.910634 30.070617 -0.484473 2.609327 0.081784 -0.017893 -46764.100000 0 0 1
-14.816378 7.604926 -26.121814 30.979172 -0.474214 2.574015 0.072757 -0.011728 168299.000000 0 0 1
-14.938478 9.116626 -26.113714 31.435602 -0.547943 2.551169 0.098726 -0.009756 -261219.000000 0 0 1
-14.862378 9.672726 -24.816954 30.501362 -0.576951 2.521173 0.155808 -0.029559 128936.000000 0 0 1
-15.158278 11.029826 -24.810854 31.096767 -0.629039 2.494533 0.138546 -0.026068 -246292.000000 0 0 1
-14.871578 11.821326 -23.479554 30.202600 -0.671620 2.461321 0.156600 -0.031909 -4187.950000 0 0 1
-15.781878 11.480526 -22.458954 29.753567 -0.628912 2.426195 0.186624 -0.033978 -2858.350000 0 0 1
-15.392978 12.112626 -21.299154 28.936369 -0.666698 2.398040 0.175430 -0.033342 -55732.300000 0 0 1
-16.455678 11.989126 -20.167554 28.657612 -0.629645 2.351447 0.178161 -0.039144 661369.000000 0 0 1
-17.734078 12.490326 -20.563354 29.889083 -0.613614 2.329510 0.152324 -0.031524 254361.000000 0 0 1
-18.470878 12.794226 -19.414554 29.694957 -0.605790 2.283392 0.137931 -0.022527 -191511.000000 0 0 1
-19.977778 13.078626 -19.592954 30.887634 -0.579643 2.257938 0.122085 -0.023073 -137316.000000 0 0 1
-20.250978 14.250026 -20.291554 32.014255 -0.613185 2.257290 0.104749 -0.017400 -112113.000000 0 0 1
-21.625178 14.536226 -20.251754 33.001269 -0.591817 2.231492 0.088601 -0.016582 -280078.000000 0 0 1
-22.037578 15.855126 -20.860754 34.237566 -0.623666 2.225967 0.092458 -0.010168 -287333.000000 0 0 1
-21.945678 15.749126 -22.252754 34.997611 -0.622468 2.259888 0.091819 -0.013693 168916.000000 0 0 1
-21.912478 17.026126 -22.838754 35.939593 -0.660562 2.259421 0.089182 0.001637 -104968.000000 0 0 1
-21.767178 16.881126 -24.363954 36.774784 -0.659642 2.294972 0.086274 -0.003518 -641110.000000 0 0 1
-20.484378 16.613526 -24.832654 36.225401 -0.681433 2.326092 0.098121 -0.022644 -493867.000000 0 0 1
-20.411378 16.480926 -26.252734 37.114031 -0.679260 2.356543 0.098849 -0.023704 -75087.100000 0 0 1
-19.768178 17.693426 -26.922354 37.797504 -0.730071 2.363536 0.078548 -0.014353 208507.000000 0 0 1
-20.737078 18.728726 -27.080944 38.912326 -0.734554 2.340535 0.079032 -0.023894 861811.000000 0 0 1
-20.044478 19.972826 -27.187784 39.241183 -0.783608 2.336214 0.064922 -0.018791 -293941.000000 0 0 1
-21.036078 21.135626 -27.453254 40.532856 -0.787759 2.314895 0.085816 -0.011637 298547.000000 0 0 1
-21.859378 21.521826 -26.376704 40.456791 -0.777617 2.280979 0.096826 -0.005773 -200790.000000 0 0 1
-22.916978 20.701226 -26.037494 40.394056 -0.734643 2.271280 0.120577 -0.018868 -1050920.000000 0 0 1
-23.831078 21.209426 -24.899254 40.468912 -0.727257 2.233523 0.128615 -0.002723 -37804.900000 0 0 1
-23.445978 20.831226 -23.607354 39.255076 -0.726413 2.216028 0.098978 -0.004745 -31262.000000 0 0 1
-24.413178 21.107826 -22.628554 39.415670 -0.712914 2.182301 0.098304 -0.009270 -73958.500000 0 0 1
-23.989578 20.511426 -21.254554 38.052260 -0.707398 2.163448 0.103982 -0.008347 -353945.000000 0 0 1
-22.786378 20.993626 -20.733754 37.280557 -0.744472 2.160548 0.110655 -0.011376 -317815.000000 0 0 1
-22.113978 20.054326 -19.902554 35.879182 -0.736593 2.158811 0.109104 -0.010116 -276920.000000 0 0 1
-22.628278 19.665226 -18.511554 35.234042 -0.715453 2.123968 0.128297 -0.017580 52461.700000 0 0 1
-23.711978 18.694626 -18.660054 35.495698 -0.667630 2.124333 0.158133 -0.017912 1006620.000000 0 0 1
-24.517578 18.485626 -17.521454 35.352954 -0.646040 2.089339 0.130321 -0.018947 431068.000000 0 0 1
-25.656968 19.534426 -17.309654 36.599152 -0.650738 2.063435 0.097627 -0.014882 -818321.000000 0 0 1
-26.718368 19.416226 -18.197254 37.709429 -0.628421 2.074377 0.100292 -0.003021 -3717.210000 0 0 1
-27.757138 20.320126 -17.761754 38.714934 -0.631926 2.047421 0.081433 -0.002549 -481708.000000 0 0 1
-29.120998 19.851126 -18.277154 39.700807 -0.598323 2.049211 0.049082 0.016083 -289100.000000 0 0 1
-29.752608 18.675226 -17.707354 39.338685 -0.560527 2.037702 0.052045 0.015976 360618.000000 0 0 1
-30.115628 18.774126 -16.326554 39.063733 -0.557449 2.001980 0.047485 0.001452 -511276.000000 0 0 1
-30.916688 17.487426 -15.976154 38.947261 -0.514764 1.993469 0.046261 0.003178 102638.000000 0 0 1
-30.155168 16.267326 -16.069554 37.844294 -0.494710 2.009342 0.070752 -0.013825 55143.200000 0 0 1
-30.928558 15.102426 -15.994554 37.953718 -0.454244 2.005810 0.072042 -0.007709 27743.300000 0 0 1
-30.224848 14.015926 -15.119854 36.586850 -0.434206 1.996827 0.122770 -0.014567 -172862.000000 0 0 1
-29.913288 14.331226 -13.800654 35.925574 -0.446782 1.965079 0.142536 -0.017120 -367028.000000 0 0 1
-30.974708 14.469826 -12.894354 36.538647 -0.437024 1.931461 0.113501 -0.006306 -471790.000000 0 0 1
-30.630088 15.138726 -11.530054 36.060026 -0.459032 1.896258 0.161276 -0.027334 -247985.000000 0 0 1
-30.483608 16.502726 -11.782554 36.611732 -0.496189 1.898452 0.156017 -0.012773 2069.260000 0 0 1
-30.994238 17.260226 -10.690554 37.051938 -0.508114 1.863486 0.089500 -0.011114 4499.990000 0 0 1
-30.796808 18.785626 -10.893954 37.683171 -0.547730 1.864076 0.182943 -0.012894 390894.000000 0 0 1
-29.491938 19.328926 -10.718754 36.854762 -0.580160 1.865899 0.114477 -0.028868 223960.000000 0 0 1
-29.500038 20.722426 -10.589854 37.574142 -0.612371 1.856506 0.080341 -0.028746 526361.000000 0 0 1
-28.065318 21.316226 -10.379654 36.739363 -0.649567 1.857218 0.144891 -0.032479 766262.000000 0 0 1
-28.076798 22.716126 -10.316054 37.559951 -0.680248 1.849028 0.139291 -0.037855 407612.000000 0 0 1
-26.757278 23.239326 -10.126954 36.858831 -0.715150 1.849126 0.124451 -0.022493 484186.000000 0 0 1
-26.714708 24.594826 -9.416854 37.513441 -0.744106 1.824537 0.154182 -0.017443 -41850.300000 0 0 1
-27.049478 24.600926 -8.013654 37.431250 -0.738027 1.786556 0.136208 -0.025613 353506.000000 0 0 1
-28.422438 24.771226 -7.686954 38.477758 -0.716866 1.771926 0.176281 -0.032462 188365.000000 0 0 1
-28.757448 24.344226 -6.260554 38.194590 -0.702480 1.735451 0.181537 -0.032248 -107848.000000 0 0 1
-28.806138 22.896326 -6.123554 37.303260 -0.671588 1.735699 0.199007 -0.045101 128166.000000 0 0 1
-28.825348 22.566326 -4.761154 36.916234 -0.664204 1.700128 0.169759 -0.033748 -289613.000000 0 0 1
-28.895338 21.004726 -4.625154 36.021259 -0.628568 1.699552 0.177715 -0.029071 520823.000000 0 0 1
-27.650338 20.309026 -4.753454 34.635142 -0.633504 1.708475 0.187310 -0.030229 509652.000000 0 0 1
-27.036748 20.223626 -6.018054 34.295740 -0.642223 1.747185 0.181859 -0.027729 -559086.000000 0 0 1
-27.759708 19.395726 -7.090454 34.598701 -0.609853 1.777193 0.189471 -0.026851 -480128.000000 0 0 1
-27.584638 18.053126 -7.084354 33.719663 -0.579506 1.782469 0.175123 -0.027857 276086.000000 0 0 1
-27.974868 17.522526 -8.344854 34.048036 -0.559582 1.818409 0.149312 -0.031284 -197865.000000 0 0 1
-27.790248 16.014426 -8.572554 33.200126 -0.522781 1.831964 0.195219 -0.032514 -15441.900000 0 0 1
-28.730528 15.228326 -7.887654 33.459830 -0.487390 1.808771 0.178388 -0.030317 23042.400000 0 0 1
-28.606858 13.866626 -8.275154 32.849868 -0.451358 1.825448 0.189864 -0.045388 244028.000000 0 0 1
-29.433358 12.875326 -7.390254 32.965322 -0.412360 1.796901 0.163910 -0.038603 925575.000000 0 0 1
-30.851998 12.934626 -7.610254 34.308400 -0.396988 1.794476 0.160834 -0.024917 551261.000000 0 0 1
-31.566628 12.105126 -6.755854 34.476479 -0.366183 1.768028 0.164926 -0.027196 -49879.300000 0 0 1
-32.063708 10.763226 -7.424954 34.627422 -0.323863 1.786899 0.132250 -0.016155 197359.000000 0 0 1
-31.003688 9.894826 -7.795254 33.464940 -0.308932 1.805894 0.169000 -0.015953 273756.000000 0 0 1
-31.579488 8.728826 -8.352754 33.811610 -0.269675 1.820419 0.135866 -0.008189 -191327.000000 0 0 1
-30.623948 7.581126 -8.703354 32.726870 -0.242677 1.839974 0.198523 -0.017326 -567150.000000 0 0 1
-29.968858 7.776426 -9.901554 32.506092 -0.253884 1.880321 0.201513 -0.041035 -209809.000000 0 0 1
-29.093858 6.704226 -10.113354 31.522677 -0.226481 1.897400 0.218852 -0.045164 -432487.000000 0 0 1
-28.182138 6.877726 -11.338654 31.146446 -0.239367 1.943402 0.213890 -0.044684 87090.100000 0 0 1
-27.148348 7.842626 -11.133854 30.372723 -0.281224 1.946120 0.237926 -0.054881 1100730.000000 0 0 1
-26.181118 7.809126 -12.209054 29.924812 -0.289872 1.991049 0.207663 -0.042396 414121.000000 0 0 1
-32.967368 25.164626 -33.661114 53.415132 -0.651971 2.252581 0.068589 0.007559 -87763.600000 0 0 1
-33.470058 26.451326 33.710632 54.372090 -0.668797 0.902055 0.073014 0.000325 71781.100000 0 0 1
-33.150008 26.977726 32.442399 53.658457 -0.683104 0.921521 0.064701 -0.008555 -71538.400000 0 0 1
-33.376688 28.498526 32.272398 54.476389 -0.706722 0.936748 0.084265 -0.021502 -6764.470000 0 0 1
-33.290658 28.951826 30.939482 53.886248 -0.715802 0.959215 0.104326 -0.029259 129091.000000 0 0 1
-33.671808 30.307926 30.818412 54.791747 -0.732869 0.973433 0.113171 -0.026389 46286.800000 0 0 1
-33.304968 30.762326 29.394612 54.033183 -0.745732 0.995587 0.123549 -0.031547 -361290.000000 0 0 1
-31.959808 30.745726 29.025272 53.001844 -0.766039 0.991270 0.108425 -0.027529 -416123.000000 0 0 1
-31.739608 31.525726 27.825142 52.683134 -0.782017 1.014364 0.098090 -0.020581 108143.000000 0 0 1
-30.256868 31.718426 27.434282 51.712440 -0.808977 1.011587 0.099214 -0.016462 159584.000000 0 0 1
-29.595658 30.517426 27.013152 50.367913 -0.800731 1.004729 0.128939 -0.017374 1864870.000000 0 0 1
-28.342868 30.657426 26.237372 49.311212 -0.824608 1.009744 0.104802 -0.007034 1500420.000000 0 0 1
-28.452258 31.152426 24.784612 48.931397 -0.830668 1.039655 0.092215 -0.016067 -392694.000000 0 0 1
-28.676108 32.530426 24.677642 49.895228 -0.848287 1.053434 0.068754 -0.016345 142547.000000 0 0 1
-29.824638 32.851926 23.918562 50.406901 -0.833661 1.076389 0.077098 -0.018257 -76414.900000 0 0 1
-30.440348 -33.491124 24.336342 51.386066 0.833081 1.077425 0.082340 -0.021787 -142688.000000 0 0 1
-31.010628 -33.545524 25.628262 52.380999 0.824645 1.059548 0.094620 -0.033217 123786.000000 0 0 1
-31.048528 -32.321524 26.304422 51.967438 0.805484 1.040057 0.079224 -0.032779 -116166.000000 0 0 1
-31.491458 -32.216224 27.789632 52.932605 0.796774 1.018081 0.094336 -0.032218 310744.000000 0 0 1
-32.883948 -32.451324 27.961352 54.002590 0.778777 1.026545 0.083256 -0.037457 401146.000000 0 0 1
-33.207578 -32.441624 29.382992 54.941446 0.773731 1.006519 0.087516 -0.034267 -640735.000000 0 0 1
-34.628445 -32.873324 29.672072 56.215803 0.759403 1.014759 0.096953 -0.038238 -660663.000000 0 0 1
-34.889946 -33.032524 31.049012 57.205744 0.758059 0.997076 0.095120 -0.040975 -139389.000000 0 0 1
-36.199068 -33.527324 31.195162 58.374585 0.747099 1.007003 0.093099 -0.037648 -201261.000000 0 0 1
-36.599028 33.786426 32.666673 59.566123 -0.745459 0.990334 0.119420 -0.028358 208886.000000 0 0 1
-35.973898 32.611226 33.123164 58.777184 -0.736408 0.972134 0.096144 -0.019960 581993.000000 0 0 1
-36.848248 32.004826 -33.493104 59.193668 -0.715170 2.172227 0.115169 -0.021646 922653.000000 0 0 1
-36.257388 30.599926 -33.181624 57.896233 -0.700979 2.181107 0.108336 -0.015843 1129680.000000 0 0 1
-35.108683 30.648326 -32.307464 56.707246 -0.717671 2.176966 0.116037 -0.014425 399819.000000 0 0 1
-34.680312 29.329826 -31.908514 55.507801 -0.702004 2.183214 0.089711 -0.010028 282534.000000 0 0 1
-33.617558 29.477226 -30.790624 54.287287 -0.719871 2.173873 0.079455 -0.009262 60073.800000 0 0 1
-34.156866 29.807126 -29.489684 54.081399 -0.717500 2.147523 0.109788 -0.023554 -320069.000000 0 0 1
-34.569946 31.088126 -29.223464 54.914147 -0.732418 2.131954 0.096493 -0.022364 171819.000000 0 0 1
-35.773051 31.202526 -28.262704 55.245717 -0.717262 2.107821 0.085698 -0.029358 522841.000000 0 0 1
-35.438038 30.681726 -26.963144 54.076187 -0.713587 2.092795 0.068644 -0.045889 301737.000000 0 0 1
-36.678478 30.708226 -26.272184 54.575943 -0.697032 2.073033 0.123105 -0.051189 468140.000000 0 0 1
-36.539378 30.300726 -24.788654 53.551260 -0.692331 2.052056 0.108169 -0.061373 -469049.000000 0 0 1
-35.973738 31.400426 -24.176154 53.521799 -0.717623 2.039474 0.101699 -0.062507 -353544.000000 0 0 1
-35.986478 31.396326 -22.743254 52.896233 -0.717383 2.015245 0.087971 -0.064113 165998.000000 0 0 1
-37.311738 31.175226 -21.940454 53.342704 -0.696036 1.994688 0.064162 -0.052143 1013680.000000 0 0 1
37.161884 32.226126 -21.947454 53.862970 0.714385 1.990476 0.061442 -0.057477 914357.000000 0 0 1
37.470544 33.415326 -21.247054 54.516630 0.728253 1.971140 0.069729 -0.059986 -281688.000000 0 0 1
37.554574 33.434026 -19.720754 54.010076 0.727418 1.944570 0.068174 -0.048430 461889.000000 0 0 1
-36.809118 32.669026 -19.309954 52.868239 -0.725880 1.944694 0.060284 -0.050859 298351.000000 0 0 1
-36.633768 32.479926 -17.918754 52.135020 -0.725369 1.921649 0.052929 -0.027814 -99934.600000 0 0 1
-35.477817 31.475826 -17.746354 50.639275 -0.725697 1.928844 0.078163 -0.030789 -86469.000000 0 0 1
-35.293477 31.143426 -16.365154 49.833330 -0.723013 1.905403 0.051744 -0.010642 -202281.000000 0 0 1
-34.124348 30.381326 -16.257554 48.495403 -0.727437 1.912655 0.078320 -0.012505 -306724.000000 0 0 1
-33.764618 30.096526 -14.763454 47.579511 -0.728023 1.886295 0.087235 -0.009500 -412881.000000 0 0 1
-34.810420 29.453126 -14.094454 47.727409 -0.702226 1.870578 0.068779 -0.001968 -326557.000000 0 0 1
-34.452272 29.037526 -12.770054 46.831733 -0.700319 1.846973 0.102120 -0.003566 -44288.300000 0 0 1
-35.401960 28.128626 -11.947454 46.768152 -0.671409 1.829121 0.101233 -0.016746 -43449.100000 0 0 1
-34.845283 27.993426 -10.670254 45.953019 -0.676788 1.805134 0.125697 -0.017870 633596.000000 0 0 1
-35.569424 26.964026 -9.968754 45.734218 -0.648644 1.790532 0.137197 -0.031160 473031.000000 0 0 1
-34.644742 26.342526 -8.903354 44.423603 -0.650100 1.772582 0.170311 -0.033711 193536.000000 0 0 1
-34.490485 27.416626 -7.955354 44.772230 -0.671626 1.749430 0.154061 -0.036597 720936.000000 0 0 1
-33.302628 27.129126 -7.207354 43.554569 -0.683595 1.737040 0.157808 -0.040687 329434.000000 0 0 1
-33.090928 27.964826 -5.964754 43.733503 -0.701637 1.707611 0.163562 -0.041136 -131927.000000 0 0 1
-31.877788 27.629426 -5.334454 42.520994 -0.714127 1.696582 0.184262 -0.033552 127007.000000 0 0 1
-32.004488 27.779026 -4.014354 42.568493 -0.714836 1.665240 0.165680 -0.041392 -458597.000000 0 0 1
-31.014688 26.949226 -3.271454 41.217400 -0.715375 1.650251 0.181915 -0.043308 -600197.000000 0 0 1
-31.570208 25.704926 -2.920854 40.816083 -0.683349 1.642419 0.171482 -0.036851 333724.000000 0 0 1
-30.636018 24.829826 -2.325054 39.503060 -0.681098 1.629688 0.161781 -0.042293 68928.500000 0 0 1
-31.393188 23.594926 -1.862954 39.315689 -0.644520 1.618199 0.152066 -0.043198 -65372.400000 0 0 1
-31.639558 22.711626 -2.912554 39.055890 -0.622588 1.645440 0.153939 -0.038450 806103.000000 0 0 1
-32.603838 21.703526 -2.450254 39.243560 -0.587315 1.633274 0.137139 -0.043548 857543.000000 0 0 1
-33.120558 20.710726 -3.516554 39.220807 -0.558825 1.660577 0.159185 -0.028507 115382.000000 0 0 1
-32.088618 19.872126 -3.950654 37.949815 -0.554482 1.675087 0.161377 -0.028347 14170.500000 0 0 1
-32.601018 19.176926 -5.063954 38.160510 -0.531721 1.703890 0.148102 -0.027247 100784.000000 0 0 1
-31.751898 17.987126 -5.522354 36.908212 -0.515415 1.720984 0.136981 -0.034768 -246692.000000 0 0 1
-31.792398 16.808926 -4.739754 36.273431 -0.486350 1.701838 0.174208 -0.027847 462629.000000 0 0 1
-30.873598 15.817426 -5.264354 35.086799 -0.473462 1.721403 0.175950 -0.041411 623641.000000 0 0 1
-30.325478 14.796326 -4.187154 34.001443 -0.453935 1.694256 0.179623 -0.027882 102792.000000 0 0 1
-31.383958 14.019726 -3.666654 34.568047 -0.420120 1.677067 0.174404 -0.029956 256994.000000 0 0 1
-30.936748 12.789926 -3.095854 33.619174 -0.392023 1.663013 0.178012 -0.037476 -153245.000000 0 0 1
-32.037508 11.985026 -2.373454 34.288133 -0.357976 1.640073 0.181446 -0.033539 -155603.000000 0 0 1
-32.782168 11.247426 -3.317754 34.816413 -0.330511 1.666234 0.156945 -0.010987 285383.000000 0 0 1
-33.762798 10.434226 -2.667854 35.438920 -0.299734 1.646148 0.164003 -0.010537 237632.000000 0 0 1
-34.812794 9.834526 -3.642154 36.358133 -0.275323 1.671139 0.116455 -0.013539 44361.800000 0 0 1
-34.275369 8.974526 -4.637654 35.733050 -0.256087 1.700950 0.110456 -0.013043 333315.000000 0 0 1
-35.303150 8.475926 -5.488254 36.718859 -0.235630 1.720825 0.114092 -0.011520 77802.700000 0 0 1
-34.793701 7.596026 -6.634054 36.225846 -0.214944 1.754966 0.125472 -0.018296 -448931.000000 0 0 1
-34.330776 6.387926 -6.143454 35.456308 -0.183966 1.744944 0.117943 -0.011543 166050.000000 0 0 1
-34.083206 5.558626 -7.223654 35.280936 -0.161667 1.777001 0.106876 -0.019075 -147602.000000 0 0 1
-33.140038 4.353726 -6.894154 34.128381 -0.130626 1.774203 0.123656 -0.022926 -358889.000000 0 0 1
-31.798328 4.673326 -6.712354 32.833357 -0.145923 1.776685 0.145728 -0.023350 -212773.000000 0 0 1
-31.015868 3.507226 -6.572654 31.898032 -0.112600 1.778335 0.140071 -0.035116 1197430.000000 0 0 1
-29.483738 3.665026 -6.172854 30.345137 -0.123672 1.775648 0.209727 -0.031510 1098580.000000 0 0 1
-28.750198 4.262626 -7.180254 29.938268 -0.147192 1.812993 0.208942 -0.025409 47848.500000 0 0 1
-27.382648 4.373426 -6.799554 28.551185 -0.158378 1.811260 0.245864 -0.040890 293829.000000 0 0 1
-26.489598 4.863326 -7.933054 28.076397 -0.181572 1.857250 0.243969 -0.046997 -317440.000000 0 0 1
-26.382598 4.007826 -9.068054 28.183927 -0.150759 1.898369 0.219086 -0.056348 207687.000000 0 0 1
-25.244718 4.444026 -9.779354 27.435031 -0.174253 1.935267 0.214888 -0.052922 -16904.900000 0 0 1
-25.197488 3.786526 -11.149354 27.812933 -0.149158 1.983262 0.188912 -0.057802 341617.000000 0 0 1
-26.358378 4.092226 -11.929754 29.220360 -0.154024 1.991353 0.205145 -0.039524 803176.000000 0 0 1
-26.319208 3.472626 -13.193554 29.645062 -0.131185 2.032027 0.193321 -0.042042 538219.000000 0 0 1
-27.443188 4.139926 -14.059454 31.111666 -0.149725 2.039694 0.167314 -0.034123 122768.000000 0 0 1
-27.000908 5.434326 -14.542354 31.145802 -0.198611 2.056592 0.151361 -0.035181 467217.000000 0 0 1
-27.972778 6.229326 -15.194954 32.437130 -0.219117 2.058324 0.183416 -0.037723 138140.000000 0 0 1
-28.710958 5.659826 -16.481954 33.585823 -0.194636 2.083737 0.125662 -0.010576 -366694.000000 0 0 1
-29.829308 4.900526 -16.147454 34.271607 -0.162831 2.061403 0.153490 -0.033060 -655391.000000 0 0 1
-30.296318 4.345226 -17.308854 35.161688 -0.142453 2.085486 0.147435 -0.015451 -261484.000000 0 0 1
-31.700878 3.712526 -17.245154 36.278421 -0.116580 2.066165 0.154138 -0.027984 -85489.700000 0 0 1
-31.865478 2.606626 -16.363254 35.916003 -0.081619 2.043840 0.162928 -0.038038 215576.000000 0 0 1
-31.378668 1.399226 -16.926654 35.680390 -0.044562 2.065075 0.196320 -0.038578 -221219.000000 0 0 1
-31.795718 0.127726 -16.181354 35.676606 -0.004017 2.041548 0.183278 -0.038421 -369075.000000 0 0 1
-31.161008 -1.064374 -16.590454 35.318330 0.034144 2.059793 0.180913 -0.031841 346325.000000 0 0 1
-31.288898 -2.062574 -15.582254 35.015082 0.065825 2.031988 0.183135 -0.044060 -195973.000000 0 0 1
-31.281608 -3.451974 -16.258854 35.423233 0.109907 2.047653 0.179559 -0.032308 186010.000000 0 0 1
-32.414048 -3.626474 -17.101754 36.827867 0.111416 2.053719 0.178930 -0.038734 519249.000000 0 0 1
-32.218688 -4.714974 -17.970854 37.191752 0.145311 2.075096 0.175915 -0.032860 -114425.000000 0 0 1
-33.410918 -5.001074 -18.911654 38.716286 0.148581 2.081129 0.194120 -0.028829 -229864.000000 0 0 1
-33.149768 -5.956074 -19.877854 39.108963 0.177775 2.103969 0.187919 -0.030641 87526.400000 0 0 1
-34.167362 -6.022074 -20.851554 40.477911 0.174460 2.111960 0.190607 -0.029827 -157933.000000 0 0 1
-33.902558 -7.201174 -21.800354 40.945033 0.209297 2.132265 0.186284 -0.029837 704495.000000 0 0 1
-32.621718 -7.088974 -22.441754 40.225146 0.213982 2.162654 0.172840 -0.029403 629527.000000 0 0 1
-32.600468 -7.980874 -23.514654 40.980774 0.240087 2.181931 0.152707 -0.015414 -319902.000000 0 0 1
-31.179008 -7.998774 -24.073954 40.195350 0.251128 2.212953 0.134773 -0.008144 -340347.000000 0 0 1
-30.752668 -6.809674 -24.780554 40.077102 0.217917 2.237402 0.130846 -0.013021 101815.000000 0 0 1
-30.652338 -6.983474 -26.211344 40.931275 0.224005 2.265782 0.099278 -0.008752 454415.000000 0 0 1
-32.016748 -6.926174 -26.987314 42.442421 0.213047 2.259915 0.118516 -0.015160 626813.000000 0 0 1
-32.895208 -7.994174 -26.692554 43.110253 0.238398 2.238481 0.111808 -0.013078 143733.000000 0 0 1
-34.089198 -7.896374 -27.477044 44.490607 0.227624 2.236474 0.100879 -0.009986 612123.000000 0 0 1
-35.114697 -8.993874 -27.108604 45.263762 0.250738 2.212927 0.100386 -0.010761 -486505.000000 0 0 1
-34.674531 -10.329774 -27.338594 45.347834 0.289535 2.217883 0.102430 0.000436 -51817.900000 0 0 1
-35.596290 -11.389974 -27.157484 46.199094 0.309682 2.199177 0.083260 0.000504 308048.000000 0 0 1
-36.853368 -11.549774 -28.068044 47.742885 0.303703 2.199257 0.054038 0.005133 584309.000000 0 0 1
-37.744368 -10.449574 -27.868544 48.067522 0.270086 2.189254 0.052846 -0.003198 -142851.000000 0 0 1
36.946194 -10.209174 -28.993324 48.061017 -0.269598 2.218380 0.053405 -0.016957 -100457.000000 0 0 1
35.924404 -9.094774 -28.712394 46.879412 -0.247955 2.229982 0.069180 -0.011681 461963.000000 0 0 1
34.693214 -9.428174 -28.056854 45.603691 -0.265350 2.233477 0.053440 -0.010248 619335.000000 0 0 1
33.996404 -8.292474 -27.630294 44.586475 -0.239250 2.239158 0.025956 -0.002216 971179.000000 0 0 1
32.590974 -8.530474 -26.940924 43.136457 -0.256000 2.245353 0.021112 -0.000310 993368.000000 0 0 1
32.691364 -8.803974 -25.554504 42.417778 -0.263065 2.217361 0.006201 0.014351 -290124.000000 0 0 1
31.551164 -9.428674 -25.036954 41.366954 -0.290390 2.220864 -0.010945 0.015349 -422042.000000 0 0 1
31.500644 -9.416674 -23.490254 40.407380 -0.290480 2.191166 -0.016464 0.014007 14288.200000 0 0 1
32.264014 -10.490874 -22.977554 40.975517 -0.314374 2.166103 -0.025940 0.015661 236408.000000 0 0 1
32.338254 -10.367474 -21.586854 40.239775 -0.310242 2.137028 -0.002154 0.002491 -106106.000000 0 0 1
32.997804 -11.597174 -20.943754 40.767516 -0.337969 2.110330 0.034657 0.003598 -8546.980000 0 0 1
34.366234 -11.741274 -21.228554 42.065985 -0.329218 2.099772 0.032976 0.002065 101272.000000 0 0 1
35.136574 -12.404674 -20.235054 42.401795 -0.339382 2.068287 0.067521 -0.008552 1306880.000000 0 0 1
36.685074 -12.550074 -20.556954 43.884933 -0.329622 2.058308 0.102206 -0.020514 1021710.000000 0 0 1
37.453344 -11.353174 -20.616054 44.234254 -0.294324 2.055635 0.136463 -0.018309 286210.000000 0 0 1
37.385014 -10.513774 -21.736054 44.504323 -0.274149 2.081055 0.137844 -0.007103 -473805.000000 0 0 1
-37.461838 -10.978374 -23.131554 45.376015 0.285073 2.105719 0.102085 -0.005401 133450.000000 0 0 1
37.519594 -12.091674 -23.814454 46.054932 -0.311766 2.114242 0.098622 0.001071 -43792.500000 0 0 1
36.164074 -11.954074 -24.186654 45.119113 -0.319244 2.136562 0.114002 0.004491 -161784.000000 0 0 1
35.631244 -13.126774 -25.012354 45.469942 -0.352977 2.153263 0.068051 -0.007302 -298155.000000 0 0 1
35.751074 -14.428474 -24.475254 45.665723 -0.383590 2.136447 0.059553 -0.015474 422161.000000 0 0 1
35.136764 -14.656874 -23.194154 44.580096 -0.395193 2.117976 0.028782 -0.004266 -1565.560000 0 0 1
-30.924508 8.508326 -18.531754 37.042445 -0.268489 2.094723 0.103975 -0.003639 -506531.000000 0 0 1
-29.852378 7.660026 -18.700954 36.049496 -0.251178 2.116194 0.095568 -0.007114 -407663.000000 0 0 1
-29.079608 8.059426 -19.848354 36.118348 -0.270364 2.152606 0.112060 -0.025295 468722.000000 0 0 1
-27.789638 7.283026 -20.183354 35.109461 -0.256313 2.183241 0.102647 -0.027645 514305.000000 0 0 1
-26.691588 7.468826 -19.279154 33.762553 -0.272841 2.178546 0.112523 -0.026831 638205.000000 0 0 1
-25.679958 6.527326 -19.641954 32.982913 -0.248909 2.208708 0.138160 -0.036367 1241380.000000 0 0 1
-24.249678 6.898426 -19.070354 31.611921 -0.277153 2.218385 0.089745 -0.032566 1094400.000000 0 0 1
-23.545878 7.928426 -19.726754 31.724015 -0.324798 2.241866 0.086628 -0.028291 -144307.000000 0 0 1
-22.183978 7.946526 -19.356654 30.495183 -0.343970 2.258474 0.081387 -0.031579 103808.000000 0 0 1
-21.407978 9.118726 -20.026054 30.700090 -0.402675 2.281428 0.105967 -0.021867 -220624.000000 0 0 1
-20.889178 8.781126 -21.276454 31.083009 -0.397940 2.324720 0.133255 -0.036428 5369.650000 0 0 1
-20.365378 9.919326 -21.961854 31.550985 -0.453249 2.340713 0.119479 -0.034180 -408934.000000 0 0 1
-19.279478 9.677926 -22.971354 31.512595 -0.465231 2.387595 0.147185 -0.019278 -418825.000000 0 0 1
-19.755178 8.925426 -24.101254 32.416057 -0.424351 2.409081 0.130315 -0.016229 76605.900000 0 0 1
-18.708078 8.427526 -24.900954 32.265661 -0.423249 2.452381 0.103122 -0.010250 -241756.000000 0 0 1
-19.106478 7.310026 -25.874114 32.984296 -0.365412 2.472585 0.077141 -0.005435 -194733.000000 0 0 1
-19.429878 6.092026 -25.237294 32.427672 -0.303831 2.462693 0.109345 -0.009185 423645.000000 0 0 1
-19.960978 5.169026 -26.214274 33.351876 -0.253390 2.475094 0.098212 -0.014253 -338621.000000 0 0 1
-20.408878 3.794026 -25.601764 32.960086 -0.183803 2.460286 0.081891 -0.003191 263278.000000 0 0 1
-19.436278 2.836626 -25.194494 31.946484 -0.144922 2.479401 0.072873 -0.004013 553041.000000 0 0 1
-18.378178 3.241426 -24.328354 30.661590 -0.174578 2.487248 0.071786 -0.012001 193190.000000 0 0 1
-17.487578 2.127126 -23.725054 29.550266 -0.121042 2.502892 0.062548 -0.012059 54314.000000 0 0 1
-17.987578 1.468026 -22.563554 28.893287 -0.081433 2.466945 0.061836 -0.009962 867510.000000 0 0 1
-19.240478 0.765926 -22.752954 29.807374 -0.039787 2.439253 0.055584 -0.004366 859471.000000 0 0 1
-19.767378 -0.102774 -21.607254 29.285375 0.005199 2.400627 0.086068 -0.009510 294766.000000 0 0 1
-19.108178 -1.383974 -21.502454 28.799190 0.072302 2.413784 0.077747 -0.009640 528592.000000 0 0 1
-19.824178 -2.179774 -20.581654 28.659273 0.109515 2.371936 0.074671 -0.002071 90512.500000 0 0 1
-19.012278 -3.441474 -20.217254 27.965118 0.179074 2.378852 0.064032 -0.018691 80212.000000 0 0 1
-19.032078 -4.383074 -21.273654 28.879053 0.226353 2.398894 0.065832 -0.026829 262640.000000 0 0 1
-19.334678 -5.654174 -20.769454 28.933884 0.284504 2.371469 0.076803 -0.024677 -255454.000000 0 0 1
-19.475478 -6.639974 -21.929054 30.071031 0.328581 2.388010 0.054364 -0.034398 124258.000000 0 0 1
-18.216378 -7.026874 -22.463354 29.762655 0.368157 2.426069 0.049341 -0.026923 299578.000000 0 0 1
-18.354978 -7.720574 -23.673554 30.934602 0.398160 2.442269 0.068181 -0.035816 -454822.000000 0 0 1
-17.004278 -7.857674 -24.340354 30.713862 0.432870 2.485673 0.060271 -0.039921 -843695.000000 0 0 1
-17.073878 -8.743474 -25.454224 31.872922 0.473278 2.495788 0.073589 -0.063913 320197.000000 0 0 1
-15.837378 -8.876274 -26.146594 31.831669 0.510841 2.534661 0.084890 -0.064906 908974.000000 0 0 1
-14.749178 -9.867374 -25.554784 31.111900 0.589624 2.534628 0.068215 -0.061763 -110657.000000 0 0 1
-14.101978 -9.291674 -24.489454 29.747846 0.582600 2.537882 0.071899 -0.040179 -68.634100 0 0 1
-13.187878 -10.176374 -23.825954 29.071546 0.657211 2.531444 0.057317 -0.037303 525155.000000 0 0 1
-12.259578 -9.379874 -22.858054 27.582058 0.653099 2.547629 0.088501 -0.027414 170251.000000 0 0 1
-12.875878 -9.000774 -21.641454 26.742376 0.610082 2.513682 0.083318 -0.032690 17575.400000 0 0 1
-11.966978 -8.274474 -20.869854 25.440642 0.604959 2.532793 0.083474 -0.027478 -679110.000000 0 0 1
-12.532278 -8.081174 -19.455554 24.512893 0.572731 2.487642 0.066490 -0.021688 758015.000000 0 1 0
-13.622278 -7.133474 -19.356554 24.721025 0.482398 2.470270 0.059159 -0.008499 570240.000000 0 1 0
-14.884478 -7.745374 -19.550354 25.763440 0.479807 2.432328 0.067465 -0.025720 -290908.000000 0 0 1
-15.990878 -6.647974 -19.353754 25.970590 0.393997 2.411658 0.063006 -0.006818 -229630.000000 0 0 1
-16.125678 -6.266974 -18.005754 24.970375 0.370669 2.376163 0.052621 -0.004053 359423.000000 0 1 0
-15.400978 -5.114474 -17.642654 23.971049 0.320629 2.397937 0.055848 -0.005768 -620345.000000 0 1 0
-15.410478 -4.863574 -16.106254 22.815534 0.305708 2.354537 0.079600 0.002527 -258662.000000 0 1 0
-16.588578 -4.314074 -15.563454 23.151960 0.254427 2.308014 0.107007 -0.002867 -11018.800000 0 1 0
-16.576678 -2.899074 -15.528254 22.897981 0.173138 2.316038 0.048735 -0.009425 713261.000000 0 1 0
-17.852178 -2.268274 -14.829154 23.318429 0.126381 2.260024 0.047850 -0.010713 815420.000000 0 1 0
-17.839478 -2.628374 -13.452754 22.497376 0.146282 2.211762 0.090048 -0.020195 -253685.000000 0 1 0
-18.785778 -1.906774 -12.807954 22.816330 0.101154 2.166813 0.088150 -0.025470 -967582.000000 0 1 0
-18.231478 -0.663474 -12.027854 21.851688 0.036376 2.153677 0.084626 -0.028526 -21913.000000 0 1 0
-17.864878 0.369726 -12.925754 22.053700 -0.020693 2.197038 0.100949 -0.030431 861059.000000 0 1 0
-17.043778 1.377526 -12.321454 21.076199 -0.080648 2.195201 0.097945 -0.025690 -528249.000000 0 1 0
-16.597778 2.557826 -13.270454 21.404057 -0.152904 2.239535 0.103597 -0.024858 -143372.000000 0 1 0
-15.641778 2.340326 -14.252554 21.290318 -0.148518 2.304249 0.078175 -0.024694 359247.000000 0 1 0
-14.381978 1.802926 -13.886754 20.073210 -0.124710 2.334783 0.074045 -0.020285 -272113.000000 0 1 0
-13.678378 0.836526 -14.890154 20.236464 -0.061081 2.397656 0.066608 -0.021030 168710.000000 0 1 0
-13.248278 1.368526 -16.159354 20.940737 -0.102933 2.452260 0.068928 -0.022419 393474.000000 0 1 0
-12.890678 0.319826 -17.040554 21.369425 -0.024806 2.493815 0.037934 -0.010918 -14050.600000 0 1 0
-12.364178 0.876726 -18.401954 22.187236 -0.070790 2.548818 0.061233 -0.015171 375607.000000 0 1 0
-11.139278 1.585026 -18.270754 21.457313 -0.141343 2.589623 0.038055 -0.014422 -278056.000000 0 1 0
-10.670478 2.151126 -19.467954 22.304432 -0.198930 2.631766 0.040094 -0.011770 -600334.000000 0 1 0
-9.264478 2.654526 -19.283054 21.557208 -0.279051 2.678121 0.038398 -0.011473 -761662.000000 0 1 0
-8.225478 1.676126 -19.386254 21.125689 -0.201020 2.732954 0.044771 -0.011550 66452.200000 0 1 0
-6.904978 2.124926 -19.253954 20.564746 -0.298541 2.782626 0.041950 -0.006725 234709.000000 0 1 0
-6.300378 3.177626 -20.238754 21.433601 -0.467125 2.806116 0.047091 -0.003189 -776155.000000 0 1 0
-6.190978 2.643526 -21.570754 22.596767 -0.403561 2.839093 0.049681 -0.005568 -10318.600000 0 1 0
-5.897578 3.670926 -22.497954 23.546020 -0.556761 2.842108 0.049591 0.003052 -116680.000000 0 1 0
-5.261878 3.176226 -23.830654 24.610482 -0.543084 2.889182 0.080224 -0.012823 -233497.000000 0 1 0
-3.952478 2.722626 -23.648154 24.130271 -0.603197 2.941360 0.087759 -0.020022 -518588.000000 0 1 0
-3.355578 2.287026 -24.867854 25.197233 -0.598242 2.979725 0.132132 -0.022669 242664.000000 0 0 1
-1.937878 1.687226 -24.752254 24.885260 -0.716365 3.038156 0.086972 -0.023102 -476442.000000 0 1 0
-0.925978 2.697326 -24.704754 24.868813 -1.240107 3.026664 0.067253 -0.020235 1492680.000000 0 1 0
0.452122 2.247726 -24.685354 24.791599 1.372299 3.048980 0.064279 -0.016972 1332310.000000 0 1 0
0.889622 1.231226 -23.560254 23.609170 0.945096 3.077209 0.057895 -0.023285 -1318070.000000 0 1 0
0.284522 -0.045774 -23.555654 23.557417 -0.159513 3.129359 0.059826 -0.024788 -104516.000000 0 1 0
0.921522 -0.903574 -22.634754 22.671518 -0.775564 3.084636 0.051736 -0.020600 -338094.000000 0 1 0
0.282322 -2.309974 -22.605354 22.724826 -1.449181 3.039007 0.061992 -0.031931 189738.000000 0 1 0
-0.918078 -2.344474 -21.851154 21.995735 1.197559 3.026873 0.060998 -0.033861 -517391.000000 0 1 0
-2.086178 -2.482674 -22.589154 22.820729 0.871964 2.999011 0.072961 -0.035760 -707994.000000 0 1 0
-3.017778 -1.307374 -22.600154 22.838195 0.408816 2.997086 0.081951 -0.035460 -1311510.000000 0 1 0
-3.784078 -1.085674 -21.416954 21.775763 0.279401 2.959808 0.070906 -0.033200 167810.000000 0 1 0
-4.639178 0.030626 -21.641554 22.133228 -0.006602 2.930420 0.063555 -0.020984 177127.000000 0 1 0
-5.963778 -0.287374 -22.375354 23.158275 0.048149 2.880826 0.084013 -0.016902 -917914.000000 0 1 0
-6.688378 -1.326174 -21.773354 22.816049 0.195742 2.838105 0.082652 -0.013766 69403.300000 0 1 0
-8.055278 -0.954774 -21.672854 23.141126 0.117977 2.783455 0.063271 -0.012501 -172928.000000 0 1 0
-8.993178 -2.044474 -21.277154 23.189963 0.223537 2.732584 0.063877 -0.009929 -470040.000000 0 1 0
-9.336878 -2.899674 -22.348154 24.393142 0.301118 2.729202 0.118904 -0.021470 -210209.000000 0 1 0
-9.621478 -4.192174 -21.850254 24.240065 0.410907 2.693813 0.083248 -0.021529 -257520.000000 0 1 0
-10.549578 -5.061174 -22.684354 25.524282 0.447318 2.665377 0.081390 -0.026771 -710991.000000 0 0 1
-11.898378 -4.884074 -22.413054 25.841257 0.389510 2.620621 0.069621 -0.025553 -1102340.000000 0 0 1
-12.699678 -5.470174 -23.361354 27.146961 0.406717 2.607147 0.060016 -0.037097 503297.000000 0 0 1
-14.240578 -5.599974 -23.087254 27.697925 0.374666 2.556276 0.062132 -0.030343 871461.000000 0 0 1
-14.889478 -4.352674 -23.269654 27.966393 0.284407 2.553604 0.057607 -0.025845 729439.000000 0 0 1
-16.297578 -4.462974 -23.534654 28.972558 0.267290 2.518896 0.064663 -0.027613 995905.000000 0 0 1
-17.000478 -3.137674 -23.966354 29.550759 0.182510 2.516696 0.055148 -0.023090 -185660.000000 0 0 1
-16.531778 -2.673274 -25.214054 30.268706 0.160317 2.555318 0.045942 -0.033702 189118.000000 0 0 1
-17.002578 -1.377574 -25.562704 30.731697 0.080845 2.553144 0.040677 -0.021053 632620.000000 0 0 1
-18.526478 -1.216574 -25.921144 31.884418 0.065573 2.520035 0.045659 -0.020080 411516.000000 0 0 1
-18.774378 -1.765174 -27.221354 33.114879 0.093745 2.535759 0.048321 -0.036005 -47445.600000 0 0 1
-18.484078 -0.904874 -28.328244 33.837396 0.048915 2.562917 0.029355 -0.024474 -434232.000000 0 0 1
-18.589078 -1.627474 -29.674614 35.054033 0.087327 2.580246 0.026194 -0.022050 719240.000000 0 0 1
-19.915378 -1.868374 -30.165694 36.195058 0.093542 2.556064 0.033457 -0.028095 685148.000000 0 0 1
-19.867878 -2.577074 -31.395424 37.243074 0.128990 2.573608 0.041844 -0.035443 -1145670.000000 0 0 1
-21.173978 -3.163674 -31.910884 38.427213 0.148316 2.550665 0.025575 -0.024409 -795347.000000 0 0 1
-22.173278 -2.310674 -32.353364 39.290376 0.103835 2.538248 0.022042 -0.018611 375124.000000 0 0 1
-22.935578 -1.653574 -31.320044 38.855118 0.071972 2.508282 0.017169 -0.006084 -118214.000000 0 0 1
-23.892578 -0.523074 -31.803134 39.781506 0.021889 2.497167 0.028098 -0.005167 137090.000000 0 0 1
-23.224778 0.608826 -32.298094 39.786026 -0.026209 2.518016 0.028324 -0.013878 -89662.900000 0 0 1
-24.119478 1.497226 -32.895504 40.817950 -0.061996 2.508004 0.022258 -0.009009 -403577.000000 0 0 1
-23.599478 2.929426 -33.157004 40.803233 -0.123499 2.519408 0.034024 -0.014386 -1100850.000000 0 0 1
-23.412778 3.737526 -32.008954 39.833408 -0.158300 2.504066 0.027263 -0.016315 -150586.000000 0 0 1
-24.468278 4.164726 -31.205704 39.872767 -0.168593 2.469679 0.033222 -0.017914 -746225.000000 0 0 1
-25.603828 4.959226 -31.884474 41.191863 -0.191322 2.456006 0.039572 -0.023637 -278172.000000 0 0 1
-26.472308 4.173326 -32.701134 42.279592 -0.156362 2.455062 0.055448 -0.033480 120703.000000 0 0 1
-27.582908 4.904826 -33.158554 43.409260 -0.175982 2.440068 0.078927 -0.036990 -79836.500000 0 0 1
-28.636188 3.942626 -33.768554 44.450993 -0.136820 2.433618 0.103194 -0.029608 -189438.000000 0 0 1
-28.403958 3.484526 32.507419 43.308879 -0.122068 0.721835 0.102813 -0.022172 559424.000000 0 0 1
-29.575008 2.873626 31.961972 43.640652 -0.096860 0.748971 0.106988 -0.027818 346115.000000 0 0 1
-29.712948 1.296826 32.014377 43.697384 -0.043617 0.748606 0.107177 -0.012794 -304191.000000 0 0 1
-29.947428 0.859626 33.344506 44.826817 -0.028697 0.731981 0.119190 -0.008218 163935.000000 0 0 1
-30.089418 -0.544174 33.384070 44.946249 0.018083 0.733620 0.110931 -0.007039 -279475.000000 0 0 1
-30.041328 -1.098974 -32.769744 44.469599 0.036566 2.399273 0.083100 -0.008080 -282321.000000 0 0 1
-28.726808 -1.176274 -32.293944 43.237853 0.040924 2.414170 0.095862 -0.015992 -33612.300000 0 0 1
-28.379188 -0.112674 -31.420344 42.339450 0.003970 2.407003 0.101803 -0.014265 -150894.000000 0 0 1
-28.474478 -0.361074 -29.870044 41.269187 0.012680 2.380069 0.117858 -0.012979 -18194.600000 0 0 1
-27.254338 -0.956474 -29.473124 40.154437 0.035080 2.394981 0.086011 -0.014700 631909.000000 0 0 1
-26.973708 -0.660074 -28.058304 38.926662 0.024466 2.375751 0.098293 -0.017384 -662099.000000 0 0 1
-25.779658 -1.336274 -27.447894 37.679746 0.051788 2.386856 0.087358 -0.018604 -776886.000000 0 0 1
-26.028668 -2.625674 -27.052944 37.633064 0.100536 2.372959 0.071705 -0.013444 182790.000000 0 0 1
-25.212448 -3.008374 -25.949944 36.305887 0.118759 2.367075 0.074374 -0.022690 -335830.000000 0 0 1
-25.571668 -4.310374 -25.310504 36.236875 0.166991 2.344059 0.070580 -0.026530 397913.000000 0 0 1
-26.821388 -4.297874 -24.610954 36.654572 0.158890 2.306932 0.094620 -0.021930 465063.000000 0 0 1
-27.060338 -5.521074 -23.954654 36.559125 0.201266 2.285284 0.080268 -0.019844 438814.000000 0 0 1
-28.227168 -5.320174 -22.934854 36.757105 0.186292 2.244592 0.102880 -0.022849 443063.000000 0 0 1
-28.403048 -6.461274 -22.054454 36.536011 0.223679 2.218850 0.099647 -0.028609 293006.000000 0 0 1
-29.599528 -6.252074 -21.307354 37.003024 0.208162 2.184412 0.141687 -0.028795 480687.000000 0 0 1
-29.999978 -7.449674 -20.369154 37.018897 0.243399 2.153444 0.152795 -0.035047 -394526.000000 0 0 1
-28.953028 -7.773074 -19.523254 35.775074 0.262287 2.148047 0.144895 -0.037942 -291462.000000 0 0 1
-29.370448 -8.604174 -18.470354 35.746454 0.284980 2.113794 0.161208 -0.037899 275068.000000 0 0 1
-30.081428 -7.848374 -17.307654 35.581514 0.255215 2.078787 0.157308 -0.037538 -19737.800000 0 0 1
-29.112288 -7.297774 -16.467854 34.234091 0.245616 2.072633 0.140922 -0.036697 300797.000000 0 0 1
-29.619408 -6.532874 -15.423754 34.027635 0.217085 2.041228 0.148174 -0.036363 554736.000000 0 0 1
-28.352128 -6.079074 -14.596154 32.462994 0.211215 2.037141 0.156127 -0.032863 689946.000000 0 0 1
-27.632748 -5.073874 -15.241754 31.962854 0.181595 2.067873 0.164290 -0.028129 -632029.000000 0 0 1
-26.486178 -4.784474 -14.525054 30.584081 0.178713 2.065672 0.143384 -0.040536 -634775.000000 0 0 1
-14.468078 20.964626 -4.934354 25.945880 -0.966733 1.762141 0.098981 -0.038751 63461.700000 0 0 1
-14.675878 20.617426 -6.274454 26.073520 -0.952182 1.813826 0.129557 -0.039165 -391459.000000 0 0 1
-15.601178 19.582626 -6.315154 25.821641 -0.898080 1.817871 0.108061 -0.049088 -282987.000000 0 0 1
-15.708278 18.991226 -7.739454 25.832457 -0.879728 1.875072 0.133097 -0.052283 354685.000000 0 0 1
-14.466678 18.431126 -8.194354 24.822140 -0.905328 1.907230 0.114657 -0.045392 593692.000000 0 1 0
-14.682378 17.325226 -9.077454 24.456816 -0.867781 1.951057 0.103163 -0.047127 -234005.000000 0 1 0
-15.127478 16.001126 -8.448154 23.584909 -0.813457 1.937137 0.103560 -0.043672 -253972.000000 0 1 0
-16.511678 15.889526 -8.237754 24.351040 -0.766199 1.915897 0.104400 -0.043637 -342046.000000 0 1 0
-16.814578 15.023826 -7.221954 23.677035 -0.729212 1.880755 0.114427 -0.027967 1748570.000000 0 1 0
-18.370078 15.205926 -6.887254 24.821648 -0.691437 1.851956 0.138005 -0.030783 2023840.000000 0 1 0
-19.361778 14.746926 -7.785754 25.553243 -0.650916 1.880407 0.130718 -0.035875 47118.900000 0 0 1
-20.665478 15.100326 -7.414654 26.646931 -0.631036 1.852774 0.118395 -0.035288 140277.000000 0 0 1
-21.838478 14.382026 -8.126754 27.382584 -0.582372 1.872121 0.121003 -0.026745 83809.100000 0 0 1
-22.120178 13.073726 -7.728754 26.832037 -0.533799 1.862978 0.162723 -0.035669 -11502.900000 0 0 1
-22.956978 12.363126 -8.597154 27.455068 -0.493998 1.889289 0.186953 -0.036383 -28387.700000 0 0 1
-23.211578 10.940426 -8.110554 26.911918 -0.440454 1.876930 0.192258 -0.040524 328637.000000 0 0 1
-22.067778 10.095326 -8.205754 25.617120 -0.429048 1.896867 0.178991 -0.035309 523780.000000 0 0 1
-22.202778 9.075026 -7.229454 25.051636 -0.388013 1.863542 0.194238 -0.038097 1174740.000000 0 0 1
-20.861078 8.210326 -7.128954 23.524796 -0.374952 1.878677 0.131817 -0.022685 675104.000000 0 1 0
-20.786478 7.245726 -8.157354 23.475959 -0.335408 1.925675 0.134653 -0.021631 87485.100000 0 1 0
-19.688778 6.421526 -7.916854 22.171165 -0.315273 1.935935 0.088397 -0.015285 -685296.000000 0 1 0
-19.722978 5.100026 -8.721054 22.159939 -0.253040 1.975287 0.092540 -0.024647 -760792.000000 0 1 0
-20.658578 4.176626 -8.291754 22.648934 -0.199485 1.945610 0.115349 -0.034064 96785.100000 0 1 0
-20.772378 3.193626 -9.302754 22.983302 -0.152549 1.987514 0.132216 -0.039751 273438.000000 0 1 0
-21.783478 2.079326 -8.883354 23.616890 -0.095166 1.956428 0.155054 -0.048794 386143.000000 0 1 0
-21.153978 1.126926 -8.061454 22.666005 -0.053222 1.934419 0.112907 -0.041382 168575.000000 0 1 0
-22.010978 0.031926 -7.820354 23.358983 -0.001450 1.912179 0.134042 -0.042981 -196539.000000 0 1 0
-21.890878 -1.135274 -8.770054 23.609600 0.051814 1.951379 0.108950 -0.047564 -803017.000000 0 1 0
-20.642578 -1.726974 -8.693754 22.465080 0.083466 1.968161 0.075858 -0.033307 -504240.000000 0 1 0
-20.471878 -3.039074 -9.170054 22.636776 0.147375 1.987880 0.050777 -0.025694 72778.200000 0 1 0
-21.461878 -4.184174 -8.676754 23.524574 0.192543 1.948555 0.061061 -0.026149 446447.000000 0 1 0
-21.145878 -4.745674 -7.385954 22.895892 0.220768 1.899259 0.074578 -0.023053 431900.000000 0 1 0
-22.242378 -5.383374 -6.744354 23.857711 0.237466 1.857394 0.111398 -0.022042 -51440.200000 0 1 0
-22.342978 -6.927274 -6.930054 24.397160 0.300644 1.858814 0.112201 -0.030663 -268422.000000 0 1 0
-21.315378 -7.520474 -6.180054 23.432796 0.339184 1.837689 0.095739 -0.030241 565023.000000 0 1 0
-21.610978 -8.909374 -6.116254 24.162365 0.391032 1.826712 0.119021 -0.034234 272356.000000 0 1 0
-20.443378 -9.825474 -5.614854 23.366605 0.448023 1.813465 0.100563 -0.029476 -96502.900000 0 1 0
-19.255978 -9.797274 -6.362854 22.522548 0.470656 1.857206 0.082109 -0.022638 980185.000000 0 1 0
-18.196778 -10.514774 -5.658554 21.764706 0.523964 1.833806 0.071646 -0.015469 764450.000000 0 1 0
-17.505378 -11.591774 -6.500754 21.978792 0.584893 1.871062 0.067716 -0.013120 159558.000000 0 1 0
-16.441378 -11.289474 -7.413654 21.277533 0.601710 1.926688 0.077099 -0.024968 722701.000000 0 1 0
-16.846178 -10.733274 -8.592654 21.744668 0.567277 1.977040 0.083894 -0.027919 -393814.000000 0 1 0
-15.842478 -11.039074 -9.704154 21.610550 0.608577 2.036495 0.076560 -0.020840 124176.000000 0 1 0
-15.992778 -12.328074 -10.278554 22.658310 0.656714 2.041634 0.093024 -0.022109 -25633.100000 0 1 0
-14.843478 -12.700974 -10.997654 22.418563 0.707771 2.083529 0.084929 -0.008360 -960.229000 0 1 0
-14.919078 -14.099874 -11.690954 23.623373 0.757176 2.088504 0.092084 -0.014758 90798.900000 0 1 0
-15.565678 -14.043174 -12.969554 24.651783 0.734023 2.124816 0.097905 -0.026066 -15543.300000 0 1 0
-16.216878 -15.236974 -13.292354 25.919861 0.754255 2.109269 0.099022 -0.030545 34065.200000 0 0 1
-16.781278 -15.199974 -14.738354 27.016098 0.735994 2.147829 0.114298 -0.031672 26091.300000 0 0 1
-17.468678 -16.348374 -15.156754 28.322274 0.752282 2.135485 0.116703 -0.022806 448009.000000 0 0 1
-17.991878 -16.195574 -16.507854 29.300401 0.732904 2.169292 0.104004 -0.022922 -406947.000000 0 0 1
-18.211878 -17.495474 -17.280254 30.600184 0.765338 2.170879 0.108680 -0.029666 -1181000.000000 0 0 1
-19.346978 -18.167774 -16.938454 31.484675 0.753975 2.138848 0.068876 -0.016769 -471661.000000 0 0 1
-20.390678 -18.020074 -17.942154 32.594842 0.723759 2.153711 0.053829 -0.008627 1390310.000000 0 0 1
-21.809678 -17.656374 -17.384754 33.009684 0.680547 2.125459 0.054719 -0.011706 329957.000000 0 0 1
-21.854178 -16.327774 -16.909754 32.095811 0.641658 2.125689 0.048397 -0.011357 350146.000000 0 0 1
-21.459378 -16.246974 -15.538054 31.078935 0.648032 2.094343 0.050270 -0.019015 -499829.000000 0 0 1
-21.643978 -14.856974 -14.887154 30.179775 0.601557 2.086656 0.076857 -0.034175 -510876.000000 0 0 1
-22.975278 -14.589474 -14.572554 30.871920 0.565763 2.062391 0.086568 -0.035701 -221379.000000 0 0 1
-23.064778 -13.241574 -14.149154 30.125103 0.521160 2.059724 0.098090 -0.032175 380779.000000 0 0 1
-24.548078 -12.785974 -13.969654 31.003879 0.480192 2.038209 0.130677 -0.036811 409313.000000 0 0 1
-25.201918 -13.415574 -12.888154 31.324412 0.489171 1.994831 0.149952 -0.046973 392367.000000 0 0 1
-26.417158 -12.770074 -12.541854 31.909859 0.450280 1.974732 0.161228 -0.046946 -410082.000000 0 0 1
-27.162098 -13.362674 -11.403454 32.347788 0.457195 1.931066 0.185043 -0.051923 -423502.000000 0 0 1
-28.328638 -12.584474 -11.190254 32.956069 0.418047 1.917235 0.175886 -0.052570 -53946.500000 0 0 1
-29.067898 -12.964474 -10.089854 33.389001 0.419528 1.877787 0.186650 -0.052916 -2068.960000 0 0 1
-29.819258 -11.741174 -9.500754 33.426152 0.375102 1.859001 0.184710 -0.048107 -268392.000000 0 0 1
-28.883408 -10.934174 -8.896154 32.139523 0.361890 1.851257 0.187390 -0.051113 216224.000000 0 0 1
-29.525388 -9.810074 -8.249354 32.187543 0.320783 1.829979 0.223187 -0.050075 627973.000000 0 0 1
-28.482428 -8.765174 -7.709854 30.781794 0.298542 1.823960 0.217909 -0.039407 261846.000000 0 0 1
-27.981218 -9.101974 -6.439554 30.120796 0.314493 1.786250 0.204664 -0.041402 -112535.000000 0 0 1
-27.091868 -8.178274 -5.890754 28.905959 0.293173 1.776024 0.190241 -0.039662 -579628.000000 0 0 1
-27.596908 -6.712174 -5.567454 28.941996 0.238589 1.764369 0.205867 -0.039143 360525.000000 0 0 1
-28.714898 -6.631274 -4.648554 29.835016 0.226956 1.727242 0.233742 -0.036864 1033590.000000 0 0 1
-28.462808 -7.043274 -3.312754 29.507854 0.242582 1.683300 0.205021 -0.026294 -147977.000000 0 0 1
-27.450278 -6.147774 -2.462354 28.237848 0.220325 1.658108 0.194506 -0.025257 256246.000000 0 0 1
-27.914708 -4.879674 -1.995054 28.408139 0.173058 1.641082 0.235107 -0.035829 874612.000000 0 0 1
-26.942398 -4.064674 -1.280054 27.277333 0.149736 1.617741 0.186308 -0.043741 449850.000000 0 0 1
-27.659448 -2.802274 -0.684554 27.809466 0.100969 1.595415 0.210263 -0.049871 742105.000000 0 0 1
-28.689208 -2.952874 0.319546 28.842542 0.102565 1.559717 0.196215 -0.034413 615392.000000 0 0 1
-28.173538 -3.396074 1.559246 28.420288 0.119962 1.515905 0.182977 -0.038560 -316491.000000 0 0 1
-29.162418 -3.499574 2.743146 29.499466 0.119432 1.477672 0.192506 -0.026222 -765073.000000 0 0 1
-29.986298 -4.580674 2.603646 30.445683 0.151587 1.485174 0.196295 -0.028112 -553728.000000 0 0 1
-30.979408 -4.487274 3.616346 31.510908 0.143847 1.455778 0.228090 -0.040918 4254.210000 0 0 1
-31.917978 -5.721274 3.535946 32.618909 0.177366 1.462181 0.227592 -0.047143 -189971.000000 0 0 1
-31.259788 -6.912274 3.822746 32.242321 0.217622 1.451954 0.219498 -0.043513 295081.000000 0 0 1
-32.245418 -7.901874 3.640846 33.398538 0.240318 1.461567 0.271534 -0.059542 173544.000000 0 0 1
-31.708608 -9.367174 3.676146 33.267008 0.287244 1.460066 0.235426 -0.045925 -7287.430000 0 0 1
-31.175348 -9.684574 4.926546 33.014605 0.301197 1.421014 0.198350 -0.041568 461074.000000 0 0 1
-30.576038 -11.036774 4.941346 32.880410 0.346407 1.419942 0.178051 -0.039090 120622.000000 0 0 1
-30.260068 -11.497974 6.370046 32.991705 0.363122 1.376496 0.155940 -0.045131 169891.000000 0 0 1
-28.982078 -11.227474 6.942046 31.846648 0.369592 1.351048 0.102558 -0.027729 415819.000000 0 0 1
-28.883948 -11.568974 8.288546 32.199745 0.380966 1.310455 0.139762 -0.044108 -385244.000000 0 0 1
-29.505778 -10.723074 9.407846 32.773203 0.348582 1.279641 0.149146 -0.057358 -726558.000000 0 0 1
-28.784118 -9.543274 9.797646 31.868376 0.320142 1.258294 0.113006 -0.031830 -210661.000000 0 0 1
-29.538468 -8.672574 10.587946 32.555172 0.285577 1.239540 0.121664 -0.027278 -590427.000000 0 0 1
-28.921538 -7.320774 10.965946 31.785233 0.247918 1.218556 0.137561 -0.023382 -206950.000000 0 0 1
-28.710368 -6.384374 9.895446 31.031682 0.218811 1.246247 0.142616 -0.022685 364465.000000 0 0 1
-28.049948 -5.217974 10.300346 30.333545 0.183922 1.224337 0.135414 -0.027759 -342233.000000 0 0 1
-27.978218 -4.164274 9.207346 29.747220 0.147755 1.256109 0.153824 -0.034556 -224300.000000 0 0 1
-27.343838 -4.501074 8.004146 28.844609 0.163147 1.289614 0.137848 -0.023461 124370.000000 0 0 1
-27.300438 -3.438374 7.104746 28.418546 0.125286 1.318112 0.146747 -0.038400 -77158.100000 0 0 1
-26.467898 -3.701874 5.823646 27.352666 0.138961 1.356244 0.121673 -0.018877 -1415580.000000 0 0 1
-25.107688 -3.668774 5.928446 26.057674 0.145095 1.341274 0.148336 -0.040818 -1015660.000000 0 0 1
-24.533578 -3.902674 4.671146 25.277399 0.157753 1.384933 0.161737 -0.021807 72986.500000 0 0 1
-22.990278 -3.761574 4.610146 23.747753 0.162179 1.375426 0.158028 -0.026141 385795.000000 0 1 0
-22.557178 -2.397374 4.552246 23.136478 0.105882 1.372748 0.130025 -0.028810 580264.000000 0 1 0
-21.139578 -2.295574 4.603146 21.756387 0.108167 1.357608 0.119671 -0.029105 239200.000000 0 1 0
-20.596078 -0.828774 4.782446 21.160271 0.040218 1.342816 0.103536 -0.036221 -279145.000000 0 1 0
-20.730778 0.001526 3.623646 21.045094 -0.000074 1.397749 0.116060 -0.032510 1368640.000000 0 1 0
-22.027478 0.608926 3.450046 22.304336 -0.027637 1.415492 0.108386 -0.046612 688961.000000 0 1 0
-21.958278 1.687726 2.368546 22.150043 -0.076710 1.463660 0.136076 -0.040269 -141385.000000 0 1 0
-21.215978 2.786226 2.911346 21.595294 -0.130580 1.435571 0.107448 -0.040052 270722.000000 0 1 0
-21.422278 3.966726 2.217746 21.899025 -0.183094 1.469351 0.131267 -0.036826 2144.780000 0 1 0
-20.354478 4.276126 1.138446 20.829932 -0.207072 1.516115 0.092218 -0.023763 -421212.000000 0 1 0
-20.804378 5.063326 0.011446 21.411668 -0.238736 1.570262 0.124541 -0.018382 810055.000000 0 1 0
-21.754678 4.467926 -0.895254 22.226782 -0.202561 1.611085 0.170585 -0.026078 206714.000000 0 1 0
-21.210578 3.370226 -1.760754 21.548719 -0.157576 1.652598 0.149345 -0.029262 -498260.000000 0 1 0
-21.052478 2.181226 -1.018754 21.189677 -0.103241 1.618893 0.109387 -0.030111 560537.000000 0 1 0
-20.535078 1.112826 -1.858754 20.649038 -0.054139 1.660935 0.092919 -0.023614 -380056.000000 0 1 0
-19.885378 -0.003674 -1.044654 19.912799 0.000185 1.623282 0.096092 -0.020404 -309500.000000 0 1 0
-20.733578 -0.747874 -0.178554 20.747830 0.036055 1.579402 0.112616 -0.026418 979489.000000 0 1 0
-19.981378 -1.546274 0.805946 20.057317 0.077232 1.530603 0.090167 -0.022617 -4463.370000 0 1 0
-19.119178 -2.628074 0.144046 19.299494 0.136601 1.563333 0.044317 -0.017778 -461408.000000 0 1 0
-18.357278 -3.240274 1.174846 18.678043 0.174712 1.507855 0.043699 -0.017645 269415.000000 0 1 0
-17.628478 -4.375974 0.817546 18.181880 0.243315 1.525816 0.027754 -0.014275 -382400.000000 0 1 0
-18.435178 -5.694374 0.509346 19.301324 0.299589 1.544404 0.020672 -0.013352 -20769.400000 0 1 0
-19.276878 -5.894774 1.658546 20.226150 0.296765 1.488704 0.064384 -0.019438 371611.000000 0 1 0
-20.210278 -6.882874 1.329846 21.391535 0.328243 1.508589 0.062373 -0.016926 -725693.000000 0 1 0
-21.024978 -7.375974 2.524446 22.423816 0.337405 1.457978 0.086454 -0.014959 -418024.000000 0 1 0
-20.272178 -8.006174 3.577646 22.087543 0.376132 1.408104 0.079923 -0.014107 461516.000000 0 1 0
-21.011078 -8.549674 4.638346 23.153327 0.386451 1.369100 0.081498 -0.016371 -321080.000000 0 1 0
-20.140578 -9.347274 5.637246 22.908360 0.434519 1.322164 0.066644 -0.010164 -65872.100000 0 1 0
-19.723678 -10.601474 5.053446 22.955436 0.493196 1.348837 0.078489 -0.007459 123870.000000 0 1 0
-18.735078 -11.175674 5.862546 22.589118 0.537850 1.308261 0.089464 -0.021059 -192045.000000 0 1 0
-18.304578 -12.581774 5.313646 22.838420 0.602190 1.335982 0.076081 -0.012117 98077.400000 0 1 0
-19.311278 -13.577974 5.409946 24.218884 0.612811 1.345518 0.104912 -0.014430 82904.700000 0 1 0
-18.749978 -14.774774 5.005846 24.390861 0.667374 1.364093 0.096779 -0.011853 492805.000000 0 1 0
-19.737278 -16.005374 5.149446 25.927764 0.681365 1.370860 0.117960 -0.022460 806306.000000 0 0 1
-19.028878 -17.220674 4.817246 26.112366 0.735557 1.385252 0.114653 -0.026325 573360.000000 0 0 1
-19.736678 -18.391674 5.178246 27.470063 0.750137 1.381157 0.120406 -0.023693 780510.000000 0 0 1
-18.736678 -19.649674 5.107746 27.627194 0.809178 1.384845 0.126460 -0.031686 407695.000000 0 0 1
-18.299178 -19.839074 3.772346 27.252144 0.825753 1.431927 0.120433 -0.033263 -123573.000000 0 0 1
-17.783178 -21.106774 3.666046 27.842004 0.870653 1.438740 0.112453 -0.029523 446273.000000 0 0 1
-16.217978 -21.112974 3.741946 26.884617 0.915779 1.431158 0.106033 -0.028111 241470.000000 0 0 1
-15.635078 -22.384574 3.934946 27.586384 0.961094 1.427667 0.093880 -0.034085 -32212.600000 0 0 1
-14.241278 -22.084474 3.957546 26.574427 0.998047 1.421317 0.089961 -0.030415 300063.000000 0 0 1
-13.333678 -23.319574 4.236346 27.194413 1.051385 1.414379 0.100471 -0.035801 -120280.000000 0 0 1
-13.354078 -24.224574 3.152446 27.840605 1.066985 1.457321 0.103159 -0.039327 141925.000000 0 0 1
-12.867678 -25.535564 3.461046 28.803142 1.104024 1.450343 0.098852 -0.035054 -47790.200000 0 0 1
19.393022 19.289626 -24.230654 36.541806 0.782725 2.295741 0.066989 -0.004955 847350.000000 0 0 1
18.501822 19.668926 -25.339304 37.030587 0.815965 2.324413 0.052498 -0.010630 846616.000000 0 0 1
19.174322 19.598726 -26.584144 38.190070 0.796344 2.340749 0.068927 -0.012515 171816.000000 0 0 1
18.130422 19.772126 -27.706154 38.565271 0.828685 2.372328 0.067281 -0.012374 150405.000000 0 0 1
17.775222 21.078526 -27.915094 39.236657 0.870213 2.362362 0.062707 -0.010464 -373733.000000 0 0 1
16.989822 21.263326 -29.012054 39.780427 0.896653 2.388102 0.058888 -0.007389 -660777.000000 0 0 1
16.719622 22.713326 -29.344654 40.700733 0.936241 2.376020 0.068871 -0.016901 -194498.000000 0 0 1
15.916922 23.364626 -28.362174 40.045812 0.972772 2.357803 0.068356 -0.016779 430650.000000 0 0 1
15.719222 24.770726 -28.578394 40.956165 1.005331 2.343090 0.077383 -0.017942 65865.900000 0 0 1
14.844422 25.444626 -27.492584 40.294268 1.042671 2.321694 0.081943 -0.028960 320329.000000 0 0 1
13.482622 25.051626 -27.448544 39.532109 1.077063 2.338292 0.093432 -0.039614 49125.900000 0 0 1
12.816022 25.850526 -26.514094 39.185422 1.110535 2.313975 0.094504 -0.037719 -900827.000000 0 0 1
11.476122 25.326826 -25.956404 38.037934 1.145350 2.321813 0.116856 -0.042287 118198.000000 0 0 1
10.993122 26.255326 -24.971954 37.865411 1.174273 2.290940 0.110627 -0.054799 -352981.000000 0 0 1
10.251822 27.289826 -25.502344 38.732467 1.211443 2.289518 0.128725 -0.060105 -879571.000000 0 0 1
9.801322 28.253626 -24.391254 38.591017 1.236881 2.254985 0.146941 -0.062276 -483743.000000 0 0 1
10.875122 29.013326 -23.969554 39.173727 1.212173 2.229229 0.133354 -0.052824 -258043.000000 0 0 1
10.472122 29.915226 -22.937354 39.124267 1.234068 2.197242 0.158888 -0.056659 251250.000000 0 0 1
11.527822 30.217326 -21.807654 39.007067 1.206342 2.164059 0.132071 -0.052644 26690.000000 0 0 1
12.658022 30.917726 -22.244354 40.136549 1.182204 2.158218 0.127733 -0.059611 147060.000000 0 0 1
13.554722 31.091626 -21.129854 39.961112 1.159679 2.127936 0.095586 -0.045206 582841.000000 0 0 1
14.887622 31.793026 -21.519954 41.177011 1.132856 2.120718 0.097352 -0.041261 164107.000000 0 0 1
15.785322 30.970226 -22.220454 41.256271 1.099424 2.139566 0.093340 -0.038969 -549615.000000 0 0 1
16.824122 31.740426 -22.752854 42.522913 1.083396 2.135390 0.081574 -0.027041 23340.300000 0 0 1
18.110122 30.931426 -23.112454 42.648742 1.041112 2.143523 0.032482 -0.014029 308075.000000 0 0 1
18.870422 30.636626 -21.956754 42.152043 1.018736 2.118694 0.035868 -0.006310 -277423.000000 0 0 1
19.986622 29.889326 -22.371754 42.347754 0.981396 2.127378 0.023677 -0.004760 -162964.000000 0 0 1
20.893422 29.313326 -21.280354 41.816978 0.951557 2.104694 0.035258 -0.001872 -166273.000000 0 0 1
21.506522 30.238226 -20.418254 42.353110 0.952569 2.073842 0.036130 0.007203 15681.500000 0 0 1
22.351722 29.578926 -19.516154 41.897406 0.923680 2.055344 0.061928 -0.010322 -108872.000000 0 0 1
23.192422 30.465526 -18.584054 42.560590 0.920123 2.022667 0.076037 -0.013437 2953.910000 0 0 1
24.272722 31.195326 -19.154754 43.922864 0.909560 2.022056 0.071615 -0.009966 262193.000000 0 0 1
24.894022 31.949226 -18.147954 44.382582 0.908883 1.992043 0.087606 -0.007051 551131.000000 0 0 1
26.327022 32.506026 -18.446954 45.716998 0.890041 1.986139 0.080434 -0.001460 1321790.000000 0 0 1
27.326722 31.464026 -18.644754 45.654808 0.855656 1.991481 0.086037 -0.008502 890576.000000 0 0 1
28.581822 32.141026 -18.785254 46.934549 0.843945 1.982579 0.087265 -0.007999 518260.000000 0 0 1
29.778422 31.398126 -19.377554 47.413989 0.811868 1.991813 0.092144 -0.015079 176703.000000 0 0 1
30.198722 30.308826 -18.557254 46.636460 0.787218 1.980037 0.094188 -0.010349 -248024.000000 0 0 1
31.468422 29.806026 -18.899154 47.284657 0.758274 1.981974 0.069222 -0.017169 53629.700000 0 0 1
32.040222 28.794626 -17.874854 46.639219 0.732098 1.964117 0.055181 -0.013560 -66460.900000 0 0 1
32.251522 29.335526 -16.567654 46.639264 0.738086 1.933956 0.045050 -0.000162 103719.000000 0 0 1
32.594922 28.280126 -15.652354 45.904147 0.714637 1.918755 0.047045 -0.002090 -212403.000000 0 0 1
33.199222 28.811426 -14.313954 46.229600 0.714757 1.885598 0.054998 -0.000300 509648.000000 0 0 1
34.478422 29.445326 -14.362954 47.561363 0.706824 1.877574 0.018992 0.007949 340066.000000 0 0 1
34.370222 30.825726 -14.583754 48.417181 0.731085 1.876758 0.035620 -0.002122 -882983.000000 0 0 1
35.715622 31.522826 -14.680954 49.848015 0.723122 1.869744 0.039762 -0.008547 33242.500000 0 0 1
36.462822 31.480226 -13.464554 50.018359 0.712194 1.843351 0.039322 -0.004953 -672850.000000 0 0 1
-37.663710 31.597726 -13.612754 51.012532 -0.698040 1.840921 0.043152 -0.016955 -614194.000000 0 0 1
-36.925310 31.805226 -12.304554 50.263833 -0.711040 1.818109 0.052738 -0.008127 -494419.000000 0 0 1
-37.198410 33.098726 -11.762854 51.162604 -0.727145 1.802783 0.061220 -0.011908 539220.000000 0 0 1
-36.462810 33.331926 -10.559154 50.517814 -0.740570 1.781367 0.055862 -0.007127 61286.900000 0 0 1
-36.893510 -32.934424 -9.991654 50.454341 0.728761 1.770148 0.055839 0.001282 4628.180000 0 0 1
-36.077910 -32.299324 -9.049554 49.262119 0.730193 1.755548 0.064068 0.001675 -127812.000000 0 0 1
-35.785510 -32.981624 -7.836754 49.293052 0.744647 1.730457 0.065021 -0.003163 -637.964000 0 0 1
-35.547110 -32.034224 -6.710954 48.320031 0.733465 1.710132 0.084961 -0.015620 -576369.000000 0 0 1
-36.703110 -31.380224 -6.305254 48.699004 0.707375 1.700635 0.071111 -0.002777 -437278.000000 0 0 1
-36.403810 -30.269624 -5.451054 47.657124 0.693653 1.685428 0.101380 -0.013238 379704.000000 0 0 1
-37.728110 -29.609824 -4.984054 48.218179 0.665417 1.674346 0.084877 -0.006612 613834.000000 0 0 1
37.019322 -30.448524 -4.063554 48.104629 -0.688313 1.655370 0.051545 -0.008735 58629.600000 0 0 1
35.742622 -29.973324 -3.740354 46.796639 -0.697831 1.650810 0.041235 -0.005780 -373858.000000 0 0 1
35.608222 -28.834224 -2.706554 45.898621 -0.680666 1.629799 0.044034 -0.006281 -646430.000000 0 0 1
36.045822 -27.601324 -3.187454 45.511474 -0.653492 1.640890 0.085818 -0.012328 192565.000000 0 0 1
35.597922 -26.557724 -2.357254 44.475627 -0.640966 1.623822 0.076702 -0.008361 -118998.000000 0 0 1
35.953422 -25.140324 -2.911454 43.967727 -0.610220 1.637063 0.095803 -0.013622 -110055.000000 0 0 1
35.212122 -24.721424 -4.035454 43.212582 -0.612115 1.664319 0.098126 -0.020693 142340.000000 0 0 1
35.367122 -23.298024 -4.265254 42.565522 -0.582500 1.671169 0.105913 -0.023758 -129239.000000 0 0 1
35.146222 -22.880324 -5.729254 42.327184 -0.577081 1.706569 0.105636 -0.023254 -1073220.000000 0 0 1
36.301422 -23.012124 -6.439354 43.460515 -0.564987 1.719509 0.095550 -0.024459 -750992.000000 0 0 1
36.034422 -22.876124 -7.827354 43.394287 -0.565645 1.752167 0.071878 -0.027317 314700.000000 0 0 1
37.323822 -22.811824 -8.704854 44.600690 -0.548604 1.767230 0.071392 -0.028561 336985.000000 0 0 1
-37.514110 -24.053424 -8.909954 45.445164 0.570152 1.768134 0.046881 -0.010566 246390.000000 0 0 1
-36.505710 -23.823824 -9.901654 44.702172 0.578205 1.794152 0.071353 -0.010478 232108.000000 0 0 1
-36.175010 -25.109924 -10.682254 45.312804 0.606771 1.808781 0.072881 -0.000713 -502356.000000 0 0 1
-35.555610 -26.100124 -9.925954 45.209981 0.633224 1.792152 0.102047 0.003248 -349560.000000 0 0 1
-36.314210 -26.829824 -8.999854 46.038665 0.636310 1.767548 0.093422 -0.002100 -505293.000000 0 0 1
-35.435210 -27.784924 -8.205654 45.771048 0.664973 1.751047 0.095002 -0.000894 -79252.900000 0 0 1
-34.957310 -28.806424 -9.084954 46.199134 0.689232 1.768734 0.095129 0.002616 100129.000000 0 0 1
-33.845810 -29.490724 -8.539454 45.696432 0.716745 1.758775 0.094762 -0.013364 213438.000000 0 0 1
-33.214410 -30.593224 -9.494654 46.144239 0.744342 1.778037 0.083610 -0.006562 315070.000000 0 0 1
-32.500910 -30.007724 -10.599454 45.487592 0.745534 1.805977 0.062432 0.017295 347279.000000 0 0 1
-32.134210 -30.973924 -11.550154 46.102033 0.767015 1.824029 0.051172 0.015485 -101644.000000 0 0 1
-32.064810 -30.455224 -13.018654 46.099437 0.759659 1.857095 0.033799 0.022299 265887.000000 0 0 1
-31.051210 -29.509924 -13.341254 44.866494 0.759954 1.872717 0.036183 0.024703 48779.100000 0 0 1
-31.312210 -28.992024 -14.646454 45.116633 0.746942 1.901423 0.034356 0.038166 81266.300000 0 0 1
-30.355210 -27.916324 -15.212754 43.956658 0.743569 1.924192 0.054950 0.014648 -156536.000000 0 0 1
-29.069210 -28.430724 -15.458154 43.500340 0.774295 1.934092 0.074008 0.003228 -372029.000000 0 0 1
-28.185210 -27.379924 -15.811454 42.356444 0.770907 1.953355 0.096990 0.011592 1038520.000000 0 0 1
-26.753610 -27.885124 -16.276454 41.931596 0.806104 1.969438 0.115375 -0.001815 723345.000000 0 0 1
-26.694810 -28.597224 -17.528054 42.867782 0.819791 1.992030 0.116634 -0.008759 221455.000000 0 0 1
-27.133710 -27.924624 -18.730254 43.207005 0.799762 2.019170 0.088587 0.000081 -50298.500000 0 0 1
-25.958210 -27.213724 -19.426354 42.329643 0.809006 2.047587 0.100420 -0.003156 324457.000000 0 0 1
-25.472710 -26.096124 -18.674154 40.970607 0.797487 2.044060 0.108060 0.001213 179966.000000 0 0 1
-24.068910 -26.183324 -18.473554 40.076815 0.827449 2.049866 0.106128 -0.015312 272236.000000 0 0 1
-23.522010 -25.083024 -17.518954 38.592186 0.817503 2.041991 0.113150 -0.009602 1803.200000 0 0 1
-23.966210 -25.203624 -16.186254 38.361396 0.810559 2.006382 0.132728 -0.017640 50203.000000 0 0 1
-23.486410 -24.109924 -15.470854 37.043855 0.798497 2.001639 0.140278 -0.023745 98311.100000 0 0 1
-24.039510 -24.060324 -14.002654 36.781402 0.785831 1.961349 0.126346 -0.019349 451177.000000 0 0 1
-25.445210 -23.892124 -13.932154 37.581873 0.753930 1.950575 0.097415 0.001682 359390.000000 0 0 1
-25.959410 -23.795024 -12.605054 37.402961 0.741924 1.914532 0.096845 -0.000175 473248.000000 0 0 1
-27.488110 -23.498824 -12.551654 38.279693 0.707316 1.904869 0.097273 0.022436 405959.000000 0 0 1
-28.243010 -24.514524 -13.217354 39.665198 0.714843 1.910516 0.104467 0.017146 978554.000000 0 0 1
-29.622710 -24.698324 -12.873054 40.659902 0.694992 1.892943 0.080155 0.023004 1026670.000000 0 0 1
-30.654910 -23.697824 -13.493854 41.029190 0.658092 1.905918 0.086722 0.022298 -376996.000000 0 0 1
-30.875810 -22.416124 -12.847654 40.259911 0.627969 1.895595 0.101905 0.014147 237263.000000 0 0 1
-31.420410 -22.418124 -11.532054 40.284025 0.619722 1.861127 0.104235 0.012070 -285930.000000 0 0 1
-32.911310 -22.794324 -11.342154 41.609854 0.605741 1.846873 0.078109 0.016377 -36669.000000 0 0 1
-33.918710 -21.882224 -11.705354 42.027680 0.572949 1.853044 0.078447 -0.004462 93141.300000 0 0 1
-34.124810 -21.741124 -13.089554 42.526645 0.567257 1.883673 0.082527 0.004044 -665548.000000 0 0 1
-35.608110 -21.396124 -13.344554 43.632657 0.541065 1.881616 0.045412 -0.010363 291195.000000 0 0 1
-36.453410 -22.539024 -13.172454 44.837175 0.553764 1.868980 0.062998 -0.005860 476025.000000 0 0 1
37.676622 -22.246924 -13.433454 45.770200 -0.533383 1.868680 0.076231 -0.025994 321551.000000 0 0 1
36.737622 -23.370124 -13.004754 45.441602 -0.566567 1.861040 0.075449 -0.009563 -579204.000000 0 0 1
36.766222 -24.513824 -13.773154 46.285877 -0.588059 1.872940 0.074341 -0.005064 321749.000000 0 0 1
35.894622 -25.578624 -13.351954 46.053931 -0.619135 1.864940 0.075691 -0.019038 471503.000000 0 0 1
35.638822 -26.789524 -14.312054 46.825625 -0.644585 1.881413 0.069259 -0.023448 140618.000000 0 0 1
34.872422 -26.495024 -15.443454 46.438910 -0.649725 1.909807 0.075246 -0.042073 -250838.000000 0 0 1
34.862822 -27.614224 -16.354954 47.386140 -0.669894 1.923187 0.059430 -0.028425 -265304.000000 0 0 1
33.790122 -27.501024 -17.417554 46.919611 -0.683146 1.951120 0.057372 -0.037934 303566.000000 0 0 1
32.436322 -27.777124 -17.042054 45.979509 -0.708174 1.950499 0.112513 -0.044722 998056.000000 0 0 1
31.548822 -27.760324 -18.176754 45.786004 -0.721608 1.979035 0.116500 -0.044398 1334680.000000 0 0 1
30.022022 -27.927324 -17.856254 44.722512 -0.749267 1.981514 0.109162 -0.047069 733246.000000 0 0 1
29.483822 -26.930924 -16.996654 43.398810 -0.740177 1.973208 0.098297 -0.052767 -17292.200000 0 0 1
28.111822 -27.218324 -16.817554 42.590396 -0.769251 1.976720 0.115011 -0.046435 61118.000000 0 0 1
27.373722 -26.277824 -15.848154 41.121876 -0.764975 1.966432 0.110947 -0.051522 -35946.000000 0 0 1
27.219822 -24.951924 -16.325954 40.373927 -0.741956 1.987085 0.126914 -0.059692 -229317.000000 0 0 1
26.897522 -24.065724 -15.294254 39.198852 -0.729890 1.971614 0.125059 -0.058600 -189878.000000 0 0 1
26.541922 -22.609224 -15.782254 38.271794 -0.705556 1.995854 0.127084 -0.059631 -50224.700000 0 0 1
25.175322 -22.306924 -15.878454 37.195712 -0.725062 2.011846 0.122985 -0.064527 -351667.000000 0 0 1
25.026222 -20.905124 -16.164654 36.395495 -0.695915 2.031009 0.131784 -0.057947 -333851.000000 0 0 1
23.555822 -20.510924 -16.302854 35.232908 -0.716410 2.051854 0.106383 -0.053852 -347090.000000 0 0 1
22.963522 -20.221524 -15.071954 34.108609 -0.721989 2.028491 0.106476 -0.050532 -231509.000000 0 0 1
21.657822 -19.704324 -15.167154 32.975206 -0.738204 2.048742 0.092788 -0.049618 -22421.900000 0 0 1
21.320722 -18.460924 -14.305154 31.623035 -0.713634 2.040212 0.074439 -0.042513 -67615.000000 0 0 1
21.028522 -18.781024 -12.960054 31.030447 -0.729002 2.001660 0.078920 -0.047245 99232.400000 0 0 1
20.727622 -17.621324 -12.200454 29.816044 -0.704574 1.992363 0.077043 -0.050416 -553562.000000 0 0 1
19.866422 -17.838724 -10.948754 28.857755 -0.731672 1.959949 0.083860 -0.033020 -510590.000000 0 0 1
20.434322 -18.536724 -9.881454 29.305542 -0.736744 1.914724 0.094397 -0.042614 -418895.000000 0 0 1
19.629122 -18.448524 -8.744454 28.321652 -0.754403 1.884680 0.077737 -0.037542 -500776.000000 0 0 1
20.275822 -19.084624 -7.502654 28.837851 -0.755144 1.833991 0.079957 -0.034527 462934.000000 0 0 1
21.425422 -18.347624 -7.082154 29.083345 -0.708168 1.816782 0.080126 -0.034709 450424.000000 0 0 1
22.193122 -18.993424 -6.079554 29.836987 -0.707866 1.775992 0.088682 -0.023495 161835.000000 0 0 1
23.538922 -18.282924 -5.813554 30.366817 -0.660378 1.763430 0.102676 -0.024921 -449779.000000 0 0 1
24.403822 -18.273424 -6.894354 31.256946 -0.642729 1.793195 0.098786 -0.046699 -546775.000000 0 0 1
25.414322 -17.348224 -6.663454 31.484127 -0.598963 1.784054 0.107756 -0.041101 -785500.000000 0 0 1
26.509422 -17.246224 -7.741154 32.559287 -0.576776 1.810851 0.127725 -0.048099 -70328.200000 0 0 1
27.478522 -18.254224 -7.727154 33.882072 -0.586368 1.800881 0.160715 -0.059746 -1314.270000 0 0 1
27.004522 -19.442224 -8.288454 34.292022 -0.623998 1.814916 0.168407 -0.070761 -263162.000000 0 0 1
28.081622 -20.540424 -8.148554 35.733534 -0.631526 1.800857 0.174214 -0.068728 840498.000000 0 0 1
29.304122 -20.316624 -8.855554 36.741225 -0.606217 1.814218 0.155100 -0.042543 263576.000000 0 0 1
30.089622 -21.461724 -8.976854 38.033865 -0.619570 1.809067 0.141921 -0.041031 -106511.000000 0 0 1
-31.481928 29.820426 3.990246 43.546431 -0.758301 1.479036 0.093591 -0.021589 643788.000000 0 0 1
-30.689608 30.734126 3.214546 43.551944 -0.786123 1.496920 0.087391 -0.019282 -563442.000000 0 0 1
-29.393308 30.906526 3.675746 42.809941 -0.810488 1.484829 0.077098 -0.016296 -556904.000000 0 0 1
-28.663278 32.088626 2.974946 43.129036 -0.841721 1.501764 0.084566 -0.018260 -320955.000000 0 0 1
-28.316078 31.928326 1.598946 42.705678 -0.845286 1.533347 0.106257 -0.019385 246762.000000 0 0 1
-27.842048 33.140626 0.989446 43.295031 -0.872067 1.547941 0.112156 -0.036401 833673.000000 0 0 1
-26.564678 -33.779324 1.499446 42.999688 0.904392 1.535918 0.127731 -0.024628 835925.000000 0 0 1
-25.294298 33.333926 1.219646 41.862151 -0.921677 1.541657 0.113091 -0.031249 207700.000000 0 0 1
-24.309878 33.786226 2.121746 41.677104 -0.947089 1.519865 0.099757 -0.028852 416991.000000 0 0 1
-22.856278 33.385626 1.777546 40.499002 -0.970471 1.526891 0.091240 -0.036836 375539.000000 0 0 1
-22.243678 -33.666324 0.648346 40.356201 0.986929 1.554730 0.126408 -0.049159 -59779.900000 0 0 1
-20.851278 33.834426 0.767446 39.750889 -1.018496 1.551489 0.123391 -0.049575 -391372.000000 0 0 1
-19.988978 -33.343224 -0.400954 38.877893 1.030751 1.581110 0.134798 -0.046851 -1411.230000 0 0 1
-19.857178 -31.906424 -0.567554 37.585230 1.014100 1.585897 0.140347 -0.050112 198682.000000 0 0 1
-19.062678 -31.348224 0.466746 36.692161 1.024446 1.558075 0.137546 -0.037674 -314182.000000 0 0 1
-18.843978 -29.830024 0.340146 35.285146 1.007385 1.561156 0.142558 -0.046829 40983.400000 0 0 1
-17.912378 -29.623524 -0.724454 34.625587 1.026952 1.591720 0.145994 -0.036920 161520.000000 0 0 1
-17.502378 -28.261924 -0.665354 33.249245 1.016312 1.590809 0.118913 -0.032666 74887.300000 0 0 1
-16.369278 -27.855924 -1.643454 32.351301 1.039514 1.621618 0.103404 -0.027817 48943.300000 0 0 1
-16.677478 -28.213824 -3.011354 32.912405 1.036939 1.662420 0.105955 -0.032684 -389693.000000 0 0 1
-15.813478 -27.542524 -3.885254 31.996123 1.049603 1.692526 0.088000 -0.015890 -202718.000000 0 0 1
-16.141578 -27.564224 -5.437954 32.402289 1.041033 1.739421 0.126837 -0.028877 -375643.000000 0 0 1
-17.353278 -26.900524 -5.627554 32.502982 0.997880 1.744813 0.128608 -0.021736 -667067.000000 0 0 1
-17.674278 -26.736424 -7.027354 32.811586 0.986688 1.786641 0.137466 -0.031046 -404042.000000 0 0 1
-18.601178 -25.573124 -7.197154 32.431274 0.941935 1.794580 0.119124 -0.021450 -494250.000000 0 0 1
-18.006478 -24.372524 -6.722254 31.039360 0.934500 1.789098 0.084541 -0.006730 -166102.000000 0 0 1
-18.495378 -23.142524 -7.204654 30.488727 0.896547 1.809358 0.057035 0.000151 -463498.000000 0 0 1
-17.520478 -22.001124 -6.998354 28.982642 0.898288 1.814674 0.074653 0.000759 139073.000000 0 0 1
-16.307978 -22.189024 -7.723954 28.600042 0.936992 1.844260 0.096226 -0.013362 364120.000000 0 0 1
-15.342778 -21.184524 -7.358154 27.172179 0.943983 1.845018 0.114449 -0.022718 445538.000000 0 0 1
-14.236278 -20.995624 -8.372554 26.713059 0.974948 1.889594 0.112250 -0.023755 -237609.000000 0 0 1
-14.754078 -20.290524 -9.454254 26.809907 0.942086 1.931188 0.123896 -0.021900 -15327.200000 0 0 1
-13.759678 -20.162324 -10.476154 26.563092 0.971950 1.976198 0.111316 -0.022878 495837.000000 0 0 1
-14.181978 -19.330824 -11.713154 26.683464 0.937844 2.025245 0.135185 -0.021220 -223841.000000 0 0 1
-15.162978 -19.923724 -12.503054 27.985658 0.920260 2.033944 0.116091 -0.003370 -567699.000000 0 0 1
-15.520678 -19.050424 -13.594654 28.082463 0.887147 2.076128 0.126798 -0.028482 -32124.400000 0 0 1
-16.821678 -19.452624 -14.290354 29.420871 0.857801 2.077985 0.133778 -0.028226 -635735.000000 0 0 1
-17.946578 -19.387724 -13.491054 29.664323 0.823980 2.042933 0.126425 -0.027197 -130687.000000 0 0 1
-19.168478 -19.443024 -14.213554 30.781274 0.792509 2.050774 0.101737 -0.016442 803844.000000 0 0 1
-20.519778 -19.482024 -13.417254 31.315064 0.759461 2.013584 0.067873 -0.012253 1195210.000000 0 0 1
-21.552778 -19.838824 -14.384954 32.634768 0.744014 2.027271 0.079774 -0.012295 -391859.000000 0 0 1
-22.792878 -19.708324 -13.776254 33.131835 0.712950 1.999620 0.066925 -0.007637 -708609.000000 0 0 1
-23.922578 -20.309224 -14.636854 34.626461 0.703888 2.007227 0.078185 -0.014418 -223180.000000 0 0 1
-24.062678 -19.654924 -15.906054 34.904599 0.684914 2.043956 0.088400 -0.020652 335930.000000 0 0 1
-24.735078 -20.549624 -16.800954 36.281995 0.693235 2.052248 0.111536 -0.026055 3547.650000 0 0 1
-25.153098 -19.865424 -18.121354 36.819789 0.668478 2.085370 0.106604 -0.010262 51698.700000 0 0 1
-24.088878 -19.583324 -19.014354 36.405031 0.682594 2.120342 0.086829 -0.010509 145006.000000 0 0 1
-24.526378 -19.357824 -20.304554 37.263165 0.668161 2.147062 0.097744 -0.015123 749800.000000 0 0 1
-23.372078 -18.629624 -21.128954 36.602590 0.672963 2.186157 0.063141 -0.007289 1545200.000000 0 0 1
-22.159578 -19.361724 -21.336554 36.347927 0.718116 2.198155 0.038259 0.004946 -363582.000000 0 0 1
-21.253978 -18.637224 -22.044454 35.847394 0.719895 2.233122 0.027861 0.003440 -899038.000000 0 0 1
-19.977178 -19.459624 -22.245754 35.674055 0.772275 2.244115 0.028014 0.010250 -529201.000000 0 0 1
-20.049778 -20.606524 -23.137954 36.905113 0.799091 2.248439 0.015228 0.018732 -584176.000000 0 0 1
-18.933878 -21.420724 -23.013754 36.701118 0.846945 2.248568 0.010821 0.015295 -637119.000000 0 0 1
-18.955478 -22.802824 -23.708654 37.965500 0.877272 2.245261 0.023167 0.009372 -331782.000000 0 0 1
-19.057178 -22.638424 -25.086754 38.794581 0.871078 2.273989 0.024714 0.010944 237576.000000 0 0 1
-19.191978 -23.868524 -25.710974 39.988656 0.893578 2.269149 0.021958 -0.002734 -180268.000000 0 0 1
-19.069578 -23.847124 -27.215614 40.902613 0.896263 2.298794 0.038250 -0.001006 -507389.000000 0 0 1
-17.756078 -23.635524 -27.633894 40.466633 0.926499 2.322495 0.039091 -0.004599 -425284.000000 0 0 1
-17.770278 -23.690524 -29.056264 41.488434 0.927231 2.346679 0.064485 -0.012941 -329616.000000 0 0 1
-16.419978 -23.561824 -29.745704 41.347093 0.962161 2.373756 0.045552 -0.017142 -307023.000000 0 0 1
-15.402478 -24.427524 -29.298624 41.138177 1.008225 2.363424 0.048782 -0.013421 990002.000000 0 0 1
-14.172978 -24.228824 -30.041334 41.114365 1.041506 2.390110 0.069278 -0.015150 1395690.000000 0 0 1
-13.135878 -25.408324 -29.999144 41.449763 1.093648 2.380013 0.104306 -0.022219 -296263.000000 0 0 1
-13.549378 -26.631624 -30.551754 42.734514 1.100157 2.367306 0.071773 -0.018424 53062.500000 0 0 1
-12.697778 -27.738324 -30.317464 43.009264 1.141500 2.353086 0.088085 -0.019046 367746.000000 0 0 1
-11.302878 -27.778524 -31.016244 43.144048 1.184362 2.373014 0.102086 -0.019009 484622.000000 0 0 1
-10.401278 -26.887924 -30.379904 41.881805 1.201688 2.382372 0.157922 -0.029627 287013.000000 0 0 1
-9.213678 -26.597124 -31.105854 41.950841 1.237318 2.406075 0.128273 -0.023901 977755.000000 0 0 1
-8.164878 -25.553824 -30.488094 40.610184 1.261532 2.419993 0.213376 -0.031003 832226.000000 0 0 1
-8.527878 -24.168924 -30.461474 39.809082 1.231589 2.442131 0.220614 -0.028131 59889.000000 0 0 1
-9.527878 -23.832524 -29.512624 39.112206 1.190476 2.425784 0.199416 -0.020001 96143.000000 0 0 1
-9.844878 -22.309524 -29.458264 38.241676 1.155213 2.450137 0.202348 -0.030488 -105349.000000 0 0 1
-10.405078 -21.787924 -30.645074 39.014098 1.125260 2.474279 0.179653 -0.029234 68372.500000 0 0 1
-10.741078 -20.410524 -30.328964 38.102576 1.086368 2.491424 0.173765 -0.033727 352525.000000 0 0 1
-11.566078 -19.736424 -31.461154 38.898648 1.040714 2.512902 0.151151 -0.030209 216054.000000 0 0 1
-12.063978 -18.427524 -31.376324 38.335192 0.991144 2.529545 0.128250 -0.028260 452833.000000 0 0 1
-12.979678 -18.125524 -32.440664 39.362461 0.949347 2.539500 0.118868 -0.030379 225436.000000 0 0 1
-13.799778 -16.803424 -32.176004 38.834059 0.883233 2.547311 0.125489 -0.034876 -94819.800000 0 0 1
-13.132478 -15.588124 -32.184594 38.095927 0.870692 2.577044 0.128708 -0.037096 -316429.000000 0 0 1
-12.134678 -15.297624 -31.232764 36.834132 0.900191 2.582864 0.105055 -0.036976 42161.500000 0 0 1
-11.894978 -13.763424 -31.285654 36.189978 0.858090 2.614919 0.089655 -0.031127 -153259.000000 0 0 1
-11.159478 -13.236124 -32.386734 36.723691 0.870317 2.650680 0.094537 -0.037517 405655.000000 0 0 1
-11.822378 -13.273424 -33.695484 38.096431 0.843154 2.656172 0.100388 -0.035182 76901.400000 0 0 1
-12.485778 -12.006724 33.284550 37.522225 0.765841 0.479854 0.085828 -0.026266 97343.900000 0 0 1
-13.627778 -11.597824 -33.569274 38.041057 0.705099 2.651838 0.072680 -0.025805 -419011.000000 0 0 1
-14.396778 -10.853724 33.101144 37.692921 0.645992 0.498754 0.061004 -0.030373 -176770.000000 0 0 1
-15.512978 -10.055224 -33.784874 38.512046 0.575096 2.640909 0.069879 -0.028365 -218529.000000 0 0 1
-15.052478 -9.041124 -33.020124 37.398497 0.540890 2.652856 0.066792 -0.029749 225334.000000 0 0 1
-15.918278 -8.744124 -31.902844 36.710254 0.502316 2.624064 0.079277 -0.039363 503208.000000 0 0 1
-15.297978 -7.571424 -31.108414 35.483630 0.459583 2.639750 0.075638 -0.045884 -271314.000000 0 0 1
-15.331478 -6.314524 -31.754194 35.822566 0.390694 2.660371 0.074474 -0.048531 713883.000000 0 0 1
-16.564378 -5.573424 -31.804474 36.290029 0.324571 2.639125 0.080810 -0.046615 376414.000000 0 0 1
-16.957378 -4.886224 -30.444264 35.189218 0.280548 2.616263 0.083382 -0.053017 -507848.000000 0 0 1
-17.150478 -5.874724 -29.395074 34.535802 0.330014 2.588964 0.082289 -0.054315 -21084.600000 0 0 1
-17.260578 -5.249124 -28.139884 33.426545 0.295224 2.571484 0.077647 -0.054186 474539.000000 0 0 1
-15.867578 -4.821124 -27.548814 32.155255 0.294971 2.599719 0.076036 -0.054741 403070.000000 0 0 1
-15.518878 -3.655224 -28.230874 32.421883 0.231318 2.627492 0.074693 -0.052034 850172.000000 0 0 1
-14.291178 -3.026624 -27.752324 31.362234 0.208699 2.657068 0.068034 -0.044139 970454.000000 0 0 1
-14.059878 -1.710824 -28.522234 31.845328 0.121086 2.680684 0.046123 -0.028670 -93898.200000 0 0 1
-13.736378 -1.950824 -29.877924 32.942133 0.141075 2.706859 0.054026 -0.033098 181442.000000 0 0 1
-13.627078 -0.734824 -30.510944 33.423868 0.053872 2.721005 0.051470 -0.032970 -196514.000000 0 0 1
-13.953978 -0.782824 -31.992394 34.911883 0.056042 2.729727 0.054847 -0.040282 81583.500000 0 0 1
-15.333478 -1.109824 -32.156404 35.642413 0.072253 2.695628 0.042911 -0.040126 598760.000000 0 0 1
-15.536278 -1.198824 -33.547244 36.989602 0.077010 2.706752 0.049129 -0.038617 881383.000000 0 0 1
-16.999878 -1.599824 33.558172 37.652440 0.093832 0.470677 0.039158 -0.039158 1166790.000000 0 0 1
-17.051578 -1.751824 32.162204 36.444925 0.102378 0.489671 0.062160 -0.042959 262188.000000 0 0 1
-18.403778 -1.709824 31.770594 36.755859 0.092640 0.526904 0.059124 -0.039256 -63027.000000 0 0 1
-18.393778 -1.805824 30.239822 35.440639 0.097862 0.548605 0.083919 -0.037397 14019.000000 0 0 1
-17.846278 -0.682824 29.579422 34.552831 0.038243 0.543191 0.086107 -0.026663 -22660.300000 0 0 1
-17.803878 -0.901824 28.185282 33.349685 0.050610 0.563962 0.093603 -0.037854 -114561.000000 0 0 1
-17.038078 0.222176 27.433002 32.294196 -0.013039 0.555813 0.085748 -0.039328 93111.300000 0 0 1
-17.499378 1.578176 27.597052 32.715687 -0.089941 0.566952 0.073180 -0.035942 306780.000000 0 0 1
-18.862578 1.888176 27.319022 33.251933 -0.099769 0.606625 0.080179 -0.039761 364991.000000 0 0 1
-18.959278 2.790176 26.042312 32.333285 -0.146118 0.634390 0.088396 -0.035215 -383236.000000 0 0 1
-18.408878 4.040176 26.260392 32.323645 -0.216044 0.622505 0.075221 -0.029946 52881.400000 0 0 1
-18.700678 4.801176 25.067542 31.640928 -0.251310 0.656308 0.080060 -0.024406 -515448.000000 0 0 1
-18.481078 6.317176 25.255872 31.926729 -0.329368 0.658261 0.070708 -0.023208 921027.000000 0 0 1
-17.136378 6.817176 25.143022 31.181740 -0.378625 0.632862 0.070011 -0.019569 821738.000000 0 0 1
-16.496978 6.691176 23.852182 29.763211 -0.385325 0.641167 0.068301 -0.017688 -9852.210000 0 0 1
-15.346578 7.708176 23.706232 29.273177 -0.465465 0.626938 0.056829 -0.015065 98954.100000 0 0 1
-14.109878 7.368176 24.283232 29.035393 -0.481249 0.580238 0.061528 -0.014966 -201828.000000 0 0 1
-13.081478 8.151176 23.754422 28.316767 -0.557238 0.575571 0.063796 -0.017916 908777.000000 0 0 1
-11.624578 7.872176 24.321422 28.082620 -0.595260 0.523516 0.053837 -0.019392 1176360.000000 0 0 1
-10.646678 8.731176 23.759222 27.460623 -0.686868 0.525226 0.037438 -0.014830 -3143.300000 0 0 1
-9.520778 8.891176 24.601142 27.837285 -0.751216 0.486985 0.042602 -0.012316 -79252.000000 0 0 1
-9.572478 10.080176 25.595812 29.127099 -0.811226 0.497533 0.044226 -0.022657 -700354.000000 0 0 1
-10.728878 10.063176 26.396432 30.218338 -0.753392 0.508402 0.041186 -0.021532 13189.900000 0 0 1
-10.817578 11.270176 27.120752 31.298116 -0.805886 0.522589 0.067254 -0.028763 -544189.000000 0 0 1
-11.413978 12.547176 26.456312 31.426851 -0.832656 0.570117 0.045045 -0.025351 706745.000000 0 0 1
-12.814178 12.466176 26.129982 31.660459 -0.771633 0.600029 0.049333 -0.028063 744510.000000 0 0 1
-13.148778 11.649176 25.030342 30.579596 -0.724999 0.611947 0.048341 -0.017868 -159957.000000 0 0 1
-14.671678 11.549176 24.733492 30.990115 -0.666872 0.646646 0.035061 -0.016784 261360.000000 0 0 1
-15.278078 12.800176 24.352312 31.469021 -0.697376 0.685898 0.048955 -0.022304 362653.000000 0 0 1
-16.564578 12.628176 23.766752 31.602446 -0.651365 0.719623 0.054657 -0.009702 369992.000000 0 0 1
-16.559378 12.116176 22.286252 30.293428 -0.631673 0.744127 0.048401 -0.003254 -203209.000000 0 0 1
-16.057078 10.769176 22.131852 29.387477 -0.590777 0.718028 0.046095 -0.004756 33397.300000 0 0 1
-16.088278 10.324176 20.790252 28.242802 -0.570533 0.743468 0.060710 -0.015849 -12001.300000 0 0 1
-16.715378 8.923176 20.473552 27.896116 -0.490344 0.746719 0.073469 -0.017303 -340387.000000 0 0 1
-18.102278 8.957176 20.409052 28.713287 -0.459486 0.780179 0.089215 -0.011966 -1039490.000000 0 0 1
-18.666578 7.686176 20.208452 28.563963 -0.390604 0.784869 0.086189 -0.014072 270158.000000 0 0 1
-20.188078 7.743176 20.509452 29.801894 -0.366247 0.811801 0.106006 -0.015990 250631.000000 0 0 1
-20.571178 8.029176 21.858952 31.071769 -0.372127 0.790488 0.096853 -0.023483 1325700.000000 0 0 1
-22.005278 8.065176 22.092952 32.208351 -0.351308 0.814903 0.100943 -0.022671 996022.000000 0 0 1
-22.293078 8.516176 23.531692 33.514879 -0.364902 0.792416 0.101765 -0.021707 -598252.000000 0 0 1
-22.167678 9.927176 23.782982 33.993897 -0.421041 0.795924 0.091215 -0.014206 202194.000000 0 0 1
-20.912178 10.519176 23.533052 33.193023 -0.466058 0.782751 0.089295 -0.013445 191860.000000 0 0 1
-19.707678 10.238176 24.474612 33.048744 -0.479127 0.736891 0.080244 -0.019255 4392.160000 0 0 1
-19.861478 10.870176 25.746162 34.285622 -0.500767 0.721324 0.084427 -0.019332 139325.000000 0 0 1
-19.766178 10.023176 26.884632 34.841775 -0.469301 0.689411 0.063333 -0.017239 77569.200000 0 0 1
-33.337978 -14.453674 20.036452 41.494444 0.409090 1.066866 0.126495 -0.006430 96024.400000 0 0 1
-31.992468 -14.929674 20.183052 40.666556 0.436623 1.051458 0.113300 0.003478 769085.000000 0 0 1
-31.666628 -15.940174 19.258852 40.345605 0.466344 1.073163 0.092546 0.016585 -35840.100000 0 0 1
-31.400368 -15.419874 17.784952 39.243600 0.456481 1.100451 0.098521 0.018285 -427184.000000 0 0 1
-32.500728 -14.862874 17.097552 39.617277 0.428915 1.124566 0.087075 0.008354 -87287.900000 0 0 1
-32.022448 -14.070274 16.015552 38.469568 0.413994 1.141405 0.085152 0.001178 -401626.000000 0 0 1
-32.978038 -13.060374 15.309752 38.633054 0.377081 1.163328 0.080124 0.001014 2119960.000000 0 0 1
-34.294663 -13.557974 14.819052 39.743513 0.376481 1.188699 0.096445 -0.000329 2381370.000000 0 0 1
-35.337343 -13.653774 15.757052 41.029721 0.368713 1.176629 0.089736 0.003068 -214068.000000 0 0 1
-36.134178 -12.408274 16.213752 41.503371 0.330778 1.169447 0.087278 -0.002121 -336632.000000 0 0 1
-37.087918 -12.720374 17.204552 42.817265 0.330406 1.157300 0.061452 0.002732 15242.400000 0 0 1
-37.555208 -11.487274 17.757752 43.100915 0.296840 1.146144 0.059102 0.001950 -533784.000000 0 0 1
37.002944 -11.680374 18.926152 43.172309 -0.305762 1.116994 0.046896 0.016654 -442094.000000 0 0 1
37.507734 -12.278774 20.108252 44.293794 -0.316371 1.099575 0.049442 0.017999 -68884.500000 0 0 1
36.760804 -11.750774 21.182352 44.024192 -0.309390 1.068827 0.041623 0.009223 -1260000.000000 0 0 1
37.409054 -12.111074 22.544862 45.325338 -0.313098 1.050196 0.042190 -0.001648 915476.000000 0 0 1
-36.872688 -11.389774 22.856812 44.852602 0.299597 1.036078 0.060408 0.003562 861488.000000 0 0 1
-35.778413 -11.869274 22.103752 43.698402 0.320319 1.040458 0.064835 -0.001260 -1130320.000000 0 0 1
-34.500265 -11.016874 22.199852 42.479092 0.309093 1.020891 0.093485 -0.006746 24693.600000 0 0 1
-34.572897 -9.805274 21.495052 41.874406 0.276355 1.031745 0.106869 -0.005765 -741993.000000 0 0 1
-33.362328 -9.136974 21.455152 40.704456 0.267316 1.015617 0.133343 -0.011873 -856168.000000 0 0 1
-33.392528 -7.878774 20.497052 39.965800 0.231707 1.032278 0.123166 -0.010004 41457.200000 0 0 1
-33.542088 -8.113074 19.081652 39.433527 0.237319 1.065697 0.126806 -0.012690 -174822.000000 0 0 1
-34.874226 -8.434674 18.802452 40.507871 0.237303 1.088101 0.097680 -0.007711 -671976.000000 0 0 1
-35.262349 -8.356274 17.300652 40.156857 0.232682 1.125387 0.110680 -0.012557 18058.400000 0 0 1
-36.658668 -8.544274 17.169752 41.372248 0.228988 1.142846 0.030507 -0.012652 205778.000000 0 0 1
-37.094438 -8.404174 15.801352 41.186286 0.222800 1.177045 0.055812 -0.014700 157143.000000 0 0 1
36.873154 -8.283374 15.651752 40.905026 -0.220977 1.178148 0.077925 -0.023068 112425.000000 0 0 1
36.244944 -9.536974 15.906152 40.714316 -0.257294 1.169429 0.081055 0.000403 -302792.000000 0 0 1
34.853324 -9.354174 15.799052 39.393715 -0.262208 1.158128 0.078116 -0.001169 -212341.000000 0 0 1
34.111154 -10.724374 15.833952 39.106228 -0.304610 1.153931 0.070992 0.005726 68873.400000 0 0 1
34.108354 -11.285874 17.119352 39.797274 -0.319544 1.126122 0.041181 0.003252 -305822.000000 0 0 1
32.995624 -12.091674 17.384452 39.206364 -0.351265 1.111398 0.060363 0.001481 -130748.000000 0 0 1
32.887684 -12.595374 18.840652 39.940122 -0.365750 1.079553 0.041053 0.010738 -101400.000000 0 0 1
33.723024 -13.651374 19.229152 41.150488 -0.384645 1.084575 0.050933 0.015340 -482762.000000 0 0 1
33.785724 -13.744874 20.635052 41.907065 -0.386376 1.055951 0.062189 0.016954 -484929.000000 0 0 1
34.261474 -15.078774 21.174152 43.006543 -0.414598 1.056012 0.055974 0.008984 114303.000000 0 0 1
34.355384 -15.029374 22.592292 43.778832 -0.412383 1.028557 0.058432 -0.009206 -164422.000000 0 0 1
34.580654 -16.327474 23.120982 44.687670 -0.441126 1.026997 0.076243 -0.010916 -143087.000000 0 0 1
35.209964 -16.197174 24.483552 45.842495 -0.431153 1.007377 0.088324 -0.010912 -899363.000000 0 0 1
36.472854 -15.639274 24.421442 46.596811 -0.405078 1.019137 0.077654 -0.001378 -903616.000000 0 0 1
36.922834 -15.313374 25.710082 47.526871 -0.393148 0.999220 0.090125 -0.006896 -462453.000000 0 0 1
-37.381688 -14.380874 25.732792 47.606478 0.367251 0.999728 0.081043 -0.002937 116095.000000 0 0 1
-36.104918 -14.917974 25.381412 46.586770 0.391820 0.994622 0.052304 -0.006157 339019.000000 0 0 1
-35.114577 -13.957574 25.648282 45.669265 0.378338 0.974467 0.072326 -0.014153 229418.000000 0 0 1
-33.673758 -14.447174 25.341252 44.551340 0.405282 0.965738 0.078141 -0.013128 -902996.000000 0 0 1
-33.357648 -14.403274 23.995492 43.542745 0.407602 0.987140 0.074023 -0.001408 945305.000000 0 0 1
-31.993558 -14.800974 23.717332 42.487274 0.433302 0.978555 0.082692 -0.006165 1096120.000000 0 0 1
-31.550328 -16.217274 24.131092 42.903762 0.474795 0.973454 0.077957 0.002027 -1030940.000000 0 0 1
-31.456758 -16.316274 25.543142 43.682955 0.478487 0.946238 0.081694 -0.006206 -359874.000000 0 0 1
-30.971578 -17.521774 25.939002 44.035021 0.514845 0.940909 0.073009 -0.006588 -362624.000000 0 0 1
-30.606218 -17.590774 27.436792 44.709657 0.521643 0.910101 0.053220 -0.016369 787940.000000 0 0 1
-29.402188 -16.831474 27.694002 43.757798 0.519921 0.885512 0.055973 -0.012833 665176.000000 0 0 1
-28.798168 -17.228374 28.895212 44.284135 0.539128 0.859923 0.065042 -0.019985 -406276.000000 0 0 1
-27.644448 -16.365374 29.337352 43.505416 0.534513 0.830729 0.055083 -0.014525 -587646.000000 0 0 1
-28.028498 -15.115474 29.855512 43.651184 0.494583 0.817624 0.065469 -0.022298 436754.000000 0 0 1
-26.961468 -14.183374 29.633012 42.499462 0.484278 0.799234 0.050505 -0.019547 66375.000000 0 0 1
-26.886958 -12.921474 30.520842 42.677802 0.447995 0.773964 0.058895 -0.013064 99980.300000 0 0 1
-26.168748 -13.288174 31.711088 43.208472 0.469859 0.746737 0.054300 -0.017442 377957.000000 0 0 1
-25.846738 -12.065874 32.395661 43.163851 0.436756 0.721936 0.055068 -0.012841 -472600.000000 0 0 1
-24.967278 -12.241874 33.641672 43.646197 0.455871 0.690730 0.062324 -0.017789 -138911.000000 0 0 1
-23.625078 -12.594074 33.367145 42.779918 0.489761 0.676175 0.036780 -0.015419 12228.700000 0 0 1
-23.282478 -13.961574 33.460454 43.088297 0.540170 0.681616 0.040907 -0.021309 -249466.000000 0 0 1
-23.354478 -14.708174 -32.776714 42.849446 0.562029 2.441725 0.041993 -0.019307 -697984.000000 0 0 1
-22.305578 -14.429974 -31.876284 41.495306 0.574209 2.446806 0.020689 -0.016460 14072.500000 0 0 1
-22.403578 -15.104774 -30.639914 40.851913 0.593209 2.418895 0.027763 -0.017918 -133742.000000 0 0 1
-21.095378 -15.016274 -29.826074 39.498078 0.618620 2.426644 0.025952 -0.017263 170493.000000 0 0 1
-20.799978 -13.803374 -29.099894 38.340267 0.585893 2.432557 0.020043 -0.024087 393666.000000 0 0 1
-21.552978 -13.735674 -27.871844 37.815860 0.567394 2.399478 0.027572 -0.016731 139470.000000 0 0 1
-21.080678 -12.626174 -26.920934 36.449306 0.539644 2.401766 0.025899 -0.018544 -480924.000000 0 0 1
-19.758178 -12.754374 -26.463574 35.403113 0.573222 2.415076 0.029298 -0.022726 -314544.000000 0 0 1
-19.368978 -11.638274 -25.781704 34.282692 0.541060 2.421937 0.034359 -0.021856 949148.000000 0 0 1
-17.995278 -11.778874 -25.006154 32.983020 0.579570 2.431271 0.052774 -0.038237 125555.000000 0 0 1
-18.075378 -12.732774 -23.953354 32.597638 0.613691 2.396196 0.061606 -0.037409 -105224.000000 0 0 1
-16.851978 -12.961774 -23.294154 31.537507 0.655648 2.401814 0.059509 -0.043496 493287.000000 0 0 1
-15.764578 -13.760674 -24.110054 31.924485 0.717631 2.426788 0.042314 -0.034775 -256959.000000 0 0 1
-15.117478 -13.046074 -25.108164 32.080494 0.711981 2.469726 0.046708 -0.040825 -858067.000000 0 0 1
-14.228578 -13.862374 -25.783384 32.548437 0.772363 2.485127 0.069480 -0.044324 -750574.000000 0 0 1
-13.272078 -12.928274 -26.569474 32.391747 0.772277 2.532652 0.091285 -0.047881 -54951.500000 0 0 1
-13.857278 -12.209774 -27.653594 33.253932 0.722280 2.552758 0.092091 -0.057010 -155590.000000 0 0 1
-12.867278 -11.623174 -28.465714 33.331095 0.734642 2.594477 0.093650 -0.059196 -69979.100000 0 0 1
-13.491878 -10.599774 -29.430904 34.067053 0.665924 2.613781 0.072499 -0.052376 -176876.000000 0 0 1
-12.648278 -9.589774 -29.937414 33.884974 0.648721 2.654081 0.060130 -0.044069 -239239.000000 0 0 1
-12.114278 -10.005774 -31.173324 34.909130 0.690364 2.674730 0.069540 -0.035282 490649.000000 0 0 1
-11.293778 -8.865974 -31.954674 35.032215 0.665547 2.719299 0.041241 -0.031785 1169450.000000 0 0 1
-9.980478 -8.507674 -31.538994 34.156970 0.705904 2.747524 0.048726 -0.033178 135193.000000 0 0 1
-9.500978 -7.258874 -31.938034 34.102754 0.652409 2.783376 0.039773 -0.033906 39717.900000 0 0 1
-7.966278 -7.083774 -31.763364 33.504518 0.726827 2.817790 0.062877 -0.032673 -83715.800000 0 0 1
-7.544478 -7.225374 -30.434664 32.177538 0.763796 2.810956 0.059770 -0.031025 -469026.000000 0 0 1
-7.799278 -6.175374 -29.506064 31.137948 0.669713 2.816408 0.062288 -0.026252 -411381.000000 0 0 1
-7.196778 -4.755574 -29.788984 31.012782 0.583925 2.859730 0.061277 -0.033565 -451086.000000 0 0 1
-5.815978 -4.738974 -29.555594 30.492894 0.683712 2.893008 0.086393 -0.041897 -341386.000000 0 0 1
-5.237878 -3.510174 -30.041024 30.695599 0.590412 2.934706 0.103277 -0.044645 677757.000000 0 0 1
-3.714278 -3.359174 -29.704604 30.123801 0.735238 2.974570 0.098144 -0.026888 -562096.000000 0 0 1
-2.987878 -4.251474 -30.455834 30.895959 0.958203 2.972600 0.112940 -0.030097 -557938.000000 0 0 1
-1.593978 -4.073174 -30.438684 30.751341 1.197782 2.998872 0.135333 -0.029370 -160907.000000 0 0 1
-1.037578 -2.755174 -31.047024 31.186299 1.210630 3.047049 0.138133 -0.028188 -1276050.000000 0 0 1
0.363322 -2.594774 -30.906084 31.016945 -1.431680 3.057019 0.117173 -0.022035 220562.000000 0 0 1
0.722422 -1.403874 -31.654684 31.694034 -1.095543 3.091757 0.096551 -0.015920 1136.730000 0 0 1
1.148622 -0.227374 -30.780184 30.802447 -0.195427 3.103570 0.087726 -0.025910 -246426.000000 0 0 1
0.161822 0.331226 -29.935354 29.937624 1.116346 3.129279 0.096712 -0.019963 -278200.000000 0 0 1
0.628922 1.499726 -29.303444 29.348536 1.173714 3.086152 0.118029 -0.033341 -528544.000000 0 0 1
-0.389578 1.970226 -28.300794 28.371967 -1.375582 3.070746 0.098079 -0.028657 -227616.000000 0 0 1
-1.489878 2.647526 -28.874274 29.033650 -1.058222 3.036765 0.091759 -0.043624 -121662.000000 0 0 1
-1.781178 3.821926 -28.212054 28.525422 -1.134682 2.993230 0.143284 -0.044132 -315900.000000 0 0 1
-3.061278 4.421026 -28.823274 29.320607 -0.965165 2.957147 0.181349 -0.051542 -52552.000000 0 0 1
-2.887478 4.933826 -30.122174 30.659836 -1.041300 2.954041 0.178863 -0.057503 946380.000000 0 0 1
-4.172978 5.343926 -30.644914 31.386017 -0.907822 2.923850 0.201491 -0.055074 612850.000000 0 0 1
-4.139578 5.910026 -32.078844 32.880340 -0.959780 2.920342 0.207343 -0.056797 -157272.000000 0 0 1
-3.881478 5.053026 -33.163414 33.769971 -0.915781 2.951774 0.222983 -0.055027 573760.000000 0 0 1
-2.621478 4.375626 -33.187774 33.577472 -1.031032 2.989091 0.195780 -0.054522 4548.930000 0 0 1
-2.338678 3.615326 33.045543 33.324885 -0.996618 0.129569 0.160033 -0.055556 -634276.000000 0 0 1
-3.223978 2.605626 32.638001 32.900189 -0.679722 0.126331 0.161260 -0.059895 -203579.000000 0 0 1
-2.960178 1.949626 31.373312 31.572906 -0.582410 0.112502 0.153564 -0.049040 -73605.100000 0 0 1
-2.880678 2.938626 30.143872 30.423459 -0.795356 0.135676 0.142282 -0.047708 -1260450.000000 0 0 1
-4.052178 3.624526 30.078132 30.565526 -0.729748 0.178821 0.124122 -0.049752 -882684.000000 0 0 1
-3.854578 4.745726 29.268392 29.900142 -0.888648 0.205929 0.112541 -0.046982 463340.000000 0 0 1
-5.212978 5.490326 29.173552 30.139923 -0.811305 0.253912 0.113834 -0.037248 356283.000000 0 0 1
-5.256478 6.075826 27.925262 29.057985 -0.857575 0.280133 0.103537 -0.024963 -674310.000000 0 0 1
-6.270778 7.007526 27.806892 29.353898 -0.840826 0.326103 0.094098 -0.019660 -788064.000000 0 0 1
-6.308778 7.723726 26.465672 28.282299 -0.885892 0.360365 0.082802 -0.018563 197538.000000 0 0 1
-5.179278 8.570226 26.305052 28.146571 -1.027196 0.363737 0.081533 -0.014753 48836.800000 0 0 1
-5.377478 9.301126 25.147472 27.346363 -1.046595 0.403758 0.078106 -0.017416 274255.000000 0 0 1
-4.370078 10.478126 24.973082 27.432527 -1.175664 0.426678 0.069103 -0.016942 -172190.000000 0 0 1
-4.413078 11.121226 23.728852 26.574713 -1.193038 0.467027 0.075646 -0.017001 255901.000000 0 0 1
-3.915978 12.479626 23.743452 27.107701 -1.266737 0.503512 0.080818 -0.000646 1016670.000000 0 0 1
-2.360378 12.801726 23.804312 27.131179 -1.388464 0.500426 0.083463 0.000057 1272790.000000 0 0 1
-1.622478 12.460526 25.009812 27.989067 -1.441315 0.465591 0.087942 0.000929 379783.000000 0 0 1
-2.068078 13.109126 26.177502 29.349408 -1.414327 0.469209 0.092286 0.002066 -569749.000000 0 0 1
-1.201278 12.618626 27.346992 30.141844 -1.475884 0.434034 0.085924 -0.000167 230006.000000 0 0 1
0.137922 13.052026 27.184922 30.156167 1.560230 0.447639 0.088174 -0.000043 -218000.000000 0 0 1
0.857422 12.682126 28.371412 31.088720 1.503290 0.421210 0.091132 -0.003448 -1145100.000000 0 0 1
2.339622 12.738326 28.176772 31.010793 1.389153 0.430848 0.094560 -0.009663 -1212910.000000 0 0 1
2.859422 14.044826 28.171562 31.608074 1.369949 0.470642 0.097343 -0.009974 252936.000000 0 0 1
4.275222 14.030626 28.036192 31.641177 1.275027 0.482006 0.103713 -0.014972 429816.000000 0 0 1
4.959122 15.406126 28.275592 32.579913 1.259377 0.519869 0.103717 -0.019927 -141765.000000 0 0 1
4.737522 16.020126 29.594152 33.983855 1.283268 0.513909 0.111880 -0.012956 598708.000000 0 0 1
3.572422 16.827726 29.695072 34.318099 1.361608 0.525070 0.098459 -0.010613 278427.000000 0 0 1
3.864322 18.312626 29.228372 34.707103 1.362828 0.569550 0.097392 -0.006081 162661.000000 0 0 1
4.693522 19.083526 30.099292 35.946871 1.329637 0.578421 0.117384 -0.006455 315251.000000 0 0 1
5.407322 20.077126 29.357572 35.974952 1.307711 0.616243 0.096428 -0.007127 -277778.000000 0 0 1
6.677922 20.606426 29.996902 37.000454 1.257406 0.625420 0.105111 -0.007207 -697567.000000 0 0 1
6.463622 21.247526 31.196102 38.294028 1.275485 0.618677 0.113611 -0.021954 -124471.000000 0 0 1
7.448422 22.192926 31.591134 39.319267 1.246988 0.637726 0.072682 -0.018842 -644906.000000 0 0 1
7.315622 23.629126 31.037672 39.688676 1.270554 0.672883 0.060942 -0.007450 -180103.000000 0 0 1
7.645222 23.693626 29.667942 38.730145 1.258673 0.698175 0.040488 -0.009508 214210.000000 0 0 1
7.527122 24.995326 29.236772 39.194550 1.278293 0.728852 0.042525 -0.015167 -85956.900000 0 0 1
8.189322 25.132126 27.871552 38.412396 1.255795 0.758909 0.064986 -0.011587 -228646.000000 0 0 1
7.536522 24.428826 26.852732 37.076083 1.271551 0.760835 0.057620 -0.010676 105731.000000 0 0 1
8.340722 24.386126 25.706222 36.401383 1.241242 0.786697 0.074145 -0.012539 -151229.000000 0 0 1
30.082054 2.504126 7.091546 31.007913 0.083052 1.340053 0.216819 -0.014911 -74231.700000 0 0 1
29.991054 3.674426 7.821646 31.211262 0.121910 1.317493 0.207335 -0.028016 502177.000000 0 0 1
28.846354 3.692526 8.684346 30.350696 0.127314 1.280607 0.181872 -0.009229 357813.000000 0 0 1
28.781054 4.825626 9.756746 30.770600 0.166122 1.248147 0.164761 -0.024209 -229741.000000 0 0 1
28.564654 6.147126 9.284346 30.658208 0.211968 1.263131 0.182627 -0.033214 -308224.000000 0 0 1
29.600754 6.795826 8.616146 31.569382 0.225672 1.294362 0.215709 -0.053422 -416666.000000 0 0 1
29.264654 8.276326 8.362946 31.541345 0.275612 1.302445 0.257652 -0.058704 537313.000000 0 0 1
28.164054 8.341426 7.446546 30.302547 0.287942 1.322513 0.197511 -0.052720 242779.000000 0 0 1
28.087454 9.400726 6.529746 30.330122 0.322975 1.353808 0.231298 -0.076529 255488.000000 0 0 1
26.775654 9.266226 5.676146 28.896665 0.333169 1.373082 0.188351 -0.060946 -252105.000000 0 0 1
25.668054 9.664626 6.395246 28.162975 0.360106 1.341718 0.158554 -0.043552 -923430.000000 0 0 1
24.506554 9.483926 5.609346 26.869701 0.369246 1.360488 0.196477 -0.054851 -20640.200000 0 0 1
23.410754 10.491226 6.035746 26.354496 0.421304 1.339724 0.104767 -0.035095 -219426.000000 0 0 1
23.599154 11.841326 5.616946 26.994206 0.465062 1.361185 0.095255 -0.031085 -144204.000000 0 0 1
22.630554 12.675726 6.173246 26.663176 0.510576 1.337149 0.091640 -0.021648 -500324.000000 0 0 1
22.950954 14.164526 6.128146 27.657445 0.552945 1.347369 0.091189 -0.010096 -238193.000000 0 0 1
22.721854 14.793326 4.896546 27.551793 0.577121 1.392126 0.094862 -0.028400 375107.000000 0 0 1
22.826854 16.152126 5.103346 28.425351 0.615804 1.390283 0.132276 -0.014476 -10558.200000 0 0 1
22.116354 16.974026 3.943446 28.156730 0.654600 1.430281 0.120247 -0.033157 609531.000000 0 0 1
20.694954 16.969326 3.877846 27.042131 0.686802 1.426900 0.124487 -0.014213 414328.000000 0 0 1
20.209454 17.475226 2.670446 26.850267 0.712970 1.471175 0.141430 -0.024176 249027.000000 0 0 1
18.662754 17.332426 2.628046 25.605039 0.748456 1.467977 0.108757 -0.022407 397893.000000 0 0 1
17.931654 18.173326 3.514646 25.771433 0.792092 1.433992 0.108774 -0.026085 506576.000000 0 0 1
16.541854 18.090826 3.252846 24.728363 0.830094 1.438871 0.079695 -0.028250 41048.000000 0 1 0
15.614954 18.919426 4.146846 24.879064 0.880794 1.403335 0.112500 -0.038170 -68471.400000 0 1 0
14.236154 18.664926 4.098546 23.829512 0.919203 1.397942 0.110644 -0.038225 -103520.000000 0 1 0
13.446354 19.823926 4.180146 24.315964 0.974790 1.398029 0.076135 -0.036037 -41560.800000 0 1 0
11.949754 19.474626 4.091746 23.212067 1.020432 1.393594 0.062360 -0.033797 -151071.000000 0 1 0
11.344354 18.940226 5.260846 22.695881 1.031145 1.336871 0.052055 -0.038003 605474.000000 0 1 0
9.926254 19.100026 5.242446 22.154565 1.091514 1.331900 0.039223 -0.024308 520166.000000 0 1 0
9.218454 18.507726 6.448646 21.658736 1.108680 1.268473 0.026026 -0.016984 -620431.000000 0 1 0
9.468654 19.303826 7.558646 22.790925 1.114772 1.232743 0.049066 -0.026532 164511.000000 0 1 0
8.567154 18.948326 8.581946 22.496333 1.146170 1.179397 0.042794 -0.010811 253663.000000 0 1 0
7.435154 19.982626 8.833146 23.078374 1.214587 1.178030 0.051898 -0.012838 -147396.000000 0 1 0
6.495954 20.072626 7.826246 22.502397 1.257811 1.215577 0.041978 -0.019010 -543089.000000 0 1 0
6.502854 21.379826 7.148746 23.462494 1.275529 1.261185 0.048769 -0.015076 -488766.000000 0 1 0
5.299654 21.583926 6.195446 23.072402 1.330022 1.298938 0.029815 -0.015007 956731.000000 0 1 0
4.006554 21.618926 6.858446 23.031907 1.387549 1.268430 0.029022 -0.016163 1111800.000000 0 1 0
3.647854 22.764626 7.629646 24.284698 1.411905 1.251209 0.043519 -0.023507 -526845.000000 0 1 0
3.774754 24.174826 7.017146 25.454102 1.415903 1.291501 0.075728 -0.025075 -506139.000000 0 0 1
2.721654 24.301126 6.116346 25.206384 1.459264 1.325699 0.036585 -0.018936 -289124.000000 0 0 1
2.821454 25.467126 5.273046 26.159895 1.460458 1.367836 0.056207 -0.026619 -144565.000000 0 0 1
1.636454 25.767426 4.306146 26.175965 1.507373 1.405538 0.058970 -0.024411 97206.900000 0 0 1
0.524954 26.123626 5.112446 26.624360 1.550704 1.377575 0.073963 -0.030484 -11593.800000 0 0 1
-0.634046 26.296526 4.285646 26.651005 -1.546690 1.409289 0.087234 -0.027108 491383.000000 0 0 1
-1.910846 26.653226 5.079946 27.200214 -1.499226 1.382932 0.114960 -0.034439 -211597.000000 0 0 1
-2.835046 27.267426 4.239246 27.740245 -1.467197 1.417376 0.145686 -0.040396 -727520.000000 0 0 1
-3.886046 27.827826 4.984746 28.536590 -1.432048 1.395216 0.143077 -0.048578 -368273.000000 0 0 1
-4.999646 28.414726 4.086446 29.139186 -1.396626 1.430094 0.157186 -0.055357 -220018.000000 0 0 1
-4.568246 29.514126 3.301746 30.047530 -1.417233 1.460690 0.164384 -0.054863 -290786.000000 0 0 1
-5.481646 29.885226 2.296846 30.470489 -1.389390 1.495345 0.177738 -0.065744 -625192.000000 0 0 1
-4.845946 30.445026 1.001546 30.844544 -1.412950 1.538320 0.164803 -0.055460 244832.000000 0 0 1
-4.062746 31.640326 1.024146 31.916532 -1.443091 1.538703 0.166218 -0.056894 529487.000000 0 0 1
-2.840546 31.543226 1.739346 31.718593 -1.480986 1.515932 0.166947 -0.053468 -349812.000000 0 0 1
-1.879646 32.735326 1.610746 32.828785 -1.513440 1.521712 0.171497 -0.057580 -1224530.000000 0 0 1
-1.265046 32.867526 0.396346 32.894250 -1.532326 1.558747 0.132041 -0.047301 63084.100000 0 0 1
-0.460446 -33.637124 0.312946 33.641731 1.557109 1.561494 0.122670 -0.042727 798584.000000 0 0 1
0.903354 -33.665524 1.075346 33.694806 -1.543970 1.538877 0.088653 -0.030321 -390834.000000 0 0 1
0.791954 -33.453524 2.503546 33.556418 -1.547127 1.496120 0.091172 -0.034520 887895.000000 0 0 1
2.050654 -33.809324 3.121846 34.015019 -1.510217 1.478889 0.060606 -0.025594 1065810.000000 0 0 1
1.917054 -33.728824 4.684246 34.106463 -1.514020 1.433019 0.060981 -0.028323 462515.000000 0 0 1
1.018654 32.993426 5.241246 33.422664 1.539932 1.413329 0.114253 -0.047429 108003.000000 0 0 1
0.516254 33.319526 6.553746 33.961875 1.555304 1.376604 0.126640 -0.035651 40519.200000 0 0 1
1.469054 33.341126 7.790846 34.270776 1.526763 1.341459 0.095542 -0.027159 -51840.600000 0 0 1
1.889354 32.013826 8.085646 33.073137 1.511848 1.323815 0.099415 -0.028236 80674.700000 0 0 1
2.559754 31.976126 9.336946 33.409632 1.490915 1.287556 0.108542 -0.027369 25776.300000 0 0 1
3.251954 30.647826 9.663746 32.299419 1.465085 1.266950 0.104526 -0.030397 474673.000000 0 0 1
2.342854 29.767426 10.300746 31.586294 1.492253 1.238606 0.134160 -0.042650 589540.000000 0 0 1
3.007154 28.522826 10.290246 30.471031 1.465755 1.226318 0.108305 -0.045305 -17297.500000 0 0 1
2.502554 27.522926 11.286746 29.852385 1.480120 1.183069 0.100043 -0.047137 -569040.000000 0 0 1
2.898054 27.915126 12.590346 30.759873 1.467350 1.149098 0.109765 -0.042258 -8596.840000 0 0 1
2.708554 26.990426 13.635546 30.360294 1.470779 1.105011 0.113451 -0.033973 -670317.000000 0 0 1
1.289454 26.507426 14.024846 30.016706 1.522190 1.084636 0.093786 -0.035419 -29374.300000 0 0 1
0.438154 27.489226 14.571246 31.115442 1.554859 1.083435 0.091886 -0.032042 248017.000000 0 0 1
-0.117846 28.414626 13.617046 31.509186 -1.566649 1.123908 0.120989 -0.036761 -750854.000000 0 0 1
-0.714046 29.698726 14.215546 32.933356 -1.546758 1.124480 0.118300 -0.034471 -15090.700000 0 0 1
-1.840946 29.428326 15.007746 33.085464 -1.508321 1.099990 0.097968 -0.030515 -249688.000000 0 0 1
-2.546146 30.644626 15.269546 34.332710 -1.487901 1.109899 0.103184 -0.028684 112874.000000 0 0 1
-3.890746 30.353426 15.998946 34.531647 -1.443310 1.089067 0.089981 -0.020175 401925.000000 0 0 1
-4.791546 29.592126 15.192546 33.607533 -1.410270 1.101725 0.075246 -0.029813 588043.000000 0 0 1
-6.096346 29.665926 15.770846 34.146042 -1.368118 1.090700 0.070675 -0.023485 -47581.500000 0 0 1
-7.176346 28.890726 15.022246 33.344293 -1.327328 1.103449 0.061763 -0.032935 220686.000000 0 0 1
-8.478646 28.905626 15.593346 33.920128 -1.285478 1.093130 0.062038 -0.033072 440775.000000 0 0 1
-9.422146 28.185926 14.808046 33.203938 -1.248189 1.108536 0.069009 -0.033754 466747.000000 0 0 1
-10.597046 27.653526 15.676346 33.507652 -1.204849 1.083947 0.059610 -0.033025 -203795.000000 0 0 1
-11.399346 28.654026 16.184546 34.827257 -1.192165 1.087490 0.061779 -0.035038 -238621.000000 0 0 1
-11.520146 28.589626 17.602546 35.495494 -1.187751 1.051915 0.073304 -0.029440 -99501.600000 0 0 1
-12.430246 29.731026 18.138346 36.978974 -1.174793 1.058128 0.084162 -0.032614 -24283.100000 0 0 1
-13.806546 29.462726 17.947846 37.159092 -1.132574 1.066719 0.090835 -0.030406 127262.000000 0 0 1
-14.556646 30.644326 18.211546 38.504949 -1.127332 1.078142 0.084554 -0.020757 82743.500000 0 0 1
-15.487546 30.567726 19.434946 39.395013 -1.101832 1.054876 0.080961 -0.020928 77327.400000 0 0 1
-14.772246 30.519026 20.667046 39.708400 -1.120003 1.023395 0.078239 -0.018953 469706.000000 0 0 1
-15.696546 30.485626 21.759046 40.610479 -1.095313 1.005343 0.083418 -0.018047 159460.000000 0 0 1
-15.086046 30.469226 23.173546 41.145787 -1.111057 0.972536 0.067338 -0.003715 -139058.000000 0 0 1
-14.433746 29.231726 23.516946 40.197930 -1.112145 0.945881 0.059802 -0.007385 498879.000000 0 0 1
-14.096046 28.950526 24.904046 40.706793 -1.117683 0.912474 0.060221 -0.002908 -15277.700000 0 0 1
-13.474246 29.997226 25.848846 41.827643 -1.148622 0.904620 0.051926 0.000923 -327178.000000 0 0 1
-14.381646 31.022626 26.181746 43.066447 -1.136702 0.917335 0.055410 0.003608 641505.000000 0 0 1
-13.718146 32.193426 26.724946 44.032113 -1.167980 0.918589 0.054548 0.005898 -236270.000000 0 0 1
-14.786046 33.155726 27.248646 45.391828 -1.151309 0.926922 0.070212 -0.003177 469161.000000 0 0 1
-15.583946 32.519626 28.276246 45.825010 -1.123913 0.905810 0.066696 -0.006017 488214.000000 0 0 1
-15.040146 32.898626 29.503146 46.679345 -1.141999 0.886615 0.074307 0.001068 -206093.000000 0 0 1
-15.544546 32.148126 30.772746 47.139122 -1.120412 0.859512 0.078204 -0.005196 -199995.000000 0 0 1
-16.839946 32.584726 31.119446 48.101643 -1.093795 0.867216 0.074430 -0.012629 -196372.000000 0 0 1
-17.345246 31.906626 32.299146 48.601699 -1.072861 0.843880 0.059724 -0.012322 -528332.000000 0 0 1
-18.796046 32.310426 32.427046 49.485031 -1.043917 0.856230 0.058534 -0.013587 -994400.000000 0 0 1
-18.991546 33.689826 32.693746 50.641527 -1.057482 0.868999 0.072559 -0.009684 1139770.000000 0 0 1
-20.403746 -33.674524 32.582546 51.106836 1.026042 0.879498 0.068503 -0.008430 1200940.000000 0 0 1
-20.879346 -32.195224 32.803546 50.483187 0.995460 0.863486 0.072773 -0.015965 109493.000000 0 0 1
-20.635146 -31.688024 -33.462460 50.494320 0.993580 2.295211 0.082449 -0.015438 446588.000000 0 0 1
-21.673146 -32.104824 -32.565960 50.606193 0.976996 2.269881 0.065256 -0.014836 340740.000000 0 0 1
-21.553846 -31.541124 -31.119560 49.273094 0.971328 2.254377 0.074755 -0.024950 -114595.000000 0 0 1
-21.715946 -30.108524 -31.031760 48.384664 0.945947 2.267060 0.082232 -0.019729 -21926.200000 0 0 1
-21.178546 -29.512324 -29.874860 47.032067 0.948344 2.259066 0.080092 -0.013410 1310.910000 0 0 1
-21.169946 -27.969624 -30.044260 46.185756 0.922900 2.279051 0.092643 -0.024141 563129.000000 0 0 1
-22.499846 -27.429224 -29.988860 46.453602 0.883807 2.272560 0.079980 -0.017141 513810.000000 0 0 1
-22.591746 -26.053924 -29.943160 45.670415 0.856450 2.285821 0.076627 -0.018532 -303325.000000 0 0 1
-23.848046 -25.571824 -29.228360 45.573507 0.820264 2.267047 0.078868 -0.019629 -241323.000000 0 0 1
-23.837046 -25.937524 -27.798060 44.874181 0.827573 2.238859 0.074968 -0.018188 161301.000000 0 0 1
-23.033446 -25.064724 -27.015760 43.458386 0.827605 2.241639 0.071777 -0.021733 -37547.300000 0 0 1
-22.962646 -25.515224 -25.544060 42.787951 0.838004 2.210543 0.071608 -0.016074 160040.000000 0 0 1
-24.191846 -25.290424 -24.878860 42.939593 0.807596 2.188779 0.073827 -0.014438 286334.000000 0 0 1
-24.125246 -25.817124 -23.528860 42.451839 0.819262 2.158256 0.078820 -0.007118 -1479680.000000 0 0 1
-25.430146 -25.631024 -22.805960 42.705428 0.789332 2.134156 0.076525 -0.003693 -323061.000000 0 0 1
-26.511146 -26.351724 -23.400560 44.100345 0.782382 2.130129 0.088956 -0.007674 45945.100000 0 0 1
-26.520546 -27.702324 -23.049260 44.744011 0.807190 2.111963 0.095107 -0.012433 -1057430.000000 0 0 1
-27.921246 -28.327024 -22.896160 45.893904 0.792612 2.093118 0.081928 -0.014384 -11741.000000 0 0 1
-28.588246 -27.825924 -21.729260 45.428302 0.771886 2.069537 0.082691 -0.004706 -1365350.000000 0 0 1
-29.846746 -27.501124 -22.148860 46.235399 0.744519 2.070363 0.079207 -0.008399 -1249130.000000 0 0 1
-30.653146 -26.646024 -21.131860 45.784075 0.715579 2.050543 0.089528 -0.004293 42268.400000 0 0 1
-31.125946 -27.357524 -20.017060 46.021097 0.721051 2.020784 0.082107 0.014712 -337567.000000 0 0 1
-31.805146 -26.472624 -19.230460 45.630886 0.694150 2.005824 0.074168 0.016293 -1027990.000000 0 0 1
-32.488546 -27.165024 -18.019360 46.023271 0.696393 1.973087 0.056255 0.010351 -532294.000000 0 0 1
-33.563146 -28.011424 -18.388560 47.426404 0.695479 1.968962 0.052593 0.008860 537863.000000 0 0 1
-34.815746 -27.354524 -18.542260 48.002308 0.665957 1.967390 0.045098 0.018931 312343.000000 0 0 1
-35.605046 -26.889224 -17.241860 47.833371 0.646826 1.939554 0.052127 0.019997 -546678.000000 0 0 1
-35.075346 -25.719124 -16.690260 46.586672 0.632697 1.937203 0.049581 0.028643 180414.000000 0 0 1
-35.747546 -25.147124 -15.551560 46.390903 0.613047 1.912644 0.045041 0.024430 98843.200000 0 0 1
-35.358646 -25.803724 -14.179260 46.012145 0.630429 1.884058 0.074982 0.031102 191051.000000 0 0 1
-35.879246 -27.178924 -14.017260 47.143375 0.648291 1.872694 0.076728 0.021704 450067.000000 0 0 1
-35.312646 -27.908724 -12.924060 46.828530 0.668818 1.850413 0.073022 0.014513 -110181.000000 0 0 1
-35.904346 -29.296124 -12.625560 48.029051 0.684391 1.836795 0.090284 0.012914 -133374.000000 0 0 1
-35.700046 -30.207024 -13.703760 48.731413 0.702245 1.855851 0.086084 0.004377 314968.000000 0 0 1
-36.163246 -31.473724 -13.301260 49.752379 0.716175 1.841437 0.061981 -0.006296 -242325.000000 0 0 1
-35.724546 -32.544724 -14.309260 50.399972 0.738854 1.858670 0.053160 0.011632 120646.000000 0 0 1
-34.313546 -32.724524 -14.320660 49.531760 0.761699 1.864105 0.039944 0.009909 315575.000000 0 0 1
-33.946446 -33.440724 -15.460860 50.096721 0.777894 1.884538 0.067532 -0.019868 754037.000000 0 0 1
-32.411446 -33.728124 -15.666560 49.330815 0.805303 1.893974 0.063336 -0.002988 945721.000000 0 0 1
-32.091446 33.140326 -16.711560 49.065450 -0.801476 1.918348 0.080892 -0.013398 -231579.000000 0 0 1
-30.815746 32.615226 -16.382260 47.767579 -0.813760 1.920860 0.090991 -0.015139 -58186.300000 0 0 1
9.648822 19.523526 -9.079454 23.594583 1.111787 1.965799 0.091282 -0.043574 505759.000000 0 1 0
8.232622 19.503526 -9.285854 23.116892 1.171377 1.984159 0.079726 -0.041354 855933.000000 0 1 0
7.678722 19.503826 -10.632254 23.503337 1.195730 2.040220 0.089498 -0.043333 336466.000000 0 1 0
7.923222 18.254926 -11.570854 23.019653 1.161300 2.097459 0.092452 -0.034806 -440081.000000 0 1 0
9.195822 18.117026 -12.148554 23.672286 1.101104 2.109702 0.126227 -0.040138 -250830.000000 0 1 0
9.187422 16.855226 -12.777954 23.060431 1.071739 2.158087 0.118879 -0.045121 79630.800000 0 1 0
10.509522 16.558126 -13.531854 23.827141 1.005249 2.174770 0.145239 -0.040664 229682.000000 0 1 0
10.510022 15.323726 -14.195954 23.383803 0.969619 2.223183 0.155078 -0.050376 -703985.000000 0 1 0
11.748622 14.984926 -14.709954 24.061606 0.905870 2.228556 0.190510 -0.062669 -888769.000000 0 1 0
11.742922 13.755726 -15.639454 23.910432 0.864172 2.283769 0.168471 -0.053666 -413083.000000 0 1 0
11.651222 12.482326 -15.035654 22.751491 0.819822 2.292766 0.173744 -0.039898 233969.000000 0 1 0
12.838622 12.049926 -14.398554 22.745314 0.753720 2.256262 0.204975 -0.041005 199486.000000 0 1 0
13.892522 11.400726 -15.339554 23.627963 0.687199 2.277344 0.206845 -0.044593 -330030.000000 0 1 0
14.557622 12.315826 -16.124154 24.971830 0.702170 2.272728 0.173257 -0.040979 158245.000000 0 1 0
15.625722 11.676826 -16.831354 25.764432 0.641760 2.282703 0.169184 -0.041800 572446.000000 0 0 1
16.353022 12.536426 -17.903754 27.297028 0.654048 2.286153 0.122982 -0.034841 -46666.900000 0 0 1
17.238922 13.474226 -17.389154 27.948486 0.663431 2.242328 0.087222 -0.027622 134988.000000 0 0 1
18.105622 14.018226 -18.408754 29.380375 0.658840 2.247936 0.049110 -0.014877 425261.000000 0 0 1
19.198322 15.043826 -17.999754 30.313090 0.664661 2.206563 0.054993 -0.007766 -221661.000000 0 0 1
18.857022 16.310226 -17.393554 30.399778 0.713105 2.179934 0.057090 -0.017646 85497.900000 0 0 1
18.079022 17.247426 -18.107954 30.858107 0.761862 2.197914 0.054277 -0.006789 -148519.000000 0 0 1
17.772722 18.527726 -17.406754 31.018404 0.806194 2.166601 0.056762 0.001258 16149.800000 0 0 1
18.764122 19.536726 -17.600654 32.304163 0.805567 2.146997 0.071182 -0.015730 401186.000000 0 0 1
18.452122 20.742026 -16.966454 32.535719 0.843756 2.119371 0.048985 -0.009112 254931.000000 0 0 1
19.558522 21.793726 -17.290354 34.006744 0.839398 2.104167 0.060195 -0.015900 1796780.000000 0 0 1
20.824722 21.907426 -16.577554 34.473463 0.810730 2.072453 0.081659 -0.024402 1116630.000000 0 0 1
20.679222 22.454226 -15.270754 34.132366 0.826526 2.034650 0.075072 -0.019552 -502711.000000 0 0 1
22.007222 22.982326 -14.737054 35.066878 0.807069 2.004523 0.083157 -0.027491 235438.000000 0 0 1
23.002322 22.010826 -14.366054 34.928023 0.763375 1.994681 0.093443 -0.028291 507568.000000 0 0 1
23.997222 22.587526 -13.516654 35.619699 0.755147 1.960021 0.076595 -0.026948 1150670.000000 0 0 1
25.439422 22.316026 -14.134254 36.673510 0.720087 1.966446 0.075515 -0.022905 752459.000000 0 0 1
25.708922 22.898626 -15.404854 37.717440 0.727646 1.991527 0.099036 -0.029082 115870.000000 0 0 1
26.701022 23.907426 -15.287054 38.964133 0.730254 1.973967 0.084081 -0.018114 37514.500000 0 0 1
27.144522 24.335626 -16.744254 40.117550 0.730890 2.001356 0.102501 -0.027957 -151728.000000 0 0 1
28.023022 23.410926 -17.347254 40.426334 0.695967 2.014301 0.108090 -0.028097 18092.200000 0 0 1
28.041122 23.577026 -18.750454 41.155318 0.699130 2.043845 0.105459 -0.031307 -340304.000000 0 0 1
28.960322 22.553926 -19.487054 41.558695 0.661672 2.058846 0.095433 -0.033625 122836.000000 0 0 1
30.340222 22.812226 -19.371054 42.616481 0.644704 2.042656 0.096960 -0.028290 -606784.000000 0 0 1
30.969322 21.869426 -20.192554 42.954743 0.614851 2.060188 0.107728 -0.019931 133661.000000 0 0 1
32.491222 22.099826 -20.366454 44.259172 0.597299 2.048976 0.123380 -0.013604 12654.300000 0 0 1
32.857022 23.152626 -21.227754 45.455974 0.613838 2.056687 0.108582 -0.017423 246113.000000 0 0 1
34.232922 23.503626 -21.169654 46.609738 0.601662 2.042259 0.082762 -0.008649 323401.000000 0 0 1
34.479722 24.914926 -21.795454 47.797977 0.625731 2.044282 0.072014 -0.006174 -279931.000000 0 0 1
34.608622 24.961426 -23.227354 48.583325 0.624845 2.069279 0.084472 -0.013881 764106.000000 0 0 1
33.392622 24.662326 -23.948154 47.925063 0.636137 2.094049 0.096510 -0.021799 445663.000000 0 0 1
33.296622 25.225626 -25.369484 48.873387 0.648349 2.116577 0.094066 -0.032095 -432573.000000 0 0 1
32.943722 26.617826 -25.521114 49.448203 0.679587 2.113109 0.100834 -0.033784 -75573.300000 0 0 1
31.574922 26.816026 -25.809704 48.807948 0.704077 2.127984 0.088250 -0.026204 232186.000000 0 0 1
31.135122 26.506126 -27.281634 49.155448 0.705263 2.159168 0.094643 -0.027385 -313917.000000 0 0 1
31.179722 25.157526 -27.664004 48.686480 0.678907 2.175122 0.086323 -0.042503 -203076.000000 0 0 1
30.836022 25.000726 -28.983764 49.152367 0.681270 2.201449 0.095456 -0.045791 -150345.000000 0 0 1
30.011622 23.721026 -29.303464 48.187940 0.668857 2.224471 0.099488 -0.057696 953050.000000 0 0 1
28.628822 23.828326 -28.934764 47.165869 0.694140 2.231241 0.109415 -0.050595 679254.000000 0 0 1
27.894022 22.653726 -29.187394 46.294403 0.682097 2.252959 0.132525 -0.065356 -33225.900000 0 0 1
26.435022 22.605426 -28.704244 45.097110 0.707466 2.260746 0.115753 -0.048229 -207924.000000 0 0 1
26.198022 22.451026 -27.334374 44.017644 0.708529 2.240797 0.116012 -0.028871 103007.000000 0 0 1
24.829322 22.609326 -27.046634 43.118410 0.738635 2.248832 0.105776 -0.022602 -160090.000000 0 0 1
24.529522 22.985826 -25.526534 42.209591 0.752921 2.220257 0.112082 -0.021673 -201882.000000 0 0 1
24.856522 21.945226 -24.658754 41.321832 0.723273 2.210240 0.113287 -0.025699 119881.000000 0 0 1
25.181722 22.444626 -23.388354 41.047478 0.727991 2.177044 0.117892 -0.019328 -291892.000000 0 0 1
25.692022 21.242126 -22.555954 40.250205 0.690869 2.165657 0.117690 -0.022998 131117.000000 0 0 1
26.966522 20.860526 -23.039654 41.148275 0.658417 2.165083 0.115477 -0.023557 59868.600000 0 0 1
27.570022 19.832626 -22.309054 40.634137 0.623598 2.151991 0.140631 -0.032103 467289.000000 0 0 1
28.992422 19.444526 -22.804454 41.697641 0.590773 2.149454 0.161576 -0.040249 153211.000000 0 0 1
29.754122 18.571426 -21.987154 41.396142 0.557997 2.130742 0.142761 -0.028573 183901.000000 0 0 1
30.914322 18.341726 -22.798754 42.566388 0.535485 2.136020 0.127139 -0.020177 -81190.000000 0 0 1
32.149622 17.844926 -22.065154 42.882521 0.506719 2.111278 0.089421 -0.012303 -501777.000000 0 0 1
32.756522 18.831126 -21.287054 43.367496 0.521745 2.083865 0.087656 -0.008500 -782403.000000 0 0 1
33.977722 18.359326 -20.823654 43.876817 0.495392 2.065299 0.094352 -0.010076 -207755.000000 0 0 1
34.713722 19.444426 -19.942554 44.506558 0.510592 2.035414 0.051332 -0.015294 43469.700000 0 0 1
34.288822 19.412926 -18.604554 43.574241 0.515165 2.011927 0.073866 -0.023042 280568.000000 0 0 1
34.907822 20.468826 -17.857454 44.231409 0.530336 1.986384 0.054766 -0.017877 234202.000000 0 0 1
34.305822 20.516726 -16.405154 43.208270 0.538987 1.960243 0.061925 -0.021156 129914.000000 0 0 1
34.579822 19.397526 -15.599954 42.607355 0.511211 1.945646 0.059987 -0.028650 332218.000000 0 0 1
34.082222 19.576826 -14.269854 41.814815 0.521383 1.919057 0.073645 -0.031747 -189375.000000 0 0 1
34.535022 18.458726 -13.324354 41.363399 0.490860 1.898774 0.077411 -0.028032 -687866.000000 0 0 1
35.917522 18.542326 -13.082654 42.485787 0.476561 1.883813 0.047431 -0.026809 -113283.000000 0 0 1
36.520022 17.425526 -12.463154 42.340184 0.445201 1.869580 0.034439 -0.015604 117100.000000 0 0 1
36.445022 17.657626 -10.951854 41.952050 0.451171 1.834913 0.054270 -0.025050 -685782.000000 0 0 1
37.133322 18.842126 -10.524554 42.949687 0.469565 1.818361 0.039589 -0.021322 5671.750000 0 0 1
36.610422 19.490726 -9.374554 42.521685 0.489216 1.793088 0.036168 -0.015903 -474883.000000 0 0 1
35.384222 20.414526 -9.495854 41.940044 0.523290 1.799192 0.039288 -0.016973 269502.000000 0 0 1
34.191522 19.638826 -9.595854 40.581081 0.521366 1.809519 0.061876 -0.037544 368897.000000 0 0 1
33.048822 20.384126 -9.149654 39.893025 0.552672 1.802211 0.042195 -0.018786 245734.000000 0 0 1
31.723022 19.676426 -9.463554 38.510657 0.555181 1.819078 0.039530 -0.013530 -335813.000000 0 0 1
31.508322 19.669126 -10.848454 38.695450 0.558061 1.854960 0.059703 -0.028157 32840.900000 0 0 1
30.424822 18.831026 -11.216854 37.497935 0.554227 1.874580 0.046684 -0.023070 141110.000000 0 0 1
30.452322 18.416626 -12.700054 37.786339 0.543919 1.913571 0.072829 -0.013853 63515.000000 0 0 1
31.496822 17.543026 -13.058454 38.344893 0.508185 1.918301 0.075029 -0.012059 81530.300000 0 0 1
31.053622 16.777226 -14.175254 38.036043 0.495339 1.952691 0.078342 -0.009027 714547.000000 0 0 1
32.275622 15.947326 -14.691354 38.882758 0.458915 1.958256 0.092217 -0.023398 393817.000000 0 0 1
32.774122 14.916426 -13.860254 38.584317 0.427110 1.938228 0.084630 -0.026115 54188.400000 0 0 1
33.833722 14.249826 -14.520154 39.479275 0.398624 1.947430 0.075151 -0.020514 411522.000000 0 0 1
34.748722 13.453426 -13.507054 39.634693 0.369391 1.918552 0.067943 -0.043069 603063.000000 0 0 1
35.693422 14.244026 -12.772954 40.497667 0.379701 1.891674 0.050815 -0.019748 462595.000000 0 0 1
36.470822 13.446826 -11.919954 40.657389 0.353237 1.868348 0.045921 -0.018052 242113.000000 0 0 1
37.483622 14.036426 -10.902754 41.483891 0.358304 1.836739 0.075893 -0.015366 304697.000000 0 0 1
-36.781510 14.401626 -11.472754 41.132838 -0.373197 1.853465 0.057018 -0.019569 366690.000000 0 0 1
-35.792310 14.624726 -10.445554 40.050988 -0.387898 1.834654 0.043270 -0.013337 -511987.000000 0 0 1
-34.382810 14.644526 -11.020254 38.962620 -0.402655 1.857552 0.090888 -0.030904 -693595.000000 0 0 1
-33.781110 13.480926 -11.572754 38.168408 -0.379702 1.878848 0.112026 -0.040177 -34086.000000 0 0 1
-33.607010 12.401226 -10.677754 37.379619 -0.353506 1.860488 0.120120 -0.027685 -1078950.000000 0 0 1
-32.562910 11.333126 -10.934854 36.171174 -0.334926 1.877910 0.159921 -0.034494 -537508.000000 0 0 1
-32.849110 10.469426 -11.992854 36.503444 -0.308535 1.905554 0.133679 -0.027952 103503.000000 0 0 1
-31.943510 9.369626 -12.061454 35.407010 -0.285316 1.918406 0.184099 -0.050928 -402594.000000 0 0 1
-31.876910 8.730226 -13.491554 35.698407 -0.267318 1.958357 0.181161 -0.053903 189042.000000 0 0 1
-33.107810 8.127726 -13.872954 36.805514 -0.240732 1.957272 0.143037 -0.047263 683879.000000 0 0 1
-32.947210 7.569026 -15.160154 37.049144 -0.225814 1.992363 0.158544 -0.054580 700733.000000 0 0 1
-34.368310 7.214526 -15.716054 38.473685 -0.206914 1.991594 0.160533 -0.048586 820028.000000 0 0 1
-35.044010 6.191526 -14.995654 38.617188 -0.174874 1.969599 0.153289 -0.054648 12672.300000 0 0 1
-36.292510 5.854426 -15.539054 39.910935 -0.159934 1.970715 0.103466 -0.054368 -760440.000000 0 0 1
-36.966710 4.768426 -14.821154 40.111621 -0.128284 1.949265 0.109385 -0.046225 -756689.000000 0 0 1
37.343322 4.342726 -15.437654 40.641163 0.115772 1.960433 0.117359 -0.039312 -236666.000000 0 0 1
36.633122 3.728826 -14.387054 39.533241 0.101439 1.943273 0.133232 -0.036651 -334023.000000 0 0 1
35.642022 2.634126 -14.709154 38.647789 0.073771 1.961236 0.135276 -0.027105 -88690.000000 0 0 1
36.334322 1.452026 -15.163954 39.398437 0.039942 1.965882 0.153156 -0.035121 614444.000000 0 0 1
35.597322 0.224326 -14.972854 38.618726 0.006302 1.968942 0.142782 -0.033015 408117.000000 0 0 1
35.132622 -0.153674 -13.515554 37.642993 -0.004374 1.938042 0.141055 -0.044807 318942.000000 0 0 1
36.260422 -0.369274 -12.659854 38.408677 -0.010184 1.906686 0.175926 -0.045177 480497.000000 0 0 1
36.134022 -0.096774 -11.283054 37.854778 -0.002678 1.873458 0.163364 -0.038267 -401017.000000 0 0 1
36.183422 1.368526 -10.809754 37.788407 0.037804 1.860909 0.148324 -0.040001 567817.000000 0 0 1
34.967522 2.066426 -11.129754 36.754172 0.059027 1.878442 0.143030 -0.024099 966190.000000 0 0 1
35.041522 3.345426 -10.585754 36.758106 0.095182 1.862918 0.141125 -0.029117 69513.600000 0 0 1
33.923822 4.303826 -11.078054 35.945402 0.126193 1.884087 0.138745 -0.027079 111161.000000 0 0 1
34.143022 4.720826 -12.384754 36.625323 0.137395 1.915744 0.121976 -0.023946 1083890.000000 0 0 1
33.121522 5.697226 -12.726854 35.936979 0.170343 1.932795 0.118046 -0.026557 626869.000000 0 0 1
33.317922 6.312526 -14.142754 36.741658 0.187244 1.965922 0.081727 -0.025233 -150131.000000 0 0 1
33.039222 5.310826 -15.135254 36.726979 0.159380 1.995556 0.074467 -0.020137 253155.000000 0 0 1
33.404322 5.928126 -16.397854 37.681309 0.175637 2.021026 0.063660 -0.015423 -982424.000000 0 0 1
32.449622 6.849526 -17.129854 37.327281 0.208028 2.047564 0.077690 -0.017582 115456.000000 0 0 1
31.262822 6.388826 -17.776454 36.526476 0.201583 2.079074 0.061497 -0.017304 561602.000000 0 0 1
30.244022 5.910026 -16.920854 35.156004 0.192980 2.072942 0.065456 -0.009249 -1541660.000000 0 0 1
28.921022 5.977126 -17.637854 34.398335 0.203801 2.109185 0.066253 -0.014771 -1133280.000000 0 0 1
28.728822 5.077426 -18.751354 34.680524 0.174930 2.142051 0.064491 -0.013387 -117559.000000 0 0 1
27.487622 5.457526 -19.283454 34.017724 0.195996 2.173492 0.063044 -0.019387 -450209.000000 0 0 1
26.822422 4.371926 -20.103654 33.804038 0.161574 2.207703 0.060971 0.007234 -269034.000000 0 0 1
26.069522 3.387926 -19.422354 32.685255 0.129233 2.207096 0.065834 -0.006221 257656.000000 0 0 1
25.727422 2.290026 -20.219054 32.801747 0.088777 2.234961 0.067134 -0.011017 -292948.000000 0 0 1
24.745622 1.334626 -19.508354 31.538911 0.053882 2.237691 0.076275 -0.010663 -366364.000000 0 0 1
23.477922 1.902526 -19.396554 30.513255 0.080858 2.259681 0.094117 -0.026166 -252197.000000 0 0 1
22.516522 1.032526 -18.784154 29.341171 0.045824 2.265552 0.107940 -0.037096 -45485.200000 0 0 1
21.147622 1.678426 -18.665854 28.256913 0.079201 2.292383 0.129354 -0.043905 -713866.000000 0 0 1
20.310322 1.566326 -19.813354 28.417100 0.076967 2.342327 0.120461 -0.039235 616310.000000 0 0 1
19.217522 2.481826 -19.851554 27.740887 0.128433 2.368288 0.122639 -0.037272 -92892.800000 0 0 1
17.919622 2.052226 -19.210754 26.351045 0.114027 2.387703 0.168929 -0.031291 -1004830.000000 0 0 1
17.863322 2.302726 -17.815754 25.333810 0.128201 2.350741 0.162101 -0.040105 889212.000000 0 0 1
16.634422 1.948626 -17.123854 23.952610 0.116613 2.367285 0.143926 -0.034121 1032610.000000 0 1 0
15.699322 3.122926 -16.777454 23.188453 0.196358 2.379693 0.142918 -0.017978 -154688.000000 0 1 0
15.115322 3.620226 -17.943754 23.739362 0.235079 2.427771 0.141496 -0.013109 110247.000000 0 1 0
14.022622 4.435026 -17.555654 22.902061 0.306322 2.444253 0.133759 -0.020135 -33421.300000 0 1 0
-20.678078 -21.507074 -17.249254 34.462645 0.805047 2.094996 0.095295 -0.029872 134496.000000 0 0 1
-20.404378 -22.237574 -18.425954 35.360488 0.828362 2.118922 0.089468 -0.022160 1043230.000000 0 0 1
-21.554478 -22.207474 -19.311154 36.478598 0.800319 2.128670 0.093816 -0.012161 822442.000000 0 0 1
-21.348578 -23.114874 -20.512454 37.560883 0.825102 2.148512 0.067096 -0.002871 21750.400000 0 0 1
-21.521078 -24.487974 -20.209754 38.356900 0.849794 2.125730 0.064039 -0.008878 189316.000000 0 0 1
-20.734878 -25.309094 -21.065054 38.913004 0.884418 2.142823 0.053671 -0.015846 75293.600000 0 0 1
-20.791078 -26.810454 -20.690454 39.738700 0.911184 2.118423 0.054281 0.007202 -1042590.000000 0 0 1
-21.903578 -27.450714 -21.132354 40.986398 0.897323 2.112497 0.079323 0.021780 -915935.000000 0 0 1
-21.625478 -28.823404 -21.184954 41.800146 0.927119 2.102283 0.099689 -0.019191 -103929.000000 0 0 1
-22.881978 -29.540044 -21.671654 43.195598 0.911731 2.096371 0.111184 -0.018026 -364319.000000 0 0 1
-23.385778 -29.203044 -22.963154 43.897822 0.895568 2.121286 0.095773 -0.021244 1185.080000 0 0 1
-22.800978 -29.661034 -24.183654 44.547847 0.915423 2.144646 0.082890 -0.029492 -549139.000000 0 0 1
-23.459778 -29.000324 -25.403464 45.129989 0.890623 2.168681 0.073563 -0.021444 557416.000000 0 0 1
-24.790078 -29.397884 -25.735884 46.272230 0.870228 2.160584 0.079607 -0.018952 741377.000000 0 0 1
-25.503158 -28.661384 -26.689844 46.735787 0.843640 2.178616 0.071092 -0.014566 57643.900000 0 0 1
-25.016288 -28.937274 -28.150024 47.493203 0.857944 2.205224 0.069250 -0.031154 -338400.000000 0 0 1
-25.295518 -30.256894 -28.547474 48.685738 0.874472 2.197357 0.061877 -0.021631 308049.000000 0 0 1
-24.916578 -30.531274 -29.893104 49.463039 0.886315 2.219749 0.087099 -0.022261 -304244.000000 0 0 1
-25.619208 -31.792874 -30.403794 50.906987 0.892519 2.210854 0.061142 -0.022629 -369622.000000 0 0 1
-25.074128 -33.007594 -29.968584 51.150065 0.921150 2.196781 0.065580 -0.031928 -8870.570000 0 0 1
-25.704378 33.578388 -30.547264 52.166642 -0.917447 2.196380 0.057207 -0.024228 -396639.000000 0 0 1
-24.788778 32.385469 -30.351664 50.838230 -0.917494 2.210583 0.070257 -0.019567 765278.000000 0 0 1
-23.699478 32.497879 -31.308524 50.970590 -0.940700 2.232227 0.083092 -0.026472 417129.000000 0 0 1
-22.953778 31.333676 -31.419124 49.958348 -0.938551 2.250942 0.088121 -0.030178 191273.000000 0 0 1
-21.717678 31.366426 -32.405944 50.056522 -0.965199 2.274947 0.092462 -0.024376 672247.000000 0 0 1
-22.033878 31.177386 33.782482 50.978204 -0.955570 0.846398 0.079660 -0.015209 196415.000000 0 0 1
-21.701478 29.859406 33.374918 49.763676 -0.942317 0.835687 0.070834 -0.009018 -2366.910000 0 0 1
-21.939578 29.710526 31.854320 48.772515 -0.934732 0.859099 0.066794 -0.007173 190108.000000 0 0 1
-21.090478 30.640926 31.163582 48.526730 -0.967959 0.873439 0.060974 -0.007404 491561.000000 0 0 1
-21.069278 30.401306 29.755292 47.471374 -0.964758 0.893350 0.072643 -0.000107 -248770.000000 0 0 1
-20.658978 31.682786 29.046662 47.689631 -0.992977 0.915900 0.056844 -0.009528 483696.000000 0 0 1
-21.734578 32.634568 28.957872 48.743874 -0.983256 0.934672 0.042577 -0.002510 700111.000000 0 0 1
-21.306878 -33.832964 28.393092 49.038966 1.008777 0.953306 0.052014 -0.019589 -247004.000000 0 0 1
-22.423278 -32.787624 28.441942 48.854639 0.970961 0.949395 0.066594 -0.026672 -233263.000000 0 0 1
-22.705078 -32.440924 29.784152 49.548258 0.960144 0.925902 0.059017 -0.016472 -34077.600000 0 0 1
-23.551878 -31.330754 29.980412 49.347059 0.926197 0.917834 0.068646 -0.022035 -262403.000000 0 0 1
-22.947078 -29.937284 29.683662 47.999262 0.916815 0.904067 0.072369 -0.025118 -338157.000000 0 0 1
-22.821078 -29.720464 28.281422 46.946208 0.915964 0.924264 0.075387 -0.019345 78456.000000 0 0 1
-23.129978 -28.357674 27.885422 46.008155 0.886584 0.919652 0.066321 -0.026849 226320.000000 0 0 1
-24.606078 -28.006824 27.568512 46.366627 0.849945 0.934057 0.065796 -0.022485 -931519.000000 0 0 1
-25.489908 -27.956504 28.655282 47.459738 0.831516 0.922561 0.078779 -0.020389 355712.000000 0 0 1
-26.463638 -28.998064 28.725552 48.645341 0.831063 0.939106 0.070720 -0.016751 261544.000000 0 0 1
-27.543108 -29.044054 27.610242 48.626180 0.811916 0.966958 0.047613 -0.011640 -673496.000000 0 0 1
-27.027668 -29.411314 26.287162 47.817728 0.827607 0.988747 0.052585 -0.012693 409356.000000 0 0 1
-28.036058 -29.242574 25.277582 47.750443 0.806459 1.012940 0.050474 -0.017048 324973.000000 0 0 1
-27.550398 -29.432654 23.790612 46.811310 0.818418 1.037675 0.049024 -0.016578 -238930.000000 0 0 1
-26.693858 -28.354044 23.348472 45.405561 0.815548 1.030698 0.030628 -0.015228 790758.000000 0 0 1
-26.166898 -28.522734 22.006152 44.525539 0.828448 1.053840 0.050566 -0.019244 -317287.000000 0 0 1
-25.053818 -29.558944 21.846852 44.482692 0.867704 1.057408 0.049642 -0.023723 -1076610.000000 0 0 1
-25.412308 -30.900524 21.792752 45.558224 0.882551 1.072022 0.047711 -0.026084 1646360.000000 0 0 1
-24.289578 -31.710504 21.232452 45.236674 0.917147 1.082226 0.055601 -0.013160 1504580.000000 0 0 1
-23.254078 -32.227034 22.231952 45.536727 0.945740 1.060747 0.049344 -0.015328 136067.000000 0 0 1
-22.407978 -31.234804 22.881182 44.735656 0.948485 1.033896 0.074670 -0.027355 680805.000000 0 0 1
-21.652878 -31.945834 23.857082 45.371178 0.975126 1.017117 0.088366 -0.030509 -62287.100000 0 0 1
-20.840878 -31.119034 24.914922 44.983217 0.980686 0.983789 0.093603 -0.029043 -239013.000000 0 0 1
-19.668878 -30.553594 24.352752 43.742924 0.998827 0.980359 0.101078 -0.024321 238136.000000 0 0 1
-18.816178 -29.845764 25.238752 43.379866 1.008290 0.949846 0.117827 -0.025360 -5168.100000 0 0 1
-17.974178 -30.645914 26.249282 44.173158 1.040354 0.934481 0.104703 -0.023407 -1196320.000000 0 0 1
-18.695078 -31.448354 27.121272 45.541940 1.034454 0.932880 0.094833 -0.021717 -279815.000000 0 0 1
-17.930678 -31.992264 28.176422 46.248513 1.059951 0.915695 0.094957 -0.017385 -278221.000000 0 0 1
-18.136278 -31.254664 29.532562 46.668521 1.045007 0.885612 0.096985 -0.020408 33318.200000 0 0 1
-17.538278 -29.977894 29.571052 45.614827 1.041449 0.865477 0.114768 -0.014615 237254.000000 0 0 1
-17.639478 -29.495734 30.908112 46.221866 1.031823 0.838350 0.115730 -0.011984 -296757.000000 0 0 1
-17.518078 -27.946364 30.976182 45.248273 1.010870 0.816765 0.116667 -0.015031 778645.000000 0 0 1
-18.626378 -27.145794 30.465082 44.854847 0.969419 0.824134 0.123145 -0.012999 1265540.000000 0 0 1
-18.985378 -27.252294 29.042452 44.120246 0.962321 0.852296 0.113624 -0.015100 -77049.900000 0 0 1
-17.875078 -26.766434 28.085762 42.717332 0.981998 0.853328 0.113599 -0.011786 -93488.000000 0 0 1
-17.545278 -25.403724 28.090472 41.740395 0.966368 0.832565 0.098565 -0.009547 408235.000000 0 0 1
-16.441678 -25.164454 27.224492 40.555536 0.992056 0.834850 0.084477 -0.008911 195550.000000 0 0 1
-16.384478 -23.680774 26.663302 39.244896 0.965534 0.823841 0.090156 -0.007779 -132688.000000 0 0 1
-17.346978 -23.494474 25.658242 38.874842 0.934798 0.849949 0.106304 -0.013113 14681.800000 0 0 1
-17.013478 -22.438874 24.806912 37.527915 0.922059 0.848612 0.117396 -0.027631 -22913.700000 0 0 1
-17.841378 -21.178174 25.164312 37.417542 0.870707 0.833178 0.103641 -0.022291 -241463.000000 0 0 1
-17.540478 -20.057074 24.347682 36.093825 0.852234 0.830419 0.111448 -0.028282 89659.000000 0 0 1
-18.073078 -18.811074 24.792952 35.988653 0.805404 0.810812 0.105894 -0.018595 -61313.100000 0 0 1
-17.488078 -17.590374 24.034882 34.538814 0.788314 0.801151 0.095650 -0.029240 1012480.000000 0 0 1
-16.073078 -17.372974 24.209222 33.856321 0.824244 0.774090 0.092477 -0.031144 574988.000000 0 0 1
-15.619078 -16.398774 23.310892 32.500355 0.809745 0.770948 0.090586 -0.023672 -27180.500000 0 0 1
-14.143578 -16.042474 23.522472 31.791641 0.848222 0.737882 0.081386 -0.028551 -419848.000000 0 0 1
-13.166878 -16.966574 23.106602 31.545941 0.910832 0.748846 0.076846 -0.030309 1147620.000000 0 0 1
-11.791078 -16.521474 23.200042 30.825810 0.950947 0.718768 0.083107 -0.028815 1142620.000000 0 0 1
-11.392578 -15.670674 21.937552 29.268021 0.942179 0.723429 0.099438 -0.032349 -556421.000000 0 0 1
-11.203178 -16.454274 20.736652 28.744792 0.973027 0.764967 0.118452 -0.035459 496108.000000 0 0 1
-9.942978 -17.140574 20.745252 28.688457 1.045149 0.762485 0.104887 -0.039085 160356.000000 0 0 1
-9.705178 -18.216974 19.645452 28.495481 1.081290 0.810104 0.104888 -0.035969 5359.390000 0 0 1
-9.190178 -17.803174 18.409152 27.208625 1.094265 0.827671 0.106789 -0.032729 -249010.000000 0 0 1
-8.929878 -18.996274 17.672352 27.439263 1.131365 0.871011 0.096733 -0.032036 -5626.170000 0 0 1
-8.547378 -18.654774 16.240852 26.169133 1.141155 0.901275 0.096257 -0.031955 163602.000000 0 0 1
-7.323278 -17.944874 16.200452 25.260712 1.183328 0.874566 0.105449 -0.037915 -261330.000000 0 0 1
-6.990078 -17.617874 14.868452 24.089864 1.193086 0.905607 0.117701 -0.041795 -320717.000000 0 1 0
-5.895478 -16.554574 15.003352 23.106518 1.228676 0.864116 0.099387 -0.038091 -87143.700000 0 1 0
-6.293578 -15.435974 15.791852 22.962165 1.183651 0.812434 0.111929 -0.041553 -68357.800000 0 1 0
-5.280378 -14.466674 15.725952 22.010739 1.220819 0.774934 0.082355 -0.024403 1994.700000 0 1 0
-5.403078 -13.529474 16.956552 22.355415 1.190845 0.709790 0.062763 -0.010981 -328927.000000 0 1 0
-5.032078 -14.171674 18.185052 23.597760 1.229603 0.690973 0.078147 -0.007513 282669.000000 0 1 0
-6.002078 -14.967274 18.874952 24.825552 1.189417 0.707016 0.120483 -0.029055 470317.000000 0 1 0
-7.383378 -14.457674 19.347652 25.256093 1.098634 0.698109 0.150537 -0.037533 117648.000000 0 0 1
-7.277878 -13.495274 20.351752 25.481047 1.076212 0.645662 0.144566 -0.035965 536079.000000 0 0 1
-8.517978 -13.132174 20.999952 26.191753 0.995382 0.640533 0.137370 -0.023524 818790.000000 0 0 1
-8.359378 -12.029874 22.074552 26.493073 0.963512 0.585891 0.141016 -0.012721 -335289.000000 0 0 1
-7.885878 -10.794274 21.585352 25.389582 0.939853 0.554496 0.118508 -0.013887 201305.000000 0 0 1
-7.289978 -9.916174 22.547722 25.688014 0.936860 0.499645 0.106256 -0.018988 1019800.000000 0 0 1
-5.838078 -10.321674 23.007352 25.883554 1.056045 0.475903 0.113045 -0.019508 411381.000000 0 0 1
-5.738578 -11.441874 23.899112 27.111166 1.105916 0.491718 0.135173 -0.010615 -129002.000000 0 0 1
-4.408478 -11.533674 24.366102 27.316062 1.205705 0.469032 0.115191 -0.006225 86321.200000 0 0 1
-4.128378 -12.850874 25.176182 28.566215 1.259957 0.492133 0.129422 -0.014641 -400064.000000 0 0 1
-2.781378 -12.904674 25.565062 28.772193 1.358511 0.476657 0.112968 -0.018057 -195139.000000 0 0 1
-2.537478 -14.090074 26.388142 30.021709 1.392616 0.497101 0.127672 -0.018961 -86725.200000 0 0 1
-2.523578 -15.491074 25.715762 30.127102 1.409310 0.547986 0.130209 -0.041469 -798291.000000 0 0 1
-1.554678 -15.825874 24.775522 29.439800 1.472874 0.570621 0.141609 -0.046120 -417083.000000 0 0 1
-1.737378 -17.108274 24.175252 29.667395 1.469591 0.618281 0.148449 -0.043979 -710311.000000 0 0 1
-0.438078 -17.931874 24.077352 30.024372 1.546371 0.640283 0.142898 -0.051106 380575.000000 0 0 1
0.170522 -18.316974 25.345272 31.271767 -1.561487 0.625818 0.128833 -0.049629 181934.000000 0 0 1
0.865122 -17.320274 25.999952 31.252805 -1.520889 0.588231 0.142895 -0.051443 -1025330.000000 0 0 1
1.626422 -17.650174 27.268462 32.522960 -1.478908 0.576387 0.108343 -0.030166 -117765.000000 0 0 1
2.722922 -18.573474 27.186972 33.038155 -1.425231 0.604307 0.105080 -0.039586 564967.000000 0 0 1
3.560222 -18.553474 28.321242 34.044079 -1.381211 0.588275 0.103323 -0.041640 444395.000000 0 0 1
4.547822 -17.379574 28.548962 33.730928 -1.314859 0.561658 0.141136 -0.037022 -517094.000000 0 0 1
3.913222 -16.216174 29.034982 33.485934 -1.334007 0.521486 0.139635 -0.043270 93122.300000 0 0 1
4.785622 -15.228374 29.606312 33.635387 -1.266312 0.494485 0.168385 -0.055333 182963.000000 0 0 1
4.005722 -14.143974 30.401302 33.768876 -1.294813 0.450394 0.161789 -0.052630 354591.000000 0 0 1
3.333622 -14.739274 31.516463 34.952063 -1.348366 0.447098 0.149194 -0.057114 201963.000000 0 0 1
2.403122 -13.807074 32.069965 34.998471 -1.398473 0.411993 0.138860 -0.047834 -208626.000000 0 0 1
1.530922 -14.432674 33.124958 36.165020 -1.465118 0.412954 0.130932 -0.053895 -328186.000000 0 0 1
2.103922 -14.500774 -33.158224 36.251438 -1.426711 2.725495 0.148021 -0.057648 -385171.000000 0 0 1
1.193922 -14.995574 -32.237234 35.574316 -1.491346 2.704991 0.132181 -0.068153 -47897.000000 0 0 1
1.838322 -15.047274 -30.813224 34.340277 -1.449229 2.684390 0.137886 -0.046408 194782.000000 0 0 1
1.437622 -16.092974 -29.932254 34.014562 -1.481701 2.646624 0.111428 -0.039599 -567471.000000 0 0 1
2.134822 -16.072674 -28.746474 33.003759 -1.438746 2.628043 0.104741 -0.035618 -309853.000000 0 0 1
1.892622 -17.296274 -27.891194 32.873421 -1.461806 2.583831 0.117746 -0.036390 22834.600000 0 0 1
2.758722 -18.318574 -28.329154 33.848511 -1.421323 2.562463 0.108185 -0.024548 87275.900000 0 0 1
2.610422 -19.383974 -27.454574 33.709144 -1.436933 2.522585 0.102916 -0.034622 -759500.000000 0 0 1
3.602922 -20.499574 -27.771194 34.705227 -1.396817 2.498428 0.085445 -0.031159 483785.000000 0 0 1
4.987222 -20.272874 -27.488024 34.517434 -1.329581 2.492036 0.090783 -0.024286 718710.000000 0 0 1
5.285022 -20.387174 -26.115604 33.549860 -1.317147 2.462928 0.109042 -0.026036 -186503.000000 0 0 1
6.629922 -21.179274 -25.908704 34.114197 -1.267421 2.433294 0.065462 -0.018472 297470.000000 0 0 1
6.517222 -22.609574 -25.866284 34.967580 -1.290153 2.403453 0.066677 -0.017293 261383.000000 0 0 1
6.483022 -23.230274 -27.164744 36.326279 -1.298644 2.415537 0.056410 -0.011541 -439084.000000 0 0 1
5.758422 -24.553374 -27.095624 37.016219 -1.340433 2.392039 0.058573 -0.003194 -242991.000000 0 0 1
6.452722 -25.579334 -26.417054 37.333640 -1.323689 2.356884 0.073543 -0.006704 -174556.000000 0 0 1
5.686922 -26.706244 -26.576914 38.103765 -1.360987 2.342682 0.089770 -0.014287 -102923.000000 0 0 1
6.018022 -27.746084 -25.457534 38.133290 -1.357208 2.301768 0.117480 -0.023824 -169028.000000 0 0 1
7.232222 -28.353674 -25.795084 39.007976 -1.321050 2.293316 0.140187 -0.031378 -439603.000000 0 0 1
7.622922 -29.344664 -24.884754 39.223325 -1.316642 2.258077 0.158771 -0.043475 -858264.000000 0 0 1
9.107822 -29.620314 -24.981954 39.804691 -1.272486 2.249280 0.170446 -0.049642 -902020.000000 0 0 1
9.467122 -30.103604 -26.260804 41.054637 -1.266104 2.264846 0.172087 -0.042709 1026870.000000 0 0 1
10.903822 -30.213774 -26.382484 41.566825 -1.224454 2.258417 0.198768 -0.040534 1063440.000000 0 0 1
11.390022 -30.048374 -27.806704 42.495296 -1.208474 2.284116 0.182586 -0.042983 -117537.000000 0 0 1
11.018822 -31.034164 -28.733434 43.705194 -1.229626 2.288209 0.188461 -0.056913 14971.000000 0 0 1
11.276922 -30.643954 -30.052344 44.377520 -1.218178 2.314743 0.172348 -0.041330 19566.600000 0 0 1
-36.247228 -5.037274 -4.644954 36.889175 0.138086 1.697048 0.242901 -0.041751 86203.400000 0 0 1
-35.261623 -4.251074 -4.012754 35.742914 0.119979 1.683301 0.242281 -0.057027 350849.000000 0 0 1
-34.513740 -3.323174 -4.794354 35.003251 0.095990 1.708197 0.239742 -0.058968 171332.000000 0 0 1
-35.263646 -2.064274 -5.314054 35.721494 0.058472 1.720114 0.230562 -0.044446 -349290.000000 0 0 1
-36.034588 -1.363174 -4.365354 36.323630 0.037812 1.691267 0.176789 -0.035553 -7438.980000 0 0 1
-36.729658 -0.320374 -4.992954 37.068855 0.008722 1.705901 0.157379 -0.034396 -303188.000000 0 0 1
37.675094 0.325526 -4.154254 37.904835 0.008640 1.680614 0.160636 -0.033268 -351886.000000 0 0 1
-37.291938 0.956826 -3.012354 37.425639 -0.025652 1.651373 0.142886 -0.026250 -359368.000000 0 0 1
37.273074 1.601226 -2.192754 37.371836 0.042933 1.629504 0.153733 -0.026060 -993232.000000 0 0 1
-37.551388 2.600726 -1.233254 37.661538 -0.069147 1.603548 0.143306 -0.027735 251874.000000 0 0 1
-36.887158 3.742526 -1.779754 37.119219 -0.101113 1.618762 0.163586 -0.044699 101274.000000 0 0 1
-35.720114 3.391026 -2.479054 35.966252 -0.094650 1.639778 0.118800 -0.011349 -1464320.000000 0 0 1
-34.959326 4.636026 -2.934754 35.387286 -0.131843 1.653824 0.105204 -0.014796 -265829.000000 0 0 1
-34.347693 5.240426 -1.766754 34.790049 -0.151402 1.621601 0.104055 -0.030898 266711.000000 0 0 1
-33.727718 6.433326 -2.187554 34.405407 -0.188479 1.634421 0.134274 -0.046445 -324937.000000 0 0 1
-33.123458 7.224726 -1.017054 33.917466 -0.214752 1.600787 0.153736 -0.045528 -146282.000000 0 0 1
-31.723608 7.115626 -0.805054 32.521801 -0.220649 1.595553 0.194459 -0.037953 413309.000000 0 0 1
-31.288208 7.562126 0.488046 32.192792 -0.237145 1.555636 0.214175 -0.052570 -17459.400000 0 0 1
-31.488788 9.005126 0.925446 32.764195 -0.278544 1.542547 0.232925 -0.062732 -256633.000000 0 0 1
-32.848138 9.255126 1.228246 34.149174 -0.274635 1.534821 0.203920 -0.057685 105649.000000 0 0 1
-33.139918 10.652226 1.508846 34.842513 -0.311001 1.527478 0.219514 -0.052174 -135976.000000 0 0 1
-34.634790 10.999326 1.556746 36.372755 -0.307506 1.527983 0.206258 -0.048233 -321553.000000 0 0 1
-35.354786 10.923526 0.320146 37.005227 -0.299665 1.562145 0.159735 -0.027419 -140452.000000 0 0 1
-36.635428 11.452926 0.504446 38.387219 -0.302993 1.557655 0.148255 -0.006165 -89613.000000 0 0 1
37.715684 10.406226 0.556146 39.128911 0.269214 1.556583 0.154730 -0.048898 -45787.300000 0 0 1
37.382754 9.900126 -0.725854 38.678284 0.258888 1.589564 0.165455 -0.038579 -139415.000000 0 0 1
36.327684 8.967126 -0.667054 37.423989 0.242002 1.588622 0.180406 -0.038598 208710.000000 0 0 1
36.110284 8.239826 -2.029954 37.094043 0.224344 1.625548 0.170684 -0.053658 238832.000000 0 0 1
35.295824 9.010026 -2.890654 36.542190 0.249934 1.649984 0.152237 -0.050521 105217.000000 0 0 1
34.883414 8.327726 -4.066554 36.093496 0.234344 1.683703 0.134873 -0.052803 481602.000000 0 0 1
34.055144 9.312926 -5.022654 35.661050 0.266940 1.712110 0.117455 -0.049538 831094.000000 0 0 1
32.691364 9.567326 -4.715854 34.387473 0.284706 1.708369 0.152770 -0.046842 310133.000000 0 0 1
32.091064 10.266326 -5.770654 34.183831 0.309623 1.740421 0.137081 -0.025282 423938.000000 0 0 1
30.542294 10.442126 -5.625254 32.764511 0.329432 1.743339 0.169445 -0.034869 773835.000000 0 0 1
29.800154 9.194726 -5.650254 31.694125 0.299279 1.750029 0.203990 -0.030437 624671.000000 0 0 1
28.461554 9.437426 -6.032254 30.586160 0.320176 1.769319 0.195008 -0.019712 132191.000000 0 0 1
27.522054 8.204526 -6.092854 29.358143 0.289719 1.779851 0.215493 -0.011104 39153.000000 0 0 1
27.806354 7.510326 -7.242754 29.699424 0.263799 1.817149 0.229231 -0.006347 -154705.000000 0 0 1
26.892654 6.511226 -7.485754 28.664393 0.237548 1.835011 0.248122 -0.008186 -392580.000000 0 0 1
27.374154 5.623326 -8.668254 29.259267 0.202606 1.871567 0.258213 -0.025107 1266600.000000 0 0 1
28.506854 4.721626 -8.401854 30.091953 0.164141 1.853763 0.247793 -0.023225 1575520.000000 0 0 1
28.797154 3.931626 -9.564354 30.597559 0.135689 1.888710 0.228812 -0.019725 -22805.100000 0 0 1
29.799554 2.770526 -9.302154 31.340378 0.092706 1.872147 0.208369 -0.027520 625057.000000 0 0 1
31.189384 3.128626 -9.108054 32.642344 0.099976 1.853576 0.177066 -0.014404 1550330.000000 0 0 1
31.805594 2.472726 -8.011454 32.892151 0.077589 1.816839 0.154775 -0.013985 -57377.900000 0 0 1
31.882644 0.922926 -8.071554 32.901440 0.028940 1.818652 0.141182 -0.021632 -724104.000000 0 0 1
30.620434 0.376326 -7.747754 31.587660 0.012289 1.818603 0.183674 -0.028987 312014.000000 0 0 1
30.740494 -0.937974 -7.251854 31.598214 -0.030503 1.802362 0.162883 -0.028695 -122333.000000 0 0 1
30.727994 -2.111674 -8.283254 31.894844 -0.068614 1.833513 0.150271 -0.022040 -316515.000000 0 0 1
31.891054 -2.127274 -9.076754 33.225774 -0.066606 1.847498 0.143383 -0.018647 163754.000000 0 0 1
31.792904 -3.063174 -10.119254 33.504792 -0.096051 1.877612 0.110784 -0.033081 -287151.000000 0 0 1
32.996974 -2.955774 -11.072054 34.930320 -0.089339 1.893335 0.122530 -0.033439 -450292.000000 0 0 1
34.161674 -3.477974 -10.487054 35.903963 -0.101460 1.867204 0.162559 -0.029204 -226152.000000 0 0 1
35.057854 -3.888174 -11.497454 37.099360 -0.110456 1.885894 0.169290 -0.044897 -965736.000000 0 0 1
36.369654 -4.451974 -11.017654 38.261737 -0.121803 1.862887 0.199602 -0.038211 -889922.000000 0 0 1
36.240234 -5.543074 -10.170354 38.046239 -0.151777 1.841403 0.193347 -0.037687 855012.000000 0 0 1
37.523474 -5.767774 -9.577954 39.153742 -0.152517 1.817928 0.219926 -0.040744 609021.000000 0 0 1
37.501284 -6.947874 -8.548854 39.085831 -0.183193 1.791299 0.223922 -0.045413 -155727.000000 0 0 1
36.769544 -6.642974 -7.385154 38.087649 -0.178737 1.765931 0.231337 -0.041483 290056.000000 0 0 1
36.253024 -7.814474 -6.836054 37.710468 -0.212305 1.753082 0.238459 -0.044933 -575870.000000 0 0 1
35.785544 -7.528374 -5.375454 36.961833 -0.207351 1.716746 0.227655 -0.046160 70776.400000 0 0 1
36.794514 -7.320974 -4.327954 37.764588 -0.196404 1.685652 0.261531 -0.041949 1040380.000000 0 0 1
37.202144 -8.394074 -3.558854 38.303074 -0.221918 1.663844 0.274580 -0.047231 -763668.000000 0 0 1
-37.330068 -9.346374 -4.200354 38.710872 0.245328 1.679516 0.270136 -0.047962 -953758.000000 0 0 1
37.564214 -10.141874 -5.177354 39.252169 -0.263700 1.703082 0.228524 -0.044172 967980.000000 0 0 1
-36.920338 -10.919574 -5.849454 38.943094 0.287563 1.721572 0.196983 -0.040725 614502.000000 0 0 1
-37.528708 -11.580174 -7.084154 39.908515 0.299299 1.749252 0.179866 -0.045356 6356.270000 0 0 1
-37.614198 -10.620674 -8.111254 39.917653 0.275194 1.775421 0.182580 -0.052227 257738.000000 0 0 1
37.507564 -11.265274 -9.360454 40.265889 -0.291775 1.805409 0.174446 -0.036828 -66383.800000 0 0 1
37.490554 -10.301974 -10.543454 40.284448 -0.268170 1.835606 0.158751 -0.036952 -335303.000000 0 0 1
36.344064 -9.495774 -10.699354 39.058122 -0.255561 1.848278 0.153910 -0.038909 195494.000000 0 0 1
36.423634 -8.749674 -11.954454 39.321074 -0.235753 1.879708 0.156497 -0.039733 -544997.000000 0 0 1
35.108374 -8.151274 -12.448654 38.131485 -0.228133 1.903359 0.158851 -0.039226 -580506.000000 0 0 1
35.303154 -7.527574 -13.717254 38.615283 -0.210081 1.933955 0.158547 -0.034597 683589.000000 0 0 1
34.335454 -6.492874 -13.853254 37.589805 -0.186894 1.948232 0.140418 -0.041534 21306.600000 0 0 1
34.669794 -5.573474 -15.004954 38.186475 -0.159395 1.974622 0.141272 -0.043885 674251.000000 0 0 1
35.807284 -4.736474 -14.686654 38.990942 -0.131513 1.956993 0.155253 -0.027694 930078.000000 0 0 1
36.175604 -3.977274 -15.825554 39.685529 -0.109504 1.980976 0.165761 -0.033936 -153312.000000 0 0 1
37.398694 -3.064474 -15.745454 40.693644 -0.081758 1.968093 0.176630 -0.043378 -171667.000000 0 0 1
-37.306148 -3.080074 -16.936654 41.086321 0.082375 1.995687 0.187032 -0.035237 961573.000000 0 0 1
-35.945206 -2.654774 -16.847554 39.786250 0.073722 2.008048 0.204596 -0.037655 706778.000000 0 0 1
-35.670498 -1.127774 -16.396054 39.274507 0.031606 2.001459 0.196864 -0.039580 -526890.000000 0 0 1
-36.121748 -0.217974 -17.371454 40.082360 0.006034 2.019052 0.176141 -0.036913 169173.000000 0 0 1
-36.137428 1.130026 -16.824754 39.878102 -0.031260 2.006341 0.169057 -0.039772 39323.100000 0 0 1
-36.433288 2.212426 -17.799754 40.609242 -0.060651 2.024523 0.142685 -0.035734 663814.000000 0 0 1
-35.362711 2.375826 -18.759554 40.100957 -0.067084 2.057606 0.138867 -0.026117 780989.000000 0 0 1
-35.373838 3.590026 -19.505954 40.554641 -0.101142 2.072568 0.122811 -0.017999 -177310.000000 0 0 1
-34.325918 3.581726 -20.613954 40.199907 -0.103968 2.109223 0.114868 -0.009207 -182761.000000 0 0 1
-32.972158 3.853426 -20.324554 38.924280 -0.116341 2.120174 0.121294 -0.012110 238680.000000 0 0 1
-32.211628 3.943926 -21.509054 38.933057 -0.121832 2.156112 0.115931 -0.009291 32422.200000 0 0 1
-30.739898 4.368526 -21.305954 37.655929 -0.141167 2.172207 0.118460 -0.015026 311076.000000 0 0 1
-29.931618 3.408126 -20.647554 36.521755 -0.113375 2.171653 0.130102 -0.005224 -550602.000000 0 0 1
-28.609158 3.435226 -21.071054 35.696975 -0.119502 2.202197 0.102986 -0.010501 -694170.000000 0 0 1
-27.768488 2.363326 -20.324254 34.492746 -0.084904 2.200905 0.120638 -0.017845 -95536.500000 0 0 1
-27.241288 2.979226 -19.143254 33.427948 -0.108931 2.180558 0.110538 -0.009250 187062.000000 0 0 1
-26.585788 2.018726 -18.317254 32.348125 -0.075787 2.172750 0.104867 -0.009204 -15660.000000 0 0 1
-25.684898 2.661326 -17.253554 31.056107 -0.103246 2.159834 0.111118 -0.018596 681261.000000 0 0 1
-24.429178 3.279326 -17.558654 30.262932 -0.133440 2.189775 0.103826 -0.019392 576800.000000 0 0 1
-23.728678 3.650326 -16.423854 29.088108 -0.152639 2.170774 0.131490 -0.030510 72774.800000 0 0 1
-22.554678 4.634126 -16.668454 28.425798 -0.202642 2.197385 0.126160 -0.042031 -105451.000000 0 0 1
-21.494178 4.094026 -17.404254 27.958340 -0.188217 2.242738 0.148235 -0.042595 -324965.000000 0 0 1
-20.487478 5.079326 -17.547154 27.448842 -0.243023 2.264342 0.135204 -0.044601 799838.000000 0 0 1
-19.095578 4.364026 -17.833154 26.489756 -0.224677 2.309337 0.147742 -0.047068 759005.000000 0 0 1
-18.530178 3.547626 -16.807654 25.267576 -0.189162 2.298540 0.151438 -0.039460 -180408.000000 0 0 1
-17.504678 2.758926 -17.295154 24.761821 -0.156325 2.344040 0.122863 -0.038036 -1180380.000000 0 1 0
-17.586378 1.291126 -16.749154 24.320400 -0.073285 2.330474 0.134268 -0.027377 -146850.000000 0 1 0
-18.562978 0.487026 -17.333154 25.401960 -0.026230 2.321776 0.100692 -0.020724 107432.000000 0 0 1
-19.891078 0.735126 -16.902454 26.112992 -0.036941 2.274809 0.118550 -0.022805 -318078.000000 0 0 1
-20.926878 -0.292874 -17.375354 27.201524 0.013994 2.263687 0.101485 -0.014235 -347918.000000 0 0 1
-20.833778 -1.627174 -16.850254 26.844460 0.077944 2.249391 0.088068 -0.019203 137511.000000 0 0 1
-21.904578 -2.455674 -17.225354 27.974161 0.111642 2.234146 0.090735 -0.012142 -272734.000000 0 0 1
-22.066178 -3.676474 -16.257654 27.654005 0.165095 2.199251 0.107316 -0.022655 -143436.000000 0 0 1
-22.473178 -3.291474 -14.980554 27.208354 0.145428 2.153863 0.099606 -0.018519 260697.000000 0 0 1
-22.388778 -4.336174 -13.995054 26.756706 0.191308 2.121220 0.092880 -0.031168 -153049.000000 0 0 1
-22.844878 -3.899374 -12.551554 26.355930 0.169060 2.067162 0.111027 -0.037854 -263927.000000 0 0 1
-24.154378 -3.402674 -12.471354 27.396110 0.139951 2.043420 0.100185 -0.031692 93401.600000 0 0 1
-24.389378 -2.864174 -11.186554 26.984889 0.116900 1.998243 0.123191 -0.043751 -122590.000000 0 0 1
-25.485988 -1.765974 -11.110254 27.858427 0.069181 1.981016 0.160812 -0.050321 -24560.300000 0 0 1
-25.589148 -1.235274 -9.809054 27.432607 0.048236 1.936460 0.164936 -0.063215 255688.000000 0 0 1
-26.453178 -0.137774 -9.819854 28.217355 0.005208 1.926241 0.190030 -0.062079 -529655.000000 0 0 1
-26.670708 0.366826 -8.391154 27.961986 -0.013753 1.875585 0.222160 -0.059583 -386018.000000 0 0 1
-25.491028 0.618826 -7.665154 26.625740 -0.024271 1.862814 0.198277 -0.056081 86382.300000 0 0 1
-25.752368 0.949726 -6.326454 26.535080 -0.036862 1.811533 0.200558 -0.055019 -453482.000000 0 0 1
-24.509278 1.154426 -5.456254 25.135793 -0.047067 1.789609 0.153925 -0.050887 -509579.000000 0 0 1
-24.027178 2.452426 -5.647454 24.803496 -0.101717 1.800499 0.188176 -0.047293 -436216.000000 0 1 0
-22.736778 2.669026 -5.163054 23.467891 -0.116853 1.792616 0.181471 -0.038344 -494262.000000 0 1 0
-22.354478 4.137626 -5.318854 23.348080 -0.183020 1.800621 0.169861 -0.037053 -216035.000000 0 1 0
-22.941078 5.035126 -4.394654 23.894739 -0.216055 1.755767 0.189132 -0.034480 563406.000000 0 1 0
-22.588878 6.358226 -4.710054 23.934683 -0.274377 1.768877 0.173106 -0.031262 -441723.000000 0 1 0
-23.035378 7.375626 -3.605554 24.454621 -0.309872 1.718774 0.185163 -0.031996 58454.100000 0 1 0
-22.318778 7.450426 -2.333954 23.644958 -0.322187 1.669666 0.158291 -0.029484 1020400.000000 0 1 0
-20.952678 7.854626 -2.330254 22.497554 -0.358661 1.674561 0.165945 -0.028773 153263.000000 0 1 0
-20.562778 9.299426 -2.535654 22.709837 -0.424720 1.682684 0.148554 -0.035920 -560951.000000 0 1 0
-20.368078 9.733426 -3.864254 22.902634 -0.445793 1.740333 0.117535 -0.029109 493063.000000 0 1 0
-20.150378 11.156426 -3.904454 23.361257 -0.505648 1.738718 0.129481 -0.026136 -115429.000000 0 1 0
-20.113578 11.692326 -5.322954 23.866301 -0.526567 1.795720 0.128886 -0.029793 1114250.000000 0 1 0
-18.915278 11.227126 -6.032154 22.808397 -0.535662 1.838451 0.092829 -0.018384 1383220.000000 0 1 0
-18.930178 11.599526 -7.399154 23.401883 -0.549744 1.892494 0.099400 -0.020428 617941.000000 0 1 0
-17.590678 11.212526 -8.132554 22.389532 -0.567476 1.942529 0.084820 -0.014560 573933.000000 0 1 0
-17.238278 9.840026 -8.435154 21.567016 -0.518690 1.972638 0.063199 -0.014478 388976.000000 0 1 0
-18.071678 9.090026 -9.318954 22.272337 -0.466043 2.002490 0.084048 -0.015803 -527492.000000 0 1 0
-18.132278 9.613926 -10.806554 23.194583 -0.487523 2.055457 0.088362 -0.019066 65107.000000 0 1 0
-16.906878 9.403026 -11.480354 22.495732 -0.507565 2.106370 0.070159 -0.020430 99271.200000 0 1 0
-16.797978 10.205226 -12.594954 23.344198 -0.545936 2.140678 0.068253 -0.026411 295662.000000 0 1 0
-15.691678 9.736726 -13.584854 22.925550 -0.555359 2.205034 0.052341 -0.016374 -182769.000000 0 1 0
-15.906378 8.470326 -14.288754 22.998430 -0.489317 2.241188 0.069388 -0.036468 114514.000000 0 1 0
-15.830078 7.291226 -13.536854 22.068071 -0.431628 2.231172 0.068288 -0.028659 -210414.000000 0 1 0
-15.802778 6.079026 -14.549554 22.324244 -0.367231 2.280670 0.076547 -0.026398 572874.000000 0 1 0
-14.586878 5.962626 -15.309354 21.970577 -0.388041 2.341739 0.066443 -0.032255 1124600.000000 0 1 0
-14.707878 4.803126 -16.113054 22.338805 -0.315650 2.376479 0.071753 -0.025564 -35727.100000 0 1 0
33.346744 -15.369374 27.718302 46.005731 -0.431878 0.924171 0.074092 -0.008493 76255.000000 0 0 1
32.327504 -14.398974 27.898502 45.063560 -0.419030 0.903210 0.085753 -0.007344 315370.000000 0 0 1
31.496674 -14.524174 29.049252 45.242139 -0.432074 0.873583 0.087109 -0.010621 215969.000000 0 0 1
32.194834 -14.467074 30.433912 46.605006 -0.422322 0.859234 0.083967 -0.019277 -122783.000000 0 0 1
32.701084 -13.209474 30.809562 46.830334 -0.383904 0.852773 0.068986 -0.021807 27993.400000 0 0 1
33.152994 -13.128674 32.127094 47.996180 -0.377056 0.837439 0.062742 -0.029216 -177244.000000 0 0 1
33.529004 -11.743074 32.622661 48.232063 -0.336885 0.827975 0.060140 -0.026939 -51357.400000 0 0 1
33.743094 -11.682074 -33.601784 49.032103 -0.333291 2.325814 0.050494 -0.047231 115781.000000 0 0 1
33.764144 -10.322874 -33.163714 48.439768 -0.296710 2.324903 0.087697 -0.038552 -40245.200000 0 0 1
33.510764 -10.236774 -31.625004 47.200675 -0.296474 2.305021 0.092115 -0.033853 696115.000000 0 0 1
32.120424 -10.411674 -31.340574 46.069037 -0.313458 2.318963 0.135788 -0.036633 479831.000000 0 0 1
31.629844 -9.716874 -30.231234 44.819551 -0.298055 2.311097 0.099058 -0.031302 329098.000000 0 0 1
30.144354 -10.141074 -30.002514 43.722698 -0.324523 2.327048 0.116290 -0.017859 322743.000000 0 0 1
29.671554 -9.921274 -28.708164 42.461647 -0.322683 2.313248 0.092629 -0.017057 -266773.000000 0 0 1
28.910054 -10.979474 -28.245614 41.882631 -0.362955 2.310947 0.134845 -0.017810 -866491.000000 0 0 1
28.359554 -10.626474 -26.853254 40.475715 -0.358512 2.296205 0.119047 -0.013646 -710995.000000 0 0 1
27.707254 -9.360474 -26.718064 39.612692 -0.325796 2.311060 0.096606 -0.022001 344611.000000 0 0 1
26.550754 -9.047474 -27.455864 39.250781 -0.328421 2.345492 0.085851 -0.024924 420599.000000 0 0 1
25.262654 -9.913874 -27.185034 38.412402 -0.373965 2.357055 0.098373 -0.006483 -43863.300000 0 0 1
25.416154 -11.136774 -27.862084 39.323076 -0.412979 2.358227 0.098691 -0.021170 -131025.000000 0 0 1
24.693654 -12.206474 -27.370484 38.831919 -0.459090 2.353001 0.115558 -0.029836 93267.300000 0 0 1
25.474954 -13.498574 -27.829844 40.070999 -0.487262 2.338540 0.098840 -0.014991 501518.000000 0 0 1
25.305254 -13.620374 -29.241994 40.999569 -0.493772 2.364887 0.098787 -0.024969 70881.600000 0 0 1
26.380354 -14.304774 -29.816834 42.303584 -0.496874 2.352980 0.098942 -0.023665 -368821.000000 0 0 1
26.286554 -14.516074 -31.372204 43.427117 -0.504549 2.378078 0.110544 -0.031984 -583983.000000 0 0 1
25.143654 -15.212774 -31.780024 43.285122 -0.544113 2.395287 0.112442 -0.029549 -102904.000000 0 0 1
25.161254 -15.559474 -33.166584 44.443315 -0.553832 2.413233 0.093519 -0.028870 -128689.000000 0 0 1
25.302354 -14.402574 33.395663 44.304781 -0.517479 0.717014 0.073345 -0.026068 669476.000000 0 0 1
24.115254 -13.622174 33.112658 43.168938 -0.514194 0.696569 0.079221 -0.025402 826667.000000 0 0 1
24.281054 -12.740774 32.016835 42.154177 -0.483228 0.708225 0.063647 -0.022831 -1328890.000000 0 0 1
23.441354 -11.488574 32.131719 41.399659 -0.455695 0.682283 0.075763 -0.031776 615295.000000 0 0 1
22.022754 -11.641474 31.989176 40.544211 -0.486274 0.661625 0.066402 -0.019423 785157.000000 0 0 1
21.549354 -12.121074 30.765462 39.469086 -0.512374 0.676957 0.051393 -0.015327 -1438530.000000 0 0 1
20.020954 -12.271274 30.791522 38.723902 -0.549866 0.651532 0.059226 -0.012676 55395.200000 0 0 1
19.279854 -11.050974 30.853212 38.023118 -0.520471 0.624196 0.074407 -0.020522 616228.000000 0 0 1
18.176054 -11.071374 31.780382 38.248359 -0.547097 0.590082 0.069132 -0.012072 417134.000000 0 0 1
17.513754 -9.725874 31.842286 37.619880 -0.506924 0.561567 0.069494 -0.013839 -106590.000000 0 0 1
16.567054 -9.584174 30.750642 36.220515 -0.524467 0.556736 0.105873 -0.022077 924352.000000 0 0 1
15.676354 -8.444574 30.896152 35.659937 -0.494112 0.522828 0.105834 -0.018093 1737940.000000 0 0 1
14.527354 -8.467574 32.003364 36.151890 -0.527729 0.483771 0.113766 -0.020585 -458967.000000 0 0 1
13.634654 -9.531574 31.941607 36.014177 -0.610101 0.480167 0.119750 -0.024775 226828.000000 0 0 1
12.552654 -9.472874 32.880793 36.447922 -0.646471 0.446113 0.124571 -0.021679 704910.000000 0 0 1
11.372854 -8.624574 32.299588 35.312724 -0.648822 0.416099 0.144884 -0.026879 -530607.000000 0 0 1
11.631854 -7.221774 32.375340 35.151340 -0.555618 0.400087 0.139877 -0.027840 468442.000000 0 0 1
10.432954 -6.532674 32.046296 34.329105 -0.559431 0.366737 0.157876 -0.025282 419042.000000 0 0 1
10.658554 -5.001774 32.145007 34.233376 -0.438765 0.351097 0.135153 -0.026374 27661.400000 0 0 1
11.000854 -4.570674 33.401707 35.462429 -0.393783 0.342583 0.129657 -0.035249 243419.000000 0 0 1
11.479854 -3.234974 33.361821 35.429694 -0.274673 0.343343 0.088091 -0.029729 -183325.000000 0 0 1
11.439354 -2.557674 -32.873114 34.900460 -0.219968 2.799071 0.091270 -0.042057 14545.600000 0 0 1
10.126254 -2.211974 -32.459874 34.074584 -0.215061 2.832508 0.101339 -0.025673 281304.000000 0 0 1
10.114154 -1.256574 -31.395104 33.007994 -0.123606 2.827692 0.111709 -0.021863 -160606.000000 0 0 1
8.629454 -0.929574 -31.185264 32.370546 -0.107307 2.870146 0.123130 -0.017911 -23386.000000 0 0 1
7.950154 -0.159874 -32.145214 33.114125 -0.020107 2.899091 0.109329 -0.022946 -377878.000000 0 0 1
6.576154 -0.071974 -31.873404 32.544813 -0.010944 2.938115 0.126722 -0.024373 -453431.000000 0 0 1
5.891354 0.694926 -32.983754 33.512968 0.117414 2.963643 0.152955 -0.030036 -314210.000000 0 0 1
6.256354 2.046326 -32.936894 33.588218 0.316112 2.944339 0.125065 -0.029305 -22047.700000 0 0 1
5.702254 2.748626 33.563062 34.154792 0.449164 0.186415 0.151076 -0.031984 36104.500000 0 0 1
6.169954 4.218826 33.498632 34.322372 0.599750 0.219530 0.123330 -0.036604 -69253.500000 0 0 1
5.602554 4.927326 32.470121 33.316301 0.721361 0.225861 0.133498 -0.041050 -264304.000000 0 0 1
6.213654 6.195826 32.442127 33.607876 0.783962 0.264156 0.122968 -0.039920 262837.000000 0 0 1
5.488654 7.394726 31.639019 32.952008 0.932281 0.283242 0.132987 -0.039656 -732873.000000 0 0 1
4.452054 8.027826 32.317201 33.595659 1.064445 0.276760 0.155478 -0.046872 -256460.000000 0 0 1
4.055654 9.338226 31.813366 33.402711 1.161069 0.309721 0.170136 -0.045575 22541.300000 0 0 1
3.590854 9.326126 30.336762 31.940413 1.203260 0.318225 0.158790 -0.037134 -1773820.000000 0 0 1
2.400854 8.740026 30.073492 31.409666 1.302712 0.292729 0.136562 -0.033628 -1442600.000000 0 0 1
2.111254 8.642126 28.684402 30.032294 1.331191 0.300736 0.096728 -0.013899 152533.000000 0 0 1
0.823054 7.859826 28.338592 29.419893 1.466460 0.271961 0.100764 -0.019330 339014.000000 0 0 1
-0.351846 8.581826 28.647642 29.907506 -1.529820 0.291288 0.101211 -0.016267 -663192.000000 0 0 1
-1.405446 8.323226 27.789812 29.043503 -1.403516 0.294890 0.102260 -0.015676 344466.000000 0 0 1
-2.823646 8.725626 28.299772 29.748725 -1.257828 0.313391 0.092313 -0.019800 264246.000000 0 0 1
-3.085646 10.118326 28.453252 30.356042 -1.274799 0.355945 0.098929 -0.010944 -884794.000000 0 0 1
-4.368946 10.216526 28.962932 31.021227 -1.166696 0.366328 0.088645 -0.011816 -974021.000000 0 0 1
-4.593746 11.588426 29.621692 32.137809 -1.193390 0.398334 0.084803 -0.010445 -309961.000000 0 0 1
-4.795946 12.575626 28.717942 31.715417 -1.206454 0.438267 0.065955 -0.006369 823210.000000 0 0 1
-6.028146 12.746826 27.971222 31.324262 -1.129052 0.466924 0.069370 -0.008931 780008.000000 0 0 1
-6.239846 14.204426 27.376042 31.466635 -1.156885 0.515589 0.048302 -0.001869 289711.000000 0 0 1
-5.211746 14.594326 26.486342 30.686854 -1.227804 0.529387 0.044570 0.006808 182695.000000 0 0 1
-5.626346 15.835326 25.895842 30.870827 -1.229405 0.575638 0.039813 0.008809 245690.000000 0 0 1
-4.531946 16.574326 25.090162 30.409917 -1.303889 0.600479 0.078098 0.007417 107328.000000 0 0 1
-4.254346 15.994626 23.868322 29.045212 -1.310830 0.606296 0.075134 0.000850 -266765.000000 0 0 1
-3.205746 16.675026 23.238592 28.781339 -1.380865 0.631033 0.090384 -0.004010 -119293.000000 0 0 1
-3.120146 16.374626 21.707352 27.369195 -1.382506 0.654864 0.090598 -0.001491 -23631.900000 0 0 1
-2.434146 15.190826 21.357852 26.321932 -1.411909 0.624238 0.082834 -0.010698 55899.500000 0 0 1
-2.155846 15.145726 19.951752 25.141860 -1.429406 0.654147 0.078468 -0.018777 -317157.000000 0 0 1
-1.357046 13.895326 19.587752 24.054141 -1.473443 0.619241 0.073914 -0.029593 -560741.000000 0 1 0
-1.928346 12.620026 19.724152 23.495228 -1.419169 0.574441 0.071679 -0.023747 -338087.000000 0 1 0
-1.099246 11.634426 19.179652 22.459458 -1.476594 0.547233 0.063883 -0.031876 -63374.300000 0 1 0
-1.855646 10.244926 19.087252 21.742243 -1.391611 0.499363 0.045287 -0.025947 -166263.000000 0 1 0
-2.187146 9.440226 20.204852 22.408425 -1.343129 0.447196 0.069152 -0.033128 -66289.000000 0 1 0
-3.054546 10.061726 21.139952 23.610721 -1.276058 0.461571 0.076035 -0.019020 277535.000000 0 1 0
-4.551246 9.956326 20.705252 23.421139 -1.142036 0.486358 0.052545 -0.016657 -143800.000000 0 1 0
-5.187846 8.752426 21.022152 23.354862 -1.035738 0.450754 0.038063 -0.018844 -140307.000000 0 1 0
-6.598346 8.905726 20.988052 23.734963 -0.933138 0.485874 0.032080 -0.015015 538332.000000 0 1 0
-7.334246 7.523726 21.067952 23.542647 -0.798150 0.462624 0.029217 -0.013130 -58382.600000 0 1 0
-7.140846 7.017526 22.359252 24.498439 -0.776688 0.421000 0.034021 -0.015189 136884.000000 0 1 0
-7.837346 5.779326 22.473052 24.492094 -0.635394 0.408888 0.030796 -0.013062 296501.000000 0 1 0
-7.713546 5.192826 23.865112 25.612650 -0.592518 0.371537 0.039612 -0.014567 -66460.600000 0 0 1
-8.603546 5.808626 24.772002 26.859137 -0.593848 0.396824 0.043422 -0.018554 -36697.900000 0 0 1
-8.916746 4.957126 25.870892 27.809792 -0.507388 0.375621 0.049900 -0.007034 -133621.000000 0 0 1
-9.914346 5.534326 26.889522 29.188515 -0.509128 0.399549 0.053756 -0.011947 -206706.000000 0 0 1
-9.475646 6.669126 27.539792 29.878174 -0.613283 0.398263 0.054318 -0.025782 -269379.000000 0 0 1
-10.346746 7.048726 28.592742 31.213532 -0.598031 0.412711 0.057866 -0.028301 44129.100000 0 0 1
-9.834046 8.260426 29.395872 32.078971 -0.698650 0.411906 0.084574 -0.019677 -375790.000000 0 0 1
-8.642846 7.972326 30.050732 32.269231 -0.745064 0.372967 0.093137 -0.019419 -553153.000000 0 0 1
-8.246846 9.025026 30.903662 33.233987 -0.830422 0.376706 0.108635 -0.032823 -176560.000000 0 0 1
-7.252646 8.566526 31.973140 33.886103 -0.868264 0.337615 0.141704 -0.042802 49515.200000 0 0 1
-5.958846 8.330526 31.470272 33.095068 -0.949874 0.314649 0.122271 -0.038616 -499631.000000 0 0 1
-5.132046 7.740526 32.440213 33.743460 -0.985330 0.278831 0.141889 -0.042417 -1131050.000000 0 0 1
-3.675046 7.667426 32.107319 33.214083 -1.123840 0.258878 0.110756 -0.034671 -1059120.000000 0 0 1
-3.117646 8.942626 32.022317 33.393399 -1.235345 0.287550 0.101490 -0.039091 -895260.000000 0 0 1
-1.722746 8.950226 31.991566 33.264617 -1.380641 0.277550 0.082428 -0.030817 -312499.000000 0 0 1
-1.125046 10.255326 31.389962 33.041900 -1.461530 0.317545 0.083230 -0.026367 -62850.500000 0 0 1
-1.343446 11.390926 32.214444 34.195445 -1.453399 0.342052 0.095067 -0.036215 131839.000000 0 0 1
-1.385846 12.535026 31.410662 33.847853 -1.460686 0.381799 0.095406 -0.026707 -432394.000000 0 0 1
-1.500146 13.823026 32.251535 35.121048 -1.462694 0.407040 0.096803 -0.037936 432515.000000 0 0 1
-0.304846 14.110126 32.981462 35.874301 -1.549195 0.404341 0.130256 -0.042417 -35442.500000 0 0 1
-0.519646 15.066726 -33.662774 36.884395 -1.536320 2.720533 0.139163 -0.038628 -206361.000000 0 0 1
0.715454 15.377926 -32.810854 36.242856 1.524305 2.702895 0.125769 -0.042872 27571.900000 0 0 1
1.646454 16.195326 -33.510984 37.255677 1.469482 2.689390 0.145456 -0.040500 121024.000000 0 0 1
2.882954 16.293626 -32.842944 36.775707 1.395671 2.674899 0.153812 -0.040751 364436.000000 0 0 1
3.957454 17.156726 -33.570564 37.907749 1.344097 2.658550 0.144244 -0.028778 204780.000000 0 0 1
3.749554 18.537926 -33.367314 38.354811 1.371225 2.625926 0.126134 -0.024419 234252.000000 0 0 1
4.608554 19.336426 33.416881 38.882182 1.336826 0.536624 0.106237 -0.006630 190256.000000 0 0 1
4.078754 20.790426 33.424121 39.573349 1.377072 0.564956 0.115289 -0.019592 56176.600000 0 0 1
4.612954 21.622026 -33.153134 39.848735 1.360602 2.553454 0.147893 -0.037530 347257.000000 0 0 1
3.989854 22.919726 -33.127184 40.480157 1.398444 2.529341 0.128884 -0.036287 166008.000000 0 0 1
4.211454 23.793326 -31.829134 39.961888 1.395609 2.492260 0.156491 -0.041310 -31099.100000 0 0 1
3.479754 25.007426 -31.828714 40.626926 1.432535 2.470977 0.152357 -0.044787 403887.000000 0 0 1
3.279454 25.477926 -30.511324 39.885090 1.442783 2.441808 0.157845 -0.055396 149302.000000 0 0 1
2.791354 26.938926 -30.269944 40.617323 1.467547 2.411702 0.157154 -0.057574 21116.700000 0 0 1
3.860354 27.834326 -30.424334 41.416086 1.432985 2.395876 0.146005 -0.055175 180202.000000 0 0 1
3.549154 29.069126 -29.823804 41.797965 1.449304 2.365310 0.135108 -0.051126 -623453.000000 0 0 1
4.766854 29.968926 -29.675864 42.444273 1.413058 2.345036 0.165598 -0.063537 -749481.000000 0 0 1
5.731054 29.488326 -28.809414 41.621974 1.378839 2.335285 0.146982 -0.073012 -1042280.000000 0 0 1
6.498954 30.527826 -28.370724 42.179172 1.361041 2.308545 0.184646 -0.080078 -501058.000000 0 0 1
7.608854 30.122526 -27.327654 41.377070 1.323375 2.292220 0.180949 -0.082552 171282.000000 0 0 1
8.819054 29.685526 -27.897854 41.680888 1.282018 2.304090 0.177761 -0.072167 328598.000000 0 0 1
9.878254 30.659026 -27.862174 42.589395 1.259101 2.283927 0.187119 -0.076047 149756.000000 0 0 1
9.851754 31.991026 -28.669364 44.072840 1.272059 2.279038 0.205171 -0.074067 -1087140.000000 0 0 1
9.176554 33.010926 -27.869274 44.165901 1.299657 2.253655 0.206965 -0.073735 665396.000000 0 0 1
8.838554 -33.442524 -28.540664 44.845200 -1.312413 2.260653 0.186842 -0.063512 -131733.000000 0 0 1
7.651654 -33.651524 -29.512324 45.408701 -1.347219 2.278284 0.152871 -0.040153 -440017.000000 0 0 1
7.948254 33.366026 -30.701874 46.033374 1.336941 2.300902 0.139042 -0.040564 135289.000000 0 0 1
6.713154 33.148526 -31.351884 46.117587 1.370981 2.318320 0.130894 -0.040681 169837.000000 0 0 1
6.851254 32.255726 -32.631414 46.391602 1.361503 2.350953 0.144605 -0.060784 -2960.450000 0 0 1
6.831954 32.982726 33.760122 47.689429 1.366547 0.784253 0.152121 -0.051882 148166.000000 0 0 1
6.795754 32.079326 32.661732 46.282331 1.362040 0.787377 0.143278 -0.048879 -167365.000000 0 0 1
6.273754 32.856526 31.403652 45.881376 1.382124 0.816943 0.123711 -0.051505 87797.400000 0 0 1
7.239354 33.614426 30.690302 46.089397 1.358672 0.842115 0.127257 -0.052318 219498.000000 0 0 1
6.685654 -33.350724 29.595652 45.087375 -1.372954 0.854751 0.106426 -0.053723 82895.900000 0 0 1
19.256222 -21.953474 28.802962 41.016676 -0.850757 0.792278 0.114700 -0.012297 -553907.000000 0 0 1
18.388022 -20.857174 29.045242 40.209043 -0.848231 0.763593 0.112122 -0.010909 441463.000000 0 0 1
17.030122 -21.194074 28.810892 39.614156 -0.893905 0.756434 0.101008 -0.011421 261578.000000 0 0 1
16.274122 -21.641974 30.081022 40.473324 -0.926035 0.732910 0.101302 -0.008700 -660796.000000 0 0 1
16.851022 -22.756574 30.752882 41.803808 -0.933409 0.744174 0.119779 -0.019046 27340.900000 0 0 1
16.286822 -23.034674 31.998433 42.658604 -0.955350 0.722575 0.114967 -0.022881 54621.700000 0 0 1
17.110322 -24.075574 32.855269 44.179917 -0.952930 0.732253 0.120352 -0.032392 291925.000000 0 0 1
16.990822 -25.492504 32.557273 44.704941 -0.982907 0.755002 0.134239 -0.039918 -57760.400000 0 0 1
17.786922 -26.224844 33.456693 46.081096 -0.974819 0.758252 0.124964 -0.036411 73191.500000 0 0 1
17.626122 -27.773654 33.284609 46.796594 -1.005299 0.779505 0.124938 -0.029618 221877.000000 0 0 1
18.055222 -28.173904 31.940224 46.259462 -1.000881 0.808674 0.122890 -0.039018 331336.000000 0 0 1
17.598722 -29.482364 31.688011 46.723173 -1.032642 0.825476 0.123976 -0.032557 -114432.000000 0 0 1
18.323022 -30.179064 30.502932 46.657667 -1.025141 0.858253 0.130300 -0.036498 -184586.000000 0 0 1
19.625522 -30.601784 30.807872 47.652443 -1.000548 0.867793 0.115317 -0.037743 -432043.000000 0 0 1
20.256822 -30.991594 29.637202 47.425536 -0.991878 0.895766 0.090263 -0.033504 -134381.000000 0 0 1
21.682422 -31.600624 29.828882 48.564278 -0.969434 0.909406 0.075919 -0.023793 387528.000000 0 0 1
22.621522 -30.607234 30.191812 48.580671 -0.934314 0.900169 0.064053 -0.021758 725432.000000 0 0 1
23.931122 -31.173724 30.379972 49.673357 -0.916082 0.912721 0.056926 -0.019096 474558.000000 0 0 1
25.025022 -30.106984 30.457852 49.602046 -0.877316 0.909622 0.061750 -0.017928 474386.000000 0 0 1
26.158122 -30.362884 29.599962 49.822784 -0.859654 0.934644 0.057089 -0.021773 417741.000000 0 0 1
27.071222 -29.311934 29.672252 49.724070 -0.825118 0.931366 0.059250 -0.017994 -35266.100000 0 0 1
28.337222 -29.344034 28.792512 49.930745 -0.802851 0.956175 0.067249 -0.017947 257636.000000 0 0 1
29.361722 -30.180444 29.295322 51.295086 -0.799148 0.962934 0.071571 -0.013313 117842.000000 0 0 1
30.483022 -30.243804 28.433102 51.500909 -0.781459 0.985928 0.080689 -0.031349 181718.000000 0 0 1
31.488222 -31.321044 28.847392 52.959305 -0.782736 0.994755 0.080915 -0.032573 293319.000000 0 0 1
30.909822 -32.653684 28.679172 53.330808 -0.812826 1.003018 0.068507 -0.026598 331242.000000 0 0 1
31.876522 -33.593724 29.010662 54.646770 -0.811621 1.011162 0.079238 -0.026797 -307670.000000 0 0 1
31.104022 32.782418 29.436522 53.931957 0.811664 0.993443 0.077718 -0.014525 -223655.000000 0 0 1
30.544622 32.686353 30.718312 54.267728 0.819257 0.969088 0.094526 -0.016013 -325242.000000 0 0 1
29.479222 33.531283 30.979672 54.342540 0.849617 0.964191 0.089278 -0.013720 158209.000000 0 0 1
28.094322 33.311506 30.255792 53.050545 0.870157 0.963901 0.083894 -0.016216 660152.000000 0 0 1
27.373722 32.096555 30.573392 52.098386 0.864647 0.943646 0.082318 -0.003146 -340112.000000 0 0 1
26.117622 32.122589 29.980942 51.116023 0.888142 0.944032 0.074045 -0.007588 -127531.000000 0 0 1
25.353422 30.754326 29.954182 49.858576 0.881362 0.926316 0.092611 -0.020645 -94194.200000 0 0 1
25.503022 30.037416 28.762032 48.784270 0.866859 0.940263 0.099105 -0.028928 587309.000000 0 0 1
24.515322 29.005636 28.848442 47.692354 0.869100 0.921173 0.136010 -0.046070 132358.000000 0 0 1
23.889922 28.473996 27.557152 46.269790 0.872718 0.932814 0.143598 -0.051855 -413726.000000 0 0 1
22.909122 29.372706 27.141402 46.089473 0.908404 0.941118 0.131954 -0.052904 -664894.000000 0 0 1
22.139622 28.889076 26.103612 44.789956 0.916903 0.948626 0.143986 -0.044330 -298179.000000 0 0 1
20.815222 29.624546 25.881672 44.505597 0.958305 0.950179 0.127813 -0.038509 -281506.000000 0 0 1
21.007522 30.914476 25.295552 45.131871 0.973937 0.975830 0.115061 -0.041424 -594360.000000 0 0 1
19.801522 31.579026 25.106102 44.940534 1.010727 0.978037 0.096190 -0.042267 -1270250.000000 0 0 1
19.889522 32.991588 24.441302 45.622530 1.028272 1.005426 0.101565 -0.038164 -302270.000000 0 0 1
20.547622 32.972813 23.198812 45.250371 1.013515 1.032497 0.101557 -0.041474 2466.410000 0 0 1
21.865122 33.475363 23.281392 46.267772 0.992195 1.043512 0.104160 -0.033599 -252958.000000 0 0 1
22.424022 33.522189 21.852452 45.870509 0.981228 1.074247 0.109518 -0.037331 -293635.000000 0 0 1
21.824922 -33.119264 21.099052 44.926416 -0.988134 1.081918 0.092495 -0.027747 514798.000000 0 0 1
22.416822 -33.089814 19.813852 44.609847 -0.975363 1.110561 0.117081 -0.029403 54683.900000 0 0 1
22.129422 -31.770154 18.984952 43.121716 -0.962391 1.114903 0.116307 -0.021873 142215.000000 0 0 1
22.698522 -30.574614 19.595452 42.825363 -0.932178 1.095540 0.111208 -0.011048 368970.000000 0 0 1
22.256622 -29.393694 18.971352 41.463944 -0.922709 1.095571 0.109725 -0.020121 -156158.000000 0 0 1
22.963722 -29.001794 17.625852 40.976911 -0.901073 1.126147 0.099852 -0.019657 156098.000000 0 0 1
22.569422 -29.835954 16.555352 40.910178 -0.923180 1.154172 0.105276 -0.022112 192660.000000 0 0 1
23.177322 -29.357374 15.381752 40.443071 -0.902498 1.180642 0.100369 -0.015508 -47409.400000 0 0 1
22.619122 -30.024304 14.119552 40.155265 -0.925148 1.211491 0.111154 -0.027327 -257470.000000 0 0 1
23.192822 -31.314284 13.867252 41.361722 -0.933308 1.228907 0.103989 -0.025202 167649.000000 0 0 1
23.183122 -31.625844 12.467552 41.147187 -0.938236 1.262958 0.092392 -0.019784 -1175000.000000 0 0 1
21.888822 -31.694484 11.686352 40.252102 -0.966394 1.276226 0.099750 -0.015314 -1384800.000000 0 0 1
21.180422 -32.743984 12.232552 40.870700 -0.996639 1.266839 0.108385 -0.030645 -957830.000000 0 0 1
19.974922 -32.846194 11.517152 40.131219 -1.024417 1.279716 0.099114 -0.031250 -800193.000000 0 0 1
18.894922 -33.438544 12.378952 40.353349 -1.056461 1.259005 0.087933 -0.024649 -556953.000000 0 0 1
18.401322 -32.656524 13.496852 39.839958 -1.057662 1.225180 0.081642 -0.015202 603110.000000 0 0 1
19.131822 -33.117704 14.665252 40.961916 -1.046942 1.204648 0.054014 -0.015011 -13049.100000 0 0 1
19.111322 -32.164544 15.872552 40.641585 -1.034672 1.169568 0.065469 -0.016572 304982.000000 0 0 1
17.865322 -31.816484 16.465752 40.032229 -1.059158 1.146903 0.079582 -0.026745 47445.000000 0 0 1
17.096422 -32.802524 17.139652 40.768381 -1.090339 1.136893 0.070276 -0.017278 -420446.000000 0 0 1
17.636722 -33.587074 18.397752 42.161864 -1.087267 1.119247 0.044421 -0.024146 -442022.000000 0 0 1
18.497022 33.052061 18.084052 41.971556 1.060587 1.125346 0.051076 -0.021854 -89733.100000 0 0 1
19.100922 32.459926 19.237252 42.291417 1.038916 1.098566 0.042020 -0.018537 -85226.100000 0 0 1
19.894622 31.224906 18.900152 41.569298 1.003515 1.098799 0.076905 -0.022803 -494820.000000 0 0 1
19.125122 30.075116 18.640752 40.221394 1.004389 1.088908 0.055938 -0.026622 -529762.000000 0 0 1
19.892622 28.916166 18.519652 39.684236 0.968209 1.085268 0.066008 -0.029974 146597.000000 0 0 1
19.041322 27.589886 18.339252 38.211280 0.966708 1.070206 0.075252 -0.035733 370072.000000 0 0 1
18.481122 27.005306 19.504552 38.095485 0.970650 1.033295 0.084448 -0.037243 2104.030000 0 0 1
17.991822 25.718766 19.199352 36.793692 0.960366 1.021824 0.085397 -0.044936 -715613.000000 0 0 1
17.751922 24.719776 20.351652 36.611308 0.948008 0.981370 0.095072 -0.043746 288644.000000 0 0 1
16.602722 25.071016 21.114452 36.742705 0.985873 0.958611 0.094877 -0.039706 792588.000000 0 0 1
15.514622 24.160326 20.876252 35.499898 0.999957 0.942132 0.094501 -0.038601 453091.000000 0 0 1
14.172722 24.460556 21.572152 35.560408 1.045653 0.918977 0.098612 -0.046493 240553.000000 0 0 1
13.525922 25.600346 20.983452 35.757986 1.084727 0.943672 0.100312 -0.040900 -63453.900000 0 0 1
12.318022 25.923306 21.632552 35.940490 1.127208 0.924919 0.102613 -0.038848 -210514.000000 0 0 1
11.599422 27.078336 20.930652 36.136894 1.166079 0.953044 0.094921 -0.043085 -361916.000000 0 0 1
12.116822 28.360596 21.259252 37.457931 1.167029 0.967269 0.086782 -0.040545 7565.540000 0 0 1
11.988122 29.351066 20.300352 37.647104 1.183036 1.001277 0.095237 -0.042569 83908.000000 0 0 1
12.530422 30.775106 20.661652 39.128283 1.184132 1.014495 0.085872 -0.046430 -96454.500000 0 0 1
11.773922 31.403996 21.664652 39.927351 1.212098 0.997265 0.087042 -0.050867 -335684.000000 0 0 1
12.366322 31.413156 22.916792 40.803084 1.195761 0.974425 0.076740 -0.048323 -67792.700000 0 0 1
11.568722 32.295207 23.893342 41.805592 1.226819 0.962422 0.084956 -0.041728 937661.000000 0 0 1
10.192922 32.056317 24.203522 41.440483 1.262937 0.947081 0.072734 -0.043791 516901.000000 0 0 1
10.053922 32.003292 25.608182 42.202738 1.266406 0.918781 0.073693 -0.030850 287571.000000 0 0 1
8.623022 31.581546 26.096022 41.865893 1.304253 0.897810 0.144906 -0.047901 1378450.000000 0 0 1
7.487022 32.474927 25.803292 42.148384 1.344208 0.911955 0.119781 -0.039383 1654360.000000 0 0 1
6.861522 32.287416 24.514022 41.115630 1.361398 0.932010 0.122855 -0.057090 649250.000000 0 0 1
5.860822 31.093306 24.333862 39.915909 1.384491 0.915205 0.108052 -0.046595 51862.500000 0 0 1
6.616822 29.957756 24.532852 39.282443 1.353415 0.896274 0.093557 -0.044508 -398575.000000 0 0 1
5.853222 28.809656 24.283882 38.130873 1.370356 0.880383 0.082543 -0.034895 -332144.000000 0 0 1
6.707522 27.526636 24.497442 37.454389 1.331780 0.857856 0.076620 -0.035378 -452003.000000 0 0 1
7.696522 27.159076 23.574212 36.777648 1.294650 0.875005 0.077300 -0.031611 727549.000000 0 0 1
8.847022 28.023766 23.490422 37.621818 1.265001 0.896455 0.106949 -0.042159 -222608.000000 0 0 1
9.887722 27.852506 24.607002 38.458207 1.229671 0.876510 0.102010 -0.044179 -1452670.000000 0 0 1
9.594222 28.167336 25.941602 39.476761 1.242506 0.853783 0.103925 -0.039071 225293.000000 0 0 1
10.658122 27.792056 26.819352 40.065841 1.204599 0.837420 0.098714 -0.026629 636930.000000 0 0 1
11.908622 28.719526 26.862432 41.087915 1.177723 0.858228 0.084498 -0.029779 -59438.500000 0 0 1
11.635322 29.952146 27.497722 42.292275 1.200274 0.862971 0.099629 -0.041299 196242.000000 0 0 1
12.822122 30.703566 27.674912 43.278362 1.175202 0.876997 0.092432 -0.025218 -170899.000000 0 0 1
12.657822 31.881633 28.682232 44.713862 1.192857 0.874394 0.069588 -0.027669 -93290.400000 0 0 1
12.295622 31.599386 30.003602 45.276039 1.199713 0.846402 0.090556 -0.049954 862296.000000 0 0 1
10.880722 31.440366 30.185072 44.922437 1.237623 0.833974 0.130894 -0.051090 703417.000000 0 0 1
10.459722 31.348586 31.716671 45.804879 1.248753 0.805945 0.165838 -0.046392 -141163.000000 0 0 1
10.902322 30.198866 32.323566 45.559248 1.224340 0.782030 0.146442 -0.052506 107274.000000 0 0 1
11.311422 30.356616 33.691402 46.739523 1.214116 0.765793 0.161546 -0.043738 -16076.600000 0 0 1
11.504322 28.973546 -33.286514 45.604910 1.192824 2.388956 0.136994 -0.043089 971482.000000 0 0 1
12.652422 28.220016 33.785742 45.803160 1.149316 0.741244 0.143037 -0.039654 1192800.000000 0 0 1
12.529022 26.853686 -33.381124 44.636267 1.134252 2.415610 0.139497 -0.040400 -252807.000000 0 0 1
13.755922 26.024666 -33.785594 44.810434 1.084553 2.424877 0.141377 -0.039821 -193605.000000 0 0 1
13.742922 24.664656 -33.468444 43.787555 1.062449 2.440809 0.104142 -0.031799 -95596.800000 0 0 1
13.956822 24.403686 -32.102064 42.671716 1.051284 2.422347 0.099771 -0.028465 -320899.000000 0 0 1
14.003122 22.889086 -31.872594 41.663653 1.021759 2.441834 0.087946 -0.045148 -695295.000000 0 0 1
15.021422 22.182076 -32.495014 42.114292 0.975545 2.452135 0.066963 -0.027383 -473108.000000 0 0 1
14.971722 20.799376 -32.361304 41.279783 0.946895 2.471800 0.067700 -0.027785 363264.000000 0 0 1
16.207622 20.096576 -33.044864 41.934740 0.892113 2.478361 0.094623 -0.039914 162417.000000 0 0 1
17.366622 20.382876 -32.320394 41.972242 0.865131 2.449703 0.110784 -0.043390 -1606190.000000 0 0 1
18.468522 19.915476 -32.986554 42.729677 0.823077 2.452750 0.118083 -0.047587 -1604240.000000 0 0 1
19.662422 19.920676 -32.062104 42.560812 0.791922 2.423899 0.103283 -0.042819 -863193.000000 0 0 1
20.283522 21.186076 -31.994884 43.404420 0.807159 2.399616 0.105796 -0.034043 -616461.000000 0 0 1
21.417622 21.310376 -31.217174 43.443741 0.782888 2.372534 0.093231 -0.025583 -340392.000000 0 0 1
21.144422 21.787076 -29.787514 42.533037 0.800366 2.346668 0.077395 -0.021536 86025.500000 0 0 1
20.707222 23.151516 -29.819624 43.058004 0.841072 2.335808 0.056782 -0.007153 -18687.100000 0 0 1
20.239122 23.743176 -28.614454 42.333763 0.864900 2.313016 0.057604 -0.001231 -269228.000000 0 0 1
21.316922 24.187586 -27.589224 42.433663 0.848400 2.278608 0.044826 -0.000356 -124415.000000 0 0 1
22.080122 25.278056 -28.012254 43.717254 0.852822 2.266284 0.058155 0.001885 -92751.300000 0 0 1
21.321222 26.486746 -28.240514 44.200327 0.893028 2.263891 0.040992 0.007622 -135071.000000 0 0 1
22.230222 27.533276 -28.935414 45.711293 0.891563 2.256223 0.041438 0.005421 4377.630000 0 0 1
22.548722 27.323206 -30.302194 46.617866 0.880842 2.278397 0.046852 0.008092 99867.700000 0 0 1
23.041122 26.073126 -30.830954 46.489235 0.847054 2.295862 0.059570 0.002515 802516.000000 0 0 1
24.437122 25.654236 -30.203324 46.556993 0.809691 2.276722 0.094823 -0.012983 916680.000000 0 0 1
25.529922 26.435346 -30.673754 47.869444 0.802820 2.266309 0.084326 -0.008446 -19425.100000 0 0 1
26.793822 25.940976 -30.314264 48.060355 0.769227 2.253321 0.096744 -0.028741 -491125.000000 0 0 1
27.916222 26.905136 -30.653024 49.424788 0.766957 2.239788 0.074945 -0.012794 -562735.000000 0 0 1
28.170522 27.925056 -29.734474 49.573441 0.781022 2.214056 0.049221 -0.004030 252401.000000 0 0 1
29.209122 28.761796 -30.273464 50.959752 0.777682 2.206901 0.051348 -0.011901 576529.000000 0 0 1
29.327322 30.070876 -29.438724 51.293157 0.797916 2.182094 0.039939 0.001990 3979.150000 0 0 1
29.705322 29.844726 -28.067934 50.605561 0.787739 2.158728 0.062735 -0.010241 -391874.000000 0 0 1
28.716322 30.391966 -27.272794 49.920978 0.813739 2.148760 0.050168 -0.010732 -916040.000000 0 0 1
29.165322 30.753016 -25.840164 49.639481 0.811890 2.118299 0.077288 -0.011851 -313867.000000 0 0 1
29.510622 29.547376 -25.127524 48.737221 0.786021 2.112471 0.066279 -0.007189 632966.000000 0 0 1
28.436622 28.794936 -24.496754 47.306245 0.791659 2.115113 0.070851 -0.003513 469033.000000 0 0 1
27.936322 29.306746 -23.135154 46.632165 0.809334 2.089921 0.078740 0.001153 608391.000000 0 0 1
26.904622 30.337616 -23.262554 46.748006 0.845300 2.091644 0.088294 -0.000258 917333.000000 0 0 1
26.424122 30.664806 -21.965854 46.055003 0.859544 2.067976 0.062873 0.004819 198408.000000 0 0 1
3.639822 -25.970164 -19.609854 32.745138 -1.431549 2.212877 0.114764 -0.022801 834.411000 0 0 1
3.472722 -27.165764 -18.823554 33.231983 -1.443651 2.172962 0.118365 -0.018288 264409.000000 0 0 1
3.333022 -26.788924 -17.446654 32.142514 -1.447014 2.144553 0.118171 -0.018527 -138722.000000 0 0 1
3.350922 -27.951964 -16.435154 32.598393 -1.451484 2.099218 0.106080 -0.019752 491413.000000 0 0 1
4.634622 -28.393784 -15.986754 32.912961 -1.408997 2.077992 0.096767 -0.017184 395120.000000 0 0 1
4.500822 -29.343804 -14.934354 33.231779 -1.418600 2.036890 0.091123 -0.022230 698953.000000 0 0 1
5.906922 -29.993144 -14.696754 33.918653 -1.376342 2.018941 0.109858 -0.020544 1006880.000000 0 0 1
6.851922 -29.007484 -14.194254 33.013025 -1.338836 2.015244 0.092697 -0.012910 449471.000000 0 0 1
8.176922 -29.505264 -14.045254 33.685187 -1.300447 2.000890 0.086958 -0.008137 504412.000000 0 0 1
8.480722 -30.321684 -12.793254 33.985210 -1.298074 1.956743 0.083914 -0.014368 -785770.000000 0 0 1
8.792922 -29.590034 -11.619754 32.983394 -1.281949 1.930814 0.075535 -0.017201 -57665.400000 0 0 1
8.925222 -30.313924 -10.401254 33.268298 -1.284461 1.888775 0.080016 -0.017319 211810.000000 0 0 1
10.156522 -31.230494 -10.294554 34.416225 -1.256373 1.874566 0.078333 -0.014424 710605.000000 0 0 1
11.437222 -30.644204 -10.021054 34.209630 -1.213582 1.868087 0.065084 -0.009070 1167760.000000 0 0 1
12.483722 -31.627484 -9.971454 35.434037 -1.194858 1.856058 0.066476 -0.008727 611247.000000 0 0 1
13.652722 -31.244714 -9.045554 35.276777 -1.158838 1.830109 0.073785 -0.004761 557249.000000 0 0 1
14.497822 -30.098744 -9.398154 34.705137 -1.121916 1.845020 0.088401 -0.011699 537398.000000 0 0 1
15.456322 -29.865084 -8.401154 34.661225 -1.093217 1.815614 0.078344 -0.013526 193302.000000 0 0 1
16.769022 -29.200944 -8.951654 34.842895 -1.049516 1.830625 0.095845 -0.015389 390898.000000 0 0 1
16.717722 -27.784474 -9.228954 33.713985 -1.029133 1.848078 0.106054 -0.015465 177581.000000 0 0 1
15.990122 -27.547334 -10.427154 33.515148 -1.044868 1.887165 0.091922 -0.014739 -85044.000000 0 0 1
15.637722 -26.082704 -10.815454 32.277234 -1.030712 1.912486 0.081042 -0.012272 -772713.000000 0 0 1
14.699522 -25.568214 -9.931954 31.119981 -1.049027 1.895629 0.059640 -0.008274 -54978.400000 0 0 1
14.207722 -24.228974 -10.080854 29.841685 -1.040441 1.915387 0.029103 -0.002122 129812.000000 0 0 1
13.534822 -23.821174 -11.415554 29.680880 -1.054099 1.965581 0.007880 0.005582 -48115.600000 0 0 1
14.396122 -23.406674 -12.462354 30.173349 -1.019389 1.996570 0.008032 -0.002635 181007.000000 0 0 1
13.700022 -23.609274 -13.700154 30.541491 -1.045002 2.035967 0.012033 -0.007933 261146.000000 0 0 1
14.459922 -22.963474 -14.887054 30.952138 -1.008830 2.072557 0.016431 -0.010263 4814.070000 0 0 1
15.528822 -23.765974 -15.334254 32.266162 -0.992031 2.066036 0.025380 -0.016863 -274116.000000 0 0 1
16.106422 -23.189974 -16.501454 32.703054 -0.963743 2.099697 0.019933 -0.022715 258906.000000 0 0 1
17.202822 -24.202474 -17.046354 34.238502 -0.952867 2.091938 0.037515 -0.025547 1079710.000000 0 0 1
18.486922 -24.266174 -16.458154 34.662434 -0.919761 2.065547 0.075697 -0.036429 534858.000000 0 0 1
19.426722 -23.172974 -16.573854 34.482994 -0.873113 2.072179 0.088970 -0.044460 -150899.000000 0 0 1
20.797722 -23.619774 -16.085354 35.343706 -0.848848 2.043295 0.096265 -0.043433 -633852.000000 0 0 1
21.395422 -24.609074 -16.841054 36.701386 -0.855140 2.047516 0.105357 -0.039916 -1088850.000000 0 0 1
22.673922 -24.859174 -16.354854 37.410781 -0.831339 2.023245 0.121229 -0.039078 -452232.000000 0 0 1
23.423022 -25.926754 -17.143754 38.919697 -0.836089 2.026941 0.124470 -0.031210 -206682.000000 0 0 1
23.745022 -25.437844 -18.445454 39.384575 -0.819804 2.058210 0.137479 -0.028124 -44057.100000 0 0 1
24.797322 -26.149144 -19.072354 40.773025 -0.811926 2.057561 0.108810 -0.024986 57341.400000 0 0 1
25.974122 -25.230734 -19.476054 41.116440 -0.770881 2.064261 0.102632 -0.015448 -333676.000000 0 0 1
25.766022 -24.190274 -20.397054 40.805601 -0.753866 2.094232 0.106861 -0.003389 -219638.000000 0 0 1
25.910422 -22.962574 -19.737254 39.852089 -0.725155 2.088934 0.120850 -0.004166 -255905.000000 0 0 1
25.039822 -21.850174 -20.348254 38.967605 -0.717479 2.120206 0.155827 -0.029170 -364528.000000 0 0 1
25.415422 -21.375174 -21.620554 39.626886 -0.699264 2.147905 0.128852 -0.008149 130882.000000 0 0 1
24.973322 -22.126974 -22.756754 40.387370 -0.725040 2.169367 0.093463 -0.004232 171039.000000 0 0 1
24.120122 -21.326474 -23.770254 40.020292 -0.724004 2.206762 0.083448 0.003755 247303.000000 0 0 1
24.946422 -20.499774 -24.571854 40.575124 -0.687864 2.221302 0.067489 0.010260 267551.000000 0 0 1
24.220022 -19.935374 -25.671624 40.534687 -0.688665 2.256638 0.058309 0.002604 -179079.000000 0 0 1
25.003222 -19.367474 -26.842114 41.482035 -0.659060 2.274542 0.063816 -0.004113 -647967.000000 0 0 1
24.180222 -18.569174 -27.639234 41.151241 -0.654890 2.307230 0.065903 -0.008354 -183917.000000 0 0 1
24.762522 -18.136174 -28.861574 42.131862 -0.632144 2.325441 0.075322 -0.014307 -539500.000000 0 0 1
23.938622 -17.240874 -29.760384 41.904485 -0.624162 2.360572 0.109218 -0.020268 -202381.000000 0 0 1
22.741622 -17.804974 -30.307104 41.865487 -0.664242 2.380258 0.090260 -0.023030 653495.000000 0 0 1
22.017622 -16.733974 -30.913494 41.478256 -0.649887 2.411772 0.100546 -0.026358 497296.000000 0 0 1
20.622922 -17.172974 -31.465734 41.355875 -0.694372 2.435423 0.082799 -0.020878 204042.000000 0 0 1
20.740922 -17.857574 -32.683744 42.629871 -0.710836 2.444460 0.075249 -0.017529 1199090.000000 0 0 1
19.530622 -18.464074 -33.229864 42.738637 -0.757335 2.461498 0.076791 -0.020922 828872.000000 0 0 1
19.837022 -19.243474 33.068780 43.097134 -0.770211 0.696163 0.093042 -0.009214 -133742.000000 0 0 1
20.567522 -20.407474 33.360456 44.186061 -0.781492 0.715143 0.093536 -0.006096 -39122.500000 0 0 1
20.690822 -21.202174 32.220048 43.769554 -0.797604 0.743463 0.087955 -0.012674 367404.000000 0 0 1
21.476122 -22.561674 32.463915 44.990651 -0.810044 0.764729 0.074132 -0.007118 314594.000000 0 0 1
20.815422 -23.453274 33.348918 45.776503 -0.844915 0.754643 0.083946 -0.019382 101585.000000 0 0 1
21.006522 -23.164774 -32.838384 45.345785 -0.834220 2.380637 0.086522 -0.021712 -4391.100000 0 0 1
20.027022 -23.831974 -31.825274 44.518453 -0.871936 2.367246 0.091520 -0.024457 -24656.300000 0 0 1
20.150622 -25.220824 -31.625794 45.192127 -0.896685 2.345924 0.099062 -0.030332 725061.000000 0 0 1
21.275522 -25.556764 -30.782534 45.314020 -0.876561 2.317626 0.087070 -0.029087 558385.000000 0 0 1
21.627422 -27.060894 -30.782444 46.342165 -0.896535 2.297277 0.069864 -0.026514 269506.000000 0 0 1
20.524522 -27.856234 -30.325894 46.009625 -0.935796 2.290445 0.074806 -0.025155 386736.000000 0 0 1
20.685122 -29.300794 -30.407644 47.021651 -0.956083 2.274011 0.070620 -0.019391 -331993.000000 0 0 1
19.458622 -30.035074 -29.855324 46.605622 -0.995925 2.266069 0.098522 -0.018929 791396.000000 0 0 1
18.198422 -29.904414 -30.524824 46.445898 -1.024112 2.287911 0.111598 -0.020828 550250.000000 0 0 1
18.071722 -30.757634 -31.684534 47.712984 -1.039580 2.297039 0.127843 -0.033554 563010.000000 0 0 1
16.583522 -31.161654 -32.005274 47.648709 -1.081740 2.307287 0.162940 -0.044646 817258.000000 0 0 1
15.769822 -30.168514 -32.552894 47.101140 -1.089135 2.333844 0.173954 -0.040163 -1057050.000000 0 0 1
14.594022 -30.700764 -33.033674 47.399852 -1.127051 2.341883 0.130648 -0.030078 -795467.000000 0 0 1
13.627222 -29.673954 -33.623504 46.869870 -1.140292 2.370831 0.124896 -0.026554 -1059.800000 0 0 1
12.926322 -28.852544 -32.704104 45.487553 -1.149596 2.373113 0.134215 -0.035348 -385780.000000 0 0 1
11.998422 -28.089414 -33.397704 45.259076 -1.167105 2.400784 0.119841 -0.037649 -244379.000000 0 0 1
10.950522 -27.362114 -32.511244 43.881433 -1.190111 2.405188 0.130117 -0.036944 568926.000000 0 0 1
10.002722 -28.244874 -31.921204 43.781167 -1.230435 2.387814 0.124970 -0.039149 -56235.400000 0 0 1
8.944722 -27.637874 -31.246124 42.663572 -1.257795 2.392613 0.097586 -0.036695 -162125.000000 0 0 1
7.847722 -28.596244 -30.762174 42.727547 -1.302958 2.374543 0.088933 -0.031830 97814.000000 0 0 1
6.813022 -28.923194 -31.675484 43.431610 -1.339458 2.388122 0.077999 -0.026891 16255.200000 0 0 1
6.894722 -30.310604 -31.969854 44.590823 -1.347133 2.370229 0.096162 -0.025035 477337.000000 0 0 1
5.574322 -30.972744 -32.508564 45.245891 -1.392728 2.372420 0.129150 -0.030570 338845.000000 0 0 1
4.718822 -31.297124 -31.468914 44.632609 -1.421149 2.353312 0.143425 -0.049869 -777482.000000 0 0 1
3.618222 -32.022314 -31.909194 45.351039 -1.458283 2.351254 0.169583 -0.067801 -1063850.000000 0 0 1
2.754722 -32.603164 -30.767264 44.913020 -1.486504 2.325456 0.150851 -0.067638 11958.500000 0 0 1
1.878122 -31.653704 -30.178014 43.774386 -1.511532 2.331455 0.123899 -0.053955 867632.000000 0 0 1
0.600122 -31.636004 -30.844554 44.188046 -1.551829 2.343438 0.102916 -0.017595 305642.000000 0 0 1
-0.319378 -30.440554 -30.500254 43.092863 1.560305 2.357147 0.077845 0.000026 -29140.900000 0 0 1
-0.971478 -30.522414 -29.267604 42.298394 1.538979 2.334958 0.052276 -0.006155 -62102.500000 0 0 1
-1.646778 -29.318384 -28.964454 41.245837 1.514687 2.349335 0.121061 -0.012448 474720.000000 0 0 1
-2.500478 -29.396904 -27.612014 40.408584 1.485941 2.323097 0.126364 -0.023861 324576.000000 0 0 1
-1.678978 -29.390104 -26.452574 39.576961 1.513731 2.302829 0.099649 -0.025570 219842.000000 0 0 1
-2.348778 -29.705404 -25.235124 39.047910 1.491891 2.273470 0.111678 -0.035341 195543.000000 0 0 1
-1.284578 -29.951644 -24.147254 38.494688 1.527934 2.248862 0.067082 -0.030879 33216.000000 0 0 1
-1.880078 -30.160464 -22.877154 37.901879 1.508541 2.218791 0.100181 -0.042784 230887.000000 0 0 1
-1.022078 -30.880784 -21.971554 37.913278 1.537711 2.188938 0.082222 -0.037917 346382.000000 0 0 1
-1.580878 -30.732214 -20.537554 36.996747 1.519401 2.159301 0.048825 -0.020344 -38292.200000 0 0 1
-1.531278 -29.387164 -19.967354 35.561854 1.518736 2.166972 0.027760 -0.005058 -590403.000000 0 0 1
-0.253578 -28.862384 -19.812854 35.009294 1.562011 2.172359 0.070313 -0.019623 -636287.000000 0 0 1
-0.203578 -27.389094 -19.206754 33.453001 1.563364 2.182351 0.081820 -0.025109 200131.000000 0 0 1
-0.865078 -27.355254 -17.921454 32.714474 1.539183 2.150546 0.069506 -0.021517 383594.000000 0 0 1
-0.827478 -26.104314 -17.383054 31.373404 1.539108 2.158041 0.083784 -0.023587 -208971.000000 0 0 1
-1.581478 -25.945814 -16.064454 30.557372 1.509919 2.124351 0.074866 -0.021364 -291561.000000 0 0 1
-1.841778 -24.572274 -15.737154 29.237763 1.495983 2.139153 0.078742 -0.017707 84372.700000 0 0 1
-2.683378 -24.502174 -14.619354 28.658028 1.461715 2.106134 0.077585 -0.011953 -339663.000000 0 0 1
-2.377178 -23.412274 -13.559254 27.159509 1.469608 2.093524 0.083503 -0.012709 1316770.000000 0 0 1
-1.093678 -23.571374 -12.860954 26.873964 1.524431 2.069817 0.087357 -0.017620 1349720.000000 0 0 1
-0.837078 -22.556274 -11.958054 25.543712 1.533703 2.057982 0.096760 -0.017244 -464909.000000 0 0 1
0.479322 -22.766574 -11.228354 25.389418 -1.549746 2.028897 0.109086 -0.021049 -384622.000000 0 0 1
0.798022 -21.541574 -10.612954 24.027298 -1.533768 2.028293 0.087321 -0.012221 644729.000000 0 1 0
2.061122 -21.503074 -9.915054 23.768439 -1.475236 2.001106 0.068014 -0.006117 1014930.000000 0 1 0
2.483022 -20.058774 -9.505854 22.335646 -1.447636 2.010411 0.068128 -0.004851 -1026230.000000 0 1 0
2.743122 -19.416174 -10.697454 22.337145 -1.430445 2.070208 0.065236 0.001868 -199932.000000 0 1 0
3.459222 -18.227674 -10.481254 21.308942 -1.383248 2.085034 0.044501 0.001900 296653.000000 0 1 0
4.977122 -18.420874 -10.237154 21.654091 -1.306908 2.063215 0.061425 -0.013165 -589212.000000 0 1 0
5.244622 -18.884974 -8.963654 21.552155 -1.299909 1.999734 0.057796 -0.006972 497886.000000 0 1 0
6.393022 -19.779674 -8.961954 22.636759 -1.258183 1.977847 0.048962 0.008004 474302.000000 0 1 0
6.458822 -20.801974 -7.791154 23.133106 -1.269743 1.914309 0.040949 -0.000683 -39243.200000 0 1 0
5.500722 -21.833674 -8.031754 23.905571 -1.323995 1.913440 0.074564 -0.016974 253746.000000 0 1 0
5.492822 -22.860374 -7.088854 24.556458 -1.334989 1.863640 0.072847 -0.012345 -213723.000000 0 1 0
4.392022 -23.904274 -7.315454 25.381490 -1.389089 1.863164 0.081760 -0.013838 -112452.000000 0 0 1
4.636522 -24.696674 -8.422554 26.502122 -1.385218 1.894212 0.074073 -0.020321 -88235.700000 0 0 1
3.456222 -25.113454 -9.089454 26.930451 -1.434031 1.915073 0.071445 -0.020612 147794.000000 0 0 1
3.641122 -26.062404 -10.258754 28.244445 -1.431987 1.942511 0.071389 -0.024901 -272723.000000 0 0 1
4.037822 -27.348144 -9.929854 29.373917 -1.424210 1.915641 0.067279 -0.031662 -167664.000000 0 0 1
4.870822 -27.873044 -10.948554 30.339781 -1.397793 1.939991 0.090189 -0.022534 193154.000000 0 0 1
4.830122 -29.423064 -10.936954 31.759467 -1.408086 1.922362 0.095482 -0.028033 213348.000000 0 0 1
3.586522 -29.968744 -11.340354 32.242711 -1.451687 1.930202 0.105286 -0.026901 258618.000000 0 0 1
3.638622 -31.331624 -11.139854 33.451556 -1.455182 1.910295 0.101138 -0.026920 -701085.000000 0 0 1
2.391622 -32.027124 -11.608854 34.149993 -1.496260 1.917646 0.085326 -0.032352 -849119.000000 0 0 1
2.156122 -31.938964 -13.017154 34.557092 -1.503391 1.957012 0.083226 -0.029021 102690.000000 0 0 1
1.198022 -32.876264 -13.405754 35.524614 -1.534372 1.957746 0.078257 -0.024504 -381599.000000 0 0 1
0.722122 -32.821704 -14.887754 36.047620 -1.548799 1.996545 0.078070 -0.014074 -48045.400000 0 0 1
-0.245478 -31.825054 -15.087454 35.221096 1.563083 2.013478 0.076862 -0.014303 -100896.000000 0 0 1
-0.657478 -31.637904 -16.440554 35.660637 1.550018 2.049950 0.050574 -0.016392 39331.700000 0 0 1
-1.763678 -30.577754 -16.579254 34.827880 1.513182 2.066936 0.052321 -0.003384 107518.000000 0 0 1
-3.012678 -30.929404 -16.029354 34.966333 1.473698 2.047016 0.057103 -0.007423 -184978.000000 0 0 1
-4.086678 -30.661464 -16.915254 35.255526 1.438293 2.071212 0.057422 0.002560 109882.000000 0 0 1
-5.437678 -30.715404 -16.187854 35.143292 1.395578 2.049495 0.059384 -0.001495 -564086.000000 0 0 1
-5.626378 -29.631374 -15.303254 33.821059 1.383151 2.040337 0.054847 -0.001691 283768.000000 0 0 1
-6.977078 -29.296254 -15.039554 33.662120 1.336996 2.033959 0.074988 -0.004729 415294.000000 0 0 1
-7.829278 -30.105694 -14.034554 34.126516 1.316372 1.994622 0.073761 -0.013987 41047.200000 0 0 1
-7.997478 -31.422044 -14.404754 35.479592 1.321570 1.988870 0.072329 -0.010886 -476719.000000 0 0 1
-8.951078 -31.995554 -13.574054 35.890001 1.298010 1.958661 0.072496 -0.009494 -97118.700000 0 0 1
-9.269978 -33.423264 -14.020754 37.411611 1.300246 1.954945 0.113233 -0.022034 26242.800000 0 0 1
-8.190578 33.399510 -13.701754 37.018251 -1.330312 1.949951 0.099390 -0.022496 199010.000000 0 0 1
-8.286078 32.117741 -14.269354 36.108487 -1.318311 1.977060 0.124874 -0.035780 -257790.000000 0 0 1
-8.291078 -21.715774 -3.186354 23.462090 1.206078 1.707026 0.141226 -0.037097 65567.800000 0 1 0
-7.996678 -20.710874 -4.173954 22.590021 1.202321 1.756634 0.120324 -0.033553 931936.000000 0 1 0
-6.670778 -20.898874 -4.718854 22.439469 1.261825 1.782671 0.120174 -0.028596 1225250.000000 0 1 0
-6.305378 -19.888074 -5.779954 21.649507 1.263778 1.841053 0.105072 -0.034198 268975.000000 0 1 0
-7.070178 -20.254374 -6.931554 22.544922 1.234951 1.883314 0.102743 -0.031732 40425.100000 0 1 0
-6.917378 -19.184474 -7.830154 21.845033 1.224735 1.937394 0.066443 -0.028854 -249771.000000 0 1 0
-7.851878 -19.100974 -9.058754 22.551280 1.180782 1.984164 0.069088 -0.038547 -189544.000000 0 1 0
-7.481978 -19.973374 -10.026254 23.567805 1.212378 2.010224 0.091647 -0.025354 348726.000000 0 1 0
-8.538078 -20.191974 -10.994154 24.525212 1.170752 2.035636 0.097745 -0.025210 672443.000000 0 1 0
-8.114478 -21.110574 -12.155054 25.675794 1.203828 2.063949 0.101937 -0.017521 -10205.000000 0 0 1
-6.952878 -20.694974 -12.858654 25.337116 1.246675 2.103080 0.093420 -0.006726 36435.400000 0 0 1
-6.726778 -21.519474 -13.964954 26.520883 1.267829 2.125351 0.077508 -0.003764 222796.000000 0 0 1
-5.657678 -20.995774 -14.974754 26.402180 1.307581 2.173873 0.066497 0.004933 -505212.000000 0 0 1
-4.355078 -21.076274 -14.477454 25.937862 1.367030 2.162962 0.056946 0.001777 -253939.000000 0 0 1
-3.360278 -20.553974 -15.353354 25.874365 1.408744 2.206049 0.064462 0.008277 310816.000000 0 0 1
-3.256178 -18.960574 -15.483754 24.695196 1.400721 2.248486 0.068001 0.011957 -331470.000000 0 1 0
-4.378278 -18.354174 -16.112154 24.812225 1.336629 2.277544 0.068107 0.007495 205470.000000 0 1 0
-4.281278 -18.382574 -17.508054 25.744520 1.341977 2.318653 0.108736 -0.011243 -1394820.000000 0 0 1
-5.542378 -17.908474 -18.175554 26.110958 1.270662 2.340732 0.106074 -0.008726 -674051.000000 0 0 1
-6.480278 -18.955574 -18.018854 26.944144 1.241386 2.303320 0.088053 -0.006073 -578564.000000 0 0 1
-7.696978 -18.740574 -18.673954 27.553024 1.181090 2.315489 0.083077 -0.012212 -190328.000000 0 0 1
-8.813978 -19.726374 -18.280954 28.302108 1.150597 2.273027 0.109463 -0.017153 -123068.000000 0 0 1
-8.515178 -21.099174 -18.616154 29.398037 1.187209 2.256535 0.123228 -0.014754 485909.000000 0 0 1
-9.600978 -22.021074 -18.518754 30.332338 1.159654 2.227524 0.134096 -0.006630 119975.000000 0 0 1
-9.155978 -23.387874 -19.011354 31.500098 1.197653 2.218721 0.154187 -0.024006 -467840.000000 0 0 1
-8.970578 -23.451474 -20.426554 32.367993 1.205452 2.253731 0.157305 -0.024117 574770.000000 0 0 1
-8.063478 -24.436274 -20.945654 33.179385 1.252067 2.254006 0.184779 -0.048527 1004440.000000 0 0 1
-6.546478 -24.077574 -20.849154 32.515737 1.305323 2.266860 0.182901 -0.033383 -21640.500000 0 0 1
-6.022078 -22.999174 -21.570554 32.101654 1.314707 2.307629 0.223799 -0.058665 108423.000000 0 0 1
-6.081678 -21.677374 -20.890454 30.713294 1.297274 2.318799 0.185566 -0.056054 -281670.000000 0 0 1
-5.210578 -21.501174 -19.607354 29.561782 1.333041 2.295972 0.180473 -0.036341 567096.000000 0 0 1
-3.829578 -21.790274 -19.846654 29.721564 1.396826 2.301982 0.151719 -0.039252 363691.000000 0 0 1
-3.096878 -21.932374 -18.672054 28.970076 1.430522 2.271203 0.092212 -0.032686 268722.000000 0 0 1
-1.770178 -22.732174 -18.789154 29.545178 1.493082 2.260031 0.110370 -0.034496 416511.000000 0 0 1
-0.702478 -22.000874 -19.329454 29.294363 1.538878 2.291396 0.143393 -0.039708 658051.000000 0 0 1
0.572022 -22.673374 -19.374654 29.829286 -1.545573 2.277746 0.108383 -0.037239 796077.000000 0 0 1
1.672322 -21.892274 -20.067154 29.744899 -1.494556 2.311276 0.100676 -0.031366 -360231.000000 0 0 1
1.558222 -21.814274 -21.489954 30.661193 -1.499486 2.347433 0.100285 -0.040184 -622205.000000 0 0 1
2.635122 -21.215574 -22.142054 30.778483 -1.447222 2.373735 0.089633 -0.030953 -766710.000000 0 0 1
2.480722 -21.096474 -23.649954 31.788921 -1.453744 2.409786 0.138624 -0.041241 407556.000000 0 0 1
1.679822 -20.048174 -24.220054 31.485903 -1.487202 2.448439 0.148217 -0.041295 136014.000000 0 0 1
0.289622 -20.143774 -23.966354 31.308811 -1.556420 2.442588 0.176381 -0.045944 10194.900000 0 0 1
-0.560178 -19.169674 -24.864654 31.401293 1.541583 2.484605 0.199340 -0.050765 183109.000000 0 0 1
-0.283578 -17.804074 -24.676454 30.430131 1.554870 2.516522 0.129476 -0.037231 20111.900000 0 0 1
-1.320878 -16.978274 -25.174154 30.393166 1.493155 2.546833 0.166076 -0.051133 369754.000000 0 0 1
-0.948578 -15.480374 -24.917054 29.349640 1.509597 2.584835 0.141555 -0.037212 709652.000000 0 0 1
0.166622 -15.031474 -25.700924 29.774326 -1.559712 2.612352 0.129180 -0.032772 -135874.000000 0 0 1
0.727122 -13.873074 -25.134874 28.718509 -1.518432 2.636677 0.105320 -0.031636 -161487.000000 0 0 1
0.118822 -12.513474 -25.440804 28.351996 -1.561301 2.684455 0.115420 -0.030914 -472057.000000 0 0 1
0.835922 -11.405174 -24.961354 27.456255 -1.497634 2.711991 0.095648 -0.025089 -217163.000000 0 0 1
0.561322 -10.175274 -25.701234 27.647870 -1.515687 2.764100 0.092259 -0.026346 -309502.000000 0 0 1
1.620122 -9.108474 -25.362414 26.997058 -1.394768 2.791821 0.089139 -0.028402 878634.000000 0 0 1
2.973522 -9.230874 -25.793064 27.555998 -1.259164 2.781953 0.085246 -0.027623 152571.000000 0 0 1
3.185322 -9.192974 -27.177894 28.866849 -1.237247 2.797825 0.102264 -0.034439 -834726.000000 0 0 1
4.603922 -8.865074 -27.646394 29.395727 -1.091802 2.794866 0.118537 -0.036179 -384927.000000 0 0 1
5.021622 -7.549074 -27.346714 28.810553 -0.983812 2.821451 0.114179 -0.041753 620644.000000 0 0 1
6.012622 -6.912774 -28.225654 29.675337 -0.854928 2.827731 0.144281 -0.040930 350435.000000 0 0 1
7.359022 -6.801274 -27.447274 29.219264 -0.746030 2.791542 0.161735 -0.039139 132696.000000 0 0 1
7.997922 -8.042074 -27.182574 29.453931 -0.788151 2.746301 0.126517 -0.034824 156214.000000 0 0 1
8.737722 -8.530174 -28.265624 30.790537 -0.773379 2.733797 0.130538 -0.040829 -867461.000000 0 0 1
9.192322 -9.990974 -28.003184 31.120679 -0.827007 2.690166 0.118659 -0.026032 -332367.000000 0 0 1
8.134022 -10.905374 -27.835284 30.982132 -0.929942 2.686978 0.128683 -0.038182 27581.600000 0 0 1
8.409122 -12.078674 -27.035534 30.781939 -0.962628 2.643075 0.124285 -0.035326 -453357.000000 0 0 1
9.432022 -13.115974 -27.511484 31.904131 -0.947350 2.610625 0.115159 -0.039833 -270808.000000 0 0 1
9.000822 -13.832274 -28.643554 33.057522 -0.993921 2.618896 0.135648 -0.050248 -193535.000000 0 0 1
9.922322 -14.820674 -29.020564 34.063147 -0.980840 2.590521 0.124948 -0.046987 -107509.000000 0 0 1
9.453222 -15.684074 -30.220524 35.336011 -1.028374 2.596797 0.122605 -0.050421 -102648.000000 0 0 1
9.414122 -14.799674 -31.307374 35.886038 -1.004252 2.630910 0.149880 -0.055027 373631.000000 0 0 1
8.737322 -15.561674 -32.298304 36.901042 -1.059194 2.636786 0.167552 -0.052112 -588242.000000 0 0 1
7.531322 -14.863174 -32.926044 36.902021 -1.101795 2.673113 0.171542 -0.047950 -442059.000000 0 0 1
7.790122 -13.687974 -33.618574 37.124859 -1.053391 2.703481 0.174700 -0.043989 393046.000000 0 0 1
6.568022 -13.094774 33.517722 36.579362 -1.105889 0.412051 0.199547 -0.055233 395056.000000 0 0 1
6.609322 -11.806774 32.626396 35.320883 -1.060467 0.393131 0.207429 -0.046348 -276611.000000 0 0 1
7.188322 -12.051274 31.377262 34.372049 -1.032970 0.420533 0.192885 -0.039183 261017.000000 0 0 1
7.272622 -10.885374 30.554192 33.240654 -0.981795 0.404799 0.186084 -0.035797 55259.100000 0 0 1
7.891922 -11.047274 29.142852 32.150125 -0.950486 0.435968 0.176233 -0.029004 -331553.000000 0 0 1
7.029122 -11.717474 28.308672 31.433878 -1.030462 0.449698 0.168957 -0.028261 54337.200000 0 0 1
7.648022 -11.826274 27.007342 30.458981 -0.996746 0.480683 0.127784 -0.025680 -104110.000000 0 0 1
6.880722 -12.629674 25.939752 29.660137 -1.071950 0.506256 0.116198 -0.043295 -255944.000000 0 0 1
6.723722 -13.968974 26.197032 30.440519 -1.122194 0.534355 0.116961 -0.035689 -56161.100000 0 0 1
6.292122 -14.758574 25.069752 29.764052 -1.167794 0.569292 0.080259 -0.034279 -45061.000000 0 0 1
4.759222 -14.960574 25.040112 29.554631 -1.262802 0.560013 0.088302 -0.039037 218477.000000 0 0 1
4.006122 -13.720274 25.065602 28.854451 -1.286708 0.518243 0.073678 -0.046130 1023070.000000 0 0 1
2.606122 -14.069974 25.038142 28.838596 -1.387646 0.519200 0.079980 -0.044954 1101200.000000 0 0 1
1.622622 -12.894774 24.890572 28.079328 -1.445619 0.481206 0.108300 -0.041574 -648383.000000 0 0 1
1.792822 -12.108274 23.699922 26.674160 -1.423798 0.476736 0.056965 -0.031877 25106.800000 0 0 1
0.682722 -11.246574 23.443122 26.010219 -1.510166 0.448025 0.069192 -0.019108 1178280.000000 0 0 1
-0.650678 -11.976674 23.061052 25.993773 1.516521 0.479608 0.088186 -0.006577 -360640.000000 0 0 1
-0.599678 -12.566574 21.756052 25.131737 1.523112 0.524288 0.076769 -0.018936 -155323.000000 0 0 1
-1.846478 -12.921274 21.190552 24.887915 1.428855 0.552072 0.101660 -0.037018 110920.000000 0 1 0
-1.752978 -13.556574 19.782552 24.045852 1.442202 0.604650 0.122301 -0.039606 -24578.800000 0 1 0
-1.319078 -14.900474 19.876152 24.876204 1.482501 0.645162 0.132500 -0.042996 -274315.000000 0 1 0
-1.280978 -15.679374 18.712152 24.446438 1.489279 0.699080 0.134928 -0.036529 -124813.000000 0 1 0
-2.595078 -16.424574 18.457752 24.843302 1.414092 0.733304 0.123297 -0.051025 -139344.000000 0 1 0
-2.464878 -17.430474 17.470652 24.801628 1.430316 0.789197 0.095899 -0.046987 -744989.000000 0 1 0
-3.568578 -18.259074 17.592352 25.605066 1.377788 0.813354 0.107779 -0.039061 -500466.000000 0 0 1
-3.443478 -19.579474 16.777452 26.013386 1.396705 0.869832 0.107205 -0.041369 73361.800000 0 0 1
-2.385678 -20.352174 17.304052 26.820378 1.454109 0.869534 0.106893 -0.044792 -111493.000000 0 0 1
-2.257878 -21.631974 16.814252 27.491078 1.466796 0.912682 0.099115 -0.062386 536433.000000 0 0 1
-1.120078 -22.377574 17.607352 28.496127 1.520784 0.904745 0.115577 -0.049261 358120.000000 0 0 1
0.169522 -22.214074 17.107652 28.038644 -1.563165 0.914552 0.117967 -0.052422 -683152.000000 0 0 1
1.106422 -23.106774 17.709252 29.133568 -1.522950 0.917428 0.141983 -0.035228 1231970.000000 0 0 1
2.429922 -23.137874 16.841352 28.721018 -1.466161 0.944217 0.137746 -0.043207 692922.000000 0 0 1
3.206922 -21.963474 16.903852 27.900157 -1.425809 0.919938 0.136267 -0.049200 294062.000000 0 0 1
4.345822 -22.052674 16.022852 27.603232 -1.376224 0.951490 0.130957 -0.041584 1202250.000000 0 0 1
5.448922 -20.974274 16.345452 27.143779 -1.316624 0.924567 0.113768 -0.028909 -121683.000000 0 0 1
6.278122 -21.299974 17.472252 28.255677 -1.284165 0.904139 0.119040 -0.018154 361661.000000 0 0 1
6.847422 -20.169374 18.202352 28.018145 -1.243510 0.863655 0.112304 -0.018152 270528.000000 0 0 1
7.801822 -19.287674 17.418652 27.134705 -1.186419 0.873780 0.104893 -0.015793 -158354.000000 0 0 1
7.032622 -18.417474 16.494952 25.704952 -1.206038 0.874079 0.092227 -0.015064 907177.000000 0 0 1
7.878022 -17.535474 15.754552 24.854818 -1.148556 0.884259 0.121129 -0.023253 -271700.000000 0 1 0
7.059822 -16.612674 14.900052 23.405845 -1.168954 0.880721 0.063719 -0.017687 -386770.000000 0 1 0
6.451422 -17.335374 13.848352 23.106555 -1.214523 0.928138 0.074974 -0.017618 238673.000000 0 1 0
5.576422 -16.424874 13.176552 21.782895 -1.243496 0.921151 0.039835 -0.010919 124920.000000 0 1 0
5.893822 -16.359174 11.681452 20.947936 -1.224996 0.979254 0.032534 -0.020507 -642797.000000 0 1 0
7.107322 -15.750474 11.436652 20.721691 -1.146908 0.986135 0.044037 -0.023517 -868053.000000 0 1 0
7.754822 -16.344674 10.344052 20.839507 -1.127792 1.051387 0.045282 -0.014373 -299575.000000 0 1 0
9.132122 -15.762974 10.078152 20.819130 -1.045706 1.065483 0.047497 -0.018425 -247915.000000 0 1 0
9.994322 -16.331974 9.127352 21.211516 -1.021638 1.125969 0.060053 -0.012289 -753417.000000 0 1 0
11.244822 -15.712774 9.115452 21.364193 -0.949645 1.129989 0.052397 -0.007745 -290993.000000 0 1 0
12.234322 -16.473674 8.211552 22.101814 -0.932010 1.190137 0.066248 -0.020053 -359399.000000 0 1 0
12.754722 -17.612274 8.834852 23.471893 -0.944016 1.184887 0.092842 -0.025472 241694.000000 0 1 0
13.529022 -18.383474 7.890652 24.150548 -0.936358 1.237957 0.098816 -0.018856 114577.000000 0 1 0
14.186122 -19.656274 8.494252 25.685940 -0.945648 1.233755 0.098663 -0.015669 -314548.000000 0 0 1
13.382622 -20.754474 8.768352 26.205472 -0.998081 1.229616 0.101168 -0.016770 -202796.000000 0 0 1
14.157522 -21.824174 9.308952 27.629452 -0.995330 1.227151 0.084045 -0.005917 -188081.000000 0 0 1
13.326822 -22.830474 10.054052 28.282834 -1.042426 1.207366 0.096998 -0.011381 -252351.000000 0 0 1
12.928122 -22.296574 11.281052 28.134244 -1.045343 1.158218 0.103523 -0.014401 159832.000000 0 0 1
12.038622 -23.145274 12.058852 28.741052 -1.091172 1.137826 0.130558 -0.023445 371089.000000 0 0 1
12.520422 -24.552974 12.554052 30.285537 -1.099232 1.143378 0.100103 -0.022303 91379.900000 0 0 1
13.611922 -24.472674 13.460052 31.070391 -1.063199 1.122743 0.071492 -0.025173 204256.000000 0 0 1
13.750522 -25.741544 13.965852 32.353500 -1.080183 1.124459 0.073698 -0.037432 -255586.000000 0 0 1
14.842222 -25.872644 15.022052 33.396816 -1.049966 1.104249 0.062518 -0.031968 -264173.000000 0 0 1
14.492622 -25.328514 16.272352 33.411961 -1.051079 1.062120 0.062090 -0.028147 502547.000000 0 0 1
15.463322 -25.806624 17.197752 34.653410 -1.030965 1.051489 0.059873 -0.030223 -104620.000000 0 0 1
15.449722 -25.041664 18.552852 34.784870 -1.017999 1.008229 0.082565 -0.026422 278215.000000 0 0 1
16.093522 -23.751074 18.506752 34.141102 -0.975269 0.997902 0.081619 -0.030314 156335.000000 0 0 1
17.413522 -23.667674 19.002652 34.992718 -0.936477 0.996736 0.088639 -0.028352 10648.900000 0 0 1
17.858722 -22.240174 19.330852 34.456366 -0.894233 0.975174 0.103445 -0.033064 -52022.900000 0 0 1
18.116422 -21.381074 18.229652 33.431651 -0.867865 0.994072 0.090645 -0.031657 198816.000000 0 0 1
16.919722 -20.722374 17.888952 32.182424 -0.886078 0.981398 0.093961 -0.026733 -545645.000000 0 0 1
17.073722 -19.812274 16.638152 30.997843 -0.859506 1.004214 0.084796 -0.025391 -194207.000000 0 0 1
17.828122 -18.621374 16.754952 30.746153 -0.807158 0.994473 0.088790 -0.032735 190611.000000 0 0 1
19.213922 -18.929374 16.627452 31.685457 -0.777938 1.018356 0.085008 -0.033492 -60797.800000 0 0 1
20.085022 -17.642974 16.756252 31.550826 -0.720761 1.010913 0.094145 -0.037338 -161375.000000 0 0 1
20.135622 -17.097374 18.076452 32.008149 -0.703978 0.970672 0.089745 -0.030542 43398.600000 0 0 1
20.783922 -15.865974 18.121252 31.813210 -0.652008 0.964760 0.085735 -0.034440 -328013.000000 0 0 1
21.384022 -15.451474 19.491452 32.801542 -0.625714 0.934496 0.072943 -0.020575 -543577.000000 0 0 1
22.516822 -16.201774 19.769652 34.063821 -0.623721 0.951612 0.071108 -0.025717 -632929.000000 0 0 1
22.840122 -16.139874 21.188752 35.087461 -0.615172 0.922431 0.053290 -0.009385 138666.000000 0 0 1
35.572644 -1.548374 -7.608154 36.410088 -0.043500 1.781305 0.166089 -0.024571 609629.000000 0 0 1
36.813664 -1.172874 -8.218754 37.738169 -0.031849 1.790339 0.176895 -0.028357 229769.000000 0 0 1
37.707814 -2.236974 -8.175754 38.648755 -0.059254 1.783947 0.205009 -0.038265 728246.000000 0 0 1
-36.315798 -1.952874 -8.657454 37.384521 0.053723 1.804496 0.202037 -0.046994 1047540.000000 0 0 1
-35.494765 -3.081174 -8.521754 36.633212 0.086589 1.805571 0.231051 -0.036412 -120942.000000 0 0 1
-34.235648 -2.950874 -9.151554 35.560346 0.085981 1.831078 0.278512 -0.047247 85288.300000 0 0 1
-33.216298 -4.015574 -8.689454 34.568105 0.120308 1.824894 0.276718 -0.045042 -214745.000000 0 0 1
-32.594268 -3.690974 -7.459854 33.640140 0.112760 1.794410 0.272061 -0.044617 -290338.000000 0 0 1
-31.378948 -4.345474 -7.328154 32.514971 0.137609 1.798127 0.270029 -0.051917 -601462.000000 0 0 1
-30.824138 -4.180274 -5.890054 31.659041 0.134795 1.757933 0.267481 -0.069647 -200590.000000 0 0 1
-30.502868 -2.882774 -5.429554 31.116160 0.094228 1.746187 0.235820 -0.063654 510757.000000 0 0 1
-30.202758 -2.886674 -4.026954 30.606467 0.095287 1.702751 0.229880 -0.061827 -79365.700000 0 0 1
-29.863428 -1.528874 -3.362154 30.090960 0.051151 1.682763 0.221562 -0.060499 100753.000000 0 0 1
-28.577228 -0.976874 -3.616554 28.821723 0.034170 1.696608 0.206903 -0.049363 667777.000000 0 0 1
-28.573408 0.314826 -2.976854 28.729783 -0.011018 1.674598 0.231344 -0.068750 -668507.000000 0 0 1
-27.146938 0.812926 -2.794154 27.302461 -0.029936 1.673317 0.252258 -0.049564 -574876.000000 0 0 1
-26.598088 0.166926 -1.643054 26.649311 -0.006276 1.632490 0.228557 -0.052083 55609.200000 0 0 1
-25.214488 0.397626 -1.525954 25.263749 -0.015768 1.631234 0.207274 -0.049111 -68666.000000 0 0 1
-24.588778 -0.223974 -0.264054 24.591216 0.009109 1.581534 0.183964 -0.050081 -8227.010000 0 1 0
-24.562978 -1.641274 -0.323454 24.619876 0.066720 1.583935 0.178952 -0.045343 326021.000000 0 1 0
-23.804278 -2.088074 0.808046 23.909342 0.087494 1.536994 0.142475 -0.034252 58199.600000 0 1 0
-23.577578 -3.623974 0.834246 23.869045 0.152511 1.535838 0.115739 -0.014444 317384.000000 0 1 0
-24.760178 -4.370174 1.127546 25.168158 0.174701 1.525981 0.125530 -0.022366 571936.000000 0 0 1
-24.442078 -5.743974 1.185446 25.135904 0.230815 1.523617 0.088026 -0.003639 690969.000000 0 0 1
-25.712478 -6.633874 1.497246 26.596645 0.252496 1.514472 0.129483 -0.007770 749936.000000 0 0 1
-26.080298 -6.438074 2.858846 27.014880 0.242017 1.464773 0.129271 -0.013078 632309.000000 0 0 1
-27.240448 -7.229774 3.162946 28.360463 0.259425 1.459037 0.165958 -0.013742 563716.000000 0 0 1
-27.555918 -7.495474 4.668846 28.936290 0.265584 1.408739 0.147571 -0.022443 176287.000000 0 0 1
-26.585848 -8.316074 5.326146 28.360751 0.303159 1.381875 0.149336 -0.010377 168456.000000 0 0 1
-26.876128 -8.767874 6.648946 29.041528 0.315347 1.339801 0.119845 -0.021189 -435902.000000 0 0 1
-26.451898 -7.838874 7.804246 28.671538 0.288100 1.295123 0.106510 -0.008605 -511944.000000 0 0 1
-25.059218 -7.700174 7.842946 27.363642 0.298121 1.280100 0.128022 -0.014730 -493156.000000 0 0 1
-24.827978 -6.424874 8.349546 26.970769 0.253221 1.256048 0.121215 -0.026951 -569997.000000 0 0 1
-23.498078 -5.839674 7.863346 25.457684 0.243582 1.256782 0.157525 -0.038615 -199042.000000 0 0 1
-22.378578 -6.500474 8.418546 24.777587 0.282698 1.224130 0.157043 -0.049322 154902.000000 0 1 0
-21.175978 -6.032274 7.831846 23.369813 0.277513 1.229057 0.144216 -0.040866 -28543.900000 0 1 0
-19.894278 -6.467874 8.537346 22.594290 0.314333 1.183319 0.168958 -0.050820 -269110.000000 0 1 0
-19.564178 -5.596774 9.601246 22.500330 0.278631 1.129938 0.137758 -0.042959 733573.000000 0 1 0
-18.355578 -5.944974 10.287646 21.865626 0.313217 1.080946 0.126070 -0.057028 202106.000000 0 1 0
-17.904878 -4.824174 11.283646 21.706634 0.263184 1.024151 0.101825 -0.040975 -645496.000000 0 1 0
-18.623278 -4.897074 12.439146 22.924663 0.257133 0.997255 0.094092 -0.037599 -88127.600000 0 1 0
-19.255578 -3.631274 12.718746 23.360863 0.186394 0.995067 0.119856 -0.028639 53047.000000 0 1 0
-20.521478 -3.816074 13.579446 24.901703 0.183855 0.994023 0.127023 -0.034023 -323605.000000 0 1 0
-20.222878 -4.323574 14.820846 25.442397 0.210625 0.948964 0.122618 -0.034024 423872.000000 0 0 1
-21.314478 -4.242074 15.756746 26.843569 0.196456 0.943468 0.107991 -0.013752 419801.000000 0 0 1
-21.051078 -4.844574 17.170446 27.594238 0.226196 0.899186 0.098159 -0.009715 368911.000000 0 0 1
-22.120178 -4.454674 18.054346 28.898197 0.198727 0.895976 0.093010 -0.006946 944657.000000 0 0 1
-22.061978 -5.237274 19.213046 29.720381 0.233075 0.867861 0.103497 -0.001800 1456.360000 0 0 1
-23.183178 -4.890574 20.235246 31.158348 0.207905 0.863958 0.111633 -0.007520 -145514.000000 0 0 1
-23.181378 -3.545674 20.670646 31.260577 0.151777 0.848330 0.120096 -0.018206 174603.000000 0 0 1
-23.949778 -3.341874 21.832346 32.579308 0.138642 0.836413 0.117890 -0.020227 -173613.000000 0 0 1
-23.953778 -1.877174 22.336146 32.805650 0.078207 0.821856 0.103362 -0.014365 -47394.900000 0 0 1
-24.937678 -1.125874 21.666246 33.054222 0.045117 0.855984 0.110638 -0.015624 -106564.000000 0 0 1
-24.851978 0.269626 21.937346 33.150274 -0.010849 0.847640 0.107860 -0.022243 -195874.000000 0 0 1
-26.050338 1.134226 21.488046 33.788203 -0.043512 0.881541 0.109595 -0.021695 859303.000000 0 0 1
-27.172608 1.042326 22.403146 35.232627 -0.038341 0.881669 0.103560 -0.020631 137300.000000 0 0 1
-28.347218 1.542426 21.870946 35.836882 -0.054358 0.914368 0.088083 -0.014461 -558427.000000 0 0 1
-29.493658 1.672826 22.873646 37.361449 -0.056657 0.911924 0.075718 -0.009890 -205264.000000 0 0 1
-29.154478 2.576126 23.851046 37.755694 -0.088132 0.887026 0.070632 -0.007354 117388.000000 0 0 1
-29.921258 2.207626 24.984446 39.043281 -0.073648 0.876407 0.070178 -0.011230 -65942.200000 0 0 1
-29.685088 3.061126 26.250546 39.745013 -0.102757 0.849347 0.090671 -0.021174 -80415.300000 0 0 1
-28.441438 2.874626 26.876446 39.236746 -0.100730 0.816218 0.073688 -0.024688 -16734.900000 0 0 1
-28.088558 3.748526 27.877146 39.751148 -0.132670 0.793589 0.070492 -0.027480 628058.000000 0 0 1
-26.773078 3.323626 28.650746 39.353646 -0.123509 0.755348 0.082363 -0.030168 735005.000000 0 0 1
-26.942078 2.244326 29.552846 40.053505 -0.083110 0.740940 0.078908 -0.028257 382836.000000 0 0 1
-25.745618 2.044926 30.265146 39.786903 -0.079262 0.706435 0.064875 -0.034746 239216.000000 0 0 1
-26.049648 0.917826 31.322646 40.749659 -0.035219 0.694052 0.057721 -0.025998 123810.000000 0 0 1
-26.470048 -0.310774 30.698046 40.535540 0.011740 0.711609 0.040906 -0.033256 120928.000000 0 0 1
-26.893888 -1.270474 31.582146 41.500931 0.047205 0.705945 0.055386 -0.031605 -1128400.000000 0 0 1
-27.263108 -2.636574 30.982046 41.353546 0.096409 0.723944 0.063787 -0.029628 1196580.000000 0 0 1
-28.598228 -2.725074 30.402346 41.828068 0.095001 0.757086 0.080401 -0.030378 1286780.000000 0 0 1
-28.816578 -1.760174 29.342846 41.164256 0.061006 0.777281 0.066716 -0.025551 -1134490.000000 0 0 1
-30.271548 -1.524074 28.896546 41.877199 0.050304 0.809265 0.080922 -0.024816 7156.300000 0 0 1
-31.092058 -1.083874 29.944846 43.180837 0.034846 0.804495 0.106531 -0.009946 -654789.000000 0 0 1
-32.394588 -0.845974 29.475546 43.805625 0.026109 0.832713 0.107632 -0.020229 119244.000000 0 0 1
-33.398298 -0.392074 30.570046 45.278336 0.011739 0.829617 0.127423 -0.024981 180731.000000 0 0 1
-33.672178 -1.420274 31.501046 46.131861 0.042154 0.819142 0.125466 -0.022276 -283088.000000 0 0 1
-34.491298 -1.033174 32.567546 47.448521 0.029946 0.814302 0.140511 -0.024141 -74331.600000 0 0 1
-34.958450 -2.192074 33.475046 48.450770 0.062623 0.808051 0.137636 -0.025018 206225.000000 0 0 1
-36.058198 -2.903774 32.935946 48.922409 0.080357 0.832230 0.106812 -0.033478 8564.620000 0 0 1
-36.163308 -4.148874 33.536046 49.494084 0.114227 0.826333 0.100306 -0.028306 336621.000000 0 0 1
-37.375478 -4.958074 32.983446 50.094077 0.131886 0.852065 0.094394 -0.024166 614988.000000 0 0 1
36.900344 -4.573574 33.560946 50.088822 -0.123315 0.836549 0.086279 -0.034855 -230313.000000 0 0 1
35.737534 -5.087274 32.966146 48.885770 -0.141401 0.830711 0.081493 -0.035561 -56292.300000 0 0 1
34.418074 -4.620174 33.647246 48.353769 -0.133439 0.801186 0.092301 -0.036426 -38778.800000 0 0 1
34.075474 -5.270574 -32.765960 47.566007 -0.153457 2.330701 0.088168 -0.042299 108229.000000 0 0 1
33.612654 -6.634374 -32.842560 47.460080 -0.194872 2.335058 0.084526 -0.038771 -22356.400000 0 0 1
32.225014 -6.956474 -33.472260 46.981233 -0.212609 2.363794 0.100451 -0.041941 321743.000000 0 0 1
31.209724 -6.539374 -32.555760 45.570690 -0.206542 2.366564 0.127426 -0.046753 556734.000000 0 0 1
29.943954 -7.126274 -32.884060 45.042042 -0.233641 2.389228 0.126417 -0.042933 -79959.800000 0 0 1
28.826154 -6.718674 -31.957160 43.558556 -0.228988 2.394489 0.117308 -0.044148 -670914.000000 0 0 1
27.574254 -7.106674 -32.453260 43.174743 -0.252239 2.421390 0.095772 -0.042329 24919.900000 0 0 1
26.489254 -6.656474 -31.649760 41.805461 -0.246192 2.429617 0.103036 -0.042031 614833.000000 0 0 1
25.073554 -7.044874 -32.186860 41.404195 -0.273906 2.461289 0.097951 -0.046970 413922.000000 0 0 1
24.799154 -8.433874 -32.171860 41.486828 -0.327817 2.458258 0.101742 -0.052442 308403.000000 0 0 1
24.097454 -8.839174 -30.996460 40.244240 -0.351571 2.449965 0.116797 -0.053685 -183279.000000 0 0 1
23.929254 -10.331674 -30.869760 40.401668 -0.407582 2.440397 0.109749 -0.044813 109477.000000 0 0 1
23.125054 -10.976874 -31.859960 40.869511 -0.443183 2.464749 0.125610 -0.058470 -153488.000000 0 0 1
23.003054 -12.344174 -31.544860 40.946274 -0.492522 2.450259 0.115777 -0.040346 -715866.000000 0 0 1
21.827454 -13.061174 -32.285360 41.102026 -0.539230 2.474289 0.091838 -0.030845 857990.000000 0 0 1
20.503854 -12.592774 -32.031760 40.062697 -0.550771 2.497327 0.075378 -0.025994 358295.000000 0 0 1
20.254354 -11.272474 -32.444060 39.873858 -0.507855 2.521230 0.073731 -0.032895 -1191270.000000 0 0 1
18.915454 -10.756274 -31.847660 38.571561 -0.517049 2.542198 0.056126 -0.033208 1265480.000000 0 0 1
17.727454 -11.076774 -32.621260 38.744086 -0.558482 2.571716 0.038020 -0.009615 -311100.000000 0 0 1
16.585854 -10.782074 -31.937760 37.568128 -0.576429 2.587027 0.089982 -0.022843 -1299310.000000 0 0 1
15.314854 -11.190374 -32.657360 37.766022 -0.631026 2.615406 0.086390 -0.017178 -915817.000000 0 0 1
15.063554 -12.591674 -32.714760 38.153852 -0.696253 2.601076 0.101473 -0.017311 272396.000000 0 0 1
13.916954 -13.027074 -33.433860 38.486482 -0.752383 2.623402 0.097367 -0.023425 264405.000000 0 0 1
12.616354 -13.103274 -32.586760 37.319769 -0.804328 2.632479 0.097401 -0.021707 -267886.000000 0 0 1
12.200054 -11.850374 -32.188760 36.405892 -0.770860 2.655497 0.183657 -0.028910 -813270.000000 0 0 1
11.109454 -12.052074 -31.350760 35.377148 -0.826073 2.659845 0.173330 -0.037370 -83978.800000 0 0 1
9.840554 -11.210874 -31.683460 35.019450 -0.850400 2.701563 0.172790 -0.033705 54576.300000 0 0 1
9.928054 -9.823274 -31.448160 34.410024 -0.780093 2.723646 0.168293 -0.031990 -39471.900000 0 0 1
8.856854 -9.062574 -31.947560 34.368892 -0.796878 2.763983 0.157051 -0.032016 -197169.000000 0 0 1
9.228654 -7.559674 -31.965160 34.118737 -0.686311 2.784394 0.168974 -0.030506 25239.600000 0 0 1
9.219854 -6.914074 -30.761660 32.849503 -0.643444 2.783144 0.170351 -0.041807 369701.000000 0 0 1
9.777254 -5.640074 -31.020360 33.010118 -0.523228 2.792615 0.131711 -0.035438 -151224.000000 0 0 1
9.591854 -4.671774 -29.814660 31.666119 -0.453239 2.797945 0.122527 -0.030503 1108560.000000 0 0 1
8.181554 -4.397874 -29.626160 31.048164 -0.493223 2.837771 0.145815 -0.038554 1070950.000000 0 0 1
8.030554 -3.331674 -28.676160 29.965180 -0.393263 2.847214 0.143215 -0.034782 -101817.000000 0 0 1
6.625754 -2.792774 -28.381360 29.278009 -0.398905 2.893468 0.125573 -0.030647 -1426720.000000 0 0 1
6.005854 -2.016874 -29.390960 30.066038 -0.323985 2.929283 0.117283 -0.023800 154049.000000 0 0 1
4.674854 -1.616774 -29.158460 29.575058 -0.332968 2.973549 0.123425 -0.028958 184663.000000 0 0 1
3.605854 -2.718074 -29.147060 29.494766 -0.645925 2.987892 0.121653 -0.033353 -918206.000000 0 0 1
3.799154 -3.586474 -28.059060 28.541325 -0.756610 2.957501 0.124182 -0.032553 -737859.000000 0 0 1
2.742154 -4.483774 -27.881860 28.372906 -1.021911 2.955276 0.117926 -0.028826 -148544.000000 0 0 1
2.853054 -5.334774 -26.609760 27.288809 -1.079695 2.918041 0.093919 -0.031423 -142358.000000 0 0 1
2.605754 -4.683274 -25.337760 25.898361 -1.063056 2.933147 0.081981 -0.037306 -223153.000000 0 0 1
2.852654 -5.567874 -24.256560 25.050341 -1.097324 2.889180 0.080480 -0.046863 -122676.000000 0 0 1
2.841854 -4.852874 -22.893560 23.574173 -1.041031 2.900715 0.096847 -0.051741 431559.000000 0 1 0
4.008054 -4.056474 -22.695160 23.400636 -0.791402 2.895420 0.095223 -0.045911 276043.000000 0 1 0
4.038354 -3.572674 -21.392860 22.061885 -0.724289 2.894694 0.084360 -0.042702 273418.000000 0 1 0
5.049954 -2.378174 -21.238560 21.959831 -0.440122 2.884585 0.090337 -0.039752 287361.000000 0 1 0
6.378854 -2.850574 -21.168960 22.292161 -0.420255 2.822800 0.101699 -0.031747 -579267.000000 0 1 0
7.078154 -1.942474 -20.355760 21.638633 -0.267838 2.795525 0.103431 -0.035861 -439926.000000 0 1 0
8.503454 -2.440974 -20.089360 21.951070 -0.279540 2.726771 0.126364 -0.039499 -851078.000000 0 1 0
9.292854 -2.466174 -21.253460 23.326996 -0.259404 2.716766 0.139050 -0.047108 463495.000000 0 1 0
10.598154 -3.029674 -21.111960 23.816269 -0.278442 2.660417 0.130707 -0.042204 982442.000000 0 1 0
11.713954 -2.197774 -20.440760 23.661606 -0.185464 2.613717 0.117784 -0.038001 -507911.000000 0 1 0
11.540954 -1.971574 -19.035360 22.347834 -0.169199 2.590163 0.118660 -0.032086 510809.000000 0 1 0
12.624554 -1.303674 -18.374360 22.331503 -0.102900 2.537117 0.127286 -0.033550 265517.000000 0 1 0
12.859854 0.207126 -18.601360 22.614804 0.016105 2.536642 0.112342 -0.030013 -112608.000000 0 1 0
13.312454 0.597626 -19.868060 23.923177 0.044862 2.550791 0.116199 -0.038696 107871.000000 0 1 0
13.305254 2.015226 -19.982560 24.091360 0.150318 2.548917 0.133906 -0.043139 -153956.000000 0 1 0
13.948154 2.623526 -21.232960 25.539626 0.185919 2.552370 0.138288 -0.047048 -930664.000000 0 0 1
15.336054 2.629026 -21.295360 26.374205 0.169778 2.510581 0.146976 -0.051753 -520551.000000 0 0 1
15.775154 3.424526 -22.399260 27.609957 0.213767 2.517125 0.140175 -0.050291 -518189.000000 0 0 1
17.214654 3.067826 -22.752560 28.695555 0.176359 2.486342 0.119491 -0.046877 -661874.000000 0 0 1
17.313754 1.769926 -23.293460 29.077208 0.101873 2.499910 0.101247 -0.043054 -155890.000000 0 0 1
18.536054 1.434926 -23.906060 30.284386 0.077259 2.480604 0.098496 -0.036369 -182988.000000 0 0 1
10.735222 27.020026 3.068046 29.235932 1.192614 1.465662 0.039599 -0.018041 4245.290000 0 0 1
10.498922 27.082226 4.446946 29.384514 1.200966 1.418876 0.051577 -0.017374 208468.000000 0 0 1
11.609922 27.630926 5.156646 30.411336 1.173017 1.400410 0.050873 -0.010006 -199457.000000 0 0 1
11.405822 28.225126 6.547246 31.138673 1.186759 1.358954 0.048717 -0.022327 -346542.000000 0 0 1
11.282022 27.253326 7.532546 30.442849 1.178306 1.320767 0.047093 -0.024103 46037.400000 0 0 1
11.271422 27.819226 8.785646 31.275260 1.185844 1.286050 0.043880 -0.022103 -241567.000000 0 0 1
10.858622 26.764426 9.884446 30.527798 1.185376 1.241069 0.057929 -0.022788 1427060.000000 0 0 1
11.939722 25.853626 10.350446 30.300143 1.138156 1.222180 0.068361 -0.021526 1439550.000000 0 0 1
12.590122 25.032626 9.363646 29.543551 1.104793 1.248291 0.069704 -0.027121 -92414.300000 0 0 1
13.875522 24.457726 10.008046 29.847470 1.054748 1.228866 0.082626 -0.028448 879952.000000 0 0 1
14.912422 25.506626 10.085046 31.219809 1.041741 1.241863 0.096510 -0.032381 1225200.000000 0 0 1
16.041422 25.092126 10.868646 31.702831 1.001979 1.220870 0.104860 -0.037871 357359.000000 0 0 1
17.088122 26.204126 10.979346 33.154279 0.992935 1.233264 0.103054 -0.042023 -902663.000000 0 0 1
17.838922 26.586826 9.816246 33.487985 0.979821 1.273300 0.093582 -0.052415 1308740.000000 0 0 1
19.229422 26.210526 9.792846 33.950879 0.937840 1.278197 0.107721 -0.056360 1060300.000000 0 0 1
20.126522 26.918926 10.814046 35.307918 0.928787 1.259515 0.103675 -0.058862 -921158.000000 0 0 1
20.472222 28.343326 10.624946 36.542379 0.945264 1.275779 0.111051 -0.067951 -275591.000000 0 0 1
19.436222 29.184226 10.993046 36.746875 0.983267 1.266988 0.093353 -0.049934 -638804.000000 0 0 1
19.776022 30.648826 11.124446 38.133907 0.997771 1.274771 0.088936 -0.044523 -990108.000000 0 0 1
20.099322 31.360026 9.941146 38.552048 1.000830 1.309987 0.107097 -0.062831 331058.000000 0 0 1
19.181622 31.355126 8.823546 37.801237 1.021779 1.335203 0.127514 -0.062608 1752450.000000 0 0 1
17.656122 31.724726 9.084146 37.426175 1.062945 1.325626 0.110647 -0.050022 631303.000000 0 0 1
17.513522 33.094526 9.259946 38.570944 1.084065 1.328353 0.096329 -0.044990 413096.000000 0 0 1
16.153122 33.498826 9.398746 38.359238 1.121490 1.323257 0.104479 -0.030337 631335.000000 0 0 1
16.104822 -32.726124 9.746146 37.753832 -1.113481 1.309690 0.103910 -0.044193 188626.000000 0 0 1
16.804322 -31.876424 8.833346 37.101478 -1.085649 1.330402 0.116762 -0.045987 250105.000000 0 0 1
16.612522 -30.511024 9.165846 35.929253 -1.072204 1.312837 0.106595 -0.025533 -148643.000000 0 0 1
17.455522 -29.610324 8.281746 35.356101 -1.038127 1.334362 0.088232 -0.022872 -1588.480000 0 0 1
16.908622 -29.627024 7.006246 34.824554 -1.052187 1.368227 0.099271 -0.029998 351037.000000 0 0 1
17.878922 -29.110824 6.101646 34.703401 -1.020025 1.394055 0.083469 -0.016793 536813.000000 0 0 1
17.488122 -29.343824 4.572946 34.464565 -1.033343 1.437718 0.098638 -0.025338 137776.000000 0 0 1
17.620322 -30.649324 4.141946 35.595120 -1.049037 1.454169 0.099686 -0.033052 -131232.000000 0 0 1
17.523422 -30.656824 2.725646 35.416668 -1.051521 1.493761 0.093226 -0.027202 -29627.800000 0 0 1
17.737522 -32.104624 2.192146 36.744144 -1.066043 1.511101 0.101033 -0.028196 -225841.000000 0 0 1
19.063222 -32.565024 2.136946 37.794891 -1.041189 1.514226 0.092255 -0.021709 -392656.000000 0 0 1
19.165422 33.758726 1.765246 38.859762 1.054452 1.525355 0.103160 -0.022957 -526279.000000 0 0 1
20.591022 33.213026 1.796846 39.119355 1.015824 1.524848 0.096943 -0.026072 -237813.000000 0 0 1
21.154722 33.277326 3.105246 39.554333 1.004533 1.492210 0.101563 -0.049649 -35472.100000 0 0 1
22.294222 32.448426 3.195646 39.498669 0.968803 1.489803 0.071933 -0.033003 19700.900000 0 0 1
22.843622 32.196526 4.625546 39.747239 0.953719 1.454158 0.070876 -0.027754 -90744.200000 0 0 1
22.048122 31.323426 5.416546 38.686117 0.957467 1.430322 0.078926 -0.041729 -122947.000000 0 0 1
22.777222 30.220526 5.803646 38.285302 0.924931 1.418620 0.063699 -0.047506 226154.000000 0 0 1
21.905822 29.255926 6.668846 37.151686 0.928086 1.390315 0.082120 -0.057414 769253.000000 0 0 1
20.781122 28.657826 6.019446 35.907656 0.943392 1.402364 0.085442 -0.048197 -79908.200000 0 0 1
19.812322 28.218226 6.914946 35.165507 0.958655 1.372866 0.095357 -0.053677 -864536.000000 0 0 1
18.393422 28.401126 6.403346 34.437549 0.996089 1.383767 0.100099 -0.048495 -712572.000000 0 0 1
17.994222 29.813526 6.348546 35.396927 1.027764 1.390468 0.094559 -0.059949 -52702.300000 0 0 1
18.513422 30.484226 5.259046 36.051247 1.025018 1.424397 0.104190 -0.054856 -693111.000000 0 0 1
18.446822 32.017526 5.346946 37.336270 1.048100 1.427092 0.115378 -0.055889 -671862.000000 0 0 1
17.169222 32.538826 5.383046 37.182450 1.085272 1.425512 0.114790 -0.051501 -891817.000000 0 0 1
17.237322 -33.748624 5.686546 38.320122 -1.098581 1.421850 0.117567 -0.048265 217121.000000 0 0 1
15.863022 -33.040024 5.850046 37.114710 -1.123183 1.412516 0.115467 -0.046051 612273.000000 0 0 1
15.085222 -33.010124 4.634446 36.588390 -1.142147 1.443791 0.108612 -0.032946 -332049.000000 0 0 1
13.988022 -32.153724 4.765046 35.386896 -1.160456 1.435730 0.096204 -0.029428 -472866.000000 0 0 1
13.069822 -32.263824 3.561546 34.992274 -1.185908 1.468839 0.083488 -0.025919 -43815.000000 0 0 1
12.013422 -31.327824 3.554546 33.740031 -1.204617 1.465249 0.084511 -0.031685 -97556.000000 0 0 1
11.281722 -31.135424 2.390946 33.202538 -1.223168 1.498723 0.074469 -0.016923 -410377.000000 0 0 1
10.302422 -29.946224 2.363446 31.756922 -1.239449 1.496304 0.075557 -0.025671 94166.500000 0 0 1
9.676222 -29.577324 1.114646 31.139843 -1.254621 1.534994 0.068153 -0.009359 -398597.000000 0 0 1
8.735122 -30.419424 0.581446 31.654096 -1.291164 1.552427 0.049571 -0.009155 -904518.000000 0 0 1
9.159122 -31.056924 -0.774654 32.388611 -1.284012 1.594716 0.065086 -0.013615 -132042.000000 0 0 1
10.267822 -31.905724 -0.620154 33.522947 -1.259446 1.589297 0.068226 -0.020736 -361286.000000 0 0 1
10.315122 -32.743324 -1.787254 34.376173 -1.265608 1.622811 0.066890 -0.007175 731441.000000 0 0 1
11.558322 -33.753324 -1.723854 35.719090 -1.240877 1.619077 0.071932 -0.018974 970233.000000 0 0 1
11.621622 32.997026 -0.665154 34.990117 1.232161 1.589807 0.073164 -0.014626 632932.000000 0 0 1
12.808222 32.188426 -0.804454 34.652453 1.192090 1.594013 0.088952 -0.017497 669281.000000 0 0 1
13.107622 31.247726 0.375346 33.887624 1.173615 1.559720 0.078119 -0.014064 -606948.000000 0 0 1
13.367622 31.950526 1.540846 34.668482 1.174542 1.526337 0.077691 -0.011205 1339380.000000 0 0 1
14.649622 32.590826 1.862646 35.780481 1.148357 1.518715 0.089776 -0.014984 1582120.000000 0 0 1
15.957122 31.744326 1.855346 35.577722 1.105010 1.518624 0.089308 -0.020853 -164489.000000 0 0 1
16.388322 31.425026 0.537846 35.445714 1.090093 1.555622 0.099704 -0.026897 -319633.000000 0 0 1
17.167522 30.295226 0.549546 34.825659 1.055242 1.555016 0.101422 -0.020418 -542943.000000 0 0 1
17.942722 29.931926 -0.763954 34.906233 1.030781 1.592684 0.091101 -0.020085 987072.000000 0 0 1
19.089522 30.761826 -1.033954 36.218350 1.015397 1.599348 0.073938 -0.014131 820823.000000 0 0 1
18.733922 31.852226 -1.974254 37.005700 1.039135 1.624172 0.070525 -0.017680 213720.000000 0 0 1
19.976122 32.623726 -2.456154 38.332567 1.021368 1.634915 0.075861 -0.019885 7394.060000 0 0 1
20.703622 33.392626 -1.528354 39.319757 1.015796 1.609676 0.068925 -0.019570 19786.100000 0 0 1
21.713822 -33.598224 -2.257254 40.067767 -0.997041 1.627162 0.076284 -0.021740 -1624990.000000 0 0 1
22.756322 -33.005324 -1.293254 40.110773 -0.967170 1.603044 0.082313 -0.023864 -422229.000000 0 0 1
23.676322 33.735226 -0.638954 41.219437 0.958845 1.586298 0.070321 -0.020896 1134840.000000 0 0 1
24.439422 32.870326 -1.500354 40.987739 0.931462 1.607409 0.072504 -0.013990 -285363.000000 0 0 1
25.251422 33.586326 -2.614754 42.101218 0.926121 1.632943 0.064157 -0.018862 -1267270.000000 0 0 1
24.462422 -33.752524 -3.755254 41.853852 -0.943647 1.660640 0.071152 -0.032581 -114391.000000 0 0 1
25.125422 -32.903424 -4.684454 41.663728 -0.918641 1.683469 0.066694 -0.032068 -206026.000000 0 0 1
24.227722 -32.534224 -5.880654 40.988295 -0.930706 1.714765 0.072034 -0.034509 82309.300000 0 0 1
23.273322 -31.534224 -5.556254 39.584426 -0.934998 1.711626 0.094716 -0.034658 299344.000000 0 0 1
22.603822 -30.996724 -6.699754 38.943759 -0.940719 1.743693 0.100329 -0.031749 288758.000000 0 0 1
21.616222 -29.809824 -6.507254 37.392928 -0.943398 1.745711 0.119482 -0.034243 206102.000000 0 0 1
20.463622 -30.190924 -5.793854 36.929940 -0.975121 1.728335 0.098122 -0.029072 -443655.000000 0 0 1
19.715222 -29.055824 -5.417454 35.528576 -0.974626 1.723875 0.104775 -0.036187 584213.000000 0 0 1
18.485122 -29.452724 -4.532254 35.067136 -1.010315 1.700404 0.082013 -0.022916 565863.000000 0 0 1
17.441522 -30.187424 -5.136954 35.240255 -1.046879 1.717087 0.079989 -0.026123 218237.000000 0 0 1
16.338922 -30.253124 -4.227954 34.642279 -1.075606 1.693147 0.055729 -0.016055 82455.600000 0 0 1
15.087222 -30.914124 -4.768854 34.728221 -1.116765 1.708551 0.047429 -0.010999 -387432.000000 0 0 1
15.349622 -32.277624 -4.935454 36.080668 -1.126899 1.708016 0.049602 -0.002884 492110.000000 0 0 1
14.141722 -33.008024 -5.268054 36.294219 -1.166022 1.716459 0.056497 -0.003914 885198.000000 0 0 1
14.430922 33.147526 -5.482054 36.565871 1.160188 1.721286 0.058474 -0.004316 -73201.100000 0 0 1
14.695222 32.547726 -4.208754 35.958554 1.146698 1.688110 0.066678 -0.018203 -9684.880000 0 0 1
15.090422 31.164026 -4.339654 34.896274 1.119848 1.695478 0.081408 -0.024477 268376.000000 0 0 1
13.976322 30.176326 -4.827954 33.604425 1.137057 1.714965 0.082430 -0.029494 972460.000000 0 0 1
12.875022 29.887926 -3.939154 32.780654 1.164043 1.691254 0.078184 -0.027331 808770.000000 0 0 1
13.235322 28.844726 -3.005354 31.878271 1.140609 1.665212 0.077002 -0.028241 236237.000000 0 0 1
12.011922 28.145526 -2.332954 30.690383 1.167420 1.646886 0.069549 -0.021246 437929.000000 0 0 1
11.234322 28.934226 -1.481654 31.074020 1.200442 1.618496 0.055558 -0.020174 -599696.000000 0 0 1
10.278122 28.191026 -0.801654 30.016935 1.221185 1.597506 0.044766 -0.015325 -189640.000000 0 0 1
9.204822 29.092626 -0.125154 30.514346 1.264365 1.574898 0.038404 -0.008612 132417.000000 0 0 1
8.259022 28.391226 0.633446 29.574895 1.287708 1.549376 0.031060 -0.013051 -410512.000000 0 0 1
7.083222 29.162926 0.737746 30.019870 1.332526 1.546219 0.036411 -0.011408 -83192.800000 0 0 1
6.030022 28.522526 1.661146 29.200258 1.362452 1.513878 0.027298 -0.019284 27868.700000 0 0 1
5.547222 27.352026 1.080446 27.929776 1.370702 1.532102 0.040096 -0.025043 -1182710.000000 0 0 1
4.351022 26.886526 1.565646 27.281274 1.410358 1.513376 0.045137 -0.028807 -722121.000000 0 0 1
3.852122 25.646626 0.837646 25.947831 1.421711 1.538509 0.047809 -0.033431 -292476.000000 0 0 1
2.604822 25.207426 1.300746 25.375015 1.467826 1.519513 0.075217 -0.032589 -431679.000000 0 0 1
2.135322 24.151626 0.516546 24.251339 1.482612 1.549495 0.060805 -0.033116 -185541.000000 0 1 0
0.697422 23.724026 0.892246 23.751040 1.541407 1.533221 0.056614 -0.027400 113943.000000 0 1 0
-0.270378 24.606126 0.309246 24.609555 -1.559809 1.558230 0.067291 -0.037124 -272611.000000 0 1 0
-1.559478 24.050526 0.425646 24.104791 -1.506045 1.553137 0.059846 -0.028851 -158729.000000 0 1 0
-2.493978 24.945226 1.262146 25.101339 -1.471149 1.520493 0.099923 -0.046406 113849.000000 0 0 1
-3.883878 24.739426 1.019246 25.063172 -1.415076 1.530118 0.109709 -0.027436 236632.000000 0 0 1
-4.683478 25.407526 1.936046 25.908022 -1.388508 1.495999 0.113309 -0.035566 -806989.000000 0 0 1
-6.096078 25.647326 1.461946 26.402363 -1.337438 1.515396 0.122491 -0.046674 -683654.000000 0 0 1
-6.142278 26.774526 0.607646 27.476755 -1.345291 1.548680 0.136932 -0.049238 -429580.000000 0 0 1
-7.106478 26.708126 -0.397054 27.640255 -1.310742 1.585162 0.123569 -0.039553 -324896.000000 0 0 1
-7.115078 27.896826 -1.338454 28.820977 -1.321071 1.617253 0.132090 -0.032826 169036.000000 0 0 1
-7.567978 29.120426 -0.757054 30.097286 -1.316535 1.595953 0.158299 -0.053914 -75898.900000 0 0 1
-7.694478 30.060226 -1.787454 31.080817 -1.320208 1.628338 0.150796 -0.047089 12753.800000 0 0 1
-7.403678 31.538826 -1.281554 32.421511 -1.340223 1.610335 0.124457 -0.048354 -659686.000000 0 0 1
-7.608878 32.575826 -2.213254 33.525781 -1.341336 1.636861 0.111500 -0.032658 -257825.000000 0 0 1
-6.807778 32.668026 -3.380154 33.540590 -1.365344 1.671746 0.096284 -0.031287 510137.000000 0 0 1
-5.252578 32.846026 -3.243754 33.421145 -1.412224 1.668006 0.129788 -0.041853 364768.000000 0 0 1
-4.929478 -33.562724 -2.700754 34.030138 1.424965 1.650243 0.139403 -0.046070 31400.600000 0 0 1
-4.764778 -33.644224 -1.277754 34.003964 1.430109 1.608382 0.169890 -0.052478 -247695.000000 0 0 1
-4.354978 -32.306724 -0.555654 32.603666 1.436803 1.587840 0.169975 -0.051026 -233276.000000 0 0 1
-5.382478 -31.362324 -0.572854 31.826005 1.400830 1.588797 0.150355 -0.044543 -263688.000000 0 0 1
-5.389978 -30.523224 -1.681154 31.041027 1.396012 1.624982 0.164591 -0.039086 -530479.000000 0 0 1
-6.809778 -29.999024 -1.820754 30.816062 1.347579 1.629915 0.172146 -0.040229 -481103.000000 0 0 1
-7.176578 -29.283324 -0.616854 30.156208 1.330459 1.591253 0.158292 -0.031431 -184478.000000 0 0 1
-8.408178 -28.602724 -0.756154 29.822559 1.284886 1.596154 0.117111 -0.027631 255372.000000 0 0 1
-8.745878 -27.817324 0.524246 29.164512 1.266178 1.552820 0.117896 -0.026415 203809.000000 0 0 1
-7.758278 -26.817024 0.770046 27.927346 1.289181 1.543220 0.135938 -0.038774 -317384.000000 0 0 1
-7.608378 -26.435124 2.108446 27.588924 1.290557 1.494298 0.134121 -0.020617 292720.000000 0 0 1
-8.755778 -25.633324 2.815146 27.233362 1.241644 1.467240 0.115563 -0.019935 392289.000000 0 0 1
-8.681378 -24.210324 2.674346 25.858427 1.226497 1.467188 0.111030 -0.030711 -121450.000000 0 0 1
-9.422078 -23.566424 3.718446 25.651096 1.190454 1.425321 0.105592 -0.026496 258045.000000 0 0 1
-8.871078 -22.130524 3.960646 24.169047 1.189555 1.406181 0.073035 0.001929 -428980.000000 0 1 0
-7.690678 -22.099424 4.672546 23.861344 1.235901 1.373702 0.062302 -0.003697 -1123360.000000 0 1 0
-7.153778 -20.798324 4.876146 22.528285 1.239513 1.352624 0.043325 -0.005574 18173.600000 0 1 0
-8.024078 -19.695424 5.544446 21.978090 1.183920 1.315769 0.053989 -0.013426 -128317.000000 0 1 0
-8.246878 -19.858624 6.932046 22.592680 1.177188 1.258939 0.058565 -0.015473 -112199.000000 0 1 0
-9.043978 -18.888824 7.548646 22.261250 1.124252 1.224843 0.050824 -0.015606 -177591.000000 0 1 0
-27.919848 28.105026 -5.249354 39.962058 -0.788703 1.702536 0.211328 -0.028459 100111.000000 0 0 1
-27.362778 29.136826 -4.422054 40.214808 -0.816787 1.680980 0.187564 -0.047584 604994.000000 0 0 1
-26.124288 28.614726 -3.902954 38.942445 -0.830863 1.671189 0.169653 -0.039177 163852.000000 0 0 1
-25.290938 29.599826 -3.136054 39.059136 -0.863737 1.651173 0.144283 -0.042317 -744047.000000 0 0 1
-25.742078 30.164826 -1.901954 39.701243 -0.864343 1.618721 0.122456 -0.045107 -72756.200000 0 0 1
-25.025878 31.325626 -1.473354 40.121817 -0.896730 1.607527 0.115374 -0.047279 1363330.000000 0 0 1
-23.631778 31.040426 -0.750154 39.019632 -0.920088 1.590023 0.097904 -0.037641 2128730.000000 0 0 1
-22.575378 30.563726 -1.630054 38.032172 -0.934610 1.613669 0.103305 -0.038696 559311.000000 0 0 1
-21.310378 30.551826 -1.008054 37.263420 -0.961740 1.597852 0.077491 -0.032559 -141492.000000 0 0 1
-20.261878 29.763826 -1.838054 36.052843 -0.973103 1.621801 0.106153 -0.033679 -431493.000000 0 0 1
-19.008278 29.783026 -1.209554 35.352599 -1.002743 1.605017 0.103169 -0.033651 -381456.000000 0 0 1
-18.142278 28.815626 -1.835654 34.100618 -1.008897 1.624653 0.108460 -0.030967 -461089.000000 0 0 1
-16.721378 28.973426 -1.349954 33.479640 -1.047364 1.611129 0.126438 -0.032613 -991177.000000 0 0 1
-16.391278 28.424426 -0.082954 32.812023 -1.047714 1.573324 0.113962 -0.039602 -250278.000000 0 0 1
-15.193778 29.022126 0.340046 32.760499 -1.088507 1.560416 0.131009 -0.042454 -244103.000000 0 0 1
-14.686578 28.360326 1.655846 31.980392 -1.092966 1.518996 0.123631 -0.037859 -10409.600000 0 0 1
-15.600178 28.537926 2.732346 32.638083 -1.070531 1.486982 0.101825 -0.039688 82706.800000 0 0 1
-15.202378 28.000326 4.009446 32.112400 -1.073393 1.445613 0.114153 -0.045969 741900.000000 0 0 1
-13.878178 28.484926 4.723546 32.036022 -1.117432 1.422812 0.118919 -0.042476 859578.000000 0 0 1
-13.912578 29.699826 5.423446 33.242341 -1.132714 1.406915 0.102185 -0.034233 -251538.000000 0 0 1
-14.042178 30.891526 4.596746 34.243236 -1.144153 1.436152 0.106792 -0.035319 28699.500000 0 0 1
-13.882878 32.188926 5.407146 35.469684 -1.163607 1.417755 0.113199 -0.036655 669383.000000 0 0 1
-15.015078 32.465426 6.257646 36.312733 -1.137601 1.397605 0.114454 -0.042964 521446.000000 0 0 1
-14.794978 33.702826 6.967746 37.460931 -1.157142 1.383706 0.119587 -0.046948 272470.000000 0 0 1
-15.967678 -33.433124 7.826146 37.868048 1.125228 1.362627 0.102104 -0.038089 310896.000000 0 0 1
-16.200678 33.392926 8.955146 38.180415 -1.119097 1.334043 0.085024 -0.043415 -386672.000000 0 0 1
-17.396978 33.794926 9.572346 39.196705 -1.095394 1.324088 0.088891 -0.040013 -849932.000000 0 0 1
-17.650578 33.190326 10.986546 39.164331 -1.082034 1.286456 0.079760 -0.031759 228919.000000 0 0 1
-16.756078 33.490026 12.039646 39.335748 -1.106884 1.259730 0.088545 -0.034863 197065.000000 0 0 1
-15.409078 33.053926 11.871146 38.352651 -1.134569 1.256102 0.103012 -0.038989 665887.000000 0 0 1
-14.512578 33.225826 13.172146 38.575586 -1.158985 1.222323 0.098805 -0.029862 191794.000000 0 0 1
-14.845978 32.385726 14.292546 38.386393 -1.140970 1.189274 0.076381 -0.028443 161045.000000 0 0 1
-14.293778 31.057026 14.457146 37.119537 -1.139457 1.170734 0.070309 -0.026620 51500.100000 0 0 1
-15.150378 29.960126 13.738646 36.275246 -1.102611 1.182369 0.073456 -0.035530 245674.000000 0 0 1
-15.138878 30.011126 12.302546 35.793937 -1.103601 1.219937 0.085503 -0.027363 -232134.000000 0 0 1
-16.283878 29.481326 11.696946 35.652936 -1.066154 1.236528 0.070321 -0.020876 -224832.000000 0 0 1
-16.164378 29.270726 10.167346 34.949069 -1.066237 1.275609 0.074857 -0.015825 -264504.000000 0 0 1
-15.337478 28.206926 9.867746 33.589304 -1.072765 1.272621 0.062706 -0.004749 -261629.000000 0 0 1
-15.254078 28.029426 8.481846 33.019348 -1.072404 1.311009 0.060496 -0.011951 338404.000000 0 0 1
-14.401078 26.751026 8.111446 31.445254 -1.076951 1.309892 0.070644 -0.018031 1331870.000000 0 0 1
-12.972678 26.826526 8.266846 30.923997 -1.120374 1.300177 0.079892 -0.025034 585142.000000 0 0 1
-12.385278 25.574726 7.999446 29.520380 -1.119805 1.296385 0.089688 -0.030642 281107.000000 0 0 1
-11.142078 25.592626 7.052946 28.790145 -1.160181 1.323300 0.127484 -0.043327 59767.300000 0 0 1
-11.338178 26.183526 5.782246 29.112981 -1.162146 1.370853 0.134528 -0.041297 -81437.500000 0 0 1
-10.347578 25.822626 4.838546 28.236358 -1.189672 1.398588 0.146351 -0.036939 -204198.000000 0 0 1
-10.521678 26.355426 3.383146 28.579011 -1.190960 1.452139 0.138539 -0.043922 -64548.900000 0 0 1
-10.239178 27.707526 3.229246 29.714909 -1.216817 1.461907 0.139672 -0.036652 -99498.000000 0 0 1
-10.458978 28.178526 1.954046 30.120389 -1.215389 1.505876 0.146598 -0.044350 174311.000000 0 0 1
-9.963378 29.646726 1.690246 31.321785 -1.246585 1.516806 0.158327 -0.049080 -484433.000000 0 0 1
-10.700178 30.577826 2.307146 32.477995 -1.234182 1.499699 0.125481 -0.048592 -861502.000000 0 0 1
-10.279978 31.915726 2.089446 33.595495 -1.259192 1.508562 0.121012 -0.048622 -557586.000000 0 0 1
-11.172978 32.982426 2.760046 34.932703 -1.244174 1.491704 0.113790 -0.042480 1242850.000000 0 0 1
-12.559178 33.139226 2.368546 35.518323 -1.208539 1.504062 0.131073 -0.041782 962593.000000 0 0 1
-12.780478 33.662926 1.061246 36.023041 -1.207946 1.541332 0.122205 -0.035418 -299989.000000 0 0 1
-14.260678 -33.700324 0.713246 36.600376 1.170484 1.551308 0.128494 -0.035912 422113.000000 0 0 1
-14.989278 32.848326 0.307446 36.107970 -1.142701 1.562282 0.115258 -0.029897 -296842.000000 0 0 1
-15.346178 32.854926 -1.089354 36.278617 -1.133822 1.600828 0.115917 -0.033961 -357788.000000 0 0 1
-14.300478 32.587926 -2.201954 35.655647 -1.157272 1.632592 0.119491 -0.029178 -244562.000000 0 0 1
-13.916778 31.254626 -2.183954 34.282620 -1.151882 1.634544 0.121849 -0.029773 -352019.000000 0 0 1
-12.532478 31.157426 -1.958554 33.640513 -1.188368 1.629049 0.119138 -0.029895 -495083.000000 0 0 1
-12.045378 29.687726 -1.856554 32.092040 -1.185355 1.628680 0.090765 -0.022577 18346.300000 0 0 1
-11.886578 29.019126 -3.117954 31.513839 -1.182031 1.669898 0.088735 -0.033525 996030.000000 0 0 1
-10.750478 29.427126 -3.965754 31.579356 -1.220534 1.696709 0.079985 -0.019334 1136890.000000 0 0 1
-10.824678 28.940726 -5.431854 31.372668 -1.212877 1.744813 0.076347 -0.017053 228.387000 0 0 1
-10.864678 27.509426 -5.504254 30.084989 -1.194656 1.754790 0.076925 -0.015526 -31411.800000 0 0 1
-10.930678 27.115626 -6.809454 30.018420 -1.187609 1.799631 0.063887 -0.011354 59637.400000 0 0 1
-11.467178 25.687926 -6.955054 28.978242 -1.150937 1.813172 0.090860 -0.023244 767243.000000 0 0 1
-10.645878 24.691426 -6.237554 27.602687 -1.163722 1.798742 0.061007 -0.016956 585480.000000 0 0 1
-11.177378 23.389526 -6.409554 26.703672 -1.125001 1.813188 0.095336 -0.026461 -254405.000000 0 0 1
-10.579778 22.285326 -5.554854 25.286832 -1.127559 1.792276 0.091118 -0.032558 -605588.000000 0 0 1
-9.233878 22.040826 -5.896454 24.613628 -1.174066 1.812710 0.087816 -0.029350 -16750.600000 0 1 0
-8.727578 20.775326 -5.422454 23.177312 -1.173089 1.806940 0.093178 -0.026357 -73639.400000 0 1 0
-8.678678 20.560126 -3.827454 22.642607 -1.171374 1.740650 0.102495 -0.041305 597467.000000 0 1 0
-9.910378 20.316426 -3.100854 22.816399 -1.116955 1.707123 0.114295 -0.042774 673715.000000 0 1 0
-10.499478 19.041126 -3.210254 21.979746 -1.066871 1.717376 0.106535 -0.045142 -212391.000000 0 1 0
-11.845478 18.964826 -2.479854 22.497325 -1.012483 1.681250 0.098516 -0.049080 -398367.000000 0 1 0
-11.875478 19.099726 -1.061054 22.515602 -1.014529 1.617939 0.107669 -0.044680 184159.000000 0 1 0
-11.288878 18.042126 -0.260854 21.284387 -1.011697 1.583052 0.086963 -0.033873 -94020.400000 0 1 0
-11.197978 18.116826 1.276846 21.336458 -1.017175 1.510917 0.091163 -0.033400 -247646.000000 0 1 0
-12.425778 18.061226 1.958146 22.010047 -0.968183 1.481713 0.111027 -0.035159 -23978.500000 0 1 0
-12.289478 18.455526 3.293846 22.416225 -0.983327 1.423322 0.109174 -0.022962 -161041.000000 0 1 0
-13.639778 18.346426 4.014346 23.210986 -0.931496 1.396972 0.110461 -0.027446 -256352.000000 0 1 0
-14.109678 17.048526 4.059746 22.499262 -0.879440 1.389363 0.087767 -0.024512 838275.000000 0 1 0
-15.308378 17.017626 4.873146 23.402854 -0.838224 1.361033 0.107321 -0.030174 759689.000000 0 1 0
-15.542478 15.587126 5.467946 22.680951 -0.786832 1.327317 0.083254 -0.033666 -354335.000000 0 1 0
-14.711178 15.174726 6.521646 22.118384 -0.800908 1.271496 0.076537 -0.026181 232115.000000 0 1 0
-15.191578 15.716926 7.765146 23.197054 -0.802393 1.229460 0.078694 -0.027109 -247104.000000 0 1 0
-14.164478 15.626326 8.947046 22.909913 -0.834429 1.169587 0.073323 -0.022055 933303.000000 0 1 0
-13.102378 16.591426 8.993246 22.974468 -0.902363 1.168595 0.078580 -0.026891 775418.000000 0 1 0
-12.105678 16.464026 7.980746 21.938639 -0.936782 1.198478 0.072227 -0.028833 -509749.000000 0 1 0
-11.030478 17.529826 7.991546 22.199798 -1.009153 1.202547 0.083492 -0.020207 7805.560000 0 1 0
-9.877778 17.354426 8.783546 21.815070 -1.053348 1.156401 0.074581 -0.028206 266619.000000 0 1 0
-8.939178 18.416226 8.676946 22.234111 -1.118899 1.169889 0.066707 -0.033278 527206.000000 0 1 0
-7.648978 18.184326 9.524946 21.906647 -1.172628 1.120983 0.053422 -0.036186 56936.500000 0 1 0
-6.705978 17.380926 8.827146 20.615170 -1.202570 1.128311 0.047443 -0.031830 954414.000000 0 1 0
-5.360878 17.337226 9.361646 20.419570 -1.270910 1.094530 0.035877 -0.037844 789469.000000 0 1 0
-4.527978 18.495926 8.797746 20.976229 -1.330709 1.137995 0.030774 -0.035530 -1514320.000000 0 1 0
-4.776778 19.740026 9.333546 22.351763 -1.333376 1.140021 0.039646 -0.040196 -135432.000000 0 1 0
-4.455778 20.774026 8.477846 22.875489 -1.359510 1.191132 0.052253 -0.039825 641661.000000 0 1 0
-3.064378 21.502626 8.658446 23.382088 -1.429238 1.191462 0.050707 -0.026417 1464320.000000 0 1 0
-1.930878 20.638026 8.448846 22.383910 -1.477509 1.183753 0.041584 -0.009023 202925.000000 0 1 0
-0.790678 21.392526 8.113146 22.892979 -1.533853 1.208530 0.037169 -0.012216 -298959.000000 0 1 0
0.496622 20.590826 8.000946 22.096242 1.546682 1.200282 0.023480 -0.001776 -127412.000000 0 1 0
1.045022 20.174926 9.256246 22.221562 1.519045 1.141156 0.017782 0.001069 -986145.000000 0 1 0
2.331922 19.706626 9.097146 21.829957 1.453012 1.140954 0.015089 -0.002912 -761141.000000 0 1 0
2.826022 18.954126 10.353846 21.781814 1.422789 1.075442 0.007266 -0.025281 979673.000000 0 1 0
4.267322 18.840926 10.405546 21.942332 1.348062 1.076716 0.030637 -0.008133 989785.000000 0 1 0
4.600122 18.145126 11.542046 21.991488 1.322509 1.018267 0.026160 -0.019001 -494538.000000 0 1 0
6.089022 18.257126 11.845146 22.598813 1.248882 1.019081 0.052696 -0.022250 -424665.000000 0 1 0
6.949322 17.421626 11.097646 21.793666 1.191247 1.036525 0.046742 -0.021801 -385594.000000 0 1 0
7.852222 16.788926 11.947346 22.051406 1.133319 0.998225 0.052359 -0.019899 -1325450.000000 0 1 0
9.086922 16.266426 11.300546 21.791538 1.061351 1.025613 0.064314 -0.023601 -1292740.000000 0 1 0
10.052722 17.173326 10.909946 22.693772 1.041205 1.069291 0.079309 -0.033839 -500279.000000 0 1 0
11.126722 16.551926 10.260146 22.428571 0.978951 1.095661 0.076496 -0.037619 315103.000000 0 1 0
12.383122 17.474326 10.069146 23.666041 0.954291 1.131317 0.089168 -0.033067 668273.000000 0 1 0
13.364922 16.934426 9.204946 23.454786 0.902666 1.167497 0.097239 -0.026236 253425.000000 0 1 0
14.349322 17.919726 8.852446 24.604582 0.895595 1.202755 0.106874 -0.023208 88688.400000 0 1 0
15.183722 17.463726 7.698346 24.388351 0.855122 1.249648 0.103290 -0.022807 -648195.000000 0 1 0
16.021822 16.398326 7.931146 24.259162 0.797011 1.237739 0.125352 -0.036552 268853.000000 0 1 0
17.076222 16.200826 6.980846 24.551911 0.759098 1.282489 0.127544 -0.029782 356819.000000 0 1 0
18.480822 16.149926 7.597446 25.692063 0.718192 1.270596 0.121504 -0.027746 -424118.000000 0 0 1
18.668822 15.092826 8.427646 25.442947 0.679873 1.233182 0.127446 -0.020898 -588725.000000 0 0 1
19.812122 15.373426 9.153046 26.695330 0.659910 1.220825 0.124307 -0.020041 -842674.000000 0 0 1
20.294722 14.243726 10.080546 26.765218 0.611962 1.184642 0.117729 -0.016410 132658.000000 0 0 1
20.995322 13.184226 9.402746 26.514883 0.560725 1.208287 0.134015 -0.028085 465308.000000 0 0 1
21.111722 12.029026 10.228546 26.363335 0.517902 1.172353 0.126533 -0.034388 -928751.000000 0 0 1
22.090822 11.151026 9.549546 26.524397 0.467465 1.202498 0.110111 -0.022798 -618855.000000 0 0 1
23.388322 11.158426 10.153946 27.832116 0.445155 1.197348 0.108364 -0.025221 852471.000000 0 0 1
24.331922 10.275726 9.577746 28.095662 0.399594 1.222925 0.126452 -0.027093 -80671.200000 0 0 1
24.147322 8.763826 9.809946 27.497870 0.348148 1.206007 0.129478 -0.037618 -942205.000000 0 0 1
22.967022 8.314526 9.206346 26.103108 0.347343 1.210350 0.126412 -0.035044 175037.000000 0 0 1
22.645422 6.890226 9.281046 25.424952 0.295366 1.197124 0.113506 -0.040349 -576644.000000 0 0 1
23.684922 5.898426 8.732546 25.923432 0.244072 1.227217 0.125275 -0.042916 -322681.000000 0 0 1
23.691522 5.903726 7.323646 25.490743 0.244218 1.279383 0.110687 -0.029571 882845.000000 0 0 1
24.888322 5.411326 6.719146 26.341184 0.214092 1.312864 0.150151 -0.040243 331745.000000 0 0 1
24.576222 5.160026 5.248946 25.654785 0.206954 1.364742 0.166907 -0.049271 60673.700000 0 0 1
23.752722 3.988526 5.047146 24.608410 0.166367 1.364232 0.145736 -0.046171 750550.000000 0 1 0
23.450222 3.861026 3.672946 24.048097 0.163184 1.417463 0.171902 -0.042318 -143029.000000 0 1 0
22.435922 2.740526 3.362246 22.851385 0.121547 1.423125 0.165929 -0.034954 479797.000000 0 1 0
23.086622 1.444426 3.705746 23.426716 0.062484 1.411944 0.187237 -0.032628 1335610.000000 0 1 0
22.178322 0.383226 3.373246 22.436658 0.017278 1.419879 0.177994 -0.025295 218854.000000 0 1 0
22.617522 -1.096274 3.582546 22.925723 -0.048432 1.413886 0.187904 -0.031657 -668850.000000 0 1 0
22.646322 -1.454474 4.941246 23.224713 -0.064138 1.356400 0.170840 -0.027984 573165.000000 0 1 0
22.954822 -2.835874 5.074946 23.679551 -0.122919 1.354803 0.177131 -0.032367 -707837.000000 0 1 0
22.956622 -3.319074 6.556046 24.104035 -0.143585 1.295336 0.206470 -0.041837 -72518.000000 0 1 0
23.104722 -4.697174 6.743346 24.522731 -0.200566 1.292224 0.191336 -0.039540 462623.000000 0 1 0
23.180022 -4.892474 8.158646 25.056202 -0.208011 1.239135 0.224758 -0.050303 -24916.900000 0 0 1
22.851922 -6.388974 8.532046 25.215573 -0.272621 1.225618 0.225086 -0.054074 -340228.000000 0 0 1
21.519222 -6.719174 8.295046 24.021491 -0.302648 1.218219 0.243283 -0.064154 167195.000000 0 1 0
20.986822 -7.614574 9.319246 24.192494 -0.348055 1.175358 0.209202 -0.053940 135092.000000 0 1 0
-27.973768 -32.505224 5.601846 43.249300 0.860185 1.440907 0.079494 -0.022314 -134921.000000 0 0 1
-28.746238 -33.642624 5.801646 44.629939 0.863719 1.440433 0.086144 -0.022523 -263186.000000 0 0 1
-28.680798 33.570626 7.163646 44.731342 -0.863787 1.409955 0.089186 -0.021545 -233593.000000 0 0 1
-29.593778 32.388026 7.464046 44.502673 -0.830449 1.402279 0.104833 -0.033495 301912.000000 0 0 1
-30.984678 32.691026 7.445546 45.652925 -0.812189 1.406974 0.090922 -0.026168 -57340.300000 0 0 1
-31.746778 31.557726 7.721746 45.424369 -0.782412 1.399976 0.103902 -0.036896 106798.000000 0 0 1
-33.266198 31.838126 7.619446 46.672927 -0.763467 1.406810 0.091397 -0.031366 154079.000000 0 0 1
-33.772368 31.929426 6.307746 46.902545 -0.757355 1.435901 0.085223 -0.025334 -924263.000000 0 0 1
-35.152368 31.915826 6.271546 47.891974 -0.737178 1.439467 0.074445 -0.021558 -1044650.000000 0 0 1
-35.735600 31.712826 4.867546 48.025300 -0.725827 1.469268 0.065445 -0.014469 -183503.000000 0 0 1
-35.624794 30.368626 4.486346 47.026659 -0.705919 1.475251 0.072059 -0.019370 478495.000000 0 0 1
-36.288958 30.170326 3.228946 47.302887 -0.693591 1.502482 0.083265 -0.004387 450102.000000 0 0 1
-35.719986 28.879126 2.535646 46.003813 -0.679894 1.515650 0.087515 -0.016306 93722.200000 0 0 1
-36.119698 27.774226 3.383246 45.689020 -0.655519 1.496679 0.121262 -0.029846 352753.000000 0 0 1
-35.627287 26.558026 2.895846 44.531093 -0.640577 1.505721 0.103078 -0.031492 -209838.000000 0 0 1
-36.190418 25.306626 3.644146 44.310850 -0.610231 1.488463 0.121569 -0.031350 303709.000000 0 0 1
-37.538768 24.989326 3.335246 45.218905 -0.587329 1.496972 0.136757 -0.030643 37439.700000 0 0 1
37.389994 24.117626 4.292246 44.700055 0.572873 1.474625 0.136149 -0.031240 332441.000000 0 0 1
35.894344 23.821026 3.996246 43.264480 0.585906 1.478297 0.156254 -0.031459 93169.700000 0 0 1
35.580354 22.864726 3.008046 42.400538 0.571171 1.499793 0.143629 -0.043420 138247.000000 0 0 1
35.818034 21.495526 3.305046 41.903610 0.540516 1.491842 0.131018 -0.041736 -962046.000000 0 0 1
35.256384 20.551626 2.260446 40.871647 0.527765 1.515462 0.144476 -0.033909 298319.000000 0 0 1
33.837344 20.436826 2.259046 39.594608 0.543335 1.513711 0.138456 -0.045010 743080.000000 0 0 1
33.170364 19.705826 3.293646 38.722613 0.536055 1.485636 0.121864 -0.045132 -546265.000000 0 0 1
33.462114 18.214826 3.494946 38.258432 0.498489 1.479318 0.144196 -0.051185 -488249.000000 0 0 1
33.017084 17.518126 2.330346 37.449207 0.487809 1.508529 0.119227 -0.057050 337854.000000 0 0 1
33.165634 16.113526 2.195046 36.938100 0.452264 1.511336 0.112903 -0.044595 250810.000000 0 0 1
32.243334 15.303126 3.200746 35.833825 0.443133 1.481355 0.138336 -0.051139 162399.000000 0 0 1
30.881074 15.660426 3.234346 34.775720 0.469328 1.477656 0.130207 -0.059443 175570.000000 0 0 1
30.127254 14.615926 3.889046 33.710553 0.451689 1.455173 0.126143 -0.061204 -799420.000000 0 0 1
28.640654 14.797326 3.798146 32.460343 0.476882 1.453519 0.129770 -0.050257 -846967.000000 0 0 1
27.992254 14.415926 2.583746 31.592103 0.475573 1.488920 0.126053 -0.057000 490252.000000 0 0 1
26.625654 14.787126 2.489246 30.557829 0.506958 1.489246 0.093109 -0.037370 334246.000000 0 0 1
25.868654 14.240026 1.225046 29.554464 0.503207 1.529334 0.101457 -0.039678 -221074.000000 0 0 1
26.297554 14.590026 -0.071854 30.073832 0.506525 1.573186 0.113173 -0.042774 329449.000000 0 0 1
27.565854 14.042026 -0.408654 30.939001 0.471139 1.584005 0.120116 -0.044585 -173572.000000 0 0 1
28.394354 14.960026 -1.333354 32.121948 0.484909 1.612317 0.136801 -0.042187 -121746.000000 0 0 1
28.607254 16.323426 -0.943654 32.950261 0.518525 1.599439 0.089623 -0.039217 531503.000000 0 0 1
29.494154 16.471126 0.172646 33.782139 0.509311 1.565686 0.101774 -0.035999 -170131.000000 0 0 1
30.037354 17.910626 0.326146 34.973412 0.537679 1.561471 0.109929 -0.028911 -266460.000000 0 0 1
30.881724 18.211126 -0.743254 35.859147 0.532816 1.591525 0.120820 -0.029446 -563253.000000 0 0 1
31.349604 19.482826 -0.609054 36.915432 0.556057 1.587296 0.106531 -0.019203 212115.000000 0 0 1
32.574334 19.820226 -1.513754 38.160451 0.546618 1.610475 0.090244 -0.018783 182741.000000 0 0 1
32.994084 21.162726 -1.654854 39.232755 0.570313 1.612989 0.064992 -0.014284 197086.000000 0 0 1
32.148094 21.998326 -2.427054 39.029692 0.600098 1.633021 0.083856 -0.016940 -258081.000000 0 0 1
32.823534 23.397826 -2.762354 40.403877 0.619289 1.639218 0.096708 -0.022211 181152.000000 0 0 1
33.116964 24.188726 -1.641954 41.042951 0.630841 1.610813 0.105336 -0.016931 155979.000000 0 0 1
34.190904 23.742426 -0.858754 41.634819 0.606963 1.591424 0.129687 -0.011134 -816636.000000 0 0 1
34.804984 24.622826 0.273946 42.635027 0.615709 1.564371 0.146292 -0.028768 93728.100000 0 0 1
35.406584 25.790626 -0.214354 43.804435 0.629542 1.575690 0.164129 -0.022858 7759.670000 0 0 1
36.539464 26.090626 0.563146 44.901785 0.620087 1.558254 0.159665 -0.029891 624571.000000 0 0 1
37.379394 27.393926 0.180746 46.343057 0.632442 1.566896 0.122279 -0.030680 163587.000000 0 0 1
-37.704718 27.613726 -1.141654 46.748978 -0.632121 1.595220 0.102174 -0.028059 227548.000000 0 0 1
36.769614 27.972526 -2.057754 46.246093 0.650346 1.615307 0.089407 -0.025493 42327.200000 0 0 1
36.930224 27.371926 -3.495754 46.100803 0.637832 1.646698 0.095302 -0.027709 157097.000000 0 0 1
-37.555888 28.020126 -4.262754 47.050433 -0.640995 1.661520 0.095224 -0.028852 208103.000000 0 0 1
-37.444918 27.583526 -5.605254 46.844334 -0.634897 1.690741 0.096071 -0.031686 288093.000000 0 0 1
36.808114 27.753526 -6.545354 46.561112 0.646060 1.711839 0.061338 -0.014457 961368.000000 0 0 1
35.757804 26.831026 -6.246554 45.139162 0.643728 1.709626 0.074256 -0.011609 -372642.000000 0 0 1
34.645404 26.993726 -7.078354 44.486721 0.661893 1.730587 0.058987 -0.010464 -274597.000000 0 0 1
33.498964 26.030326 -6.677654 42.945891 0.660589 1.726920 0.067866 -0.008560 -607286.000000 0 0 1
33.655634 24.635226 -6.891254 42.273933 0.631868 1.734541 0.054840 -0.009904 325221.000000 0 0 1
34.818554 24.044526 -6.281454 42.777653 0.604367 1.718169 0.071379 -0.015267 476889.000000 0 0 1
34.916634 22.487826 -6.391954 42.020599 0.572176 1.723504 0.073555 -0.016606 -45022.100000 0 0 1
33.889514 21.754326 -5.756554 40.680312 0.570673 1.712780 0.058252 -0.011724 26718.200000 0 0 1
34.082224 20.349626 -5.879054 40.128152 0.538266 1.717833 0.059258 -0.018718 313813.000000 0 0 1
32.893774 19.455426 -5.361854 38.590976 0.534118 1.710188 0.076079 -0.016459 -328563.000000 0 0 1
31.769454 19.537326 -6.152254 37.800206 0.551356 1.734281 0.056317 -0.018894 -1255430.000000 0 0 1
30.767354 18.784726 -5.510954 36.467336 0.548134 1.722498 0.077913 -0.027159 -66875.600000 0 0 1
29.529754 18.583226 -6.428354 35.477689 0.561689 1.752997 0.043283 -0.026713 -12324.600000 0 0 1
29.611954 17.412826 -7.229854 35.104774 0.531574 1.778232 0.034839 -0.019645 439081.000000 0 0 1
28.537054 17.392026 -8.184454 34.406850 0.547342 1.810972 0.057138 -0.026224 394296.000000 0 0 1
28.615654 16.192926 -9.226054 34.149474 0.514951 1.844363 0.056828 -0.022918 -240742.000000 0 0 1
27.587754 16.227726 -10.178654 33.586132 0.531714 1.878700 0.047925 -0.015389 89158.100000 0 0 1
27.871354 15.283226 -11.175854 33.694051 0.501575 1.908887 0.052598 -0.002231 -127262.000000 0 0 1
27.238554 15.709126 -12.464354 33.824186 0.523129 1.948196 0.063777 0.005246 490467.000000 0 0 1
25.813754 15.554026 -12.578054 32.657083 0.542291 1.966173 0.064132 0.003038 1157770.000000 0 0 1
25.287954 15.839726 -13.890854 32.914030 0.559587 2.006485 0.052829 -0.007317 -287843.000000 0 0 1
25.139954 14.538726 -14.680454 32.540860 0.524319 2.038838 0.051761 -0.008896 -88598.800000 0 0 1
26.342754 13.879926 -15.068154 33.371280 0.484933 2.039276 0.077744 -0.012492 636787.000000 0 0 1
27.026554 14.472926 -16.178354 34.664670 0.491649 2.056364 0.092074 -0.015017 -53220.500000 0 0 1
28.439754 13.926526 -16.471054 35.694024 0.455362 2.050427 0.128789 -0.013805 135289.000000 0 0 1
28.392154 12.578526 -16.882354 35.346112 0.417041 2.068751 0.126755 -0.021201 299856.000000 0 0 1
29.719854 12.199326 -17.204254 36.442827 0.389506 2.062455 0.118444 -0.007443 397282.000000 0 0 1
29.770754 10.747326 -17.722654 36.275271 0.346443 2.081235 0.088497 -0.007925 -122227.000000 0 0 1
29.190354 10.676426 -19.015354 36.436884 0.350638 2.119839 0.102461 -0.012340 58653.400000 0 0 1
29.347354 9.416826 -19.628954 36.540931 0.310496 2.137883 0.101636 -0.016595 950477.000000 0 0 1
30.814624 9.029126 -20.089154 37.876646 0.285036 2.129849 0.090934 -0.014790 415508.000000 0 0 1
31.335014 9.859826 -21.142754 39.065526 0.304850 2.142675 0.088766 -0.015917 115574.000000 0 0 1
31.914064 9.137226 -22.219054 39.945998 0.278848 2.160635 0.048535 -0.008568 -887627.000000 0 0 1
33.313874 8.616926 -21.965754 40.823522 0.253111 2.138937 0.042281 -0.004702 -1851490.000000 0 0 1
34.197224 9.649226 -22.021354 41.803083 0.275014 2.125613 0.041836 -0.008227 -878591.000000 0 0 1
35.517334 9.220126 -22.293154 42.935725 0.253989 2.116736 0.020603 -0.004020 730281.000000 0 0 1
36.542684 10.415026 -22.025454 43.919940 0.277648 2.096118 0.045039 -0.006045 388265.000000 0 0 1
36.553354 10.942126 -20.700254 43.409427 0.290857 2.067876 0.035786 -0.009598 920181.000000 0 0 1
37.569494 11.975926 -20.574254 44.476844 0.308584 2.051703 0.020349 -0.006267 699582.000000 0 0 1
37.485874 12.655826 -19.175454 43.966564 0.325600 2.022098 0.035446 -0.013882 -101543.000000 0 0 1
-37.675318 11.807526 -18.131054 43.446316 -0.303707 2.001292 0.030127 -0.010365 203729.000000 0 0 1
37.443934 12.311726 -16.844054 42.864309 0.317669 1.974647 0.037992 -0.013453 -200040.000000 0 0 1
-37.672238 11.556226 -15.616154 42.386414 -0.297644 1.948109 0.037953 -0.015461 -367639.000000 0 0 1
37.048404 10.431626 -15.292154 41.415613 0.274462 1.948984 0.016734 -0.022178 305351.000000 0 0 1
37.668844 9.663626 -14.277454 41.426721 0.251126 1.922655 0.028995 -0.033698 -31674.700000 0 0 1
36.886064 8.323826 -14.061854 40.343569 0.221946 1.926823 0.080294 -0.030612 723777.000000 0 0 1
35.678774 8.526326 -13.309554 39.023293 0.234575 1.918848 0.086162 -0.028637 1084460.000000 0 0 1
35.904214 8.297026 -11.919454 38.730177 0.227101 1.883630 0.089983 -0.028867 -861139.000000 0 0 1
34.810834 8.938026 -11.082454 37.609883 0.251331 1.869905 0.122115 -0.027974 -512254.000000 0 0 1
34.756374 10.352826 -11.080454 37.920483 0.289500 1.867325 0.124510 -0.037705 388560.000000 0 0 1
33.789914 10.905126 -10.180454 36.936726 0.312180 1.850030 0.116242 -0.020191 -211384.000000 0 0 1
34.081544 10.808826 -8.636154 36.782680 0.307112 1.807797 0.127855 -0.020236 299922.000000 0 0 1
35.290644 11.494826 -8.249054 38.021145 0.314882 1.789495 0.120823 -0.023762 656739.000000 0 0 1
35.187504 12.868326 -7.909954 38.292579 0.350599 1.778861 0.114041 -0.022523 -462335.000000 0 0 1
35.149734 13.078226 -6.337754 38.035653 0.356201 1.738204 0.097659 -0.021832 -588991.000000 0 0 1
36.318504 12.683326 -5.706954 38.890485 0.335984 1.718072 0.114242 -0.022271 -644238.000000 0 0 1
36.180264 12.638726 -4.289854 38.563607 0.336075 1.682268 0.119483 -0.025412 -652538.000000 0 0 1
37.476574 12.528526 -3.509354 39.670810 0.322623 1.659374 0.127917 -0.018026 -853712.000000 0 0 1
-37.334928 13.745026 -3.512054 39.939418 -0.352756 1.658845 0.130569 -0.012104 -115202.000000 0 0 1
-36.107858 13.519726 -2.846254 38.660853 -0.358267 1.644484 0.141945 -0.019590 447275.000000 0 0 1
-35.066910 14.706426 -2.942054 38.139518 -0.397102 1.648012 0.127824 -0.014873 305737.000000 0 0 1
-35.425568 15.841726 -2.197654 38.868507 -0.420509 1.627367 0.154402 -0.015533 196091.000000 0 0 1
-34.521617 16.949026 -2.155754 38.518292 -0.456396 1.626793 0.131339 -0.021712 204519.000000 0 0 1
-35.017653 18.049526 -1.106554 39.411241 -0.475924 1.598877 0.142349 -0.016959 -22588.600000 0 0 1
-36.086228 18.774826 -1.639854 40.711166 -0.479737 1.611087 0.123321 -0.015321 -135885.000000 0 0 1
-36.728888 19.546126 -0.659454 41.611262 -0.489054 1.586645 0.109541 -0.021188 -93731.000000 0 0 1
37.652634 20.428926 -1.248854 42.855822 0.497115 1.599941 0.114179 -0.022594 -180398.000000 0 0 1
-37.456048 21.740926 -1.631454 43.339186 -0.525912 1.608449 0.103491 -0.020936 -41582.900000 0 0 1
37.161754 22.422426 -2.476754 43.472928 0.542896 1.627800 0.097494 -0.010344 -359805.000000 0 0 1
-37.646578 23.693726 -3.042554 44.586036 -0.561738 1.639089 0.122334 -0.025154 -345724.000000 0 0 1
-36.536318 23.420726 -3.838254 43.567937 -0.570041 1.659009 0.135334 -0.024247 -513245.000000 0 0 1
-35.984648 24.583126 -4.343854 43.796050 -0.599332 1.670143 0.147128 -0.034964 339517.000000 0 0 1
-34.487052 24.451226 -4.766954 42.543425 -0.616739 1.683081 0.161230 -0.051008 522948.000000 0 0 1
-34.168970 23.609326 -5.835354 41.940078 -0.604632 1.710385 0.133589 -0.032593 -288000.000000 0 0 1
-32.781778 23.575326 -6.098254 40.836622 -0.623469 1.720690 0.168199 -0.033570 148280.000000 0 0 1
-32.519338 22.551126 -7.181854 40.219891 -0.606329 1.750324 0.162858 -0.041029 82494.300000 0 0 1
-33.122418 23.041426 -8.391254 41.211831 -0.607797 1.775843 0.155074 -0.048382 241739.000000 0 0 1
-32.873868 22.253826 -9.559154 40.832602 -0.595085 1.807095 0.108506 -0.037932 27720.200000 0 0 1
-33.927418 22.470526 -10.697554 42.076500 -0.584982 1.827859 0.107697 -0.025382 -85537.600000 0 0 1
-34.056689 23.742826 -11.282854 43.021886 -0.608815 1.836158 0.111887 -0.024524 69113.700000 0 0 1
-34.612966 23.640126 -12.592754 43.766316 -0.599215 1.862649 0.079470 -0.017970 -511111.000000 0 0 1
-34.624224 25.040326 -13.273454 44.744155 -0.626129 1.871982 0.069773 -0.010670 1285100.000000 0 0 1
-33.384838 25.786726 -13.086654 44.167444 -0.657689 1.871609 0.073811 -0.013731 1301070.000000 0 0 1
-32.355838 25.520026 -14.029354 43.531537 -0.667831 1.898934 0.087082 -0.018100 662684.000000 0 0 1
-30.929948 26.095626 -13.710454 42.727274 -0.700826 1.897458 0.099920 -0.018555 1044660.000000 0 0 1
-30.057438 25.420026 -12.776854 41.386898 -0.702001 1.884641 0.086013 -0.028620 252809.000000 0 0 1
-30.520668 25.228926 -11.467354 41.225115 -0.690762 1.852679 0.118603 -0.027734 -388305.000000 0 0 1
-30.732558 26.482626 -10.630354 41.938336 -0.711255 1.827068 0.132525 -0.023705 603738.000000 0 0 1
-29.537048 27.214226 -10.343754 41.473420 -0.744491 1.822864 0.129432 -0.015751 -18273.500000 0 0 1
-29.744468 28.216426 -9.380354 42.058187 -0.759041 1.795721 0.121333 -0.019582 -86591.400000 0 0 1
-28.703608 29.334526 -9.314454 42.085277 -0.796268 1.793968 0.133567 -0.009891 73075.100000 0 0 1
-29.164118 30.495426 -8.602554 43.064147 -0.807710 1.771911 0.117694 -0.016576 9613.840000 0 0 1
-28.153668 31.477626 -8.531554 43.084305 -0.841082 1.770134 0.172850 -0.011572 49267.700000 0 0 1
36.277754 -24.768674 33.118808 55.012890 -0.599055 0.924769 0.084959 -0.009012 5755.460000 0 0 1
35.755414 -23.484774 33.432614 54.292946 -0.581153 0.907418 0.081777 -0.015352 -151957.000000 0 0 1
34.642754 -23.583574 -33.316444 53.537751 -0.597700 2.242472 0.064251 -0.007787 -133928.000000 0 0 1
34.004494 -22.220774 -32.919694 52.285511 -0.578808 2.251853 0.051448 -0.010854 232853.000000 0 0 1
33.478244 -21.450974 33.576842 52.041728 -0.569841 0.869523 0.045309 -0.009904 82715.500000 0 0 1
33.143764 -20.173874 -33.594684 51.323455 -0.546776 2.284407 0.047175 -0.006471 64276.200000 0 0 1
32.859684 -19.244074 32.794607 50.255144 -0.529797 0.859835 0.055744 -0.014274 1157750.000000 0 0 1
34.053454 -19.078874 31.981763 50.462603 -0.510688 0.884377 0.080551 -0.026823 1280610.000000 0 0 1
33.721014 -18.438774 30.791342 49.246339 -0.500386 0.895343 0.090860 -0.024468 1253280.000000 0 0 1
35.087224 -18.292574 29.985072 49.647116 -0.480578 0.922331 0.081580 -0.029991 1255570.000000 0 0 1
35.941314 -17.262774 30.434272 50.160007 -0.447767 0.918839 0.077484 -0.032537 318909.000000 0 0 1
37.157804 -17.312674 29.712462 50.628663 -0.436016 0.943608 0.084306 -0.024227 269562.000000 0 0 1
-37.408798 -16.083274 29.988692 50.570856 0.406041 0.936013 0.077750 -0.024133 127976.000000 0 0 1
-36.035268 -16.354974 29.843482 49.564696 0.426059 0.924653 0.081621 -0.017728 3059.460000 0 0 1
-35.220048 -15.276074 30.250242 48.876245 0.409244 0.903436 0.081042 -0.021687 437151.000000 0 0 1
-33.706008 -15.635074 30.205942 47.884752 0.434325 0.888206 0.090271 -0.030096 184734.000000 0 0 1
-32.893958 -14.619974 30.706762 47.314494 0.418235 0.864537 0.085035 -0.025959 22965.700000 0 0 1
-31.561428 -15.024474 30.970872 46.701750 0.444296 0.845760 0.086778 -0.026910 297473.000000 0 0 1
-30.729718 -13.884274 31.592034 46.207632 0.424366 0.817979 0.074073 -0.023543 -179881.000000 0 0 1
-31.152268 -13.482474 32.889254 47.264616 0.408453 0.801189 0.098512 -0.027664 71372.700000 0 0 1
-30.372848 -12.444474 33.429241 46.849642 0.388861 0.776254 0.091359 -0.019811 -114865.000000 0 0 1
-30.766428 -12.021974 -32.754184 46.518142 0.372507 2.351974 0.081288 -0.019686 -227432.000000 0 0 1
-30.295838 -12.992774 -31.808084 45.808342 0.405138 2.338345 0.092491 -0.016424 407559.000000 0 0 1
-30.696598 -12.504274 -30.541794 45.071489 0.386827 2.315331 0.112004 -0.015711 -159480.000000 0 0 1
-30.788728 -13.649374 -29.514934 44.781497 0.417288 2.290401 0.113860 -0.012745 929611.000000 0 0 1
-32.045148 -14.335274 -29.700904 45.984076 0.420645 2.272992 0.109992 -0.014156 542083.000000 0 0 1
-32.405428 -14.858374 -28.445474 45.607324 0.429912 2.244269 0.127635 -0.023889 446199.000000 0 0 1
-33.677568 -15.754274 -28.551934 46.878446 0.437555 2.225675 0.114077 -0.024247 226148.000000 0 0 1
-33.495308 -16.967074 -29.234164 47.586275 0.468874 2.232346 0.110537 -0.021060 -918816.000000 0 0 1
-34.615539 -17.750374 -29.233854 48.661376 0.473824 2.215249 0.093786 -0.019872 -1141410.000000 0 0 1
-34.359237 -19.146074 -29.821284 49.360291 0.508379 2.219502 0.095919 -0.017655 39490.000000 0 0 1
-35.499822 -19.946674 -30.043464 50.603526 0.511919 2.206449 0.059389 -0.014602 73641.700000 0 0 1
-35.087668 -21.236074 -30.378394 51.038829 0.544255 2.208313 0.065897 -0.019876 253132.000000 0 0 1
-36.260268 -22.170274 -30.814864 52.496513 0.548775 2.198131 0.077119 -0.013138 296927.000000 0 0 1
-37.175308 -22.528374 -29.793504 52.698995 0.544822 2.171657 0.058406 -0.018768 54207.200000 0 0 1
37.321504 -23.457874 -30.144244 53.402640 -0.561137 2.170589 0.071974 -0.015736 155354.000000 0 0 1
-37.715848 -24.896674 -30.449774 54.493287 0.583451 2.163711 0.062469 -0.004121 -32747.500000 0 0 1
-37.080098 -25.109764 -31.707894 54.870980 0.595243 2.186904 0.074261 -0.005963 -243671.000000 0 0 1
-36.377178 -26.331704 -31.776174 55.012571 0.626556 2.186602 0.054343 -0.002513 -108593.000000 0 0 1
-36.729268 -27.304784 -32.849514 56.335432 0.639268 2.193343 0.071903 -0.008083 -433859.000000 0 0 1
37.547544 -27.944284 -32.650294 57.067879 -0.639803 2.179898 0.088278 -0.006949 -705094.000000 0 0 1
37.320324 -29.042184 -33.445284 57.920998 -0.661298 2.186373 0.091007 -0.016707 350271.000000 0 0 1
-37.360838 -30.320734 -33.035924 58.365670 0.681753 2.172462 0.087208 -0.017048 404670.000000 0 0 1
37.614514 -30.859384 -31.812434 58.130751 -0.687064 2.149879 0.095901 -0.026056 -21926.600000 0 0 1
-37.178988 -31.964814 -31.360184 58.202127 0.710130 2.139826 0.091442 -0.030202 -259001.000000 0 0 1
-37.641418 -32.397674 -29.921164 57.980701 0.710669 2.113034 0.094263 -0.035731 16856.200000 0 0 1
36.704334 -33.181644 -29.816244 57.768833 -0.735035 2.113123 0.118146 -0.029322 -73271.800000 0 0 1
36.135614 -33.111504 -28.536164 56.713904 -0.741755 2.098048 0.126923 -0.034897 203762.000000 0 0 1
34.841014 33.791346 -28.198214 56.132795 0.770105 2.097109 0.130657 -0.044347 434564.000000 0 0 1
33.728434 -33.504824 -28.989784 55.682924 -0.782072 2.118376 0.141065 -0.036318 -149985.000000 0 0 1
32.688834 33.250662 -28.897374 54.856400 0.793918 2.125607 0.123460 -0.037205 408732.000000 0 0 1
31.342304 33.612876 -29.580964 54.655273 0.820340 2.142693 0.077252 -0.011622 495756.000000 0 0 1
31.342934 33.181053 -30.933444 55.138369 0.813878 2.166408 0.091604 -0.002464 -635448.000000 0 0 1
30.118554 33.506478 -31.511964 54.980135 0.838596 2.181143 0.062231 0.011632 -322215.000000 0 0 1
29.911954 32.827031 -32.860484 55.246270 0.831828 2.207813 0.063828 -0.000023 51759.700000 0 0 1
29.602354 31.449956 -32.833024 54.253171 0.815652 2.220790 0.043415 0.009266 -87014.100000 0 0 1
29.475654 30.871456 33.470009 54.241152 0.808524 0.905796 0.056806 0.004934 117610.000000 0 0 1
29.402354 29.300586 33.456390 53.313721 0.783665 0.892409 0.064731 -0.013638 -558013.000000 0 0 1
30.554844 28.691226 -33.667174 53.761172 0.753953 2.247512 0.078039 -0.016092 -881473.000000 0 0 1
30.541274 27.245386 -33.611624 52.960568 0.728424 2.258357 0.071002 -0.022621 36741.100000 0 0 1
31.952864 26.706506 -33.318624 53.332483 0.696198 2.245587 0.091795 -0.029638 134159.000000 0 0 1
32.510304 26.979286 -32.048374 53.027352 0.692690 2.219777 0.100178 -0.021047 302807.000000 0 0 1
33.850324 26.492126 -31.922214 53.541619 0.664057 2.209572 0.127622 -0.023727 588298.000000 0 0 1
34.331804 26.763066 -30.507244 53.156622 0.662141 2.182072 0.127240 -0.031821 -637297.000000 0 0 1
34.712934 28.091646 -30.239854 53.931226 0.680359 2.166041 0.097488 -0.030835 -321961.000000 0 0 1
33.767214 29.124846 -30.178024 53.844169 0.711717 2.165749 0.131819 -0.030499 -103948.000000 0 0 1
32.873504 29.269396 -28.918354 52.665321 0.727466 2.152079 0.141931 -0.022714 -278333.000000 0 0 1
33.621884 29.616326 -27.783724 52.720899 0.722142 2.125859 0.100762 -0.031834 -241740.000000 0 0 1
32.830274 30.164736 -26.747464 51.991971 0.743110 2.111167 0.116657 -0.026038 -115382.000000 0 0 1
33.657314 30.665336 -25.523844 52.198125 0.738917 2.081716 0.127304 -0.035007 -121844.000000 0 0 1
34.408624 31.822190 -25.744684 53.473301 0.746366 2.073104 0.127438 -0.041032 -149197.000000 0 0 1
34.998404 32.143786 -24.508654 53.467611 0.742908 2.046971 0.100613 -0.053885 -224656.000000 0 0 1
35.278374 33.649272 -24.432654 54.532484 0.761768 2.035366 0.114729 -0.045659 -710318.000000 0 0 1
34.154924 -33.221334 -24.417554 53.539077 -0.771543 2.044370 0.115711 -0.035003 -385211.000000 0 0 1
34.434304 -31.843344 -24.227354 52.789057 -0.746326 2.047605 0.102938 -0.035161 -899386.000000 0 0 1
34.890474 -31.027584 -25.431874 53.168001 -0.726864 2.069549 0.096188 -0.035709 -281941.000000 0 0 1
36.118874 -31.379824 -26.007734 54.457953 -0.715304 2.068688 0.113157 -0.041379 38664.700000 0 0 1
37.230944 -30.775294 -25.314704 54.535274 -0.690754 2.053516 0.109797 -0.039615 -155534.000000 0 0 1
-36.943458 -31.100264 -26.043724 54.866393 0.699734 2.065391 0.071074 -0.033413 216869.000000 0 0 1
-36.308368 -32.416444 -25.848014 55.111190 0.728828 2.058972 0.066704 -0.037158 271774.000000 0 0 1
-36.034558 -32.869574 -24.568054 54.612155 0.739497 2.037410 0.073926 -0.034546 683518.000000 0 0 1
-34.697015 -32.240064 -23.946354 53.072897 0.748709 2.038903 0.054174 -0.033652 999394.000000 0 0 1
-34.806462 -30.860744 -23.647254 52.183023 0.725384 2.041103 0.038460 -0.030878 -165168.000000 0 0 1
-34.732632 -30.593794 -22.294454 51.374883 0.722126 2.019676 0.045652 -0.032666 -235486.000000 0 0 1
-34.866161 -29.077524 -21.949454 50.427474 0.695117 2.021132 0.050817 -0.011291 738253.000000 0 0 1
-36.080418 -28.353444 -22.248654 50.997225 0.666047 2.022248 0.029906 -0.011882 388948.000000 0 0 1
-36.133458 -27.826864 -23.555854 51.330687 0.656250 2.047557 0.054773 -0.014913 -62482.400000 0 0 1
-37.338398 -26.923624 -23.849454 51.844324 0.624728 2.048815 0.049399 -0.012783 136555.000000 0 0 1
-37.155958 -25.643504 -23.258354 50.784895 0.604090 2.046515 0.037482 -0.004322 361552.000000 0 0 1
37.302014 -24.846174 -23.824354 50.757979 -0.587597 2.059375 0.052273 -0.003649 347920.000000 0 0 1
37.613054 -24.338474 -25.255434 51.428981 -0.574316 2.084119 0.055557 -0.009338 -349458.000000 0 0 1
-36.768828 -23.484274 -25.203864 50.385440 0.568391 2.094651 0.045863 -0.016214 -190852.000000 0 0 1
-36.419408 -23.040774 -26.460174 50.570657 0.564082 2.121435 0.055854 -0.025330 574128.000000 0 0 1
-35.200654 -22.029374 -26.560014 49.293140 0.559191 2.139829 0.069879 -0.036832 433754.000000 0 0 1
-35.244841 -20.672274 -26.057424 48.461645 0.530459 2.138493 0.071257 -0.027496 -257839.000000 0 0 1
-36.276568 -19.802574 -26.457254 49.072575 0.499673 2.140218 0.073271 -0.027537 554723.000000 0 0 1
-37.471928 -19.623074 -25.429424 49.354493 0.482407 2.112084 0.060854 -0.020969 756646.000000 0 0 1
-37.130798 -18.985174 -24.152154 48.191903 0.472651 2.095742 0.056927 -0.031336 453395.000000 0 0 1
-36.266528 -19.719374 -23.228154 47.367308 0.498020 2.083326 0.040493 -0.031460 659033.000000 0 0 1
-36.943518 -20.984674 -22.623254 48.135140 0.516573 2.060081 0.053139 -0.017245 625082.000000 0 0 1
37.432124 -20.691674 -21.786854 47.999753 -0.504974 2.041928 0.047060 -0.018123 192732.000000 0 0 1
36.809314 -21.904374 -21.496654 47.925289 -0.536792 2.035933 0.051813 -0.008578 -302233.000000 0 0 1
35.754044 -21.790474 -20.383054 46.568716 -0.547343 2.023834 0.048926 -0.019829 -686927.000000 0 0 1
34.586414 -21.160374 -20.789754 45.565286 -0.549059 2.044587 0.064947 -0.017386 -745930.000000 0 0 1
33.648424 -21.282074 -19.743354 44.440332 -0.563963 2.031152 0.079097 -0.020032 165356.000000 0 0 1
32.223794 -20.732174 -20.002954 43.223999 -0.571708 2.051919 0.081174 -0.008867 -1052.580000 0 0 1
31.508804 -21.596674 -20.913154 43.549754 -0.600872 2.071694 0.084878 -0.008374 780700.000000 0 0 1
30.238854 -21.035974 -21.289054 42.545556 -0.607808 2.094837 0.113297 -0.007507 627758.000000 0 0 1
30.150054 -19.634474 -22.106254 42.228246 -0.577236 2.121744 0.098924 -0.001773 -615668.000000 0 0 1
30.489654 -18.486874 -21.344854 41.557025 -0.545063 2.110204 0.095036 -0.010346 5471.480000 0 0 1
30.546564 -17.344774 -22.228854 41.569889 -0.516417 2.134990 0.071440 -0.000126 -519889.000000 0 0 1
31.431004 -16.267774 -21.663854 41.495434 -0.477605 2.120082 0.058444 -0.005414 -653705.000000 0 0 1
30.917604 -15.543974 -20.544454 40.244105 -0.465849 2.106558 0.049710 -0.012015 60679.000000 0 0 1
31.905564 -14.868474 -19.801854 40.387498 -0.436092 2.083226 0.042636 -0.016330 -10330.300000 0 0 1
32.815604 -15.755574 -18.903454 41.017588 -0.447621 2.049763 0.059252 -0.021530 740348.000000 0 0 1
33.864814 -16.402574 -19.672854 42.460467 -0.451053 2.052536 0.053954 -0.020563 424747.000000 0 0 1
34.676984 -17.309474 -18.933554 43.134564 -0.462978 2.025217 0.052472 -0.023738 -51465.800000 0 0 1
35.748394 -17.785974 -19.915754 44.619792 -0.461671 2.033471 0.044031 -0.028622 -382186.000000 0 0 1
36.660544 -16.790274 -20.300454 45.144404 -0.429481 2.037201 0.052280 -0.034279 -558831.000000 0 0 1
37.688864 -17.368974 -21.027654 46.521973 -0.431841 2.039796 0.070861 -0.040362 -364750.000000 0 0 1
-36.837088 -16.330274 -21.655054 45.744838 0.417277 2.063929 0.096012 -0.044872 383067.000000 0 0 1
-36.067358 -15.554074 -20.714354 44.405720 0.407153 2.056103 0.133877 -0.051894 156619.000000 0 0 1
-35.717953 -14.320474 -21.314354 43.990338 0.381310 2.076615 0.161544 -0.050536 -426453.000000 0 0 1
-34.425731 -13.790874 -20.640154 42.442138 0.381022 2.078661 0.164031 -0.055410 755447.000000 0 0 1
-33.266908 -14.556874 -20.990354 41.942636 0.412476 2.094919 0.182415 -0.064481 520309.000000 0 0 1
-32.853108 -15.642274 -20.128254 41.583098 0.444368 2.076072 0.159832 -0.065459 64649.700000 0 0 1
-31.973888 -16.727274 -20.805954 41.653558 0.481999 2.093818 0.126531 -0.072014 191854.000000 0 0 1
-31.862208 -17.885174 -19.975854 41.642700 0.511499 2.071105 0.137462 -0.073477 404632.000000 0 0 1
-30.971788 -18.853574 -20.556454 41.680651 0.546817 2.086549 0.131643 -0.062467 172620.000000 0 0 1
-30.923368 -20.201874 -19.889854 41.952076 0.578683 2.064748 0.116655 -0.018137 251656.000000 0 0 1
-31.979128 -21.066774 -20.365954 43.373329 0.582513 2.059578 0.114660 -0.025110 734229.000000 0 0 1
-32.130268 -22.264674 -19.610654 43.733826 0.605979 2.035781 0.094373 0.003404 -293642.000000 0 0 1
-33.237378 -23.110974 -20.213054 45.248292 0.607585 2.033886 0.063965 -0.003309 -376550.000000 0 0 1
-32.879788 -23.569874 -21.527354 45.826263 0.621945 2.059815 0.062274 -0.011562 -217530.000000 0 0 1
-33.836268 -24.337974 -22.199754 47.223501 0.623553 2.060200 0.056842 -0.007767 -403086.000000 0 0 1
-33.634158 -24.562374 -23.709154 47.923802 0.630761 2.088316 0.051477 -0.010033 736607.000000 0 0 1
-32.413718 -25.277594 -23.973154 47.584850 0.662328 2.098786 0.072166 -0.021677 449514.000000 0 0 1
-32.133638 -25.329874 -25.375434 48.146504 0.667545 2.125917 0.064482 -0.015335 -85911.200000 0 0 1
-30.715588 -25.847284 -25.698024 47.664639 0.699541 2.140215 0.079171 -0.021915 389398.000000 0 0 1
-29.684768 -24.905574 -25.285444 46.269069 0.698074 2.148960 0.085956 -0.019699 -55102.000000 0 0 1
-28.495468 -25.477904 -25.768334 46.099049 0.729548 2.163949 0.076018 -0.016564 -59818.300000 0 0 1
-27.323278 -24.494674 -26.033294 44.992032 0.730865 2.187832 0.080506 -0.020748 151431.000000 0 0 1
-27.515808 -23.661874 -27.161804 45.329544 0.710235 2.213307 0.080160 -0.023763 559019.000000 0 0 1
-26.472788 -22.667374 -27.294354 44.267371 0.708112 2.235187 0.094930 -0.013908 566516.000000 0 0 1
-26.469848 -21.879174 -28.622724 44.705832 0.690733 2.265615 0.063759 -0.014578 -58728.600000 0 0 1
-26.012808 -22.602174 -29.720174 45.506188 0.715357 2.282470 0.072661 -0.009426 87797.000000 0 0 1
-25.925768 -21.936474 -30.982724 45.970463 0.702241 2.310366 0.063604 -0.005845 -255114.000000 0 0 1
-25.363508 -22.926774 -32.004064 46.831662 0.734981 2.323186 0.062657 -0.018984 -241792.000000 0 0 1
-26.230468 -23.956774 -32.401064 48.081113 0.740125 2.310249 0.038229 -0.015823 -227345.000000 0 0 1
-25.594408 -24.851274 -33.316634 48.812474 0.770668 2.322033 0.075450 -0.010513 309408.000000 0 0 1
-20.396178 -14.693974 -11.444854 27.620674 0.624305 1.998034 0.073784 -0.010822 108348.000000 0 0 1
-20.544978 -14.094874 -10.213354 26.927202 0.601302 1.959831 0.091207 -0.014941 -229205.000000 0 0 1
-19.713178 -14.691774 -9.277554 26.277949 0.640471 1.931630 0.078755 -0.021150 -252498.000000 0 0 1
-20.115778 -14.244774 -7.813754 25.857549 0.616168 1.877780 0.121113 -0.039693 -367828.000000 0 0 1
-21.254078 -14.880174 -7.336854 26.962656 0.610799 1.846383 0.144214 -0.035920 -347803.000000 0 0 1
-21.705978 -14.247374 -6.110054 26.673393 0.580847 1.801918 0.132236 -0.038561 410167.000000 0 0 1
-23.048878 -14.797574 -5.543454 27.945462 0.570737 1.770488 0.142422 -0.039032 154481.000000 0 0 1
-22.927178 -16.101074 -5.011354 28.460740 0.612248 1.747799 0.116386 -0.033306 261519.000000 0 0 1
-22.428378 -16.105174 -3.701554 27.858756 0.622752 1.704059 0.112719 -0.032315 -244299.000000 0 0 1
-22.248178 -17.537274 -3.174354 28.506384 0.667539 1.682384 0.076468 -0.016226 -67383.700000 0 0 1
-23.435978 -18.232874 -2.859154 29.830480 0.661173 1.666790 0.091307 -0.009385 85468.100000 0 0 1
-23.216378 -19.307674 -1.989454 30.261269 0.693738 1.636586 0.075937 -0.005940 -328371.000000 0 0 1
-24.392678 -20.280974 -1.854254 31.776704 0.693618 1.629182 0.094966 -0.022266 -250233.000000 0 0 1
-24.646478 -21.024174 -2.993154 32.533425 0.706250 1.662929 0.070987 -0.029387 553049.000000 0 0 1
-25.678958 -22.018974 -2.796854 33.942105 0.708816 1.653291 0.091902 -0.025362 596547.000000 0 0 1
-25.674948 -23.041074 -3.870454 34.714182 0.731385 1.682524 0.104000 -0.030723 -251233.000000 0 0 1
-24.587578 -23.933974 -3.810354 34.523947 0.771929 1.681390 0.103457 -0.032105 -345190.000000 0 0 1
-24.387278 -24.691074 -4.984154 35.060380 0.791588 1.713439 0.107496 -0.038801 527264.000000 0 0 1
-22.858778 -24.594274 -5.286854 33.990482 0.821955 1.726970 0.100449 -0.027658 626474.000000 0 0 1
-22.514878 -23.283674 -5.859754 32.914828 0.802183 1.749778 0.067751 -0.016419 212798.000000 0 0 1
-22.146278 -22.256374 -4.915554 31.779970 0.787878 1.726094 0.055380 -0.012363 -449896.000000 0 0 1
-21.854678 -20.835774 -5.509854 30.693890 0.761535 1.751284 0.060935 0.000720 320162.000000 0 0 1
-20.643378 -20.660774 -6.234454 29.864444 0.785819 1.781102 0.032112 0.006130 239370.000000 0 0 1
-20.714778 -19.356374 -6.813854 29.158186 0.751511 1.806663 0.021528 -0.001530 428981.000000 0 0 1
-19.594578 -18.986974 -7.845654 28.390261 0.769651 1.850791 0.044689 0.001158 -5606.330000 0 0 1
-19.598478 -19.624674 -9.128454 29.198576 0.786066 1.888761 0.041532 0.000660 272685.000000 0 0 1
-18.467078 -19.399074 -9.988354 28.585385 0.810006 1.927750 0.075208 -0.004574 178871.000000 0 0 1
-18.133778 -17.980274 -10.554354 27.631839 0.781148 1.962716 0.082178 -0.002619 -90032.600000 0 0 1
-17.717578 -17.048474 -9.578454 26.387683 0.766155 1.942271 0.090589 -0.015649 555486.000000 0 0 1
-16.338378 -17.251074 -9.237654 25.492673 0.812564 1.941600 0.123497 -0.013521 240562.000000 0 0 1
-15.869678 -16.168274 -8.182354 24.087563 0.794718 1.917386 0.093216 -0.014348 76936.400000 0 1 0
-16.448478 -16.389574 -6.913054 24.227275 0.783604 1.860159 0.065437 -0.007801 73190.100000 0 1 0
-16.512978 -15.132174 -6.239654 23.250686 0.741792 1.842491 0.076815 -0.015106 115588.000000 0 1 0
-17.073178 -15.277674 -4.779354 23.403909 0.729954 1.776455 0.069289 -0.017964 -169880.000000 0 1 0
-17.592478 -14.086674 -4.432654 22.969068 0.675181 1.764998 0.075840 -0.016843 -139076.000000 0 1 0
-18.207078 -14.158774 -3.189554 23.283939 0.660965 1.708214 0.068757 -0.018071 401846.000000 0 1 0
-19.162678 -12.980774 -2.724254 23.305155 0.595396 1.687959 0.091625 -0.014692 1148110.000000 0 1 0
-20.394678 -12.811274 -3.461654 24.332174 0.560874 1.713547 0.122039 -0.030944 861417.000000 0 1 0
-21.244978 -11.964874 -2.804854 24.543319 0.512910 1.685328 0.129852 -0.015570 -239259.000000 0 1 0
-22.765778 -11.925274 -3.103654 25.886782 0.482525 1.690979 0.125251 -0.008162 285905.000000 0 0 1
-23.137478 -11.576674 -4.408754 26.244988 0.463922 1.739581 0.157815 -0.040024 -486973.000000 0 0 1
-24.523978 -11.572874 -4.529754 27.493191 0.440916 1.736310 0.157088 -0.024150 -686581.000000 0 0 1
-24.964578 -11.206674 -5.971254 28.008491 0.421941 1.785640 0.176002 -0.042520 -120190.000000 0 0 1
-25.101528 -12.327574 -6.847454 28.791377 0.456509 1.810927 0.181158 -0.048074 238777.000000 0 0 1
-25.514388 -11.899674 -8.126354 29.302284 0.436401 1.851809 0.197655 -0.051404 133944.000000 0 0 1
-24.387178 -12.001574 -9.175254 28.687236 0.457329 1.896354 0.184134 -0.060979 54984.500000 0 0 1
-23.323678 -11.075674 -9.088554 27.372729 0.443341 1.909251 0.182422 -0.052172 -186593.000000 0 0 1
-22.354378 -11.452574 -10.004354 27.036397 0.473454 1.949841 0.151975 -0.045629 569971.000000 0 0 1
-20.913778 -10.823374 -9.765454 25.493050 0.477568 1.963907 0.142625 -0.038333 846041.000000 0 0 1
-20.908278 -9.446274 -10.154954 25.090063 0.424346 1.987491 0.140354 -0.040698 156930.000000 0 0 1
-19.888378 -8.610374 -9.682554 23.736848 0.408572 1.990963 0.127563 -0.029563 -451155.000000 0 1 0
-19.919278 -7.277074 -10.386954 23.614026 0.350264 2.026243 0.114001 -0.030622 -242835.000000 0 1 0
-19.373678 -7.242074 -11.665154 23.745796 0.357727 2.084322 0.113515 -0.029172 298970.000000 0 1 0
-19.277078 -5.934274 -12.169554 23.556727 0.298635 2.113679 0.110249 -0.042094 -134458.000000 0 1 0
-18.681478 -5.990974 -13.625154 23.885858 0.310329 2.177823 0.127927 -0.027629 -223300.000000 0 1 0
-19.582378 -6.436174 -14.598154 25.258661 0.317549 2.187006 0.137153 -0.041028 89067.300000 0 0 1
-19.105978 -6.170574 -15.885754 25.602179 0.312391 2.240157 0.138911 -0.043902 -196138.000000 0 0 1
-19.712978 -7.067774 -17.051654 27.005811 0.344257 2.254162 0.122056 -0.036101 -11958.200000 0 0 1
-21.030978 -6.858074 -17.483354 28.195795 0.315221 2.239628 0.109114 -0.039400 -4390.950000 0 0 1
-21.399578 -7.751174 -18.485654 29.321358 0.347512 2.252929 0.118202 -0.041761 267359.000000 0 0 1
-22.809378 -7.554374 -19.130554 30.713423 0.319826 2.243206 0.103857 -0.039315 122682.000000 0 0 1
-23.144578 -6.269874 -19.708354 31.038718 0.264551 2.258753 0.105343 -0.038108 560481.000000 0 0 1
-24.420478 -6.241774 -20.334554 32.385391 0.250238 2.249639 0.089753 -0.037495 542763.000000 0 0 1
-25.648738 -5.942674 -19.446954 32.731592 0.227677 2.206985 0.116927 -0.037081 -181861.000000 0 0 1
-25.724198 -4.583574 -19.049754 32.336305 0.176331 2.200758 0.121103 -0.032104 -368022.000000 0 0 1
-26.762768 -4.338474 -18.173954 32.639864 0.160711 2.161328 0.143465 -0.031814 -984043.000000 0 0 1
-26.747748 -2.834774 -17.969854 32.348008 0.105588 2.159780 0.130725 -0.026657 157475.000000 0 0 1
-27.253248 -2.090874 -19.092854 33.341391 0.076570 2.180528 0.138673 -0.029923 572047.000000 0 0 1
-28.643418 -2.203774 -19.358054 34.641539 0.076787 2.163747 0.152760 -0.028182 -20138.100000 0 0 1
-29.293768 -1.010274 -20.129454 35.557565 0.034474 2.172574 0.146177 -0.027007 -56618.700000 0 0 1
-28.798248 -0.661774 -21.415254 35.894152 0.022976 2.210082 0.135336 -0.020659 -79425.800000 0 0 1
-29.334158 -1.425474 -22.419754 36.948209 0.048556 2.222811 0.137580 -0.020793 -421524.000000 0 0 1
-28.333868 -1.596674 -23.583554 36.899071 0.056293 2.264172 0.140372 -0.023700 -324932.000000 0 0 1
-28.217458 -0.566174 -24.558654 37.412203 0.020062 2.286879 0.143735 -0.022849 109507.000000 0 0 1
-27.788658 0.706426 -24.131654 36.810939 -0.025416 2.285716 0.129349 -0.013973 602627.000000 0 0 1
-26.331668 0.879526 -23.541754 35.331919 -0.033389 2.300036 0.126297 -0.019036 1549340.000000 0 0 1
-25.269908 0.742426 -24.512754 35.213556 -0.029371 2.340771 0.107213 -0.017948 451071.000000 0 0 1
-23.959778 0.716026 -24.023454 33.936853 -0.029876 2.357298 0.088799 -0.017660 200660.000000 0 0 1
-22.884078 0.203226 -25.018654 33.906568 -0.008880 2.400706 0.073621 -0.011822 149428.000000 0 0 1
-22.907578 0.942326 -26.256704 34.857705 -0.041113 2.423792 0.049270 -0.010624 -42769.100000 0 0 1
-21.888878 0.468726 -27.080414 34.823720 -0.021411 2.461704 0.028037 -0.013751 -394948.000000 0 0 1
-21.762178 1.158726 -28.490814 35.870064 -0.053195 2.488615 0.018625 0.002948 -381910.000000 0 0 1
-21.008878 2.337726 -28.347224 35.361038 -0.110817 2.500849 0.020544 0.006204 139335.000000 0 0 1
-20.947978 3.166426 -29.520314 36.335836 -0.150021 2.519104 0.013294 0.005789 -39111.900000 0 0 1
-20.394178 2.576426 -30.865654 37.084351 -0.125666 2.554057 0.004407 0.001940 837622.000000 0 0 1
-18.959478 2.430026 -30.861434 36.301445 -0.127474 2.587054 -0.007507 0.004113 873842.000000 0 0 1
-18.547978 1.845826 -32.112284 37.129952 -0.099190 2.615672 -0.003383 -0.005152 1119220.000000 0 0 1
-16.976978 1.705426 -32.211744 36.451649 -0.100119 2.654472 0.002237 -0.019687 619254.000000 0 0 1
-16.383978 2.959726 -32.209544 36.258095 -0.178720 2.664515 0.007494 -0.011982 401485.000000 0 0 1
-14.974978 2.798426 -32.444654 35.843224 -0.184743 2.702605 0.040789 -0.024777 567538.000000 0 0 1
-14.295478 4.127226 -32.786564 36.004909 -0.281066 2.715563 0.056736 -0.025250 -345554.000000 0 0 1
-14.064878 5.019926 -31.679004 35.022560 -0.342819 2.701076 0.059278 -0.033740 171743.000000 0 0 1
-13.868878 6.363426 -32.111374 35.552487 -0.430171 2.697988 0.093050 -0.029302 -482507.000000 0 0 1
-13.775578 7.373026 -30.933854 34.655900 -0.491428 2.673876 0.103040 -0.033020 -488006.000000 0 0 1
-12.559478 7.433826 -30.219654 33.559347 -0.534435 2.691677 0.167446 -0.046632 -89084.500000 0 0 1
-12.473778 6.406426 -29.252614 32.439989 -0.474462 2.694587 0.143814 -0.044740 -264658.000000 0 0 1
-11.040978 5.861426 -29.040284 31.616413 -0.488045 2.735115 0.188714 -0.048442 31176.400000 0 0 1
-10.432378 5.052326 -29.998064 32.159670 -0.451003 2.772861 0.157066 -0.054651 189416.000000 0 0 1
-11.061178 3.769526 -30.108614 32.296867 -0.328445 2.771367 0.148076 -0.053856 -135639.000000 0 0 1
-10.618878 3.004426 -31.410884 33.293104 -0.275726 2.803730 0.123411 -0.049018 316399.000000 0 0 1
-11.349478 1.790526 -31.586884 33.611722 -0.156473 2.792718 0.125913 -0.041683 468096.000000 0 0 1
-10.816978 0.981126 -32.652534 34.411591 -0.090455 2.820471 0.103956 -0.031951 -367028.000000 0 0 1
-11.147178 1.288026 33.505682 35.334818 -0.115037 0.323168 0.106941 -0.037293 -897667.000000 0 0 1
-12.500278 1.252726 33.201888 35.499178 -0.099882 0.361730 0.066683 -0.034852 -856191.000000 0 0 1
-12.664178 1.610326 31.869809 34.331608 -0.126477 0.380999 0.063989 -0.025565 1227810.000000 0 0 1
-14.091478 1.391226 31.187472 34.251477 -0.098409 0.426199 0.048502 -0.029506 623453.000000 0 0 1
-15.129478 2.184326 31.641280 35.140333 -0.143385 0.450048 0.049956 -0.020091 -390423.000000 0 0 1
-16.322378 1.758226 31.004032 35.082209 -0.107305 0.486972 0.032507 -0.020674 -181238.000000 0 0 1
-17.187778 2.892326 30.487222 35.117745 -0.166716 0.519348 0.035136 -0.013941 -499382.000000 0 0 1
-17.915778 3.598526 31.513007 36.427930 -0.198220 0.525490 0.017804 -0.014649 441158.000000 0 0 1
-17.280478 4.705426 32.158821 36.809588 -0.265852 0.508135 0.016542 -0.010157 36654.500000 0 0 1
-18.043678 5.104426 33.464112 38.359826 -0.275689 0.510759 0.008450 -0.007316 458815.000000 0 0 1
-19.381378 5.542126 33.329497 38.951359 -0.278519 0.543953 -0.000334 -0.002554 72334.900000 0 0 1
-20.074678 5.400026 -33.028874 39.026395 -0.262777 2.579837 -0.006825 0.003630 712861.000000 0 0 1
-21.469978 6.117026 -32.965244 39.813129 -0.277557 2.546327 0.005497 -0.001255 329327.000000 0 0 1
-21.487878 7.501526 -32.786144 39.911565 -0.335877 2.534780 0.004081 -0.007635 254230.000000 0 0 1
-20.925578 8.313426 33.761142 40.580877 -0.378164 0.588189 -0.002194 -0.013336 -263521.000000 0 0 1
-20.928878 9.813826 -33.485874 40.689469 -0.438470 2.537401 0.022355 -0.016191 -629724.000000 0 0 1
-20.027278 10.203926 -32.475614 39.495284 -0.471220 2.536177 0.017206 -0.006795 111170.000000 0 0 1
-19.901478 11.629126 -32.223874 39.619231 -0.528821 2.520665 0.042191 -0.018263 88143.000000 0 0 1
-19.183678 12.510026 -33.280224 40.399103 -0.577863 2.538854 0.027724 -0.027065 -402719.000000 0 0 1
-19.967978 12.557326 33.161697 40.695267 -0.561380 0.618277 0.038092 -0.028392 -32402.300000 0 0 1
-19.199478 12.658626 31.988722 39.397197 -0.582900 0.623304 0.031938 -0.025877 132768.000000 0 0 1
-19.874778 11.953926 30.705862 38.480555 -0.541494 0.646897 0.039924 -0.025082 76075.300000 0 0 1
-19.808378 10.536126 30.787372 38.095198 -0.488843 0.629759 0.039807 -0.022942 489107.000000 0 0 1
-18.586778 9.963926 30.321362 36.934173 -0.492090 0.607712 0.034970 -0.026476 437128.000000 0 0 1
-18.693378 8.479126 30.381632 36.665809 -0.425835 0.594177 0.033339 -0.011516 -134965.000000 0 0 1
-19.546678 7.926226 29.408292 36.190404 -0.385241 0.622198 0.038529 -0.019825 194907.000000 0 0 1
-19.627178 6.475826 29.513402 36.030589 -0.318695 0.610920 0.032465 -0.017205 -29238.800000 0 0 1
-20.282978 5.699826 28.302812 35.283656 -0.273950 0.639908 0.050074 -0.027714 1025280.000000 0 0 1
-21.710678 5.893526 28.233162 36.099843 -0.265070 0.672791 0.072160 -0.034110 975023.000000 0 0 1
-22.292678 4.964926 27.321282 35.609921 -0.219139 0.696273 0.074959 -0.032247 -331617.000000 0 0 1
-23.767278 5.297126 27.084832 36.421576 -0.219291 0.732286 0.090455 -0.030888 -474836.000000 0 0 1
-23.971178 6.107526 25.973052 35.868073 -0.249478 0.761028 0.099012 -0.034288 -739288.000000 0 0 1
-25.321478 6.393226 25.983042 36.839776 -0.247314 0.787952 0.095691 -0.030957 -1096110.000000 0 0 1
-25.786668 7.232526 24.747332 36.464944 -0.273449 0.824858 0.095170 -0.030966 -228553.000000 0 0 1
-25.768708 6.596126 23.500402 35.493719 -0.250594 0.847178 0.088365 -0.021186 572387.000000 0 0 1
-26.805508 5.632426 23.270672 35.941392 -0.207109 0.866547 0.082166 -0.018641 60282.500000 0 0 1
-26.911258 4.989826 21.908252 35.058318 -0.183336 0.895782 0.091276 -0.008331 6744.090000 0 0 1
-27.680038 5.768926 21.005952 35.223785 -0.205473 0.931841 0.079619 -0.007699 237052.000000 0 0 1
-27.978558 5.012126 19.813952 34.648432 -0.177261 0.962028 0.103868 -0.017071 -121023.000000 0 0 1
-28.702008 5.695026 18.659852 34.704880 -0.195875 1.003122 0.124143 -0.024513 -164097.000000 0 0 1
-30.082858 5.760026 18.903252 35.992905 -0.189182 1.017853 0.131645 -0.021814 -72777.700000 0 0 1
-30.894138 6.067126 17.797052 36.166184 -0.193917 1.056306 0.152710 -0.018761 -127466.000000 0 0 1
-32.412318 6.072726 18.026352 37.581721 -0.185211 1.070532 0.161701 -0.017316 -47885.400000 0 0 1
-32.865908 7.303826 18.611952 38.469709 -0.218677 1.065796 0.170827 -0.019004 -444532.000000 0 0 1
-34.135166 7.161226 19.156252 39.792646 -0.206791 1.068543 0.193829 -0.023415 -620324.000000 0 0 1
-34.673956 8.387526 19.838652 40.819186 -0.237338 1.063275 0.188883 -0.017908 47818.500000 0 0 1
-34.254598 8.358626 21.213952 41.149433 -0.239338 1.029165 0.155459 -0.014606 171352.000000 0 0 1
-34.952057 9.313926 21.949952 42.310707 -0.260425 1.025373 0.155366 -0.019888 149865.000000 0 0 1
-0.211678 32.615426 12.020946 34.760811 -1.564306 1.217685 0.149344 -0.033444 -223235.000000 0 0 1
-0.824578 32.863126 13.268346 35.450162 -1.545710 1.187174 0.146043 -0.037268 -861324.000000 0 0 1
-0.167278 33.722626 14.115146 36.557911 -1.565836 1.174392 0.139454 -0.035700 -539939.000000 0 0 1
-0.445878 33.735526 15.711946 37.217600 -1.557580 1.134965 0.140211 -0.036550 -71903.300000 0 0 1
-1.667278 -33.413624 16.146546 37.147827 1.520940 1.121139 0.120218 -0.035928 -377109.000000 0 0 1
-1.775778 -33.571224 17.544446 37.920813 1.517950 1.089803 0.111058 -0.035270 138058.000000 0 0 1
-3.178578 -33.457724 18.204946 38.222280 1.476078 1.074364 0.115912 -0.029699 -91369.100000 0 0 1
-3.964678 33.090926 18.052946 37.902994 -1.451553 1.074362 0.114163 -0.031741 238840.000000 0 0 1
-4.993678 33.147126 19.065946 38.563961 -1.421269 1.053654 0.100270 -0.026318 -49954.000000 0 0 1
-6.041078 32.062626 18.978146 37.744889 -1.384565 1.043961 0.097516 -0.028178 -334346.000000 0 0 1
-7.057978 32.389126 18.058246 37.748785 -1.356239 1.071988 0.093389 -0.033091 -106369.000000 0 0 1
-8.128878 31.469726 18.068346 37.187195 -1.318014 1.063432 0.085653 -0.036035 339619.000000 0 0 1
-9.150178 31.705026 16.901746 37.075645 -1.289828 1.097445 0.086775 -0.047010 -129186.000000 0 0 1
-10.024578 32.772326 17.125046 38.311679 -1.273949 1.107396 0.092092 -0.036538 -239031.000000 0 0 1
-10.983478 32.711426 16.081846 38.069672 -1.246855 1.134670 0.094695 -0.036526 -32081.400000 0 0 1
-12.082178 33.784326 16.114146 39.332244 -1.227343 1.148679 0.097201 -0.041406 -407400.000000 0 0 1
-13.007878 33.660826 17.170346 39.963444 -1.202034 1.126690 0.094772 -0.038439 458149.000000 0 0 1
-14.047678 -33.073324 16.807046 39.669369 1.169143 1.133294 0.080118 -0.034952 542646.000000 0 0 1
-15.330978 -33.278824 17.644746 40.667629 1.139094 1.122005 0.100411 -0.028760 -87658.100000 0 0 1
-15.214878 -32.800824 18.968946 40.831452 1.136479 1.087651 0.093152 -0.022216 -59425.700000 0 0 1
-16.225578 -33.323324 19.791346 42.016790 1.117673 1.080333 0.094944 -0.026270 5020.110000 0 0 1
-16.073378 -32.729924 21.210746 42.184087 1.114301 1.043945 0.094114 -0.023421 17155.500000 0 0 1
-16.279078 -31.316024 21.273346 41.209914 1.091409 1.028366 0.099643 -0.029632 -72910.300000 0 0 1
-16.089978 -30.831324 22.575946 41.462408 1.089805 0.995013 0.096279 -0.026604 93664.400000 0 0 1
-15.888878 -29.329724 22.604446 40.294542 1.074322 0.975227 0.114126 -0.041247 -211054.000000 0 0 1
-15.767578 -28.852524 23.940246 40.672104 1.070653 0.941451 0.114059 -0.034553 -121542.000000 0 0 1
-15.760678 -27.392324 24.062546 39.720832 1.048685 0.920036 0.095276 -0.032630 717476.000000 0 0 1
-17.090778 -26.628024 23.641246 39.497530 1.000183 0.929107 0.117065 -0.026091 906669.000000 0 0 1
-18.073578 -26.721724 24.677646 40.616388 0.976111 0.917788 0.123071 -0.020870 277788.000000 0 0 1
-19.199578 -25.931124 24.296146 40.389970 0.933463 0.925370 0.122566 -0.017398 -134844.000000 0 0 1
-20.349878 -26.069524 25.335746 41.660985 0.907997 0.917080 0.108887 -0.014602 -56646.300000 0 0 1
-20.973778 -27.368524 25.405446 42.829571 0.916915 0.935799 0.106884 -0.012062 849069.000000 0 0 1
-21.900678 -27.679224 24.350146 42.880167 0.901425 0.966887 0.090360 -0.012566 633.205000 0 0 1
-23.304478 -27.046824 24.228946 43.147088 0.859586 0.974547 0.065038 -0.005590 -271311.000000 0 0 1
-23.426478 -25.677124 23.963346 42.217964 0.831201 0.967196 0.078732 -0.012044 460560.000000 0 0 1
-24.604578 -25.458824 23.180246 42.318563 0.802460 0.991117 0.068026 -0.011474 256422.000000 0 0 1
-24.910478 -23.980624 22.805446 41.420896 0.766382 0.987740 0.059177 0.002818 -237635.000000 0 0 1
-25.442468 -23.317924 23.896146 41.977024 0.741855 0.965182 0.047996 0.001246 -70845.500000 0 0 1
-26.079338 -22.134124 23.534646 41.520247 0.703752 0.968151 0.037768 0.006494 310621.000000 0 0 1
-26.706408 -21.202124 24.662946 42.083526 0.671008 0.944624 0.038907 0.010585 592193.000000 0 0 1
-27.771458 -21.797224 25.395246 43.488980 0.665452 0.947214 0.031533 0.009071 268297.000000 0 0 1
-28.186338 -20.964424 26.462646 43.980090 0.639508 0.925173 0.029049 0.001592 -852842.000000 0 0 1
-29.279468 -21.640924 27.297346 45.505625 0.636499 0.927461 0.030637 -0.001512 264699.000000 0 0 1
-30.638408 -21.643224 26.874046 46.144940 0.615014 0.949139 0.035214 -0.004932 708992.000000 0 0 1
-30.930278 -22.341624 25.715746 46.012279 0.625551 0.977751 0.029749 -0.004925 -1155980.000000 0 0 1
-32.417108 -22.657924 25.509246 47.063489 0.610021 0.997960 0.048790 -0.015396 -277925.000000 0 0 1
-32.745888 -23.280524 24.298946 46.954390 0.618034 1.026868 0.036512 -0.015396 36749.000000 0 0 1
-32.667898 -24.732524 24.348046 47.662529 0.648023 1.034632 0.032219 -0.010785 -364344.000000 0 0 1
-33.207968 -25.325424 23.028446 47.691252 0.651536 1.066873 0.034636 -0.004118 -703894.000000 0 0 1
-34.584145 -25.454024 22.970946 48.699433 0.634482 1.079592 0.050017 -0.012200 -879517.000000 0 0 1
-35.037589 -26.001924 21.740946 48.748348 0.638436 1.108524 0.040421 -0.004818 35001.700000 0 0 1
-36.399398 -26.716224 21.833246 50.153399 0.633166 1.120392 0.054402 -0.017785 -254219.000000 0 0 1
-36.393588 -28.005824 22.538246 51.154589 0.655881 1.114540 0.060772 -0.018668 -157512.000000 0 0 1
-35.548201 -29.045724 22.163546 50.975989 0.685069 1.120998 0.046265 -0.009408 -695910.000000 0 0 1
-35.982698 -29.837324 20.894346 51.201505 0.692302 1.150446 0.057855 -0.010486 -68577.800000 0 0 1
-35.883267 -29.232224 19.632746 50.275009 0.683609 1.169614 0.042977 -0.012383 324981.000000 0 0 1
-36.456258 -30.071824 18.672146 50.813604 0.689725 1.194516 0.053776 -0.009304 -286808.000000 0 0 1
-36.756798 -29.492124 17.249146 50.183469 0.676177 1.219919 0.055729 -0.006130 -55306.200000 0 0 1
-35.613928 -29.290624 16.432546 48.952233 0.688280 1.228464 0.068337 -0.019858 333152.000000 0 0 1
-35.992428 -28.750724 15.182946 48.503411 0.674008 1.252416 0.067501 -0.029204 130522.000000 0 0 1
-36.625898 -29.739824 14.122146 49.247828 0.682009 1.279957 0.064211 -0.033224 478356.000000 0 0 1
-35.668036 -30.554824 13.444746 48.852505 0.708339 1.291987 0.070093 -0.039059 283761.000000 0 0 1
-36.269308 -31.565024 12.626146 49.711498 0.716159 1.313995 0.077086 -0.031085 277977.000000 0 0 1
-36.727778 -31.054924 11.237246 49.392446 0.701901 1.341277 0.078030 -0.034795 986637.000000 0 0 1
37.640484 -30.147824 11.306546 49.533174 -0.675315 1.340504 0.082006 -0.037387 825284.000000 0 0 1
37.478574 -29.502024 10.041146 48.742564 -0.666869 1.363307 0.069384 -0.031358 478595.000000 0 0 1
36.279834 -28.494124 10.151246 47.235466 -0.665774 1.354199 0.104743 -0.026574 460352.000000 0 0 1
36.111784 -27.585324 9.053846 46.335550 -0.652330 1.374134 0.115499 -0.065029 -612716.000000 0 0 1
34.981264 -26.837524 9.290346 45.058318 -0.654417 1.363122 0.108294 -0.053745 -679492.000000 0 0 1
34.872774 -25.556924 8.446146 44.052289 -0.632442 1.377872 0.105966 -0.041290 627339.000000 0 0 1
35.848514 -24.584024 8.878246 44.365679 -0.601115 1.369321 0.102854 -0.040999 540983.000000 0 0 1
36.158624 -23.679824 7.845446 43.928706 -0.579803 1.391238 0.095144 -0.028717 -140917.000000 0 0 1
36.690134 -22.309624 8.212046 43.718680 -0.546321 1.381835 0.111162 -0.025056 -113522.000000 0 0 1
35.794844 -21.519324 8.943846 42.712347 -0.541290 1.359838 0.075794 -0.034427 -203644.000000 0 0 1
36.175294 -20.160224 8.745546 42.326955 -0.508425 1.362678 0.099133 -0.021684 562910.000000 0 0 1
35.450354 -19.087624 9.640146 41.400452 -0.493919 1.335788 0.085707 -0.011765 537877.000000 0 0 1
36.074414 -19.036424 10.904146 42.221430 -0.485560 1.309575 0.061509 -0.027571 362730.000000 0 0 1
35.219864 -18.331024 11.786446 41.417214 -0.479892 1.282230 0.075318 -0.016972 258395.000000 0 0 1
35.749444 -18.337324 13.257446 42.308865 -0.473946 1.252079 0.069425 -0.027453 1718270.000000 0 0 1
36.977304 -17.520324 13.418546 43.062050 -0.442479 1.253910 0.052992 -0.017078 1762990.000000 0 0 1
37.630894 -17.916224 14.630146 44.171444 -0.444349 1.233208 0.042429 0.000136 -332835.000000 0 0 1
-36.559398 -17.211124 14.948746 43.084537 0.439993 1.216465 0.072161 -0.019274 -98021.800000 0 0 1
-35.418978 -17.664724 14.222146 42.057293 0.462636 1.225834 0.062903 -0.011050 472289.000000 0 0 1
-34.244243 -17.057824 14.740246 40.998931 0.462144 1.203035 0.064503 -0.010367 -87169.000000 0 0 1
-33.088318 -17.007924 13.727246 39.655309 0.474797 1.217317 0.086035 -0.008597 -122222.000000 0 0 1
-32.517968 -18.252424 13.392346 39.622268 0.511479 1.226005 0.088829 -0.021584 605236.000000 0 0 1
-31.511238 -18.147624 12.373146 38.410794 0.522518 1.242821 0.086719 -0.015951 338109.000000 0 0 1
-30.780248 -19.386924 11.905546 38.275560 0.562079 1.254501 0.064808 -0.006627 438393.000000 0 0 1
-31.633888 -20.334324 11.248346 39.251916 0.571298 1.280154 0.085770 -0.011039 435278.000000 0 0 1
-30.769158 -21.221924 10.516146 38.829119 0.603789 1.296540 0.076638 -0.016843 206303.000000 0 0 1
-31.467208 -22.103124 9.498546 39.610045 0.612347 1.328635 0.079745 -0.016938 174481.000000 0 0 1
-32.143168 -23.327224 9.766746 40.899046 0.627786 1.329665 0.082582 -0.017482 816141.000000 0 0 1
-33.389888 -23.152224 10.474646 41.959842 0.606276 1.318493 0.100432 -0.022674 312916.000000 0 0 1
-34.157169 -24.464424 10.577346 43.325518 0.621536 1.324167 0.126849 -0.033227 -379880.000000 0 0 1
-34.449904 -24.968424 9.270646 43.544953 0.627161 1.356256 0.119499 -0.027019 -105644.000000 0 0 1
-34.990198 -26.262424 9.357446 44.739140 0.643863 1.360085 0.114303 -0.028878 -2954.140000 0 0 1
-35.134346 -27.078824 8.055446 45.084090 0.656632 1.391156 0.112004 -0.026518 -649580.000000 0 0 1
-33.949128 -27.444324 7.445446 44.285086 0.679839 1.401869 0.108077 -0.029549 -1041280.000000 0 0 1
-34.016347 -28.151824 6.200546 44.587934 0.691343 1.431281 0.100841 -0.025237 -318650.000000 0 0 1
-32.650618 -28.592524 5.648546 43.766441 0.719233 1.441374 0.109287 -0.022814 -191364.000000 0 0 1
-31.904328 -27.516324 5.140646 42.443615 0.711686 1.449381 0.113210 -0.017493 -255531.000000 0 0 1
-30.802868 -28.077324 4.428446 41.913768 0.739142 1.464943 0.115406 -0.033290 59596.400000 0 0 1
-29.953908 -26.989324 3.778846 40.496171 0.733383 1.477347 0.106124 -0.032800 -291816.000000 0 0 1
-30.539558 -26.385124 2.662946 40.446640 0.712546 1.504910 0.110446 -0.026842 17214.100000 0 0 1
-29.850118 -25.167724 2.287346 39.111070 0.700496 1.512280 0.103831 -0.035232 -7461.120000 0 0 1
-30.325188 -24.473824 0.969246 38.981079 0.679023 1.545929 0.115441 -0.035864 -196963.000000 0 0 1
-30.030458 -25.252224 -0.207554 39.237053 0.699180 1.576086 0.111553 -0.039434 47133.600000 0 0 1
-30.170158 -24.489024 -1.415254 38.883848 0.681833 1.607201 0.113859 -0.037724 468200.000000 0 0 1
-31.645108 -24.308424 -1.897354 39.948871 0.655021 1.618309 0.130291 -0.029794 380562.000000 0 0 1
-32.273158 -23.131124 -1.461554 39.733383 0.621866 1.607589 0.122034 -0.017612 1175290.000000 0 0 1
-33.651398 -23.121624 -1.947754 40.875663 0.602011 1.618465 0.130256 -0.022594 1743210.000000 0 0 1
-34.399977 -21.731924 -1.669954 40.723748 0.563433 1.611815 0.123324 -0.021158 170856.000000 0 0 1
-34.539944 -21.424624 -0.325154 40.646377 0.555202 1.578796 0.128793 -0.028166 111450.000000 0 0 1
-35.408986 -20.345424 -0.064454 40.837932 0.521521 1.572375 0.142131 -0.032968 -180651.000000 0 0 1
-35.658913 -20.034824 1.433846 40.926863 0.511893 1.535755 0.137511 -0.032729 -44822.500000 0 0 1
-36.669718 -20.876224 1.955546 42.241083 0.517543 1.524485 0.123541 -0.027908 191414.000000 0 0 1
-36.896408 -20.496824 3.272646 42.334087 0.507074 1.493414 0.121914 -0.021904 -918313.000000 0 0 1
37.484234 -21.341424 4.013246 43.320092 -0.517573 1.478022 0.143692 -0.014811 1327160.000000 0 0 1
36.214504 -21.222324 3.367046 42.109552 -0.530075 1.490752 0.097123 -0.009605 393627.000000 0 0 1
35.615494 -19.928124 3.474046 40.959279 -0.510134 1.485877 0.090014 -0.022337 -863708.000000 0 0 1
34.393694 -19.693024 2.535646 39.713611 -0.520011 1.506905 0.070552 -0.005955 1141540.000000 0 0 1
33.222614 -20.400924 2.986046 39.100592 -0.550699 1.494354 0.063719 -0.001817 1027930.000000 0 0 1
32.023224 -20.014024 2.269246 37.831171 -0.558588 1.510777 0.090394 -0.016135 811181.000000 0 0 1
30.799824 -20.813024 2.721146 37.272185 -0.594266 1.497724 0.086211 -0.003623 -203064.000000 0 0 1
30.749604 -22.064024 2.005246 37.899608 -0.622400 1.517862 0.074502 -0.005816 -841995.000000 0 0 1
29.668154 -22.803924 2.407746 37.496874 -0.655320 1.506540 0.080992 -0.005935 -669566.000000 0 0 1
29.283154 -24.033224 1.497646 37.912292 -0.687247 1.531283 0.068695 -0.000937 -126038.000000 0 0 1
28.620654 -23.631824 0.351846 37.117769 -0.690211 1.561317 0.076784 -0.009151 -156062.000000 0 0 1
28.142254 -24.661724 -0.498854 37.422399 -0.719579 1.584127 0.063933 -0.011936 129404.000000 0 0 1
27.063854 -24.263924 -1.535354 36.380593 -0.730902 1.613011 0.065716 -0.024706 -62473.200000 0 0 1
27.516554 -23.504924 -2.646554 36.285623 -0.706933 1.643798 0.068918 -0.028513 -249845.000000 0 0 1
28.323154 -24.139824 -3.585854 37.387037 -0.705828 1.666856 0.066394 -0.032569 -602225.000000 0 0 1
27.526254 -24.724124 -4.806054 37.310523 -0.731821 1.699968 0.071205 -0.033603 230898.000000 0 0 1
26.902754 -23.736224 -5.593654 36.310542 -0.722948 1.725463 0.072052 -0.042974 917281.000000 0 0 1
25.570454 -23.407024 -5.174154 35.050089 -0.741255 1.718960 0.081818 -0.039187 912632.000000 0 0 1
24.658954 -22.535124 -6.178154 33.971538 -0.740426 1.753677 0.090519 -0.044278 641374.000000 0 0 1
24.183054 -23.207424 -7.355854 34.314913 -0.764814 1.786836 0.100371 -0.056030 369336.000000 0 0 1
23.121554 -22.572324 -8.046754 33.299645 -0.773379 1.814859 0.101016 -0.057951 -107716.000000 0 0 1
23.325054 -21.291324 -8.899654 32.811316 -0.739847 1.845475 0.100627 -0.052526 -56518.900000 0 0 1
23.959454 -21.401124 -10.223554 33.713271 -0.729058 1.878898 0.105816 -0.052340 380592.000000 0 0 1
23.872554 -20.163724 -10.927854 33.104269 -0.701374 1.907210 0.101500 -0.048029 -316356.000000 0 0 1
24.803554 -20.165024 -12.147354 34.196531 -0.682611 1.933948 0.089701 -0.042776 -507825.000000 0 0 1
26.119054 -20.235724 -11.692054 35.048447 -0.659154 1.910913 0.136830 -0.047187 -725488.000000 0 0 1
27.019354 -19.721024 -12.647854 35.762166 -0.630503 1.932284 0.130158 -0.056207 -793039.000000 0 0 1
28.483854 -20.055624 -12.566254 37.033346 -0.613476 1.916993 0.120418 -0.041118 -741344.000000 0 0 1
28.914354 -21.351724 -12.997654 38.221395 -0.636066 1.917779 0.099395 -0.041365 153739.000000 0 0 1
29.002554 -22.404324 -12.054754 38.580033 -0.657743 1.888579 0.126668 -0.040333 -274368.000000 0 0 1
29.474854 -23.732924 -12.730654 39.926035 -0.677899 1.895319 0.089400 -0.038870 -328959.000000 0 0 1
30.834704 -23.755224 -13.071954 41.060512 -0.656433 1.894793 0.075617 -0.037428 -157498.000000 0 0 1
31.313444 -25.016424 -13.398954 42.259735 -0.674072 1.893426 0.075136 -0.038044 -135452.000000 0 0 1
-3.938178 -9.129374 -27.471304 29.215189 1.163539 2.794333 0.093567 -0.030902 145008.000000 0 0 1
-3.922378 -7.801674 -26.865114 28.248637 1.104942 2.827326 0.084168 -0.026498 -317110.000000 0 0 1
-4.732778 -6.872474 -27.513174 28.750736 0.967724 2.847120 0.083262 -0.022121 -304109.000000 0 0 1
-4.680178 -5.535574 -26.825164 27.787336 0.868936 2.877668 0.080327 -0.030259 248269.000000 0 0 1
-5.443578 -5.465374 -25.608904 26.745445 0.787396 2.849021 0.077792 -0.029824 474448.000000 0 0 1
-5.129078 -4.274574 -24.959654 25.837255 0.694778 2.880210 0.085514 -0.034286 72627.500000 0 0 1
-5.708678 -4.253174 -23.546454 24.599065 0.640317 2.847996 0.082018 -0.033395 -212694.000000 0 1 0
-5.123578 -5.186374 -22.709954 23.851447 0.791489 2.830964 0.069456 -0.036187 245890.000000 0 1 0
-5.504478 -4.998074 -21.336554 22.594879 0.737218 2.806286 0.059784 -0.028677 -11552.800000 0 1 0
-4.880578 -6.049074 -20.385954 21.817389 0.891904 2.777340 0.046926 -0.027318 -347594.000000 0 1 0
-5.497778 -7.342474 -20.482154 22.442284 0.928087 2.720540 0.049642 -0.023951 529157.000000 0 1 0
-4.599778 -8.352374 -20.055254 22.206605 1.067404 2.697780 0.043505 -0.021990 -755504.000000 0 1 0
-5.247778 -9.779174 -20.077654 22.940872 1.078278 2.636628 0.049729 -0.017439 -144634.000000 0 1 0
-6.233078 -10.013274 -19.113454 22.459765 1.014010 2.588699 0.042451 -0.017953 545665.000000 0 1 0
-7.499078 -9.446074 -19.527554 22.951903 0.899796 2.588308 0.047769 -0.019935 -35027.900000 0 1 0
-8.625778 -9.652674 -18.479054 22.562216 0.841520 2.530509 0.037879 -0.012623 -171438.000000 0 1 0
-9.240678 -10.917674 -18.563654 23.434909 0.868398 2.485098 0.048964 -0.013805 -165940.000000 0 1 0
-9.925378 -11.077974 -17.356554 22.857922 0.840220 2.433069 0.052831 -0.017919 -216178.000000 0 1 0
-10.970778 -12.256174 -17.457954 23.986495 0.840682 2.385940 0.072170 -0.015288 -717494.000000 0 1 0
-12.132778 -11.936574 -18.116054 24.857142 0.777247 2.387374 0.093487 -0.034797 -1022410.000000 0 1 0
-12.074678 -12.005174 -19.516854 25.900379 0.782512 2.424220 0.101284 -0.042916 -919425.000000 0 0 1
-13.446678 -11.695774 -20.202254 26.939475 0.715871 2.418726 0.093312 -0.042227 1130560.000000 0 0 1
-14.533878 -12.636074 -20.099254 27.836738 0.715662 2.377544 0.086785 -0.042204 374202.000000 0 0 1
-14.973078 -12.710374 -18.770254 27.167427 0.703845 2.333544 0.082438 -0.037483 -1563660.000000 0 0 1
-16.190978 -13.667974 -18.752654 28.295288 0.701101 2.295279 0.073892 -0.023650 -61952.600000 0 0 1
-15.917478 -15.058974 -18.941554 28.964138 0.757691 2.283611 0.088528 -0.032530 68764.500000 0 0 1
-16.554978 -15.494074 -20.137254 30.325610 0.752308 2.296998 0.076504 -0.014885 24088.900000 0 0 1
-16.193778 -16.927474 -20.562554 31.170442 0.807546 2.291191 0.034261 -0.000803 -12076.700000 0 0 1
-16.910678 -18.050874 -20.026354 31.825460 0.817999 2.251392 0.059780 -0.003905 231780.000000 0 0 1
-16.342878 -19.226174 -20.544354 32.539298 0.866283 2.254116 0.043928 -0.003519 182429.000000 0 0 1
-16.975378 -20.508774 -19.865254 33.217489 0.879384 2.211845 0.058816 -0.011415 72398.200000 0 0 1
-16.547378 -21.698074 -20.492454 34.125691 0.919267 2.214922 0.051428 -0.011001 118265.000000 0 0 1
-17.083178 -22.793174 -19.809954 34.695793 0.927624 2.178473 0.059062 -0.005007 27534.200000 0 0 1
-16.693678 -24.205174 -20.375254 35.773178 0.967034 2.176776 0.071160 -0.010270 108362.000000 0 0 1
-17.388978 -24.536374 -21.559154 37.002801 0.954254 2.192764 0.026195 -0.007529 153569.000000 0 0 1
-16.754778 -25.684244 -22.059354 37.775893 0.992780 2.194386 0.031749 -0.014763 -18244.600000 0 0 1
-17.096678 -26.164434 -23.539354 39.127678 0.992012 2.216304 0.027432 -0.016050 -571154.000000 0 0 1
-18.293578 -26.848354 -23.774954 40.258385 0.972686 2.202548 0.049958 -0.016499 -336244.000000 0 0 1
-18.092878 -28.227274 -23.617054 41.010931 1.000794 2.184467 0.063651 -0.024635 -322472.000000 0 0 1
-19.253178 -28.996794 -24.269754 42.432533 0.984659 2.179691 0.070875 -0.028526 -381298.000000 0 0 1
-19.375378 -29.041184 -25.700484 43.351015 0.982446 2.205385 0.070800 -0.023039 26351.900000 0 0 1
-19.406878 -27.777364 -26.335644 42.915906 0.960972 2.231480 0.064693 -0.022300 -641341.000000 0 0 1
-18.176878 -27.473494 -27.177114 42.705823 0.986299 2.260592 0.072107 -0.026690 -404215.000000 0 0 1
-18.318778 -27.819114 -28.554024 43.872691 0.988472 2.279484 0.081091 -0.024342 776019.000000 0 0 1
-17.112078 -27.561894 -29.310824 43.721912 1.015180 2.305533 0.065507 -0.012067 818649.000000 0 0 1
-17.351378 -27.870394 -30.799664 45.016091 1.013944 2.324292 0.084523 -0.014967 -85496.500000 0 0 1
-17.139678 -29.145504 -31.221754 46.022026 1.039193 2.316391 0.086409 -0.016251 -37960.900000 0 0 1
-17.552978 -29.439944 -32.518914 47.247191 1.033153 2.329901 0.087826 -0.009846 -42075.700000 0 0 1
-17.356978 -30.902114 -32.940084 48.386511 1.059033 2.319610 0.087650 -0.009838 294169.000000 0 0 1
-16.046678 -31.232464 -33.373404 48.443232 1.096184 2.330791 0.097104 -0.012675 109901.000000 0 0 1
-16.094378 -32.271674 33.220273 49.031383 1.108177 0.826396 0.082925 -0.011088 -3230.220000 0 0 1
-14.750478 -32.739884 32.624436 48.516290 1.147497 0.833292 0.075679 -0.014689 80313.400000 0 0 1
-13.933478 -33.525404 33.482386 49.387900 1.176906 0.825830 0.073691 -0.013797 784887.000000 0 0 1
-12.795778 33.657767 32.741482 48.668079 -1.207498 0.832876 0.061058 -0.013729 787039.000000 0 0 1
-11.776778 32.835973 33.586192 48.424436 -1.226432 0.804350 0.060805 -0.017139 269278.000000 0 0 1
-10.977978 33.625514 -33.129544 48.463986 -1.255229 2.323468 0.064282 -0.016437 -335731.000000 0 0 1
-10.157278 32.794822 -32.370484 47.186003 -1.270444 2.326799 0.066825 -0.018993 -397213.000000 0 0 1
-9.294978 33.617839 -31.413364 46.939910 -1.301046 2.303962 0.055385 -0.021806 -368898.000000 0 0 1
-10.021978 -33.342014 -30.440424 46.246614 1.278807 2.289248 0.076831 -0.022940 -590555.000000 0 0 1
-9.398378 -32.191484 -29.962824 44.971012 1.286739 2.299992 0.086798 -0.024757 -743227.000000 0 0 1
-10.278878 -31.196354 -29.178064 43.934352 1.252509 2.297124 0.099960 -0.029307 -36367.600000 0 0 1
-10.562278 -31.237004 -27.766514 43.107904 1.244732 2.270664 0.114799 -0.037575 62349.100000 0 0 1
-11.284578 -32.414024 -27.402194 43.919140 1.235781 2.244550 0.093368 -0.030441 45956.300000 0 0 1
-11.684778 -32.631374 -25.906264 43.272105 1.226938 2.212652 0.103207 -0.038239 749272.000000 0 0 1
-10.540178 -32.768084 -25.048954 42.571032 1.259588 2.199880 0.114855 -0.058595 409409.000000 0 0 1
-10.947378 -32.972504 -23.683354 42.046788 1.250232 2.169125 0.112839 -0.066671 760277.000000 0 0 1
-9.767778 -32.877364 -22.646054 41.099566 1.282005 2.154364 0.127643 -0.077855 502285.000000 0 0 1
-8.950978 33.686772 -22.594354 41.538217 -1.311085 2.145923 0.107854 -0.061190 -465148.000000 0 0 1
-7.987378 33.802666 -21.570554 40.886517 -1.338758 2.126535 0.123070 -0.065388 17644.200000 0 0 1
-7.131778 32.521075 -21.430554 39.594839 -1.354917 2.142715 0.132680 -0.063689 -595854.000000 0 0 1
-6.150978 32.263782 -22.372054 39.740345 -1.382410 2.168754 0.108392 -0.073795 -551423.000000 0 0 1
-5.646078 30.983586 -22.099454 38.473974 -1.390546 2.182667 0.086452 -0.058568 169032.000000 0 0 1
-4.159078 30.812286 -22.527854 38.395301 -1.436626 2.197817 0.099172 -0.065556 214623.000000 0 0 1
-3.844878 31.099166 -23.886754 39.402008 -1.447788 2.222110 0.114383 -0.063030 -208825.000000 0 0 1
-2.564878 30.586346 -24.196554 39.084222 -1.487135 2.238377 0.100441 -0.066443 74419.800000 0 0 1
-2.167278 30.796056 -25.652664 40.139175 -1.500537 2.264115 0.108532 -0.033389 -482492.000000 0 0 1
-1.569978 32.033432 -26.013414 41.295318 -1.521825 2.252267 0.115440 -0.056728 -224153.000000 0 0 1
-2.252978 33.233436 -25.718954 42.083272 -1.503107 2.228302 0.113263 -0.053267 -345758.000000 0 0 1
-1.578478 -33.208324 -26.354514 42.424578 1.523299 2.241080 0.053685 -0.026415 362335.000000 0 0 1
-0.252178 -32.960124 -25.924774 41.934798 1.563145 2.237268 0.106669 -0.040902 -86912.900000 0 0 1
0.324722 -31.938054 -26.702914 41.631603 -1.560629 2.267131 0.059553 -0.023223 -1023720.000000 0 0 1
1.684422 -31.557684 -26.180694 41.038438 -1.517471 2.262637 0.083942 -0.020708 -865669.000000 0 0 1
1.650322 -31.053534 -24.836154 39.797991 -1.517702 2.244718 0.067534 -0.020069 216188.000000 0 0 1
2.912622 -30.475864 -24.524954 39.226713 -1.475514 2.246198 0.059884 -0.026432 131963.000000 0 0 1
3.084422 -29.761044 -23.132354 37.819825 -1.467525 2.228936 0.076282 -0.028378 -113054.000000 0 0 1
3.103922 -30.595854 -21.989454 37.805776 -1.469693 2.191543 0.092107 -0.026893 373280.000000 0 0 1
3.394422 -29.829744 -20.887754 36.573679 -1.457491 2.178659 0.090682 -0.023989 -296531.000000 0 0 1
3.428122 -30.602484 -19.543854 36.472267 -1.459240 2.136317 0.092919 -0.016705 -480385.000000 0 0 1
2.206222 -31.126244 -19.116254 36.594284 -1.500035 2.120440 0.089422 -0.014109 -248981.000000 0 0 1
2.032422 -32.493274 -19.423454 37.910607 -1.508329 2.108714 0.090573 -0.018960 -256066.000000 0 0 1
2.772422 -33.538764 -18.520154 38.412643 -1.488321 2.073889 0.062194 -0.021696 835637.000000 0 0 1
4.163522 -33.701204 -18.808754 38.818492 -1.447877 2.076623 0.070453 -0.016576 732505.000000 0 0 1
4.821522 33.078527 -17.899054 37.918494 1.426056 2.062400 0.070921 -0.028873 -388231.000000 0 0 1
5.812422 32.176695 -18.516554 37.576412 1.392083 2.086067 0.095227 -0.029130 -570422.000000 0 0 1
7.049122 32.762632 -18.859754 38.454785 1.358870 2.083391 0.128753 -0.026040 -931376.000000 0 0 1
7.941922 31.851099 -19.354154 38.107085 1.326434 2.103528 0.110140 -0.045461 -302447.000000 0 0 1
9.313322 32.558887 -19.516154 39.085795 1.292191 2.093605 0.117437 -0.051666 -175049.000000 0 0 1
10.093322 32.774151 -18.389854 38.912811 1.272047 2.063025 0.104637 -0.040415 -147037.000000 0 0 1
11.311122 33.414444 -18.727154 39.939615 1.244394 2.058826 0.103297 -0.032759 61806.700000 0 0 1
12.295522 33.500073 -17.561654 39.772434 1.219032 2.028126 0.080877 -0.025989 -211989.000000 0 0 1
12.950522 32.307467 -17.232554 38.838761 1.189555 2.030514 0.078492 -0.027935 -133040.000000 0 0 1
13.818422 32.447731 -16.136654 38.783961 1.168191 1.999910 0.066636 -0.029118 54004.100000 0 0 1
14.771222 31.260586 -15.832854 38.027523 1.129374 2.000226 0.071438 -0.028172 247536.000000 0 0 1
14.383022 30.145916 -15.115754 36.662428 1.125625 1.995769 0.080627 -0.025137 -185051.000000 0 0 1
15.582622 29.489376 -14.718254 36.456391 1.084676 1.986378 0.092193 -0.025533 381551.000000 0 0 1
15.450822 28.218206 -13.743454 34.983962 1.069838 1.974525 0.095308 -0.029508 -386485.000000 0 0 1
15.241222 28.469946 -12.346254 34.572571 1.079275 1.935970 0.088920 -0.028098 -1370900.000000 0 0 1
13.944822 28.485506 -11.921854 33.882337 1.115551 1.930354 0.108267 -0.032052 -970444.000000 0 0 1
13.183522 27.128366 -11.733954 32.364165 1.118437 1.941810 0.102432 -0.030256 -758955.000000 0 0 1
12.732822 26.598996 -12.974254 32.217428 1.124337 1.985271 0.074729 -0.030360 86915.500000 0 0 1
12.246122 25.261286 -12.840254 30.870248 1.119400 1.999775 0.090205 -0.030119 352021.000000 0 0 1
11.184422 24.890356 -11.752954 29.711161 1.148485 1.977489 0.099407 -0.031266 -843180.000000 0 0 1
10.027922 25.664576 -11.691154 29.931802 1.198307 1.972072 0.085238 -0.022416 -69583.300000 0 0 1
9.582922 25.697656 -10.304854 29.298327 1.213859 1.930206 0.074951 -0.011437 -135350.000000 0 0 1
8.593022 26.854516 -10.042854 29.930987 1.261108 1.912968 0.077769 -0.013603 3179.220000 0 0 1
9.120222 28.136966 -10.207054 31.289795 1.257345 1.903088 0.077829 -0.023988 139604.000000 0 0 1
8.106222 29.127256 -10.030954 31.854795 1.299361 1.891144 0.070195 -0.025800 388299.000000 0 0 1
8.551022 30.507506 -10.509054 33.380655 1.297517 1.891068 0.084469 -0.025181 174295.000000 0 0 1
9.695222 30.980426 -9.806854 33.911039 1.267505 1.864181 0.066635 -0.022947 -55674.600000 0 0 1
10.025622 32.305050 -10.181654 35.324148 1.269878 1.863179 0.089252 -0.021517 -111230.000000 0 0 1
11.082322 32.450857 -11.303154 36.105918 1.241704 1.889205 0.075370 -0.020014 -714935.000000 0 0 1
12.359522 32.207600 -10.807154 36.150821 1.204380 1.874385 0.068691 -0.017126 -355336.000000 0 0 1
13.357222 32.547808 -11.777754 37.101088 1.181367 1.893836 0.079135 -0.012215 863995.000000 0 0 1
14.845522 32.399720 -11.361654 37.406130 1.141145 1.879410 0.093449 -0.021286 611380.000000 0 0 1
15.326022 33.330389 -10.378154 38.124899 1.139805 1.846490 0.095554 -0.012476 -113327.000000 0 0 1
16.732622 33.413927 -10.424654 38.796193 1.106535 1.842843 0.092606 -0.020555 -35795.700000 0 0 1
17.279822 -33.337864 -9.324354 38.690425 -1.092597 1.814191 0.102237 -0.021617 -120880.000000 0 0 1
17.266622 33.815156 -7.985254 38.799038 1.098691 1.778088 0.087263 -0.020669 174635.000000 0 0 1
17.708522 -32.841754 -7.127054 37.986411 -1.076277 1.759536 0.076321 -0.019583 -1045380.000000 0 0 1
18.018022 -33.374254 -5.655154 38.346717 -1.075758 1.718810 0.081897 -0.018539 482135.000000 0 0 1
19.136022 33.376431 -5.635454 38.883568 1.050211 1.716240 0.076105 -0.029457 872192.000000 0 0 1
20.407722 -33.727654 -5.872354 39.856170 -1.026654 1.718673 0.086702 -0.030493 -824486.000000 0 0 1
21.207522 33.096501 -6.892854 39.908005 1.000931 1.744385 0.070470 -0.022747 86428.600000 0 0 1
21.640422 31.808199 -6.490754 39.015373 0.973387 1.737937 0.071748 -0.012140 519519.000000 0 0 1
22.721122 31.846851 -5.528054 39.509881 0.951101 1.711173 0.065800 -0.016034 32199.400000 0 0 1
23.072822 30.425936 -4.946854 38.504079 0.921987 1.699629 0.042178 -0.014440 -454449.000000 0 0 1
23.671222 29.620386 -5.903354 38.373736 0.896572 1.725248 0.041068 -0.015850 -84327.200000 0 0 1
24.036922 28.348676 -5.361654 37.552209 0.867521 1.714065 0.044571 -0.009481 -342837.000000 0 0 1
24.982422 27.507796 -6.203754 37.673424 0.833472 1.736222 0.028410 -0.002694 -495551.000000 0 0 1
26.269522 28.097956 -6.248354 38.969538 0.819017 1.731831 0.044591 -0.007257 -253139.000000 0 0 1
27.218822 27.388856 -6.999154 39.242858 0.788512 1.750111 0.023215 -0.001326 -84317.600000 0 0 1
27.976322 26.373706 -6.111354 38.930652 0.755920 1.728429 0.019441 0.002867 -1034860.000000 0 0 1
28.894722 27.024196 -5.267654 39.911907 0.751960 1.703165 0.047557 -0.003998 -310732.000000 0 0 1
29.303922 25.986266 -4.357254 39.408014 0.725466 1.681591 0.059305 -0.002788 -686147.000000 0 0 1
30.597322 26.234776 -3.614954 40.466375 0.708786 1.660248 0.067432 -0.010489 -739460.000000 0 0 1
30.522722 27.161776 -2.557954 40.938268 0.727200 1.633320 0.078861 -0.018559 -1143950.000000 0 0 1
31.661622 27.267606 -1.819554 41.824532 0.710972 1.614315 0.087730 -0.035381 -994457.000000 0 0 1
31.552822 28.510716 -0.851554 42.534300 0.734793 1.590818 0.107419 -0.026582 46307.000000 0 0 1
31.858822 29.713406 -1.553454 43.592250 0.750568 1.606440 0.075997 -0.018292 30381.600000 0 0 1
31.361422 30.867096 -0.912954 44.013065 0.777455 1.591541 0.094008 -0.023614 -221960.000000 0 0 1
34.383744 22.071126 18.953752 45.040217 0.570664 1.136449 0.128560 -0.035319 62271.300000 0 0 1
34.714574 21.982326 20.311652 45.835440 0.564496 1.111695 0.131998 -0.039170 -185746.000000 0 0 1
35.497474 23.059126 20.723952 47.130417 0.576093 1.115515 0.146333 -0.029011 -14917.500000 0 0 1
35.704694 23.264726 22.213952 48.057594 0.577490 1.090281 0.113862 -0.014906 -400151.000000 0 0 1
34.490244 23.586826 22.805212 47.602448 0.599818 1.071194 0.093430 -0.009477 -323692.000000 0 0 1
34.647664 23.752526 24.197822 48.478632 0.600958 1.048186 0.089144 -0.006883 -99087.800000 0 0 1
33.358754 24.253226 24.875072 48.164247 0.628646 1.028081 0.085443 -0.007135 -42497.800000 0 0 1
33.110714 25.636426 24.731742 48.633371 0.658850 1.037315 0.070533 -0.011831 14480.100000 0 0 1
31.848344 26.012826 25.222112 48.240430 0.684884 1.020615 0.063345 -0.015930 -84884.600000 0 0 1
31.665414 27.533026 25.476492 49.089893 0.715706 1.025143 0.059596 -0.015698 -41919.900000 0 0 1
31.765594 28.333426 24.306612 49.016807 0.728352 1.051945 0.057113 -0.021004 344095.000000 0 0 1
31.451444 29.660326 24.666852 49.773305 0.756098 1.052289 0.072061 -0.029659 -32317.900000 0 0 1
31.603364 30.677826 23.496502 49.919808 0.770539 1.080729 0.066529 -0.026989 404134.000000 0 0 1
32.977244 30.977926 23.271752 50.879318 0.754147 1.095737 0.048600 -0.032227 432349.000000 0 0 1
33.138784 31.534126 21.930952 50.730137 0.760591 1.123748 0.054118 -0.023367 821122.000000 0 0 1
34.664564 31.817426 21.696052 51.814084 0.742599 1.138751 0.028812 -0.035888 850700.000000 0 0 1
35.037924 33.001926 22.357452 53.072016 0.755483 1.135955 0.049182 -0.017937 -290657.000000 0 0 1
36.426924 33.206626 22.373152 54.130941 0.739185 1.144704 0.046611 -0.018097 -167836.000000 0 0 1
36.782384 -33.222024 23.129982 54.695912 -0.734583 1.134172 0.050129 -0.010984 -196110.000000 0 0 1
36.281514 -32.020924 22.616822 53.415433 -0.723101 1.133586 0.043407 -0.010243 137285.000000 0 0 1
36.735374 -31.028824 23.542352 53.539873 -0.701385 1.115514 0.051714 -0.010127 -500572.000000 0 0 1
35.932954 -29.701524 23.453612 52.186489 -0.690740 1.104681 0.056474 -0.012918 882725.000000 0 0 1
34.533244 -29.785024 23.751922 51.418347 -0.711708 1.090621 0.058314 -0.009878 1051130.000000 0 0 1
33.716114 -30.141324 22.631062 50.571145 -0.729476 1.106818 0.056884 -0.005220 -579335.000000 0 0 1
33.021904 -31.469224 22.646022 50.927405 -0.761327 1.109988 0.051427 -0.009223 -617809.000000 0 0 1
32.106204 -31.581824 23.704832 50.893409 -0.777165 1.086287 0.075292 -0.018055 15640.800000 0 0 1
31.513414 -32.873124 23.754992 51.361826 -0.806513 1.089980 0.077686 -0.025335 -169175.000000 0 0 1
30.662144 -33.066824 24.997182 51.560072 -0.823113 1.064643 0.072043 -0.027503 -193665.000000 0 0 1
30.049754 33.345726 25.097122 51.427529 0.837342 1.060989 0.096480 -0.040341 416350.000000 0 0 1
29.184854 33.320726 26.241302 51.484293 0.851470 1.035966 0.100384 -0.033940 -284207.000000 0 0 1
28.767654 31.880026 26.593632 50.508764 0.836672 1.016300 0.101130 -0.025939 186177.000000 0 0 1
28.000354 31.163926 25.641072 49.118985 0.838818 1.021579 0.094267 -0.029654 263957.000000 0 0 1
26.619754 31.520126 25.681082 48.596786 0.869485 1.014020 0.084341 -0.031160 156690.000000 0 0 1
25.918854 31.079126 24.337722 47.223128 0.875686 1.029349 0.130068 -0.039870 194855.000000 0 0 1
26.260454 31.940426 23.267672 47.446674 0.882683 1.058252 0.130355 -0.045043 519650.000000 0 0 1
27.570554 31.769226 22.724832 47.810430 0.856037 1.075479 0.112957 -0.038964 334538.000000 0 0 1
27.797454 32.810126 21.600052 48.122397 0.867917 1.105311 0.131157 -0.033506 365336.000000 0 0 1
29.172054 32.978726 21.288352 48.906023 0.846571 1.120435 0.109297 -0.025417 482800.000000 0 0 1
29.112454 33.586226 20.038552 48.755647 0.856631 1.147246 0.109026 -0.030691 828221.000000 0 0 1
30.545374 -33.700524 19.521852 49.495938 -0.834469 1.165367 0.098957 -0.033079 932636.000000 0 0 1
31.286294 32.911526 18.980352 49.216405 0.810709 1.174883 0.091640 -0.034459 178659.000000 0 0 1
32.428254 33.339526 18.249152 49.961457 0.799253 1.196879 0.078234 -0.025376 273500.000000 0 0 1
33.275204 32.165826 17.707852 49.552473 0.768447 1.205361 0.053995 -0.022724 -259352.000000 0 0 1
34.142874 31.506126 18.584352 50.037486 0.745255 1.190271 0.040922 -0.022457 32645.400000 0 0 1
34.992904 30.622826 17.879952 49.819208 0.718895 1.203711 0.062139 -0.022368 413830.000000 0 0 1
36.136744 29.972126 18.693052 50.533383 0.692418 1.191879 0.078473 -0.033859 -158010.000000 0 0 1
37.109674 30.801526 19.237252 51.922382 0.692776 1.191249 0.079131 -0.031273 -532285.000000 0 0 1
-37.356668 29.995526 19.730052 51.812423 -0.676537 1.180137 0.109965 -0.028169 348160.000000 0 0 1
-36.174258 30.811826 20.368952 51.699514 -0.705516 1.165831 0.129355 -0.027634 576840.000000 0 0 1
-35.323773 31.466426 19.448652 51.148362 -0.727709 1.180741 0.137160 -0.029111 236670.000000 0 0 1
-34.270894 32.292626 19.944152 51.137824 -0.755687 1.170156 0.124771 -0.019857 388476.000000 0 0 1
-34.608196 33.642226 20.671052 52.505419 -0.771246 1.166150 0.096144 -0.017350 -297411.000000 0 0 1
-34.545999 33.435326 22.089252 52.908243 -0.769062 1.140103 0.098027 -0.016986 174874.000000 0 0 1
-34.337824 -33.001924 22.777052 52.792114 0.765563 1.124699 0.085140 -0.013450 -7176.430000 0 0 1
-34.408096 -33.113424 24.289612 53.576125 0.766226 1.100258 0.090684 -0.024475 -742659.000000 0 0 1
-35.697643 -33.373924 24.718372 54.764390 0.751769 1.102509 0.079149 -0.016220 -951603.000000 0 0 1
-35.730459 33.764826 26.002782 55.613612 -0.757121 1.084266 0.086502 -0.020557 986770.000000 0 0 1
-37.144888 33.457626 26.629002 56.641497 -0.733220 1.081356 0.073014 -0.028023 863119.000000 0 0 1
-36.972888 32.830726 27.917872 56.782555 -0.726127 1.056798 0.099165 -0.028467 7389.190000 0 0 1
37.248354 32.665126 28.489892 57.150016 0.719936 1.048916 0.097666 -0.033754 -120863.000000 0 0 1
37.394014 31.548826 29.610582 57.187650 0.700817 1.026543 0.104474 -0.025807 16899.900000 0 0 1
37.290934 30.191026 29.232602 56.184133 0.680572 1.023594 0.096427 -0.027551 1229550.000000 0 0 1
-37.101548 29.762526 28.378802 55.386724 -0.676075 1.032848 0.095229 -0.024923 766757.000000 0 0 1
-37.354448 28.327126 27.925332 54.567436 -0.648813 1.033566 0.100451 -0.022745 -282319.000000 0 0 1
36.958024 28.182326 27.174562 53.838610 0.651485 1.041714 0.091598 -0.021377 218716.000000 0 0 1
36.591464 26.884126 26.716032 52.682425 0.633644 1.038963 0.100278 -0.025074 -50386.900000 0 0 1
36.145884 25.894526 27.845002 52.463278 0.621641 1.011308 0.103592 -0.029683 -121293.000000 0 0 1
37.154764 25.403526 28.762012 53.414127 0.599717 1.002174 0.087274 -0.025934 457681.000000 0 0 1
36.917174 24.065026 29.126832 52.824006 0.577685 0.986762 0.096021 -0.021949 -91782.900000 0 0 1
37.496454 23.037726 28.206072 52.271440 0.550939 1.000825 0.102295 -0.010913 -196594.000000 0 0 1
36.808704 23.065426 26.977942 51.134176 0.559770 1.015034 0.113317 -0.015949 -25568.200000 0 0 1
37.354094 22.148126 26.050792 50.641007 0.535200 1.030464 0.110368 -0.026054 -160059.000000 0 0 1
37.134304 20.629026 26.172522 49.895032 0.507075 1.018608 0.107143 -0.024702 -652646.000000 0 0 1
35.778784 20.420426 25.838052 48.628388 0.518628 1.010619 0.118477 -0.009234 -54785.800000 0 0 1
35.315154 19.138226 26.084332 47.893885 0.496624 0.994851 0.110556 -0.006499 -339539.000000 0 0 1
35.085424 18.822926 27.573432 48.431226 0.492411 0.965104 0.091732 0.002799 -610273.000000 0 0 1
34.052294 19.451526 28.303682 48.363406 0.518993 0.945634 0.081996 -0.010828 163478.000000 0 0 1
34.022444 20.879826 28.344502 48.958193 0.550438 0.953352 0.087191 -0.020688 -1160910.000000 0 0 1
33.092964 21.289126 29.507112 49.183746 0.571660 0.927375 0.082587 -0.023813 -57129.800000 0 0 1
31.711454 21.022626 29.345122 48.048968 0.585415 0.913810 0.093826 -0.025645 537269.000000 0 0 1
30.953424 21.732526 28.332022 47.255906 0.612137 0.927864 0.081630 -0.009166 -194846.000000 0 0 1
30.958314 23.281826 28.490072 48.084767 0.644804 0.936642 0.092535 -0.008501 -351559.000000 0 0 1
32.183824 23.946026 28.158542 49.011368 0.639675 0.958766 0.083630 -0.017921 387308.000000 0 0 1
32.255944 25.211826 28.825072 50.069620 0.663431 0.957337 0.075849 -0.015845 150671.000000 0 0 1
32.585864 25.279726 30.369412 51.217227 0.659802 0.936075 0.076364 -0.025087 174634.000000 0 0 1
33.942034 24.931726 30.618402 52.068601 0.633532 0.942163 0.055654 -0.012818 61696.600000 0 0 1
34.254314 24.719726 31.984155 52.984989 0.625111 0.922730 0.070795 -0.011102 -9124.910000 0 0 1
33.598314 23.560926 32.847527 52.563523 0.611567 0.895779 0.070066 -0.014401 -268329.000000 0 0 1
33.920074 23.466726 -33.389834 53.067313 0.605218 2.251317 0.077282 -0.032978 -96870.400000 0 0 1
33.459024 22.401526 -32.663534 51.848251 0.589976 2.252328 0.062873 -0.037502 -526687.000000 0 0 1
34.130204 22.421326 -31.317664 51.462440 0.581235 2.225033 0.078902 -0.043306 -771787.000000 0 0 1
33.519674 23.148626 -30.368544 50.810195 0.604388 2.211408 0.059230 -0.046774 -377299.000000 0 0 1
33.965724 23.002426 -29.013144 50.244846 0.595276 2.186380 0.085667 -0.056040 -162020.000000 0 0 1
35.193224 23.782526 -28.511544 51.157401 0.594278 2.161963 0.090993 -0.024953 182821.000000 0 0 1
35.912884 23.215226 -27.460784 50.821025 0.573863 2.141641 0.077897 -0.021308 237716.000000 0 0 1
37.138624 23.854826 -27.138674 51.815420 0.570956 2.122051 0.088292 -0.010636 -12682.800000 0 0 1
-37.539748 23.176426 -26.101964 51.261018 -0.553104 2.105048 0.061053 -0.003251 -505397.000000 0 0 1
-36.857298 21.971826 -26.497534 50.431546 -0.537571 2.124000 0.042072 0.006184 275214.000000 0 0 1
-36.800438 20.920526 -25.570424 49.454901 -0.516925 2.114192 0.020123 0.012377 -653382.000000 0 0 1
-35.845756 19.798626 -25.849354 48.426159 -0.504629 2.133871 0.034611 0.020473 108804.000000 0 0 1
-34.486935 20.029626 -25.464624 47.317879 -0.526174 2.139050 0.055791 0.023559 155659.000000 0 0 1
-33.773108 18.853526 -25.510284 46.334143 -0.509148 2.153846 0.030062 0.008583 -557998.000000 0 0 1
-32.497428 18.924126 -24.682454 44.982540 -0.527323 2.151619 0.032753 0.005912 -452392.000000 0 0 1
-32.747448 19.096826 -23.292954 44.493211 -0.527941 2.121770 0.042470 0.010764 -649238.000000 0 0 1
-31.595628 19.407426 -22.607054 43.428226 -0.550827 2.118305 0.058487 0.011630 -588638.000000 0 0 1
-31.871938 19.818426 -21.148054 43.079353 -0.556305 2.083929 0.052423 0.015430 20931.000000 0 0 1
-32.517338 18.800126 -20.408354 42.747198 -0.524204 2.068512 0.036050 0.017756 94069.300000 0 0 1
-32.857318 19.379326 -19.145854 42.681675 -0.532888 2.035965 0.037534 0.017558 -705295.000000 0 0 1
-33.703838 18.357126 -18.393054 42.558632 -0.498734 2.017707 0.029459 0.011862 879819.000000 0 0 1
-34.761665 18.661026 -17.444854 43.138500 -0.492674 1.987110 0.036479 0.001497 1178970.000000 0 0 1
-35.820547 19.464526 -17.961654 44.548854 -0.497754 1.985796 0.031649 0.005480 -733919.000000 0 0 1
-36.845628 19.647026 -16.839754 45.024252 -0.489873 1.954131 0.024813 0.000758 -630762.000000 0 0 1
-36.567998 20.563926 -15.784154 44.824469 -0.512274 1.930645 0.029980 -0.005652 29501.000000 0 0 1
-37.487178 20.350926 -14.746454 45.132102 -0.497358 1.903648 0.046235 -0.004401 -645768.000000 0 0 1
-37.406758 21.425126 -13.590154 45.199489 -0.520150 1.876192 0.048672 -0.010349 -155206.000000 0 0 1
37.596984 22.717826 -13.926654 46.082367 0.543536 1.877809 0.066993 -0.014836 267691.000000 0 0 1
36.196664 22.818626 -13.761954 44.947520 0.562478 1.881972 0.058862 -0.006333 -178512.000000 0 0 1
35.794804 24.271126 -14.079354 45.481686 0.595851 1.885528 0.066051 -0.014257 228094.000000 0 0 1
36.411064 25.195326 -13.161554 46.193036 0.605316 1.859725 0.063255 -0.015886 345229.000000 0 0 1
36.068024 26.547326 -13.599454 46.803932 0.634503 1.865611 0.042692 0.002119 187297.000000 0 0 1
37.182074 27.397126 -14.293154 48.346700 0.635023 1.870920 0.077317 0.001951 185672.000000 0 0 1
37.606594 26.858526 -15.539454 48.755625 0.620191 1.895176 0.074280 0.002642 327408.000000 0 0 1
-36.845398 27.645626 -16.081454 48.790134 -0.643702 1.906681 0.079998 -0.005673 -707312.000000 0 0 1
-36.715928 27.414726 -17.628754 49.095820 -0.641367 1.938066 0.083996 -0.010201 3378.860000 0 0 1
-35.995438 26.241726 -18.057054 48.066172 -0.629944 1.955917 0.080813 -0.009750 728546.000000 0 0 1
-34.610409 26.377726 -17.768254 47.003996 -0.651221 1.958448 0.101211 -0.000537 262829.000000 0 0 1
-33.651608 25.250126 -18.354754 45.900943 -0.643718 1.982180 0.088640 -0.001489 227111.000000 0 0 1
-33.560998 25.294226 -19.736754 46.429279 -0.645852 2.009861 0.067805 0.008890 265998.000000 0 0 1
-32.754848 24.249126 -20.255154 45.510125 -0.637278 2.032048 0.060708 0.011967 -93409.200000 0 0 1
-32.672578 24.105926 -21.787954 46.079366 -0.635649 2.063302 0.058684 0.010113 -179824.000000 0 0 1
-33.843598 23.587126 -22.379254 46.931574 -0.608673 2.067862 0.058862 0.010651 81823.600000 0 0 1
-33.805578 23.464626 -23.747754 47.511700 -0.606759 2.094198 0.050398 0.013407 -368245.000000 0 0 1
-34.638312 24.501326 -24.513854 49.000578 -0.615640 2.094715 0.041765 0.002730 -345997.000000 0 0 1
-34.091925 25.844026 -24.401054 49.250223 -0.648645 2.089150 0.046971 0.000655 430465.000000 0 0 1
-34.759517 26.789426 -25.236314 50.623798 -0.656623 2.092672 0.069131 -0.008893 843714.000000 0 0 1
-33.732068 27.992526 -25.435934 50.679588 -0.692678 2.096587 0.061358 -0.012508 824066.000000 0 0 1
-32.690058 27.687726 -26.350504 50.295120 -0.702736 2.122240 0.034224 -0.015415 -549595.000000 0 0 1
-32.119788 28.886426 -26.740434 50.805090 -0.732447 2.125079 0.043067 -0.017908 89182.300000 0 0 1
-30.777518 28.668226 -27.484524 50.244620 -0.749930 2.149590 0.051036 -0.020582 -984506.000000 0 0 1
-29.743378 28.224626 -26.697814 48.929248 -0.759204 2.147950 0.060325 -0.018285 -446377.000000 0 0 1
-28.486408 28.311026 -27.380774 48.607576 -0.782310 2.169174 0.068820 -0.019986 641142.000000 0 0 1
-27.761228 29.643226 -27.128194 48.839999 -0.818171 2.159701 0.056343 -0.034306 -790105.000000 0 0 1
-27.163138 29.807126 -25.839674 47.895611 -0.831775 2.140639 0.053449 -0.035339 -123832.000000 0 0 1
-28.136718 30.192626 -24.888554 48.194498 -0.820630 2.113460 0.059678 -0.031119 -282512.000000 0 0 1
-27.696168 30.617626 -23.466954 47.489101 -0.835455 2.087658 0.038613 -0.025992 -184331.000000 0 0 1
-27.046208 31.871726 -23.512754 47.959920 -0.867118 2.083183 0.041052 -0.026916 120457.000000 0 0 1
-26.456578 32.274226 -22.313454 47.323001 -0.884132 2.061803 0.056240 -0.011666 -59865.000000 0 0 1
-25.758348 33.645626 -22.527954 47.989888 -0.917400 2.059443 0.051063 0.001003 192348.000000 0 0 1
-26.687928 -33.008924 -22.771654 48.170352 0.890890 2.063185 0.045814 -0.013694 -43774.600000 0 0 1
-25.966538 -31.866824 -23.003254 47.105257 0.887069 2.080980 0.065507 -0.020449 -158901.000000 0 0 1
17.631322 8.440626 -25.509174 32.137605 0.446487 2.487743 0.101842 -0.026660 -1075850.000000 0 0 1
16.416722 8.104326 -24.975854 30.967437 0.458565 2.509038 0.091059 -0.030191 -985766.000000 0 0 1
16.221922 6.787626 -25.343704 30.846814 0.396287 2.535006 0.093497 -0.037483 -628168.000000 0 0 1
14.820422 6.216226 -25.222434 29.907483 0.397149 2.574281 0.107387 -0.039994 -600164.000000 0 0 1
14.232022 6.299326 -23.941654 28.555818 0.416697 2.565167 0.133438 -0.054460 764750.000000 0 0 1
12.835722 5.994626 -24.025354 27.891019 0.436923 2.608818 0.138251 -0.044167 805767.000000 0 0 1
11.963322 6.255326 -22.764554 26.466490 0.481780 2.606316 0.136453 -0.051342 36942.100000 0 0 1
12.263322 5.275026 -21.779754 25.545502 0.406222 2.591712 0.126701 -0.039208 32371.800000 0 0 1
11.453422 5.250226 -20.638154 24.180140 0.429816 2.593494 0.128778 -0.036223 -331563.000000 0 1 0
11.666722 6.469826 -19.727954 23.815189 0.506333 2.547000 0.123088 -0.044493 -136877.000000 0 1 0
11.445522 6.291726 -18.320054 22.499115 0.502621 2.522244 0.120982 -0.038183 -283941.000000 0 1 0
11.706122 7.531926 -17.673454 22.496982 0.571734 2.474449 0.121493 -0.043260 -538949.000000 0 1 0
13.122022 8.052026 -17.457654 23.276432 0.550379 2.418880 0.116951 -0.031829 -752463.000000 0 1 0
13.592522 7.555626 -16.247054 22.490240 0.507336 2.378070 0.132114 -0.035726 319326.000000 0 1 0
14.940822 7.927626 -15.985854 23.272794 0.487828 2.327998 0.120745 -0.033232 319163.000000 0 1 0
15.585022 7.399626 -14.646854 22.631344 0.443278 2.274693 0.129313 -0.035879 -159956.000000 0 1 0
16.832922 8.028826 -14.517954 23.634304 0.445056 2.232263 0.109267 -0.034457 -68243.400000 0 1 0
17.382122 7.955926 -13.246554 23.257389 0.429245 2.176771 0.102629 -0.035488 -98715.400000 0 1 0
18.215422 9.184526 -12.873454 24.122250 0.467016 2.133737 0.135934 -0.035343 -385220.000000 0 1 0
17.462222 10.313826 -12.502354 23.824632 0.533506 2.123236 0.177643 -0.037340 349701.000000 0 1 0
18.260522 11.357726 -11.974354 24.613609 0.556427 2.078868 0.224029 -0.060787 37298.800000 0 1 0
17.433522 12.629426 -11.584454 24.446465 0.626937 2.064477 0.244046 -0.062372 -52187.800000 0 1 0
16.568522 12.453726 -10.446854 23.210945 0.644556 2.037655 0.273966 -0.049443 957830.000000 0 1 0
15.665222 13.534126 -10.225854 23.089821 0.712543 2.029597 0.152504 -0.038838 447378.000000 0 1 0
14.481022 13.796226 -11.187154 22.916987 0.761186 2.080776 0.124965 -0.050619 86545.900000 0 1 0
13.487022 14.776726 -10.863654 22.765553 0.830998 2.068259 0.164176 -0.053318 678951.000000 0 1 0
13.956622 16.129126 -11.018054 24.006947 0.857483 2.047612 0.193685 -0.049893 -38588.200000 0 1 0
13.306822 17.110126 -10.012854 23.876457 0.909792 2.003538 0.181239 -0.042107 35833.500000 0 1 0
13.742422 17.007026 -8.671954 23.522242 0.891170 1.948375 0.193181 -0.034599 231607.000000 0 1 0
12.716122 17.401126 -7.790054 22.916891 0.939720 1.917635 0.162792 -0.023084 -26503.700000 0 1 0
13.126722 17.270126 -6.306454 22.590694 0.920874 1.853717 0.146607 -0.017907 288398.000000 0 1 0
14.221822 18.141826 -6.060654 23.835218 0.905935 1.827892 0.186470 -0.019854 355240.000000 0 1 0
14.588222 18.241826 -4.706054 23.827031 0.896231 1.769613 0.175529 -0.010847 108524.000000 0 1 0
15.792422 19.221326 -4.469454 25.275205 0.883017 1.748563 0.160383 -0.013514 -417858.000000 0 0 1
17.017522 18.740026 -4.868454 25.777635 0.833533 1.760801 0.175409 -0.039649 -773773.000000 0 0 1
17.970022 19.751126 -5.059054 27.177614 0.832581 1.758036 0.105590 -0.036161 -390098.000000 0 0 1
19.117922 19.318926 -5.985654 27.830629 0.790628 1.787564 0.115397 -0.020888 274868.000000 0 0 1
20.207822 18.722726 -5.255854 28.044974 0.747269 1.759319 0.118506 -0.028814 467864.000000 0 0 1
20.323722 17.348626 -5.526354 27.286794 0.706589 1.774736 0.160802 -0.048098 46516.200000 0 0 1
21.429922 16.614026 -4.724054 27.524246 0.659480 1.743283 0.160606 -0.055402 380299.000000 0 0 1
22.761222 17.000626 -5.005354 28.846977 0.641522 1.745193 0.105997 -0.051508 87072.600000 0 0 1
23.667622 16.207826 -4.280454 29.002970 0.600458 1.718924 0.110716 -0.059351 480212.000000 0 0 1
25.176722 16.490226 -4.545354 30.437726 0.579867 1.720690 0.094957 -0.050025 692401.000000 0 0 1
25.753422 17.601226 -3.851754 31.430525 0.599533 1.693653 0.087819 -0.044202 -743895.000000 0 0 1
27.132522 17.610426 -3.843454 32.574116 0.575709 1.689063 0.087563 -0.031790 -907724.000000 0 0 1
27.714822 18.842826 -3.035054 33.650780 0.597096 1.661112 0.097004 -0.025492 -52830.400000 0 0 1
27.660622 20.006426 -3.838254 34.352573 0.626181 1.682761 0.080554 -0.031382 145559.000000 0 0 1
27.606522 21.203526 -3.031054 34.941335 0.654961 1.657652 0.101432 -0.011519 -224559.000000 0 0 1
27.373922 22.485526 -3.820754 35.630446 0.687667 1.678236 0.070930 -0.009119 -189443.000000 0 0 1
28.390922 22.959226 -4.672854 36.810407 0.680012 1.698084 0.061006 -0.002987 -96280.000000 0 0 1
28.716722 22.164826 -5.796854 36.735993 0.657335 1.729256 0.041238 -0.004445 -139339.000000 0 0 1
29.877822 22.756126 -6.616654 38.135360 0.650909 1.745183 0.041623 -0.005256 -126877.000000 0 0 1
29.427222 23.632826 -7.652054 38.510074 0.676625 1.770830 0.022636 0.003388 144905.000000 0 0 1
30.407222 24.514626 -8.198254 39.909616 0.678516 1.777690 0.024529 0.004256 -164178.000000 0 0 1
31.318522 23.856526 -9.248554 40.441556 0.650972 1.801527 0.027265 -0.007476 -287950.000000 0 0 1
30.746622 23.695626 -10.538454 40.223084 0.656602 1.835890 0.029878 -0.000338 -338221.000000 0 0 1
31.519022 22.944326 -11.421754 40.624467 0.629240 1.855793 0.024232 -0.008880 -305997.000000 0 0 1
30.918922 22.697026 -12.847354 40.449836 0.633236 1.894006 0.042052 -0.002458 49301.800000 0 0 1
31.222122 23.667426 -13.785454 41.533200 0.648623 1.909128 0.044526 -0.011399 72953.100000 0 0 1
30.842922 23.154026 -15.041654 41.396209 0.643954 1.942666 0.054998 -0.016526 37023.800000 0 0 1
31.238422 24.081026 -16.227754 42.650614 0.656730 1.961113 0.060026 -0.010214 1359660.000000 0 0 1
32.671022 24.085626 -16.456154 43.798608 0.635270 1.955973 0.042099 -0.000972 1037900.000000 0 0 1
32.995922 24.924826 -17.528554 44.913562 0.646942 1.971724 0.053502 -0.009076 451482.000000 0 0 1
34.507022 25.232226 -17.741654 46.283540 0.631373 1.964190 0.045885 -0.005921 385673.000000 0 0 1
35.291022 24.075926 -17.972454 46.347768 0.598687 1.969012 0.055138 -0.000087 -654045.000000 0 0 1
36.639622 24.402026 -17.814854 47.489892 0.587542 1.955333 0.051463 0.003564 -829561.000000 0 0 1
37.620822 23.246426 -17.754854 47.654564 0.553487 1.952578 0.037401 -0.003483 -378590.000000 0 0 1
37.742222 22.468026 -18.939354 47.832904 0.536958 1.977897 0.034620 0.004514 116691.000000 0 0 1
-36.720510 22.829026 -19.813454 47.561888 -0.556221 2.000479 0.059482 0.015725 -199254.000000 0 0 1
-36.871610 21.978326 -21.101454 47.831305 -0.537530 2.027692 0.055270 0.010966 57760.300000 0 0 1
-36.563610 20.649426 -20.831754 46.874922 -0.514100 2.031314 0.033888 0.012623 48583.300000 0 0 1
-36.051410 20.029426 -21.974154 46.730563 -0.507117 2.060349 0.044267 0.015558 -126083.000000 0 0 1
-36.025010 18.497726 -21.812354 45.997239 -0.474365 2.064863 0.041381 0.011897 -482127.000000 0 0 1
-37.200010 17.912726 -21.357654 46.485007 -0.448758 2.048175 0.037833 -0.000463 -339894.000000 0 0 1
-37.028410 16.513126 -21.346254 45.819745 -0.419488 2.055419 0.034496 -0.005732 -417109.000000 0 0 1
37.110122 15.838626 -21.330354 45.639974 0.403395 2.057100 0.034164 -0.009549 -524108.000000 0 0 1
36.468422 15.853626 -22.611854 45.744718 0.410076 2.087832 0.040348 0.000371 1135400.000000 0 0 1
35.247422 15.079726 -22.594454 44.500430 0.404261 2.103351 0.063793 0.000880 631210.000000 0 0 1
35.515122 13.732926 -23.291854 44.636618 0.368970 2.119768 0.035687 0.000228 -355980.000000 0 0 1
35.785422 13.839126 -24.669654 45.614797 0.369011 2.142215 0.043987 -0.005278 55240.600000 0 0 1
36.402822 12.674626 -25.130894 46.014926 0.335050 2.148554 0.027381 0.004989 -270367.000000 0 0 1
36.579222 12.607126 -26.653804 46.983022 0.331903 2.174028 0.022790 0.009340 351644.000000 0 0 1
35.366222 12.370126 -27.368834 46.398737 0.336472 2.201684 0.008764 0.005750 301102.000000 0 0 1
34.775622 13.524726 -27.898484 46.589565 0.370913 2.212816 0.027176 0.002701 -294483.000000 0 0 1
35.173122 13.877526 -29.389954 47.890538 0.375799 2.231522 0.038721 -0.011742 -522209.000000 0 0 1
36.549922 13.922726 -29.624064 49.064491 0.363954 2.219028 0.034490 0.001918 -544576.000000 0 0 1
36.976822 14.026926 -30.961704 50.226160 0.362573 2.235017 0.052438 -0.012179 -284093.000000 0 0 1
-37.014210 14.216926 -31.157664 50.427896 -0.366719 2.236822 0.072040 -0.011752 -130832.000000 0 0 1
-36.099010 13.229926 -30.736524 49.222996 -0.351289 2.245203 0.082071 -0.006138 66681.200000 0 0 1
-35.887910 13.041026 -29.361564 48.167540 -0.348546 2.226316 0.062636 -0.001459 -466058.000000 0 0 1
-34.792410 11.996926 -29.070024 46.898873 -0.332048 2.239341 0.067023 -0.006601 55301.000000 0 0 1
-35.196610 10.739326 -29.566404 47.204944 -0.296151 2.247647 0.069779 -0.007695 942234.000000 0 0 1
-34.206210 9.688526 -29.329734 46.088671 -0.276010 2.260588 0.075629 -0.011155 787249.000000 0 0 1
-34.722710 8.301226 -29.784614 46.494087 -0.234667 2.266090 0.086754 -0.014922 -416228.000000 0 0 1
-34.890510 8.267626 -31.198904 47.529706 -0.232668 2.286845 0.098710 -0.019977 253059.000000 0 0 1
-35.456310 7.085826 -31.767284 48.130231 -0.197248 2.291652 0.112917 -0.022961 1213840.000000 0 0 1
-36.908510 6.605826 -31.362694 48.882447 -0.177103 2.267371 0.116922 -0.009753 601360.000000 0 0 1
-36.864810 6.008826 -30.110004 47.976375 -0.161575 2.249264 0.100285 -0.012137 917315.000000 0 0 1
37.384422 5.415126 -29.721224 48.065266 0.143849 2.237440 0.075064 -0.002967 540155.000000 0 0 1
37.552822 4.885226 -28.298944 47.274836 0.129363 2.212555 0.074196 -0.009807 -56954.600000 0 0 1
-37.216910 3.690926 -28.160074 46.815714 -0.098850 2.216185 0.091828 -0.005475 250157.000000 0 0 1
-37.554810 3.000326 -26.962204 46.328459 -0.079723 2.191957 0.102483 -0.006684 -438504.000000 0 0 1
-36.897710 1.648826 -26.894144 45.688670 -0.044657 2.200171 0.145882 -0.018519 -854394.000000 0 0 1
-35.519910 1.727626 -26.709234 44.475070 -0.048600 2.214978 0.143631 -0.016873 -189849.000000 0 0 1
-34.926110 0.422526 -26.410584 43.789618 -0.012097 2.218209 0.159750 -0.024832 1297820.000000 0 0 1
-33.643910 0.476426 -25.468084 42.199087 -0.014160 2.218707 0.153449 -0.022305 997215.000000 0 0 1
-33.948110 0.698726 -24.086054 41.630522 -0.020579 2.187767 0.155632 -0.022185 223514.000000 0 0 1
-32.763610 0.669326 -23.345354 40.235652 -0.020426 2.189790 0.178348 -0.017071 -197533.000000 0 0 1
-33.101210 0.274326 -21.935554 39.710627 -0.008287 2.156019 0.168253 -0.007177 -469344.000000 0 0 1
-33.281810 -1.147974 -21.931654 39.874731 0.034479 2.153177 0.178168 -0.024512 272803.000000 0 0 1
-33.704110 -1.627974 -20.666254 39.569071 0.048264 2.120322 0.171530 -0.028859 734942.000000 0 0 1
-35.136110 -1.240574 -20.117154 40.506606 0.035293 2.090518 0.175305 -0.026541 109653.000000 0 0 1
-36.103510 -2.148774 -20.541754 41.593801 0.059447 2.087326 0.158081 -0.027167 -782103.000000 0 0 1
-37.373110 -1.813974 -20.071654 42.460701 0.048499 2.063161 0.156616 -0.023435 143615.000000 0 0 1
37.128222 -3.050374 -19.994454 42.279875 -0.081974 2.063384 0.145557 -0.028592 273022.000000 0 0 1
36.714122 -3.492674 -21.238754 42.558315 -0.094846 2.093299 0.122028 -0.025617 144019.000000 0 0 1
37.632522 -4.377874 -21.889754 43.755386 -0.115812 2.094713 0.122677 -0.024373 66523.900000 0 0 1
37.059122 -5.184874 -23.063154 43.956462 -0.139006 2.123138 0.116532 -0.023794 -846742.000000 0 0 1
36.618422 -6.482874 -22.653354 43.544356 -0.175223 2.117924 0.128586 -0.020466 89770.400000 0 0 1
35.992422 -7.248374 -23.639654 43.667226 -0.198728 2.142849 0.119619 -0.015882 288565.000000 0 0 1
34.589622 -6.781074 -24.120654 42.711016 -0.193588 2.170915 0.079215 -0.006483 -555207.000000 0 0 1
34.595722 -5.591774 -24.879554 42.978182 -0.160246 2.188161 0.092026 -0.016850 29707.500000 0 0 1
33.291422 -5.116174 -25.169934 42.047825 -0.152485 2.212552 0.056973 -0.012387 214567.000000 0 0 1
33.262922 -3.902274 -26.138634 42.483855 -0.116782 2.233513 0.100369 -0.049450 -161291.000000 0 0 1
33.646422 -4.323874 -27.392784 43.602090 -0.127809 2.250091 0.102574 -0.048631 229431.000000 0 0 1
33.417922 -3.351074 -28.410954 43.990562 -0.099944 2.272922 0.106310 -0.053938 17331.600000 0 0 1
32.634822 -3.862974 -29.679154 44.280993 -0.117821 2.305336 0.121418 -0.051162 352915.000000 0 0 1
32.209422 -2.776374 -30.461554 44.419156 -0.085985 2.326465 0.111599 -0.059490 -59917.800000 0 0 1
31.393722 -3.168174 -31.537934 44.612155 -0.100577 2.355953 0.113243 -0.059751 -509038.000000 0 0 1
30.744922 -2.023874 -32.338014 44.666469 -0.065733 2.380363 0.114052 -0.051677 -1018090.000000 0 0 1
29.754522 -1.259074 -31.681834 43.481668 -0.042290 2.387109 0.105967 -0.048326 475691.000000 0 0 1
28.453222 -1.795074 -31.485894 42.475518 -0.063005 2.405759 0.126103 -0.054044 315664.000000 0 0 1
27.695922 -2.221274 -32.810874 42.994786 -0.080031 2.438949 0.108145 -0.050652 -1830940.000000 0 0 1
28.276722 -3.266974 -33.514084 43.970899 -0.115026 2.437482 0.107626 -0.054003 -755781.000000 0 0 1
27.596622 -3.642674 32.931116 43.119613 -0.131238 0.701747 0.086072 -0.041016 -742412.000000 0 0 1
28.298022 -4.762974 32.130899 43.079678 -0.166752 0.728989 0.056660 -0.042888 160506.000000 0 0 1
29.648822 -4.499474 31.805263 43.713530 -0.150610 0.756003 0.067495 -0.035697 -9987.710000 0 0 1
29.878122 -3.655374 30.696472 42.992294 -0.121738 0.775602 0.084612 -0.046027 -571801.000000 0 0 1
30.546122 -2.296174 31.007652 43.586839 -0.075030 0.779309 0.073281 -0.048817 744967.000000 0 0 1
31.964222 -2.384374 31.218812 44.743837 -0.074457 0.798582 0.081915 -0.045200 536847.000000 0 0 1
32.537922 -1.175574 31.657430 45.412457 -0.036114 0.799439 0.083562 -0.038814 -38448.500000 0 0 1
34.002622 -1.454974 32.056871 46.754019 -0.042764 0.815301 0.079754 -0.037944 337161.000000 0 0 1
34.858922 -1.711974 30.925012 46.630802 -0.049072 0.845725 0.097033 -0.039163 596057.000000 0 0 1
36.237822 -1.596874 31.248062 47.876624 -0.044038 0.859681 0.101474 -0.029161 897104.000000 0 0 1
37.264622 -2.280774 30.272062 48.065078 -0.061129 0.889483 0.113281 -0.032476 510451.000000 0 0 1
37.319622 -1.660974 28.986282 47.283375 -0.044477 0.910902 0.119300 -0.020174 -25948.600000 0 0 1
-37.055810 -2.133674 28.288902 46.668486 0.057517 0.919564 0.124478 -0.017143 4885.430000 0 0 1
-36.773910 -1.423774 26.918102 45.595305 0.038698 0.939279 0.125049 -0.007348 -233791.000000 0 0 1
-37.697810 -1.648574 25.903902 45.769584 0.043703 0.969195 0.136277 -0.030998 -521806.000000 0 0 1
-37.348010 -0.892174 24.803012 44.842605 0.023884 0.984700 0.137619 -0.026700 43434.700000 0 0 1
-27.125558 15.129226 12.318846 33.413221 -0.508772 1.193206 0.114789 -0.000177 -367532.000000 0 0 1
-28.440858 14.666326 12.383746 34.312398 -0.476111 1.201551 0.109437 0.008457 -379223.000000 0 0 1
-29.278088 15.434126 13.215546 35.638032 -0.485136 1.190897 0.120835 -0.008193 853180.000000 0 0 1
-30.749128 14.878226 13.081146 36.578503 -0.450651 1.205080 0.127829 -0.000277 961665.000000 0 0 1
-31.732748 15.510026 13.881446 37.950267 -0.454624 1.196326 0.122013 -0.007226 153194.000000 0 0 1
-32.841818 14.647326 14.144146 38.641765 -0.419519 1.196054 0.131807 -0.008711 563417.000000 0 0 1
-33.832638 15.308926 15.110446 40.091597 -0.424923 1.184351 0.119683 -0.007683 -194929.000000 0 0 1
-33.216058 15.460626 16.386346 40.135393 -0.435633 1.150231 0.101153 -0.002951 -39013.900000 0 0 1
-33.985932 15.977526 17.446946 41.409188 -0.439461 1.135885 0.106203 -0.019230 -193937.000000 0 0 1
-33.147208 16.180926 18.724846 41.366407 -0.454126 1.101052 0.143131 -0.013603 -8531.440000 0 0 1
-32.721608 14.994826 19.418646 40.897827 -0.429697 1.076050 0.146769 -0.021626 75684.400000 0 0 1
-31.729628 15.412926 20.353446 40.725794 -0.452189 1.047466 0.128688 -0.010227 399578.000000 0 0 1
-32.297528 15.996726 21.685646 42.062962 -0.459875 1.029145 0.138707 -0.023744 325002.000000 0 0 1
-33.158728 17.154226 21.630446 43.146783 -0.477421 1.045670 0.142931 -0.026325 659278.000000 0 0 1
-33.749728 17.529826 22.876046 44.380766 -0.479052 1.029264 0.147670 -0.036107 725507.000000 0 0 1
-34.823131 16.580426 23.633446 45.233845 -0.444372 1.021048 0.139207 -0.036287 289678.000000 0 0 1
-36.035348 16.380926 22.980046 45.770772 -0.426656 1.044808 0.144668 -0.029498 -835696.000000 0 0 1
-36.999478 17.267126 23.407046 47.063838 -0.436643 1.050259 0.140867 -0.035320 -1583360.000000 0 0 1
37.072584 16.926126 23.058846 46.825000 0.428302 1.055897 0.132925 -0.036506 -745562.000000 0 0 1
36.472634 16.058726 23.988046 46.514106 0.414754 1.028954 0.131804 -0.033049 -570529.000000 0 0 1
35.137434 15.803326 23.669346 45.217500 0.422652 1.019895 0.126828 -0.036818 -466099.000000 0 0 1
34.430484 15.069126 24.801646 45.029528 0.412552 0.987490 0.067419 -0.021732 -364591.000000 0 0 1
34.298004 15.802826 26.011346 45.854907 0.431758 0.967630 0.094596 -0.031411 40137.400000 0 0 1
34.393394 15.059026 27.184546 46.353849 0.412701 0.944118 0.091364 -0.021285 261167.000000 0 0 1
33.453694 13.831826 27.503546 45.463327 0.392057 0.921079 0.092463 -0.017495 194942.000000 0 0 1
33.875394 12.663826 26.880246 45.060653 0.357749 0.931620 0.082524 -0.025384 33660.100000 0 0 1
32.935684 11.629026 27.026146 44.163402 0.339419 0.912262 0.068734 -0.019775 -308825.000000 0 0 1
33.616004 10.273026 26.799746 44.201778 0.296586 0.919391 0.078113 -0.017825 102413.000000 0 0 1
34.733924 10.046626 27.646946 45.516303 0.281561 0.918003 0.077672 -0.013632 211579.000000 0 0 1
35.171484 8.720326 27.361746 45.406415 0.243036 0.924046 0.097439 -0.009577 -212909.000000 0 0 1
36.248514 8.042026 28.218246 46.635806 0.218322 0.920934 0.116186 -0.016113 -95011.800000 0 0 1
37.490444 8.693026 28.263346 47.748496 0.227847 0.937356 0.122361 -0.021851 -224237.000000 0 0 1
-36.969678 7.792026 28.499846 47.325616 -0.207728 0.924533 0.124601 -0.027176 1151660.000000 0 0 1
-35.493939 8.340726 28.727346 46.418184 -0.230803 0.903479 0.137941 -0.031540 1566050.000000 0 0 1
-34.866189 8.770926 27.509246 45.269624 -0.246446 0.917666 0.120155 -0.028534 -1498350.000000 0 0 1
-33.611428 9.207526 27.735346 44.539376 -0.267381 0.898588 0.115047 -0.022154 -1604680.000000 0 0 1
-32.941768 9.860926 26.525946 43.428375 -0.290855 0.913729 0.114895 -0.029978 -295230.000000 0 0 1
-32.332008 8.977626 25.580646 42.193909 -0.270847 0.919442 0.107074 -0.033323 -112861.000000 0 0 1
-31.449188 9.742326 24.822346 41.232429 -0.300405 0.924780 0.100310 -0.028376 449684.000000 0 0 1
-30.396028 8.852626 24.010546 39.734038 -0.283403 0.921932 0.099414 -0.025602 854439.000000 0 0 1
-29.498898 9.547526 23.153746 38.696721 -0.313017 0.929370 0.103221 -0.028233 142187.000000 0 0 1
-28.936888 8.637626 22.201546 37.481471 -0.290079 0.936844 0.089107 -0.014881 -346504.000000 0 0 1
-27.821248 9.251226 21.366746 36.278711 -0.321022 0.941024 0.092692 -0.016145 -1643690.000000 0 0 1
-26.782838 9.738926 22.189346 36.118335 -0.348762 0.909233 0.088791 -0.019628 449399.000000 0 0 1
-25.698278 10.417326 21.552946 35.120530 -0.385128 0.910077 0.071129 -0.008445 703618.000000 0 0 1
-24.900678 9.624026 20.481146 33.647332 -0.368812 0.916375 0.059934 -0.006615 -1693430.000000 0 0 1
-25.605018 9.401326 19.280846 33.402887 -0.351886 0.955475 0.065360 -0.010675 -235196.000000 0 0 1
-25.046278 8.697326 18.193446 32.155264 -0.334223 0.969393 0.068881 -0.020115 -423729.000000 0 0 1
-24.908278 7.133526 18.346946 31.747755 -0.278926 0.954646 0.070491 -0.011764 62926.200000 0 0 1
-23.641578 6.807526 18.917446 31.034439 -0.280363 0.915287 0.083170 -0.014874 777128.000000 0 0 1
-23.458778 5.477826 19.356746 30.903146 -0.229398 0.893911 0.095881 -0.016699 -148627.000000 0 0 1
-23.487478 4.324426 18.348746 30.117084 -0.182077 0.915686 0.108729 -0.022054 91271.300000 0 0 1
-24.830678 4.136726 17.888846 30.881805 -0.165081 0.952966 0.128874 -0.026447 985187.000000 0 0 1
-24.933978 3.237626 16.831846 30.257173 -0.129125 0.980878 0.130166 -0.022457 -119600.000000 0 0 1
-24.990348 1.718026 17.212746 30.393218 -0.068640 0.968744 0.131483 -0.013547 -53797.900000 0 0 1
-23.749778 1.293826 17.750246 29.678227 -0.054424 0.929681 0.113484 -0.013169 470498.000000 0 0 1
-23.841978 0.022126 18.361446 30.092908 -0.000928 0.914536 0.123655 -0.022000 442017.000000 0 0 1
-22.475778 -0.724874 18.591246 29.177396 0.032240 0.879963 0.118157 -0.010541 470842.000000 0 0 1
-21.552378 -0.163274 19.480946 29.052348 0.007576 0.835851 0.109540 -0.013364 172678.000000 0 0 1
-20.517578 -1.083174 19.765946 28.510294 0.052744 0.804750 0.102492 -0.007094 -151128.000000 0 0 1
-19.514178 -0.720574 20.820446 28.544935 0.036909 0.753364 0.107395 -0.017723 -23143.300000 0 0 1
-20.085078 -0.807374 22.152446 29.913092 0.040176 0.736893 0.115411 -0.023167 -141258.000000 0 0 1
-19.143178 -0.589674 23.173646 30.063713 0.030794 0.690672 0.126093 -0.030124 -919227.000000 0 0 1
-19.554978 -0.902874 24.620146 31.454156 0.046138 0.671754 0.122355 -0.026670 50502.700000 0 0 1
-20.326278 0.135526 25.241346 32.408355 -0.006667 0.677961 0.117860 -0.038876 -341930.000000 0 0 1
-21.668078 0.127026 24.848246 32.969032 -0.005862 0.717146 0.110800 -0.032075 -1450900.000000 0 0 1
-22.521878 1.226326 25.386846 33.959252 -0.054397 0.726404 0.097905 -0.033954 -515183.000000 0 0 1
-22.233878 2.523326 24.848346 33.438792 -0.113007 0.733106 0.092654 -0.032794 833355.000000 0 0 1
-23.373178 2.999826 24.110246 33.713623 -0.127647 0.773960 0.092778 -0.025473 -453044.000000 0 0 1
-23.017278 4.194326 23.246246 32.981440 -0.180247 0.788616 0.106893 -0.025011 123283.000000 0 0 1
-22.262078 3.833826 22.089546 31.595037 -0.170541 0.796594 0.120909 -0.027554 941514.000000 0 0 1
-20.931378 3.365426 22.293846 30.764659 -0.159419 0.760259 0.108431 -0.025953 -383706.000000 0 0 1
-20.329678 2.719126 20.984846 29.343708 -0.132962 0.773973 0.101641 -0.025501 69733.600000 0 0 1
-19.764578 3.542726 19.988746 28.332656 -0.177363 0.787665 0.100881 -0.010155 157916.000000 0 0 1
-19.308078 2.793226 18.918946 27.175918 -0.143669 0.800754 0.106921 -0.015125 106363.000000 0 0 1
-18.800778 3.461326 17.593046 25.980094 -0.182067 0.826881 0.084953 -0.014325 1129890.000000 0 0 1
-17.445478 3.979626 17.581346 25.085570 -0.224280 0.794201 0.094554 -0.025951 1133240.000000 0 0 1
-17.198478 4.489626 16.300046 24.117128 -0.255349 0.828652 0.093334 -0.023422 -73468.000000 0 1 0
-15.781578 5.108526 16.256046 23.225294 -0.313057 0.795499 0.088349 -0.019798 5884.160000 0 1 0
-15.398178 6.181826 17.133046 23.850789 -0.381768 0.769379 0.086044 -0.024851 207963.000000 0 1 0
-16.020378 7.459426 16.971346 24.501472 -0.435768 0.805617 0.101786 -0.033195 -436377.000000 0 1 0
-15.488978 8.276526 15.812546 23.631461 -0.490748 0.837757 0.060098 -0.026901 -185537.000000 0 1 0
-15.861478 7.869726 14.531446 22.905938 -0.460566 0.883569 0.086058 -0.023098 -70442.100000 0 1 0
-17.219778 7.947326 14.190546 23.686543 -0.432395 0.928423 0.066382 -0.024254 -216929.000000 0 1 0
-17.627878 7.302026 12.829046 22.992305 -0.392715 0.978857 0.063283 -0.022816 -104399.000000 0 1 0
-17.304178 5.893726 13.013546 22.439317 -0.328272 0.952136 0.057324 -0.025388 332699.000000 0 1 0
-18.075678 5.050126 12.182346 22.375063 -0.272441 0.995050 0.059406 -0.023899 21056.000000 0 1 0
-17.778978 3.563826 12.289646 21.904984 -0.197830 0.975151 0.065677 -0.014928 -138932.000000 0 1 0
-18.079678 2.923126 13.482946 22.742235 -0.160293 0.936192 0.069478 -0.021499 214227.000000 0 1 0
-17.762878 1.532226 13.484946 22.354224 -0.086047 0.923240 0.060552 -0.017534 -356807.000000 0 1 0
-18.672678 0.752926 14.435346 23.613873 -0.040301 0.913084 0.078896 -0.026474 -1539170.000000 0 1 0
-19.907378 0.461626 13.969046 24.323878 -0.023185 0.959055 0.096771 -0.023446 -791737.000000 0 1 0
-20.820978 0.110226 15.065346 25.699998 -0.005294 0.944436 0.107249 -0.026159 1765510.000000 0 0 1
-22.274778 -0.101574 14.445546 26.549008 0.004560 0.995470 0.117097 -0.024104 841769.000000 0 0 1
-22.434278 -1.174674 13.550046 26.235099 0.052313 1.028055 0.131412 -0.029721 -1202610.000000 0 0 1
-23.734378 -1.286974 13.160346 27.169315 0.054171 1.065139 0.170028 -0.029228 -1376350.000000 0 0 1
-23.982478 -2.310774 12.034646 26.931981 0.096056 1.107551 0.166731 -0.042397 -219115.000000 0 0 1
-23.928178 -3.624074 12.569646 27.270636 0.150314 1.091762 0.141543 -0.036025 298324.000000 0 0 1
-24.158378 -4.621574 11.522646 27.161692 0.189019 1.132691 0.148144 -0.044074 -38642.900000 0 0 1
-24.000478 -6.154774 11.965346 27.514972 0.251034 1.120906 0.124232 -0.041480 -277892.000000 0 0 1
-24.998828 -6.373274 12.902446 28.844984 0.249625 1.107049 0.120228 -0.037992 -104982.000000 0 0 1
-25.191738 -7.771574 13.108846 29.442535 0.299234 1.109360 0.130880 -0.045440 301427.000000 0 0 1
-26.250338 -8.053974 14.224946 30.924033 0.297696 1.092805 0.149024 -0.035412 -384122.000000 0 0 1
-27.531418 -7.554374 14.029246 31.809861 0.267800 1.114045 0.131621 -0.036767 -300874.000000 0 0 1
-28.296078 -7.723674 15.223846 33.046764 0.266468 1.092040 0.135862 -0.016647 432124.000000 0 0 1
-29.670478 -6.946674 15.194646 34.051003 0.229985 1.108246 0.141261 -0.026926 597656.000000 0 0 1
-30.677878 -7.166574 14.239846 34.572607 0.229492 1.146278 0.135990 -0.017672 347684.000000 0 0 1
-31.142788 -8.508074 14.006946 35.191691 0.266688 1.161440 0.133273 -0.030630 136212.000000 0 0 1
-31.837288 -9.285174 15.248946 36.501475 0.283774 1.139815 0.131313 -0.023129 204064.000000 0 0 1
-30.807378 -9.678374 16.146346 36.103600 0.304394 1.107139 0.128317 -0.006636 593907.000000 0 0 1
-31.283138 -10.257974 17.361846 37.219544 0.316859 1.085499 0.132583 0.002100 852344.000000 0 0 1
-30.041238 -10.559774 18.303046 36.728549 0.338019 1.049121 0.167334 -0.008058 1006140.000000 0 0 1
-29.045698 -11.363774 17.704546 35.864172 0.372930 1.054508 0.174929 -0.010205 283179.000000 0 0 1
-27.886308 -11.310174 18.539946 35.345379 0.385309 1.018626 0.167311 -0.020347 432961.000000 0 0 1
-26.725158 -12.230474 18.113746 34.524286 0.429188 1.018473 0.149428 -0.016314 163029.000000 0 0 1
-26.041938 -11.957674 16.882446 33.259367 0.430453 1.038400 0.133383 -0.014589 387089.000000 0 0 1
-25.037398 -12.928074 16.641546 32.725333 0.476642 1.037329 0.118687 -0.020710 35503.800000 0 0 1
-24.342578 -12.747074 15.266146 31.434125 0.482391 1.063684 0.114296 -0.021889 355.837000 0 0 1
-23.276478 -11.820474 15.210646 30.213933 0.469891 1.043231 0.113396 -0.029238 104425.000000 0 0 1
-22.724978 -11.818974 13.897146 29.141781 0.479588 1.073694 0.112398 -0.026004 161646.000000 0 0 1
-21.499178 -10.931774 13.617846 27.697727 0.470404 1.056802 0.113717 -0.043011 -452862.000000 0 0 1
-21.729478 -9.504874 13.629846 27.354808 0.412342 1.049204 0.109806 -0.052848 692026.000000 0 0 1
-20.540378 -8.732474 13.372846 26.019151 0.401987 1.031000 0.114894 -0.053037 588870.000000 0 0 1
-19.859678 -8.808674 11.987046 24.813077 0.417474 1.066611 0.126841 -0.042810 -100545.000000 0 1 0
-19.214078 -10.040474 11.585646 24.580868 0.481531 1.080001 0.114228 -0.047981 496583.000000 0 1 0
-18.867378 -10.005674 10.246346 23.687107 0.487605 1.123454 0.118300 -0.037709 -986610.000000 0 1 0
-18.101078 -11.216374 9.740846 23.416664 0.554745 1.141777 0.074065 -0.027746 804968.000000 0 1 0
-16.690678 -11.416874 9.906346 22.517980 0.599925 1.115275 0.092071 -0.030536 1100000.000000 0 1 0
-16.170478 -11.339074 11.212446 22.710744 0.611545 1.054449 0.094763 -0.026985 -633638.000000 0 1 0
-14.681178 -11.716674 11.317746 21.929633 0.673566 1.028512 0.105232 -0.025762 -95294.700000 0 1 0
-14.464578 -13.030874 10.848546 22.287185 0.733302 1.062418 0.098554 -0.028999 107522.000000 0 1 0
-13.088778 -13.319974 10.963246 21.654805 0.794152 1.039939 0.115485 -0.029783 -71450.600000 0 1 0
-12.759578 -14.806674 10.841146 22.351171 0.859523 1.064391 0.130369 -0.027089 -8149.200000 0 1 0
-13.084778 -15.465074 9.617746 22.425007 0.868579 1.127538 0.106280 -0.030431 236938.000000 0 1 0
-12.784578 -16.838874 9.789746 23.298760 0.921414 1.137149 0.089689 -0.024519 104358.000000 0 1 0
-13.200778 -17.767874 8.621246 23.754658 0.931818 1.199387 0.074151 -0.013906 142498.000000 0 1 0
-12.377278 -17.563274 7.479146 22.750895 0.956906 1.235826 0.085778 -0.024557 33745.200000 0 1 0
-12.808378 -18.345574 6.340446 23.255448 0.961298 1.294657 0.069656 -0.020607 -446213.000000 0 1 0
-11.958578 -18.305874 5.078946 22.447902 0.992130 1.342565 0.069472 -0.015130 -443037.000000 0 1 0
-12.276978 -19.139174 3.977246 23.083558 1.000449 1.397634 0.086971 -0.022857 311099.000000 0 1 0
-11.431378 -18.836774 2.860946 22.219034 1.025344 1.441677 0.097318 -0.031687 482605.000000 0 1 0
-11.725578 -19.832274 1.655246 23.098660 1.036845 1.499075 0.108699 -0.033821 -33930.200000 0 1 0
-11.336978 -21.120874 1.950346 24.050410 1.078170 1.489613 0.093382 -0.041472 -291027.000000 0 1 0
-11.727078 -22.091574 1.001546 25.031282 1.082783 1.530774 0.099901 -0.043361 826754.000000 0 0 1
-10.808278 -22.143174 -0.359554 24.642814 1.116707 1.585387 0.113401 -0.040421 764697.000000 0 1 0
-10.964378 -21.121074 -1.350954 23.835738 1.091970 1.627504 0.127755 -0.050704 -519762.000000 0 1 0
-12.070178 -21.284974 -2.187354 24.566722 1.054938 1.659952 0.131155 -0.037741 187511.000000 0 1 0
-13.239078 -20.272174 -1.964454 24.291836 0.992268 1.651754 0.131645 -0.032734 972856.000000 0 1 0
-14.021778 -20.496274 -0.736054 24.844502 0.970812 1.600427 0.123298 -0.026925 975151.000000 0 1 0
-15.206278 -19.697974 -0.689054 24.894093 0.913381 1.598479 0.141118 -0.010754 661706.000000 0 1 0
26.936822 -19.839874 -4.227354 33.720669 -0.634827 1.696491 0.124258 -0.025120 -828626.000000 0 0 1
25.743022 -19.965674 -3.552454 32.771196 -0.659670 1.679411 0.102130 -0.020082 -614238.000000 0 0 1
25.767922 -21.038674 -2.631454 33.369689 -0.684702 1.649736 0.090958 -0.015107 -842514.000000 0 0 1
24.414622 -21.288174 -2.004854 32.454269 -0.717096 1.632610 0.067767 -0.015767 -471474.000000 0 0 1
23.474122 -21.955174 -2.822054 32.264966 -0.751975 1.658373 0.075150 -0.019618 -133274.000000 0 0 1
22.261722 -22.181374 -2.136754 31.498624 -0.783590 1.638685 0.046345 -0.015363 -58774.900000 0 0 1
21.183822 -22.780374 -3.062954 31.258302 -0.821697 1.668942 0.068776 -0.024886 3305.760000 0 0 1
20.638622 -21.831974 -3.998054 30.307957 -0.813489 1.703096 0.080692 -0.028179 -324026.000000 0 0 1
19.664522 -22.486574 -4.751254 30.247543 -0.852249 1.728529 0.087130 -0.026516 -482630.000000 0 0 1
18.539322 -21.611574 -5.266254 28.956865 -0.861767 1.753680 0.066226 -0.013512 120630.000000 0 0 1
17.513422 -21.027774 -4.430454 27.722124 -0.876331 1.731301 0.064286 -0.008956 879794.000000 0 0 1
17.942622 -20.023674 -3.542454 27.118890 -0.840157 1.701798 0.063614 -0.016424 -483173.000000 0 0 1
16.843022 -19.590974 -2.562154 25.962633 -0.860678 1.669643 0.071621 -0.005340 -89764.000000 0 0 1
16.542722 -20.683374 -1.674754 26.538056 -0.896173 1.633946 0.082086 -0.017087 158383.000000 0 0 1
15.598322 -20.169474 -0.765454 25.508847 -0.912510 1.600808 0.084470 -0.012997 -258746.000000 0 0 1
15.246522 -20.974074 0.540646 25.935700 -0.942229 1.549949 0.101943 -0.015148 158424.000000 0 0 1
14.292722 -22.015974 0.449746 26.252377 -0.994985 1.553664 0.089753 -0.019776 171348.000000 0 0 1
13.708122 -22.281674 1.727046 26.217710 -1.019261 1.504875 0.092813 -0.018015 275177.000000 0 0 1
12.659522 -23.404374 1.787846 26.668795 -1.074963 1.503707 0.086497 -0.026610 69567.700000 0 0 1
13.285122 -24.665974 1.898946 28.080433 -1.076747 1.503119 0.105245 -0.031262 62803.600000 0 0 1
12.454622 -25.731374 1.528446 28.627912 -1.120010 1.517381 0.086295 -0.029809 -44555.200000 0 0 1
12.897522 -27.009464 2.202546 30.011805 -1.125295 1.497341 0.096461 -0.028249 60003.300000 0 0 1
12.609922 -27.005524 3.590246 30.019965 -1.133946 1.450914 0.106594 -0.032356 135079.000000 0 0 1
13.018822 -28.215494 4.237746 31.361797 -1.138497 1.435257 0.094185 -0.028871 -64015.400000 0 0 1
12.411322 -28.313084 5.616446 31.419995 -1.157664 1.391077 0.099650 -0.032468 -242879.000000 0 0 1
12.881922 -29.495194 6.192646 32.775894 -1.159019 1.380715 0.091283 -0.032384 -176228.000000 0 0 1
12.494522 -29.638864 7.531146 33.034732 -1.171844 1.340797 0.087300 -0.033956 -63236.300000 0 0 1
13.025422 -30.956104 8.203446 34.572222 -1.172513 1.331227 0.088816 -0.034554 -58366.500000 0 0 1
12.727722 -31.135914 9.576746 34.973620 -1.182744 1.293426 0.075118 -0.030149 -893979.000000 0 0 1
11.612222 -31.886114 9.840046 35.332626 -1.221547 1.288567 0.069039 -0.026967 -763605.000000 0 0 1
11.547722 -32.070464 11.370546 35.932629 -1.225176 1.248821 0.061584 -0.017257 -84557.100000 0 0 1
12.679022 -32.795814 11.814446 37.093182 -1.201891 1.246642 0.052879 -0.022471 189268.000000 0 0 1
12.559222 -33.209994 13.215246 37.885096 -1.209244 1.214480 0.058519 -0.017060 275602.000000 0 0 1
11.424522 33.491413 13.617446 37.916083 1.242056 1.203443 0.055001 -0.018038 132910.000000 0 0 1
11.715422 32.227170 13.003346 36.673269 1.222123 1.208339 0.068051 -0.021900 140989.000000 0 0 1
10.675922 31.287316 13.125346 35.568894 1.241963 1.192851 0.058232 -0.018056 -508568.000000 0 0 1
10.887122 30.073946 12.167046 34.220004 1.223461 1.207290 0.069013 -0.022375 -98947.700000 0 0 1
10.566822 30.278296 10.808746 33.841719 1.235022 1.245709 0.070292 -0.020090 95559.300000 0 0 1
11.462322 31.151076 10.140746 34.707479 1.218213 1.274293 0.051792 -0.017696 -43499.600000 0 0 1
11.022922 31.520326 8.692946 34.505117 1.234381 1.316120 0.047961 -0.018086 686400.000000 0 0 1
9.807522 32.289773 8.675946 34.843780 1.275917 1.319153 0.047756 -0.015613 365882.000000 0 0 1
9.368022 32.610582 7.333746 34.713020 1.291060 1.357924 0.046728 -0.018027 79615.200000 0 0 1
9.770522 -33.708134 6.752146 35.739234 -1.288671 1.380726 0.052986 -0.009910 -175165.000000 0 0 1
9.050222 -32.628574 7.258146 34.629627 -1.300227 1.359637 0.049091 -0.015169 -136141.000000 0 0 1
9.392022 -31.392634 6.568046 33.419257 -1.280093 1.372974 0.070597 -0.033800 368264.000000 0 0 1
8.426022 -30.200044 6.923246 32.108750 -1.298709 1.353471 0.061751 -0.027744 266936.000000 0 0 1
8.704222 -29.701684 8.220546 32.023911 -1.285723 1.311190 0.077152 -0.025957 -64314.100000 0 0 1
8.126422 -28.486474 8.652946 30.860839 -1.292905 1.286600 0.088126 -0.024036 -437527.000000 0 0 1
8.705622 -27.186664 8.039046 29.656851 -1.260897 1.296293 0.107758 -0.034361 49605.100000 0 0 1
9.981522 -26.894604 8.627046 29.956242 -1.215419 1.278671 0.103615 -0.032692 719702.000000 0 0 1
10.806122 -25.890414 8.004846 29.174704 -1.175398 1.292855 0.100098 -0.037770 244990.000000 0 0 1
10.184522 -24.684074 7.241446 27.667066 -1.179480 1.305977 0.114853 -0.038575 -769683.000000 0 0 1
9.682522 -25.157084 6.011246 27.618204 -1.203390 1.351385 0.106567 -0.037003 -748087.000000 0 0 1
8.695922 -24.309074 5.517546 26.400634 -1.227258 1.360251 0.109150 -0.030742 -52701.900000 0 0 1
8.486422 -24.718974 4.058346 26.448388 -1.240088 1.416744 0.098136 -0.029822 162928.000000 0 0 1
7.618722 -25.839094 3.922746 27.222998 -1.284069 1.426196 0.069918 -0.035585 -70560.600000 0 0 1
8.243322 -27.117854 4.211446 28.654260 -1.275691 1.423287 0.072918 -0.034318 126142.000000 0 0 1
7.474622 -28.385144 3.742746 29.590446 -1.313313 1.443972 0.067554 -0.029593 -290883.000000 0 0 1
6.370922 -28.634314 4.603046 29.693444 -1.351870 1.415150 0.061500 -0.027821 -41736.400000 0 0 1
5.352022 -29.380564 3.961346 30.125636 -1.390610 1.438920 0.045799 -0.017282 184347.000000 0 0 1
5.578622 -30.889864 4.069446 31.652253 -1.392125 1.441872 0.041563 -0.007731 550272.000000 0 0 1
6.720222 -31.395414 3.328546 32.278671 -1.359927 1.467494 0.038817 -0.010723 806332.000000 0 0 1
6.991622 -32.742344 3.736946 33.688405 -1.360421 1.459641 0.038197 -0.011264 361398.000000 0 0 1
8.021022 -33.462674 2.812946 34.525353 -1.335534 1.489231 0.042742 -0.007989 447566.000000 0 0 1
7.488122 -33.758994 1.551146 34.614270 -1.352519 1.525969 0.050791 -0.009119 503166.000000 0 0 1
8.470522 33.176710 0.821146 34.250812 1.320821 1.546820 0.047298 -0.008392 627208.000000 0 0 1
7.880722 32.804986 -0.603654 33.743700 1.335034 1.588687 0.064613 -0.005861 576192.000000 0 0 1
6.758122 31.938944 -0.537754 32.650537 1.362277 1.587267 0.044141 -0.004767 177856.000000 0 0 1
5.484922 32.540626 -0.691954 33.006901 1.403810 1.591762 0.048902 -0.015808 231467.000000 0 0 1
4.283422 31.622656 -0.416754 31.914163 1.436162 1.583855 0.051832 -0.022087 -56473.000000 0 0 1
4.191222 30.660736 -1.471954 30.980861 1.434942 1.618326 0.060947 -0.021579 5134.780000 0 0 1
3.361022 29.568896 -1.082754 29.778994 1.457615 1.607164 0.071543 -0.031278 81561.100000 0 0 1
3.291722 28.521966 -2.234954 28.798143 1.455895 1.648482 0.071816 -0.025262 -262268.000000 0 0 1
2.504422 28.996926 -3.278054 29.288897 1.484642 1.682953 0.084303 -0.038414 -312295.000000 0 0 1
2.302022 28.030386 -4.268854 28.446880 1.488854 1.721429 0.090990 -0.045731 -223670.000000 0 0 1
1.824822 28.682876 -5.558454 29.273431 1.507261 1.761837 0.103115 -0.047903 -232646.000000 0 0 1
0.501622 29.152686 -5.503954 29.671944 1.553591 1.757370 0.106294 -0.050698 -181676.000000 0 0 1
0.259122 30.152636 -6.490854 30.844445 1.562203 1.782820 0.095103 -0.040159 -236323.000000 0 0 1
0.136522 29.767426 -8.057154 30.838872 1.566210 1.835130 0.096661 -0.036156 -214063.000000 0 0 1
-0.978778 28.931826 -8.389954 30.139673 -1.536979 1.852892 0.086018 -0.029334 517234.000000 0 0 1
-1.317778 28.828736 -9.744854 30.459724 -1.525118 1.896448 0.085553 -0.026919 65901.400000 0 0 1
-1.604878 30.045206 -10.650254 31.917362 -1.517432 1.911003 0.068257 -0.025432 -392900.000000 0 0 1
-0.409178 30.763356 -10.845154 32.621602 -1.557496 1.909700 0.077173 -0.028569 -199150.000000 0 0 1
-0.575778 32.053235 -11.349654 34.008176 -1.552835 1.911057 0.065627 -0.026025 -131037.000000 0 0 1
-0.411778 33.110349 -10.317254 34.683001 -1.558360 1.872841 0.061284 -0.033146 1648310.000000 0 0 1
0.869722 33.334564 -9.625154 34.707250 1.544712 1.851804 0.068505 -0.037751 1544270.000000 0 0 1
0.494022 -33.635714 -8.468754 34.688977 -1.556110 1.817423 0.075453 -0.037944 -416542.000000 0 0 1
1.587422 -33.204134 -7.513354 34.080565 -1.523025 1.793081 0.075779 -0.039941 -504907.000000 0 0 1
2.588022 -32.383314 -8.069954 33.473886 -1.491047 1.814277 0.078275 -0.034123 65662.400000 0 0 1
3.575322 -32.082744 -7.085954 33.049904 -1.459814 1.786876 0.078865 -0.033967 -801800.000000 0 0 1
4.833722 -31.447284 -7.655654 32.724694 -1.418281 1.806926 0.067833 -0.032192 -449714.000000 0 0 1
5.643422 -32.277124 -8.473654 33.844701 -1.397703 1.823857 0.078788 -0.025023 291680.000000 0 0 1
6.542622 -33.058334 -7.688854 34.565558 -1.375410 1.795115 0.099641 -0.017648 -759090.000000 0 0 1
6.914722 33.287678 -8.442554 35.030838 1.365983 1.814196 0.099606 -0.018143 884211.000000 0 0 1
5.879022 32.262217 -8.414554 33.855846 1.390548 1.821970 0.090858 -0.023535 883200.000000 0 0 1
4.703522 32.503789 -9.178354 34.100757 1.427087 1.843311 0.090277 -0.030715 465697.000000 0 0 1
3.771622 31.278616 -9.312454 32.852683 1.450794 1.858198 0.080049 -0.039548 -568.783000 0 0 1
4.303322 30.366036 -10.212454 32.325052 1.430019 1.892233 0.084327 -0.028970 -190852.000000 0 0 1
3.551522 29.190666 -10.282754 31.151940 1.449725 1.907189 0.075250 -0.029995 -15702.100000 0 0 1
4.231922 28.088036 -11.131254 30.508225 1.421255 1.944280 0.083839 -0.026596 82689.500000 0 0 1
4.069522 28.373676 -12.508354 31.274358 1.428342 1.982265 0.082656 -0.022190 458330.000000 0 0 1
5.206722 27.881516 -13.208854 31.288380 1.386178 2.006628 0.082647 -0.024561 421981.000000 0 0 1
5.106122 28.389216 -14.643354 32.348847 1.392838 2.040554 0.080421 -0.018721 -197315.000000 0 0 1
4.200422 27.728906 -15.473354 32.030618 1.420458 2.074965 0.080592 -0.017802 -286819.000000 0 0 1
4.214822 28.391696 -16.780354 33.248059 1.423420 2.099833 0.110484 -0.020666 -440852.000000 0 0 1
3.138122 27.931786 -17.728954 33.231737 1.458916 2.133523 0.098720 -0.023245 -435440.000000 0 0 1
3.437622 26.680546 -18.271454 32.519453 1.442659 2.167432 0.120855 -0.016258 -519047.000000 0 0 1
2.483522 26.294066 -19.175454 32.638074 1.476624 2.198784 0.114408 -0.029841 -434566.000000 0 0 1
3.011522 25.152596 -20.016354 32.285861 1.451634 2.239504 0.131971 -0.033068 176038.000000 0 0 1
3.317922 23.924966 -19.373054 30.963331 1.432995 2.246796 0.134724 -0.034981 205988.000000 0 0 1
4.118422 23.021276 -20.121154 30.851279 1.393773 2.281277 0.137294 -0.025976 95604.900000 0 0 1
4.745122 21.871176 -19.324654 29.568679 1.357150 2.283064 0.134774 -0.030312 -6561.050000 0 0 1
3.871722 20.899376 -18.828854 28.395421 1.387618 2.295742 0.154403 -0.026827 -125522.000000 0 0 1
4.634822 19.986476 -18.065454 27.336815 1.342926 2.292743 0.149597 -0.027493 571466.000000 0 0 1
3.791622 18.734876 -17.641654 26.011535 1.371110 2.316140 0.133346 -0.034642 150006.000000 0 0 1
2.681822 18.981676 -16.824554 25.506114 1.430441 2.291120 0.123760 -0.035863 -190814.000000 0 0 1
1.844422 17.870376 -16.522354 24.407794 1.467949 2.314379 0.076955 -0.026199 195531.000000 0 1 0
2.338922 16.769876 -15.542554 22.984131 1.432219 2.313429 0.072617 -0.023494 536871.000000 0 1 0
3.414922 15.904676 -15.959154 22.788484 1.359296 2.346637 0.093502 -0.033490 476042.000000 0 1 0
2.973222 14.867976 -16.863954 22.677957 1.373425 2.409276 0.098955 -0.034962 -118912.000000 0 1 0
2.987122 15.244476 -18.458654 24.125482 1.377300 2.442009 0.091185 -0.033578 1498060.000000 0 1 0
4.363722 15.648776 -18.826354 24.866803 1.298851 2.429640 0.115467 -0.043338 1839450.000000 0 1 0
4.454322 16.048976 -20.228154 26.202840 1.300065 2.452752 0.109668 -0.042196 -502603.000000 0 0 1
4.734222 14.938676 -21.245954 26.400142 1.263898 2.506079 0.107585 -0.052330 493896.000000 0 0 1
3.681422 13.983276 -21.401754 25.828666 1.313365 2.547407 0.094216 -0.047778 484611.000000 0 0 1
2.434322 14.410976 -21.913754 26.340364 1.403455 2.553402 0.098743 -0.051274 -162040.000000 0 0 1
1.586722 13.276176 -22.469854 26.147063 1.451844 2.604822 0.092428 -0.038530 -249146.000000 0 0 1
1.142022 12.311176 -21.587254 24.877275 1.478298 2.621453 0.086128 -0.036100 112799.000000 0 1 0
-0.003478 11.675976 -22.128354 25.019842 -1.570498 2.656072 0.044191 -0.021894 -25792.800000 0 0 1
-0.759878 10.708176 -21.222154 23.782815 -1.499953 2.673281 0.019819 -0.014022 -988899.000000 0 1 0
-1.640678 11.321676 -20.349554 23.344732 -1.426883 2.629453 0.025417 -0.014850 -478109.000000 0 1 0
-2.221078 10.461376 -19.402354 22.154569 -1.361591 2.637829 0.017033 -0.008396 18494.700000 0 1 0
-3.317578 9.479476 -19.823154 22.222156 -1.234144 2.672645 0.021170 -0.007248 -681537.000000 0 1 0
-2.817778 8.389976 -20.602254 22.422855 -1.246782 2.735841 0.016489 -0.005748 -625841.000000 0 1 0
-3.769378 7.441076 -20.927554 22.528656 -1.101912 2.762310 0.028693 -0.001567 -838207.000000 0 1 0
-3.162378 6.355776 -21.866554 22.990057 -1.109103 2.827674 0.033645 -0.004860 155890.000000 0 1 0
-2.217278 5.534176 -21.202654 22.024894 -1.189728 2.867487 0.027928 0.005924 14831.900000 0 1 0
-1.941578 4.350176 -21.976954 22.487336 -1.151006 2.928132 0.044516 -0.000097 258666.000000 0 1 0
-1.162178 3.255076 -21.099254 21.380475 -1.227868 2.979222 0.030665 -0.004079 583963.000000 0 1 0
0.230522 3.382576 -20.919354 21.192318 1.502752 2.980919 0.030591 -0.009165 51224.700000 0 1 0
0.785922 2.350376 -20.039454 20.192119 1.248103 3.018547 0.032956 -0.011635 96115.500000 0 1 0
2.317922 2.443576 -20.055254 20.336102 0.811782 2.975206 0.031327 -0.013621 -10536.100000 0 1 0
2.940822 1.903476 -21.249354 21.536172 0.574447 2.978206 0.047011 -0.016446 -1055210.000000 0 1 0
4.311722 1.983976 -21.101454 21.628649 0.431251 2.920348 0.063667 -0.018444 -727501.000000 0 1 0
5.076622 1.386376 -22.319954 22.931953 0.266590 2.910045 0.069396 -0.015967 1301620.000000 0 1 0
6.509422 1.200676 -22.156054 23.123688 0.182402 2.851279 0.080418 -0.024904 1491200.000000 0 1 0
7.099522 0.538776 -23.278254 24.342773 0.075744 2.844766 0.086461 -0.024315 294190.000000 0 1 0
8.647622 0.564576 -23.158254 24.726602 0.065194 2.783515 0.091518 -0.029357 371122.000000 0 1 0
9.277322 1.820776 -23.463454 25.296593 0.193798 2.758556 0.092254 -0.039451 -262132.000000 0 0 1
10.658422 1.586476 -23.446354 25.804077 0.147762 2.710788 0.103983 -0.039507 -461758.000000 0 0 1
13.002222 -20.093074 22.601362 32.918247 -0.996463 0.814007 0.101693 -0.010816 -222950.000000 0 0 1
12.665222 -21.365674 22.068052 33.224973 -1.035700 0.844372 0.102517 -0.004396 -719040.000000 0 0 1
11.437822 -21.392874 21.430152 32.368662 -1.079810 0.847226 0.093633 0.005027 -674363.000000 0 0 1
11.446222 -21.044274 19.876952 31.128294 -1.072640 0.878185 0.131729 -0.020344 -103932.000000 0 0 1
11.709822 -19.668274 19.642552 30.162739 -1.033791 0.861607 0.153482 -0.024364 37272.600000 0 0 1
11.680222 -19.367574 18.220852 29.043587 -1.028114 0.892635 0.155613 -0.028264 13473.500000 0 0 1
11.880622 -17.863574 18.001952 28.005834 -0.983896 0.872658 0.173477 -0.040295 116257.000000 0 0 1
10.764322 -17.165274 18.503752 27.439135 -1.010689 0.830704 0.200333 -0.041978 -196098.000000 0 0 1
10.765322 -15.841074 18.000952 26.284331 -0.973905 0.816392 0.220463 -0.044232 212166.000000 0 0 1
9.633022 -14.957874 18.584752 25.727925 -0.998643 0.763591 0.173166 -0.046395 818782.000000 0 0 1
8.343622 -15.334974 18.096452 25.144762 -1.072501 0.767440 0.124942 -0.037367 680525.000000 0 0 1
7.275922 -14.597074 18.713352 24.823440 -1.108389 0.716882 0.083023 -0.031344 315057.000000 0 1 0
5.873422 -15.113174 18.426552 24.544713 -1.200131 0.721624 0.015057 -0.010391 -800052.000000 0 1 0
5.478422 -14.885274 17.099852 23.323581 -1.218139 0.747843 0.003825 -0.012036 380434.000000 0 1 0
4.083822 -15.038074 16.828752 22.935304 -1.305626 0.746973 -0.018604 -0.004051 481409.000000 0 1 0
3.512122 -16.450574 16.894552 23.840769 -1.360459 0.783226 -0.020151 0.000749 -1509770.000000 0 1 0
2.248322 -16.536774 16.355652 23.367225 -1.435666 0.795483 -0.014090 0.000455 -1200600.000000 0 1 0
1.898122 -17.847974 16.085152 24.101559 -1.464845 0.840097 0.010471 -0.018872 -1221570.000000 0 1 0
0.465522 -17.978474 15.719252 23.885919 -1.544909 0.852508 0.027142 -0.006813 -1421640.000000 0 1 0
0.108522 -17.470874 14.448152 22.671399 -1.564585 0.879826 0.030614 -0.014044 -33250.400000 0 1 0
-1.253078 -17.582774 14.098352 22.571834 1.499649 0.896178 0.046096 -0.011918 29138.400000 0 1 0
-1.737978 -18.872674 13.362852 23.189744 1.478966 0.956676 0.037596 0.005085 -252683.000000 0 1 0
-3.135878 -19.038274 13.264052 23.414198 1.407548 0.968549 0.045675 -0.005328 29023.200000 0 1 0
-3.462978 -20.063574 12.322852 23.798990 1.399880 1.026532 0.065158 -0.016081 611727.000000 0 1 0
-4.950478 -20.521174 12.252552 24.408008 1.334082 1.044899 0.064321 -0.015960 522062.000000 0 1 0
-5.400578 -21.150974 13.433452 25.631769 1.320803 1.019146 0.068205 -0.020058 683105.000000 0 0 1
-6.808578 -21.421774 13.304152 26.119908 1.263059 1.036368 0.071829 -0.022578 677805.000000 0 0 1
-7.506778 -21.964574 14.529352 27.384234 1.241474 1.011519 0.066472 -0.026704 -600228.000000 0 0 1
-8.889478 -21.996174 14.388952 27.747008 1.186728 1.025611 0.061869 -0.024876 -947412.000000 0 0 1
-9.566578 -22.542574 15.487652 28.975066 1.169452 1.006861 0.062068 -0.018667 -432526.000000 0 0 1
-11.002278 -22.062374 15.568252 29.157657 1.108198 1.007550 0.078058 -0.019338 -518775.000000 0 0 1
-11.063578 -20.689274 15.938152 28.363242 1.079737 0.974079 0.077499 -0.019285 294427.000000 0 0 1
-12.435678 -20.274174 15.940152 28.631742 1.020600 0.980352 0.084493 -0.020455 619333.000000 0 0 1
-12.732078 -19.048474 16.799352 28.410709 0.981592 0.938122 0.093872 -0.022739 -50158.200000 0 0 1
-13.085678 -19.404274 18.145852 29.614739 0.977479 0.911285 0.090325 -0.031001 17886.700000 0 0 1
-13.520378 -18.280374 18.860152 29.541124 0.933977 0.878330 0.104481 -0.030567 -202056.000000 0 0 1
-14.001878 -18.783174 20.249052 30.965857 0.930215 0.858048 0.093366 -0.040704 -241275.000000 0 0 1
-15.182778 -19.537674 20.134952 31.900686 0.910174 0.887728 0.091651 -0.034576 -211345.000000 0 0 1
-15.629978 -19.898474 21.411652 33.146709 0.904968 0.868508 0.103263 -0.030244 -784054.000000 0 0 1
-17.029678 -20.455974 21.250452 34.059338 0.876548 0.897042 0.116045 -0.036798 -1330960.000000 0 0 1
-17.080278 -21.766074 20.772352 34.597521 0.905442 0.926795 0.122132 -0.043264 77170.500000 0 0 1
-18.332378 -22.173974 20.259552 35.188218 0.879955 0.957277 0.104335 -0.033970 145891.000000 0 0 1
-19.392878 -22.595374 21.322652 36.623628 0.861522 0.949352 0.104304 -0.039365 -356922.000000 0 0 1
-20.110378 -21.523674 21.862452 36.683275 0.819331 0.932312 0.123788 -0.034326 -50971.300000 0 0 1
-21.138578 -22.002374 22.712792 38.037020 0.805418 0.930886 0.092399 -0.034086 -135355.000000 0 0 1
-21.588478 -20.719874 23.400992 37.986603 0.764871 0.907100 0.084726 -0.018405 -117122.000000 0 0 1
-22.615578 -20.119774 22.626602 37.791967 0.727063 0.928901 0.075385 -0.009136 347014.000000 0 0 1
-23.191678 -18.986674 23.299782 37.963503 0.686031 0.910005 0.076931 -0.012681 -71226.000000 0 0 1
-23.932578 -18.118674 22.330552 37.412674 0.648012 0.931200 0.088150 -0.011271 -191988.000000 0 0 1
-23.136378 -17.407074 21.407752 36.008194 0.645015 0.934122 0.092807 -0.007206 249163.000000 0 0 1
-24.013478 -16.542274 20.710052 35.765908 0.603220 0.953240 0.094257 -0.012121 144163.000000 0 0 1
-23.324178 -15.999374 19.445252 34.323681 0.601239 0.968513 0.097883 -0.004641 -32659.400000 0 0 1
-22.408978 -14.946074 19.585952 33.304008 0.588211 0.942094 0.105146 -0.011227 -307627.000000 0 0 1
-21.900978 -14.519474 18.343352 32.046006 0.585432 0.961358 0.094622 -0.020662 -380492.000000 0 0 1
-20.782278 -13.489674 18.316252 30.811678 0.575739 0.934205 0.085585 -0.024303 -414968.000000 0 0 1
-20.195878 -13.649174 17.065752 29.755896 0.594326 0.959994 0.090042 -0.024208 270227.000000 0 0 1
-19.197178 -12.627774 16.821652 28.477365 0.581834 0.938867 0.081994 -0.032573 -156365.000000 0 0 1
-18.738178 -12.647074 15.354252 27.328023 0.593706 0.974176 0.069715 -0.030373 -96680.400000 0 0 1
-18.179878 -11.437474 14.837052 26.104825 0.561562 0.966280 0.066149 -0.031069 1127390.000000 0 0 1
-16.931878 -11.010874 15.422252 25.412078 0.576589 0.918659 0.074383 -0.044006 -22315.700000 0 0 1
-16.467478 -9.727674 14.781652 24.172354 0.533568 0.912828 0.083705 -0.051514 -552412.000000 0 1 0
-17.321478 -8.626874 14.951352 24.454028 0.462082 0.912960 0.100335 -0.047629 100195.000000 0 1 0
-16.912678 -7.411474 14.301252 23.355822 0.413015 0.911804 0.102540 -0.051179 -670890.000000 0 1 0
-17.278778 -6.153574 15.170952 23.802950 0.342130 0.879734 0.112462 -0.038660 254738.000000 0 1 0
-16.595278 -5.905274 16.408152 24.072868 0.341869 0.820844 0.110238 -0.030708 109995.000000 0 1 0
-15.203078 -5.746074 16.225552 22.965615 0.361359 0.786235 0.103425 -0.031330 -171152.000000 0 1 0
-14.390678 -5.861474 17.573752 23.458160 0.386793 0.724014 0.088573 -0.028399 135852.000000 0 1 0
-14.510778 -7.048074 18.329652 24.417497 0.452153 0.721710 0.071706 -0.028706 66262.800000 0 1 0
-13.936178 -8.169174 17.666552 23.938662 0.530199 0.740706 0.094289 -0.029353 -485542.000000 0 1 0
-14.019978 -9.518574 18.418352 25.027959 0.596444 0.743785 0.081501 -0.025497 242900.000000 0 0 1
-15.307978 -10.036274 18.658752 26.138286 0.580318 0.775819 0.084167 -0.022418 -282230.000000 0 0 1
-16.115478 -9.381874 19.593852 27.048978 0.527203 0.760656 0.058341 -0.017535 75699.100000 0 0 1
-17.476478 -10.185974 19.841052 28.334585 0.527706 0.795061 0.052371 -0.013569 2099790.000000 0 0 1
-18.500278 -10.046274 18.802352 28.226164 0.497479 0.841786 0.056604 -0.022763 1121440.000000 0 0 1
-18.913478 -8.768774 18.246152 27.704388 0.434127 0.851838 0.068417 -0.021354 -1172900.000000 0 0 1
-20.033678 -8.919574 17.261652 27.908273 0.418879 0.903946 0.097479 -0.017904 453474.000000 0 0 1
-21.333778 -9.008574 17.909352 29.275064 0.399554 0.912511 0.106527 -0.021872 545875.000000 0 0 1
-22.325078 -9.051574 16.922052 29.439700 0.385191 0.958432 0.131714 -0.031350 -276893.000000 0 0 1
-23.721878 -9.214774 17.561152 30.919793 0.370510 0.966773 0.148233 -0.028617 -95877.900000 0 0 1
-24.196678 -8.121074 18.349752 31.434765 0.323814 0.947468 0.155266 -0.021288 739626.000000 0 0 1
-25.608558 -8.257574 18.489152 32.647121 0.311927 0.968746 0.158907 -0.019671 506558.000000 0 0 1
-26.261158 -6.984074 19.157552 33.248120 0.259930 0.956725 0.160960 -0.018372 -56447.300000 0 0 1
-26.158208 -7.053974 20.559552 34.010375 0.263400 0.921648 0.173961 -0.025437 381968.000000 0 0 1
-26.926108 -6.043574 21.198552 34.798257 0.220791 0.915765 0.157222 -0.025030 -364188.000000 0 0 1
-26.973658 -6.147874 22.739242 35.811279 0.224093 0.882821 0.148602 -0.024087 11313.700000 0 0 1
-25.833138 -5.839574 23.486712 35.398832 0.222313 0.845325 0.138978 -0.027392 947321.000000 0 0 1
-24.664478 -6.711474 23.426812 34.672696 0.265678 0.828942 0.148542 -0.024406 951785.000000 0 0 1
-23.544978 -6.490174 24.453612 34.561069 0.268970 0.784774 0.137715 -0.019564 -17927.700000 0 0 1
-22.978278 -5.234374 24.420082 33.937300 0.223975 0.767621 0.118567 -0.018043 -199750.000000 0 0 1
-22.092678 -4.993174 25.478052 34.090312 0.222276 0.726703 0.111258 -0.024203 -53181.200000 0 0 1
-21.795878 -3.461374 25.664972 33.848666 0.157493 0.710207 0.106162 -0.028122 -86371.800000 0 0 1
-20.862778 -3.211474 26.707012 34.041645 0.152734 0.668843 0.091835 -0.028574 -92014.700000 0 0 1
-21.384678 -3.126274 28.014662 35.382190 0.145164 0.657090 0.091473 -0.031768 351626.000000 0 0 1
-22.252278 -1.809874 28.292222 36.040108 0.081156 0.668067 0.094072 -0.039872 1007880.000000 0 0 1
-23.503778 -1.866174 27.602772 36.301835 0.079233 0.706916 0.107796 -0.041202 -41052.000000 0 0 1
-24.389678 -0.932874 28.218912 37.309967 0.038230 0.713101 0.077947 -0.042172 -193713.000000 0 0 1
-25.675948 -0.760374 27.435412 37.583697 0.029606 0.752501 0.078991 -0.037623 -1128000.000000 0 0 1
-25.474948 -0.126874 26.188912 36.535574 0.004980 0.771586 0.084574 -0.038678 239078.000000 0 0 1
-26.624188 0.147426 25.397672 36.795528 -0.005537 0.808978 0.081238 -0.030441 75913.300000 0 0 1
-27.538728 -0.975174 24.866922 37.117332 0.035396 0.836649 0.080168 -0.025392 -242432.000000 0 0 1
-28.251348 -1.669174 25.859072 38.335576 0.059014 0.830448 0.071633 -0.025414 86022.000000 0 0 1
-28.701438 -2.990374 25.482992 38.498023 0.103814 0.847406 0.059406 -0.019597 232478.000000 0 0 1
-27.599448 -4.066574 25.619382 37.876369 0.146290 0.827939 0.077324 -0.027102 255176.000000 0 0 1
-27.423248 -4.420374 27.003192 38.739471 0.159816 0.799527 0.064692 -0.026567 28107.400000 0 0 1
-26.372518 -5.355074 27.214182 38.272683 0.200331 0.779791 0.096404 -0.036161 249166.000000 0 0 1
-26.060858 -5.442574 28.696112 39.144052 0.205882 0.747942 0.072634 -0.023903 -184240.000000 0 0 1
-26.985138 -6.331074 29.255832 40.301165 0.230446 0.758410 0.084396 -0.028498 -155672.000000 0 0 1
-26.790678 -6.662974 30.588862 41.204540 0.243759 0.734201 0.078225 -0.015880 -298215.000000 0 0 1
-28.068678 -7.116774 31.344912 42.673208 0.248316 0.745817 0.074901 -0.021257 155681.000000 0 0 1
-28.622838 -8.227574 30.618732 42.713775 0.279902 0.771544 0.090112 -0.028502 -308748.000000 0 0 1
-29.841438 -8.636174 31.161322 44.001397 0.281706 0.783866 0.097345 -0.024768 -114072.000000 0 0 1
-30.830278 -9.374274 30.195322 44.160395 0.295178 0.817887 0.086031 -0.025202 -57401.700000 0 0 1
-30.568858 -10.717274 29.822432 44.030586 0.337204 0.826694 0.083099 -0.024936 -375181.000000 0 0 1
-31.615328 -11.274974 29.109862 44.430148 0.342569 0.856372 0.079515 -0.017059 -416503.000000 0 0 1
-31.127928 -12.448774 28.233932 43.830067 0.380440 0.870861 0.076755 -0.016113 -214428.000000 0 0 1
-30.203828 -12.018874 27.266182 42.428401 0.378717 0.872857 0.091458 -0.017001 -153740.000000 0 0 1
-29.379478 -13.162774 26.952222 41.986124 0.421211 0.873781 0.102114 -0.014560 235948.000000 0 0 1
-28.039068 -12.705874 26.291782 40.483162 0.425470 0.863936 0.116288 -0.014716 419007.000000 0 0 1
-27.107608 -12.053974 27.173212 40.230637 0.418414 0.829241 0.099190 -0.023384 358831.000000 0 0 1
-27.430728 -10.737874 27.652442 40.403024 0.373118 0.816995 0.109735 -0.030520 -764206.000000 0 0 1
-27.492658 -9.500574 26.619822 39.429964 0.332721 0.829674 0.129207 -0.031824 618105.000000 0 0 1
-26.212708 -9.139074 26.072492 38.084164 0.335472 0.816739 0.110922 -0.027686 617925.000000 0 0 1
-25.708918 -9.960074 25.038892 37.243760 0.369612 0.833488 0.102908 -0.023490 -194665.000000 0 0 1
-26.435038 -9.903774 23.655832 36.830617 0.358460 0.873318 0.136184 -0.015492 -395868.000000 0 0 1
-27.675708 -10.543674 23.704722 37.934519 0.363996 0.895812 0.137337 -0.013641 -381222.000000 0 0 1
-28.463648 -10.369374 22.545042 37.762178 0.349359 0.931006 0.162288 -0.010500 -1395300.000000 0 0 1
-29.828438 -10.918274 22.574772 38.968766 0.350889 0.952921 0.157342 -0.013028 -859677.000000 0 0 1
-30.883198 -10.239374 23.276632 40.005228 0.320146 0.949807 0.141543 -0.011778 510617.000000 0 0 1
-30.850378 -10.369074 24.705552 40.861080 0.324246 0.921504 0.141947 -0.013670 -9541.060000 0 0 1
-32.307538 -10.386274 25.257102 42.303344 0.311046 0.930981 0.096705 -0.013167 372288.000000 0 0 1
-32.933138 -9.092574 25.152732 42.425540 0.269381 0.936181 0.105195 -0.022184 1010950.000000 0 0 1
-34.368431 -9.057474 25.342482 43.651670 0.257682 0.951378 0.086358 -0.010787 1454750.000000 0 0 1
-34.878732 -9.261074 26.778722 44.937661 0.259534 0.932400 0.066123 -0.010926 -500538.000000 0 0 1
-35.264169 -10.599274 27.056282 45.694076 0.291978 0.937112 0.071783 -0.016710 122750.000000 0 0 1
-35.774238 -10.552074 28.377492 46.866026 0.286829 0.920399 0.078090 -0.017499 -585469.000000 0 0 1
-36.384078 -11.918374 28.818532 47.920315 0.316556 0.925564 0.077721 -0.018157 -48094.000000 0 0 1
-37.529808 -12.334274 28.122462 48.492202 0.317532 0.952144 0.069265 -0.022855 1672350.000000 0 0 1
36.715314 -11.764274 28.671092 48.046269 -0.310083 0.931365 0.075218 -0.017957 476548.000000 0 0 1
35.474064 -12.193474 27.969962 46.791119 -0.331078 0.930090 0.082304 -0.019680 -949324.000000 0 0 1
35.259684 -11.540374 26.769442 45.749629 -0.316308 0.945757 0.074903 -0.010535 351889.000000 0 0 1
34.197264 -12.178374 26.026142 44.666830 -0.342118 0.948783 0.072646 -0.003815 679153.000000 0 0 1
34.228584 -11.775274 24.553002 43.739032 -0.331336 0.974777 0.060474 -0.002458 5146.660000 0 0 1
33.971674 -10.358374 24.497322 43.144981 -0.295957 0.966977 0.065239 -0.011796 66766.100000 0 0 1
33.764214 -9.891974 23.229302 42.160097 -0.284997 0.987260 0.064743 -0.006416 -292181.000000 0 0 1
33.668144 -8.386774 23.149762 41.710831 -0.244133 0.982426 0.070044 -0.001284 216478.000000 0 0 1
32.346614 -7.932774 23.409772 40.709333 -0.240496 0.958135 0.069121 -0.006332 12086.400000 0 0 1
32.142274 -6.765674 22.625962 39.885264 -0.207463 0.967602 0.081140 -0.004099 -206482.000000 0 0 1
30.639534 -6.500774 22.476052 38.551447 -0.209069 0.948362 0.072315 0.001340 -11410.300000 0 0 1
30.047254 -7.361574 21.497852 37.672110 -0.240267 0.963491 0.080642 -0.002422 651485.000000 0 0 1
28.713854 -7.776274 21.848352 36.909434 -0.264476 0.937326 0.072516 -0.015157 785979.000000 0 0 1
15.993222 -17.119874 24.953282 34.227760 -0.819409 0.753883 0.124023 -0.017750 107509.000000 0 0 1
15.222222 -18.300674 25.080132 34.578082 -0.876973 0.759299 0.124693 -0.011799 59394.600000 0 0 1
16.036922 -19.388474 25.352632 35.719067 -0.879726 0.781612 0.108253 -0.013765 -633067.000000 0 0 1
15.292322 -20.802574 25.304562 36.151391 -0.936889 0.795453 0.093839 -0.020719 4342.130000 0 0 1
14.453522 -21.100274 26.349212 36.720660 -0.970214 0.770506 0.090010 -0.023958 1025720.000000 0 0 1
13.240922 -20.340874 26.585242 35.997893 -0.993753 0.739920 0.099353 -0.016169 332530.000000 0 0 1
12.364022 -20.761574 27.730602 36.781766 -1.033674 0.716784 0.101818 -0.018412 -230676.000000 0 0 1
12.952422 -20.391974 28.994502 37.739621 -1.004915 0.694650 0.099139 -0.023018 474932.000000 0 0 1
12.210222 -19.501874 29.873072 37.706937 -1.011403 0.656320 0.098687 -0.027811 165227.000000 0 0 1
12.007622 -18.093574 29.286722 36.459190 -0.984892 0.638024 0.105143 -0.019579 612282.000000 0 0 1
13.190322 -17.296874 29.244652 36.447443 -0.919290 0.639526 0.092027 -0.009362 288494.000000 0 0 1
12.853822 -16.044474 28.750242 35.344339 -0.895362 0.620767 0.088606 -0.008092 695778.000000 0 0 1
14.075522 -15.080074 28.984422 35.575633 -0.819839 0.618538 0.092403 -0.009337 766352.000000 0 0 1
13.823522 -13.784274 28.573282 34.605324 -0.783977 0.599371 0.119468 -0.017249 563167.000000 0 0 1
14.915922 -12.935774 28.974232 35.061733 -0.714421 0.598152 0.114663 -0.017206 239446.000000 0 0 1
14.545122 -11.394874 29.033532 34.414383 -0.664546 0.566759 0.109275 -0.016751 196310.000000 0 0 1
14.371722 -10.792074 27.779402 33.086409 -0.644092 0.574247 0.148424 -0.016903 45379.100000 0 0 1
15.647422 -10.321474 27.430632 33.223700 -0.583114 0.599470 0.139523 -0.018506 -488113.000000 0 0 1
15.669722 -9.116074 26.393752 32.019887 -0.526902 0.601845 0.135679 -0.014806 -56324.500000 0 0 1
16.003822 -7.832274 26.780962 32.166548 -0.455132 0.587062 0.136318 -0.020488 -632865.000000 0 0 1
17.275422 -7.695174 27.293602 33.205371 -0.419056 0.605946 0.134041 -0.029435 -1091430.000000 0 0 1
17.912822 -6.291874 27.436952 33.365300 -0.337788 0.605320 0.119788 -0.030561 237099.000000 0 0 1
19.294822 -6.221674 27.725482 34.346787 -0.311927 0.631366 0.101734 -0.040414 94282.800000 0 0 1
19.801222 -4.927674 27.539222 34.275051 -0.243903 0.637683 0.106632 -0.041031 992019.000000 0 0 1
21.352022 -4.947574 27.243272 34.965458 -0.227696 0.677491 0.111002 -0.043460 -280361.000000 0 0 1
21.657722 -5.615474 25.983132 34.288681 -0.253696 0.710899 0.118099 -0.033551 1487500.000000 0 0 1
23.009522 -5.382774 25.463972 34.739405 -0.229804 0.748075 0.110624 -0.027216 1677390.000000 0 0 1
24.165522 -5.793874 26.400562 36.256463 -0.235316 0.755160 0.092812 -0.038824 -1176100.000000 0 0 1
24.497822 -4.769274 27.337492 37.016588 -0.192276 0.739924 0.106660 -0.036356 -268712.000000 0 0 1
25.537622 -5.105874 28.219932 38.400582 -0.197333 0.745302 0.091460 -0.047017 -219946.000000 0 0 1
26.176922 -3.920774 28.989812 39.255738 -0.148675 0.739974 0.105908 -0.048758 -346746.000000 0 0 1
26.911622 -3.159674 28.084382 39.025011 -0.116874 0.767497 0.088188 -0.038477 -208429.000000 0 0 1
27.162022 -1.869374 28.596652 39.484662 -0.068715 0.760854 0.080170 -0.047528 -452740.000000 0 0 1
28.074122 -0.922574 27.788172 39.511897 -0.032850 0.790787 0.084467 -0.040377 418952.000000 0 0 1
29.443022 -1.296274 27.923752 40.599357 -0.043998 0.812359 0.096954 -0.035487 -92278.000000 0 0 1
30.180622 -0.728874 26.862692 40.410462 -0.024146 0.843643 0.092808 -0.018889 145566.000000 0 0 1
31.694122 -0.656974 27.162982 41.746576 -0.020726 0.862338 0.094981 -0.025980 70355.200000 0 0 1
32.072022 0.275126 28.180782 42.694810 0.008578 0.849909 0.080950 -0.012619 1213390.000000 0 0 1
33.503322 0.308526 28.418232 43.933629 0.009209 0.867357 0.099123 -0.022820 1273200.000000 0 0 1
33.841822 1.360226 29.427762 44.867720 0.040172 0.855451 0.118714 -0.025269 -79732.900000 0 0 1
33.615522 2.668926 28.868602 44.390570 0.079229 0.862775 0.107698 -0.019170 188223.000000 0 0 1
33.803022 3.639926 29.874362 45.258932 0.107267 0.849876 0.098826 -0.016942 97981.300000 0 0 1
34.023622 5.026826 29.237532 45.140992 0.146684 0.866243 0.100601 -0.012415 -48804.800000 0 0 1
34.220422 6.119926 30.069832 45.963960 0.176968 0.857666 0.109848 -0.018335 1048300.000000 0 0 1
33.011822 6.642326 30.676902 45.551874 0.198559 0.831931 0.101015 -0.016345 467377.000000 0 0 1
33.361122 7.583026 31.816741 46.720143 0.223504 0.821660 0.085848 -0.020617 -77795.500000 0 0 1
33.937922 6.750626 32.839238 47.705022 0.196348 0.811541 0.083618 -0.017845 258243.000000 0 0 1
34.050422 7.487326 -33.544034 48.380714 0.216445 2.336903 0.086732 -0.027623 -435588.000000 0 0 1
34.421922 6.646826 -32.307724 47.674291 0.190751 2.315394 0.081333 -0.023382 -338504.000000 0 0 1
33.346422 5.926326 -31.762604 46.432405 0.175884 2.324112 0.049163 -0.023253 -63435.300000 0 0 1
33.185222 4.622526 -32.348034 46.572761 0.138404 2.338618 0.075227 -0.029149 10834.000000 0 0 1
33.901622 3.506126 -31.522934 46.425298 0.103054 2.317201 0.074023 -0.034472 -37135.100000 0 0 1
33.816022 2.194026 -32.051784 46.643906 0.064790 2.328368 0.084751 -0.034975 189708.000000 0 0 1
34.271822 1.191326 -31.151864 46.329426 0.034747 2.308242 0.070648 -0.031294 -52851.900000 0 0 1
34.259122 -0.237374 -31.695674 46.672900 -0.006929 2.317335 0.069176 -0.045477 -820792.000000 0 0 1
35.236122 -0.444274 -32.694604 48.069937 -0.012608 2.318759 0.078331 -0.036004 255785.000000 0 0 1
36.099022 -1.551974 -32.444274 48.561085 -0.042966 2.302466 0.083290 -0.032019 685493.000000 0 0 1
37.077922 -1.479574 -31.226234 48.497826 -0.039883 2.270340 0.082806 -0.032206 -724813.000000 0 0 1
36.466922 -1.838174 -30.010774 47.263748 -0.050364 2.258758 0.071890 -0.037202 -378583.000000 0 0 1
37.207022 -1.441974 -28.906904 47.138635 -0.038736 2.230942 0.095806 -0.041822 -676427.000000 0 0 1
36.401922 -1.384374 -27.585214 45.694206 -0.038012 2.218920 0.099552 -0.044199 -205453.000000 0 0 1
35.795322 -0.089574 -27.580424 45.188416 -0.002502 2.227290 0.083063 -0.033425 -60474.400000 0 0 1
35.072422 0.162426 -26.434274 43.918926 0.004631 2.216660 0.092313 -0.032923 -385414.000000 0 0 1
34.485222 1.588726 -26.188314 43.331079 0.046037 2.219780 0.061782 -0.022153 222860.000000 0 0 1
33.547322 1.978726 -27.183084 43.223353 0.058915 2.250931 0.088118 -0.037174 461880.000000 0 0 1
32.845922 3.147426 -26.794744 42.505520 0.095532 2.252842 0.063609 -0.019430 154733.000000 0 0 1
32.067922 3.665026 -28.034364 42.751721 0.113796 2.285970 0.079230 -0.025558 -132093.000000 0 0 1
30.990822 4.516126 -27.735324 41.833894 0.144706 2.295598 0.056564 -0.025119 214155.000000 0 0 1
30.282122 4.778026 -28.932224 42.153411 0.156494 2.327262 0.082509 -0.033204 604451.000000 0 0 1
29.018922 5.704726 -28.751984 41.247040 0.194111 2.342096 0.085241 -0.028143 549295.000000 0 0 1
27.869022 5.104526 -28.195184 39.971327 0.181153 2.353763 0.095826 -0.029618 1241200.000000 0 0 1
26.863222 6.100026 -27.835704 39.162092 0.223291 2.361405 0.107860 -0.036183 934170.000000 0 0 1
25.431522 5.645726 -27.453354 37.846046 0.218454 2.382405 0.118467 -0.030988 402410.000000 0 0 1
24.687322 5.200426 -28.593504 38.132621 0.207616 2.418622 0.131655 -0.029230 483473.000000 0 0 1
23.358222 4.888426 -28.205694 36.946778 0.206303 2.439379 0.125419 -0.020950 89278.100000 0 0 1
22.410322 4.485526 -29.329404 37.182744 0.197544 2.479635 0.110245 -0.017538 -181325.000000 0 0 1
22.733522 3.209726 -29.959494 37.745022 0.140262 2.487719 0.097229 -0.021666 949067.000000 0 0 1
21.683722 2.804226 -30.880214 37.836954 0.128610 2.525494 0.069114 -0.020609 793940.000000 0 0 1
21.708522 3.562926 -32.297874 39.078217 0.162675 2.543646 0.080144 -0.017335 -296298.000000 0 0 1
22.884322 3.214626 -32.971554 40.263500 0.139560 2.530278 0.094089 -0.020403 -360786.000000 0 0 1
23.063922 3.813926 33.349755 40.727101 0.163880 0.611376 0.069756 -0.026683 -609085.000000 0 0 1
24.478822 3.647526 32.819320 41.105048 0.147919 0.646121 0.070627 -0.018929 -344465.000000 0 0 1
24.883122 2.288926 32.520872 41.012389 0.091729 0.655157 0.103992 -0.032572 361745.000000 0 0 1
26.296422 2.164926 32.354752 41.749476 0.082143 0.684123 0.103942 -0.035452 358669.000000 0 0 1
26.655222 0.678426 32.187764 41.797288 0.025446 0.691811 0.086907 -0.038662 -758219.000000 0 0 1
26.335322 0.070526 30.934702 40.626469 0.002678 0.705262 0.091017 -0.042568 597819.000000 0 0 1
24.940822 -0.109374 30.694492 39.550075 -0.004385 0.682352 0.093191 -0.048196 111210.000000 0 0 1
24.115922 -1.066274 31.555979 39.730272 -0.044186 0.653015 0.090452 -0.051948 -763961.000000 0 0 1
24.141522 -2.417174 31.255582 39.567250 -0.099793 0.660092 0.083179 -0.060609 -37725.400000 0 0 1
23.339922 -3.251374 32.045652 39.777471 -0.138414 0.634070 0.104190 -0.058934 -343256.000000 0 0 1
23.412022 -4.692274 31.525639 39.547518 -0.197801 0.648222 0.099656 -0.063425 -400922.000000 0 0 1
24.546422 -5.399474 31.926496 40.632282 -0.216522 0.666901 0.090458 -0.045289 -507366.000000 0 0 1
24.452522 -6.755474 31.666430 40.574932 -0.269546 0.675422 0.086476 -0.044834 -1147900.000000 0 0 1
25.746522 -7.547474 31.558384 41.421967 -0.285156 0.704593 0.073337 -0.038943 -496712.000000 0 0 1
26.567422 -7.138374 30.508802 41.080060 -0.262490 0.733752 0.073175 -0.036928 -742907.000000 0 0 1
27.660422 -7.955774 30.256472 41.759399 -0.280063 0.760426 0.067913 -0.030163 -188461.000000 0 0 1
28.288822 -7.786274 28.870692 41.163095 -0.268591 0.793474 0.062934 -0.024591 -139111.000000 0 0 1
27.359622 -8.120374 27.865762 39.887217 -0.288520 0.797338 0.053340 -0.017166 -589088.000000 0 0 1
27.821622 -7.951374 26.569172 39.283431 -0.278377 0.828006 0.063265 -0.012379 -388341.000000 0 0 1
27.233822 -8.874174 25.474062 38.332230 -0.315002 0.843892 0.051312 -0.012517 -303056.000000 0 0 1
25.928922 -8.479674 25.150172 37.104515 -0.316072 0.826003 0.052900 -0.020039 -556611.000000 0 0 1
25.327722 -9.364774 24.243092 36.289393 -0.354155 0.839213 0.060369 -0.021251 29559.300000 0 0 1
23.866022 -9.042274 23.896092 34.962451 -0.362165 0.818279 0.076683 -0.019658 -103197.000000 0 0 1
22.910622 -9.288774 24.900972 35.088978 -0.385183 0.781792 0.067329 -0.016912 67285.100000 0 0 1
21.671422 -8.770074 24.472072 33.844454 -0.384538 0.762553 0.104032 -0.015338 727062.000000 0 0 1
20.400522 -8.753674 25.392942 33.728469 -0.405330 0.718394 0.113459 -0.027553 533047.000000 0 0 1
19.809422 -9.976574 25.724432 33.966037 -0.466546 0.711539 0.128603 -0.022113 249856.000000 0 0 1
20.319322 -10.576974 26.922272 35.349059 -0.479942 0.704999 0.092557 -0.020589 173614.000000 0 0 1
19.240922 -11.480774 27.572982 35.528729 -0.537979 0.682377 0.096817 -0.022079 49000.700000 0 0 1
19.261022 -12.716774 26.878202 35.427970 -0.583536 0.709524 0.127753 -0.026935 530261.000000 0 0 1
18.322722 -13.618674 27.455912 35.707388 -0.639178 0.693655 0.112733 -0.022544 334545.000000 0 0 1
19.057722 -14.887874 27.977692 36.981033 -0.663171 0.712788 0.110628 -0.008127 257383.000000 0 0 1
18.118222 -15.921874 28.234232 37.134188 -0.720965 0.706976 0.094392 -0.003487 442156.000000 0 0 1
18.771122 -17.139474 28.582442 38.250132 -0.739993 0.726881 0.082792 -0.001162 13233.700000 0 0 1
19.105022 -18.025574 27.347152 37.918200 -0.756335 0.765242 0.094016 -0.011353 309361.000000 0 0 1
20.238022 -17.456074 26.679272 37.763417 -0.711728 0.786278 0.091822 -0.008119 585457.000000 0 0 1
20.423422 -18.101074 25.458462 37.321553 -0.725189 0.820113 0.078729 0.001518 -274212.000000 0 0 1
21.737422 -17.731974 24.753262 37.412062 -0.684262 0.847794 0.072425 -0.011157 785832.000000 0 0 1
22.920822 -17.994374 25.538722 38.747747 -0.665569 0.851172 0.056153 -0.002243 1779030.000000 0 0 1
24.113222 -17.314674 25.032322 38.831206 -0.622742 0.870238 0.025998 0.000991 1281020.000000 0 0 1
25.262322 -17.295974 26.135052 40.253902 -0.600353 0.864192 0.041201 -0.003252 715817.000000 0 0 1
25.825922 -18.534374 26.497042 41.383505 -0.622484 0.875933 0.047942 -0.005506 26674.900000 0 0 1
26.595122 -19.172474 25.493392 41.530679 -0.624617 0.909875 0.037104 -0.014641 -823771.000000 0 0 1
27.177522 -20.430574 26.072662 42.846351 -0.644617 0.916608 0.046517 -0.021333 -201299.000000 0 0 1
28.051022 -20.195374 27.157842 43.957495 -0.623991 0.904828 0.039150 -0.010095 96695.500000 0 0 1
28.808622 -21.315674 27.620912 45.246099 -0.637010 0.914156 0.059062 -0.025038 283449.000000 0 0 1
28.107222 -22.415674 28.514932 45.886597 -0.673218 0.900240 0.062322 -0.020537 -50349.100000 0 0 1
27.879022 -22.049574 29.807292 46.388557 -0.669169 0.872966 0.072477 -0.015352 -121246.000000 0 0 1
27.310822 -23.145474 30.474962 47.014012 -0.703031 0.865565 0.074831 -0.015315 -648346.000000 0 0 1
26.956122 -22.809574 31.963599 47.629622 -0.702269 0.835123 0.072186 -0.018715 95450.400000 0 0 1
26.393222 -23.860474 32.742884 48.353085 -0.735042 0.826897 0.066655 -0.022691 68003.500000 0 0 1
26.066822 -23.481374 -33.529684 48.529309 -0.733265 2.333552 0.067857 -0.019793 -487377.000000 0 0 1
25.628122 -24.703474 -32.703234 48.338016 -0.767029 2.313868 0.064432 -0.019665 262470.000000 0 0 1
24.357622 -25.297614 -32.870314 48.101149 -0.804326 2.323149 0.076369 -0.022619 -219091.000000 0 0 1
24.131422 -25.808624 33.444642 48.651359 -0.818970 0.812845 0.081247 -0.031990 276694.000000 0 0 1
22.727122 -26.496144 33.273436 48.225401 -0.861819 0.809367 0.103920 -0.038762 837342.000000 0 0 1
22.819922 -27.929994 33.355845 49.126834 -0.885751 0.824432 0.093557 -0.031857 -71601.800000 0 0 1
21.561122 -28.532224 33.219710 48.811053 -0.923672 0.822246 0.112157 -0.029659 -207512.000000 0 0 1
21.702222 -30.078364 33.193156 49.774291 -0.945771 0.840791 0.076857 -0.026752 -88445.900000 0 0 1
22.155922 -30.624464 -33.172034 50.290422 -0.944491 2.291095 0.048231 -0.015188 771329.000000 0 0 1
23.230622 -31.570684 -33.331284 51.452351 -0.936427 2.275501 0.034334 -0.002689 385767.000000 0 0 1
23.745822 -32.071924 -31.995554 51.148684 -0.933472 2.246620 0.024992 0.007406 299030.000000 0 0 1
24.799822 -33.093934 -32.072064 52.334090 -0.927694 2.230437 0.013219 0.013878 1263030.000000 0 0 1
25.431822 -33.446824 -30.869314 52.138107 -0.920694 2.204419 0.008190 0.018112 437736.000000 0 0 1
26.228722 -32.349124 -30.059454 51.361293 -0.889504 2.195991 0.009825 0.005815 -394946.000000 0 0 1
26.771522 -32.870784 -28.874064 51.292440 -0.887308 2.168723 0.031558 0.012665 -73475.800000 0 0 1
27.534122 -31.903864 -28.172184 50.691778 -0.858784 2.160067 0.039989 0.010432 78475.200000 0 0 1
28.171322 -32.351204 -26.812534 50.587901 -0.854352 2.129419 0.040156 0.005642 541318.000000 0 0 1
29.140722 -33.399164 -26.966964 51.883552 -0.853385 2.117366 0.039787 0.008538 217445.000000 0 0 1
30.105322 -33.207064 -25.935924 51.785246 -0.834350 2.095361 0.041626 -0.002136 307457.000000 0 0 1
-28.641098 -30.393524 8.820146 42.683413 0.815074 1.362656 0.090296 -0.025816 -188361.000000 0 0 1
-28.421008 -31.590524 9.471946 43.536567 0.838164 1.351479 0.098466 -0.030598 27965.600000 0 0 1
-27.087798 -31.605624 9.965646 42.801616 0.862220 1.335806 0.088123 -0.033705 505181.000000 0 0 1
-26.725198 -32.531624 11.165246 43.556922 0.883074 1.311566 0.096861 -0.035528 182592.000000 0 0 1
-26.637148 33.762226 10.813446 44.343615 -0.902822 1.324457 0.101390 -0.024464 -380960.000000 0 0 1
-27.881768 33.116726 10.909446 44.644446 -0.871009 1.323934 0.087357 -0.032068 -71775.300000 0 0 1
-27.725318 31.553426 10.958046 43.409569 -0.849887 1.315602 0.099069 -0.022282 111478.000000 0 0 1
-27.563838 31.100326 9.639446 42.660454 -0.845609 1.342871 0.122362 -0.038712 -170530.000000 0 0 1
-27.418348 29.705726 9.647546 41.560451 -0.825419 1.336526 0.139202 -0.038372 -40090.600000 0 0 1
-26.947608 29.244326 8.266846 40.617052 -0.826248 1.365833 0.113060 -0.031496 -228905.000000 0 0 1
-25.555718 29.329826 8.083046 39.732468 -0.854053 1.365929 0.095434 -0.021326 -140736.000000 0 0 1
-25.284338 29.010826 6.716146 39.064464 -0.853925 1.398013 0.086519 -0.014496 499109.000000 0 0 1
-23.846378 28.456726 6.446646 37.682811 -0.873318 1.398874 0.092032 -0.012915 498506.000000 0 0 1
-23.742178 27.044126 6.659946 36.598233 -0.850323 1.387802 0.096394 -0.018298 273944.000000 0 0 1
-24.194878 26.274626 5.517146 36.141209 -0.826583 1.417542 0.073511 -0.023335 -355107.000000 0 0 1
-24.546578 24.849426 6.023246 35.444435 -0.791529 1.400033 0.093611 -0.013529 -348561.000000 0 0 1
-25.833758 24.870826 6.612546 36.464596 -0.766409 1.388446 0.108595 -0.016616 175701.000000 0 0 1
-26.328618 23.598326 7.037746 36.050062 -0.730767 1.374313 0.106870 -0.015049 90655.100000 0 0 1
-26.680358 22.544026 5.933946 35.430020 -0.701565 1.402520 0.108761 -0.028690 357513.000000 0 0 1
-27.791648 22.986526 5.107146 36.425801 -0.691049 1.430126 0.119243 -0.038546 741368.000000 0 0 1
-27.824988 22.384126 3.838246 35.916726 -0.677455 1.463727 0.104759 -0.031274 -42496.700000 0 0 1
-27.367738 23.398126 2.778646 36.113519 -0.707362 1.493778 0.094948 -0.032389 767455.000000 0 0 1
-25.984188 23.772026 2.918946 35.338470 -0.740967 1.488102 0.092665 -0.034138 784551.000000 0 0 1
-25.809368 24.575926 1.800446 35.683907 -0.760923 1.520319 0.086971 -0.042393 -202361.000000 0 0 1
-24.523478 25.411626 1.817146 35.361755 -0.803182 1.519386 0.072746 -0.037082 -86708.400000 0 0 1
-24.191978 26.077126 0.626946 35.576135 -0.822882 1.553173 0.068065 -0.043096 -491012.000000 0 0 1
-22.928678 26.676326 0.624946 35.181546 -0.860805 1.553032 0.079912 -0.042833 -647672.000000 0 0 1
-22.424378 27.029026 -0.803754 35.129290 -0.878241 1.593678 0.095181 -0.033670 -25066.700000 0 0 1
-21.994678 25.957626 -1.606954 34.060923 -0.867854 1.617993 0.084285 -0.030229 645467.000000 0 0 1
-20.864478 25.175426 -1.173154 32.718570 -0.878761 1.606660 0.072321 -0.042238 200427.000000 0 0 1
-20.411778 24.140826 -2.221854 31.691589 -0.868903 1.640963 0.076571 -0.040940 -66697.600000 0 0 1
-21.385078 23.143226 -2.450254 31.605921 -0.824862 1.648399 0.084181 -0.033030 5722.130000 0 0 1
-20.956178 22.216826 -3.423754 30.732244 -0.814590 1.682434 0.088188 -0.030756 -545741.000000 0 0 1
-22.086378 21.546026 -4.193254 31.138765 -0.773015 1.705870 0.081792 -0.023041 -389023.000000 0 0 1
-22.485878 22.383126 -5.260454 32.160401 -0.783108 1.735104 0.081502 -0.024776 -780497.000000 0 0 1
-23.687378 22.034226 -5.832254 32.872696 -0.749257 1.749160 0.106972 -0.018653 -701620.000000 0 0 1
-23.858678 22.635626 -7.251054 33.677676 -0.759099 1.787803 0.120941 -0.018015 -448.731000 0 0 1
-23.147278 21.872626 -8.176954 32.879641 -0.757093 1.822127 0.105498 -0.021382 132833.000000 0 0 1
-22.777578 22.614126 -9.327554 33.424841 -0.781797 1.853612 0.107371 -0.028345 41294.400000 0 0 1
-22.462178 21.879826 -10.643154 33.114241 -0.772266 1.898011 0.108012 -0.023750 599245.000000 0 0 1
-23.642078 21.418226 -11.315154 33.848500 -0.736085 1.911646 0.092236 -0.021322 525126.000000 0 0 1
-23.469178 21.270626 -12.692554 34.122467 -0.736297 1.951927 0.079313 -0.010297 774048.000000 0 0 1
-24.833578 20.923426 -13.407854 35.132135 -0.700151 1.962367 0.064533 -0.023807 1003850.000000 0 0 1
-25.319978 19.585526 -13.138054 34.602060 -0.658385 1.960257 0.096400 -0.021086 1123370.000000 0 0 1
-26.630828 19.438926 -13.756154 35.725406 -0.630539 1.966061 0.108409 -0.032721 1171250.000000 0 0 1
-26.998558 17.939226 -13.818254 35.237510 -0.586467 1.973760 0.175288 -0.036425 -140329.000000 0 0 1
-26.474068 17.252026 -14.898754 34.935391 -0.577540 2.011378 0.160005 -0.032585 -113403.000000 0 0 1
-27.015438 15.944026 -14.996954 34.770023 -0.533169 2.016750 0.150224 -0.041121 -68205.700000 0 0 1
-26.509358 15.169026 -16.248054 34.595443 -0.519738 2.059701 0.150099 -0.029789 575707.000000 0 0 1
-25.207668 14.598626 -16.157854 33.310999 -0.524936 2.077229 0.148089 -0.027111 507739.000000 0 0 1
-24.626078 14.330826 -17.421854 33.396666 -0.527032 2.119597 0.141669 -0.038214 648789.000000 0 0 1
-23.636078 13.089026 -17.410954 32.142310 -0.505735 2.143235 0.152915 -0.034076 663133.000000 0 0 1
-22.452378 13.225126 -16.640454 30.917923 -0.532314 2.139113 0.133934 -0.038056 484571.000000 0 0 1
-21.616078 12.075426 -16.772754 29.906454 -0.509446 2.166197 0.133844 -0.036330 -247297.000000 0 0 1
-20.332978 12.082426 -15.948654 28.526734 -0.536165 2.164069 0.129036 -0.039699 -11735.200000 0 0 1
-19.367778 13.067626 -16.359954 28.522303 -0.593550 2.181672 0.117667 -0.029709 808405.000000 0 0 1
-18.365578 13.235026 -15.348854 27.350460 -0.624446 2.166621 0.105661 -0.016021 40033.500000 0 0 1
-17.449978 14.411626 -15.629354 27.504062 -0.690325 2.175181 0.097093 -0.007825 -149726.000000 0 0 1
-16.598878 14.354126 -16.756854 27.610792 -0.713004 2.222944 0.130626 -0.018982 356568.000000 0 0 1
-15.924278 15.583226 -17.042454 28.051110 -0.774574 2.223769 0.109988 -0.012099 231804.000000 0 0 1
-15.075778 15.471926 -18.354954 28.347203 -0.798366 2.275102 0.130779 -0.016615 231417.000000 0 0 1
-13.981178 14.613426 -18.124454 27.157345 -0.807505 2.301491 0.123680 -0.016104 165823.000000 0 0 1
-13.002378 14.732626 -19.177754 27.457209 -0.847702 2.344039 0.146036 -0.025412 565650.000000 0 0 1
-11.993278 13.563526 -19.234554 26.415450 -0.846763 2.386423 0.132998 -0.028214 377602.000000 0 0 1
-12.477178 12.450026 -19.974754 26.639706 -0.784309 2.418573 0.151941 -0.020592 754196.000000 0 0 1
-11.435878 11.440726 -19.872654 25.624049 -0.785610 2.458377 0.115619 -0.006567 944019.000000 0 0 1
-11.738878 10.099426 -20.644254 25.806683 -0.710466 2.498021 0.138924 -0.025705 38514.100000 0 0 1
-11.428578 10.296026 -22.006454 26.849666 -0.733313 2.531539 0.151507 -0.037173 -243979.000000 0 0 1
-12.031678 9.376926 -22.888354 27.505722 -0.662024 2.553735 0.136176 -0.008642 -9045.790000 0 0 1
-11.486578 9.509026 -24.358454 28.560415 -0.691486 2.592263 0.124531 -0.021385 1378600.000000 0 0 1
-10.052978 9.230026 -24.428254 27.982054 -0.742746 2.632110 0.121964 -0.020830 1177700.000000 0 0 1
-9.646778 8.464926 -25.520064 28.565521 -0.720237 2.675624 0.099113 -0.028166 -149552.000000 0 0 1
-9.573878 9.276226 -26.852934 29.979786 -0.769609 2.680802 0.149772 -0.039894 -1098320.000000 0 0 1
-8.349778 9.847326 -27.115444 30.032248 -0.867509 2.697213 0.138869 -0.048167 -969648.000000 0 0 1
-8.051478 11.060226 -26.442284 29.771619 -0.941546 2.664145 0.109310 -0.041765 71529.600000 0 0 1
-6.573978 11.497926 -26.619634 29.732548 -1.051405 2.679907 0.083790 -0.042251 110896.000000 0 0 1
-6.332978 12.073826 -27.889914 31.044020 -1.087725 2.686907 0.096600 -0.054948 649123.000000 0 0 1
-5.066978 12.742826 -27.851034 31.044065 -1.192331 2.684060 0.095128 -0.045348 305747.000000 0 0 1
-4.358878 12.944426 -29.234304 32.267670 -1.245985 2.704518 0.108798 -0.041801 445877.000000 0 0 1
-2.952578 13.106326 -29.081274 32.034575 -1.349217 2.708826 0.124225 -0.054243 515105.000000 0 0 1
-2.332178 13.001226 -30.367234 33.115553 -1.393303 2.731310 0.132493 -0.056826 2255570.000000 0 0 1
-0.782578 12.529526 -30.308754 32.805823 -1.508419 2.748904 0.149492 -0.069350 1689020.000000 0 0 1
-0.584578 11.182826 -29.818134 31.851506 -1.518569 2.782343 0.121313 -0.045968 143045.000000 0 0 1
0.766922 10.753926 -29.857474 31.744351 1.499601 2.795072 0.117454 -0.049776 477413.000000 0 0 1
1.357622 10.399326 -31.252674 32.965418 1.440981 2.817827 0.130621 -0.053136 -289598.000000 0 0 1
1.632022 11.499526 -32.096314 34.133209 1.429817 2.794381 0.137519 -0.056501 33433.100000 0 0 1
1.664922 11.055126 -33.436854 35.256361 1.421318 2.818923 0.152799 -0.048827 -13152.200000 0 0 1
2.000322 12.221526 33.146813 35.384717 1.408563 0.357556 0.147445 -0.053324 -572969.000000 0 0 1
3.332422 12.671126 33.117355 35.614908 1.313626 0.376728 0.158123 -0.055390 -250651.000000 0 0 1
3.508822 13.466226 31.990768 34.886392 1.315899 0.410307 0.156120 -0.048762 -338307.000000 0 0 1
5.016622 13.650526 31.808762 34.975716 1.218614 0.428830 0.158266 -0.047556 -385313.000000 0 0 1
5.672322 12.381726 31.546193 34.360511 1.141210 0.407551 0.153073 -0.048674 843127.000000 0 0 1
7.065022 12.610526 31.302902 34.479147 1.060119 0.432599 0.129385 -0.032218 432949.000000 0 0 1
7.829522 11.313026 31.015452 33.929991 0.965405 0.417510 0.122619 -0.028331 -3451.580000 0 0 1
7.521322 10.695126 29.739212 32.486563 0.957894 0.414218 0.122304 -0.028054 46627.800000 0 0 1
8.386222 9.611726 29.536702 32.173448 0.853385 0.407673 0.123960 -0.015783 -79865.300000 0 0 1
7.978322 8.711826 28.357182 30.719364 0.829318 0.394719 0.108206 -0.014902 1581200.000000 0 0 1
6.830322 7.810526 28.603552 30.427304 0.852248 0.347984 0.108813 -0.020517 1339140.000000 0 0 1
6.493122 7.059326 27.468002 29.094430 0.827153 0.335948 0.117499 -0.017026 260359.000000 0 0 1
5.630422 5.793126 27.698572 28.852606 0.799640 0.283785 0.139904 -0.029064 355574.000000 0 0 1
6.353422 4.712326 28.311172 29.395484 0.638167 0.272456 0.108412 -0.028312 54531.900000 0 0 1
5.594222 4.047326 29.268912 30.072336 0.626313 0.231673 0.125041 -0.042090 -366491.000000 0 0 1
6.365222 2.907226 30.003582 30.808813 0.428441 0.229133 0.133775 -0.034502 196665.000000 0 0 1
6.620422 1.748126 29.204142 29.996131 0.258158 0.230304 0.129159 -0.023539 474100.000000 0 0 1
7.998022 1.679326 28.825632 29.961735 0.206961 0.276263 0.113376 -0.023343 335105.000000 0 0 1
8.210122 0.338026 28.100072 29.276858 0.041149 0.284490 0.099544 -0.032859 -327848.000000 0 0 1
8.227822 -0.803274 28.909262 30.068052 -0.097321 0.278528 0.070956 -0.031779 87081.400000 0 0 1
8.438722 -1.923174 28.072952 29.376883 -0.224072 0.299061 0.091256 -0.022232 -346160.000000 0 0 1
8.917822 -3.189774 28.827922 30.343884 -0.343505 0.317430 0.074015 -0.016866 507936.000000 0 0 1
10.265622 -3.160174 29.273382 31.181735 -0.298634 0.351669 0.062887 -0.023891 409894.000000 0 0 1
11.235222 -3.681174 28.352112 30.718456 -0.316623 0.395078 0.084414 -0.021249 -386574.000000 0 0 1
12.621822 -3.592874 28.991172 31.823061 -0.277321 0.425066 0.065585 -0.019694 62503.300000 0 0 1
13.663122 -4.350374 28.343912 31.764509 -0.308253 0.468351 0.093644 -0.025764 536312.000000 0 0 1
13.938322 -5.607374 28.916492 32.586546 -0.382487 0.479176 0.112085 -0.024876 216858.000000 0 0 1
13.011822 -6.830374 28.510482 32.075055 -0.483397 0.475928 0.118350 -0.021602 44424.600000 0 0 1
11.645922 -6.776174 28.790082 31.786992 -0.526967 0.437723 0.107310 -0.018278 -639104.000000 0 0 1
11.014422 -8.005274 28.635922 31.708326 -0.628487 0.443852 0.126993 -0.012988 705860.000000 0 0 1
9.471522 -7.879974 28.403392 30.960562 -0.693930 0.409285 0.140984 -0.017899 381430.000000 0 0 1
8.730322 -7.559374 29.523322 31.701565 -0.713639 0.372861 0.176099 -0.027281 270205.000000 0 0 1
7.340022 -7.434374 29.198402 31.011168 -0.791784 0.343610 0.187296 -0.036499 354337.000000 0 0 1
6.504122 -6.894174 30.321362 31.768196 -0.814502 0.302963 0.176108 -0.041371 -552037.000000 0 0 1
6.395922 -7.735074 31.466052 33.028043 -0.879883 0.308773 0.189541 -0.040827 11736.200000 0 0 1
5.625422 -7.088574 32.477139 33.714356 -0.899976 0.271749 0.194935 -0.039616 -22591.700000 0 0 1
6.225722 -5.966974 33.374818 34.470899 -0.764180 0.252853 0.188666 -0.034985 -356079.000000 0 0 1
6.760822 -4.935374 32.619583 33.676458 -0.630575 0.251192 0.181692 -0.029604 -138779.000000 0 0 1
7.137322 -3.861974 33.463435 34.433381 -0.495981 0.237916 0.149082 -0.022979 29938.100000 0 0 1
7.246022 -2.560774 32.607541 33.500957 -0.339704 0.231464 0.133234 -0.031256 -490287.000000 0 0 1
5.986122 -2.222174 32.144376 32.772437 -0.355453 0.196091 0.161387 -0.040170 -667875.000000 0 0 1
6.101722 -1.102974 31.293452 31.901845 -0.178833 0.195610 0.126654 -0.028093 -637901.000000 0 0 1
4.803622 -0.568874 30.727132 31.105547 -0.117877 0.156143 0.166032 -0.038597 -617446.000000 0 0 1
3.895422 -0.125574 31.706519 31.945163 -0.032225 0.122309 0.159632 -0.037918 -677142.000000 0 0 1
2.799522 0.493426 31.108422 31.238033 0.174462 0.091126 0.162666 -0.046652 -970924.000000 0 0 1
1.799022 0.955726 32.155121 32.219586 0.488332 0.063269 0.144673 -0.050761 -387525.000000 0 0 1
2.307622 1.856526 33.113898 33.246084 0.677490 0.089203 0.133031 -0.036790 338818.000000 0 0 1
1.271922 2.295526 -33.565074 33.667513 1.064820 3.063564 0.103866 -0.038221 616066.000000 0 0 1
1.752422 3.399526 -32.590924 32.814571 1.094834 3.024774 0.096015 -0.028640 40109.600000 0 0 1
2.591922 2.863026 -31.569864 31.805209 0.835056 3.019866 0.081038 -0.010262 88201.400000 0 0 1
3.016022 3.899626 -30.709734 31.102914 0.912478 2.982420 0.078377 -0.013622 -161575.000000 0 0 1
4.108922 3.445926 -29.699164 30.179430 0.697865 2.962953 0.083153 -0.008032 -274899.000000 0 0 1
3.636322 2.879026 -28.539324 28.913745 0.669685 2.980486 0.071146 -0.011090 -15620.800000 0 0 1
4.615522 2.729326 -27.546864 28.063891 0.534025 2.949342 0.087785 -0.017287 -333084.000000 0 0 1
4.043522 1.911626 -26.375914 26.752443 0.441621 2.973618 0.067307 -0.019743 -63767.200000 0 0 1
4.145022 0.491226 -26.485624 26.812512 0.117960 2.985282 0.085133 -0.019199 51582.200000 0 0 1
3.791822 -0.083974 -25.262504 25.545627 -0.022142 2.992572 0.091043 -0.022842 -332457.000000 0 0 1
4.260922 -1.602774 -25.224644 25.632148 -0.359784 2.963040 0.098552 -0.031637 528039.000000 0 0 1
5.676622 -1.617874 -25.079854 25.765105 -0.277645 2.910444 0.092488 -0.035280 80155.200000 0 0 1
6.116122 -2.943774 -24.976354 25.882253 -0.448587 2.876237 0.108689 -0.036960 341118.000000 0 0 1
7.578922 -3.113974 -24.470554 25.805908 -0.389844 2.818487 0.133084 -0.046521 554575.000000 0 0 1
8.507922 -2.575774 -25.391994 26.903024 -0.293978 2.804845 0.135274 -0.043341 -360585.000000 0 0 1
9.814022 -2.984974 -25.030554 27.050947 -0.295263 2.752653 0.124343 -0.031626 185222.000000 0 0 1
-30.800048 -4.080474 17.354252 35.587403 0.131716 1.061399 0.163130 -0.022678 -186735.000000 0 0 1
-32.123128 -3.780474 17.685452 36.864109 0.117148 1.070430 0.139033 -0.014574 -658807.000000 0 0 1
-32.707328 -4.848374 18.421952 37.850289 0.147163 1.062482 0.137047 -0.025804 152568.000000 0 0 1
-34.188146 -4.536874 18.724952 39.243297 0.131932 1.073387 0.135539 -0.022142 -861.119000 0 0 1
-35.070268 -4.674874 17.627652 39.528626 0.132519 1.108565 0.122686 -0.022113 1420690.000000 0 0 1
-36.447078 -4.760674 18.097752 40.970503 0.129883 1.113274 0.100361 -0.014869 1545700.000000 0 0 1
-37.495978 -4.643274 16.939252 41.405877 0.123207 1.149326 0.085519 -0.016394 -380423.000000 0 0 1
36.706164 -4.741174 17.409852 40.901396 -0.128454 1.131112 0.081721 -0.012804 -696955.000000 0 0 1
35.755214 -4.657774 16.351352 39.591627 -0.129539 1.145050 0.083923 -0.023264 -382558.000000 0 0 1
34.328914 -4.952074 16.772052 38.526603 -0.143265 1.120384 0.077069 -0.018249 -993476.000000 0 0 1
33.701814 -3.982274 17.539652 38.200919 -0.117617 1.093767 0.084004 -0.021289 263084.000000 0 0 1
32.478804 -4.585374 17.936952 37.384925 -0.140254 1.070380 0.104618 -0.027392 397414.000000 0 0 1
31.610604 -4.127274 19.194752 37.211600 -0.129832 1.028823 0.110087 -0.026618 881301.000000 0 0 1
30.660264 -3.071274 19.021952 36.212141 -0.099838 1.017738 0.121268 -0.027328 405951.000000 0 0 1
31.173894 -1.865174 18.553752 36.325367 -0.059760 1.034721 0.139818 -0.032094 -390015.000000 0 0 1
30.375554 -0.704474 19.143152 35.911431 -0.023188 1.008576 0.135419 -0.020921 50388.300000 0 0 1
30.674884 0.486326 18.509952 35.830202 0.015853 1.027919 0.141434 -0.025293 619167.000000 0 0 1
29.812554 1.532026 19.026652 35.399844 0.051343 1.003352 0.111178 -0.029998 496613.000000 0 0 1
30.274654 2.934826 18.465352 35.582821 0.096638 1.025186 0.116608 -0.028257 15329.600000 0 0 1
30.153754 3.135626 17.068252 34.790894 0.103616 1.058023 0.128288 -0.022414 560702.000000 0 0 1
28.995654 3.898426 16.686752 33.680757 0.133647 1.052456 0.134494 -0.027214 657798.000000 0 0 1
28.905154 3.995526 15.148452 32.877770 0.137358 1.091956 0.141626 -0.026240 -90902.700000 0 0 1
28.454354 5.308826 14.836052 32.526026 0.184453 1.097156 0.172538 -0.033533 215589.000000 0 0 1
27.926354 5.351326 13.524952 31.487176 0.189328 1.126815 0.142474 -0.025027 -168085.000000 0 0 1
27.362754 6.782626 13.218652 31.136106 0.242981 1.132338 0.162606 -0.010818 -261124.000000 0 0 1
26.063054 6.975526 13.717852 30.267478 0.261511 1.100421 0.097227 -0.008412 -188595.000000 0 0 1
25.597054 8.173726 13.264752 29.966191 0.309089 1.112236 0.141303 -0.023696 1718720.000000 0 0 1
24.064654 8.485026 13.712252 28.967725 0.338983 1.077692 0.120176 -0.028283 2303060.000000 0 0 1
22.992454 7.743026 13.145752 27.593807 0.324835 1.074238 0.115965 -0.014523 839573.000000 0 0 1
22.907654 6.343126 13.588752 27.379738 0.270132 1.051457 0.114710 -0.015367 -663889.000000 0 0 1
21.544754 5.646626 13.316552 25.949786 0.256323 1.031927 0.128217 -0.021076 -103295.000000 0 0 1
21.245254 5.553826 11.939952 24.995365 0.255693 1.072777 0.133526 -0.034094 854518.000000 0 1 0
20.133554 4.681826 11.736052 23.770032 0.228478 1.054419 0.124185 -0.030036 49967.200000 0 1 0
19.855254 4.392726 10.212852 22.755868 0.217730 1.105373 0.140827 -0.032255 89993.600000 0 1 0
20.900154 3.654126 9.574352 23.277399 0.173088 1.146900 0.143669 -0.033599 863573.000000 0 1 0
20.680554 3.536526 8.146852 22.506966 0.169369 1.200416 0.168639 -0.034773 -166428.000000 0 1 0
21.889754 2.875126 7.454152 23.302190 0.130598 1.245182 0.175344 -0.029408 -978318.000000 0 1 0
22.119254 1.562826 7.895752 23.538197 0.070537 1.228720 0.180096 -0.031703 1461630.000000 0 1 0
23.164054 0.846426 7.167852 24.262480 0.036524 1.270891 0.184442 -0.022447 1232160.000000 0 1 0
24.652454 1.326626 7.297852 25.744166 0.053761 1.283379 0.163078 -0.016550 165433.000000 0 0 1
25.289554 0.827726 8.465352 26.681620 0.032718 1.247944 0.159700 -0.002120 350737.000000 0 0 1
25.118954 1.635426 9.584252 26.935003 0.065015 1.206995 0.155988 -0.004868 -392023.000000 0 0 1
25.974854 0.956726 10.692152 28.105702 0.036816 1.180539 0.136191 -0.005229 736621.000000 0 0 1
27.386754 1.166026 10.529352 29.364284 0.042551 1.204053 0.155768 -0.017466 955327.000000 0 0 1
28.127954 0.502626 11.543452 30.408646 0.017867 1.181421 0.132724 -0.016122 -79244.100000 0 0 1
29.639154 0.763226 11.467452 31.789376 0.025745 1.201743 0.194126 -0.017224 -273378.000000 0 0 1
30.079354 2.013326 11.791952 32.370838 0.066834 1.197940 0.193874 -0.018901 -504393.000000 0 0 1
31.454634 2.139226 11.610652 33.597285 0.067905 1.217936 0.179036 -0.024181 -675483.000000 0 0 1
32.058344 3.494226 12.065752 34.431518 0.108567 1.212769 0.184154 -0.036761 542594.000000 0 0 1
33.471324 3.475726 11.825552 35.668668 0.103471 1.232862 0.181763 -0.046114 645016.000000 0 0 1
34.024354 4.719526 12.093552 36.416818 0.137831 1.232281 0.166298 -0.048702 -44929.000000 0 0 1
35.471104 4.917126 11.572352 37.633717 0.137746 1.258232 0.190460 -0.041174 -58683.300000 0 0 1
36.410304 4.149926 12.281352 38.649240 0.113487 1.247426 0.186152 -0.044273 -278717.000000 0 0 1
37.676764 4.233026 11.695452 39.676702 0.111882 1.271583 0.182784 -0.036919 -655053.000000 0 0 1
-36.735738 3.477026 12.431452 38.937709 -0.094369 1.245842 0.175638 -0.025790 -752643.000000 0 0 1
-36.588678 2.070426 12.119652 38.599274 -0.056526 1.251407 0.156049 -0.027128 596084.000000 0 0 1
-37.632398 1.176426 12.561152 39.690854 -0.031251 1.248785 0.158472 -0.026237 341024.000000 0 0 1
37.733924 0.926426 14.071352 40.282878 0.024547 1.213958 0.163014 -0.020607 505282.000000 0 0 1
-36.782568 -0.023774 14.506052 39.539644 0.000646 1.195150 0.134936 -0.015758 996630.000000 0 0 1
-37.222848 -0.416474 15.840052 40.455174 0.011188 1.168485 0.140251 -0.016451 104405.000000 0 0 1
-36.071508 -1.169174 16.485452 39.677333 0.032401 1.142317 0.123423 -0.013006 -494393.000000 0 0 1
-35.003087 -0.345574 16.888352 38.865820 0.009872 1.121280 0.129578 -0.008523 -264209.000000 0 0 1
-33.988495 -1.082974 17.518952 38.253161 0.031852 1.095082 0.137846 -0.008148 -127952.000000 0 0 1
-34.034565 -0.985574 19.068652 39.024818 0.028950 1.060279 0.111889 -0.007052 47280.800000 0 0 1
-35.209674 -1.544774 19.638852 40.345904 0.043845 1.062417 0.113040 -0.014579 234944.000000 0 0 1
-35.251631 -1.252574 21.021052 41.062526 0.035517 1.033369 0.105306 -0.017053 341745.000000 0 0 1
-35.975898 -2.414174 21.756252 42.112088 0.067005 1.027889 0.096751 -0.016309 400161.000000 0 0 1
-35.187146 -3.608174 21.567752 41.428518 0.102185 1.023241 0.111302 -0.018737 417224.000000 0 0 1
-35.574819 -4.791974 22.301252 42.259633 0.133895 1.014882 0.103787 -0.020493 -146082.000000 0 0 1
-35.702999 -4.712374 23.857912 43.198502 0.131230 0.985693 0.104542 -0.034079 247120.000000 0 0 1
-34.509890 -4.422174 24.555912 42.584985 0.127448 0.956195 0.117586 -0.035776 -681584.000000 0 0 1
-34.731542 -4.258974 25.940112 43.558102 0.122016 0.932872 0.119693 -0.039450 208046.000000 0 0 1
-33.596618 -3.667874 26.879942 43.182373 0.108743 0.898895 0.115140 -0.036387 594142.000000 0 0 1
-33.258778 -2.278474 26.699562 42.710706 0.068401 0.895504 0.101253 -0.031466 -22587.300000 0 0 1
-32.684558 -1.992074 25.437912 41.464877 0.060873 0.910335 0.106828 -0.026089 -497393.000000 0 0 1
-32.704328 -0.473574 25.081972 41.217747 0.014479 0.916598 0.089359 -0.018743 121157.000000 0 0 1
-33.967908 0.065026 24.743762 42.024716 -0.001914 0.941234 0.116968 -0.024057 -30290.600000 0 0 1
-33.920438 1.458926 24.454392 41.841867 -0.042984 0.946597 0.115241 -0.005155 -384322.000000 0 0 1
-35.271672 2.140826 24.238272 42.850529 -0.060621 0.969579 0.148673 -0.009380 -151694.000000 0 0 1
-35.978938 1.729526 23.083172 42.782100 -0.048034 1.000891 0.154881 -0.005099 -235987.000000 0 0 1
-36.998268 2.549926 22.560712 43.409212 -0.068811 1.024271 0.158594 -0.000852 174216.000000 0 0 1
-36.596038 3.878826 21.913852 42.831439 -0.105596 1.033715 0.160765 0.002140 -309709.000000 0 0 1
-35.987618 3.809526 20.631052 41.656469 -0.105464 1.052655 0.146984 -0.012226 -193915.000000 0 0 1
-36.839338 3.638126 19.496752 41.838931 -0.098437 1.086037 0.179909 -0.023382 -103699.000000 0 0 1
-36.185398 2.843326 18.354852 40.673924 -0.078415 1.102610 0.173598 -0.019085 -516891.000000 0 0 1
-35.234227 3.578526 17.683052 39.584680 -0.101217 1.107707 0.183230 -0.023250 -383430.000000 0 0 1
-34.836175 2.922126 16.515852 38.663565 -0.083686 1.129438 0.188372 -0.012899 -519558.000000 0 0 1
-33.962848 3.683226 15.539452 37.530198 -0.108026 1.143895 0.180325 -0.022531 -293023.000000 0 0 1
-34.572648 4.746626 14.774252 37.895606 -0.136441 1.170309 0.200841 -0.029181 287938.000000 0 0 1
-33.626598 5.598426 14.111052 36.894610 -0.164975 1.178329 0.208969 -0.025568 -81569.000000 0 0 1
-34.211714 6.722426 13.276552 37.308166 -0.194023 1.206960 0.229795 -0.033161 -366342.000000 0 0 1
-33.309648 7.254126 12.337452 36.254210 -0.214430 1.223556 0.256493 -0.032058 119197.000000 0 0 1
-33.745168 8.541926 11.831452 36.765257 -0.247923 1.243155 0.226504 -0.030641 -203765.000000 0 0 1
-32.736248 9.282426 10.944252 35.743559 -0.276299 1.259610 0.249764 -0.031219 -173545.000000 0 0 1
-33.058458 10.615826 10.710252 36.335477 -0.310721 1.271592 0.211385 -0.009242 187817.000000 0 0 1
-32.114738 11.201026 9.817552 35.400617 -0.335589 1.289785 0.207540 -0.023888 293387.000000 0 0 1
-32.394818 12.721526 9.708552 36.131945 -0.374200 1.298756 0.168737 -0.013172 339727.000000 0 0 1
-31.703428 13.357026 8.598752 35.460626 -0.398743 1.325867 0.172048 -0.014703 251370.000000 0 0 1
-31.870528 14.770826 8.510852 36.143360 -0.433994 1.333089 0.138368 -0.006324 -478167.000000 0 0 1
-30.745798 15.430526 7.725152 35.257385 -0.465146 1.349897 0.137640 -0.012010 -1131880.000000 0 0 1
-29.476258 15.261926 8.229052 34.197858 -0.477762 1.327781 0.163782 -0.012589 -887671.000000 0 0 1
-28.556178 16.109026 7.585652 33.652610 -0.513617 1.343432 0.128797 -0.021192 -239291.000000 0 0 1
-27.132628 16.059026 8.184452 32.573871 -0.534421 1.316816 0.137144 -0.002974 -194740.000000 0 0 1
-26.952338 16.774226 9.424252 33.115249 -0.556703 1.282218 0.128765 -0.007288 234431.000000 0 0 1
-27.189108 18.191126 9.402452 34.037784 -0.589657 1.290921 0.119358 -0.015191 -269452.000000 0 0 1
-27.224838 18.795526 10.837652 34.812617 -0.604241 1.254221 0.133867 -0.004721 504816.000000 0 0 1
-25.945568 18.861326 11.479552 34.069080 -0.628590 1.227122 0.120781 -0.003471 488213.000000 0 0 1
-25.906628 19.312326 12.815352 34.761366 -0.640588 1.193222 0.119161 -0.017082 3908.670000 0 0 1
-26.461358 18.512726 14.005952 35.200727 -0.610467 1.161583 0.112665 -0.013381 646695.000000 0 0 1
-25.488338 17.522726 14.429652 34.130868 -0.602274 1.134292 0.111831 -0.011186 856842.000000 0 0 1
-25.961388 16.728226 15.473852 34.543701 -0.572393 1.106325 0.108128 -0.007317 945656.000000 0 0 1
-24.782878 15.699526 15.834452 33.337607 -0.564676 1.075863 0.107519 -0.009492 1931030.000000 0 0 1
-23.644378 16.231826 16.568752 33.121780 -0.601607 1.046923 0.111037 -0.009554 1027550.000000 0 0 1
-22.596578 15.261526 16.705352 31.977935 -0.594018 1.021130 0.090951 -0.024571 256718.000000 0 0 1
-22.735578 13.976926 17.604952 31.971789 -0.551202 0.987665 0.104200 -0.014288 -616212.000000 0 0 1
-22.682578 14.289926 18.994052 32.855370 -0.562184 0.954385 0.109474 -0.012358 114178.000000 0 0 1
-22.883278 13.143726 19.767052 32.971780 -0.521369 0.927902 0.097391 -0.015069 -554024.000000 0 0 1
-22.834378 13.279826 21.293252 33.928825 -0.526759 0.892348 0.095684 -0.013851 850846.000000 0 0 1
-21.562578 13.613326 21.899552 33.613357 -0.563146 0.861219 0.100699 -0.008803 823666.000000 0 0 1
-21.125878 14.938026 21.708552 33.774378 -0.615473 0.872711 0.103087 -0.003552 -349119.000000 0 0 1
-19.658278 15.148226 22.174552 33.281037 -0.656541 0.841585 0.100493 -0.014125 269314.000000 0 0 1
-18.706378 14.544526 21.330252 31.881836 -0.660881 0.837879 0.077903 -0.015417 -288003.000000 0 0 1
-18.102378 15.552126 20.520252 31.474521 -0.709765 0.860625 0.062220 -0.013688 -1925900.000000 0 0 1
-16.991978 14.869626 19.693252 29.960929 -0.718885 0.853569 0.054154 -0.005543 -68252.100000 0 0 1
-15.906778 14.409226 20.463152 29.654544 -0.736040 0.809237 0.050427 -0.006933 -392594.000000 0 0 1
-15.082678 15.493426 20.798052 30.001540 -0.798831 0.804831 0.034798 -0.007397 -1633950.000000 0 0 1
-13.980278 15.124226 21.823852 30.007848 -0.824683 0.756458 0.012994 -0.009192 -529083.000000 0 0 1
-12.848978 14.494626 21.343952 28.822816 -0.845510 0.736948 0.028562 -0.006924 -524494.000000 0 0 1
-11.959778 14.078726 22.373052 29.013795 -0.866597 0.690201 0.041718 -0.011515 1012220.000000 0 0 1
-10.622978 13.434026 21.856252 27.767183 -0.901720 0.664662 0.040242 -0.010915 -713845.000000 0 0 1
-10.011078 12.572526 22.765082 27.866451 -0.898336 0.614720 0.036694 -0.009112 -1178030.000000 0 0 1
-8.824578 12.040926 22.358152 26.883899 -0.938341 0.588713 0.042754 -0.001325 -90093.400000 0 0 1
-7.565078 12.989726 22.315852 26.906517 -1.043427 0.592791 0.045035 0.005573 -169504.000000 0 0 1
-7.671378 13.852126 21.184452 26.448298 -1.065036 0.641873 0.040938 0.001933 -421378.000000 0 0 1
-6.894578 15.025426 21.373152 27.020553 -1.140598 0.658361 0.039827 0.006120 -132097.000000 0 0 1
-7.356878 16.163526 22.324952 28.526947 -1.143665 0.671978 0.050107 -0.003568 -60635.800000 0 0 1
-8.385878 16.977326 21.790252 28.868108 -1.112004 0.715415 0.020358 0.002856 -366237.000000 0 0 1
-7.985878 17.947126 20.827252 28.629496 -1.152136 0.756161 0.034727 0.003636 -904163.000000 0 0 1
-9.072178 18.013226 19.753852 28.231107 -1.104241 0.795792 0.034997 0.007598 1753820.000000 0 0 1
-10.340078 18.654826 20.129052 29.327436 -1.064670 0.814330 0.023289 0.009097 774620.000000 0 0 1
-11.169478 17.795026 20.812552 29.573341 -1.010276 0.790119 0.027408 -0.003008 -2211180.000000 0 0 1
-12.561178 18.345226 20.982552 30.571196 -0.970405 0.814337 0.021844 -0.006227 -871679.000000 0 0 1
-13.350178 18.246526 19.816652 30.064309 -0.939139 0.851119 0.030540 -0.003225 291899.000000 0 0 1
-14.515778 19.069426 19.908152 31.155824 -0.920161 0.877616 0.021147 -0.004902 292770.000000 0 0 1
-15.384878 19.196926 18.670352 30.883628 -0.895188 0.921610 0.051801 -0.004687 -621221.000000 0 0 1
-16.129078 18.054726 18.359052 30.383796 -0.841671 0.921987 0.057321 -0.004087 -273807.000000 0 0 1
-16.726278 18.355726 17.136952 30.172441 -0.831812 0.966763 0.070767 -0.015542 -1116140.000000 0 0 1
-17.571878 17.193426 16.567752 29.645830 -0.774513 0.977791 0.065608 -0.018337 1332730.000000 0 0 1
-18.770078 16.818826 17.294752 30.566275 -0.730625 0.969379 0.059170 -0.013450 1271780.000000 0 0 1
-19.803478 17.784526 17.448852 31.826554 -0.731737 0.990528 0.078442 -0.015329 -374070.000000 0 0 1
35.775184 -9.305174 11.831846 38.812918 -0.254463 1.261023 0.095720 -0.046699 326214.000000 0 0 1
34.375464 -9.516774 11.696246 37.537231 -0.270083 1.253930 0.088780 -0.034463 447069.000000 0 0 1
33.983084 -10.682374 12.436646 37.731065 -0.304564 1.234903 0.107777 -0.029628 -427806.000000 0 0 1
32.504744 -11.041674 12.417946 36.505922 -0.327464 1.223707 0.116132 -0.022078 -2304800.000000 0 0 1
31.643374 -9.989674 12.721946 35.537932 -0.305794 1.204690 0.127727 -0.021105 -93936.600000 0 0 1
30.312454 -10.479674 12.699046 34.495423 -0.332858 1.193792 0.131390 -0.018811 109734.000000 0 0 1
29.852954 -11.532074 13.708046 34.815200 -0.368637 1.166102 0.106651 -0.005763 -1948080.000000 0 0 1
29.725854 -11.129074 15.067346 35.135560 -0.358236 1.127594 0.116612 -0.009150 932878.000000 0 0 1
28.638654 -11.732174 15.818746 34.757001 -0.388808 1.098285 0.108093 -0.009162 2576160.000000 0 0 1
27.169554 -11.152574 15.517346 33.216752 -0.389509 1.084727 0.099651 -0.023845 1207010.000000 0 0 1
27.058454 -9.821074 15.953246 32.910781 -0.348171 1.064728 0.099948 -0.017914 -243273.000000 0 0 1
26.189654 -9.000774 15.205646 31.593094 -0.331031 1.068663 0.116896 -0.025984 -110935.000000 0 0 1
26.049454 -7.535374 15.693246 31.331037 -0.281586 1.046175 0.145731 -0.053872 453197.000000 0 0 1
27.231754 -6.749874 15.545746 32.074904 -0.242971 1.064810 0.120774 -0.048198 305936.000000 0 0 1
27.024054 -5.393474 16.066846 31.898787 -0.196992 1.042941 0.142151 -0.051431 58535.300000 0 0 1
28.322054 -4.572874 16.080446 32.888154 -0.160078 1.059918 0.137871 -0.044973 -120708.000000 0 0 1
28.856554 -4.316774 14.822746 32.726886 -0.148493 1.100756 0.163377 -0.046403 689943.000000 0 0 1
30.195454 -3.813874 14.845446 33.862935 -0.125641 1.116981 0.144313 -0.040833 702144.000000 0 0 1
30.689794 -3.287274 13.459646 33.672417 -0.106706 1.159581 0.161362 -0.046404 -20819.100000 0 0 1
30.843814 -4.260674 12.470546 33.541150 -0.137268 1.189851 0.149235 -0.045972 196285.000000 0 0 1
31.141944 -3.529574 11.263346 33.303777 -0.112857 1.225793 0.153444 -0.045825 -132445.000000 0 0 1
31.544964 -4.367374 10.088146 33.405529 -0.137575 1.264017 0.166974 -0.038704 369622.000000 0 0 1
32.940844 -4.650774 10.186046 34.792017 -0.140259 1.273674 0.146389 -0.044110 530590.000000 0 0 1
33.260414 -5.344674 8.993246 34.866878 -0.159330 1.309916 0.144797 -0.044847 258439.000000 0 0 1
34.676664 -6.013774 9.002146 36.327333 -0.171716 1.320381 0.121307 -0.049434 628922.000000 0 0 1
35.711914 -5.044974 8.891146 37.146266 -0.140340 1.329095 0.123856 -0.052293 219344.000000 0 0 1
36.962554 -5.692674 8.729146 38.403580 -0.152811 1.341492 0.141220 -0.055751 370511.000000 0 0 1
-37.342388 -4.791574 8.353646 38.564187 0.127617 1.352449 0.149745 -0.057932 181828.000000 0 0 1
-37.387878 -4.365474 7.001846 38.287552 0.116235 1.386886 0.162702 -0.048023 -253170.000000 0 0 1
-36.188478 -3.714374 6.682246 36.987226 0.102282 1.389135 0.159581 -0.038720 -137246.000000 0 0 1
-36.188228 -3.118174 5.260046 36.701211 0.085953 1.426980 0.168994 -0.045991 16898.400000 0 0 1
-35.681206 -4.097274 4.365146 36.179975 0.114329 1.449851 0.202552 -0.061844 62895.200000 0 0 1
-35.561090 -3.569674 3.065946 35.871071 0.100046 1.485221 0.233897 -0.055593 -322951.000000 0 0 1
-34.915344 -4.568774 2.135746 35.277704 0.130114 1.510218 0.281991 -0.066767 -842877.000000 0 0 1
-35.586814 -5.748174 1.816046 36.093778 0.160142 1.520460 0.270490 -0.050173 -120029.000000 0 0 1
-36.577778 -5.583474 0.808346 37.010302 0.151477 1.548953 0.245080 -0.050142 -20930.100000 0 0 1
-36.022708 -5.793874 -0.604454 36.490681 0.159474 1.587362 0.277655 -0.051640 -1361790.000000 0 0 1
-35.568549 -7.088774 -0.696854 36.274757 0.196721 1.590008 0.297944 -0.070035 397155.000000 0 0 1
-34.728627 -7.339474 -1.825354 35.542613 0.208273 1.622176 0.266417 -0.061096 36648.100000 0 0 1
-33.366688 -6.621774 -1.850154 34.067680 0.195909 1.625131 0.261994 -0.059242 -1049990.000000 0 0 1
-32.477738 -7.128574 -0.878554 33.262469 0.216065 1.597212 0.282549 -0.056309 -732722.000000 0 0 1
-31.280458 -6.440774 -0.752254 31.945524 0.203066 1.594347 0.258333 -0.058961 -787836.000000 0 0 1
-30.387578 -7.230874 0.207246 31.236731 0.233610 1.564162 0.234775 -0.045530 -390068.000000 0 0 1
-29.828248 -8.365674 -0.498354 30.983176 0.273437 1.586882 0.215233 -0.026093 264937.000000 0 0 1
-29.034938 -9.080574 0.410246 30.424542 0.303109 1.557312 0.248185 -0.040040 -245077.000000 0 0 1
-28.716578 -10.533174 -0.014054 30.587412 0.351560 1.571256 0.189992 -0.027059 -128243.000000 0 0 1
-27.702258 -10.630274 -0.983554 29.688132 0.366405 1.603932 0.171801 -0.021600 208335.000000 0 0 1
-27.246598 -11.951874 -1.372254 29.784349 0.413380 1.616886 0.151826 -0.007654 413507.000000 0 0 1
-28.196278 -12.841874 -2.278654 31.066639 0.427373 1.644210 0.156043 -0.011079 280591.000000 0 0 1
-29.257128 -13.475874 -1.588154 32.250596 0.431635 1.620060 0.195059 -0.025568 532052.000000 0 0 1
-29.744018 -14.613374 -2.351654 33.223299 0.456667 1.641639 0.167764 -0.018449 -190215.000000 0 0 1
-30.815938 -15.418474 -1.622754 34.496155 0.463920 1.617855 0.188519 -0.019398 -76620.800000 0 0 1
-30.219258 -16.063174 -0.493954 34.226789 0.488571 1.585229 0.155185 -0.011046 938339.000000 0 0 1
-31.164988 -16.800474 0.314046 35.406370 0.494422 1.561926 0.175547 -0.019936 478660.000000 0 0 1
-31.624278 -18.210374 -0.195554 36.493162 0.522462 1.576155 0.173239 -0.018011 234917.000000 0 0 1
-30.576158 -19.183774 -0.161254 36.096324 0.560330 1.575264 0.176826 -0.024087 375718.000000 0 0 1
-30.958708 -20.560574 -0.109554 37.164375 0.586244 1.573744 0.157977 -0.023499 146178.000000 0 0 1
-31.773568 -21.197974 1.100046 38.211566 0.588342 1.542004 0.146313 -0.027897 285034.000000 0 0 1
-31.028398 -21.492374 2.280446 37.813808 0.605788 1.510452 0.141165 -0.023121 442511.000000 0 0 1
-31.941048 -21.959374 3.295046 38.901182 0.602285 1.485992 0.125007 -0.019837 632782.000000 0 0 1
-31.311878 -22.118174 4.729846 38.626659 0.614997 1.448038 0.118592 -0.022390 -67109.800000 0 0 1
-30.725918 -20.915374 5.139446 37.522644 0.597661 1.433395 0.116788 -0.022743 212439.000000 0 0 1
-29.982588 -21.071974 6.372746 37.196714 0.612607 1.398621 0.111230 -0.024792 302681.000000 0 0 1
-29.524198 -19.699374 6.932446 36.163551 0.588391 1.377905 0.128696 -0.024166 170620.000000 0 0 1
-28.837678 -19.878074 8.182146 35.968000 0.603515 1.341303 0.112575 -0.037127 236466.000000 0 0 1
-28.088558 -18.671374 8.469546 34.775286 0.586662 1.324771 0.132123 -0.033688 837556.000000 0 0 1
-27.000218 -18.854374 9.590746 34.299877 0.609587 1.287404 0.145047 -0.032959 440536.000000 0 0 1
-27.630208 -19.100774 10.824446 35.290744 0.604863 1.259049 0.123612 -0.029411 -8883.840000 0 0 1
-26.715198 -19.298574 11.883246 35.033531 0.625590 1.224734 0.120450 -0.020545 26910.400000 0 0 1
-26.273538 -17.997774 12.590446 34.245262 0.600598 1.194310 0.099760 -0.022727 -511876.000000 0 0 1
-25.305238 -17.236874 11.876046 32.840605 0.597968 1.200784 0.106362 -0.021460 399160.000000 0 0 1
-24.750378 -16.091974 12.531446 32.071326 0.576495 1.169364 0.107855 -0.010017 497221.000000 0 0 1
-23.864078 -16.375174 13.779046 32.054682 0.601394 1.126458 0.089086 -0.014465 -595286.000000 0 0 1
-24.621678 -16.821074 14.887246 33.328751 0.599349 1.107747 0.093755 -0.021570 216234.000000 0 0 1
-23.917578 -17.387574 16.008846 33.625309 0.628604 1.074587 0.099249 -0.017177 886172.000000 0 0 1
-25.042728 -17.937874 16.996646 35.182261 0.621576 1.066601 0.090906 -0.008987 963034.000000 0 0 1
-25.761428 -16.943474 17.652246 35.529344 0.581774 1.050848 0.113735 -0.006839 -33086.000000 0 0 1
-26.848778 -17.443774 18.427446 36.942021 0.576168 1.048559 0.094649 0.004871 38134.900000 0 0 1
-27.655298 -16.267274 18.985046 37.280983 0.531709 1.036492 0.103987 0.007861 -689837.000000 0 0 1
-27.006368 -15.634074 20.020746 37.075577 0.524763 1.000361 0.106303 0.000547 -29978.700000 0 0 1
-27.815918 -14.698674 20.719546 37.670624 0.486130 0.988410 0.115217 -0.003670 91104.900000 0 0 1
-26.983938 -13.944074 21.769646 37.369608 0.476961 0.948934 0.117420 -0.009206 74452.500000 0 0 1
-25.996238 -13.097074 21.214146 36.019130 0.466688 0.941014 0.126253 -0.012435 -335469.000000 0 0 1
-24.905378 -13.002474 22.067546 35.725604 0.481151 0.904987 0.125310 -0.018804 -297587.000000 0 0 1
-23.681378 -12.340074 21.391546 34.215250 0.480375 0.895402 0.121729 -0.018342 159763.000000 0 0 1
-23.899178 -10.920774 21.457146 33.924079 0.428620 0.886013 0.152624 -0.011863 579264.000000 0 0 1
-22.751178 -10.298774 20.909046 32.570985 0.425072 0.873753 0.128029 -0.017811 -276844.000000 0 0 1
-22.419978 -8.989874 21.644446 32.433860 0.381348 0.840164 0.134027 -0.015310 -50607.000000 0 0 1
-21.741778 -8.997774 22.885546 32.823971 0.392386 0.799283 0.129009 -0.013965 758752.000000 0 0 1
-20.364078 -9.383774 22.819646 31.991985 0.431799 0.776611 0.090846 -0.004163 238899.000000 0 0 1
-19.850578 -9.711274 24.206446 32.776612 0.454985 0.739912 0.069009 -0.007702 -306076.000000 0 0 1
-20.281078 -10.941674 24.769046 33.831169 0.494747 0.749343 0.073083 -0.005627 -33949.900000 0 0 1
-19.678278 -11.198074 26.028046 34.497691 0.517357 0.715925 0.078962 -0.001121 -730994.000000 0 0 1
-20.184778 -12.544374 26.633546 35.694990 0.556062 0.728547 0.081726 -0.030956 404208.000000 0 0 1
-21.430978 -12.536274 27.310546 36.909496 0.529288 0.737826 0.083775 -0.017786 -590679.000000 0 0 1
-22.476478 -12.903674 26.444146 37.026878 0.521155 0.775333 0.077991 -0.011768 -716940.000000 0 0 1
-23.778378 -12.969274 27.248146 38.419719 0.499322 0.782401 0.072668 -0.013569 -356342.000000 0 0 1
-24.028778 -14.146174 28.104346 39.589780 0.532083 0.781456 0.071098 -0.011422 -139091.000000 0 0 1
-23.133178 -14.294074 29.203246 39.903559 0.553480 0.749770 0.066851 -0.014219 13023.200000 0 0 1
-23.437378 -15.428474 30.192046 41.217813 0.582177 0.748809 0.048821 -0.016857 -421674.000000 0 0 1
-23.305478 -16.765774 29.771846 41.359392 0.623623 0.767235 0.048796 -0.011760 -130876.000000 0 0 1
-23.522378 -17.794774 30.768546 42.622291 0.647651 0.764269 0.059744 -0.013639 296418.000000 0 0 1
-24.967178 -17.993974 31.313546 43.905367 0.624487 0.776736 0.041091 -0.016348 -26125.900000 0 0 1
-25.273578 -17.076474 32.307546 44.431264 0.594206 0.756656 0.049362 -0.006023 -156414.000000 0 0 1
-26.555898 -17.274074 32.868246 45.650092 0.576712 0.766988 0.055588 -0.015788 -325944.000000 0 0 1
-27.080818 -16.046374 33.670146 46.092684 0.534914 0.751760 0.055560 -0.018098 -159605.000000 0 0 1
-26.539798 -15.801674 -32.659960 44.952495 0.537027 2.384075 0.061200 -0.022661 -559144.000000 0 0 1
-27.108268 -14.669674 -32.117360 44.514968 0.496024 2.376756 0.073656 -0.014756 -424048.000000 0 0 1
-26.518888 -14.136874 -30.795160 43.028415 0.489766 2.368413 0.070198 -0.011339 -251438.000000 0 0 1
-26.902188 -14.755574 -29.606860 42.638256 0.501683 2.338345 0.088654 -0.010550 -118111.000000 0 0 1
-26.333988 -14.136174 -28.504660 41.301646 0.492655 2.332504 0.099461 -0.011709 -225380.000000 0 0 1
-26.576438 -14.913174 -27.201660 40.848992 0.511358 2.299506 0.094845 -0.017660 557853.000000 0 0 1
-27.880148 -14.807774 -26.613160 41.289625 0.488235 2.271229 0.109969 -0.025596 632190.000000 0 0 1
-28.143978 -13.795574 -25.634860 40.491325 0.455760 2.256342 0.126277 -0.028226 212404.000000 0 0 1
-27.228448 -13.838374 -24.341060 39.056065 0.470212 2.243667 0.118676 -0.036635 846124.000000 0 0 1
-25.854758 -13.421774 -24.504460 38.066798 0.478828 2.270149 0.077619 -0.026649 1422630.000000 0 0 1
-25.022548 -14.043274 -23.505260 37.092300 0.511420 2.257119 0.066286 -0.025115 189240.000000 0 0 1
-24.582678 -15.498474 -23.793760 37.558671 0.562518 2.256876 0.052117 -0.011490 -1409840.000000 0 0 1
-23.581078 -15.544274 -24.735960 37.544100 0.582805 2.290086 0.037027 -0.004724 -478234.000000 0 0 1
-23.250078 -16.845074 -25.123960 38.151488 0.626991 2.289662 0.052523 -0.006997 -132728.000000 0 0 1
-22.529278 -16.889274 -26.538660 38.692589 0.643283 2.326615 0.028497 -0.004740 116543.000000 0 0 1
-23.245378 -16.907674 -27.763260 39.962678 0.628851 2.338840 0.039736 -0.005628 -323852.000000 0 0 1
-24.117578 -17.989374 -27.888660 41.025023 0.640874 2.318281 0.051759 0.003784 -289996.000000 0 0 1
-24.798278 -18.035574 -29.299060 42.410747 0.628808 2.333447 0.062412 -0.007884 -232971.000000 0 0 1
-24.053778 -18.651874 -30.284160 42.937245 0.659575 2.353660 0.056082 -0.011509 13213.400000 0 0 1
-24.599978 -18.261174 -31.523060 43.958307 0.638571 2.370447 0.049172 -0.012321 -1140700.000000 0 0 1
-23.712978 -18.592074 -32.666760 44.441959 0.664937 2.396527 0.055675 -0.015672 -1527600.000000 0 0 1
-22.606578 -17.736374 -32.829160 43.627859 0.665259 2.422618 0.050520 -0.017766 -455989.000000 0 0 1
-21.427778 -18.293574 -32.320260 42.876611 0.706657 2.424618 0.055938 -0.024143 -480753.000000 0 0 1
-20.760178 -19.501474 -33.070360 43.645632 0.754145 2.430580 0.069152 -0.021304 -738364.000000 0 0 1
-20.125678 -19.147474 33.270046 43.342411 0.760496 0.695693 0.074305 -0.024098 380468.000000 0 0 1
-19.748378 -20.252274 32.437246 43.038680 0.797995 0.717158 0.086061 -0.026050 210303.000000 0 0 1
-20.957478 -20.837674 31.641746 43.296935 0.782532 0.751291 0.073296 -0.024498 147266.000000 0 0 1
-21.909178 -21.460074 32.472746 44.665715 0.775043 0.756829 0.075358 -0.021881 364660.000000 0 0 1
-23.132078 -21.861374 31.840346 45.020221 0.757164 0.785202 0.077426 -0.014309 659583.000000 0 0 1
-23.003078 -23.097174 30.934446 44.939526 0.787439 0.811574 0.076941 -0.010354 -602444.000000 0 0 1
-22.682178 -24.191674 31.710046 45.882952 0.817590 0.807776 0.085048 -0.004980 -111060.000000 0 0 1
-22.856978 -25.401314 30.979746 46.123886 0.838073 0.834344 0.086077 0.000136 -152481.000000 0 0 1
-22.371978 -26.600674 31.803446 47.112211 0.871533 0.829754 0.092280 -0.003010 -65360.400000 0 0 1
-23.147978 -26.948524 32.952846 48.455566 0.861118 0.822948 0.083684 -0.005397 -90779.800000 0 0 1
-22.521978 -27.978854 33.634246 49.206892 0.893036 0.818212 0.088871 -0.016815 -460562.000000 0 0 1
-23.577578 -29.014224 -33.427060 50.150730 0.888407 2.300343 0.081687 -0.017524 -167789.000000 0 0 1
-24.454678 -29.588924 33.220846 50.765739 0.880116 0.857414 0.072072 -0.019766 650399.000000 0 0 1
-25.473228 -28.690234 32.742746 50.439095 0.844723 0.864324 0.073666 -0.014932 -438763.000000 0 0 1
-26.721458 -28.535154 33.638146 51.573406 0.818210 0.860263 0.053949 -0.013227 -1531920.000000 0 0 1
-27.865528 -27.974954 33.148546 51.554939 0.787358 0.872420 0.052776 -0.008543 -977038.000000 0 0 1
-28.714118 -27.758134 -33.353760 52.033527 0.768471 2.266604 0.042554 0.001463 -425335.000000 0 0 1
-29.953538 -26.919604 -33.685660 52.503364 0.732103 2.267366 0.041321 -0.006942 -180977.000000 0 0 1
-30.903158 -27.494004 33.033546 52.935249 0.727086 0.896898 0.050178 -0.012424 -912192.000000 0 0 1
-31.958058 -26.639654 32.874746 53.025820 0.694885 0.902084 0.042366 -0.015248 -763209.000000 0 0 1
