# x y z rho theta phi s1 s2 stress_xx np intf bulk
-0.871033 -10.805497 -14.434419 18.051867 1.490360 2.497439 0.008347 0.003357 175936.000000 1 0 0
1.988167 -13.423797 -13.029419 18.812679 -1.423758 2.335866 0.014439 -0.000577 -174005.000000 1 0 0
2.028967 -11.130497 -14.728419 18.572318 -1.390487 2.486564 0.008049 0.003503 1049710.000000 1 0 0
-5.613133 -6.257097 -16.495619 18.513886 0.839595 2.670309 0.019975 -0.000535 46748.900000 1 0 0
4.372067 -14.119297 -11.496619 18.725431 -1.270508 2.231861 0.007604 -0.003823 -233191.000000 1 0 0
14.077267 -10.583597 -7.920919 19.311212 -0.644666 1.993439 0.042430 -0.018490 -678237.000000 1 0 0
7.115467 10.773003 -10.872519 16.878955 0.987082 2.270703 0.026664 -0.014679 31352.700000 1 0 0
5.745767 -4.230097 -12.544619 14.431736 -0.634618 2.624456 0.003846 -0.002214 3099270.000000 1 0 0
13.570367 0.514603 -10.095119 16.921321 0.037903 2.210044 0.006070 0.001127 345286.000000 1 0 0
14.213467 5.082903 -10.421419 18.342969 0.343440 2.175043 -0.003477 0.001865 -421719.000000 1 0 0
4.153767 4.234603 -13.526019 14.769523 0.795035 2.728307 0.004864 -0.002736 1439170.000000 1 0 0
10.382367 -5.011497 -13.712619 17.914925 -0.449706 2.442505 0.032055 -0.007856 -240667.000000 1 0 0
2.469167 -7.652297 -11.924619 14.382314 -1.258673 2.548322 -0.002817 0.001293 2413800.000000 1 0 0
-5.581433 -1.980597 -15.112819 16.231835 0.340993 2.768105 0.011114 -0.008249 5021.110000 1 0 0
10.684067 -0.023997 -9.691819 14.425020 -0.002246 2.307535 0.009482 -0.000863 1139630.000000 1 0 0
-1.703833 -9.614997 -16.987219 19.593795 1.395411 2.619885 0.027518 -0.005280 1937990.000000 1 0 0
8.645667 1.592503 -18.007319 20.038641 0.182155 2.687432 0.025487 -0.006348 703565.000000 1 0 0
16.507467 -5.918297 -8.874819 19.654137 -0.344247 2.039298 0.052568 -0.013163 28381.500000 1 0 0
10.202367 7.541503 -9.945319 16.120543 0.636548 2.235638 0.012741 -0.006680 1050940.000000 1 0 0
13.884367 -2.255097 -10.662719 17.650911 -0.161014 2.219418 0.030182 -0.002832 -1970540.000000 1 0 0
7.258967 -1.881697 -13.648119 15.572557 -0.253641 2.639176 0.017068 -0.007871 1106100.000000 1 0 0
-2.746333 6.615503 -13.811119 15.558092 -1.177310 2.663150 0.001741 -0.001752 851715.000000 1 0 0
11.293467 1.844203 -14.055919 18.124909 0.161869 2.458308 0.018333 -0.003702 -79485.600000 1 0 0
-2.335933 10.735403 -12.947219 16.980457 -1.356544 2.437930 0.004389 0.002685 -1300390.000000 1 0 0
2.813867 -1.106897 -15.159319 15.457943 -0.374780 2.944712 0.005476 -0.007758 1112340.000000 1 0 0
-9.015133 0.492603 -15.157919 17.643066 -0.054588 2.604389 0.016762 -0.010621 -2129230.000000 1 0 0
2.304567 -1.757197 -17.942719 18.175256 -0.651444 2.981458 0.011900 -0.013768 1787040.000000 1 0 0
1.106667 7.860303 -13.255319 15.450325 1.430924 2.602026 0.002719 -0.000961 -592346.000000 1 0 0
9.316967 -9.075197 -9.859519 16.321004 -0.772254 2.219432 0.024323 -0.009194 -1475440.000000 1 0 0
3.950867 7.226903 -13.484719 15.801111 1.070499 2.593276 0.005357 -0.003083 261773.000000 1 0 0
-2.677333 9.103803 -15.523519 18.194147 -1.284771 2.592915 0.002395 0.003510 -634994.000000 1 0 0
5.548667 -7.784397 -15.128919 17.896053 -0.951536 2.578068 0.010373 -0.000787 31592.400000 1 0 0
4.247867 7.182703 -16.409719 18.409630 1.036723 2.671146 0.008688 -0.002551 1040850.000000 1 0 0
-0.170333 5.114803 -13.459119 14.399240 -1.537507 2.778240 0.003163 -0.006451 1055550.000000 1 0 0
8.766367 4.195503 -16.781919 19.392891 0.446374 2.616673 0.020268 -0.006902 -720456.000000 1 0 0
5.324767 0.257103 -14.356619 15.314429 0.048247 2.786048 0.007491 -0.005545 142497.000000 1 0 0
6.290067 7.887403 -11.613619 15.383504 0.897592 2.426359 0.010060 -0.005166 833264.000000 1 0 0
2.720567 -8.374797 -14.972619 17.370032 -1.256699 2.609959 0.004429 -0.001588 921249.000000 1 0 0
3.971267 11.428103 -13.800119 18.352541 1.236350 2.421805 0.016788 -0.010857 -1076120.000000 1 0 0
0.516767 -4.629097 -13.657619 14.430043 -1.459622 2.812918 0.000346 -0.001097 1983090.000000 1 0 0
8.469667 -0.095397 -11.659519 14.411410 -0.011263 2.513326 0.007697 -0.002324 701661.000000 1 0 0
-0.924433 -5.135697 -16.295019 17.110161 1.392702 2.831677 0.004776 -0.005498 314021.000000 1 0 0
4.489667 0.907703 -11.724419 12.587415 0.199487 2.769146 0.003487 -0.007359 435984.000000 1 0 0
-2.962633 -7.241297 -15.652619 17.499087 1.182444 2.678068 0.010186 -0.000455 1809040.000000 1 0 0
11.496267 -3.765997 -11.358219 16.593855 -0.316568 2.324691 0.027766 -0.006462 751240.000000 1 0 0
6.450567 -7.100897 -12.395419 15.674149 -0.833351 2.482943 0.010194 -0.002314 -978860.000000 1 0 0
3.391267 -4.048497 -14.555119 15.483620 -0.873510 2.793524 0.006635 -0.005402 3145650.000000 1 0 0
-0.644333 -1.620297 -18.285019 18.367973 1.192306 3.046517 0.015835 -0.016361 -297122.000000 1 0 0
14.917367 2.932803 -8.488819 17.412329 0.194127 2.080041 -0.003012 0.003118 -1747050.000000 1 0 0
6.959667 4.236503 -14.349919 16.501669 0.546808 2.625196 0.011683 -0.003939 1546290.000000 1 0 0
10.169967 -9.664097 -13.906619 19.753912 -0.759899 2.351801 0.035485 -0.013979 -248759.000000 1 0 0
9.010367 -3.157397 -15.529919 18.230037 -0.337047 2.590373 0.033730 -0.010967 -686491.000000 1 0 0
-5.269533 -2.097297 -17.952919 18.827478 0.378785 2.835601 0.008025 -0.005690 -165129.000000 1 0 0
4.950267 -9.153397 -10.962519 15.115113 -1.075035 2.382221 -0.000692 -0.000293 1555310.000000 1 0 0
-2.435533 3.934703 -17.076619 17.692502 -1.016532 2.876964 0.005167 -0.004129 61238.200000 1 0 0
9.590467 9.286903 -14.517519 19.722626 0.769319 2.398064 0.047828 -0.016316 -1190590.000000 1 0 0
9.848467 9.953503 -11.635519 18.205763 0.790702 2.264139 0.027503 -0.014722 -519949.000000 1 0 0
12.037967 -6.008197 -9.664719 16.565563 -0.462931 2.193732 0.033904 -0.009810 607951.000000 1 0 0
8.208067 6.907803 -13.724519 17.419889 0.699590 2.478131 0.020256 -0.004306 786983.000000 1 0 0
3.940467 -4.212197 -17.436619 18.365880 -0.818716 2.822125 0.017304 -0.011198 -1019230.000000 1 0 0
9.323467 -7.475197 -12.324919 17.167097 -0.675814 2.371633 0.025079 -0.009657 1547000.000000 1 0 0
12.032567 -8.663597 -8.861819 17.273460 -0.624031 2.109508 0.031971 -0.011336 1532400.000000 1 0 0
-2.984533 -2.598497 -13.877819 14.430990 0.716363 2.863817 0.005873 -0.005334 -1592500.000000 1 0 0
-0.281233 6.087603 -17.612119 18.636650 -1.524631 2.808470 0.010761 0.001988 3074840.000000 1 0 0
1.156167 -8.526397 -17.468919 19.473040 -1.436020 2.683918 0.018299 -0.006602 2764470.000000 1 0 0
0.086267 8.523003 -16.068219 18.188916 1.560675 2.653880 0.002090 0.006480 -525751.000000 1 0 0
1.765867 3.310203 -14.898519 15.363645 1.080739 2.894901 0.006731 -0.004238 1101620.000000 1 0 0
-1.899733 -0.501797 -15.752419 15.874492 0.258243 3.017498 0.007904 -0.010675 2311700.000000 1 0 0
14.166867 -4.309497 -8.535619 17.091772 -0.295301 2.093702 0.031925 -0.007854 -1306370.000000 1 0 0
0.544167 0.577003 -14.455119 14.476861 0.814677 3.086779 0.003055 -0.008792 1101890.000000 1 0 0
8.923967 2.740503 -12.636219 15.710556 0.297953 2.505316 0.008963 -0.001776 720248.000000 1 0 0
5.870667 1.013503 -17.079619 18.088817 0.170953 2.805980 0.023294 -0.007014 565560.000000 1 0 0
15.289267 1.590603 -12.394419 19.746223 0.103661 2.249373 0.012464 -0.008797 86582.500000 1 0 0
8.707867 -11.213297 -11.845519 18.490032 -0.910509 2.266132 0.030196 -0.013489 1718180.000000 1 0 0
-4.642133 0.756803 -15.045619 15.763654 -0.161607 2.838607 0.011255 -0.009297 1712660.000000 1 0 0
2.425467 4.976603 -17.199119 18.068181 1.117300 2.830178 0.007333 -0.006571 2728540.000000 1 0 0
5.850467 -11.699397 -12.357819 17.994986 -1.107096 2.327787 0.015336 -0.007456 1030330.000000 1 0 0
12.890267 7.226403 -8.674919 17.135755 0.510952 2.101623 0.001352 -0.003060 -18930.100000 1 0 0
-4.977433 3.657303 -15.662619 16.836518 -0.633687 2.765962 0.010696 -0.005324 216796.000000 1 0 0
-0.461433 -4.485997 -19.006719 19.534391 1.468296 2.908633 0.018316 -0.015828 -1001420.000000 1 0 0
9.854867 4.413203 -10.351819 14.958439 0.421039 2.335106 0.001411 0.003121 -329971.000000 1 0 0
13.320067 3.635903 -12.831519 18.849187 0.266473 2.319578 0.011628 -0.007740 90433.700000 1 0 0
-6.204933 5.865803 -17.086719 19.101435 -0.757310 2.678165 0.011699 -0.000796 1360890.000000 1 0 0
-10.177133 3.170603 -15.342319 18.681903 -0.302012 2.534376 0.023214 -0.006346 -1137810.000000 1 0 0
10.825567 13.265703 -8.383019 19.064280 0.886341 2.026088 0.048899 -0.013238 -478496.000000 1 0 0
7.469367 13.347703 -12.343519 19.654899 1.060613 2.249793 0.050039 -0.017682 9277.630000 1 0 0
5.372867 15.031603 -11.146019 19.469220 1.227511 2.180341 0.027035 -0.020215 -770465.000000 1 0 0
14.381567 9.481903 -9.873219 19.854883 0.582892 2.091245 0.035534 -0.011511 -1743830.000000 1 0 0
8.263367 -17.316097 -2.068519 19.297907 -1.125549 1.678191 0.020993 -0.000252 -246960.000000 1 0 0
0.721167 -16.067597 0.075481 16.083950 -1.525943 1.566103 0.013186 -0.005936 2147990.000000 1 0 0
-9.101933 -11.646197 7.686581 16.660211 0.907415 1.091254 0.019282 -0.010577 734403.000000 1 0 0
1.975067 -16.023797 -2.537419 16.343239 -1.448157 1.726685 0.011917 -0.009255 1134610.000000 1 0 0
-1.387533 -11.073297 -9.447019 14.621536 1.446142 2.273264 -0.000692 0.002435 741031.000000 1 0 0
-4.923433 -12.728897 -13.079819 18.903615 1.201728 2.334944 0.016348 0.001596 -455963.000000 1 0 0
-8.190233 -17.878097 -1.649119 19.733876 1.141214 1.654462 0.008119 -0.008205 -422718.000000 1 0 0
-11.380133 -7.070997 -8.864719 16.065170 0.555967 2.155314 0.019256 -0.007394 2553180.000000 1 0 0
-13.621933 -11.616897 -4.853719 18.549069 0.706122 1.835548 0.025753 -0.001636 593090.000000 1 0 0
-5.821833 -13.283897 9.859281 17.537420 1.157746 0.973770 0.014698 -0.021131 -221598.000000 1 0 0
0.075867 -14.099797 -3.621319 14.557609 -1.565416 1.822194 0.003838 -0.004512 -1619540.000000 1 0 0
-14.787433 -11.709297 2.064081 18.974621 0.669746 1.461799 0.011822 0.001683 237407.000000 1 0 0
-4.026333 -16.483397 -7.497319 18.550567 1.331222 1.986852 -0.009364 -0.001109 -823867.000000 1 0 0
0.434367 -15.264497 -9.302119 17.880799 -1.542348 2.117916 -0.000745 0.000402 467855.000000 1 0 0
4.460967 -14.324797 -2.611319 15.228888 -1.268900 1.743119 0.007864 -0.005220 -214880.000000 1 0 0
-3.567433 -17.967597 -2.405419 18.475583 1.374797 1.701361 -0.007611 -0.006278 1151590.000000 1 0 0
-0.934933 -13.527597 0.784781 13.582557 1.501793 1.512986 0.006467 -0.003090 3009080.000000 1 0 0
-8.563533 -11.244397 -10.527619 17.623885 0.919924 2.210988 0.015011 -0.005010 3424050.000000 1 0 0
-3.727533 -14.180097 -0.378219 14.666721 1.313741 1.596587 -0.002750 -0.000550 4323910.000000 1 0 0
-1.639833 -14.839597 -7.277819 16.609315 1.460739 2.024366 -0.011933 0.002300 496082.000000 1 0 0
-14.091033 -8.107697 -1.778119 16.354011 0.522120 1.679738 0.007749 -0.000438 1315960.000000 1 0 0
-10.756333 -7.169697 -11.676219 17.419453 0.587926 2.305406 0.018607 -0.008326 -2100480.000000 1 0 0
-9.547233 -14.631097 6.985781 18.815414 0.992644 1.190409 0.008071 -0.002439 -598601.000000 1 0 0
-2.619333 -14.446397 -12.342319 19.180514 1.391431 2.269835 0.011965 -0.000174 809524.000000 1 0 0
2.159467 -17.718397 -4.874819 18.503209 -1.449517 1.837401 0.010988 -0.012622 -303551.000000 1 0 0
-6.576933 -9.643097 -9.201719 14.863277 0.972229 2.238381 0.005757 -0.005050 1355910.000000 1 0 0
-11.045433 -15.362197 0.309981 18.923392 0.947432 1.554415 0.018648 -0.006599 1082280.000000 1 0 0
-12.580733 -11.023397 4.137181 17.230972 0.719516 1.328326 0.024931 -0.003568 2668500.000000 1 0 0
-16.882433 -9.059997 -1.482219 19.217104 0.492538 1.648003 -0.003356 -0.003597 61855.900000 1 0 0
-1.453133 -19.209497 -3.917119 19.658591 1.495294 1.771396 -0.006311 -0.005839 -170403.000000 1 0 0
3.135767 -14.321897 -8.753819 17.075688 -1.355249 2.109062 0.005311 -0.004096 106996.000000 1 0 0
-4.366733 -7.961397 -13.107119 15.945180 1.069114 2.535730 0.007441 0.001303 1404460.000000 1 0 0
5.493367 -16.617197 1.292481 17.549325 -1.251523 1.497081 0.018600 -0.006465 4333930.000000 1 0 0
-2.893933 -13.822097 -3.199719 14.479759 1.364408 1.793614 -0.008011 -0.001022 431878.000000 1 0 0
-0.381033 -14.037397 3.796481 14.546717 1.543659 1.306753 0.011817 -0.003447 -2714670.000000 1 0 0
1.265867 -16.160897 7.130681 17.709422 -1.492627 1.156387 0.025580 -0.013071 2571210.000000 1 0 0
-5.567433 -10.334697 -14.669419 18.788138 1.076660 2.466711 0.016595 0.001844 -2106780.000000 1 0 0
-0.457633 -17.186197 -5.860719 18.163778 1.544175 1.899334 -0.002511 -0.007963 -587069.000000 1 0 0
-6.549333 -13.429397 -1.263819 14.994656 1.117048 1.655181 -0.001281 -0.002446 3400950.000000 1 0 0
-1.802033 -17.693197 -0.114719 17.785098 1.469297 1.577247 0.000222 -0.004554 2705700.000000 1 0 0
-9.395833 -9.851597 -4.899019 14.468450 0.809073 1.916225 0.013044 -0.005653 3294160.000000 1 0 0
-0.826633 -16.682197 5.041881 17.447051 1.521285 1.277633 0.026162 -0.007563 2408010.000000 1 0 0
-6.704933 -9.920297 -6.306819 13.533085 0.976442 2.055594 0.011405 -0.004883 1352670.000000 1 0 0
-6.059333 -14.485297 -8.645819 17.924551 1.174606 2.074126 -0.000646 -0.004462 382090.000000 1 0 0
-5.749333 -12.154297 -10.358719 16.973062 1.128957 2.227240 0.009123 -0.003268 1498330.000000 1 0 0
-10.750633 -12.148097 -8.774919 18.443199 0.846351 2.066648 0.034254 -0.012164 -275556.000000 1 0 0
4.041767 -17.021797 6.646081 18.714910 -1.337667 1.207751 0.028555 -0.016190 869374.000000 1 0 0
-6.702733 -14.358197 -4.164519 16.383762 1.134041 1.827802 0.001477 -0.003213 -468844.000000 1 0 0
-2.910533 -12.134397 -7.080519 14.347423 1.335386 2.086911 -0.001207 -0.001472 1059380.000000 1 0 0
-6.983933 -12.793897 4.524781 15.262135 1.071122 1.269801 0.000303 -0.002451 1950390.000000 1 0 0
2.607167 -16.407497 2.532181 16.805214 -1.413213 1.419542 0.019917 -0.006821 3008140.000000 1 0 0
-6.167833 -11.925197 7.292181 15.278364 1.093476 1.073230 0.003373 -0.009169 1597030.000000 1 0 0
-11.284633 -12.813197 -1.033919 17.105261 0.848745 1.631278 0.019816 0.002764 1294790.000000 1 0 0
-14.220233 -8.737797 4.678381 17.333534 0.550986 1.297504 0.016260 -0.006864 -15210.200000 1 0 0
-8.081133 -15.475497 4.539581 18.038945 1.089556 1.316407 0.006499 -0.000770 1749150.000000 1 0 0
-16.417433 -9.271197 1.272981 18.897293 0.514072 1.503382 -0.002600 -0.001360 -1559840.000000 1 0 0
-6.693433 -17.041697 2.406581 18.466541 1.196540 1.440103 0.000377 0.000499 2460380.000000 1 0 0
-11.490833 -15.033697 -4.716419 19.501177 0.918182 1.815071 0.039514 -0.004351 -361687.000000 1 0 0
-10.148733 -9.844597 -12.620119 18.952052 0.770187 2.299492 0.021856 -0.002925 -1088430.000000 1 0 0
-4.417633 -15.997397 -4.586419 17.218230 1.301364 1.840421 -0.010540 -0.000719 -1521180.000000 1 0 0
-11.732533 -8.346397 0.052581 14.398522 0.618329 1.567144 0.002494 0.003627 748091.000000 1 0 0
-9.562833 -11.242697 3.596281 15.191420 0.865965 1.331796 0.005661 0.002509 2067110.000000 1 0 0
-14.230033 -13.007297 -0.605619 19.288608 0.740536 1.602199 0.022908 0.000022 613020.000000 1 0 0
5.428567 -14.868497 -7.168619 17.376151 -1.220729 1.996053 0.012255 -0.014697 -97800.400000 1 0 0
-7.414033 -10.606997 -1.194919 12.996311 0.960758 1.662869 0.002944 -0.001342 1203830.000000 1 0 0
-11.616033 -8.212597 -6.097319 15.477606 0.615412 1.975716 0.014580 -0.005343 797141.000000 1 0 0
-14.418833 -6.722197 -9.250019 18.402542 0.436252 2.097457 0.021322 -0.008820 1852560.000000 1 0 0
-3.939033 -16.408097 1.518281 16.942456 1.335189 1.481062 -0.000007 -0.003485 1309470.000000 1 0 0
-8.012233 -15.565097 0.215981 17.507563 1.095413 1.558460 0.009971 -0.002537 2593450.000000 1 0 0
0.996267 -18.615497 3.873181 19.040242 -1.517329 1.365946 0.022708 -0.007846 1882830.000000 1 0 0
-14.113833 -8.771797 -4.625019 17.249218 0.556081 1.842247 0.016654 -0.005405 -78018.900000 1 0 0
-3.383333 -14.352997 11.154581 18.490001 1.339299 0.923193 0.006001 -0.024352 451441.000000 1 0 0
-10.835533 -12.188997 -3.944719 16.779191 0.844114 1.808114 0.025964 -0.007996 568337.000000 1 0 0
-9.878133 -10.799197 0.637081 14.649438 0.829913 1.527294 0.005495 0.003736 1692450.000000 1 0 0
-0.268133 -13.225797 -11.143019 17.296256 1.550526 2.270831 0.001007 0.000574 1748150.000000 1 0 0
-5.925333 -12.643397 -6.374019 15.349045 1.132541 1.999037 -0.005423 -0.003917 1134020.000000 1 0 0
1.838467 -15.761597 9.984081 18.748061 -1.454679 1.009198 0.027494 -0.017215 -86307.700000 1 0 0
-8.906633 -15.718197 -5.693319 18.942115 1.055264 1.876080 0.024522 -0.002713 -749772.000000 1 0 0
-3.357033 -15.397097 5.998781 16.861959 1.356126 1.207071 0.010368 -0.005586 -2268730.000000 1 0 0
-17.454833 -5.622497 -6.418619 19.428905 0.311622 1.907486 0.010428 -0.004694 688078.000000 1 0 0
18.934967 5.648903 -2.901419 19.971512 0.289926 1.716590 0.017570 0.011489 -135389.000000 1 0 0
12.843067 -12.384997 -5.928619 18.801091 -0.767243 1.891605 0.038424 -0.010871 -1239080.000000 1 0 0
10.973767 -13.452697 -1.581619 17.432732 -0.886537 1.661648 0.024865 -0.007267 1015240.000000 1 0 0
18.567667 -2.847097 4.468481 19.308846 -0.152151 1.337258 0.020087 -0.011235 -1457640.000000 1 0 0
8.640267 -16.885597 4.952181 19.603614 -1.097837 1.315414 0.023026 -0.016531 -1668580.000000 1 0 0
18.043967 -0.966097 6.552481 19.221162 -0.053490 1.222923 0.031319 -0.010108 -1049210.000000 1 0 0
17.960767 -4.163997 -5.016919 19.107524 -0.227814 1.836473 0.050798 -0.013221 959439.000000 1 0 0
5.509767 -11.612797 14.799881 19.602323 -1.127792 0.715132 0.010656 -0.003639 -1518670.000000 1 0 0
15.972767 -8.878097 -0.815019 18.292461 -0.507306 1.615366 0.054693 -0.012372 -930292.000000 1 0 0
13.823867 -12.567397 -1.468919 18.740237 -0.737825 1.649260 0.045989 -0.001812 614024.000000 1 0 0
10.921667 -1.828297 13.764781 17.666201 -0.165863 0.677473 0.002667 -0.007707 -924513.000000 1 0 0
16.903867 -6.120797 -1.567619 18.046116 -0.347409 1.657773 0.043877 -0.009636 -2384010.000000 1 0 0
17.797567 3.624503 -1.009519 18.190919 0.200904 1.626321 0.012624 0.005002 2801390.000000 1 0 0
9.744767 -10.979197 9.564681 17.521027 -0.844893 0.993337 0.016845 -0.002573 -581994.000000 1 0 0
9.088167 -11.140697 4.281681 15.001423 -0.886518 1.281353 0.004715 -0.003408 -763932.000000 1 0 0
14.069467 -9.974997 6.795281 18.537160 -0.616729 1.195470 0.038056 -0.012719 1506930.000000 1 0 0
16.167467 -0.462897 -4.695719 16.841942 -0.028624 1.853352 0.012004 -0.000236 -1086920.000000 1 0 0
15.773667 -0.496397 -1.697519 15.872509 -0.031460 1.677948 0.012850 -0.001235 1256060.000000 1 0 0
12.860767 -5.233497 -0.368119 13.889720 -0.386471 1.597302 0.010173 -0.007633 1839770.000000 1 0 0
14.293967 -7.529997 1.030981 16.188924 -0.484853 1.507069 0.035992 -0.008275 2227910.000000 1 0 0
15.524967 2.507303 3.641381 16.142206 0.160119 1.343257 0.019494 -0.004045 1111090.000000 1 0 0
15.947767 -7.030297 4.954881 18.119249 -0.415204 1.293809 0.034537 -0.010100 -1802600.000000 1 0 0
13.606367 -11.986797 3.221481 18.417233 -0.722201 1.394975 0.034158 -0.009114 364098.000000 1 0 0
13.920667 -0.944197 9.096481 16.656003 -0.067723 0.993049 0.017057 -0.009834 -1092920.000000 1 0 0
14.146967 -2.798897 -1.537519 14.502912 -0.195322 1.677010 0.007159 -0.005245 577212.000000 1 0 0
14.965467 1.908103 9.115281 17.626525 0.126816 1.027297 0.025375 -0.006678 -1595800.000000 1 0 0
14.330467 -10.071997 -3.014919 17.773495 -0.612628 1.741251 0.052704 -0.009265 1147500.000000 1 0 0
7.352567 -12.608397 6.190381 15.854108 -1.042860 1.169666 0.001475 -0.005885 1645130.000000 1 0 0
12.407667 -4.597097 6.978681 14.959461 -0.354824 1.085460 0.012570 -0.003925 1677640.000000 1 0 0
14.885267 -8.889397 -5.656219 18.236923 -0.538354 1.886149 0.056368 -0.013239 642417.000000 1 0 0
14.322967 -4.521497 4.623581 15.715241 -0.305781 1.272167 0.021178 -0.012790 1457260.000000 1 0 0
17.011667 -4.177197 0.876281 17.538918 -0.240785 1.520813 0.023549 -0.014042 -2494690.000000 1 0 0
10.245667 -14.422397 1.171581 17.729970 -0.953125 1.504669 0.021105 -0.007360 1347100.000000 1 0 0
16.301767 -2.480997 8.447681 18.527446 -0.151033 1.097351 0.025567 -0.010356 -28834.800000 1 0 0
15.959367 -2.549397 3.111981 16.458592 -0.158405 1.380572 0.014489 -0.008582 1952190.000000 1 0 0
7.821567 -15.249697 2.637281 17.340283 -1.096882 1.418114 0.008443 -0.007348 3114560.000000 1 0 0
16.772067 -6.864797 7.725981 19.700722 -0.388497 1.167810 0.045240 -0.014103 -63063.800000 1 0 0
10.228367 -8.553997 5.097281 14.274895 -0.696487 1.205656 0.010312 -0.006749 1956640.000000 1 0 0
10.825967 -11.833497 2.128781 16.179151 -0.829833 1.438838 0.013279 -0.006604 157532.000000 1 0 0
12.354767 -7.156397 11.909281 18.592613 -0.525016 0.875597 0.009978 -0.007384 363701.000000 1 0 0
15.214467 -9.776797 4.215481 18.569761 -0.571155 1.341792 0.042684 -0.012431 -55023.100000 1 0 0
7.364567 -10.245597 7.839481 14.854850 -0.947562 1.014860 0.004284 -0.001794 215206.000000 1 0 0
15.149367 -3.257497 -4.294819 16.079803 -0.211800 1.841173 0.023000 -0.003261 -40226.400000 1 0 0
11.798067 -8.993097 9.773881 17.765104 -0.651296 0.988225 0.012045 -0.003653 -1111530.000000 1 0 0
16.969767 -6.638597 2.329581 18.370381 -0.372898 1.443642 0.040929 -0.012216 629066.000000 1 0 0
17.544967 4.040003 1.952081 18.109613 0.226321 1.462794 0.017861 -0.001864 -79946.000000 1 0 0
14.841467 -4.928097 8.721181 17.905705 -0.320594 1.062074 0.030103 -0.009021 -435970.000000 1 0 0
12.812767 -12.526697 6.068781 18.918648 -0.774109 1.244240 0.028421 -0.009049 -971971.000000 1 0 0
18.290967 0.741703 -0.925719 18.329390 0.040528 1.621322 0.030638 -0.005679 272037.000000 1 0 0
11.692267 -2.091297 10.961981 16.163157 -0.176990 0.825475 0.008201 -0.003914 1055570.000000 1 0 0
5.843267 -12.286697 10.674581 17.293160 -1.126878 0.905526 0.006694 -0.010620 -1318150.000000 1 0 0
10.728567 -4.966297 10.938381 16.106348 -0.433533 0.824213 0.008418 -0.004949 998087.000000 1 0 0
17.859967 1.384203 4.965381 18.588960 0.077348 1.300399 0.029880 -0.007675 -1027640.000000 1 0 0
12.257767 -7.725597 7.148481 16.156685 -0.562374 1.112471 0.020597 -0.006098 704078.000000 1 0 0
10.871967 -7.674197 14.355881 19.575093 -0.614655 0.747523 0.020455 -0.009182 -440922.000000 1 0 0
14.173967 -0.127097 3.628481 14.631588 -0.008967 1.320192 0.010068 -0.003435 792729.000000 1 0 0
11.677467 -7.693097 2.475181 14.201179 -0.582536 1.395608 0.012617 -0.005262 2004540.000000 1 0 0
9.242667 6.168603 3.464681 11.639698 0.588514 1.268555 0.002782 -0.000297 2843400.000000 1 0 0
-3.863933 14.770903 -9.960619 18.229742 -1.314939 2.148849 0.007690 -0.003082 666258.000000 1 0 0
8.795667 -6.340597 9.254481 14.255257 -0.624601 0.864267 0.002599 -0.004530 -514425.000000 1 0 0
5.799667 -10.582797 -8.348319 14.673996 -1.069469 2.175987 0.004209 -0.008060 -118237.000000 1 0 0
5.381567 1.075303 0.497581 5.510456 0.197215 1.480376 -0.001649 0.001449 2771870.000000 1 0 0
-0.607033 9.953603 10.936981 14.800684 -1.509885 0.739284 -0.008581 0.001429 -45478.300000 1 0 0
-6.322633 -5.253797 1.164881 8.302712 0.693331 1.430031 0.004788 -0.000960 4224280.000000 1 0 0
-0.958233 4.055103 -10.844119 11.617099 -1.338750 2.774743 0.007681 -0.006737 773682.000000 1 0 0
10.886467 5.686103 1.232781 12.343690 0.481335 1.470758 0.002007 0.000776 694908.000000 1 0 0
-10.128533 -1.812397 -13.543919 17.009107 0.177066 2.491908 0.015362 -0.015291 609367.000000 1 0 0
7.585067 10.837903 -6.017419 14.532815 0.960161 1.997703 0.005347 -0.005912 459228.000000 1 0 0
-12.453333 -2.971597 -9.554119 15.974889 0.234238 2.211888 0.011668 -0.008179 941195.000000 1 0 0
-3.894133 -8.712897 2.591381 9.889090 1.150491 1.305656 0.005261 -0.000273 -1301340.000000 1 0 0
7.987967 -6.692797 -5.914119 11.982401 -0.697404 2.086983 0.000039 -0.007402 1405780.000000 1 0 0
14.398567 3.214403 -4.214319 15.343128 0.219643 1.849044 0.006374 0.002873 474997.000000 1 0 0
-2.452933 -4.878797 9.915381 11.319643 1.104932 0.503406 0.000080 -0.003690 2655990.000000 1 0 0
3.486167 -1.972597 -4.628419 6.121009 -0.514920 2.428210 -0.006996 0.000124 -2384230.000000 1 0 0
-3.953233 8.284503 -3.465619 9.811807 -1.125567 1.931795 0.001605 -0.001305 941339.000000 1 0 0
5.751067 0.083303 11.815581 13.141144 0.014484 0.453021 -0.004254 -0.001818 702453.000000 1 0 0
7.178367 4.794603 12.350081 15.067902 0.588873 0.610034 0.001742 -0.003967 1281240.000000 1 0 0
1.207867 -14.354497 12.523981 19.088233 -1.486849 0.855144 0.014580 -0.017369 505982.000000 1 0 0
3.004767 8.716103 -9.059519 12.925709 1.238817 2.347443 0.007139 -0.002731 1847560.000000 1 0 0
-4.401533 -8.895697 -4.541919 10.914941 1.111323 1.999970 0.007123 -0.003545 845620.000000 1 0 0
5.755867 -6.685697 -4.010019 9.690655 -0.859995 1.997424 -0.005845 -0.004911 2465490.000000 1 0 0
-3.090433 3.358403 8.554181 9.695549 -0.826927 0.490114 0.001047 0.001443 1886930.000000 1 0 0
-3.649333 3.063403 -11.070719 12.052505 -0.698332 2.735170 0.008451 -0.007601 -175231.000000 1 0 0
3.012667 -6.117697 8.589581 10.967374 -1.113206 0.671010 -0.005296 -0.001561 -221344.000000 1 0 0
-5.136933 -8.587997 10.526181 14.523852 1.031736 0.760123 0.004601 -0.012238 1816790.000000 1 0 0
-13.244133 -2.483997 6.545481 14.980675 0.185401 1.118615 0.012549 -0.001870 -669037.000000 1 0 0
3.992867 -5.982897 -8.346619 11.018352 -0.982300 2.430302 -0.004131 -0.003783 2872310.000000 1 0 0
2.886667 -0.577997 12.408181 12.752642 -0.197617 0.232953 -0.003761 -0.002544 1483110.000000 1 0 0
1.580367 -1.456997 -7.636019 7.932792 -0.744803 2.867197 -0.003419 -0.005649 1522570.000000 1 0 0
3.600467 -3.595697 3.365481 6.100726 -0.784735 0.986452 -0.000147 0.001435 2899390.000000 1 0 0
1.561967 0.378703 -11.756519 11.865871 0.237863 3.005726 0.002458 -0.008099 925828.000000 1 0 0
4.081267 3.544803 -10.668419 11.959830 0.715168 2.672593 0.000554 -0.002994 2820500.000000 1 0 0
2.873367 3.223703 3.379281 5.483433 0.842795 0.906797 -0.010878 0.005814 -554714.000000 1 0 0
-5.316333 0.825403 2.604481 5.977291 -0.154028 1.119948 0.005576 -0.003735 1163680.000000 1 0 0
-9.482033 -9.285197 5.748481 14.462672 0.774910 1.162038 0.012219 -0.002536 -2498750.000000 1 0 0
-2.987033 3.748903 -0.654219 4.837835 -0.898025 1.706442 0.004758 -0.005568 391698.000000 1 0 0
-15.804833 -6.489697 5.079081 17.824309 0.389623 1.281839 0.024501 -0.015472 123509.000000 1 0 0
1.038967 6.662103 -8.067619 10.514254 1.416091 2.445421 0.004217 -0.002391 34176.900000 1 0 0
-1.554833 6.583403 -9.494919 11.658138 -1.338871 2.522569 0.003462 -0.002347 1053860.000000 1 0 0
2.062167 -0.406097 5.192781 5.602002 -0.194439 0.384593 -0.001625 0.003216 1999550.000000 1 0 0
-3.328033 -0.595697 -6.240019 7.097077 0.177118 2.645056 0.014784 -0.012012 -119576.000000 1 0 0
1.962167 -1.234497 -2.490119 3.402172 -0.561578 2.391932 0.001473 0.000626 2204080.000000 1 0 0
2.457667 -8.681197 -7.603519 11.799017 -1.294913 2.271060 -0.005314 -0.001471 2923830.000000 1 0 0
-2.378833 13.945603 -5.621919 15.223162 -1.401843 1.949052 0.004562 0.001838 3768910.000000 1 0 0
6.862467 -5.152197 -8.259719 11.910564 -0.644000 2.337102 -0.002186 -0.005987 2295760.000000 1 0 0
-14.181533 -5.125097 -2.091819 15.223607 0.346788 1.708639 0.001724 -0.002899 -565024.000000 1 0 0
-2.742433 6.910803 -6.843419 10.105074 -1.193023 2.314782 0.003825 -0.002988 266293.000000 1 0 0
-5.573833 -1.146697 -8.013119 9.828154 0.202898 2.524083 0.024808 -0.013007 -163900.000000 1 0 0
-5.622533 -10.660897 3.529981 12.558996 1.085471 1.285885 0.004387 -0.000352 -3672470.000000 1 0 0
8.093867 -7.573697 6.654981 12.929050 -0.752210 1.030103 0.003966 -0.003873 174772.000000 1 0 0
8.890067 -5.916597 13.144981 16.936054 -0.587215 0.682254 0.007470 -0.002422 1037230.000000 1 0 0
-4.700833 9.452403 -0.809119 10.587749 -1.109298 1.647291 -0.000511 0.002092 977202.000000 1 0 0
2.776167 6.604903 12.033381 14.004789 1.172897 0.537027 -0.004911 -0.000754 -3933.110000 1 0 0
5.956967 -2.777897 10.927881 12.752284 -0.436349 0.541503 -0.005569 -0.002897 -1354060.000000 1 0 0
-9.714633 -6.538697 -1.101519 11.761888 0.592427 1.664585 0.006722 -0.000094 -2490170.000000 1 0 0
0.891667 -13.346297 6.407781 14.831668 -1.504085 1.124050 0.010288 -0.008203 1355030.000000 1 0 0
-0.541733 -3.092697 8.676081 9.226735 1.397390 0.347228 -0.001616 -0.002033 1927730.000000 1 0 0
4.242167 0.675203 3.370281 5.459915 0.157841 0.905519 -0.006365 0.005488 2669540.000000 1 0 0
-10.193733 5.625703 8.236281 14.261734 -0.504284 0.955122 0.005643 -0.007698 -342217.000000 1 0 0
9.383267 7.951803 -0.033819 12.299512 0.703009 1.573546 -0.002254 0.003245 432945.000000 1 0 0
4.274267 2.873003 8.207981 9.689915 0.591798 0.560359 -0.008236 0.002122 2990620.000000 1 0 0
1.354567 2.662303 -9.785019 10.230802 1.100137 2.845306 0.005363 -0.006637 1750540.000000 1 0 0
-1.326933 -10.141797 3.050981 10.673579 1.440697 1.280909 0.005631 -0.002430 -1951810.000000 1 0 0
-9.892133 9.591503 8.994481 16.454541 -0.769969 0.992467 0.010283 -0.014550 687655.000000 1 0 0
9.789767 -1.975897 -7.699619 12.610624 -0.199157 2.227571 0.005772 -0.000307 1442400.000000 1 0 0
-5.214733 -1.795297 6.638781 8.630756 0.331565 0.693207 0.004910 -0.002964 1047970.000000 1 0 0
3.159967 -7.895597 -4.848019 9.789235 -1.190101 2.088907 -0.006774 -0.003659 2497800.000000 1 0 0
-5.090733 4.897903 -13.054719 14.843541 -0.766096 2.645582 0.006631 -0.007907 2968150.000000 1 0 0
-5.541333 9.552703 5.450781 12.315499 -1.045153 1.112306 -0.005067 0.000736 1118240.000000 1 0 0
-0.425233 -1.868397 -9.374319 9.568155 1.347016 2.939963 0.004646 -0.008910 -955290.000000 1 0 0
-16.733333 0.168103 6.381781 17.909769 -0.010046 1.206460 0.020300 -0.013480 -1043890.000000 1 0 0
-5.958233 -2.861797 4.027081 7.740014 0.447772 1.023601 -0.000637 -0.000474 1965300.000000 1 0 0
1.113167 -5.714597 -5.039619 7.700228 -1.378412 2.284286 0.003399 -0.004464 1356190.000000 1 0 0
-6.962233 1.403603 -8.429019 11.022303 -0.198936 2.441409 0.014688 -0.006717 -271181.000000 1 0 0
7.984367 1.979703 4.706581 9.477407 0.243046 1.051107 -0.002146 0.002249 -376219.000000 1 0 0
0.563567 -8.156397 -0.556219 8.194742 -1.501811 1.638724 0.000566 0.000251 996929.000000 1 0 0
5.437867 5.441703 -3.516319 8.458547 0.785751 1.999522 -0.003602 0.003981 1020450.000000 1 0 0
-0.729133 -0.416597 -1.232519 1.491406 0.519094 2.543505 0.004574 -0.001787 694750.000000 1 0 0
9.086367 6.411503 -6.388819 12.825227 0.614486 2.092254 0.000484 -0.000204 1605990.000000 1 0 0
-15.039833 -7.096597 2.568281 16.827191 0.440878 1.417571 0.005699 -0.007804 177099.000000 1 0 0
-6.400633 6.862803 8.823381 12.880925 -0.820229 0.816198 0.002125 -0.002241 -510699.000000 1 0 0
-9.452133 -3.190297 -9.594619 13.841153 0.325515 2.336709 0.012637 -0.010392 1226300.000000 1 0 0
14.856167 3.508003 -1.287819 15.318951 0.231884 1.654963 0.004802 -0.000163 1192640.000000 1 0 0
12.133067 1.683903 -5.794719 13.550852 0.137905 2.012663 0.001962 0.001991 8931.440000 1 0 0
1.703867 -9.427397 12.801581 15.989354 -1.391991 0.642448 0.002721 -0.007899 -103153.000000 1 0 0
-3.573833 6.304203 7.883881 10.708447 -1.055073 0.743314 -0.000594 0.001134 1038760.000000 1 0 0
-4.081233 13.088703 -12.433319 18.508323 -1.268537 2.307391 0.003159 -0.002230 119626.000000 1 0 0
-10.190033 7.804403 6.476681 14.376818 -0.653591 1.103477 0.004105 -0.008754 779561.000000 1 0 0
8.080967 -9.379297 -7.063219 14.253501 -0.859621 2.089256 0.008655 -0.007170 217520.000000 1 0 0
5.761367 -3.894897 -0.327419 6.962095 -0.594462 1.617842 -0.002347 -0.000777 -1583670.000000 1 0 0
-1.640133 -4.482797 4.184581 6.347931 1.220052 0.851037 0.002068 0.001005 1707750.000000 1 0 0
9.880767 -2.072897 -2.602719 10.425958 -0.206792 1.823103 -0.000212 -0.002380 -3540570.000000 1 0 0
13.489667 7.073303 1.433881 15.298978 0.482937 1.476935 0.005855 0.001674 1138460.000000 1 0 0
5.364667 -3.757897 -3.241719 7.308227 -0.611055 2.030376 -0.003788 -0.003254 -3945760.000000 1 0 0
-12.263233 -5.967297 1.976681 13.780522 0.452871 1.426860 -0.001538 0.000576 2287460.000000 1 0 0
3.694967 -5.823097 -0.265919 6.901590 -1.005369 1.609336 -0.000265 0.000031 -331162.000000 1 0 0
-5.105033 3.645103 -8.661219 10.694150 -0.620074 2.514782 0.011828 -0.005559 2022920.000000 1 0 0
-1.659733 -9.261497 7.302981 11.910650 1.393471 0.910758 0.003213 -0.006660 1326320.000000 1 0 0
-7.379733 -7.518397 2.581081 10.846600 0.794705 1.330529 0.006245 -0.000165 -3873250.000000 1 0 0
-5.723033 13.080903 -8.551119 16.642859 -1.158377 2.110406 0.007158 -0.005354 2588320.000000 1 0 0
9.127667 -13.986097 -4.056719 17.186686 -0.992578 1.809083 0.017062 -0.006102 -125630.000000 1 0 0
-6.582733 -5.164297 -6.693519 10.714735 0.665231 2.245546 0.015373 -0.008142 385206.000000 1 0 0
3.508767 0.344003 -6.248919 7.174871 0.097729 2.627919 -0.005373 -0.003085 317147.000000 1 0 0
-3.548733 5.806103 4.927781 8.401629 -1.022177 0.944032 -0.000723 0.002786 -295537.000000 1 0 0
-2.691133 -10.863597 -2.791219 11.534767 1.327964 1.815206 0.005934 -0.001653 2254320.000000 1 0 0
-12.614733 -0.483797 1.806181 12.752562 0.038333 1.428686 0.005606 -0.003555 1214220.000000 1 0 0
8.406267 -12.133597 -6.060019 15.956607 -0.964913 1.960356 0.015004 -0.007758 -391093.000000 1 0 0
6.097367 3.929503 1.033181 7.327096 0.572470 1.429317 -0.004364 0.001904 341854.000000 1 0 0
3.475267 -4.916497 -10.953919 12.499510 -0.955482 2.639023 -0.003783 -0.003091 -1052650.000000 1 0 0
-7.619633 4.297203 8.540281 12.225431 -0.513501 0.797404 0.006363 -0.001863 1073150.000000 1 0 0
8.221667 8.779103 4.152381 12.724414 0.818175 1.238376 0.002617 0.000325 2845660.000000 1 0 0
0.235967 10.529403 -6.319819 12.282676 1.548390 2.111257 0.003180 0.000729 1011980.000000 1 0 0
5.375667 8.162603 3.331081 10.325792 0.988418 1.242323 -0.003508 0.002221 2936050.000000 1 0 0
8.053467 6.633003 -3.755719 11.088755 0.688979 1.916327 -0.001913 0.000793 -1521930.000000 1 0 0
10.539267 2.546103 -8.269119 13.635876 0.237041 2.222352 0.000609 0.002120 1221400.000000 1 0 0
3.288567 -12.661197 -0.313319 13.085058 -1.316676 1.594743 0.000879 -0.004475 -1293950.000000 1 0 0
0.707667 2.071403 5.237381 5.676413 1.241592 0.395882 -0.003001 0.002791 918442.000000 1 0 0
-4.743633 13.378203 1.373481 14.260604 -1.230048 1.474334 -0.008061 0.006787 207773.000000 1 0 0
8.219967 4.088003 -8.158719 12.281869 0.461506 2.297339 -0.002234 0.001868 607091.000000 1 0 0
-14.032833 -0.702697 -3.591919 14.502278 0.050033 1.821081 0.005479 -0.001222 1257220.000000 1 0 0
-8.602833 0.013303 -0.558019 8.620922 -0.001546 1.635570 0.008415 -0.004954 -970763.000000 1 0 0
1.802567 -3.899397 -1.135019 4.443288 -1.137787 1.829105 0.003852 0.001389 -1746470.000000 1 0 0
8.053467 -5.720897 -0.232019 9.881337 -0.617648 1.594279 0.000266 -0.002240 2560700.000000 1 0 0
-2.342033 -1.140697 7.455781 7.897783 0.453237 0.336141 0.003274 -0.000812 2942030.000000 1 0 0
-5.804733 8.901003 -11.719119 15.819625 -0.992916 2.405051 0.006836 -0.002950 -1672890.000000 1 0 0
-6.121633 9.243203 -8.841319 14.180272 -0.985833 2.244001 0.004999 -0.003224 -88730.900000 1 0 0
-1.422533 13.959203 -8.440819 16.374687 -1.469240 2.112364 0.014280 -0.004187 -138881.000000 1 0 0
-1.496233 7.175003 9.775981 12.218396 -1.365208 0.643329 -0.004002 0.000624 1538370.000000 1 0 0
10.058867 2.293603 -3.978919 11.057722 0.224185 1.938884 -0.001854 0.002060 -1591120.000000 1 0 0
-2.931933 -7.419397 -6.901919 10.548942 1.194459 2.284021 0.008337 -0.003910 2945190.000000 1 0 0
-5.643333 -5.077797 -1.594319 7.757131 0.732697 1.777801 0.006775 -0.002571 154387.000000 1 0 0
5.731867 7.383903 -8.786719 12.828981 0.910696 2.325279 0.003778 -0.001974 1184210.000000 1 0 0
-9.578833 5.228003 -7.479719 13.229976 -0.499603 2.171668 0.005833 -0.001830 1804400.000000 1 0 0
-0.457233 6.125503 -5.320719 8.126555 -1.496290 2.284625 0.004502 -0.001639 1059290.000000 1 0 0
-8.272433 2.759803 -6.308219 10.763052 -0.322004 2.197033 0.012344 -0.004054 1810900.000000 1 0 0
3.735467 1.314103 -2.055819 4.461723 0.338269 2.049657 -0.004905 0.001067 2855560.000000 1 0 0
-6.660333 12.423303 -3.626119 14.554973 -1.078675 1.822581 0.003942 0.001116 769449.000000 1 0 0
-6.522733 3.010803 -2.400619 7.574560 -0.432447 1.893289 0.010301 -0.004977 -1968690.000000 1 0 0
12.095667 4.019503 -0.868119 12.775570 0.320829 1.638800 -0.000648 -0.000130 -948756.000000 1 0 0
2.209567 12.408003 -5.490419 13.747197 1.394568 1.981642 0.008946 -0.003781 471781.000000 1 0 0
-9.204033 -1.440897 -4.251319 10.240319 0.155290 1.998909 0.012968 -0.005038 -5950.040000 1 0 0
-1.137333 5.788403 3.413281 6.815396 -1.376783 1.046251 -0.004350 0.002318 368327.000000 1 0 0
11.596567 2.700403 12.034081 16.929018 0.228785 0.780083 0.018350 -0.003535 825418.000000 1 0 0
-7.031933 -2.355897 -5.758519 9.389296 0.323275 2.231037 0.021844 -0.010732 241301.000000 1 0 0
7.507767 -7.262197 10.895581 15.093699 -0.768773 0.764306 0.004336 -0.001952 -1391810.000000 1 0 0
-5.398933 -1.957497 -10.907119 12.326618 0.347830 2.656953 0.013801 -0.008282 -297985.000000 1 0 0
0.816567 -6.239597 4.496481 7.734190 -1.440667 0.950376 -0.002485 0.001739 1143810.000000 1 0 0
-4.777833 -9.271497 7.450181 12.817704 1.094964 0.950543 -0.001081 -0.006490 2813770.000000 1 0 0
-8.757533 9.272803 1.585381 12.852731 -0.813968 1.447132 0.003832 -0.002010 779335.000000 1 0 0
-8.085633 7.269303 -9.088619 14.171211 -0.732284 2.267045 0.005021 -0.002136 1440850.000000 1 0 0
-1.284233 -10.684297 -0.093319 10.761606 1.451172 1.579468 0.005339 -0.000591 -129558.000000 1 0 0
-3.959633 10.247703 7.799781 13.473333 -1.202075 0.953411 -0.004677 -0.001328 1625040.000000 1 0 0
-7.371033 12.005103 1.902981 14.215343 -1.020152 1.436525 -0.006160 -0.000279 1531960.000000 1 0 0
-8.200533 -8.302697 -2.788519 11.998307 0.791589 1.805350 0.010829 -0.003226 93299.100000 1 0 0
5.468867 4.584903 -8.157719 10.838737 0.697700 2.422866 0.001140 0.001079 1592750.000000 1 0 0
-8.937333 -0.180597 -10.136119 13.514786 0.020204 2.418862 0.016832 -0.011641 -89019.500000 1 0 0
-15.295133 -2.382597 -1.526419 15.554672 0.154533 1.669087 0.001968 -0.004825 -1015260.000000 1 0 0
-7.179433 -5.796797 8.801481 12.751988 0.679247 0.809024 0.008513 -0.005273 -1056260.000000 1 0 0
8.111367 3.462103 -0.927619 8.867971 0.403412 1.675591 -0.005047 0.003817 982767.000000 1 0 0
11.860467 7.284603 -5.859819 15.102105 0.550789 1.969271 -0.007074 -0.000790 -733733.000000 1 0 0
3.845167 13.234103 -9.442819 16.706095 1.288032 2.171511 0.005209 -0.010830 1210380.000000 1 0 0
-9.758333 5.376203 -0.473319 11.151352 -0.503560 1.613254 0.004898 -0.002079 1353270.000000 1 0 0
11.245867 -1.338497 -5.221319 12.470897 -0.118464 2.002788 0.008130 -0.002523 -603972.000000 1 0 0
10.602867 1.709403 -1.211919 10.807941 0.159845 1.683165 0.000840 0.000591 679186.000000 1 0 0
14.619867 5.089703 4.823281 16.214488 0.335013 1.268757 0.020923 -0.003597 1473720.000000 1 0 0
0.947667 -0.904697 10.292081 10.375138 -0.762205 0.126618 -0.000912 -0.002212 1452440.000000 1 0 0
-7.926133 1.354303 -12.475919 14.842718 -0.169231 2.569078 0.013141 -0.010672 428173.000000 1 0 0
3.068867 -11.583497 -7.791019 14.293191 -1.311812 2.147288 -0.001997 -0.000522 145401.000000 1 0 0
2.961267 4.991303 -6.738619 8.893323 1.035329 2.430603 0.000900 0.000141 -1202940.000000 1 0 0
6.445467 8.004403 0.519681 10.290023 0.892868 1.520271 -0.002704 0.001069 1333410.000000 1 0 0
-9.040433 -5.328697 6.827281 12.519434 0.532611 0.994008 0.006055 0.001615 -2095270.000000 1 0 0
-0.343433 -6.962897 -11.665719 13.590029 1.521513 2.602944 0.000799 0.002727 1865990.000000 1 0 0
6.335167 -13.518497 -4.659919 15.639659 -1.132559 1.873346 0.008440 -0.007570 2721440.000000 1 0 0
-3.268733 -0.283597 10.060681 10.582171 0.086544 0.315247 0.004147 -0.001541 327572.000000 1 0 0
8.536067 8.511403 6.989881 13.934377 0.783951 1.045316 0.000537 -0.001428 347310.000000 1 0 0
-7.921933 5.580603 -2.668919 10.051034 -0.613706 1.839557 0.010232 -0.004030 1627620.000000 1 0 0
-5.410533 5.769703 -6.456119 10.210035 -0.817513 2.255354 0.009561 -0.002954 -370937.000000 1 0 0
3.386767 -13.638897 2.626181 14.296382 -1.327403 1.386052 0.013266 -0.005501 -623666.000000 1 0 0
-11.219433 -7.026297 6.560581 14.774497 0.559506 1.110685 0.014449 -0.005570 -2123310.000000 1 0 0
-12.990533 -3.796897 -6.733119 15.116391 0.284361 2.032438 0.012525 -0.006907 65050.600000 1 0 0
6.148367 0.340203 -7.271019 9.528162 0.055276 2.438905 -0.004992 0.000687 1130910.000000 1 0 0
-1.359133 2.137803 -2.599519 3.629730 -1.004496 2.369101 0.006171 -0.005240 2212960.000000 1 0 0
7.653767 0.894003 -4.936519 9.151426 0.116279 2.140552 -0.003780 0.002481 1397710.000000 1 0 0
3.621267 -4.479797 10.884981 12.315233 -0.890982 0.486738 -0.003130 -0.001888 -728836.000000 1 0 0
5.992967 -2.584997 2.049781 6.841013 -0.407227 1.266490 0.000621 0.000549 -605762.000000 1 0 0
-6.274033 7.684703 1.126181 9.984310 -0.886116 1.457761 0.000050 -0.000650 1788590.000000 1 0 0
6.062667 -3.375497 7.942781 10.546928 -0.508024 0.718051 0.001023 -0.005148 727787.000000 1 0 0
6.742167 -2.319397 -7.825419 10.586482 -0.331332 2.402663 -0.001109 -0.002660 80978.500000 1 0 0
11.973067 -8.108797 -5.869719 15.606425 -0.595296 1.956390 0.027131 -0.010396 -958148.000000 1 0 0
5.604867 -9.502597 10.014181 14.899587 -1.037892 0.833740 0.000961 0.000268 821024.000000 1 0 0
-6.641033 7.493403 -4.512319 10.982506 -0.845630 1.994198 0.008757 -0.002141 189005.000000 1 0 0
-1.212033 -7.471597 9.755481 12.347599 1.409978 0.659871 0.001720 -0.007795 -1321550.000000 1 0 0
10.038467 -9.224497 0.710581 13.651633 -0.743168 1.518722 0.004938 -0.004230 1369810.000000 1 0 0
11.049067 6.121203 9.799981 15.987202 0.505910 0.910958 0.014130 -0.003388 1494370.000000 1 0 0
-15.295233 -4.391897 -4.822719 16.628035 0.279619 1.865060 0.004900 -0.006368 -38692.500000 1 0 0
-4.698033 -4.576597 7.930181 10.290993 0.772306 0.691023 0.005196 -0.003880 17058.900000 1 0 0
2.966967 10.903003 -11.070419 15.818740 1.305106 2.345955 0.008078 -0.003168 -819138.000000 1 0 0
9.869867 -1.352197 1.571081 10.085187 -0.136155 1.414378 0.000223 -0.001230 -411703.000000 1 0 0
-1.641533 -2.705297 0.625981 3.225696 1.025403 1.375496 0.003986 -0.001560 39760.300000 1 0 0
1.597667 3.006503 0.883281 3.517355 1.082343 1.316958 -0.007254 0.003568 -844517.000000 1 0 0
-8.970433 -2.328297 4.310181 10.220925 0.253949 1.135475 0.001312 -0.002155 3217040.000000 1 0 0
9.870267 4.881103 -2.680019 11.332689 0.459259 1.809544 -0.004690 0.002472 721205.000000 1 0 0
2.565167 8.437303 2.567581 9.184805 1.275649 1.287474 -0.007516 0.001362 -689410.000000 1 0 0
-8.132033 -0.162397 2.372881 8.472715 0.019967 1.286938 0.003502 -0.005143 557349.000000 1 0 0
6.844967 2.090903 13.745281 15.497038 0.296464 0.480072 -0.006409 -0.003078 -1009040.000000 1 0 0
6.753167 4.425503 3.801081 8.924044 0.580108 1.130799 -0.007332 0.002954 530999.000000 1 0 0
-0.213333 3.344603 7.749181 8.442848 -1.507098 0.408193 -0.003929 0.001511 522361.000000 1 0 0
2.763867 -10.226597 9.331381 14.117256 -1.306840 0.848658 0.000593 -0.005293 1425160.000000 1 0 0
1.340867 -4.527997 6.867281 8.334280 -1.282896 0.602396 -0.004601 0.000183 -516285.000000 1 0 0
-0.048533 10.853403 -1.998119 11.035905 -1.566325 1.752857 0.001369 0.000212 1165340.000000 1 0 0
8.780467 5.573603 8.014081 13.129628 0.565596 0.914254 0.003266 -0.002694 -858926.000000 1 0 0
2.712867 11.401103 -2.855119 12.062193 1.337193 1.809764 0.006942 -0.003630 112306.000000 1 0 0
1.576867 2.429003 -6.766719 7.360370 0.994996 2.737209 -0.000205 -0.002864 2677500.000000 1 0 0
-13.591033 -2.219597 3.658581 14.248790 0.161884 1.311124 0.000094 -0.004475 971015.000000 1 0 0
-1.010933 -10.687897 -5.287219 11.966947 1.476490 2.028421 0.000907 -0.003561 -205699.000000 1 0 0
-5.671833 2.753603 0.393681 6.317199 -0.451970 1.508437 0.009859 -0.005035 994875.000000 1 0 0
3.805367 7.257903 -5.072719 9.637969 1.087893 2.125071 0.000399 0.000015 -2155050.000000 1 0 0
3.001867 9.808403 -6.451119 12.117463 1.273798 2.132208 0.004851 -0.001724 1330650.000000 1 0 0
-12.305933 1.608803 -2.485219 12.657036 -0.129997 1.768431 0.006478 -0.001077 1386550.000000 1 0 0
-2.447833 9.586403 -5.728919 11.432914 -1.320794 2.095654 -0.000407 -0.000219 1418780.000000 1 0 0
-1.313033 3.377103 1.707281 4.005458 -1.199978 1.130466 -0.003206 -0.000001 1216350.000000 1 0 0
12.780867 3.781303 9.577081 16.412474 0.287651 0.947734 0.020027 -0.003705 789527.000000 1 0 0
-2.550433 -9.423297 11.629381 15.183733 1.306477 0.698340 0.000632 -0.018784 -44859.000000 1 0 0
-0.461333 -8.956597 -7.525419 11.707493 1.519334 2.268927 0.003240 -0.001983 2848030.000000 1 0 0
2.349167 7.597103 -0.447319 7.964587 1.270904 1.626989 -0.003852 0.001991 1850230.000000 1 0 0
-11.876333 -1.409297 -5.503619 13.165228 0.118112 2.002085 0.006722 -0.000530 -853214.000000 1 0 0
-6.247933 -7.114797 -10.858619 14.407172 0.850179 2.424463 0.008231 -0.003255 2165020.000000 1 0 0
-4.774233 -2.334497 -1.397619 5.495136 0.454792 1.827959 0.008070 -0.006199 -1277810.000000 1 0 0
-10.475533 3.681403 4.540481 11.996062 -0.337947 1.182624 0.005791 -0.007982 3380980.000000 1 0 0
6.779667 9.322403 -3.667519 12.096354 0.942018 1.878837 -0.000770 0.000769 684716.000000 1 0 0
1.358567 -2.731797 -11.505019 11.902684 -1.109298 2.882373 0.000999 -0.006013 -1214820.000000 1 0 0
1.223267 8.758503 7.554681 11.631035 1.432028 0.863833 -0.009663 0.004454 783822.000000 1 0 0
10.366567 0.444103 10.402781 14.692882 0.042814 0.784113 0.007755 -0.002487 179595.000000 1 0 0
-5.245933 -0.854397 -3.963419 6.630121 0.161451 2.211538 0.017226 -0.010280 -168065.000000 1 0 0
11.698167 5.765403 5.399081 14.115136 0.457909 1.178293 0.006305 -0.003057 4747410.000000 1 0 0
9.906467 -3.472897 3.648081 11.113397 -0.337181 1.236336 0.009704 -0.005006 -1320000.000000 1 0 0
7.294467 -1.740697 -3.431019 8.246888 -0.234252 1.999880 -0.002512 0.000714 -2168310.000000 1 0 0
2.328767 9.256303 10.430081 14.138207 1.324324 0.741105 -0.006765 0.001232 2463770.000000 1 0 0
2.449867 -10.877797 6.513881 12.913519 -1.349275 1.042082 -0.000170 -0.002592 607245.000000 1 0 0
5.874067 -7.579497 -1.199419 9.663956 -0.911490 1.695230 -0.004490 -0.003119 360596.000000 1 0 0
-0.230233 -5.579297 -2.254119 6.021845 1.529554 1.954464 0.004706 0.000573 1392520.000000 1 0 0
7.738467 -5.052697 2.656881 9.616269 -0.578434 1.290864 0.003332 -0.001892 244601.000000 1 0 0
-2.662133 -12.462597 4.761281 13.604157 1.360349 1.213239 0.007540 -0.005876 -1071070.000000 1 0 0
4.854767 -10.415497 -1.156219 11.549380 -1.134626 1.671075 -0.002569 -0.004429 34088.900000 1 0 0
0.935967 0.182703 1.061381 1.426865 0.192778 0.731976 -0.003323 0.002323 -1446820.000000 1 0 0
-1.519633 8.591803 2.416781 9.053684 -1.395737 1.300581 -0.005863 0.004053 -46418.600000 1 0 0
-7.537133 0.567603 -3.091219 8.166161 -0.075166 1.959015 0.013575 -0.006021 -618626.000000 1 0 0
4.420167 -6.265897 12.929581 15.032412 -0.956434 0.535304 0.003367 -0.002830 -355543.000000 1 0 0
-5.124733 13.034203 8.387481 16.324925 -1.196187 1.031207 -0.002161 -0.007007 2092300.000000 1 0 0
0.637867 6.087903 8.268781 10.287963 1.466401 0.637252 -0.008192 0.003881 -154784.000000 1 0 0
7.960467 -0.527297 -0.803319 8.018254 -0.066143 1.671151 -0.000945 -0.000901 2502510.000000 1 0 0
2.456667 -9.333597 -2.410719 9.948005 -1.313427 1.815565 -0.004126 -0.000970 1856640.000000 1 0 0
-7.081033 12.102003 4.838981 14.832911 -1.041395 1.238481 -0.003032 -0.005295 524992.000000 1 0 0
-15.023633 0.151703 0.170781 15.025370 -0.010097 1.559430 0.005936 -0.005264 1111920.000000 1 0 0
6.872367 -0.516197 3.923181 7.930147 -0.074971 1.053287 -0.001197 0.003157 655267.000000 1 0 0
-4.215333 -5.080997 5.172081 8.386655 0.878249 0.906248 0.003292 -0.001276 386169.000000 1 0 0
2.872767 5.156403 6.872481 9.059375 1.062498 0.709628 -0.010200 0.003523 -961707.000000 1 0 0
2.075467 -7.372697 1.814681 7.871295 -1.296391 1.338159 -0.001831 -0.000094 1983910.000000 1 0 0
-2.418633 6.389003 -1.713819 7.043176 -1.208907 1.816594 0.001561 -0.000494 1375680.000000 1 0 0
2.698967 -3.866697 -6.617619 8.125801 -0.961412 2.522484 -0.005082 -0.005510 -1082460.000000 1 0 0
-5.086533 0.897903 -12.141419 13.194434 -0.174725 2.739368 0.010036 -0.005735 -423139.000000 1 0 0
-7.415433 6.423703 -11.904319 15.426128 -0.713859 2.452304 0.005001 -0.006334 2510460.000000 1 0 0
-0.981433 11.155703 -9.035319 14.389229 -1.483046 2.249677 0.001717 0.001081 1629840.000000 1 0 0
4.630967 5.842103 -0.702219 7.487932 0.900530 1.664714 -0.004839 0.002794 2843150.000000 1 0 0
-2.711233 13.485903 3.530581 14.201597 -1.372399 1.319557 -0.006852 0.005594 993550.000000 1 0 0
1.466467 -7.914697 10.289781 13.064170 -1.387590 0.663837 -0.004638 -0.005728 -2019590.000000 1 0 0
12.948367 -0.272297 -1.111519 12.998839 -0.021026 1.656410 0.005941 -0.002687 -25346.400000 1 0 0
-0.938833 3.108903 -5.455819 6.349224 -1.277522 2.604674 0.005565 -0.006989 -239296.000000 1 0 0
6.553267 1.090803 7.248381 9.832303 0.164940 0.741878 -0.006437 0.002646 1997140.000000 1 0 0
5.482067 -6.161697 6.881381 10.741181 -0.843701 0.875447 -0.001481 -0.001310 1349590.000000 1 0 0
12.198267 -4.841697 2.549181 13.369296 -0.377846 1.378947 0.008389 -0.006048 854601.000000 1 0 0
4.414867 -9.073997 13.929081 17.200226 -1.117974 0.626952 0.006393 -0.004597 544874.000000 1 0 0
-2.795033 -4.453597 -1.409819 5.443742 1.010337 1.832762 0.008408 -0.003044 2737840.000000 1 0 0
-9.356333 -5.114697 -7.523619 13.050132 0.500272 2.185255 0.016385 -0.009004 64124.500000 1 0 0
-10.612533 -3.094097 7.829381 13.546162 0.283688 0.954548 0.005334 -0.000331 -72016.000000 1 0 0
11.996767 -0.564297 1.630481 12.120203 -0.047003 1.435861 0.007126 -0.003667 1321190.000000 1 0 0
-7.584233 4.638403 4.351581 9.898062 -0.548894 1.115599 0.007955 -0.006024 2665240.000000 1 0 0
-1.086033 10.613403 6.960481 12.738606 -1.468825 0.992727 -0.008081 0.004527 1476950.000000 1 0 0
7.391867 -10.049397 1.863781 12.613634 -0.936605 1.422494 -0.000207 -0.006490 2847210.000000 1 0 0
-4.380633 -1.711097 1.605881 4.969573 0.372381 1.241748 0.001339 0.000001 2186030.000000 1 0 0
6.638767 -15.081297 -0.943819 16.504834 -1.156123 1.628012 0.010976 -0.007391 565957.000000 1 0 0
-10.419233 1.623403 2.354181 10.804537 -0.154566 1.351146 0.002552 -0.003792 285732.000000 1 0 0
-2.984733 8.335803 -11.409819 14.442237 -1.226958 2.481656 -0.000094 0.000566 -1375160.000000 1 0 0
-1.187633 -5.145897 -6.819719 8.625502 1.343976 2.482660 0.004067 -0.005786 -886193.000000 1 0 0
12.799967 -0.344397 6.370481 14.301776 -0.026900 1.109139 0.012446 -0.004388 1387990.000000 1 0 0
5.997567 -13.252797 3.794581 15.033505 -1.145823 1.315628 0.000196 -0.002744 779732.000000 1 0 0
-5.567433 3.495503 -4.980619 8.247510 -0.560645 2.219173 0.012460 -0.006182 2530770.000000 1 0 0
-4.361533 8.050203 3.307081 9.734759 -1.074277 1.224178 -0.000988 0.002405 699293.000000 1 0 0
13.946067 6.241403 -3.964919 15.785071 0.420805 1.824697 0.006862 0.001557 -424368.000000 1 0 0
-6.692433 -8.514097 5.333181 12.071509 0.904625 1.113193 0.008430 -0.002014 271005.000000 1 0 0
1.684767 11.340303 2.726181 11.784438 1.423311 1.337344 -0.004638 -0.000911 1699270.000000 1 0 0
-7.354733 7.233603 5.909581 11.888661 -0.777095 1.050569 0.003657 -0.003944 -1285420.000000 1 0 0
-17.353033 -4.069397 5.231181 18.575603 0.230344 1.285319 0.019354 -0.017985 -1272250.000000 1 0 0
7.373067 -13.075097 -8.550319 17.275075 -1.057343 2.088575 0.022223 -0.010856 -1566810.000000 1 0 0
-2.244833 12.798803 -2.868619 13.307051 -1.397168 1.788073 -0.003345 0.003407 1638110.000000 1 0 0
-5.407433 13.846103 -5.871419 15.982129 -1.198473 1.946980 0.009357 -0.000168 1587890.000000 1 0 0
-5.652533 2.472503 7.363281 9.606368 -0.412339 0.697423 0.006408 -0.002372 551813.000000 1 0 0
-7.358933 4.999303 1.381281 9.003048 -0.596733 1.416764 0.009038 -0.002702 976454.000000 1 0 0
10.639567 -5.653097 -5.114919 13.088937 -0.488395 1.972277 0.010586 -0.007107 4555140.000000 1 0 0
-9.618433 -0.720497 6.827181 11.817097 0.074768 0.954842 0.001150 -0.002365 304196.000000 1 0 0
-11.286733 -4.573197 -2.546919 12.441514 0.384967 1.776965 0.002356 -0.002777 1775620.000000 1 0 0
6.518767 -4.250297 13.542581 15.619246 -0.577786 0.521557 -0.001100 -0.004892 -7754.930000 1 0 0
0.267367 10.256503 -11.707919 15.567360 1.544734 2.422011 0.002182 0.002180 -928362.000000 1 0 0
-11.807433 -3.199497 1.500481 12.324922 0.264619 1.448750 -0.000896 -0.001591 2562280.000000 1 0 0
5.193667 5.993503 5.457281 9.626950 0.856773 0.968088 -0.009192 0.003647 -4337440.000000 1 0 0
-7.158433 -0.001597 8.076581 10.792328 0.000223 0.725205 0.003364 -0.002402 79806.400000 1 0 0
1.822167 2.022803 9.691381 10.066523 0.837532 0.273862 -0.002347 -0.000850 1721500.000000 1 0 0
10.398667 -4.963597 -2.063619 11.705900 -0.445348 1.748011 0.004397 -0.005097 1912720.000000 1 0 0
-9.631733 -2.451297 -1.634919 10.072344 0.249211 1.733835 0.007887 -0.003404 -488184.000000 1 0 0
-1.948133 -5.260297 -9.832319 11.319913 1.216112 2.623138 0.010729 -0.004798 2187200.000000 1 0 0
7.674967 -1.572997 6.519681 10.192432 -0.202152 0.876742 0.001127 -0.001625 2010300.000000 1 0 0
1.503467 -11.940297 -2.574119 12.306795 -1.445540 1.781515 0.000869 -0.002099 -3610420.000000 1 0 0
-0.819033 -1.498797 4.836981 5.129678 1.070675 0.339442 0.003249 0.000709 3481120.000000 1 0 0
7.686467 1.515403 9.958781 12.671051 0.194656 0.666569 -0.003202 -0.000595 2097510.000000 1 0 0
-3.822533 10.746503 -7.996119 13.929717 -1.229052 2.182219 0.003089 0.001300 1187910.000000 1 0 0
-9.503333 12.620203 6.302981 17.009128 -0.925362 1.191179 0.000232 -0.010699 509709.000000 1 0 0
-2.459533 -2.579797 -11.072519 11.632082 0.809259 2.830158 0.011532 -0.007916 -1268670.000000 1 0 0
1.147267 -11.837397 11.077581 16.252784 -1.474179 0.820876 0.006234 -0.009684 928739.000000 1 0 0
1.440267 3.366403 -1.953219 4.149952 1.166526 2.060836 -0.002281 0.000241 3443320.000000 1 0 0
-1.986133 -9.454997 -12.060319 15.452928 1.363745 2.466190 0.001202 0.003097 1300480.000000 1 0 0
1.234267 -2.676497 1.597381 3.352414 -1.138709 1.074142 0.006199 0.000839 1841020.000000 1 0 0
-0.980533 -2.205397 -6.620519 7.046736 1.152437 2.792010 0.005501 -0.008631 -42131.600000 1 0 0
1.801167 5.859903 4.062481 7.354347 1.272591 0.985565 -0.012784 0.005319 -1155060.000000 1 0 0
-10.948133 8.497703 3.593081 14.317221 -0.660046 1.317122 0.003246 -0.008093 1577490.000000 1 0 0
-16.346433 -1.539697 3.980381 16.894377 0.093915 1.332956 0.010110 -0.014005 -211527.000000 1 0 0
-12.317433 0.311003 6.823381 14.084545 -0.025244 1.065052 0.005047 -0.001825 133862.000000 1 0 0
-5.043333 3.041803 4.576981 7.458990 -0.542720 0.910160 0.003454 -0.001949 318816.000000 1 0 0
5.241567 -6.100797 3.936681 8.954954 -0.861008 1.115633 -0.003317 -0.000416 1046040.000000 1 0 0
9.887467 3.510703 6.247581 12.211441 0.341181 1.033731 0.001572 0.000641 1493080.000000 1 0 0
-12.237333 5.776103 3.198281 13.904844 -0.441003 1.338706 0.005023 -0.005425 1025820.000000 1 0 0
-4.798333 12.263103 -1.364319 13.238922 -1.197828 1.674033 -0.006746 0.005558 1250480.000000 1 0 0
-1.740833 -12.078597 10.338681 15.994103 1.427657 0.867932 0.010448 -0.019383 625257.000000 1 0 0
5.135867 6.400903 13.862581 16.109620 0.894614 0.534515 0.001722 -0.003600 1486220.000000 1 0 0
12.960467 -3.722397 -6.014219 14.764849 -0.279683 1.990329 0.010628 -0.005072 2685720.000000 1 0 0
3.520267 -2.590697 6.307381 7.673790 -0.634440 0.605991 -0.004019 0.002716 1809030.000000 1 0 0
7.252767 -11.923997 -0.684019 13.973268 -1.024333 1.619768 0.002542 -0.004932 -995052.000000 1 0 0
-6.171933 -6.585797 -4.076619 9.903752 0.817827 1.995031 0.011153 -0.005755 340746.000000 1 0 0
0.343567 -8.969597 5.160381 10.353803 -1.532512 1.049039 0.001258 -0.002391 2455210.000000 1 0 0
-10.279333 2.504803 -0.399519 10.587651 -0.239016 1.608540 0.005361 -0.001423 -1595960.000000 1 0 0
-1.808133 9.013903 -0.409919 9.202599 -1.372830 1.615355 0.000104 0.001022 560231.000000 1 0 0
-3.460033 2.328503 -6.535219 7.752602 -0.592355 2.573579 0.015326 -0.010155 287188.000000 1 0 0
-12.722333 3.052903 6.447381 14.585839 -0.235511 1.112936 0.005265 -0.008093 -1231070.000000 1 0 0
11.307267 1.647403 7.913181 13.899160 0.144676 0.965108 0.012390 -0.005750 -2316240.000000 1 0 0
6.050967 2.608703 -3.253419 7.348759 0.407044 2.029423 -0.005216 0.002793 1178580.000000 1 0 0
10.561767 -2.347097 6.400981 12.571091 -0.218672 1.036562 0.008812 -0.004884 4568840.000000 1 0 0
-1.017733 11.096603 4.060881 11.860065 -1.479336 1.221327 -0.005508 0.002215 1504490.000000 1 0 0
-1.569733 -12.212397 7.469381 14.401332 1.442961 1.025515 0.005418 -0.008983 -7351.820000 1 0 0
8.139567 8.698003 -7.854619 14.268947 0.818552 2.153723 0.006263 -0.006383 796449.000000 1 0 0
-4.698333 -5.890497 -8.648919 11.470662 0.897513 2.424932 0.013168 -0.005948 499294.000000 1 0 0
-8.557133 -5.333997 -11.521919 15.311129 0.557404 2.422675 0.014152 -0.004251 1247920.000000 1 0 0
6.010667 -0.623697 -9.931719 11.625668 -0.103395 2.594984 0.002311 -0.002200 -664187.000000 1 0 0
-11.235933 -5.531797 -5.364619 13.624467 0.457494 1.975503 0.005872 -0.007993 -1226930.000000 1 0 0
3.930967 8.839303 -2.747619 10.056599 1.152346 1.847530 0.002128 -0.001251 1239270.000000 1 0 0
11.606767 -10.380597 -4.109819 16.104795 -0.729689 1.828843 0.023273 -0.007566 99116.400000 1 0 0
3.957367 -11.357697 4.101281 12.707421 -1.235521 1.242166 -0.002684 -0.001555 -1361520.000000 1 0 0
-1.031033 0.867903 3.213581 3.484737 -0.699702 0.397097 0.001039 -0.000568 269850.000000 1 0 0
-10.588033 -5.104997 4.547481 12.603453 0.449264 1.201658 0.007004 -0.001787 3011670.000000 1 0 0
4.582367 -8.741897 2.784481 10.255349 -1.087989 1.295829 -0.003462 -0.000392 3871170.000000 1 0 0
-3.733433 -5.755897 2.700481 7.373023 0.995387 1.195804 0.003154 -0.000166 1790360.000000 1 0 0
10.063567 5.131503 12.312481 16.709425 0.471543 0.742385 0.015995 -0.002998 -948698.000000 1 0 0
1.520467 -12.425797 -5.281119 13.586849 -1.449038 1.970009 0.001231 -0.004366 1695020.000000 1 0 0
9.848167 -10.689997 -1.728119 14.637241 -0.826364 1.689135 0.006101 -0.006061 1693710.000000 1 0 0
9.673667 -4.507497 -9.201219 14.091124 -0.436043 2.282308 0.011090 -0.006437 2797870.000000 1 0 0
-7.434333 -3.068097 -13.002619 15.288905 0.391400 2.587657 0.011708 -0.007007 2733850.000000 1 0 0
0.478667 6.201803 -2.477419 6.695453 1.493767 1.949822 -0.000060 -0.000830 1956000.000000 1 0 0
-5.840833 -9.545797 0.965081 11.232496 1.021691 1.484772 0.008322 -0.000307 -34732.200000 1 0 0
-8.946033 -4.146897 0.592481 9.878224 0.434061 1.510782 0.001401 -0.000950 1682040.000000 1 0 0
1.951467 3.746303 12.112181 12.827624 1.090565 0.335559 -0.003029 -0.002726 208387.000000 1 0 0
6.693967 4.275103 9.603681 12.462600 0.568355 0.691014 -0.006304 0.004107 2368420.000000 1 0 0
-8.227533 9.878403 -3.672919 13.370321 -0.876325 1.849081 0.003817 -0.000016 1098200.000000 1 0 0
16.359567 2.156003 -6.016819 17.563766 0.131033 1.920447 0.004065 0.003671 -2139400.000000 1 0 0
-11.056433 2.521203 -5.145619 12.453055 -0.224197 1.996763 0.006586 -0.001275 1632590.000000 1 0 0
-13.835633 3.958303 1.470781 14.465687 -0.278651 1.468947 0.009178 -0.001596 -1191100.000000 1 0 0
-17.382433 10.445403 3.156681 20.523647 -0.541094 1.416376 0.042345 -0.010368 -541141.000000 1 0 0
-14.476333 2.764803 -1.159319 14.783517 -0.188715 1.649297 0.010883 -0.001068 877136.000000 1 0 0
-14.443633 5.097503 5.126281 16.151837 -0.339277 1.247830 0.006717 -0.007016 764694.000000 1 0 0
-17.535033 7.443703 3.097581 19.299770 -0.401451 1.409601 0.036503 -0.004188 -1275120.000000 1 0 0
-14.908733 12.484603 -3.510919 19.760116 -0.697135 1.749422 0.042195 -0.013294 -880039.000000 1 0 0
-8.534233 12.586903 -9.724119 18.050533 -0.974972 2.139709 0.009219 -0.010985 2064440.000000 1 0 0
-12.484733 8.815303 -9.725719 18.115401 -0.614799 2.137526 0.012160 -0.005089 -1029880.000000 1 0 0
-13.934933 -3.423897 -12.143519 18.798151 0.240933 2.273123 0.012256 -0.006087 -1647530.000000 1 0 0
-14.907433 5.789003 -7.644519 17.725202 -0.370406 2.016707 0.017820 0.002722 252978.000000 1 0 0
-10.978533 13.573303 -8.557719 19.442153 -0.890693 2.026577 0.020052 -0.014210 1093890.000000 1 0 0
-10.779933 13.487403 3.832081 17.686205 -0.896507 1.352394 0.005072 -0.010134 -1137600.000000 1 0 0
-15.286633 3.235003 3.019181 15.914203 -0.208546 1.379923 0.009342 -0.003687 -312282.000000 1 0 0
-11.224133 9.437103 -12.316619 19.150436 -0.699121 2.269402 0.012845 -0.009175 -1419420.000000 1 0 0
-13.168833 11.642603 -8.976619 19.736972 -0.723962 2.042958 0.025865 -0.020132 1348960.000000 1 0 0
-8.831433 14.551803 -3.635019 17.405819 -1.025322 1.781184 0.007313 -0.003509 438075.000000 1 0 0
-16.610133 8.129903 -4.116319 18.945605 -0.455176 1.789814 0.028869 0.001420 -507982.000000 1 0 0
-16.782533 6.699203 0.323581 18.073114 -0.379797 1.552891 0.022252 0.000755 -112337.000000 1 0 0
-10.443233 2.856603 -12.413519 16.471695 -0.267005 2.424359 0.017959 -0.011045 537294.000000 1 0 0
-16.914533 0.845203 2.358981 17.099140 -0.049928 1.432396 0.012786 -0.010866 -371485.000000 1 0 0
-12.799733 1.073303 -6.970219 14.614004 -0.083658 2.067983 0.011491 -0.005741 380157.000000 1 0 0
-12.252833 9.000103 -5.416819 16.139260 -0.633528 1.913070 0.011116 -0.000182 -61118.000000 1 0 0
-9.535033 13.839403 1.183081 16.847718 -0.967507 1.500516 0.011699 -0.004081 -1805.790000 1 0 0
-12.195433 11.077603 2.763781 16.705699 -0.737404 1.404593 0.010582 -0.005526 259769.000000 1 0 0
-12.546633 6.778203 -3.620619 14.712951 -0.495320 1.819434 0.003080 0.002967 520857.000000 1 0 0
-15.810633 3.674803 -9.526519 18.821128 -0.228371 2.101524 0.013528 0.002135 -767063.000000 1 0 0
-15.019333 5.697303 -4.754719 16.752522 -0.362563 1.858573 0.015200 0.005945 343693.000000 1 0 0
-17.896733 5.184503 7.600181 20.122994 -0.281971 1.183500 0.024037 -0.011251 -196752.000000 1 0 0
-15.829533 10.018103 -2.039819 18.844028 -0.564242 1.679256 0.037646 -0.004601 -479084.000000 1 0 0
-8.703033 10.011203 -8.374919 15.687774 -0.855187 2.133944 0.005128 -0.005072 -370022.000000 1 0 0
-17.105833 4.196403 -1.322019 17.662589 -0.240569 1.645715 0.015714 0.001032 -701424.000000 1 0 0
-10.239333 5.307703 -4.574519 12.407332 -0.478231 1.948401 0.005629 0.000019 -1441310.000000 1 0 0
-18.248533 2.756303 6.114781 19.442138 -0.149909 1.250854 0.032846 -0.015820 776705.000000 1 0 0
-10.270333 10.086003 -5.810919 15.523337 -0.776343 1.954475 0.005888 -0.005206 829504.000000 1 0 0
-15.483433 0.262103 -5.943319 16.586996 -0.016926 1.937255 0.009813 -0.000077 85355.100000 1 0 0
-16.399833 -4.288397 -8.764619 19.083066 0.255763 2.047990 0.012407 -0.009322 -2010820.000000 1 0 0
-9.949133 9.605003 -1.177219 13.879019 -0.767801 1.655718 0.000432 0.000740 2508240.000000 1 0 0
-17.387633 -3.174697 -3.169019 17.956926 0.180594 1.748204 0.009643 -0.007988 -1874390.000000 1 0 0
-11.960333 5.152403 -11.538419 17.399194 -0.406765 2.295827 0.018176 -0.005495 -649214.000000 1 0 0
-16.440633 7.000603 5.849181 18.802016 -0.402557 1.254453 0.027032 -0.008157 -549107.000000 1 0 0
-12.215433 6.034803 -8.753919 16.194652 -0.458861 2.141880 0.014233 0.001573 1472660.000000 1 0 0
-14.458933 8.377503 -0.010719 16.710578 -0.525135 1.571438 0.025940 -0.002363 1922840.000000 1 0 0
-14.909533 11.895103 3.708081 19.430325 -0.673409 1.378779 0.024059 -0.014246 -126330.000000 1 0 0
-17.179933 3.895803 -4.165819 18.101973 -0.222994 1.803008 0.003786 0.001614 -1075220.000000 1 0 0
-13.796533 13.461503 -0.935519 19.298487 -0.773108 1.619292 0.033825 -0.005691 -605954.000000 1 0 0
-10.054333 6.896403 -13.039819 17.851803 -0.601209 2.389774 0.005577 -0.008288 1683840.000000 1 0 0
-15.907933 -1.280397 -8.443819 18.055466 0.080315 2.057438 0.006952 -0.002308 -980672.000000 1 0 0
-11.456333 11.902903 -0.066019 16.520624 -0.804513 1.574792 0.017784 -0.002638 457848.000000 1 0 0
-11.940333 7.380303 -0.916619 14.067005 -0.553621 1.636003 0.003654 0.002275 881515.000000 1 0 0
-11.420833 0.184603 -11.651119 16.316191 -0.016162 2.366110 0.015133 -0.010672 -848749.000000 1 0 0
-19.144933 -1.334397 -4.652119 19.747185 0.069587 1.808616 0.008707 -0.008083 -1449780.000000 1 0 0
-18.005933 1.288503 -5.111019 18.761567 -0.071438 1.846703 0.003044 0.001087 -929519.000000 1 0 0
-13.436633 -0.173297 -9.555819 16.488991 0.012897 2.188945 0.017576 -0.007343 -538796.000000 1 0 0
-6.093233 11.211503 -13.379519 18.488829 -1.072972 2.379879 -0.003460 -0.001025 -1491760.000000 1 0 0
16.430567 5.874003 7.104581 18.839918 0.343345 1.184130 0.031752 -0.005038 1393590.000000 1 0 0
14.878667 10.206803 -5.496719 18.861799 0.601270 1.866508 0.028263 -0.003354 398635.000000 1 0 0
2.387167 16.971503 4.274181 17.663496 1.431056 1.326392 0.011427 -0.007237 631345.000000 1 0 0
-3.842433 18.165003 -6.042119 19.525338 -1.362340 1.885411 0.021675 -0.007458 1908360.000000 1 0 0
5.439967 14.539103 5.704681 16.538505 1.212761 1.218629 0.005794 -0.008488 135012.000000 1 0 0
9.856267 6.089803 15.105381 19.036918 0.553449 0.654293 0.031313 -0.005960 -366007.000000 1 0 0
4.701967 12.749703 -1.085619 13.632387 1.217481 1.650516 0.002509 -0.003854 1642800.000000 1 0 0
3.310167 13.717403 12.930381 19.139465 1.334012 0.829035 0.005652 -0.009152 -1193220.000000 1 0 0
-0.794633 12.427703 9.185481 15.474247 -1.506943 0.935274 -0.005825 0.001424 769049.000000 1 0 0
-7.749133 13.881803 8.300981 17.934877 -1.061662 1.089600 0.004626 -0.015323 1419840.000000 1 0 0
11.460167 12.918303 -4.093119 17.747439 0.845139 1.803523 0.028408 -0.005110 1010840.000000 1 0 0
-5.805533 16.092503 0.784981 17.125684 -1.224568 1.524944 -0.002409 0.005455 2651480.000000 1 0 0
3.150367 10.588403 6.789381 12.966680 1.281607 1.019723 -0.007755 0.003596 2320540.000000 1 0 0
-1.201433 15.626303 2.433081 15.860160 -1.494062 1.416780 -0.000101 0.001584 -1408040.000000 1 0 0
9.839267 8.858903 9.535781 16.316325 0.733015 0.946617 0.013914 -0.007463 2071750.000000 1 0 0
7.213867 12.235103 6.261881 15.522525 1.038056 1.155560 0.006220 -0.005206 -201040.000000 1 0 0
11.805967 14.026403 -1.464719 18.392015 0.871143 1.650520 0.015569 -0.001437 -947158.000000 1 0 0
9.673767 15.939503 -1.261719 18.688003 1.025315 1.638363 0.017602 -0.007854 1704710.000000 1 0 0
10.127367 13.815303 3.007981 17.391783 0.938229 1.396968 0.016129 -0.004637 2357920.000000 1 0 0
-6.043833 14.551003 6.202581 16.933152 -1.177123 1.195769 -0.009688 -0.004888 374673.000000 1 0 0
-0.870933 18.256003 -6.292419 19.329633 -1.523126 1.902371 0.024935 -0.004191 905479.000000 1 0 0
-3.587733 15.757803 5.362481 17.027519 -1.346933 1.250413 -0.007460 -0.001427 1382430.000000 1 0 0
6.965467 12.262703 10.689581 17.696292 1.054223 0.922213 0.009197 -0.005900 1102480.000000 1 0 0
1.413667 14.671903 6.099481 15.952017 1.474741 1.178443 -0.000378 -0.002443 1800530.000000 1 0 0
17.406167 7.685003 -1.438119 19.081459 0.415772 1.646235 0.017999 0.005362 479822.000000 1 0 0
2.143267 16.307503 -3.387119 16.792880 1.440117 1.773889 0.005841 -0.009194 2945550.000000 1 0 0
6.715567 11.167403 0.592381 13.044564 1.029382 1.525369 0.004045 -0.000099 1477320.000000 1 0 0
12.645067 9.363003 3.254781 16.067269 0.637359 1.366813 0.014190 -0.000200 -1806060.000000 1 0 0
6.039167 14.230403 -3.469919 15.843492 1.169447 1.791598 0.004420 -0.008966 671681.000000 1 0 0
3.125067 16.516403 1.393081 16.867077 1.383797 1.488110 0.008618 -0.013012 -434639.000000 1 0 0
2.971267 18.952903 -2.491419 19.345494 1.415291 1.699940 0.011851 -0.016766 505717.000000 1 0 0
3.885667 11.954003 10.602981 16.444446 1.256518 0.870066 0.003322 -0.006992 2130540.000000 1 0 0
8.055867 11.553903 3.385581 14.486263 0.961924 1.334905 0.002240 0.002141 1374010.000000 1 0 0
0.853167 12.541703 0.186681 12.572075 1.502875 1.555947 0.002274 -0.002771 -839596.000000 1 0 0
12.014367 9.905003 -4.631419 16.245126 0.689461 1.859903 0.013006 -0.001434 414574.000000 1 0 0
-1.311633 16.534503 9.836981 19.284096 -1.491635 1.035485 0.000952 -0.008657 7160.520000 1 0 0
8.347967 14.627103 -7.971619 18.632965 1.052185 2.012880 0.030023 -0.012863 81555.800000 1 0 0
14.447067 7.695803 -1.330919 16.422986 0.489456 1.651925 0.006192 0.004899 1324610.000000 1 0 0
12.451567 8.433403 6.059881 16.213758 0.595326 1.187748 0.015687 -0.004943 218437.000000 1 0 0
-3.059133 14.259303 10.186581 17.789111 -1.359464 0.961086 -0.000469 -0.009944 2435600.000000 1 0 0
-4.555733 17.154603 -3.277019 18.049209 -1.311219 1.753369 0.011684 -0.000224 -33139.400000 1 0 0
-7.106233 16.389203 -1.905219 17.964810 -1.161670 1.677049 0.005107 0.001742 171684.000000 1 0 0
8.393867 11.197103 -1.832319 14.113451 0.927522 1.700992 0.004550 -0.002055 -1374620.000000 1 0 0
8.604867 12.887803 -4.121619 16.035178 0.982096 1.830750 0.017097 -0.005330 1157850.000000 1 0 0
2.602367 14.830003 -7.332119 16.746978 1.397085 2.023966 0.002074 -0.006706 8205.600000 1 0 0
11.268067 11.394003 9.853681 18.811902 0.790955 1.019490 0.025437 -0.008724 1460840.000000 1 0 0
8.664467 15.761303 1.422281 18.042021 1.068160 1.491883 0.006187 -0.007430 374666.000000 1 0 0
5.964867 9.994503 7.668981 13.938544 1.032722 0.988193 0.001418 0.000970 2671600.000000 1 0 0
14.386667 11.408403 2.581181 18.541584 0.670449 1.431132 0.024783 -0.001728 568007.000000 1 0 0
12.096267 12.674603 1.146881 17.557920 0.808741 1.505430 0.016860 -0.000551 2308340.000000 1 0 0
5.141067 15.881403 8.308481 18.646190 1.257726 1.108968 0.013735 -0.009277 -182761.000000 1 0 0
11.488367 15.027303 5.207181 19.619305 0.918080 1.302166 0.028024 -0.010769 -811477.000000 1 0 0
6.019667 16.895703 1.747581 18.020966 1.228534 1.473669 -0.001149 -0.013219 701609.000000 1 0 0
-0.613933 16.107803 -4.264219 16.673986 -1.532701 1.829410 0.009581 -0.007393 858792.000000 1 0 0
16.090467 6.457203 2.544081 17.523440 0.381632 1.425100 0.013866 -0.005006 395374.000000 1 0 0
7.651567 16.666903 -3.246219 18.624448 1.140411 1.745990 0.008619 -0.009842 -708901.000000 1 0 0
14.832667 8.248403 7.533381 18.568683 0.507512 1.153048 0.034361 -0.006797 1997570.000000 1 0 0
2.025967 13.017503 8.510781 15.684174 1.416401 0.997225 0.000427 -0.000547 1427500.000000 1 0 0
15.995667 7.468203 -5.863519 18.601512 0.436810 1.891482 0.005027 0.006672 -718499.000000 1 0 0
-2.989733 16.993603 0.577881 17.264269 -1.396646 1.537317 -0.001151 -0.001032 500326.000000 1 0 0
-2.865033 18.590603 4.544381 19.351236 -1.417887 1.333746 -0.001624 -0.002247 424437.000000 1 0 0
-0.895033 19.093303 0.712581 19.127548 -1.523954 1.533534 0.012560 -0.013192 1121170.000000 1 0 0
7.087567 16.641303 -6.134019 19.099549 1.168162 1.897751 0.015383 -0.009054 557648.000000 1 0 0
10.979767 10.090403 0.843281 14.935951 0.743214 1.514306 0.004318 0.002748 -1503580.000000 1 0 0
9.134867 8.715403 14.182381 18.987996 0.761903 0.727389 0.031256 -0.009452 499445.000000 1 0 0
6.469767 12.322403 -8.330519 16.220266 1.087317 2.110156 0.023326 -0.012138 1238220.000000 1 0 0
6.306767 9.065603 13.296781 17.284816 0.962975 0.693090 0.012121 -0.013746 1543500.000000 1 0 0
16.611867 9.505503 2.984181 19.370442 0.519736 1.416122 0.026981 -0.003311 614690.000000 1 0 0
2.649667 14.737703 -0.848019 14.997992 1.392908 1.627369 0.004290 -0.006905 -98796.200000 1 0 0
9.030867 12.952803 8.449181 17.908666 0.961943 1.079473 0.016298 -0.009851 2610630.000000 1 0 0
7.095867 9.381203 10.446981 15.732060 0.923217 0.844565 0.003375 -0.008852 2970160.000000 1 0 0
4.415167 15.799003 -5.366419 17.259798 1.298290 1.886957 0.010678 -0.009020 1437530.000000 1 0 0
0.307267 16.348403 -8.262619 18.320359 1.552004 2.038690 0.014760 -0.003804 1537210.000000 1 0 0
-2.399133 15.699803 -2.065719 16.015831 -1.419156 1.700136 0.000231 0.001822 -569459.000000 1 0 0
13.224867 10.535603 7.740681 18.596080 0.672696 1.141475 0.034482 -0.011198 1454580.000000 1 0 0
-1.095233 15.863803 6.941781 17.350738 -1.501866 1.159186 -0.000499 -0.007521 2142090.000000 1 0 0
13.272067 13.342603 6.746581 19.992228 0.788048 1.226579 0.035843 -0.012587 -1956370.000000 1 0 0
5.338067 17.323003 4.516181 18.680934 1.271880 1.326624 0.002687 -0.013843 -498980.000000 1 0 0
10.826667 9.523703 -1.873819 14.540592 0.721459 1.700024 0.001939 0.001533 1037750.000000 1 0 0
3.248867 12.726703 4.758481 13.970227 1.320855 1.223224 -0.000970 0.000476 2052720.000000 1 0 0
-0.117433 18.086503 3.465681 18.415926 -1.564304 1.381478 0.005169 -0.006702 2955660.000000 1 0 0
-7.605733 15.894703 -5.978619 18.607328 -1.124490 1.897903 0.021407 -0.011035 154531.000000 1 0 0
-12.396533 -9.075397 8.389781 17.505008 0.631941 1.070963 0.027048 -0.009810 -192204.000000 1 0 0
-13.164733 -11.611897 6.905481 18.863510 0.722807 1.196007 0.030184 -0.007158 -2231280.000000 1 0 0
-6.558233 -12.120297 12.390481 18.532028 1.074816 0.838474 0.019513 -0.023293 -627285.000000 1 0 0
-1.777933 -10.523297 14.427281 17.945676 1.403425 0.636902 0.006660 -0.018920 157429.000000 1 0 0
-8.851433 2.929303 10.944481 14.377425 -0.319596 0.705594 0.007521 -0.001055 577397.000000 1 0 0
0.572467 10.027803 15.085281 18.123197 1.513770 0.587418 -0.007652 -0.009510 -1400170.000000 1 0 0
1.002367 -6.781097 16.635181 17.992145 -1.424041 0.390864 0.006974 -0.009474 3147320.000000 1 0 0
5.948467 2.441603 17.738081 18.867570 0.389490 0.347767 0.002663 -0.002681 1084890.000000 1 0 0
-5.104633 -2.886197 17.564881 18.517896 0.514595 0.322218 0.017069 -0.012191 -503471.000000 1 0 0
-4.345033 8.227503 13.030481 16.011388 -1.084914 0.620091 0.002537 -0.000842 -398014.000000 1 0 0
0.020067 -4.846897 18.621681 19.242137 -1.566656 0.254635 0.017606 -0.016973 834672.000000 1 0 0
-11.663633 2.175303 11.178981 16.301592 -0.184385 0.815149 0.011366 -0.003311 2405750.000000 1 0 0
-3.360733 -6.130797 14.380081 15.989620 1.069357 0.452542 0.011031 -0.013530 402643.000000 1 0 0
-7.460133 -2.185197 14.579081 16.522054 0.284946 0.489855 0.011857 -0.003714 2159020.000000 1 0 0
-6.102733 -1.079897 10.587581 12.268105 0.175140 0.529585 0.009039 -0.003569 1154150.000000 1 0 0
-3.979533 2.500803 11.134281 12.085649 -0.561052 0.399434 0.003961 0.000668 708919.000000 1 0 0
-6.449633 6.347403 13.545281 16.289934 -0.777410 0.588972 -0.000757 -0.000616 315873.000000 1 0 0
-9.056533 5.554503 12.517981 16.418683 -0.550152 0.703747 0.007877 -0.003963 1522420.000000 1 0 0
-12.234533 -2.162097 15.788681 20.090817 0.174915 0.666702 0.020546 0.001493 296962.000000 1 0 0
-3.509033 -7.527297 16.947381 18.872924 1.134573 0.455654 0.015995 -0.014820 -937985.000000 1 0 0
-0.510333 -5.361897 14.482281 15.451435 1.475904 0.356060 0.004869 -0.005207 2181170.000000 1 0 0
-14.242433 -2.197897 13.618881 19.828050 0.153113 0.813651 0.024495 0.001398 -191771.000000 1 0 0
-6.449233 1.560303 12.131881 13.827859 -0.237375 0.500484 0.005208 0.000037 819495.000000 1 0 0
2.232567 -2.076197 14.717281 15.029748 -0.749123 0.204266 0.001524 -0.003446 392389.000000 1 0 0
-12.481833 4.105603 9.177881 16.027652 -0.317779 0.961089 0.005035 -0.004120 -363874.000000 1 0 0
-9.083933 -2.984397 12.550781 15.778041 0.317427 0.651032 0.008731 0.000768 615585.000000 1 0 0
-7.098233 -7.300397 15.178681 18.277666 0.799438 0.590882 0.018941 -0.018552 90004.900000 1 0 0
-3.217033 6.079803 19.440781 20.621767 -1.084114 0.340071 0.017972 -0.008744 -1298190.000000 1 0 0
0.706767 5.446003 16.109281 17.019618 1.441740 0.328546 0.003274 -0.007745 1056800.000000 1 0 0
3.339767 1.449103 16.814281 17.203895 0.409379 0.213227 -0.000613 -0.005512 2040280.000000 1 0 0
-11.688333 11.349903 7.690681 18.016215 -0.770709 1.129761 0.005965 -0.020598 137784.000000 1 0 0
0.673067 -9.490297 15.520481 18.204507 -1.499993 0.549927 0.002183 -0.002296 149329.000000 1 0 0
-2.436433 -3.542797 18.659081 19.148079 0.968363 0.226482 0.023566 -0.025789 1512170.000000 1 0 0
-12.841633 2.404203 13.786881 18.993837 -0.185077 0.758511 0.011310 -0.003558 -182118.000000 1 0 0
-5.389133 -0.531097 15.759281 16.663726 0.098232 0.330982 0.011913 0.001423 1285210.000000 1 0 0
-4.438533 -5.945597 11.704181 13.857798 0.929523 0.564994 0.006554 -0.009069 768474.000000 1 0 0
2.412467 1.770103 14.008281 14.324287 0.633008 0.210440 -0.001028 -0.003393 521954.000000 1 0 0
0.061767 3.258303 14.193381 14.562707 1.551842 0.225694 0.006225 -0.005012 -133058.000000 1 0 0
-13.146633 7.058103 12.172181 19.256500 -0.492711 0.886526 0.021773 -0.010725 806989.000000 1 0 0
0.745367 1.456303 18.242181 18.315391 1.097737 0.089441 0.011904 -0.009273 -91923.400000 1 0 0
-2.057933 6.509403 12.501181 14.243839 -1.264592 0.499848 -0.003390 -0.000112 567055.000000 1 0 0
-13.518033 -2.611997 10.814281 17.507382 0.190871 0.904984 0.023579 -0.003164 140632.000000 1 0 0
-2.521633 3.664403 13.469781 14.185256 -0.968072 0.318960 0.002152 -0.001112 -951822.000000 1 0 0
3.532467 6.165103 16.241481 17.727733 1.050483 0.412398 0.002500 -0.004836 27473.300000 1 0 0
-3.747933 12.426503 12.350481 17.916455 -1.277865 0.810222 0.003939 -0.004708 463658.000000 1 0 0
3.726067 -1.438397 17.191181 17.649059 -0.368411 0.228282 0.005867 -0.003954 -712431.000000 1 0 0
-15.869933 0.452603 9.164681 18.331694 -0.028512 1.047271 0.021067 -0.003827 1091630.000000 1 0 0
-4.641933 4.633103 15.190281 16.545629 -0.784446 0.407576 0.005973 -0.003392 989693.000000 1 0 0
-8.045333 -8.061197 10.598281 15.557437 0.786383 0.821347 0.017469 -0.011519 3797710.000000 1 0 0
-2.635933 -0.480497 14.682781 14.925250 0.180308 0.180498 0.013103 -0.002598 1598750.000000 1 0 0
-1.912333 1.032703 17.178281 17.315220 -0.495151 0.125849 0.016347 -0.008207 787061.000000 1 0 0
-0.697633 -2.487797 14.473181 14.702000 1.297396 0.176660 0.006513 -0.005809 -458797.000000 1 0 0
5.200267 -8.136697 16.571281 19.179572 -1.002113 0.527622 0.013434 -0.001843 -1040820.000000 1 0 0
-4.539533 10.099603 10.699881 15.397948 -1.148378 0.802529 -0.001912 -0.003063 857437.000000 1 0 0
-6.216633 2.130503 15.174381 16.536246 -0.330166 0.408686 0.007559 0.000376 384046.000000 1 0 0
-4.981333 6.861603 17.230981 19.204218 -0.942851 0.457296 0.008880 -0.001599 -885742.000000 1 0 0
-4.020833 9.220903 15.721281 18.664159 -1.159598 0.569214 0.004231 -0.001446 -1210340.000000 1 0 0
-4.510833 -9.812197 18.442681 21.371928 1.139891 0.529738 0.022951 -0.022716 374803.000000 1 0 0
-6.845733 -4.030497 11.075281 13.629777 0.532114 0.622232 0.011788 -0.002657 1416310.000000 1 0 0
-2.467733 -0.766097 19.494881 19.665376 0.301012 0.131775 0.020920 -0.012906 -343591.000000 1 0 0
-5.661433 -4.502497 15.238581 16.868274 0.671864 0.443193 0.012445 -0.010917 1026780.000000 1 0 0
-12.994933 0.106103 9.742281 16.241662 -0.008165 0.927504 0.011910 0.000578 1504250.000000 1 0 0
-14.471533 8.846103 10.423681 19.908087 -0.548670 1.019737 0.011549 -0.009493 -2287460.000000 1 0 0
-8.374933 10.385103 12.902481 18.559739 -0.892143 0.802117 0.012411 -0.015444 -914991.000000 1 0 0
-10.600833 7.220703 10.709181 16.709362 -0.597959 0.875114 0.015247 -0.009960 73527.500000 1 0 0
-9.880833 -6.487597 14.708381 18.869453 0.580990 0.676959 0.023862 -0.018079 397292.000000 1 0 0
-0.789133 -13.298397 14.419581 19.631465 1.511525 0.745846 0.010455 -0.022955 -2836.530000 1 0 0
3.863767 -5.604297 17.092581 18.398184 -0.967200 0.378997 0.013670 -0.003866 3017010.000000 1 0 0
-7.314933 9.342503 10.420081 15.791412 -0.906524 0.850167 0.004118 -0.008842 -309251.000000 1 0 0
-10.382533 -6.605297 11.831481 17.070761 0.566608 0.805037 0.022824 -0.013738 1584800.000000 1 0 0
-10.907833 -3.846497 10.705781 15.760397 0.339021 0.824010 0.015739 -0.000426 -1689720.000000 1 0 0
-10.005533 -10.210497 9.955481 17.420578 0.795536 0.962490 0.023078 -0.012247 1294500.000000 1 0 0
-9.870333 -3.587797 15.212381 18.485462 0.348644 0.604234 0.018216 -0.007692 275470.000000 1 0 0
5.579567 -3.305697 16.075781 17.334646 -0.534861 0.383452 0.005158 -0.003991 405832.000000 1 0 0
-11.349333 0.575403 15.398481 19.137703 -0.050656 0.635770 0.017250 0.002214 -1140900.000000 1 0 0
-3.140033 3.248103 18.678581 19.217164 -0.802314 0.237310 0.018244 -0.011935 -191278.000000 1 0 0
0.517067 7.350403 13.873681 15.709068 1.500567 0.488231 -0.003556 -0.002956 500063.000000 1 0 0
-13.200433 -7.474397 12.190981 19.461194 0.515214 0.893838 0.027586 -0.011131 1270430.000000 1 0 0
-1.458533 -1.238997 12.142781 12.292663 0.704193 0.156318 0.002879 -0.005242 1169030.000000 1 0 0
2.032667 -4.802097 13.254781 14.243633 -1.170377 0.374814 -0.001021 -0.005501 -108790.000000 1 0 0
-14.673933 -4.089497 8.580781 17.483653 0.271795 1.057801 0.025802 -0.014314 -174533.000000 1 0 0
7.969267 0.907903 16.185481 18.063867 0.113436 0.460086 0.000841 -0.003178 1190760.000000 1 0 0
-1.264433 11.355803 13.351481 17.573136 -1.459906 0.707842 -0.004706 -0.002554 1747820.000000 1 0 0
2.667067 -12.164097 -13.691719 18.507881 -1.354955 2.403536 0.011286 -0.000766 -350799.000000 1 0 0
0.662567 -10.613197 -14.105419 17.664704 -1.508449 2.495610 0.007698 0.004736 -2282920.000000 1 0 0
3.077567 -14.341497 -12.386319 19.198199 -1.359410 2.272057 0.013269 -0.004865 -1600750.000000 1 0 0
-5.242833 -10.234597 -16.254719 19.911056 1.097384 2.525888 0.024867 -0.005308 -294482.000000 1 0 0
-1.211933 -12.299097 -14.995219 19.431756 1.472575 2.452285 0.016462 -0.002136 198212.000000 1 0 0
5.440467 -15.073797 -12.142919 20.106430 -1.224425 2.219222 0.016927 -0.001541 -633477.000000 1 0 0
1.893667 -11.908297 -16.164819 20.166677 -1.413096 2.500697 0.015289 0.003956 -378346.000000 1 0 0
1.153067 -14.284997 -14.069419 20.083308 -1.490252 2.346968 0.018970 0.001182 -234223.000000 1 0 0
-1.298033 -10.824797 -16.017019 19.375397 1.451453 2.543956 0.025541 -0.002684 -60442.100000 1 0 0
-6.035533 -5.520097 -15.110719 17.182344 0.740823 2.645466 0.016732 -0.001241 3751.600000 1 0 0
-6.434833 -7.617597 -16.712619 19.461410 0.869368 2.603635 0.016205 0.006958 311643.000000 1 0 0
4.842667 -12.607597 -11.473619 17.721367 -1.204065 2.275024 0.009741 -0.001341 172987.000000 1 0 0
-1.837733 -15.502397 -13.209219 20.449573 1.452802 2.273052 0.012711 -0.003499 -194240.000000 1 0 0
15.895267 -7.359697 -8.569819 19.500421 -0.433622 2.025803 0.041871 -0.011696 675243.000000 1 0 0
19.247467 -3.580497 -4.266319 20.037126 -0.183922 1.785360 0.035482 -0.014772 471546.000000 1 0 0
15.006267 -11.455897 -8.880219 20.863458 -0.652027 2.010460 0.048079 -0.023645 205067.000000 1 0 0
17.834167 -3.393897 -6.444719 19.264227 -0.188054 1.911917 0.051224 -0.005823 558568.000000 1 0 0
9.581267 -9.125297 -15.296719 20.225264 -0.761028 2.428462 0.043069 -0.012565 206754.000000 1 0 0
1.287967 1.807103 -15.136519 15.298323 0.951581 2.996023 0.006873 -0.010210 -335661.000000 1 0 0
4.818767 -4.373897 -13.878719 15.328742 -0.737042 2.703129 0.004513 -0.002622 729696.000000 1 0 0
13.210067 -5.554997 -8.691819 16.760417 -0.398063 2.116000 0.032809 -0.008860 -1006430.000000 1 0 0
2.974867 0.954803 -12.225919 12.618818 0.310570 2.891397 0.003595 -0.008633 -1993670.000000 1 0 0
0.620267 6.392003 -12.992419 14.492942 1.474061 2.682523 0.005531 -0.003374 -429211.000000 1 0 0
3.066467 -1.131597 -16.701919 17.018749 -0.353520 2.948333 0.013043 -0.010288 -171452.000000 1 0 0
13.252467 4.322103 -11.441019 18.033451 0.315259 2.258071 0.000459 -0.001207 520282.000000 1 0 0
-3.855033 9.553503 -16.518619 19.467806 -1.187259 2.583959 0.006173 0.003784 -147255.000000 1 0 0
-0.060633 -5.136297 -17.608519 18.342441 1.558992 2.857755 0.010615 -0.010500 368338.000000 1 0 0
-0.453733 -8.760497 -17.540619 19.611871 1.519049 2.677857 0.022446 -0.005705 494949.000000 1 0 0
5.502267 -10.175797 -12.091919 16.734285 -1.075105 2.378329 0.009551 -0.003844 498863.000000 1 0 0
1.855067 -9.862097 -18.046419 20.648861 -1.384868 2.634102 0.025220 -0.006973 -210530.000000 1 0 0
11.090867 8.666903 -14.504819 20.211687 0.663324 2.371211 0.054220 -0.023752 388912.000000 1 0 0
11.058967 -3.833197 -12.888119 17.409703 -0.333656 2.404289 0.030157 -0.008542 231893.000000 1 0 0
4.952167 7.327103 -12.284219 15.136460 0.976449 2.517622 0.004185 -0.004257 -530934.000000 1 0 0
9.635667 -5.924597 -12.629519 16.954400 -0.551275 2.411198 0.024254 -0.008974 -592396.000000 1 0 0
-3.282333 0.370903 -15.806419 16.147884 -0.112522 2.935578 0.011345 -0.009284 721.203000 1 0 0
-0.756333 10.761203 -12.793819 16.734913 -1.500628 2.441060 -0.003248 0.002592 -1511850.000000 1 0 0
6.658067 -5.535797 -12.420119 15.140484 -0.693621 2.532776 0.009474 -0.003450 231131.000000 1 0 0
18.060567 -5.849197 -8.403519 20.760932 -0.313206 1.987530 0.058186 -0.014755 1113720.000000 1 0 0
13.020767 4.765203 -13.948619 19.667524 0.350830 2.359189 0.010174 -0.013748 522752.000000 1 0 0
14.160467 0.835903 -11.545619 18.289857 0.058962 2.253971 0.010243 -0.002213 -86664.100000 1 0 0
15.081867 6.165403 -11.187619 19.764557 0.388066 2.172496 0.006654 -0.004186 -284938.000000 1 0 0
8.469667 1.469003 -11.669019 14.493420 0.171734 2.506683 0.005630 0.000944 923406.000000 1 0 0
10.036967 1.198703 -8.939719 13.494301 0.118866 2.294922 0.001465 0.001521 154984.000000 1 0 0
-0.212333 -5.803897 -12.808219 14.063455 1.534228 2.715880 -0.002195 -0.001244 259441.000000 1 0 0
10.600267 -5.746097 -8.980019 15.034095 -0.496735 2.210939 0.018958 -0.010836 -628800.000000 1 0 0
10.254667 8.433003 -11.296119 17.432040 0.688226 2.275764 0.023076 -0.015178 636450.000000 1 0 0
8.548767 8.163203 -14.718019 18.876953 0.762331 2.464954 0.036347 -0.006371 -405804.000000 1 0 0
8.673567 10.478203 -10.700819 17.306964 0.879349 2.237368 0.037273 -0.016670 -1290960.000000 1 0 0
7.043967 1.719803 -17.896419 19.309505 0.239468 2.756648 0.030222 -0.004766 -496384.000000 1 0 0
12.173667 2.564703 -12.927719 17.941621 0.207640 2.375382 0.011716 -0.006615 -1703460.000000 1 0 0
2.615667 -0.838197 -19.232819 19.427959 -0.310113 2.999739 0.018660 -0.016046 -323478.000000 1 0 0
10.285967 -2.185397 -15.500219 18.730559 -0.209351 2.545501 0.033889 -0.009674 133882.000000 1 0 0
8.300067 -0.784497 -13.074619 15.506521 -0.094237 2.573947 0.012386 -0.006291 689959.000000 1 0 0
0.567367 4.318703 -14.607519 15.243120 1.440170 2.851797 0.004033 -0.004894 -444031.000000 1 0 0
4.029067 -7.678697 -15.546219 17.801143 -1.087579 2.632787 0.009551 -0.005771 -1765130.000000 1 0 0
11.471367 -5.854897 -14.549119 19.430618 -0.471927 2.417005 0.041888 -0.006630 -411741.000000 1 0 0
-5.872333 4.375903 -16.749219 18.280294 -0.640405 2.729400 0.014965 -0.007036 314215.000000 1 0 0
11.461467 7.820303 -8.987819 16.531886 0.598756 2.145595 0.013325 -0.008161 -880362.000000 1 0 0
9.624767 6.169403 -13.451119 17.653053 0.570017 2.437148 0.024223 -0.004326 197631.000000 1 0 0
12.019767 0.539503 -10.378019 15.889277 0.044855 2.282528 0.008350 0.001703 -2010150.000000 1 0 0
5.447867 -7.352997 -13.625119 16.413095 -0.933142 2.550150 0.010512 -0.001581 -337753.000000 1 0 0
8.545967 -10.146597 -10.665719 17.021884 -0.870819 2.247965 0.025248 -0.011623 -275830.000000 1 0 0
10.015567 4.982503 -16.127619 19.627455 0.461626 2.535160 0.033210 -0.003577 49098.500000 1 0 0
9.836867 -0.545097 -10.945719 14.726501 -0.055357 2.408737 0.006226 -0.001361 -345298.000000 1 0 0
-1.645233 5.475303 -13.961119 15.086370 -1.278897 2.752920 0.001997 -0.004426 -201395.000000 1 0 0
1.274167 -0.775897 -14.824619 14.899491 -0.546971 3.041299 0.003214 -0.008923 -416096.000000 1 0 0
11.559467 -10.443197 -14.119919 21.025074 -0.734708 2.307129 0.050890 -0.014986 158585.000000 1 0 0
9.433467 -7.745297 -10.725119 16.248326 -0.687442 2.291715 0.023423 -0.011273 -391817.000000 1 0 0
13.972667 -0.961097 -9.660519 17.014251 -0.068676 2.174615 0.011141 -0.000090 721013.000000 1 0 0
4.038367 11.111503 -12.258719 17.030857 1.222199 2.374303 0.016764 -0.010030 -256738.000000 1 0 0
-1.286433 2.901503 -16.721819 17.020366 -1.153471 2.954018 0.004100 -0.013289 -337667.000000 1 0 0
5.814767 -0.480597 -17.606019 18.547625 -0.082464 2.821585 0.005313 -0.005471 -8961.880000 1 0 0
6.367567 -6.666797 -15.938819 18.412985 -0.808351 2.617202 0.015584 -0.005822 138701.000000 1 0 0
-1.523933 -5.528297 -19.616219 20.437233 1.301816 2.857183 0.022568 -0.022583 -322327.000000 1 0 0
-0.074933 -4.404397 -15.122519 15.751029 1.553785 2.858146 -0.001474 -0.003826 -56131.000000 1 0 0
0.465267 0.728703 -12.855519 12.884558 1.002558 3.074441 0.003677 -0.009072 528776.000000 1 0 0
15.720067 0.553803 -13.599919 20.793869 0.035214 2.283703 0.023946 -0.007427 778683.000000 1 0 0
0.066867 6.975603 -16.355919 17.781439 1.561211 2.738446 0.002971 0.003639 -437834.000000 1 0 0
-4.912533 -0.526297 -18.126019 18.787297 0.106726 2.875485 0.009162 -0.010970 -344262.000000 1 0 0
10.448667 -8.421397 -12.946719 18.647040 -0.678376 2.338249 0.030993 -0.018849 721905.000000 1 0 0
4.088167 8.459203 -17.344819 19.725972 1.120614 2.645162 0.019535 -0.009413 -299069.000000 1 0 0
9.167767 0.404203 -17.067119 19.377767 0.044061 2.648256 0.025201 -0.004650 40615.400000 1 0 0
3.485267 4.718203 -18.404719 19.316889 0.934576 2.833055 0.019251 -0.008931 -141558.000000 1 0 0
1.504167 -8.142297 -16.002819 18.018039 -1.388121 2.664112 0.010227 -0.004389 267687.000000 1 0 0
4.641267 7.657503 -14.917919 17.398937 1.025898 2.601000 0.010206 -0.003900 1279530.000000 1 0 0
-5.750333 -0.407197 -15.182019 16.239638 0.070695 2.778701 0.011671 -0.008114 -134043.000000 1 0 0
2.978367 3.248803 -13.892019 14.574415 0.828799 2.834374 0.004024 -0.004443 -843982.000000 1 0 0
-2.395933 -10.280897 -18.264019 21.095301 1.341836 2.617516 0.034877 -0.003161 109286.000000 1 0 0
6.174667 -9.259997 -15.317619 18.934189 -0.982694 2.513233 0.005042 -0.002793 274338.000000 1 0 0
-1.722033 5.332203 -17.318719 18.202632 -1.258420 2.828678 0.005740 -0.002347 2111730.000000 1 0 0
9.984367 -12.197497 -11.547419 19.539943 -0.884841 2.203051 0.042488 -0.012764 1133500.000000 1 0 0
10.957267 3.550803 -9.481219 14.918559 0.313381 2.259493 0.003039 0.000944 317491.000000 1 0 0
4.793867 -0.395797 -10.908119 11.921613 -0.082376 2.726271 0.004229 -0.005445 -444700.000000 1 0 0
6.293267 9.510603 -11.466719 16.172273 0.986233 2.358926 0.019492 -0.011836 322503.000000 1 0 0
10.781067 -9.495997 -9.474919 17.209865 -0.722107 2.153821 0.032397 -0.011971 -735318.000000 1 0 0
3.228167 -2.454697 -14.452819 15.011015 -0.650124 2.868029 0.004854 -0.006059 -126087.000000 1 0 0
9.260867 -4.520397 -14.712119 17.962296 -0.454097 2.530559 0.030421 -0.009308 38963.100000 1 0 0
-4.040133 -6.534797 -16.567319 18.262045 1.017066 2.707375 0.006664 -0.003596 -921480.000000 1 0 0
5.800667 -7.835197 -11.144819 14.806925 -0.933510 2.422914 0.005717 -0.001524 91822.300000 1 0 0
5.491067 6.372803 -17.053119 19.015081 0.859583 2.683326 0.021096 -0.008400 -649290.000000 1 0 0
9.046267 1.400303 -19.528719 21.567722 0.153575 2.703260 0.038051 -0.012355 497359.000000 1 0 0
13.207367 5.821903 -9.372319 17.209574 0.415183 2.146707 -0.003683 -0.001116 1081200.000000 1 0 0
-1.631333 -0.881997 -17.302419 17.401519 0.495644 3.034819 0.009852 -0.011021 -268270.000000 1 0 0
-0.507033 -0.667797 -19.522119 19.540117 0.921393 3.098669 0.015938 -0.017384 -241043.000000 1 0 0
2.885867 6.303503 -16.443919 17.845583 1.141459 2.742608 0.006554 -0.005201 -170255.000000 1 0 0
7.716267 3.784503 -15.661919 17.865020 0.455985 2.639715 0.019471 -0.006380 -220269.000000 1 0 0
3.073267 -9.939297 -14.864119 18.143225 -1.270917 2.530925 0.010095 0.001151 186910.000000 1 0 0
9.054567 -10.625497 -13.274519 19.263936 -0.865053 2.331024 0.034645 -0.010004 467415.000000 1 0 0
3.790567 0.030803 -14.718219 15.198530 0.008126 2.889520 0.006476 -0.007568 -1942020.000000 1 0 0
-1.134133 -3.042197 -18.802119 19.080380 1.213955 2.970600 0.020766 -0.010230 130276.000000 1 0 0
9.388467 10.029803 -13.158419 19.023255 0.818414 2.334639 0.044299 -0.017986 266551.000000 1 0 0
4.648067 2.091603 -10.698619 11.850729 0.422849 2.696990 -0.000526 -0.001938 -63831.000000 1 0 0
-0.231033 7.040303 -18.926719 20.195047 -1.537992 2.785299 0.020156 0.000789 89440.500000 1 0 0
0.742367 -1.729197 -17.567319 17.667822 -1.165278 3.034879 0.014222 -0.014502 -2100310.000000 1 0 0
-4.485333 -2.188697 -14.053519 14.913417 0.453975 2.800353 0.009753 -0.009425 -3885330.000000 1 0 0
10.164667 5.998503 -10.437719 15.755902 0.533133 2.294900 0.007098 0.001033 196815.000000 1 0 0
8.078867 5.107403 -17.929419 20.317916 0.563755 2.651828 0.036997 -0.012905 -206973.000000 1 0 0
11.528867 0.312103 -13.787419 17.975124 0.027065 2.444992 0.019911 0.006112 760486.000000 1 0 0
6.805567 11.984903 -11.837719 18.168248 1.054356 2.280436 0.039818 -0.018736 -287684.000000 1 0 0
-0.897433 0.554503 -15.108219 15.145004 -0.553460 3.071881 0.005270 -0.010860 -1157490.000000 1 0 0
-4.322933 -2.928697 -18.921019 19.628295 0.595451 2.872327 0.011075 -0.005935 -257221.000000 1 0 0
5.663367 -11.960997 -13.886919 19.182953 -1.128584 2.380264 0.010678 -0.006766 12619.600000 1 0 0
2.107267 -4.793797 -13.937719 14.888958 -1.156640 2.782201 -0.000438 -0.002427 384952.000000 1 0 0
11.798067 2.170203 -15.546319 19.636501 0.181912 2.484391 0.034162 -0.006882 424818.000000 1 0 0
9.751967 2.224303 -13.902219 17.126589 0.224251 2.517910 0.013946 -0.005117 -267414.000000 1 0 0
-2.177133 -4.177197 -16.426819 17.088864 1.090337 2.862329 0.002299 -0.007817 -1838930.000000 1 0 0
-2.811233 10.109603 -14.296419 17.733998 -1.299573 2.508428 0.003683 -0.001234 99457.200000 1 0 0
3.522567 5.711503 -13.705319 15.259931 1.018152 2.686282 0.003948 -0.002270 58054.800000 1 0 0
-5.084733 -2.657897 -16.467319 17.438220 0.481659 2.806328 0.010073 -0.006382 349588.000000 1 0 0
-4.277533 6.196703 -13.614419 15.557918 -0.966616 2.636397 0.006717 -0.002867 348082.000000 1 0 0
5.880167 -1.152397 -13.962419 15.193864 -0.193528 2.736209 0.012229 -0.007471 -1318470.000000 1 0 0
6.900167 -3.050897 -12.606319 14.691479 -0.416305 2.602296 0.011846 -0.006764 2301210.000000 1 0 0
2.966167 -3.177997 -18.157319 18.670459 -0.819861 2.906599 0.013696 -0.014545 -296136.000000 1 0 0
7.359567 -12.036697 -11.982619 18.510226 -1.022017 2.274901 0.021190 -0.006968 -1278100.000000 1 0 0
-6.148933 -5.356297 -17.684819 19.474396 0.716613 2.709535 0.039502 -0.004916 430950.000000 1 0 0
0.635967 8.715603 -11.981419 14.829720 1.497957 2.511432 0.002068 0.002024 43989.100000 1 0 0
0.439367 8.614703 -14.499819 16.871600 1.519839 2.604934 0.000921 0.003075 271629.000000 1 0 0
7.679567 -2.478997 -15.041819 17.069783 -0.312245 2.649182 0.019917 -0.011271 -610208.000000 1 0 0
14.042567 1.609603 -8.946419 16.727908 0.114125 2.135091 -0.012695 0.005078 1054990.000000 1 0 0
2.673867 10.758303 -14.460719 18.220950 1.327192 2.487551 0.009732 0.000621 -209915.000000 1 0 0
6.149267 0.922103 -15.524319 16.723284 0.148844 2.760626 0.015099 -0.006076 361870.000000 1 0 0
16.486267 -5.728697 -10.517319 20.377167 -0.334431 2.113126 0.050923 -0.012860 626608.000000 1 0 0
4.887267 -4.255897 -11.237919 12.972619 -0.716454 2.618503 -0.000738 -0.000975 -1793550.000000 1 0 0
8.857967 -3.571397 -17.064819 19.555728 -0.383249 2.631348 0.027527 -0.009844 377757.000000 1 0 0
13.352767 -9.559097 -8.902919 18.679793 -0.621310 2.067587 0.042833 -0.014292 160916.000000 1 0 0
2.256567 -7.868997 -13.476619 15.768084 -1.291524 2.595725 -0.000631 0.000208 154500.000000 1 0 0
-6.821633 -2.214697 -18.406519 19.754480 0.313922 2.770039 0.016322 -0.005126 361997.000000 1 0 0
-1.551433 -6.491097 -15.726219 17.083771 1.336188 2.740245 0.004805 -0.002971 116562.000000 1 0 0
1.542067 -7.364297 -18.503419 19.974668 -1.364381 2.755385 0.021038 -0.006620 -535738.000000 1 0 0
5.288867 10.805703 -14.498119 18.839607 1.115623 2.448941 0.030785 -0.019535 348355.000000 1 0 0
5.376767 -3.568897 -17.335519 18.497753 -0.585989 2.785221 0.014232 -0.009633 -1342660.000000 1 0 0
4.028967 13.002703 -14.036519 19.553177 1.270322 2.371525 0.015426 -0.010298 297540.000000 1 0 0
9.446667 10.332903 -15.667419 21.011340 0.830174 2.412328 0.058790 -0.028202 309742.000000 1 0 0
2.473567 3.722503 -16.260519 16.863571 0.984302 2.873355 0.009100 -0.005010 263073.000000 1 0 0
16.616267 1.788603 -11.493419 20.282951 0.107229 2.173236 0.012124 -0.003342 638858.000000 1 0 0
10.101167 -3.723897 -10.540819 15.066846 -0.353201 2.345639 0.017525 -0.004627 546298.000000 1 0 0
14.920867 -2.085397 -11.868419 19.179169 -0.138864 2.238034 0.039048 -0.007760 189597.000000 1 0 0
-2.800533 -8.721197 -16.214719 18.623087 1.260080 2.627376 0.017897 0.003254 99057.400000 1 0 0
14.079067 8.277903 -8.914319 18.606689 0.531518 2.070416 0.020257 -0.004613 645884.000000 1 0 0
-8.283933 0.121303 -16.568319 18.524240 -0.014642 2.677913 0.012071 -0.007810 -296128.000000 1 0 0
-3.440933 3.990603 -15.890119 16.740992 -0.859228 2.821398 0.007703 -0.005508 -1600220.000000 1 0 0
15.137367 4.036003 -9.660819 18.405451 0.260564 2.123381 -0.001520 0.002327 27771.200000 1 0 0
5.355367 1.159103 -13.034319 14.139199 0.213150 2.743642 0.005402 -0.003822 149199.000000 1 0 0
7.806167 -7.765997 -12.797719 16.882789 -0.782819 2.431089 0.019912 -0.006087 -1783630.000000 1 0 0
3.211167 -6.211897 -11.899819 13.802353 -1.093690 2.610312 0.000592 -0.000740 -823898.000000 1 0 0
-3.275433 3.513203 -18.361219 18.979078 -0.820409 2.885730 0.007971 -0.006934 -24686.300000 1 0 0
0.922867 5.050103 -17.821019 18.545725 1.390049 2.861115 0.007822 -0.007777 684705.000000 1 0 0
6.446267 7.123103 -10.226419 14.031129 0.835237 2.387419 0.004846 -0.000764 615290.000000 1 0 0
9.844767 3.737803 -11.779419 15.800168 0.362862 2.412118 0.011965 -0.000393 51289.500000 1 0 0
4.503767 1.860303 -17.272819 17.947003 0.391710 2.866628 0.019080 -0.012370 -42858.800000 1 0 0
2.677767 8.052103 -13.167319 15.664772 1.249746 2.569129 0.007543 -0.005287 -2271010.000000 1 0 0
14.355867 -3.543197 -9.879919 17.783643 -0.241976 2.159835 0.031321 -0.003673 20159.200000 1 0 0
-1.331033 9.185603 -16.318519 18.773412 -1.426894 2.624450 0.007860 0.004107 -2624340.000000 1 0 0
-5.204333 2.097203 -15.798519 16.765338 -0.383066 2.800328 0.011854 -0.007948 723598.000000 1 0 0
4.626567 4.210103 -11.981719 13.516348 0.738304 2.660438 0.000912 -0.001897 558014.000000 1 0 0
9.372567 2.910703 -17.465619 20.034097 0.301112 2.629650 0.031176 -0.013494 839016.000000 1 0 0
-4.288733 14.401603 -13.348619 20.099379 -1.281363 2.297127 0.010213 -0.004676 -140343.000000 1 0 0
15.615767 -4.786597 -8.200319 18.275911 -0.297431 2.036101 0.044135 -0.010064 -1143110.000000 1 0 0
1.173667 9.292503 -16.968719 19.382093 1.445159 2.637234 0.002455 0.012923 -336066.000000 1 0 0
0.536667 -3.247897 -12.785319 13.202319 -1.407041 2.889588 -0.000003 -0.003325 192479.000000 1 0 0
7.599667 3.506603 -13.057619 15.509758 0.432306 2.571585 0.007145 -0.001910 -150546.000000 1 0 0
-2.866433 7.561503 -15.105719 17.134045 -1.208451 2.650080 0.000606 0.001764 421851.000000 1 0 0
12.191367 -5.189797 -11.014219 17.230102 -0.402459 2.264310 0.039419 -0.012251 -944584.000000 1 0 0
0.903167 -4.421297 -19.850119 20.356591 -1.369292 2.918058 0.025271 -0.018079 -544235.000000 1 0 0
3.418867 -4.602197 -16.032419 17.026665 -0.931869 2.798166 0.010713 -0.009186 220888.000000 1 0 0
-5.650033 4.109103 -14.300419 15.915702 -0.628795 2.687160 0.008940 -0.005921 640629.000000 1 0 0
12.261167 -7.536897 -9.957119 17.501007 -0.551156 2.176019 0.032793 -0.008230 -218035.000000 1 0 0
-2.020133 -1.861397 -14.931519 15.182094 0.744526 2.959657 0.005959 -0.005698 767665.000000 1 0 0
7.252867 5.831103 -14.374619 17.124120 0.677158 2.567043 0.017466 -0.004277 -218279.000000 1 0 0
4.026367 -5.509897 -18.374519 19.600855 -0.939728 2.785983 0.024031 -0.014266 93984.100000 1 0 0
7.651467 7.386303 -12.284719 16.248592 0.767767 2.428050 0.013409 -0.007766 -191394.000000 1 0 0
12.405167 -2.484697 -11.146719 16.861531 -0.197680 2.293046 0.028725 -0.003959 -1666200.000000 1 0 0
7.402567 -0.706297 -10.669819 13.005456 -0.095124 2.532926 0.004367 -0.002276 -1623520.000000 1 0 0
5.398767 4.042603 -14.497019 15.989149 0.642733 2.706139 0.004510 -0.004516 -1307710.000000 1 0 0
14.776567 2.974203 -13.003119 19.906630 0.198624 2.282606 0.015954 -0.011869 571702.000000 1 0 0
-6.378033 6.741603 -15.724819 18.259202 -0.813103 2.608422 0.006593 -0.002388 448615.000000 1 0 0
-11.293033 3.710903 -16.311719 20.183547 -0.317486 2.511833 0.032096 -0.015457 -623980.000000 1 0 0
-4.879933 6.392103 -17.911219 19.633759 -0.918754 2.719580 0.007960 0.004299 1336610.000000 1 0 0
-10.096433 1.598703 -15.355819 18.447086 -0.157040 2.554266 0.028426 -0.017265 -799507.000000 1 0 0
-7.593733 5.840303 -17.957419 20.352956 -0.655610 2.651523 0.009436 -0.003316 1137830.000000 1 0 0
-8.763033 3.810903 -15.750319 18.422440 -0.410213 2.596256 0.014562 0.002746 -633778.000000 1 0 0
9.027567 13.321003 -11.972719 20.057220 0.975198 2.210463 0.061625 -0.024452 -913017.000000 1 0 0
14.108967 9.098203 -11.404419 20.295344 0.572748 2.167505 0.028843 -0.011996 525513.000000 1 0 0
8.621467 15.768903 -9.046119 20.120145 1.070461 2.037119 0.045830 -0.018861 -78141.900000 1 0 0
7.373367 13.580903 -13.914719 20.794876 1.073404 2.303850 0.045724 -0.014944 75498.700000 1 0 0
4.668567 15.822503 -12.353519 20.609623 1.283879 2.213554 0.032141 -0.022333 273788.000000 1 0 0
11.099367 10.907503 -11.355619 19.264466 0.776680 2.201186 0.039940 -0.022309 -84609.300000 1 0 0
15.938367 9.691703 -9.640419 20.997579 0.546335 2.047801 0.036410 -0.006186 -786539.000000 1 0 0
13.619767 10.840503 -9.425819 19.795469 0.672260 2.067079 0.065336 -0.012788 239599.000000 1 0 0
10.594267 11.702203 -8.389419 17.876308 0.835048 2.059298 0.034756 -0.005377 406815.000000 1 0 0
5.488967 16.012503 -9.860719 19.589864 1.240557 2.098277 0.024331 -0.022893 74970.200000 1 0 0
6.831767 14.540503 -11.504819 19.760064 1.131563 2.192260 0.041217 -0.011470 -781359.000000 1 0 0
11.024367 13.852603 -9.878719 20.273637 0.898601 2.079756 0.060612 -0.010107 -74003.300000 1 0 0
8.172867 -18.713897 -1.301019 20.462120 -1.159035 1.634421 0.031127 0.002779 -10532.300000 1 0 0
7.345467 -17.361097 -3.385119 19.152613 -1.170537 1.748474 0.033079 -0.009672 21508.800000 1 0 0
4.742967 -18.295197 5.987881 19.825859 -1.317134 1.263981 0.035852 -0.000803 196169.000000 1 0 0
9.828567 -17.168397 -2.433919 19.931847 -1.050858 1.693214 0.035162 -0.006316 -184702.000000 1 0 0
-9.793133 -12.163997 -10.011219 18.549738 0.892958 2.140872 0.028121 -0.005146 36837.800000 1 0 0
-5.237733 -6.978197 -12.147219 14.956069 0.926921 2.518698 0.005127 -0.000273 1334880.000000 1 0 0
-10.767833 -9.485897 -5.683519 15.434729 0.722189 1.947900 0.012131 -0.005966 696196.000000 1 0 0
-4.760633 -11.592997 -14.119119 18.878843 1.181145 2.415660 0.022281 0.000900 355701.000000 1 0 0
-3.051233 -15.204097 7.584181 17.262514 1.372742 1.115928 0.012305 -0.009202 -17143.300000 1 0 0
-4.827733 -11.978197 -11.663919 17.402046 1.187669 2.305357 0.008106 0.000198 755845.000000 1 0 0
-14.458033 -12.916897 -4.327719 19.864796 0.729160 1.790416 0.037891 -0.008224 490430.000000 1 0 0
-3.287633 -12.274297 -3.272319 13.121546 1.309092 1.822842 0.001386 -0.001980 846193.000000 1 0 0
-2.469533 -17.171897 -1.499619 17.413256 1.427963 1.657023 -0.009119 -0.005819 198694.000000 1 0 0
-5.733733 -12.203297 3.743781 13.993286 1.131557 1.299956 0.001497 -0.000249 -169679.000000 1 0 0
-8.891733 -10.524097 -11.901519 18.206199 0.869275 2.283269 0.012766 -0.000547 276832.000000 1 0 0
-9.924033 -11.843897 -7.445719 17.152349 0.873367 2.019828 0.024524 -0.012727 -101069.000000 1 0 0
-10.974533 -14.946897 6.337081 19.596140 0.937461 1.241493 0.025696 -0.010200 -512573.000000 1 0 0
-9.541033 -15.695297 0.770281 18.383879 1.024595 1.528884 0.016777 0.000747 450935.000000 1 0 0
-14.810033 -7.958297 -8.336519 18.766170 0.493086 2.031112 0.013981 -0.004314 362231.000000 1 0 0
-2.392933 -16.456297 5.275481 17.446104 1.426397 1.263600 0.021495 -0.006139 -391883.000000 1 0 0
4.403867 -15.771197 5.734881 17.349742 -1.298497 1.233915 0.019901 -0.009138 -410361.000000 1 0 0
4.054767 -14.649597 -10.042619 18.218288 -1.300773 2.154644 0.010320 -0.005282 -27698.000000 1 0 0
-7.664033 -14.058997 -0.255619 16.014311 1.071697 1.586759 0.005841 0.000916 1439470.000000 1 0 0
3.042767 -14.698397 9.725681 17.885474 -1.366666 0.995867 0.021876 -0.020856 295251.000000 1 0 0
2.509567 -17.117197 10.537781 20.256880 -1.425223 1.023702 0.040671 -0.017494 -164870.000000 1 0 0
-8.071833 -17.065897 -5.943219 19.791947 1.128997 1.875787 0.022500 -0.004714 -243650.000000 1 0 0
-6.345933 -9.171197 -7.651519 13.525068 0.965499 2.172113 0.009410 -0.005701 353215.000000 1 0 0
-6.089933 -13.042097 -4.836019 15.184553 1.133941 1.894925 -0.003744 -0.003952 250677.000000 1 0 0
2.025667 -19.305197 -5.059619 20.059753 -1.466250 1.825778 0.004909 -0.013716 259012.000000 1 0 0
-5.441833 -12.690997 8.451381 16.189527 1.165716 1.021570 0.007663 -0.016157 874762.000000 1 0 0
2.174667 -17.488897 3.643481 17.996268 -1.447086 1.366929 0.021025 -0.009789 1116640.000000 1 0 0
-17.547333 -10.176497 -2.402119 20.426458 0.525543 1.688667 0.017849 -0.010297 372833.000000 1 0 0
-3.558133 -15.343897 2.650481 15.972493 1.342931 1.404085 0.004058 -0.004491 44144.000000 1 0 0
-10.272933 -10.155597 -14.194619 20.252321 0.779654 2.347439 0.023832 0.000803 -4155.230000 1 0 0
5.907767 -14.707497 -5.639619 16.823123 -1.188839 1.912646 0.006829 -0.012430 528921.000000 1 0 0
-7.299933 -12.209297 -10.768719 17.841560 1.031923 2.218774 0.011041 -0.006493 -550484.000000 1 0 0
-7.298933 -14.206897 3.980681 16.460746 1.096202 1.326546 0.001920 -0.001364 867516.000000 1 0 0
3.120567 -15.064397 -3.075019 15.688522 -1.366537 1.768078 0.009273 -0.009379 -924816.000000 1 0 0
-7.532533 -11.289297 7.814081 15.660369 0.982405 1.048384 0.008050 -0.017076 -942141.000000 1 0 0
-12.813733 -12.359297 -1.012319 17.831679 0.767348 1.627598 0.019685 0.003483 -431593.000000 1 0 0
-1.876233 -13.667697 4.147281 14.405767 1.434374 1.278773 0.006838 -0.002788 -2786790.000000 1 0 0
-3.182833 -13.913097 5.302181 15.225565 1.345901 1.215101 0.002897 -0.005228 216194.000000 1 0 0
-14.421033 -10.322697 -4.486019 18.293404 0.621257 1.818549 0.015664 -0.004495 468966.000000 1 0 0
-6.261933 -8.608597 -10.351819 14.848566 0.941914 2.342224 0.005638 -0.002201 489664.000000 1 0 0
0.635667 -19.415297 2.553781 19.592846 -1.538068 1.440082 0.021535 -0.009198 237668.000000 1 0 0
6.215367 -14.064897 -8.299319 17.473717 -1.154693 2.065715 0.019270 -0.012315 -3246700.000000 1 0 0
-4.000233 -16.753797 -5.916319 18.212479 1.336419 1.901649 -0.012297 -0.000417 -384313.000000 1 0 0
-3.779733 -13.818697 -13.254919 19.517573 1.303804 2.317370 0.021564 0.000030 -703156.000000 1 0 0
-8.193733 -14.667597 -4.704019 17.447162 1.061353 1.843790 0.010827 -0.002596 -750228.000000 1 0 0
-4.580533 -14.232997 10.127881 18.059166 1.259439 0.975424 0.013472 -0.018875 -922740.000000 1 0 0
-0.309333 -12.113697 -9.999919 15.711006 1.545266 2.260737 0.000162 0.002854 855992.000000 1 0 0
2.471067 -17.194897 6.896281 18.690354 -1.428064 1.192890 0.022556 -0.012684 -368867.000000 1 0 0
-2.955333 -19.096197 -3.386519 19.618034 1.417254 1.744288 -0.009902 -0.005745 -354851.000000 1 0 0
0.570367 -15.459197 -2.997619 15.757468 -1.533918 1.762198 0.005099 -0.007155 -667473.000000 1 0 0
5.971767 -18.023297 0.686181 18.999265 -1.250844 1.534672 0.020697 -0.006820 -108205.000000 1 0 0
-7.079533 -16.655397 3.950881 18.523809 1.168875 1.355859 0.003602 0.000098 1287420.000000 1 0 0
-5.246833 -13.519897 -9.625019 17.405685 1.200606 2.156735 0.002620 -0.001320 37675.900000 1 0 0
5.552567 -15.306097 -2.129719 16.420819 -1.222792 1.700859 0.012863 -0.004182 -787815.000000 1 0 0
-8.785633 -10.349597 -0.416619 13.582160 0.866949 1.601475 0.004312 0.001717 -848475.000000 1 0 0
-7.279333 -18.191597 -2.898819 19.807222 1.190162 1.717675 0.003498 -0.011415 -279895.000000 1 0 0
7.861867 -16.146297 -1.105319 17.992598 -1.117672 1.632267 0.012249 -0.001266 732778.000000 1 0 0
-8.088433 -10.174797 -9.480419 16.088119 0.899144 2.200965 0.012501 -0.004168 299076.000000 1 0 0
-9.109333 -15.053097 -7.159819 18.995754 1.026601 1.957262 0.030242 -0.004082 -514105.000000 1 0 0
-11.495133 -10.446697 -12.062019 19.666313 0.737652 2.231071 0.026352 0.005163 -1087970.000000 1 0 0
6.552867 -16.265097 2.439781 17.704405 -1.187810 1.432550 0.015345 -0.008295 840296.000000 1 0 0
-2.332933 -11.115197 -6.026219 12.857118 1.363913 2.058623 0.000328 -0.003771 -1003730.000000 1 0 0
-12.248933 -15.509997 -3.360519 20.047181 0.902340 1.739222 0.032263 -0.006240 297572.000000 1 0 0
-0.429433 -19.741197 -2.775819 19.940021 1.549047 1.710458 0.009518 -0.007642 406458.000000 1 0 0
-5.921233 -15.606697 -4.776319 17.362120 1.208171 1.849490 -0.007058 -0.002402 -3534980.000000 1 0 0
1.916567 -16.171897 -0.962319 16.313477 -1.452834 1.629820 0.015841 -0.006813 227636.000000 1 0 0
-13.155233 -11.887997 5.339781 18.517503 0.734839 1.278279 0.028412 -0.005482 440614.000000 1 0 0
1.922467 -15.316197 -8.788819 17.763026 -1.445931 2.088380 0.005823 -0.001852 -2425700.000000 1 0 0
-11.724233 -16.810197 -0.020419 20.494897 0.961785 1.571793 0.031298 -0.009937 542685.000000 1 0 0
-7.594033 -16.587697 -0.915419 18.266336 1.141466 1.620932 0.009619 -0.003034 631792.000000 1 0 0
-3.048333 -14.468897 -1.760919 14.891009 1.363151 1.689328 -0.005047 -0.002218 157236.000000 1 0 0
-1.935233 -10.536597 -13.254419 17.042436 1.389153 2.461843 0.003030 0.005668 427217.000000 1 0 0
1.495167 -19.605997 5.010781 20.291342 -1.494683 1.321273 0.034519 -0.007116 -116203.000000 1 0 0
-17.393833 -9.425297 2.587581 19.951873 0.496584 1.440739 0.020421 -0.010837 504692.000000 1 0 0
-2.818633 -15.595997 -8.026319 17.765180 1.391998 2.039579 -0.012262 0.000196 -973524.000000 1 0 0
-10.473633 -12.217997 0.204481 16.094044 0.862120 1.558091 0.008094 0.005150 395930.000000 1 0 0
-6.893833 -11.432397 -6.585119 14.885847 1.028168 2.029041 0.005157 -0.004911 -65392.800000 1 0 0
-2.248733 -13.476797 -6.662219 15.200856 1.405460 2.024480 -0.012665 0.002617 497030.000000 1 0 0
-14.238133 -14.569197 -1.045719 20.398026 0.796890 1.622084 0.036916 -0.004667 150022.000000 1 0 0
-9.595533 -11.420597 -4.495119 15.579165 0.872022 1.863492 0.014375 -0.006621 -92207.800000 1 0 0
9.657767 -15.253997 -4.836719 18.690926 -1.006372 1.832549 0.028124 -0.010911 29402.500000 1 0 0
-5.527233 -10.802297 -9.509619 15.416640 1.097855 2.235519 0.002980 -0.003960 -23580.900000 1 0 0
-10.347233 -16.071397 -5.095619 19.781819 0.998771 1.831325 0.036179 -0.002539 -760189.000000 1 0 0
2.076767 -17.420197 -3.290519 17.849474 -1.452140 1.756205 0.010843 -0.009264 478977.000000 1 0 0
-0.396933 -14.479197 -8.167519 16.628682 1.543389 2.084229 -0.005618 0.002153 -661308.000000 1 0 0
-0.772533 -18.168797 -7.112619 19.526683 1.528302 1.943625 -0.008463 -0.007285 -119966.000000 1 0 0
-1.960333 -10.062297 -10.574219 14.727757 1.378387 2.371691 0.004604 0.001445 483298.000000 1 0 0
-5.136333 -17.340997 2.049681 18.201464 1.282833 1.457946 0.006676 -0.000166 375141.000000 1 0 0
0.254567 -12.887297 -2.568419 13.143211 -1.551046 1.767480 0.002004 -0.003886 -1836220.000000 1 0 0
2.641967 -14.947397 3.214081 15.515637 -1.395852 1.362134 0.017826 -0.004820 -937912.000000 1 0 0
-9.389233 -13.038397 6.899781 17.486122 0.946693 1.165179 0.008545 -0.006948 -418168.000000 1 0 0
-1.035833 -17.766197 -4.492319 18.354608 1.512559 1.818060 -0.006082 -0.008720 -610096.000000 1 0 0
-9.709933 -17.527197 -2.106719 20.147548 1.064893 1.675552 0.029183 -0.016108 359440.000000 1 0 0
1.346067 -16.221297 1.525981 16.348425 -1.488005 1.477319 0.013044 -0.008025 469234.000000 1 0 0
-0.439733 -18.067997 4.337781 18.586614 1.546463 1.335242 0.027016 -0.008216 402909.000000 1 0 0
-17.343433 -9.246997 0.010481 19.654560 0.489830 1.570263 -0.003738 -0.004444 356059.000000 1 0 0
-14.747433 -7.183697 -10.729819 19.601564 0.453287 2.150046 0.025537 -0.011956 638505.000000 1 0 0
2.668167 -12.778397 -8.803319 15.744998 -1.364951 2.164118 -0.000188 -0.001663 751240.000000 1 0 0
-11.825233 -14.670197 1.535581 18.905259 0.892364 1.489482 0.023893 -0.007668 24913.000000 1 0 0
-2.291833 -15.417897 10.674481 18.892025 1.423229 0.970332 0.017132 -0.006799 31707.800000 1 0 0
-7.110333 -15.876997 1.470181 17.458445 1.149741 1.486486 0.004388 -0.000585 -1405690.000000 1 0 0
-12.523033 -15.083497 -5.938519 20.484244 0.877882 1.864926 0.042536 -0.006952 -85564.800000 1 0 0
0.904167 -13.867797 -4.974719 14.760797 -1.505689 1.914549 0.003390 -0.005677 319617.000000 1 0 0
5.810267 -16.357097 -7.534119 18.922916 -1.229484 1.980293 0.030212 -0.022096 187829.000000 1 0 0
-6.509333 -12.859197 6.059881 15.634978 1.102201 1.172786 0.007268 -0.006090 -79704.300000 1 0 0
-2.551433 -13.651397 0.631581 13.902135 1.386029 1.525350 0.003584 -0.002902 1882850.000000 1 0 0
-4.316533 -15.519597 0.233681 16.110399 1.299518 1.556291 -0.003860 -0.001024 90338.400000 1 0 0
-17.415933 -7.658297 -2.109519 19.141952 0.414280 1.681225 -0.019524 -0.001050 373126.000000 1 0 0
0.991267 -12.719797 -12.013319 17.524145 -1.493023 2.326127 -0.000562 0.000999 491657.000000 1 0 0
1.106367 -16.938897 -5.785119 17.933708 -1.505574 1.899254 0.004726 -0.010362 -1359060.000000 1 0 0
-12.839533 -6.409397 -9.049719 16.965595 0.463001 2.133430 0.015707 -0.007346 1086570.000000 1 0 0
-11.458633 -13.581397 -8.685619 19.778640 0.869971 2.025439 0.036415 -0.010028 148797.000000 1 0 0
-4.236433 -9.903297 3.621981 11.364040 1.166573 1.246414 0.007293 -0.002160 -4287780.000000 1 0 0
-7.146033 -14.163197 9.757081 18.624247 1.103516 1.019383 0.010861 -0.019826 -1109490.000000 1 0 0
-5.350033 -15.787197 -7.992819 18.486308 1.244058 2.017909 -0.005600 -0.009325 -1266280.000000 1 0 0
-0.279833 -13.483097 2.289781 13.679010 1.550045 1.402611 0.008453 -0.002340 829938.000000 1 0 0
-10.863433 -13.577997 -4.669419 18.004990 0.896009 1.833135 0.034350 -0.004029 -856505.000000 1 0 0
-9.740133 -10.523197 6.741481 15.844729 0.824023 1.131313 0.022090 -0.006335 -741687.000000 1 0 0
-15.571333 -8.125697 -4.795319 18.206824 0.480964 1.837321 0.017367 -0.005230 84709.700000 1 0 0
-14.510733 -7.370397 5.532181 17.189798 0.469969 1.243135 0.022491 -0.009603 196054.000000 1 0 0
-1.838533 -19.317297 0.035181 19.404623 1.475907 1.568983 0.009233 -0.005050 -410659.000000 1 0 0
-15.370433 -12.308197 -1.498019 19.748063 0.675211 1.646726 0.021370 0.001060 514120.000000 1 0 0
-4.453333 -12.144597 -6.742219 14.587012 1.219329 2.051279 -0.002498 -0.003303 -1832520.000000 1 0 0
-7.453133 -18.415497 2.065081 19.973590 1.186227 1.467221 0.008239 0.002811 -3332.540000 1 0 0
-2.548033 -11.809297 -8.618019 14.839886 1.358289 2.190426 -0.002269 0.001819 344259.000000 1 0 0
-1.507733 -20.337797 -5.104619 21.022759 1.496797 1.816062 -0.006792 0.000465 75624.800000 1 0 0
-5.308233 -8.925197 -13.928919 17.373867 1.034248 2.500958 0.011168 -0.000148 -202798.000000 1 0 0
-8.127333 -19.237897 -0.738519 20.897264 1.171075 1.606144 0.005703 0.004812 11767.900000 1 0 0
-17.019633 -7.202397 5.857881 19.387037 0.400330 1.263844 0.030559 -0.018668 -61023.100000 1 0 0
-3.649133 -14.666297 -4.305619 15.714795 1.326937 1.848331 -0.013576 -0.000127 -2954950.000000 1 0 0
-3.227433 -15.081097 -10.976119 18.929633 1.359971 2.189326 0.001436 -0.000783 -3952.170000 1 0 0
-0.147333 -16.519997 6.485181 17.747946 1.561878 1.196729 0.033300 -0.014147 -454640.000000 1 0 0
-11.086333 -11.637697 3.876181 16.533831 0.809657 1.334154 0.018421 -0.002137 742059.000000 1 0 0
-0.121633 -14.684397 -0.048019 14.684979 1.562513 1.574066 0.004703 -0.002425 1396640.000000 1 0 0
-7.322133 -9.503897 -2.283519 12.212786 0.914345 1.758881 0.006067 -0.002960 -210693.000000 1 0 0
-11.062333 -14.408697 -0.987519 18.192332 0.916029 1.625105 0.017650 -0.005662 296271.000000 1 0 0
0.236167 -14.612597 -10.697319 18.111223 -1.554636 2.202655 0.001545 -0.001341 -147840.000000 1 0 0
-1.424833 -13.998197 -3.829619 14.582375 1.469359 1.836533 -0.004634 -0.002743 -3751440.000000 1 0 0
-11.359133 -8.133797 -7.687319 15.946267 0.621422 2.073819 0.018310 -0.005104 765956.000000 1 0 0
-0.224233 -17.339897 -0.121219 17.341770 1.557865 1.577786 0.009247 -0.005978 414765.000000 1 0 0
-12.791133 -9.494297 4.570081 16.572278 0.638527 1.291409 0.019318 -0.005340 142346.000000 1 0 0
3.905367 -16.822797 1.662981 17.350040 -1.342689 1.474800 0.019064 -0.009626 1857680.000000 1 0 0
-3.786633 -17.830497 -8.347819 20.048723 1.361537 2.000253 -0.002028 -0.005003 152727.000000 1 0 0
-13.423733 -11.440597 2.828281 17.862896 0.705808 1.411794 0.014984 0.000320 -244536.000000 1 0 0
-8.459833 -12.158997 4.318081 15.429057 0.962917 1.287141 0.011155 -0.002322 601378.000000 1 0 0
-8.132833 -9.435197 -5.816519 13.747647 0.859395 2.007651 0.014095 -0.005870 -306936.000000 1 0 0
3.660567 -17.299897 -5.293919 18.458379 -1.362277 1.861684 0.008253 -0.011136 70902.200000 1 0 0
-2.639433 -12.923897 11.350581 17.401995 1.369338 0.860237 0.010386 -0.022695 773441.000000 1 0 0
-0.109633 -16.772297 -9.440519 19.246957 1.564260 2.083453 -0.003566 -0.002055 99429.900000 1 0 0
-7.110833 -10.535997 -14.483219 19.270050 0.977110 2.421269 0.018902 0.002524 -2104140.000000 1 0 0
-4.641133 -18.724397 -1.487719 19.348294 1.327828 1.647764 0.005663 -0.011504 -619739.000000 1 0 0
-2.574833 -17.176497 1.164881 17.407434 1.422000 1.503828 0.008062 -0.008107 193104.000000 1 0 0
3.864267 -14.694397 -7.357019 16.881457 -1.313643 2.021729 0.008956 -0.006683 -766048.000000 1 0 0
-1.207533 -15.809797 -6.073119 16.979122 1.494566 1.936580 -0.011413 -0.002407 -963150.000000 1 0 0
-9.656333 -15.092997 8.527181 19.843290 1.001633 1.126607 0.016587 -0.008290 -268029.000000 1 0 0
-7.213333 -12.070697 -1.769719 14.172714 1.032150 1.695991 0.000689 -0.001130 785488.000000 1 0 0
-7.366833 -15.023497 -9.487119 19.234893 1.114895 2.086589 0.018903 -0.007049 745691.000000 1 0 0
-5.031433 -13.240597 -0.667319 14.180058 1.207649 1.617874 -0.000588 -0.001481 2683100.000000 1 0 0
-6.539533 -13.701997 -7.393219 16.886974 1.125499 2.023953 0.003354 -0.004617 115449.000000 1 0 0
5.657967 -15.408297 0.276281 16.416593 -1.218879 1.553966 0.011370 -0.004729 421228.000000 1 0 0
-14.577633 -12.838397 0.914581 19.446550 0.722044 1.523748 0.020273 -0.003817 816650.000000 1 0 0
0.982367 -15.205197 11.192581 18.906003 -1.506279 0.937243 0.024798 -0.016885 -262211.000000 1 0 0
-9.201333 -11.043497 2.066881 14.522237 0.876143 1.427986 0.005335 0.002112 289846.000000 1 0 0
-9.480233 -8.929097 -3.537119 13.494992 0.755469 1.836000 0.009423 -0.004137 112579.000000 1 0 0
-12.185933 -7.124997 -12.335819 18.746599 0.529086 2.288995 0.019534 -0.004696 -1599360.000000 1 0 0
-13.087533 -8.710997 -0.661819 15.735406 0.587260 1.612868 0.001345 0.000573 -713467.000000 1 0 0
-11.053833 -9.683497 0.647281 14.709736 0.719413 1.526779 0.003365 0.003591 889663.000000 1 0 0
-15.969633 -12.198797 3.025881 20.322298 0.652322 1.421346 0.036942 -0.003158 -68408.400000 1 0 0
-10.518333 -12.323497 -2.369919 16.374383 0.864263 1.716040 0.020346 -0.006314 1133660.000000 1 0 0
-3.426633 -8.796197 -12.136719 15.375787 1.199324 2.480529 0.003396 0.001988 -1005560.000000 1 0 0
-0.262433 -15.590597 3.996181 16.096740 1.553965 1.319912 0.019265 -0.007963 -683434.000000 1 0 0
-15.678833 -7.846897 1.290481 17.580243 0.464029 1.497325 -0.002189 -0.006300 473664.000000 1 0 0
-6.331433 -13.449497 -13.301219 19.947392 1.130816 2.300723 0.024455 -0.004565 -490423.000000 1 0 0
-15.316933 -10.403697 1.258081 18.558775 0.596649 1.502955 0.007663 -0.003163 92702.000000 1 0 0
-9.964733 -8.284997 -12.512919 18.014167 0.693615 2.338682 0.020201 -0.004290 87545.900000 1 0 0
-13.377233 -11.760797 -6.432319 18.937831 0.721184 1.917346 0.035609 -0.002359 -114684.000000 1 0 0
-12.240833 -11.424797 -4.061019 17.229506 0.750930 1.808737 0.023231 -0.002335 -906346.000000 1 0 0
-11.912533 -11.021597 -8.963319 18.539826 0.746570 2.075403 0.034900 -0.010558 893972.000000 1 0 0
-13.180433 -8.364997 -5.839419 16.667208 0.565510 1.928745 0.011732 -0.009393 -777131.000000 1 0 0
-13.492533 -8.341097 -3.238619 16.189843 0.553695 1.772195 0.013392 -0.004289 249060.000000 1 0 0
-4.358033 -16.915997 -3.291819 17.775812 1.318651 1.757057 -0.009901 -0.006473 145893.000000 1 0 0
-15.300333 -9.138697 -1.721719 17.904756 0.538423 1.667105 0.005723 -0.001098 -1308450.000000 1 0 0
-9.483333 -15.565297 3.767881 18.612066 1.023595 1.366944 0.012166 -0.006189 -678101.000000 1 0 0
4.795967 -16.752397 8.050981 19.195374 -1.291969 1.137987 0.035044 -0.039894 382446.000000 1 0 0
-8.418133 -15.342997 6.134981 18.544825 1.068980 1.233625 0.009408 0.000988 -599655.000000 1 0 0
0.971967 -15.992797 8.690481 18.227417 -1.510096 1.073808 0.024406 -0.013652 74708.200000 1 0 0
-10.863033 -7.714097 -10.181719 16.768428 0.617488 2.223323 0.017230 -0.007532 609757.000000 1 0 0
-4.838233 -15.867497 5.790681 17.570371 1.274837 1.234947 0.007122 -0.006240 -1973110.000000 1 0 0
-1.639933 -13.243897 -11.950219 17.913624 1.447598 2.301109 0.002618 -0.002572 -451233.000000 1 0 0
-6.525533 -14.337597 -2.600619 15.965979 1.143681 1.734410 0.001298 -0.000597 547240.000000 1 0 0
-17.562733 -7.081497 -7.053119 20.207516 0.383272 1.927337 0.012497 -0.009743 413510.000000 1 0 0
-17.296333 -4.530297 -10.064019 20.517583 0.256168 2.083468 0.021769 -0.007783 694491.000000 1 0 0
-15.294933 -5.411497 -8.863519 18.487327 0.340065 2.070810 0.008578 -0.015027 -685741.000000 1 0 0
-16.103133 -5.506297 -5.560119 17.903774 0.329476 1.886574 0.006669 -0.002146 16132.000000 1 0 0
-15.202833 -4.367297 -12.388219 20.091476 0.279736 2.235201 0.022846 -0.008233 -539173.000000 1 0 0
-18.729333 -5.411897 -5.417019 20.234146 0.281291 1.841819 0.018975 -0.007109 436812.000000 1 0 0
-17.415633 -4.507897 -7.541319 19.506330 0.253283 1.967748 0.009280 -0.007983 1131500.000000 1 0 0
12.296667 -7.920397 8.701781 17.019450 -0.572223 1.034118 0.016365 -0.004406 312600.000000 1 0 0
15.897667 -3.375997 1.713981 16.342304 -0.209250 1.465723 0.019672 -0.010930 51647.800000 1 0 0
11.904467 -2.053297 12.542581 17.414037 -0.170801 0.766624 0.001889 -0.002498 198897.000000 1 0 0
9.733167 -10.047297 5.183281 14.918080 -0.801278 1.215946 0.007651 -0.005049 116106.000000 1 0 0
16.907067 -1.920797 7.125681 18.447593 -0.113124 1.174216 0.022513 -0.011782 165641.000000 1 0 0
5.192467 -12.752297 9.269281 16.598264 -1.184117 0.978282 0.011838 -0.005296 83760.900000 1 0 0
15.038167 -8.992297 -2.098419 17.646847 -0.538922 1.689990 0.044194 -0.008417 297231.000000 1 0 0
11.097167 -8.600997 6.450281 15.450902 -0.659349 1.140138 0.017813 -0.006706 -1459730.000000 1 0 0
19.825267 -3.177097 3.542881 20.388407 -0.158904 1.396140 0.039030 -0.013943 -361281.000000 1 0 0
13.647467 -8.436797 6.733181 17.400248 -0.553691 1.173465 0.025572 -0.009364 -679914.000000 1 0 0
8.341767 -11.028697 8.838881 16.411674 -0.923231 1.002054 0.008478 -0.002242 -1545610.000000 1 0 0
16.865367 0.073903 -0.675919 16.879068 0.004382 1.610852 0.018677 -0.003997 -428082.000000 1 0 0
12.381767 -12.227797 2.246981 17.546398 -0.779142 1.442384 0.023852 -0.007840 -926003.000000 1 0 0
10.338267 -11.789697 3.586381 16.085361 -0.850897 1.345947 0.010167 -0.003369 -869002.000000 1 0 0
16.351967 3.095003 2.393181 16.813482 0.187061 1.427974 0.016809 -0.003749 -727292.000000 1 0 0
18.130267 -3.180497 0.373581 18.410912 -0.173658 1.550504 0.021918 -0.012322 -397391.000000 1 0 0
13.465167 -11.574997 -0.258919 17.758331 -0.710056 1.585377 0.043264 -0.005217 -434187.000000 1 0 0
16.948967 -7.582797 -0.915419 18.590435 -0.420681 1.620058 0.054317 -0.010225 840827.000000 1 0 0
10.169367 -5.599697 9.637781 15.088388 -0.503337 0.877917 0.010683 -0.007301 -84349.800000 1 0 0
11.392967 -13.210897 6.279281 18.540681 -0.859152 1.225287 0.028126 -0.004980 -998746.000000 1 0 0
13.089867 -1.727097 10.225681 16.700061 -0.131184 0.911812 0.015010 -0.005907 652061.000000 1 0 0
15.545067 -1.989297 -1.347519 15.729660 -0.127278 1.656569 0.009776 -0.007434 231152.000000 1 0 0
10.360767 -12.451097 9.266581 18.661319 -0.876776 1.051158 0.026331 -0.005572 -517501.000000 1 0 0
14.499467 1.330103 3.215181 14.911107 0.091479 1.353466 0.012298 -0.002381 1090150.000000 1 0 0
15.004067 -5.799897 5.227581 16.914149 -0.368862 1.256586 0.025722 -0.010835 -928458.000000 1 0 0
14.262067 -3.344697 -2.999319 14.952908 -0.230354 1.772751 0.011276 -0.006645 472978.000000 1 0 0
13.997667 0.636803 9.467981 16.911028 0.045462 0.976567 0.020373 -0.010170 526800.000000 1 0 0
15.332567 -3.319597 4.387581 16.289819 -0.213215 1.298083 0.018687 -0.009461 -789845.000000 1 0 0
18.465267 4.994403 -4.267319 19.598983 0.264155 1.790286 -0.000249 0.004134 488218.000000 1 0 0
18.161167 -5.737797 -5.177119 19.737093 -0.306014 1.836205 0.065317 -0.012454 579382.000000 1 0 0
17.278467 0.163103 5.776181 18.219119 0.009439 1.248190 0.027131 -0.007212 680235.000000 1 0 0
17.061667 -6.669997 3.904381 18.730550 -0.372667 1.360807 0.039538 -0.016532 254024.000000 1 0 0
9.891067 -6.454497 14.230081 18.492943 -0.578172 0.692759 0.012059 -0.003492 -1214600.000000 1 0 0
8.626267 -12.341397 5.181481 15.923891 -0.960762 1.239372 0.006381 -0.005125 -519847.000000 1 0 0
16.912867 -10.106097 -0.603719 19.711487 -0.538608 1.601429 0.066085 -0.008997 -274975.000000 1 0 0
15.033867 -8.821997 0.421181 17.436232 -0.530663 1.546638 0.053674 -0.011829 -226043.000000 1 0 0
9.942967 -12.887697 1.459581 16.342757 -0.913671 1.481367 0.010693 -0.007663 -673614.000000 1 0 0
17.217767 -7.986397 8.789781 20.916364 -0.434309 1.137092 0.066166 -0.011665 223295.000000 1 0 0
19.059767 -0.230797 -1.964819 19.162163 -0.012109 1.673513 0.032489 -0.004016 -507558.000000 1 0 0
13.336867 -1.138697 7.633581 15.409095 -0.085173 1.052507 0.012324 -0.005411 -673022.000000 1 0 0
12.748267 -9.797197 -3.146819 16.383096 -0.655244 1.764075 0.027532 -0.008202 -582197.000000 1 0 0
8.933667 -15.319597 1.453381 17.793616 -1.042857 1.489025 0.015218 -0.001446 582183.000000 1 0 0
11.424867 -8.197797 11.097581 17.913340 -0.622401 0.902672 0.012743 -0.004696 108987.000000 1 0 0
13.913767 -4.010997 -0.580919 14.492014 -0.280666 1.610893 0.010314 -0.008185 -129979.000000 1 0 0
7.213067 -13.095697 10.960481 18.538008 -1.067342 0.938196 0.013394 -0.001622 242299.000000 1 0 0
15.437367 -6.744897 1.825581 16.945167 -0.411924 1.462852 0.037383 -0.013767 10764.600000 1 0 0
15.782267 -6.141397 -2.694119 17.148031 -0.371103 1.728559 0.048618 -0.009926 -178989.000000 1 0 0
11.134267 -8.485097 3.777681 14.499643 -0.651182 1.307219 0.014533 -0.007240 419007.000000 1 0 0
10.861667 -14.478797 -0.328619 18.103021 -0.927182 1.588950 0.032075 -0.004675 1070610.000000 1 0 0
13.421867 -12.798297 4.597181 19.106988 -0.761621 1.327810 0.029840 -0.007079 638076.000000 1 0 0
12.833667 -10.981897 6.466081 18.086328 -0.707800 1.205194 0.023942 -0.009265 515312.000000 1 0 0
10.832967 -10.434397 1.381881 15.104284 -0.766659 1.479179 0.009857 -0.006902 173905.000000 1 0 0
13.924567 -7.428897 11.592081 19.582094 -0.490095 0.937291 0.019405 -0.016078 294163.000000 1 0 0
15.242867 -1.769197 -4.912119 16.112230 -0.115550 1.880597 0.013013 -0.002508 -66675.400000 1 0 0
12.928367 -11.351897 -7.159519 18.635100 -0.720561 1.965132 0.040301 -0.014553 -41314.500000 1 0 0
17.611367 -5.273397 1.900081 18.481863 -0.290935 1.467806 0.038558 -0.015688 541965.000000 1 0 0
10.613967 -9.788897 9.079981 17.056519 -0.744981 1.009426 0.013891 -0.004786 -1910810.000000 1 0 0
16.330267 1.908103 9.914681 19.199463 0.116317 1.028150 0.028529 -0.005706 -497348.000000 1 0 0
18.182567 3.703403 0.512481 18.562962 0.200930 1.543185 0.011934 0.000394 605387.000000 1 0 0
13.258167 -4.028397 5.770781 15.010292 -0.294978 1.176179 0.019632 -0.012825 -681882.000000 1 0 0
12.128267 -6.172297 6.647881 15.145508 -0.470757 1.116384 0.015548 -0.006453 9238.320000 1 0 0
16.559467 -10.160397 3.425881 19.727804 -0.550338 1.396254 0.039541 -0.011169 -36547.300000 1 0 0
16.149967 -7.874697 -5.605319 18.821580 -0.453677 1.873198 0.057713 -0.012960 839377.000000 1 0 0
13.960367 -0.221997 5.233481 14.910749 -0.015901 1.212171 0.013391 -0.005311 952926.000000 1 0 0
18.146867 -4.188197 5.220381 19.341720 -0.226823 1.297504 0.028977 -0.012340 37126.800000 1 0 0
13.808667 -13.255797 7.079481 20.408686 -0.764973 1.216548 0.048696 -0.010885 -62233.500000 1 0 0
14.965967 -13.555297 -0.947219 20.214437 -0.735978 1.617672 0.048501 0.000500 424700.000000 1 0 0
17.906467 -5.757497 7.747381 20.342375 -0.311092 1.180082 0.050959 -0.016124 -672846.000000 1 0 0
14.288467 3.368503 9.226781 17.338990 0.231522 1.009669 0.022473 -0.007638 143952.000000 1 0 0
18.698367 3.991303 3.054981 19.362136 0.210301 1.412353 0.024899 -0.003095 -586084.000000 1 0 0
14.895467 -10.369297 8.142181 19.892018 -0.608129 1.149089 0.038783 -0.016166 305120.000000 1 0 0
14.894767 -4.753897 10.334681 18.741911 -0.308946 0.986730 0.023228 -0.013426 270940.000000 1 0 0
17.885867 -7.812997 1.811981 19.601796 -0.411844 1.478225 0.067374 -0.015444 -199684.000000 1 0 0
18.334167 -5.820397 -2.182119 19.359244 -0.307399 1.683754 0.043702 -0.012937 -814192.000000 1 0 0
14.276667 -12.920997 -5.562619 20.042907 -0.735594 1.852024 0.047206 -0.015982 -1456400.000000 1 0 0
15.391167 -1.409897 9.262881 18.018790 -0.091349 1.030876 0.026970 -0.010732 -1591930.000000 1 0 0
12.957667 -10.062597 10.180381 19.307955 -0.660293 1.015419 0.007141 -0.008103 -718181.000000 1 0 0
16.501367 2.162103 4.783681 17.316275 0.130284 1.290903 0.023011 -0.004639 -1957410.000000 1 0 0
14.899467 2.482603 -0.055119 15.104981 0.165107 1.574445 0.006825 -0.002184 -1117370.000000 1 0 0
15.034467 -9.753897 -6.967519 19.228105 -0.575509 1.941596 0.053917 -0.016347 878726.000000 1 0 0
16.135467 -0.004697 -3.139419 16.438043 -0.000291 1.762962 0.013683 0.000375 -147366.000000 1 0 0
12.141367 2.540803 13.528081 18.354221 0.206291 0.742093 0.033666 -0.006417 -178825.000000 1 0 0
17.480567 -2.972997 9.388681 20.063805 -0.168462 1.083837 0.023691 -0.018188 -419913.000000 1 0 0
7.644067 -18.058397 4.527181 20.125427 -1.170369 1.343906 0.030771 -0.017885 -285368.000000 1 0 0
6.851567 -11.164097 6.663481 14.696360 -1.020354 1.100208 0.001736 -0.003605 -108138.000000 1 0 0
17.942667 2.163703 -1.617119 18.144861 0.120010 1.660037 0.017336 0.001306 585299.000000 1 0 0
17.513467 -2.287097 3.418581 17.989970 -0.129856 1.379607 0.017473 -0.009368 -869366.000000 1 0 0
12.500767 -13.352297 -1.995819 18.399356 -0.818324 1.679482 0.031611 -0.002960 168816.000000 1 0 0
15.021267 -8.182597 4.337781 17.646804 -0.498791 1.322440 0.030796 -0.011379 -113435.000000 1 0 0
11.117067 -3.028597 14.812781 18.766461 -0.265973 0.661092 0.002039 -0.007394 146758.000000 1 0 0
11.977767 -13.633197 -6.549619 19.293223 -0.849946 1.917158 0.029049 -0.013871 450057.000000 1 0 0
10.604167 -11.980897 -1.174819 16.042769 -0.846280 1.644092 0.014445 -0.007656 -927546.000000 1 0 0
13.188667 -8.032097 2.083881 15.581979 -0.547022 1.436658 0.028906 -0.008345 -683715.000000 1 0 0
8.722267 -7.792297 9.999181 15.387705 -0.729145 0.863454 0.006599 -0.004210 -1286790.000000 1 0 0
15.457267 -3.713497 7.958981 17.778148 -0.235775 1.106623 0.026960 -0.010422 -1243650.000000 1 0 0
10.124967 -17.385997 5.144181 20.766570 -1.043446 1.320476 0.032519 -0.016252 -1017580.000000 1 0 0
15.336567 -6.300197 8.230481 18.510634 -0.389778 1.110029 0.034495 -0.005346 497833.000000 1 0 0
16.591467 -4.981097 -0.494719 17.330114 -0.291659 1.599347 0.036181 -0.011139 -630973.000000 1 0 0
13.924867 -10.403497 3.476781 17.726327 -0.641653 1.373380 0.037355 -0.010626 747702.000000 1 0 0
15.000267 -9.940397 -4.484719 18.545409 -0.585238 1.815041 0.058971 -0.017077 911270.000000 1 0 0
13.718367 -6.579297 -0.138219 15.215119 -0.447193 1.579881 0.024387 -0.008210 184508.000000 1 0 0
17.688467 -0.852597 -4.920519 18.379888 -0.048163 1.841814 0.014689 -0.002906 -868015.000000 1 0 0
14.380967 0.234303 -1.532319 14.464270 0.016291 1.676934 0.004948 -0.000832 -2103480.000000 1 0 0
4.814567 -12.668897 11.816281 17.980698 -1.207623 0.853745 0.006676 -0.008013 -660419.000000 1 0 0
12.146067 -7.432197 13.445581 19.584385 -0.549125 0.814068 0.015663 -0.009288 69763.400000 1 0 0
12.053067 -5.652297 11.492481 17.586984 -0.438501 0.858643 0.011097 -0.006620 133811.000000 1 0 0
13.331767 -4.689097 8.309181 16.394088 -0.338209 1.039281 0.021635 -0.009508 -1183820.000000 1 0 0
15.261967 -1.109297 3.018281 15.597057 -0.072556 1.376052 0.014589 -0.005579 196161.000000 1 0 0
15.220667 -10.296597 5.684481 19.235434 -0.594771 1.270795 0.047493 -0.011698 1075720.000000 1 0 0
13.508467 -8.064297 -5.599319 16.699219 -0.538197 1.912724 0.041455 -0.010710 -2314340.000000 1 0 0
9.391567 -1.919897 13.331581 16.420067 -0.201649 0.623384 -0.004505 -0.011796 -885645.000000 1 0 0
10.158767 -9.090797 13.948481 19.503929 -0.729975 0.773940 0.020098 0.005908 86595.500000 1 0 0
20.389567 6.314103 -2.969819 21.550456 0.300308 1.709044 0.047197 0.002379 -120123.000000 1 0 0
11.233267 -3.504197 10.447681 15.735937 -0.302382 0.844724 0.010156 -0.003000 998603.000000 1 0 0
9.883167 -13.883997 -2.667619 17.249885 -0.952169 1.726065 0.013482 -0.009564 481150.000000 1 0 0
14.844767 -12.642197 2.445781 19.651313 -0.705438 1.446014 0.044921 -0.003353 41952.500000 1 0 0
11.263167 -0.439497 14.484381 18.353457 -0.039001 0.661306 0.021636 -0.003690 75540.300000 1 0 0
18.953367 -1.696497 5.534981 19.817776 -0.089271 1.287738 0.040066 -0.014396 -36472.500000 1 0 0
18.954567 -0.419497 7.753381 20.483322 -0.022128 1.182598 0.043710 -0.009586 6470.390000 1 0 0
19.104967 0.762303 0.464481 19.125810 0.039880 1.546508 0.035703 -0.010120 31105.300000 1 0 0
18.623567 0.959903 3.657781 19.003632 0.051497 1.377110 0.029620 -0.008824 -160884.000000 1 0 0
16.634567 -3.790497 -4.133219 17.554492 -0.224043 1.808479 0.035785 -0.009222 210253.000000 1 0 0
11.384467 -7.921797 15.852781 21.063514 -0.607930 0.718767 0.026535 -0.012150 132156.000000 1 0 0
16.656667 -7.502397 6.265181 19.312768 -0.423198 1.240412 0.041553 -0.010586 216728.000000 1 0 0
18.754567 2.316903 5.886981 19.792887 0.122915 1.268798 0.028590 -0.004882 -72985.700000 1 0 0
15.245967 1.819603 7.509781 17.092316 0.118788 1.115904 0.018320 -0.004106 -54448.400000 1 0 0
8.609767 -15.664497 3.945081 18.304869 -1.068233 1.353571 0.011066 -0.014427 352108.000000 1 0 0
11.412667 -15.027997 2.162481 18.993841 -0.921289 1.456697 0.021961 0.000776 1030770.000000 1 0 0
8.046567 -16.126697 6.207681 19.061818 -1.107982 1.239086 0.024847 -0.015539 11222.300000 1 0 0
14.511767 -11.586197 -2.550319 18.743945 -0.673765 1.707281 0.049181 -0.008932 897090.000000 1 0 0
13.691567 -4.856497 3.188581 14.873184 -0.340862 1.354735 0.015712 -0.008246 -340153.000000 1 0 0
-0.972733 10.076103 -5.431519 11.488057 -1.474556 2.063259 0.001736 0.003506 -1876250.000000 1 0 0
8.237567 -1.810597 -8.031319 11.646366 -0.216357 2.331731 -0.001244 -0.001919 -2546470.000000 1 0 0
2.905967 -10.026097 7.778081 13.017903 -1.288686 0.930428 -0.000936 -0.003789 740007.000000 1 0 0
-6.287233 1.302403 8.233181 10.440825 -0.204261 0.662338 0.004650 -0.000835 -297297.000000 1 0 0
7.219267 -6.314497 -7.251819 12.024124 -0.718645 2.218185 -0.003360 -0.005673 -166814.000000 1 0 0
-11.488633 -4.617697 -4.086419 13.038813 0.382174 1.889572 0.004948 -0.004392 235870.000000 1 0 0
2.059567 -3.274997 2.883281 4.825011 -1.009415 0.930329 0.001828 0.002280 2294140.000000 1 0 0
-3.587333 -4.215197 9.040481 10.600337 0.865694 0.549380 0.003390 -0.003745 -1633560.000000 1 0 0
-4.938233 -1.134697 -2.428119 5.618669 0.225857 2.017674 0.008942 -0.006550 -575094.000000 1 0 0
5.022667 -5.292597 -3.631019 8.150034 -0.811560 2.032553 -0.003769 -0.004220 301621.000000 1 0 0
2.734767 14.164603 -8.758119 16.876598 1.380073 2.116419 0.007847 -0.010680 368635.000000 1 0 0
5.579267 -5.501397 13.701581 15.783755 -0.778371 0.519472 -0.002408 -0.002276 -1329780.000000 1 0 0
-4.722733 -0.875397 9.864881 10.972074 0.183278 0.453110 0.009848 -0.002692 -3260730.000000 1 0 0
-0.853733 12.074603 -2.620419 12.385132 -1.500209 1.783985 0.000491 0.000769 -118371.000000 1 0 0
3.021967 9.413003 -10.536019 14.447996 1.260149 2.388003 0.009920 -0.001992 -790551.000000 1 0 0
-10.598533 2.693303 1.194681 11.000457 -0.248853 1.461979 0.002595 -0.002125 575589.000000 1 0 0
5.590467 -9.084297 -0.688719 10.688878 -1.019131 1.635274 -0.004711 -0.003506 548976.000000 1 0 0
-6.952233 5.461203 9.374281 12.885474 -0.665857 0.756114 0.006170 -0.002898 409836.000000 1 0 0
-5.373433 -1.838097 5.068481 7.611957 0.329594 0.842153 0.004636 -0.003500 871593.000000 1 0 0
6.599667 -3.837297 -7.375319 10.614885 -0.526659 2.338951 -0.002641 -0.004421 306131.000000 1 0 0
6.333567 4.845403 11.043681 13.621853 0.653055 0.625394 -0.001961 0.001552 -63493.200000 1 0 0
3.849567 -9.908497 3.552181 11.207831 -1.200233 1.248298 -0.006472 0.000647 1007980.000000 1 0 0
-6.687533 6.539603 -5.828519 11.020941 -0.774215 2.128051 0.007884 -0.003717 104777.000000 1 0 0
-11.006433 8.367403 5.217081 14.777447 -0.650015 1.209974 0.001934 -0.007774 292996.000000 1 0 0
-9.174433 -5.423397 5.224781 11.869364 0.533881 1.114986 0.005008 0.000262 -1631720.000000 1 0 0
3.224767 9.879703 -8.005819 13.118719 1.255296 2.227184 0.007130 -0.004634 712926.000000 1 0 0
-8.104833 -8.606297 6.017481 13.265246 0.815397 1.099965 0.008867 -0.001194 -2943260.000000 1 0 0
-7.838433 -5.611897 -7.610519 12.282281 0.621348 2.239073 0.013005 -0.009783 -418594.000000 1 0 0
9.250567 -1.482097 6.918781 11.646421 -0.158867 0.934688 0.004797 -0.006294 2748970.000000 1 0 0
-4.004533 -0.419397 -4.826019 6.285112 0.104350 2.446273 0.015655 -0.011036 -1115680.000000 1 0 0
9.143767 1.089903 -4.358819 10.188015 0.118637 2.012896 -0.006132 0.001994 -1951450.000000 1 0 0
-2.031533 -10.545497 10.658881 15.130974 1.380483 0.789161 0.002607 -0.016575 365733.000000 1 0 0
-13.100933 0.235003 -2.618519 13.362123 -0.017936 1.768039 0.006186 -0.003346 307472.000000 1 0 0
-9.862933 -5.137297 -6.033919 12.652172 0.480203 2.067930 0.012921 -0.009000 -1076550.000000 1 0 0
-5.614233 8.315703 -0.154919 10.034667 -0.976953 1.586235 0.000205 0.001096 601070.000000 1 0 0
6.240567 9.622303 0.383681 11.475217 0.995440 1.537354 0.003039 -0.000499 440752.000000 1 0 0
-0.631233 -12.158897 -0.018019 12.175285 1.518928 1.572276 0.006041 -0.001004 -450167.000000 1 0 0
6.049767 4.723603 2.419881 8.047852 0.662918 1.265384 -0.005174 0.002093 185728.000000 1 0 0
3.577167 -7.580397 -8.170219 11.705170 -1.129883 2.343398 -0.003085 -0.004047 1522060.000000 1 0 0
-6.528433 -9.859397 4.556681 12.672470 0.985925 1.202986 0.005302 -0.000396 -2162180.000000 1 0 0
0.016967 6.614403 -9.245719 11.368110 1.568231 2.520603 0.004117 -0.002325 -1660100.000000 1 0 0
-17.257933 -2.791697 4.335481 18.011836 0.160374 1.327707 0.019499 -0.017247 411799.000000 1 0 0
-8.254433 0.825903 -9.109419 12.320686 -0.099724 2.402915 0.016832 -0.009068 -150543.000000 1 0 0
-10.077733 -5.736597 -11.808519 16.550238 0.517491 2.365271 0.014911 -0.006914 -521818.000000 1 0 0
2.117267 9.414803 6.352181 11.552988 1.349589 0.988635 -0.008945 0.003168 645909.000000 1 0 0
-11.451633 1.729903 -1.129219 11.636477 -0.149928 1.667991 0.005144 -0.003001 -1656320.000000 1 0 0
-6.103233 -5.382897 -3.056119 8.692807 0.722767 1.930043 0.014311 -0.005062 428236.000000 1 0 0
-6.841833 -8.372597 1.353981 10.896987 0.885673 1.446222 0.005276 -0.000049 -460799.000000 1 0 0
0.063467 10.920203 -7.836119 13.440968 1.564985 2.193216 0.004749 0.000834 488282.000000 1 0 0
-2.930433 9.231203 -4.262519 10.581664 -1.263409 1.985393 0.001317 -0.001298 131901.000000 1 0 0
3.373467 -4.741497 9.344681 11.008412 -0.952409 0.556958 -0.002490 -0.003116 -725131.000000 1 0 0
-8.989833 1.597203 -0.525019 9.145699 -0.175833 1.628234 0.008264 -0.003189 -1814890.000000 1 0 0
2.439867 3.560103 -10.563819 11.411466 0.969980 2.753730 0.003155 -0.003717 1241500.000000 1 0 0
-13.811233 0.403703 1.191181 13.868383 -0.029222 1.484799 0.004477 -0.003836 -23907.600000 1 0 0
9.416667 -12.746397 -4.951719 16.603125 -0.934521 1.873645 0.021286 -0.007360 -783330.000000 1 0 0
-4.649433 9.491403 -8.332919 13.458882 -1.115296 2.238442 0.005197 -0.001489 -1889960.000000 1 0 0
-2.279533 7.067403 8.373081 11.191646 -1.258789 0.725520 -0.001597 0.001707 -2006260.000000 1 0 0
-10.759233 -1.221997 -4.410619 11.692217 0.113092 1.957596 0.009877 -0.004859 -2266330.000000 1 0 0
2.707367 -7.159197 9.730581 12.380151 -1.209253 0.666513 -0.003650 -0.002552 -1676880.000000 1 0 0
-16.217133 -6.677997 3.526281 17.889263 0.390626 1.372380 0.018330 -0.008257 -702083.000000 1 0 0
-10.838233 0.102103 6.232181 12.502712 -0.009420 1.048968 0.003924 -0.004130 -628377.000000 1 0 0
-8.399633 9.959103 9.439181 16.088372 -0.870139 0.943808 0.004608 -0.010550 -309164.000000 1 0 0
0.417467 -6.031797 -3.632719 7.053616 -1.501696 2.111822 0.002980 -0.000782 319525.000000 1 0 0
5.018367 1.359203 -3.008319 6.006781 0.264500 2.095343 -0.006401 0.003396 511510.000000 1 0 0
0.336667 5.325703 3.728281 6.509726 1.507665 0.960970 -0.007501 0.004646 -1734220.000000 1 0 0
5.998967 -11.417597 -1.508119 12.985513 -1.087025 1.687198 -0.002421 -0.004872 -2885840.000000 1 0 0
6.349167 -13.571797 5.309081 15.896287 -1.133222 1.230271 0.001235 -0.004021 353209.000000 1 0 0
8.284267 -8.257697 -5.942519 13.119915 -0.783792 2.040855 0.004650 -0.008349 429957.000000 1 0 0
-13.164633 -1.476397 -4.666819 14.045160 0.111682 1.909508 0.005064 -0.000635 -3307110.000000 1 0 0
-6.722533 -1.499197 -7.040119 9.849026 0.219420 2.367139 0.022417 -0.011519 -1052230.000000 1 0 0
-5.605933 12.822203 -4.717419 14.767851 -1.158633 1.895933 0.005035 0.003032 121383.000000 1 0 0
-4.341133 6.858203 -6.801219 10.589474 -1.006476 2.268242 0.008507 -0.002177 -1546300.000000 1 0 0
-9.417033 -3.633297 -8.041119 12.905075 0.368224 2.243493 0.015209 -0.009318 663210.000000 1 0 0
-2.065633 -6.260397 9.249081 11.358033 1.252092 0.619238 0.000674 -0.005612 -303800.000000 1 0 0
7.478767 -5.902897 10.036781 13.838827 -0.668175 0.759381 0.001317 -0.002715 -288795.000000 1 0 0
9.633567 -4.909597 12.142681 16.258981 -0.471325 0.727515 0.006016 -0.003803 94001.600000 1 0 0
-6.418933 2.739803 -9.045519 11.425000 -0.403421 2.484433 0.011594 -0.006569 1141650.000000 1 0 0
7.393867 5.478003 8.792281 12.727215 0.637642 0.808167 -0.004801 -0.000598 -447353.000000 1 0 0
12.724767 3.471503 11.139681 17.264516 0.266333 0.869465 0.027355 -0.002988 538522.000000 1 0 0
-7.507833 -7.412897 -3.908119 11.251311 0.779036 1.925538 0.013990 -0.007679 -1272800.000000 1 0 0
2.363367 1.345303 -5.880919 6.479240 0.517488 2.708461 -0.003763 -0.000992 -336910.000000 1 0 0
12.806467 7.009603 -7.105419 16.236598 0.500805 2.023744 -0.002513 -0.000912 -23285.300000 1 0 0
0.810667 -7.898797 1.002581 8.003333 -1.468523 1.445196 -0.000732 0.000571 412898.000000 1 0 0
-10.259733 -5.976497 -8.512419 14.609652 0.527467 2.192791 0.016008 -0.008730 -8596.730000 1 0 0
-6.765933 0.264203 3.054881 7.428321 -0.039029 1.146974 0.005431 -0.003483 -246242.000000 1 0 0
10.735967 -7.881697 1.151781 13.368198 -0.633273 1.484531 0.004991 -0.006431 415018.000000 1 0 0
6.262967 1.106703 10.688981 12.438001 0.174900 0.536738 -0.003991 -0.001982 1679270.000000 1 0 0
-12.990933 5.269103 1.850181 14.140402 -0.385323 1.439576 0.006542 -0.002868 175836.000000 1 0 0
2.066367 7.418203 3.683881 8.536427 1.299129 1.124588 -0.011399 0.003965 -343205.000000 1 0 0
9.984967 -9.362497 -0.870819 13.715474 -0.753236 1.634331 0.003176 -0.006087 817143.000000 1 0 0
6.792567 -11.665697 -8.990619 16.219084 -1.043517 2.158346 0.011812 -0.012053 -227652.000000 1 0 0
10.277167 3.573203 11.960981 16.169509 0.334610 0.738136 0.012947 -0.002845 -1236430.000000 1 0 0
-11.046133 -3.106397 -1.935519 11.636709 0.274140 1.737902 0.001308 -0.002120 -295011.000000 1 0 0
12.247867 1.098503 6.711381 14.009268 0.089450 1.071205 0.012314 -0.001505 -442881.000000 1 0 0
-9.546833 9.053503 2.981181 13.490567 -0.758882 1.347974 0.004287 -0.005305 908314.000000 1 0 0
-6.523133 7.687603 -8.870419 13.428881 -0.867158 2.292345 0.004759 -0.005054 682616.000000 1 0 0
8.587767 5.513603 12.076181 15.810873 0.570752 0.701632 0.010876 -0.003182 -3212180.000000 1 0 0
1.345467 4.812503 -2.631819 5.647737 1.298180 2.055555 -0.002037 0.000096 1024310.000000 1 0 0
1.480267 0.430903 9.529681 9.653584 0.283270 0.160390 -0.000217 -0.000547 825577.000000 1 0 0
2.591567 12.637803 -3.919819 13.483147 1.368536 1.865775 0.006018 -0.003666 617514.000000 1 0 0
2.008767 0.564803 13.051581 13.217334 0.274092 0.158536 -0.001377 -0.003710 -183897.000000 1 0 0
-12.232933 -1.760997 0.890281 12.391060 0.142973 1.498886 -0.000550 -0.002345 287707.000000 1 0 0
3.301067 8.691403 -1.244019 9.380038 1.207817 1.703812 0.001567 -0.000507 869637.000000 1 0 0
3.724867 -2.928297 -5.876319 7.548555 -0.666237 2.463020 -0.006725 -0.001182 -1046270.000000 1 0 0
-7.795533 -7.134897 9.364281 14.119733 0.741179 0.845703 0.010173 -0.007672 -449799.000000 1 0 0
-7.015533 10.873703 -3.635219 13.441352 -0.997815 1.844657 0.005015 0.002601 -421136.000000 1 0 0
0.349467 0.420603 2.477981 2.537602 0.877513 0.217198 -0.002083 0.001903 -957973.000000 1 0 0
-7.061133 4.446703 -1.995619 8.579934 -0.562003 1.805538 0.010958 -0.005258 -710749.000000 1 0 0
-7.004133 -3.876297 -5.852619 9.916487 0.505473 2.202091 0.014109 -0.009430 729.623000 1 0 0
3.000667 -5.962697 13.573081 15.125683 -1.104560 0.457061 0.003857 -0.003697 -1860880.000000 1 0 0
-5.410333 -0.631897 -11.770519 12.969815 0.116268 2.708165 0.013164 -0.008665 -438484.000000 1 0 0
11.909067 2.425603 -0.690319 12.173166 0.200929 1.627535 -0.000418 -0.000875 -1752360.000000 1 0 0
6.170167 -10.717197 10.898781 16.483710 -1.048417 0.848399 0.007402 -0.006186 677335.000000 1 0 0
-8.143233 6.428503 -10.440119 14.718491 -0.668262 2.359329 0.006622 -0.005517 786011.000000 1 0 0
2.885067 7.914003 11.119281 13.949676 1.221217 0.648320 -0.004606 0.000180 847586.000000 1 0 0
-6.087833 -10.173397 -0.453219 11.864448 1.031549 1.609005 0.008087 -0.001089 -92597.900000 1 0 0
11.253467 4.357503 6.039981 13.494803 0.369436 1.106741 0.003859 -0.003027 642141.000000 1 0 0
-7.793333 10.528403 1.421681 13.175906 -0.933584 1.462686 -0.004041 -0.000460 811150.000000 1 0 0
4.244367 -2.832197 -3.595319 6.241979 -0.588430 2.184611 -0.006746 -0.001021 -5771830.000000 1 0 0
6.328967 6.462503 6.400881 11.081112 0.795837 0.954963 -0.006872 0.001998 -5030700.000000 1 0 0
-0.362333 10.280103 -10.205619 14.490219 -1.535565 2.352248 0.000456 -0.000137 -43322.200000 1 0 0
13.906867 6.671003 -2.440919 15.616059 0.447269 1.727748 0.001738 0.003605 803437.000000 1 0 0
1.442467 9.472703 -6.206219 11.416215 1.419681 2.145555 0.004738 -0.000937 -35391.500000 1 0 0
0.564667 7.369503 7.292581 10.383167 1.494324 0.792108 -0.011814 0.004841 -322014.000000 1 0 0
12.168367 6.293503 1.869281 13.826480 0.477314 1.435185 0.002741 -0.000413 -1629030.000000 1 0 0
-6.895333 6.684403 -3.203819 10.123800 -0.769867 1.892796 0.008671 -0.003819 585824.000000 1 0 0
0.982567 9.854003 11.090881 14.868573 1.471412 0.728870 -0.007732 0.000384 -136299.000000 1 0 0
-3.617133 13.544103 -10.978719 17.806141 -1.309824 2.235174 0.006717 -0.002708 64271.900000 1 0 0
-10.033233 -5.536897 -2.234019 11.675352 0.504267 1.763328 0.005100 -0.002406 320722.000000 1 0 0
-3.980533 3.890303 -12.436719 13.625384 -0.773935 2.720789 0.007098 -0.008793 377284.000000 1 0 0
-3.082533 8.359603 2.383181 9.223043 -1.217524 1.309437 -0.003131 0.003321 -1905120.000000 1 0 0
6.963267 8.940403 7.020981 13.330869 0.909083 1.016117 0.002695 0.001685 433002.000000 1 0 0
-1.328333 -2.289297 -8.170219 8.588238 1.045036 2.828309 0.007311 -0.009821 -937554.000000 1 0 0
0.816767 -1.378397 4.905881 5.160887 -1.035874 0.315670 0.000875 0.002422 986032.000000 1 0 0
2.690467 -8.881297 -6.011419 11.056817 -1.276648 2.145617 -0.005937 -0.003446 429985.000000 1 0 0
5.360467 3.906703 8.787181 11.009609 0.629794 0.646599 -0.007655 0.002614 277070.000000 1 0 0
6.192867 -7.528097 -2.766819 10.133071 -0.882406 1.847357 -0.005225 -0.004604 829081.000000 1 0 0
1.874867 2.293503 -8.332919 8.843801 0.885494 2.800031 -0.000225 -0.004806 67311.100000 1 0 0
-5.429033 10.895403 -0.780619 12.198097 -1.108520 1.634835 -0.002703 0.002828 1080880.000000 1 0 0
-5.366433 3.302503 -3.410719 7.165064 -0.551666 2.066921 0.010552 -0.004878 -324508.000000 1 0 0
2.035267 13.783303 -6.270819 15.278904 1.424194 1.993715 0.002767 -0.005173 548734.000000 1 0 0
-5.298833 -2.596397 2.575481 6.438324 0.455611 1.159254 -0.001739 -0.001021 208845.000000 1 0 0
10.284767 -3.393597 -1.801819 10.979047 -0.318715 1.735656 -0.000933 -0.002615 148167.000000 1 0 0
2.286867 -3.309897 7.027381 8.097485 -0.966192 0.519943 -0.003845 0.000730 -1655450.000000 1 0 0
-2.896933 9.926903 -11.704119 15.618003 -1.286855 2.417951 0.001649 0.002530 -2652460.000000 1 0 0
0.569567 -1.990397 9.182281 9.412777 -1.292087 0.221757 -0.000289 -0.002585 953229.000000 1 0 0
9.352567 2.742503 4.965181 10.938229 0.285239 1.099626 -0.000591 -0.000980 -1094420.000000 1 0 0
13.488167 2.115303 -4.983719 14.534187 0.155560 1.920795 0.004415 0.001446 -1067030.000000 1 0 0
-6.439433 3.821303 7.620281 10.683508 -0.535569 0.776636 0.003911 -0.003353 -591917.000000 1 0 0
10.497367 0.109503 1.756381 10.643851 0.010431 1.405024 0.002514 -0.000897 2202820.000000 1 0 0
15.284667 6.805903 -4.586819 17.348783 0.418919 1.838366 0.002497 0.003977 -336712.000000 1 0 0
8.115367 -5.020797 -9.225819 13.273406 -0.554040 2.339300 0.005719 -0.003865 1363900.000000 1 0 0
4.503467 5.551703 -2.241519 7.491797 0.889271 1.874647 -0.003487 0.001603 -105165.000000 1 0 0
-1.588233 -10.443897 1.464581 10.665011 1.419880 1.433035 0.003406 -0.000458 -859077.000000 1 0 0
-2.823733 12.296203 -12.930919 18.065955 -1.345067 2.368511 0.005856 0.000239 -424139.000000 1 0 0
8.420167 4.254403 -9.745719 13.563856 0.467850 2.372449 0.002267 0.002020 -1930000.000000 1 0 0
4.169767 7.645203 -8.939319 12.479884 1.071484 2.369279 0.007479 -0.003759 -1229690.000000 1 0 0
-1.791733 -5.214297 -2.399019 6.012861 1.239817 1.981202 0.008122 -0.003335 378284.000000 1 0 0
-3.209033 -8.964497 7.361881 12.035672 1.227038 0.912624 0.002852 -0.002611 -1413630.000000 1 0 0
1.062867 7.245603 -1.394219 7.454683 1.425144 1.758930 -0.001430 0.000707 787143.000000 1 0 0
0.413167 -0.830897 -2.247819 2.431828 -1.109348 2.750080 0.003359 -0.000647 -307377.000000 1 0 0
4.102067 -6.630297 7.542081 10.847616 -1.016751 0.801993 -0.000778 -0.000770 -646356.000000 1 0 0
-13.961333 3.938703 6.044381 15.715176 -0.274969 1.176000 0.002093 -0.004805 -467808.000000 1 0 0
4.216367 6.474203 12.595081 14.775964 0.993538 0.550232 0.000051 -0.003201 -2838370.000000 1 0 0
8.479767 10.048503 -7.078319 14.932563 0.869864 2.064646 0.019564 -0.010362 125871.000000 1 0 0
12.382167 5.325603 9.329081 16.392433 0.406185 0.965374 0.020579 -0.002441 367031.000000 1 0 0
7.470567 4.255003 0.289881 8.602235 0.517743 1.537092 -0.002176 0.001524 -1208370.000000 1 0 0
-10.815033 -7.625197 -1.004119 13.270902 0.614111 1.646532 0.006498 0.000792 -2453700.000000 1 0 0
10.433767 6.804103 0.179181 12.457584 0.577866 1.556413 0.000183 0.002068 -942205.000000 1 0 0
14.618267 3.642303 4.232181 15.648369 0.244189 1.296931 0.019854 -0.003132 324968.000000 1 0 0
2.209667 5.690603 8.243981 10.258110 1.200416 0.637384 -0.010684 0.003992 465214.000000 1 0 0
4.193067 0.099703 11.712881 12.441195 0.023774 0.343863 -0.003421 -0.003181 -1511020.000000 1 0 0
-1.467233 -1.677497 -0.618419 2.312836 0.852161 1.841475 0.007320 -0.003332 -986189.000000 1 0 0
3.122967 -5.352497 -9.502019 11.344184 -1.042628 2.563692 -0.005618 -0.003813 129349.000000 1 0 0
-4.084633 -5.421697 -1.399019 6.930821 0.925131 1.774048 0.007781 -0.003372 -173722.000000 1 0 0
-1.086533 -8.457897 8.553781 12.078235 1.443032 0.783854 0.000606 -0.003939 -645805.000000 1 0 0
3.973767 8.613303 -5.925219 11.184276 1.138542 2.129139 0.004559 -0.000958 333318.000000 1 0 0
-14.383133 -1.934597 -2.715119 14.764453 0.133702 1.755745 0.003070 -0.004567 -977977.000000 1 0 0
8.853767 -10.723397 -6.562419 15.376793 -0.880610 2.011719 0.006383 -0.009502 478181.000000 1 0 0
14.815467 6.186503 1.637481 16.138532 0.395561 1.469157 0.009587 -0.001767 -558959.000000 1 0 0
-5.751133 0.373603 -8.459519 10.236140 -0.064870 2.543545 0.018384 -0.012087 -185388.000000 1 0 0
-7.934833 -4.594097 -12.823119 15.763873 0.524819 2.520855 0.007939 -0.008742 874673.000000 1 0 0
0.912267 -10.641297 12.115981 16.151360 -1.485277 0.722504 0.007403 -0.012610 -322847.000000 1 0 0
0.232167 11.789403 3.309181 12.247228 1.551106 1.297197 -0.004012 0.000313 694957.000000 1 0 0
5.069467 -13.277097 -3.694819 14.684430 -1.206060 1.825145 0.004406 -0.006693 814608.000000 1 0 0
-7.402233 1.601503 -6.956219 10.283329 -0.213070 2.313736 0.015517 -0.006379 648032.000000 1 0 0
1.503667 2.678403 4.022581 5.061227 1.059240 0.652145 -0.006841 0.002660 -1470810.000000 1 0 0
17.219367 5.548103 1.866781 18.187163 0.311699 1.467972 0.010758 -0.007081 4626.200000 1 0 0
2.482567 -8.207197 -3.468919 9.249574 -1.277060 1.955231 -0.005106 -0.001674 225564.000000 1 0 0
-0.355033 -9.500697 -0.721719 9.534682 1.533445 1.646563 0.006595 -0.000163 -476735.000000 1 0 0
0.717167 11.837903 -5.561519 13.098884 1.510288 2.009294 0.004702 -0.001912 -445886.000000 1 0 0
5.990567 -4.973797 7.794981 11.017589 -0.692929 0.784837 -0.000055 -0.003800 -806347.000000 1 0 0
-5.864133 -1.918497 -9.378319 11.225932 0.316182 2.559685 0.021996 -0.011224 153429.000000 1 0 0
2.119367 -1.331497 11.235881 11.511283 -0.560935 0.219182 -0.004714 -0.002006 -1354850.000000 1 0 0
17.954567 2.178803 -6.018419 19.061349 0.120760 1.892032 0.007714 0.004713 -547932.000000 1 0 0
-8.867633 4.904703 7.734081 12.747825 -0.505221 0.918896 0.007488 -0.006591 -1188180.000000 1 0 0
11.271667 -7.088497 -4.896919 14.187215 -0.561383 1.923210 0.019133 -0.008421 141903.000000 1 0 0
10.778567 0.534503 8.859981 13.962896 0.049549 0.883386 0.008050 -0.005275 -383519.000000 1 0 0
-8.455433 -7.343897 -1.490819 11.298217 0.715161 1.703134 0.007099 -0.002020 -2176280.000000 1 0 0
10.257667 -10.407897 -3.271019 14.974766 -0.792668 1.791007 0.013674 -0.005674 98497.400000 1 0 0
7.567967 -14.135197 -3.870719 16.494253 -1.079232 1.807676 0.011711 -0.005858 -2499240.000000 1 0 0
1.824867 -1.203397 -11.590419 11.794749 -0.582985 2.955184 -0.001086 -0.007043 -68845.000000 1 0 0
-11.888433 -2.736797 -6.308319 13.733892 0.226265 2.048031 0.009325 -0.007155 86978.400000 1 0 0
2.675767 -12.211397 -6.342719 14.018132 -1.355085 2.040324 0.001038 -0.003165 713572.000000 1 0 0
-5.435333 1.374603 1.094381 5.712272 -0.247707 1.378020 0.004936 -0.003891 657689.000000 1 0 0
0.148967 6.771103 -3.956519 7.843728 1.548800 2.099504 0.004200 -0.002604 1213710.000000 1 0 0
5.442567 -11.769897 3.778181 13.506541 -1.137667 1.287284 -0.005514 -0.002148 -3218060.000000 1 0 0
-4.306333 -9.257897 1.186981 10.279207 1.135413 1.455064 0.008635 -0.000878 -1555630.000000 1 0 0
7.166267 -6.271297 -4.637319 10.591944 -0.718894 2.023964 -0.001554 -0.005338 -266335.000000 1 0 0
-7.071133 -6.060197 2.234381 9.577023 0.708563 1.335320 0.003078 -0.000413 -102352.000000 1 0 0
-6.403433 -0.827097 6.961381 9.494676 0.128453 0.747798 0.004937 -0.003305 -1716490.000000 1 0 0
4.216067 -5.080397 3.138681 7.310060 -0.878106 1.127007 -0.001613 -0.000006 167294.000000 1 0 0
-2.448733 10.586103 -8.749019 13.950169 -1.343479 2.248701 0.000896 0.001608 -974748.000000 1 0 0
-2.348733 -4.859997 2.762281 6.063523 1.120615 1.097798 0.003184 0.002064 1433000.000000 1 0 0
15.190967 5.135803 6.329781 17.239724 0.326019 1.194840 0.028697 -0.007601 1190680.000000 1 0 0
6.807767 0.402803 -0.026419 6.819724 0.059099 1.574670 -0.000986 0.000809 4178390.000000 1 0 0
-9.679033 9.131703 0.331281 13.310952 -0.756310 1.545906 0.002046 -0.002371 -1746250.000000 1 0 0
7.193767 10.382303 -2.531519 12.882200 0.964860 1.768597 -0.000060 -0.000607 603814.000000 1 0 0
1.643367 -4.276497 -5.472719 7.137208 -1.203916 2.444617 0.000370 -0.004874 -1142050.000000 1 0 0
0.928867 -8.199397 -7.852019 11.390659 -1.457992 2.331372 -0.002270 -0.002475 1149420.000000 1 0 0
-10.460933 0.201203 -10.390119 14.745378 -0.019231 2.352706 0.014680 -0.011754 -2714320.000000 1 0 0
5.819167 -2.590297 0.507281 6.389810 -0.418798 1.491324 -0.002192 0.001206 361726.000000 1 0 0
-3.301333 5.192203 -1.136719 6.256988 -1.004450 1.753483 0.004982 -0.005032 1109420.000000 1 0 0
-0.311333 4.550003 -5.224219 6.934834 -1.502478 2.423907 0.003426 -0.003713 -877374.000000 1 0 0
4.040467 -9.654397 10.090781 14.538109 -1.174435 0.803639 -0.001914 -0.001079 -2765820.000000 1 0 0
7.263167 -13.552497 -0.808519 15.397320 -1.078821 1.623331 0.007530 -0.008392 669706.000000 1 0 0
12.933167 -0.060797 0.458681 12.941441 -0.004701 1.535346 0.002289 -0.003094 314996.000000 1 0 0
9.259467 2.409903 -0.602419 9.586880 0.254615 1.633676 -0.000684 0.001877 879586.000000 1 0 0
-0.737533 -5.822697 4.426781 7.351472 1.444802 0.924589 -0.001118 0.001546 544996.000000 1 0 0
11.423167 -3.662597 3.261281 12.431384 -0.310273 1.305347 0.008720 -0.004830 -1707810.000000 1 0 0
1.701367 -8.180797 11.840081 14.491639 -1.365748 0.614558 0.001309 -0.006716 317052.000000 1 0 0
9.302067 -5.777797 -6.037719 12.504616 -0.555812 2.074690 0.000168 -0.010373 219893.000000 1 0 0
3.127067 6.268103 -0.143119 7.006293 1.108041 1.591225 -0.008537 0.003807 1432380.000000 1 0 0
6.428567 -1.320397 11.463881 13.209485 -0.202578 0.519933 -0.008447 -0.001634 834804.000000 1 0 0
-4.889833 -7.532497 -3.888019 9.785994 0.995008 1.979374 0.010545 -0.003188 235636.000000 1 0 0
-3.337333 -8.410297 -5.662219 10.673875 1.193039 2.129957 0.009494 -0.001751 -55545.600000 1 0 0
9.715067 5.298003 2.211081 11.284513 0.499258 1.373581 0.000486 -0.001522 -273105.000000 1 0 0
8.781467 -1.382397 0.342781 8.896217 -0.156141 1.532256 -0.001311 -0.000813 1276120.000000 1 0 0
-3.840333 9.683503 9.281281 13.952081 -1.193237 0.843000 -0.003647 -0.001776 497074.000000 1 0 0
-14.438033 -3.688697 -5.996219 16.062937 0.250134 1.953355 0.004492 -0.001978 456796.000000 1 0 0
10.685467 6.269503 -6.095519 13.807288 0.530606 2.028034 -0.004157 -0.000743 -130108.000000 1 0 0
-1.820433 4.652703 2.542981 5.606102 -1.197844 1.099985 -0.002324 0.002152 305116.000000 1 0 0
6.892667 -3.766097 2.633481 8.284175 -0.500069 1.247290 0.001641 -0.001122 -1869490.000000 1 0 0
8.305767 -11.136397 -1.598819 13.984324 -0.929975 1.685376 0.006017 -0.006681 -836764.000000 1 0 0
4.489967 0.481803 1.734781 4.837499 0.106898 1.204017 -0.002121 0.003270 380735.000000 1 0 0
-10.770733 2.285103 3.765881 11.636677 -0.209059 1.241242 0.002447 -0.006201 427913.000000 1 0 0
-0.863833 -3.074197 4.489381 5.509214 1.296865 0.618264 0.002478 0.001448 676333.000000 1 0 0
8.539667 -8.774597 -8.494619 14.902282 -0.798966 2.177328 0.015267 -0.007220 -296927.000000 1 0 0
12.075467 -4.805897 0.936881 13.030399 -0.378771 1.498835 0.006492 -0.005933 149142.000000 1 0 0
2.895667 4.814103 3.580381 6.661802 1.029277 1.003387 -0.010266 0.004150 -1034500.000000 1 0 0
6.074967 7.580703 2.013981 9.921109 0.895219 1.366376 -0.004419 0.002288 -32253.900000 1 0 0
-1.647733 -1.459197 -10.291119 10.523849 0.724790 2.930896 0.010626 -0.009548 809484.000000 1 0 0
-1.021633 -8.677697 5.983381 10.589949 1.453605 0.970356 -0.002208 -0.002591 541863.000000 1 0 0
-4.244133 -0.275497 2.248081 4.810659 0.064821 1.084548 0.002966 -0.001835 465469.000000 1 0 0
-8.443733 6.272203 -7.908019 13.159556 -0.638892 2.215465 0.005109 -0.002470 -302156.000000 1 0 0
6.567267 11.141403 -9.447119 16.015864 1.038173 2.201682 0.017447 -0.010647 120352.000000 1 0 0
-11.057933 -5.795597 3.095381 12.862668 0.482751 1.327762 0.001531 0.000642 1421730.000000 1 0 0
1.662067 -6.545297 3.121981 7.439768 -1.322119 1.137754 -0.005715 0.002227 619716.000000 1 0 0
10.082767 2.246003 7.179381 12.579755 0.219178 0.963427 0.005864 -0.000727 -2211500.000000 1 0 0
-3.999733 -2.635497 -10.684819 11.709358 0.582619 2.720157 0.011756 -0.010101 -2226120.000000 1 0 0
-8.238533 11.768403 5.853181 15.512204 -0.960033 1.183888 -0.000633 -0.008135 -697534.000000 1 0 0
6.907667 5.897903 -3.015719 9.570563 0.706708 1.891362 -0.001611 0.002730 -3016360.000000 1 0 0
3.950367 -9.986297 -2.374719 10.998673 -1.194107 1.788420 -0.006666 -0.004143 -365177.000000 1 0 0
8.375867 -13.093597 -7.334019 17.186776 -1.001702 2.011664 0.016034 -0.005828 252223.000000 1 0 0
-1.351433 9.594803 3.663181 10.358837 -1.430866 1.209349 -0.010945 0.003558 -69989.600000 1 0 0
0.505367 -13.193597 4.844281 14.063906 -1.532511 1.219146 0.008716 -0.006297 -1084150.000000 1 0 0
-11.057233 -7.059097 -5.162219 14.097580 0.568188 1.945694 0.011080 -0.006668 485497.000000 1 0 0
3.596167 10.230703 -3.379619 11.358764 1.232779 1.872905 0.004566 -0.002371 -558747.000000 1 0 0
11.580767 -8.057697 -7.435519 15.947651 -0.607890 2.055838 0.030045 -0.009581 435413.000000 1 0 0
11.829867 -4.862897 -5.910619 14.090029 -0.390012 2.003679 0.009157 -0.006437 1150760.000000 1 0 0
1.306267 -10.371497 -2.711419 10.799355 -1.445508 1.824584 -0.004606 0.000291 -1347510.000000 1 0 0
2.359367 -12.109497 -3.921119 12.945335 -1.378371 1.878529 0.002258 -0.002517 -600821.000000 1 0 0
-7.628533 -5.648297 7.317181 11.984946 0.637340 0.914065 0.007384 -0.000636 -3498730.000000 1 0 0
-7.233033 -0.870097 9.429281 11.915754 0.119720 0.657817 0.005148 -0.001901 912413.000000 1 0 0
16.099567 2.587903 -7.518219 17.955971 0.159380 2.002813 -0.002695 0.004471 -1179950.000000 1 0 0
-2.064533 6.267603 -5.518819 8.602471 -1.252592 2.267299 0.003488 -0.001251 997103.000000 1 0 0
7.579467 1.287503 8.427281 11.407237 0.168261 0.739558 -0.000300 -0.003116 -571401.000000 1 0 0
7.950767 8.233403 -3.744819 12.042727 0.802860 1.887000 0.001206 0.001859 108367.000000 1 0 0
8.004367 0.616303 3.860481 8.908032 0.076844 1.122567 -0.002647 0.000088 321117.000000 1 0 0
-7.021233 5.808903 5.310081 10.546944 -0.691187 1.043185 0.007547 -0.006128 194502.000000 1 0 0
-5.999933 -2.080397 -4.600619 7.841744 0.333765 2.197753 0.019383 -0.010187 -794958.000000 1 0 0
-15.102133 -2.142897 3.133481 15.571934 0.140953 1.368187 0.003990 -0.007748 -541684.000000 1 0 0
1.101367 1.260903 -10.476319 10.609248 0.852831 2.983126 0.003118 -0.008625 680377.000000 1 0 0
1.502867 -9.252497 9.504881 13.349535 -1.409774 0.778453 0.000362 -0.007022 -600446.000000 1 0 0
-0.099933 -6.793197 -1.151519 6.890828 1.556087 1.738693 0.003266 0.000879 701758.000000 1 0 0
-0.484033 -10.218897 -8.453019 13.270783 1.523465 2.261351 -0.000484 0.000301 103442.000000 1 0 0
-4.370033 6.562503 3.768881 8.738885 -0.983318 1.124888 -0.000013 0.001604 59156.000000 1 0 0
10.853867 -1.212797 -8.614419 13.909907 -0.111277 2.238648 0.009036 -0.001098 383548.000000 1 0 0
3.112467 -1.072897 6.163781 6.987901 -0.331954 0.490569 -0.003345 0.002935 306097.000000 1 0 0
1.829967 -12.208897 7.015481 14.199399 -1.422016 1.054033 0.006034 -0.007324 -352486.000000 1 0 0
2.836767 -5.101797 -1.359219 5.993584 -1.063333 1.799566 0.002753 0.001316 -1568430.000000 1 0 0
-0.996833 9.605703 -1.697019 9.805258 -1.467391 1.744745 -0.000180 -0.000526 559399.000000 1 0 0
4.496567 -2.578297 2.565381 5.783417 -0.520625 1.111212 0.000231 0.001900 -1287120.000000 1 0 0
17.750967 6.698303 -2.586419 19.148202 0.360828 1.706284 0.012542 0.006962 827588.000000 1 0 0
-7.154133 3.443203 -5.396919 9.600209 -0.448567 2.167800 0.011468 -0.005351 1298420.000000 1 0 0
-13.815633 -6.081197 2.405481 15.285255 0.414647 1.412767 0.001720 -0.004241 1266870.000000 1 0 0
6.690967 -6.124597 3.282381 9.646437 -0.741233 1.223594 -0.000454 -0.002706 244719.000000 1 0 0
-4.611833 1.910403 3.540581 6.119997 -0.392721 0.953875 0.004387 -0.004010 406186.000000 1 0 0
6.936967 -12.223497 -5.425119 15.065434 -1.054609 1.939175 0.008140 -0.007000 -526618.000000 1 0 0
2.922567 -12.269597 3.371781 13.055777 -1.336958 1.309576 0.005381 -0.004443 -661897.000000 1 0 0
3.253067 11.351303 -6.120419 13.300152 1.291696 2.048990 0.003973 -0.000904 -516206.000000 1 0 0
-5.527833 -8.282897 6.409981 11.842769 0.982301 0.998865 0.004691 -0.001468 43876.800000 1 0 0
-3.948533 6.508603 6.312081 9.889145 -1.025491 0.878530 0.001587 0.002095 597999.000000 1 0 0
4.387267 4.347803 -7.024719 9.354046 0.780880 2.420344 -0.000549 0.001111 -1443170.000000 1 0 0
-0.343833 -2.845197 1.560981 3.263438 1.450533 1.072051 0.003453 0.000964 -1221950.000000 1 0 0
-13.268933 -0.886097 6.576081 14.835586 0.066681 1.111560 0.005833 -0.002804 -703909.000000 1 0 0
-0.471733 -9.360197 -5.957119 11.105093 1.520441 2.136999 0.001346 -0.001884 419074.000000 1 0 0
2.068367 -1.671197 -3.984719 4.790514 -0.679587 2.553127 -0.000628 -0.000337 -1122720.000000 1 0 0
11.318467 -1.933597 1.103081 11.535305 -0.169202 1.475023 0.004118 -0.004562 1168190.000000 1 0 0
0.441167 -4.207797 -1.859919 4.621632 -1.466333 1.984974 0.005009 -0.001346 -1744890.000000 1 0 0
1.075567 -7.442397 -11.111819 13.417102 -1.427271 2.546655 -0.004474 0.000678 30240.600000 1 0 0
-4.326633 3.996903 -9.998619 11.604627 -0.745805 2.609222 0.007620 -0.005706 30107.300000 1 0 0
-0.993933 5.758603 -2.050719 6.193130 -1.399881 1.908295 0.003757 -0.001420 -1327270.000000 1 0 0
-11.492233 1.578903 -3.906519 12.240313 -0.136534 1.895631 0.005628 -0.002012 311088.000000 1 0 0
-1.702733 -11.308397 4.136281 12.160920 1.421347 1.223742 0.010602 -0.003668 -40813.000000 1 0 0
-3.516433 -5.259597 -9.455319 11.376806 0.981474 2.551888 0.008280 0.000556 -702307.000000 1 0 0
-12.966733 -3.777697 -8.291619 15.847969 0.283491 2.121395 0.012539 -0.005916 -26724.000000 1 0 0
11.413667 4.413003 0.519981 12.248133 0.368938 1.528330 0.004076 0.001437 175565.000000 1 0 0
-8.873633 -2.397697 -3.057919 9.687166 0.263903 1.891956 0.011955 -0.005658 158331.000000 1 0 0
-2.376333 -6.008897 -6.335119 9.049173 1.194202 2.346302 0.006828 -0.005205 -1298240.000000 1 0 0
-0.010333 2.628903 -1.890919 3.238335 -1.566866 2.194342 0.002821 -0.001903 126349.000000 1 0 0
8.113167 6.038403 -5.272219 11.405353 0.639825 2.051337 0.000833 0.002130 -1080760.000000 1 0 0
-9.783833 -0.954297 -0.957319 9.876768 0.097231 1.667875 0.007687 -0.004346 -563621.000000 1 0 0
6.132467 0.516203 -8.869919 10.795790 0.083977 2.535024 -0.000656 -0.000418 450215.000000 1 0 0
-4.177833 2.479803 7.868181 9.247269 -0.535672 0.553166 0.002353 0.001102 -2697580.000000 1 0 0
-10.194033 -3.421497 1.397981 10.843399 0.323823 1.441512 0.001638 -0.001713 2426420.000000 1 0 0
-1.790233 -8.069497 -7.818419 11.377583 1.352480 2.328393 0.005684 -0.004099 462282.000000 1 0 0
-9.419833 -9.802697 4.241181 14.241269 0.805313 1.268399 0.004836 -0.000470 -278606.000000 1 0 0
-1.080733 -10.708197 7.523981 13.131784 1.470211 0.960684 0.005589 -0.010336 -113429.000000 1 0 0
9.462567 3.725803 -3.744419 10.837087 0.375099 1.923588 -0.004914 0.003172 -830858.000000 1 0 0
12.761767 -0.539297 3.024081 13.126256 -0.042234 1.338324 0.007131 -0.005171 -522855.000000 1 0 0
6.693967 11.849603 -6.841919 15.232667 1.056578 2.036622 0.012481 -0.007947 163169.000000 1 0 0
-11.997133 -0.235697 -6.514319 13.653685 0.019644 2.068160 0.008406 -0.002189 614437.000000 1 0 0
-7.738833 -6.659697 -11.237319 15.182834 0.710590 2.404065 0.013588 -0.007968 -1736160.000000 1 0 0
4.054067 6.115103 6.552681 9.837051 0.985365 0.841798 -0.009317 0.003152 -3921760.000000 1 0 0
-4.135333 -1.412897 -7.348619 8.549822 0.329230 2.605098 0.016850 -0.013759 -564567.000000 1 0 0
9.604967 9.244503 0.875781 13.359761 0.766277 1.505196 0.003367 0.000928 -663271.000000 1 0 0
-8.917733 3.893303 4.885981 10.888369 -0.411638 1.105448 0.007498 -0.008278 861055.000000 1 0 0
-6.908233 7.907203 -12.140419 16.051085 -0.852724 2.428529 0.003324 -0.005928 -1442500.000000 1 0 0
11.202067 -3.563397 7.253881 13.813142 -0.307980 1.017913 0.012013 -0.007132 4123.530000 1 0 0
11.816467 6.999103 6.406681 15.154600 0.534752 1.134313 0.012608 -0.003900 -208517.000000 1 0 0
-9.793733 -0.810697 -14.701819 17.683832 0.082589 2.552366 0.007852 -0.009421 273139.000000 1 0 0
1.729167 -12.944497 11.998781 17.734733 -1.437999 0.827702 0.013086 -0.013467 20115.600000 1 0 0
2.956567 2.987803 13.077881 13.736784 0.790653 0.310981 -0.005552 -0.001766 -1383290.000000 1 0 0
-2.569433 -1.370597 11.019081 11.397398 0.490028 0.258374 0.006439 -0.003648 -284599.000000 1 0 0
2.544167 -10.150397 -8.254719 13.328305 -1.325209 2.238695 -0.007014 0.000359 -1177790.000000 1 0 0
14.010567 3.670803 -7.439719 16.282512 0.256243 2.045320 0.004241 0.000576 -3044200.000000 1 0 0
7.429667 -1.605297 4.968381 9.080844 -0.212795 0.991867 -0.000019 0.000651 71153.200000 1 0 0
-1.189233 8.738903 10.109481 13.415823 -1.435542 0.717352 -0.003837 0.001062 -237918.000000 1 0 0
-12.372533 -4.620897 1.037681 13.247983 0.357438 1.492389 -0.001869 0.000021 519616.000000 1 0 0
-4.842433 4.840203 -5.308019 8.663244 -0.785168 2.230276 0.010441 -0.005595 -490069.000000 1 0 0
-11.264033 0.342803 1.880481 11.425068 -0.030424 1.405451 0.003186 -0.003109 -1393410.000000 1 0 0
-1.168033 2.204903 -4.192919 4.879187 -1.083638 2.604789 0.007119 -0.005705 763320.000000 1 0 0
3.173467 -9.806897 13.255981 16.791878 -1.257835 0.660919 0.006670 -0.005227 -2171650.000000 1 0 0
8.933867 4.670603 -1.468919 10.187553 0.481719 1.715488 -0.003023 0.000747 -2102740.000000 1 0 0
4.061467 2.253603 3.775081 5.985439 0.506578 0.888327 -0.010441 0.006329 -235932.000000 1 0 0
-5.384433 -3.178997 7.486081 9.753951 0.533335 0.695876 0.004802 -0.003115 6167.180000 1 0 0
1.751967 -5.805097 7.725681 9.821135 -1.277691 0.665451 -0.004308 -0.001252 -1312950.000000 1 0 0
-5.865533 -6.160697 -9.666419 12.876270 0.809937 2.419941 0.012807 -0.003679 -579526.000000 1 0 0
-11.683233 -5.844897 5.588581 14.208906 0.463872 1.166561 0.006805 -0.002683 -441517.000000 1 0 0
10.470367 6.271203 4.482181 13.001789 0.539645 1.218839 0.005038 -0.000395 63023.200000 1 0 0
1.473567 -3.711497 0.423581 4.015723 -1.192855 1.465119 0.008044 -0.000415 -365033.000000 1 0 0
8.729267 4.390603 6.932281 11.980568 0.466025 0.953752 0.000426 0.001526 76193.100000 1 0 0
-7.781033 12.147803 3.397481 14.820812 -1.001107 1.339502 -0.003985 -0.001638 -131345.000000 1 0 0
-6.198633 13.241803 -7.054419 16.233707 -1.132984 2.020339 0.014633 -0.004245 110752.000000 1 0 0
4.420967 -7.060397 -0.977119 8.387426 -1.011360 1.687560 -0.003010 -0.001726 -1400650.000000 1 0 0
-1.879433 -8.091597 11.083881 13.851304 1.342573 0.643160 -0.000496 -0.011433 -347328.000000 1 0 0
11.580467 8.888703 -5.759419 15.693539 0.654645 1.946571 0.003300 -0.001274 322922.000000 1 0 0
-3.386633 -3.008897 -1.899019 4.912130 0.726404 1.967736 0.010026 -0.004836 -1304690.000000 1 0 0
-2.006433 6.033603 4.678481 7.894196 -1.249757 0.936454 -0.005247 0.003433 -1691450.000000 1 0 0
0.252967 -11.568297 -5.668119 12.884761 -1.548933 2.026293 -0.003918 -0.006888 -319409.000000 1 0 0
-8.883633 6.181403 -1.531119 10.930371 -0.607915 1.711338 0.007116 -0.000467 -81783.900000 1 0 0
2.843667 -0.047097 3.849481 4.786143 -0.016561 0.636305 -0.003559 0.004347 923756.000000 1 0 0
-10.143033 3.960103 -1.051619 10.939353 -0.372226 1.667077 0.007594 -0.002050 -55884.400000 1 0 0
6.480667 5.552903 13.565481 16.026729 0.708452 0.561554 0.009751 -0.005363 368024.000000 1 0 0
-8.880133 -1.582397 5.713781 10.677455 0.176344 1.006140 0.000470 -0.003084 -377961.000000 1 0 0
12.909067 -1.813797 -1.505719 13.122540 -0.139592 1.685793 0.007051 -0.004715 -1903860.000000 1 0 0
5.327767 -5.572797 5.415981 9.421996 -0.807873 0.958408 -0.002650 -0.002100 253079.000000 1 0 0
-9.099533 -1.224497 3.125881 9.699074 0.133763 1.242652 0.001707 -0.003312 903278.000000 1 0 0
1.912567 5.450903 5.603781 8.048144 1.233345 0.800591 -0.007327 0.003300 -893294.000000 1 0 0
9.252367 3.106703 -7.481319 12.297480 0.323945 2.224791 -0.003216 0.001257 -742844.000000 1 0 0
2.343467 -2.466097 -1.511619 3.722695 -0.810890 1.988929 0.000508 0.000388 -76007.000000 1 0 0
-6.273633 0.338003 -4.025119 7.461521 -0.053825 2.140580 0.011569 -0.004894 -1582260.000000 1 0 0
-3.940333 4.185103 4.925281 7.569657 -0.815513 0.862342 0.001638 0.000132 922802.000000 1 0 0
-6.409033 1.773103 -12.176819 13.874239 -0.269906 2.641747 0.010066 -0.007186 -1608970.000000 1 0 0
0.146067 3.155803 6.226981 6.982530 1.524544 0.469500 -0.005227 0.001950 678248.000000 1 0 0
-8.637733 9.469503 -2.146219 12.995699 -0.831302 1.736705 -0.000511 0.002640 1263210.000000 1 0 0
-1.273933 -3.684797 -6.113019 7.250492 1.237933 2.573852 0.005238 -0.003999 566624.000000 1 0 0
-3.245433 6.962303 -2.940719 8.225225 -1.134599 1.936412 0.004259 0.000091 586019.000000 1 0 0
7.031367 -0.431397 -4.315719 8.261456 -0.061276 2.120450 -0.003477 0.002729 -241367.000000 1 0 0
-5.092233 -10.778697 6.978681 13.813513 1.129443 1.041175 -0.000336 -0.007816 587488.000000 1 0 0
9.781467 8.341303 -1.522219 12.944944 0.706098 1.688661 0.001618 0.001784 437418.000000 1 0 0
13.733867 4.663203 -4.232919 15.109009 0.327327 1.854756 -0.002585 0.002532 700848.000000 1 0 0
4.820467 1.072303 -6.742819 8.357771 0.218884 2.509465 -0.007189 -0.000114 -815925.000000 1 0 0
8.980067 -4.774697 3.512981 10.760128 -0.488684 1.238218 0.003487 -0.003212 -1475630.000000 1 0 0
-8.723533 -3.391797 -0.753119 9.389969 0.370823 1.651087 0.005186 -0.001670 -5472.380000 1 0 0
-8.543233 -4.268697 -10.342619 14.077584 0.463374 2.396002 0.013999 -0.009480 -165070.000000 1 0 0
10.491367 -1.091397 10.644881 14.985774 -0.103655 0.780826 0.008563 -0.004089 324569.000000 1 0 0
2.249667 -11.608697 9.950681 15.454414 -1.379378 0.871247 0.004634 -0.012184 365380.000000 1 0 0
-6.284433 -10.620197 2.056481 12.510468 1.036470 1.405666 0.007209 0.001232 -635247.000000 1 0 0
-3.788233 -1.092297 6.741781 7.809958 0.280725 0.529165 0.007523 0.000434 -211055.000000 1 0 0
4.707167 -7.582097 3.891081 9.735817 -1.015204 1.159643 -0.005173 0.000628 79332.200000 1 0 0
11.334967 -9.484097 -5.400719 15.735226 -0.696729 1.921144 0.022949 -0.009846 549221.000000 1 0 0
11.389467 1.216003 11.367881 16.137761 0.106363 0.789180 0.007975 -0.003902 116180.000000 1 0 0
-10.185033 -3.480897 4.323481 11.599312 0.329321 1.188841 0.006643 -0.000768 1275120.000000 1 0 0
2.029767 8.749303 8.963381 12.689068 1.342837 0.786417 -0.009069 0.002898 -423033.000000 1 0 0
6.569567 8.868203 4.140281 11.787543 0.933209 1.211899 -0.000710 0.000720 2089440.000000 1 0 0
-4.236433 3.436403 0.333981 5.465142 -0.681506 1.509647 0.006324 -0.005402 39878.300000 1 0 0
4.858467 6.961403 4.240081 9.489158 0.961471 1.107573 -0.006414 0.001954 -1414170.000000 1 0 0
-8.254033 12.955503 0.971381 15.392131 -1.003539 1.507645 -0.004290 0.001240 -486502.000000 1 0 0
8.926367 8.116903 -9.148719 15.141440 0.737939 2.219579 0.005677 -0.008794 -872473.000000 1 0 0
7.055167 1.954903 5.996681 9.463467 0.270307 0.884513 -0.006944 0.003139 -813025.000000 1 0 0
11.616567 -6.201497 3.042481 13.515172 -0.490359 1.343734 0.009156 -0.005567 -81075.600000 1 0 0
11.382567 4.717003 -2.131419 12.504235 0.392863 1.742089 -0.002393 0.002456 249942.000000 1 0 0
-3.893933 14.250003 -6.137019 15.996509 -1.304050 1.964539 0.006264 0.001553 -167491.000000 1 0 0
7.246767 -2.996497 6.986181 10.502445 -0.392085 0.843040 0.001063 -0.005058 -910748.000000 1 0 0
-7.950933 -0.440097 0.801181 8.003307 0.055295 1.470522 0.007965 -0.003266 223166.000000 1 0 0
-3.276633 1.098403 10.820381 11.358850 -0.323450 0.309142 0.005673 -0.000188 -1034.560000 1 0 0
7.100067 -1.294597 -1.916619 7.467286 -0.180355 1.830370 0.000530 -0.000072 -1964990.000000 1 0 0
-7.745733 5.249903 2.897681 9.795633 -0.595657 1.270489 0.007926 -0.003854 940504.000000 1 0 0
9.492867 -2.165497 2.869881 10.150868 -0.224281 1.284165 0.001531 -0.002595 -1579480.000000 1 0 0
0.272467 3.489103 1.542581 3.824609 1.492864 1.155643 -0.004341 0.002509 -3099880.000000 1 0 0
-7.552933 -3.026397 4.069881 9.097792 0.381102 1.106998 0.000065 -0.000625 -157879.000000 1 0 0
-2.216533 8.393303 -6.762819 11.004375 -1.312607 2.232621 0.000059 -0.001777 -421294.000000 1 0 0
4.396067 9.773303 7.415181 13.031798 1.148106 0.965499 -0.004072 0.001251 132595.000000 1 0 0
-11.838133 -3.111997 6.839781 14.021716 0.257063 1.061230 0.011088 -0.003033 -2289720.000000 1 0 0
-4.787733 2.305803 -5.644319 7.752255 -0.448825 2.386324 0.014640 -0.009831 -579676.000000 1 0 0
-2.676033 2.839003 -1.978919 4.374610 -0.814940 2.040211 0.008187 -0.003498 1230890.000000 1 0 0
2.517667 5.105003 11.426981 12.766190 1.112623 0.462147 -0.005877 -0.001165 577179.000000 1 0 0
-0.662133 1.674603 4.517681 4.863349 -1.194264 0.379300 0.000397 0.000375 -27509.700000 1 0 0
5.053167 1.605503 7.577881 9.248590 0.307635 0.610511 -0.007141 0.003856 1000350.000000 1 0 0
3.362067 -8.387697 1.820381 9.217958 -1.189572 1.372008 -0.003008 -0.001259 1713630.000000 1 0 0
5.147467 6.457003 -4.742819 9.522795 0.897770 2.092144 0.000551 0.000349 -2676360.000000 1 0 0
-3.920233 2.869903 -7.948119 9.315426 -0.631930 2.592927 0.017216 -0.010349 472873.000000 1 0 0
-8.774733 -2.183697 -12.777719 15.653580 0.243907 2.525739 0.015004 -0.011786 277742.000000 1 0 0
-7.825833 8.043403 1.279081 11.294957 -0.799107 1.457309 0.002801 -0.001381 -799474.000000 1 0 0
7.527167 0.752603 -6.503419 9.975926 0.099654 2.280899 -0.004103 0.001284 1364360.000000 1 0 0
9.007967 8.865203 5.550781 13.803857 0.777411 1.156967 0.001792 0.001453 112806.000000 1 0 0
9.376267 -1.017097 -1.437719 9.540225 -0.108053 1.722073 -0.001276 -0.002160 -675435.000000 1 0 0
5.436967 0.082003 4.281081 6.920620 0.015081 0.903839 -0.006135 0.005251 -1020750.000000 1 0 0
-4.234033 -7.199297 -7.884819 11.485960 1.039160 2.327426 0.013475 -0.007754 662664.000000 1 0 0
-2.067833 7.459703 -0.578919 7.762619 -1.300385 1.645443 0.001124 0.000677 342279.000000 1 0 0
13.466667 -3.380697 -7.491819 15.776805 -0.245959 2.065605 0.018071 -0.004908 869225.000000 1 0 0
-4.752433 -5.104197 1.635081 7.163235 0.821071 1.340506 0.004777 -0.000015 1840950.000000 1 0 0
-8.892933 1.213003 2.409181 9.292997 -0.135564 1.308554 0.005094 -0.004935 -1571520.000000 1 0 0
-1.089033 11.225503 10.118881 15.152217 -1.474085 0.839527 -0.007354 -0.001646 248639.000000 1 0 0
-8.613433 0.296703 7.571781 11.472190 -0.034433 0.849962 0.000647 -0.003276 -1111620.000000 1 0 0
-5.973733 12.876203 -2.267819 14.374460 -1.136414 1.729225 -0.003493 0.002089 710887.000000 1 0 0
-13.012033 -0.778497 3.331781 13.454361 0.059758 1.320557 0.002631 -0.004877 559303.000000 1 0 0
-6.695433 12.735303 8.641881 16.783888 -1.086771 1.029915 0.002943 -0.010567 48599.500000 1 0 0
-8.073333 0.998703 -14.019519 16.208733 -0.123079 2.615819 0.014867 -0.012054 -1022640.000000 1 0 0
7.264967 2.923403 3.726481 8.672525 0.382571 1.126649 -0.006157 0.003912 -930532.000000 1 0 0
-1.621833 0.626303 -2.100219 2.726448 -0.368527 2.450129 0.006735 -0.004877 976898.000000 1 0 0
-6.211433 9.720003 -10.381319 15.518767 -1.002167 2.303595 0.006204 -0.003270 -349676.000000 1 0 0
-10.031933 13.694403 5.211881 17.757817 -0.938552 1.272913 -0.006868 -0.006652 782028.000000 1 0 0
-5.648633 8.318703 2.421381 10.342677 -0.974285 1.334488 -0.001177 0.000173 -1048870.000000 1 0 0
-2.471333 -10.793697 -1.193319 11.137118 1.345715 1.678150 0.006201 -0.000996 21369.000000 1 0 0
-2.318333 -12.321297 8.875281 15.360978 1.384814 0.954789 0.005602 -0.013665 526268.000000 1 0 0
-14.615033 -6.573097 -1.543319 16.099274 0.422645 1.666806 0.005088 -0.002294 572094.000000 1 0 0
-2.702633 -9.464997 3.352781 10.398631 1.292658 1.242506 0.003718 -0.001132 -1324550.000000 1 0 0
4.686167 -2.683097 7.426081 9.181822 -0.519996 0.628720 -0.002113 0.001136 -86439.900000 1 0 0
-15.096433 -1.386497 -0.296219 15.162863 0.091586 1.590333 0.001938 -0.007043 312723.000000 1 0 0
5.523467 8.722603 -2.892319 10.721847 1.006296 1.843939 -0.000645 0.001379 -1267210.000000 1 0 0
-5.631333 -5.710897 8.529681 11.708190 0.792413 0.754634 0.004504 -0.005096 -2865400.000000 1 0 0
3.432567 3.609103 7.059081 8.639373 0.810463 0.614464 -0.008825 0.003661 -56104.300000 1 0 0
3.373167 2.256403 9.386881 10.226590 0.589566 0.408067 -0.003095 -0.000803 -371276.000000 1 0 0
9.929667 -3.151597 5.177781 11.633583 -0.307335 1.109542 0.009876 -0.003252 -626845.000000 1 0 0
6.580167 9.970003 -5.109719 12.992643 0.987426 1.974990 0.004089 -0.003016 422851.000000 1 0 0
-4.431733 12.130603 -8.470519 15.444788 -1.220526 2.151292 0.004304 -0.001796 -83415.700000 1 0 0
-3.345733 -7.234797 2.273781 8.288926 1.137637 1.292918 0.004411 -0.002041 1029000.000000 1 0 0
-7.477233 -4.083697 1.182381 8.601373 0.499883 1.432895 0.001952 -0.000664 1556760.000000 1 0 0
-1.843333 -4.046897 -10.893619 11.766316 1.143384 2.754025 0.009640 -0.004928 -1348550.000000 1 0 0
-5.206833 8.118003 -4.437819 10.616370 -1.000495 2.002057 0.005953 -0.002458 -1399160.000000 1 0 0
-10.969133 -3.260797 -10.130419 15.283326 0.288951 2.295403 0.017289 -0.008813 531658.000000 1 0 0
4.633367 -11.396797 -7.620319 14.471500 -1.184656 2.125362 0.004369 -0.008264 -1548950.000000 1 0 0
-9.319433 -3.870197 7.301481 12.455597 0.393611 0.944435 0.004621 0.000299 -169320.000000 1 0 0
-5.641233 -9.682297 -5.148519 12.331976 1.043244 2.001481 0.009475 -0.006786 -554707.000000 1 0 0
4.756467 4.471803 -9.588619 11.600112 0.754561 2.543830 0.001727 0.000258 280699.000000 1 0 0
-3.402533 -7.133797 -14.084919 16.150951 1.125750 2.630233 0.003381 0.000300 350484.000000 1 0 0
0.679967 -0.868897 -8.877519 8.945819 -0.906778 3.017943 0.001586 -0.010232 521798.000000 1 0 0
-7.718033 2.107703 -2.905319 8.511835 -0.266588 1.919125 0.013547 -0.006028 -384674.000000 1 0 0
-2.327733 7.531303 -12.574219 14.840817 -1.271035 2.581626 0.000475 -0.001619 -97076.700000 1 0 0
-9.771133 8.904803 7.540281 15.219277 -0.739044 1.052452 0.006776 -0.011503 -485111.000000 1 0 0
-10.637533 -3.116197 -14.307619 18.099054 0.284970 2.482450 0.016983 -0.003671 -502249.000000 1 0 0
-3.195733 4.739103 7.840881 9.703156 -0.977505 0.629919 -0.000105 0.000173 28521.100000 1 0 0
8.742567 -2.342597 -3.601219 9.741099 -0.261803 1.949475 -0.002443 0.000392 -5039360.000000 1 0 0
1.996467 -8.562597 -1.127919 8.864319 -1.341728 1.698385 -0.001564 0.000782 -932998.000000 1 0 0
-13.628333 -2.913297 5.089681 14.836564 0.210598 1.220634 0.012141 -0.009422 293596.000000 1 0 0
7.081667 2.780903 -2.003719 7.867548 0.374189 1.828315 -0.005100 0.001376 716979.000000 1 0 0
-10.989133 4.435103 8.800681 14.760867 -0.383597 0.932015 0.003967 -0.005220 -3000300.000000 1 0 0
-1.843433 -2.503097 7.968681 8.553574 0.936017 0.371951 0.000697 -0.003104 -693323.000000 1 0 0
3.093767 11.878703 -9.826419 15.723660 1.316010 2.245857 0.008689 -0.009942 819881.000000 1 0 0
3.651667 -5.087797 -7.087719 9.458124 -0.948270 2.417920 -0.007197 -0.005785 242847.000000 1 0 0
8.161867 -13.765597 -9.795019 18.762999 -1.035601 2.120036 0.025648 -0.009855 357448.000000 1 0 0
-6.353933 -5.809397 -0.340119 8.616104 0.740659 1.610281 0.006760 -0.001514 -706066.000000 1 0 0
-1.123233 -3.927897 9.885081 10.696021 1.292267 0.391905 -0.001719 -0.003157 1493650.000000 1 0 0
2.833767 3.332903 1.813681 4.735812 0.866163 1.177785 -0.011514 0.006123 -371185.000000 1 0 0
-9.129233 13.259203 7.714881 17.851296 -0.967816 1.123893 0.001206 -0.019966 583614.000000 1 0 0
4.017667 -11.245197 -0.049719 11.941464 -1.227652 1.574960 -0.001945 -0.003190 -67837.200000 1 0 0
-12.606033 -1.449697 -9.126319 15.630208 0.114497 2.194308 0.015829 -0.004808 18348.800000 1 0 0
-4.297333 0.909103 -13.533719 14.228671 -0.208477 2.827763 0.007914 -0.006897 496671.000000 1 0 0
3.978467 -3.188297 4.898881 7.070535 -0.675587 0.805350 -0.002281 0.004998 218888.000000 1 0 0
1.687567 -1.234197 1.080281 2.353323 -0.631456 1.093876 0.001567 0.002037 251556.000000 1 0 0
8.124667 -8.986597 7.403581 14.197963 -0.835728 1.022243 0.008512 -0.002664 -1426740.000000 1 0 0
-0.017833 2.314503 -6.495919 6.895956 -1.563091 2.799306 0.003083 -0.007441 607468.000000 1 0 0
-3.848833 -9.833397 -3.326719 11.071417 1.197722 1.875990 0.008647 -0.002146 1160640.000000 1 0 0
-9.570033 2.187703 -5.608319 11.305964 -0.224738 2.089840 0.010033 -0.003264 -464890.000000 1 0 0
8.884367 -7.651197 5.221881 12.835140 -0.710959 1.151801 0.006754 -0.004597 1467550.000000 1 0 0
-5.479933 -4.228897 4.659181 8.343932 0.657249 0.978351 0.003032 -0.000857 -389935.000000 1 0 0
-0.198733 -12.373797 10.423981 16.180536 1.554737 0.870781 0.010258 -0.012690 -2248640.000000 1 0 0
-14.256633 -8.295397 3.180381 16.798215 0.526976 1.380318 0.009664 -0.007095 -1414540.000000 1 0 0
10.879867 -1.411197 -3.624219 11.554131 -0.128987 1.889855 0.004499 -0.000644 -946751.000000 1 0 0
-13.725333 2.966803 2.761981 14.311367 -0.212880 1.376586 0.005694 -0.003531 -1061300.000000 1 0 0
-6.235633 6.096803 1.096381 8.789550 -0.774141 1.445734 0.005912 -0.001547 498016.000000 1 0 0
7.135167 -7.014897 -0.390819 10.013597 -0.776899 1.609835 -0.001666 -0.003447 233624.000000 1 0 0
-6.885333 7.856803 10.001581 14.462669 -0.851201 0.807171 0.004145 -0.005701 578013.000000 1 0 0
-12.620433 -5.084497 -1.828219 13.728432 0.382985 1.704363 0.000357 -0.002299 -1582450.000000 1 0 0
-9.460633 -5.616697 0.233481 11.004789 0.535768 1.549578 0.004659 0.000112 -567984.000000 1 0 0
-1.834933 1.898603 2.265181 3.478896 -0.802450 0.861736 0.001752 -0.000722 323991.000000 1 0 0
-7.122333 7.325703 7.487181 12.666943 -0.799473 0.938399 0.004144 -0.005284 -460943.000000 1 0 0
5.680267 7.016103 -0.471019 9.039524 0.890227 1.622927 -0.002001 -0.000475 -1193400.000000 1 0 0
-0.063533 -4.054397 7.432981 8.467076 1.555127 0.499403 -0.001286 -0.000859 -651597.000000 1 0 0
6.363367 0.692403 13.149581 14.624751 0.108384 0.453014 -0.007475 -0.002894 523228.000000 1 0 0
5.847867 6.113703 -7.865219 11.551475 0.807619 2.319766 -0.001243 -0.000586 -1061860.000000 1 0 0
9.861767 5.348503 9.123981 14.460566 0.496949 0.888011 0.006096 -0.003031 -3307950.000000 1 0 0
-1.080333 -5.060097 -8.449119 9.907538 1.360454 2.592114 0.013862 -0.006266 1123110.000000 1 0 0
10.007567 -3.550697 -7.950619 13.265413 -0.340946 2.213485 0.009507 -0.006661 750403.000000 1 0 0
8.448267 -5.499797 1.313981 10.165998 -0.577076 1.441181 0.003313 -0.003078 1401280.000000 1 0 0
15.820467 3.168203 -4.921919 16.868609 0.197645 1.866883 0.010973 0.004156 -792297.000000 1 0 0
-6.864933 3.489403 1.185681 7.791603 -0.470261 1.418029 0.010669 -0.004951 477908.000000 1 0 0
-1.666033 3.711903 0.186681 4.072928 -1.148911 1.524946 0.004545 -0.004603 -1291060.000000 1 0 0
-2.584533 10.071703 6.957981 12.511296 -1.319603 0.981067 -0.006484 0.002943 -68564.400000 1 0 0
5.526367 -5.797997 -8.852519 11.938366 -0.809380 2.406127 -0.004415 -0.006846 -443442.000000 1 0 0
-1.313533 -0.875797 6.235481 6.432233 0.588060 0.247974 0.003204 -0.000667 539911.000000 1 0 0
-5.636233 4.969003 -7.865919 10.877996 -0.722566 2.379081 0.010264 -0.005048 495194.000000 1 0 0
6.713467 -1.281997 2.525081 7.286301 -0.188687 1.216904 -0.002721 0.003257 -1327860.000000 1 0 0
8.692467 7.618403 3.221481 11.999041 0.719644 1.298983 0.000964 0.000626 -329044.000000 1 0 0
-5.350833 -4.832197 -7.623919 10.493126 0.734511 2.384103 0.013798 -0.009263 228983.000000 1 0 0
-2.253833 7.922103 -10.052919 12.996179 -1.293620 2.455187 0.000548 -0.001420 435147.000000 1 0 0
-2.857133 -2.292097 1.589081 3.992756 0.676103 1.161470 0.001853 0.001781 1199360.000000 1 0 0
6.001667 -2.085497 -9.232419 11.207446 -0.334434 2.538835 -0.000524 -0.002262 982960.000000 1 0 0
1.121467 -7.589297 5.245481 9.293556 -1.424089 0.971064 -0.003739 0.001201 540569.000000 1 0 0
1.814367 11.835203 1.218781 12.035339 1.418678 1.469356 0.001003 -0.000931 6860.210000 1 0 0
-0.883333 7.118603 2.500181 7.596426 -1.447339 1.235418 -0.006011 0.003706 648295.000000 1 0 0
8.784667 7.904303 -6.663019 13.566289 0.732696 2.084200 0.004934 -0.005405 -234747.000000 1 0 0
3.743267 -11.258497 5.680181 13.154097 -1.249811 1.124288 0.001506 -0.002983 50036.200000 1 0 0
8.021567 -7.092797 12.411981 16.392394 -0.724026 0.711812 0.004577 -0.001077 953038.000000 1 0 0
-8.808833 0.032403 -3.867919 9.620675 -0.003678 1.984543 0.012709 -0.006764 -619010.000000 1 0 0
-3.134733 -5.100697 11.355381 12.836991 1.019733 0.485198 0.005174 -0.009661 274245.000000 1 0 0
-8.225933 0.120403 -11.536319 14.169232 -0.014636 2.522113 0.014676 -0.010732 -1495040.000000 1 0 0
1.421967 -5.094897 5.408081 7.564873 -1.298626 0.774324 -0.003651 0.002158 -386669.000000 1 0 0
6.722967 3.618903 -7.890919 10.980043 0.493808 2.372670 -0.001817 0.003714 -450792.000000 1 0 0
16.288967 4.225803 -1.255919 16.874987 0.253832 1.645290 0.008587 0.005808 1162370.000000 1 0 0
7.910367 7.415503 0.206781 10.844646 0.753120 1.551728 -0.002008 -0.000053 -1142960.000000 1 0 0
5.550167 -10.213497 14.002881 18.198916 -1.073023 0.692840 0.009864 -0.006650 309051.000000 1 0 0
-5.262833 -9.123097 8.953881 13.823903 1.047558 0.866221 0.001888 -0.014184 296787.000000 1 0 0
-12.547833 -3.170197 2.923481 13.268196 0.247470 1.348636 0.001823 -0.002573 -307940.000000 1 0 0
-1.954233 -1.214997 -5.815519 6.254239 0.556241 2.764808 0.011760 -0.011127 -867952.000000 1 0 0
-2.407333 12.879203 -4.438219 13.833543 -1.386012 1.897402 0.001653 0.002826 547215.000000 1 0 0
3.950967 -0.511997 -5.011719 6.402312 -0.128870 2.469946 -0.004941 0.000519 -609284.000000 1 0 0
-8.901233 3.800203 -7.386919 12.175388 -0.403504 2.222710 0.011210 -0.004443 923980.000000 1 0 0
-4.524333 8.005503 -11.349619 14.607242 -1.056394 2.460660 0.004789 -0.002122 -2133450.000000 1 0 0
-10.076933 -6.398397 7.418781 14.054266 0.565726 1.014709 0.006936 -0.003942 -2264370.000000 1 0 0
7.977967 5.441603 4.129381 10.502894 0.598597 1.166724 -0.003142 0.000737 -480200.000000 1 0 0
-6.694033 -7.545497 4.019881 10.858363 0.845123 1.191561 0.007033 0.000587 -695319.000000 1 0 0
-4.167233 11.822303 7.990781 14.865573 -1.231906 1.003284 -0.006115 -0.001463 96611.200000 1 0 0
-7.188433 10.018403 -7.892519 14.640144 -0.948407 2.140166 0.004995 -0.005839 -805235.000000 1 0 0
13.119867 5.563603 4.619381 14.980763 0.401074 1.257334 0.010823 -0.003867 554373.000000 1 0 0
5.349467 3.855903 -3.827319 7.624510 0.624551 2.096678 -0.002140 0.002771 21801.900000 1 0 0
-2.920733 -4.201097 5.109181 7.230742 0.963278 0.786127 0.002754 -0.000710 -1612100.000000 1 0 0
12.378167 -2.430797 -5.257319 13.666279 -0.193910 1.965671 0.009106 -0.003898 -2185240.000000 1 0 0
-5.174133 9.604203 7.019081 12.972273 -1.076642 0.999072 -0.006155 0.000405 -613795.000000 1 0 0
1.866067 3.762603 -0.509019 4.230660 1.110393 1.691405 -0.008076 0.002709 387977.000000 1 0 0
-0.069233 9.660003 7.755981 12.388531 -1.563629 0.894304 -0.009261 0.003093 -611895.000000 1 0 0
-5.489333 2.178903 5.839681 8.305557 -0.377860 0.791041 0.004691 -0.003271 835539.000000 1 0 0
8.898067 0.903203 10.722281 13.962760 0.101159 0.695209 0.004277 -0.000653 -2618210.000000 1 0 0
0.484767 -2.916797 -10.161119 10.582582 -1.406103 2.858420 0.001108 -0.005838 -2334480.000000 1 0 0
1.321867 10.661003 -2.709019 11.078948 1.447435 1.817820 0.002578 -0.001088 -2505620.000000 1 0 0
2.314467 -4.294397 11.750281 12.722724 -1.076476 0.393516 -0.004205 -0.004470 -1080810.000000 1 0 0
6.496367 -3.087697 9.451681 11.877328 -0.443690 0.650510 -0.001493 -0.005119 450775.000000 1 0 0
-10.600433 -8.179797 5.727381 14.563007 0.657212 1.166597 0.009530 -0.004442 -1425380.000000 1 0 0
-2.931633 0.840803 -6.823519 7.474077 -0.279306 2.721272 0.015354 -0.010997 775543.000000 1 0 0
11.048367 2.536503 -5.147819 12.449911 0.225671 1.997072 -0.004314 0.002292 -3002560.000000 1 0 0
-2.074733 -4.122197 0.020781 4.614917 1.104506 1.566293 0.002612 -0.000911 1187220.000000 1 0 0
-1.365033 -6.579997 -10.475119 12.445392 1.366246 2.571195 0.003850 -0.000047 938711.000000 1 0 0
0.378567 6.817203 -6.598419 9.495088 1.515322 2.339118 0.004215 -0.000924 -1570300.000000 1 0 0
2.153567 3.789803 -6.139819 7.529796 1.054047 2.524221 -0.001537 -0.001337 -1585270.000000 1 0 0
1.693067 -14.712497 6.595881 16.212023 -1.456224 1.151792 0.016931 -0.012172 -174399.000000 1 0 0
-1.703833 5.411203 -10.522219 11.954131 -1.265752 2.647114 0.005695 -0.004501 -240278.000000 1 0 0
13.621667 4.381403 -0.841319 14.333678 0.311199 1.629525 0.004860 0.000311 -2091530.000000 1 0 0
-2.356433 3.353503 -6.060319 7.316162 -0.958275 2.546946 0.010796 -0.007198 -2229210.000000 1 0 0
5.681767 7.867003 14.205081 17.203387 0.945308 0.599329 0.011929 -0.006254 739055.000000 1 0 0
15.816067 0.671603 -5.808519 16.862322 0.042438 1.922468 0.005327 0.000766 -20334.700000 1 0 0
6.196667 -8.094697 10.550481 14.670905 -0.917435 0.768228 0.003626 0.000465 39995.200000 1 0 0
0.094667 -5.976897 -6.239819 8.641041 -1.554959 2.377650 0.001962 -0.006041 19593.000000 1 0 0
8.597467 5.524803 -7.608719 12.740977 0.571161 2.210783 -0.000358 0.001114 -711275.000000 1 0 0
-15.969333 -0.714597 5.300981 16.841338 0.044718 1.250592 0.012958 -0.015021 -499717.000000 1 0 0
-0.193433 4.097503 -12.227119 12.896875 -1.523624 2.817903 0.003905 -0.007030 363934.000000 1 0 0
-11.406933 3.630803 5.863381 13.329670 -0.308158 1.115337 0.004873 -0.007590 -1428020.000000 1 0 0
5.165567 -9.660997 -9.456719 14.472300 -1.079789 2.282911 -0.003280 -0.002603 -444093.000000 1 0 0
1.516667 11.232803 -11.562819 16.191816 1.436587 2.366155 0.003105 -0.001410 -2407610.000000 1 0 0
5.982367 2.359903 1.223981 6.546448 0.375736 1.382721 -0.003059 0.002646 -155533.000000 1 0 0
5.638867 4.561303 4.918681 8.763317 0.680147 0.974864 -0.011164 0.003580 -547072.000000 1 0 0
0.488567 -1.613797 -6.453619 6.670250 -1.276824 2.886036 0.002263 -0.005238 -949903.000000 1 0 0
12.604867 6.787703 -4.563919 15.026142 0.493970 1.879404 -0.003975 -0.001161 -748677.000000 1 0 0
7.386767 3.226903 12.728681 15.066405 0.411864 0.564533 0.000304 -0.000951 -98448.200000 1 0 0
-2.425233 -0.103597 8.711581 9.043458 0.042690 0.271752 0.000900 -0.001642 757078.000000 1 0 0
2.398767 -15.095997 13.367781 20.306176 -1.413213 0.852223 0.025454 -0.013504 1149440.000000 1 0 0
18.918867 4.504503 -1.785119 19.529483 0.233744 1.662330 0.017687 0.008022 1435330.000000 1 0 0
-0.384433 -13.282497 7.386981 15.203289 1.541862 1.063426 0.009855 -0.011240 -960953.000000 1 0 0
4.435867 1.598803 -0.642319 4.758745 0.345933 1.706186 -0.003393 0.001536 77741.400000 1 0 0
2.899467 -0.577797 -7.366319 7.937469 -0.196700 2.759922 -0.007815 -0.002484 584540.000000 1 0 0
7.188767 -11.326597 0.850481 13.442228 -1.005266 1.507485 -0.000405 -0.006091 459809.000000 1 0 0
-11.927333 -7.373597 1.330481 14.085503 0.553702 1.476198 -0.000362 0.002876 239936.000000 1 0 0
0.221667 -6.969797 10.156681 12.320121 -1.539003 0.601659 -0.002752 -0.005847 -3023150.000000 1 0 0
-4.659833 -7.070897 10.635081 13.594726 0.988109 0.672455 0.005913 -0.007065 -1020090.000000 1 0 0
11.807167 0.717403 -1.695919 11.949895 0.060685 1.713196 0.000349 -0.000695 652367.000000 1 0 0
6.536567 -9.649997 -7.320419 13.763636 -0.975424 2.131600 -0.001223 -0.006819 -1122900.000000 1 0 0
-11.023233 4.777503 3.519681 12.518960 -0.408967 1.285806 0.004933 -0.006563 440850.000000 1 0 0
5.959667 -9.235797 2.035681 11.178621 -0.997747 1.387670 -0.003388 -0.003157 3163410.000000 1 0 0
11.682067 -1.304597 5.794881 13.105468 -0.111214 1.112777 0.008686 -0.005159 -89966.100000 1 0 0
-6.425533 3.564403 4.114181 8.421338 -0.506463 1.060378 0.006167 -0.005374 -1979430.000000 1 0 0
9.491367 6.289903 -3.226119 11.834558 0.585250 1.846892 -0.000742 0.001895 -901715.000000 1 0 0
-2.410933 6.581003 10.947681 12.998997 -1.219633 0.569456 -0.005729 -0.001502 328658.000000 1 0 0
1.802367 9.783603 3.024781 10.397919 1.388616 1.275626 -0.008137 0.000995 102110.000000 1 0 0
2.919667 6.140403 -5.658419 8.845717 1.126953 2.264877 -0.000746 0.000645 -2483590.000000 1 0 0
11.912267 0.048103 -5.714819 13.212251 0.004038 2.018104 0.002931 -0.000204 617844.000000 1 0 0
-2.669533 -12.428997 6.319581 14.196601 1.359228 1.109457 0.005753 -0.007141 430506.000000 1 0 0
10.930267 1.853703 -2.745319 11.421196 0.167995 1.813544 -0.001451 0.001505 275482.000000 1 0 0
-8.814733 5.249903 0.807481 10.291406 -0.537165 1.492254 0.006784 -0.003851 -274602.000000 1 0 0
1.279467 -10.182397 5.674981 11.727048 -1.445797 1.065665 0.000254 -0.003399 106512.000000 1 0 0
9.338767 -5.802497 -1.219219 11.062008 -0.555959 1.681237 0.003507 -0.005175 408835.000000 1 0 0
-7.773133 8.603103 -4.519219 12.444208 -0.836036 1.942452 0.005022 -0.001199 -640754.000000 1 0 0
-7.456333 -0.056397 -1.649519 7.636819 0.007563 1.788508 0.010584 -0.005935 -1571700.000000 1 0 0
4.055067 8.895203 2.797181 10.168207 1.143071 1.292112 -0.003512 0.000552 -1316560.000000 1 0 0
-1.380933 -10.545197 -3.705319 11.262218 1.440584 1.906045 0.002761 -0.001622 45171.700000 1 0 0
3.197067 7.804103 -3.704219 9.211216 1.181986 1.984652 0.002132 -0.001065 -74817.000000 1 0 0
-4.234133 1.570603 -11.047319 11.934736 -0.355205 2.753531 0.010852 -0.009284 -761337.000000 1 0 0
1.382167 2.644003 11.077681 11.472409 1.089111 0.263081 -0.002537 -0.001423 482656.000000 1 0 0
2.195767 5.540603 -8.037719 10.006228 1.193480 2.503564 0.002357 -0.000313 193819.000000 1 0 0
15.576267 6.041703 4.006981 17.180750 0.370014 1.335403 0.021306 -0.005262 -6822.220000 1 0 0
-4.367733 8.956103 4.590481 10.970934 -1.117051 1.139089 -0.003024 0.002719 -620249.000000 1 0 0
-0.968933 -8.235197 -12.388619 14.907554 1.453677 2.551752 0.000083 0.001168 56474.800000 1 0 0
14.318567 -4.206697 -5.274819 15.828498 -0.285753 1.910543 0.022462 -0.005472 1084150.000000 1 0 0
-6.181233 -6.252597 -5.645919 10.448876 0.791138 2.141634 0.012802 -0.006840 649693.000000 1 0 0
-8.888633 2.596703 -12.066719 15.210403 -0.284228 2.487040 0.020253 -0.009392 640498.000000 1 0 0
10.502267 5.417303 13.804381 18.171563 0.476225 0.707992 0.025764 -0.006762 495326.000000 1 0 0
-0.481633 10.987403 5.515581 12.303521 -1.526989 1.105942 -0.008179 0.005428 687493.000000 1 0 0
0.470067 11.263203 -0.599119 11.288917 1.529086 1.623893 -0.000632 -0.001226 -154952.000000 1 0 0
-1.536033 -0.611097 3.670881 4.025942 0.378644 0.423133 0.004068 0.000575 594308.000000 1 0 0
-4.836033 6.727603 8.765481 12.061572 -0.947541 0.757250 0.001447 -0.000691 -1655050.000000 1 0 0
3.398267 -8.805997 -11.264619 14.696443 -1.202501 2.444148 -0.004916 0.001847 816047.000000 1 0 0
6.652367 -3.746597 11.994881 14.218585 -0.512919 0.566833 -0.000392 -0.002125 -135686.000000 1 0 0
-2.369933 -2.048397 -12.549219 12.934273 0.712753 2.896975 0.006904 -0.008023 955618.000000 1 0 0
-15.966333 -4.897897 5.411681 17.555611 0.297651 1.257434 0.011428 -0.014174 973223.000000 1 0 0
-8.900933 7.244603 5.717781 12.822009 -0.683168 1.108578 0.004699 -0.004957 -3611670.000000 1 0 0
-12.974833 1.547403 6.023981 14.388506 -0.118701 1.138820 0.006565 -0.005996 687863.000000 1 0 0
-3.460433 3.544903 10.085781 11.236722 -0.797455 0.456563 0.001763 0.001833 431794.000000 1 0 0
1.938967 -12.377597 -1.118319 12.578360 -1.415408 1.659822 0.004718 -0.003183 -2287780.000000 1 0 0
10.150167 -5.052797 -3.683719 11.921679 -0.461890 1.884931 0.009923 -0.004893 723304.000000 1 0 0
3.146567 -13.573597 1.026281 13.971280 -1.343005 1.497274 0.006175 -0.001633 373641.000000 1 0 0
9.978867 -1.697597 -6.129419 11.833401 -0.168506 2.115280 0.006165 -0.000098 218990.000000 1 0 0
11.857467 -5.487497 -1.612419 13.164803 -0.433438 1.693584 0.010960 -0.006055 288969.000000 1 0 0
1.508267 0.868903 5.911981 6.162904 0.522656 0.286337 -0.002643 0.001613 139216.000000 1 0 0
-10.727433 11.639803 6.456981 17.095480 -0.826166 1.183484 0.000543 -0.012972 -384050.000000 1 0 0
4.836067 -14.110097 3.138481 15.242455 -1.240606 1.363409 0.004246 -0.002694 -2809910.000000 1 0 0
5.200467 -3.478497 -1.721619 6.489127 -0.589535 1.839320 -0.001807 -0.001076 -1327800.000000 1 0 0
2.146267 -2.963497 -7.810919 8.625499 -0.943990 2.703498 -0.005314 -0.005059 -290432.000000 1 0 0
-2.665633 14.839203 -8.912219 17.513857 -1.393057 2.104664 0.010604 -0.004089 -1556240.000000 1 0 0
-2.224733 6.149503 -8.167519 10.462991 -1.223671 2.466438 0.006796 -0.003482 -450215.000000 1 0 0
2.625267 -3.630497 -11.311119 12.166098 -0.944725 2.764460 -0.003903 -0.002513 -2165320.000000 1 0 0
14.608667 2.798103 -2.669519 15.111878 0.189245 1.748379 0.005404 0.001916 479715.000000 1 0 0
-3.428033 13.084803 2.171681 13.699623 -1.314569 1.411604 -0.009394 0.005801 -1608780.000000 1 0 0
7.901267 -4.950197 13.962881 16.789774 -0.559682 0.588760 0.000827 -0.004230 -398850.000000 1 0 0
-11.616933 7.196903 2.876781 13.965115 -0.554648 1.363313 0.003214 -0.003944 1190130.000000 1 0 0
-2.269433 12.098503 4.140381 12.987181 -1.385371 1.246328 -0.006337 0.003787 212530.000000 1 0 0
1.771967 1.455203 0.690081 2.394513 0.687556 1.278457 -0.005254 0.003511 -1137660.000000 1 0 0
-6.798733 8.567603 5.235581 12.125919 -0.900007 1.124345 -0.000711 -0.001975 -631933.000000 1 0 0
-1.047633 9.235303 0.995981 9.347745 -1.457841 1.464046 -0.005039 0.003169 766702.000000 1 0 0
4.992667 12.847103 -8.428219 16.155793 1.200137 2.119620 0.012870 -0.016969 -2211890.000000 1 0 0
8.898967 6.971603 7.207781 13.406975 0.664547 1.003191 0.000776 -0.002174 -1433830.000000 1 0 0
7.292867 -13.699897 2.920781 15.792531 -1.081620 1.384778 0.003046 -0.004983 792379.000000 1 0 0
4.115467 -13.492197 -1.335319 14.168963 -1.274735 1.665179 0.002418 -0.002762 -3075920.000000 1 0 0
12.120967 -11.765597 -4.657719 17.522598 -0.770522 1.839843 0.028233 -0.008581 -863341.000000 1 0 0
3.010967 -0.109897 -1.983519 3.607263 -0.036483 2.153003 -0.002630 0.000289 1172330.000000 1 0 0
-13.592033 -3.310397 -10.610019 17.557750 0.238903 2.219674 0.008853 -0.009207 65786.000000 1 0 0
-6.573033 13.598403 5.014881 15.914470 -1.120543 1.250219 -0.003094 -0.005241 78651.100000 1 0 0
7.190167 -4.464197 -0.688619 8.491275 -0.555628 1.651983 -0.005834 -0.000657 -1566950.000000 1 0 0
11.780467 2.168303 -7.295219 14.025019 0.182022 2.117832 0.005241 0.001018 -599951.000000 1 0 0
-7.451033 -4.480597 9.662481 12.998353 0.541403 0.732714 0.012711 -0.002294 54481.200000 1 0 0
1.030267 2.846003 8.593981 9.111405 1.223467 0.338628 -0.004183 0.000185 -1465670.000000 1 0 0
1.579867 8.027203 -8.690719 11.935684 1.376466 2.386385 0.004044 -0.002647 488684.000000 1 0 0
-8.548533 -1.861697 -5.589219 10.381845 0.214432 2.139292 0.019690 -0.007808 -192176.000000 1 0 0
6.653967 -0.478597 7.097081 9.740271 -0.071803 0.754473 -0.002044 0.000603 249528.000000 1 0 0
-10.926733 6.528703 7.167481 14.607883 -0.538578 1.057951 0.008827 -0.007528 435069.000000 1 0 0
-5.838233 11.071603 4.931981 13.453245 -1.085535 1.195443 -0.006690 -0.000002 739327.000000 1 0 0
6.153367 -1.239297 -6.877619 9.311360 -0.198743 2.401827 -0.003511 0.000387 -1005010.000000 1 0 0
4.454467 -5.680197 11.465981 13.549009 -0.905758 0.561871 0.001296 -0.002731 -1631410.000000 1 0 0
-8.955133 -7.463897 2.726081 11.972288 0.694823 1.341082 0.006164 0.001309 -2102460.000000 1 0 0
-1.204233 12.692603 -9.418519 15.851210 -1.476203 2.207046 0.009942 -0.001028 544699.000000 1 0 0
-4.655033 9.102103 -2.348519 10.489669 -1.098051 1.796599 0.000590 -0.001261 436658.000000 1 0 0
-3.217233 9.723403 -0.323919 10.246955 -1.251260 1.602413 -0.000395 0.000069 -2151500.000000 1 0 0
-3.427733 10.702803 -6.404919 12.935313 -1.260853 2.088804 0.002416 0.000444 1385130.000000 1 0 0
4.865167 -4.982397 0.328981 6.971539 -0.797302 1.523590 -0.001601 -0.000357 -2123370.000000 1 0 0
-2.093433 2.963703 -10.872119 11.461630 -0.955816 2.819473 0.008435 -0.006358 -1882560.000000 1 0 0
-3.528033 12.010703 -2.306119 12.728794 -1.285092 1.752976 -0.004405 0.004315 -219813.000000 1 0 0
-0.228433 0.343503 0.005381 0.412559 -0.983941 1.557752 -0.001610 -0.000106 -1373500.000000 1 0 0
-4.907233 -1.761297 0.091981 5.214553 0.344598 1.553156 0.002398 -0.002698 425602.000000 1 0 0
2.653267 2.443403 -2.502519 4.390062 0.744245 2.177353 -0.010176 0.000715 1622780.000000 1 0 0
6.074367 -9.650797 8.528281 14.239642 -1.009028 0.928655 0.001191 -0.001020 -658572.000000 1 0 0
-4.143633 -5.466597 6.692581 9.583529 0.922200 0.797718 0.006262 -0.003104 163241.000000 1 0 0
-6.225533 5.348803 -12.004219 14.541947 -0.709795 2.541865 0.005545 -0.006208 483511.000000 1 0 0
-12.932533 3.118503 8.015581 15.531420 -0.236619 1.028519 0.006247 -0.007349 799754.000000 1 0 0
4.764067 -7.669297 -4.833319 10.240870 -1.014944 2.062313 -0.009682 -0.004794 1127290.000000 1 0 0
-5.994633 2.371103 -1.082419 6.536772 -0.376654 1.737152 0.009931 -0.006074 -901908.000000 1 0 0
-6.857033 -2.723097 -14.473019 16.245074 0.378025 2.670157 0.011857 -0.005315 242034.000000 1 0 0
2.677867 -6.213997 0.910181 6.827383 -1.163904 1.437085 0.000026 0.000888 331050.000000 1 0 0
4.787167 -7.851097 12.983481 15.909980 -1.023242 0.616237 0.004570 -0.003126 46381.800000 1 0 0
-10.163733 -1.594397 8.030181 13.050954 0.155603 0.908037 0.008656 0.001453 -587719.000000 1 0 0
-4.433833 13.234703 -0.170419 13.958699 -1.247532 1.583005 -0.006620 0.007515 291886.000000 1 0 0
6.785867 2.178403 -4.566119 8.464211 0.310628 2.140594 -0.004558 0.003910 -1194400.000000 1 0 0
4.988767 4.478803 0.020081 6.704317 0.731586 1.567801 -0.007822 0.002556 -698639.000000 1 0 0
-5.797933 12.263603 1.719381 13.673634 -1.129164 1.444718 -0.005743 0.003792 -592034.000000 1 0 0
6.533367 -7.358497 6.690281 11.899253 -0.844725 0.973700 -0.000427 -0.002641 -1542540.000000 1 0 0
-0.217233 4.935403 7.747981 9.188939 -1.526809 0.567615 -0.005471 0.001402 -1756530.000000 1 0 0
-5.859733 -3.476697 -1.548119 6.987172 0.535493 1.794216 0.008228 -0.005341 -883096.000000 1 0 0
2.433067 -6.563397 -5.218719 8.731152 -1.215799 2.211441 -0.002032 -0.003107 -858874.000000 1 0 0
-14.468233 -5.078397 -3.659019 15.764146 0.337568 1.805043 0.007670 -0.005981 -329367.000000 1 0 0
-12.449333 -5.216797 -6.294319 14.893600 0.396814 2.007129 0.014128 -0.010010 -1566920.000000 1 0 0
-14.858233 -3.931397 -1.280519 15.422798 0.258666 1.653920 0.001920 -0.004409 -39950.000000 1 0 0
11.723067 2.926203 8.776281 14.933722 0.244612 0.942605 0.011958 -0.003275 -1429000.000000 1 0 0
8.654067 -6.482797 7.657681 13.249891 -0.642928 0.954591 0.007926 -0.006918 -434861.000000 1 0 0
-8.824633 -1.714297 -9.691919 13.219163 0.191873 2.393771 0.012558 -0.010568 363515.000000 1 0 0
-8.910033 4.970303 -3.827519 10.896904 -0.508836 1.929700 0.010766 -0.005043 -919894.000000 1 0 0
-4.069833 -6.278897 4.164681 8.563449 0.995704 1.062909 0.004603 -0.000046 -1464440.000000 1 0 0
-0.061233 -9.329397 3.643681 10.015878 1.564233 1.198462 0.001051 -0.002647 859823.000000 1 0 0
7.922267 -10.531897 3.341281 13.595857 -0.925878 1.322495 0.000636 -0.003184 128320.000000 1 0 0
-0.054633 6.409303 9.701181 11.627341 -1.562272 0.583858 -0.007026 0.002156 1156970.000000 1 0 0
0.014767 3.546103 -9.674219 10.303668 1.566632 2.790246 0.005550 -0.005471 -1051.170000 1 0 0
4.441467 -3.109397 11.080081 12.335444 -0.610782 0.455068 -0.003217 -0.004126 -2813040.000000 1 0 0
8.522667 -9.134697 1.254281 12.555945 -0.820046 1.470734 0.001050 -0.004451 -317538.000000 1 0 0
-0.218733 -0.530597 11.357781 11.372272 1.179783 0.050488 0.002726 -0.002332 -759562.000000 1 0 0
10.961967 6.056103 11.399881 16.935123 0.504734 0.832336 0.023694 -0.003235 -258346.000000 1 0 0
-6.346633 -2.894497 -11.792919 13.701489 0.427889 2.607446 0.013047 -0.007372 561939.000000 1 0 0
-1.638533 2.768903 8.219881 8.827121 -1.036456 0.373085 0.000518 0.001575 283854.000000 1 0 0
-1.536233 13.443203 -6.920519 15.197806 -1.457014 2.043576 0.008326 -0.001038 682552.000000 1 0 0
7.794467 3.105303 9.820681 12.916749 0.379125 0.707012 -0.000383 -0.001307 918227.000000 1 0 0
6.573967 8.487103 -7.993919 13.384719 0.911747 2.210855 0.007957 -0.005013 -644201.000000 1 0 0
6.582167 -3.068997 -3.895019 8.241046 -0.436293 2.063076 -0.002420 -0.001074 -2772490.000000 1 0 0
2.066667 8.154103 1.006081 8.471877 1.322572 1.451760 -0.004804 0.002757 769452.000000 1 0 0
-17.745533 6.244303 6.407481 19.873376 -0.338349 1.242516 0.036214 -0.007145 768285.000000 1 0 0
-14.419533 3.231703 -10.270419 17.995787 -0.220477 2.178169 0.010813 -0.002650 411808.000000 1 0 0
-18.390133 0.009303 -4.292119 18.884369 -0.000506 1.800084 0.014026 -0.004701 354610.000000 1 0 0
-12.911533 7.953103 0.136081 15.165028 -0.552079 1.561823 0.007460 -0.000118 -983847.000000 1 0 0
-12.769033 -4.163597 -12.897819 18.620888 0.315199 2.335957 0.017722 0.000086 -1564570.000000 1 0 0
-17.424833 -0.874797 -8.753519 19.519584 0.050162 2.035825 0.009856 -0.005716 -328745.000000 1 0 0
-16.814633 -2.304097 -1.951719 17.083617 0.136181 1.685291 0.009148 -0.007482 -922642.000000 1 0 0
-15.404933 4.036303 1.659981 16.011223 -0.256253 1.466934 0.010363 -0.001169 -1745340.000000 1 0 0
-13.214033 5.872003 4.430881 15.123617 -0.418167 1.273457 0.004542 -0.004807 -221597.000000 1 0 0
-9.808333 14.150103 2.735781 17.433110 -0.964673 1.413215 0.005755 -0.006482 82112.500000 1 0 0
-12.013833 2.366503 -6.457319 13.843031 -0.194491 2.056089 0.009576 0.000054 755648.000000 1 0 0
-15.881633 10.652903 3.650881 19.468938 -0.590837 1.382156 0.023461 -0.009171 -804228.000000 1 0 0
-12.943033 0.976603 -8.547419 15.541372 -0.075311 2.153135 0.013522 -0.005167 857560.000000 1 0 0
-12.164233 14.270003 3.760381 19.124383 -0.864891 1.372879 0.018002 -0.016551 -370650.000000 1 0 0
-10.405933 11.177803 -1.013319 15.305344 -0.821145 1.637052 0.007423 0.000929 267421.000000 1 0 0
-16.932133 5.576403 8.847481 19.901541 -0.318151 1.110110 0.013922 -0.011083 660832.000000 1 0 0
-11.735633 12.355603 -9.282919 19.405118 -0.811127 2.069599 0.015724 -0.019083 141294.000000 1 0 0
-17.189433 -0.559597 3.071781 17.470707 0.032543 1.394053 0.014152 -0.012069 342092.000000 1 0 0
-13.082533 14.942103 -0.798819 19.876047 -0.851656 1.610997 0.037381 -0.005262 303174.000000 1 0 0
-16.640033 4.690303 -10.457519 20.205181 -0.274741 2.114800 0.028677 0.000209 460973.000000 1 0 0
-11.854133 7.590203 -8.897319 16.652145 -0.569526 2.134481 0.009792 0.001194 419176.000000 1 0 0
-14.752633 13.349303 -2.209519 20.018143 -0.735502 1.681397 0.045764 -0.015310 625149.000000 1 0 0
-11.799533 10.524103 -5.515219 16.745249 -0.728327 1.906422 0.017410 -0.008172 1094000.000000 1 0 0
-17.979333 2.923203 -0.856819 18.235561 -0.161177 1.617800 0.029284 -0.003031 393961.000000 1 0 0
-9.354033 15.277303 0.502381 17.920556 -1.021394 1.542759 0.011093 -0.006116 -1628.520000 1 0 0
-8.048333 13.178603 -3.826019 15.908792 -1.022537 1.813674 0.002471 -0.000876 -321257.000000 1 0 0
-17.758533 11.474503 1.968581 21.234525 -0.573657 1.477956 0.063188 -0.002985 26796.900000 1 0 0
-7.847933 15.662403 -7.571819 19.084899 -1.106294 1.978763 0.030607 -0.021613 -9411.190000 1 0 0
-6.201533 15.244803 -5.538419 17.364824 -1.184445 1.895412 0.010327 -0.001284 210192.000000 1 0 0
-17.377433 5.338803 -0.233119 18.180549 -0.298073 1.583619 0.027504 0.004298 933608.000000 1 0 0
-5.444333 12.259103 -12.347819 18.231703 -1.152855 2.314844 -0.003339 -0.004635 -35353.100000 1 0 0
-11.145933 3.759803 -11.339419 16.338616 -0.325339 2.337862 0.016625 -0.008620 520945.000000 1 0 0
-11.903733 10.997803 1.197381 16.250670 -0.745861 1.497048 0.013274 -0.003647 668417.000000 1 0 0
-12.909133 0.196703 -11.053719 16.996150 -0.015236 2.278863 0.015660 -0.009336 540878.000000 1 0 0
-14.214433 -1.984897 -12.725219 19.181270 0.138742 2.296175 0.019835 -0.016141 -3774.120000 1 0 0
-18.725033 -2.458997 -3.613819 19.228448 0.130574 1.759862 0.004051 -0.006807 -16887.600000 1 0 0
-18.166833 4.566503 -5.258219 19.455993 -0.246263 1.844462 0.012387 -0.001720 516523.000000 1 0 0
-8.244833 15.376103 -2.380819 17.608808 -1.078601 1.706418 0.012030 -0.000209 127750.000000 1 0 0
-16.080333 8.966103 -5.361819 19.175954 -0.508646 1.854186 0.029419 -0.000209 30954.700000 1 0 0
-18.238433 1.702603 2.132381 18.441430 -0.093083 1.454907 0.026532 -0.011548 -752344.000000 1 0 0
-15.731733 -2.850197 -8.684119 18.194092 0.179231 2.068381 0.007594 -0.005883 -645299.000000 1 0 0
-9.712833 10.544903 -7.237719 16.059847 -0.826449 2.038314 0.008063 -0.009886 733811.000000 1 0 0
-14.043933 12.148103 -7.725819 20.112104 -0.713142 1.965070 0.035035 -0.017677 284551.000000 1 0 0
-10.996433 6.445403 -3.823519 13.307294 -0.530163 1.862229 0.002282 0.002129 -978590.000000 1 0 0
-12.945733 4.975903 -12.787319 18.864441 -0.366957 2.315635 0.020476 -0.007825 -673866.000000 1 0 0
-17.745333 8.963203 2.669181 20.058923 -0.467721 1.437333 0.044952 -0.008956 917537.000000 1 0 0
-13.343733 8.606703 -6.512719 17.162344 -0.572852 1.960028 0.007563 -0.003733 -499723.000000 1 0 0
-15.748233 6.811503 -3.858719 17.586732 -0.408227 1.792007 0.014337 0.003704 -690388.000000 1 0 0
-14.987133 -0.465297 -9.437719 17.717257 0.031036 2.132566 0.015913 -0.007370 -1231340.000000 1 0 0
-10.042433 5.789403 -6.065519 13.082743 -0.522956 2.052881 0.006120 0.000574 587254.000000 1 0 0
-12.746533 12.260003 -0.910019 17.709035 -0.765944 1.622206 0.026336 -0.004716 -799421.000000 1 0 0
-10.519833 3.581203 -13.820619 17.734188 -0.328118 2.464377 0.013083 -0.011971 223781.000000 1 0 0
-10.904733 6.279903 -11.833819 17.273959 -0.522501 2.325492 0.007785 -0.006410 -869464.000000 1 0 0
-5.819633 11.577803 -14.894219 19.742123 -1.105027 2.425595 -0.003111 -0.005866 -215010.000000 1 0 0
-15.552333 13.277903 3.217481 20.700965 -0.706671 1.414737 0.029044 -0.013862 96322.000000 1 0 0
-15.111433 10.951303 -3.113819 18.920421 -0.627114 1.736123 0.041653 -0.006285 993598.000000 1 0 0
-18.093433 7.577403 -4.511619 20.128191 -0.396602 1.796861 0.028102 0.000998 750000.000000 1 0 0
-4.108633 16.163403 -10.736819 19.834711 -1.321875 2.142796 0.024356 -0.005806 237033.000000 1 0 0
-15.666833 4.276003 -4.434219 16.834375 -0.266444 1.837344 0.012847 0.004168 -597888.000000 1 0 0
-18.803733 -1.762997 -6.161819 19.865965 0.093485 1.886168 0.017667 -0.006289 564871.000000 1 0 0
-10.742233 8.545803 -5.864019 14.926923 -0.672011 1.974523 0.007159 -0.001149 1677020.000000 1 0 0
-11.464533 13.791903 -7.019119 19.259287 -0.877288 1.943842 0.016632 -0.003370 488221.000000 1 0 0
-9.362133 10.582203 -4.571919 14.850421 -0.846496 1.883744 -0.001284 -0.000755 -285215.000000 1 0 0
-10.980033 6.340103 -0.128519 12.679691 -0.523652 1.580932 0.004405 0.002305 -475649.000000 1 0 0
-14.592433 9.400203 -1.229019 17.401535 -0.572275 1.641482 0.029669 -0.000835 1042850.000000 1 0 0
-18.600333 3.508003 4.722381 19.508444 -0.186409 1.326299 0.031336 -0.014195 422794.000000 1 0 0
-14.608733 13.216803 0.405681 19.704404 -0.735416 1.550207 0.023300 -0.005099 -302659.000000 1 0 0
-16.555833 2.296703 -9.295419 19.125252 -0.137845 2.078336 -0.006660 0.002138 171798.000000 1 0 0
-9.045533 8.555903 -8.963719 15.341884 -0.757588 2.194770 0.008088 -0.000049 -2111060.000000 1 0 0
-17.598733 4.588203 -2.778119 18.397961 -0.255035 1.722378 0.011616 -0.000544 905780.000000 1 0 0
-13.471333 5.727903 -4.447919 15.299336 -0.402033 1.865782 0.008647 0.005269 -1359890.000000 1 0 0
-12.074033 9.588903 3.327281 15.773400 -0.671179 1.358257 0.002936 -0.005660 581309.000000 1 0 0
-17.561733 2.352603 -4.039019 18.173137 -0.133169 1.794920 0.011726 0.005163 895259.000000 1 0 0
-11.229533 1.486003 -12.551319 16.906988 -0.131565 2.407404 0.019562 -0.006890 -127336.000000 1 0 0
-11.086533 11.951703 3.449081 16.662851 -0.822934 1.362297 0.008427 -0.008687 -75852.400000 1 0 0
-16.094233 13.040203 -4.484719 21.193960 -0.680954 1.784012 0.039136 -0.009194 908576.000000 1 0 0
-11.128233 3.995503 -4.626519 12.696704 -0.344707 1.943771 0.001567 0.000898 -131685.000000 1 0 0
-11.197233 14.977203 -9.306119 20.887759 -0.928821 2.032562 0.027992 -0.016695 138087.000000 1 0 0
-15.326833 7.059503 -0.242219 16.876228 -0.431632 1.585149 0.018930 0.001227 -333376.000000 1 0 0
-12.702733 8.295503 -4.057319 15.704669 -0.578515 1.832111 0.007094 0.000405 1013430.000000 1 0 0
-19.338433 1.732103 -5.863319 20.281856 -0.089330 1.864074 0.023988 -0.003888 57116.100000 1 0 0
-12.791833 10.087003 -8.768419 18.500373 -0.667720 2.064578 0.020398 -0.015385 799584.000000 1 0 0
-16.942133 10.780303 -1.134119 20.113106 -0.566685 1.627213 0.052865 -0.008832 1497310.000000 1 0 0
-10.771033 6.490003 -14.431719 19.141834 -0.542287 2.424829 0.013562 -0.014698 -7650.420000 1 0 0
-13.532433 12.606303 -4.307419 18.989457 -0.749982 1.799620 0.031164 -0.019414 -197251.000000 1 0 0
-17.887733 7.743503 -0.222919 19.493141 -0.408538 1.582232 0.035675 0.000852 494631.000000 1 0 0
-12.756333 6.618703 -2.050519 14.516745 -0.478619 1.712522 0.001471 0.003138 392073.000000 1 0 0
-13.763633 8.367103 -10.569719 19.265642 -0.546218 2.151522 0.015248 -0.005866 -1130390.000000 1 0 0
-15.130133 1.299403 -0.955019 15.215829 -0.085672 1.633602 0.010766 0.000171 -477173.000000 1 0 0
-13.476033 2.698803 -2.443319 13.959112 -0.197652 1.746737 0.004086 0.000419 762768.000000 1 0 0
-11.355633 9.216303 -10.777019 18.166859 -0.681778 2.205854 0.013687 -0.009615 -69545.900000 1 0 0
-15.496033 4.365003 -8.130619 18.035722 -0.274571 2.038465 0.019214 -0.000126 1000060.000000 1 0 0
-18.351833 10.689003 4.425281 21.693955 -0.527414 1.365368 0.059609 -0.016830 617066.000000 1 0 0
-15.372233 6.153303 -6.212419 17.685102 -0.380754 1.929734 0.016363 0.004772 427337.000000 1 0 0
-7.682933 11.304703 -13.204519 19.004818 -0.973878 2.338936 -0.002519 -0.001667 -655051.000000 1 0 0
-16.707933 8.991503 -2.812419 19.181029 -0.493706 1.717952 0.032864 -0.004612 798451.000000 1 0 0
-20.716433 -1.041797 -4.515419 21.228400 0.050246 1.785140 0.022416 -0.011618 72521.600000 1 0 0
-15.488533 4.319103 4.190181 16.616466 -0.271950 1.315874 0.016888 -0.006531 124643.000000 1 0 0
-6.926833 12.688603 -9.571519 17.337694 -1.071099 2.155634 0.010175 -0.005133 1331810.000000 1 0 0
-17.247633 1.548103 5.766181 18.251749 -0.089518 1.249365 0.027591 -0.015943 399060.000000 1 0 0
-10.350733 14.231303 -3.276019 17.899720 -0.941968 1.754854 0.022911 -0.010567 -312228.000000 1 0 0
-10.074633 8.494303 -12.835219 18.395496 -0.700497 2.343030 0.002469 -0.007874 -321340.000000 1 0 0
-13.685233 11.681903 2.759781 18.203540 -0.706588 1.418603 0.017606 -0.008358 -956596.000000 1 0 0
-16.822733 6.648903 1.915681 18.190165 -0.376390 1.465287 0.022962 0.000118 949873.000000 1 0 0
-9.413833 13.205903 -8.573019 18.344285 -0.951498 2.057076 0.022589 -0.018604 -167085.000000 1 0 0
-5.535133 9.793103 -13.014019 17.201955 -1.056353 2.428807 0.003125 -0.001682 -633691.000000 1 0 0
-15.913833 1.820803 3.143281 16.323162 -0.113921 1.377020 0.007693 -0.007130 -867331.000000 1 0 0
-18.530233 -4.905097 4.604781 19.713790 0.258773 1.335037 0.021957 -0.017434 -838976.000000 1 0 0
-5.185133 14.474103 -9.129119 17.880886 -1.226804 2.106623 0.007289 -0.006044 -221835.000000 1 0 0
-15.518933 -0.979597 -6.941719 17.028927 0.063039 1.990667 0.012418 -0.004421 630558.000000 1 0 0
-8.881033 11.026503 -9.582419 17.096177 -0.892756 2.165787 0.003284 -0.010135 443753.000000 1 0 0
-16.799333 1.089703 -6.162519 17.927122 -0.064775 1.921708 0.002438 0.001308 -600154.000000 1 0 0
-11.175233 8.682303 -1.592319 14.240917 -0.660511 1.682844 0.002653 -0.001954 -495042.000000 1 0 0
-10.848333 10.957403 -12.611619 19.919938 -0.790400 2.256368 0.011768 -0.010637 -290338.000000 1 0 0
-14.024833 11.758603 -10.360119 21.030757 -0.697729 2.085891 0.032430 -0.016995 168534.000000 1 0 0
-13.300633 5.756303 -7.633519 16.380247 -0.408445 2.055583 0.013837 0.003128 -368662.000000 1 0 0
-8.782133 15.293903 -5.042919 18.342856 -1.049545 1.849309 0.015482 -0.013271 775396.000000 1 0 0
-8.597533 6.218803 -12.952319 16.743765 -0.626209 2.455237 0.005633 -0.006905 -26106.200000 1 0 0
-16.490933 7.380803 4.270281 18.565087 -0.420829 1.338701 0.034015 -0.004451 -168657.000000 1 0 0
-12.742633 5.480303 -10.177919 17.204606 -0.406162 2.203815 0.018995 -0.003098 206674.000000 1 0 0
-12.572933 9.144303 -13.127619 20.347759 -0.628815 2.272033 0.029172 -0.014887 -634816.000000 1 0 0
-10.905233 5.186903 -8.403419 14.712088 -0.443966 2.178753 0.009474 -0.000078 472417.000000 1 0 0
-17.606133 -4.578397 -2.483619 18.360447 0.254411 1.706482 -0.003123 -0.008138 -347874.000000 1 0 0
-9.044633 13.209603 -11.097319 19.479463 -0.970412 2.176929 0.019815 -0.012538 -309540.000000 1 0 0
-15.103433 6.199103 6.028081 17.403458 -0.389477 1.217095 0.012991 -0.010280 -1241610.000000 1 0 0
-16.353733 -3.350097 -4.353219 17.251616 0.202057 1.825891 0.004825 -0.008325 -1536010.000000 1 0 0
-11.199333 -1.169997 -12.530819 16.846821 0.104093 2.409548 0.014925 -0.008560 235774.000000 1 0 0
-15.491833 6.987403 -8.562919 19.030089 -0.423717 2.037525 0.020778 0.004085 234548.000000 1 0 0
-14.850833 9.100403 1.388381 17.472613 -0.549769 1.491252 0.025760 -0.004262 -268310.000000 1 0 0
-19.445733 5.250603 8.015181 21.678296 -0.263724 1.192075 0.048837 -0.019007 -64377.700000 1 0 0
-16.397533 0.479803 0.908081 16.429666 -0.029252 1.515497 0.011636 -0.006462 -49441.700000 1 0 0
-17.466933 3.722803 7.117181 19.225173 -0.209992 1.191571 0.019338 -0.012007 904785.000000 1 0 0
-15.559733 3.882003 -1.402219 16.097872 -0.244499 1.658013 0.010298 0.001094 -2063420.000000 1 0 0
-10.826033 13.294703 0.399481 17.149685 -0.887389 1.547500 0.018094 -0.006654 -425192.000000 1 0 0
-13.591433 3.226503 0.104081 13.969546 -0.233078 1.563346 0.008259 -0.000457 -145751.000000 1 0 0
-15.268433 -0.082197 -4.396619 15.889055 0.005383 1.851162 0.007794 0.002431 -436551.000000 1 0 0
-18.951733 6.822403 3.596481 20.460891 -0.345545 1.394105 0.048679 -0.003041 1027210.000000 1 0 0
-14.240733 1.214203 -6.340019 15.635492 -0.085057 1.988310 0.009994 -0.000638 -625123.000000 1 0 0
-14.443833 12.116603 5.185581 19.553175 -0.698001 1.302381 0.020093 -0.016622 -78585.500000 1 0 0
17.782267 5.559203 6.256981 19.653589 0.303000 1.246794 0.033448 -0.008073 366888.000000 1 0 0
18.450467 7.581103 -0.204119 19.948296 0.389858 1.581029 0.022243 0.002034 623586.000000 1 0 0
16.646667 5.248503 8.562681 19.441651 0.305423 1.114719 0.030850 -0.003817 261464.000000 1 0 0
11.457767 12.328303 11.094181 20.158083 0.821980 0.988002 0.025828 -0.010435 425992.000000 1 0 0
-2.300133 16.154703 -0.581319 16.327981 -1.429365 1.606406 0.000552 -0.002420 -13360.000000 1 0 0
15.057767 12.646103 3.435981 19.961619 0.698566 1.397805 0.037067 -0.007319 832430.000000 1 0 0
13.498367 11.752203 6.811781 19.149949 0.716355 1.207125 0.034815 -0.008288 769918.000000 1 0 0
-0.743733 15.906603 8.487381 18.044634 -1.524074 1.081103 -0.000057 -0.007590 123068.000000 1 0 0
0.685267 12.990303 9.393681 16.045523 1.518093 0.945374 -0.003697 -0.001007 -470894.000000 1 0 0
0.832767 15.504903 -3.990419 16.031811 1.517138 1.822347 0.004086 -0.007841 776303.000000 1 0 0
5.429067 10.409103 13.616281 17.978523 1.090043 0.711530 0.014127 -0.008960 544469.000000 1 0 0
-1.288133 16.438803 -2.851519 16.733938 -1.492597 1.742035 0.006921 -0.002696 -1150610.000000 1 0 0
8.609067 10.079303 3.321481 13.665307 0.863908 1.325278 0.001379 0.001254 244959.000000 1 0 0
12.619267 13.818703 -4.713819 19.298252 0.830735 1.817554 0.038964 -0.011176 -151371.000000 1 0 0
2.287167 11.624703 7.735581 14.149349 1.376527 0.992367 -0.004698 0.003207 685412.000000 1 0 0
-0.249833 14.966903 -8.790919 17.359460 -1.554105 2.101807 0.014033 -0.002672 -1475510.000000 1 0 0
2.364567 15.959903 0.134781 16.134678 1.423710 1.562443 0.005683 -0.009386 -523606.000000 1 0 0
1.896767 13.443503 5.220081 14.545609 1.430630 1.203732 0.000287 0.002209 104022.000000 1 0 0
17.553367 9.220303 -2.032019 19.931477 0.483661 1.672924 0.012638 0.003163 493311.000000 1 0 0
-7.254133 14.953603 7.144181 18.090661 -1.119132 1.164827 0.002069 -0.011580 -901636.000000 1 0 0
8.504867 15.946803 -0.159219 18.073700 1.080844 1.579606 0.005211 -0.011746 133721.000000 1 0 0
15.631167 10.527803 2.181481 18.971739 0.592728 1.455556 0.024624 -0.001347 130945.000000 1 0 0
14.064967 7.389703 8.608881 18.070524 0.483759 1.074235 0.032886 -0.010873 -1628730.000000 1 0 0
4.225867 18.392303 -1.623519 18.941240 1.344953 1.656615 0.006909 -0.021568 169551.000000 1 0 0
-0.421133 17.557803 -4.919419 18.238818 -1.546815 1.843901 0.014254 -0.007695 295541.000000 1 0 0
1.411867 13.728103 -0.760819 13.821470 1.468312 1.625870 0.003921 -0.005209 -372006.000000 1 0 0
10.225467 14.741403 4.330781 18.456023 0.964341 1.333934 0.017166 -0.011848 -877845.000000 1 0 0
-1.584933 15.284903 -5.212319 16.226785 -1.467473 1.897811 0.010553 -0.001986 366145.000000 1 0 0
15.269867 8.838103 -6.164919 18.689225 0.524681 1.906957 0.024000 0.001265 648603.000000 1 0 0
-2.379533 18.447303 0.749081 18.615217 -1.442514 1.530545 0.012684 -0.008980 203299.000000 1 0 0
-3.814633 19.304803 3.522881 19.990936 -1.375709 1.393647 0.012832 -0.010661 -357437.000000 1 0 0
1.910567 17.737003 -2.736819 18.048316 1.463494 1.723022 0.007895 -0.010605 584841.000000 1 0 0
2.884967 12.168603 3.291681 12.931864 1.338011 1.313424 -0.000281 0.001218 -216515.000000 1 0 0
-2.569333 16.220503 1.891481 16.531300 -1.413701 1.456127 -0.002727 -0.000105 -1176530.000000 1 0 0
11.815567 12.860003 -2.553519 17.649582 0.827700 1.715985 0.009880 0.002888 491076.000000 1 0 0
7.233267 11.661303 4.788481 14.533949 1.015599 1.235056 -0.000811 0.001902 142462.000000 1 0 0
7.179667 15.810503 1.978681 17.476693 1.144532 1.457335 0.002140 -0.008771 -883499.000000 1 0 0
5.439967 12.227403 10.316181 16.897521 1.152192 0.914086 0.003724 -0.001369 -1684060.000000 1 0 0
-1.350733 14.214203 3.138581 14.619122 -1.476054 1.354422 -0.005664 0.004430 -390552.000000 1 0 0
4.672167 16.159003 1.397881 16.878880 1.289335 1.487883 0.001089 -0.012301 -1903010.000000 1 0 0
7.223567 13.050203 12.078481 19.193161 1.065254 0.890129 0.019318 -0.007981 476714.000000 1 0 0
0.829067 17.158803 -9.528919 19.644647 1.522517 2.077233 0.012742 -0.005402 375761.000000 1 0 0
9.783667 9.611603 15.339481 20.576752 0.776527 0.729547 0.043046 -0.013990 -112575.000000 1 0 0
13.491067 7.591603 -0.045819 15.480420 0.512551 1.573756 -0.000291 0.004309 343585.000000 1 0 0
12.404567 13.627703 -0.054819 18.427983 0.832349 1.573771 0.018808 -0.001722 608302.000000 1 0 0
9.371267 12.489403 3.375681 15.975013 0.927079 1.357881 0.006714 0.002261 611070.000000 1 0 0
-0.616733 12.924303 0.761781 12.961415 -1.523114 1.511989 -0.000628 -0.001933 559378.000000 1 0 0
15.959767 7.299603 -0.917719 17.573860 0.428970 1.623041 0.012343 0.003687 -756975.000000 1 0 0
-4.134133 18.516003 -2.554819 19.143159 -1.351126 1.704654 0.013562 -0.000769 109753.000000 1 0 0
11.551067 9.203103 -3.267919 15.126253 0.672745 1.788556 0.006003 0.000563 179509.000000 1 0 0
14.663067 9.806603 7.879281 19.319888 0.589475 1.150717 0.035565 -0.009562 399243.000000 1 0 0
4.451667 13.808803 4.702681 15.251740 1.258937 1.257352 0.003637 0.000838 -44161.300000 1 0 0
2.080167 16.002003 5.546081 17.063124 1.441527 1.239750 0.005392 0.000816 100593.000000 1 0 0
6.092867 18.418303 5.417781 20.142226 1.251323 1.298466 0.015129 -0.021550 17315.900000 1 0 0
10.715067 17.130503 -0.898019 20.225559 1.011840 1.615211 0.033645 -0.013874 -511425.000000 1 0 0
10.003967 13.632203 -4.361319 17.462457 0.937713 1.823223 0.028876 -0.006956 1289370.000000 1 0 0
16.537667 8.031703 2.376181 18.537770 0.452111 1.442262 0.014929 -0.002280 240367.000000 1 0 0
4.002767 14.010303 -0.509619 14.579796 1.292508 1.605757 0.002340 -0.006587 -1011470.000000 1 0 0
5.671167 13.125503 -2.339919 14.488484 1.162951 1.733009 0.003919 -0.004686 -301382.000000 1 0 0
-6.101633 16.917103 -3.054919 18.241459 -1.224640 1.739060 0.011886 0.002630 -1119330.000000 1 0 0
18.150467 10.061803 2.847581 20.947268 0.506181 1.434434 0.040423 -0.008153 1384410.000000 1 0 0
7.868067 13.012803 9.596781 17.981594 1.026972 1.007826 0.018529 -0.004725 1082560.000000 1 0 0
-2.665133 15.754403 6.678881 17.317956 -1.403215 1.174871 -0.002472 -0.003534 -381845.000000 1 0 0
11.166467 16.035403 6.423881 20.569161 0.962515 1.253176 0.029309 -0.009317 -257230.000000 1 0 0
13.490367 11.929603 1.394181 18.062369 0.724076 1.493532 0.023313 -0.001621 -448759.000000 1 0 0
17.555267 7.684103 -5.562719 19.954365 0.412586 1.853312 0.008408 0.012096 -43101.600000 1 0 0
9.373167 9.298003 8.102381 15.490568 0.781373 1.020368 0.008308 -0.005293 -291085.000000 1 0 0
-2.059033 14.145703 -2.018519 14.436584 -1.426253 1.711076 0.000379 0.002483 616237.000000 1 0 0
10.861067 11.668903 0.822081 15.962515 0.821239 1.519273 0.009917 0.005141 697794.000000 1 0 0
11.719367 9.775103 -0.525519 15.269982 0.695190 1.605218 0.001342 0.004778 -1631850.000000 1 0 0
-0.191033 16.203803 10.905881 19.532997 -1.559007 0.978423 0.003613 -0.011574 -543087.000000 1 0 0
2.159567 20.063803 -1.723719 20.253176 1.463574 1.656008 0.017121 -0.022343 -445431.000000 1 0 0
9.273767 14.381803 1.806381 17.207615 0.998067 1.465627 0.009855 -0.006239 -589562.000000 1 0 0
8.641067 11.578303 -5.045719 15.303085 0.929657 1.906802 0.016033 -0.007057 -288849.000000 1 0 0
10.479267 10.098403 10.324181 17.843248 0.766892 0.953780 0.012896 -0.009697 220906.000000 1 0 0
-5.136633 15.832503 5.744681 17.608365 -1.257075 1.238465 -0.012500 -0.003301 262472.000000 1 0 0
14.397167 9.218903 -1.798419 17.190139 0.569546 1.675607 0.013837 0.005743 -177267.000000 1 0 0
12.098067 9.657703 7.008481 16.992741 0.673694 1.145666 0.019955 -0.006368 -799255.000000 1 0 0
3.174867 12.978203 9.609781 16.457868 1.330877 0.947270 0.001067 -0.004865 -737284.000000 1 0 0
8.504867 12.591603 -2.551619 15.407530 0.976745 1.737171 0.009297 -0.002247 -785277.000000 1 0 0
9.483167 16.976503 2.015781 19.549820 1.061370 1.467503 0.014872 -0.011412 -374513.000000 1 0 0
9.708367 13.986003 -7.547219 18.623135 0.964008 1.988060 0.044842 -0.023701 -1863180.000000 1 0 0
6.311367 11.494603 7.285681 15.001347 1.068666 1.063669 0.003520 -0.003257 -1444310.000000 1 0 0
5.578267 16.853303 -5.630319 18.623946 1.251157 1.877918 0.017854 -0.008649 -1239850.000000 1 0 0
-4.103733 17.180303 -4.833119 18.312905 -1.336327 1.837879 0.015004 -0.002348 426785.000000 1 0 0
-0.182233 18.570503 -0.603119 18.581188 -1.560984 1.603261 0.008986 -0.010499 -603677.000000 1 0 0
6.517967 15.599303 -2.791619 17.135206 1.175008 1.734443 0.008358 -0.008569 594181.000000 1 0 0
-0.945333 20.691603 0.711081 20.725388 -1.525141 1.536480 0.016789 -0.012390 -111588.000000 1 0 0
-1.303033 18.871603 4.224781 19.382571 -1.501858 1.351064 0.002448 -0.007418 731201.000000 1 0 0
7.266667 13.672103 -4.363419 16.086338 1.082271 1.845488 0.014101 -0.006966 -609816.000000 1 0 0
-1.006333 11.983703 7.697181 14.278251 -1.487018 1.001447 -0.007517 0.005057 422744.000000 1 0 0
7.541367 10.825403 10.898681 17.112651 0.962332 0.880354 0.011688 -0.008878 -169550.000000 1 0 0
1.598567 16.089503 -7.312619 17.745476 1.471767 1.995536 0.005486 -0.007538 810585.000000 1 0 0
8.838367 7.247103 14.706681 18.625888 0.686793 0.660667 0.027055 -0.010326 185902.000000 1 0 0
11.510767 11.434403 -4.783719 16.915297 0.782070 1.857513 0.025357 -0.004382 -253617.000000 1 0 0
-3.330033 17.068803 4.498981 17.963129 -1.378122 1.317645 -0.007173 0.000373 -192503.000000 1 0 0
4.037467 15.312603 -6.850819 17.254294 1.312994 1.979097 0.013898 -0.012170 -524902.000000 1 0 0
-4.487033 14.026403 9.453481 17.499764 -1.261185 1.000114 0.000411 -0.011216 360032.000000 1 0 0
6.319567 17.995703 0.609781 19.082822 1.233079 1.538836 0.000389 -0.007853 -449604.000000 1 0 0
9.840767 10.728403 -2.135219 14.713887 0.828525 1.716426 0.008086 -0.000228 -2321250.000000 1 0 0
7.318067 18.080903 -2.609919 19.679554 1.186210 1.703809 0.010886 -0.010260 19324.900000 1 0 0
3.463267 10.403603 10.331181 15.065274 1.249444 0.815147 -0.001173 -0.002220 606808.000000 1 0 0
0.008467 18.618003 1.977981 18.722781 1.570342 1.464953 0.007933 -0.009567 446033.000000 1 0 0
-0.850333 17.178303 -7.487619 18.758507 -1.521336 1.981395 0.023214 -0.005501 352357.000000 1 0 0
10.073467 8.738103 12.894381 18.549777 0.714531 0.802205 0.028720 -0.011174 -424434.000000 1 0 0
3.685767 11.373103 5.503281 13.161248 1.257399 1.139396 -0.004430 0.002065 592697.000000 1 0 0
13.115767 14.000703 8.209181 20.867048 0.818021 1.166465 0.037354 -0.012337 -74448.000000 1 0 0
-0.541333 17.363803 6.566181 18.571737 -1.539630 1.209425 0.003339 -0.010958 -436795.000000 1 0 0
12.078367 13.704603 5.811381 19.169644 0.848389 1.262794 0.026595 -0.009287 -1380520.000000 1 0 0
4.895867 14.557803 -4.501419 16.005059 1.246373 1.855893 0.007630 -0.008986 -1221050.000000 1 0 0
3.791867 17.602203 4.669281 18.601559 1.358619 1.317067 0.008425 -0.010960 -1996120.000000 1 0 0
7.100467 11.663403 2.073881 13.811321 1.023945 1.420068 0.004079 0.000499 722334.000000 1 0 0
6.239367 8.782103 11.705081 15.907984 0.953082 0.743950 0.001725 -0.007876 838697.000000 1 0 0
-5.309733 14.820903 1.673081 15.831981 -1.226782 1.464921 -0.005100 0.006706 -62584.300000 1 0 0
6.787167 13.746203 6.084681 16.493850 1.112162 1.192965 0.005545 -0.004786 65982.200000 1 0 0
5.883567 15.921103 4.963981 17.684428 1.216817 1.286275 0.003713 -0.012654 711318.000000 1 0 0
1.335967 18.154903 4.166981 18.674824 1.497342 1.345768 0.016313 -0.006703 -6187.230000 1 0 0
7.455067 17.872703 -7.121119 20.633028 1.175619 1.923176 0.012402 -0.010549 400451.000000 1 0 0
-2.347733 18.757403 -5.929019 19.811746 -1.446281 1.874722 0.033193 -0.011302 -516797.000000 1 0 0
13.601867 9.994203 -4.583119 17.489993 0.633681 1.835934 0.015150 -0.002416 -1365120.000000 1 0 0
-1.629533 18.080603 9.757181 20.609856 -1.480913 1.077623 0.009551 -0.016729 -805103.000000 1 0 0
3.510467 11.773403 -1.526819 12.380128 1.281020 1.694439 0.005542 -0.004218 -63596.500000 1 0 0
4.426467 13.830603 -10.821919 18.110580 1.261049 2.211234 0.011482 -0.021090 -514969.000000 1 0 0
11.602067 13.513403 2.392981 17.970709 0.861354 1.437240 0.022702 -0.003751 723775.000000 1 0 0
15.829467 6.406103 -7.075319 18.484326 0.384547 1.963593 -0.010096 0.003682 -77401.600000 1 0 0
2.535367 16.130403 2.862581 16.577465 1.414892 1.397247 0.006542 -0.005626 -20398.300000 1 0 0
13.390967 10.700103 3.590081 17.512820 0.674164 1.364335 0.019554 0.001074 -760898.000000 1 0 0
-4.945533 19.357903 -5.943119 20.844840 -1.320668 1.859920 0.025223 -0.010537 672708.000000 1 0 0
5.527267 12.144303 0.164581 13.343982 1.143682 1.558462 0.005585 -0.001675 128237.000000 1 0 0
4.708667 15.255903 9.689681 18.676296 1.271427 1.025323 0.010658 -0.011467 -417032.000000 1 0 0
7.773167 9.451503 13.783181 18.431742 0.882529 0.726060 0.023837 -0.015069 -1259360.000000 1 0 0
-4.983233 13.575803 6.942681 16.041691 -1.218998 1.123211 -0.011030 -0.002083 -657701.000000 1 0 0
-4.559533 17.083503 0.508581 17.688812 -1.309979 1.542041 0.003405 0.000560 -1233030.000000 1 0 0
-0.594733 16.591503 3.506181 16.968352 -1.534966 1.362666 0.004155 -0.004221 -1882850.000000 1 0 0
7.968467 16.812403 -4.832219 19.222479 1.128194 1.824906 0.015180 -0.008066 565368.000000 1 0 0
3.196367 16.491703 -4.620019 17.422331 1.379353 1.839185 0.003691 -0.008187 314146.000000 1 0 0
9.382867 14.448403 8.059781 19.019848 0.994839 1.133208 0.017491 -0.012016 -106429.000000 1 0 0
12.721167 10.993203 9.215081 19.172801 0.712661 1.069420 0.033472 -0.013534 1498210.000000 1 0 0
3.556067 12.364203 12.109381 17.667944 1.290745 0.815661 0.004398 -0.007853 603489.000000 1 0 0
-3.244333 19.236503 5.988881 20.406750 -1.403714 1.272936 0.005386 -0.012564 338613.000000 1 0 0
-2.681433 15.773703 10.237081 18.994674 -1.402412 1.001612 0.001255 -0.011148 388825.000000 1 0 0
1.985867 14.316503 7.597981 16.328969 1.432964 1.086815 0.003454 -0.002178 56814.900000 1 0 0
4.331867 17.228803 8.031681 19.496272 1.324471 1.146192 0.016435 -0.010322 184850.000000 1 0 0
-1.937333 13.498703 9.350181 16.534634 -1.428250 0.969768 -0.004102 -0.004855 -1102760.000000 1 0 0
5.784167 17.728803 3.053981 18.896927 1.255427 1.408472 -0.005345 -0.015856 562616.000000 1 0 0
7.485567 15.192303 -6.765819 18.237765 1.112989 1.950859 0.020828 -0.012699 130143.000000 1 0 0
10.983267 7.688803 9.387581 16.366934 0.610758 0.959939 0.018537 -0.007241 1032790.000000 1 0 0
9.062567 16.259703 -2.697719 18.809193 1.062317 1.714718 0.017533 -0.012987 -868486.000000 1 0 0
14.577367 11.314603 -6.678219 19.624435 0.660044 1.918034 0.038356 -0.004131 445551.000000 1 0 0
11.024367 6.661803 16.093081 20.613189 0.543561 0.674983 0.048505 -0.017745 273729.000000 1 0 0
8.458567 8.447503 10.220581 15.727935 0.784744 0.863427 0.008581 -0.008864 1491740.000000 1 0 0
16.215867 9.448403 4.555581 19.312689 0.527575 1.332667 0.025683 -0.008808 227971.000000 1 0 0
-3.510033 14.409303 4.535781 15.508761 -1.331855 1.273992 -0.007512 0.003793 -1861210.000000 1 0 0
4.381867 14.852003 12.602881 19.965354 1.283900 0.887649 0.005616 -0.004473 -903129.000000 1 0 0
16.169867 10.683903 -4.667619 19.934820 0.583881 1.807134 0.030096 -0.003457 610327.000000 1 0 0
14.590567 14.023703 6.190881 21.163078 0.765590 1.273923 0.039287 -0.009392 -1125960.000000 1 0 0
6.112867 9.581903 9.200881 14.623140 1.002932 0.890273 -0.001755 -0.003690 427225.000000 1 0 0
10.422667 12.221503 8.840481 18.334427 0.864671 1.067656 0.024475 -0.009090 277125.000000 1 0 0
7.991767 11.517203 -0.331319 14.022271 0.964177 1.594427 0.002630 0.000023 246230.000000 1 0 0
7.475867 13.533203 -8.742119 17.761216 1.066105 2.085415 0.028422 -0.009143 -63144.100000 1 0 0
2.838067 15.357303 -2.333219 15.790671 1.388056 1.719099 0.004790 -0.008913 349291.000000 1 0 0
12.257667 13.439103 -7.678019 19.743654 0.831342 1.970218 0.043698 -0.023374 62336.300000 1 0 0
-8.025433 14.599503 9.746081 19.301274 -1.068179 1.041478 0.014538 -0.019622 230358.000000 1 0 0
11.499167 9.614503 2.270181 15.159922 0.696371 1.420482 0.013134 0.002474 -2723280.000000 1 0 0
11.996567 8.869603 4.630481 15.621422 0.636647 1.269856 0.014272 -0.000152 329447.000000 1 0 0
14.018267 8.023203 6.194481 17.298994 0.519832 1.204582 0.021380 -0.006406 -958701.000000 1 0 0
16.261167 7.477203 7.191781 19.288749 0.430990 1.188719 0.040659 -0.009165 1822380.000000 1 0 0
13.579167 8.275503 2.500081 16.097457 0.547322 1.414856 0.009631 0.001566 -1347970.000000 1 0 0
-4.040633 17.377803 -7.428019 19.325895 -1.342339 1.965306 0.023832 -0.008612 -36381.800000 1 0 0
3.524467 19.508203 -3.886019 20.201312 1.392058 1.764368 0.018193 -0.019363 457588.000000 1 0 0
-0.205333 14.802603 6.109581 16.015187 -1.556926 1.179392 -0.001172 0.000494 991505.000000 1 0 0
6.740967 16.141803 8.301181 19.362542 1.175202 1.127717 0.022383 -0.008864 205768.000000 1 0 0
12.818467 15.200503 -1.900119 19.974454 0.870209 1.666068 0.039956 -0.011223 -245498.000000 1 0 0
12.547467 15.783403 4.209581 20.597944 0.899125 1.364977 0.036355 -0.013633 247234.000000 1 0 0
3.033367 18.113903 1.209881 18.405939 1.404875 1.505016 0.009823 -0.014313 -617262.000000 1 0 0
10.328167 14.481803 -1.224919 17.829584 0.951278 1.639552 0.015570 -0.000608 -1933660.000000 1 0 0
-6.462333 15.669903 -0.645919 16.962453 -1.179643 1.608885 0.000126 0.004317 -13506.500000 1 0 0
-3.883333 15.857403 -2.619719 16.534825 -1.330632 1.729903 0.006120 0.001769 -749262.000000 1 0 0
-6.905433 16.897003 1.697081 18.332316 -1.182831 1.478090 0.000606 -0.001530 530561.000000 1 0 0
0.006267 19.509903 -6.645519 20.610659 1.570475 1.899093 0.024508 -0.009551 -497851.000000 1 0 0
4.757067 14.882203 7.106581 17.164299 1.261413 1.143916 0.012199 -0.006026 -454740.000000 1 0 0
8.595767 12.242503 7.075081 16.547594 0.958646 1.129005 0.014304 -0.006879 -525160.000000 1 0 0
-7.530833 17.504203 -5.851819 19.933749 -1.164504 1.868749 0.027829 -0.009022 292019.000000 1 0 0
-7.841933 17.702103 -1.446319 19.415257 -1.153783 1.645359 0.021346 -0.002905 -93468.700000 1 0 0
-13.696833 -9.096697 9.287981 18.884378 0.586255 1.056601 0.037212 -0.017968 -528505.000000 1 0 0
-12.650633 -12.890397 7.660881 19.618613 0.794785 1.169632 0.038742 -0.008811 -208373.000000 1 0 0
-4.016933 -14.863297 12.532381 19.852303 1.306844 0.887593 0.011214 -0.021184 -69153.700000 1 0 0
-2.204933 -13.871897 14.893181 20.471886 1.413165 0.756133 0.025162 -0.024307 -1081230.000000 1 0 0
-7.143533 -13.585597 12.754581 19.956900 1.086709 0.877461 0.020466 -0.028640 -42525.900000 1 0 0
-9.831833 -11.524997 9.087081 17.665377 0.864512 1.030488 0.020859 -0.012473 401417.000000 1 0 0
-10.577033 -10.595997 11.400581 18.818131 0.786294 0.919988 0.033432 -0.020599 252590.000000 1 0 0
-6.049633 -12.076197 10.889581 17.349800 1.106385 0.892267 0.015649 -0.022163 741663.000000 1 0 0
-12.395533 -10.308697 7.397581 17.738170 0.693742 1.140607 0.021699 -0.008675 -987840.000000 1 0 0
-7.686133 -10.997897 12.694081 18.470790 0.960827 0.813097 0.026688 -0.025709 81512.600000 1 0 0
-14.671433 -11.403097 7.383881 19.995081 0.660703 1.192557 0.037763 -0.005907 -1061440.000000 1 0 0
-11.017033 -9.183997 9.233881 17.058294 0.694906 0.998798 0.020840 -0.012190 661749.000000 1 0 0
-5.272133 -11.719597 13.231281 18.444814 1.148062 0.770813 0.013802 -0.030134 -876149.000000 1 0 0
4.063667 -12.197897 14.899981 19.680232 -1.249215 0.711928 0.011798 -0.012102 -1804120.000000 1 0 0
6.578367 -12.603897 14.123081 20.039824 -1.089758 0.788725 0.014779 -0.007805 23958.900000 1 0 0
6.713067 -8.311397 16.133881 19.350625 -0.891381 0.584904 0.010322 -0.004863 -1013090.000000 1 0 0
0.698567 -1.712197 14.482681 14.600263 -1.183417 0.126998 0.003927 -0.006845 -1635370.000000 1 0 0
-0.166633 -6.384497 15.625881 16.880691 1.544703 0.388004 0.007308 -0.008760 -248066.000000 1 0 0
-1.454633 -4.594597 18.013581 18.647128 1.264184 0.261418 0.018152 -0.030883 -1139640.000000 1 0 0
-5.239933 12.598503 12.902481 18.779063 -1.176644 0.813351 0.009889 -0.010105 -418751.000000 1 0 0
-4.024033 8.906903 11.629181 15.190906 -1.146456 0.698923 -0.000523 0.001884 -139243.000000 1 0 0
-0.511333 -3.927897 15.086581 15.597909 1.441344 0.256759 0.006406 -0.006590 -481961.000000 1 0 0
-4.419333 9.345703 14.164881 17.536149 -1.129085 0.630465 0.005862 -0.004646 -9194.500000 1 0 0
-13.456533 -2.456697 16.798781 21.663626 0.180577 0.683389 0.026148 0.002655 -47525.500000 1 0 0
-0.316733 0.897103 17.232481 17.258723 -1.231396 0.055152 0.014523 -0.007581 -1169980.000000 1 0 0
-3.147233 -7.282697 15.419981 17.341239 1.162883 0.475184 0.012876 -0.014725 154233.000000 1 0 0
-7.437033 5.650603 12.568681 15.659199 -0.649739 0.639090 0.000864 -0.000829 -336814.000000 1 0 0
-9.811833 9.963503 13.414581 19.377679 -0.793068 0.806167 0.017967 -0.015854 -790071.000000 1 0 0
-5.565833 2.352103 11.124281 12.659404 -0.399833 0.497588 0.007248 -0.001304 -2077210.000000 1 0 0
-7.159433 -7.456697 16.779281 19.707970 0.805733 0.552156 0.018497 -0.023795 -8503.860000 1 0 0
-4.737933 3.104303 18.538681 19.384721 -0.580023 0.296533 0.010636 -0.008285 -306704.000000 1 0 0
0.945967 -8.368097 16.685281 18.690064 -1.458230 0.467416 0.007338 -0.000164 686007.000000 1 0 0
-14.858533 -3.679797 13.824481 20.626032 0.242771 0.836258 0.026923 -0.004232 155016.000000 1 0 0
-14.291033 2.464703 13.085281 19.532869 -0.170785 0.836708 0.018072 -0.001076 -317661.000000 1 0 0
-5.549833 1.008903 16.068781 17.030099 -0.179826 0.337601 0.009940 -0.001695 273242.000000 1 0 0
4.491567 5.648903 15.100581 16.736542 0.899037 0.445832 0.001365 -0.006136 -482655.000000 1 0 0
-1.017933 -11.822897 13.907681 18.282250 1.484910 0.706374 0.006353 -0.022615 -113964.000000 1 0 0
-5.838433 -4.023697 16.759681 18.197922 0.603423 0.400242 0.015320 -0.012204 -225903.000000 1 0 0
-12.987133 -1.498797 9.789581 16.332419 0.114898 0.928050 0.013716 0.000406 -786808.000000 1 0 0
-14.510733 10.440603 10.285581 20.624276 -0.623700 1.048684 0.012390 -0.004195 384675.000000 1 0 0
-3.577133 -3.251997 17.572081 18.224967 0.737824 0.268476 0.016796 -0.017517 -2378180.000000 1 0 0
-7.938333 9.289103 11.873781 17.037936 -0.863646 0.799727 0.003655 -0.008470 -52669.600000 1 0 0
-4.164433 10.693603 16.379581 19.999658 -1.199433 0.611142 0.001492 -0.002875 241293.000000 1 0 0
-12.605133 12.638703 8.027881 19.572253 -0.786728 1.148160 0.011570 -0.024262 621533.000000 1 0 0
-12.626533 3.295503 10.529981 16.768130 -0.255303 0.891847 0.010332 -0.002471 633947.000000 1 0 0
-10.127133 -3.331697 13.651581 17.321221 0.317834 0.663012 0.015833 -0.000786 -1935530.000000 1 0 0
-4.337233 -6.387997 17.696781 19.307878 0.974327 0.411411 0.018533 -0.013388 -744533.000000 1 0 0
0.995867 -3.703797 18.119181 18.520653 -1.308131 0.208594 0.014385 -0.009645 -1148110.000000 1 0 0
-5.944233 1.858703 13.623881 14.979947 -0.303058 0.428778 0.006231 0.003566 -753479.000000 1 0 0
-10.595633 8.767203 10.216481 17.132069 -0.691247 0.931867 0.012753 -0.015150 421167.000000 1 0 0
4.451667 2.543703 17.208181 17.955758 0.519128 0.289574 0.002219 -0.003851 -569892.000000 1 0 0
0.574267 -5.436697 13.326081 14.403885 -1.465559 0.389306 0.002592 -0.004781 -1044230.000000 1 0 0
-4.062033 5.643603 20.722281 21.857797 -0.946932 0.323748 0.024179 -0.012023 -401233.000000 1 0 0
-10.745533 10.889903 8.905581 17.702143 -0.792071 1.043638 0.008872 -0.018328 157629.000000 1 0 0
0.729767 4.149703 13.036881 13.700835 1.396716 0.312593 0.004400 -0.002935 -2399970.000000 1 0 0
-3.230833 7.122903 13.327081 15.452674 -1.144966 0.530716 0.000867 0.001315 -1818090.000000 1 0 0
0.857567 8.883603 14.017981 16.617991 1.474561 0.566951 -0.004676 -0.004197 471386.000000 1 0 0
-4.185033 -6.616897 13.101481 15.262590 1.006839 0.538644 0.011032 -0.012536 136574.000000 1 0 0
-5.054833 8.244003 16.454381 19.085638 -1.020762 0.531330 0.009322 -0.000062 249797.000000 1 0 0
1.644067 -10.778197 15.767281 19.169759 -1.419427 0.604989 0.011070 -0.004006 -202148.000000 1 0 0
-15.183133 -1.036397 14.252381 20.850228 0.068154 0.818167 0.028111 0.001527 357783.000000 1 0 0
-13.540833 -5.236897 8.435381 16.790918 0.369031 1.044450 0.026264 -0.015144 -170835.000000 1 0 0
-14.166233 -1.900497 12.082181 18.715586 0.133361 0.869030 0.024849 -0.000149 323906.000000 1 0 0
9.335867 1.201903 16.970081 19.405840 0.128036 0.506427 0.012789 -0.005935 -486265.000000 1 0 0
5.034667 -6.636297 17.046581 18.972987 -0.921778 0.454534 0.012293 0.001897 -528427.000000 1 0 0
-6.020633 -2.643097 11.005981 12.820515 0.413674 0.538524 0.009800 -0.003660 870824.000000 1 0 0
0.605067 -6.241497 18.056881 19.114742 -1.474156 0.334248 0.015878 -0.012115 36077.900000 1 0 0
-8.346233 11.844003 12.240181 18.967395 -0.956936 0.869344 0.012572 -0.012487 140351.000000 1 0 0
-6.517233 -5.833697 14.853781 17.237783 0.730112 0.532188 0.014447 -0.012330 -696794.000000 1 0 0
-4.310833 -8.879897 17.173281 19.808015 1.118848 0.521673 0.021799 -0.019403 -25892.400000 1 0 0
2.497667 -6.177897 16.313581 17.622079 -1.186597 0.387791 0.011127 -0.008099 2892160.000000 1 0 0
2.281267 5.223803 15.992981 16.978449 1.159052 0.342382 0.003472 -0.008270 -2015550.000000 1 0 0
0.929567 -8.833197 14.073181 16.641631 -1.465947 0.562994 0.005890 -0.008765 -509038.000000 1 0 0
-9.980933 -2.698997 11.263381 15.289453 0.264099 0.742654 0.005783 0.000693 -289414.000000 1 0 0
-1.319133 10.129203 12.354181 16.030180 -1.441294 0.690885 -0.008673 -0.000873 -582143.000000 1 0 0
-12.356333 -3.639297 11.296881 17.133096 0.286430 0.850829 0.019928 -0.003038 -1208350.000000 1 0 0
-1.904833 6.783503 19.910381 21.120312 -1.297042 0.340127 0.013563 -0.009601 -1338370.000000 1 0 0
0.099967 -13.292397 15.717181 20.584645 -1.563276 0.702020 0.006133 -0.017671 -1438360.000000 1 0 0
4.166867 -8.541197 15.424181 18.116848 -1.116912 0.552201 0.012218 -0.005161 -44743.900000 1 0 0
4.426767 -4.424097 16.176881 17.345327 -0.785097 0.369145 0.006417 -0.003197 -331652.000000 1 0 0
7.946367 1.743503 14.809981 16.897340 0.215986 0.502319 -0.001679 -0.000202 -333099.000000 1 0 0
-6.319833 -0.050497 11.804081 13.389517 0.007990 0.491574 0.006973 0.000084 88438.400000 1 0 0
-3.360733 -10.987197 18.414681 21.705149 1.273956 0.557838 0.025868 -0.019775 705301.000000 1 0 0
3.263267 -1.440497 13.683181 14.140488 -0.415703 0.255014 -0.002541 -0.003651 278780.000000 1 0 0
-2.502233 8.822203 15.913581 18.366668 -1.294426 0.522773 0.005106 -0.000784 -1845270.000000 1 0 0
-3.182233 4.117803 14.816181 15.703571 -0.912863 0.337784 0.007226 -0.001088 -581943.000000 1 0 0
-4.448333 -9.036297 19.859981 22.267941 1.113349 0.469346 0.026198 -0.017822 -298335.000000 1 0 0
-5.658733 -3.054197 19.104181 20.157359 0.494925 0.324682 0.014924 -0.013552 -946617.000000 1 0 0
-6.594333 -8.444297 11.183581 15.487539 0.907797 0.763960 0.017470 -0.016545 -541001.000000 1 0 0
-11.665433 2.546403 12.737181 17.458588 -0.214915 0.753110 0.013404 -0.004113 -433333.000000 1 0 0
-11.636933 -7.563397 11.720881 18.165964 0.576338 0.869497 0.024043 -0.011018 493384.000000 1 0 0
-11.078133 -7.309297 15.372681 20.309362 0.583230 0.712200 0.039923 -0.033504 -380469.000000 1 0 0
0.284367 5.689103 17.652981 18.549245 1.520853 0.312129 0.003953 -0.008695 -40528.500000 1 0 0
-2.127833 -0.242597 13.165281 13.338334 0.113521 0.161259 0.009565 -0.001409 -76808.000000 1 0 0
-5.967433 -10.488597 18.358681 21.969572 1.053525 0.581497 0.031493 -0.021979 -457669.000000 1 0 0
0.314167 2.735303 19.070681 19.268406 1.456441 0.143382 0.019983 -0.015532 -456740.000000 1 0 0
-0.627533 10.997003 14.739481 18.400548 -1.513794 0.641774 0.002197 -0.003021 -769362.000000 1 0 0
-12.795133 -2.090697 14.280881 19.288080 0.161967 0.737132 0.022856 0.000827 -798218.000000 1 0 0
-13.843333 8.454803 11.811881 20.065944 -0.548286 0.941405 0.024483 -0.010199 65883.800000 1 0 0
-17.991633 -0.636697 6.960781 19.301729 0.035374 1.201853 0.039512 -0.018789 -645313.000000 1 0 0
-2.193733 -7.700997 17.872481 19.584264 1.293283 0.421212 0.014964 -0.011365 -1510330.000000 1 0 0
5.625667 2.760203 14.522281 15.816558 0.456135 0.407361 -0.001468 -0.003233 -1957010.000000 1 0 0
-14.167233 -6.663297 11.175381 19.235363 0.439632 0.950863 0.038097 -0.016952 744148.000000 1 0 0
3.146667 7.716903 16.146581 18.170421 1.183616 0.476471 0.003729 -0.017358 -685740.000000 1 0 0
0.981467 2.064703 14.614381 14.792106 1.127058 0.155171 0.003624 -0.007228 -2096760.000000 1 0 0
-14.424733 0.846903 9.740081 17.425824 -0.058645 0.977683 0.013028 -0.001224 -836213.000000 1 0 0
-9.571333 -5.140097 15.492381 18.922074 0.492831 0.611572 0.019088 -0.008208 171096.000000 1 0 0
-2.574533 -0.031297 18.104381 18.286548 0.012156 0.141268 0.016950 -0.011169 -145608.000000 1 0 0
6.754367 3.801403 17.404381 19.052155 0.512622 0.418960 0.020874 -0.007478 -376350.000000 1 0 0
-4.174733 -0.872597 14.766581 15.370158 0.206052 0.281173 0.013455 -0.000818 -1091920.000000 1 0 0
4.728267 -8.953697 17.861381 20.531784 -1.084938 0.515719 0.012696 -0.002041 -68708.700000 1 0 0
1.875667 6.718203 13.349781 15.062172 1.298537 0.481477 -0.003350 -0.002075 -1265820.000000 1 0 0
-3.911433 -0.792297 20.191281 20.581907 0.199855 0.195138 0.029550 -0.016546 -606904.000000 1 0 0
-10.603133 1.613103 16.351781 19.555288 -0.150977 0.580512 0.011575 -0.001253 -543573.000000 1 0 0
-4.050033 7.039403 18.458281 20.165915 -1.048708 0.414493 0.013657 -0.003409 -799595.000000 1 0 0
-12.660033 1.128803 14.730181 19.455819 -0.088928 0.711919 0.020703 0.001325 -778095.000000 1 0 0
-16.096133 -4.814397 8.451981 18.806911 0.290633 1.104694 0.038670 -0.019848 -1164610.000000 1 0 0
-2.409433 0.782503 15.649081 15.852805 -0.314021 0.160490 0.013644 -0.004133 -66612.800000 1 0 0
-13.706433 -8.982697 12.338181 20.513066 0.580137 0.925445 0.032869 -0.027924 570880.000000 1 0 0
6.042267 -3.114097 14.542481 16.052736 -0.475880 0.437251 -0.001662 -0.003005 529218.000000 1 0 0
-15.749333 0.456303 7.556381 17.474227 -0.028965 1.123610 0.018546 -0.009125 -318322.000000 1 0 0
-14.222733 5.909603 12.455681 19.807916 -0.393800 0.890757 0.027389 -0.011284 -308172.000000 1 0 0
0.402067 9.394303 16.547881 19.032786 1.528023 0.516727 -0.000877 -0.017029 -388666.000000 1 0 0
-10.397933 -5.341397 10.843881 15.944820 0.474546 0.822914 0.018847 -0.008989 -263837.000000 1 0 0
-3.162933 -10.920197 15.106781 18.906869 1.288870 0.645149 0.017173 -0.020726 -1210080.000000 1 0 0
-3.559633 2.901403 12.588581 13.400056 -0.683872 0.349797 0.007381 -0.001332 -2107720.000000 1 0 0
-12.291733 -7.693897 7.568481 16.357404 0.559276 1.089764 0.025342 -0.009907 401338.000000 1 0 0
-8.167533 -1.813097 13.161381 15.595444 0.218446 0.566239 0.012740 -0.000202 -127906.000000 1 0 0
-9.917933 6.492103 9.482781 15.180117 -0.579590 0.896069 0.010006 -0.009340 -345144.000000 1 0 0
-17.841733 -3.561597 6.718781 19.394701 0.197032 1.217040 0.029663 -0.022427 98796.700000 1 0 0
-1.459433 0.077103 20.416981 20.469221 -0.052782 0.071459 0.023419 -0.014224 -911406.000000 1 0 0
-2.830933 2.675603 20.145681 20.518809 -0.757197 0.190998 0.029314 -0.012402 -530063.000000 1 0 0
-3.792933 11.368303 11.213381 16.412330 -1.248769 0.818621 -0.001370 -0.004694 -843589.000000 1 0 0
-4.158633 -4.828897 14.858781 16.167741 0.859837 0.405161 0.012553 -0.013151 -681487.000000 1 0 0
-0.193033 -14.204197 13.254681 19.428923 1.557207 0.820010 0.019179 -0.024422 -563417.000000 1 0 0
-12.203333 0.517203 8.422981 14.836963 -0.042357 0.967084 0.007042 -0.000308 -594113.000000 1 0 0
-7.812533 2.114203 15.405081 17.401783 -0.264287 0.483746 0.004530 0.001150 -149482.000000 1 0 0
3.673667 -2.124997 18.613281 19.090984 -0.524416 0.224176 0.011017 0.001052 -290933.000000 1 0 0
-2.099633 4.933003 12.567981 13.663716 -1.168392 0.403208 -0.001545 0.000359 -406236.000000 1 0 0
-10.427333 -6.063197 13.300181 17.955123 0.526684 0.736617 0.017701 -0.014100 193224.000000 1 0 0
2.354067 -3.638897 14.330381 14.971407 -0.996591 0.293686 -0.000828 -0.004641 -602512.000000 1 0 0
6.699967 1.188803 17.143081 18.444187 0.175607 0.377858 -0.005989 0.002789 -480079.000000 1 0 0
-1.942833 -5.690197 13.892581 15.137924 1.241772 0.408460 0.003680 -0.008268 -2589570.000000 1 0 0
-12.760633 3.694303 14.717681 19.826542 -0.281803 0.734267 0.001284 0.002828 148417.000000 1 0 0
-13.406733 -6.876397 13.634581 20.320609 0.473919 0.835276 0.036241 -0.009722 -258233.000000 1 0 0
-9.609833 6.956703 11.960481 16.846297 -0.626597 0.781331 0.010800 -0.004865 91924.400000 1 0 0
-1.089833 -2.570697 12.930781 13.228807 1.169820 0.212667 0.003102 -0.004942 266687.000000 1 0 0
0.193267 6.694303 15.260281 16.665150 1.541934 0.413549 0.000263 -0.005870 372838.000000 1 0 0
-16.504633 -0.870697 9.749681 19.188990 0.052706 1.037834 0.032104 -0.002446 7894.200000 1 0 0
-1.314633 2.707603 13.684981 14.012069 -1.118788 0.216493 0.005426 -0.003620 -2883690.000000 1 0 0
-11.196733 -3.294597 15.979081 19.787679 0.286170 0.630849 0.021608 -0.007163 -2101600.000000 1 0 0
-5.284533 -1.395697 17.096681 17.949116 0.258214 0.309427 0.025873 -0.003478 194797.000000 1 0 0
-12.036533 6.662103 11.107581 17.681632 -0.505519 0.891560 0.017770 -0.008685 -1445580.000000 1 0 0
-2.711433 4.784603 18.675581 19.468478 -1.055222 0.286380 0.015011 -0.005260 203317.000000 1 0 0
5.085767 -1.858097 16.487781 17.354091 -0.350286 0.317303 -0.002763 -0.001362 -859719.000000 1 0 0
-8.060033 -4.137197 12.125881 15.136629 0.474229 0.641673 0.014226 -0.003651 -1119200.000000 1 0 0
-11.571933 -0.802797 16.184081 19.911771 0.069264 0.621871 0.024117 0.000721 -60183.800000 1 0 0
1.956467 1.996803 17.396081 17.619269 0.795601 0.159337 0.005637 -0.009032 -1740510.000000 1 0 0
-8.992033 -7.401697 11.721581 16.523839 0.688692 0.782187 0.021287 -0.011341 358422.000000 1 0 0
-7.187933 6.979803 14.804681 17.876315 -0.770709 0.594956 0.000223 -0.003551 -875818.000000 1 0 0
-5.603433 3.497003 15.748681 17.077718 -0.557939 0.397124 0.002558 -0.001111 212285.000000 1 0 0
-9.303533 4.345603 11.546481 15.451900 -0.436976 0.726877 0.003324 -0.004452 50104.300000 1 0 0
-10.323433 0.148903 14.230881 17.581622 -0.014423 0.627636 0.012141 0.002070 -341955.000000 1 0 0
8.064667 -0.644897 15.808481 17.758458 -0.079796 0.473024 0.002345 -0.004007 96589.000000 1 0 0
-8.592133 -7.456297 14.614581 18.520451 0.714740 0.661446 0.025089 -0.017270 -256941.000000 1 0 0
0.011667 4.153903 15.485381 16.032844 1.567988 0.262078 0.006623 -0.010118 -190725.000000 1 0 0
-8.035433 3.182703 9.621281 12.933168 -0.377126 0.731875 0.002640 -0.000176 -645404.000000 1 0 0
-2.085333 -9.543397 13.184381 16.408929 1.355667 0.637665 0.000960 -0.017141 598045.000000 1 0 0
-6.131333 10.330703 10.499381 15.954738 -1.035166 0.852540 0.007316 -0.008050 -1457980.000000 1 0 0
-8.620333 -2.693897 15.644781 18.064507 0.302889 0.523548 0.014309 -0.007230 959704.000000 1 0 0
4.245567 5.817003 17.630281 19.044400 0.940313 0.387792 0.008683 -0.006315 114873.000000 1 0 0
-6.779433 -0.880197 15.084781 16.561585 0.129111 0.425507 0.008030 -0.000892 -684251.000000 1 0 0
-0.853633 -9.891297 15.571481 18.467200 1.484708 0.567594 0.005681 -0.008796 -1264820.000000 1 0 0
-4.353833 5.802503 16.226181 17.773966 -0.927080 0.420418 0.006507 -0.003888 157673.000000 1 0 0
3.761767 0.111903 17.478381 17.878960 0.029739 0.212081 0.007197 -0.005621 -545612.000000 1 0 0
1.275667 0.348703 19.262581 19.307925 0.266831 0.068547 0.013995 -0.009063 -318472.000000 1 0 0
-6.421633 6.381803 17.767781 19.941385 -0.782287 0.471252 0.011907 -0.005845 -595273.000000 1 0 0
-12.245133 0.680703 10.978181 16.459864 -0.055533 0.840666 0.015530 -0.000746 -461969.000000 1 0 0
-5.356833 5.272103 13.952181 15.847842 -0.777427 0.494126 0.003191 0.002405 -1137640.000000 1 0 0
-8.604933 -9.464197 10.114881 16.307260 0.832917 0.901711 0.020439 -0.011850 -562309.000000 1 0 0
6.847667 -3.716497 16.987681 18.689147 -0.497252 0.430014 0.006354 -0.003492 -86986.000000 1 0 0
-16.858433 1.681303 9.584581 19.465296 -0.099402 1.055959 0.034602 -0.009493 612058.000000 1 0 0
-4.119133 -9.458997 11.420181 15.390270 1.160089 0.734689 0.004497 -0.018982 -783352.000000 1 0 0
-11.076033 -3.774597 9.123481 14.837925 0.328446 0.908568 0.011156 -0.002095 -593756.000000 1 0 0
3.587667 -5.129997 18.590081 19.615793 -0.960506 0.324815 0.007156 -0.006278 -401503.000000 1 0 0
2.487367 -1.727097 16.268481 16.547910 -0.606922 0.184032 0.006034 -0.009052 -846054.000000 1 0 0
-3.031833 -4.180797 20.020281 20.675656 0.943370 0.252455 0.024694 -0.021454 -1169030.000000 1 0 0
-6.282133 -3.264997 14.392181 16.039336 0.479305 0.457170 0.013989 -0.004999 408561.000000 1 0 0
-9.660133 5.166503 13.938381 17.728209 -0.491120 0.666118 0.013265 -0.006085 266952.000000 1 0 0
-5.812633 -5.090997 11.687681 14.010955 0.719311 0.584149 0.009017 -0.006473 694468.000000 1 0 0
5.928667 2.142503 19.340181 20.341633 0.346777 0.315090 0.012071 -0.007759 201633.000000 1 0 0
-2.760333 11.928003 13.539481 18.254157 -1.343383 0.735164 0.005198 -0.008372 115777.000000 1 0 0
3.351467 1.243403 15.218681 15.632870 0.355262 0.230706 0.000601 -0.004699 -220699.000000 1 0 0
-5.742133 7.566603 12.821881 15.957011 -0.921637 0.637600 -0.002865 -0.002799 -1935930.000000 1 0 0
-1.807933 -1.705797 15.239081 15.440465 0.756339 0.161685 0.010350 -0.005730 -923414.000000 1 0 0
-7.190033 10.286903 14.053681 18.842052 -0.960775 0.728959 0.020445 -0.019551 868730.000000 1 0 0
-10.160733 2.159703 10.564081 14.815689 -0.209437 0.776981 0.006561 -0.000842 -818108.000000 1 0 0
-13.617333 5.249203 9.028281 17.160879 -0.367926 1.016792 0.006220 -0.009725 610265.000000 1 0 0
0.084367 -4.987897 20.225581 20.831715 -1.553884 0.241822 0.014856 -0.013280 -590166.000000 1 0 0
-14.468833 -2.910497 7.480681 16.546260 0.198507 1.101670 0.021752 -0.009712 676953.000000 1 0 0
-2.396333 2.486503 17.514181 17.851377 -0.803863 0.194673 0.015334 -0.010035 -536408.000000 1 0 0
-6.240033 -8.492497 14.548581 17.964458 0.937114 0.626894 0.013867 -0.017945 -242743.000000 1 0 0
-7.960233 2.068003 11.970881 14.523910 -0.254173 0.601975 0.003871 -0.000923 217294.000000 1 0 0
-14.607733 -3.457297 10.055581 18.068024 0.232399 0.980581 0.023699 -0.008217 -55915.200000 1 0 0
-0.652733 7.178803 12.848781 14.732700 -1.480121 0.511264 -0.000543 -0.000638 -1251700.000000 1 0 0
-1.788333 -2.166797 19.181381 19.386040 0.880797 0.145435 0.022870 -0.018993 -87428.200000 1 0 0
-12.767133 10.241203 7.241681 17.897594 -0.676053 1.154236 0.005410 -0.019888 654382.000000 1 0 0
-19.645033 2.122503 6.693881 20.862416 -0.107625 1.244161 0.052741 -0.023993 1511550.000000 1 0 0
-16.434633 8.398403 6.605681 19.602688 -0.472424 1.227091 0.034427 -0.007130 415395.000000 1 0 0
-12.461133 7.292403 13.634281 19.858313 -0.529475 0.814024 0.022088 -0.010550 259404.000000 1 0 0
-15.980333 8.360703 10.415781 20.826927 -0.482025 1.047069 0.021265 -0.004177 -1239200.000000 1 0 0
1.910167 10.874403 15.064381 18.677177 1.396913 0.632476 0.001894 -0.011045 -1161150.000000 1 0 0
1.940467 14.398803 12.479581 19.152830 1.436838 0.861132 0.001406 -0.010712 -1161700.000000 1 0 0
-3.261133 13.767503 11.675781 18.344018 -1.338211 0.880858 -0.001231 -0.006324 249459.000000 1 0 0
9.020167 4.978103 15.890681 18.938286 0.504290 0.575212 0.026196 0.000745 -99965.200000 1 0 0
-0.372533 12.574303 12.724681 17.893278 -1.541178 0.779674 -0.009401 -0.008489 -80884.100000 1 0 0
3.532367 13.332303 14.475981 19.994548 1.311799 0.761218 0.011899 -0.010792 36914.400000 1 0 0
-3.003233 -4.187497 -13.880619 14.806286 0.948626 2.786118 0.004216 -0.003449 -337160.000000 1 0 0
5.974967 -11.425197 16.341881 20.815678 -1.088947 0.667978 0.011127 -0.001961 19902.000000 1 0 0
7.864367 -13.473497 7.406881 17.269779 -1.042455 1.127530 0.002146 -0.010902 -393593.000000 1 0 0
-0.151233 15.681903 1.238081 15.731427 -1.561153 1.492014 0.003633 -0.002971 -2482300.000000 1 0 0
-13.780833 8.199903 9.126781 18.451231 -0.536751 1.053372 0.007522 -0.007035 465520.000000 1 0 0
-15.411233 -9.784697 4.955381 18.915660 0.565692 1.305731 0.026014 -0.009188 -921300.000000 1 0 0
9.455967 -10.938197 11.105181 18.231415 -0.857950 0.915842 0.012658 -0.003283 -260620.000000 1 0 0
-5.985433 -10.190597 -16.845519 20.577784 1.039731 2.529812 0.029648 0.000433 52885.400000 1 0 0
-2.078633 -12.639297 -14.806519 19.578191 1.407797 2.428399 0.019491 -0.001683 -69862.300000 1 0 0
5.224067 -15.994397 -12.232719 20.802668 -1.255101 2.199425 0.016473 -0.005971 240438.000000 1 0 0
2.790967 -11.816097 -16.463119 20.455902 -1.338847 2.506152 0.024182 -0.009132 377087.000000 1 0 0
1.620367 -14.284597 -14.896519 20.702212 -1.457845 2.373967 0.062473 0.017681 370455.000000 1 0 0
-6.838533 -5.893797 -14.767219 17.308181 0.711334 2.592873 0.025558 0.001427 -13106.900000 1 0 0
-6.018833 -8.187997 -17.348319 20.105567 0.936913 2.611700 0.010823 0.001037 -63664.400000 1 0 0
-2.351033 -16.293597 -13.094919 21.035341 1.427494 2.242755 0.015212 -0.007340 474405.000000 1 0 0
16.620767 -7.972797 -8.588819 20.336745 -0.447267 2.006811 0.066037 -0.021888 51148.000000 1 0 0
18.973867 -2.925597 -3.634919 19.539175 -0.152986 1.757919 0.023661 -0.016445 128437.000000 1 0 0
15.793267 -10.995497 -9.147119 21.307229 -0.608181 2.014510 0.050712 -0.033798 230329.000000 1 0 0
18.373667 -2.615997 -6.524819 19.672527 -0.141427 1.908871 0.130716 -0.001911 -265006.000000 1 0 0
9.067067 -9.742297 -15.804119 20.661419 -0.821281 2.441697 0.045348 0.000956 170552.000000 1 0 0
-4.686333 9.373503 -16.095519 19.206509 -1.107184 2.564448 0.003537 -0.007755 343994.000000 1 0 0
2.043767 -9.904797 -18.976519 21.503261 -1.367311 2.651937 0.023332 0.013314 435765.000000 1 0 0
11.137667 7.821503 -14.935519 20.206268 0.612239 2.402608 0.056969 -0.045501 360090.000000 1 0 0
18.721767 -6.122397 -9.028519 21.668005 -0.316058 2.000581 0.061326 -0.008491 325676.000000 1 0 0
12.712867 5.603103 -13.623619 19.458025 0.415129 2.346410 0.028980 -0.015361 81214.000000 1 0 0
16.015267 6.083403 -11.031019 20.375965 0.363016 2.142867 0.008199 -0.004487 161036.000000 1 0 0
3.337167 -0.239897 -19.077719 19.368882 -0.071763 2.967982 0.024392 -0.015244 160645.000000 1 0 0
10.441567 -1.664997 -14.720819 18.124598 -0.158127 2.518712 0.030365 -0.009062 124590.000000 1 0 0
12.153567 -6.290797 -14.051919 19.614783 -0.477635 2.369417 0.042184 0.000025 206193.000000 1 0 0
10.284067 6.585803 -12.908419 17.769696 0.569589 2.383907 0.025882 -0.007662 452046.000000 1 0 0
10.628367 5.130103 -16.838319 20.562323 0.449696 2.530274 0.034621 -0.004963 231505.000000 1 0 0
12.048467 -10.166597 -14.885919 21.682154 -0.700889 2.327532 0.058533 -0.016021 343305.000000 1 0 0
-0.856633 2.463203 -17.446819 17.640654 -1.236108 2.993214 0.010772 -0.008111 408925.000000 1 0 0
6.561567 -0.953697 -17.258119 18.488006 -0.144335 2.774784 0.022328 0.004651 171905.000000 1 0 0
6.285367 -5.770997 -15.633419 17.810503 -0.742760 2.641971 -0.011050 -0.010454 198820.000000 1 0 0
-2.064133 -5.111397 -20.277219 21.013154 1.186993 2.876154 0.029952 -0.025343 121119.000000 1 0 0
16.451867 -0.020397 -13.406919 21.222860 -0.001240 2.254567 0.034979 0.000748 77200.100000 1 0 0
-4.006633 -0.360597 -18.359419 18.794983 0.089758 2.925886 0.007583 -0.014149 162051.000000 1 0 0
3.259667 8.569203 -17.796319 20.019132 1.207306 2.665878 0.018071 -0.016318 -210596.000000 1 0 0
9.878567 0.660703 -16.491419 19.235111 0.066783 2.600915 0.039590 -0.036512 -119598.000000 1 0 0
4.297167 4.305803 -18.133919 19.127064 0.786402 2.817928 0.025478 -0.015829 473096.000000 1 0 0
-2.388033 -11.229197 -18.208419 21.525429 1.361255 2.579052 0.042154 -0.008538 144053.000000 1 0 0
5.569567 -9.817597 -15.792419 19.411486 -1.054765 2.521046 0.001027 -0.005876 43939.100000 1 0 0
10.058767 -12.595897 -10.688219 19.340978 -0.896925 2.156301 0.024258 -0.004882 102895.000000 1 0 0
6.292867 6.879703 -17.105819 19.481774 0.829919 2.642552 0.034840 -0.016085 473010.000000 1 0 0
8.414067 1.730303 -20.156319 21.910446 0.202817 2.738726 0.039901 -0.015508 85803.500000 1 0 0
-1.137333 -0.878897 -20.200919 20.251990 0.657915 3.070559 0.019271 -0.014772 57294.000000 1 0 0
-0.785333 6.706603 -19.622319 20.751643 -1.454229 2.810166 0.016585 -0.004076 109386.000000 1 0 0
8.536167 5.806203 -18.382219 21.082792 0.597306 2.629878 0.047264 -0.019022 -34133.700000 1 0 0
12.188167 0.090103 -13.140519 17.922967 0.007393 2.393763 0.013231 -0.001353 -74350.800000 1 0 0
-3.896333 -2.411297 -19.593919 20.122560 0.554174 2.911867 -0.006809 -0.014553 356389.000000 1 0 0
6.291967 -11.575097 -14.485719 19.580801 -1.072897 2.403557 0.013713 -0.004525 2819.020000 1 0 0
11.775567 3.106503 -15.705219 19.873808 0.257933 2.482008 0.048578 -0.009403 -105958.000000 1 0 0
-2.734833 -4.356297 -17.174719 17.928402 1.010194 2.850607 0.000383 -0.002511 168372.000000 1 0 0
-6.721333 -4.683697 -17.334919 19.173230 0.608602 2.700114 0.029572 -0.014482 -14669.300000 1 0 0
2.710967 10.480303 -15.368319 18.798173 1.317672 2.527928 0.003880 -0.003022 218187.000000 1 0 0
16.850667 -6.399997 -11.082119 21.159355 -0.362978 2.122038 0.047245 -0.015380 -77934.400000 1 0 0
9.699867 -3.632997 -17.500619 20.336119 -0.358368 2.607181 0.029150 -0.015088 83550.700000 1 0 0
-7.001733 -1.561997 -19.073019 20.377540 0.219493 2.781836 0.000645 0.012708 453126.000000 1 0 0
1.734667 -7.661297 -19.385019 20.916106 -1.348131 2.756593 0.026236 -0.012760 214927.000000 1 0 0
5.884167 10.380303 -13.892219 18.313051 1.055102 2.431953 0.027018 -0.015076 398508.000000 1 0 0
5.831067 -3.507297 -18.167619 19.400125 -0.541510 2.783221 0.016172 -0.008756 542970.000000 1 0 0
4.680467 13.295703 -14.662819 20.339143 1.232316 2.375920 0.023415 -0.012295 104625.000000 1 0 0
9.625867 11.218503 -15.374019 21.327742 0.861656 2.375819 0.071470 -0.030856 -45458.200000 1 0 0
17.039867 0.993903 -11.190919 20.410330 0.058262 2.151123 0.022625 -0.001375 136541.000000 1 0 0
15.389067 -2.872697 -12.120319 19.798431 -0.184547 2.229618 0.037599 -0.008453 171640.000000 1 0 0
-8.768933 0.476703 -17.303819 19.404731 -0.054309 2.671954 0.020505 -0.013581 436844.000000 1 0 0
-3.333933 4.204803 -19.009819 19.752688 -0.900408 2.866469 0.011898 -0.007519 74016.300000 1 0 0
3.739467 1.576103 -16.785419 17.268989 0.398884 2.904384 0.012887 -0.010955 492613.000000 1 0 0
-4.927333 14.242703 -14.033719 20.593166 -1.237730 2.320572 0.000872 -0.004360 262024.000000 1 0 0
0.787467 9.665803 -17.752219 20.228424 1.489507 2.641604 0.004699 0.009564 291123.000000 1 0 0
1.390367 -5.235297 -19.799019 20.526631 -1.311213 2.874540 0.021709 -0.004859 568880.000000 1 0 0
3.559067 -6.244697 -17.994719 19.377128 -1.052777 2.761574 0.019269 -0.019415 -81210.000000 1 0 0
-6.979133 7.449303 -15.925519 18.916199 -0.817973 2.571588 0.004215 -0.000699 -2319.020000 1 0 0
-11.859033 3.020003 -16.635519 20.651818 -0.249358 2.507354 0.039676 -0.022480 285141.000000 1 0 0
-4.109033 6.520403 -17.371119 19.004094 -1.008480 2.724011 0.010499 0.006307 341686.000000 1 0 0
-8.274433 5.267703 -17.624019 20.169804 -0.566915 2.633723 0.021166 -0.009779 397232.000000 1 0 0
-8.481633 4.531203 -15.198519 17.985129 -0.490661 2.577474 -0.000885 -0.011332 532227.000000 1 0 0
9.425867 14.134003 -12.260419 20.950773 0.982637 2.195925 0.055872 -0.025285 399117.000000 1 0 0
14.695367 9.505103 -12.031419 21.238075 0.574129 2.173052 0.066951 -0.018908 -138028.000000 1 0 0
8.479367 15.562503 -9.962419 20.330788 1.071909 2.082905 0.024043 -0.015807 10117.500000 1 0 0
8.017967 13.134903 -14.451219 21.110452 1.022741 2.324786 0.055396 -0.030062 185027.000000 1 0 0
4.247767 15.228903 -12.964319 20.445943 1.298782 2.257612 0.020939 -0.025163 212151.000000 1 0 0
10.826867 11.778803 -11.092619 19.468113 0.827484 2.177039 0.038680 -0.025863 103142.000000 1 0 0
16.115967 10.322803 -8.952919 21.129113 0.569691 2.008349 0.042699 -0.041500 339310.000000 1 0 0
13.203367 11.286803 -10.153819 20.120160 0.707299 2.099783 0.042967 -0.019166 -9432.580000 1 0 0
10.561067 11.332703 -7.514819 17.217398 0.820628 2.022464 0.023419 -0.012832 -121037.000000 1 0 0
5.054067 16.804903 -10.152819 20.273828 1.278652 2.095301 0.027550 -0.015003 -129849.000000 1 0 0
11.811267 13.718703 -10.393719 20.874344 0.859973 2.091993 0.070242 -0.029611 190173.000000 1 0 0
8.426967 -19.501897 -1.766819 21.318053 -1.162919 1.653770 0.034169 -0.005045 250885.000000 1 0 0
7.860667 -17.266297 -4.177619 19.425951 -1.143576 1.787543 0.039794 -0.005219 196246.000000 1 0 0
4.179367 -19.059597 5.964281 20.403627 -1.354934 1.274150 0.041850 -0.006914 303972.000000 1 0 0
10.362667 -17.949397 -2.519819 20.878582 -1.047215 1.691780 0.035062 -0.004654 558750.000000 1 0 0
-3.754733 -14.846597 8.113081 17.330365 1.323088 1.083609 0.035376 -0.029745 -313285.000000 1 0 0
-15.379133 -12.818097 -4.117519 20.439553 0.694821 1.773633 0.038169 -0.012830 133302.000000 1 0 0
-9.286833 -12.496997 -7.181419 17.146224 0.931710 2.002957 0.022107 -0.010804 190100.000000 1 0 0
-11.655833 -15.376397 6.840981 20.471714 0.922173 1.230075 0.024967 -0.003957 430014.000000 1 0 0
-14.902233 -7.704697 -7.425719 18.346123 0.477168 1.987509 0.040454 -0.020575 -167875.000000 1 0 0
5.278767 -15.856697 5.374781 17.555298 -1.249432 1.259637 0.023963 -0.011942 165652.000000 1 0 0
2.663167 -14.204297 9.008481 17.029599 -1.385458 1.013387 0.012493 -0.012665 494167.000000 1 0 0
3.198867 -17.519097 10.022281 20.435206 -1.390193 1.058200 0.033129 -0.011801 253144.000000 1 0 0
-7.721333 -17.393597 -5.123419 19.708009 1.153012 1.833784 -0.008528 -0.009484 99597.100000 1 0 0
1.879067 -19.744697 -4.230219 20.280007 -1.475914 1.780930 0.016031 -0.013607 -31567.900000 1 0 0
-18.374733 -9.933097 -2.800319 21.074606 0.495586 1.704067 0.030537 -0.025538 -4428.620000 1 0 0
-4.298333 -14.824897 2.942381 15.713397 1.288594 1.382431 0.004630 -0.000477 166232.000000 1 0 0
-10.473533 -9.376397 -14.699719 20.339456 0.730183 2.378525 0.012121 -0.000197 279464.000000 1 0 0
0.608567 -20.361797 2.630781 20.540062 -1.540918 1.442363 0.027020 -0.006209 331606.000000 1 0 0
6.071467 -18.056897 -0.258019 19.052055 -1.246431 1.584340 0.014195 -0.014342 -148464.000000 1 0 0
-7.218233 -19.111997 -3.126019 20.667446 1.209677 1.722632 -0.013608 -0.009385 43182.400000 1 0 0
-9.172533 -15.752797 -7.799219 19.827097 1.043508 1.975081 0.041266 -0.003413 48602.300000 1 0 0
-11.963033 -11.092297 -12.578519 20.600300 0.747649 2.227613 0.032447 0.009929 322248.000000 1 0 0
-13.115033 -15.151097 -3.207519 20.294039 0.857306 1.729514 0.031734 -0.013007 128479.000000 1 0 0
-0.348833 -20.672097 -2.604319 20.838420 1.553923 1.696101 0.016233 -0.002676 246197.000000 1 0 0
-12.091833 -16.964697 -0.882619 20.851676 0.951555 1.613137 0.033734 -0.002558 109637.000000 1 0 0
0.811967 -20.056597 5.493081 20.811062 -1.530335 1.303681 0.038144 -0.012524 171455.000000 1 0 0
-17.780233 -8.592297 2.830881 19.949390 0.450158 1.428413 0.012107 -0.015272 -113326.000000 1 0 0
-15.008833 -14.988497 -0.681319 21.222260 0.784720 1.602906 0.042852 -0.014446 -68744.400000 1 0 0
10.544167 -15.160197 -5.165319 19.175285 -0.963086 1.843539 0.030369 -0.014349 -300391.000000 1 0 0
-0.578633 -19.086097 -6.959319 20.323534 1.540489 1.920295 -0.008695 -0.006440 186890.000000 1 0 0
-9.857033 -16.673897 -2.497519 19.529914 1.036898 1.699029 0.023062 -0.011186 479778.000000 1 0 0
-14.403533 -6.530297 -11.327619 19.453059 0.425663 2.192358 0.011682 -0.008977 -110697.000000 1 0 0
-12.477933 -15.195197 1.983581 19.761767 0.883276 1.470252 0.032644 -0.016023 301721.000000 1 0 0
-1.721533 -15.148297 9.964181 18.213168 1.457636 0.991916 -0.002738 -0.034864 467242.000000 1 0 0
-12.201633 -14.682497 -6.737519 20.244746 0.877417 1.910071 0.030890 -0.001193 186481.000000 1 0 0
5.269167 -17.031797 -7.141019 19.205217 -1.270763 1.951773 0.031166 -0.019057 -55290.600000 1 0 0
-17.409333 -7.593697 -3.057219 19.237872 0.411307 1.730390 -0.017059 -0.002389 -146527.000000 1 0 0
-12.159633 -13.607597 -9.326219 20.493944 0.841533 2.043249 0.044698 -0.018394 71318.800000 1 0 0
-7.929733 -13.828697 10.176981 18.912548 1.050146 1.002606 0.025925 -0.009959 633301.000000 1 0 0
-16.024533 -8.346697 -5.600419 18.916070 0.480204 1.871368 0.035619 -0.000896 245547.000000 1 0 0
-1.048933 -19.755797 -0.259419 19.785325 1.517751 1.583908 0.013203 -0.001391 172182.000000 1 0 0
-15.042433 -11.531597 -1.935919 19.052567 0.654044 1.672581 0.015023 0.001501 130158.000000 1 0 0
-7.091533 -18.833397 1.292381 20.165737 1.210676 1.506664 0.005303 -0.006969 75474.200000 1 0 0
-2.381233 -20.710997 -5.120819 21.467148 1.456325 1.811661 -0.001308 -0.003229 62506.300000 1 0 0
-8.925633 -19.752197 -0.768419 21.688861 1.146380 1.606233 0.002081 0.002971 69076.900000 1 0 0
-17.782233 -7.361797 5.314281 19.966108 0.392514 1.301384 0.038092 -0.014028 67568.200000 1 0 0
-2.952633 -15.976097 -10.815019 19.517130 1.388043 2.158113 0.002064 0.004538 90703.000000 1 0 0
-3.004333 -17.880797 -8.884419 20.191132 1.404331 2.026413 -0.007730 -0.003425 211162.000000 1 0 0
4.382567 -17.879797 -5.505819 19.214788 -1.330423 1.861411 0.020302 0.009647 720917.000000 1 0 0
0.391867 -17.420597 -8.960119 19.593736 -1.548306 2.045748 0.001763 -0.004079 -14540.900000 1 0 0
-7.421333 -11.304997 -14.019819 19.479078 0.989890 2.374220 0.000481 -0.025560 207676.000000 1 0 0
-4.888433 -19.557897 -1.870419 20.246150 1.325868 1.663312 0.001969 -0.004103 196755.000000 1 0 0
-9.364733 -15.988097 8.654681 20.450452 1.040934 1.133819 0.000574 -0.002808 250983.000000 1 0 0
-7.409133 -14.714797 -10.384519 19.474566 1.104340 2.133216 0.024109 -0.019419 207375.000000 1 0 0
-12.468033 -7.861797 -12.865119 19.564534 0.562585 2.288390 0.015475 0.002126 146477.000000 1 0 0
-15.866233 -13.044397 3.446281 20.827158 0.688101 1.404561 0.036201 -0.004306 116865.000000 1 0 0
-6.175733 -14.386697 -13.295119 20.539643 1.165317 2.274821 0.001560 0.003678 388736.000000 1 0 0
-14.139433 -11.681397 -6.993819 19.628859 0.690488 1.935104 0.041372 -0.010910 98847.500000 1 0 0
-11.808833 -10.316897 -8.334819 17.758269 0.718070 2.059349 0.032649 -0.008342 306328.000000 1 0 0
-9.754933 -14.843497 3.213181 18.050281 0.989386 1.391830 0.008799 -0.004264 535395.000000 1 0 0
5.281467 -17.522597 8.322581 20.104742 -1.278047 1.143995 0.049331 -0.038834 110188.000000 1 0 0
-4.891833 -16.752697 5.450281 18.283557 1.286693 1.268097 0.004447 0.009744 460059.000000 1 0 0
-18.473733 -7.309697 -7.196419 21.130521 0.376777 1.918319 0.023154 -0.007555 -47042.600000 1 0 0
-16.973833 -5.264797 -10.572919 20.678871 0.300762 2.107483 0.030685 0.000959 -289923.000000 1 0 0
-15.607333 -4.220797 -13.235219 20.894377 0.264119 2.256780 0.018640 -0.006995 306163.000000 1 0 0
-19.557833 -5.538397 -5.864419 21.155947 0.275956 1.851675 0.041317 -0.006177 -392137.000000 1 0 0
5.392967 -13.659597 9.071581 17.261583 -1.194771 1.017451 0.024883 -0.005974 248015.000000 1 0 0
19.649767 -3.543997 2.684381 20.146443 -0.178440 1.437155 0.025608 -0.010901 -203646.000000 1 0 0
17.904267 -2.261197 0.293981 18.048884 -0.125629 1.554508 0.024248 -0.019940 146071.000000 1 0 0
14.137667 -11.260197 0.333681 18.076974 -0.672583 1.552336 0.048845 -0.005388 -64871.300000 1 0 0
11.075267 -13.450397 5.416681 18.245962 -0.881940 1.269383 0.018758 -0.006966 331245.000000 1 0 0
9.820367 -13.230997 9.311881 18.926437 -0.932290 1.056406 0.018111 0.000568 142216.000000 1 0 0
17.518067 5.029903 -4.331519 18.733516 0.279605 1.804125 -0.019599 0.005615 -34975.400000 1 0 0
18.890267 -6.101997 -4.689019 20.397633 -0.312443 1.802751 0.059022 -0.017240 -72278.500000 1 0 0
17.736967 -9.833397 -0.217719 20.281595 -0.506216 1.581531 0.074897 -0.011817 262816.000000 1 0 0
18.013967 -8.440097 8.539281 21.648500 -0.438157 1.165326 0.099792 -0.017388 -222477.000000 1 0 0
19.896667 0.152303 -2.200119 20.018518 0.007655 1.680923 0.045090 -0.005698 -38820.100000 1 0 0
7.658667 -12.864197 11.766881 19.042117 -1.033805 0.904677 0.019818 -0.010942 424396.000000 1 0 0
16.153967 -6.619697 -3.425919 17.790670 -0.388915 1.764575 0.052155 -0.010698 384061.000000 1 0 0
14.466667 -6.708997 11.892781 19.893047 -0.434234 0.929997 0.024101 -0.023407 337370.000000 1 0 0
16.299567 1.656903 10.830381 19.639714 0.101305 0.986691 0.033255 -0.007219 287059.000000 1 0 0
16.478467 -10.176197 2.479481 19.525437 -0.553221 1.443465 0.031494 -0.009324 236659.000000 1 0 0
16.067067 -7.047997 -6.066019 18.563983 -0.413385 1.903673 0.053259 -0.008468 246136.000000 1 0 0
18.748867 -4.550197 5.859981 20.163424 -0.238089 1.275917 0.123887 -0.014644 -211671.000000 1 0 0
13.334167 -13.963097 7.500281 20.712853 -0.808434 1.200268 0.042752 -0.008082 163460.000000 1 0 0
15.175867 -14.204597 -1.608219 20.848594 -0.752352 1.648011 0.051118 -0.000056 216664.000000 1 0 0
18.736667 -6.150297 7.990281 21.277533 -0.317168 1.185831 0.062772 -0.019714 221258.000000 1 0 0
19.590067 4.188803 2.793681 20.226751 0.210651 1.432235 0.029811 0.001164 255895.000000 1 0 0
15.836067 -10.388897 8.010381 20.563959 -0.580601 1.170670 0.065392 -0.031118 288157.000000 1 0 0
14.120767 -4.359797 10.719781 18.256987 -0.299466 0.943250 0.014587 -0.008087 -180567.000000 1 0 0
18.818967 -7.642197 1.863681 20.396813 -0.385745 1.479298 0.069647 -0.016101 120143.000000 1 0 0
18.963967 -6.017597 -1.498719 19.952184 -0.307268 1.645983 0.051129 -0.016446 -125297.000000 1 0 0
14.601567 -13.680097 -6.032319 20.898317 -0.752828 1.863614 0.054746 -0.015819 432593.000000 1 0 0
13.826767 -9.679197 10.197881 19.719612 -0.610748 1.027285 0.010977 -0.004990 384997.000000 1 0 0
14.088067 2.184403 0.339081 14.260442 0.153828 1.547016 0.000256 -0.004367 -435536.000000 1 0 0
13.050767 2.813103 13.565281 19.032943 0.212303 0.777419 0.033804 -0.014047 97071.800000 1 0 0
18.005667 -3.696297 9.066781 20.495686 -0.202472 1.112551 0.027525 -0.016454 91083.100000 1 0 0
7.364167 -18.463997 5.339281 20.582956 -1.191291 1.308392 0.037347 -0.021647 248539.000000 1 0 0
11.624367 -2.860897 15.598281 19.662579 -0.241316 0.654590 -0.006036 0.018895 181758.000000 1 0 0
11.741967 -13.468997 -7.455119 19.361468 -0.853794 1.966058 0.037811 -0.012823 145140.000000 1 0 0
10.510567 -17.783397 4.372181 21.114857 -1.036997 1.362221 0.021128 -0.015718 559047.000000 1 0 0
18.083167 -0.464997 -5.692819 18.963790 -0.025709 1.875693 0.012579 -0.000621 213302.000000 1 0 0
4.150667 -13.293397 11.548681 18.091834 -1.268153 0.878461 0.006810 -0.021016 16152.400000 1 0 0
9.239967 -2.513197 12.605281 15.829917 -0.265568 0.649651 0.007905 -0.026038 178044.000000 1 0 0
9.598967 -9.393897 14.653681 19.877521 -0.774601 0.741881 0.034988 0.015899 257287.000000 1 0 0
21.080467 5.674903 -2.841319 22.015079 0.262968 1.700220 0.056320 0.003495 498440.000000 1 0 0
14.518767 -13.346197 1.897581 19.812026 -0.743343 1.474870 0.035478 -0.003809 234091.000000 1 0 0
10.726867 0.276303 14.164181 17.769807 0.025752 0.648331 0.007179 -0.025121 252922.000000 1 0 0
19.779667 -0.883097 7.835981 21.293606 -0.044617 1.193942 0.092610 -0.020053 -167564.000000 1 0 0
19.985967 1.070403 0.287381 20.016673 0.053507 1.556439 0.048432 -0.010714 122908.000000 1 0 0
18.190667 0.320003 3.104881 18.456518 0.017590 1.401766 0.028969 -0.009550 87787.600000 1 0 0
10.962167 -8.511097 16.466681 21.535075 -0.660188 0.700306 0.053667 0.005526 57324.400000 1 0 0
19.098867 3.063903 5.411681 20.085828 0.159068 1.297997 0.035750 -0.001017 116049.000000 1 0 0
16.128267 2.107703 7.307481 17.831508 0.129947 1.148554 0.041058 -0.005700 20119.400000 1 0 0
11.461667 -15.975097 2.106681 19.774014 -0.948441 1.464056 0.009304 0.004106 259905.000000 1 0 0
8.730567 -15.785197 6.771681 19.267872 -1.065587 1.211678 0.029601 -0.020889 220932.000000 1 0 0
5.928567 6.880703 7.154081 11.561698 0.859594 0.903615 -0.002930 0.001424 -1388870.000000 1 0 0
18.385867 2.890803 -6.476019 19.706234 0.155953 1.905647 0.004759 0.005825 356923.000000 1 0 0
14.291467 4.560403 -7.260019 16.665868 0.308886 2.021525 0.002293 0.000978 176334.000000 1 0 0
-10.547233 -3.807597 -13.662419 17.674943 0.346444 2.454325 0.014657 -0.009046 -330728.000000 1 0 0
7.591967 -14.334597 -10.299019 19.214276 -1.083730 2.136498 0.017963 -0.004296 -12897.400000 1 0 0
2.037267 -15.910297 13.697681 21.092996 -1.443442 0.864008 0.019682 -0.021748 473529.000000 1 0 0
-9.426033 -8.087397 2.185781 12.610858 0.709112 1.396591 0.009085 0.003378 408948.000000 1 0 0
-13.629433 3.065303 -9.769919 17.047253 -0.221222 2.181090 0.011409 -0.003529 553477.000000 1 0 0
-13.023233 -4.856797 -13.495619 19.373301 0.356958 2.341457 0.021545 -0.001139 72249.300000 1 0 0
-17.921433 -0.371197 -8.119319 19.678387 0.020710 1.996104 0.034290 -0.017198 518020.000000 1 0 0
-12.432133 14.686603 4.570981 19.777465 -0.868341 1.337567 0.019874 -0.028574 346687.000000 1 0 0
-17.125133 6.446203 9.177281 20.470618 -0.360013 1.105917 0.009926 -0.010895 218062.000000 1 0 0
-12.805033 15.093403 0.097081 19.793664 -0.867240 1.565892 0.030658 -0.029694 133771.000000 1 0 0
-16.429633 5.615803 -10.415619 20.247351 -0.329360 2.111126 0.046841 -0.007893 -54273.000000 1 0 0
-18.240333 2.914903 0.056581 18.471860 -0.158465 1.567733 0.039059 -0.007183 32487.300000 1 0 0
-9.459433 15.269703 -0.441719 17.967744 -1.016169 1.595383 0.006668 -0.010207 -303179.000000 1 0 0
-18.643733 11.809003 2.052081 22.164214 -0.564619 1.478078 0.095522 -0.023552 -299001.000000 1 0 0
-8.665333 16.056703 -7.852619 19.863769 -1.075918 1.977217 0.048855 -0.033859 59455.400000 1 0 0
-15.096133 -1.678397 -12.548619 19.702236 0.110726 2.261284 0.023116 -0.030850 21917.700000 1 0 0
-18.655533 5.299603 -4.902719 20.003784 -0.276785 1.818408 0.017823 -0.004094 -115706.000000 1 0 0
-16.669433 9.108703 -6.093319 19.949111 -0.500099 1.881200 0.034259 0.004023 -110396.000000 1 0 0
-19.006033 1.160103 2.269681 19.176199 -0.060963 1.452159 0.032845 -0.017635 266954.000000 1 0 0
-13.687333 11.878403 -6.887619 19.387595 -0.714760 1.933988 0.029839 -0.016079 79407.200000 1 0 0
-13.437633 4.174003 -12.654819 18.924501 -0.301172 2.303256 0.045308 -0.027216 -92022.800000 1 0 0
-13.893933 9.330603 -6.787919 18.060381 -0.591382 1.956106 0.013855 -0.008021 177454.000000 1 0 0
-6.562833 11.606003 -15.485419 20.434488 -1.056154 2.430743 -0.003517 -0.014763 -210726.000000 1 0 0
-14.882633 13.792703 2.782781 20.481096 -0.747407 1.434504 0.027522 -0.023671 46916.900000 1 0 0
-18.729333 8.283103 -4.504019 20.968641 -0.416393 1.787281 0.055390 -0.006397 77293.500000 1 0 0
-3.623933 16.833603 -10.269419 20.049041 -1.358753 2.108558 0.025857 -0.005438 140551.000000 1 0 0
-19.222933 -2.461597 -6.650519 20.489266 0.127362 1.901370 0.006937 -0.007089 -128771.000000 1 0 0
-10.750433 13.570303 -6.433019 18.469128 -0.900828 1.926566 0.016807 -0.022035 107510.000000 1 0 0
-19.299833 3.083603 4.239681 19.999177 -0.158434 1.357183 0.045037 -0.016591 28268.200000 1 0 0
-15.259233 12.525603 0.364981 19.745079 -0.687328 1.552311 0.033333 -0.006791 163351.000000 1 0 0
-17.121233 2.174303 -8.541919 19.256910 -0.126318 2.030382 -0.013975 -0.003483 67760.700000 1 0 0
-16.802233 12.415203 -4.588319 21.389366 -0.636360 1.786991 0.047098 -0.007802 85173.300000 1 0 0
-11.180833 15.776503 -8.792919 21.242046 -0.954254 1.997574 0.050099 -0.015093 42487.900000 1 0 0
-19.259433 2.113003 -6.730019 20.510576 -0.109276 1.905114 0.028787 -0.003411 54328.400000 1 0 0
-17.370533 10.152603 -0.564119 20.127817 -0.528924 1.598827 0.053444 -0.008376 -49234.400000 1 0 0
-11.706033 6.325303 -14.396919 19.603876 -0.495401 2.395566 0.021673 -0.020699 265686.000000 1 0 0
-13.493933 13.168803 -5.072019 19.525086 -0.773205 1.833580 0.039980 -0.005362 317107.000000 1 0 0
-18.753133 7.355503 -0.168819 20.144774 -0.373788 1.579177 0.041319 -0.001748 -64829.100000 1 0 0
-14.073033 9.038503 -11.166319 20.110482 -0.570913 2.159458 0.007340 0.011670 167844.000000 1 0 0
-18.399633 11.594903 4.707481 22.251936 -0.562309 1.357632 0.046898 -0.017982 175379.000000 1 0 0
-7.971333 12.132803 -13.569919 19.871833 -0.989511 2.322483 -0.009675 -0.001633 340905.000000 1 0 0
-21.041633 -0.451297 -5.184719 21.675685 0.021445 1.812333 0.024921 -0.010148 155025.000000 1 0 0
-10.709633 13.393703 -3.544819 17.511518 -0.896298 1.774633 0.019350 0.001899 259167.000000 1 0 0
-18.414033 -5.144597 3.692881 19.472567 0.272438 1.379995 0.006923 -0.016943 -165040.000000 1 0 0
-10.066733 10.987603 -13.150819 19.874873 -0.829108 2.293854 -0.010835 -0.022521 -91384.300000 1 0 0
-14.961333 11.780503 -10.202119 21.603356 -0.667009 2.062634 0.029212 0.000112 179840.000000 1 0 0
-12.900833 9.737403 -13.793419 21.248692 -0.646559 2.277252 0.041896 -0.015811 200234.000000 1 0 0
-18.095833 -5.194197 -3.016019 19.066600 0.279523 1.729647 -0.020968 -0.003141 -369861.000000 1 0 0
-9.827033 12.858603 -11.506319 19.857231 -0.918245 2.188853 0.029437 -0.008376 176792.000000 1 0 0
-15.606533 7.721703 -7.971219 19.150167 -0.459458 2.000111 0.008084 0.002812 39705.600000 1 0 0
-14.326333 8.791303 2.117681 16.941529 -0.550393 1.445469 0.022336 -0.003212 -54829.800000 1 0 0
-19.848033 6.110803 7.988781 22.250999 -0.298670 1.203568 0.060683 -0.013327 287539.000000 1 0 0
-18.928033 5.925003 3.907181 20.214900 -0.303366 1.376290 0.040130 -0.002886 119513.000000 1 0 0
-14.689433 12.971503 5.519281 20.359317 -0.723371 1.296267 0.031161 -0.018656 43644.700000 1 0 0
17.984367 6.252603 5.639881 19.858015 0.334597 1.282822 0.024008 -0.007471 337074.000000 1 0 0
18.138467 7.997803 0.590581 19.832237 0.415286 1.541013 0.022371 0.002259 -154362.000000 1 0 0
17.007567 4.371003 8.514581 19.515663 0.251559 1.119320 0.031391 -0.004150 100522.000000 1 0 0
11.678567 13.237003 10.926781 20.760581 0.847865 1.016525 0.031985 -0.010664 138396.000000 1 0 0
15.218967 12.385703 4.335181 20.095183 0.683119 1.353355 0.039320 -0.009407 165157.000000 1 0 0
5.492867 10.479203 14.561581 18.762327 1.088001 0.682327 0.014783 -0.004986 212306.000000 1 0 0
13.202667 13.324903 -5.278019 19.486429 0.790006 1.845079 0.041108 -0.006286 340744.000000 1 0 0
17.051567 9.372703 -2.824119 19.661616 0.502588 1.714931 -0.029498 -0.003362 -174778.000000 1 0 0
14.432367 7.476503 9.480681 18.816871 0.477973 1.042758 0.032939 -0.006591 135960.000000 1 0 0
4.875167 19.055003 -1.419419 19.719917 1.320322 1.642838 0.004954 -0.020138 500280.000000 1 0 0
-4.564633 19.752403 3.896581 20.644046 -1.343691 1.380906 -0.000782 0.014720 251947.000000 1 0 0
6.736067 12.620103 12.771181 19.176670 1.080509 0.841996 0.025955 -0.007612 80095.800000 1 0 0
0.214067 17.342503 -10.229319 20.135719 1.558453 2.103679 0.014129 0.009030 -114309.000000 1 0 0
10.553967 9.211703 15.725681 21.060359 0.717593 0.727716 0.054388 -0.016754 107591.000000 1 0 0
-1.268733 12.235403 0.813281 12.327863 -1.467472 1.504777 -0.006696 0.001375 505432.000000 1 0 0
-4.518533 19.298903 -2.931419 20.036417 -1.340805 1.717628 0.016754 0.008715 74147.900000 1 0 0
5.969667 18.351603 6.357381 20.318330 1.256299 1.252563 0.020214 -0.021154 233584.000000 1 0 0
11.536967 17.220603 -1.365819 20.772969 0.980523 1.636594 0.043700 -0.013378 482807.000000 1 0 0
18.476667 10.636403 3.530181 21.609777 0.522335 1.406700 0.039934 -0.009981 326873.000000 1 0 0
11.542867 16.904703 6.352381 21.432674 0.971694 1.269888 0.036167 0.005589 -187597.000000 1 0 0
18.076567 7.881503 -6.332019 20.711707 0.411156 1.881493 0.009840 0.021754 411424.000000 1 0 0
0.302167 15.428403 10.665081 18.758222 1.551214 0.966048 -0.000426 -0.013808 327907.000000 1 0 0
1.252467 20.148403 -1.992719 20.285407 1.508714 1.669189 0.015056 -0.018138 292260.000000 1 0 0
14.258767 9.799203 -1.059119 17.333740 0.602111 1.631936 0.012917 -0.003449 -180772.000000 1 0 0
9.551467 17.721003 1.429681 20.181884 1.076444 1.499897 0.020158 -0.013687 212447.000000 1 0 0
0.099367 17.663303 -0.598219 17.673710 1.565171 1.604651 0.003753 -0.008255 156580.000000 1 0 0
-0.188633 20.983303 0.216381 20.985266 -1.561807 1.560485 0.021207 -0.009716 270938.000000 1 0 0
6.290267 17.624503 -0.264219 18.715244 1.227984 1.584915 0.003982 -0.016396 39222.600000 1 0 0
6.648067 18.585803 -3.055619 19.974125 1.227282 1.724378 -0.005667 -0.017086 177611.000000 1 0 0
10.540067 9.565603 12.889181 19.202207 0.736969 0.834924 0.040187 -0.007080 78489.000000 1 0 0
13.002767 14.943803 8.193081 21.436319 0.854742 1.178614 0.038125 -0.010334 121659.000000 1 0 0
0.333467 17.622303 6.831581 18.903102 1.551876 1.201027 0.003494 -0.009906 367604.000000 1 0 0
7.589167 17.660503 -8.037419 20.834801 1.164930 1.966837 0.022150 -0.018937 44417.800000 1 0 0
-0.883333 18.517603 9.363881 20.769308 -1.523130 1.103077 0.019783 -0.022310 -15790.800000 1 0 0
15.850967 6.825203 -7.927619 18.991674 0.406592 2.001407 0.010094 0.005979 -426549.000000 1 0 0
-4.875933 19.856003 -6.749119 21.531052 -1.329996 1.889631 0.019666 -0.009249 350272.000000 1 0 0
3.973767 15.721003 10.071981 19.088886 1.323214 1.014981 0.015832 -0.006773 184731.000000 1 0 0
9.002267 14.772903 7.252081 18.758256 1.023511 1.173846 0.019420 -0.013465 46291.500000 1 0 0
-2.663533 19.969803 6.154281 21.065674 -1.438201 1.274325 0.009440 -0.008437 54892.900000 1 0 0
4.729067 17.946703 8.510581 20.417596 1.313147 1.140846 0.019585 -0.013220 154266.000000 1 0 0
13.689467 11.316103 -7.016119 19.096639 0.690768 1.947009 -0.051504 -0.025371 -12090.600000 1 0 0
11.693667 7.153403 15.631781 20.790998 0.549002 0.719928 0.053973 -0.012331 178946.000000 1 0 0
17.022667 9.556503 5.045281 20.163154 0.511552 1.317886 0.033521 -0.012794 197704.000000 1 0 0
5.173167 14.549903 12.172781 19.663111 1.229189 0.903242 0.009590 -0.030932 274182.000000 1 0 0
15.990267 11.342603 -4.007119 20.010004 0.616970 1.772415 0.036671 0.010610 197447.000000 1 0 0
15.279567 14.058503 6.843981 21.861993 0.743802 1.252390 0.049489 0.003236 214394.000000 1 0 0
12.877467 14.007903 -8.119319 20.687528 0.827420 1.974116 0.073546 -0.030778 417627.000000 1 0 0
-8.178833 15.535303 9.688281 20.052475 -1.086200 1.066551 0.010682 -0.014079 185924.000000 1 0 0
-4.977133 17.244803 -7.515719 19.458703 -1.289816 1.967348 0.019641 0.017878 100422.000000 1 0 0
2.883767 19.389603 -4.577319 20.130193 1.423151 1.800189 0.016329 -0.029481 79602.500000 1 0 0
7.042867 16.593503 9.080481 20.184188 1.169404 1.104164 0.022838 -0.008068 426340.000000 1 0 0
13.639067 15.119303 -1.428319 20.412191 0.836824 1.640827 0.068964 -0.020321 96602.300000 1 0 0
12.664067 16.724703 4.264381 21.407457 0.922699 1.370254 0.049056 -0.020748 264181.000000 1 0 0
2.160867 18.407703 0.975781 18.559769 1.453942 1.518197 -0.005122 -0.017793 -472207.000000 1 0 0
-6.707333 17.817703 1.821981 19.125336 -1.210762 1.475386 -0.026768 0.023673 281324.000000 1 0 0
0.585167 19.850203 -5.973419 20.737761 1.541326 1.862982 0.024657 -0.010932 290611.000000 1 0 0
-7.964433 17.976003 -6.553219 20.724709 -1.153729 1.892521 0.056888 -0.013934 -26757.700000 1 0 0
-7.591733 18.540403 -1.816719 20.116695 -1.182153 1.661229 0.022974 -0.003672 8974.730000 1 0 0
-14.515833 -9.152597 8.809781 19.289678 0.562563 1.096503 0.042357 -0.015815 393076.000000 1 0 0
-13.156433 -13.692897 7.609981 20.457248 0.805376 1.189640 0.033746 -0.003892 9332.790000 1 0 0
-4.771733 -15.398097 12.316381 20.287042 1.270290 0.918383 0.060166 -0.024220 286959.000000 1 0 0
-2.368633 -14.725897 14.510681 20.809189 1.411314 0.799144 0.028105 -0.041657 415258.000000 1 0 0
-7.495133 -13.638497 13.635481 20.690867 1.068293 0.851295 0.007541 -0.022364 175685.000000 1 0 0
-10.052333 -11.136097 11.979781 19.198365 0.836502 0.896945 0.035771 -0.016130 -175164.000000 1 0 0
-7.318533 -10.234897 13.124481 18.181476 0.950036 0.764310 0.020383 -0.024542 349265.000000 1 0 0
-15.175433 -12.045697 6.898681 20.566584 0.670926 1.228733 0.036419 -0.014416 230198.000000 1 0 0
-4.488133 -12.241097 13.105381 18.486179 1.219371 0.782818 0.015840 -0.033166 428119.000000 1 0 0
3.913867 -12.750897 14.142181 19.439779 -1.272977 0.756145 0.014203 0.002551 405461.000000 1 0 0
6.688067 -13.397197 14.634181 20.937392 -1.107778 0.796869 0.018866 -0.008942 269914.000000 1 0 0
7.145067 -9.084097 16.478481 20.127423 -0.904313 0.611639 0.011832 -0.005757 511520.000000 1 0 0
-5.405233 13.523903 13.039681 19.548549 -1.190566 0.840567 0.010422 -0.009677 376646.000000 1 0 0
-13.641133 -1.832297 17.490481 22.256567 0.133522 0.666715 0.036698 -0.003498 456317.000000 1 0 0
-10.465833 10.580003 13.106981 19.830862 -0.790823 0.848728 0.021993 0.014145 214649.000000 1 0 0
-7.177133 -8.309897 17.196881 20.403391 0.858411 0.568250 0.020782 -0.020883 158904.000000 1 0 0
-5.018933 2.238203 18.267581 19.076262 -0.419482 0.292215 0.013945 -0.006130 622750.000000 1 0 0
-15.751933 -3.761897 13.511981 21.091442 0.234430 0.875467 0.049939 -0.014492 9446.150000 1 0 0
-14.579133 3.356603 12.930181 19.773910 -0.226290 0.858067 0.022292 0.011235 327156.000000 1 0 0
-13.965833 10.801303 9.596081 20.094711 -0.658315 1.072941 -0.035576 0.006818 -217635.000000 1 0 0
-4.494333 11.388303 15.821881 20.005609 -1.194915 0.658563 0.013334 0.001409 221388.000000 1 0 0
-13.419633 12.584303 7.541881 19.882938 -0.753286 1.181741 0.021947 -0.045939 160015.000000 1 0 0
-4.251033 -6.597697 18.619281 20.205903 0.998424 0.398930 0.023871 -0.012021 251855.000000 1 0 0
0.599067 -2.851997 17.979881 18.214524 -1.363755 0.160686 0.014684 -0.017651 85023.000000 1 0 0
-4.338233 6.413903 21.204881 22.574441 -0.976099 0.350121 0.016865 -0.006599 138538.000000 1 0 0
2.115767 -10.822597 16.590681 19.921239 -1.377736 0.586625 0.010344 -0.004249 427175.000000 1 0 0
-15.287533 -0.216597 13.783981 20.585279 0.014167 0.837121 0.022744 0.003199 87275.500000 1 0 0
-13.895333 -5.988597 7.975181 17.104008 0.406924 1.085720 0.027349 -0.011635 54584.900000 1 0 0
10.127467 0.815703 16.614081 19.474564 0.080370 0.548865 0.023409 0.005560 663868.000000 1 0 0
-7.637933 12.190103 11.710181 18.548989 -1.011070 0.887554 0.018117 -0.018533 -57929.300000 1 0 0
-1.989233 7.655303 20.278181 21.766151 -1.316568 0.371901 0.019521 -0.006085 438944.000000 1 0 0
1.016067 -13.448797 15.520481 20.561806 -1.495389 0.715415 0.003179 -0.017306 468099.000000 1 0 0
-3.474033 -11.574797 17.676781 21.412927 1.279213 0.599675 0.025848 -0.030304 372864.000000 1 0 0
-2.238733 8.673603 16.814181 19.051509 -1.318201 0.489508 0.009480 -0.012063 577739.000000 1 0 0
-5.155133 -9.254897 20.455981 23.036399 1.062582 0.477851 0.063644 -0.029415 166462.000000 1 0 0
-6.538833 -3.407597 19.158681 20.528593 0.480410 0.367390 0.014043 -0.012442 281337.000000 1 0 0
-10.882433 -8.074197 15.900981 20.891654 0.638328 0.705764 0.058190 -0.031788 203445.000000 1 0 0
-0.530533 6.163103 17.770181 18.816074 -1.484926 0.334986 0.012153 -0.016355 18518.500000 1 0 0
-5.992033 -11.296397 18.858081 22.784650 1.083096 0.595860 0.039786 -0.028023 643670.000000 1 0 0
0.851367 3.508803 18.946081 19.287056 1.332759 0.188315 0.018329 -0.006691 33905.500000 1 0 0
-18.599933 -0.193797 7.540681 20.071297 0.010419 1.185650 0.043492 -0.018592 362371.000000 1 0 0
-1.687533 -8.371497 17.428981 19.408738 1.371881 0.455601 0.012541 -0.018379 157733.000000 1 0 0
5.783567 3.611603 14.912981 16.397876 0.558211 0.428847 -0.000015 -0.005614 345708.000000 1 0 0
-14.898533 -7.212897 10.919081 19.829738 0.450875 0.987664 0.091736 0.005368 18384.200000 1 0 0
3.350467 8.304603 16.864681 19.094751 1.187322 0.488132 0.018254 -0.006534 84564.200000 1 0 0
6.357267 4.582803 17.770781 19.422090 0.624600 0.415343 0.024267 -0.018676 191023.000000 1 0 0
5.017167 -9.852597 17.965581 21.095206 -1.099798 0.551685 0.013939 -0.001317 360929.000000 1 0 0
-4.696033 -0.523097 19.728181 20.286140 0.110934 0.235081 0.022688 -0.014532 956963.000000 1 0 0
-11.139933 2.178903 16.894281 20.353439 -0.193155 0.591607 0.030057 -0.008098 135186.000000 1 0 0
-16.845133 -4.309397 8.745881 19.463295 0.250453 1.104756 0.041743 -0.022770 461204.000000 1 0 0
-13.041333 -9.582997 12.022381 20.160552 0.633713 0.931872 0.031238 -0.033685 50408.100000 1 0 0
-14.904133 6.185003 13.057581 20.757839 -0.393358 0.890474 0.032857 -0.014735 300186.000000 1 0 0
1.135967 9.015403 17.017181 19.291251 1.445454 0.490454 0.001791 -0.023167 -95730.700000 1 0 0
-3.924633 -10.372797 14.956781 18.619962 1.209085 0.638038 0.020963 -0.021806 743285.000000 1 0 0
-18.727733 -3.253597 6.568781 20.111260 0.172015 1.238069 0.103592 -0.023765 -285985.000000 1 0 0
-0.768833 -0.426997 20.830981 20.849537 0.506967 0.042193 0.027843 -0.016973 393504.000000 1 0 0
-1.897633 2.619003 20.313881 20.569734 -0.943774 0.157887 0.019890 -0.014330 52813.600000 1 0 0
-7.922333 2.133203 16.348581 18.291802 -0.263026 0.465125 0.000616 0.010213 587175.000000 1 0 0
3.227467 -1.523997 19.198081 19.527044 -0.441158 0.183815 0.025714 0.004783 120457.000000 1 0 0
-12.513933 4.546903 14.378981 19.596631 -0.348516 0.746975 0.008194 0.000685 176496.000000 1 0 0
-13.044533 -5.999797 13.688681 19.837777 0.431095 0.809264 0.010022 0.001638 -139753.000000 1 0 0
-17.254733 -1.216797 9.280581 19.629967 0.070403 1.078358 0.034531 -0.021482 277669.000000 1 0 0
-7.660633 7.775903 14.592081 18.223030 -0.792865 0.642251 0.007976 -0.010944 115322.000000 1 0 0
-9.734233 0.875003 14.063181 17.125828 -0.089648 0.607342 0.017210 -0.001485 152963.000000 1 0 0
7.338267 -0.857797 15.234381 16.931401 -0.116366 0.451552 -0.001796 -0.002720 193424.000000 1 0 0
4.032567 6.508503 18.245881 19.787228 1.016101 0.397313 0.015587 -0.005155 133356.000000 1 0 0
1.766067 0.734203 19.979081 20.070419 0.393991 0.095439 0.018292 -0.010599 247106.000000 1 0 0
-7.136633 6.925403 17.458281 20.091897 -0.770378 0.517777 0.008498 -0.010030 564023.000000 1 0 0
7.675367 -3.712397 16.521481 18.591732 -0.450504 0.476411 0.001979 0.000061 430396.000000 1 0 0
-16.530333 2.536903 9.334181 19.152408 -0.152281 1.061729 0.030936 -0.008788 241387.000000 1 0 0
3.848867 -5.706897 19.298181 20.489076 -0.977443 0.342623 0.011081 -0.003162 138585.000000 1 0 0
-3.741233 -3.737797 20.470881 21.142964 0.784939 0.252814 0.022377 -0.018099 317672.000000 1 0 0
-9.491433 5.842603 14.584181 18.355426 -0.551786 0.652541 0.004551 -0.004144 -166593.000000 1 0 0
6.650867 2.613803 19.738681 20.992416 0.374459 0.347354 0.029247 -0.013801 144704.000000 1 0 0
-6.763333 11.111503 14.254881 19.297923 -1.024020 0.739695 0.006413 -0.022561 304452.000000 1 0 0
-14.487933 4.887303 9.145281 17.816344 -0.325349 1.031761 0.012054 -0.011450 144810.000000 1 0 0
0.452267 -5.807397 20.534581 21.344775 -1.493076 0.276406 0.010884 -0.004667 158849.000000 1 0 0
-6.184033 -8.465297 13.600681 17.172130 0.939882 0.656685 0.015097 -0.012774 319992.000000 1 0 0
-12.858933 10.091803 6.307981 17.521053 -0.665409 1.202504 -0.005193 -0.022111 168404.000000 1 0 0
-19.698733 1.952703 7.627081 21.213805 -0.098806 1.203028 0.033566 -0.021789 154038.000000 1 0 0
-15.653433 8.937503 6.565081 19.183567 -0.518794 1.221513 0.010560 -0.010581 -48533.600000 1 0 0
-12.982233 7.958003 14.067881 20.730979 -0.549918 0.824952 0.022410 -0.010464 351686.000000 1 0 0
-16.627733 9.053503 10.472781 21.636233 -0.498597 1.065532 0.030584 -0.017685 272496.000000 1 0 0
2.568067 10.348403 15.503681 18.816178 1.327550 0.602441 0.002237 -0.015605 279834.000000 1 0 0
1.608267 14.944403 13.182681 19.992618 1.463592 0.850806 0.005013 -0.013646 620498.000000 1 0 0
8.772267 5.307903 16.746381 19.635880 0.544145 0.549385 0.029714 -0.005196 67479.500000 1 0 0
-0.444533 13.365603 13.245281 18.822179 -1.537549 0.790196 -0.004547 0.002520 158090.000000 1 0 0
4.032567 12.526303 14.527181 19.601246 1.259346 0.736036 0.016264 -0.012195 121171.000000 1 0 0
-3.544033 -4.629997 -13.237019 14.464291 0.917480 2.726680 0.000375 -0.006493 150211.000000 1 0 0
6.675567 -12.016097 16.591981 21.546313 -1.063701 0.691859 0.011599 0.007442 231731.000000 1 0 0
8.778467 -13.723297 7.338881 17.867555 -1.001713 1.147533 0.011936 -0.010967 313330.000000 1 0 0
-0.341533 15.104403 0.508181 15.116808 -1.548189 1.537173 0.000787 -0.000817 -234993.000000 1 0 0
-14.418933 7.975803 8.459581 18.522516 -0.505257 1.096493 0.019639 -0.006491 2877.350000 1 0 0
-16.125533 -9.468897 5.496281 19.491073 0.530954 1.284929 0.035502 -0.009224 149115.000000 1 0 0
8.926067 -10.204897 11.394981 17.710454 -0.852145 0.871859 0.001448 0.000225 109897.000000 1 0 0
-25.101963 5.930703 31.322131 40.575333 -0.232010 0.688893 0.047639 -0.019243 -470141.000000 0 0 1
-24.021233 5.080403 31.137181 39.652921 -0.208425 0.667708 0.036967 -0.014274 -620140.000000 0 0 1
-23.180833 5.107903 32.242661 40.037868 -0.216884 0.634608 0.025838 -0.006215 -35331.800000 0 0 1
-21.789533 4.457003 32.010761 38.978679 -0.201765 0.607220 0.033381 -0.004007 200831.000000 0 0 1
-21.787233 3.048203 32.152041 38.958039 -0.139005 0.600064 0.003414 -0.000789 -26117.200000 0 0 1
-20.494533 2.619403 31.797431 37.920493 -0.127121 0.576219 0.016871 0.002347 27672.200000 0 0 1
-19.974833 1.280903 32.412228 38.094451 -0.064038 0.553217 0.017137 -0.000995 83134.100000 0 0 1
-20.795433 0.171003 32.103551 38.250716 -0.008223 0.574815 0.022630 0.006925 152289.000000 0 0 1
-20.939333 -0.838097 33.064832 39.146407 0.040004 0.564894 0.017212 0.008146 137593.000000 0 0 1
-21.733233 -2.091397 32.564697 39.206719 0.095935 0.590631 0.029155 -0.023735 106053.000000 0 0 1
-20.870733 -2.988697 31.864931 38.208554 0.142233 0.584526 0.053351 -0.029919 238021.000000 0 0 1
-21.018733 -4.394997 32.023801 38.556802 0.206129 0.590681 0.061029 -0.035155 -208317.000000 0 0 1
-22.310133 -5.222297 31.664931 39.085576 0.229937 0.626399 0.053530 -0.024143 1405690.000000 0 0 1
-23.495233 -4.957597 32.469936 40.384409 0.207954 0.636768 0.045012 -0.021059 1190460.000000 0 0 1
-23.410533 -5.426597 33.805870 41.476956 0.227779 0.617978 0.042813 -0.016795 -502354.000000 0 0 1
-24.488333 -4.635897 -33.881949 42.061342 0.187096 2.507377 0.034839 -0.012578 79427.000000 0 0 1
-24.540533 -4.929397 -32.513329 41.032344 0.198230 2.485502 0.031152 -0.011551 733465.000000 0 0 1
-25.793263 -4.520697 -31.927469 41.292764 0.173504 2.454664 0.014603 -0.007895 651515.000000 0 0 1
-25.919633 -5.078197 -30.530439 40.369830 0.193470 2.428387 0.002563 0.002459 -687272.000000 0 0 1
-26.272953 -6.439697 -30.416919 40.705365 0.240369 2.414704 0.013753 -0.004956 539426.000000 0 0 1
-25.921033 -6.880797 -29.119169 39.587515 0.259468 2.397296 -0.004997 0.000786 -191021.000000 0 0 1
-26.158113 -8.377497 -29.073649 39.996330 0.309942 2.384605 0.005804 0.002701 -418263.000000 0 0 1
-27.514083 -8.705097 -29.011179 40.920068 0.306422 2.358836 0.027392 0.002423 -616798.000000 0 0 1
-27.646873 -10.012097 -28.494749 40.945603 0.347451 2.340493 0.033566 -0.006904 665424.000000 0 0 1
-29.144543 -10.443197 -28.330179 41.965031 0.344071 2.311883 0.070868 -0.009500 819819.000000 0 0 1
-29.333623 -11.479297 -27.395779 41.746430 0.373015 2.286624 0.088672 -0.014377 -295674.000000 0 0 1
-30.643383 -11.549197 -26.866839 42.358328 0.360427 2.257867 0.092129 -0.013625 2103.520000 0 0 1
-30.741933 -12.271197 -25.467869 41.764352 0.379789 2.226604 0.088902 -0.005388 -24115.100000 0 0 1
-30.194973 -11.558197 -24.376219 40.491090 0.365579 2.216818 0.081542 -0.007319 254803.000000 0 0 1
-29.872723 -12.410797 -23.272319 39.849822 0.393759 2.194445 0.064581 -0.015243 -66143.200000 0 0 1
-29.659643 -11.623297 -21.922519 38.670303 0.373495 2.173544 0.060906 -0.016969 -43087.900000 0 0 1
-29.510613 -12.378097 -20.686319 38.105346 0.397157 2.144649 0.058215 -0.012324 135634.000000 0 0 1
-28.343933 -13.145197 -20.475719 37.355452 0.434250 2.150926 0.046559 -0.010992 -599989.000000 0 0 1
-28.044963 -13.361297 -19.013819 36.422102 0.444610 2.120038 0.032211 -0.018270 -167116.000000 0 0 1
-27.754073 -12.180197 -18.284219 35.397153 0.413553 2.113607 0.027590 -0.015391 248344.000000 0 0 1
-27.315253 -12.639497 -17.021819 34.577771 0.433387 2.085499 0.024053 -0.015125 -172214.000000 0 0 1
-26.957263 -11.410297 -16.237119 33.474363 0.400407 2.077230 0.028001 -0.010417 -605641.000000 0 0 1
-25.756423 -10.783597 -16.582419 32.475466 0.396502 2.106695 0.035998 -0.012936 -42003.400000 0 0 1
-25.599463 -9.503997 -15.962019 31.629804 0.355486 2.099774 0.047647 -0.016837 -1415710.000000 0 0 1
-24.239833 -8.908997 -16.174119 30.471985 0.352210 2.130325 0.066360 -0.019564 -1117390.000000 0 0 1
-23.381833 -9.389597 -15.169419 29.410643 0.381865 2.112714 0.049475 -0.022594 230090.000000 0 0 1
-22.128433 -8.717697 -15.099019 28.171726 0.375288 2.136445 0.083564 -0.046108 702408.000000 0 0 1
-21.078433 -9.346197 -14.132419 27.043983 0.417353 2.120661 0.055410 -0.023852 425032.000000 0 0 1
-20.375733 -10.506897 -14.672519 27.218527 0.476095 2.140121 0.044074 -0.016997 478321.000000 0 0 1
-19.252233 -10.745997 -13.855019 26.040094 0.509093 2.131834 0.046022 -0.007138 -4063.880000 0 0 1
-18.268133 -11.776597 -14.480419 26.116957 0.572607 2.158492 0.046933 -0.005201 92391.000000 0 0 1
-17.446233 -11.302697 -15.548919 25.959409 0.574869 2.213011 0.057810 -0.019496 86168.100000 0 0 1
-18.059533 -11.271297 -16.780919 27.106975 0.557966 2.238345 0.056304 -0.029385 -428614.000000 0 0 1
-17.135933 -10.866597 -17.978719 27.110099 0.565146 2.295848 0.047406 -0.020843 11142.500000 0 0 1
-17.727333 -11.258397 -19.194019 28.450311 0.565820 2.311288 0.040555 -0.022447 101400.000000 0 0 1
-17.177033 -10.681397 -20.324419 28.674461 0.556325 2.358590 0.043688 -0.021282 -648250.000000 0 0 1
-17.949033 -10.951997 -21.621119 30.159357 0.547865 2.370136 0.051353 -0.024332 196031.000000 0 0 1
-19.214333 -10.294397 -21.566519 30.663985 0.491850 2.350850 0.047724 -0.034991 238909.000000 0 0 1
-20.192433 -11.000297 -22.294319 32.027762 0.498821 2.340738 0.046313 -0.026304 -241803.000000 0 0 1
-21.476633 -10.198497 -22.481119 32.720877 0.443338 2.328228 0.044686 -0.024318 -463952.000000 0 0 1
-21.209533 -9.024097 -23.228519 32.723733 0.402272 2.360063 0.036819 -0.030314 -395482.000000 0 0 1
-22.226533 -8.679497 -24.103619 33.916617 0.372291 2.361250 0.019252 -0.030200 -722167.000000 0 0 1
-21.711133 -7.766597 -25.217799 34.170612 0.343539 2.400893 0.018933 -0.032873 -96736.500000 0 0 1
-20.849433 -8.399097 -26.133729 34.470502 0.382957 2.431264 0.025466 -0.033676 29207.400000 0 0 1
-20.483033 -7.618497 -27.235839 34.919723 0.356087 2.465391 0.014192 -0.036452 7470.560000 0 0 1
-19.246733 -8.167897 -28.012659 34.955119 0.401344 2.500411 0.042652 -0.036379 255379.000000 0 0 1
-19.511833 -9.446197 -28.620829 35.903957 0.450868 2.493356 0.048448 -0.030364 513819.000000 0 0 1
-18.307633 -9.860097 -29.246509 35.885223 0.494032 2.523528 0.030717 -0.020091 121789.000000 0 0 1
-18.415233 -11.168597 -30.076479 36.992607 0.545176 2.520152 0.039832 -0.017913 -86859.200000 0 0 1
-19.030833 -10.993097 -31.359529 38.294136 0.523821 2.530309 0.041913 -0.005073 366040.000000 0 0 1
-18.821533 -12.126897 -32.197489 39.217216 0.572365 2.533964 0.034484 -0.004333 -554181.000000 0 0 1
-19.629333 -12.051897 -33.469089 40.629286 0.550631 2.538821 0.032676 -0.007900 -385073.000000 0 0 1
-19.302433 -11.035597 34.063569 40.677943 0.519366 0.578294 0.033499 -0.002757 -343305.000000 0 0 1
-19.767033 -11.213797 32.758873 39.870146 0.516027 0.606516 0.047554 -0.016308 63338.500000 0 0 1
-19.076033 -12.340697 31.908701 39.170818 0.574208 0.618750 0.042233 -0.012940 -608290.000000 0 0 1
-17.829133 -12.011097 31.365121 38.025192 0.592841 0.600858 0.050006 -0.010964 -56157.900000 0 0 1
-17.312333 -12.890297 30.347621 37.240498 0.640019 0.618224 0.045935 -0.012176 231780.000000 0 0 1
-17.134233 -14.340497 30.703241 37.972632 0.696869 0.629092 0.041679 -0.008535 4048.630000 0 0 1
-18.335633 -15.102897 30.410061 38.588401 0.689021 0.663142 0.042912 -0.011341 829089.000000 0 0 1
-18.300633 -16.443397 30.806041 39.424746 0.731994 0.673909 0.044385 -0.015479 -116947.000000 0 0 1
-18.633333 -16.727897 32.302791 40.871676 0.731565 0.659422 0.027475 -0.017402 43037.900000 0 0 1
-17.598933 -16.282197 33.174313 40.931252 0.746554 0.625811 0.039362 -0.015230 416033.000000 0 0 1
-18.126233 -16.087397 -33.949339 41.712376 0.725877 2.521615 0.036087 -0.015628 -195844.000000 0 0 1
-17.095133 -15.535097 -33.008959 40.288636 0.737625 2.531006 0.044825 -0.010568 -552409.000000 0 0 1
-16.630333 -14.248797 -33.391459 39.932264 0.708426 2.561118 0.038621 -0.010054 685601.000000 0 0 1
-15.397133 -13.889997 -32.723139 38.740257 0.733983 2.576764 0.046323 -0.009198 909314.000000 0 0 1
-15.518933 -13.525297 -31.205599 37.383958 0.716864 2.558443 0.061041 -0.014573 -364568.000000 0 0 1
-15.752033 -14.679497 -30.404269 37.256325 0.750168 2.525398 0.060155 -0.014218 -230035.000000 0 0 1
-16.013533 -14.410397 -29.084009 36.193540 0.732754 2.504064 0.046509 -0.011269 -407632.000000 0 0 1
-16.169833 -15.848097 -28.452749 36.361856 0.775350 2.469449 0.052990 -0.016387 157423.000000 0 0 1
-14.971133 -16.483697 -28.058479 35.820739 0.833448 2.470757 0.072267 -0.020772 344110.000000 0 0 1
-14.068633 -16.849297 -29.119499 36.466018 0.875094 2.495659 0.072547 -0.021206 320250.000000 0 0 1
-12.658133 -17.251997 -28.576669 35.699940 0.937796 2.498872 0.076059 -0.018776 296399.000000 0 0 1
-11.758433 -16.177797 -28.482109 34.802477 0.942293 2.529406 0.070515 -0.017514 -474815.000000 0 0 1
-10.549233 -16.571897 -27.889249 34.113403 1.003918 2.527932 0.085874 -0.024184 875646.000000 0 0 1
-9.298333 -15.645097 -28.174259 33.541272 1.034557 2.568057 0.067787 -0.020812 778097.000000 0 0 1
-9.327033 -14.382597 -27.479629 32.388002 0.995480 2.583848 0.059716 -0.013577 520005.000000 0 0 1
-7.999533 -13.847797 -27.399589 31.725250 1.046954 2.613267 0.058700 -0.012825 580287.000000 0 0 1
-7.905433 -12.366697 -27.788749 31.426830 1.002014 2.655653 0.044729 -0.017900 -152765.000000 0 0 1
-8.105333 -12.160697 -29.147269 32.605862 0.982896 2.676828 0.065403 -0.019420 217413.000000 0 0 1
-8.005533 -10.856597 -29.514839 32.451194 0.935415 2.712911 0.049231 -0.021923 -137175.000000 0 0 1
-6.989633 -10.617197 -30.654259 33.185289 0.988587 2.748504 0.042318 -0.008380 1036410.000000 0 0 1
-5.633033 -10.909197 -30.227639 32.625937 1.094149 2.755775 0.042948 -0.006505 1927540.000000 0 0 1
-4.485733 -10.573097 -31.021469 33.079355 1.169553 2.787004 0.043672 -0.009663 810442.000000 0 0 1
-4.353533 -9.053597 -31.448199 33.013786 1.122576 2.832394 0.029763 -0.006533 -1014650.000000 0 0 1
-3.054833 -8.675497 -31.842849 33.144581 1.232232 2.860402 0.022625 -0.012070 -223359.000000 0 0 1
-3.072833 -7.352697 -32.361549 33.328281 1.174938 2.900148 0.011489 -0.014990 391546.000000 0 0 1
-1.715333 -6.697797 -32.780029 33.501241 1.320081 2.933720 0.019082 -0.017903 508395.000000 0 0 1
-1.268033 -7.263197 -34.012659 34.802628 1.397955 2.928122 0.025174 -0.023030 860977.000000 0 0 1
-0.059133 -6.601897 33.953073 34.589011 1.561840 0.192053 0.026279 -0.020479 990713.000000 0 0 1
0.510667 -7.248197 32.654001 33.452666 -1.500458 0.218953 0.020280 -0.015708 84903.300000 0 0 1
-0.246833 -7.087997 31.439241 32.229280 1.535986 0.221873 0.015580 -0.015845 251135.000000 0 0 1
0.368967 -7.762497 30.362531 31.341279 -1.523300 0.250570 0.012376 -0.017989 -104039.000000 0 0 1
0.069467 -7.257197 28.935971 29.832233 -1.561225 0.245744 0.022419 -0.010284 -85488.200000 0 0 1
0.705167 -6.030697 28.628911 29.265698 -1.454395 0.208989 0.019053 -0.008367 25924.900000 0 0 1
0.539467 -5.603297 27.304981 27.879202 -1.474816 0.203312 0.021266 -0.006146 -180151.000000 0 0 1
-0.657233 -4.695097 26.926281 27.340455 1.431717 0.174282 0.022131 -0.001466 987182.000000 0 0 1
-1.919533 -5.331997 27.198191 27.782303 1.225238 0.205420 0.013090 -0.001213 -246419.000000 0 0 1
-2.970633 -4.530097 26.806771 27.348663 0.990386 0.199399 0.008324 -0.002673 -498916.000000 0 0 1
-4.374233 -4.990997 27.224971 28.022187 0.851160 0.239104 0.004114 -0.000226 -104808.000000 0 0 1
-4.967433 -6.013497 26.502411 27.626352 0.880373 0.286226 0.008456 0.000425 -1286260.000000 0 0 1
-6.287733 -6.166997 26.864191 28.271048 0.775704 0.316801 0.001624 -0.007555 -526673.000000 0 0 1
-6.765133 -7.624597 26.730441 28.608005 0.845055 0.364312 0.012072 -0.011004 182145.000000 0 0 1
-6.010433 -8.398197 27.643011 29.509169 0.949623 0.357542 0.012044 -0.014971 -173489.000000 0 0 1
-6.166533 -9.789297 27.543601 29.874846 1.008663 0.397669 0.019371 -0.017586 155624.000000 0 0 1
-5.334233 -10.485897 28.652661 30.973909 1.100209 0.389608 0.023774 -0.018151 148073.000000 0 0 1
-5.627233 -11.903197 28.740471 31.612758 1.129186 0.429578 0.042314 -0.019657 -50875.600000 0 0 1
-5.073533 -12.496497 29.856791 32.761733 1.185131 0.424290 0.050919 -0.017854 -185459.000000 0 0 1
-5.047633 -14.025297 29.851481 33.366127 1.225334 0.463117 0.060924 -0.025634 -446975.000000 0 0 1
-6.352933 -14.510097 29.877081 33.816307 1.158110 0.487491 0.074776 -0.028846 -609647.000000 0 0 1
-6.403233 -15.911097 29.971381 34.531841 1.188190 0.519768 0.065542 -0.031528 48641.800000 0 0 1
-6.578133 -16.466297 31.420921 36.078872 1.190729 0.513775 0.076983 -0.028894 -488088.000000 0 0 1
-7.855333 -16.245997 31.929011 36.675610 1.120416 0.514419 0.084931 -0.030134 -646468.000000 0 0 1
-7.970333 -16.652797 33.269083 38.048308 1.124400 0.506618 0.086142 -0.029953 100655.000000 0 0 1
-9.389033 -17.088897 33.756310 38.982981 1.068396 0.523801 0.090891 -0.029572 374979.000000 0 0 1
-9.930233 -18.302697 33.228414 39.213846 1.073686 0.559794 0.078507 -0.033044 515770.000000 0 0 1
-10.500933 -18.123697 31.907661 38.168531 1.045659 0.580902 0.062672 -0.029248 -479108.000000 0 0 1
-11.184733 -19.380397 31.271181 38.452370 1.047373 0.621090 0.041261 -0.024340 52194.800000 0 0 1
-12.305333 -19.751897 32.069811 39.623622 1.013640 0.627733 0.052543 -0.029068 107548.000000 0 0 1
-12.497833 -21.105397 31.974951 40.299269 1.036159 0.654360 0.040689 -0.023384 -374566.000000 0 0 1
-11.975833 -22.004097 33.167334 41.565285 1.072375 0.646897 0.044691 -0.018587 267452.000000 0 0 1
-10.630333 -22.399197 32.940478 41.228668 1.127686 0.645215 0.030748 -0.023105 207480.000000 0 0 1
-9.946833 -23.107197 33.954637 42.258720 1.164306 0.637655 0.032566 -0.027610 14555.000000 0 0 1
-10.303233 -24.607097 34.135537 43.323212 1.174266 0.663361 0.039857 -0.012767 -385762.000000 0 0 1
-9.717433 -25.482787 33.241366 42.997550 1.206485 0.687084 0.032607 -0.010615 -86980.100000 0 0 1
-9.891033 -26.830027 33.632947 44.145872 1.217600 0.704617 0.040195 -0.010053 -427925.000000 0 0 1
-9.120733 -27.741737 32.616922 43.779622 1.253156 0.730224 0.036229 -0.005504 1041440.000000 0 0 1
-7.723733 -27.479917 32.462226 43.227283 1.296797 0.721272 0.041473 -0.017072 853361.000000 0 0 1
-6.864733 -28.015957 33.468957 44.183588 1.330501 0.711325 0.038461 -0.019338 628908.000000 0 0 1
-5.341133 -27.662517 33.449624 43.733510 1.380061 0.699986 0.047725 -0.027097 780306.000000 0 0 1
-4.961433 -26.384457 33.933582 43.269427 1.384923 0.669327 0.050432 -0.021137 -70395.700000 0 0 1
-5.112533 -25.299407 32.988998 41.886417 1.371400 0.663921 0.052705 -0.020504 -61592.800000 0 0 1
-4.818033 -23.912397 33.666665 41.574758 1.371972 0.627009 0.060896 -0.022896 -102214.000000 0 0 1
-3.465633 -23.742097 34.003023 41.616143 1.425850 0.614497 0.054169 -0.017452 -220756.000000 0 0 1
-3.226233 -22.450597 -33.886449 40.776578 1.428070 2.551748 0.050174 -0.026155 -145922.000000 0 0 1
34.870171 -15.442197 1.966381 38.187130 -0.416891 1.519280 0.111163 -0.053416 44068.700000 0 0 1
35.642241 -15.755897 3.118081 39.093990 -0.416229 1.490953 0.088498 -0.045801 285373.000000 0 0 1
34.845471 -16.476997 4.007081 38.752483 -0.441700 1.467209 0.099948 -0.044854 -181035.000000 0 0 1
35.461401 -16.642497 5.397681 39.542618 -0.438798 1.433866 0.094300 -0.030957 -267528.000000 0 0 1
-35.931208 -17.640997 5.380381 40.388179 0.456394 1.437182 0.104280 -0.035034 -102525.000000 0 0 1
-35.152912 -17.527397 6.565581 39.825165 0.462531 1.405180 0.085666 -0.023687 -269950.000000 0 0 1
-33.821083 -18.265797 6.621481 39.004475 0.495188 1.400208 0.053950 -0.018108 -455430.000000 0 0 1
-33.876863 -19.644297 6.548581 39.704209 0.525489 1.405105 0.074053 -0.026703 -161238.000000 0 0 1
-32.777813 -20.144597 7.259681 39.152175 0.551071 1.384295 0.057788 -0.016958 -156280.000000 0 0 1
-32.916113 -21.652997 7.591981 40.124319 0.581855 1.380437 0.053209 -0.013949 -204693.000000 0 0 1
-32.780313 -22.463697 6.448481 40.258534 0.600778 1.409927 0.072808 -0.014336 269589.000000 0 0 1
-33.131833 -23.822397 6.679481 41.350217 0.623376 1.408551 0.088276 -0.022836 165831.000000 0 0 1
-32.509943 -24.748497 5.549281 41.233227 0.650668 1.435804 0.083294 -0.015829 236968.000000 0 0 1
-33.181493 -24.561697 4.305181 41.506904 0.637214 1.466887 0.073993 -0.014983 456477.000000 0 0 1
-32.522833 -25.226027 3.218581 41.284941 0.659710 1.492757 0.055929 -0.006687 -164577.000000 0 0 1
-33.010033 -24.800397 1.830381 41.328831 0.644332 1.526494 0.058265 -0.009296 -559090.000000 0 0 1
-34.175289 -25.531327 1.488881 42.685077 0.641623 1.535909 0.043099 -0.008228 194327.000000 0 0 1
-34.794512 -25.045797 0.322781 42.872535 0.623905 1.563267 0.030129 -0.004092 -361439.000000 0 0 1
-35.698003 -23.827197 0.495281 42.922349 0.588556 1.559257 0.042929 -0.007038 387345.000000 0 0 1
35.263771 -24.181197 0.511281 42.761258 -0.601080 1.558839 0.033023 -0.004199 1000590.000000 0 0 1
34.497801 -23.048597 0.853281 41.497761 -0.589007 1.550233 0.057705 -0.024856 -449018.000000 0 0 1
33.031041 -23.344797 0.559381 40.451726 -0.615244 1.556968 0.049611 -0.024436 -435869.000000 0 0 1
32.740781 -23.225197 -0.820919 40.150248 -0.616984 1.591244 0.044900 -0.029952 -338196.000000 0 0 1
31.353841 -23.228097 -1.041119 39.034494 -0.637611 1.597471 0.041877 -0.024782 -43856.000000 0 0 1
30.936781 -22.987197 -2.509919 38.623766 -0.639030 1.635826 0.042826 -0.017480 -211164.000000 0 0 1
31.294631 -21.744697 -3.015019 38.226641 -0.607253 1.649751 0.065749 -0.033057 13428.700000 0 0 1
30.925791 -21.524097 -4.334519 37.927290 -0.608031 1.685332 0.061553 -0.044593 -67987.000000 0 0 1
30.902331 -20.013597 -4.643219 37.108727 -0.574715 1.696250 0.069520 -0.044121 406799.000000 0 0 1
29.791051 -19.378997 -4.018219 35.765882 -0.576725 1.683382 0.074940 -0.050133 346379.000000 0 0 1
29.960921 -17.961197 -3.857619 35.144596 -0.540043 1.680782 0.083836 -0.045902 119395.000000 0 0 1
29.092171 -17.500597 -2.640719 34.052881 -0.541564 1.648422 0.087531 -0.040093 -11336.200000 0 0 1
29.564111 -17.743797 -1.337119 34.506041 -0.540552 1.609556 0.097820 -0.038424 -145604.000000 0 0 1
29.927051 -19.038297 -0.919019 35.481400 -0.566582 1.596701 0.089678 -0.038881 -5729.180000 0 0 1
28.800181 -20.084997 -0.678819 35.118632 -0.608973 1.590127 0.077745 -0.022278 84336.400000 0 0 1
27.997451 -19.921897 0.455281 34.364902 -0.618443 1.557548 0.073574 -0.011727 707654.000000 0 0 1
26.903681 -20.876197 0.496981 34.056873 -0.659910 1.556203 0.044888 -0.012456 350754.000000 0 0 1
26.183981 -20.772297 1.833581 33.473141 -0.670655 1.515991 0.041362 -0.004755 -788168.000000 0 0 1
25.106781 -21.664397 1.937681 33.218235 -0.711930 1.512431 0.037132 0.008971 -537191.000000 0 0 1
24.223581 -21.398797 2.956581 32.456613 -0.723560 1.479577 0.026005 0.010141 321155.000000 0 0 1
22.866681 -20.704197 2.576681 30.954614 -0.735807 1.487459 0.018800 0.010264 -119265.000000 0 0 1
22.946981 -19.366797 2.056681 30.097619 -0.700989 1.502409 0.032726 0.000440 241470.000000 0 0 1
23.102481 -18.353697 3.030981 29.660911 -0.671346 1.468430 0.030680 0.003960 -315703.000000 0 0 1
23.020581 -16.921797 2.456181 28.676248 -0.633879 1.485039 0.029632 0.004805 618570.000000 0 0 1
21.684981 -16.536297 2.097781 27.351201 -0.651497 1.494023 0.032490 0.009746 447796.000000 0 0 1
21.585081 -15.215297 1.730481 26.465365 -0.614006 1.505363 0.042153 0.002139 -170484.000000 0 0 1
20.248681 -14.713597 1.172581 25.057413 -0.628385 1.523983 0.052833 0.001016 -138821.000000 0 0 1
19.182581 -14.607197 2.104981 24.202739 -0.650809 1.483713 0.050393 0.000168 606500.000000 0 1 0
18.323281 -13.494397 1.814481 22.828353 -0.634780 1.491229 0.064790 -0.010730 67590.600000 0 1 0
18.831381 -12.116597 2.336281 22.514241 -0.571740 1.466840 0.078484 -0.008167 13983.900000 0 1 0
19.932881 -11.669097 1.516181 23.147060 -0.529630 1.505247 0.080928 -0.011264 848991.000000 0 1 0
20.321281 -10.416197 1.988281 22.921712 -0.473658 1.483945 0.083593 -0.016043 654395.000000 0 1 0
21.390081 -9.654897 1.072181 23.492598 -0.423995 1.525141 0.107691 -0.017008 548091.000000 0 1 0
20.814981 -9.203197 -0.115919 22.759079 -0.416301 1.575890 0.115450 -0.019917 774894.000000 0 1 0
21.773281 -8.722897 -1.055319 23.479318 -0.381044 1.615758 0.117772 -0.013158 -23725.800000 0 1 0
21.037681 -8.414297 -2.407619 22.785544 -0.380475 1.676658 0.137102 -0.014091 -2723.020000 0 1 0
21.696381 -7.799597 -3.506519 23.320856 -0.345103 1.721729 0.112311 -0.016899 474630.000000 0 1 0
22.783781 -8.482997 -4.129719 24.660018 -0.356424 1.739055 0.105490 -0.016512 -264711.000000 0 1 0
22.409981 -9.688797 -5.035319 24.928587 -0.408074 1.774185 0.098562 -0.019084 220248.000000 0 1 0
21.575381 -9.412997 -6.197319 24.341494 -0.411389 1.828229 0.080542 -0.026595 1452650.000000 0 1 0
20.176381 -9.274297 -5.898519 22.975888 -0.430859 1.830430 0.083493 -0.020825 206614.000000 0 1 0
19.357981 -9.147997 -7.185019 22.584104 -0.441464 1.894568 0.077449 -0.024587 -392459.000000 0 1 0
19.216081 -10.370497 -7.897219 23.220057 -0.494884 1.917823 0.068598 -0.024087 548668.000000 0 1 0
20.382581 -10.756497 -8.604419 24.600566 -0.485585 1.928117 0.057153 -0.019326 -164528.000000 0 1 0
20.296681 -12.097397 -9.348219 25.410460 -0.537494 1.947534 0.045488 -0.026437 -157227.000000 0 0 1
19.249281 -12.087197 -10.298119 24.953685 -0.560703 1.996201 0.066159 -0.033507 320290.000000 0 1 0
19.212281 -13.393197 -10.780219 25.781826 -0.608788 2.002185 0.062501 -0.028192 36820.200000 0 0 1
17.953881 -13.677997 -11.649319 25.399529 -0.651036 2.047264 0.058599 -0.027179 228633.000000 0 0 1
17.874481 -15.074997 -11.869319 26.222764 -0.700639 2.040514 0.057140 -0.025667 176605.000000 0 0 1
17.030481 -15.196797 -13.005919 26.270399 -0.728561 2.088722 0.057311 -0.026136 -231990.000000 0 0 1
16.950581 -16.657297 -13.432419 27.298674 -0.776672 2.085244 0.043376 -0.022372 -177559.000000 0 0 1
16.267481 -17.405397 -12.454719 26.883058 -0.819179 2.052503 0.044476 -0.017921 156280.000000 0 0 1
16.194781 -18.810697 -12.777519 27.917346 -0.859988 2.046193 0.044581 -0.017906 -504425.000000 0 0 1
15.287881 -19.584897 -11.815319 27.511620 -0.908000 2.014698 0.048255 -0.019877 113777.000000 0 0 1
13.944681 -19.291797 -12.167519 26.733426 -0.944912 2.043329 0.047335 -0.013844 69823.800000 0 0 1
13.012881 -19.981797 -11.329819 26.400229 -0.993552 2.014355 0.060788 -0.011375 235202.000000 0 0 1
11.546981 -19.827697 -11.771519 25.788350 -1.043444 2.044816 0.064667 -0.024635 -224274.000000 0 0 1
10.700581 -20.690697 -11.046619 25.780519 -1.093508 2.013614 0.080210 -0.030913 -1178760.000000 0 0 1
9.398281 -20.546997 -11.485919 25.346264 -1.141802 2.041104 0.061829 -0.024106 -903186.000000 0 0 1
8.439281 -21.130197 -10.436819 25.032656 -1.190812 2.000859 0.053039 -0.020520 -326014.000000 0 0 1
8.365481 -22.485397 -10.634719 26.242553 -1.214623 1.988045 0.078511 -0.021305 -155005.000000 0 0 1
7.446881 -23.106197 -9.772819 26.169837 -1.259018 1.953509 0.072016 -0.020466 61288.300000 0 0 1
7.535381 -24.627597 -9.869319 27.580862 -1.273869 1.936742 0.070202 -0.012857 -140848.000000 0 0 1
8.718781 -25.105637 -9.312419 28.160811 -1.236543 1.907828 0.074484 -0.010440 -742454.000000 0 0 1
8.812181 -26.535167 -9.433419 29.508626 -1.250161 1.896192 0.061924 -0.009446 759274.000000 0 0 1
10.315081 -26.952707 -9.313519 30.324758 -1.205283 1.882968 0.055020 -0.001743 709592.000000 0 0 1
10.690181 -27.136917 -7.964519 30.234513 -1.195529 1.837367 0.059920 -0.010895 829367.000000 0 0 1
12.089581 -27.510047 -7.920019 31.075510 -1.156741 1.828503 0.061126 -0.000883 999174.000000 0 0 1
12.558581 -27.784327 -6.462319 31.168066 -1.146279 1.779649 0.049350 -0.009963 -126020.000000 0 0 1
12.195881 -28.944117 -5.781419 31.936284 -1.172013 1.752830 0.048440 -0.008979 -853475.000000 0 0 1
10.829481 -29.098937 -5.561419 31.542910 -1.214517 1.748036 0.054643 -0.009246 -642126.000000 0 0 1
10.445081 -30.325317 -4.662219 32.410814 -1.239088 1.715145 0.057861 -0.011063 139288.000000 0 0 1
10.715081 -31.563067 -5.265119 33.745542 -1.243523 1.727461 0.061955 -0.013578 -866076.000000 0 0 1
9.778681 -31.861837 -6.236719 33.907166 -1.273013 1.755785 0.064521 -0.010267 -237162.000000 0 0 1
9.828181 -33.408317 -6.473719 35.420585 -1.284684 1.754597 0.056196 -0.011239 3965.350000 0 0 1
9.544181 -34.155103 -5.277519 35.854074 -1.298310 1.718527 0.044612 -0.014602 -26788.500000 0 0 1
9.664581 33.056863 -5.554419 34.885698 1.286361 1.730694 0.050186 -0.014756 22702.800000 0 0 1
9.345181 32.171919 -4.315019 33.778457 1.288100 1.698891 0.041109 -0.009411 -233058.000000 0 0 1
7.979781 31.877979 -4.290719 33.140500 1.325514 1.700631 0.045892 -0.014998 -958488.000000 0 0 1
7.857581 30.825809 -3.332619 31.985597 1.321209 1.675177 0.023124 -0.013679 645154.000000 0 0 1
6.502381 30.039569 -3.425819 30.925603 1.357625 1.681800 0.026933 -0.015246 641766.000000 0 0 1
6.250281 29.268929 -4.580419 30.277326 1.360410 1.722662 0.029510 -0.024191 90220.900000 0 0 1
5.772381 30.074239 -5.702019 31.149531 1.381165 1.754887 0.034866 -0.025726 -233015.000000 0 0 1
5.795681 29.290269 -7.070819 30.683974 1.375449 1.803326 0.055518 -0.027759 47677.200000 0 0 1
4.885581 28.209789 -7.189019 29.518521 1.399310 1.816813 0.050480 -0.026189 148294.000000 0 0 1
5.396081 26.984749 -6.599219 28.299189 1.373432 1.806158 0.035929 -0.026887 -659062.000000 0 0 1
4.635681 25.764469 -7.079119 27.118469 1.392776 1.834900 0.028216 -0.023257 1244000.000000 0 0 1
3.213881 25.826589 -6.777719 26.893851 1.446992 1.825561 0.036026 -0.028628 1272290.000000 0 0 1
2.350781 26.508869 -7.700619 27.704618 1.482349 1.852460 0.044272 -0.031251 132822.000000 0 0 1
1.803181 25.800529 -8.969619 27.374675 1.501020 1.904623 0.041243 -0.020607 -174598.000000 0 0 1
2.785981 25.541529 -9.956619 27.554776 1.462149 1.940500 0.029964 -0.017343 -52688.500000 0 0 1
2.340481 24.797869 -11.076319 27.259806 1.476693 1.989224 0.031952 -0.007962 -371560.000000 0 0 1
2.291181 23.277549 -10.985219 25.841224 1.472684 2.009874 0.039428 -0.010930 298576.000000 0 0 1
1.253681 22.776849 -10.126219 24.957902 1.515810 1.988576 0.052613 -0.021322 365589.000000 0 1 0
1.177481 21.338249 -10.220519 23.688950 1.515671 2.016892 0.030297 -0.021492 104594.000000 0 1 0
-0.038319 20.677849 -9.474119 22.744974 -1.568943 2.000429 0.046712 -0.015709 494438.000000 0 1 0
-1.291619 20.819049 -10.095719 23.173792 -1.508835 2.021559 0.069071 -0.023385 -616115.000000 0 1 0
-2.274319 20.144549 -9.338919 22.320188 -1.458372 2.002487 0.054913 -0.019652 -91356.800000 0 1 0
-3.599519 20.139849 -10.119619 22.824915 -1.393937 2.030138 0.048541 -0.020735 -430376.000000 0 1 0
-4.689619 19.543349 -9.484819 22.223789 -1.335289 2.011733 0.050311 -0.022647 -189297.000000 0 1 0
-5.675919 19.279449 -10.469119 22.660884 -1.284483 2.051035 0.043151 -0.012395 -431129.000000 0 1 0
-6.771119 18.285849 -10.059219 21.941017 -1.216159 2.047065 0.048186 -0.008059 24554.800000 0 1 0
-7.653919 18.905349 -9.118219 22.341366 -1.186112 1.991203 0.059378 -0.007818 964331.000000 0 1 0
-9.019319 18.892249 -9.577819 23.021725 -1.125385 1.999876 0.063807 -0.018469 783528.000000 0 1 0
-10.015819 19.163549 -8.445919 23.214043 -1.089194 1.943171 0.064564 -0.022495 -76101.500000 0 1 0
-10.066819 18.041949 -7.529219 21.989587 -1.061857 1.920266 0.050380 -0.022525 243512.000000 0 1 0
-11.133619 18.251049 -6.582219 22.369262 -1.023037 1.869470 0.058727 -0.020526 89625.600000 0 1 0
-11.601119 17.025549 -5.862819 21.420269 -0.972667 1.848039 0.038851 -0.023520 -694806.000000 0 1 0
-12.707719 17.333749 -5.075219 22.083995 -0.938186 1.802683 0.059768 -0.014778 -133159.000000 0 1 0
-13.171219 16.214849 -4.288419 21.325874 -0.888604 1.773267 0.057918 -0.017004 36986.200000 0 1 0
-14.341019 16.575649 -3.349719 22.172902 -0.857552 1.722450 0.048967 -0.017013 212425.000000 0 1 0
-15.593019 16.609149 -4.026319 23.134765 -0.816942 1.745725 0.081623 -0.026928 -199361.000000 0 1 0
-16.632419 16.714449 -3.106819 23.783661 -0.787858 1.701799 0.080204 -0.029613 -597353.000000 0 1 0
-17.963719 16.853949 -3.860319 24.932968 -0.753535 1.726250 0.086639 -0.032456 -375552.000000 0 1 0
-17.924319 18.078149 -4.686119 25.885525 -0.789671 1.752832 0.083054 -0.029580 247095.000000 0 0 1
-19.229719 18.442749 -5.086919 27.125520 -0.764511 1.759446 0.066654 -0.024290 65398.400000 0 0 1
-19.173619 19.404049 -6.324819 28.002645 -0.791371 1.798627 0.052742 -0.009170 -3739.360000 0 0 1
-18.730119 20.728649 -6.101019 28.595746 -0.836003 1.785803 0.063644 -0.023513 146983.000000 0 0 1
-18.712919 21.433349 -7.345619 29.385710 -0.853058 1.823448 0.049394 -0.009730 -10098.100000 0 0 1
-18.453019 22.945749 -7.145819 30.299902 -0.893498 1.808875 0.059891 -0.009081 483991.000000 0 0 1
-17.152919 23.216749 -6.620819 29.615458 -0.934491 1.796261 0.053374 -0.011087 373144.000000 0 0 1
-17.144819 24.310659 -5.708319 30.290888 -0.956563 1.760380 0.066519 -0.013505 111631.000000 0 0 1
-15.741119 24.830639 -5.301319 29.873859 -1.005795 1.749198 0.050077 -0.014419 -178272.000000 0 0 1
-15.669119 25.719489 -4.178619 30.405169 -1.023617 1.708664 0.052655 -0.012082 428796.000000 0 0 1
-14.498619 26.532989 -3.986619 30.497584 -1.070692 1.701891 0.069746 -0.015333 161281.000000 0 0 1
-14.267719 27.714579 -4.912119 31.556214 -1.095372 1.727094 0.067672 -0.014668 -364835.000000 0 0 1
-15.175119 28.738769 -4.656719 32.831176 -1.084972 1.713115 0.075804 -0.013163 -292680.000000 0 0 1
-14.724419 29.968579 -5.143819 33.784362 -1.114110 1.723645 0.060965 -0.027132 -410170.000000 0 0 1
-15.538319 31.102069 -4.617019 35.072709 -1.107476 1.702821 0.070323 -0.029345 -1217300.000000 0 0 1
-16.826019 31.139649 -5.101119 35.760510 -1.075399 1.713931 0.084534 -0.023215 -1213940.000000 0 0 1
-17.491919 32.143359 -4.382019 36.856002 -1.072429 1.689974 0.104309 -0.025423 -543174.000000 0 0 1
12.678767 -8.417297 19.038651 24.373597 -0.586077 0.674342 0.039076 -0.002987 -178168.000000 0 1 0
13.266367 -9.630597 19.420651 25.414692 -0.627925 0.701073 0.046401 -0.001375 -126655.000000 0 0 1
13.231367 -10.489397 18.313451 24.909416 -0.670315 0.744832 0.037554 -0.007824 -215577.000000 0 1 0
13.692867 -11.935397 18.619351 26.012084 -0.716930 0.773033 0.070242 -0.016931 1242030.000000 0 0 1
15.130167 -12.035397 18.847551 27.000053 -0.671965 0.798117 0.077359 -0.009313 1490430.000000 0 0 1
15.328867 -13.085697 19.785351 28.243047 -0.706617 0.794644 0.087169 -0.020491 -27570.800000 0 0 1
15.808767 -14.352197 19.066351 28.625660 -0.737142 0.841885 0.085786 -0.025308 256737.000000 0 0 1
14.793067 -14.845497 18.160251 27.731179 -0.787167 0.856789 0.084701 -0.025103 945882.000000 0 0 1
15.253667 -16.029897 17.432651 28.169651 -0.810206 0.903525 0.082007 -0.025815 121759.000000 0 0 1
14.377367 -16.457097 16.212251 27.209957 -0.852744 0.932509 0.070975 -0.024952 -551814.000000 0 0 1
13.097267 -16.843097 16.619051 27.044799 -0.909861 0.909043 0.079089 -0.027977 -268984.000000 0 0 1
12.191267 -16.920697 15.491451 25.979261 -0.946448 0.931911 0.074721 -0.029307 442370.000000 0 0 1
12.156767 -18.251897 14.772751 26.441499 -0.983217 0.977984 0.074539 -0.021865 -931366.000000 0 0 1
13.355367 -18.628297 14.185051 26.955425 -0.948792 1.016622 0.074622 -0.020634 -561041.000000 0 0 1
13.149867 -19.765997 13.391751 27.257157 -0.983756 1.057202 0.073205 -0.023203 -134824.000000 0 0 1
14.415167 -20.570397 13.050651 28.306496 -0.959552 1.091621 0.074455 -0.021513 -152951.000000 0 0 1
14.850767 -21.438097 14.083651 29.639273 -0.964968 1.075641 0.058151 -0.012807 -136759.000000 0 0 1
15.311267 -22.684797 13.602251 30.562332 -0.977076 1.109549 0.042650 -0.020998 -273076.000000 0 0 1
16.255567 -23.383097 14.587751 31.997111 -0.963310 1.097404 0.047167 -0.021488 2611.420000 0 0 1
17.512267 -22.747397 14.746751 32.273677 -0.914707 1.096258 0.018241 -0.018786 -45618.400000 0 0 1
18.154367 -23.217597 15.939251 33.506679 -0.907176 1.075032 0.014814 -0.021929 -426483.000000 0 0 1
19.613467 -22.807897 16.013251 34.078034 -0.860559 1.081619 -0.004772 -0.017518 -174725.000000 0 0 1
20.532467 -23.469497 15.154251 34.670604 -0.852047 1.118433 -0.006744 -0.021146 401398.000000 0 0 1
21.707167 -22.671497 14.936351 34.760501 -0.807124 1.126643 -0.004032 -0.010719 660188.000000 0 0 1
22.933467 -23.437097 14.428851 35.825035 -0.796259 1.156267 -0.002625 -0.010614 -93695.200000 0 0 1
23.359667 -24.473397 15.268151 37.117888 -0.808678 1.146870 -0.000036 -0.009855 -155967.000000 0 0 1
24.432767 -25.234157 14.793651 38.112660 -0.801532 1.172167 0.017398 -0.012571 -350137.000000 0 0 1
24.726567 -26.496037 15.656751 39.478816 -0.819929 1.163001 0.023038 -0.013505 -298023.000000 0 0 1
25.288667 -26.182127 16.905951 40.135167 -0.802755 1.136000 0.022774 -0.000941 38170.600000 0 0 1
25.587767 -27.365057 17.593851 41.389899 -0.818949 1.131751 0.052813 -0.001197 -36626.300000 0 0 1
25.796567 -27.207547 19.104651 42.079700 -0.812012 1.099534 0.036593 0.009585 738013.000000 0 0 1
24.646667 -26.805417 19.870951 41.483048 -0.827330 1.071265 0.039718 0.007353 602644.000000 0 0 1
25.043267 -26.373787 21.196551 42.095553 -0.811269 1.043112 0.047746 0.009906 -66273.600000 0 0 1
23.836267 -26.180047 22.103951 41.739036 -0.832224 1.012697 0.041852 0.001551 -361639.000000 0 0 1
23.129367 -27.316647 22.453851 42.253310 -0.868213 1.010532 0.045653 0.005965 -302638.000000 0 0 1
22.236767 -27.053707 23.509591 42.179114 -0.882814 0.979575 0.045195 0.002329 -368551.000000 0 0 1
21.665967 -28.409887 23.986481 43.033557 -0.919267 0.979557 0.054677 -0.003945 -133336.000000 0 0 1
22.629667 -29.347487 24.471261 44.409677 -0.913931 0.987193 0.049555 -0.000539 339386.000000 0 0 1
22.748367 -30.526207 23.659571 44.823128 -0.930369 1.014737 0.049530 0.000121 252434.000000 0 0 1
23.821167 -31.471087 24.298221 46.349550 -0.922880 1.018976 0.029016 0.002415 126921.000000 0 0 1
23.455467 -31.763387 25.637741 47.078290 -0.934732 0.994912 0.042227 -0.000284 -731413.000000 0 0 1
24.451667 -32.078537 26.520841 48.272886 -0.919505 0.989157 0.050542 0.002306 -1371040.000000 0 0 1
23.915267 -32.371827 27.913001 48.979697 -0.934523 0.964425 0.036775 -0.000128 66651.900000 0 0 1
23.317067 -33.599117 28.182701 49.667402 -0.964123 0.967417 0.038819 -0.004109 461665.000000 0 0 1
22.063567 -33.925047 27.589301 48.978355 -0.994167 0.972427 0.048545 -0.006215 -21832.000000 0 0 1
21.506367 33.271953 27.875831 48.441806 0.996969 0.957642 0.062776 -0.020694 74857.700000 0 0 1
20.969067 33.291441 29.252271 49.027718 1.008707 0.931479 0.050675 -0.017070 439338.000000 0 0 1
20.517967 32.006999 29.697991 48.243192 1.000741 0.907663 0.054129 -0.023212 77442.100000 0 0 1
20.224467 32.083369 31.211511 49.117512 1.008343 0.882211 0.050855 -0.028608 449435.000000 0 0 1
21.400167 32.216569 32.027251 50.215727 0.984462 0.879167 0.049718 -0.019858 455085.000000 0 0 1
21.134267 32.569021 33.351981 51.183523 0.995190 0.861084 0.045498 -0.022214 -506264.000000 0 0 1
22.387967 32.477919 34.211492 52.215538 0.967268 0.856352 0.035355 -0.013311 -344871.000000 0 0 1
22.725667 31.166819 -34.003939 51.420758 0.940765 2.293331 0.031079 -0.001593 -1100650.000000 0 0 1
24.012967 30.990209 -33.563829 51.609556 0.911576 2.278830 0.029625 0.010443 -1065510.000000 0 0 1
24.367467 29.537449 -33.238099 50.705084 0.881015 2.285665 0.035731 0.007415 -134614.000000 0 0 1
24.456267 28.841029 33.978623 50.837592 0.867483 0.838773 0.047683 0.006217 289459.000000 0 0 1
23.997967 27.501879 34.101354 49.951557 0.853331 0.819361 0.045929 -0.001182 -147198.000000 0 0 1
24.252767 26.558379 32.884603 48.733369 0.830743 0.830121 0.067790 -0.005071 593562.000000 0 0 1
25.627767 26.254049 32.625344 49.096543 0.797469 0.843953 0.057492 -0.011231 784703.000000 0 0 1
25.741167 25.277059 31.625521 47.976150 0.776302 0.851052 0.072044 -0.018469 -184259.000000 0 0 1
27.101967 24.545749 31.444361 48.226115 0.735945 0.860552 0.049168 -0.015522 99628.700000 0 0 1
27.422567 23.641689 32.501277 48.654492 0.711491 0.839276 0.062137 -0.022320 153404.000000 0 0 1
28.086367 24.253539 33.556858 50.031399 0.712299 0.835623 0.062778 -0.022650 -1343950.000000 0 0 1
28.249067 23.399949 -33.604759 49.747836 0.691787 2.312442 0.051486 -0.024971 -333624.000000 0 0 1
27.301967 23.589029 -32.584369 48.616672 0.712569 2.305315 0.056140 -0.023007 1013530.000000 0 0 1
25.902867 23.398649 -32.862589 47.941684 0.734648 2.326045 0.061016 -0.014258 545313.000000 0 0 1
25.428967 21.906849 -32.957889 47.040034 0.711128 2.347083 0.056828 -0.011525 -506306.000000 0 0 1
25.238867 21.285849 -31.712749 45.779758 0.700636 2.336056 0.051767 -0.027489 395544.000000 0 0 1
24.750667 19.939749 -31.863809 45.005460 0.678161 2.357457 0.049923 -0.015435 -5189.850000 0 0 1
24.525867 19.240949 -30.502249 43.613294 0.665228 2.345325 0.056707 -0.018042 80103.300000 0 0 1
23.408667 19.703449 -29.750049 42.676188 0.699665 2.342157 0.054625 -0.015940 301147.000000 0 0 1
23.263767 19.042449 -28.497339 41.423617 0.685947 2.329456 0.059216 -0.015145 -694012.000000 0 0 1
21.940467 19.199549 -27.768669 40.262957 0.718872 2.331847 0.070015 -0.014932 -681141.000000 0 0 1
21.807867 18.674449 -26.482089 39.059175 0.708150 2.315834 0.071612 -0.011457 -180094.000000 0 0 1
22.444467 19.367949 -25.422499 39.053489 0.711951 2.279653 0.068455 -0.013020 -40357.500000 0 0 1
22.637567 18.412649 -24.165719 37.887558 0.682839 2.262470 0.068557 -0.003639 -582773.000000 0 0 1
23.572667 17.417149 -24.275919 38.057167 0.636340 2.262539 0.076400 -0.010830 -449592.000000 0 0 1
23.510567 16.546049 -23.153819 36.913654 0.613252 2.248804 0.081784 -0.015872 -571913.000000 0 0 1
24.427567 15.347849 -23.344519 37.111037 0.560969 2.251121 0.094925 -0.021250 809891.000000 0 0 1
25.770267 15.769749 -22.924719 37.925379 0.549150 2.219896 0.109154 -0.026688 1424220.000000 0 0 1
26.791967 14.821049 -23.130619 38.373148 0.505289 2.217779 0.110570 -0.032274 72528.900000 0 0 1
26.820567 13.781049 -21.966119 37.306440 0.474646 2.200373 0.104845 -0.025622 -520786.000000 0 0 1
25.652567 12.984449 -21.963519 36.180744 0.468568 2.223139 0.094161 -0.019228 -2969.010000 0 0 1
25.384867 12.654749 -20.621919 35.068471 0.462459 2.199439 0.073015 -0.022807 -57623.200000 0 0 1
23.994467 11.989649 -20.474219 33.744329 0.463395 2.222756 0.064255 -0.007524 224237.000000 0 0 1
22.940567 12.930249 -20.464419 33.350463 0.513256 2.231430 0.082411 -0.006670 -1215430.000000 0 0 1
21.735567 12.349449 -20.803319 32.522636 0.516685 2.264848 0.071632 -0.008646 -411816.000000 0 0 1
20.613967 13.430049 -20.697119 32.150779 0.577431 2.270187 0.073125 -0.010082 -367525.000000 0 0 1
20.911167 14.509449 -21.607119 33.386653 0.606594 2.274674 0.066502 -0.006937 230577.000000 0 0 1
19.859067 15.432249 -21.662819 33.193592 0.660613 2.281834 0.056573 -0.007796 884495.000000 0 0 1
18.552267 15.030949 -22.468719 32.786573 0.680926 2.325815 0.053018 0.009028 414522.000000 0 0 1
17.568467 14.294649 -21.789319 31.428688 0.683011 2.336846 0.040867 -0.003993 -854685.000000 0 0 1
16.470067 14.262049 -22.624219 31.408986 0.713674 2.375046 0.041718 -0.020976 -5786.620000 0 0 1
15.140467 13.701149 -21.980419 30.001567 0.735535 2.392993 0.020291 -0.018953 1541800.000000 0 0 1
14.021267 14.080649 -22.805819 30.248404 0.787511 2.424852 0.028205 -0.020667 178809.000000 0 0 1
12.792367 13.505949 -22.476519 29.176175 0.812526 2.450221 0.048163 -0.023675 396464.000000 0 0 1
11.583667 13.852849 -23.423619 29.576151 0.874372 2.484836 0.049541 -0.019131 443007.000000 0 0 1
11.317867 15.251349 -23.393019 30.131895 0.932377 2.459657 0.020402 -0.008899 33969.100000 0 0 1
10.954367 15.776149 -24.634119 31.236595 0.963864 2.479374 0.031506 -0.018480 -694219.000000 0 0 1
10.929767 17.316649 -24.568119 31.983099 1.007772 2.446758 0.028251 -0.009603 485174.000000 0 0 1
12.177267 17.995049 -24.372919 32.651903 0.975879 2.413503 0.023279 -0.016377 -88099.100000 0 0 1
13.234067 17.852849 -25.259779 33.644036 0.932896 2.420061 0.032297 -0.017476 -492713.000000 0 0 1
12.961867 18.160649 -26.763389 34.843911 0.950912 2.446655 0.040383 -0.033212 -461676.000000 0 0 1
14.083567 17.874349 -27.573769 35.751251 0.903464 2.451626 0.034809 -0.032222 105802.000000 0 0 1
13.682567 17.257049 -28.795159 36.251614 0.900419 2.488674 0.048557 -0.029494 -188854.000000 0 0 1
14.744167 17.386049 -29.906189 37.603794 0.867438 2.490294 0.043901 -0.026346 -372476.000000 0 0 1
15.790467 16.476849 -29.692009 37.449176 0.806667 2.486287 0.025360 -0.023449 -401633.000000 0 0 1
16.477767 16.500849 -30.959899 38.759646 0.786098 2.496038 0.033628 -0.016091 -46400.200000 0 0 1
17.717167 15.570949 -31.007149 38.958898 0.721013 2.491279 0.034162 -0.015502 -653171.000000 0 0 1
18.902967 16.208549 -30.668899 39.504691 0.708809 2.459628 0.047968 -0.022981 -619470.000000 0 0 1
19.947767 15.249849 -30.642049 39.615735 0.652710 2.455113 0.058884 -0.022234 709689.000000 0 0 1
21.315867 15.854949 -31.131569 40.925788 0.639528 2.435162 0.060519 -0.020280 551053.000000 0 0 1
21.253467 16.206149 -32.504469 42.081939 0.651465 2.453422 0.061797 -0.014563 -104834.000000 0 0 1
22.364767 17.008649 -32.779589 43.173816 0.650194 2.432952 0.062928 -0.011350 -268259.000000 0 0 1
22.401767 17.427349 34.164097 44.415506 0.661148 0.693219 0.040300 0.008120 -545494.000000 0 0 1
23.262967 18.454249 33.863808 45.038677 0.670635 0.719883 0.055411 0.004937 -395426.000000 0 0 1
23.165467 18.915349 32.563430 44.213191 0.684741 0.742901 0.069979 -0.001530 -954909.000000 0 0 1
24.094267 20.065149 32.317581 45.028546 0.694410 0.770284 0.076248 0.002296 378664.000000 0 0 1
25.445167 19.647849 32.101761 45.431460 0.657536 0.786118 0.047577 -0.001308 679444.000000 0 0 1
26.438267 20.657349 31.967211 46.342319 0.663261 0.809575 0.040932 -0.013584 489281.000000 0 0 1
27.840567 20.090549 31.662771 46.703944 0.625095 0.825831 0.035290 -0.015229 -76399.200000 0 0 1
28.404467 19.511249 32.845438 47.605938 0.601885 0.809384 0.022853 -0.013013 929825.000000 0 0 1
29.838867 19.453349 32.713048 48.362529 0.577742 0.827915 0.020832 -0.010585 956836.000000 0 0 1
30.582467 18.949149 33.964687 49.476838 0.554713 0.814164 0.012006 -0.011869 -142010.000000 0 0 1
30.522367 19.872249 -33.413639 49.426637 0.577128 2.313151 0.009286 -0.019169 54258.800000 0 0 1
29.419867 19.721449 -32.545909 48.100939 0.590545 2.313955 0.007874 -0.026045 -95988.100000 0 0 1
29.796767 20.177549 -31.107669 47.567508 0.595241 2.283615 0.028532 -0.027776 -68373.000000 0 0 1
30.763667 19.316849 -30.562249 47.472043 0.560690 2.270243 0.032484 -0.033217 -369669.000000 0 0 1
31.142567 19.669449 -29.279029 47.053249 0.563327 2.242414 0.020472 -0.030711 -783640.000000 0 0 1
32.561067 19.172149 -29.105679 47.696278 0.532148 2.227147 0.036214 -0.024040 -839317.000000 0 0 1
33.550567 19.777349 -29.895989 49.097395 0.532647 2.225484 0.004641 -0.012029 -1033970.000000 0 0 1
34.750767 19.767949 -29.204019 49.510224 0.517200 2.201680 0.018410 -0.009122 -550223.000000 0 0 1
35.854367 20.502549 -30.018069 51.058541 0.519448 2.199275 0.010025 -0.009582 314099.000000 0 0 1
-35.907148 19.878049 -31.172059 51.537921 -0.505600 2.220358 -0.004715 -0.008670 369717.000000 0 0 1
-34.713448 20.616149 -31.399709 51.146757 -0.535919 2.231806 0.003336 -0.017834 755618.000000 0 0 1
-33.743248 20.178249 -32.581679 51.062063 -0.538943 2.262798 -0.000816 -0.021936 670754.000000 0 0 1
-32.917648 19.066649 -32.210789 49.846199 -0.525002 2.273396 0.015883 -0.018404 115107.000000 0 0 1
-32.087248 18.742949 -33.280389 49.884606 -0.528665 2.301169 0.017444 -0.014918 -367494.000000 0 0 1
-31.336948 17.424049 -33.161239 48.839221 -0.507455 2.317179 0.009299 -0.007083 296821.000000 0 0 1
-32.217948 16.293349 -33.252109 49.083318 -0.468215 2.315104 0.013861 -0.006515 635634.000000 0 0 1
-31.460548 15.127049 -33.410399 48.320269 -0.448191 2.334272 0.020172 -0.002308 -253122.000000 0 0 1
-32.459248 14.010349 -33.559999 48.745935 -0.407472 2.330170 0.020610 -0.002367 -190410.000000 0 0 1
-31.880648 12.723149 -33.713929 48.113233 -0.379719 2.347203 0.039751 -0.021035 -109757.000000 0 0 1
-32.876648 11.750049 -33.709609 48.531179 -0.343250 2.338656 0.049464 -0.024334 -211706.000000 0 0 1
-32.293148 10.321449 -34.050949 48.050461 -0.309356 2.358379 0.054653 -0.023505 142839.000000 0 0 1
-32.150548 10.095649 32.979520 47.151125 -0.304262 0.796179 0.053058 -0.023442 127798.000000 0 0 1
-32.246148 8.702749 32.754738 46.780602 -0.263605 0.795150 0.061749 -0.032343 -809743.000000 0 0 1
-31.111948 8.107949 31.966991 45.338511 -0.254935 0.788269 0.080953 -0.023739 292087.000000 0 0 1
-29.853448 7.963449 32.650131 44.951928 -0.260682 0.757823 0.056592 -0.014856 814949.000000 0 0 1
-28.922548 7.288849 31.795301 43.595667 -0.246872 0.753465 0.055592 -0.020220 230876.000000 0 0 1
20.857367 -4.029897 -32.280589 38.643321 -0.190860 2.559560 0.079344 -0.042375 -376081.000000 0 0 1
22.226967 -4.340897 -32.422699 39.548866 -0.192871 2.531882 0.068833 -0.045857 451842.000000 0 0 1
23.216567 -3.460097 -31.871509 39.582500 -0.147947 2.506795 0.073045 -0.042569 277184.000000 0 0 1
23.140467 -1.933997 -32.306479 39.786054 -0.083383 2.518376 0.070298 -0.038386 -1411890.000000 0 0 1
23.950467 -1.060297 -31.581699 39.650382 -0.044242 2.492288 0.083525 -0.041468 29022.700000 0 0 1
23.728567 0.198703 -32.194419 39.994562 0.008374 2.506421 0.064585 -0.035772 109160.000000 0 0 1
24.760467 1.300503 -31.791259 40.316946 0.052475 2.479217 0.068140 -0.034919 871170.000000 0 0 1
26.037567 1.158903 -32.437739 41.611355 0.044480 2.464728 0.071481 -0.041650 537533.000000 0 0 1
27.055867 1.619803 -31.564079 41.604504 0.059797 2.432065 0.073103 -0.034858 -739625.000000 0 0 1
28.483267 1.327903 -31.941299 42.817127 0.046587 2.412822 0.069706 -0.039158 -857695.000000 0 0 1
28.972767 2.122403 -33.022649 43.982055 0.073124 2.420100 0.066207 -0.027054 -94038.000000 0 0 1
29.108067 1.277803 -34.173645 44.908243 0.043870 2.435597 0.039258 -0.020868 -303839.000000 0 0 1
29.752467 1.888303 33.016611 44.484509 0.063382 0.734442 0.046997 -0.023641 90753.900000 0 0 1
29.007067 2.912703 32.304391 43.513991 0.100078 0.734164 0.052244 -0.015089 386747.000000 0 0 1
29.126867 4.200903 32.795436 44.063165 0.143240 0.731337 0.053307 -0.009969 73822.000000 0 0 1
28.171667 5.218203 32.063761 42.999502 0.183153 0.729245 0.050735 -0.006098 189251.000000 0 0 1
28.375967 6.605303 32.265561 43.472887 0.228705 0.734450 0.046820 -0.006057 94014.800000 0 0 1
27.541367 7.425003 31.452921 42.461085 0.263334 0.736615 0.033342 -0.004874 -38779.800000 0 0 1
27.837967 8.939403 31.716261 43.136835 0.310721 0.744764 0.026226 0.000410 37302.600000 0 0 1
29.048967 9.353903 31.129661 43.593506 0.311520 0.775474 0.022991 -0.003143 -181440.000000 0 0 1
29.282267 10.712903 31.389421 44.243792 0.350724 0.782058 0.027607 0.001505 514525.000000 0 0 1
30.657867 11.177803 30.767771 44.849791 0.349620 0.814794 0.033830 0.007625 -403582.000000 0 0 1
31.671167 10.604003 31.553291 45.946902 0.323084 0.813810 0.049555 -0.007087 157191.000000 0 0 1
33.000967 10.870903 31.087341 46.622560 0.318217 0.840907 0.056634 -0.012913 708069.000000 0 0 1
33.474867 12.342703 31.246701 47.426420 0.353250 0.851513 0.070754 -0.014765 -999327.000000 0 0 1
33.834267 12.733803 32.606124 48.683330 0.359961 0.836911 0.066800 -0.013649 102364.000000 0 0 1
34.272167 14.042703 32.724871 49.423639 0.388875 0.847139 0.076276 -0.008616 212826.000000 0 0 1
33.177367 15.146303 32.529672 48.870520 0.428267 0.842459 0.071598 -0.016944 -538908.000000 0 0 1
32.753867 15.354303 31.168291 47.749688 0.438360 0.859596 0.056789 -0.019868 198706.000000 0 0 1
31.747367 16.349703 31.089941 47.347571 0.475571 0.854452 0.041763 -0.015685 -124921.000000 0 0 1
30.341167 15.902903 31.527631 46.556205 0.482770 0.826853 0.040167 -0.007519 -1232210.000000 0 0 1
29.744767 15.221703 30.455871 45.210745 0.472999 0.831670 0.020077 0.001396 -239287.000000 0 0 1
28.598167 14.561503 30.946471 44.582245 0.470962 0.803567 0.000660 0.004022 102439.000000 0 0 1
27.622067 13.875403 29.931721 43.028052 0.465510 0.801496 0.002982 0.008260 316430.000000 0 0 1
28.169967 12.811403 29.146321 42.511023 0.426830 0.815344 0.003664 0.006180 279000.000000 0 0 1
27.243167 12.450003 28.113041 41.079627 0.428656 0.817078 0.000795 0.000789 310369.000000 0 0 1
27.070867 10.950403 27.903741 40.390121 0.384387 0.808125 0.006653 0.012652 -284280.000000 0 0 1
28.075867 10.248203 27.219031 40.424690 0.349991 0.832097 0.005666 0.010220 -77932.900000 0 0 1
27.592967 8.927403 27.058871 39.664251 0.312910 0.820032 0.013143 0.009809 371179.000000 0 0 1
28.730767 7.940903 26.668871 39.996794 0.269658 0.840923 0.020890 0.000838 353276.000000 0 0 1
29.241267 8.106403 25.341111 39.534002 0.270433 0.875002 0.021204 0.003575 393217.000000 0 0 1
30.191967 7.081603 24.992651 39.828840 0.230388 0.892456 0.018972 0.011504 396069.000000 0 0 1
30.697067 7.250003 23.521821 39.346518 0.231929 0.930027 0.036608 0.008416 609956.000000 0 0 1
31.594567 8.373103 23.315751 40.149094 0.259062 0.951172 0.031664 -0.000191 624069.000000 0 0 1
30.940367 9.545503 22.924151 39.672908 0.299248 0.954730 0.035575 -0.003001 13400.100000 0 0 1
30.311867 9.663203 21.500851 38.398871 0.308607 0.976490 0.044099 0.000631 -13928.200000 0 0 1
31.280267 9.951403 20.527351 38.715083 0.308012 1.011941 0.052421 -0.003184 165197.000000 0 0 1
30.738367 10.189603 19.250951 37.673257 0.320095 1.034451 0.060809 -0.012207 -671434.000000 0 0 1
31.751167 10.955803 18.390851 38.293467 0.332260 1.069844 0.061990 -0.028827 1371850.000000 0 0 1
32.951267 10.239203 17.986551 38.911994 0.301279 1.090280 0.059710 -0.023305 1187180.000000 0 0 1
34.025167 10.178703 18.884351 40.223583 0.290679 1.082089 0.055199 -0.009744 1022800.000000 0 0 1
35.431367 9.591603 18.399551 41.060005 0.264373 1.106142 0.070063 -0.011491 1278840.000000 0 0 1
35.509367 8.175303 18.330051 40.788987 0.226286 1.104717 0.063945 -0.015858 36806.600000 0 0 1
-35.752148 7.704403 17.605951 40.589942 -0.212249 1.122144 0.067535 -0.013353 -238031.000000 0 0 1
-35.782848 6.289903 17.110651 40.159051 -0.174002 1.130650 0.066222 -0.012720 -52095.800000 0 0 1
35.719067 6.078803 15.984151 39.601725 0.168569 1.155323 0.054010 -0.011034 541229.000000 0 0 1
35.497567 4.700303 15.605751 39.060332 0.131646 1.159793 0.052003 -0.010666 377362.000000 0 0 1
34.118267 4.053603 15.977051 37.891344 0.118256 1.135527 0.039801 -0.011438 333037.000000 0 0 1
34.093067 3.140403 17.049751 38.247788 0.091853 1.108761 0.042332 -0.004233 -268588.000000 0 0 1
32.804167 2.629003 17.255251 37.158696 0.079971 1.087877 0.037649 -0.006576 -178078.000000 0 0 1
32.787867 1.710203 18.460551 37.666443 0.052112 1.058585 0.039384 -0.015758 -209140.000000 0 0 1
33.358967 0.469003 18.268751 38.036665 0.014058 1.069807 0.046405 -0.013046 -355935.000000 0 0 1
33.117667 -0.369397 19.389051 38.377748 -0.011154 1.041164 0.050335 -0.010685 194445.000000 0 0 1
33.967167 -1.659597 19.548151 39.225666 -0.048820 1.049101 0.053176 -0.001733 253854.000000 0 0 1
33.423567 -2.399197 20.615151 39.343047 -0.071659 1.019274 0.061469 0.001791 416454.000000 0 0 1
34.104667 -3.660097 20.705451 40.065450 -0.106910 1.027698 0.057914 0.000714 208172.000000 0 0 1
33.564367 -4.531497 21.860851 40.311263 -0.134198 0.997623 0.055775 0.004098 3063.890000 0 0 1
33.967967 -4.063397 23.122451 41.291424 -0.119059 0.976432 0.054470 -0.001421 491092.000000 0 0 1
33.209367 -4.637497 24.200451 41.352512 -0.138747 0.945641 0.057283 -0.001401 206130.000000 0 0 1
33.742467 -4.244197 25.607961 42.571527 -0.125125 0.925384 0.035688 0.009839 59514.800000 0 0 1
32.873067 -4.546597 26.692641 42.588814 -0.137436 0.893418 0.044222 0.008950 1933.980000 0 0 1
33.341167 -3.932597 27.832181 43.608818 -0.117408 0.878608 0.050933 0.007386 96841.400000 0 0 1
32.598767 -4.354097 29.146221 43.944737 -0.132780 0.845647 0.047741 0.000246 324507.000000 0 0 1
32.787767 -5.736197 29.509301 44.483035 -0.173196 0.845465 0.033564 0.001527 -255827.000000 0 0 1
31.875667 -6.113097 30.495631 44.535509 -0.189479 0.816538 0.028655 -0.005816 -175432.000000 0 0 1
31.963967 -7.643497 30.786691 45.032638 -0.234721 0.818040 0.018188 -0.000990 478819.000000 0 0 1
33.198367 -7.999197 31.395041 46.387146 -0.236444 0.827383 0.020960 0.001845 54534.500000 0 0 1
33.348967 -9.422197 31.365601 46.741120 -0.275356 0.835173 0.003898 0.017475 756547.000000 0 0 1
34.626867 -9.964897 32.115951 48.267519 -0.280208 0.842802 -0.000955 0.018444 678846.000000 0 0 1
34.476467 -9.983097 33.521704 49.112051 -0.281854 0.819543 -0.003496 0.001273 35432.200000 0 0 1
35.661467 -10.288397 34.218574 50.482691 -0.280875 0.825992 0.003601 -0.009108 -192204.000000 0 0 1
35.348767 -10.331397 -32.706059 49.254029 -0.284350 2.296990 0.023928 -0.006083 -610186.000000 0 0 1
34.906667 -9.167697 -32.023549 48.249660 -0.256834 2.296558 0.030678 -0.008379 176981.000000 0 0 1
35.749767 -8.045297 -32.021079 48.663355 -0.221357 2.288972 0.033967 -0.007896 -403710.000000 0 0 1
35.209367 -6.891297 -31.191909 47.540768 -0.193280 2.286447 0.045730 -0.012118 -324559.000000 0 0 1
35.478767 -6.980897 -29.812769 46.864453 -0.194281 2.260293 0.059721 -0.010869 149181.000000 0 0 1
34.884767 -6.021897 -28.925919 45.715632 -0.170938 2.255877 0.071203 -0.022174 -105415.000000 0 0 1
35.559867 -5.966797 -27.525229 45.362374 -0.166247 2.222807 0.070040 -0.023130 302255.000000 0 0 1
-35.460148 -5.561797 -27.466389 45.196882 0.155579 2.223964 0.072886 -0.015466 -86014.100000 0 0 1
-35.190748 -5.051097 -26.203829 44.164951 0.142561 2.205970 0.076984 -0.021645 -338603.000000 0 0 1
-33.725448 -4.840297 -25.841249 42.762185 0.142547 2.219685 0.063531 -0.017027 -1027100.000000 0 0 1
-33.535248 -4.177597 -24.560619 41.776658 0.123935 2.199260 0.071377 -0.014509 705753.000000 0 0 1
-32.185148 -4.033197 -24.099819 40.409797 0.124663 2.209787 0.069759 -0.010557 784113.000000 0 0 1
-31.224648 -3.146797 -24.920419 40.073785 0.100440 2.241916 0.058502 -0.001127 -451186.000000 0 0 1
-30.756448 -3.711497 -26.134789 40.530994 0.120093 2.271571 0.057312 0.003226 -21537.000000 0 0 1
-29.671348 -2.926997 -26.592879 39.951688 0.098329 2.299129 0.045596 0.005667 143287.000000 0 0 1
-28.984448 -3.590897 -27.793899 40.317410 0.123262 2.331425 0.033633 0.015471 -404109.000000 0 0 1
-29.834048 -3.688797 -28.896939 41.697850 0.123020 2.336449 0.055665 0.017561 -237586.000000 0 0 1
-29.405848 -4.724497 -29.750139 42.096265 0.159304 2.355643 0.050959 0.010080 -1158390.000000 0 0 1
-30.363048 -5.080797 -30.885499 43.607834 0.165799 2.357821 0.040448 0.008274 131956.000000 0 0 1
-31.606748 -5.710897 -30.590099 44.354875 0.178757 2.331826 0.044702 0.002072 996179.000000 0 0 1
-32.632248 -4.868097 -30.038869 44.619453 0.148088 2.309356 0.058074 0.002346 387104.000000 0 0 1
-33.552548 -4.044597 -31.060949 45.901141 0.119966 2.314057 0.073930 -0.001278 216830.000000 0 0 1
-33.010648 -2.924997 -31.828129 45.948757 0.088377 2.336005 0.080925 0.009365 367919.000000 0 0 1
-32.309448 -1.908797 -31.101879 44.887312 0.059010 2.336283 0.062199 0.011662 240014.000000 0 0 1
-32.185448 -0.550497 -31.845799 45.280912 0.017102 2.350817 0.068970 0.020662 -827044.000000 0 0 1
-33.372148 0.125403 -31.858619 46.137702 -0.003758 2.332992 0.072784 0.008029 -991606.000000 0 0 1
-33.159948 1.447703 -32.328739 46.333846 -0.043630 2.343027 0.067456 0.007591 197988.000000 0 0 1
-34.497548 2.212203 -32.441329 47.406903 -0.064039 2.324462 0.059095 -0.002879 298393.000000 0 0 1
-35.262648 1.754103 -33.576779 48.723005 -0.049703 2.331092 0.061023 -0.010389 86353.900000 0 0 1
35.953267 2.551803 -33.671639 49.324723 0.070857 2.322183 0.044002 -0.010824 415755.000000 0 0 1
34.950467 2.187903 33.567320 48.508628 0.062519 0.806559 0.037705 -0.011480 476777.000000 0 0 1
35.406067 2.404803 32.232441 47.940618 0.067816 0.833430 0.028307 -0.008200 310314.000000 0 0 1
-36.023848 1.477903 31.730641 48.028485 -0.041003 0.849095 0.027093 -0.003557 -116187.000000 0 0 1
-35.724048 1.697803 30.232571 46.830529 -0.047490 0.869022 0.042306 -0.005758 -28822.200000 0 0 1
-35.259248 3.017303 29.986361 46.384270 -0.085367 0.867839 0.049461 -0.010642 245166.000000 0 0 1
-34.901148 3.170303 28.619071 45.245907 -0.090588 0.885990 0.045557 -0.005207 108786.000000 0 0 1
-34.581348 4.645103 28.260171 44.900822 -0.133525 0.890027 0.052775 -0.003292 -115504.000000 0 0 1
-34.188548 4.794603 26.949031 43.796064 -0.139331 0.907992 0.054828 -0.000729 482040.000000 0 0 1
-33.416948 5.986503 26.697671 43.189075 -0.177265 0.904399 0.057049 -0.001766 52176.900000 0 0 1
-32.593848 6.003303 25.413751 41.764306 -0.182144 0.916622 0.054643 0.000802 481179.000000 0 0 1
-31.490648 5.064803 25.416731 40.783861 -0.159469 0.897961 0.055851 -0.002375 1078580.000000 0 0 1
-30.569148 5.168103 24.318881 39.402919 -0.167479 0.905637 0.057335 -0.008449 268138.000000 0 0 1
-31.017948 4.813803 22.897251 38.853183 -0.153966 0.940570 0.051623 -0.010419 -357188.000000 0 0 1
-31.256648 3.419603 22.759351 38.815715 -0.108971 0.944258 0.045276 -0.006550 119350.000000 0 0 1
-31.980848 3.176303 21.550451 38.694773 -0.098994 0.980106 0.052973 -0.006525 7055.590000 0 0 1
-31.822748 1.701303 21.094551 38.217296 -0.053411 0.986079 0.053830 -0.003732 -653285.000000 0 0 1
-30.610448 1.465703 20.460151 36.847870 -0.047846 0.982121 0.068230 -0.002515 -624902.000000 0 0 1
-30.490848 1.884503 19.109451 36.033515 -0.061727 1.011813 0.075002 -0.007086 -301397.000000 0 0 1
-29.197348 1.375703 18.444751 34.562790 -0.047083 1.007875 0.078607 -0.013435 -173496.000000 0 0 1
-29.204048 -0.048697 18.295351 34.461553 0.001667 1.011144 0.086882 -0.012936 929364.000000 0 0 1
-27.955348 -0.604097 17.820251 33.157619 0.021606 1.003397 0.093076 -0.018681 760903.000000 0 0 1
-27.570148 -0.421397 16.329651 32.046031 0.015283 1.036113 0.109625 -0.013060 -133302.000000 0 0 1
-27.116548 0.906603 15.992651 31.494348 -0.033421 1.038174 0.107498 -0.018046 228922.000000 0 0 1
-27.424348 1.154003 14.636651 31.107203 -0.042055 1.080913 0.113189 -0.018137 -78592.800000 0 0 1
-27.026348 2.543803 14.061651 30.571628 -0.093847 1.092849 0.110204 -0.020153 -144812.000000 0 0 1
-25.626148 2.604503 13.933051 29.285026 -0.101287 1.074953 0.101876 -0.024195 -120755.000000 0 0 1
-25.227448 3.813403 13.315751 28.779773 -0.150025 1.089783 0.094110 -0.022472 70320.900000 0 0 1
-23.702548 3.892003 13.076051 27.348520 -0.162750 1.072276 0.085613 -0.021531 -199108.000000 0 0 1
-22.929648 4.178103 14.232351 27.309066 -0.180237 1.022589 0.074363 -0.012163 -449349.000000 0 0 1
-21.636048 4.493603 13.828451 26.067932 -0.204779 1.011633 0.054803 -0.012133 -530723.000000 0 0 1
-20.796848 5.075403 15.010651 26.145520 -0.239368 0.959268 0.047729 -0.015714 -149924.000000 0 0 1
-21.269748 6.312603 15.483251 27.055169 -0.288507 0.961508 0.051220 -0.008387 471931.000000 0 0 1
-20.557748 6.797603 16.611951 27.290755 -0.319342 0.916372 0.041958 -0.005392 -14984.100000 0 0 1
-20.956848 8.298603 16.876951 28.158262 -0.377041 0.928094 0.049502 -0.006181 -239518.000000 0 0 1
-20.216648 9.204903 16.061851 27.412153 -0.427263 0.944758 0.036783 -0.006025 487193.000000 0 0 1
-20.265748 10.606803 16.418051 28.155944 -0.482181 0.948243 0.039314 0.001704 -405424.000000 0 0 1
-19.691048 11.089503 17.758251 28.741432 -0.512902 0.904775 0.037544 0.003556 -420859.000000 0 0 1
-20.314448 10.660103 18.926951 29.741285 -0.483255 0.880992 0.052609 -0.005847 449791.000000 0 0 1
-19.493748 11.035603 20.044651 30.059586 -0.515127 0.840849 0.058506 -0.013918 137045.000000 0 0 1
-12.074333 -33.615243 -20.205119 41.036824 1.225956 2.085602 0.108408 -0.028270 -121980.000000 0 0 1
-13.086033 -34.061643 -19.228819 41.245452 1.203996 2.055792 0.132969 -0.021828 122130.000000 0 0 1
-14.227233 -33.288543 -19.438819 41.090254 1.166902 2.063575 0.123244 -0.044177 -321387.000000 0 0 1
-15.423833 -33.978343 -18.709019 41.742662 1.144678 2.035546 0.110222 -0.035134 -879383.000000 0 0 1
-15.752733 33.480503 -19.411519 41.783965 -1.131022 2.053944 0.102138 -0.041102 -233494.000000 0 0 1
-16.681833 32.616503 -18.852919 41.201364 -1.098028 2.046068 0.100941 -0.033938 -281702.000000 0 0 1
-18.108033 33.005503 -18.461919 41.929781 -1.069000 2.026735 0.098660 -0.030288 -809952.000000 0 0 1
-18.182233 33.877003 -17.360319 42.185609 -1.078211 1.994920 0.101674 -0.028420 518413.000000 0 0 1
-19.525633 34.166403 -16.952919 42.848511 -1.051607 1.977569 0.070812 -0.024114 621453.000000 0 0 1
-19.877433 33.658003 -15.497319 42.049262 -1.037339 1.948247 0.076761 -0.027372 -70166.400000 0 0 1
-19.913333 32.218103 -15.400519 40.886709 -1.017189 1.956988 0.083218 -0.031344 23682.000000 0 0 1
-20.216733 31.785103 -14.096319 40.220831 -1.004294 1.928873 0.075147 -0.026124 -80910.000000 0 0 1
-20.058633 30.281903 -13.921919 38.899386 -0.985756 1.936810 0.076730 -0.026702 185682.000000 0 0 1
-18.729133 29.830103 -13.717019 37.799102 -1.010143 1.942167 0.073158 -0.034460 100058.000000 0 0 1
-18.640833 28.447303 -13.601619 36.629684 -0.990721 1.951235 0.063216 -0.038209 -458312.000000 0 0 1
-17.274833 27.906003 -13.198619 35.374686 -1.016497 1.953154 0.087993 -0.032522 -471389.000000 0 0 1
-16.241833 28.210003 -14.087919 35.469295 -1.048401 1.979245 0.092986 -0.037882 -279965.000000 0 0 1
-15.052933 27.483203 -13.837419 34.254801 -1.069710 1.986633 0.105373 -0.038160 -318713.000000 0 0 1
-13.863233 27.950603 -14.629419 34.459329 -1.110361 2.009252 0.098143 -0.031722 -732690.000000 0 0 1
-14.075833 27.735403 -16.008019 34.980542 -1.101163 2.046120 0.088649 -0.035318 -113190.000000 0 0 1
-12.934633 28.227403 -16.664919 35.239332 -1.141120 2.063383 0.093295 -0.033767 -158632.000000 0 0 1
-12.958233 28.263903 -18.184719 36.020106 -1.140919 2.100003 0.112588 -0.046711 -49236.700000 0 0 1
-12.674833 26.954103 -18.684319 35.160757 -1.131241 2.131045 0.095254 -0.042536 171299.000000 0 0 1
-13.376533 26.711303 -19.869919 35.878113 -1.106524 2.157738 0.079107 -0.046000 -216425.000000 0 0 1
-12.645733 25.559403 -20.578519 35.166363 -1.111351 2.195894 0.059283 -0.040294 -19058.000000 0 0 1
-11.367633 25.984403 -20.998019 35.289220 -1.158403 2.208095 0.044565 -0.031909 -184737.000000 0 0 1
-10.650933 24.877403 -21.576719 34.610437 -1.166272 2.243901 0.045403 -0.031082 -219309.000000 0 0 1
-9.405433 25.396003 -22.256119 35.053587 -1.216108 2.258697 0.061809 -0.032445 -710148.000000 0 0 1
-9.779133 25.966503 -23.478619 36.347438 -1.210619 2.273063 0.060464 -0.027594 209280.000000 0 0 1
-8.709733 26.413003 -24.296919 36.930292 -1.252273 2.288840 0.040359 -0.028448 -441020.000000 0 0 1
-9.270033 27.165403 -25.502519 38.396238 -1.241943 2.297210 0.049055 -0.023498 -20469.200000 0 0 1
-10.067333 26.406803 -26.412889 38.682181 -1.206566 2.322409 0.031030 -0.013029 -190966.000000 0 0 1
-10.282233 27.223203 -27.482009 40.026090 -1.209660 2.327602 0.049657 -0.010254 -988444.000000 0 0 1
-11.529533 26.733903 -28.138419 40.489533 -1.163627 2.339154 0.034874 -0.005165 -968692.000000 0 0 1
-11.781433 27.229403 -29.426259 41.786927 -1.162444 2.352089 0.047416 -0.003730 -661228.000000 0 0 1
-12.942633 26.682503 -29.947599 42.146487 -1.119171 2.361090 0.042626 0.002898 -561657.000000 0 0 1
-13.285533 27.027303 -31.392879 43.502797 -1.113924 2.376949 0.034878 -0.002660 27146.200000 0 0 1
-12.477833 26.335203 -32.359299 43.547255 -1.128321 2.408464 0.037676 -0.005428 310875.000000 0 0 1
-12.426133 24.893803 -32.347799 42.667204 -1.107816 2.431255 0.037577 -0.009098 189209.000000 0 0 1
-11.727333 24.227903 -33.582279 43.038251 -1.119996 2.465924 0.019494 -0.002913 291335.000000 0 0 1
-12.519033 24.188203 33.699424 43.329511 -1.093194 0.679722 0.018508 0.000189 59063.900000 0 0 1
-11.764533 23.646403 32.643103 41.989627 -1.109136 0.680261 0.006696 0.000744 -298220.000000 0 0 1
-12.388333 23.850303 31.259761 41.224754 -1.091733 0.710131 0.007279 0.011429 -931684.000000 0 0 1
-13.486733 23.028503 31.108351 40.986991 -1.040992 0.709050 0.027104 -0.004947 -478495.000000 0 0 1
-13.993433 22.887103 29.769071 40.072849 -1.022028 0.733443 0.034583 -0.003502 636747.000000 0 0 1
-15.140233 21.825103 29.643271 39.803081 -0.964306 0.730639 0.037786 -0.008889 590115.000000 0 0 1
-14.657033 20.538503 29.724471 38.989779 -0.950977 0.703835 0.011154 -0.008165 -305672.000000 0 0 1
-15.751633 19.691703 29.848561 39.074463 -0.896109 0.701478 0.019598 -0.009196 35128.600000 0 0 1
-15.251033 18.178003 30.002581 38.251649 -0.872733 0.669153 -0.000004 -0.009097 128976.000000 0 0 1
-14.962733 17.649003 28.741341 36.897633 -0.867584 0.677810 0.015365 -0.014290 169149.000000 0 0 1
-14.147933 16.495703 28.806051 36.084079 -0.861864 0.646323 -0.002546 -0.025480 140.302000 0 0 1
-13.753933 15.992603 27.403531 34.581607 -0.860515 0.656012 0.017330 -0.024076 701967.000000 0 0 1
-12.674933 16.747603 26.783791 34.036856 -0.922944 0.665018 -0.025845 -0.013131 743085.000000 0 0 1
-12.264633 16.037503 25.613961 32.614379 -0.917924 0.667522 -0.039813 -0.008663 -83028.500000 0 0 1
-11.288133 16.833003 24.746291 31.986729 -0.980079 0.686227 -0.023114 -0.005969 -21208.700000 0 0 1
-11.915633 17.852403 23.931461 32.146624 -0.982250 0.731090 -0.027933 -0.004016 101042.000000 0 0 1
-12.308533 19.078403 24.570201 33.454151 -0.997834 0.745949 -0.020407 -0.008891 81239.000000 0 0 1
-11.239233 19.939603 25.318401 34.131064 -1.057523 0.735047 -0.027857 -0.003908 191076.000000 0 0 1
-10.879433 19.546303 26.611241 34.764611 -1.062902 0.699026 -0.028477 -0.007509 644780.000000 0 0 1
-11.963333 19.774303 27.536561 35.950057 -1.026713 0.698252 -0.010012 -0.001815 493828.000000 0 0 1
-11.599033 19.431003 29.005131 36.788572 -1.032634 0.662548 -0.006692 -0.006840 139388.000000 0 0 1
-10.561133 20.238903 29.573651 37.359758 -1.089843 0.657388 -0.029850 -0.012064 325106.000000 0 0 1
-10.587933 19.955303 31.000071 38.357826 -1.082983 0.629739 -0.020490 -0.011820 197277.000000 0 0 1
-9.545133 20.724203 31.892441 39.213900 -1.139180 0.621005 -0.030773 -0.004185 700907.000000 0 0 1
-8.213233 20.250903 31.692381 38.496276 -1.185494 0.603669 -0.032219 -0.007804 545103.000000 0 0 1
-7.314433 21.129903 32.387049 39.355999 -1.237542 0.604255 -0.016180 -0.005805 -36778.800000 0 0 1
-6.092633 20.400303 32.970911 39.247592 -1.280575 0.573375 -0.018523 -0.003958 -631896.000000 0 0 1
-6.273033 19.526303 34.074164 39.770291 -1.259950 0.541815 -0.019464 -0.011951 561318.000000 0 0 1
-5.034733 19.044003 -33.798589 39.119908 -1.312336 2.613906 -0.018010 -0.010348 1015240.000000 0 0 1
-4.212833 18.018803 33.807619 38.540632 -1.341120 0.500809 -0.025182 -0.016382 -240283.000000 0 0 1
-4.758433 16.734003 33.921372 38.122552 -1.293752 0.473894 -0.019706 -0.019821 -86501.000000 0 0 1
-4.539033 16.013403 32.749585 36.736456 -1.294589 0.470209 -0.020557 -0.014808 -188306.000000 0 0 1
-5.262433 14.632803 32.667298 36.179614 -1.225566 0.444281 -0.007138 -0.018219 -260334.000000 0 0 1
-4.624133 13.558803 33.349183 36.295891 -1.242123 0.405731 0.004805 -0.016476 -74662.100000 0 0 1
-5.391133 12.335603 33.282175 35.901735 -1.158773 0.384369 0.005360 -0.012950 270709.000000 0 0 1
-4.746533 11.007903 33.882567 35.940671 -1.163692 0.340056 0.028543 -0.018068 320590.000000 0 0 1
-4.806733 10.904603 -33.192039 35.266507 -1.155621 2.796894 0.026683 -0.023399 31920.100000 0 0 1
-3.925033 9.832903 -32.830929 34.495822 -1.191003 2.829641 0.053251 -0.020286 577800.000000 0 0 1
-3.751733 9.756903 -31.274489 32.975238 -1.203705 2.819021 0.051047 -0.020997 -114496.000000 0 0 1
-4.923433 9.255203 -30.696959 32.437667 -1.081906 2.812503 0.056304 -0.014693 -376769.000000 0 0 1
-4.780833 8.782503 -29.379759 31.034802 -1.072294 2.813539 0.069823 -0.001283 -205879.000000 0 0 1
-6.023433 8.001203 -28.905739 30.591547 -0.925495 2.808064 0.058402 -0.009577 -64076.600000 0 0 1
-5.708333 6.979403 -27.987749 29.404272 -0.885246 2.829933 0.059087 -0.009609 -103747.000000 0 0 1
-6.720133 6.013803 -27.885009 29.306991 -0.729987 2.828806 0.062072 -0.017314 -369505.000000 0 0 1
-6.612233 5.280703 -26.529809 27.846691 -0.673903 2.832828 0.052857 -0.020360 -177930.000000 0 0 1
-6.869833 6.101103 -25.404929 27.015338 -0.726202 2.794569 0.028093 -0.012532 1112010.000000 0 0 1
-5.807733 7.056803 -25.082929 26.696096 -0.882189 2.792177 0.039491 -0.010423 902472.000000 0 0 1
-6.375633 8.058203 -24.024319 26.129509 -0.901446 2.737431 0.017338 -0.002508 323084.000000 0 0 1
-6.634333 7.335403 -22.805519 24.857880 -0.835541 2.732385 0.010215 -0.001646 -367339.000000 0 1 0
-7.938333 7.510903 -22.339819 24.869626 -0.757738 2.686630 0.019449 0.002862 -595497.000000 0 1 0
-7.906633 7.757303 -20.813519 23.577387 -0.775865 2.652532 0.019157 -0.001592 92282.500000 0 1 0
-7.287333 9.026703 -20.510819 23.564386 -0.891615 2.626843 0.002806 0.001505 384943.000000 0 1 0
-6.911433 9.231503 -19.142519 22.347809 -0.928141 2.599387 -0.000205 0.003384 318415.000000 0 1 0
-8.165433 9.392903 -18.232619 22.075537 -0.855193 2.542628 0.000313 0.000042 -49133.700000 0 1 0
-7.897033 9.493703 -16.818819 20.865431 -0.876953 2.508263 -0.003980 0.000967 115888.000000 0 1 0
-9.053733 9.775403 -16.045019 20.855964 -0.823707 2.448581 0.003275 -0.005456 436924.000000 0 1 0
-9.645033 11.278603 -16.198319 21.968593 -0.863313 2.399920 0.007110 -0.008174 -1042880.000000 0 1 0
-8.705333 12.222903 -15.863819 21.836734 -0.951919 2.383973 -0.004508 -0.010201 -678485.000000 0 1 0
-9.096733 13.528503 -16.192619 22.977638 -0.978826 2.352814 0.004421 -0.012693 -291283.000000 0 1 0
-7.930833 14.515803 -16.001219 23.014032 -1.070753 2.339607 0.011337 -0.012221 -69948.900000 0 1 0
-7.366133 14.650403 -14.724319 22.038598 -1.104916 2.302469 0.013263 -0.004810 786872.000000 0 1 0
-8.279733 15.287303 -13.829419 22.215050 -1.074419 2.242761 0.013891 -0.015946 -76252.700000 0 1 0
-7.398233 15.945703 -12.759619 21.721123 -1.136391 2.198675 0.012678 -0.013799 323057.000000 0 1 0
-6.978133 17.250803 -13.119019 22.768250 -1.186408 2.184865 0.027277 -0.015407 92164.000000 0 1 0
-5.898833 17.433903 -14.019019 23.135905 -1.244534 2.221746 0.035332 -0.014197 -219067.000000 0 1 0
-5.786833 18.902303 -14.556519 24.549475 -1.273712 2.205509 0.065101 -0.007550 -104768.000000 0 1 0
-5.074033 19.783103 -13.724819 24.606658 -1.319725 2.162491 0.055432 -0.010597 -93935.700000 0 1 0
-5.154533 21.147203 -14.103919 25.936344 -1.331713 2.145743 0.066153 -0.010298 -120440.000000 0 0 1
-4.689433 22.087203 -12.983719 26.046349 -1.361588 2.092647 0.069035 -0.013669 -403611.000000 0 0 1
-4.701533 23.494203 -13.222119 27.366155 -1.373291 2.075052 0.054461 -0.012795 -10552.700000 0 0 1
-5.962633 24.101303 -13.314619 28.172768 -1.328267 2.063042 0.064644 -0.016767 535852.000000 0 0 1
-6.992833 24.153803 -12.102719 27.906661 -1.288988 2.019375 0.064000 -0.021177 369275.000000 0 0 1
-7.579133 22.900603 -11.850319 26.875843 -1.251185 2.027429 0.072011 -0.019993 -423246.000000 0 0 1
-8.300733 22.863003 -10.649619 26.552466 -1.222531 1.983490 0.074649 -0.017637 -246805.000000 0 0 1
-7.528233 22.986203 -9.303819 25.915263 -1.254295 1.938002 0.073259 -0.019779 -81698.200000 0 0 1
-7.040533 24.311403 -9.172619 26.921188 -1.288910 1.918480 0.065792 -0.020453 -216969.000000 0 0 1
-6.462033 24.548703 -7.894519 26.584208 -1.313402 1.872307 0.069590 -0.028956 137825.000000 0 0 1
-6.207933 26.059003 -7.718319 27.877993 -1.336929 1.851322 0.047069 -0.027553 53106.700000 0 0 1
-5.241833 26.638203 -8.571219 28.469922 -1.376500 1.876603 0.049901 -0.027373 -270601.000000 0 0 1
-5.587933 26.846003 -9.906719 29.156062 -1.365579 1.917482 0.049635 -0.020401 -274822.000000 0 0 1
-5.198033 28.280203 -10.405619 30.578854 -1.389021 1.918020 0.041452 -0.021406 403852.000000 0 0 1
-6.148433 29.294703 -10.082219 31.585345 -1.363917 1.895687 0.043495 -0.023835 205854.000000 0 0 1
-7.257433 29.447003 -10.935119 32.239311 -1.329155 1.916848 0.048805 -0.019560 32087.300000 0 0 1
-8.198733 30.620603 -10.640719 33.437486 -1.309181 1.894655 0.040326 -0.019105 -141541.000000 0 0 1
-9.096333 30.404703 -9.573719 33.148836 -1.280096 1.863780 0.052581 -0.022747 -94871.800000 0 0 1
-10.147933 31.368703 -9.657119 34.354563 -1.257917 1.855738 0.051597 -0.015514 1104530.000000 0 0 1
-11.393933 30.887603 -8.797719 34.077347 -1.217399 1.831923 0.064143 -0.022805 1199900.000000 0 0 1
-12.171533 29.829003 -9.410119 33.562866 -1.183375 1.854979 0.074945 -0.026824 709647.000000 0 0 1
-13.469933 29.722603 -8.811619 33.801137 -1.145294 1.834533 0.066363 -0.025301 1300630.000000 0 0 1
-14.435433 28.643703 -9.432319 33.433697 -1.103981 1.856800 0.071072 -0.028078 180160.000000 0 0 1
-14.168633 27.323303 -9.063719 32.085262 -1.092415 1.857184 0.075973 -0.026811 -584756.000000 0 0 1
-14.942933 26.412703 -9.724619 31.866759 -1.055943 1.880908 0.076812 -0.025865 -726408.000000 0 0 1
-15.068933 25.052003 -9.050619 30.603747 -1.029270 1.871022 0.074257 -0.017086 -121551.000000 0 0 1
-14.007633 24.131603 -9.208119 29.382606 -1.044862 1.889554 0.075896 -0.012813 206549.000000 0 0 1
-14.483433 22.817403 -8.999019 28.484839 -1.005214 1.892226 0.078642 -0.011711 107732.000000 0 0 1
-13.458833 21.719003 -9.401719 27.225863 -1.016032 1.923379 0.076008 -0.009936 -11026.000000 0 0 1
-13.165433 21.627503 -10.792119 27.523578 -1.023978 1.973715 0.073894 -0.007073 363907.000000 0 0 1
-12.556433 20.357603 -11.037419 26.342373 -1.018120 2.003139 0.076833 -0.012295 -88305.700000 0 0 1
-12.687833 20.008503 -12.521619 26.797616 -1.005664 2.056992 0.077644 -0.008231 -72197.300000 0 0 1
-14.019733 19.726203 -12.860119 27.405450 -0.952914 2.059242 0.084012 0.001464 -292467.000000 0 0 1
-14.015833 19.210503 -14.192119 27.693018 -0.940485 2.108867 0.078938 0.005641 505579.000000 0 0 1
-15.485433 18.854003 -14.537119 28.400702 -0.883182 2.108142 0.069787 0.001310 370491.000000 0 0 1
-16.319933 19.966003 -14.732119 29.698768 -0.885544 2.089842 0.056940 0.005725 -202169.000000 0 0 1
-17.683933 19.577203 -14.800219 30.249543 -0.836165 2.082050 0.035029 0.001727 22877.600000 0 0 1
-18.465433 20.652203 -15.592419 31.790081 -0.841242 2.083438 0.027620 0.002972 -171931.000000 0 0 1
-18.814633 21.757703 -14.761919 32.331135 -0.857810 2.044950 0.039655 -0.009674 445342.000000 0 0 1
-19.512133 22.744003 -15.521019 33.747815 -0.861732 2.048692 0.039565 -0.008945 53983.300000 0 0 1
-19.934033 24.027303 -14.806019 34.552788 -0.878241 2.013633 0.042035 -0.005645 -19712.400000 0 0 1
-20.953033 23.855803 -13.842619 34.637365 -0.850089 1.981925 0.049757 -0.006559 383506.000000 0 0 1
-21.453733 25.133803 -13.362719 35.644536 -0.864227 1.955073 0.056065 -0.024388 124814.000000 0 0 1
-25.769653 -0.742097 3.669881 26.040234 0.028789 1.429394 0.098416 -0.038062 -78953.900000 0 0 1
-26.210983 -0.038797 4.809681 26.648643 0.001480 1.389317 0.108447 -0.037756 234656.000000 0 0 1
-27.618543 -0.045097 4.933881 28.055822 0.001633 1.394018 0.116827 -0.037444 -247391.000000 0 0 1
-28.065813 0.572603 6.311781 28.772493 -0.020399 1.349629 0.118048 -0.025931 -371568.000000 0 0 1
-28.309123 1.992603 6.215781 29.051900 -0.070271 1.355175 0.126073 -0.028322 -88664.500000 0 0 1
-28.690773 2.465203 7.496881 29.756359 -0.085713 1.316110 0.128191 -0.020830 -74387.800000 0 0 1
-27.673853 3.098903 8.511381 29.118533 -0.111515 1.274164 0.141949 -0.024933 383168.000000 0 0 1
-26.886363 2.049003 9.148981 28.474178 -0.076063 1.243686 0.129742 -0.027914 292055.000000 0 0 1
-25.808423 2.588503 9.877881 27.755136 -0.099963 1.206926 0.125969 -0.035882 -237281.000000 0 0 1
-24.952633 1.446203 10.474381 27.100518 -0.057893 1.173961 0.111924 -0.035904 -266381.000000 0 0 1
-24.210433 0.765003 9.445281 25.998916 -0.031588 1.198994 0.106386 -0.040496 498716.000000 0 0 1
-24.879233 -0.238397 8.682081 26.351691 0.009582 1.235055 0.098228 -0.033940 -229894.000000 0 0 1
-23.804033 -0.996097 7.873881 25.092274 0.041821 1.251607 0.096807 -0.038375 437850.000000 0 0 1
-22.871033 -1.644997 8.752081 24.543616 0.071801 1.206178 0.089209 -0.044909 340167.000000 0 1 0
-21.800733 -2.265297 8.084481 23.361558 0.103538 1.217429 0.098432 -0.042796 -34496.600000 0 1 0
-20.616333 -2.696497 8.998581 22.655656 0.130056 1.162344 0.077688 -0.028663 209118.000000 0 1 0
-19.878733 -1.551997 9.388181 22.038845 0.077915 1.130748 0.062508 -0.028803 423451.000000 0 1 0
-20.450333 -0.922097 10.546281 23.028036 0.045059 1.095080 0.068539 -0.029259 -153249.000000 0 1 0
-19.958033 0.543603 10.748581 22.674889 -0.027231 1.076934 0.051416 -0.020861 -88627.800000 0 1 0
-20.497033 1.410903 9.809081 22.767018 -0.068726 1.125366 0.057970 -0.023603 196699.000000 0 1 0
-21.065033 2.499503 10.493081 23.666176 -0.118104 1.111432 0.063000 -0.017615 -251490.000000 0 1 0
-21.723433 3.658803 9.701381 24.070962 -0.166861 1.155968 0.062287 -0.026160 -298749.000000 0 1 0
-22.399633 4.582503 10.543481 25.177528 -0.201795 1.138711 0.075331 -0.025467 633255.000000 0 0 1
-22.551333 5.808003 9.861281 25.289136 -0.252068 1.170228 0.059299 -0.025642 -243498.000000 0 0 1
-22.521333 6.990503 10.874381 25.967860 -0.300966 1.138714 0.052056 -0.023211 -82047.300000 0 0 1
-23.578233 6.895803 11.805381 27.255315 -0.284529 1.122822 0.061263 -0.018299 267897.000000 0 0 1
-23.602733 7.816703 12.874581 27.999013 -0.319809 1.093001 0.059657 -0.013524 -458543.000000 0 0 1
-24.476733 7.524903 14.096681 29.230995 -0.298260 1.067574 0.069293 -0.013500 -737991.000000 0 0 1
-25.822453 7.501403 13.766281 30.208950 -0.282718 1.097636 0.075011 -0.015971 -1059510.000000 0 0 1
-26.669433 7.075103 14.813981 31.317244 -0.259316 1.078070 0.079728 -0.016581 -98010.900000 0 0 1
-28.086013 6.833303 14.277581 32.239223 -0.238662 1.112006 0.081484 -0.011626 -434931.000000 0 0 1
-28.254443 5.645903 13.469881 31.806092 -0.197226 1.133491 0.102975 -0.008847 -48188.100000 0 0 1
-29.273533 5.709103 12.498481 32.337991 -0.192608 1.173968 0.111650 -0.016662 -289580.000000 0 0 1
-29.554153 4.354603 11.761381 32.105150 -0.146291 1.195724 0.130467 -0.014255 -67313.000000 0 0 1
-30.415223 3.517503 12.506681 33.073792 -0.115138 1.183005 0.115474 -0.019732 221364.000000 0 0 1
-31.203743 2.707303 11.644081 33.415381 -0.086545 1.214864 0.122284 -0.010593 80553.100000 0 0 1
-32.370713 1.982603 12.327981 34.695431 -0.061170 1.207540 0.098134 -0.005818 -193579.000000 0 0 1
-31.956063 0.779903 12.949881 34.489095 -0.024401 1.185884 0.112130 -0.009000 -539607.000000 0 0 1
-33.046993 0.178603 13.550281 35.717584 -0.005404 1.181678 0.098953 -0.004806 -384263.000000 0 0 1
-32.688383 -1.022097 14.488081 35.769814 0.031258 1.153778 0.079698 -0.013636 -38149.700000 0 0 1
-32.391623 -2.241897 13.834381 35.293533 0.069102 1.168013 0.075043 -0.012474 131689.000000 0 0 1
-32.171683 -3.272897 14.833981 35.577747 0.101383 1.140714 0.071744 -0.011897 -298353.000000 0 0 1
-32.023593 -4.643597 14.145681 35.315348 0.144002 1.158676 0.070137 -0.016918 382339.000000 0 0 1
-33.226793 -5.002097 13.452581 36.194098 0.149422 1.189980 0.051366 -0.023023 611287.000000 0 0 1
-33.130743 -6.335997 13.039181 36.163673 0.188961 1.201928 0.053769 -0.025665 -614790.000000 0 0 1
-34.327597 -6.768597 12.160181 37.041434 0.194679 1.236308 0.058169 -0.019827 964088.000000 0 0 1
-35.635199 -6.963697 12.710281 38.469621 0.192984 1.234071 0.044512 -0.016996 923154.000000 0 0 1
36.170161 -5.755597 13.282881 38.959496 -0.157803 1.222879 0.046763 -0.021600 -1456690.000000 0 0 1
34.686931 -5.633297 12.991381 37.465894 -0.160998 1.216690 0.056004 -0.013038 -535367.000000 0 0 1
33.801371 -6.582597 13.588481 37.020401 -0.192336 1.194956 0.052532 -0.015762 -1180.100000 0 0 1
32.529351 -6.299597 13.047681 35.610189 -0.191291 1.195656 0.056121 -0.014570 -61662.100000 0 0 1
31.378381 -7.226997 13.484781 34.909477 -0.226370 1.174203 0.037371 -0.018264 52574.800000 0 0 1
30.948521 -7.109897 14.830081 35.047010 -0.225815 1.133879 0.043285 -0.007058 146228.000000 0 0 1
29.837821 -7.996697 14.966281 34.325388 -0.261852 1.119634 0.058548 -0.011910 326541.000000 0 0 1
29.299081 -7.980997 16.386081 34.505595 -0.265945 1.075967 0.045237 -0.007119 321648.000000 0 0 1
30.217651 -8.656597 17.284781 35.872089 -0.279003 1.068037 0.033741 0.002422 492512.000000 0 0 1
29.611941 -8.789897 18.561181 36.036742 -0.288552 1.029716 0.039606 -0.001215 -372459.000000 0 0 1
30.492931 -9.383597 19.675981 37.483529 -0.298534 1.018171 0.033158 0.000720 437119.000000 0 0 1
31.617631 -8.629297 20.106881 38.450306 -0.266438 1.020510 0.031130 -0.004409 1125630.000000 0 0 1
32.817621 -8.808597 19.284381 39.070129 -0.262230 1.054591 0.014441 -0.000087 1331750.000000 0 0 1
34.068771 -8.096497 19.909481 40.281781 -0.233323 1.053818 0.032884 -0.004203 452751.000000 0 0 1
34.554411 -8.724397 21.057881 41.395130 -0.247314 1.037117 0.030031 -0.000494 -894234.000000 0 0 1
35.802351 -8.239797 21.397781 42.515499 -0.226208 1.043390 0.021093 0.002242 -513309.000000 0 0 1
-36.015999 -8.721397 22.786481 43.502169 0.237580 1.019489 0.032427 0.002469 100015.000000 0 0 1
35.611151 -8.153997 23.839981 43.623233 -0.225093 0.992620 0.032532 0.001090 257584.000000 0 0 1
35.404201 -9.053897 24.928381 44.236350 -0.250364 0.972147 0.019871 -0.000572 -192776.000000 0 0 1
34.957231 -8.404397 26.283281 44.535971 -0.235942 0.939541 0.029290 -0.000086 -105474.000000 0 0 1
35.996551 -7.884197 27.070781 45.724604 -0.215622 0.937209 0.012253 0.002020 -329645.000000 0 0 1
35.525811 -7.203697 28.213081 45.934240 -0.200061 0.909417 0.015415 0.003625 471561.000000 0 0 1
-35.689270 -6.696397 29.139781 46.558486 0.185474 0.894544 0.017833 0.007124 842865.000000 0 0 1
-35.315680 -7.469997 30.301281 47.129245 0.208448 0.872466 0.008635 0.008492 533712.000000 0 0 1
-33.913623 -7.301397 30.575581 46.241869 0.212057 0.848366 0.015859 -0.001338 993041.000000 0 0 1
-33.462403 -8.087297 31.826181 46.883287 0.237136 0.824617 0.006408 0.001298 93581.100000 0 0 1
-33.604303 -9.494697 31.667681 47.140646 0.275366 0.834200 0.001908 -0.004882 -53339.000000 0 0 1
-33.027153 -10.058297 32.779981 47.607661 0.295622 0.811317 0.002172 -0.009583 -569779.000000 0 0 1
-33.097583 -11.586097 32.815781 48.026692 0.336727 0.818548 0.018321 -0.016909 -369294.000000 0 0 1
-34.414475 -12.064597 32.858581 49.087646 0.337180 0.837414 0.007613 -0.015451 -336155.000000 0 0 1
-34.461029 -13.414597 33.142881 49.658479 0.371221 0.840062 0.022917 -0.026743 434938.000000 0 0 1
-35.920391 -13.920897 33.334781 50.943827 0.369727 0.857482 0.016949 -0.020943 390638.000000 0 0 1
-36.126853 -15.293397 33.661981 51.693002 0.400451 0.861645 0.025585 -0.025020 469288.000000 0 0 1
34.838351 -15.529397 33.623181 50.846742 -0.419319 0.848292 0.016564 -0.018460 458048.000000 0 0 1
34.548651 -16.972197 34.124581 51.440760 -0.456627 0.845474 0.010605 -0.022641 -287915.000000 0 0 1
34.894711 -17.260197 -32.991288 51.029211 -0.459348 2.273807 0.028605 -0.023072 141140.000000 0 0 1
34.808631 -18.657997 -32.825088 51.354143 -0.492044 2.264242 0.024024 -0.025799 -81870.500000 0 0 1
35.318371 -19.194597 -31.444888 51.035290 -0.497819 2.234629 0.041344 -0.023035 -407875.000000 0 0 1
34.343311 -19.124097 -30.481188 49.742305 -0.508088 2.230373 0.040510 -0.016569 -766872.000000 0 0 1
34.808791 -19.738497 -29.325588 49.610990 -0.515843 2.203232 0.039218 -0.008803 -180647.000000 0 0 1
33.653481 -19.973997 -28.282888 48.284978 -0.535641 2.196600 0.019236 -0.005678 933485.000000 0 0 1
32.582401 -20.781097 -28.776088 48.182259 -0.567752 2.210845 0.027493 -0.004325 581903.000000 0 0 1
31.637791 -20.081297 -29.571888 47.735782 -0.565562 2.238890 0.009639 -0.000719 -1246550.000000 0 0 1
30.235901 -20.660397 -29.646388 47.116558 -0.599434 2.251338 0.001538 0.004147 256031.000000 0 0 1
29.273461 -19.862997 -30.393188 46.639254 -0.596173 2.280574 -0.013882 0.008033 -228761.000000 0 0 1
28.120131 -20.565697 -30.621588 46.382877 -0.631459 2.291870 -0.003211 0.005581 -1244890.000000 0 0 1
27.243081 -19.947697 -31.673888 46.296126 -0.632019 2.324246 -0.007078 0.012984 -186011.000000 0 0 1
27.788251 -20.027197 -33.016688 47.574964 -0.624489 2.337817 -0.014080 0.008388 -355928.000000 0 0 1
26.861881 -19.682797 -33.992488 47.586368 -0.632363 2.366466 0.020228 0.000524 -541455.000000 0 0 1
27.250881 -19.910897 32.949081 47.166686 -0.631003 0.797404 0.023716 0.000362 190668.000000 0 0 1
28.201161 -18.907597 32.519181 47.013826 -0.590620 0.806964 0.002992 -0.001385 443676.000000 0 0 1
28.425611 -18.920397 31.103981 46.189332 -0.587271 0.831996 0.011973 -0.002929 -214116.000000 0 0 1
27.371111 -18.124097 30.284381 44.663233 -0.584877 0.825675 0.015926 0.002236 101491.000000 0 0 1
27.389431 -16.756297 30.602781 44.356337 -0.549036 0.809404 0.024352 -0.005162 79587.800000 0 0 1
26.423081 -15.985597 29.928381 43.004959 -0.544078 0.801084 0.043456 -0.006901 32903.200000 0 0 1
26.127681 -14.558197 30.365181 42.622072 -0.508350 0.777843 0.054392 -0.009400 863549.000000 0 0 1
27.402211 -13.880397 30.446181 43.249469 -0.468868 0.789829 0.047731 0.006037 987478.000000 0 0 1
27.298281 -12.535697 30.920781 43.109564 -0.430488 0.770934 0.077999 -0.008294 -729739.000000 0 0 1
28.617201 -11.802497 30.923781 43.755267 -0.391173 0.785911 0.057465 -0.004293 -641921.000000 0 0 1
29.033521 -11.480997 29.585481 43.012316 -0.376569 0.812291 0.040574 -0.005075 345772.000000 0 0 1
30.397591 -11.077497 29.588381 43.842865 -0.349463 0.830003 0.023441 0.000604 221795.000000 0 0 1
30.763481 -10.445597 28.279681 43.072527 -0.327331 0.854548 0.024183 -0.004994 69532.700000 0 0 1
30.100261 -9.221697 28.071981 42.179397 -0.297287 0.842582 0.029713 -0.001638 153776.000000 0 0 1
30.760751 -8.646697 26.961981 41.808344 -0.274024 0.869911 0.026950 -0.002432 221130.000000 0 0 1
30.515331 -7.150897 26.841981 41.265151 -0.230184 0.862586 0.033292 0.001781 -608274.000000 0 0 1
29.247111 -6.743997 26.466681 40.016999 -0.226626 0.848131 0.046081 0.000996 -1111170.000000 0 0 1
29.053291 -5.320097 26.436781 39.639633 -0.181109 0.840718 0.056537 0.003010 46119.000000 0 0 1
27.544421 -5.029297 26.406581 38.487615 -0.180599 0.814674 0.049860 0.003048 -61419.700000 0 0 1
26.980881 -5.292497 25.124981 37.245713 -0.193698 0.830409 0.067200 0.002798 -267781.000000 0 0 1
25.598781 -5.050797 25.082581 36.193149 -0.194804 0.805126 0.067395 0.001024 -231912.000000 0 0 1
24.974481 -5.216897 23.657781 34.794128 -0.205928 0.823121 0.057867 0.003107 -119078.000000 0 0 1
25.434181 -4.213897 22.778881 34.402499 -0.164187 0.847141 0.065029 0.007347 134787.000000 0 0 1
25.112381 -4.536897 21.412381 33.312238 -0.178736 0.872677 0.052194 0.008402 -45600.000000 0 0 1
25.417581 -3.490397 20.310781 32.722532 -0.136469 0.901165 0.069871 0.004300 227854.000000 0 0 1
24.571381 -2.342397 20.219881 31.907416 -0.095043 0.884463 0.062022 0.011147 172262.000000 0 0 1
24.981781 -1.504197 19.127481 31.499405 -0.060139 0.918223 0.080037 -0.005496 204293.000000 0 0 1
23.860981 -0.516597 18.651281 30.289991 -0.021647 0.907450 0.054512 -0.009885 667603.000000 0 0 1
22.862281 -1.291897 17.945981 29.093146 -0.056448 0.906068 0.059861 -0.013693 429820.000000 0 0 1
21.759881 -0.450697 17.600581 27.990641 -0.020709 0.890784 0.069540 -0.015451 -405728.000000 0 0 1
20.589781 -1.244397 17.120381 26.806623 -0.060364 0.878038 0.056857 -0.019653 -1084660.000000 0 0 1
20.763981 -1.806397 15.834581 26.175178 -0.086778 0.921098 0.085140 -0.034247 442179.000000 0 0 1
19.666281 -2.636497 15.452281 25.149288 -0.133267 0.909143 0.083345 -0.033864 347361.000000 0 0 1
20.000681 -3.308597 14.079781 24.682267 -0.163940 0.963753 0.091186 -0.042026 321464.000000 0 1 0
18.996581 -4.256697 13.693581 23.801339 -0.220436 0.957791 0.066638 -0.031618 835345.000000 0 1 0
19.106581 -4.641597 12.345881 23.216947 -0.238315 1.010117 0.059026 -0.028968 -459120.000000 0 1 0
18.106181 -5.685897 11.879981 22.389666 -0.304279 1.011487 0.028352 -0.022536 -474608.000000 0 1 0
18.405681 -6.899397 12.540081 23.315754 -0.358640 1.002927 0.068102 -0.024132 706551.000000 0 1 0
17.348981 -7.839797 12.555281 22.805364 -0.424423 0.987785 0.038350 0.000923 -324130.000000 0 1 0
17.792081 -9.232997 13.161781 23.979968 -0.478683 0.989790 0.067088 -0.007270 -127756.000000 0 1 0
18.628181 -9.987097 12.276981 24.443312 -0.492131 1.044582 0.065544 -0.011984 575676.000000 0 1 0
17.881881 -10.977897 11.623381 23.987056 -0.550586 1.064926 0.057061 -0.023033 -49971.300000 0 1 0
18.607681 -11.566197 10.414081 24.258520 -0.556138 1.127083 0.051356 -0.021765 65427.800000 0 1 0
18.292281 -10.809997 9.239881 23.169786 -0.533746 1.160599 0.073683 -0.027016 334464.000000 0 1 0
18.992181 -11.331197 8.132181 23.563347 -0.537934 1.218430 0.068760 -0.025384 -23449.000000 0 1 0
18.754881 -10.610897 6.827781 22.604320 -0.514868 1.263947 0.068686 -0.025581 -132223.000000 0 1 0
19.365881 -9.333397 6.747281 22.531654 -0.449104 1.266672 0.092116 -0.025378 605644.000000 0 1 0
19.743181 -9.072797 5.388581 22.386282 -0.430760 1.327700 0.071296 -0.026507 -160457.000000 0 1 0
20.329181 -7.658697 5.182981 22.333708 -0.360290 1.336591 0.108684 -0.027890 -303325.000000 0 1 0
20.769681 -7.560997 3.865981 22.438675 -0.349128 1.397641 0.083630 -0.024902 580972.000000 0 1 0
21.077481 -6.255497 3.539681 22.269279 -0.288505 1.411170 0.088594 -0.025463 -634353.000000 0 1 0
21.536781 -5.861597 2.138481 22.422407 -0.265730 1.475279 0.079746 -0.022074 -53349.300000 0 1 0
20.570481 -5.900597 1.108081 21.428709 -0.279347 1.519063 0.050757 -0.028947 805672.000000 0 1 0
21.159881 -5.273897 -0.045219 21.807260 -0.244264 1.572870 0.061585 -0.023079 193609.000000 0 1 0
-25.868743 -15.405697 0.053581 30.108641 0.537129 1.569017 0.046425 0.008087 -481525.000000 0 0 1
-24.899133 -14.861397 -0.807319 29.008270 0.538110 1.598631 0.044809 0.010515 718832.000000 0 0 1
-23.553833 -15.354997 -0.693119 28.125423 0.577717 1.595443 0.040898 0.005157 1486060.000000 0 0 1
-22.694633 -14.794497 0.507281 27.095772 0.577706 1.552073 0.049320 -0.002215 -51512.200000 0 0 1
-23.184433 -15.266497 1.781681 27.816511 0.582314 1.506701 0.051299 0.006287 274507.000000 0 0 1
-22.442733 -14.646197 2.816181 26.946581 0.578203 1.466095 0.068091 0.009312 382793.000000 0 0 1
-22.920533 -15.271597 4.156381 27.854049 0.587738 1.421017 0.070485 0.010123 -98129.600000 0 0 1
-22.497333 -16.607097 4.324481 28.295350 0.635894 1.417361 0.071978 -0.001108 108012.000000 0 0 1
-23.077333 -17.320097 5.403981 29.355614 0.643837 1.385654 0.074487 -0.010565 -242083.000000 0 0 1
-22.904433 -18.869397 5.184081 30.125436 0.689104 1.397852 0.056735 -0.009902 -54606.700000 0 0 1
-23.427933 -19.630997 6.251881 31.198239 0.697446 1.369038 0.048614 -0.008280 -14547.200000 0 0 1
-23.364133 -20.986897 5.973281 31.968933 0.731849 1.382845 0.052507 -0.010943 -359993.000000 0 0 1
-23.991833 -21.877197 7.035181 33.222185 0.739329 1.357419 0.050295 -0.003155 -374734.000000 0 0 1
-23.370333 -22.052597 8.270681 33.179718 0.756396 1.318871 0.053546 0.001739 -275542.000000 0 0 1
-24.090133 -23.014297 9.039181 34.520996 0.762563 1.305862 0.051484 0.011567 287001.000000 0 0 1
-23.318933 -23.457097 10.314881 34.646859 0.788352 1.268498 0.040931 0.005400 237827.000000 0 0 1
-23.231033 -22.430997 11.312481 34.216995 0.767879 1.233846 0.051679 0.006377 -196726.000000 0 0 1
-22.526233 -22.945697 12.376281 34.454441 0.794623 1.203378 0.046026 0.009223 -258483.000000 0 0 1
-22.805033 -22.096497 13.622181 34.552692 0.769620 1.165552 0.039007 0.013909 798606.000000 0 0 1
-24.118833 -22.365197 14.133781 35.800614 0.747690 1.164955 0.050667 0.013571 692999.000000 0 0 1
-24.595033 -21.455697 15.095781 35.960328 0.717332 1.137583 0.057227 0.021561 -229729.000000 0 0 1
-25.927983 -21.840597 15.781881 37.394382 0.700040 1.135103 0.028397 0.014906 194675.000000 0 0 1
-27.071433 -21.708397 14.935181 37.777991 0.675894 1.164357 0.038029 0.007808 360105.000000 0 0 1
-27.368023 -22.782097 14.040581 38.277547 0.694208 1.195219 0.026918 0.007130 -541617.000000 0 0 1
-28.447503 -23.775597 14.455381 39.793184 0.696175 1.199029 0.037088 0.004159 -351405.000000 0 0 1
-28.038433 -24.394697 15.719581 40.352946 0.716017 1.170651 0.031740 0.003358 127387.000000 0 0 1
-28.887093 -25.441687 16.143681 41.741610 0.722065 1.173689 0.008132 -0.000795 -162605.000000 0 0 1
-28.610743 -26.752237 15.402981 42.089294 0.751841 1.196133 0.015555 -0.001253 119455.000000 0 0 1
-29.141503 -26.894227 14.067581 42.076401 0.745315 1.229898 0.026690 -0.007010 -299218.000000 0 0 1
-30.437993 -27.434157 14.067081 43.324210 0.733540 1.240109 0.042032 -0.017970 -389116.000000 0 0 1
-30.911693 -27.845437 12.659281 43.487453 0.733260 1.275418 0.070227 -0.023539 211064.000000 0 0 1
-30.000193 -28.793707 12.105381 43.308537 0.764880 1.287508 0.069853 -0.030606 261166.000000 0 0 1
-30.480143 -29.241767 10.876181 43.616641 0.764665 1.318779 0.077026 -0.026684 156028.000000 0 0 1
-29.761533 -30.510967 10.337481 43.858084 0.797832 1.332854 0.065487 -0.034048 274656.000000 0 0 1
-30.120823 -31.698317 11.045781 45.100516 0.810911 1.323365 0.058268 -0.019224 -91440.200000 0 0 1
-29.390693 -32.776847 10.528181 45.265629 0.839813 1.336060 0.060458 -0.021256 -145537.000000 0 0 1
-29.602613 -34.107765 11.178081 46.525303 0.855994 1.328165 0.052136 -0.010432 -629862.000000 0 0 1
-30.951973 34.166383 11.200881 47.442872 -0.834721 1.332454 0.061377 -0.014109 -699225.000000 0 0 1
-30.981663 32.746206 11.488281 46.520513 -0.813080 1.321264 0.046548 -0.016258 -826850.000000 0 0 1
-32.313473 32.227839 12.016581 47.193139 -0.784071 1.313336 0.061323 -0.015948 403069.000000 0 0 1
-33.425253 32.110649 11.110481 47.663237 -0.765342 1.335528 0.049299 -0.019074 772485.000000 0 0 1
-34.091481 33.324373 10.820681 48.885889 -0.774020 1.347602 0.070691 -0.014769 -554756.000000 0 0 1
-35.540672 33.188035 10.323781 49.710819 -0.751181 1.361597 0.075630 -0.001335 -58620.400000 0 0 1
-35.610685 32.473819 9.113981 49.048287 -0.739358 1.383894 0.052167 0.000969 -341024.000000 0 0 1
35.420121 32.331409 8.757381 48.750351 0.739841 1.390179 0.041206 0.003006 -394686.000000 0 0 1
35.250021 31.880369 7.322381 48.088868 0.735245 1.417934 0.028629 -0.003386 -67932.100000 0 0 1
35.641011 30.545529 7.049381 47.465828 0.708563 1.421730 0.049101 -0.011287 54420.300000 0 0 1
35.240871 30.213219 5.751281 46.774297 0.708737 1.447526 0.059708 -0.012723 -49746.700000 0 0 1
35.202891 28.701219 5.417281 45.742217 0.684006 1.452087 0.060057 -0.013198 -202699.000000 0 0 1
34.250121 27.932679 6.088781 44.613659 0.684151 1.433891 0.055058 -0.009812 -179319.000000 0 0 1
34.672981 27.508729 7.405481 44.875237 0.670689 1.405014 0.053508 -0.014795 -132963.000000 0 0 1
33.771891 26.440919 8.035581 43.637523 0.664243 1.385596 0.046548 -0.005846 -282490.000000 0 0 1
33.894681 25.151509 7.526181 42.872966 0.638393 1.394336 0.039895 -0.010340 -431292.000000 0 0 1
32.914941 24.243379 7.909681 41.637697 0.634835 1.379670 0.033406 -0.004117 -799697.000000 0 0 1
32.952521 22.889249 7.184881 40.760384 0.607101 1.393599 0.036752 -0.002665 144579.000000 0 0 1
33.934811 21.911649 7.460381 41.077354 0.573345 1.388165 0.044472 -0.003901 -178781.000000 0 0 1
35.233461 22.182549 6.966281 42.213639 0.561891 1.405014 0.050209 -0.015520 -84455.300000 0 0 1
36.098211 20.919049 6.884581 42.285753 0.525212 1.407257 0.049060 -0.012265 -315039.000000 0 0 1
35.772641 20.075749 5.760181 41.423390 0.511404 1.431288 0.063301 -0.021606 301450.000000 0 0 1
-35.881658 18.869649 5.995881 40.981797 -0.484141 1.423963 0.070702 -0.025267 167191.000000 0 0 1
35.983511 17.702849 5.087981 40.423897 0.457204 1.444596 0.075774 -0.029026 179335.000000 0 0 1
-35.754245 17.690849 3.824281 40.074398 -0.459471 1.475221 0.074779 -0.026627 117233.000000 0 0 1
36.137041 16.525149 3.226481 39.866985 0.428901 1.489777 0.075070 -0.024329 -326319.000000 0 0 1
-35.468247 15.980049 1.927381 38.949626 -0.423307 1.521292 0.083900 -0.005225 920895.000000 0 0 1
-34.319909 15.142749 2.191081 37.576055 -0.415531 1.512453 0.080960 -0.018023 797114.000000 0 0 1
-33.176493 15.970649 2.420381 36.899859 -0.448645 1.505156 0.078785 -0.020845 -551418.000000 0 0 1
-31.913263 15.128749 2.641881 35.416309 -0.442680 1.496132 0.064618 -0.023681 -298799.000000 0 0 1
-31.933633 14.349449 3.819581 35.217224 -0.422315 1.462125 0.072780 -0.030819 519654.000000 0 0 1
-30.615563 13.844849 4.005881 33.838435 -0.424695 1.452135 0.065564 -0.027827 222671.000000 0 0 1
-30.458743 13.075449 5.370381 33.578913 -0.405494 1.410173 0.073446 -0.021382 -211092.000000 0 0 1
-30.850133 11.731349 5.381481 33.441226 -0.363382 1.409170 0.087908 -0.017088 216262.000000 0 0 1
-30.530353 11.134749 6.599881 33.160874 -0.349720 1.370432 0.074558 -0.008410 -68789.600000 0 0 1
-30.613223 9.560349 6.711681 32.766086 -0.302698 1.364500 0.089563 -0.016185 765545.000000 0 0 1
-31.966063 9.097949 6.807681 33.925601 -0.277281 1.368760 0.095030 -0.007843 578905.000000 0 0 1
-31.982513 7.707049 6.866581 33.606989 -0.236469 1.365027 0.106387 -0.019342 -177608.000000 0 0 1
-33.400763 7.169649 6.642081 34.801323 -0.211447 1.378761 0.108241 -0.023478 130090.000000 0 0 1
-34.302848 7.412949 7.743981 35.938927 -0.212830 1.353617 0.104494 -0.015038 -37945.800000 0 0 1
-35.604429 6.959249 7.516981 37.048773 -0.193027 1.366484 0.076722 -0.014768 -26010.300000 0 0 1
36.163151 6.192449 8.739581 37.716047 0.169592 1.336950 0.064068 -0.018764 -279085.000000 0 0 1
35.693121 6.963549 9.821881 37.669075 0.192675 1.307006 0.064109 -0.015848 815133.000000 0 0 1
-35.717293 7.845649 10.463881 38.036457 -0.216226 1.292101 0.077826 -0.014479 490785.000000 0 0 1
35.907621 8.799249 11.435681 38.698305 0.240317 1.270808 0.068684 -0.021869 -185111.000000 0 0 1
35.260321 8.076949 12.450081 38.256135 0.225181 1.239319 0.056295 -0.024088 304612.000000 0 0 1
34.666811 8.977849 13.360081 38.221477 0.253408 1.213712 0.065324 -0.024356 -146415.000000 0 0 1
33.935071 8.400149 14.633781 37.898537 0.242658 1.174363 0.063054 -0.028669 -1146730.000000 0 0 1
32.625721 8.075749 14.391481 36.561867 0.242650 1.166230 0.070963 -0.036569 -1314520.000000 0 0 1
32.160721 7.473849 15.578081 36.508177 0.228338 1.129954 0.064423 -0.026813 -696960.000000 0 0 1
30.663601 7.256349 15.596181 35.158952 0.232369 1.111195 0.059968 -0.023740 -1115320.000000 0 0 1
29.823371 8.367849 15.828781 34.785121 0.273547 1.098374 0.046554 -0.026148 148617.000000 0 0 1
28.448221 8.076449 15.916881 33.583886 0.276621 1.077032 0.039277 -0.020883 64236.100000 0 0 1
27.994111 7.490949 17.271981 33.735825 0.261464 1.033311 0.032425 -0.017031 -781325.000000 0 0 1
27.954831 8.437949 18.323581 34.473543 0.293146 1.010395 0.048797 -0.015216 115382.000000 0 0 1
27.283881 7.946149 19.477581 34.451816 0.283401 0.969930 0.050166 -0.008594 -38322.000000 0 0 1
27.833501 6.702849 20.290281 35.090276 0.236320 0.954238 0.055185 -0.009890 259085.000000 0 0 1
26.998581 6.468149 21.427881 35.070136 0.235142 0.913472 0.038150 -0.003801 225794.000000 0 0 1
27.316081 5.293449 22.075981 35.518134 0.191413 0.900088 0.038183 -0.003545 -777309.000000 0 0 1
26.680081 5.071049 23.473181 35.896135 0.187828 0.858043 0.049292 -0.001381 2841980.000000 0 0 1
25.219281 4.810749 23.570681 34.853012 0.188492 0.828084 0.026529 -0.000347 2855480.000000 0 0 1
24.334081 5.869249 23.166681 34.107048 0.236674 0.824077 0.038317 0.002879 -295122.000000 0 0 1
22.827581 5.716549 23.356481 33.155732 0.245377 0.789152 0.042317 -0.002210 -229982.000000 0 0 1
22.233281 4.720749 22.565681 32.028335 0.209221 0.789002 0.034719 0.001481 35155.600000 0 0 1
20.860181 5.000549 22.395081 31.011164 0.235278 0.763874 0.024593 -0.009293 -895722.000000 0 0 1
20.055781 3.769049 21.899581 29.933789 0.185762 0.750129 0.039309 -0.010474 -90050.500000 0 0 1
18.800881 3.893549 21.301281 28.677124 0.204207 0.733558 0.041110 -0.020420 25085.100000 0 0 1
17.770581 4.396449 22.124381 28.716033 0.242531 0.691243 0.058291 -0.021239 -1256060.000000 0 0 1
16.413981 4.426249 21.445581 27.366465 0.263398 0.670285 0.073456 -0.023427 -675297.000000 0 0 1
15.725781 3.197849 21.626481 26.930115 0.200615 0.638385 0.065639 -0.021418 92162.900000 0 0 1
14.998881 2.828549 20.473381 25.536767 0.186395 0.640626 0.067756 -0.030634 75698.200000 0 0 1
13.988181 1.637149 20.620881 24.971388 0.116508 0.599212 0.064380 -0.026087 -67261.800000 0 1 0
14.590981 0.367949 20.741381 25.362117 0.025212 0.613202 0.053222 -0.020542 -56128.100000 0 0 1
13.844681 -0.489151 21.546381 25.615640 -0.035317 0.571406 0.049873 -0.015106 -278290.000000 0 0 1
14.197681 -1.958151 21.427981 25.779195 -0.137056 0.589512 0.039407 -0.011618 -84032.000000 0 0 1
13.697881 -2.523851 20.241781 24.570948 -0.182208 0.602697 0.035779 -0.007911 -90659.100000 0 1 0
14.075981 -3.860151 20.047481 24.797893 -0.267656 0.629308 0.027528 -0.007535 33177.300000 0 1 0
13.448381 -4.518151 18.773981 23.531575 -0.324115 0.647124 0.022230 -0.004168 -374259.000000 0 1 0
12.094981 -4.831451 18.858581 22.918935 -0.380040 0.604408 0.020910 -0.006504 -908297.000000 0 1 0
11.573981 -5.343551 17.679881 21.796531 -0.432530 0.624710 0.017608 -0.003404 18734.000000 0 1 0
10.033481 -5.354651 17.756281 21.086217 -0.490226 0.569668 0.011686 0.003776 25660.800000 0 1 0
9.544981 -6.448951 18.498981 21.792382 -0.594188 0.556945 0.014850 0.007542 -1820170.000000 0 1 0
8.181981 -6.416151 18.548281 21.263832 -0.665020 0.510925 0.010964 0.007014 -1767790.000000 0 1 0
7.622781 -7.584451 19.395981 22.177348 -0.782878 0.506217 0.009087 0.001565 -644837.000000 0 1 0
7.766381 -8.931951 18.932881 22.328242 -0.855087 0.558720 0.012101 -0.003774 170359.000000 0 1 0
9.087881 -9.385451 19.195381 23.219365 -0.801505 0.597585 0.031871 -0.014667 209804.000000 0 1 0
9.373481 -10.793751 18.720581 23.554774 -0.855707 0.652171 0.036777 -0.013372 -17984.800000 0 1 0
9.447081 -10.918851 17.320181 22.548998 -0.857539 0.694907 0.034642 -0.013504 105725.000000 0 1 0
9.947281 -12.157951 16.874081 23.054257 -0.885073 0.749648 0.039357 -0.014364 49213.500000 0 1 0
9.883581 -12.310251 15.330681 22.005845 -0.894305 0.800059 0.036888 -0.009064 193671.000000 0 1 0
10.422281 -13.531351 14.829481 22.619348 -0.914472 0.855806 0.027827 -0.001163 -89288.400000 0 1 0
10.292781 -13.480451 13.410981 21.622172 -0.918690 0.901745 0.029407 -0.005859 191577.000000 0 1 0
11.223781 -14.484751 12.649781 22.266527 -0.911568 0.966592 0.052495 -0.015354 1554070.000000 0 1 0
12.572581 -14.095251 12.301681 22.540569 -0.842434 0.993504 0.051486 -0.021220 956262.000000 0 1 0
12.688881 -13.172451 11.237281 21.466198 -0.804095 1.019858 0.032720 -0.018198 -1699890.000000 0 1 0
14.085281 -13.151151 10.693681 22.038664 -0.751115 1.064177 0.042795 -0.021026 -927407.000000 0 1 0
14.541881 -14.357751 10.141981 22.813835 -0.779027 1.110120 0.056320 -0.018772 -829336.000000 0 1 0
15.821181 -14.209451 9.632381 23.345257 -0.731780 1.145484 0.061741 -0.019077 -723639.000000 0 1 0
16.490881 -15.589651 9.362881 24.548929 -0.757313 1.179490 0.053475 -0.017725 -167758.000000 0 1 0
16.863381 -16.259751 10.549081 25.691170 -0.767176 1.147672 0.051426 -0.017912 91163.300000 0 0 1
15.834581 -16.898351 11.294081 25.765180 -0.817885 1.117038 0.071301 -0.016012 38657.600000 0 0 1
16.409181 -17.395551 12.632181 27.045118 -0.814568 1.084813 0.055737 -0.014285 626005.000000 0 0 1
17.333281 -18.499051 12.460681 28.247585 -0.817921 1.113946 0.064182 -0.022649 419371.000000 0 0 1
17.923081 -18.991951 13.662081 29.471740 -0.814345 1.088781 0.045150 -0.024652 -414190.000000 0 0 1
19.253681 -19.660751 13.334081 30.578539 -0.795858 1.119580 0.022895 -0.025061 -286573.000000 0 0 1
20.272081 -18.710951 13.092981 30.536586 -0.745373 1.127672 0.014804 -0.022145 -488152.000000 0 0 1
21.539081 -19.328351 12.978881 31.717006 -0.731356 1.149209 -0.005043 -0.016966 520693.000000 0 0 1
22.359781 -18.652451 11.810781 31.422417 -0.695247 1.185460 0.002555 -0.011070 -257532.000000 0 0 1
22.011981 -19.030751 10.469481 30.924211 -0.712888 1.225418 0.004018 -0.002243 228057.000000 0 0 1
20.799181 -18.581351 9.872081 29.585985 -0.729140 1.230598 0.018767 -0.001216 361751.000000 0 0 1
20.468681 -17.067951 9.770781 28.385736 -0.695047 1.219394 0.053101 -0.009909 -437468.000000 0 0 1
21.372181 -16.439651 8.927681 28.403093 -0.655681 1.251055 0.037491 -0.002531 -395067.000000 0 0 1
21.211881 -15.061851 9.051181 27.545002 -0.617450 1.235980 0.049681 -0.009692 809.898000 0 0 1
-34.807642 24.961303 8.128781 43.597198 -0.622125 1.383247 0.055967 -0.008677 -767998.000000 0 0 1
-33.750113 24.295203 8.683581 42.482133 -0.623928 1.364940 0.067434 -0.018436 -624523.000000 0 0 1
-32.752133 25.165603 9.162481 42.307929 -0.655152 1.352500 0.068508 -0.020798 -258807.000000 0 0 1
-31.557183 24.421203 9.796381 41.087955 -0.658605 1.330053 0.075707 -0.027147 -31039.400000 0 0 1
-30.883833 23.609803 8.861581 39.871814 -0.652699 1.346673 0.080363 -0.032507 269582.000000 0 0 1
-29.870653 22.766303 9.385981 38.712493 -0.651240 1.325902 0.081691 -0.031218 244107.000000 0 0 1
-29.198123 21.905403 8.293081 37.431969 -0.643650 1.347392 0.080587 -0.041765 225306.000000 0 0 1
-30.024193 20.888203 7.701781 37.377622 -0.607843 1.363256 0.079972 -0.042130 478932.000000 0 0 1
-29.330733 20.151003 6.696681 36.210501 -0.601966 1.384788 0.066334 -0.040251 -45832.100000 0 0 1
-30.278463 19.297703 5.861581 36.380556 -0.567424 1.408972 0.059941 -0.031242 128958.000000 0 0 1
-30.938043 18.168003 6.533081 36.468068 -0.530983 1.390679 0.057213 -0.035060 902786.000000 0 0 1
-31.877443 17.542603 5.658281 36.822961 -0.503084 1.416523 0.046282 -0.028249 272644.000000 0 0 1
-32.687193 16.330703 6.196981 37.061396 -0.463332 1.402799 0.055095 -0.021003 -142741.000000 0 0 1
-33.587773 16.675603 7.231581 38.190444 -0.460826 1.380290 0.059951 -0.021511 118497.000000 0 0 1
-34.269794 15.492003 7.629081 38.374781 -0.424566 1.370658 0.074794 -0.022655 -60376.200000 0 0 1
-35.213302 15.822803 8.835981 39.603186 -0.422306 1.345790 0.069469 -0.026484 248988.000000 0 0 1
36.119281 16.685703 8.364081 40.656770 0.432756 1.363593 0.068965 -0.021008 51136.400000 0 0 1
35.477411 17.101803 9.537681 40.522657 0.449183 1.333201 0.068761 -0.014552 -310135.000000 0 0 1
34.530881 18.302803 9.464481 40.211326 0.487391 1.333199 0.044483 -0.004590 73336.900000 0 0 1
33.280831 18.063903 8.839981 38.885261 0.497277 1.341456 0.048411 0.000135 19395.900000 0 0 1
32.623801 19.289903 8.631881 38.870582 0.533985 1.346862 0.040128 0.004126 193119.000000 0 0 1
31.146031 19.263903 8.175481 37.523482 0.553913 1.351158 0.032051 0.011366 247106.000000 0 0 1
30.530331 20.561503 8.209381 37.713001 0.592703 1.351359 0.024915 0.008082 684356.000000 0 0 1
29.185401 20.766103 7.772881 36.652917 0.618418 1.357107 0.013350 0.015010 815373.000000 0 0 1
28.791351 20.418403 6.258081 35.847129 0.616864 1.395320 0.006079 0.029280 -456078.000000 0 0 1
29.026601 19.057603 5.911681 35.223341 0.580971 1.402164 0.008900 0.022296 55528.000000 0 0 1
28.807631 18.695503 4.577581 34.646149 0.575656 1.438285 0.007526 0.021821 217278.000000 0 0 1
27.392791 18.958903 3.964681 33.548825 0.605413 1.452343 0.024520 0.022194 430802.000000 0 0 1
26.354481 18.136103 4.600081 32.320855 0.602735 1.427986 0.028916 0.012591 1403730.000000 0 0 1
25.016581 18.509803 4.289481 31.414038 0.637007 1.433822 0.046510 0.007887 24019.700000 0 0 1
24.399781 19.781003 4.733381 31.765426 0.681234 1.421229 0.052721 0.002328 -843903.000000 0 0 1
25.018481 20.917503 4.133581 32.871763 0.696358 1.444714 0.037608 0.001249 134551.000000 0 0 1
24.495881 22.098003 4.689881 33.322138 0.733980 1.429584 0.045157 0.007365 -91457.000000 0 0 1
25.264581 23.413903 4.334181 34.717359 0.747398 1.445628 0.030116 0.011920 438785.000000 0 0 1
26.571281 23.492903 4.882381 35.802054 0.723987 1.433999 0.024118 0.015009 387398.000000 0 0 1
27.316981 24.609403 4.455081 37.036305 0.733303 1.450215 0.034653 0.002777 475763.000000 0 0 1
28.628551 24.863003 5.342381 38.292347 0.715119 1.430824 0.027305 0.005137 742350.000000 0 0 1
29.761651 24.056103 5.202981 38.620240 0.679777 1.435664 0.016611 0.005106 24231.700000 0 0 1
30.328121 24.007103 3.906881 38.876723 0.669585 1.470132 0.026061 -0.006507 -880804.000000 0 0 1
31.274031 25.152103 3.528681 40.288272 0.677326 1.483098 0.048997 -0.019722 -1182230.000000 0 0 1
30.657741 26.368603 3.349981 40.576134 0.710326 1.488142 0.051233 -0.016134 -349733.000000 0 0 1
31.499061 27.314303 2.686081 41.778906 0.714365 1.506459 0.076257 -0.015893 -311692.000000 0 0 1
30.927331 28.769403 2.689681 42.325084 0.749266 1.507205 0.080305 -0.011867 1459380.000000 0 0 1
29.702431 29.062203 1.933981 41.600316 0.774504 1.524290 0.090053 -0.016633 1791860.000000 0 0 1
28.536361 28.569903 2.606881 40.464294 0.785986 1.506327 0.064352 -0.004673 -336781.000000 0 0 1
27.165581 28.984303 2.079481 39.779176 0.817777 1.518497 0.044633 -0.005389 -122622.000000 0 0 1
26.806481 30.276603 2.588481 40.521110 0.846114 1.506873 0.050727 -0.019514 -1021710.000000 0 0 1
25.473781 30.547303 2.380381 39.846172 0.875716 1.511021 0.044321 -0.010274 -736310.000000 0 0 1
24.986681 31.859303 3.098581 40.607273 0.905713 1.494416 0.060801 -0.019226 -79734.400000 0 0 1
24.761381 31.777603 4.481881 40.534298 0.908862 1.460000 0.046573 -0.025933 -482949.000000 0 0 1
25.924381 31.702303 5.253681 41.288142 0.885329 1.443206 0.053664 -0.031879 -286176.000000 0 0 1
25.696481 31.522003 6.796981 41.232812 0.886860 1.405196 0.057840 -0.039355 175897.000000 0 0 1
25.202781 30.224603 7.178481 40.002967 0.875753 1.390370 0.057751 -0.038748 606070.000000 0 0 1
26.164281 29.170403 6.987381 39.803335 0.839671 1.394334 0.080326 -0.041618 339142.000000 0 0 1
25.625881 27.818603 7.436081 38.546799 0.826403 1.376669 0.064463 -0.028878 -895328.000000 0 0 1
24.450381 27.532403 6.772881 37.439635 0.844618 1.388893 0.044311 -0.029494 -760002.000000 0 0 1
24.014081 26.178703 6.909081 36.190275 0.828498 1.378707 0.050965 -0.022629 -310018.000000 0 0 1
22.696481 26.120503 6.124581 35.141449 0.855423 1.395618 0.057373 -0.006333 -430623.000000 0 0 1
22.891781 26.026803 4.720781 34.981622 0.849397 1.435433 0.038458 -0.007298 212404.000000 0 0 1
23.238381 27.241603 4.029481 36.032818 0.864536 1.458734 0.041163 -0.009635 -191161.000000 0 0 1
23.501281 26.919403 2.559581 35.826190 0.853087 1.499291 0.045221 -0.000165 -245224.000000 0 0 1
24.428081 25.942303 2.165281 35.699057 0.815451 1.510105 0.023183 0.020100 28592.700000 0 0 1
24.385181 25.908603 0.739481 35.587070 0.815679 1.550015 0.029399 0.018037 225044.000000 0 0 1
25.625981 25.179203 0.111481 35.926252 0.776604 1.567693 0.034246 0.016926 -706383.000000 0 0 1
26.710081 26.076203 -0.007419 37.328231 0.773390 1.570995 0.041481 0.013327 -99481.000000 0 0 1
27.844701 25.574003 -0.659419 37.812588 0.742916 1.588236 0.049291 0.020175 235864.000000 0 0 1
28.569841 24.264003 -0.169019 37.483412 0.704080 1.575306 0.041004 0.012184 -1042710.000000 0 0 1
27.804821 23.099203 -0.294219 36.149243 0.693219 1.578935 0.037375 0.011167 67682.500000 0 0 1
28.354041 22.106703 0.569381 35.958061 0.662219 1.554961 0.029453 0.012255 -74040.200000 0 0 1
27.272381 21.258503 1.262781 34.602042 0.662108 1.534294 0.020785 0.014175 172830.000000 0 0 1
26.649981 20.302603 0.383781 33.504693 0.651026 1.559342 0.035727 -0.003918 7554.610000 0 0 1
25.542581 19.660803 0.911381 32.245949 0.656007 1.542529 0.038688 -0.000054 -988967.000000 0 0 1
24.971081 18.689603 -0.053119 31.190687 0.642508 1.572499 0.046738 -0.007438 539451.000000 0 0 1
23.767681 18.057803 0.462781 29.852991 0.649720 1.555294 0.053612 -0.007158 894747.000000 0 0 1
23.188481 17.195103 -0.463419 28.871993 0.638062 1.586848 0.065638 -0.024607 -117395.000000 0 0 1
21.757681 16.775103 -0.082819 27.473762 0.656804 1.573811 0.072681 -0.014322 -560878.000000 0 0 1
21.040981 16.190503 -1.129219 26.573114 0.655849 1.613304 0.069970 -0.016533 -547389.000000 0 0 1
19.843081 15.598803 -0.714719 25.250373 0.666213 1.599105 0.083697 -0.017509 145469.000000 0 0 1
18.611781 16.499203 -1.118219 24.897239 0.725302 1.615725 0.078953 -0.023438 85772.300000 0 1 0
18.754181 17.782203 -0.563119 25.850399 0.758801 1.592582 0.067900 -0.012685 91745.200000 0 0 1
17.684381 18.626303 -0.936719 25.701244 0.811333 1.607251 0.049099 -0.016963 124218.000000 0 0 1
17.907781 20.014503 -0.346219 26.858682 0.840895 1.583687 0.055474 -0.010880 -57500.400000 0 0 1
17.651181 20.133103 1.064481 26.796252 0.850991 1.531061 0.065457 -0.007555 110624.000000 0 0 1
17.887181 21.424303 1.728681 27.963196 0.875133 1.508937 0.069355 -0.008660 -73498.500000 0 0 1
16.850381 22.524103 1.459781 28.167384 0.928509 1.518948 0.068223 -0.013668 775495.000000 0 0 1
15.470481 22.318503 1.788981 27.214919 0.964670 1.505014 0.062476 -0.015917 750881.000000 0 0 1
14.730681 23.457203 1.349781 27.731845 1.010056 1.522104 0.043869 -0.016581 290119.000000 0 0 1
13.221481 23.329203 1.691981 26.868607 1.055195 1.507782 0.032473 -0.015093 290100.000000 0 0 1
12.940881 23.445903 3.070781 26.955639 1.066460 1.456629 0.033057 -0.008163 -1078470.000000 0 0 1
11.595281 23.458103 3.369381 26.383439 1.111721 1.442738 0.016282 -0.008059 -685683.000000 0 0 1
11.383981 23.734703 4.863081 26.769025 1.123574 1.388114 0.022438 -0.006088 92465.800000 0 0 1
11.850181 22.647503 5.706181 26.189629 1.088727 1.351155 0.035604 -0.030651 344723.000000 0 0 1
10.952681 22.304803 6.777881 25.756652 1.114338 1.304510 0.028927 -0.021429 -407169.000000 0 0 1
11.623281 21.317403 7.735881 25.482861 1.071608 1.262357 0.036885 -0.015739 409403.000000 0 0 1
12.756381 21.708203 8.514981 26.579621 1.039522 1.244689 0.037360 -0.009957 496079.000000 0 0 1
13.935381 21.811703 7.743381 27.016757 1.002268 1.280106 0.051014 -0.009854 -238824.000000 0 0 1
15.278581 21.992503 8.522981 28.102427 0.963624 1.262661 0.061936 -0.006875 189950.000000 0 0 1
15.578881 20.697803 9.139181 27.470442 0.925580 1.231640 0.066213 -0.007484 1433280.000000 0 0 1
16.924081 20.640503 9.706781 28.402051 0.884011 1.222004 0.072044 -0.013096 1306780.000000 0 0 1
17.157781 21.536403 10.924481 29.623477 0.898079 1.193103 0.062324 -0.008070 -926154.000000 0 0 1
16.405081 21.242403 12.059381 29.424395 0.913188 1.148514 0.056729 -0.011902 -283855.000000 0 0 1
16.711981 21.989503 13.238081 30.628016 0.920927 1.123842 0.053138 -0.006118 3012.230000 0 0 1
17.745081 21.231703 14.143681 31.075985 0.874615 1.098276 0.059714 -0.010086 637191.000000 0 0 1
19.076681 21.316303 13.660581 31.700410 0.840787 1.125276 0.066013 -0.012350 403460.000000 0 0 1
20.011181 20.801203 14.655481 32.371601 0.804753 1.100976 0.052951 -0.015513 85404.800000 0 0 1
21.369581 21.458903 14.476181 33.566402 0.787484 1.124896 0.057850 -0.018862 -679163.000000 0 0 1
22.070081 20.995103 13.342981 33.255345 0.760442 1.157939 0.062722 -0.017774 -940927.000000 0 0 1
23.361381 21.468103 13.275281 34.392828 0.743190 1.174516 0.058647 -0.008090 -928186.000000 0 0 1
24.211381 20.770603 12.186581 34.148524 0.709054 1.205881 0.058958 0.004368 -216708.000000 0 0 1
23.896281 21.191703 10.913581 33.752433 0.725486 1.241537 0.068561 0.005197 36871.200000 0 0 1
24.946881 20.969603 10.018481 34.094590 0.698994 1.272551 0.076677 -0.007846 -568042.000000 0 0 1
24.790181 21.755403 8.674681 34.104262 0.720290 1.313613 0.052789 -0.010967 -93673.000000 0 0 1
25.017781 23.146203 8.740681 35.185730 0.746559 1.319752 0.059740 -0.003788 1002010.000000 0 0 1
26.401281 23.513803 8.593381 36.383688 0.727615 1.332356 0.045621 -0.000336 521338.000000 0 0 1
26.702681 24.851803 9.257881 37.634474 0.749512 1.322251 0.059068 -0.003106 -513000.000000 0 0 1
27.858341 25.450203 8.749181 38.734328 0.740255 1.342953 0.053809 -0.000570 -107133.000000 0 0 1
28.341011 26.538503 9.551581 39.984219 0.752565 1.329580 0.070552 -0.015224 669217.000000 0 0 1
29.599131 27.290503 8.975881 41.248594 0.744840 1.351437 0.071778 -0.016072 659021.000000 0 0 1
29.345871 28.004903 7.807081 41.308658 0.762021 1.380659 0.080125 -0.018930 712617.000000 0 0 1
30.576351 28.088403 7.073481 42.117760 0.743014 1.402051 0.081842 -0.014899 557128.000000 0 0 1
30.549491 29.232303 6.024981 42.709476 0.763368 1.429255 0.102955 -0.012962 105648.000000 0 0 1
30.459371 30.544103 6.529981 43.627470 0.786787 1.420556 0.104949 -0.023389 79936.100000 0 0 1
30.457471 31.460003 5.442181 44.124898 0.801588 1.447146 0.107658 -0.024387 130964.000000 0 0 1
30.484181 32.950703 5.830081 45.266146 0.824261 1.441642 0.084128 -0.018135 771383.000000 0 0 1
29.248811 33.285303 6.487781 44.782760 0.849857 1.425412 0.089532 -0.023144 671177.000000 0 0 1
29.102131 -33.930443 6.686181 45.198606 -0.861849 1.422322 0.082156 -0.013959 -225317.000000 0 0 1
27.695641 -33.594843 7.197681 44.130133 -0.881352 1.406963 0.080200 -0.021726 -17699.800000 0 0 1
26.741981 -33.649843 6.164281 43.421698 -0.899287 1.428352 0.072441 -0.024855 -955726.000000 0 0 1
25.470081 -33.218443 6.525581 42.364764 -0.916664 1.416147 0.059302 -0.024090 -583939.000000 0 0 1
24.504981 -33.264843 5.342481 41.660365 -0.935886 1.442203 0.070467 -0.022575 -575183.000000 0 0 1
24.826281 -32.440843 4.275881 41.073540 -0.917588 1.466504 0.051883 -0.008631 -46864.000000 0 0 1
23.899381 -32.586943 3.200481 40.538036 -0.938002 1.491764 0.062732 -0.013164 141866.000000 0 0 1
24.226981 -31.779343 1.895981 40.005850 -0.919438 1.523386 0.063936 0.000376 86858.900000 0 0 1
24.256581 -30.349843 2.132081 38.910673 -0.896524 1.515975 0.067319 0.006924 130391.000000 0 0 1
25.116181 -29.818543 1.139181 39.003407 -0.870789 1.541585 0.061432 0.011643 -277491.000000 0 0 1
25.352381 -28.303043 1.380881 38.022524 -0.840336 1.534471 0.056310 0.009539 -627168.000000 0 0 1
24.344781 -27.381543 1.140781 36.656768 -0.844039 1.539671 0.061808 -0.000350 -611773.000000 0 0 1
23.826481 -27.396443 -0.180819 36.308387 -0.854980 1.575776 0.063275 0.004621 1681.660000 0 0 1
22.589081 -26.465543 -0.351419 34.796768 -0.864258 1.580896 0.060778 -0.001164 155069.000000 0 0 1
22.816581 -25.041343 -0.225919 33.877961 -0.831852 1.577465 0.065476 -0.012628 -258218.000000 0 0 1
23.039781 -24.514443 1.073781 33.659210 -0.816398 1.538889 0.040084 0.000712 -33350.000000 0 0 1
21.795381 -24.435343 1.968881 32.802456 -0.842440 1.510738 0.031668 0.002346 160544.000000 0 0 1
22.144481 -23.794643 3.195581 32.661519 -0.821303 1.472800 0.007861 0.004848 296351.000000 0 0 1
21.019181 -23.848643 4.072981 32.049227 -0.848377 1.443367 0.021645 0.004230 338939.000000 0 0 1
21.218481 -22.972643 5.306081 31.719407 -0.825072 1.402724 0.006144 0.009928 -55145.900000 0 0 1
21.221981 -21.556943 5.171481 30.689061 -0.793228 1.401476 0.021172 0.020934 284361.000000 0 0 1
20.007081 -20.936943 4.748281 29.345955 -0.808105 1.408278 0.017240 0.012336 -234097.000000 0 0 1
19.965081 -19.416043 4.946481 28.285241 -0.771457 1.395014 0.018278 0.009744 -99498.100000 0 0 1
19.650081 -18.929643 6.217081 27.984088 -0.766726 1.346762 0.035449 0.014399 -78985.600000 0 0 1
18.290181 -19.013743 6.585081 27.192213 -0.804792 1.326197 0.040508 0.009506 42774.300000 0 0 1
19.306367 -26.020257 -12.213819 34.626102 -0.932451 1.931288 0.048242 -0.018510 -226787.000000 0 0 1
19.546667 -24.672097 -12.529119 33.878656 -0.900794 1.949615 0.052118 -0.016772 -902492.000000 0 0 1
18.427467 -24.085897 -13.091319 33.031570 -0.917718 1.978310 0.056491 -0.015521 -559431.000000 0 0 1
18.529867 -22.591497 -13.463419 32.171343 -0.883851 2.002580 0.048238 -0.015064 -97005.000000 0 0 1
18.615667 -21.690197 -12.327119 31.128211 -0.861531 1.977965 0.060109 -0.021161 -406854.000000 0 0 1
19.765567 -21.687297 -11.512319 31.520628 -0.831724 1.944678 0.052230 -0.029136 -927292.000000 0 0 1
19.637567 -22.389097 -10.153919 31.464389 -0.850776 1.899389 0.050979 -0.024701 271277.000000 0 0 1
18.745667 -21.858997 -9.158219 30.217358 -0.861923 1.878717 0.063121 -0.031903 30221.100000 0 0 1
17.385067 -22.022197 -9.470419 29.612608 -0.902531 1.896326 0.071465 -0.016906 -595991.000000 0 0 1
16.443367 -21.467897 -8.388819 28.313022 -0.917164 1.871600 0.073793 -0.026961 -599131.000000 0 0 1
16.322367 -20.068597 -8.586019 27.255971 -0.887981 1.891268 0.070670 -0.033602 356706.000000 0 0 1
15.512667 -19.432197 -7.596619 25.999264 -0.897095 1.867308 0.069001 -0.037611 1299290.000000 0 0 1
13.942967 -19.433397 -7.796619 25.156520 -0.948439 1.885910 0.067976 -0.022300 1115490.000000 0 0 1
13.356867 -20.742997 -7.798619 25.874626 -0.998706 1.876957 0.056941 -0.022753 447194.000000 0 0 1
11.934567 -20.706197 -7.889219 25.167842 -1.047928 1.889635 0.051832 -0.027414 418216.000000 0 0 1
11.254667 -22.074097 -7.730219 25.955530 -1.099293 1.873210 0.057699 -0.021530 -135454.000000 0 0 1
11.203167 -22.446797 -6.416719 25.894863 -1.107870 1.821204 0.056917 -0.021847 -41571.800000 0 0 1
10.358967 -23.514397 -6.138019 26.417993 -1.155839 1.805282 0.049200 -0.020273 -578844.000000 0 0 1
10.754367 -24.303197 -4.893719 27.023143 -1.154190 1.752895 0.056374 -0.015743 -758173.000000 0 0 1
9.974467 -25.304707 -4.388819 27.551405 -1.195322 1.730773 0.051181 -0.011538 -1036660.000000 0 0 1
10.615367 -25.940197 -3.313319 28.223358 -1.182363 1.688464 0.043884 -0.014492 -90215.500000 0 0 1
9.716867 -26.785437 -2.403519 28.594650 -1.222794 1.654950 0.047374 -0.009750 -85702.900000 0 0 1
8.834167 -26.130907 -1.534019 27.626437 -1.244786 1.626352 0.034068 -0.003067 -313083.000000 0 0 1
8.218167 -27.101847 -0.702819 28.329178 -1.276376 1.595608 0.039790 -0.007804 323393.000000 0 0 1
7.519167 -26.507287 0.573881 27.559091 -1.294393 1.549971 0.046544 -0.003631 542268.000000 0 0 1
6.330667 -25.781777 0.292981 26.549260 -1.330012 1.559761 0.045442 -0.011174 -80699.700000 0 0 1
5.636167 -25.466657 1.463781 26.123929 -1.352992 1.514735 0.047800 -0.005178 -300099.000000 0 0 1
4.225567 -24.884597 1.301781 25.274359 -1.402594 1.519268 0.045836 -0.010226 168761.000000 0 0 1
3.281067 -25.888017 0.913781 26.111105 -1.444728 1.535793 0.048636 -0.013517 -706323.000000 0 0 1
2.021567 -25.309077 0.937181 25.406976 -1.491090 1.533901 0.045276 -0.013794 -79112.100000 0 0 1
0.829467 -26.116507 0.306481 26.131473 -1.539047 1.559068 0.047213 -0.012026 473230.000000 0 0 1
0.426167 -27.298397 0.996781 27.319913 -1.555186 1.534303 0.041924 -0.009307 -219760.000000 0 0 1
1.173367 -28.508297 0.874881 28.545844 -1.529661 1.540143 0.028915 -0.013714 -238293.000000 0 0 1
0.615867 -29.673787 1.736381 29.730926 -1.550045 1.512360 0.037522 -0.009806 141975.000000 0 0 1
0.898167 -29.588807 3.098981 29.764205 -1.540451 1.466490 0.026646 -0.007002 242614.000000 0 0 1
0.258967 -30.667967 3.819881 30.906031 -1.562352 1.446883 0.025997 -0.009680 45125.500000 0 0 1
0.499467 -30.425047 5.336081 30.893474 -1.554382 1.397201 0.029280 -0.010854 -64792.200000 0 0 1
1.830267 -30.563617 5.793281 31.161622 -1.510984 1.383798 0.006886 0.002864 -160254.000000 0 0 1
1.771567 -30.764167 7.194481 31.643846 -1.513274 1.341433 0.024868 -0.001301 -175235.000000 0 0 1
3.097367 -31.191907 7.805981 32.302664 -1.471820 1.326729 0.025932 0.001553 -109646.000000 0 0 1
3.424167 -32.558017 7.544581 33.595686 -1.466010 1.344295 0.009279 -0.002988 -96890.800000 0 0 1
4.797867 -32.865897 7.657281 34.085491 -1.425837 1.344213 0.005548 0.001104 -193106.000000 0 0 1
4.958867 34.217615 7.416881 35.361641 1.426877 1.359484 -0.008810 0.008219 -485339.000000 0 0 1
5.025467 33.938258 6.018281 34.832175 1.423788 1.397146 -0.013932 0.011138 46032.600000 0 0 1
4.912267 32.534379 5.828381 33.415359 1.420941 1.395477 -0.023514 0.008463 -495560.000000 0 0 1
4.872967 32.028799 4.324081 32.684667 1.419811 1.438110 -0.011032 0.010727 -10272.400000 0 0 1
6.137867 32.064049 3.662981 32.851090 1.381659 1.459061 0.004617 0.011228 180849.000000 0 0 1
6.868767 30.883769 3.986081 31.888493 1.351951 1.445468 -0.010370 0.010155 -193890.000000 0 0 1
8.302067 30.864529 3.427581 32.144856 1.308032 1.463964 -0.012707 0.008061 714453.000000 0 0 1
9.286767 31.582409 4.211281 33.187761 1.284808 1.443561 -0.009210 0.005446 217332.000000 0 0 1
10.548867 31.740579 3.622381 33.643196 1.249934 1.462917 -0.002374 -0.002793 -325753.000000 0 0 1
11.571567 32.244859 4.635181 34.570464 1.226245 1.436312 0.014059 -0.015184 -199027.000000 0 0 1
12.076567 31.246329 5.558781 33.956982 1.201986 1.406356 0.022404 -0.015282 47120.100000 0 0 1
12.977167 31.833909 6.476481 34.982130 1.183711 1.384585 0.066609 -0.024786 -332454.000000 0 0 1
13.807567 30.887299 7.333881 34.618781 1.150415 1.357332 0.061554 -0.028419 -347039.000000 0 0 1
13.247467 30.379039 8.502981 34.215232 1.159585 1.319650 0.036726 -0.022220 121540.000000 0 0 1
14.156867 29.432969 9.101181 33.904986 1.122475 1.299031 0.031282 -0.019793 483606.000000 0 0 1
13.972967 29.322309 10.671481 34.189503 1.126100 1.253365 0.027223 -0.016136 -271486.000000 0 0 1
14.733067 30.239519 11.371181 35.507683 1.117431 1.244808 0.037623 -0.019158 152361.000000 0 0 1
14.172267 30.486679 12.705781 35.940613 1.135648 1.209463 0.028740 -0.011273 184627.000000 0 0 1
15.050767 31.436569 13.552781 37.396007 1.124280 1.199941 0.023327 -0.010131 -124490.000000 0 0 1
16.172567 30.801369 14.105081 37.539707 1.087302 1.185604 0.012032 -0.008952 -393316.000000 0 0 1
16.738867 31.752489 14.960181 38.887238 1.085652 1.175906 0.022690 -0.007526 -503493.000000 0 0 1
17.907667 31.207619 15.810981 39.301236 1.049847 1.156766 0.023044 -0.007445 55196.400000 0 0 1
18.972867 30.792429 14.971481 39.144458 1.018584 1.178331 0.031321 -0.010586 -46804.300000 0 0 1
19.104667 29.348689 15.071181 38.124459 0.993750 1.164385 0.023833 -0.009301 -575555.000000 0 0 1
20.444267 28.918719 14.484681 38.263120 0.955417 1.182562 0.040077 -0.016446 -475367.000000 0 0 1
21.528367 29.181049 15.326481 39.368836 0.935180 1.170919 0.051828 -0.016431 -349732.000000 0 0 1
22.771967 28.948099 14.716381 39.662662 0.904250 1.190669 0.059167 -0.016447 260062.000000 0 0 1
24.040967 29.250789 15.559981 40.935190 0.882849 1.180878 0.083680 -0.022242 264225.000000 0 0 1
24.216667 28.138739 16.433281 40.599117 0.860171 1.154070 0.083273 -0.016006 -361743.000000 0 0 1
25.203767 28.441059 17.381081 41.787865 0.845672 1.141824 0.083326 -0.022122 -536118.000000 0 0 1
26.093367 27.191549 17.697181 41.634533 0.806005 1.131768 0.055867 -0.006311 -256443.000000 0 0 1
25.567667 25.994009 18.253081 40.774613 0.793667 1.106652 0.061208 -0.003668 -219279.000000 0 0 1
25.491167 26.009989 19.671681 41.391958 0.795472 1.075544 0.091518 -0.006733 -31471.400000 0 0 1
25.109567 24.614309 20.234781 40.568472 0.775438 1.048605 0.097600 -0.006980 33805.800000 0 0 1
26.161867 23.716879 20.148681 40.655910 0.736419 1.052282 0.065475 -0.011119 -279734.000000 0 0 1
25.533267 22.462049 20.421281 39.667620 0.721495 1.030011 0.064577 -0.013013 810813.000000 0 0 1
26.464667 21.222849 20.219281 39.491863 0.675918 1.033301 0.047687 -0.017735 709716.000000 0 0 1
25.724667 20.026049 20.453081 38.485447 0.661478 1.010485 0.034917 -0.005122 748252.000000 0 0 1
26.650567 18.951549 20.283381 38.481547 0.618145 1.015619 0.035403 -0.017168 471376.000000 0 0 1
27.313567 18.419849 21.572881 39.379068 0.593327 0.991033 0.043264 -0.010222 -335279.000000 0 0 1
26.428667 17.870749 22.517181 39.049476 0.594565 0.956196 0.039338 -0.008785 276051.000000 0 0 1
27.095467 17.731349 23.779181 40.174800 0.579464 0.937391 0.044627 0.001068 -171923.000000 0 0 1
26.109867 17.117249 24.756781 39.844994 0.580292 0.900361 0.024264 0.002501 59807.900000 0 0 1
25.708367 15.793449 24.383881 38.793386 0.550890 0.891099 0.026836 -0.011026 88150.300000 0 0 1
24.678867 15.296349 25.205781 38.449397 0.554863 0.855876 0.021717 -0.004796 -240789.000000 0 0 1
24.212967 13.995249 24.521081 37.194330 0.524091 0.850950 0.020472 -0.002318 -728381.000000 0 0 1
23.017167 13.471949 24.984181 36.544393 0.529541 0.818021 0.018319 -0.002500 -492093.000000 0 0 1
22.531367 12.454149 24.145481 35.295504 0.504950 0.817434 0.019460 -0.002049 267638.000000 0 0 1
21.231767 11.863149 24.743481 34.695275 0.509533 0.776792 0.022814 -0.008106 87907.000000 0 0 1
20.008867 12.550349 24.661781 34.147759 0.560208 0.763807 0.038971 -0.011527 71418.800000 0 0 1
18.960367 11.693449 25.079481 33.544189 0.552631 0.726272 0.048252 -0.009568 -407144.000000 0 0 1
17.617267 12.358049 25.288181 33.205144 0.611714 0.705058 0.044699 -0.014923 -698124.000000 0 0 1
17.461567 13.032649 26.513081 34.317630 0.641169 0.687903 0.064001 -0.009558 406136.000000 0 0 1
16.185767 13.650549 26.606781 34.003490 0.700631 0.672170 0.082383 -0.009782 140159.000000 0 0 1
15.823767 14.014949 28.086481 35.151968 0.724852 0.645163 0.065012 -0.003420 -229011.000000 0 0 1
15.447367 12.855149 28.791681 35.111777 0.694063 0.609384 0.071180 -0.002158 -16741.500000 0 0 1
15.414267 13.025049 30.218581 36.337504 0.701584 0.588798 0.051582 -0.005773 654624.000000 0 0 1
16.829667 13.000849 30.908181 37.517668 0.657744 0.602661 0.054762 -0.003492 552591.000000 0 0 1
17.698867 14.005049 30.466281 37.915506 0.669411 0.637593 0.075649 -0.011932 -442507.000000 0 0 1
19.047967 13.622949 30.519081 38.468482 0.620849 0.654499 0.061869 0.002477 -12393.100000 0 0 1
19.982967 14.855849 30.181481 39.127190 0.639280 0.689808 0.057558 0.003336 102534.000000 0 0 1
19.878367 15.299149 28.788081 38.183335 0.655952 0.716752 0.070787 -0.009709 56983.900000 0 0 1
20.305267 14.479749 27.782381 37.334002 0.619466 0.731523 0.057992 -0.007175 -794383.000000 0 0 1
20.147167 15.097749 26.408381 36.486339 0.643100 0.761520 0.061721 -0.005010 240822.000000 0 0 1
21.099067 16.145949 26.164381 37.288566 0.653187 0.793053 0.055110 -0.000997 448371.000000 0 0 1
21.053367 16.544549 24.815181 36.506980 0.666046 0.823391 0.041048 -0.003060 -199590.000000 0 0 1
21.990067 17.695749 24.433781 37.332456 0.677610 0.857286 0.039847 -0.010481 -423938.000000 0 0 1
21.823767 18.095749 23.104381 36.572467 0.692280 0.886997 0.045062 -0.020056 1382080.000000 0 0 1
23.006367 18.724249 22.471381 37.213618 0.683143 0.922476 0.050447 -0.021677 1507780.000000 0 0 1
23.366767 20.117549 22.983281 38.457155 0.710815 0.930250 0.067210 -0.022163 -624730.000000 0 0 1
22.392567 21.027349 22.637881 38.158225 0.753966 0.935690 0.068285 -0.020443 -410058.000000 0 0 1
22.512767 22.140949 23.552981 39.392756 0.777072 0.929916 0.090705 -0.019002 -101565.000000 0 0 1
21.510667 23.247749 23.247381 39.288769 0.824189 0.937624 0.079794 -0.014846 -219378.000000 0 0 1
21.796867 23.966239 22.071681 39.200040 0.832767 0.972721 0.087243 -0.013252 316459.000000 0 0 1
20.721767 24.843649 21.713581 38.962522 0.875613 0.979673 0.086149 -0.009800 153126.000000 0 0 1
21.057467 25.984379 20.693381 39.329644 0.889752 1.016727 0.080549 -0.016134 -144682.000000 0 0 1
21.165267 25.483849 19.350181 38.364366 0.877711 1.042134 0.076437 -0.017124 288892.000000 0 0 1
21.521167 26.588509 18.411781 38.847177 0.890340 1.077020 0.074684 -0.010381 127274.000000 0 0 1
21.650067 26.056869 16.926981 37.870946 0.877509 1.107427 0.061567 -0.004979 -1216800.000000 0 0 1
20.440367 25.740119 16.370781 36.720087 0.899660 1.108699 0.053787 -0.007102 -1222690.000000 0 0 1
20.441867 25.422589 14.979381 35.896515 0.893571 1.140331 0.061196 -0.007205 -238206.000000 0 0 1
19.070567 24.932079 14.434581 34.549272 0.917827 1.139777 0.050954 -0.006236 606955.000000 0 0 1
18.094067 25.936309 14.209381 34.669784 0.961660 1.148508 0.042695 -0.004528 -123366.000000 0 0 1
17.269067 26.121669 15.369681 34.882508 0.986657 1.114515 0.040776 0.001966 -582577.000000 0 0 1
15.911067 26.773429 14.952681 34.547956 1.034589 1.123189 0.031785 0.004704 -261085.000000 0 0 1
15.024167 25.928929 14.223381 33.171366 1.045634 1.127649 0.043594 0.002050 296917.000000 0 0 1
14.419467 24.833179 14.874481 32.339728 1.044724 1.092864 0.062439 -0.012745 -47748.600000 0 0 1
13.404867 25.258319 16.017781 32.775638 1.082883 1.060186 0.058977 -0.013903 -231685.000000 0 0 1
14.025667 25.864479 17.119781 34.040821 1.073903 1.043824 0.056117 -0.009435 174449.000000 0 0 1
13.003267 26.428249 17.909581 34.471588 1.113552 1.024477 0.057790 -0.008350 60779.000000 0 0 1
13.474167 27.588859 18.835781 36.020619 1.116479 1.020527 0.054705 -0.010444 -252756.000000 0 0 1
13.768067 28.704729 17.994681 36.569519 1.123565 1.056333 0.045235 -0.009238 201966.000000 0 0 1
14.140667 29.792189 18.756681 37.938715 1.127639 1.053659 0.037690 -0.006873 -330196.000000 0 0 1
14.180167 31.163869 17.978781 38.671701 1.143776 1.087266 0.022612 -0.008617 -236423.000000 0 0 1
12.939567 31.787169 17.746081 38.636510 1.184211 1.093580 0.035031 -0.002596 -373158.000000 0 0 1
12.987267 33.186764 17.407281 39.661617 1.197779 1.116428 0.037807 -0.001956 -538512.000000 0 0 1
11.650867 33.906221 17.171181 39.752031 1.239816 1.124134 0.049801 -0.006830 -289528.000000 0 0 1
11.727267 -33.334937 16.760681 39.110961 -1.232518 1.127918 0.049460 -0.006428 -467871.000000 0 0 1
12.188667 -32.311807 17.531781 38.729573 -1.210081 1.101037 0.046449 -0.011420 -323708.000000 0 0 1
11.976167 -32.163047 19.053081 39.254427 -1.214344 1.064005 0.053349 -0.020504 105185.000000 0 0 1
12.860667 -33.048847 19.758481 40.595820 -1.199686 1.062474 0.063375 -0.013762 390625.000000 0 0 1
12.757867 -33.052407 21.130281 41.251831 -1.202426 1.033021 0.059519 -0.010971 -681268.000000 0 0 1
13.862467 -33.848067 21.825381 42.593508 -1.182085 1.032806 0.063191 -0.009603 287525.000000 0 0 1
15.059667 -33.066207 21.673681 42.307400 -1.143428 1.032947 0.065679 -0.008599 853678.000000 0 0 1
16.164867 -33.514257 22.495381 43.480461 -1.121386 1.027024 0.065389 -0.008648 616233.000000 0 0 1
17.416567 -32.656707 22.312881 43.216455 -1.080847 1.028265 0.061336 -0.008645 -166269.000000 0 0 1
17.172467 -31.338787 22.621981 42.293820 -1.069519 1.006434 0.072787 -0.014438 634036.000000 0 0 1
18.312867 -30.491737 22.349681 42.007325 -1.029947 1.009785 0.055876 -0.013718 686548.000000 0 0 1
-4.711233 13.308503 18.796851 23.508159 -1.230561 0.644187 0.026954 0.012076 -436591.000000 0 1 0
-4.357533 14.259103 17.815451 23.231453 -1.274213 0.696850 0.029262 -0.002476 1002360.000000 0 1 0
-5.584133 14.958103 17.510751 23.697126 -1.213501 0.739301 0.025288 -0.002423 1125870.000000 0 1 0
-5.287833 16.465403 17.349051 24.496127 -1.260052 0.783799 0.040692 -0.011965 116474.000000 0 1 0
-4.953533 17.108903 18.569351 25.730776 -1.288973 0.764572 0.042143 -0.007011 272705.000000 0 0 1
-4.596033 18.477603 18.332851 26.431775 -1.327008 0.804334 0.040166 -0.000685 -478669.000000 0 0 1
-4.007533 19.144003 19.543751 27.649799 -1.364440 0.785787 0.029595 -0.002005 -362611.000000 0 0 1
-4.970133 19.561303 20.487751 28.759255 -1.321981 0.777901 0.019873 0.001495 79492.900000 0 0 1
-4.347533 20.054703 21.680551 29.851942 -1.357316 0.757917 0.012939 -0.002764 -460679.000000 0 0 1
-5.230833 20.463003 22.851451 31.117277 -1.320532 0.746065 -0.007122 0.000177 -436958.000000 0 0 1
-5.726533 19.362603 23.562851 31.030815 -1.283241 0.708503 -0.006170 -0.003639 -142208.000000 0 0 1
-6.458933 19.609103 24.741701 32.224005 -1.252604 0.695391 -0.028455 -0.004672 -245749.000000 0 0 1
-5.690733 20.156403 25.940211 33.340059 -1.295629 0.679242 -0.033213 0.001508 -740868.000000 0 0 1
-5.186733 21.465003 25.647381 33.844301 -1.333704 0.710854 -0.025919 -0.002771 -453345.000000 0 0 1
-4.271633 21.974403 26.537601 34.718374 -1.378799 0.700736 -0.025247 0.006739 -1378050.000000 0 0 1
-2.860033 21.553503 26.258791 34.091896 -1.438872 0.691586 -0.003950 0.007010 -1705090.000000 0 0 1
-2.438733 20.334103 26.799001 33.728469 -1.451433 0.652528 0.003922 0.008509 269311.000000 0 0 1
-1.105833 20.104903 26.350771 33.163129 -1.515849 0.652480 0.014467 0.007753 559995.000000 0 0 1
-0.409233 18.822303 26.905031 32.837893 -1.549058 0.610557 0.017054 0.009979 76760.800000 0 0 1
-1.026233 17.668603 26.331771 31.726879 -1.512779 0.591776 0.020840 0.008308 7072.760000 0 0 1
-0.468633 16.425803 26.741061 31.386477 -1.542274 0.551016 0.017734 0.005334 -39514.200000 0 0 1
0.938367 16.002903 26.234451 30.744428 1.512226 0.548500 0.027564 0.004365 113742.000000 0 0 1
1.050467 15.956603 24.794641 29.504082 1.505058 0.572812 0.024542 0.000509 -194451.000000 0 0 1
0.921067 14.630103 24.327731 28.402936 1.507922 0.542304 0.028565 -0.000168 -228969.000000 0 0 1
1.265267 14.455303 22.834851 27.055260 1.483489 0.566084 0.028765 -0.008558 156110.000000 0 0 1
2.639867 14.182803 22.649751 26.853901 1.386771 0.567135 0.029875 -0.007767 -44350.200000 0 0 1
2.758867 13.650603 21.339551 25.481890 1.371377 0.578214 0.027975 -0.013536 -181922.000000 0 0 1
4.201067 13.693903 20.829551 25.279282 1.273128 0.602402 0.034569 -0.015944 -190249.000000 0 0 1
4.529467 14.892403 20.154251 25.465536 1.275540 0.657648 0.031584 -0.014495 6731.030000 0 0 1
5.925467 15.024303 19.978151 25.689829 1.195134 0.679849 0.040542 -0.010527 142856.000000 0 0 1
6.294067 16.113403 18.881251 25.607785 1.198410 0.741695 0.039539 -0.011659 -105474.000000 0 0 1
6.004567 15.776303 17.527351 24.334226 1.207119 0.766597 0.040018 -0.020061 185953.000000 0 1 0
6.556567 16.705903 16.612051 24.454774 1.196798 0.823992 0.033769 -0.009395 5056.410000 0 1 0
6.625167 15.965903 15.221951 23.032817 1.177463 0.848804 0.031510 -0.014766 359248.000000 0 1 0
7.750067 15.114803 15.017251 22.672420 1.097003 0.846835 0.033972 -0.014172 215021.000000 0 1 0
7.872767 13.895403 15.697451 22.393585 1.055318 0.794026 0.044099 -0.013764 -321994.000000 0 1 0
8.894767 13.004603 14.972351 21.734945 0.970910 0.810880 0.048558 -0.020995 362555.000000 0 1 0
10.207667 13.560503 15.065651 22.694879 0.925538 0.844862 0.048494 -0.018232 423184.000000 0 1 0
11.146967 12.713303 14.396451 22.206772 0.850950 0.865459 0.056594 -0.007011 -278934.000000 0 1 0
12.541967 13.308003 14.414151 23.284579 0.815023 0.903273 0.052222 -0.001437 -1396590.000000 0 1 0
13.273967 13.188703 15.660451 24.400610 0.782176 0.873946 0.057007 -0.001745 1736120.000000 0 1 0
14.569267 13.863103 15.651851 25.483908 0.760567 0.909443 0.046539 0.005531 1646960.000000 0 0 1
15.613567 13.378203 14.617551 25.227615 0.708447 0.952771 0.039236 0.001866 -1046280.000000 0 0 1
16.894867 13.943103 14.702451 26.381977 0.689970 0.979676 0.045364 -0.003341 907352.000000 0 0 1
17.904967 13.312603 13.889051 26.281533 0.639337 1.013997 0.049287 -0.001517 109073.000000 0 0 1
19.288367 13.934503 13.902651 27.558940 0.625622 1.042029 0.044766 -0.009772 155997.000000 0 0 1
20.082667 13.466403 15.052451 28.482166 0.590685 1.013979 0.020561 -0.004746 107247.000000 0 0 1
21.416267 13.845203 14.918951 29.545240 0.573897 1.041469 0.027856 -0.023888 -548030.000000 0 0 1
22.294167 13.572103 16.148251 30.691983 0.546846 1.016742 0.029675 -0.013558 -114281.000000 0 0 1
22.497267 12.187703 16.428351 30.406542 0.496481 1.000015 0.026036 -0.006152 427062.000000 0 0 1
23.338567 11.946103 17.550451 31.550220 0.473091 0.980905 0.016399 -0.008798 -325368.000000 0 0 1
23.748267 10.473503 17.804051 31.474730 0.415363 0.969561 0.021343 -0.003830 -234334.000000 0 0 1
22.707867 9.638003 18.286151 30.707029 0.401392 0.932904 0.004957 -0.008146 453038.000000 0 0 1
22.753167 8.345003 17.709751 30.016344 0.351529 0.939733 -0.001285 0.000977 319632.000000 0 0 1
21.839467 7.344003 18.512951 29.557165 0.324393 0.893942 0.033925 -0.002093 364873.000000 0 0 1
21.695167 6.051603 18.007251 28.836838 0.272023 0.896365 0.051784 -0.018947 742989.000000 0 0 1
20.503867 5.517803 18.598651 28.227017 0.262882 0.851447 0.040983 -0.014332 302292.000000 0 0 1
20.053667 4.146403 18.209451 27.403034 0.203892 0.843965 0.067201 -0.014067 -655588.000000 0 0 1
19.545767 4.165203 16.857051 26.144714 0.209959 0.870088 0.075707 -0.024254 628264.000000 0 0 1
19.159167 2.890003 16.332651 25.341295 0.149713 0.870418 0.057542 -0.024063 147706.000000 0 0 1
18.036667 2.071203 17.000251 24.872068 0.114332 0.818239 0.074158 -0.017895 -5261.830000 0 1 0
18.557667 1.334303 18.102351 25.958861 0.071777 0.799106 0.078676 -0.023260 -60761.400000 0 0 1
17.499567 0.595003 18.619151 25.558983 0.033988 0.754699 0.070187 -0.016669 -496914.000000 0 0 1
17.758667 -0.329497 19.841651 26.630244 -0.018552 0.730142 0.070624 -0.016931 -350680.000000 0 0 1
18.635667 -1.417497 19.644251 27.114460 -0.075917 0.760497 0.076165 -0.014116 17076.800000 0 0 1
18.136867 -2.635897 20.223351 27.292449 -0.144323 0.736257 0.059190 -0.007640 112393.000000 0 0 1
18.236267 -3.875497 19.288651 26.825975 -0.209401 0.768392 0.059952 -0.004252 -505508.000000 0 0 1
17.498667 -3.698497 18.132351 25.468890 -0.208293 0.778538 0.049218 -0.013499 29685.800000 0 0 1
17.288067 -4.989097 17.613451 25.179396 -0.280953 0.796073 0.053057 -0.014510 -284463.000000 0 0 1
16.770567 -5.069297 16.155651 23.831801 -0.293541 0.825890 0.027165 -0.012549 443793.000000 0 1 0
15.383967 -4.707297 16.073951 22.741965 -0.296941 0.785836 0.011936 -0.002669 703344.000000 0 1 0
14.880167 -4.680997 14.730851 21.455280 -0.304778 0.814016 0.004639 -0.007960 527217.000000 0 1 0
15.534867 -3.648397 13.716051 21.042170 -0.230672 0.860793 0.011766 -0.006027 -19590.500000 0 1 0
15.001267 -2.313697 13.868451 20.560280 -0.153028 0.830473 0.012984 -0.001901 236884.000000 0 1 0
15.603867 -1.326697 13.087151 20.408682 -0.084820 0.874665 0.027397 -0.011684 591432.000000 0 1 0
14.690567 -0.020697 13.275051 19.800004 -0.001409 0.835972 0.028100 -0.002661 577355.000000 0 1 0
15.230067 1.212303 12.875951 19.980358 0.079432 0.870518 0.036982 -0.001850 -77051.100000 0 1 0
15.861467 1.939603 13.884651 21.169121 0.121680 0.855433 0.047272 -0.007697 -275615.000000 0 1 0
16.273267 3.321303 13.371751 21.322616 0.201331 0.892951 0.055207 -0.008945 -413160.000000 0 1 0
15.243467 4.265203 13.363651 20.715752 0.272828 0.869647 0.062463 -0.008565 59069.000000 0 1 0
15.410467 5.320703 12.454151 20.515804 0.332451 0.918451 0.063125 -0.016591 -802068.000000 0 1 0
14.277867 6.305403 12.546751 20.025897 0.415864 0.893708 0.069016 -0.022890 -876630.000000 0 1 0
14.289967 7.489403 11.813151 19.996120 0.482743 0.938781 0.043702 -0.026635 679398.000000 0 1 0
13.304867 8.517103 12.125951 19.914798 0.569419 0.916134 0.035552 -0.018221 49218.500000 0 1 0
13.701367 9.431403 13.264751 21.275160 0.602868 0.897604 0.059600 -0.024481 -307050.000000 0 1 0
13.412967 8.868903 14.482651 21.640524 0.584221 0.837614 0.075093 -0.023527 698712.000000 0 1 0
13.904267 9.640903 15.634151 23.036977 0.606267 0.824867 0.088063 -0.021060 133494.000000 0 1 0
13.521567 8.983603 17.009151 23.512743 0.586425 0.762080 0.084784 -0.022633 -837352.000000 0 1 0
12.180367 9.142103 17.310251 23.056109 0.643860 0.721542 0.083323 -0.029175 -1061840.000000 0 1 0
11.699167 8.661703 18.586751 23.608534 0.637309 0.664396 0.087898 -0.023563 -222762.000000 0 1 0
12.367167 8.936103 19.934951 25.103844 0.625711 0.653272 0.099064 -0.024574 195665.000000 0 0 1
13.680267 8.365103 19.960551 25.603676 0.548812 0.676774 0.100224 -0.024561 439212.000000 0 0 1
14.365667 8.524103 21.207051 26.995772 0.535528 0.667181 0.080032 -0.016914 182927.000000 0 0 1
15.833467 8.077503 20.985351 27.501448 0.471738 0.702757 0.065466 -0.013459 -158973.000000 0 0 1
16.594467 9.149203 20.492151 27.910795 0.503872 0.746306 0.081968 -0.010384 111176.000000 0 0 1
17.715567 8.709603 19.737651 27.915468 0.456934 0.785477 0.062728 -0.010833 116309.000000 0 0 1
18.411267 9.869103 18.966651 28.215382 0.492059 0.833607 0.059377 -0.006300 -141919.000000 0 0 1
19.179467 10.637603 19.863451 29.589985 0.506395 0.834849 0.038536 -0.005522 2627.610000 0 0 1
19.858967 11.612403 19.102351 29.901944 0.529126 0.877816 0.031813 -0.006910 -343982.000000 0 0 1
20.658467 12.558103 20.030951 31.396133 0.546202 0.878889 0.013701 -0.001659 -989367.000000 0 0 1
19.916167 13.507503 20.732851 31.764090 0.595957 0.859636 0.029206 -0.003454 -50171.100000 0 0 1
20.659467 14.379103 21.574251 33.151477 0.608040 0.862188 0.023431 -0.004897 -383697.000000 0 0 1
21.979567 15.094603 21.162551 34.041180 0.601782 0.899917 0.004905 -0.001214 -67789.200000 0 0 1
23.038367 14.184603 21.159751 34.346824 0.551880 0.907064 -0.020633 0.003693 -622025.000000 0 0 1
24.274467 14.797603 20.921651 35.297794 0.547445 0.936367 0.002480 -0.003786 214649.000000 0 0 1
25.589367 13.996603 20.782551 35.813894 0.500514 0.951708 0.000268 -0.012229 244754.000000 0 0 1
25.748067 13.237203 19.595951 34.959802 0.474868 0.975773 0.005250 -0.019299 378849.000000 0 0 1
26.902867 12.401403 19.623751 35.533795 0.431939 0.985728 0.023117 -0.022738 277896.000000 0 0 1
27.180467 11.723203 18.256651 34.778104 0.407203 1.018144 0.044795 -0.019120 -335003.000000 0 0 1
27.686167 12.595703 17.216851 34.951330 0.426959 1.055727 0.047840 -0.035147 475690.000000 0 0 1
27.932567 11.976203 15.972451 34.333320 0.405046 1.086916 0.071000 -0.036763 -261210.000000 0 0 1
26.652667 11.711203 15.159251 32.822550 0.414005 1.090711 0.059111 -0.043171 -16734.000000 0 0 1
26.322367 12.738003 14.244051 32.527168 0.450704 1.117521 0.076689 -0.044934 895541.000000 0 0 1
25.136367 12.453003 13.461151 31.114575 0.459975 1.123387 0.071805 -0.037332 814299.000000 0 0 1
24.681467 13.562603 12.541151 30.828549 0.502464 1.151845 0.064390 -0.040642 -202367.000000 0 0 1
24.337167 14.721303 13.264051 31.383905 0.544007 1.134442 0.049700 -0.038276 198443.000000 0 0 1
24.112367 15.847003 12.427851 31.416321 0.581430 1.164091 0.034919 -0.029347 -559785.000000 0 0 1
23.198767 16.886203 13.016951 31.508215 0.629201 1.144909 0.034892 -0.026269 -1874800.000000 0 0 1
21.867067 16.557903 13.063451 30.380693 0.648098 1.126313 0.051988 -0.032736 -1078740.000000 0 0 1
21.148267 17.751103 13.327451 30.658959 0.698287 1.121091 0.044911 -0.034112 -896360.000000 0 0 1
20.409467 18.300503 12.049351 29.943974 0.730971 1.156663 0.056001 -0.023027 -598612.000000 0 0 1
19.361267 17.521603 11.578551 28.564454 0.735561 1.153437 0.055004 -0.021074 -368670.000000 0 0 1
18.168467 17.657603 12.330051 28.176484 0.771140 1.117868 0.057653 -0.014515 -857696.000000 0 0 1
16.963567 17.173903 11.519751 26.747153 0.791560 1.125538 0.055210 -0.009426 -552080.000000 0 0 1
16.828567 15.811803 11.424351 25.762949 0.754258 1.111362 0.053683 -0.008699 -953354.000000 0 0 1
15.667267 15.348603 10.876551 24.481467 0.775124 1.110429 0.056123 -0.009688 -1089090.000000 0 1 0
15.670367 14.017603 10.159951 23.351192 0.729784 1.120654 0.060167 -0.014383 -315406.000000 0 1 0
15.806267 12.827203 10.970351 23.124095 0.681730 1.076500 0.055171 -0.008647 501896.000000 0 1 0
16.328967 11.729703 10.213651 22.550826 0.622927 1.100762 0.059087 -0.009127 -73695.600000 0 1 0
16.584267 10.461803 10.978951 22.472752 0.562779 1.060375 0.056163 -0.014588 -150413.000000 0 1 0
17.537067 9.656703 10.289351 22.509361 0.503338 1.096048 0.067519 -0.010510 621462.000000 0 1 0
18.022367 8.475803 10.877351 22.692767 0.439601 1.070904 0.070337 -0.009596 343789.000000 0 1 0
19.263667 8.632503 11.795751 24.181578 0.421292 1.061230 0.056040 -0.009342 -445791.000000 0 1 0
18.986367 9.279503 13.010851 24.816799 0.454604 1.018932 0.048685 -0.006104 68306.100000 0 1 0
20.004167 9.262603 14.003951 26.116530 0.433640 1.004855 0.039291 -0.007319 -1023090.000000 0 0 1
19.491667 9.467503 15.478851 26.629936 0.452159 0.950523 0.027240 0.008470 214939.000000 0 0 1
18.879167 8.338003 16.113651 26.183868 0.415889 0.907898 0.041323 -0.008852 748805.000000 0 0 1
17.671467 7.876003 15.520051 24.802906 0.419264 0.894723 0.057826 -0.020657 -441975.000000 0 1 0
17.052967 6.617603 16.069551 24.348035 0.370173 0.849986 0.057561 -0.015688 -649424.000000 0 1 0
16.423567 6.818303 17.324451 24.826586 0.393501 0.798449 0.080826 -0.016218 362675.000000 0 1 0
15.761867 5.676403 17.911751 24.525269 0.345675 0.751979 0.081695 -0.008069 910835.000000 0 1 0
14.363567 5.362303 17.278951 23.100400 0.357303 0.725762 0.085850 -0.031679 -18043.200000 0 1 0
13.759267 4.143603 17.594851 22.717078 0.292511 0.684839 0.074132 -0.025182 -64433.400000 0 1 0
13.139067 3.584503 16.487651 21.385190 0.266331 0.690411 0.058203 -0.023761 -370293.000000 0 1 0
13.019967 2.065103 16.764451 21.326767 0.157300 0.666362 0.041918 -0.012178 507243.000000 0 1 0
14.250367 1.329003 16.959651 22.191641 0.092992 0.700940 0.041663 -0.009262 711246.000000 0 1 0
14.228767 -0.064497 16.746251 21.974960 -0.004533 0.704307 0.038148 -0.000670 -548637.000000 0 1 0
13.336267 -0.980197 17.586151 22.092747 -0.073367 0.650114 0.039820 -0.002367 415238.000000 0 1 0
11.962467 -0.710097 17.297851 21.043300 -0.059291 0.605861 0.035948 -0.011439 147194.000000 0 1 0
11.125367 -1.451697 18.173551 21.357883 -0.129752 0.553089 0.024635 -0.010617 126301.000000 0 1 0
-25.624533 14.319903 28.610221 40.990499 -0.509602 0.798235 0.077806 -0.018834 -444883.000000 0 0 1
-24.649733 14.215403 29.616051 41.070640 -0.523108 0.765407 0.067524 -0.014392 153677.000000 0 0 1
-24.238933 12.883503 29.755241 40.483143 -0.488545 0.745125 0.060707 -0.012385 -23320.300000 0 0 1
-22.978233 12.845803 30.646691 40.400910 -0.509759 0.709689 0.056610 -0.016263 55726.900000 0 0 1
-23.379833 13.111803 31.973861 41.723659 -0.511110 0.697696 0.057687 -0.020630 114855.000000 0 0 1
-22.259033 13.274403 32.805823 41.807850 -0.537739 0.668615 0.038141 -0.014447 -195532.000000 0 0 1
-22.561233 13.482903 -34.107849 43.059764 -0.538663 2.485046 0.043656 -0.013365 -185432.000000 0 0 1
-23.131733 12.357103 -33.516939 42.557729 -0.490636 2.477642 0.027425 -0.010965 2575.630000 0 0 1
-23.547733 12.687003 -32.180479 41.845418 -0.494187 2.448122 0.023101 -0.013352 -75055.300000 0 0 1
-24.440033 11.610403 -31.534459 41.551640 -0.443495 2.432453 0.018001 -0.020460 -267408.000000 0 0 1
-23.838333 10.533303 -30.831769 40.370962 -0.416068 2.439839 0.026741 -0.022869 96325.800000 0 0 1
-23.518233 9.368603 -31.617959 40.503992 -0.379087 2.466443 0.017778 -0.018096 -205199.000000 0 0 1
-22.674333 8.340103 -30.896589 39.220937 -0.352462 2.477956 0.017385 -0.011906 -225094.000000 0 0 1
-23.442133 7.570203 -30.000469 38.818420 -0.312360 2.454102 0.021616 -0.016466 996748.000000 0 0 1
-22.541533 6.678903 -29.271589 37.544033 -0.288053 2.464919 0.015068 -0.008322 513768.000000 0 0 1
-23.224033 5.908403 -28.129939 36.953463 -0.249124 2.435998 0.013702 -0.007436 -400137.000000 0 0 1
-24.076133 4.885803 -28.513299 37.636943 -0.200213 2.430406 0.030366 -0.012365 -208207.000000 0 0 1
-24.305933 3.962403 -27.495419 36.911747 -0.161600 2.411176 0.037634 -0.005630 -166601.000000 0 0 1
-25.209153 2.735503 -27.833219 37.651991 -0.108089 2.402712 0.035629 -0.002914 624669.000000 0 0 1
-26.560533 2.916003 -28.226269 38.867560 -0.109349 2.383599 0.037163 0.000442 428779.000000 0 0 1
-26.753203 3.511003 -29.486729 39.969091 -0.130491 2.400510 0.031258 -0.003300 -448902.000000 0 0 1
-28.211783 3.544403 -29.996589 41.331137 -0.124981 2.382938 0.050319 -0.005822 45204.000000 0 0 1
-29.143283 4.406703 -29.335539 41.585140 -0.150071 2.353831 0.041761 0.007426 228373.000000 0 0 1
-30.384903 4.240603 -29.994479 42.905639 -0.138667 2.344907 0.042720 -0.007720 93406.700000 0 0 1
-30.801673 5.464403 -30.814399 43.910477 -0.175579 2.348654 0.053116 -0.030835 -577731.000000 0 0 1
-29.850493 5.666903 -31.834079 44.006526 -0.187610 2.379503 0.061714 -0.027513 57152.800000 0 0 1
-30.026353 6.825103 -32.604829 44.846837 -0.223506 2.384777 0.059813 -0.026842 -637026.000000 0 0 1
-29.657043 8.198903 -31.991939 44.387457 -0.269720 2.375670 0.047721 -0.030037 449813.000000 0 0 1
-28.254923 8.277603 -31.669289 43.241222 -0.284987 2.392617 0.035988 -0.034142 1041210.000000 0 0 1
-27.807213 7.708703 -30.431899 41.937640 -0.270429 2.382770 0.027441 -0.032308 -875910.000000 0 0 1
-27.904583 8.759303 -29.251929 41.365040 -0.304162 2.356278 0.018350 -0.026590 -269672.000000 0 0 1
-29.202593 8.891603 -28.735489 41.923506 -0.295562 2.325986 0.028603 -0.029458 -56818.300000 0 0 1
-29.654673 7.746303 -28.023389 41.529690 -0.255508 2.311462 0.033221 -0.018066 -167502.000000 0 0 1
-31.056583 7.971403 -27.372329 42.158024 -0.251250 2.277433 0.023830 -0.014769 101822.000000 0 0 1
-30.952043 8.829803 -26.247119 41.531984 -0.277892 2.254894 0.006299 -0.011026 48452.800000 0 0 1
-30.801723 8.076703 -25.005619 40.487779 -0.256443 2.236495 0.014658 -0.006051 43138.900000 0 0 1
-30.156173 8.854103 -23.786919 39.415827 -0.285583 2.218663 0.016428 0.003505 -101678.000000 0 0 1
-30.837623 9.972503 -23.353419 39.947365 -0.312773 2.195189 0.021292 0.000071 305328.000000 0 0 1
-29.985953 10.707603 -22.459219 38.964428 -0.342975 2.185117 0.019565 0.001794 619538.000000 0 0 1
-30.762963 11.829103 -21.670019 39.444611 -0.367094 2.152417 0.016863 0.003121 257302.000000 0 0 1
-31.372933 11.357303 -20.482719 39.150875 -0.347333 2.121367 0.011994 0.004127 691759.000000 0 0 1
-32.114563 12.309503 -19.657419 39.614179 -0.366027 2.090038 0.025957 -0.000695 717287.000000 0 0 1
-31.258943 13.099803 -18.600419 38.661376 -0.396840 2.072718 0.022165 -0.001083 -29525.300000 0 0 1
-30.719123 12.353703 -17.516019 37.457835 -0.382359 2.057392 0.041970 0.001336 409685.000000 0 0 1
-31.594313 12.014703 -16.419019 37.578423 -0.363392 2.022976 0.042695 0.003745 191884.000000 0 0 1
-32.165873 13.172003 -15.515119 38.063946 -0.388671 1.990628 0.040138 0.002514 -226309.000000 0 0 1
-33.050253 14.031003 -16.154719 39.372112 -0.401477 1.993589 0.027357 -0.000170 -275957.000000 0 0 1
-33.573513 14.980503 -15.299219 39.820376 -0.419689 1.965144 0.022762 0.006340 -34103.300000 0 0 1
-34.391706 16.074903 -16.037919 41.211731 -0.437234 1.970515 0.029442 -0.000938 166047.000000 0 0 1
-35.552843 15.545003 -16.649919 42.224064 -0.412189 1.976127 0.029035 -0.004186 606096.000000 0 0 1
35.977191 16.548303 -17.239019 43.190142 0.431111 1.981378 0.034806 -0.010061 -769007.000000 0 0 1
35.738221 16.347703 -18.775619 43.554468 0.429015 2.016490 0.032786 -0.009867 -101156.000000 0 0 1
34.716381 15.469603 -19.190719 42.577217 0.419188 2.038376 0.065224 -0.013634 -105960.000000 0 0 1
33.446421 15.942203 -18.829619 41.561658 0.444793 2.040983 0.097961 -0.026549 -1282890.000000 0 0 1
32.354911 14.859503 -18.962919 40.339030 0.430533 2.060187 0.112485 -0.030854 -313234.000000 0 0 1
32.076021 14.526403 -20.306419 40.647732 0.425242 2.093900 0.103231 -0.026345 973464.000000 0 0 1
30.976111 13.592103 -20.446619 39.526307 0.413495 2.114479 0.074634 -0.022786 738987.000000 0 0 1
31.318341 12.099803 -20.119919 39.141472 0.368683 2.110674 0.064139 -0.006069 -135425.000000 0 0 1
31.528721 11.879803 -18.709019 38.538518 0.360342 2.077689 0.073269 -0.009496 326334.000000 0 0 1
32.194731 10.642003 -18.467519 38.610907 0.319244 2.069512 0.064203 -0.009702 26281.600000 0 0 1
32.601021 10.331503 -16.987419 38.185585 0.306895 2.031820 0.050255 -0.003837 -42443.700000 0 0 1
31.506121 9.789003 -16.267719 36.784493 0.301246 2.028895 0.057998 -0.009027 297394.000000 0 0 1
31.635131 9.876903 -14.889919 36.332415 0.302623 1.993058 0.030373 -0.004100 -79901.800000 0 0 1
30.931111 11.093703 -14.201719 35.797942 0.344367 1.978736 0.059551 -0.016767 1154310.000000 0 0 1
29.480991 11.062403 -14.169819 34.529543 0.358980 1.993654 0.065982 -0.012725 1497080.000000 0 0 1
28.869041 12.147403 -13.514319 34.111841 0.398288 1.978145 0.078738 -0.014148 307883.000000 0 0 1
27.321381 12.080403 -13.435019 32.755056 0.416315 1.993433 0.090544 -0.016324 -103048.000000 0 0 1
26.924581 11.026303 -12.545219 31.684301 0.388691 1.977892 0.075596 -0.020654 322201.000000 0 0 1
25.536981 10.714103 -12.522119 30.392974 0.397247 1.995452 0.082770 -0.007856 451455.000000 0 0 1
24.998781 9.942703 -13.795219 30.234160 0.378546 2.044606 0.067008 -0.013464 -896609.000000 0 0 1
25.546481 8.641503 -13.850419 30.317196 0.326183 2.045247 0.054773 -0.015252 541995.000000 0 0 1
26.728081 8.634703 -14.645019 31.676884 0.312474 2.051412 0.068054 -0.020744 -185125.000000 0 0 1
27.715301 7.513503 -14.277019 32.069049 0.264733 2.032190 0.072272 -0.013663 -492867.000000 0 0 1
27.344581 6.132003 -14.361919 31.489558 0.220600 2.044387 0.061836 -0.020615 48661.300000 0 0 1
26.383081 5.753703 -13.411819 30.150438 0.214721 2.031781 0.076117 -0.021115 -266868.000000 0 0 1
26.081781 4.262203 -13.163219 29.524498 0.161985 2.032909 0.071579 -0.020818 -346674.000000 0 0 1
25.197781 4.026503 -12.106819 28.243866 0.158456 2.013798 0.073908 -0.020722 47871.800000 0 0 1
24.749181 2.707503 -12.092319 27.678091 0.108964 2.022936 0.055969 -0.018566 -113626.000000 0 0 1
23.686181 2.480903 -11.002719 26.234517 0.104360 2.003579 0.044763 -0.007581 30936.200000 0 0 1
24.371881 2.253303 -9.769319 26.353473 0.092193 1.950562 0.050889 -0.006330 1164520.000000 0 0 1
23.437881 2.085903 -8.669719 25.076867 0.088763 1.923808 0.051844 -0.000829 -41079.800000 0 0 1
24.050381 1.654103 -7.312719 25.191918 0.068668 1.865316 0.047337 -0.001768 -215750.000000 0 0 1
24.328381 0.277303 -7.074019 25.337497 0.011398 1.853749 0.030934 -0.010058 555927.000000 0 0 1
24.923081 -0.508697 -8.126619 26.219471 -0.020408 1.885933 0.029303 -0.005352 -293290.000000 0 0 1
25.319681 -1.985497 -7.709719 26.541820 -0.078257 1.865519 0.049043 -0.017062 29526.500000 0 0 1
26.428281 -2.146597 -6.833519 27.381725 -0.081046 1.823027 0.058537 -0.021969 581703.000000 0 0 1
26.402381 -3.480897 -6.368419 27.381730 -0.131084 1.805525 0.068906 -0.029026 -1334110.000000 0 0 1
27.689041 -3.895597 -5.740419 28.544896 -0.139774 1.773279 0.062375 -0.030430 -1765300.000000 0 0 1
28.703651 -4.173497 -6.646419 29.757227 -0.144388 1.796051 0.060187 -0.026532 78267.800000 0 0 1
29.812521 -4.669797 -5.878719 30.743336 -0.155376 1.763201 0.076477 -0.018045 -5149.880000 0 0 1
31.057281 -4.882497 -6.745719 32.154287 -0.155933 1.782159 0.088975 -0.018108 -411937.000000 0 0 1
30.797101 -5.986397 -7.630119 32.288033 -0.191988 1.809367 0.072645 -0.015854 14658.000000 0 0 1
31.823911 -6.079697 -8.574019 33.514740 -0.188767 1.829501 0.070413 -0.021453 -1180510.000000 0 0 1
31.571671 -7.027397 -9.766819 33.786764 -0.219015 1.864054 0.058574 -0.016822 266633.000000 0 0 1
30.403791 -6.603397 -10.472919 32.827997 -0.213868 1.895496 0.057567 -0.015974 1184870.000000 0 0 1
29.217021 -7.179897 -9.894619 31.671576 -0.240969 1.888529 0.051351 -0.019977 -13421.600000 0 0 1
28.044791 -6.250397 -9.434419 30.242123 -0.219288 1.888055 0.042786 -0.012855 -664062.000000 0 0 1
27.359091 -5.778597 -10.569419 29.893555 -0.208154 1.932180 0.028766 -0.007289 136674.000000 0 0 1
26.284181 -4.909097 -10.330819 28.665017 -0.184643 1.939491 0.036862 -0.004361 1084730.000000 0 0 1
24.925181 -5.554797 -9.814919 27.357870 -0.219276 1.937736 0.056098 -0.005163 -157906.000000 0 0 1
25.041881 -6.224997 -8.535919 27.179189 -0.243645 1.890264 0.050206 -0.014085 1093140.000000 0 0 1
23.885681 -7.002497 -8.104019 26.177010 -0.285176 1.885553 0.066451 -0.017373 798386.000000 0 0 1
22.699881 -6.167797 -7.521819 24.696236 -0.265305 1.880287 0.086765 -0.016898 -196381.000000 0 1 0
21.939381 -5.543297 -8.509319 24.175878 -0.247485 1.930477 0.063521 -0.011604 102648.000000 0 1 0
21.587181 -4.244097 -8.045519 23.425394 -0.194127 1.921387 0.045092 -0.009579 -75067.900000 0 1 0
21.465681 -3.268897 -9.226919 23.592312 -0.151124 1.972621 0.037254 -0.001158 -80740.300000 0 1 0
22.739681 -2.876997 -9.684519 24.882928 -0.125850 1.970563 0.027391 0.001992 473470.000000 0 1 0
22.550381 -2.081597 -10.800119 25.089745 -0.092048 2.015798 0.031762 0.000118 -236460.000000 0 0 1
23.750481 -2.017097 -11.778219 26.587224 -0.084725 2.029742 0.028938 -0.001372 43801.500000 0 0 1
24.759081 -1.116897 -11.318919 27.246605 -0.045080 1.999206 0.027912 -0.007330 220752.000000 0 0 1
25.856981 -1.174097 -12.195719 28.612891 -0.045376 2.011119 0.034566 -0.003947 -480251.000000 0 0 1
27.021881 -0.346997 -11.610619 29.412734 -0.012841 1.976590 0.045840 -0.002047 909427.000000 0 0 1
28.271191 -0.547297 -12.352519 30.856839 -0.019356 1.982659 0.045605 -0.005264 1103020.000000 0 0 1
29.242671 0.404403 -12.086419 31.644571 0.013828 1.962694 0.050328 -0.006459 -401608.000000 0 0 1
29.296931 1.642403 -13.011019 32.098197 0.056002 1.988158 0.062256 -0.013285 -461823.000000 0 0 1
29.690411 1.327003 -14.286519 32.975537 0.044665 2.018888 0.048982 -0.011691 405052.000000 0 0 1
29.768871 2.447103 -15.102719 33.470376 0.082019 2.038935 0.046872 -0.013186 -251254.000000 0 0 1
30.126181 2.218503 -16.585519 34.461398 0.073508 2.072909 0.032827 -0.017388 312441.000000 0 0 1
29.069301 1.563803 -17.299919 33.863800 0.053744 2.106990 0.038091 -0.008700 591791.000000 0 0 1
29.444441 1.516403 -18.684519 34.905384 0.051455 2.135648 0.015396 -0.008227 320481.000000 0 0 1
28.355541 0.841203 -19.635319 34.500581 0.029658 2.176244 0.014031 -0.003993 392612.000000 0 0 1
28.292161 -0.611297 -19.503219 34.368526 -0.021603 2.174230 0.021466 -0.002234 200950.000000 0 0 1
27.618541 -1.205597 -20.594319 34.472645 -0.043624 2.211064 0.012916 -0.005991 -228878.000000 0 0 1
27.520101 -2.760297 -20.399519 34.367362 -0.099967 2.206287 0.030335 -0.010351 -39614.100000 0 0 1
26.281881 -3.332697 -19.997319 33.192422 -0.126133 2.217384 0.033421 -0.002882 67064.000000 0 0 1
26.289781 -4.721097 -19.814519 33.257428 -0.177685 2.209048 0.039327 -0.005966 -92146.400000 0 0 1
27.096781 -5.341497 -18.627119 33.312710 -0.194631 2.164168 0.038792 -0.001384 958385.000000 0 0 1
28.511401 -5.328697 -18.860119 34.597674 -0.184765 2.147337 0.031795 -0.004638 834801.000000 0 0 1
29.243771 -5.628397 -17.665319 34.625720 -0.190140 2.106189 0.038913 0.000603 1279270.000000 0 0 1
30.806891 -5.478397 -17.861619 36.029360 -0.175990 2.089497 0.046770 0.000303 889447.000000 0 0 1
31.335021 -6.370197 -18.782319 37.084207 -0.200560 2.101891 0.043317 -0.008371 -812408.000000 0 0 1
32.663871 -6.189597 -19.123619 38.352997 -0.187273 2.092804 0.050955 -0.004814 -921271.000000 0 0 1
33.270741 -7.428297 -19.683519 39.364485 -0.219665 2.094433 0.048750 -0.001394 -462499.000000 0 0 1
33.494621 -8.447697 -18.738719 39.298763 -0.247058 2.067838 0.063214 -0.012438 -46967.000000 0 0 1
34.064671 -9.561297 -19.336219 40.320089 -0.273640 2.070959 0.052611 -0.009432 90683.000000 0 0 1
34.966841 -10.392197 -18.335719 40.827396 -0.288887 2.036558 0.058667 -0.016901 -62803.400000 0 0 1
34.213031 -10.926097 -17.238619 39.838186 -0.309118 2.018300 0.054573 -0.011210 378213.000000 0 0 1
34.926651 -11.644997 -16.239519 40.239270 -0.321822 1.986216 0.070906 -0.024256 -529154.000000 0 0 1
36.088331 -10.912197 -15.490719 40.760349 -0.293634 1.960640 0.071415 -0.016050 -142140.000000 0 0 1
-35.646593 -11.711897 -14.528319 40.235807 0.317445 1.940221 0.071964 -0.019539 560203.000000 0 0 1
-34.942875 -12.923797 -14.856519 40.109166 0.354252 1.950238 0.069005 -0.023377 110089.000000 0 0 1
-33.522093 -12.642097 -15.451219 39.016580 0.360634 1.977971 0.059346 -0.020188 -119538.000000 0 0 1
-33.409183 -12.408797 -16.816019 39.407236 0.355627 2.011664 0.063339 -0.014519 678174.000000 0 0 1
-32.018153 -12.378097 -17.162119 38.378611 0.368898 2.034406 0.059093 -0.015986 560165.000000 0 0 1
-31.706833 -11.401197 -18.309919 38.347930 0.345185 2.068567 0.074793 -0.017795 113720.000000 0 0 1
-32.170293 -10.049697 -18.148919 38.279334 0.302785 2.064758 0.081330 -0.019546 176538.000000 0 0 1
-33.435423 -9.815297 -18.732919 39.562480 0.285538 2.064059 0.080704 -0.022518 -120660.000000 0 0 1
-33.939983 -8.418997 -18.336419 39.484506 0.243148 2.053748 0.084827 -0.018235 416750.000000 0 0 1
-35.146978 -7.931997 -18.951619 40.711061 0.221962 2.055013 0.084506 -0.016928 649635.000000 0 0 1
-35.465045 -6.702597 -18.349519 40.489494 0.186789 2.041139 0.082412 -0.021712 -83717.800000 0 0 1
24.362167 27.544203 -27.187749 45.731521 0.846625 2.207450 0.048813 0.007458 -299588.000000 0 0 1
24.953767 26.591703 -26.343549 44.986572 0.817164 2.196400 0.051735 0.001932 -229376.000000 0 0 1
26.205267 26.171903 -26.835599 45.736570 0.784761 2.197827 0.052993 -0.002467 -28589.200000 0 0 1
26.892767 25.166203 -25.861479 45.004164 0.752245 2.182968 0.047287 -0.007820 -293023.000000 0 0 1
27.344467 25.849203 -24.680019 45.000050 0.757296 2.151299 0.057066 -0.001907 449469.000000 0 0 1
27.992867 24.935303 -23.767119 44.387452 0.727694 2.135833 0.052555 -0.005011 262102.000000 0 0 1
28.474567 25.757203 -22.531719 44.518679 0.735334 2.101474 0.048960 -0.003503 262753.000000 0 0 1
27.345367 26.361203 -21.920419 43.854154 0.767075 2.094220 0.047187 -0.003197 238149.000000 0 0 1
27.728967 27.111403 -20.825819 44.018615 0.774138 2.063618 0.028698 -0.008450 -220777.000000 0 0 1
26.623367 27.959403 -20.188919 43.567468 0.809871 2.052618 0.034971 -0.007857 62105.100000 0 0 1
26.035367 27.432603 -18.980519 42.316050 0.811524 2.035930 0.048935 -0.011826 520230.000000 0 0 1
25.186267 28.366403 -18.310619 42.122199 0.844712 2.020504 0.036638 -0.015732 -175837.000000 0 0 1
24.403767 27.924203 -17.066719 40.823741 0.852573 2.002104 0.048777 -0.018114 -106508.000000 0 0 1
23.371567 27.058803 -17.474019 39.796360 0.858384 2.025377 0.058350 -0.007816 129090.000000 0 0 1
22.273167 27.031903 -16.571119 38.748158 0.881616 2.012701 0.033193 -0.004489 389949.000000 0 0 1
21.110267 26.129203 -17.088019 37.687916 0.891246 2.041382 0.021641 0.010379 105505.000000 0 0 1
20.541167 26.646903 -18.301519 38.300686 0.914075 2.068988 0.029396 0.005312 -346167.000000 0 0 1
19.749767 25.655003 -18.856219 37.467178 0.914730 2.098179 0.031947 0.005544 -474714.000000 0 0 1
19.238167 26.045203 -20.234819 38.182556 0.934602 2.129337 0.027570 0.012211 24898.100000 0 0 1
18.295067 27.086903 -20.041519 38.341521 0.976757 2.120824 0.014404 0.008325 -314506.000000 0 0 1
17.368567 27.020803 -21.119719 38.442599 0.999510 2.152422 0.007626 0.006452 -59067.100000 0 0 1
16.182367 27.995803 -20.939119 38.523768 1.046689 2.145442 -0.000976 0.012025 -343207.000000 0 0 1
15.483867 27.679603 -19.785219 37.381351 1.060768 2.128549 0.001915 0.013845 -758836.000000 0 0 1
14.560467 28.659003 -19.446719 37.570208 1.100722 2.114852 0.000856 0.005664 -372165.000000 0 0 1
14.026267 28.517503 -18.006519 36.526961 1.113692 2.086291 0.008029 0.003979 -198249.000000 0 0 1
13.110267 27.468603 -17.831019 35.275324 1.125488 2.100736 0.008498 0.008894 -182217.000000 0 0 1
12.564467 27.544603 -16.507119 34.482691 1.142840 2.069978 0.026090 0.009632 84745.400000 0 0 1
11.560267 26.399103 -16.267019 33.093327 1.158047 2.084665 0.047489 0.006819 56092.300000 0 0 1
12.204167 25.172303 -16.002019 32.228111 1.119362 2.090386 0.026786 0.007009 294152.000000 0 0 1
11.270767 24.087103 -16.105319 31.090191 1.133143 2.115330 0.045548 0.008731 466129.000000 0 0 1
12.039167 22.748803 -16.098919 30.358273 1.084045 2.129748 0.032491 0.005043 94546.500000 0 0 1
12.732267 22.572203 -17.332319 31.177303 1.057216 2.160275 0.032068 0.009639 -154143.000000 0 0 1
13.619467 21.498903 -17.458019 30.862196 1.006111 2.172050 0.044548 0.007912 -149677.000000 0 0 1
12.922067 20.215503 -17.909719 29.940013 1.002040 2.212033 0.039597 0.000868 444756.000000 0 0 1
12.154567 19.579303 -16.847119 28.546594 1.015233 2.202056 0.040665 -0.000767 107494.000000 0 0 1
11.848467 18.208803 -17.049419 27.615745 0.993929 2.236205 0.040248 -0.008517 -107165.000000 0 0 1
13.014267 17.184703 -17.147219 27.544732 0.922629 2.242758 0.036068 -0.006418 -27160.500000 0 0 1
13.549967 17.033803 -15.846319 26.923184 0.898821 2.200092 0.039971 -0.008160 -598292.000000 0 0 1
14.469867 16.006703 -15.868619 26.784410 0.835782 2.204902 0.042345 -0.006871 -1585340.000000 0 0 1
14.968867 15.632903 -14.445619 26.021732 0.807094 2.159324 0.060035 -0.006004 -955476.000000 0 0 1
15.941367 16.414103 -13.799219 26.720187 0.800008 2.113478 0.060758 -0.000053 639550.000000 0 0 1
17.209467 16.505003 -14.452919 27.883108 0.764506 2.115705 0.047051 0.004674 -205141.000000 0 0 1
18.058967 15.211403 -14.557119 27.738471 0.700018 2.123275 0.037554 -0.001753 -1025810.000000 0 0 1
18.422467 14.620203 -13.304619 27.021297 0.670831 2.085613 0.037516 -0.012169 -110923.000000 0 0 1
19.381067 15.217303 -12.489919 27.625896 0.665628 2.039925 0.042004 -0.007731 -604847.000000 0 0 1
20.336167 14.150503 -11.906919 27.487654 0.607921 2.018807 0.054080 -0.010645 -332815.000000 0 0 1
19.688567 13.319203 -10.965619 26.177961 0.594776 2.003016 0.091188 -0.012744 728375.000000 0 0 1
20.431567 12.119103 -10.576619 26.003585 0.535372 1.989676 0.100871 -0.005056 166542.000000 0 0 1
20.396167 10.939403 -11.567919 25.874522 0.492300 2.034292 0.069880 -0.008365 -685179.000000 0 0 1
21.460867 10.879703 -12.496619 27.112769 0.469196 2.049820 0.065037 0.000798 432360.000000 0 0 1
21.375167 9.785503 -13.389819 27.054409 0.429320 2.088541 0.058507 -0.004836 -549180.000000 0 0 1
21.827867 8.391703 -12.854519 26.685485 0.367029 2.073395 0.062839 0.002922 -665248.000000 0 0 1
21.055267 7.867603 -11.815419 25.393455 0.357599 2.054763 0.055895 -0.009726 476463.000000 0 0 1
21.803667 6.965403 -10.985219 25.388812 0.309213 2.018259 0.061962 0.007149 -352193.000000 0 0 1
21.872167 5.526403 -11.593219 25.364060 0.247488 2.045497 0.059565 -0.004561 1246720.000000 0 0 1
20.617567 4.772503 -11.650119 24.157527 0.227471 2.074025 0.026832 -0.014099 1296190.000000 0 1 0
19.706267 5.155503 -12.619519 23.961812 0.255882 2.125453 -0.010038 -0.020806 -776900.000000 0 1 0
18.813967 4.045303 -13.106919 23.283495 0.211791 2.168720 -0.008035 -0.028080 -79112.300000 0 1 0
19.577367 3.229803 -14.004319 24.286331 0.163504 2.185399 0.011279 -0.020737 831838.000000 0 1 0
19.044067 1.922303 -14.102019 23.774748 0.100599 2.205764 0.021876 -0.014122 -199070.000000 0 1 0
19.975767 1.043303 -14.978919 24.989753 0.052181 2.213551 0.045104 -0.007827 379069.000000 0 1 0
21.023667 0.485103 -14.155919 25.349949 0.023070 2.163276 0.050840 -0.000837 859902.000000 0 0 1
22.144767 0.156003 -14.987219 26.740078 0.007045 2.165759 0.032143 -0.006803 314191.000000 0 0 1
22.128167 -1.349297 -15.425519 27.007832 -0.060901 2.178702 0.033693 -0.001289 -697728.000000 0 0 1
21.170967 -1.782397 -16.363119 26.816756 -0.083993 2.227087 0.028073 -0.000323 -4455.130000 0 0 1
21.689367 -2.697797 -17.324119 27.889637 -0.123748 2.241027 0.030963 -0.001420 306900.000000 0 0 1
20.568967 -3.460097 -18.130319 27.636265 -0.166659 2.286348 0.029901 -0.007461 565062.000000 0 0 1
19.858167 -4.426697 -17.330219 26.725997 -0.219330 2.276330 0.039941 -0.004515 -224124.000000 0 0 1
18.950667 -5.116797 -18.090719 26.694259 -0.263718 2.315428 0.037157 -0.005595 -1111460.000000 0 0 1
18.282367 -6.193097 -17.282119 25.908898 -0.326615 2.301017 0.040442 -0.010504 -502166.000000 0 0 1
19.148067 -7.145997 -16.689119 26.386368 -0.357189 2.255560 0.042168 -0.004832 475521.000000 0 0 1
18.462967 -8.046097 -15.849119 25.628410 -0.410980 2.237527 0.041443 -0.009018 62305.900000 0 0 1
19.530167 -8.987497 -15.269619 26.369751 -0.431292 2.188369 0.053115 -0.010435 363975.000000 0 0 1
20.177067 -9.878097 -16.186419 27.689185 -0.455269 2.195153 0.062078 -0.015588 685572.000000 0 0 1
21.131367 -10.711497 -15.542119 28.334225 -0.469153 2.151399 0.063251 -0.018671 -92017.100000 0 0 1
21.747667 -11.777497 -16.484919 29.722432 -0.496334 2.158713 0.064546 -0.020618 370230.000000 0 0 1
22.726067 -11.245997 -17.419419 30.763334 -0.459519 2.172733 0.067240 -0.014095 583333.000000 0 0 1
23.016167 -12.080797 -18.534619 31.925251 -0.483355 2.190216 0.070382 -0.013460 -322015.000000 0 0 1
22.085867 -11.903497 -19.774419 31.945366 -0.494331 2.238275 0.069526 -0.009507 666125.000000 0 0 1
20.749467 -12.365897 -19.632419 31.126960 -0.537445 2.253278 0.050514 -0.004809 259245.000000 0 0 1
20.526667 -13.753997 -19.576019 31.523594 -0.590345 2.240809 0.043513 -0.000780 -1044190.000000 0 0 1
19.044867 -14.063197 -19.726419 30.815776 -0.636052 2.265477 0.049024 0.002024 -490926.000000 0 0 1
18.541667 -13.769497 -21.026519 31.233107 -0.638764 2.309341 0.050338 0.002129 -819524.000000 0 0 1
17.155467 -13.942797 -20.962219 30.465164 -0.682456 2.329625 0.044728 0.002378 -407617.000000 0 0 1
16.474867 -13.291597 -22.220119 30.689110 -0.678862 2.380437 0.040769 -0.004782 -383434.000000 0 0 1
16.589467 -14.011797 -23.391319 31.916996 -0.701362 2.393341 0.042972 -0.009413 330000.000000 0 0 1
16.005567 -13.323497 -24.488119 32.145944 -0.694204 2.436852 0.057611 -0.020493 -53356.400000 0 0 1
15.976267 -14.160697 -25.802929 33.489664 -0.725227 2.450381 0.062061 -0.020212 124866.000000 0 0 1
15.028667 -15.232897 -25.750009 33.480814 -0.792147 2.448224 0.056987 -0.024564 347700.000000 0 0 1
15.129667 -16.046897 -26.895599 34.781934 -0.814810 2.454768 0.065666 -0.020006 -500416.000000 0 0 1
16.052367 -17.262197 -26.901099 35.767737 -0.821698 2.422047 0.062458 -0.015929 -646337.000000 0 0 1
17.405667 -16.900197 -26.973539 36.278722 -0.770665 2.409098 0.075666 -0.007247 -351718.000000 0 0 1
18.192667 -18.075197 -26.997959 37.236751 -0.782159 2.381882 0.075651 -0.013157 348211.000000 0 0 1
19.734167 -17.924697 -27.073899 37.996422 -0.737386 2.363905 0.066892 -0.004792 546684.000000 0 0 1
20.274967 -17.325197 -25.867919 37.153546 -0.707108 2.340947 0.063376 -0.003061 309038.000000 0 0 1
21.666567 -17.035597 -25.953149 37.857861 -0.666308 2.326144 0.058419 0.000315 322897.000000 0 0 1
22.125267 -16.542697 -24.545619 36.955049 -0.642017 2.297222 0.065870 0.000514 42024.000000 0 0 1
21.860667 -15.147797 -24.311319 36.033106 -0.605962 2.311346 0.066169 -0.000056 -733068.000000 0 0 1
20.514967 -14.830297 -24.142519 34.980892 -0.625931 2.332511 0.076646 -0.004606 -519085.000000 0 0 1
20.389867 -13.502397 -23.418719 33.859973 -0.584912 2.334546 0.074120 -0.002446 -8534.940000 0 0 1
20.764867 -12.395897 -24.225719 34.230446 -0.538185 2.357068 0.083418 -0.005517 90192.800000 0 0 1
20.428467 -11.241297 -23.529019 33.125575 -0.503055 2.360717 0.087654 -0.006132 187704.000000 0 0 1
20.692267 -10.052497 -24.495619 33.604433 -0.452231 2.387569 0.100184 -0.019196 -19353.000000 0 0 1
20.177867 -8.855797 -24.017119 32.594377 -0.413574 2.399193 0.097195 -0.019743 -116385.000000 0 0 1
20.009867 -7.908897 -25.060519 33.029911 -0.376405 2.432145 0.085161 -0.018853 -129154.000000 0 0 1
19.363667 -6.642197 -24.435319 31.877189 -0.330446 2.444241 0.077357 -0.024231 -174498.000000 0 0 1
18.061267 -6.943197 -23.999419 30.828387 -0.367008 2.463044 0.082860 -0.029116 -514936.000000 0 0 1
17.637367 -6.022597 -22.975919 29.584476 -0.329054 2.460080 0.061945 -0.022153 -32579.800000 0 0 1
18.265267 -6.054397 -21.543619 28.886038 -0.320073 2.412553 0.052124 -0.013730 -407479.000000 0 0 1
17.814467 -7.003397 -20.647819 28.155554 -0.374570 2.394030 0.054068 -0.015378 119443.000000 0 0 1
18.238867 -8.370197 -20.843719 28.934012 -0.430248 2.375158 0.065431 -0.012339 -163679.000000 0 0 1
17.880967 -9.304297 -19.688619 28.176952 -0.479792 2.344444 0.053561 -0.012312 -347176.000000 0 0 1
16.556967 -9.739397 -19.624219 27.460862 -0.531724 2.366884 0.034293 -0.012042 -580541.000000 0 0 1
16.147867 -10.812197 -18.804719 27.042090 -0.590013 2.339755 0.033456 -0.007428 232744.000000 0 0 1
14.633567 -10.771097 -18.447319 25.893269 -0.634516 2.363761 0.042581 -0.013035 535592.000000 0 0 1
14.081567 -9.831397 -17.488119 24.510838 -0.609500 2.365256 0.050256 -0.008255 345556.000000 0 1 0
14.139167 -8.467597 -17.875819 24.313805 -0.539592 2.396777 0.053171 -0.020396 -232804.000000 0 1 0
12.977967 -7.618097 -17.291019 22.922529 -0.530808 2.425420 0.057576 -0.010290 1531540.000000 0 1 0
11.677767 -7.823897 -17.932719 22.785215 -0.590295 2.476781 0.039776 -0.018597 772114.000000 0 1 0
10.826067 -6.829997 -17.514619 21.693650 -0.562820 2.510463 0.031661 -0.015100 -1063550.000000 0 1 0
9.429167 -6.849097 -18.112519 21.537935 -0.628208 2.569849 0.033425 -0.007840 -452521.000000 0 1 0
9.242067 -6.513297 -19.446019 22.494143 -0.613903 2.614936 0.030678 -0.014988 1168520.000000 0 1 0
7.834467 -6.205397 -19.613519 22.013086 -0.669883 2.670325 0.025894 -0.018661 1110950.000000 0 1 0
7.357467 -6.013497 -21.083219 23.125669 -0.685221 2.718152 0.026841 -0.021186 -64408.900000 0 1 0
7.409567 -7.145897 -21.947219 24.241409 -0.767285 2.703025 0.027297 -0.023473 78656.700000 0 1 0
6.886667 -6.860897 -23.218419 25.171274 -0.783524 2.745090 0.028306 -0.020575 -191081.000000 0 0 1
6.985067 -8.037897 -24.226319 26.463436 -0.855365 2.727455 0.030081 -0.020422 -273169.000000 0 0 1
6.186367 -9.102597 -23.758019 26.183427 -0.973875 2.707777 0.027729 -0.020763 185114.000000 0 0 1
6.009367 -10.047397 -24.798419 27.423061 -1.031774 2.700512 0.022211 -0.005652 -89745.600000 0 0 1
5.184467 -11.337797 -24.471619 27.464240 -1.141911 2.670418 0.027247 -0.017531 186599.000000 0 0 1
5.836767 -12.266497 -23.634519 27.260324 -1.126671 2.619933 0.021038 -0.017826 397355.000000 0 0 1
4.971767 -13.350397 -23.341019 27.345104 -1.214302 2.593600 0.031897 -0.020647 147209.000000 0 0 1
5.769267 -14.253397 -22.349819 27.128549 -1.186190 2.538964 0.042375 -0.021184 107935.000000 0 0 1
6.758367 -15.147997 -22.910719 28.284949 -1.151144 2.514943 0.033340 -0.020457 1484110.000000 0 0 1
8.060867 -14.541497 -23.138719 28.492684 -1.064631 2.518527 0.031130 -0.020021 1454440.000000 0 0 1
8.900367 -13.916697 -21.952619 27.473778 -1.001805 2.496492 0.030066 -0.013669 -326067.000000 0 0 1
9.251967 -14.746697 -20.852819 27.164389 -1.010478 2.445967 0.035749 -0.008329 73271.100000 0 0 1
8.152167 -15.209697 -20.107019 26.496885 -1.078777 2.432334 0.042289 -0.010280 -312107.000000 0 0 1
8.601167 -15.764197 -18.719319 25.940371 -1.071327 2.376949 0.035123 -0.006293 384075.000000 0 0 1
9.461067 -16.900997 -18.791619 26.986671 -1.060465 2.341067 0.034488 -0.001414 -83038.000000 0 0 1
10.024167 -17.346797 -17.576119 26.651740 -1.046809 2.290915 0.044589 -0.002358 -167223.000000 0 0 1
9.225567 -18.391097 -16.729419 26.518239 -1.105844 2.253463 0.033386 -0.007970 -789800.000000 0 0 1
8.925367 -19.669797 -17.279519 27.661252 -1.144820 2.245522 0.050701 -0.013037 366408.000000 0 0 1
8.085567 -19.778197 -18.457919 28.235584 -1.182716 2.283275 0.054884 -0.005835 423946.000000 0 0 1
6.606167 -19.439497 -18.120119 27.383831 -1.243208 2.293892 0.056772 -0.012288 -349675.000000 0 0 1
6.365567 -18.052497 -17.804719 26.142324 -1.231795 2.320018 0.054940 -0.009788 -258874.000000 0 0 1
4.991767 -17.705597 -17.778019 25.582491 -1.295997 2.339118 0.052840 -0.014202 365998.000000 0 0 1
4.876767 -16.286997 -17.302219 24.257285 -1.279865 2.364962 0.042513 -0.007919 14633.000000 0 1 0
4.732767 -16.285897 -15.896819 23.245179 -1.287981 2.323858 0.022912 -0.003721 153570.000000 0 1 0
5.038567 -15.010797 -15.323819 22.034759 -1.246951 2.339826 0.025428 0.000133 84129.200000 0 1 0
11.016267 30.565003 -17.970019 37.128145 1.224868 2.076016 0.042624 -0.011362 -1059700.000000 0 0 1
9.977967 30.137903 -18.727419 36.858774 1.251078 2.103757 0.059473 -0.007078 -1090240.000000 0 0 1
9.087567 29.290103 -18.053619 35.586896 1.269953 2.102858 0.062793 -0.005934 113183.000000 0 0 1
8.201567 28.460503 -19.020919 35.200302 1.290224 2.141664 0.060637 -0.013136 689627.000000 0 0 1
7.156267 29.277303 -19.593519 35.948277 1.331066 2.147242 0.064708 -0.027487 443490.000000 0 0 1
6.413667 28.649503 -20.646219 35.891440 1.350561 2.183695 0.051554 -0.025296 19160.400000 0 0 1
5.467067 29.640503 -21.282219 36.896898 1.388400 2.185605 0.068794 -0.027613 811789.000000 0 0 1
4.280867 29.921903 -20.467119 36.504096 1.428693 2.166003 0.056475 -0.026693 747339.000000 0 0 1
3.447767 30.793603 -21.174419 37.529843 1.459297 2.170263 0.057690 -0.031809 -601031.000000 0 0 1
1.970167 30.896303 -20.707119 37.245776 1.507115 2.160312 0.074860 -0.031374 329212.000000 0 0 1
1.219767 29.723503 -20.880019 36.344871 1.529782 2.182786 0.071739 -0.034499 29846.400000 0 0 1
0.879367 29.387803 -22.241319 36.865872 1.540882 2.218434 0.094565 -0.051784 -478562.000000 0 0 1
0.244567 28.019803 -22.674219 36.045657 1.562068 2.251116 0.088796 -0.043629 342100.000000 0 0 1
-0.950433 27.729503 -21.976419 35.394797 -1.536535 2.240679 0.074858 -0.038385 -53759.000000 0 0 1
-1.396633 26.431203 -22.263619 34.586526 -1.518005 2.270130 0.086009 -0.049711 190252.000000 0 0 1
-2.488033 25.910703 -21.281519 33.622283 -1.475066 2.256165 0.066361 -0.042394 -202437.000000 0 0 1
-3.687433 26.626103 -21.310319 34.302714 -1.433182 2.241124 0.047473 -0.038403 -278720.000000 0 0 1
-4.536933 26.138103 -20.273019 33.388314 -1.398933 2.223314 0.052525 -0.036468 438106.000000 0 0 1
-5.859433 26.947703 -20.244119 34.210174 -1.356692 2.204033 0.056890 -0.049472 -721174.000000 0 0 1
-6.926333 26.431303 -19.592719 33.622351 -1.314509 2.192879 0.055974 -0.039803 -905191.000000 0 0 1
-7.852033 27.481703 -19.197619 34.430321 -1.292493 2.162263 0.056601 -0.042760 541693.000000 0 0 1
-9.139033 26.876003 -18.619719 33.949012 -1.243018 2.151319 0.067064 -0.033431 -42387.500000 0 0 1
-8.869233 26.186703 -17.407719 32.671630 -1.244231 2.132712 0.061650 -0.046587 -108721.000000 0 0 1
-10.078833 25.590703 -16.981919 32.324179 -1.195605 2.123938 0.056902 -0.036400 116587.000000 0 0 1
-10.038133 24.828703 -15.634219 31.010602 -1.186592 2.099202 0.069768 -0.026100 100838.000000 0 0 1
-9.415733 23.543403 -15.675219 29.810407 -1.190350 2.124487 0.064994 -0.024067 -108437.000000 0 0 1
-9.540833 22.764503 -14.515819 28.634928 -1.173925 2.102412 0.081893 -0.017456 -22578.800000 0 0 1
-8.859033 21.366103 -14.510719 27.304831 -1.177742 2.131089 0.081761 -0.004408 -145059.000000 0 0 1
-9.488133 20.339703 -15.271019 27.146495 -1.134320 2.168252 0.061759 -0.001848 -234596.000000 0 0 1
-9.672533 20.439403 -16.683319 28.100894 -1.128793 2.206437 0.057574 -0.008445 310575.000000 0 0 1
-8.439233 20.170403 -17.611819 28.075647 -1.174532 2.248876 0.049376 -0.014433 291350.000000 0 0 1
-7.977233 18.821303 -17.592019 26.969554 -1.169908 2.281400 0.051566 -0.006635 -143423.000000 0 0 1
-7.068533 18.584903 -18.644119 27.257402 -1.207355 2.324031 0.044323 -0.015014 -117556.000000 0 0 1
-6.777233 17.071703 -18.690519 26.205141 -1.192891 2.364904 0.027161 -0.021476 117609.000000 0 0 1
-7.825033 16.216703 -19.146419 26.283036 -1.121223 2.386883 0.022985 -0.020663 -267916.000000 0 0 1
-7.544433 15.280503 -20.145219 26.386400 -1.112178 2.439465 0.021741 -0.021079 -376083.000000 0 0 1
-6.390733 14.309403 -19.884219 25.317635 -1.150764 2.474122 0.017339 -0.019191 -398992.000000 0 0 1
-6.521133 13.315003 -18.816419 23.955628 -1.115376 2.474251 -0.001075 -0.015009 -1080710.000000 0 1 0
-5.337733 12.695103 -18.522919 23.081498 -1.172781 2.502271 0.010435 -0.011246 -793939.000000 0 1 0
-4.527733 13.316203 -17.369019 22.349596 -1.243043 2.460923 0.011980 -0.001205 -286894.000000 0 1 0
-3.802433 14.472003 -17.646819 23.136715 -1.313860 2.438304 0.022066 -0.006843 -503899.000000 0 1 0
-3.561533 15.160903 -16.434319 22.641209 -1.340064 2.383078 0.024839 0.001921 457166.000000 0 1 0
-2.677233 16.458903 -16.449119 23.422992 -1.409547 2.349369 0.038089 -0.001131 543590.000000 0 1 0
-3.452433 17.522803 -16.943819 24.618305 -1.376263 2.329886 0.032346 -0.005898 -90349.600000 0 1 0
-2.778633 18.722903 -16.780819 25.295529 -1.423463 2.296137 0.035259 -0.012403 -132013.000000 0 0 1
-3.475433 19.807503 -17.588919 26.716771 -1.397104 2.289418 0.057186 -0.013763 102703.000000 0 0 1
-3.476133 19.688903 -18.996319 27.578915 -1.396044 2.330627 0.054481 -0.020445 103433.000000 0 0 1
-4.060433 20.834103 -19.669419 28.938435 -1.378316 2.318148 0.069284 -0.018867 614126.000000 0 0 1
-3.058533 22.075303 -19.831819 29.832443 -1.433123 2.297987 0.055696 -0.018145 164433.000000 0 0 1
-2.063233 21.867303 -20.795219 30.246934 -1.476722 2.328858 0.075729 -0.020992 -328867.000000 0 0 1
-0.935633 22.688103 -20.707119 30.731258 -1.529581 2.310153 0.071101 -0.017343 304039.000000 0 0 1
0.171367 22.256103 -19.697019 29.720970 1.563097 2.295257 0.068846 -0.014074 -170859.000000 0 0 1
-0.179733 22.336903 -18.321219 28.890078 -1.562750 2.257731 0.052578 -0.009608 -172063.000000 0 0 1
0.942567 21.941703 -17.545119 28.109748 1.527865 2.244859 0.052992 -0.005554 140990.000000 0 0 1
0.786067 21.982103 -16.002519 27.201312 1.535052 2.199751 0.057346 -0.008276 -222019.000000 0 0 1
-0.119633 21.071603 -15.429519 26.116983 -1.565119 2.202828 0.061631 -0.003179 -277724.000000 0 0 1
-0.088333 21.214903 -13.994619 25.415139 -1.566633 2.153928 0.061293 -0.006821 66421.100000 0 0 1
-1.074533 20.248103 -13.320619 24.260651 -1.517778 2.152039 0.059960 -0.008631 -35214.700000 0 1 0
-0.704033 18.876103 -13.371119 23.142812 -1.533516 2.186785 0.043326 -0.004790 399577.000000 0 1 0
-1.732333 17.988403 -12.903419 22.205446 -1.474790 2.190867 0.036889 -0.000940 640761.000000 0 1 0
-1.301933 16.451603 -13.014319 21.017202 -1.491824 2.238548 0.017996 0.003379 -936739.000000 0 1 0
-0.211033 16.101803 -12.253919 20.235393 -1.557691 2.221277 0.018635 0.001018 -644195.000000 0 1 0
0.066867 14.751903 -12.161119 19.118471 1.566264 2.260220 0.015707 0.001039 94191.500000 0 1 0
0.623367 14.037103 -13.393419 19.411659 1.526417 2.332241 0.011323 0.002864 -215352.000000 0 1 0
-0.312533 13.934703 -14.458219 20.082672 -1.548372 2.374505 0.012690 -0.002224 1816.950000 0 1 0
0.133967 13.023503 -15.409919 20.176600 1.560510 2.439902 0.016656 0.002001 -203359.000000 0 1 0
-0.514633 13.011603 -16.816419 21.268724 -1.531265 2.482689 0.016351 0.007623 -254109.000000 0 1 0
-0.424833 14.230103 -17.578319 22.620204 -1.540951 2.460852 0.024119 0.004028 -149671.000000 0 1 0
-0.608433 14.060703 -18.966319 23.617680 -1.527551 2.503202 0.037415 -0.001656 -106428.000000 0 1 0
-1.153933 15.316503 -19.658319 24.947471 -1.495599 2.478331 0.050464 -0.008869 -340240.000000 0 1 0
-0.190533 16.302303 -19.692919 25.565845 -1.559109 2.450080 0.047541 -0.016736 -251537.000000 0 0 1
-0.863933 17.524503 -20.057019 26.648426 -1.521538 2.422879 0.068539 -0.021775 97076.500000 0 0 1
0.102067 18.636103 -20.384219 27.619398 1.565320 2.400957 0.081339 -0.024709 -249989.000000 0 0 1
0.694267 18.464503 -21.641019 28.456169 1.533214 2.434885 0.097510 -0.035110 -225495.000000 0 0 1
1.544867 19.504303 -22.023419 29.459047 1.491755 2.415229 0.100195 -0.033655 -8428.000000 0 0 1
2.161467 19.290803 -23.436519 30.431520 1.459215 2.449856 0.118167 -0.046896 2691.250000 0 0 1
3.154667 18.306003 -23.562019 30.003840 1.400143 2.473977 0.096558 -0.037296 -261927.000000 0 0 1
3.633767 18.130703 -24.856119 30.979885 1.372996 2.501986 0.104786 -0.051145 585027.000000 0 0 1
4.604467 16.913203 -25.002119 30.534628 1.304997 2.530135 0.075209 -0.034210 858838.000000 0 0 1
5.976467 17.021203 -24.582419 30.491553 1.233125 2.508504 0.060660 -0.018474 724030.000000 0 0 1
6.682467 15.876203 -25.042019 30.394274 1.172394 2.539065 0.048062 -0.017088 219397.000000 0 0 1
7.239567 15.931903 -26.514079 31.768431 1.144284 2.558211 0.044432 -0.020320 -901385.000000 0 0 1
8.321967 16.850503 -26.610979 32.578195 1.112064 2.526698 0.022948 -0.012815 514022.000000 0 0 1
8.935267 16.962503 -27.927799 33.875174 1.085966 2.539995 0.042405 -0.022936 594394.000000 0 0 1
9.549967 15.617403 -28.490049 33.864259 1.021967 2.570483 0.033364 -0.019345 -1081450.000000 0 0 1
10.768467 15.228703 -27.943319 33.596165 0.955310 2.553033 0.042150 -0.016151 -414052.000000 0 0 1
11.107167 13.875003 -28.192769 33.327422 0.895741 2.579109 0.039937 -0.009760 -259764.000000 0 0 1
10.533967 12.802003 -27.236019 31.885051 0.882284 2.594795 0.039096 -0.015883 -1046780.000000 0 0 1
9.154267 12.776603 -27.330589 31.527817 0.949091 2.619690 0.045474 -0.020476 -1133160.000000 0 0 1
8.607367 12.339103 -26.097739 30.123615 0.961704 2.618653 0.055094 -0.017701 923446.000000 0 0 1
7.141267 11.773603 -26.205789 29.603358 1.025575 2.657785 0.060165 -0.029849 781384.000000 0 0 1
6.172267 12.734203 -26.508639 30.049372 1.119464 2.651246 0.073496 -0.033116 -843710.000000 0 0 1
4.895767 12.160403 -26.491769 29.557702 1.188051 2.682089 0.088665 -0.035319 293252.000000 0 0 1
3.728567 13.179703 -26.741559 30.045262 1.295098 2.668235 0.106838 -0.039411 -255180.000000 0 0 1
3.325567 13.411803 -28.070409 31.287117 1.327740 2.684156 0.101533 -0.044076 177176.000000 0 0 1
4.033367 14.487003 -28.669779 32.374334 1.299260 2.658519 0.108557 -0.045891 93078.800000 0 0 1
4.093567 14.365003 -30.170269 33.665349 1.293187 2.681884 0.120408 -0.046504 -554634.000000 0 0 1
4.923667 13.360703 -30.612939 33.762448 1.217720 2.706226 0.112156 -0.042995 -771681.000000 0 0 1
4.916267 13.193403 -31.982439 34.944412 1.214104 2.726893 0.101147 -0.040172 -531151.000000 0 0 1
6.087367 12.306703 -32.496949 35.278360 1.111447 2.741842 0.099309 -0.032306 633327.000000 0 0 1
7.442867 12.672803 -32.260949 35.450882 1.039760 2.714124 0.103845 -0.027909 486995.000000 0 0 1
7.830367 12.785203 -30.878309 34.325588 1.021269 2.689583 0.087865 -0.025792 -1039910.000000 0 0 1
7.860667 11.419603 -30.125999 33.162829 0.967933 2.710301 0.091668 -0.026564 136739.000000 0 0 1
9.006367 10.617503 -30.407729 33.443624 0.867315 2.712211 0.078701 -0.022881 26445.100000 0 0 1
8.914567 9.481303 -29.587339 32.322983 0.816196 2.727211 0.085491 -0.026480 -172536.000000 0 0 1
9.886967 8.353803 -29.871299 32.555071 0.701544 2.732701 0.073254 -0.028954 216075.000000 0 0 1
11.221367 8.616603 -29.435689 32.659221 0.654843 2.693553 0.061970 -0.030795 184788.000000 0 0 1
12.010267 7.471603 -29.543869 32.755328 0.556512 2.695074 0.032713 -0.015176 -353610.000000 0 0 1
13.427767 7.626203 -28.961129 32.820891 0.516514 2.651734 0.032814 -0.012659 209263.000000 0 0 1
14.132767 6.439403 -28.671509 32.607613 0.427531 2.645163 0.023477 -0.004306 12207.200000 0 0 1
14.973767 5.914703 -29.639039 33.729364 0.376192 2.643993 0.013364 0.000486 -459435.000000 0 0 1
15.748467 4.600703 -29.248469 33.535855 0.284227 2.630387 0.023181 -0.001528 -26592.800000 0 0 1
16.530867 4.788303 -28.123819 32.971906 0.281942 2.592432 -0.001171 0.001997 -286868.000000 0 0 1
17.297367 3.647103 -27.884759 33.016057 0.207804 2.576580 0.016961 -0.000622 -125437.000000 0 0 1
18.044467 3.652503 -26.498829 32.266569 0.199718 2.534390 0.009322 0.011361 -1237920.000000 0 0 1
19.224867 4.301803 -26.562189 33.070393 0.220136 2.503447 0.041993 0.000661 -1501750.000000 0 0 1
19.700567 4.694503 -25.306299 32.412335 0.233930 2.466680 0.045520 0.000054 142380.000000 0 0 1
20.739167 5.850403 -25.493619 33.380606 0.274950 2.439861 0.032194 0.000015 111444.000000 0 0 1
20.168467 7.088803 -25.959559 33.629107 0.337992 2.452679 0.039157 -0.002005 107049.000000 0 0 1
21.132967 7.954503 -26.483099 34.802743 0.360000 2.435570 0.052892 -0.015688 -812513.000000 0 0 1
21.342067 7.841303 -28.007399 36.074703 0.352100 2.459686 0.065082 -0.023414 616581.000000 0 0 1
20.217167 8.137503 -28.850819 36.156915 0.382664 2.494655 0.051306 -0.011943 -355566.000000 0 0 1
19.099867 7.359303 -28.794569 35.328338 0.367776 2.523622 0.043260 -0.005782 -1810910.000000 0 0 1
17.903467 8.060403 -29.416779 35.367373 0.423032 2.553047 0.031693 -0.007699 -853457.000000 0 0 1
17.861967 8.116403 -30.802769 36.520356 0.426503 2.574453 0.024168 -0.005652 197597.000000 0 0 1
17.021167 9.176803 -31.259999 36.757603 0.494468 2.587610 0.005263 -0.003620 -261533.000000 0 0 1
16.277267 8.850803 -32.541949 37.446823 0.498034 2.624010 0.004684 0.004333 -500702.000000 0 0 1
15.420667 7.792403 -32.247089 36.584057 0.467896 2.649724 0.015605 0.004153 -503010.000000 0 0 1
14.346667 7.812303 -33.152919 36.959098 0.498640 2.683769 0.014796 0.000926 -53595.500000 0 0 1
13.823167 6.412203 -33.524059 36.824704 0.434331 2.714971 0.014947 0.002641 -283087.000000 0 0 1
13.190267 5.729603 -32.499989 35.539566 0.409790 2.725001 0.044215 -0.003307 -24564.500000 0 0 1
12.632767 4.504403 -32.997859 35.619308 0.342511 2.755543 0.055534 -0.009339 183361.000000 0 0 1
12.302767 3.387603 -31.963799 34.416832 0.268694 2.761757 0.050557 -0.006488 260659.000000 0 0 1
13.460167 2.705203 -31.487229 34.350252 0.198336 2.730418 0.040765 -0.013375 221685.000000 0 0 1
13.267667 1.836803 -30.378039 33.199850 0.137568 2.726317 0.040833 -0.007078 -131538.000000 0 0 1
12.398367 0.560403 -30.554639 32.979077 0.045169 2.755760 0.035479 -0.001381 179355.000000 0 0 1
12.870967 -0.478597 -31.428439 33.965241 -0.037167 2.752653 0.032567 -0.008966 -1020760.000000 0 0 1
13.760467 -1.278697 -30.795949 33.754644 -0.092659 2.719777 0.028864 -0.012340 -724806.000000 0 0 1
14.094067 -2.529897 -31.623189 34.714106 -0.177609 2.716404 0.036454 -0.021226 -185034.000000 0 0 1
13.152267 -3.567697 -31.733979 34.536300 -0.264887 2.735975 0.038912 -0.024783 -414005.000000 0 0 1
13.640667 -4.700097 -32.427979 35.492711 -0.331825 2.722975 0.061894 -0.033571 -201764.000000 0 0 1
12.744767 -5.957797 -32.407109 35.329097 -0.437287 2.732023 0.053848 -0.028560 -84844.000000 0 0 1
12.651267 -6.638497 -31.141069 34.262083 -0.483235 2.711453 0.061720 -0.030238 39621.700000 0 0 1
12.263967 -7.949797 -31.293699 34.538381 -0.575126 2.704664 0.079183 -0.031360 -108848.000000 0 0 1
12.236567 -8.768297 -29.969749 33.538074 -0.621757 2.676107 0.077371 -0.033489 -260087.000000 0 0 1
13.516267 -8.804997 -29.386369 33.522770 -0.577385 2.639566 0.067643 -0.028796 -58858.700000 0 0 1
13.600267 -9.471097 -28.073589 32.600542 -0.608299 2.608302 0.065893 -0.035674 -201494.000000 0 0 1
13.660367 -10.984897 -28.103189 33.121938 -0.677262 2.583896 0.063794 -0.030992 661941.000000 0 0 1
12.502067 -11.661797 -28.654569 33.367402 -0.750638 2.603640 0.048673 -0.026941 729970.000000 0 0 1
12.663867 -13.088697 -28.591249 33.899071 -0.801893 2.574419 0.047189 -0.029465 160652.000000 0 0 1
-10.093533 -2.730797 -17.502319 20.387933 0.264224 2.603065 0.022124 -0.009267 31649.200000 0 1 0
-10.771233 -2.393197 -18.706619 21.718298 0.218633 2.608678 0.023473 -0.009232 -229748.000000 0 1 0
-11.678633 -3.431297 -18.920219 22.497532 0.285768 2.569908 0.022634 -0.011024 -376583.000000 0 1 0
-12.622833 -3.175497 -20.133619 23.974618 0.246454 2.567691 0.035997 -0.017089 -636614.000000 0 1 0
-13.419333 -2.081397 -19.973819 24.152933 0.153878 2.544498 0.030042 -0.010067 -482302.000000 0 1 0
-14.250733 -1.854097 -21.089719 25.520527 0.129379 2.543449 0.034401 -0.003397 -232378.000000 0 0 1
-15.041233 -0.565897 -21.030119 25.861648 0.037605 2.520388 0.034314 0.000680 -302011.000000 0 0 1
-14.353933 0.669003 -21.193619 25.605711 -0.046574 2.545777 0.034436 -0.004273 -146002.000000 0 0 1
-15.199133 1.794603 -21.157919 26.113058 -0.117529 2.515363 0.030478 0.000272 -436684.000000 0 0 1
-14.644333 2.942203 -21.955819 26.555057 -0.198271 2.544198 0.046310 -0.013798 -642463.000000 0 0 1
-13.518033 3.395203 -21.273519 25.432798 -0.246071 2.561588 0.055172 -0.014261 -253504.000000 0 0 1
-13.128633 4.638003 -21.794319 25.862413 -0.339588 2.573080 0.051368 -0.014496 -125251.000000 0 0 1
-11.916633 5.304903 -21.081219 24.790440 -0.418828 2.587498 0.028455 -0.011111 -35174.800000 0 1 0
-12.179733 5.738903 -19.726819 23.883641 -0.440331 2.542691 0.033421 -0.017780 -83902.800000 0 1 0
-11.013633 6.200303 -19.130619 22.928682 -0.512744 2.557755 0.021213 -0.012513 -607936.000000 0 1 0
-11.290633 6.709503 -17.708219 22.047150 -0.536184 2.503440 0.028270 -0.017797 -92553.100000 0 1 0
-11.695933 8.040403 -17.800519 22.766234 -0.602255 2.468476 0.015895 -0.012893 25177.600000 0 1 0
-12.669633 8.193603 -16.800919 22.581533 -0.574060 2.409850 0.037336 -0.013965 -539928.000000 0 1 0
-13.406233 9.521303 -16.832419 23.531099 -0.617549 2.367888 0.038631 -0.011193 -836896.000000 0 1 0
-12.717133 10.567703 -16.269419 23.196892 -0.693349 2.348103 0.013338 -0.004553 180637.000000 0 1 0
-13.390533 11.849503 -16.476419 24.314388 -0.724419 2.315346 0.023721 -0.008640 4459.030000 0 1 0
-12.692633 13.023503 -15.772819 24.072731 -0.798264 2.285264 0.034369 -0.004544 -690249.000000 0 1 0
-12.832433 12.920603 -14.361319 23.191826 -0.788822 2.238571 0.049539 -0.009277 372024.000000 0 1 0
-12.347633 14.158603 -13.781419 23.299305 -0.853615 2.203708 0.048205 -0.014110 -746525.000000 0 1 0
-12.796933 14.451103 -12.301219 22.889208 -0.846032 2.138176 0.040921 -0.013898 1222330.000000 0 1 0
-14.133233 14.970103 -12.120219 23.890416 -0.814145 2.102875 0.037077 -0.013215 1742310.000000 0 1 0
-15.207633 14.061603 -12.459719 24.171168 -0.746263 2.112362 0.033286 -0.014479 330087.000000 0 1 0
-16.604733 14.386303 -11.861419 24.967502 -0.713937 2.065845 0.014725 -0.005897 -428581.000000 0 1 0
-17.583233 13.596103 -12.392919 25.448154 -0.658211 2.079433 0.014013 -0.009003 -1207880.000000 0 0 1
-18.834033 13.995103 -11.923319 26.320130 -0.639054 2.040937 0.050971 -0.014414 -1202300.000000 0 0 1
-19.961733 13.325103 -12.651119 27.130794 -0.588602 2.055901 0.037891 -0.021756 -970587.000000 0 0 1
-20.169933 11.951003 -12.430219 26.536070 -0.534898 2.058306 0.043698 -0.016742 749804.000000 0 0 1
-21.385133 11.461403 -13.004719 27.528356 -0.491994 2.062821 0.064084 -0.016974 384978.000000 0 0 1
-22.047633 10.241203 -12.316219 27.251965 -0.434849 2.039734 0.063733 -0.019409 422471.000000 0 0 1
-21.189433 9.090003 -12.401519 26.180487 -0.405243 2.064276 0.058388 -0.022124 1070810.000000 0 0 1
-21.775533 8.029503 -11.620119 25.955229 -0.353271 2.034986 0.057905 -0.019105 -17301.300000 0 0 1
-20.797733 6.867803 -11.574119 24.772417 -0.318945 2.056938 0.060805 -0.013309 -258934.000000 0 1 0
-20.525033 6.178503 -12.779219 24.955146 -0.292395 2.108410 0.059427 -0.012965 219208.000000 0 1 0
-19.589333 5.172303 -12.513919 23.813712 -0.258145 2.124090 0.067180 -0.016880 -245007.000000 0 1 0
-19.630833 4.089903 -13.626919 24.244378 -0.205403 2.167677 0.072010 -0.027325 -199393.000000 0 1 0
-20.472033 3.016003 -13.312719 24.605465 -0.146271 2.142478 0.063991 -0.026602 204138.000000 0 1 0
-20.196233 1.950503 -14.188019 24.758679 -0.096279 2.181022 0.063545 -0.029156 -89653.600000 0 1 0
-21.130933 0.733103 -13.944219 25.327752 -0.034679 2.153820 0.067156 -0.021750 1077550.000000 0 0 1
-22.447533 0.804103 -14.572019 26.774653 -0.035806 2.146287 0.060655 -0.022086 1302830.000000 0 0 1
-22.874733 -0.555497 -14.597919 27.141504 0.024280 2.138675 0.062216 -0.027849 -419837.000000 0 0 1
-24.248633 -0.562797 -15.278619 28.666167 0.023205 2.132920 0.078430 -0.030736 157984.000000 0 0 1
-25.329503 -0.001197 -14.523819 29.198032 0.000047 2.091424 0.099046 -0.040344 991721.000000 0 0 1
-26.590563 -0.279797 -15.156819 30.608259 0.010522 2.088847 0.110369 -0.031553 596716.000000 0 0 1
-27.785323 0.157703 -14.297119 31.248307 -0.005676 2.046015 0.113563 -0.025743 -238984.000000 0 0 1
-28.028943 -0.765697 -13.248819 31.011920 0.027311 2.012209 0.119963 -0.031866 254322.000000 0 0 1
-29.255463 -0.347497 -12.661319 31.879647 0.011877 1.979217 0.134753 -0.031933 366242.000000 0 0 1
-29.358463 -0.864097 -11.203919 31.435550 0.029424 1.935218 0.133367 -0.033348 -255861.000000 0 0 1
-29.637993 -2.240597 -10.982419 31.686660 0.075455 1.924734 0.129211 -0.028926 -387456.000000 0 0 1
-28.746483 -3.137897 -11.510019 31.123741 0.108727 1.949606 0.126610 -0.031174 -915834.000000 0 0 1
-29.047373 -4.628197 -11.177619 31.466002 0.158005 1.933955 0.121648 -0.029936 930599.000000 0 0 1
-30.288463 -5.121997 -11.766119 32.894793 0.167522 1.936589 0.112102 -0.023181 1211290.000000 0 0 1
-30.639133 -6.394697 -11.263319 33.264260 0.205756 1.916226 0.107014 -0.024378 307366.000000 0 0 1
-29.799523 -7.652197 -11.796719 32.950422 0.251358 1.936937 0.093136 -0.028701 294477.000000 0 0 1
-28.488683 -7.715397 -11.293819 31.601943 0.264479 1.936255 0.079065 -0.029827 -112618.000000 0 0 1
-27.740393 -8.818197 -11.794219 31.406904 0.307781 1.955764 0.069145 -0.027706 -53574.500000 0 0 1
-26.292643 -8.823097 -11.282419 29.940660 0.323765 1.957164 0.071558 -0.036096 -366983.000000 0 0 1
-25.501493 -7.758997 -11.845519 29.169239 0.295357 1.988974 0.062498 -0.025904 1393580.000000 0 0 1
-24.116433 -7.681697 -11.457019 27.782622 0.308365 1.995862 0.076811 -0.033632 920454.000000 0 0 1
-23.774933 -7.351497 -9.979019 26.811803 0.299887 1.952161 0.074441 -0.033736 -628363.000000 0 0 1
-24.081633 -6.062297 -9.465519 26.575789 0.246615 1.934963 0.072918 -0.026213 495236.000000 0 0 1
-25.443983 -5.685497 -9.348919 27.696993 0.219840 1.915102 0.082893 -0.031240 -209175.000000 0 0 1
-25.636883 -4.299497 -8.771019 27.434763 0.166161 1.896214 0.084170 -0.034422 -458036.000000 0 0 1
-25.525153 -4.207097 -7.402819 26.907896 0.163353 1.849508 0.078197 -0.032290 425903.000000 0 0 1
-25.717813 -2.876097 -6.967519 26.799705 0.111370 1.833803 0.101249 -0.027926 -105280.000000 0 0 1
-25.643383 -2.796297 -5.431419 26.361007 0.108616 1.778323 0.097804 -0.023126 693253.000000 0 0 1
-24.298033 -2.879197 -4.935319 24.960801 0.117945 1.769831 0.058215 -0.018548 731435.000000 0 1 0
-24.238433 -2.692897 -3.531419 24.641921 0.110647 1.714601 0.053746 -0.012384 21277.400000 0 1 0
-22.800133 -2.943297 -3.025919 23.187610 0.128381 1.701667 0.030114 -0.012181 -141225.000000 0 1 0
-22.512433 -4.338897 -3.163619 23.143988 0.190399 1.707919 0.036416 -0.013423 932006.000000 0 1 0
-21.266833 -4.696397 -2.549919 21.927983 0.217344 1.687346 0.017583 -0.009910 179455.000000 0 1 0
-21.072033 -6.251397 -2.598019 22.132787 0.288397 1.688451 0.027687 -0.011471 -113157.000000 0 1 0
-21.762033 -7.000797 -1.596319 22.916053 0.311242 1.640512 0.044278 -0.010941 350713.000000 0 1 0
-22.514633 -8.037397 -2.112219 23.999374 0.342884 1.658922 0.058749 -0.014476 -503626.000000 0 1 0
-22.895733 -9.027697 -0.966819 24.630239 0.375580 1.610060 0.067401 -0.017119 -789717.000000 0 1 0
-21.835433 -9.582397 -0.253919 23.846865 0.413540 1.581444 0.041857 -0.006636 -365410.000000 0 1 0
-22.143833 -10.467697 0.761781 24.505149 0.441581 1.539705 0.027635 0.002701 -832150.000000 0 1 0
-20.915933 -10.978197 1.495181 23.669234 0.483347 1.507584 0.038119 -0.001167 -601100.000000 0 1 0
-20.273233 -11.896297 0.647381 23.514782 0.530656 1.543262 0.037556 0.000377 90537.400000 0 1 0
-19.068233 -12.317797 1.249181 22.735129 0.573548 1.515824 0.027415 -0.008890 -248169.000000 0 1 0
-18.515233 -13.599697 0.583581 22.980561 0.633516 1.545399 0.041970 -0.008632 139849.000000 0 1 0
-19.288833 -14.804697 0.850481 24.330258 0.654624 1.535834 0.046447 -0.005616 476500.000000 0 1 0
-18.835933 -15.941997 0.209381 24.677591 0.702378 1.562312 0.054823 -0.013203 -64487.300000 0 1 0
-17.684633 -16.706697 0.939981 24.346325 0.756970 1.532178 0.047342 -0.014012 136825.000000 0 1 0
-16.414633 -16.084697 0.894281 22.999074 0.775246 1.531903 0.048644 -0.010162 285592.000000 0 1 0
-15.366133 -16.865997 1.421081 22.860433 0.831898 1.508593 0.055179 -0.011525 265964.000000 0 1 0
-15.117333 -16.627997 2.931581 22.663147 0.832949 1.441078 0.052425 -0.015302 -377829.000000 0 1 0
-14.687733 -15.351197 3.315081 21.502989 0.807481 1.416011 0.026572 -0.011361 11789.800000 0 1 0
-14.060733 -15.300997 4.584181 21.280025 0.827614 1.353673 0.015929 -0.006507 230050.000000 0 1 0
-14.908233 -15.702797 5.859681 22.431431 0.811349 1.306504 0.041641 -0.009370 136875.000000 0 1 0
-15.785833 -14.657497 6.328581 22.451853 0.748352 1.285050 0.044697 -0.012695 531349.000000 0 1 0
-16.154133 -14.805897 7.710181 23.229669 0.741878 1.232468 0.055329 -0.018680 122953.000000 0 1 0
-16.990533 -16.011797 8.272181 24.768626 0.755750 1.230275 0.033859 -0.000458 -119964.000000 0 1 0
-16.429633 -17.305597 8.040581 25.180697 0.811358 1.245789 0.029244 0.003800 -261792.000000 0 0 1
-16.976533 -18.356297 8.818481 26.512675 0.824429 1.231723 0.034134 0.003437 -278166.000000 0 0 1
-16.578333 -18.565097 10.278681 26.928707 0.841871 1.179162 0.037881 0.003254 -7933.970000 0 0 1
-15.289133 -19.140097 10.411481 26.617661 0.896787 1.168916 0.028885 -0.001891 72060.600000 0 0 1
-15.019533 -19.513197 11.771881 27.293377 0.914799 1.124853 0.039338 -0.008290 257498.000000 0 0 1
-13.682433 -20.310997 11.900181 27.227925 0.977977 1.118471 0.036781 -0.007801 554615.000000 0 0 1
-12.557133 -19.459997 11.778581 25.982842 0.997747 1.100308 0.032194 -0.009581 -1022900.000000 0 0 1
-11.415433 -20.149397 12.138781 26.146899 1.055343 1.088005 0.029727 -0.008607 -542177.000000 0 0 1
-10.260733 -19.259597 12.625081 25.211255 1.081286 1.046306 0.029167 -0.008405 42994.000000 0 0 1
-9.625933 -18.553397 11.610881 23.910242 1.092204 1.063744 0.027588 -0.010345 -480366.000000 0 1 0
-8.481833 -17.872597 12.101181 23.190727 1.127697 1.021824 0.021504 -0.011478 271553.000000 0 1 0
-7.743333 -17.154997 10.949381 21.774804 1.146800 1.043908 0.010581 -0.015650 147253.000000 0 1 0
-6.873133 -18.006897 10.224181 21.817933 1.206169 1.083076 0.016847 -0.007089 -183794.000000 0 1 0
-6.251733 -17.330997 9.155181 20.573404 1.224599 1.109621 0.022297 -0.007073 401133.000000 0 1 0
-5.025933 -18.096297 8.538381 20.631043 1.299891 1.144105 0.017979 -0.004497 1171650.000000 0 1 0
-3.875533 -18.188497 9.396481 20.835907 1.360860 1.102938 0.026867 -0.005081 -137714.000000 0 1 0
-2.796733 -18.580297 8.612381 20.669356 1.421396 1.141013 0.037952 -0.009189 -395410.000000 0 1 0
-1.473433 -18.839097 9.330481 21.074640 1.492744 1.112150 0.033772 -0.018524 288321.000000 0 1 0
-0.420033 -19.343597 8.521081 21.141428 1.549085 1.155948 0.043545 -0.014569 433796.000000 0 1 0
0.742267 -19.702497 9.269481 21.786754 -1.533140 1.131322 0.047486 -0.014348 297161.000000 0 1 0
1.921967 -20.158597 8.411081 21.927364 -1.475741 1.177118 0.053382 -0.030585 -244061.000000 0 1 0
1.794567 -21.430597 7.806081 22.878502 -1.487253 1.222606 0.050325 -0.019172 -139279.000000 0 1 0
1.781067 -22.525297 8.781981 24.242203 -1.491891 1.200105 0.055736 -0.018172 -18244.500000 0 1 0
1.508667 -23.968397 8.270081 25.399889 -1.507935 1.239155 0.045654 -0.018565 175524.000000 0 0 1
1.605367 -24.898097 9.328181 26.636580 -1.506408 1.213010 0.063143 -0.014468 -154375.000000 0 0 1
1.576967 -26.263847 8.862081 27.763519 -1.510825 1.245912 0.064594 -0.016997 -679480.000000 0 0 1
1.755567 -27.248367 10.036081 29.090865 -1.506457 1.218567 0.070471 -0.020217 359257.000000 0 0 1
0.762867 -27.242917 11.051081 29.408925 -1.542801 1.185566 0.068124 -0.025745 -29250.400000 0 0 1
-0.536933 -27.624967 10.657481 29.614338 1.551362 1.202662 0.044451 -0.022491 -420321.000000 0 0 1
-1.544533 -27.797637 11.779681 30.230036 1.515290 1.170525 0.047709 -0.025028 -364468.000000 0 0 1
-1.200033 -28.867907 12.581381 31.513287 1.529250 1.160108 0.041086 -0.026089 -298817.000000 0 0 1
-1.655333 -28.917647 13.926181 32.138901 1.513616 1.122632 0.030866 -0.028781 -346198.000000 0 0 1
-0.846433 -29.937857 14.745081 33.382767 1.542531 1.113307 0.024777 -0.008649 93735.900000 0 0 1
-1.069733 -29.685557 16.104281 33.789414 1.534776 1.074005 0.028244 -0.011882 -106319.000000 0 0 1
-0.672233 -30.773017 16.912381 35.120637 1.548955 1.068373 0.015539 -0.005537 -95578.300000 0 0 1
-0.934633 -30.624027 18.437581 35.758201 1.540286 1.029067 0.013785 -0.003773 145923.000000 0 0 1
-2.315233 -30.576517 18.736281 35.935107 1.495221 1.022315 0.015309 -0.004734 -8503.650000 0 0 1
-2.591333 -30.437297 20.087781 36.560402 1.485864 0.989101 0.025601 -0.009902 -274647.000000 0 0 1
-4.082933 -30.385377 20.403281 36.827101 1.437225 0.983600 0.051452 -0.016759 9727.090000 0 0 1
-4.939433 -29.303627 19.973281 35.805482 1.403806 0.979030 0.057660 -0.020738 470273.000000 0 0 1
-6.085833 -29.088967 20.760581 36.251994 1.364557 0.961032 0.058187 -0.021519 78700.800000 0 0 1
-5.932133 -27.985957 21.849381 35.997215 1.361920 0.918549 0.065367 -0.026153 -333873.000000 0 0 1
-5.047433 -28.433857 22.856981 36.829369 1.395112 0.901265 0.064718 -0.025902 60168.500000 0 0 1
-5.019933 -27.545967 23.934681 36.835431 1.390536 0.863510 0.063799 -0.031883 -183889.000000 0 0 1
-3.984533 -27.894757 25.038681 37.695219 1.428914 0.844319 0.062578 -0.031521 82444.400000 0 0 1
-4.262633 -29.022387 25.901681 39.132673 1.424965 0.847454 0.062725 -0.025259 293915.000000 0 0 1
-3.644133 -30.232327 25.420581 39.667105 1.450837 0.875194 0.050368 -0.023174 197148.000000 0 0 1
-3.837033 -31.362447 26.422481 41.188268 1.449056 0.874338 0.054063 -0.007767 118275.000000 0 0 1
-3.120533 -31.205657 27.629681 41.796292 1.471129 0.848571 0.053941 -0.016022 465816.000000 0 0 1
-3.714733 -32.079057 28.585181 43.127459 1.455510 0.846235 0.047861 -0.014338 -70181.200000 0 0 1
-3.106633 -31.786217 29.973881 43.800095 1.473371 0.817107 0.066089 -0.019931 -1126910.000000 0 0 1
-1.800133 -32.175387 30.084181 44.085757 1.514907 0.819754 0.061471 -0.013213 -1023120.000000 0 0 1
-1.276433 -31.891317 31.359581 44.744929 1.530793 0.794205 0.070756 -0.030637 -649779.000000 0 0 1
-28.115093 3.117603 -10.452919 30.156947 -0.110436 1.924759 0.126841 -0.023759 -179121.000000 0 0 1
-29.081153 2.710603 -11.384319 31.347465 -0.092940 1.942459 0.127187 -0.032667 -197182.000000 0 0 1
-29.908063 3.766403 -11.752519 32.354285 -0.125273 1.942544 0.111420 -0.029397 226789.000000 0 0 1
-30.837973 3.515503 -13.016519 33.656636 -0.113509 1.967895 0.108603 -0.026066 1089430.000000 0 0 1
-31.864403 2.530803 -12.699919 34.395248 -0.079258 1.948982 0.107304 -0.027752 998954.000000 0 0 1
-32.603563 2.189103 -13.887619 35.505640 -0.067042 1.972665 0.098587 -0.027114 325387.000000 0 0 1
-33.937383 1.484203 -13.520619 36.561674 -0.043706 1.949593 0.087108 -0.026485 220352.000000 0 0 1
-33.715853 0.121603 -13.255419 36.228161 -0.003607 1.945382 0.106564 -0.028610 -447640.000000 0 0 1
-34.889009 -0.479697 -12.833919 37.177716 0.013748 1.923253 0.091844 -0.021633 -909323.000000 0 0 1
-34.695402 -1.919197 -12.301319 36.861588 0.055259 1.911040 0.110700 -0.022208 -84114.900000 0 0 1
-34.260409 -2.793597 -13.333019 36.869353 0.081360 1.940811 0.095049 -0.015829 153011.000000 0 0 1
-33.902003 -4.096497 -12.873819 36.494689 0.120250 1.931314 0.108147 -0.018733 75156.100000 0 0 1
-33.537133 -5.057097 -14.038619 36.706898 0.149663 1.963245 0.105805 -0.017999 130224.000000 0 0 1
-33.343013 -6.343497 -13.529619 36.538296 0.188003 1.950113 0.096495 -0.024286 121387.000000 0 0 1
-33.411723 -7.369397 -14.466519 37.147428 0.217087 1.970815 0.086609 -0.014622 -693346.000000 0 0 1
-33.450283 -8.764197 -13.889819 37.264724 0.256247 1.952750 0.078236 -0.016639 -136876.000000 0 0 1
-32.192313 -9.236097 -13.469919 36.098327 0.279399 1.953193 0.082946 -0.023769 401797.000000 0 0 1
-31.356233 -9.628197 -14.553619 35.884863 0.297920 1.988392 0.082146 -0.022746 -405155.000000 0 0 1
-30.242453 -10.650397 -14.185819 35.061010 0.338604 1.987342 0.059351 -0.020382 -78142.200000 0 0 1
-30.700383 -12.003497 -14.001919 35.814120 0.372714 1.972472 0.053618 -0.020688 -459145.000000 0 0 1
-29.717843 -12.860897 -13.588519 35.116958 0.408431 1.968118 0.052847 -0.019785 -1014860.000000 0 0 1
-29.832033 -14.368597 -14.019619 35.957704 0.448860 1.971311 0.053605 -0.021293 -312076.000000 0 0 1
-29.765443 -14.490897 -15.447319 36.532005 0.453061 2.007377 0.046237 -0.019356 155509.000000 0 0 1
-29.823623 -15.851897 -15.927119 37.341723 0.488546 2.011442 0.056249 -0.021858 -588229.000000 0 0 1
-28.626223 -16.771097 -15.664519 36.689338 0.529961 2.011914 0.027484 -0.019364 185671.000000 0 0 1
-27.511973 -16.298597 -16.447519 35.959336 0.534826 2.045857 0.021110 -0.021254 230513.000000 0 0 1
-26.407903 -17.200097 -16.408619 35.531162 0.577305 2.050830 0.024397 -0.025525 -44233.400000 0 0 1
-25.202513 -16.570997 -17.091519 34.668208 0.581639 2.086334 0.020624 -0.025946 -494215.000000 0 0 1
-25.424953 -16.242697 -18.418619 35.348253 0.568496 2.118891 0.015923 -0.027346 -1095870.000000 0 0 1
-24.257033 -15.904697 -19.062919 34.709623 0.580353 2.152217 0.013250 -0.014098 -1334300.000000 0 0 1
-24.334333 -15.490097 -20.512019 35.395562 0.566864 2.188921 0.021531 -0.017818 -184044.000000 0 0 1
-24.749733 -16.514897 -21.382619 36.640244 0.588424 2.193930 0.021496 -0.024082 692015.000000 0 0 1
-26.167663 -16.698197 -21.345919 37.672598 0.567981 2.173190 0.031890 -0.024486 -69842.800000 0 0 1
-26.577253 -17.910797 -22.148419 38.957663 0.593004 2.175509 0.029403 -0.021702 -293612.000000 0 0 1
-26.251163 -17.930597 -23.497719 39.531920 0.599253 2.207314 0.034019 -0.016563 -7952.350000 0 0 1
-26.748273 -19.112797 -24.044419 40.729636 0.620420 2.202279 0.035268 -0.020380 -401818.000000 0 0 1
-26.073303 -19.445897 -25.388779 41.261970 0.640818 2.233572 0.035119 -0.027392 -176511.000000 0 0 1
-24.731733 -19.830797 -25.279189 40.545734 0.675860 2.243974 0.021027 -0.028035 -502706.000000 0 0 1
-24.507433 -21.194597 -25.031519 40.943890 0.713037 2.228576 0.015472 -0.020503 -933876.000000 0 0 1
-22.990433 -21.347897 -24.900319 40.053946 0.748370 2.241669 0.015472 -0.007374 -186609.000000 0 0 1
-22.465833 -21.159597 -26.205859 40.486902 0.755465 2.274791 0.012339 -0.016111 -567645.000000 0 0 1
-21.075433 -21.260197 -26.350729 39.881459 0.789762 2.292582 0.018842 -0.012239 -414263.000000 0 0 1
-20.639033 -21.293497 -27.814349 40.657357 0.801004 2.324187 0.032761 -0.012624 -549956.000000 0 0 1
-20.971633 -22.485797 -28.438329 41.882682 0.820227 2.317196 0.061858 -0.018056 -124680.000000 0 0 1
-21.382033 -22.203297 -29.789959 42.867463 0.804239 2.339121 0.045005 -0.026820 -539472.000000 0 0 1
-20.302333 -22.354797 -30.854989 43.173511 0.833476 2.366954 0.053925 -0.033494 -214323.000000 0 0 1
-19.959533 -23.681397 -31.237979 43.988667 0.870476 2.360489 0.064320 -0.045242 30058.100000 0 0 1
-19.283633 -23.628597 -32.474729 44.550837 0.886307 2.387563 0.068399 -0.040139 -89709.600000 0 0 1
-18.838633 -24.949797 -33.130999 45.552712 0.924064 2.385192 0.068625 -0.031130 291541.000000 0 0 1
-18.128933 -24.773497 34.060950 45.853382 0.939054 0.733519 0.068257 -0.030322 323201.000000 0 0 1
-18.997933 -24.728297 32.933116 45.354165 0.915707 0.758117 0.081345 -0.028806 -520598.000000 0 0 1
-18.246033 -24.575297 31.592851 43.988307 0.932142 0.769570 0.079744 -0.023760 209742.000000 0 0 1
-17.485733 -23.370297 31.518591 42.957458 0.928446 0.747021 0.060543 -0.019969 4742.070000 0 0 1
-16.509633 -23.422797 30.501951 41.851695 0.956821 0.754213 0.064779 -0.016777 -341482.000000 0 0 1
-15.877733 -22.045497 30.356401 40.738402 0.946625 0.730030 0.035778 -0.012702 141498.000000 0 0 1
-16.766433 -20.966297 29.912261 40.192564 0.896247 0.731424 0.039456 -0.014525 413841.000000 0 0 1
-16.201033 -19.691797 29.811371 39.229557 0.882348 0.707605 0.033229 -0.014554 -62628.000000 0 0 1
-15.554733 -19.053197 31.111801 39.660032 0.886144 0.668968 0.035704 -0.019447 190418.000000 0 0 1
-15.258033 -17.699397 31.078231 38.883578 0.859339 0.644727 0.034268 -0.016637 -509280.000000 0 0 1
-14.265233 -17.391997 32.006411 39.120183 0.883848 0.612600 0.042110 -0.022362 -525980.000000 0 0 1
-13.890533 -15.888897 31.878011 38.231028 0.852403 0.584794 0.043969 -0.015345 274369.000000 0 0 1
-12.995133 -15.637097 30.773121 36.883292 0.877410 0.583866 0.058970 -0.022123 297974.000000 0 0 1
-12.751133 -14.286897 30.676381 36.162787 0.842137 0.558057 0.046134 -0.020891 84362.500000 0 0 1
-11.317133 -14.071697 30.140591 35.136098 0.893471 0.539776 0.045839 -0.022120 242523.000000 0 0 1
-10.802233 -12.758897 30.170581 34.492631 0.868254 0.505987 0.054447 -0.026225 -580374.000000 0 0 1
-9.452033 -12.759297 30.543421 34.424426 0.933212 0.479425 0.057691 -0.023826 -266151.000000 0 0 1
-8.951033 -11.295897 30.553411 33.782084 0.900698 0.440763 0.050071 -0.020622 -335002.000000 0 0 1
-9.496233 -10.531497 31.578881 34.616709 0.837044 0.422068 0.054675 -0.017314 -139273.000000 0 0 1
-9.069533 -9.193797 31.510781 34.054539 0.792202 0.388961 0.038934 -0.013557 115737.000000 0 0 1
-9.975233 -8.166797 32.280981 34.760086 0.686044 0.379960 0.032491 -0.013122 588636.000000 0 0 1
-11.261633 -7.952197 31.699031 34.567186 0.614829 0.410236 0.044104 -0.016751 758933.000000 0 0 1
-12.253533 -7.265397 32.472873 35.460154 0.535199 0.413409 0.049622 -0.014712 455643.000000 0 0 1
-11.943033 -5.806097 32.946667 35.522242 0.452506 0.383144 0.037614 -0.015172 -508227.000000 0 0 1
-11.806533 -4.903497 31.864691 34.333613 0.393644 0.381546 0.040598 -0.011320 150699.000000 0 0 1
-12.094933 -3.573397 32.272301 34.649069 0.287273 0.372544 0.041287 -0.009139 -113957.000000 0 0 1
-11.344333 -2.540397 31.407671 33.490137 0.220301 0.354505 0.027916 -0.013014 288854.000000 0 0 1
-9.942233 -2.478297 31.593571 33.213607 0.244291 0.313618 0.033335 -0.014940 429020.000000 0 0 1
-9.302933 -1.507197 30.723671 32.136586 0.160617 0.297630 0.035448 -0.010823 -81807.400000 0 0 1
-7.896133 -1.171897 31.201291 32.206254 0.147339 0.250470 0.024887 -0.015935 -642532.000000 0 0 1
-7.819833 -0.433697 32.439028 33.371071 0.055404 0.236899 0.038533 -0.025555 450549.000000 0 0 1
-6.461233 -0.069897 32.707460 33.339621 0.010817 0.195046 0.032946 -0.021419 640681.000000 0 0 1
-6.311733 0.726103 33.996914 34.585479 -0.114537 0.184749 0.061269 -0.027074 -664362.000000 0 0 1
-6.935833 1.977803 34.118899 34.872865 -0.277785 0.208321 0.070208 -0.025108 -214518.000000 0 0 1
-6.571433 3.008303 33.210082 33.987397 -0.429309 0.214282 0.067872 -0.023697 -514621.000000 0 0 1
-7.369533 4.295003 33.354192 34.427594 -0.527680 0.250367 0.072251 -0.020588 -47491.000000 0 0 1
-8.698033 4.036903 32.935210 34.302775 -0.434531 0.283321 0.061133 -0.013629 37015.100000 0 0 1
-9.479533 5.230803 32.962398 34.694992 -0.504224 0.317361 0.036908 -0.007037 736869.000000 0 0 1
-10.879733 5.048203 32.260081 34.417521 -0.434436 0.355951 0.026460 -0.005527 575730.000000 0 0 1
-11.435133 6.346603 32.155661 34.713515 -0.506681 0.386284 0.033058 0.001058 92416.200000 0 0 1
-12.752333 6.193303 31.634991 34.666290 -0.452110 0.421301 0.013073 0.008014 41390.500000 0 0 1
-13.668433 7.398903 31.811911 35.405755 -0.496149 0.454466 0.010661 0.004507 -598070.000000 0 0 1
-14.429833 7.537403 32.951080 36.753315 -0.481366 0.458885 0.015785 0.000627 -341962.000000 0 0 1
-14.920633 8.849703 33.000134 37.282051 -0.535344 0.483984 0.019322 0.002167 166762.000000 0 0 1
-15.741733 9.066903 -34.124942 38.659055 -0.522569 2.652406 0.025931 0.005975 610414.000000 0 0 1
-14.887933 9.235203 -32.975159 37.340335 -0.555223 2.653220 0.015710 0.000324 179154.000000 0 0 1
-15.554633 9.906303 -31.914059 36.859037 -0.567091 2.617625 0.016129 0.002563 -1178880.000000 0 0 1
-14.799333 10.145903 -30.589089 35.463389 -0.600972 2.611092 0.022928 -0.007904 -42563.100000 0 0 1
-13.903733 11.225303 -30.579469 35.417865 -0.679212 2.612749 0.030995 -0.013815 64296.200000 0 0 1
-12.663233 10.996403 -31.237299 35.454861 -0.715064 2.648861 0.036859 -0.019466 -532155.000000 0 0 1
-11.761933 12.212403 -31.231449 35.537153 -0.804186 2.644220 0.037167 -0.021756 -630987.000000 0 0 1
-12.194833 13.247903 -32.093819 36.799920 -0.826764 2.630308 0.033940 -0.027517 135708.000000 0 0 1
-11.344833 14.396003 -32.180619 37.034340 -0.903382 2.623853 0.030243 -0.029498 132975.000000 0 0 1
-11.686533 15.480903 -31.161969 36.705609 -0.924167 2.584830 0.040081 -0.031859 -427894.000000 0 0 1
-12.814433 16.192303 -31.553969 37.710122 -0.901327 2.562118 0.044070 -0.034501 -575477.000000 0 0 1
-13.109133 17.155203 -30.610129 37.458382 -0.918301 2.527292 0.028580 -0.026865 49440.300000 0 0 1
-14.547433 17.727503 -30.764159 38.370896 -0.883612 2.501027 0.020998 -0.031043 99437.700000 0 0 1
-14.731533 18.573503 -31.928819 39.767355 -0.900248 2.502924 0.024801 -0.030191 -400650.000000 0 0 1
-15.985333 19.182703 -32.065349 40.641033 -0.876066 2.479959 0.024614 -0.028457 -20739.900000 0 0 1
-16.448833 20.313303 -31.077529 40.607970 -0.890134 2.442313 0.006333 -0.028802 -423981.000000 0 0 1
-15.871833 21.539303 -31.350289 41.215255 -0.935746 2.435107 0.012164 -0.019401 -58520.200000 0 0 1
-16.545733 22.642403 -30.751579 41.618497 -0.939735 2.402221 -0.004287 -0.015244 -222806.000000 0 0 1
-17.794033 23.110303 -31.526749 42.949384 -0.914642 2.395055 0.008440 -0.016387 -52109.000000 0 0 1
-18.939433 22.456803 -31.019099 42.722297 -0.870163 2.383376 0.020401 -0.020546 630550.000000 0 0 1
-20.003833 22.250903 -31.977969 43.793225 -0.838527 2.389416 0.052189 -0.024553 839433.000000 0 0 1
-21.305933 21.623603 -31.372509 43.654980 -0.792798 2.372651 0.062216 -0.036016 929427.000000 0 0 1
-22.175133 22.451303 -30.542909 43.916589 -0.791587 2.339878 0.082138 -0.035057 922100.000000 0 0 1
-22.872833 23.551103 -31.078859 45.207482 -0.800007 2.328798 0.084869 -0.025265 81852.700000 0 0 1
-24.209633 23.212703 -31.820259 46.232724 -0.764379 2.329888 0.091616 -0.036267 14581.600000 0 0 1
-24.098233 22.431503 -33.010129 46.621516 -0.749593 2.357522 0.105866 -0.034644 811500.000000 0 0 1
-25.391253 21.876803 -33.307889 47.251727 -0.711183 2.353083 0.115286 -0.031948 678856.000000 0 0 1
-25.354413 20.635903 34.157625 47.280335 -0.683158 0.763459 0.113781 -0.025103 -216642.000000 0 0 1
-24.783133 19.468103 -33.796569 46.210592 -0.665860 2.391110 0.115509 -0.027906 70810.600000 0 0 1
-24.616433 18.681903 33.480779 45.562537 -0.649185 0.745378 0.099732 -0.047786 -209227.000000 0 0 1
-24.133333 17.236903 33.664205 44.864321 -0.620217 0.722196 0.085439 -0.032674 -67151.000000 0 0 1
-25.140003 16.223003 33.909949 45.222674 -0.573069 0.722970 0.072057 -0.022680 958685.000000 0 0 1
-25.545473 15.522003 32.702913 44.305578 -0.546005 0.740514 0.073254 -0.022648 -139590.000000 0 0 1
-26.416303 14.260003 32.897537 44.535566 -0.494993 0.739686 0.046500 -0.014865 -220822.000000 0 0 1
-27.586403 14.496803 33.658864 45.870318 -0.483843 0.746923 0.047961 -0.015673 -431825.000000 0 0 1
-28.511993 13.476903 33.417885 45.949056 -0.441550 0.756444 0.042342 -0.010958 -348896.000000 0 0 1
-28.436383 12.219503 -34.171134 46.104344 -0.405856 2.405607 0.037439 -0.014830 3312.130000 0 0 1
-27.206313 11.524603 34.126271 45.139808 -0.400685 0.713596 0.046066 -0.022823 15402.400000 0 0 1
-27.500983 10.130503 34.120678 44.979460 -0.352944 0.709660 0.049882 -0.013437 -782793.000000 0 0 1
-26.252113 9.243603 -33.998929 43.937965 -0.338552 2.455605 0.046500 -0.017171 331061.000000 0 0 1
-25.388573 8.978103 33.342793 42.859396 -0.339903 0.679388 0.026724 -0.010026 -17566.500000 0 0 1
-24.702533 10.137003 32.939058 42.402305 -0.389408 0.681193 0.013288 -0.009483 -1738810.000000 0 0 1
-23.401233 9.756003 32.211391 40.992328 -0.394991 0.666823 0.020519 -0.005299 -362041.000000 0 0 1
-23.584533 9.324803 30.910601 39.983089 -0.376515 0.687095 0.024896 -0.010204 771224.000000 0 0 1
-22.300933 9.168703 30.283501 38.710298 -0.390069 0.672429 0.032206 -0.009244 759091.000000 0 0 1
-22.387233 8.953403 28.797081 37.558268 -0.380449 0.697063 0.045476 -0.017833 -203841.000000 0 0 1
-22.851833 10.104603 28.202711 37.678935 -0.416331 0.724998 0.063856 -0.026233 114391.000000 0 0 1
-23.169633 9.945903 26.818901 36.810410 -0.405477 0.754567 0.060384 -0.031553 -358302.000000 0 0 1
-23.721433 11.268703 26.172451 37.076775 -0.443483 0.787105 0.068920 -0.032939 319847.000000 0 0 1
-24.984233 11.694003 26.660681 38.363440 -0.437767 0.802446 0.072827 -0.030209 735234.000000 0 0 1
-25.988893 11.458103 25.631651 38.258231 -0.415248 0.836636 0.087821 -0.021764 868852.000000 0 0 1
-27.305333 12.266903 25.819051 39.530767 -0.422230 0.859075 0.084697 -0.016319 259084.000000 0 0 1
-27.178603 13.622003 25.400121 39.615673 -0.464610 0.874783 0.092832 -0.013749 -536746.000000 0 0 1
-28.289203 14.379103 25.715941 40.845406 -0.470257 0.889768 0.069450 -0.015946 -567268.000000 0 0 1
-28.229343 15.737403 24.944851 40.826551 -0.508571 0.913478 0.064015 -0.009916 -103349.000000 0 0 1
-27.200963 16.574803 25.396071 40.737905 -0.547263 0.897711 0.082539 -0.017867 -78676.000000 0 0 1
-27.021353 17.682503 24.547641 40.563667 -0.579455 0.920825 0.062126 -0.019389 -223619.000000 0 0 1
-23.388433 -9.166197 31.000161 39.900475 0.373514 0.681010 0.064287 -0.026642 -160468.000000 0 0 1
-22.184833 -8.814897 30.354541 38.616931 0.378210 0.666416 0.069429 -0.026494 -240331.000000 0 0 1
-22.283033 -8.865497 28.930391 37.577894 0.378659 0.692146 0.066808 -0.021804 -311889.000000 0 0 1
-21.005833 -8.578597 28.140981 36.149027 0.387719 0.678570 0.063364 -0.023143 -1055670.000000 0 0 1
-20.653233 -7.201597 28.214281 35.699645 0.335508 0.659459 0.067861 -0.020030 50128.000000 0 0 1
-19.436733 -6.910597 28.884911 35.494803 0.341604 0.620172 0.080488 -0.022409 909223.000000 0 0 1
-18.133833 -7.330597 28.054081 34.199488 0.384165 0.608849 0.083691 -0.021536 -47827.500000 0 0 1
-17.674733 -8.687497 28.115371 34.326999 0.456841 0.611051 0.082687 -0.020557 230143.000000 0 0 1
-17.262333 -9.151597 29.408221 35.306987 0.487474 0.586416 0.066971 -0.018534 -215841.000000 0 0 1
-15.821933 -8.803497 29.856661 34.917837 0.507752 0.545140 0.058672 -0.017272 337973.000000 0 0 1
-14.756433 -9.518197 29.234621 34.102953 0.572866 0.540899 0.065143 -0.013204 -118284.000000 0 0 1
-13.507633 -8.976997 29.626131 33.774994 0.586561 0.500877 0.056616 -0.020851 19253.200000 0 0 1
-12.349533 -9.912097 29.265981 33.275490 0.676342 0.495974 0.052413 -0.018047 -321810.000000 0 0 1
-12.111433 -9.812197 27.854711 31.919444 0.680905 0.510180 0.057690 -0.016493 -26938.800000 0 0 1
-10.920333 -10.431597 27.396671 31.283373 0.762513 0.503792 0.058290 -0.017670 221748.000000 0 0 1
-10.584633 -10.050097 25.952691 29.775511 0.759499 0.512315 0.049102 -0.019683 -27491.100000 0 0 1
-11.559233 -10.473897 25.045401 29.505770 0.736179 0.557027 0.045200 -0.020583 -43084.400000 0 0 1
-11.008033 -10.292297 23.716181 28.099206 0.751809 0.566068 0.042337 -0.030772 -99816.700000 0 0 1
-11.827433 -10.872597 22.601051 27.729209 0.743360 0.617959 0.042933 -0.036924 -1063190.000000 0 0 1
-12.015733 -12.304397 22.518651 28.334884 0.797267 0.652230 0.043627 -0.030606 765993.000000 0 0 1
-13.297033 -12.719797 22.023051 28.698765 0.763215 0.696041 0.038398 -0.022873 426135.000000 0 0 1
-14.497333 -12.430497 22.922751 29.835255 0.708794 0.694598 0.039048 -0.018652 -761849.000000 0 0 1
-15.739533 -12.834397 22.370551 30.214172 0.684075 0.737132 0.013810 -0.000569 -21842.900000 0 0 1
-16.723933 -12.833197 23.356151 31.462528 0.654516 0.734228 0.016518 0.005050 -235971.000000 0 0 1
-18.006633 -13.641797 23.057651 32.279912 0.648346 0.775168 0.031165 -0.002263 -341980.000000 0 0 1
-17.877533 -15.099697 23.184451 32.941248 0.701362 0.790047 0.030276 -0.001850 469941.000000 0 0 1
-19.150633 -15.721497 22.994651 33.803346 0.687379 0.822696 0.036033 0.003973 378985.000000 0 0 1
-19.901133 -15.729597 24.352781 35.164375 0.668852 0.805790 0.040174 -0.000258 -488596.000000 0 0 1
-19.317433 -16.647597 25.282241 35.909573 0.711300 0.789708 0.035754 0.004604 225762.000000 0 0 1
-20.106733 -16.698097 26.444051 37.180573 0.693048 0.779546 0.041441 -0.004195 -207536.000000 0 0 1
-19.635333 -17.602797 27.597141 38.170760 0.730870 0.762673 0.047292 -0.005555 -236510.000000 0 0 1
-19.828733 -18.973497 27.304711 38.713298 0.763361 0.787942 0.062533 -0.003361 153371.000000 0 0 1
-19.639433 -19.799497 28.420961 39.818066 0.789457 0.775929 0.062249 -0.008865 -372815.000000 0 0 1
-19.760533 -21.300497 28.146541 40.452659 0.822885 0.801278 0.066565 -0.001762 81495.900000 0 0 1
-21.085833 -21.705597 27.868081 41.138488 0.799881 0.826545 0.074925 -0.005904 80311.000000 0 0 1
-21.074033 -23.059197 27.414981 41.562274 0.830349 0.850494 0.085486 0.003812 -7992.640000 0 0 1
-22.503633 -23.534297 27.140471 42.389642 0.807782 0.875957 0.081495 0.000568 -166104.000000 0 0 1
-23.349633 -23.777097 28.236971 43.679311 0.794468 0.867860 0.081977 -0.001972 614327.000000 0 0 1
-24.485233 -24.543297 27.804751 44.441020 0.786582 0.894825 0.062715 0.000061 243245.000000 0 0 1
-25.307773 -25.266627 28.853771 45.950255 0.784585 0.891899 0.029387 -0.005676 -253847.000000 0 0 1
-26.249283 -24.437997 29.548141 46.468626 0.749679 0.881657 0.013422 -0.000148 522509.000000 0 0 1
-26.562903 -25.158617 30.784171 47.814318 0.758254 0.871306 0.021763 -0.003771 359277.000000 0 0 1
-27.843133 -24.629597 31.506701 48.729142 0.724233 0.867719 0.013662 0.002402 820735.000000 0 0 1
-29.052793 -24.792397 30.779711 49.052200 0.706440 0.892472 0.032114 0.003666 512322.000000 0 0 1
-29.863733 -23.632297 30.700661 48.916854 0.669437 0.892318 0.022195 -0.004180 938989.000000 0 0 1
-31.105213 -23.834797 29.726391 49.186280 0.653829 0.921830 0.024614 -0.001428 1393530.000000 0 0 1
-32.293473 -24.412397 30.268311 50.547049 0.647301 0.928776 0.026799 -0.000168 463476.000000 0 0 1
-33.353403 -24.582497 29.366551 50.785263 0.635149 0.954215 0.029294 -0.006485 -240367.000000 0 0 1
-34.453754 -25.434387 29.985711 52.279174 0.635918 0.959940 0.031295 -0.009179 -258075.000000 0 0 1
-34.066127 -26.814547 29.956801 52.696592 0.666845 0.966143 0.035654 -0.008168 289985.000000 0 0 1
-34.993190 -27.662207 30.618641 54.103809 0.668923 0.969243 0.031742 -0.009434 213959.000000 0 0 1
-34.376784 -29.050227 30.862641 54.572718 0.701615 0.969718 0.028582 -0.009585 451745.000000 0 0 1
-33.545383 -29.136797 32.023901 54.770210 0.715181 0.946292 0.033043 -0.003680 88063.500000 0 0 1
-33.124603 -30.453907 32.333741 55.408939 0.743417 0.947706 0.034327 -0.010282 282610.000000 0 0 1
-32.096323 -30.631197 33.488786 55.587255 0.762045 0.924224 0.024193 -0.012493 206150.000000 0 0 1
-32.669353 -30.385107 -33.695429 55.909957 0.749187 2.217643 0.021155 -0.004523 532642.000000 0 0 1
-31.652783 -30.458537 -32.670689 54.744818 0.766173 2.210280 0.012935 -0.009063 529926.000000 0 0 1
-32.162753 -29.907677 -31.336689 53.952756 0.749083 2.190529 0.017544 -0.011925 -218269.000000 0 0 1
-32.314863 -28.516207 -31.275429 53.250135 0.723033 2.198553 0.023047 -0.011290 362513.000000 0 0 1
-31.076283 -27.831507 -31.027749 51.990858 0.730371 2.210294 0.021401 -0.007333 266495.000000 0 0 1
-31.161633 -26.285347 -31.029239 51.232612 0.700718 2.221384 0.014784 0.000240 -315499.000000 0 0 1
-31.744173 -25.731297 -29.880649 50.622578 0.681161 2.202181 0.020334 -0.004507 -141262.000000 0 0 1
-31.656613 -24.331997 -29.787569 49.814521 0.655314 2.211762 0.032612 -0.004159 7149.180000 0 0 1
-30.445643 -23.806597 -28.993739 48.314885 0.663630 2.214422 0.030443 -0.004960 -114460.000000 0 0 1
-30.495923 -22.411897 -28.848779 47.587252 0.633776 2.222107 0.034142 -0.003648 -490304.000000 0 0 1
-29.416423 -21.951497 -28.126379 46.241619 0.641086 2.224648 0.023684 -0.006978 -881798.000000 0 0 1
-28.956813 -20.487097 -28.409999 45.446080 0.615745 2.246103 0.032798 -0.012956 -89452.800000 0 0 1
-28.478913 -20.303597 -29.711369 45.891720 0.619354 2.274995 0.032519 -0.011167 261320.000000 0 0 1
-28.210623 -18.965697 -29.915749 45.282325 0.591885 2.292480 0.035183 -0.017690 -351462.000000 0 0 1
-27.764483 -18.577197 -31.334779 45.802261 0.589685 2.324209 0.033168 -0.012571 -102054.000000 0 0 1
-28.779813 -18.377197 -32.282829 46.991276 0.568280 2.328144 0.039468 -0.021830 107226.000000 0 0 1
-29.530773 -17.177497 -32.120969 46.892319 0.526841 2.325392 0.052668 -0.019285 -1037390.000000 0 0 1
-30.121453 -16.585597 -33.466289 47.983085 0.503322 2.342643 0.060138 -0.029455 260889.000000 0 0 1
-31.232683 -17.289897 -34.040039 49.326923 0.505590 2.332410 0.058405 -0.032240 1598490.000000 0 0 1
-32.426053 -17.000697 -33.239789 49.450543 0.482891 2.307949 0.054754 -0.025736 -13203.300000 0 0 1
-33.689923 -17.518297 -33.952709 50.938081 0.479508 2.300366 0.059205 -0.031741 -270757.000000 0 0 1
-33.795903 -18.913297 -34.176217 51.651618 0.510209 2.293837 0.049460 -0.031422 -56833.400000 0 0 1
-34.736507 -19.225497 33.264421 51.795428 0.505501 0.873396 0.039282 -0.024446 -512008.000000 0 0 1
-35.266047 -20.682797 33.302779 52.730895 0.530418 0.887231 0.032114 -0.028331 44704.900000 0 0 1
-34.280180 -21.680797 33.067070 52.331815 0.563945 0.886829 0.046541 -0.022118 -11728.800000 0 0 1
-34.692862 -22.916297 33.536008 53.417368 0.583755 0.892059 0.040928 -0.015485 -761151.000000 0 0 1
-33.561903 -23.964397 33.434644 53.090198 0.620084 0.889539 0.033277 -0.005408 1032960.000000 0 0 1
-32.436003 -23.828997 -34.110476 52.758317 0.633602 2.273839 0.025520 -0.010420 689625.000000 0 0 1
-31.567903 -22.756497 34.000296 51.676017 0.624599 0.852701 0.028685 -0.010376 -1012270.000000 0 0 1
-30.285023 -22.819997 -33.584709 50.654393 0.645742 2.295638 0.024724 -0.012411 -230763.000000 0 0 1
-29.426533 -23.901697 -33.883109 50.845620 0.682166 2.300155 0.019616 -0.010918 760207.000000 0 0 1
-28.081823 -23.796997 -33.405429 49.707228 0.702992 2.307761 0.024655 -0.012463 818458.000000 0 0 1
-27.774483 -24.119897 -31.890509 48.684658 0.715091 2.285035 0.021310 -0.004808 -674450.000000 0 0 1
-27.993493 -25.468007 -31.497409 49.237606 0.738194 2.264907 0.021299 -0.004797 -70704.300000 0 0 1
-27.516403 -25.698237 -30.172029 48.248349 0.751245 2.246374 0.009752 -0.008469 -327804.000000 0 0 1
-27.051163 -27.101857 -29.908179 48.587810 0.786334 2.233879 0.008297 -0.008735 -153280.000000 0 0 1
-28.070303 -28.049237 -30.099929 49.806700 0.785023 2.219727 -0.001044 0.003584 56014.700000 0 0 1
-27.734563 -29.165967 -29.287649 49.775757 0.810549 2.199865 0.003459 -0.001706 -115033.000000 0 0 1
-28.395313 -30.483867 -29.684079 51.153734 0.820855 2.189883 -0.001827 0.006083 -311152.000000 0 0 1
-28.065843 -30.918547 -31.001429 52.007083 0.833724 2.209431 0.019981 -0.010325 384961.000000 0 0 1
-28.667643 -32.169097 -31.307069 53.261779 0.842890 2.199128 0.037867 -0.003224 -582014.000000 0 0 1
-28.309973 -32.774367 -32.660929 54.243433 0.858354 2.216947 0.020624 -0.013201 -431690.000000 0 0 1
-26.912363 -32.772907 -32.806219 53.615173 0.883275 2.229236 0.024675 -0.016907 -324422.000000 0 0 1
-26.520773 -33.369467 -34.056329 54.559200 0.899258 2.244915 0.028464 -0.016896 -232825.000000 0 0 1
-25.019033 -33.437827 34.083246 53.904619 0.928432 0.886293 0.034464 -0.021535 -114567.000000 0 0 1
-24.751633 -34.047187 32.856052 53.398262 0.942191 0.908027 0.029144 -0.012690 368171.000000 0 0 1
-23.734433 33.548321 33.023103 52.719432 -0.955074 0.893879 0.027640 -0.005716 176919.000000 0 0 1
-23.499433 32.652510 31.778011 51.266478 -0.946983 0.902233 0.036788 -0.002744 -139214.000000 0 0 1
-24.613033 31.875579 31.376301 51.052191 -0.913263 0.908927 0.020348 -0.015844 127683.000000 0 0 1
-24.428833 31.271659 30.103601 49.808748 -0.907636 0.921804 0.015755 -0.001612 -434723.000000 0 0 1
-25.759593 30.633729 29.725941 49.855928 -0.871615 0.931991 0.013711 -0.001068 -383995.000000 0 0 1
-26.098353 29.571359 30.620961 49.932280 -0.847703 0.910628 0.017702 -0.005343 729793.000000 0 0 1
-27.374573 29.016899 30.269381 50.075774 -0.814514 0.921694 0.026551 -0.009596 903040.000000 0 0 1
-27.885723 27.927189 31.277281 50.356824 -0.786141 0.900634 0.032477 -0.027189 221036.000000 0 0 1
-27.054633 26.768169 31.154961 49.184547 -0.780076 0.884819 0.029344 -0.028014 637603.000000 0 0 1
-27.626543 25.542709 31.742051 49.226148 -0.746226 0.870007 0.032426 -0.024304 488848.000000 0 0 1
-28.731613 24.800879 30.958561 48.979809 -0.712103 0.886578 0.037086 -0.022495 171682.000000 0 0 1
-28.349073 24.566379 29.613641 47.792726 -0.714034 0.902530 0.041471 -0.019643 11945.300000 0 0 1
-29.420073 24.043009 28.844151 47.703166 -0.685160 0.921459 0.041089 -0.010725 291701.000000 0 0 1
-28.872083 23.760919 27.439571 46.380044 -0.688592 0.937724 0.057863 -0.022227 -104358.000000 0 0 1
-27.910503 22.748849 27.427061 45.263120 -0.683859 0.919840 0.059588 -0.021932 -391383.000000 0 0 1
-27.349923 22.581849 26.146421 44.063517 -0.690195 0.935544 0.060850 -0.014558 45152.700000 0 0 1
-25.987993 21.820149 26.276551 42.917966 -0.698439 0.911892 0.075370 -0.021490 217974.000000 0 0 1
-25.961803 20.526749 26.807201 42.590946 -0.669015 0.890002 0.086414 -0.032384 -1161880.000000 0 0 1
-24.680933 20.133949 27.049421 41.787505 -0.684283 0.866748 0.105617 -0.028205 -1390320.000000 0 0 1
-24.571833 18.786449 27.787311 41.579325 -0.652750 0.838880 0.104505 -0.027115 1241330.000000 0 0 1
-23.199533 18.377249 28.063151 40.785807 -0.669929 0.811982 0.109632 -0.020006 1487800.000000 0 0 1
-23.197833 17.306049 28.969631 40.949705 -0.640949 0.784921 0.095853 -0.018519 -326496.000000 0 0 1
-21.970533 16.401549 29.089031 39.973577 -0.641273 0.755824 0.096403 -0.027769 -311452.000000 0 0 1
-21.020933 16.774749 30.053181 40.329462 -0.673522 0.729974 0.124696 -0.026056 165267.000000 0 0 1
-19.808133 16.042749 29.942561 39.322880 -0.680753 0.705243 0.109985 -0.030992 144152.000000 0 0 1
-18.678733 16.599849 30.807581 39.668087 -0.726539 0.681492 0.096901 -0.032389 -727670.000000 0 0 1
-18.837033 16.372749 32.179971 40.724087 -0.715523 0.659669 0.081497 -0.027139 350509.000000 0 0 1
-17.674033 16.666249 32.944081 40.932234 -0.756060 0.635383 0.065297 -0.022049 -565818.000000 0 0 1
-17.854033 16.389949 -33.978879 41.736808 -0.742670 2.522013 0.051718 -0.028942 470982.000000 0 0 1
-18.904733 17.152649 -33.353499 42.000693 -0.736845 2.488351 0.068197 -0.028594 285954.000000 0 0 1
-20.154233 16.566849 -33.587179 42.529427 -0.688014 2.481181 0.080075 -0.022852 -1518950.000000 0 0 1
-21.328733 17.219549 -32.886569 42.813014 -0.679201 2.446734 0.087556 -0.040340 -961815.000000 0 0 1
-21.322633 17.080249 -31.513429 41.707143 -0.675374 2.427348 0.065056 -0.033348 151445.000000 0 0 1
-22.349933 17.869649 -30.944219 42.147225 -0.674460 2.395274 0.050458 -0.031105 -333465.000000 0 0 1
-22.502733 17.643949 -29.371959 40.992608 -0.664958 2.369595 0.046972 -0.030260 130862.000000 0 0 1
-23.067933 16.411449 -28.910559 40.463386 -0.618363 2.366687 0.045865 -0.033728 337569.000000 0 0 1
-24.404633 16.181549 -29.365849 41.470251 -0.585496 2.357626 0.062521 -0.036871 137965.000000 0 0 1
-25.215693 15.212249 -28.520559 40.995927 -0.542831 2.340180 0.061614 -0.033349 -280947.000000 0 0 1
-24.804433 13.905449 -28.729079 40.422536 -0.510948 2.361317 0.033185 -0.023399 -39353.300000 0 0 1
-25.627503 13.058049 -27.974669 40.123106 -0.471245 2.342310 0.018584 -0.014160 11724.600000 0 0 1
-25.132563 11.605449 -27.927159 39.322492 -0.432598 2.360590 0.027085 -0.013577 549788.000000 0 0 1
-24.001133 11.341249 -27.074469 37.917083 -0.441431 2.366054 0.032124 -0.010448 427264.000000 0 0 1
-23.476733 10.115749 -27.561129 37.591239 -0.406844 2.393782 0.025366 -0.004180 471330.000000 0 0 1
-22.316333 9.617049 -26.617189 36.041381 -0.406893 2.401665 0.033433 -0.010745 369005.000000 0 0 1
-22.804933 8.778749 -25.590799 35.383900 -0.367465 2.379268 0.041506 -0.012017 615851.000000 0 0 1
-21.770533 8.171249 -24.784119 33.984967 -0.359065 2.388047 0.051652 -0.005574 580941.000000 0 0 1
-22.420233 7.020449 -23.963419 33.558889 -0.303459 2.366092 0.057175 -0.003796 283500.000000 0 0 1
-22.796833 5.899449 -24.704919 34.129637 -0.253228 2.380170 0.055207 -0.016241 39232.100000 0 0 1
-23.247133 4.913049 -23.846319 33.663247 -0.208275 2.357995 0.057152 -0.010151 -444962.000000 0 0 1
34.161101 25.061603 -10.907519 43.749728 0.632942 1.822770 0.027845 -0.003613 -268200.000000 0 0 1
34.948691 24.258003 -10.046719 43.712678 0.606758 1.802705 0.027399 -0.010967 -415439.000000 0 0 1
35.924041 23.637303 -10.820019 44.343338 0.581965 1.817290 0.022062 -0.012040 -400695.000000 0 0 1
-35.262249 23.114203 -9.996919 43.331640 -0.580228 1.803601 0.046289 -0.017974 -364486.000000 0 0 1
-35.627246 22.058203 -9.202919 42.901733 -0.554373 1.786988 0.003544 -0.004039 -1133490.000000 0 0 1
-34.649159 21.780803 -8.300519 41.759624 -0.561191 1.770898 0.048426 0.002634 -1177690.000000 0 0 1
-34.922789 20.733103 -7.202919 41.247361 -0.535762 1.746324 0.030329 0.020597 -238180.000000 0 0 1
-35.341602 19.448703 -7.662919 41.060945 -0.503078 1.758520 0.029311 0.010275 245614.000000 0 0 1
-35.724299 18.724003 -6.533519 40.859524 -0.482761 1.731388 0.024639 -0.009412 -549700.000000 0 0 1
36.038681 17.385003 -6.913319 40.605650 0.449467 1.741885 0.036829 0.008295 -562889.000000 0 0 1
34.801301 17.683403 -7.497219 39.749737 0.470126 1.760543 0.037369 0.005062 -627502.000000 0 0 1
34.237291 16.512803 -8.018719 38.847968 0.449391 1.778704 0.048372 0.015532 167424.000000 0 0 1
33.270901 16.739403 -9.208119 38.365999 0.466144 1.813170 0.016918 -0.003866 119793.000000 0 0 1
32.600011 15.604803 -9.702119 37.421941 0.446442 1.833055 0.034905 -0.014775 -226655.000000 0 0 1
31.933861 15.923803 -10.862819 37.300668 0.462567 1.866302 0.061609 -0.011000 128994.000000 0 0 1
31.079201 14.676303 -11.449119 36.226964 0.441180 1.892347 0.053407 -0.016964 1168320.000000 0 0 1
29.868801 14.299803 -10.764019 34.820881 0.446507 1.885070 0.051186 -0.012018 823233.000000 0 0 1
29.996431 13.750503 -9.448419 34.323968 0.429821 1.849669 0.050689 -0.007828 -548213.000000 0 0 1
28.918381 12.665203 -9.187119 32.879831 0.412800 1.853981 0.067495 -0.006902 270187.000000 0 0 1
29.316451 11.462303 -9.909119 33.000444 0.372711 1.875774 0.067994 -0.010446 463878.000000 0 0 1
28.390011 10.414103 -9.788419 31.784578 0.351582 1.883846 0.083590 -0.012722 -454125.000000 0 0 1
28.963641 9.102503 -10.373719 32.083673 0.304500 1.900046 0.090393 -0.011592 -732315.000000 0 0 1
30.137071 8.681303 -9.774819 32.850497 0.280468 1.872927 0.065652 -0.012682 -267751.000000 0 0 1
30.096581 7.320903 -9.620019 32.433695 0.238613 1.871933 0.080881 -0.014009 53751.600000 0 0 1
31.107451 6.800003 -8.534419 32.965889 0.215212 1.832665 0.077452 -0.012927 781460.000000 0 0 1
32.438031 7.151903 -8.900719 34.388928 0.217007 1.832602 0.061319 -0.011285 1202610.000000 0 0 1
33.456981 6.732803 -7.944419 35.040177 0.198585 1.799508 0.065027 -0.012186 966757.000000 0 0 1
34.923911 6.934303 -8.379419 36.578392 0.196005 1.801930 0.065498 -0.019210 71312.000000 0 0 1
35.202361 6.081103 -9.443519 36.950860 0.171059 1.829233 0.071786 -0.014754 -1043880.000000 0 0 1
-35.860367 6.184203 -9.829519 37.693895 -0.170773 1.834618 0.064667 -0.014717 -1681510.000000 0 0 1
-35.487297 5.379903 -11.102819 37.570789 -0.150455 1.870793 0.067477 -0.022961 259081.000000 0 0 1
-34.138981 5.481703 -11.558919 36.457204 -0.159211 1.893418 0.080525 -0.023431 784369.000000 0 0 1
-33.817973 6.671303 -12.234619 36.576598 -0.194770 1.911864 0.061955 -0.019670 174621.000000 0 0 1
-32.871883 7.711203 -11.498819 35.668560 -0.230417 1.899039 0.062355 -0.011080 -26317.500000 0 0 1
-33.596093 8.455803 -10.546419 36.213603 -0.246569 1.866307 0.068185 -0.010798 156336.000000 0 0 1
-34.247805 9.549603 -11.083619 37.241827 -0.271931 1.872987 0.055980 -0.008797 -38604.900000 0 0 1
-35.217207 10.284303 -10.133219 38.061801 -0.284124 1.840277 0.039097 -0.007761 90681.100000 0 0 1
-34.506901 10.899403 -9.087519 37.310940 -0.305944 1.816833 0.050409 -0.007082 -197720.000000 0 0 1
-35.256273 11.832303 -8.329319 38.110179 -0.323797 1.791134 0.048134 -0.007291 -145713.000000 0 0 1
-34.425280 12.585103 -7.228519 37.359553 -0.350484 1.765510 0.061771 -0.006787 173900.000000 0 0 1
-33.619053 13.530603 -7.899619 37.090726 -0.382632 1.785421 0.071931 -0.009957 -208765.000000 0 0 1
-33.146893 14.550603 -7.029819 36.876211 -0.413646 1.762603 0.075271 -0.007164 149162.000000 0 0 1
-32.189813 15.530903 -7.751319 36.571519 -0.449533 1.784366 0.061242 -0.007149 160113.000000 0 0 1
-32.898253 16.341903 -8.654019 37.739169 -0.461037 1.802166 0.050501 -0.009880 254658.000000 0 0 1
-32.125863 17.506603 -8.867919 37.645614 -0.498949 1.808594 0.056351 -0.006746 163851.000000 0 0 1
-32.788903 18.332803 -9.920719 38.853887 -0.509815 1.828989 0.037310 -0.013659 127805.000000 0 0 1
-32.077923 18.426203 -11.139519 38.634272 -0.521398 1.863281 0.038004 -0.012987 -473387.000000 0 0 1
-32.989413 18.699103 -12.147119 39.818467 -0.515666 1.880800 0.035735 -0.021757 -235893.000000 0 0 1
-32.396303 18.937103 -13.541319 39.893629 -0.528978 1.917113 0.035575 -0.006159 -37621.100000 0 0 1
-31.705783 20.162303 -13.704319 39.994794 -0.566413 1.920535 0.023740 -0.017089 -92268.800000 0 0 1
-31.408953 20.266803 -15.084719 40.308987 -0.573033 1.954360 0.015728 -0.012164 -172758.000000 0 0 1
-30.473873 21.448703 -15.452119 40.341936 -0.613298 1.963869 0.006751 -0.014831 -1643410.000000 0 0 1
-29.197073 21.191803 -14.991819 39.068097 -0.627845 1.964635 0.012831 -0.010123 -267665.000000 0 0 1
-28.378803 22.406503 -14.930319 39.119334 -0.668337 1.962389 0.030437 -0.009424 429893.000000 0 0 1
-27.897653 22.948903 -16.292119 39.627823 -0.688377 1.994488 -0.002332 -0.012979 -1436690.000000 0 0 1
-28.941413 23.551603 -17.025919 41.014209 -0.683080 1.998874 0.011574 -0.004774 -102102.000000 0 0 1
-28.536723 24.250203 -18.225719 41.648454 -0.704372 2.023734 0.002074 -0.006857 -34983.800000 0 0 1
-27.700913 25.536303 -18.072519 41.785874 -0.744761 2.018063 0.012926 -0.006356 -128990.000000 0 0 1
-28.427463 26.619503 -17.650919 42.758316 -0.752566 1.996330 0.021357 -0.004091 -69957.600000 0 0 1
-27.535793 27.732603 -17.552219 42.841540 -0.788959 1.992923 0.021410 -0.005336 444226.000000 0 0 1
-28.173973 29.100503 -17.179819 43.997252 -0.801574 1.971944 0.015066 -0.003346 186325.000000 0 0 1
-28.693833 29.262903 -15.837519 43.937234 -0.795217 1.939555 0.017123 -0.004132 1040190.000000 0 0 1
-27.599643 29.311703 -14.910019 42.932795 -0.815472 1.925473 0.016910 -0.001948 412334.000000 0 0 1
-28.011003 29.929803 -13.562519 43.178135 -0.818503 1.890311 0.018592 -0.005546 -181119.000000 0 0 1
-27.818853 31.298203 -13.614919 44.032172 -0.844186 1.885152 0.029717 -0.003298 363355.000000 0 0 1
-28.382203 32.013203 -12.503519 44.572779 -0.845446 1.855131 0.016480 -0.007603 113908.000000 0 0 1
-27.697153 33.373103 -12.265619 45.070408 -0.878073 1.846416 0.005823 -0.008933 -94838.900000 0 0 1
-27.867883 34.222003 -13.390719 46.120232 -0.887381 1.865382 0.001687 -0.016010 294559.000000 0 0 1
-27.072803 -33.195543 -13.399719 44.882438 0.886642 1.873971 0.022752 -0.018613 19415.500000 0 0 1
-27.362313 -32.339543 -14.691219 44.837196 0.868574 1.904619 0.014726 -0.017374 -280955.000000 0 0 1
-26.738503 -32.860943 -15.831519 45.226388 0.887766 1.928421 0.007921 -0.012121 -66278.200000 0 0 1
-27.177993 -32.253243 -17.053919 45.494518 0.870588 1.955038 0.013773 -0.005291 635527.000000 0 0 1
-26.207773 -32.586443 -18.292419 45.643578 0.893467 1.983150 0.011967 0.000280 244107.000000 0 0 1
-26.379743 -33.848043 -18.937519 46.906402 0.908769 1.986387 0.009349 0.004035 -10691.600000 0 0 1
-25.892873 33.606003 -18.266919 46.189660 -0.914314 1.977383 -0.002302 -0.002924 -898379.000000 0 0 1
-26.025723 32.246003 -19.034919 45.601218 -0.891742 2.001402 0.008155 -0.009250 -768004.000000 0 0 1
-27.295313 31.729403 -19.216019 46.054799 -0.860380 2.001205 0.016373 -0.007975 -637433.000000 0 0 1
-28.105333 32.361403 -20.216219 47.390565 -0.855669 2.011513 0.018597 -0.005905 680638.000000 0 0 1
-29.594073 31.857503 -20.224419 47.955571 -0.822214 2.006151 0.025439 -0.010713 732818.000000 0 0 1
-29.777453 30.509803 -20.565919 47.333939 -0.797545 2.020263 0.025562 -0.018536 650325.000000 0 0 1
-31.176323 30.256503 -20.697719 48.122912 -0.770426 2.015401 0.029968 -0.014279 453568.000000 0 0 1
-31.529523 28.858403 -21.294119 47.753092 -0.741194 2.033000 0.035293 -0.018865 96106.300000 0 0 1
-32.898393 28.516903 -21.470119 48.543630 -0.714177 2.028941 0.031475 -0.022330 352485.000000 0 0 1
-33.060133 27.411303 -22.253919 48.369297 -0.692255 2.048886 0.032981 -0.018239 498732.000000 0 0 1
-34.461888 26.692903 -22.315919 48.970737 -0.659037 2.043954 0.040550 -0.019118 475392.000000 0 0 1
-35.399920 27.421903 -23.039019 50.357835 -0.659080 2.045985 0.023038 -0.009273 -376106.000000 0 0 1
35.961281 26.558003 -23.540219 50.524085 0.636111 2.055471 0.027777 -0.010899 337263.000000 0 0 1
35.111551 27.136103 -24.700219 50.786710 0.657968 2.078706 0.039470 -0.018950 125330.000000 0 0 1
35.836371 27.424603 -25.885589 52.023245 0.653204 2.091600 0.039524 -0.012216 -791803.000000 0 0 1
34.968151 27.637803 -26.937179 52.079087 0.668842 2.114415 0.054713 -0.010882 -447698.000000 0 0 1
35.659191 27.986303 -28.263439 53.419407 0.665421 2.128319 0.052546 -0.007071 -118686.000000 0 0 1
36.033251 26.854703 -29.013849 53.491809 0.640471 2.144085 0.035001 0.005372 -196234.000000 0 0 1
-35.810493 27.196303 -30.269609 54.205900 -0.649522 2.163275 0.015381 0.009978 -1099310.000000 0 0 1
-35.483141 25.929403 -31.095209 53.835855 -0.631069 2.186573 0.007385 0.003328 1211470.000000 0 0 1
-34.344508 25.198603 -30.557989 52.424284 -0.632988 2.193087 0.017410 -0.002955 1168670.000000 0 0 1
-33.065343 25.799603 -30.804569 52.037082 -0.662589 2.204301 -0.001911 0.011235 23752.500000 0 0 1
-32.048643 25.321203 -29.753979 50.532941 -0.668667 2.200374 -0.004567 -0.001860 -210460.000000 0 0 1
-31.796693 23.895803 -29.862989 49.737684 -0.644472 2.214810 0.017489 -0.002158 56192.500000 0 0 1
-32.137723 23.149103 -28.711969 48.919233 -0.624227 2.198053 0.020974 -0.007155 -155804.000000 0 0 1
-32.077613 21.637303 -28.864789 48.273411 -0.593427 2.211730 0.009490 -0.018047 78892.000000 0 0 1
-30.775583 21.124503 -29.109279 47.336363 -0.601543 2.233113 0.050096 -0.010680 55156.800000 0 0 1
-30.762703 19.846203 -29.675649 47.125999 -0.572950 2.251974 0.032412 -0.015488 13281.800000 0 0 1
-29.392593 19.176403 -29.971889 46.151632 -0.578077 2.277621 0.055622 -0.027306 -58382.800000 0 0 1
-28.634973 19.841803 -30.988719 46.625739 -0.605960 2.297791 0.066483 -0.029790 640550.000000 0 0 1
-27.314753 19.266003 -31.032399 45.610135 -0.614296 2.319083 0.078421 -0.037629 712007.000000 0 0 1
-27.040063 17.940003 -31.838579 45.461014 -0.585779 2.346683 0.080535 -0.031769 -438819.000000 0 0 1
-27.524113 16.872703 -31.087439 44.818453 -0.549935 2.337313 0.052910 -0.028014 46312.300000 0 0 1
-27.352933 15.657403 -31.792589 44.767242 -0.519894 2.360543 0.034312 -0.015492 -132930.000000 0 0 1
-27.745153 14.317603 -31.183919 44.127362 -0.476397 2.355591 0.032859 -0.016858 371529.000000 0 0 1
-29.161163 14.145603 -31.053339 44.886316 -0.451643 2.334806 0.023405 -0.018103 519768.000000 0 0 1
-29.640113 12.830103 -30.773889 44.611435 -0.408512 2.332038 0.020968 -0.010949 53636.600000 0 0 1
-29.440733 12.175703 -29.444879 43.382086 -0.392147 2.316833 0.009266 -0.024310 -194254.000000 0 0 1
-30.208793 12.795503 -28.420769 43.405486 -0.400658 2.284679 0.010973 -0.022089 262815.000000 0 0 1
-30.223453 11.927703 -27.287199 42.430160 -0.375886 2.269347 0.008365 -0.017582 -78967.400000 0 0 1
-29.856413 12.524103 -25.922239 41.475547 -0.397184 2.245929 0.007071 -0.019404 -68837.000000 0 0 1
-28.492413 12.861503 -25.841739 40.558986 -0.424018 2.261578 0.018644 -0.020935 -219212.000000 0 0 1
-28.200853 13.519303 -24.578319 39.776292 -0.447027 2.236883 0.015791 -0.014599 716907.000000 0 0 1
-26.695143 13.600603 -24.171119 38.494806 -0.471202 2.249656 0.026146 -0.006598 792245.000000 0 0 1
-25.818363 14.433603 -24.966119 38.706897 -0.509760 2.271825 0.043308 -0.016147 1196570.000000 0 0 1
-24.427633 14.497403 -24.631319 37.597684 -0.535614 2.285149 0.035119 -0.017445 899033.000000 0 0 1
-24.111733 15.178803 -23.256519 36.778219 -0.561843 2.255373 0.021855 -0.008017 -828495.000000 0 0 1
-24.346733 16.574703 -23.326019 37.571097 -0.597708 2.240623 0.033133 -0.011675 172806.000000 0 0 1
-24.439533 17.112203 -22.046219 37.096550 -0.610850 2.207183 0.025976 -0.008158 1112000.000000 0 0 1
-25.921853 17.261703 -21.487319 37.836672 -0.587481 2.174745 0.020509 -0.008421 1193250.000000 0 0 1
-26.661753 16.058003 -21.366119 37.752081 -0.542099 2.172392 0.023036 -0.007309 842850.000000 0 0 1
-27.904393 16.233903 -20.662819 38.329452 -0.526906 2.140146 0.028337 -0.004247 499448.000000 0 0 1
-28.963373 15.100503 -20.817919 38.733550 -0.480594 2.138224 0.027912 -0.002987 382777.000000 0 0 1
-29.631673 14.946203 -22.082419 39.862994 -0.467161 2.157907 0.027699 -0.003010 227279.000000 0 0 1
-30.655623 15.888303 -22.254019 41.078544 -0.478167 2.143306 0.024560 -0.007995 -804187.000000 0 0 1
-31.393333 15.919703 -23.576819 42.365608 -0.469315 2.160974 0.014377 -0.005728 -679695.000000 0 0 1
-32.262823 14.841603 -23.766419 42.731787 -0.431157 2.160574 0.025605 -0.006323 -149148.000000 0 0 1
-32.707393 15.054803 -25.127459 43.906832 -0.431376 2.180092 0.026827 -0.010236 815433.000000 0 0 1
-34.133643 14.416103 -25.388679 44.916752 -0.399618 2.171519 0.024709 -0.015237 928754.000000 0 0 1
-34.002803 13.070603 -25.791399 44.634376 -0.366984 2.186872 0.020082 -0.015032 210687.000000 0 0 1
-33.865813 12.109803 -24.713119 43.638044 -0.343413 2.172831 0.012300 -0.015068 -282052.000000 0 0 1
-33.798433 10.715503 -25.278189 43.544723 -0.307017 2.190152 0.015887 -0.023791 454632.000000 0 0 1
-34.998860 10.228403 -25.894689 44.722202 -0.284331 2.188313 0.024996 -0.022580 343451.000000 0 0 1
-34.826301 8.971503 -26.505819 44.675693 -0.252125 2.205941 0.018128 -0.008417 446442.000000 0 0 1
-36.179253 8.244803 -26.803539 45.774937 -0.224061 2.196355 0.032479 -0.008395 392591.000000 0 0 1
35.510041 7.698203 -25.719189 44.516312 0.213486 2.186763 0.028225 -0.001092 -271822.000000 0 0 1
34.367581 7.010903 -26.180839 43.768935 0.201236 2.212000 0.032887 -0.000416 4826.240000 0 0 1
33.600851 6.288603 -25.063419 42.387954 0.185016 2.203449 0.039661 -0.007049 374163.000000 0 0 1
34.372871 5.191503 -24.534219 42.548488 0.149902 2.185379 0.029935 -0.009514 676878.000000 0 0 1
33.570651 4.407903 -23.644019 41.297189 0.130555 2.180389 0.037132 -0.013102 362235.000000 0 0 1
34.394941 3.435103 -22.752019 41.381956 0.099542 2.152927 0.025367 -0.010707 61358.700000 0 0 1
34.701491 2.256503 -23.495119 41.967915 0.064935 2.164983 0.025249 -0.010723 1604.010000 0 0 1
35.888521 1.705503 -22.985519 42.652418 0.047487 2.139931 0.039910 -0.009099 -284999.000000 0 0 1
-35.733728 0.650303 -23.767219 42.920891 -0.018197 2.157651 0.062074 -0.003780 134207.000000 0 0 1
35.945421 -0.569097 -23.848419 43.140981 -0.015831 2.156519 0.049103 -0.008502 235362.000000 0 0 1
-35.460753 -1.527897 -24.194619 42.955548 0.043060 2.169108 0.065792 -0.011255 311119.000000 0 0 1
-22.988233 28.999503 27.623271 46.178730 -0.900516 0.929566 0.009833 0.003619 337657.000000 0 0 1
-24.177933 29.496303 26.934541 46.691261 -0.884162 0.955911 0.007196 -0.004537 1510240.000000 0 0 1
-24.283833 29.055303 25.604201 45.710943 -0.874616 0.976250 0.005276 0.001978 -332356.000000 0 0 1
-24.537133 27.482703 25.403761 44.751770 -0.841962 0.967136 0.013898 -0.000279 -6433.970000 0 0 1
-25.761543 26.833403 25.765071 45.249613 -0.805775 0.965022 0.029411 0.001330 552575.000000 0 0 1
-25.921383 26.655103 27.165451 46.047523 -0.799353 0.939807 0.028167 -0.003263 -888488.000000 0 0 1
-25.316833 25.377903 27.741781 45.327546 -0.786603 0.912172 0.036856 -0.004143 956940.000000 0 0 1
-23.942233 25.423603 28.189361 44.880176 -0.815397 0.891684 0.034579 -0.001403 876013.000000 0 0 1
-23.759633 26.005703 29.464911 45.923825 -0.830501 0.874209 0.032183 -0.015232 133313.000000 0 0 1
-22.326833 25.812703 30.040891 45.466892 -0.857684 0.849019 0.045066 -0.010449 -16952.000000 0 0 1
-21.315433 26.384203 29.201781 44.757322 -0.891265 0.859987 0.046931 -0.017315 567139.000000 0 0 1
-20.067033 26.233703 29.887931 44.544151 -0.917806 0.835276 0.055401 -0.017979 674317.000000 0 0 1
-19.268133 24.880503 29.625521 43.220040 -0.911844 0.815564 0.062366 -0.016580 -199286.000000 0 0 1
-18.540933 24.932903 28.401541 42.095883 -0.931382 0.830256 0.060480 -0.012772 -60027.700000 0 0 1
-19.186733 24.361103 27.286171 41.305317 -0.903664 0.849183 0.067680 -0.019405 -489514.000000 0 0 1
-19.241333 22.797703 27.297181 40.436373 -0.869794 0.829744 0.061901 -0.016591 -301974.000000 0 0 1
-19.965533 22.210603 28.322131 41.159160 -0.838579 0.811912 0.070391 -0.018088 -142525.000000 0 0 1
-19.673033 20.826303 28.436081 40.365503 -0.813867 0.789127 0.087070 -0.015928 97079.300000 0 0 1
-20.222633 20.231803 29.751891 41.272942 -0.785625 0.765758 0.098808 -0.024546 -86026.700000 0 0 1
-19.406533 20.398303 30.877671 41.786778 -0.810309 0.739309 0.079710 -0.030337 -96084.300000 0 0 1
-19.982633 19.823803 32.013181 42.627837 -0.781408 0.721233 0.081135 -0.026338 60166.800000 0 0 1
-19.176433 20.302503 33.285083 43.449096 -0.813914 0.698091 0.073367 -0.023585 -209864.000000 0 0 1
-19.193633 21.726103 33.456418 44.269075 -0.847208 0.713995 0.039375 -0.022976 690193.000000 0 0 1
-18.137933 22.395403 32.732134 43.611137 -0.890051 0.721909 0.058960 -0.020041 1541140.000000 0 0 1
-16.655333 22.213803 33.262114 43.326913 -0.927440 0.695551 0.046345 -0.003029 701614.000000 0 0 1
-16.019533 20.961603 33.049096 42.287787 -0.918249 0.673685 0.054059 -0.021522 275538.000000 0 0 1
-14.672133 21.200503 33.481249 42.257861 -0.965416 0.656213 0.033729 -0.012905 110690.000000 0 0 1
-13.721033 20.011603 33.196842 41.118868 -0.969764 0.631169 0.020576 -0.016254 1055490.000000 0 0 1
-12.357833 19.989803 33.688957 41.076198 -1.017097 0.609110 0.011477 -0.020063 1183560.000000 0 0 1
-12.212533 20.006803 -33.346329 40.760223 -1.022751 2.528912 0.024283 -0.019393 -688483.000000 0 0 1
-10.758833 19.947503 -32.862089 39.919572 -1.076161 2.537834 0.009644 -0.017970 721194.000000 0 0 1
-9.966633 21.153603 -33.158909 40.574893 -1.130490 2.527380 0.008512 -0.011309 476240.000000 0 0 1
-8.682733 21.216603 -32.587179 39.842921 -1.182348 2.528533 -0.003699 -0.014076 -19699.100000 0 0 1
-7.925733 22.548603 -32.720419 40.520150 -1.232790 2.510714 0.004123 -0.013878 22927.500000 0 0 1
-8.166533 23.500803 -31.722889 40.315279 -1.236350 2.476517 0.013810 -0.012759 287362.000000 0 0 1
-7.633233 23.076103 -30.441499 38.954559 -1.251341 2.467801 0.018063 -0.019211 -48527.000000 0 0 1
-7.225433 24.257603 -29.548639 38.907072 -1.281302 2.433290 0.025114 -0.021099 164463.000000 0 0 1
-6.032433 24.872903 -29.998349 39.432886 -1.332860 2.435256 0.027499 -0.019882 72045.600000 0 0 1
-5.754133 25.972203 -29.197469 39.498830 -1.352768 2.402676 0.048782 -0.021350 113860.000000 0 0 1
-4.402933 26.655103 -29.569639 40.053013 -1.407093 2.401287 0.045559 -0.028617 -454769.000000 0 0 1
-3.338233 25.947903 -29.014699 39.067764 -1.442848 2.407854 0.052043 -0.024049 -165407.000000 0 0 1
-2.058733 26.030503 -29.592959 39.466045 -1.491871 2.418607 0.070278 -0.024232 301350.000000 0 0 1
-1.282333 27.354403 -29.315899 40.116451 -1.523952 2.390246 0.081569 -0.038167 -665885.000000 0 0 1
-0.983833 27.552203 -27.958359 39.265273 -1.535104 2.363193 0.087063 -0.049965 728404.000000 0 0 1
-0.163433 28.734503 -27.749649 39.946732 -1.565109 2.338752 0.091074 -0.045790 -616134.000000 0 0 1
0.259367 28.866403 -26.242619 39.012966 1.561811 2.308600 0.102327 -0.050500 460138.000000 0 0 1
1.434367 28.206603 -25.764399 38.229231 1.519988 2.310332 0.117687 -0.059356 443927.000000 0 0 1
2.620767 28.500803 -26.450899 38.971967 1.479100 2.316809 0.115393 -0.054331 -1367030.000000 0 0 1
3.905167 28.455903 -25.653379 38.510837 1.434413 2.299810 0.106675 -0.051201 -486343.000000 0 0 1
4.488367 27.181703 -25.367949 37.450277 1.407148 2.314987 0.100616 -0.040944 -301917.000000 0 0 1
5.424467 27.361203 -24.375719 37.043703 1.375080 2.288991 0.076979 -0.028355 -498474.000000 0 0 1
6.043567 26.090203 -23.739519 35.788101 1.343170 2.296064 0.069798 -0.029032 -1382.450000 0 0 1
7.065467 26.382503 -22.829719 35.597097 1.309128 2.267035 0.062592 -0.030082 -509478.000000 0 0 1
7.909767 25.269803 -22.665919 34.855003 1.267445 2.278765 0.050620 -0.017859 884150.000000 0 0 1
9.362967 25.611503 -22.170619 35.144709 1.220313 2.253429 0.043878 -0.005318 374327.000000 0 0 1
9.481267 26.038003 -20.831819 34.667516 1.221588 2.215427 0.057108 -0.004403 30581.900000 0 0 1
10.816967 26.291603 -20.436319 35.012830 1.180482 2.194051 0.067481 -0.011527 503780.000000 0 0 1
11.689067 25.077403 -19.959619 34.115932 1.134619 2.195741 0.031937 0.004069 -161227.000000 0 0 1
12.004067 24.247503 -21.031919 34.269237 1.111105 2.231568 0.033903 -0.000889 -235413.000000 0 0 1
12.125567 22.934603 -20.527519 33.081784 1.084452 2.240187 0.020038 0.013829 -323854.000000 0 0 1
12.206167 21.975903 -21.724819 33.224969 1.063791 2.283485 0.034714 -0.006966 32321.500000 0 0 1
11.037767 22.020503 -22.494219 33.357529 1.106150 2.310863 0.037853 -0.015868 29343.900000 0 0 1
11.387167 21.294003 -23.712519 33.843547 1.079729 2.347106 0.027804 -0.022809 -106138.000000 0 0 1
10.543567 21.493803 -24.956719 34.583062 1.114745 2.376973 0.037857 -0.020682 209205.000000 0 0 1
9.229267 20.976203 -24.775019 33.748808 1.156300 2.395137 0.035644 -0.022170 432959.000000 0 0 1
8.424467 20.999303 -25.942389 34.423101 1.189275 2.424368 0.040699 -0.023871 -314577.000000 0 0 1
7.038267 20.356003 -25.813099 33.618747 1.237905 2.446226 0.063457 -0.028301 -41880.000000 0 0 1
5.975267 21.125503 -25.284399 33.485691 1.295150 2.426574 0.088849 -0.026538 100846.000000 0 0 1
6.098667 21.575703 -23.929719 32.792318 1.295319 2.388731 0.086735 -0.025020 433150.000000 0 0 1
4.681367 22.080903 -23.441219 32.541853 1.361880 2.375090 0.100429 -0.032372 1259970.000000 0 0 1
4.074167 23.163903 -24.132619 33.697901 1.396693 2.369061 0.095493 -0.035856 385327.000000 0 0 1
2.669967 23.305403 -23.992219 33.554390 1.456729 2.367456 0.107614 -0.031858 374771.000000 0 0 1
2.026067 24.405003 -24.843619 34.884302 1.487968 2.363384 0.102011 -0.028414 -128539.000000 0 0 1
0.641767 24.201403 -24.982119 34.788303 1.544285 2.371891 0.112000 -0.055577 -310519.000000 0 0 1
0.075167 25.027603 -25.972759 36.068972 1.567793 2.374722 0.098342 -0.052733 915641.000000 0 0 1
-1.472633 24.898403 -26.205489 36.177711 -1.511719 2.380894 0.106416 -0.048401 741998.000000 0 0 1
-1.713233 23.595403 -26.675309 35.654597 -1.498315 2.416079 0.120382 -0.052589 1851400.000000 0 0 1
-3.099633 23.481503 -27.180839 36.052555 -1.439552 2.424809 0.116887 -0.043736 1873240.000000 0 0 1
-3.445433 22.078603 -27.600379 35.512204 -1.415992 2.461013 0.084839 -0.036375 -616944.000000 0 0 1
-2.799933 21.662803 -28.767869 36.120727 -1.442258 2.492176 0.096171 -0.041371 -33780.200000 0 0 1
-3.363433 20.439103 -29.189219 35.792179 -1.407699 2.524423 0.066245 -0.036589 917105.000000 0 0 1
-4.624233 20.615303 -30.146619 36.812944 -1.350138 2.530312 0.031242 -0.030292 516145.000000 0 0 1
-4.285833 20.923903 -31.511779 38.067969 -1.368761 2.545930 0.026668 -0.025082 139162.000000 0 0 1
-3.644633 22.170003 -31.732909 38.881485 -1.407859 2.525503 0.038072 -0.028246 -180738.000000 0 0 1
-3.122033 22.358603 -33.119189 40.081603 -1.432059 2.543292 0.012458 -0.020004 274229.000000 0 0 1
-2.048833 21.450303 -33.447889 39.787869 -1.475570 2.569289 0.018659 -0.014849 572784.000000 0 0 1
-1.447933 21.874603 33.790663 40.279072 -1.504700 0.575512 0.013059 0.001607 -216540.000000 0 0 1
-0.437633 20.849803 33.317308 39.305837 -1.549810 0.559270 0.025892 0.009131 328683.000000 0 0 1
-1.171533 19.665703 32.901006 38.348253 -1.511294 0.539524 0.013074 0.018782 1232900.000000 0 0 1
-0.180533 18.736603 32.443252 37.465417 -1.561161 0.523746 0.036437 0.009511 728015.000000 0 0 1
-0.840533 17.430703 31.924721 36.383014 -1.522612 0.500251 0.019931 0.006728 310692.000000 0 0 1
-1.466433 17.583503 30.621781 35.341526 -1.487591 0.522742 0.010451 0.007001 128402.000000 0 0 1
-1.891233 16.336903 30.142911 34.337534 -1.455545 0.499460 0.001104 0.007130 -234748.000000 0 0 1
-3.017433 16.582903 29.093541 33.623380 -1.390805 0.525093 0.006707 0.007175 -184466.000000 0 0 1
-4.218533 16.986503 29.737891 34.506223 -1.327375 0.531964 -0.011473 0.002513 -23170.800000 0 0 1
-4.556733 18.348803 29.403051 34.956856 -1.327381 0.571438 -0.011423 0.006304 394364.000000 0 0 1
-6.103933 18.540903 29.457791 35.338145 -1.252757 0.585207 -0.029763 -0.000575 493599.000000 0 0 1
-6.710333 17.827403 28.384671 34.183832 -1.210794 0.591054 -0.042461 0.006048 778817.000000 0 0 1
-8.139433 18.097403 28.452071 34.688423 -1.148145 0.609004 -0.042761 0.005071 594478.000000 0 0 1
-8.849933 17.105703 27.512881 33.583999 -1.093352 0.610737 -0.033900 -0.000343 -468790.000000 0 0 1
-9.218533 15.775103 27.955891 33.397111 -1.041947 0.578881 -0.027996 -0.009709 399908.000000 0 0 1
-9.965933 15.736003 29.180941 34.618910 -1.006236 0.568110 -0.025914 -0.008632 -582700.000000 0 0 1
-10.487033 14.317503 29.520381 34.444472 -0.938614 0.541294 -0.019444 -0.009420 30309.900000 0 0 1
-9.488233 13.330603 29.754531 33.956791 -0.952219 0.502779 -0.007563 -0.004631 389710.000000 0 0 1
-8.614233 13.494603 30.865961 34.770920 -1.002657 0.478482 -0.008474 -0.004723 -143949.000000 0 0 1
-9.155333 13.196903 32.283471 36.058298 -0.964278 0.461662 0.016187 -0.018993 -461847.000000 0 0 1
-9.368233 11.816603 32.552314 35.875465 -0.900459 0.433813 0.029372 -0.015719 302319.000000 0 0 1
-9.732533 11.683203 33.900914 37.154964 -0.876233 0.421639 0.026327 -0.008768 -200867.000000 0 0 1
-10.457533 10.319203 34.150796 37.176912 -0.778740 0.406267 0.035346 -0.014246 -56409.100000 0 0 1
-9.612733 9.132003 34.139840 36.624128 -0.759758 0.370440 0.042472 -0.012738 519150.000000 0 0 1
-9.507333 8.501803 -33.081449 35.454933 -0.729622 2.773614 0.061089 -0.017200 -282897.000000 0 0 1
-8.612033 9.083803 -32.012279 34.372498 -0.812052 2.768856 0.044705 -0.016512 -173416.000000 0 0 1
-9.160233 10.342003 -31.609879 34.497121 -0.845921 2.729550 0.041466 -0.016949 245145.000000 0 0 1
-8.186033 10.971003 -30.811459 33.715279 -0.929763 2.723518 0.041359 -0.017916 -4824.640000 0 0 1
-7.306633 12.023803 -31.526539 34.523635 -1.024748 2.721833 0.018835 -0.022659 -160805.000000 0 0 1
-7.877133 13.282003 -31.873129 35.416905 -1.035489 2.690431 0.011420 -0.025869 431857.000000 0 0 1
-6.817933 13.954003 -32.533879 36.050682 -1.116310 2.696216 -0.003690 -0.025534 266421.000000 0 0 1
-7.167733 15.419203 -32.908439 37.041781 -1.135656 2.664675 -0.010060 -0.022770 -394276.000000 0 0 1
-8.039833 15.473803 -33.993999 38.205621 -1.091610 2.667625 -0.019884 -0.027752 -239589.000000 0 0 1
-8.198333 16.837603 34.142255 38.941123 -1.117679 0.501700 -0.007074 -0.024618 -1318770.000000 0 0 1
-8.820433 17.027903 32.773359 37.971602 -1.092854 0.529417 -0.001782 -0.023972 496529.000000 0 0 1
-10.057833 16.384303 32.538971 37.794047 -1.020241 0.533652 -0.018717 -0.019156 148780.000000 0 0 1
-11.196233 16.617003 33.322852 38.883067 -0.977884 0.541374 0.005955 -0.029597 -533910.000000 0 0 1
-12.472333 16.004103 32.662735 38.451848 -0.908792 0.555863 0.028901 -0.031561 201234.000000 0 0 1
-12.406333 14.648303 32.461857 37.712889 -0.868077 0.534030 0.023980 -0.031034 242647.000000 0 0 1
-13.648733 14.133503 32.896580 38.317473 -0.802845 0.538407 0.016489 -0.021081 87139.400000 0 0 1
-13.756433 12.607303 32.819767 37.753419 -0.741838 0.516973 0.014642 -0.014757 -13558.100000 0 0 1
-13.835633 12.061003 31.468671 36.430341 -0.716978 0.528025 -0.004521 -0.011269 168318.000000 0 0 1
-12.658533 11.335403 31.182811 35.511935 -0.730310 0.498933 0.007121 -0.015861 -20159.300000 0 0 1
-12.761033 10.791503 29.748451 34.121413 -0.701969 0.511848 0.010206 -0.013728 -115887.000000 0 0 1
-13.700233 9.740603 29.617721 34.055618 -0.618058 0.516229 0.001653 -0.011160 111865.000000 0 0 1
-13.908333 9.347903 28.314061 32.901536 -0.591760 0.534409 -0.000976 -0.008590 326791.000000 0 0 1
-14.926533 8.190303 28.048361 32.811476 -0.501850 0.545566 0.010159 -0.003499 247727.000000 0 0 1
-14.492433 7.010403 28.664591 32.876057 -0.450546 0.511730 0.007994 0.006447 31108.100000 0 0 1
-15.291933 5.942003 28.254831 32.672405 -0.370615 0.526061 0.012177 0.010208 -256286.000000 0 0 1
-14.463733 4.648403 28.340821 32.156016 -0.310957 0.492077 0.022336 0.009486 885946.000000 0 0 1
-13.369133 4.339303 27.447821 30.837414 -0.313849 0.473272 0.022551 -0.000708 469823.000000 0 0 1
-13.710133 4.396403 26.082131 29.792174 -0.310309 0.504391 0.025827 -0.001602 -123639.000000 0 0 1
-12.628933 4.306003 24.931721 28.277594 -0.328602 0.491391 0.012054 0.001588 188493.000000 0 0 1
-11.828833 3.140803 24.859301 27.708677 -0.259532 0.457484 0.009373 0.001718 131536.000000 0 0 1
-11.186933 2.975503 23.600451 26.286543 -0.259961 0.456014 0.009130 0.002530 -379010.000000 0 0 1
-10.331533 1.699103 23.743461 25.949556 -0.162999 0.415325 0.005694 -0.002905 -78992.800000 0 0 1
-8.987233 2.035603 24.047411 25.752514 -0.222741 0.365937 -0.000908 -0.007461 -145812.000000 0 0 1
-8.240133 0.901403 24.388021 25.758258 -0.108959 0.327642 -0.000907 -0.003328 -427879.000000 0 0 1
-6.744833 1.225103 24.334431 25.281578 -0.179677 0.274591 0.010467 -0.011624 -1130230.000000 0 0 1
-6.323333 1.482203 23.011851 23.910808 -0.230245 0.275079 0.012188 -0.011150 32777.600000 0 1 0
-4.939033 1.648503 22.772551 23.360237 -0.322144 0.224783 0.016104 -0.012544 114819.000000 0 1 0
-4.362033 2.953403 23.384751 23.970742 -0.595171 0.221569 0.027032 -0.012511 -828193.000000 0 1 0
-4.039533 2.799803 24.762461 25.245518 -0.606080 0.195937 0.027660 -0.010778 21624.200000 0 0 1
-4.057933 4.097103 25.327541 25.975708 -0.790201 0.223863 0.032769 -0.010290 48105.400000 0 0 1
3.838367 -23.786197 13.090681 27.420470 -1.410806 1.073097 0.075374 -0.003476 296700.000000 0 0 1
3.564667 -25.011797 13.714881 28.747083 -1.429230 1.073458 0.075532 -0.016015 316120.000000 0 0 1
2.349967 -25.671987 13.335781 29.024409 -1.479513 1.093400 0.055682 -0.014225 567558.000000 0 0 1
2.020167 -26.889717 14.162281 30.458302 -1.495809 1.087192 0.045342 -0.003756 -58872.500000 0 0 1
1.770367 -26.683247 15.536481 30.927530 -1.504546 1.044481 0.057664 -0.010726 62538.500000 0 0 1
1.913267 -27.914677 16.233581 32.348399 -1.502364 1.045077 0.045013 -0.013514 -212391.000000 0 0 1
1.668467 -27.884617 17.770081 33.107574 -1.511033 1.004230 0.025442 -0.010166 -231596.000000 0 0 1
2.592467 -27.127617 18.502181 32.938719 -1.475520 0.974339 0.045451 -0.019557 8112.690000 0 0 1
2.374267 -27.325187 19.875581 33.872433 -1.484125 0.943723 0.037483 -0.022513 -158839.000000 0 0 1
3.021767 -26.256617 20.747381 33.600518 -1.456215 0.905271 0.043040 -0.020222 10640.800000 0 0 1
2.419267 -24.953897 20.844681 32.604456 -1.474149 0.877183 0.022210 -0.017782 1193.030000 0 0 1
3.172367 -24.289697 21.784081 32.781084 -1.440926 0.843929 0.047052 -0.028753 -90581.200000 0 0 1
2.299067 -23.176997 22.391881 32.308749 -1.471924 0.805072 0.042620 -0.026036 -212471.000000 0 0 1
1.966467 -22.113197 21.529681 30.925518 -1.482102 0.800736 0.035791 -0.018335 -228295.000000 0 0 1
2.941167 -21.246797 21.009281 30.024436 -1.433242 0.795764 0.037207 -0.008113 -308726.000000 0 0 1
2.193667 -20.340897 19.999881 28.610479 -1.463366 0.796742 0.016935 -0.014733 -5072.590000 0 0 1
1.571567 -19.336497 20.652681 28.335546 -1.489700 0.754139 0.013895 -0.020114 -441346.000000 0 0 1
0.865867 -18.393297 19.849981 27.075540 -1.523756 0.747878 0.026565 -0.027396 54219.600000 0 0 1
0.787767 -17.046897 20.536181 26.701161 -1.524617 0.693346 0.014450 -0.025331 731816.000000 0 0 1
2.036467 -16.330497 20.596881 26.364063 -1.446733 0.674133 0.007389 -0.015826 572804.000000 0 0 1
1.834867 -15.012997 21.037181 25.909840 -1.449181 0.623332 0.017294 -0.013138 1022880.000000 0 0 1
3.039067 -14.099397 20.544681 25.102049 -1.358498 0.612094 -0.005774 -0.020349 215043.000000 0 0 1
3.095267 -13.723197 19.163481 23.772796 -1.348958 0.633248 -0.016540 -0.015816 -421819.000000 0 1 0
1.961867 -13.235897 18.473781 22.810491 -1.423645 0.626847 0.000190 -0.006901 -133623.000000 0 1 0
1.280667 -11.982997 19.049081 22.541070 -1.464327 0.564075 0.005284 -0.004157 -570655.000000 0 1 0
1.973767 -10.775497 18.886781 21.833863 -1.389633 0.525601 0.004728 -0.004618 -505140.000000 0 1 0
1.676767 -9.752097 19.840481 22.171144 -1.400522 0.462637 0.012122 -0.009857 51414.900000 0 1 0
0.185467 -9.405597 20.040781 22.138938 -1.551080 0.438881 0.019623 -0.006192 122925.000000 0 1 0
-0.037933 -8.599897 21.220181 22.896632 1.566385 0.385044 0.024577 -0.009089 -917812.000000 0 1 0
-1.373333 -8.220997 21.172781 22.754285 1.405273 0.375031 0.024699 -0.006457 -618427.000000 0 1 0
-1.908533 -7.429097 22.379981 23.657928 1.319334 0.330185 0.023919 -0.008333 -93221.300000 0 1 0
-1.997233 -8.262197 23.502781 24.992670 1.333615 0.347030 0.023716 -0.006075 17145.800000 0 1 0
-2.257133 -7.583097 24.692081 25.928688 1.281494 0.310086 0.022509 0.001632 -9561.790000 0 0 1
-2.525733 -8.474197 25.957581 27.422388 1.281130 0.328326 0.029905 -0.003404 -515447.000000 0 0 1
-1.396133 -9.172397 26.328481 27.915425 1.419745 0.338807 0.027491 -0.004701 -454303.000000 0 0 1
-1.697933 -10.242797 27.207881 29.121584 1.406522 0.364546 0.040302 -0.010635 617927.000000 0 0 1
-0.381133 -11.069897 27.439781 29.591037 1.536380 0.383661 0.035876 -0.010046 327793.000000 0 0 1
0.632967 -10.461397 28.147481 30.035349 -1.510365 0.356440 0.019209 -0.010998 -672657.000000 0 0 1
1.795667 -11.250397 28.131381 30.350790 -1.412522 0.384797 0.035741 -0.016440 -160767.000000 0 0 1
2.861267 -10.846797 29.163981 31.247042 -1.312882 0.367201 0.038427 -0.019256 -102771.000000 0 0 1
2.446767 -10.929597 30.503881 32.495069 -1.350561 0.351889 0.037227 -0.020376 104911.000000 0 0 1
3.418367 -10.355397 31.361281 33.203154 -1.251954 0.334644 0.047294 -0.016496 -122677.000000 0 0 1
2.871267 -10.230697 32.772981 34.452571 -1.297183 0.313535 0.036449 -0.014336 -145644.000000 0 0 1
2.894867 -11.459297 33.433681 35.461342 -1.323352 0.339802 0.033383 -0.019581 161380.000000 0 0 1
2.378267 -11.444097 -33.668888 35.640111 -1.365897 2.807447 0.022646 -0.018561 -270576.000000 0 0 1
3.083867 -10.553397 -32.591488 34.396068 -1.286496 2.816231 0.021844 -0.007337 -13669.100000 0 0 1
2.792567 -9.170297 -32.762588 34.136197 -1.275195 2.856946 0.027302 -0.010666 112418.000000 0 0 1
3.156467 -8.510097 -31.584788 32.863108 -1.215618 2.861760 0.032694 -0.006228 -168542.000000 0 0 1
2.574067 -7.100097 -31.492188 32.385106 -1.222994 2.906223 0.002708 -0.006984 56121.900000 0 0 1
3.158567 -6.085297 -32.292488 33.012303 -1.092026 2.932384 0.033208 -0.009872 1789.240000 0 0 1
2.577567 -4.861197 -31.883988 32.355274 -1.083256 2.970704 0.016755 -0.002068 152555.000000 0 0 1
2.797167 -3.711197 -32.832188 33.159459 -0.924925 3.000981 0.024512 -0.004606 -265622.000000 0 0 1
1.957567 -3.866497 -33.933088 34.208717 -1.102130 3.014564 0.020196 -0.015621 -275090.000000 0 0 1
2.211767 -2.924497 33.532481 33.732357 -0.923282 0.108915 0.040155 -0.018355 -65891.300000 0 0 1
1.668267 -3.267497 32.157381 32.365982 -1.098733 0.113596 0.039876 -0.018851 230225.000000 0 0 1
0.257167 -3.111597 32.065981 32.217624 -1.488336 0.097062 0.029404 -0.022702 163826.000000 0 0 1
-0.150433 -3.443297 30.698181 30.891055 1.527135 0.111805 0.025737 -0.012151 -96497.800000 0 0 1
-1.607633 -3.845497 30.428781 30.712914 1.174822 0.136129 0.017563 -0.013313 -3785.870000 0 0 1
-2.444633 -2.697497 30.315381 30.533180 0.834533 0.119513 0.022389 -0.011224 -1187960.000000 0 0 1
-3.769833 -3.044797 30.360781 30.745072 0.679403 0.158274 0.010780 -0.010017 -1045750.000000 0 0 1
-4.744733 -2.109797 29.608881 30.060765 0.418405 0.173610 0.006855 -0.010169 -317168.000000 0 0 1
-4.613033 -2.032497 28.194081 28.641183 0.415008 0.176925 0.003551 -0.005868 -108894.000000 0 0 1
-5.477633 -1.151597 27.488281 28.052384 0.207218 0.200881 -0.001990 -0.004340 170275.000000 0 0 1
-5.578833 0.374503 27.836981 28.392977 -0.067029 0.198224 0.018884 -0.005335 -231912.000000 0 0 1
-6.337633 0.631703 28.974081 29.665839 -0.099347 0.216377 0.016421 -0.004745 -485144.000000 0 0 1
-6.703833 2.005003 29.030481 29.861853 -0.290615 0.236520 0.022668 -0.003266 -272508.000000 0 0 1
-8.174533 2.222003 29.396681 30.592894 -0.265408 0.280566 0.020296 -0.005494 -995542.000000 0 0 1
-9.043233 1.857303 28.418481 29.880424 -0.202564 0.314104 0.008506 0.000181 -1178720.000000 0 0 1
-10.326033 2.332103 28.715781 30.604930 -0.222120 0.353193 0.010471 0.002060 155379.000000 0 0 1
-11.445033 1.685803 27.805781 30.116311 -0.146244 0.394263 0.010245 0.008216 405122.000000 0 0 1
-11.687633 0.346803 28.248081 30.572457 -0.029664 0.392459 0.019336 0.003607 -48025.000000 0 0 1
-11.995733 -0.499197 27.177181 29.711042 0.041591 0.415990 0.018362 0.003267 -686562.000000 0 0 1
-11.908933 -2.025297 27.457981 29.997754 0.168454 0.414458 0.033621 -0.002751 315804.000000 0 0 1
-10.640933 -2.514597 27.878381 29.945898 0.232056 0.373768 0.023371 -0.006411 612884.000000 0 0 1
-9.503233 -2.468097 27.033981 28.761764 0.254098 0.348378 0.024404 -0.004405 -113825.000000 0 0 1
-9.520833 -3.166397 25.664681 27.556273 0.321068 0.372679 0.016952 -0.007741 -692409.000000 0 0 1
-10.286633 -2.384797 24.753081 26.911282 0.227810 0.403218 0.015425 -0.006434 318767.000000 0 0 1
-10.339933 -2.903697 23.434781 25.778570 0.273772 0.429726 0.022801 -0.009445 -256244.000000 0 0 1
-9.284433 -2.352897 22.445881 24.403983 0.248199 0.403320 0.006622 -0.008960 286473.000000 0 1 0
-8.019733 -2.844597 22.841181 24.374729 0.340855 0.356613 0.005569 -0.005552 -114068.000000 0 1 0
-6.921433 -2.281197 22.142081 23.310553 0.318373 0.317965 -0.000302 -0.003977 740025.000000 0 1 0
-5.503633 -2.659197 22.672181 23.481676 0.450094 0.263338 0.002936 -0.004472 467027.000000 0 1 0
-5.081533 -3.990797 22.548981 23.456449 0.665746 0.279068 0.014645 -0.011360 -285765.000000 0 1 0
-5.642433 -4.805897 23.517481 24.657770 0.705504 0.305305 0.014596 -0.008253 -272561.000000 0 1 0
-5.503033 -6.342797 23.183981 24.657888 0.856171 0.347504 0.019618 -0.007480 -411189.000000 0 1 0
-6.293433 -6.900897 22.172081 24.058904 0.831405 0.398678 0.017173 -0.012774 -357115.000000 0 1 0
-5.986933 -6.391897 20.890781 22.652251 0.818101 0.396965 0.020277 -0.012883 -195751.000000 0 1 0
-7.152533 -6.409397 19.877381 22.075991 0.730657 0.450092 0.020458 -0.016892 -279434.000000 0 1 0
-8.115833 -5.423097 20.098181 22.343089 0.589072 0.452114 0.023998 -0.014441 -372919.000000 0 1 0
-8.959033 -5.270497 18.964881 21.626584 0.531764 0.501371 0.023038 -0.017907 -10814.200000 0 1 0
-9.682233 -3.952697 19.026981 21.711644 0.387592 0.502567 0.021006 -0.013159 -234258.000000 0 1 0
-8.831333 -2.857297 18.823381 20.987527 0.312912 0.458123 0.016045 -0.008252 -303602.000000 0 1 0
-9.534233 -1.669997 18.888081 21.223810 0.173399 0.473566 0.015589 -0.010633 -10822.700000 0 1 0
-8.635433 -0.484197 18.387481 20.320055 0.056012 0.439667 0.009939 -0.003975 243279.000000 0 1 0
-7.563233 -0.150897 19.230181 20.664587 0.019949 0.374785 0.008100 0.002761 206033.000000 0 1 0
-8.007733 0.569703 20.383381 21.907318 -0.071024 0.375193 0.026709 0.004800 -224057.000000 0 1 0
-7.920233 2.115503 20.396181 21.982030 -0.261008 0.382171 0.019463 0.003005 65128.500000 0 1 0
-8.685133 2.597303 19.313081 21.334775 -0.290586 0.438853 0.002236 -0.009091 294092.000000 0 1 0
-8.430633 3.989603 19.294881 21.430934 -0.442001 0.450273 0.000781 -0.003496 7467.510000 0 1 0
-9.064733 4.597303 18.066981 20.729698 -0.469362 0.512440 0.004766 -0.003655 -407521.000000 0 1 0
-10.470933 4.690503 18.201481 21.515929 -0.421152 0.562445 0.002622 -0.001088 199678.000000 0 1 0
-11.124333 5.113903 17.004581 20.953725 -0.430895 0.624030 0.008289 0.002234 70580.200000 0 1 0
-11.413033 6.580303 16.839381 21.380423 -0.523006 0.663880 0.012014 0.000421 -976406.000000 0 1 0
-10.217233 7.229403 16.613081 20.800255 -0.615788 0.645671 0.008938 -0.005017 -466985.000000 0 1 0
-10.369633 8.605703 16.462681 21.274569 -0.692705 0.685947 0.007073 -0.008461 393040.000000 0 1 0
-9.071033 9.385703 16.843981 21.309500 -0.802446 0.659262 0.008990 -0.000901 460832.000000 0 1 0
-8.853433 9.592203 18.256581 22.443182 -0.825428 0.620724 0.024838 0.013197 -200044.000000 0 1 0
-8.218133 10.842903 18.483381 22.950853 -0.922241 0.634537 0.041555 0.013304 214820.000000 0 1 0
-8.945833 12.196003 18.001981 23.512587 -0.937936 0.698774 0.047922 0.011723 348153.000000 0 1 0
-8.655533 12.483703 16.655481 22.542541 -0.964550 0.739439 0.037048 -0.000252 -225178.000000 0 1 0
-9.402333 13.580203 16.239081 23.163194 -0.965219 0.793896 0.048790 -0.006974 -175396.000000 0 1 0
-9.010233 14.060603 14.809081 22.320254 -1.000906 0.845334 0.048316 -0.013366 -268267.000000 0 1 0
-7.905333 14.887103 14.773581 22.413809 -1.082643 0.851137 0.044113 -0.004606 -672775.000000 0 1 0
-7.574433 15.328003 13.464181 21.762442 -1.111834 0.903724 0.031819 -0.010964 526583.000000 0 1 0
-6.498133 16.499203 13.452481 22.258003 -1.195607 0.921798 0.009072 -0.010522 372676.000000 0 1 0
-5.156433 16.117003 13.418781 21.596534 -1.261150 0.900345 0.004205 -0.014955 -752475.000000 0 1 0
-4.366033 17.286403 13.578581 22.411154 -1.323400 0.919919 0.005539 -0.011125 -71903.000000 0 1 0
-2.843833 17.093003 13.449081 21.934811 -1.405932 0.910769 0.010013 -0.017613 -300401.000000 0 1 0
-2.129533 16.572303 14.542881 22.151107 -1.442997 0.854586 0.018317 -0.018456 1607.840000 0 1 0
-2.443933 15.179303 14.823681 21.357097 -1.411162 0.803646 0.019026 -0.013187 -1343430.000000 0 1 0
-1.580633 14.618403 15.857281 21.625205 -1.463089 0.747666 0.013940 -0.010306 444904.000000 0 1 0
-0.212733 14.497303 15.371081 21.130243 -1.556123 0.756206 -0.000985 -0.017235 894590.000000 0 1 0
0.637967 13.879303 16.309481 21.425248 1.524863 0.705593 0.005110 -0.008050 127661.000000 0 1 0
1.584367 14.864403 17.044281 22.670867 1.464609 0.719987 0.009103 -0.011532 -33560.800000 0 1 0
0.945767 15.656103 18.010481 23.882744 1.510461 0.716482 0.005283 -0.011382 -339331.000000 0 1 0
1.876867 16.569403 18.530281 24.928680 1.458004 0.732759 0.014933 -0.008815 -444952.000000 0 1 0
1.179067 17.810703 19.212481 26.224622 1.504693 0.748644 0.017498 -0.010926 348164.000000 0 0 1
0.639667 18.713603 18.232781 26.135080 1.536628 0.798703 0.011590 -0.009035 -87429.800000 0 0 1
-0.551733 18.253703 17.656581 25.401908 -1.540580 0.802253 0.016505 -0.009276 -1155720.000000 0 0 1
-1.353433 19.170603 16.756481 25.497519 -1.500314 0.853724 0.016908 -0.011141 -384408.000000 0 0 1
-1.888233 20.322203 17.368681 26.799784 -1.478148 0.865722 0.020382 -0.006851 26010.000000 0 0 1
-2.622333 21.079403 16.415981 26.845899 -1.447030 0.912855 0.024803 -0.009862 -225072.000000 0 0 1
-3.328233 22.323403 17.024781 28.271092 -1.422795 0.924545 0.027863 -0.002613 506126.000000 0 0 1
-4.506033 22.017403 17.802581 28.670582 -1.368926 0.900861 0.037284 -0.001577 697667.000000 0 0 1
-4.740733 23.025703 18.797581 30.099944 -1.367745 0.896298 0.032641 0.003282 300484.000000 0 0 1
-5.931233 22.629603 19.735281 30.606532 -1.314462 0.870027 0.021921 0.003660 687147.000000 0 0 1
-7.185533 23.109303 19.260281 30.929439 -1.269336 0.898586 0.028663 -0.000614 407222.000000 0 0 1
-8.267033 22.658403 20.069381 31.377175 -1.220949 0.876796 0.006313 -0.004418 522467.000000 0 0 1
-9.679733 22.888303 19.490481 31.582440 -1.170696 0.905706 0.020586 -0.009343 -15056.800000 0 0 1
-10.101933 24.179003 19.655381 32.756789 -1.175042 0.927245 0.034283 -0.008923 121228.000000 0 0 1
-11.271133 24.549403 18.921181 32.980642 -1.140384 0.959773 0.020938 -0.014447 412579.000000 0 0 1
-11.683033 25.981203 19.352881 34.439079 -1.148215 0.974061 0.030422 -0.016792 -91909.600000 0 0 1
-12.187933 26.096403 20.672081 35.452827 -1.133867 0.948273 0.018938 -0.005168 100516.000000 0 0 1
-12.931433 27.298703 20.811381 36.681804 -1.128408 0.967513 0.033538 -0.022436 -206789.000000 0 0 1
-13.613133 27.220903 22.209881 37.677232 -1.107070 0.940384 0.044652 -0.031331 -300945.000000 0 0 1
-14.965633 26.830903 22.140081 37.868862 -1.062003 0.946346 0.035696 -0.026467 -5378.790000 0 0 1
-15.527433 26.728203 23.450681 38.799903 -1.044511 0.921783 0.027949 -0.015689 812871.000000 0 0 1
-17.028033 26.291203 23.512781 39.166723 -0.996061 0.926888 0.045399 -0.023772 609098.000000 0 0 1
-17.275233 24.939103 23.106181 38.135130 -0.964989 0.919896 0.048155 -0.020911 -385989.000000 0 0 1
-18.610133 24.568503 23.323181 38.651251 -0.922526 0.923005 0.063940 -0.016895 -218313.000000 0 0 1
28.017167 23.763403 23.798671 43.772568 0.703432 0.995970 0.089136 -0.011633 58054.100000 0 0 1
27.829467 22.971103 24.973901 43.884468 0.690052 0.965406 0.074621 -0.025286 -1681.140000 0 0 1
27.304067 21.732203 24.606531 42.699907 0.672256 0.956643 0.070248 -0.012155 -28514.900000 0 0 1
26.695367 20.972103 25.851611 42.670569 0.665904 0.919973 0.075670 -0.012609 520263.000000 0 0 1
25.528467 21.509403 26.465761 42.600393 0.700162 0.900451 0.082669 -0.011857 241988.000000 0 0 1
25.130067 20.975703 27.703651 42.883477 0.695536 0.868435 0.072335 -0.011825 -330361.000000 0 0 1
23.663567 21.277303 28.007921 42.392589 0.732350 0.849073 0.090989 -0.015165 -549035.000000 0 0 1
23.340967 22.589703 28.296131 43.078607 0.769043 0.854164 0.093736 -0.027941 192459.000000 0 0 1
22.299467 22.587603 29.282711 43.184988 0.791817 0.825654 0.123615 -0.020938 201984.000000 0 0 1
22.118167 24.067803 29.783851 44.221603 0.827586 0.831844 0.108170 -0.016321 -128008.000000 0 0 1
21.471867 24.973903 28.864921 43.794070 0.860656 0.851167 0.101575 -0.027211 276598.000000 0 0 1
21.016567 26.205803 29.453751 44.676208 0.894848 0.850947 0.085338 -0.025384 -245658.000000 0 0 1
19.758367 26.203803 30.323041 44.682425 0.924723 0.824894 0.092790 -0.020592 -441470.000000 0 0 1
18.551667 26.218503 29.522941 43.625431 0.955002 0.827475 0.090194 -0.021176 1274730.000000 0 0 1
17.426767 26.785303 30.222241 43.983275 0.993993 0.813265 0.083189 -0.017632 626726.000000 0 0 1
16.654967 25.719503 31.033811 43.611674 0.996137 0.779032 0.056656 -0.002050 -664625.000000 0 0 1
17.399167 25.201603 32.106241 44.369612 0.966543 0.761780 0.060452 -0.006293 754471.000000 0 0 1
16.505467 24.321903 32.873863 44.098483 0.974560 0.729565 0.047708 -0.006130 795187.000000 0 0 1
16.965067 23.896403 -34.152906 45.003028 0.953429 2.432422 0.064718 -0.004414 -464269.000000 0 0 1
17.198567 24.992303 -33.300489 45.048068 0.968065 2.402710 0.059542 -0.003476 108244.000000 0 0 1
17.567767 24.600403 -32.018799 44.034188 0.950653 2.384936 0.042855 -0.001573 -133308.000000 0 0 1
17.995067 25.800903 -31.180719 44.291605 0.961778 2.351792 0.039180 0.008234 -658599.000000 0 0 1
16.943367 26.618603 -30.792629 44.088702 1.003953 2.343990 0.042152 -0.010364 70766.000000 0 0 1
17.432367 27.917003 -30.397409 44.802332 1.012603 2.316486 0.045348 -0.009794 111596.000000 0 0 1
16.793467 28.267203 -29.038359 43.866634 1.034728 2.294239 0.044881 -0.005295 -95658.900000 0 0 1
16.993067 27.375503 -27.932809 42.642986 1.015266 2.285030 0.025530 0.000963 299949.000000 0 0 1
16.453967 27.973503 -26.754129 42.059878 1.039100 2.260225 0.018188 0.002247 -576888.000000 0 0 1
17.009467 27.286503 -25.541229 41.063726 1.013373 2.242078 0.011738 0.009747 -159142.000000 0 0 1
18.404367 27.521403 -25.544069 41.816836 0.981367 2.227938 0.029395 0.010499 -505337.000000 0 0 1
19.021567 26.717903 -24.571819 40.980979 0.952101 2.213786 0.028891 0.010606 152235.000000 0 0 1
20.534867 27.015603 -24.471419 41.837470 0.920855 2.195573 0.023283 0.010142 335307.000000 0 0 1
21.228467 26.360703 -23.427619 41.162942 0.892828 2.176260 0.033260 0.011472 -302189.000000 0 0 1
22.615467 26.346403 -23.617219 41.992443 0.861452 2.168101 0.035915 0.011682 38386.800000 0 0 1
23.490367 26.041803 -22.378319 41.602428 0.836863 2.138751 0.047772 0.008377 324920.000000 0 0 1
23.033367 24.936203 -21.586619 40.228501 0.825045 2.137199 0.039662 0.007493 417794.000000 0 0 1
23.706167 25.006803 -20.322319 40.003989 0.812092 2.103666 0.041876 0.005782 21954.800000 0 0 1
23.302367 23.888103 -19.365519 38.583223 0.797810 2.096608 0.040239 -0.001269 -207914.000000 0 0 1
23.804767 22.664203 -19.875619 38.410588 0.760858 2.114666 0.043414 0.003991 344050.000000 0 0 1
23.810967 21.820803 -18.716819 37.328660 0.741812 2.096020 0.054901 0.001801 -960495.000000 0 0 1
24.002067 20.308303 -18.989819 36.730636 0.702229 2.114141 0.073001 0.001879 422194.000000 0 0 1
23.059967 19.667503 -19.853219 36.231520 0.706167 2.150713 0.053330 -0.000263 254291.000000 0 0 1
21.690567 19.838803 -19.576219 35.316952 0.740838 2.158319 0.042638 -0.006624 -640418.000000 0 0 1
20.706567 19.566503 -20.737819 35.237297 0.757097 2.200022 0.048261 0.001821 150193.000000 0 0 1
20.842967 20.430603 -21.872919 36.472776 0.775408 2.213929 0.044688 0.004101 -114100.000000 0 0 1
20.601767 21.824303 -21.560819 36.954051 0.814206 2.193766 0.044266 0.007622 -70654.500000 0 0 1
20.130767 22.609203 -22.816519 37.908012 0.843322 2.216664 0.050265 0.004536 204177.000000 0 0 1
18.859367 22.237803 -23.295519 37.321265 0.867420 2.244889 0.050150 -0.002415 -552855.000000 0 0 1
18.456567 22.995703 -24.378919 38.259363 0.894466 2.261658 0.040797 -0.007508 296571.000000 0 0 1
16.967467 22.944203 -24.822719 37.821935 0.934043 2.286707 0.033784 -0.009415 185901.000000 0 0 1
16.139367 23.677203 -23.969219 37.357898 0.972498 2.267392 0.027422 -0.007019 -399219.000000 0 0 1
14.800367 23.687103 -24.392119 37.082410 1.012321 2.288666 0.025877 -0.006826 -185212.000000 0 0 1
13.964967 24.765503 -23.691319 37.008499 1.057353 2.265501 0.020292 -0.001400 -217261.000000 0 0 1
14.303867 26.092503 -24.015919 38.238510 1.069337 2.249849 0.010055 0.000765 -73768.300000 0 0 1
13.454267 27.033503 -23.404819 38.204883 1.109000 2.230159 0.012177 -0.000138 63225.800000 0 0 1
13.644867 28.450903 -24.025419 39.659261 1.123607 2.221562 0.005809 -0.007835 35751.200000 0 0 1
13.380667 28.439703 -25.398859 40.409912 1.131032 2.250459 0.014831 -0.016340 -176071.000000 0 0 1
12.792167 29.659103 -25.809249 41.345124 1.163596 2.244954 0.035517 -0.020023 -186865.000000 0 0 1
13.763667 30.859003 -25.831079 42.531885 1.151259 2.223497 0.044463 -0.018618 -315215.000000 0 0 1
14.812967 30.736403 -26.749839 43.355557 1.121704 2.235705 0.029844 -0.016311 -350668.000000 0 0 1
15.427867 32.037203 -26.947219 44.615626 1.122008 2.219289 0.037326 -0.015344 -36008.900000 0 0 1
16.821967 31.863403 -27.579609 45.374991 1.085047 2.224103 0.025048 -0.006165 -383707.000000 0 0 1
17.682467 31.220803 -26.682709 44.714373 1.055473 2.210225 -0.000544 -0.001591 534945.000000 0 0 1
18.993067 31.089703 -27.287109 45.518046 1.022392 2.213646 0.024490 0.002722 39959.900000 0 0 1
19.994167 30.399003 -26.391359 44.948525 0.989010 2.198325 0.010267 0.013844 -1052170.000000 0 0 1
20.320167 31.090803 -25.198819 44.883490 0.991912 2.166906 0.013860 0.005427 15955.300000 0 0 1
20.881967 32.396403 -25.255659 46.080709 0.998243 2.150857 0.017897 -0.002208 206051.000000 0 0 1
22.384867 32.397403 -25.716759 47.032177 0.966173 2.149323 0.002708 0.007158 210154.000000 0 0 1
22.572567 31.850403 -27.029179 47.482054 0.954251 2.176390 0.007311 0.010397 727286.000000 0 0 1
23.864567 32.217703 -27.568629 48.657242 0.933256 2.173156 0.025329 0.017586 849748.000000 0 0 1
24.167767 31.662303 -29.041659 49.295033 0.918839 2.200790 0.027043 0.012211 591978.000000 0 0 1
23.196267 32.190303 -29.962659 49.719647 0.946380 2.217592 0.033464 -0.005555 -510288.000000 0 0 1
22.108367 31.405903 -30.168279 48.838875 0.957420 2.236624 0.019299 -0.002192 -1367630.000000 0 0 1
20.961767 32.034203 -30.961609 49.236237 0.991365 2.250854 0.017380 -0.001536 -1032960.000000 0 0 1
20.338467 33.040703 -30.231229 49.186060 1.019016 2.232713 0.028271 -0.006645 -35276.700000 0 0 1
19.399967 33.759903 -31.031379 49.789921 1.049229 2.243683 0.031235 -0.016362 1393720.000000 0 0 1
17.891967 33.249203 -30.890689 48.783877 1.077122 2.256497 0.043711 -0.019525 831512.000000 0 0 1
17.553467 31.924003 -31.270119 48.011316 1.068067 2.280102 0.045264 -0.020802 97291.400000 0 0 1
17.819767 31.480703 -32.593199 48.691841 1.055711 2.304166 0.062782 -0.024649 115682.000000 0 0 1
17.031867 32.236203 -33.796199 49.713583 1.084730 2.318311 0.067440 -0.034608 778113.000000 0 0 1
17.859567 33.362203 -34.194008 51.002263 1.079291 2.305599 0.064917 -0.028882 661374.000000 0 0 1
17.547167 33.989903 32.970524 50.500218 1.094236 0.859417 0.057415 -0.032324 -490744.000000 0 0 1
16.105467 -34.218543 32.639112 49.956044 -1.130891 0.858787 0.052600 -0.031146 -466701.000000 0 0 1
15.267467 33.287003 32.293751 48.826288 1.140763 0.848111 0.055818 -0.031141 1062030.000000 0 0 1
13.864467 33.644703 32.313571 48.665761 1.179916 0.844654 0.048614 -0.032905 1233560.000000 0 0 1
13.271567 34.292903 31.052611 48.129017 1.201541 0.869518 0.045539 -0.038089 -890857.000000 0 0 1
13.722067 -33.015543 30.897191 47.254181 -1.176894 0.858133 0.051997 -0.024426 137171.000000 0 0 1
13.210667 -32.415843 29.713891 45.915399 -1.183809 0.866964 0.050472 -0.026025 -102172.000000 0 0 1
13.669267 -30.950043 29.414421 44.832602 -1.154903 0.855164 0.046464 -0.015956 -26838.200000 0 0 1
13.385167 -30.066443 30.498161 44.869717 -1.151953 0.823436 0.043352 -0.014689 236615.000000 0 0 1
13.854867 -28.749043 30.215301 43.948028 -1.121713 0.812723 0.048245 -0.021252 -468741.000000 0 0 1
13.363267 -27.660843 31.174531 43.767002 -1.120751 0.778050 0.044735 -0.010713 441284.000000 0 0 1
11.980367 -27.298843 31.095131 43.077409 -1.157245 0.764334 0.040861 -0.013026 580906.000000 0 0 1
11.903767 -26.240143 30.135421 41.693985 -1.144914 0.762985 0.041294 -0.013752 -303926.000000 0 0 1
12.052067 -24.812643 30.739741 41.301952 -1.118636 0.731357 0.039966 -0.013414 152076.000000 0 0 1
11.062967 -24.447643 31.687431 41.523123 -1.145851 0.702658 0.032062 -0.020588 160452.000000 0 0 1
11.617067 -23.386143 32.410259 41.620822 -1.109752 0.678200 0.036302 -0.022160 -136630.000000 0 0 1
10.654767 -22.658743 33.346117 41.700195 -1.131249 0.644062 0.040278 -0.022538 -541909.000000 0 0 1
10.437467 -23.294943 -33.815369 42.368317 -1.149559 2.494979 0.038304 -0.020174 668244.000000 0 0 1
11.586067 -23.504143 -32.976589 42.120507 -1.112815 2.470127 0.045858 -0.007916 731404.000000 0 0 1
12.357967 -22.345743 -32.315689 41.186834 -1.065626 2.472867 0.045018 -0.017735 -24309.300000 0 0 1
12.770967 -21.368543 -33.256709 41.541797 -1.032105 2.499026 0.043025 -0.017705 156461.000000 0 0 1
13.749667 -20.559543 -32.617509 40.934705 -0.981337 2.492807 0.039296 -0.016417 -66290.700000 0 0 1
14.127667 -19.294443 -33.367519 41.051892 -0.938776 2.519762 0.032325 -0.010764 -352477.000000 0 0 1
14.762067 -19.646743 33.851838 41.831328 -0.926416 0.627929 0.046808 -0.003590 350154.000000 0 0 1
14.393967 -18.742643 32.791833 40.420010 -0.915887 0.624463 0.030556 -0.003804 141960.000000 0 0 1
15.350667 -17.527443 32.678215 40.133776 -0.851509 0.619391 0.039244 -0.009158 -892996.000000 0 0 1
15.132567 -16.548043 33.681704 40.463434 -0.830048 0.587374 0.029619 -0.007025 289647.000000 0 0 1
15.879667 -15.338443 33.577451 40.185530 -0.768063 0.581644 0.048205 -0.012799 -177726.000000 0 0 1
17.369367 -15.460943 33.945080 41.146131 -0.727334 0.600615 0.060181 -0.009086 -642058.000000 0 0 1
18.110067 -16.204443 33.023684 41.001490 -0.729921 0.634402 0.062752 -0.007647 -254700.000000 0 0 1
19.488567 -15.992943 33.290221 41.759038 -0.687195 0.648157 0.083591 -0.009757 -252182.000000 0 0 1
20.362467 -16.715443 32.300811 41.681872 -0.687352 0.684181 0.099030 -0.014944 -851996.000000 0 0 1
20.426867 -16.089643 31.040551 40.492583 -0.667178 0.697308 0.086479 -0.013669 1056350.000000 0 0 1
21.437567 -16.717843 30.188421 40.625070 -0.662326 0.733108 0.073360 -0.018903 611358.000000 0 0 1
21.686267 -15.815443 28.902221 39.443133 -0.630110 0.748432 0.069586 -0.009815 -62566.700000 0 0 1
22.561867 -14.746343 29.174891 39.719853 -0.578899 0.745842 0.058963 -0.007625 166984.000000 0 0 1
22.755867 -13.979843 28.010931 38.702425 -0.550897 0.761573 0.056716 -0.007603 -135881.000000 0 0 1
23.328767 -12.576443 28.133931 38.651214 -0.494433 0.755553 0.042871 -0.000064 85561.400000 0 0 1
22.468767 -11.671343 28.805711 38.351463 -0.479084 0.721073 0.056251 -0.012300 434846.000000 0 0 1
23.137267 -10.436343 29.041151 38.569921 -0.423737 0.718266 0.047264 -0.011684 451174.000000 0 0 1
22.103667 -9.286443 28.972001 37.605677 -0.397740 0.691304 0.061234 -0.017865 -52855.500000 0 0 1
21.240167 -9.210543 30.050121 37.934002 -0.409164 0.656442 0.076875 -0.025271 -454193.000000 0 0 1
20.285967 -8.173843 29.775201 36.944482 -0.383030 0.633527 0.067947 -0.028402 -76308.100000 0 0 1
19.129067 -8.264543 30.776241 37.167201 -0.407819 0.595179 0.056877 -0.020318 -552517.000000 0 0 1
19.361567 -7.891343 32.126281 38.330686 -0.387022 0.576942 0.067816 -0.025738 -146320.000000 0 0 1
19.881967 -8.932643 32.902476 39.467171 -0.422258 0.585082 0.080941 -0.028721 -235992.000000 0 0 1
19.947467 -8.313743 -34.112903 40.382049 -0.394889 2.576902 0.095857 -0.031633 -209192.000000 0 0 1
18.692867 -8.078843 -33.526549 39.226527 -0.407944 2.595751 0.087871 -0.040155 -125225.000000 0 0 1
18.770167 -7.210443 -32.401679 38.133692 -0.366763 2.586187 0.097309 -0.040445 39935.300000 0 0 1
17.420167 -7.129743 -31.648909 36.823211 -0.388482 2.605053 0.090237 -0.044116 158036.000000 0 0 1
17.393267 -6.268343 -30.530759 35.692367 -0.345900 2.597092 0.091919 -0.042811 95462.900000 0 0 1
16.112767 -6.369643 -29.936119 34.588507 -0.376462 2.616931 0.079670 -0.036560 154156.000000 0 0 1
15.866667 -5.288943 -28.886349 33.378813 -0.321754 2.616764 0.065297 -0.026499 -2847.180000 0 0 1
16.662267 -5.312843 -27.694639 32.754396 -0.308664 2.578343 0.064284 -0.024174 209049.000000 0 0 1
16.225467 -6.223543 -26.722519 31.876187 -0.366260 2.564995 0.089075 -0.028620 -346729.000000 0 0 1
14.923967 -5.874543 -26.003629 30.551984 -0.375004 2.588925 0.077524 -0.024526 -216295.000000 0 0 1
15.078367 -4.766643 -25.098789 29.665253 -0.306184 2.579360 0.059557 -0.011521 32797.800000 0 0 1
13.834367 -4.522543 -24.456019 28.459444 -0.315955 2.604752 0.014637 -0.017299 291716.000000 0 0 1
13.770267 -3.289743 -23.551919 27.479729 -0.234506 2.600342 0.013101 -0.010274 -2506.170000 0 0 1
13.783367 -2.065743 -24.260919 27.979290 -0.148765 2.620153 0.003278 -0.013666 67636.700000 0 0 1
13.588767 -1.007743 -23.373819 27.055601 -0.074025 2.613794 0.005041 -0.005413 -41914.000000 0 0 1
14.074167 0.284257 -24.055519 27.871687 0.020194 2.612134 0.008497 -0.010541 -658581.000000 0 0 1
13.316567 0.729257 -25.138059 28.456717 0.054708 2.653820 0.017326 -0.009394 -86334.300000 0 0 1
13.843967 1.990257 -25.495879 29.080171 0.142785 2.639847 0.008412 0.014384 22431.500000 0 0 1
13.124967 2.686257 -26.716279 29.887126 0.201880 2.676781 0.012123 0.007305 50325.400000 0 0 1
11.933267 3.317257 -26.317969 29.086810 0.271138 2.701724 0.035911 -0.015407 -112589.000000 0 0 1
11.329267 3.963257 -27.431529 29.942419 0.336519 2.729146 0.051475 -0.012331 385851.000000 0 0 1
10.095567 4.847257 -27.032819 29.260719 0.447631 2.748844 0.065165 -0.018919 294625.000000 0 0 1
10.304167 6.022257 -26.252369 28.838001 0.528906 2.714900 0.061806 -0.036610 -56182.100000 0 0 1
9.158067 6.845257 -26.278319 28.657944 0.641871 2.731201 0.070901 -0.038575 115625.000000 0 0 1
8.249067 5.377803 -31.087969 32.610269 0.577730 2.834837 0.071382 -0.021196 68237.900000 0 0 1
7.935067 4.317903 -30.171109 31.494529 0.498344 2.850669 0.056703 -0.006301 408388.000000 0 0 1
8.154667 3.082603 -30.763859 31.975241 0.361413 2.865453 0.039900 0.000655 -45877.300000 0 0 1
7.970667 1.889703 -29.781759 30.887791 0.232784 2.873176 0.042079 0.000232 -279264.000000 0 0 1
9.003767 1.841203 -28.855309 30.283439 0.201712 2.833261 0.057195 -0.004514 98374.900000 0 0 1
8.617067 0.844103 -27.935359 29.246378 0.097646 2.841041 0.042567 -0.003605 -327047.000000 0 0 1
9.766267 0.310203 -27.102289 28.809898 0.031752 2.795568 0.036624 -0.012180 -529928.000000 0 0 1
10.616567 -0.523797 -27.834579 29.795128 -0.049298 2.776804 0.009059 0.010655 -545011.000000 0 0 1
11.521467 -1.146397 -26.999449 29.377349 -0.099175 2.736477 0.018088 -0.002329 -301786.000000 0 0 1
12.258667 -2.393597 -27.501269 30.204702 -0.192831 2.715279 0.006802 -0.000670 -111123.000000 0 0 1
11.334367 -3.420597 -27.727119 30.148988 -0.293098 2.738036 0.004811 -0.007067 75071.600000 0 0 1
11.940367 -4.662497 -28.131979 30.914713 -0.372274 2.714048 0.028425 -0.017721 -236942.000000 0 0 1
11.124867 -5.842597 -27.639239 30.361590 -0.483591 2.714891 0.004322 -0.017724 -216504.000000 0 0 1
11.106767 -5.899697 -26.223689 29.083475 -0.488280 2.694412 0.016155 -0.014549 -31234.700000 0 0 1
10.784167 -7.139697 -25.751769 28.817132 -0.584802 2.676159 0.021509 -0.019312 -206695.000000 0 0 1
10.713767 -7.139997 -24.212719 27.422985 -0.587840 2.652874 0.024640 -0.020144 205973.000000 0 0 1
11.930567 -6.954397 -23.496419 27.254059 -0.527755 2.610246 0.014629 -0.018416 185720.000000 0 0 1
11.628867 -7.042597 -22.145019 25.985199 -0.544537 2.591004 0.029625 -0.020177 -134740.000000 0 0 1
12.848667 -6.855897 -21.250519 25.761912 -0.490156 2.540788 0.035148 -0.017986 -17608.000000 0 0 1
13.430467 -5.546797 -21.190019 25.693604 -0.391664 2.540503 0.025797 -0.015276 473762.000000 0 0 1
14.460367 -5.515997 -20.181719 25.432857 -0.364419 2.487383 0.026455 -0.016282 516021.000000 0 0 1
15.021967 -4.143797 -19.843719 25.231007 -0.269156 2.475887 0.031010 -0.015469 -521281.000000 0 0 1
15.828467 -3.467197 -20.763819 26.338147 -0.215642 2.478927 0.027202 -0.012515 258321.000000 0 0 1
16.497667 -2.404197 -20.031019 26.061368 -0.144711 2.447461 0.031622 -0.005586 175756.000000 0 0 1
17.637767 -1.790597 -20.846319 27.365417 -0.101174 2.436846 0.010076 -0.007140 -1531870.000000 0 0 1
18.805467 -2.459497 -20.936119 28.249173 -0.130048 2.405538 0.040211 -0.013204 -1557570.000000 0 0 1
19.729467 -1.599597 -21.554219 29.264226 -0.080900 2.398734 0.056381 -0.011080 -1407880.000000 0 0 1
21.018867 -2.237397 -21.921019 30.452090 -0.106048 2.374386 0.054331 -0.015675 -1668190.000000 0 0 1
21.952667 -2.243997 -20.797019 30.322782 -0.101866 2.326574 0.036431 -0.015988 757361.000000 0 0 1
23.083667 -3.064797 -21.075019 31.407086 -0.131997 2.306390 0.031018 -0.010921 869428.000000 0 0 1
24.142267 -2.491197 -22.123919 32.840872 -0.102824 2.309960 0.040790 -0.014336 -913944.000000 0 0 1
23.678467 -2.371697 -23.504419 33.447757 -0.099830 2.350010 0.056343 -0.021714 141964.000000 0 0 1
24.493567 -1.625897 -24.408919 34.617534 -0.066283 2.353364 0.057075 -0.021649 408566.000000 0 0 1
25.840467 -2.220997 -24.900119 35.953838 -0.085740 2.335825 0.054479 -0.029279 255166.000000 0 0 1
26.762967 -2.464297 -23.799519 35.899112 -0.091820 2.295556 0.045237 -0.019817 1341840.000000 0 0 1
28.069367 -2.966897 -24.156919 37.151696 -0.105308 2.278675 0.035296 -0.015295 1031800.000000 0 0 1
29.051867 -2.089697 -24.928319 38.337956 -0.071806 2.278678 0.038151 -0.026962 -1178590.000000 0 0 1
28.673267 -1.822797 -26.249329 38.916655 -0.063486 2.311085 0.057819 -0.034733 224587.000000 0 0 1
29.336967 -0.705897 -26.895059 39.805780 -0.024057 2.312652 0.061678 -0.040498 -1436270.000000 0 0 1
28.945467 -0.470497 -28.344639 40.515182 -0.016253 2.345641 0.071791 -0.043696 1470230.000000 0 0 1
27.598467 0.064903 -28.567719 39.721457 0.002352 2.373448 0.068088 -0.038015 1439210.000000 0 0 1
27.150467 1.064503 -27.723009 38.818117 0.039187 2.366244 0.053570 -0.024689 -1699470.000000 0 0 1
25.706467 1.498203 -28.015629 38.051840 0.058215 2.398307 0.063050 -0.025722 241921.000000 0 0 1
24.734367 0.779503 -27.222269 36.789243 0.031505 2.403795 0.069281 -0.025903 1336490.000000 0 0 1
23.410667 1.276703 -27.513189 36.147819 0.054481 2.435850 0.057512 -0.022605 592456.000000 0 0 1
22.299067 0.899303 -26.549359 34.683217 0.040307 2.442586 0.058995 -0.015369 -198763.000000 0 0 1
22.463467 1.623003 -25.352659 33.911632 0.072125 2.415252 0.057362 -0.017104 214280.000000 0 0 1
21.408367 1.374703 -24.453819 32.529944 0.064125 2.421482 0.048228 -0.009477 -158549.000000 0 0 1
21.564367 2.021403 -23.042519 31.623815 0.093465 2.387137 0.041275 -0.004178 -231580.000000 0 0 1
21.251267 3.391603 -22.920319 31.439789 0.158261 2.387689 0.039386 0.000705 253491.000000 0 0 1
21.562367 3.706603 -21.584119 30.733512 0.170238 2.349418 0.031479 -0.002278 -277505.000000 0 0 1
21.139267 5.039003 -21.000919 30.220833 0.234005 2.339098 0.035949 0.006664 -149252.000000 0 0 1
21.817467 6.122003 -21.623119 31.321559 0.273566 2.332781 0.027658 0.008241 588832.000000 0 0 1
21.285567 7.454603 -21.294819 31.017991 0.336870 2.327504 0.035040 -0.001203 46846.700000 0 0 1
21.758867 7.977603 -19.890619 30.540582 0.351419 2.280073 0.030822 0.004016 -250757.000000 0 0 1
23.160167 8.043903 -19.716919 31.461955 0.334282 2.248096 0.029336 -0.000392 232684.000000 0 0 1
23.543467 8.079503 -18.367319 30.934311 0.330581 2.206510 0.038186 -0.013816 -178974.000000 0 0 1
23.549167 9.499803 -17.671619 30.936962 0.383436 2.178780 0.044872 -0.027283 -325859.000000 0 0 1
22.263467 9.954303 -17.310919 29.906822 0.420451 2.188088 0.041651 -0.026161 -49839.600000 0 0 1
22.141767 11.319203 -17.128319 30.195389 0.472579 2.173958 0.036609 -0.021973 -592733.000000 0 0 1
20.670567 11.714303 -16.890219 29.150930 0.515585 2.188796 0.032232 -0.024349 445952.000000 0 0 1
19.722267 11.686703 -17.957219 29.120586 0.534934 2.235277 0.030939 -0.022543 562226.000000 0 0 1
19.348267 10.369303 -18.295319 28.576154 0.491976 2.265594 0.027874 -0.018087 -720366.000000 0 0 1
18.387967 10.276103 -19.536619 28.729690 0.509612 2.318579 0.049228 -0.011256 -256210.000000 0 0 1
18.928367 10.385703 -20.788419 29.971724 0.501833 2.337272 0.047993 -0.014420 -846020.000000 0 0 1
18.042967 10.368003 -21.827019 30.157302 0.521555 2.380050 0.049017 -0.014098 -974551.000000 0 0 1
18.788767 10.381903 -23.159319 31.577772 0.504806 2.394115 0.057909 -0.014455 147236.000000 0 0 1
19.556967 11.556603 -23.404719 32.616114 0.533716 2.371120 0.053203 -0.007352 244509.000000 0 0 1
19.942467 11.778303 -24.742019 33.890971 0.533490 2.389188 0.066642 -0.008576 -15961.300000 0 0 1
20.710167 13.094203 -24.960019 34.976731 0.563803 2.365445 0.073116 -0.020310 -105802.000000 0 0 1
21.069467 13.429003 -26.319069 36.289860 0.567444 2.382188 0.086538 -0.026058 313702.000000 0 0 1
21.143667 14.808703 -26.521309 37.009893 0.610984 2.369712 0.092534 -0.016991 976420.000000 0 0 1
19.748367 15.420603 -26.962249 36.807008 0.662957 2.392828 0.081093 -0.016127 1183170.000000 0 0 1
18.649867 15.136103 -26.097539 35.468305 0.681770 2.397642 0.072143 -0.021607 -56011.600000 0 0 1
17.488467 15.410003 -26.869819 35.571081 0.722304 2.427036 0.054430 -0.023920 204769.000000 0 0 1
16.179667 15.027103 -26.123729 34.205915 0.748482 2.439852 0.046890 -0.025719 240136.000000 0 0 1
15.966667 13.645303 -26.127369 33.522651 0.707165 2.464495 0.046785 -0.018132 23098.800000 0 0 1
14.609867 13.399303 -25.830299 32.560618 0.742205 2.487005 0.022964 -0.022477 -189209.000000 0 0 1
14.373767 11.886803 -25.811949 31.845847 0.690976 2.515849 0.021728 -0.022232 -42999.800000 0 0 1
13.052967 11.473303 -25.519369 30.874825 0.721080 2.543734 0.030882 -0.020093 -13944.100000 0 0 1
13.020367 10.107303 -25.323589 30.215421 0.660102 2.564590 0.044693 -0.020734 356699.000000 0 0 1
11.625767 9.464103 -25.067119 29.207673 0.683257 2.602622 0.057295 -0.041615 253567.000000 0 0 1
10.968367 9.861403 -23.892019 28.078121 0.732305 2.588516 0.065598 -0.044240 812257.000000 0 0 1
9.656467 9.268203 -23.797619 27.303362 0.764885 2.629254 0.070604 -0.042736 494099.000000 0 0 1
8.792167 9.816703 -22.699119 26.247283 0.840399 2.615584 0.065773 -0.044848 -543947.000000 0 0 1
8.175767 11.018303 -23.102619 26.869633 0.932424 2.605682 0.065378 -0.043165 -186516.000000 0 0 1
7.691967 11.855603 -22.030419 26.173670 0.995262 2.571223 0.059982 -0.025174 -106562.000000 0 0 1
8.715967 12.636603 -21.214419 26.185938 0.966990 2.515197 0.047560 -0.027253 -607831.000000 0 0 1
9.538167 11.851103 -20.413319 25.458375 0.893115 2.501150 0.061590 -0.035820 -601469.000000 0 0 1
10.436067 12.688303 -19.725219 25.670777 0.882489 2.447121 0.064431 -0.031716 -957305.000000 0 0 1
11.474767 11.904503 -18.929119 25.133623 0.803777 2.423617 0.070320 -0.038233 90771.200000 0 0 1
12.575767 11.325403 -19.664019 25.943945 0.733132 2.430950 0.065787 -0.040358 574339.000000 0 0 1
12.286467 10.515703 -20.800119 26.347338 0.707896 2.480722 0.075222 -0.042570 -1279820.000000 0 0 1
13.506167 9.840103 -21.424919 27.171148 0.629640 2.479191 0.077544 -0.038323 -213477.000000 0 0 1
14.126767 8.899403 -20.583219 26.503468 0.562163 2.460085 0.089527 -0.039819 -106577.000000 0 0 1
15.076867 8.142903 -21.273219 27.316087 0.495205 2.463515 0.069781 -0.037681 -214395.000000 0 0 1
15.609267 6.936403 -20.436119 26.634524 0.418168 2.445384 0.101039 -0.037640 221857.000000 0 0 1
16.499167 7.204003 -19.368219 26.443299 0.411679 2.392700 0.067612 -0.022938 227260.000000 0 0 1
17.071367 5.981203 -18.907619 26.166857 0.337000 2.378322 0.050653 -0.026704 19600.700000 0 0 1
17.997467 6.157803 -17.686419 25.973770 0.329663 2.319833 0.085449 -0.021591 -1488020.000000 0 0 1
19.218767 6.732003 -18.012219 27.186778 0.336927 2.294996 0.066989 -0.020992 -604611.000000 0 0 1
20.020467 7.022003 -16.889519 27.117954 0.337335 2.243134 0.048829 -0.034342 -112112.000000 0 0 1
20.698067 5.765003 -16.306919 26.973335 0.271644 2.220006 0.038797 -0.031994 -1246220.000000 0 0 1
21.897267 5.390003 -16.974019 28.225161 0.241351 2.216022 0.031217 -0.026446 512495.000000 0 0 1
22.460967 4.395503 -16.105319 27.985653 0.193253 2.183993 0.056032 -0.034000 -942166.000000 0 0 1
23.689167 3.783103 -16.700319 29.229936 0.158360 2.178938 0.017015 0.006596 -1034470.000000 0 0 1
24.347067 2.900903 -15.815819 29.177646 0.118589 2.143674 0.013734 0.005214 831592.000000 0 0 1
25.563867 2.501603 -16.490319 30.523760 0.097546 2.141525 0.015696 -0.003713 581531.000000 0 0 1
26.148867 1.217303 -15.898519 30.626916 0.046519 2.116597 0.034876 -0.017026 12856.300000 0 0 1
25.373867 0.040903 -16.073219 30.036364 0.001612 2.135452 0.039387 -0.006104 387298.000000 0 0 1
26.309767 -1.000597 -16.265719 30.947999 -0.038013 2.124196 0.039447 -0.001509 -153913.000000 0 0 1
25.702467 -2.368297 -16.355619 30.557027 -0.091883 2.135599 0.022270 -0.003801 -464393.000000 0 0 1
25.304367 -2.961497 -15.128119 29.630076 -0.116505 2.106640 0.032632 -0.002365 443228.000000 0 0 1
25.028767 -4.334097 -15.383119 29.696193 -0.171464 2.115327 0.029539 0.003235 -910969.000000 0 0 1
24.435267 -5.071697 -14.146219 28.686580 -0.204651 2.086481 0.026091 -0.000542 1134700.000000 0 0 1
23.067467 -4.889297 -13.722819 27.282394 -0.208865 2.097853 0.032441 0.003462 1081090.000000 0 0 1
22.102667 -5.343397 -14.647419 27.048598 -0.237202 2.143043 0.038759 0.000732 -1081670.000000 0 0 1
20.749167 -5.579897 -14.000419 25.645173 -0.262706 2.148293 0.043236 -0.003244 -905894.000000 0 0 1
20.644967 -6.671997 -13.147019 25.368766 -0.312583 2.115584 0.047915 -0.000992 366994.000000 0 0 1
20.962467 -6.311197 -11.819519 24.878851 -0.292439 2.065855 0.066951 -0.008108 -495079.000000 0 1 0
20.684067 -7.482297 -10.762019 24.487475 -0.347097 2.025828 0.082761 -0.012668 460304.000000 0 1 0
19.297767 -7.843097 -10.736719 23.434912 -0.386033 2.046710 0.088130 -0.019071 1102240.000000 0 1 0
18.994967 -8.884397 -11.625919 23.977140 -0.437495 2.077017 0.069734 -0.019692 -1324730.000000 0 1 0
17.612867 -9.472697 -11.507719 23.073202 -0.493450 2.092950 0.092478 -0.027891 -234584.000000 0 1 0
16.585567 -8.506297 -11.824219 22.073746 -0.473893 2.136096 0.078108 -0.021286 432721.000000 0 1 0
15.335967 -9.119697 -12.050419 21.530753 -0.536484 2.164801 0.073096 -0.024639 185376.000000 0 1 0
14.210067 -8.125497 -12.454219 20.568356 -0.519436 2.221195 0.056414 -0.018638 -179414.000000 0 1 0
14.272267 -7.386897 -13.650319 21.085423 -0.477605 2.274941 0.052250 -0.015729 -126226.000000 0 1 0
15.157667 -6.318897 -13.569119 21.302683 -0.394971 2.261355 0.036067 -0.013411 -463912.000000 0 1 0
14.901367 -5.134397 -14.572919 21.465850 -0.331819 2.317044 0.020753 -0.013142 -285521.000000 0 1 0
13.989867 -4.196397 -14.055019 20.269920 -0.291420 2.336983 0.038452 -0.020607 -47954.700000 0 1 0
13.776167 -3.028497 -14.878819 20.502044 -0.216394 2.382882 0.032619 -0.031950 -58156.400000 0 1 0
14.988167 -2.116897 -15.212819 21.460574 -0.140310 2.358695 0.040329 -0.023436 186487.000000 0 1 0
15.903367 -2.622497 -16.219919 22.866577 -0.163431 2.359342 0.026912 -0.012347 1243680.000000 0 1 0
17.209567 -2.034097 -16.192419 23.717107 -0.117650 2.322291 0.050590 -0.006289 916955.000000 0 1 0
18.216067 -2.453697 -15.103419 23.789892 -0.133894 2.258633 0.047202 -0.009237 -715737.000000 0 1 0
17.919667 -1.943497 -13.844419 22.727947 -0.108034 2.225767 0.045097 -0.003575 -35572.600000 0 1 0
18.969467 -2.308897 -12.999819 23.112052 -0.121121 2.168166 0.043494 -0.000492 -220142.000000 0 1 0
18.515867 -2.676097 -11.541719 21.982040 -0.143536 2.123573 0.047357 0.000991 -226136.000000 0 1 0
18.159967 -1.519897 -10.806619 21.186729 -0.083500 2.106057 0.033790 0.001824 566424.000000 0 1 0
17.528767 -1.883597 -9.612319 20.079897 -0.107047 2.069974 0.029465 0.000051 -1304330.000000 0 1 0
17.544567 -0.750697 -8.516619 19.516869 -0.042762 2.022359 0.024150 0.001107 -384494.000000 0 1 0
18.812267 -0.470997 -7.983319 20.441541 -0.025031 1.972019 0.027911 0.004977 889444.000000 0 1 0
19.831767 0.155803 -8.788619 21.692466 0.007856 1.987935 0.030129 0.004188 95463.700000 0 1 0
19.503467 1.510503 -9.523419 21.756892 0.077294 2.023857 0.026462 0.002952 -751712.000000 0 1 0
19.524867 2.706703 -8.736619 21.560964 0.137751 1.988000 0.031451 0.005047 1032690.000000 0 1 0
18.750267 3.722103 -9.411119 21.307175 0.195962 2.028275 0.014130 -0.001276 -210523.000000 0 1 0
18.744767 5.224003 -8.887919 21.392793 0.271795 1.999248 0.030546 0.004811 -400038.000000 0 1 0
17.958267 6.096903 -9.664319 21.285456 0.327294 2.042084 0.016969 -0.000528 457145.000000 0 1 0
18.230167 7.483403 -9.325719 21.801590 0.389521 2.012803 0.023518 0.000565 -315789.000000 0 1 0
-26.624343 -29.557807 6.159981 40.254999 0.837564 1.417169 0.060373 -0.001360 176326.000000 0 0 1
-26.273963 -28.569797 7.114981 39.461087 0.827235 1.389501 0.036964 0.000780 538604.000000 0 0 1
-25.035773 -27.885017 6.846781 38.095177 0.839186 1.390086 0.050071 0.000780 461696.000000 0 0 1
-24.932233 -26.529097 7.630881 37.197306 0.816419 1.364183 0.035185 0.006408 -587331.000000 0 0 1
-25.847003 -25.524857 7.328381 37.057942 0.779127 1.371730 0.036925 -0.003017 1078690.000000 0 0 1
-27.195583 -25.637847 7.880681 38.196912 0.755923 1.362987 0.026513 -0.006214 1394200.000000 0 0 1
-27.436683 -25.463507 9.342281 38.580306 0.748115 1.326214 0.045544 -0.005845 -373852.000000 0 0 1
-26.796513 -26.505987 10.073381 39.014016 0.779948 1.309639 0.037889 -0.008112 38926.800000 0 0 1
-27.331123 -26.617177 11.369281 39.808604 0.772165 1.281165 0.038937 -0.010074 -101396.000000 0 0 1
-26.510053 -27.640177 12.232281 40.204366 0.806265 1.261643 0.029747 -0.006270 533648.000000 0 0 1
-25.243433 -27.198937 12.671181 39.211885 0.822670 1.241744 0.023969 -0.002009 -165587.000000 0 0 1
-25.321923 -26.295237 13.763581 39.013785 0.804252 1.210248 0.033341 0.004224 -1000170.000000 0 0 1
-23.973233 -25.772777 14.246181 37.972433 0.821557 1.186214 0.039397 0.007287 -453546.000000 0 0 1
-23.245733 -26.816847 14.836481 38.465940 0.856611 1.174825 0.035292 0.008405 -593322.000000 0 0 1
-21.965333 -26.449287 15.258781 37.614772 0.877750 1.153096 0.043346 0.003372 -538475.000000 0 0 1
-21.209233 -27.547387 15.982481 38.263949 0.914669 1.139895 0.045142 -0.009573 -658457.000000 0 0 1
-21.959933 -28.041907 17.094181 39.506939 0.906439 1.123324 0.054844 -0.011347 229129.000000 0 0 1
-21.356533 -29.145987 17.671881 40.222947 0.938431 1.115923 0.043990 -0.001977 -442101.000000 0 0 1
-22.327933 -29.943947 18.560981 41.709550 0.930080 1.109616 0.048379 -0.016171 447850.000000 0 0 1
-23.374333 -30.608007 17.808881 42.430718 0.918605 1.137663 0.034565 -0.014517 750855.000000 0 0 1
-23.914433 -31.645737 18.586481 43.804224 0.923662 1.132599 0.030785 -0.009402 -81411.400000 0 0 1
-24.984533 -32.591527 17.964881 44.823783 0.916758 1.158418 0.028191 -0.013960 266067.000000 0 0 1
-24.397633 -33.307517 16.944281 44.628958 0.938592 1.181357 0.020646 -0.011591 71955.800000 0 0 1
-25.311763 -34.292628 16.544481 45.720778 0.934948 1.200535 0.015222 -0.004505 -515787.000000 0 0 1
-24.957933 33.596602 15.206181 44.529294 -0.931874 1.222298 0.006336 -0.003146 137658.000000 0 0 1
-23.899433 32.672177 15.257481 43.260199 -0.939246 1.210351 0.003244 -0.005707 576169.000000 0 0 1
-22.577533 33.197303 15.142981 42.908226 -0.973550 1.210111 0.012674 -0.003712 273013.000000 0 0 1
-21.481033 32.117359 15.036781 41.461601 -0.981298 1.199667 0.024674 -0.005223 -146228.000000 0 0 1
-21.410433 31.489419 13.763481 40.489796 -0.973671 1.223960 0.021757 0.009741 429987.000000 0 0 1
-20.385933 30.500169 13.647081 39.141914 -0.981603 1.214659 0.038818 0.003803 304608.000000 0 0 1
-20.345233 29.805149 12.262881 38.113694 -0.971838 1.243225 0.037847 0.006416 50412.800000 0 0 1
-20.000333 30.699439 11.241681 38.325505 -0.993375 1.273097 0.035390 0.007608 -3713.380000 0 0 1
-20.021033 30.081619 9.970381 37.485385 -0.983562 1.301575 0.048144 0.000255 220582.000000 0 0 1
-19.390233 30.882249 8.747281 37.499459 -1.010131 1.335363 0.036076 -0.003033 811527.000000 0 0 1
-17.957033 30.943889 8.764781 36.834776 -1.044981 1.330543 0.034866 -0.007550 586321.000000 0 0 1
-17.384433 31.292179 7.508281 36.575857 -1.063701 1.364047 0.043804 -0.015275 -91762.900000 0 0 1
-16.813933 30.149769 6.726081 35.170401 -1.062076 1.378368 0.047639 -0.013629 -416224.000000 0 0 1
-17.731833 29.154339 6.272381 34.694901 -1.024365 1.389010 0.041548 -0.001893 176753.000000 0 0 1
-17.626933 27.921739 6.993781 33.752708 -1.007681 1.362078 0.034082 -0.002959 -107585.000000 0 0 1
-18.709633 26.969229 6.448481 33.451048 -0.964284 1.376808 0.037640 0.006447 42306.500000 0 0 1
-18.427833 26.455439 5.219081 32.660590 -0.962382 1.410311 0.044472 0.003107 -52342.400000 0 0 1
-19.548233 25.794329 4.693581 32.703372 -0.922290 1.426779 0.032534 0.010915 -654612.000000 0 0 1
-19.360833 25.031939 3.353681 31.822744 -0.912458 1.465214 0.049371 0.000210 -869564.000000 0 0 1
-19.039333 25.753219 2.147981 32.098884 -0.934179 1.503829 0.057898 0.002794 614161.000000 0 0 1
-17.778433 26.399779 2.037381 31.893133 -0.978125 1.506871 0.055297 0.000658 388071.000000 0 0 1
-16.481233 25.531499 2.055781 30.458410 -0.997573 1.503250 0.060187 -0.007018 -280936.000000 0 0 1
-16.327833 24.413149 1.175481 29.393567 -0.981309 1.530795 0.078116 -0.011838 12840.800000 0 0 1
-16.091633 24.728119 -0.205519 29.503606 -0.993899 1.577762 0.069444 -0.009154 -96783.000000 0 0 1
-15.690133 23.562249 -1.108619 28.330000 -0.983324 1.609939 0.077385 -0.015440 464585.000000 0 0 1
-16.724033 22.568149 -1.119619 28.111709 -0.933051 1.610634 0.089100 -0.025285 547742.000000 0 0 1
-16.377633 21.472249 -1.912119 27.072875 -0.919195 1.641484 0.093922 -0.025539 180278.000000 0 0 1
-15.424733 20.368249 -1.322119 25.583901 -0.922644 1.622497 0.085208 -0.030196 446455.000000 0 0 1
-15.932133 19.510849 -0.229219 25.190448 -0.886028 1.579896 0.091928 -0.034084 -71025.500000 0 0 1
-14.947733 18.641849 0.208781 23.895541 -0.894936 1.562059 0.099448 -0.046761 -383637.000000 0 1 0
-15.562033 17.533749 1.072481 23.468265 -0.844904 1.525081 0.083751 -0.038715 1026150.000000 0 1 0
-16.627033 16.807749 0.419681 23.646032 -0.790803 1.553047 0.078099 -0.031029 1070090.000000 0 1 0
-17.324633 15.852349 1.232681 23.515089 -0.741051 1.518351 0.092960 -0.046024 289210.000000 0 1 0
-17.949433 14.664849 0.505781 23.183955 -0.685027 1.548979 0.108989 -0.040882 373791.000000 0 1 0
-18.932333 14.998049 -0.490819 24.158138 -0.669962 1.591115 0.118215 -0.041874 691159.000000 0 1 0
-19.533733 13.865649 -1.047219 23.977482 -0.617294 1.614485 0.101343 -0.031126 -460996.000000 0 1 0
-20.695033 14.150549 -2.069219 25.155598 -0.599747 1.653146 0.101615 -0.017447 -96255.300000 0 0 1
-21.601733 13.074549 -2.325419 25.357174 -0.544274 1.662632 0.097110 -0.018254 903270.000000 0 0 1
-22.303333 12.510249 -1.193619 25.600190 -0.511184 1.617439 0.088946 -0.021422 -659607.000000 0 0 1
-23.524233 13.385649 -0.783819 27.077288 -0.517325 1.599748 0.082140 -0.023275 -696257.000000 0 0 1
-23.203233 14.698649 -0.484919 27.471357 -0.564670 1.588449 0.075365 -0.028129 -385110.000000 0 0 1
-24.395233 15.356049 -0.209219 28.826714 -0.561807 1.578054 0.054130 -0.023461 -403997.000000 0 0 1
-24.080833 16.649249 0.496781 29.280212 -0.604924 1.553829 0.050164 -0.030283 74281.600000 0 0 1
-23.854433 16.506649 1.880081 29.069540 -0.605319 1.506076 0.067903 -0.035724 52811.300000 0 0 1
-23.429833 17.701849 2.481681 29.469837 -0.647028 1.486486 0.061726 -0.042254 -219930.000000 0 0 1
-24.524133 18.703549 2.885281 30.977100 -0.651554 1.477519 0.060009 -0.039895 -227428.000000 0 0 1
-25.323133 18.214149 3.994081 31.447878 -0.623542 1.443446 0.065080 -0.039629 2084120.000000 0 0 1
-26.723893 18.625649 4.041581 32.824011 -0.608687 1.447354 0.054451 -0.039844 1573780.000000 0 0 1
-27.672193 18.245449 2.905181 33.272914 -0.582915 1.483371 0.055581 -0.034584 -1612490.000000 0 0 1
-28.885683 18.893149 3.025581 34.648058 -0.579228 1.483362 0.043297 -0.033896 -1003690.000000 0 0 1
-29.657643 18.614449 1.887381 35.066162 -0.560499 1.516947 0.047000 -0.024340 -192972.000000 0 0 1
-30.862793 19.598249 1.844981 36.606111 -0.565767 1.520374 0.048098 -0.031878 277758.000000 0 0 1
-31.804993 19.307049 2.885081 37.318138 -0.545583 1.493409 0.080149 -0.026229 204027.000000 0 0 1
-33.044193 19.941649 2.638481 38.685264 -0.542977 1.502540 0.068361 -0.024900 -25828.900000 0 0 1
-33.597323 20.605549 3.882581 39.603576 -0.550148 1.472602 0.055738 -0.027976 -495817.000000 0 0 1
-32.755693 21.667349 4.216381 39.499207 -0.584406 1.463847 0.053685 -0.032735 392037.000000 0 0 1
-33.285073 22.408649 5.312981 40.475566 -0.592536 1.439153 0.039781 -0.031864 -340432.000000 0 0 1
-32.225683 23.328749 5.915981 40.220940 -0.626599 1.423174 0.058625 -0.035235 -312613.000000 0 0 1
-31.877313 24.480629 5.107681 40.516080 -0.654899 1.444394 0.051573 -0.026709 878634.000000 0 0 1
-30.813173 25.264969 5.658081 40.246543 -0.686782 1.429744 0.049870 -0.029434 236862.000000 0 0 1
-31.062943 26.777979 5.426381 41.369218 -0.711451 1.439248 0.047274 -0.021481 -360642.000000 0 0 1
-32.262003 27.099119 6.085481 42.570321 -0.698642 1.427354 0.050258 -0.018483 93822.900000 0 0 1
-32.573863 28.472049 5.983881 43.675176 -0.718307 1.433355 0.050967 -0.015415 94764.900000 0 0 1
-33.593693 28.948599 7.032981 44.900116 -0.711263 1.413512 0.049281 -0.008935 -206440.000000 0 0 1
-32.911233 29.087319 8.291981 44.698751 -0.723799 1.384207 0.055638 -0.013241 907566.000000 0 0 1
-33.743203 29.648759 9.325581 45.876129 -0.720898 1.366092 0.070977 -0.016822 827772.000000 0 0 1
-35.080507 28.913939 9.725681 46.489211 -0.689334 1.360036 0.074339 -0.013320 341634.000000 0 0 1
-34.857307 27.637769 10.169881 45.632276 -0.670386 1.346043 0.075753 -0.027606 -490068.000000 0 0 1
-35.878353 27.187299 10.975781 46.334364 -0.648451 1.331641 0.075998 -0.024530 -535911.000000 0 0 1
-35.528060 25.802169 11.566981 45.406939 -0.628125 1.313217 0.078930 -0.022993 -429566.000000 0 0 1
-34.502539 25.958869 12.506681 44.952255 -0.645020 1.288854 0.087409 -0.027544 -182212.000000 0 0 1
-34.318005 24.728049 13.150081 44.295898 -0.624389 1.269384 0.088110 -0.024542 -160202.000000 0 0 1
-32.991773 24.768059 13.932681 43.543467 -0.643971 1.245097 0.075544 -0.025181 -213549.000000 0 0 1
-32.955293 25.825329 14.898381 44.440531 -0.664690 1.228933 0.070608 -0.013333 -115676.000000 0 0 1
-31.643383 26.225389 15.203781 43.820426 -0.692045 1.216472 0.093633 -0.014485 -67642.500000 0 0 1
-31.645763 27.407889 16.193081 44.887221 -0.713758 1.201724 0.065701 0.001971 -112792.000000 0 0 1
-32.202623 28.622549 15.712781 45.860122 -0.726608 1.221088 0.087108 -0.008099 63931.700000 0 0 1
-32.304323 29.501449 16.777381 46.854939 -0.740080 1.204596 0.075381 -0.013174 -93217.600000 0 0 1
-31.942083 30.977639 16.424381 47.430698 -0.770071 1.217192 0.059782 -0.000121 -1046220.000000 0 0 1
-30.599453 31.278209 16.398181 46.728506 -0.796367 1.212238 0.035894 0.002085 -1177540.000000 0 0 1
-30.477353 32.512839 15.681681 47.242660 -0.817701 1.232438 0.037200 0.009758 -617669.000000 0 0 1
-29.045213 32.810055 15.220081 46.387229 -0.846189 1.236495 0.036442 0.004295 -187666.000000 0 0 1
-28.591173 32.058759 14.085181 45.206322 -0.842510 1.253946 0.024904 0.004347 300888.000000 0 0 1
-28.194213 30.712649 14.321381 44.082677 -0.828125 1.239916 0.030339 0.000428 -161145.000000 0 0 1
-29.194873 29.664119 13.728681 43.826673 -0.793370 1.252184 0.052557 -0.003389 351854.000000 0 0 1
-29.105993 29.487449 12.365581 43.238595 -0.791908 1.280762 0.059790 -0.011472 -11796.300000 0 0 1
-30.156073 28.626569 11.992681 43.274630 -0.759384 1.289991 0.046938 -0.017446 201127.000000 0 0 1
-30.296633 28.461619 10.470481 42.867012 -0.754178 1.324045 0.053523 -0.017514 -42939.800000 0 0 1
-29.217133 27.719459 9.965481 41.488795 -0.759100 1.328228 0.038304 -0.008723 -123367.000000 0 0 1
-29.239043 27.856509 8.560481 41.281819 -0.761189 1.361914 0.040940 -0.016756 -469198.000000 0 0 1
-28.261353 26.842869 7.981381 39.786256 -0.759662 1.368819 0.054443 -0.011404 -72905.100000 0 0 1
-27.991393 27.302799 6.644381 39.662435 -0.772946 1.402479 0.046919 -0.014359 39606.700000 0 0 1
-26.975503 26.528909 6.004581 38.308169 -0.777051 1.413403 0.046077 -0.010246 -158608.000000 0 0 1
-26.796763 26.913009 4.539381 38.248955 -0.787562 1.451836 0.045266 -0.009815 -375078.000000 0 0 1
-25.985243 28.046619 4.368881 38.482890 -0.823531 1.457023 0.028644 0.000870 110361.000000 0 0 1
-25.725913 28.300689 2.986281 38.362345 -0.833020 1.492873 0.022033 0.008135 -38003.800000 0 0 1
-24.557533 29.297219 2.780881 38.329268 -0.873181 1.498180 0.010640 0.012629 22808.300000 0 0 1
-23.284433 28.798279 3.149481 37.167526 -0.890872 1.485957 0.004647 0.011715 -42413.400000 0 0 1
-22.348033 29.798879 2.821381 37.354625 -0.927319 1.495195 0.007857 0.022709 -1323080.000000 0 0 1
-20.921833 29.496069 3.127081 36.297656 -0.953850 1.484538 0.008970 0.013095 -1191890.000000 0 0 1
-20.041933 30.558589 2.857381 36.656120 -0.990318 1.492766 0.025682 0.015720 -1019910.000000 0 0 1
-18.771133 30.245159 3.315581 35.750779 -1.015344 1.477921 0.037583 -0.001867 -446902.000000 0 0 1
-17.655633 31.229009 2.892781 35.990840 -1.056237 1.490334 0.048154 -0.002128 -42883.500000 0 0 1
-17.563433 32.476309 3.618881 37.098264 -1.075038 1.473092 0.045898 -0.007183 -282384.000000 0 0 1
-16.393633 33.160899 3.247681 37.134134 -1.111666 1.483226 0.054941 -0.003025 -46494.600000 0 0 1
-16.321233 -34.046497 3.959281 37.963437 1.123780 1.466314 0.050388 -0.008984 -23422.500000 0 0 1
-17.012033 -32.972847 3.359581 37.254593 1.094478 1.480495 0.050911 -0.013787 -159657.000000 0 0 1
-16.910033 -31.892707 4.329181 36.357060 1.083269 1.451439 0.046216 -0.012192 -159149.000000 0 0 1
-17.992633 -30.801327 4.351081 35.935894 1.042112 1.449420 0.050323 -0.009683 -199458.000000 0 0 1
-17.998033 -29.887257 3.295781 35.043395 1.028763 1.476609 0.068081 -0.015824 94021.200000 0 0 1
-18.980033 -28.957627 3.711281 34.821824 0.990605 1.464014 0.066897 -0.017077 -71987.800000 0 0 1
-19.504233 -27.955007 2.607981 34.186241 0.961615 1.494435 0.058582 -0.020921 180953.000000 0 0 1
-18.701633 -26.786067 2.462381 32.761377 0.961289 1.495564 0.070256 -0.024577 -178844.000000 0 0 1
-19.189733 -25.959647 1.478481 32.316173 0.934234 1.525030 0.067945 -0.026912 -563794.000000 0 0 1
-18.274233 -24.797097 1.252481 30.828758 0.935699 1.530158 0.056225 -0.025400 -704917.000000 0 0 1
-17.023933 -25.140217 0.756881 30.371330 0.975565 1.545873 0.065475 -0.022684 -1196340.000000 0 0 1
-16.043333 -24.162297 0.937481 29.018684 0.984655 1.538485 0.054241 -0.018916 -438346.000000 0 0 1
-14.726033 -24.582397 0.294581 28.657234 1.031077 1.560517 0.050665 -0.016291 -648620.000000 0 0 1
-14.669533 -24.717897 -1.100819 28.764239 1.035186 1.609076 0.044501 -0.010860 -12528.500000 0 0 1
-14.629833 -23.470697 -1.819519 27.716715 1.013404 1.636491 0.048519 -0.015205 -313469.000000 0 0 1
-14.957333 -23.638697 -3.300319 28.167391 1.006645 1.688234 0.033330 -0.004276 -19481.200000 0 0 1
-13.924733 -24.276897 -4.028919 28.275398 1.050030 1.713771 0.051670 -0.005350 -27577.500000 0 0 1
-14.188433 -24.344197 -5.446219 28.698656 1.043100 1.761727 0.044776 -0.007714 -267646.000000 0 0 1
-12.933533 -24.637097 -6.257319 28.520464 1.087379 1.791993 0.065388 -0.008694 -129666.000000 0 0 1
-12.536233 -26.012937 -6.213319 29.537017 1.121715 1.782736 0.041903 -0.005080 86965.100000 0 0 1
-11.380233 -26.226427 -7.020619 29.438483 1.161393 1.811601 0.055830 -0.009496 408533.000000 0 0 1
22.925967 12.348903 28.113321 38.320414 0.494082 0.747136 0.025134 0.009469 -285362.000000 0 0 1
24.019067 11.523703 28.499831 39.012199 0.447336 0.751689 0.016089 0.003230 549388.000000 0 0 1
23.565767 10.550703 29.444061 39.161402 0.420951 0.719911 0.029891 -0.002431 -89728.200000 0 0 1
23.557667 11.078803 30.905681 40.408720 0.439594 0.700024 0.045076 -0.008725 435392.000000 0 0 1
22.514267 11.985203 31.249151 40.336667 0.489182 0.684543 0.036051 -0.001034 534743.000000 0 0 1
22.865367 12.337703 32.583045 41.673717 0.494808 0.673151 0.048597 -0.005558 138240.000000 0 0 1
21.955867 13.413303 33.201057 42.003416 0.548411 0.659274 0.040254 -0.003555 -757419.000000 0 0 1
20.708267 12.988303 33.585010 41.538912 0.560182 0.629165 0.042355 0.002258 -576899.000000 0 0 1
19.862967 13.919203 -34.202473 41.929593 0.611237 2.524755 0.033969 0.005171 574178.000000 0 0 1
18.630167 13.319103 -33.461059 40.547800 0.620670 2.541397 0.025997 0.008385 902807.000000 0 0 1
17.576667 12.848003 34.108068 40.464437 0.631210 0.568119 0.028096 0.004824 647205.000000 0 0 1
16.456167 12.428303 -33.572899 39.400605 0.646844 2.590764 0.019212 0.002062 303827.000000 0 0 1
15.204267 12.019703 34.067799 39.195126 0.668951 0.517245 0.016223 0.003470 59503.700000 0 0 1
15.337567 10.871203 33.205051 38.157560 0.616605 0.515170 0.012320 0.010545 -64305.500000 0 0 1
14.091667 10.387103 32.713083 37.102732 0.635200 0.491366 0.020373 0.014282 279432.000000 0 0 1
14.171767 9.330003 31.585911 35.854674 0.582224 0.492946 0.028908 0.013305 15136.200000 0 0 1
14.683667 8.079703 32.106961 36.218070 0.503036 0.481092 0.014963 0.007305 142041.000000 0 0 1
15.124567 7.267603 31.012091 35.260748 0.447940 0.495970 0.016383 -0.010463 159648.000000 0 0 1
15.472867 5.858603 31.473221 35.556946 0.361956 0.483981 0.046282 -0.019159 856163.000000 0 0 1
14.293967 5.078403 31.771091 35.206673 0.341373 0.445450 0.035453 -0.010483 693912.000000 0 0 1
14.703267 3.744503 31.968751 35.386556 0.249371 0.443127 0.040168 -0.021625 418060.000000 0 0 1
13.514667 2.772603 32.208031 35.038418 0.202347 0.404700 0.027464 -0.014504 -47899.000000 0 0 1
13.977367 1.468803 32.601506 35.501864 0.104700 0.407021 0.035654 -0.025139 -453053.000000 0 0 1
13.070367 0.603703 33.236037 35.718805 0.046156 0.375045 0.032113 -0.025038 -683700.000000 0 0 1
13.603267 -0.790397 33.551585 36.213014 -0.058038 0.385777 0.022017 -0.027176 -209628.000000 0 0 1
13.542467 -1.702597 32.465921 35.218365 -0.125067 0.397978 0.001531 -0.030422 196850.000000 0 0 1
14.200567 -2.918997 32.842714 35.900146 -0.202731 0.415697 0.054357 -0.041095 -318567.000000 0 0 1
14.563367 -3.847697 31.684991 35.083259 -0.258302 0.443776 0.064860 -0.042444 -1111400.000000 0 0 1
14.945267 -5.219497 32.028331 35.726994 -0.335998 0.459049 0.080541 -0.041729 302268.000000 0 0 1
16.103967 -5.437797 32.830982 36.969998 -0.325647 0.477723 0.069725 -0.044604 892.878000 0 0 1
17.407967 -4.973097 32.166481 36.911400 -0.278267 0.512643 0.077591 -0.041229 -1262520.000000 0 0 1
17.665867 -3.568797 32.147741 36.855073 -0.199334 0.510962 0.083013 -0.045084 -270587.000000 0 0 1
18.721167 -3.323197 31.269631 36.596660 -0.175680 0.546325 0.104010 -0.054649 -271848.000000 0 0 1
18.756867 -1.782497 31.055851 36.324416 -0.094747 0.545326 0.105226 -0.055703 -125251.000000 0 0 1
19.024267 -1.025297 32.255901 37.462209 -0.053842 0.533514 0.096077 -0.049902 195906.000000 0 0 1
18.784167 0.359803 32.111141 37.203491 0.019152 0.529377 0.090250 -0.042481 415788.000000 0 0 1
20.029567 1.185603 31.589851 37.423360 0.059124 0.565872 0.101511 -0.040643 472205.000000 0 0 1
20.357467 0.925103 30.231421 36.458484 0.045412 0.593119 0.102824 -0.041911 250515.000000 0 0 1
21.269167 1.857103 29.642431 36.530808 0.087093 0.624191 0.090692 -0.032315 135902.000000 0 0 1
20.743567 3.312003 29.555311 36.259913 0.158328 0.617901 0.082517 -0.020857 -231217.000000 0 0 1
20.698667 3.919103 30.809481 37.323160 0.187126 0.599746 0.081040 -0.029932 301333.000000 0 0 1
20.172367 5.216803 30.581661 37.005099 0.253067 0.598081 0.068116 -0.022216 -68611.200000 0 0 1
19.694167 5.897603 31.873521 37.928396 0.290961 0.572849 0.065401 -0.017618 -342531.000000 0 0 1
18.683267 5.199403 32.541714 37.882204 0.271424 0.537437 0.051306 -0.009000 7686.250000 0 0 1
18.461867 5.778603 33.889911 39.022542 0.303342 0.518689 0.039572 -0.005771 -153730.000000 0 0 1
17.312867 5.043903 -33.827879 38.334080 0.283492 2.651840 0.038333 -0.009649 -346012.000000 0 0 1
17.496667 3.662103 -33.671299 38.122181 0.206324 2.653538 0.037408 -0.015358 62128.900000 0 0 1
16.319467 3.003703 -33.242369 37.153766 0.182019 2.678609 0.039022 -0.021836 -1836.710000 0 0 1
16.393167 1.484203 -33.598369 37.413756 0.090292 2.686049 0.038737 -0.026260 -73998.500000 0 0 1
17.385867 0.802603 -32.850239 37.175943 0.046131 2.654382 0.031400 -0.016048 116725.000000 0 0 1
17.431567 -0.564797 -33.216799 37.517119 -0.032389 2.658101 0.045831 -0.021343 -142853.000000 0 0 1
18.286467 -1.538097 -32.355049 37.196906 -0.083914 2.625657 0.057859 -0.020288 -323767.000000 0 0 1
17.919667 -1.677897 -31.043689 35.883707 -0.093362 2.616185 0.056087 -0.020744 160230.000000 0 0 1
17.996567 -0.489497 -30.222429 35.178278 -0.027193 2.604348 0.039932 -0.014900 -246289.000000 0 0 1
17.636367 -0.662697 -28.729809 33.717688 -0.037558 2.590722 0.046108 -0.009365 -586770.000000 0 0 1
16.332167 -1.035397 -28.423309 32.797808 -0.063311 2.619189 0.063041 -0.013156 -542085.000000 0 0 1
16.092567 -1.176397 -26.995639 31.450264 -0.072972 2.602860 0.043328 -0.010060 52695.200000 0 0 1
16.804167 -2.336697 -26.226499 31.235707 -0.138169 2.567402 0.060073 -0.011985 -390571.000000 0 0 1
18.030867 -1.931397 -25.675279 31.433460 -0.106709 2.526662 0.074286 -0.012251 -35128.900000 0 0 1
18.930167 -3.005497 -25.338989 31.771820 -0.157453 2.493987 0.070624 -0.015051 1059560.000000 0 0 1
19.874867 -3.496897 -26.481979 33.294651 -0.174163 2.490435 0.085626 -0.026020 206458.000000 0 0 1
20.955467 -2.644897 -26.816659 34.135909 -0.125551 2.474437 0.098966 -0.019353 -134478.000000 0 0 1
21.230967 -2.858897 -28.203619 35.417105 -0.133852 2.491996 0.105926 -0.029685 273716.000000 0 0 1
22.515267 -2.137097 -28.712849 36.550405 -0.094634 2.474411 0.084900 -0.037308 917759.000000 0 0 1
23.699367 -2.845197 -28.320049 37.037552 -0.119482 2.441264 0.074385 -0.037483 -713.334000 0 0 1
24.862267 -2.177497 -28.739239 38.063337 -0.087359 2.426507 0.041433 -0.035146 208268.000000 0 0 1
26.150967 -3.027897 -28.528559 38.819066 -0.115272 2.396332 0.033369 -0.028068 101033.000000 0 0 1
26.306467 -4.149997 -29.393829 39.664214 -0.156466 2.405454 0.036712 -0.035277 310010.000000 0 0 1
27.543667 -4.817597 -29.175529 40.411314 -0.173156 2.377433 0.029476 -0.027024 192513.000000 0 0 1
27.477767 -6.061097 -28.250179 39.872762 -0.217105 2.358178 0.026487 -0.017772 -102908.000000 0 0 1
27.503067 -5.751597 -26.849749 38.863975 -0.206155 2.333481 0.026592 -0.002756 249282.000000 0 0 1
27.453367 -6.990497 -26.121819 38.534450 -0.249333 2.315674 0.011555 -0.001576 -105398.000000 0 0 1
27.390267 -6.882797 -24.591319 37.447731 -0.246189 2.287209 0.013089 -0.000994 77035.200000 0 0 1
28.677967 -6.721097 -24.020819 38.007876 -0.230210 2.254922 -0.000778 -0.000689 285633.000000 0 0 1
28.565467 -6.205597 -22.695419 37.007801 -0.213917 2.230978 0.012325 0.001557 -452067.000000 0 0 1
29.876167 -5.740797 -22.072819 37.586586 -0.189839 2.198457 0.012231 0.004465 -525459.000000 0 0 1
30.419267 -4.588997 -22.693419 38.228025 -0.149729 2.206362 0.020737 -0.009546 -363991.000000 0 0 1
31.606367 -4.231297 -22.043319 38.765632 -0.133084 2.175636 0.022878 -0.011753 -130396.000000 0 0 1
32.281867 -2.945097 -22.576319 39.502945 -0.090979 2.179141 0.030718 -0.024316 224992.000000 0 0 1
31.510667 -1.786097 -22.258219 38.620468 -0.056622 2.185030 0.011877 -0.022912 259220.000000 0 0 1
32.125967 -0.634997 -22.773019 39.383897 -0.019763 2.187356 0.024876 -0.023091 -68959.100000 0 0 1
31.232667 0.592703 -22.568119 38.537654 0.018975 2.196431 0.024126 -0.019151 247768.000000 0 0 1
30.068767 0.530203 -23.396719 38.102733 0.017631 2.231969 0.027981 -0.018625 95915.500000 0 0 1
29.259967 1.640703 -23.189119 37.370748 0.056015 2.240196 0.030959 -0.013963 -746890.000000 0 0 1
27.917667 1.456903 -23.897819 36.778043 0.052138 2.278098 0.024076 -0.014175 153070.000000 0 0 1
26.957567 2.472903 -23.510019 35.854520 0.091477 2.285913 0.023031 -0.009416 554880.000000 0 0 1
25.958467 2.705803 -24.486119 35.787335 0.103861 2.324319 0.045416 -0.016293 269409.000000 0 0 1
24.909167 3.773403 -24.052019 34.831089 0.150343 2.333022 0.042612 -0.006817 -109740.000000 0 0 1
25.396067 5.077103 -23.972619 35.290560 0.197316 2.317595 0.033774 -0.001031 11194.200000 0 0 1
24.360567 6.021403 -23.796119 34.582507 0.242321 2.329660 0.037888 -0.001021 -86580.800000 0 0 1
24.835267 7.318703 -23.094219 34.694334 0.286578 2.299158 0.045600 0.002057 -317577.000000 0 0 1
25.678667 8.068603 -23.894119 35.992016 0.304446 2.296782 0.045831 0.001340 -257939.000000 0 0 1
25.919667 9.294503 -23.300719 36.071324 0.344306 2.273080 0.057955 0.001266 182730.000000 0 0 1
26.813667 10.172603 -24.282319 37.577727 0.362606 2.273377 0.085299 0.000103 288897.000000 0 0 1
26.239067 10.436703 -25.561479 38.089403 0.378569 2.306477 0.086972 -0.009878 64628.900000 0 0 1
25.059067 11.177603 -25.687029 37.586155 0.419564 2.323230 0.093538 -0.017531 -199485.000000 0 0 1
24.717367 11.395403 -27.146629 38.441421 0.431987 2.354887 0.085413 -0.019049 -220357.000000 0 0 1
24.426767 10.322603 -28.028779 38.585431 0.399831 2.383878 0.068767 -0.014850 470684.000000 0 0 1
25.501067 9.454503 -28.380579 39.308387 0.355039 2.377482 0.066075 -0.021369 122975.000000 0 0 1
26.392067 9.865803 -29.586349 40.856178 0.357733 2.380610 0.064817 -0.022376 -1036840.000000 0 0 1
27.239467 10.932803 -29.250579 41.438039 0.381677 2.354471 0.060187 -0.018900 603347.000000 0 0 1
28.052567 11.441303 -30.332709 42.871006 0.387257 2.356799 0.061359 -0.020088 706220.000000 0 0 1
29.171867 10.514703 -30.853079 43.743220 0.345945 2.353674 0.056302 -0.022506 -691862.000000 0 0 1
28.563267 9.627503 -31.781349 43.801862 0.325100 2.382660 0.051078 -0.023300 486346.000000 0 0 1
29.334967 8.455003 -32.026089 44.245878 0.280617 2.380120 0.046026 -0.020147 -565484.000000 0 0 1
28.578667 7.487403 -32.843099 44.175452 0.256234 2.409040 0.051012 -0.017476 -271372.000000 0 0 1
27.408367 6.985203 -32.228509 42.879930 0.249544 2.421279 0.063275 -0.019634 20851.600000 0 0 1
26.933867 5.865203 -32.941719 42.953354 0.214416 2.444822 0.072244 -0.015800 614211.000000 0 0 1
25.582867 5.304903 -32.324479 41.563169 0.204464 2.461826 0.067550 -0.015858 417345.000000 0 0 1
24.485567 6.078103 -32.686109 41.290047 0.243314 2.484255 0.090124 -0.020011 -389081.000000 0 0 1
23.841367 6.604503 -31.531979 40.078622 0.270242 2.476327 0.082407 -0.020635 25774.600000 0 0 1
22.341867 6.977203 -31.588949 39.315417 0.302696 2.503906 0.069033 -0.018738 207399.000000 0 0 1
22.035467 8.030603 -32.495589 40.075125 0.349481 2.516428 0.065451 -0.013265 -1033630.000000 0 0 1
20.679267 8.215803 -32.660209 39.519878 0.378174 2.543524 0.052272 -0.012535 -1034660.000000 0 0 1
20.307667 9.265403 -33.720729 40.439295 0.428040 2.556861 0.045907 -0.007567 -296784.000000 0 0 1
19.716167 8.793103 33.521602 39.871590 0.419510 0.572150 0.052995 -0.005915 89078.300000 0 0 1
19.199567 9.909903 32.804534 39.280618 0.476486 0.582422 0.040312 -0.004584 11544.800000 0 0 1
18.131767 9.496603 31.783081 37.803580 0.482470 0.572143 0.032584 0.000744 -322044.000000 0 0 1
18.622067 8.618003 30.782941 36.995145 0.433434 0.587948 0.035730 -0.010558 367707.000000 0 0 1
19.615167 9.038303 29.844961 36.839752 0.431783 0.626424 0.040909 -0.008795 -21750.800000 0 0 1
19.124167 10.085203 28.765961 35.985074 0.485290 0.644524 0.039130 -0.007450 109473.000000 0 0 1
18.214067 9.530403 27.836261 34.604020 0.482070 0.636093 0.044059 -0.004554 214694.000000 0 0 1
16.856767 9.720403 28.172741 34.239453 0.523071 0.604449 0.061378 -0.010853 -336266.000000 0 0 1
15.863567 9.020303 27.239271 32.787139 0.517024 0.590268 0.063766 -0.010583 -499672.000000 0 0 1
15.904167 9.482603 25.918601 31.853353 0.537646 0.620333 0.062676 -0.008830 273730.000000 0 0 1
14.932367 8.929803 25.030401 30.483404 0.538960 0.607433 0.068104 -0.005373 177162.000000 0 0 1
14.921267 7.435903 24.720181 29.816508 0.462321 0.593341 0.049762 -0.005431 34312.200000 0 0 1
14.560567 6.628503 25.889641 30.433873 0.427200 0.553509 0.043235 -0.005573 124912.000000 0 0 1
14.520967 5.227503 25.633791 29.921171 0.345553 0.541938 0.039393 -0.011864 7645.400000 0 0 1
14.479567 4.408603 26.895351 30.861846 0.295553 0.512593 0.044137 -0.013429 156039.000000 0 0 1
15.794167 3.957703 27.168511 31.674076 0.245525 0.539915 0.039718 -0.013752 109315.000000 0 0 1
15.957967 3.739003 28.553281 32.923042 0.230152 0.521097 0.036886 -0.016803 39984.400000 0 0 1
16.924167 2.582003 28.939261 33.624023 0.151396 0.534208 0.061386 -0.028531 -170309.000000 0 0 1
16.502867 1.271603 28.772341 33.193511 0.076902 0.522035 0.058381 -0.033867 -105279.000000 0 0 1
15.695267 0.777303 29.830921 33.716901 0.049484 0.484846 0.044433 -0.030395 141593.000000 0 0 1
15.284367 -0.719397 29.845581 33.539351 -0.047033 0.473742 0.055424 -0.038018 22893.100000 0 0 1
14.462967 -1.190697 28.746801 32.202076 -0.082142 0.467494 0.046433 -0.028167 394512.000000 0 0 1
15.046367 -1.349597 27.472611 31.352175 -0.089456 0.502755 0.055176 -0.022389 -708728.000000 0 0 1
16.228167 -2.368397 27.316061 31.861103 -0.144920 0.540701 0.059854 -0.022538 253164.000000 0 0 1
17.457867 -2.056397 27.902811 32.978367 -0.117252 0.562181 0.072774 -0.035154 -190582.000000 0 0 1
18.141067 -0.916697 27.359931 32.840591 -0.050489 0.586084 0.071372 -0.033411 -276765.000000 0 0 1
19.667467 -0.937397 27.744001 34.020840 -0.047626 0.617203 0.092835 -0.027360 223152.000000 0 0 1
20.400667 -1.740497 26.890271 33.797976 -0.085110 0.650770 0.065482 -0.024930 -739853.000000 0 0 1
21.737767 -1.448897 27.239821 34.880333 -0.066555 0.674610 0.058215 -0.022352 -368121.000000 0 0 1
22.822767 -2.091897 26.395971 34.957145 -0.091403 0.714997 0.055861 -0.016399 -469518.000000 0 0 1
22.905567 -1.378597 25.174361 34.063381 -0.060114 0.739145 0.054694 0.003691 151144.000000 0 0 1
22.315667 -2.090997 24.101861 32.912929 -0.093428 0.749115 0.061459 0.009195 -28144.700000 0 0 1
22.195967 -1.385997 22.696451 31.775947 -0.062363 0.775223 0.062116 -0.006490 583817.000000 0 0 1
21.277567 -0.248597 22.685851 31.103769 -0.011683 0.753410 0.051813 -0.004384 693922.000000 0 0 1
21.128967 0.221303 21.379851 30.059611 0.010474 0.779524 0.042127 0.001181 -44066.000000 0 0 1
-30.047523 -27.698143 -10.131819 42.103379 0.744736 1.813823 -0.017488 0.018441 -126090.000000 0 0 1
-29.850103 -26.582343 -9.194119 41.014406 0.727557 1.796886 -0.017036 0.020257 -369625.000000 0 0 1
-30.508893 -26.752443 -7.949619 41.348304 0.719890 1.764261 -0.001105 0.009433 -867511.000000 0 0 1
-30.774373 -25.445943 -7.186119 40.573370 0.690903 1.748850 0.026044 0.000941 -281854.000000 0 0 1
-29.665783 -24.696243 -6.777319 39.190499 0.694236 1.744603 0.024660 0.000661 -948501.000000 0 0 1
-28.920203 -25.293443 -5.758819 38.849716 0.718600 1.719578 0.020248 0.000013 684409.000000 0 0 1
-27.640313 -24.491343 -5.245419 37.300499 0.725067 1.711890 0.016105 0.004688 500489.000000 0 0 1
-27.761793 -23.271843 -4.538819 36.508858 0.697644 1.695440 0.031143 -0.002787 -294157.000000 0 0 1
-28.558413 -22.267943 -5.126719 36.574958 0.662260 1.711430 0.037198 -0.006118 -169329.000000 0 0 1
-28.682983 -21.039643 -4.218819 35.821482 0.632873 1.688844 0.037147 -0.007727 -324264.000000 0 0 1
-27.545173 -20.229043 -4.300119 34.444764 0.633439 1.695964 0.042336 -0.011703 -124270.000000 0 0 1
-27.730093 -19.085043 -3.485219 33.842927 0.602792 1.673961 0.045672 -0.005291 -10723.300000 0 0 1
-26.729363 -17.917443 -3.647519 32.385151 0.590533 1.683665 0.046798 -0.001877 -123085.000000 0 0 1
-26.798333 -17.204843 -4.842319 32.211882 0.570739 1.721695 0.044033 -0.014492 385435.000000 0 0 1
-25.837113 -16.121843 -4.916919 30.848766 0.557866 1.730867 0.041959 -0.020579 351130.000000 0 0 1
-26.231743 -14.961543 -5.837519 30.757581 0.518340 1.761746 0.040036 -0.033774 532759.000000 0 0 1
-27.489133 -14.361243 -5.488319 31.496340 0.481433 1.745943 0.038306 -0.023254 417351.000000 0 0 1
-27.766353 -13.260743 -6.270419 31.402800 0.445554 1.771825 0.066127 -0.038068 -1516880.000000 0 0 1
-29.132413 -12.715743 -6.049719 32.357174 0.411555 1.758870 0.065432 -0.029204 -1123600.000000 0 0 1
-30.081103 -13.620243 -6.611019 33.676243 0.425167 1.768391 0.069930 -0.027263 276651.000000 0 0 1
-31.332883 -12.985043 -6.849719 34.601728 0.392877 1.770071 0.062133 -0.029717 279475.000000 0 0 1
-32.320783 -13.882543 -7.641219 35.996476 0.405696 1.784701 0.045775 -0.027020 496979.000000 0 0 1
-33.188013 -14.701343 -6.808719 36.931455 0.416994 1.756218 0.045512 -0.024574 683960.000000 0 0 1
-33.341243 -15.957643 -7.462719 37.709111 0.446394 1.770014 0.054064 -0.027228 -606003.000000 0 0 1
-34.208795 -16.999843 -6.742219 38.790384 0.461200 1.745495 0.051924 -0.029157 -518399.000000 0 0 1
-35.560322 -16.661743 -6.647419 39.828864 0.438172 1.738481 0.043053 -0.031816 -395350.000000 0 0 1
-35.868389 -16.007343 -5.433119 39.652177 0.419756 1.708248 0.047680 -0.027236 -454734.000000 0 0 1
35.002311 -15.791343 -5.176319 38.746904 -0.423811 1.704790 0.060539 -0.032070 -1011490.000000 0 0 1
34.419931 -14.997243 -6.211319 38.055610 -0.410910 1.734747 0.062564 -0.036483 334914.000000 0 0 1
33.010631 -14.912843 -6.269619 36.761430 -0.424316 1.742183 0.071856 -0.036354 258817.000000 0 0 1
32.220921 -14.357743 -5.064919 35.636862 -0.419191 1.713405 0.084404 -0.039685 -859181.000000 0 0 1
32.389621 -15.151843 -3.890419 35.969449 -0.437557 1.679167 0.081699 -0.038242 89544.900000 0 0 1
31.837091 -14.442543 -2.822719 35.073568 -0.425876 1.651363 0.093393 -0.044196 -1115790.000000 0 0 1
31.889251 -15.059643 -1.398019 35.294074 -0.441201 1.610417 0.103301 -0.046301 743016.000000 0 0 1
33.220741 -15.227943 -0.849419 36.554472 -0.429806 1.594035 0.111839 -0.046132 1325170.000000 0 0 1
34.092781 -16.141743 -1.531219 37.752062 -0.442195 1.611367 0.087762 -0.047575 -590210.000000 0 0 1
33.606431 -17.585343 -1.792019 37.971671 -0.482092 1.618007 0.094027 -0.050199 -988291.000000 0 0 1
33.881121 -18.542443 -0.733019 38.630168 -0.500752 1.589773 0.097672 -0.048716 163389.000000 0 0 1
33.735761 -19.856643 -1.166219 39.163094 -0.531990 1.600579 0.079038 -0.044614 -287167.000000 0 0 1
34.824681 -20.441143 -2.107219 40.435617 -0.530786 1.622933 0.069652 -0.046294 -148212.000000 0 0 1
35.049641 -19.701943 -3.261319 40.339560 -0.512097 1.651731 0.026290 -0.040990 -471489.000000 0 0 1
35.896231 -20.497843 -4.007019 41.530196 -0.518846 1.667431 0.044709 -0.034904 -506557.000000 0 0 1
36.000261 -19.972143 -5.501719 41.535216 -0.506504 1.703646 0.068436 -0.039817 -461510.000000 0 0 1
34.806791 -20.077843 -6.228619 40.662368 -0.523214 1.724581 0.053287 -0.044899 13024.700000 0 0 1
34.590691 -19.080843 -7.164519 40.148783 -0.504084 1.750206 0.063861 -0.039023 -730196.000000 0 0 1
33.404581 -19.271843 -8.070719 39.400590 -0.523278 1.777094 0.068569 -0.040979 -559447.000000 0 0 1
33.686631 -20.273343 -8.995719 40.332623 -0.541758 1.795726 0.079497 -0.038663 545516.000000 0 0 1
32.632961 -20.350643 -9.941219 39.722621 -0.557608 1.823751 0.077224 -0.042824 -266222.000000 0 0 1
32.736171 -21.608943 -10.813119 40.688166 -0.583438 1.839784 0.078574 -0.035016 -64169.600000 0 0 1
32.432401 -22.735343 -10.048119 40.862222 -0.611402 1.819247 0.070432 -0.039740 110547.000000 0 0 1
32.202961 -23.955743 -10.748019 41.550310 -0.639585 1.832446 0.058221 -0.030055 -347010.000000 0 0 1
31.608051 -24.978543 -9.802619 41.461884 -0.668773 1.809481 0.062434 -0.025514 -317836.000000 0 0 1
30.282041 -24.644643 -9.510319 40.184656 -0.683121 1.809729 0.065073 -0.031672 -165164.000000 0 0 1
29.447221 -25.752043 -9.127819 40.169934 -0.718555 1.800029 0.043184 -0.021544 586736.000000 0 0 1
28.001341 -25.389043 -8.710319 38.788507 -0.736509 1.797287 0.041138 -0.026519 -228553.000000 0 0 1
27.272581 -24.955143 -9.793919 38.242302 -0.741055 1.829784 0.042151 -0.022282 -788475.000000 0 0 1
26.002681 -24.539843 -9.319419 36.948544 -0.756464 1.825777 0.046887 -0.031933 61859.000000 0 0 1
25.127781 -24.148743 -10.558919 36.415078 -0.765533 1.864981 0.071441 -0.033755 -145612.000000 0 0 1
24.580681 -25.298443 -11.190219 37.005974 -0.799787 1.877995 0.051126 -0.023578 50822.600000 0 0 1
23.813681 -24.915543 -12.292019 36.591931 -0.808006 1.913380 0.046989 -0.014430 -104564.000000 0 0 1
22.935381 -26.031143 -12.881319 37.007844 -0.848536 1.926308 0.048580 -0.013717 -179524.000000 0 0 1
23.694881 -27.034743 -13.540119 38.414314 -0.851140 1.931012 0.051169 -0.004664 406120.000000 0 0 1
22.988281 -28.274043 -13.625019 38.904032 -0.888147 1.928604 0.052840 -0.001169 -42106.100000 0 0 1
23.811981 -29.384943 -14.322519 40.442797 -0.889778 1.932793 0.044896 -0.003940 -81213.600000 0 0 1
23.856681 -29.261043 -15.749319 40.907101 -0.886792 1.966006 0.046115 -0.004456 327860.000000 0 0 1
24.312681 -30.480243 -16.317219 42.265865 -0.897488 1.967154 0.044190 0.000161 -345784.000000 0 0 1
24.223281 -30.468543 -17.881619 42.835170 -0.899096 2.001436 0.046046 -0.004610 -135600.000000 0 0 1
22.885181 -30.320743 -18.296319 42.164372 -0.924250 2.019645 0.046166 -0.001534 -361893.000000 0 0 1
22.770281 -30.245443 -19.666719 42.662072 -0.925474 2.049905 0.039636 -0.003351 -912790.000000 0 0 1
21.386281 -30.082043 -20.243419 42.096298 -0.952771 2.072459 0.034122 0.004115 -923958.000000 0 0 1
21.319681 -30.083043 -21.659419 42.762702 -0.954259 2.101920 0.021024 0.004685 -401024.000000 0 0 1
20.025981 -30.067143 -22.185319 42.394120 -0.983226 2.121528 0.026247 -0.001094 -797939.000000 0 0 1
19.946981 -30.311143 -23.707519 43.343903 -0.988766 2.149529 0.032714 0.000334 -529591.000000 0 0 1
20.342981 -29.226143 -24.535919 43.243677 -0.962723 2.174126 0.040371 -0.006434 158132.000000 0 0 1
20.256181 -29.636643 -25.863569 44.244408 -0.971241 2.195136 0.035760 -0.003871 -449269.000000 0 0 1
20.669481 -28.483143 -26.835729 44.256900 -0.943046 2.222275 0.039253 -0.017283 -111635.000000 0 0 1
19.824781 -27.374143 -26.815129 43.144140 -0.944002 2.241483 0.049972 -0.025168 285513.000000 0 0 1
18.612981 -27.526443 -27.573809 43.179429 -0.976233 2.263457 0.059620 -0.026831 481812.000000 0 0 1
17.891081 -26.151343 -27.741669 42.113937 -0.970797 2.289924 0.056188 -0.023107 -290641.000000 0 0 1
17.154081 -25.733843 -26.632989 40.814327 -0.982843 2.281728 0.037011 -0.015801 -332669.000000 0 0 1
16.570681 -24.509843 -27.006319 40.058222 -0.976303 2.310646 0.034241 -0.010229 -209775.000000 0 0 1
15.479881 -23.962543 -26.053759 38.634551 -0.997236 2.310900 0.039869 -0.017219 -603215.000000 0 0 1
14.322581 -24.746843 -26.088429 38.705926 -1.046138 2.310429 0.060943 -0.016475 -1325280.000000 0 0 1
13.324281 -24.214743 -25.302229 37.471229 -1.067757 2.312092 0.045021 -0.012711 -528943.000000 0 0 1
13.304881 -24.598543 -23.810019 36.729078 -1.074981 2.276094 0.045296 -0.011523 -245791.000000 0 0 1
14.392081 -23.998843 -23.126919 36.303317 -1.030598 2.261458 0.027776 -0.014899 -92167.600000 0 0 1
14.377081 -24.361443 -21.751719 35.683577 -1.037646 2.226317 0.037449 -0.016057 427277.000000 0 0 1
15.646281 -23.765343 -21.091119 35.417975 -0.988563 2.208674 0.023416 -0.020313 422051.000000 0 0 1
15.517181 -22.363843 -20.925919 34.333926 -0.964209 2.226204 0.022528 -0.025173 300016.000000 0 0 1
16.786181 -21.766743 -20.692719 34.405749 -0.913874 2.216089 0.030235 -0.017507 -133214.000000 0 0 1
16.630681 -20.331643 -20.174419 33.120423 -0.885194 2.225751 0.040588 -0.010052 69219.900000 0 0 1
15.941681 -20.228943 -18.960519 31.982004 -0.903377 2.205389 0.036135 -0.005037 -339866.000000 0 0 1
14.547781 -20.210243 -19.109319 31.388818 -0.946890 2.225336 0.035750 -0.007802 -522967.000000 0 0 1
13.747381 -20.155743 -17.758719 30.176424 -0.972214 2.199994 0.040772 -0.012100 -119443.000000 0 0 1
13.593981 -18.877743 -17.128019 28.888311 -0.946703 2.205458 0.052001 -0.007529 189552.000000 0 0 1
13.230681 -19.019943 -15.749819 28.015459 -0.963015 2.167820 0.051190 -0.012853 -258249.000000 0 0 1
13.332181 -17.663543 -14.952819 26.708324 -0.924240 2.165008 0.053197 -0.017267 -111667.000000 0 0 1
12.207981 -16.797043 -15.014219 25.624251 -0.942314 2.196833 0.042359 -0.020974 389979.000000 0 0 1
12.523281 -15.517843 -14.563719 24.692872 -0.891787 2.201601 0.049340 -0.019913 -817878.000000 0 1 0
11.273481 -14.756843 -14.240119 23.401640 -0.918427 2.224977 0.052673 -0.019752 -736702.000000 0 1 0
10.488881 -14.362343 -15.359419 23.499048 -0.940020 2.283152 0.052112 -0.008825 -502178.000000 0 1 0
9.330481 -13.731943 -14.953419 22.343430 -0.973980 2.304000 0.053299 -0.015471 -844537.000000 0 1 0
8.546981 -13.115843 -16.116919 22.468451 -0.993260 2.370735 0.041336 -0.008839 -247293.000000 0 1 0
8.993381 -11.905043 -16.694519 22.390130 -0.923832 2.412260 0.039671 -0.002051 -391415.000000 0 1 0
10.215881 -11.936443 -17.368619 23.420329 -0.862912 2.406255 0.052544 -0.005764 -468805.000000 0 1 0
10.325481 -10.823043 -18.408719 23.719923 -0.808921 2.459233 0.052640 -0.003904 -225170.000000 0 1 0
9.470681 -10.913643 -19.516419 24.283575 -0.856068 2.504264 0.038509 -0.004571 -30793.300000 0 1 0
9.619781 -9.790643 -20.372019 24.564528 -0.794201 2.548698 0.036577 -0.013437 195600.000000 0 1 0
9.066181 -10.008143 -21.852219 25.688091 -0.834742 2.588064 0.029294 -0.012827 197625.000000 0 0 1
9.982981 -10.736143 -22.659219 26.988236 -0.821733 2.567336 0.021505 -0.011760 -78274.400000 0 0 1
9.834781 -10.630243 -24.061319 28.083306 -0.824248 2.599796 0.013815 -0.006387 -108338.000000 0 0 1
10.957081 -11.438643 -24.759819 29.393006 -0.806897 2.572464 0.041843 -0.007281 -137562.000000 0 0 1
10.875681 -12.805443 -24.561619 29.757905 -0.866708 2.541674 0.033585 -0.017466 -702758.000000 0 0 1
11.941881 -13.489643 -25.119809 30.912518 -0.846183 2.519412 0.043884 -0.029730 -688253.000000 0 0 1
11.963781 -14.989543 -24.730419 31.295560 -0.897189 2.481966 0.037879 -0.028098 379518.000000 0 0 1
10.802681 -15.680243 -25.206999 31.590516 -0.967535 2.494648 0.036993 -0.031807 172450.000000 0 0 1
10.670681 -16.883443 -24.533319 31.635389 -1.007165 2.458307 0.035390 -0.031642 -282420.000000 0 0 1
9.516781 -17.752343 -24.998419 32.103516 -1.078698 2.463358 0.044113 -0.031328 -327222.000000 0 0 1
9.814381 -18.636543 -26.079199 33.522641 -1.086080 2.462205 0.041082 -0.030771 -296634.000000 0 0 1
8.652781 -19.108843 -26.710129 33.962472 -1.145603 2.475853 0.049642 -0.030126 -438809.000000 0 0 1
8.856481 -19.761643 -28.086689 35.465785 -1.149469 2.484772 0.045556 -0.028395 -355590.000000 0 0 1
9.588981 -20.973743 -27.922259 36.214624 -1.141979 2.451240 0.038428 -0.026556 176861.000000 0 0 1
9.730881 -21.661443 -29.166409 37.611003 -1.148586 2.458264 0.042695 -0.024517 35144.800000 0 0 1
10.443381 -23.005443 -28.776699 38.293773 -1.144660 2.421087 0.032235 -0.005770 174039.000000 0 0 1
10.555881 -23.929543 -29.846469 39.684523 -1.155349 2.422029 0.036000 -0.005746 199937.000000 0 0 1
11.256081 -25.160243 -29.668099 40.496090 -1.150127 2.392954 0.047017 -0.009222 -265105.000000 0 0 1
10.717781 -26.150943 -28.635439 40.233456 -1.181834 2.362757 0.040401 -0.007964 -128016.000000 0 0 1
11.178981 -25.837243 -27.393659 39.280342 -1.162448 2.342544 0.045202 -0.004082 -733272.000000 0 0 1
10.578281 -26.588943 -26.411039 38.941172 -1.192149 2.316146 0.040970 0.002874 183067.000000 0 0 1
9.490281 -25.830943 -25.579799 37.571654 -1.218706 2.319688 0.033828 -0.001207 210326.000000 0 0 1
9.949281 -24.730343 -24.820019 36.422677 -1.188300 2.320530 0.032571 -0.003356 -658574.000000 0 0 1
9.009881 -23.703843 -24.665119 35.375390 -1.207560 2.342336 0.035161 -0.005912 -367002.000000 0 0 1
9.605781 -22.322443 -24.516019 34.519526 -1.164429 2.360589 0.044438 -0.013400 -481515.000000 0 0 1
10.265481 -22.035743 -23.339919 33.700236 -1.134835 2.335848 0.042150 -0.019849 72738.200000 0 0 1
11.074581 -20.866743 -23.560219 33.363921 -1.082869 2.354854 0.034971 -0.019229 516445.000000 0 0 1
12.049881 -20.530543 -22.354219 32.655994 -1.040047 2.324764 0.030857 -0.017362 532479.000000 0 0 1
11.346581 -20.081143 -21.195119 31.324595 -1.056482 2.313971 0.030495 -0.014742 52491.200000 0 0 1
10.965181 -18.731243 -21.109619 30.277230 -1.041185 2.342296 0.031434 -0.012785 -397625.000000 0 0 1
12.069581 -17.694843 -20.901819 29.927718 -0.972188 2.343970 0.025994 -0.011351 -473178.000000 0 0 1
12.913281 -17.575643 -21.981519 30.965194 -0.937143 2.360122 0.025226 -0.010283 460965.000000 0 0 1
14.258381 -17.219943 -21.570219 31.066094 -0.879205 2.338289 0.031766 -0.010545 915650.000000 0 0 1
15.291281 -17.269743 -22.687419 32.354077 -0.846085 2.347908 0.026679 -0.003225 -775608.000000 0 0 1
16.585981 -17.505943 -22.253819 32.814406 -0.812376 2.316069 0.037350 -0.005455 -317701.000000 0 0 1
17.597381 -17.384543 -23.247519 33.946094 -0.779314 2.325175 0.036406 -0.004379 401638.000000 0 0 1
18.970281 -17.722143 -22.611119 34.426859 -0.751395 2.287347 0.038218 -0.001857 -122014.000000 0 0 1
19.158181 -19.087743 -22.302119 35.053706 -0.783556 2.260394 0.039794 -0.009327 231256.000000 0 0 1
20.455981 -19.301843 -21.769819 35.565901 -0.756377 2.229507 0.029591 -0.008271 337774.000000 0 0 1
20.870681 -20.768143 -21.505219 36.460602 -0.782936 2.201633 0.047528 -0.017378 -213192.000000 0 0 1
20.300881 -21.355043 -20.366619 35.818470 -0.810699 2.175607 0.038960 -0.012472 -16564.100000 0 0 1
20.593581 -22.697743 -20.209919 36.711360 -0.833965 2.153770 0.048130 -0.013991 -168476.000000 0 0 1
-15.669133 12.699903 28.577081 34.977976 -0.681113 0.614604 0.053580 -0.031442 -26697.100000 0 0 1
-16.946633 13.212603 28.246981 35.491593 -0.662215 0.650340 0.071566 -0.034157 52635.900000 0 0 1
-17.031533 13.546303 26.851071 34.562341 -0.671909 0.681088 0.063428 -0.031878 924565.000000 0 0 1
-18.392333 14.234103 26.397581 35.181243 -0.658632 0.722234 0.085705 -0.032852 1037840.000000 0 0 1
-18.436733 15.597803 26.791251 36.069041 -0.702178 0.733588 0.085379 -0.033437 -364393.000000 0 0 1
-19.469033 16.279003 26.151031 36.440713 -0.696397 0.770400 0.100627 -0.031130 -1008220.000000 0 0 1
-19.496233 17.794703 26.283661 37.250307 -0.739801 0.787533 0.111749 -0.023865 136358.000000 0 0 1
-18.441233 18.549203 25.687091 36.660314 -0.788317 0.794448 0.058907 -0.023572 522536.000000 0 0 1
-17.283933 18.484703 26.512101 36.651195 -0.818956 0.762136 0.040109 -0.009948 1124230.000000 0 0 1
-15.963633 19.325903 26.144081 36.219347 -0.880388 0.764359 0.038191 -0.007418 1325500.000000 0 0 1
-16.205433 20.703703 26.242191 37.147166 -0.906674 0.786343 0.050053 -0.012907 455690.000000 0 0 1
-15.394633 21.570703 25.398911 36.706874 -0.950946 0.806625 0.052266 -0.019554 341812.000000 0 0 1
-15.720933 23.056903 25.565441 37.846536 -0.972368 0.829150 0.054270 -0.020468 -123433.000000 0 0 1
-15.199533 23.687603 26.726551 38.812844 -1.000302 0.811239 0.046980 -0.013695 102215.000000 0 0 1
-15.638533 25.007203 26.767291 39.829785 -1.011937 0.833833 0.044860 -0.016391 -490790.000000 0 0 1
-14.982233 25.794403 27.934021 40.867200 -1.044590 0.818206 0.026572 -0.009149 452783.000000 0 0 1
-13.623733 26.112403 27.638851 40.390219 -1.089913 0.817159 0.026593 -0.010824 42940.400000 0 0 1
-13.090233 26.948303 28.607441 41.424038 -1.118611 0.808478 0.038883 -0.005081 -593069.000000 0 0 1
-11.573433 27.076603 28.588261 41.041143 -1.166867 0.800183 0.056282 -0.010478 -766633.000000 0 0 1
-11.088733 27.984503 27.695551 40.903984 -1.193531 0.827000 0.052504 -0.015661 -1101690.000000 0 0 1
-9.728133 27.762903 27.589271 40.330921 -1.233765 0.817465 0.035323 -0.005867 -1304250.000000 0 0 1
-8.997433 28.649903 26.605181 40.119900 -1.266502 0.845788 0.038891 -0.021392 89914.500000 0 0 1
-7.626133 28.277103 26.498051 39.495559 -1.307371 0.835358 0.017934 -0.011066 455868.000000 0 0 1
-6.999533 28.935103 25.426941 39.150517 -1.333451 0.863914 0.034300 -0.020846 294368.000000 0 0 1
-5.466933 28.627003 25.328671 38.612617 -1.382097 0.855331 0.008906 -0.013164 -21211.300000 0 0 1
-4.804633 29.362503 26.327541 39.728837 -1.408602 0.846403 0.013383 -0.012548 1159820.000000 0 0 1
-3.360633 29.276503 26.286471 39.489062 -1.456507 0.842412 -0.002460 -0.008981 1352260.000000 0 0 1
-2.601533 30.118303 25.247901 39.387011 -1.484633 0.874969 -0.004744 -0.006272 -548481.000000 0 0 1
-2.920933 29.705403 23.917011 38.248741 -1.472781 0.895278 -0.004737 -0.000206 -82746.300000 0 0 1
-2.531433 30.737003 23.028851 38.490252 -1.488624 0.929414 -0.005361 0.000018 -111053.000000 0 0 1
-3.017733 30.399803 21.567051 37.395085 -1.471852 0.956070 0.000350 -0.001265 530931.000000 0 0 1
-4.426533 30.345403 21.414351 37.403370 -1.425946 0.961215 0.011527 0.002241 -93150.900000 0 0 1
-4.832233 28.985203 21.520551 36.422885 -1.405602 0.938681 0.019240 -0.003890 -673634.000000 0 0 1
-6.290633 28.759403 21.126551 36.235431 -1.355455 0.948336 0.038050 -0.009629 -811805.000000 0 0 1
-6.521333 28.870903 19.772651 35.595148 -1.348645 0.981848 0.040657 -0.010807 36497.300000 0 0 1
-7.450633 27.941503 19.254951 34.741800 -1.310208 0.983359 0.034751 -0.015030 -816064.000000 0 0 1
-6.867733 26.571203 18.889251 33.316638 -1.317866 0.967984 0.025915 -0.006353 129015.000000 0 0 1
-5.870533 26.529403 17.895751 32.535062 -1.353022 0.988378 0.027648 -0.004109 426941.000000 0 0 1
-4.562933 26.923103 18.306051 32.875300 -1.402911 0.980228 0.019964 0.005479 34131.800000 0 0 1
-3.576833 27.080303 17.102551 32.227842 -1.439474 1.011398 0.022702 0.000435 100597.000000 0 0 1
-3.227133 25.890203 16.535951 30.889394 -1.446789 1.005901 0.032644 0.002866 -293818.000000 0 0 1
-2.537333 26.102203 15.339751 30.382084 -1.473893 1.041536 0.029977 -0.007326 -105554.000000 0 0 1
-2.072633 24.870503 14.516251 28.871426 -1.487651 1.043973 0.023413 -0.010061 317413.000000 0 0 1
-1.110433 24.136203 15.281351 28.588617 -1.524822 1.006850 0.018584 -0.008341 201856.000000 0 0 1
-0.420933 23.208503 14.441751 27.338178 -1.552661 1.014243 0.020176 -0.024166 -97176.500000 0 0 1
0.886067 22.695703 15.101451 27.275151 1.531775 0.984031 0.007258 -0.017590 464216.000000 0 0 1
1.855767 23.738403 15.236351 28.268393 1.492779 1.001560 0.014459 -0.019531 -286064.000000 0 0 1
3.047067 23.262903 15.765951 28.266809 1.440554 0.979118 0.011055 -0.015148 383659.000000 0 0 1
4.233267 24.315503 15.880351 29.348761 1.398427 0.999062 0.024139 -0.012966 1260850.000000 0 0 1
5.515367 23.708603 15.887451 29.067649 1.342230 0.992536 0.025684 -0.010503 -811889.000000 0 0 1
6.536567 24.600903 15.995351 30.062973 1.311093 1.009763 0.029266 -0.009501 -910898.000000 0 0 1
7.906167 23.881503 16.125151 29.880665 1.251095 1.000773 0.043285 -0.006037 153038.000000 0 0 1
8.412067 23.467003 14.860051 29.022133 1.226602 1.033256 0.030766 0.001635 -161923.000000 0 0 1
9.240467 24.381803 14.215951 29.697673 1.208532 1.071635 0.034031 -0.002494 -721001.000000 0 0 1
9.918067 23.989403 12.930151 29.000833 1.178762 1.108668 0.038569 0.002577 41256.400000 0 0 1
11.056467 23.156403 13.127151 28.823368 1.125335 1.097936 0.041352 0.001993 171937.000000 0 0 1
11.361867 22.453203 11.921851 27.845446 1.102341 1.128359 0.046525 0.001231 419320.000000 0 0 1
12.699667 21.668803 12.121251 27.888049 1.040675 1.121158 0.043566 0.002019 345677.000000 0 0 1
12.586067 20.437103 12.761851 27.183618 1.018808 1.082108 0.046644 0.004447 -179520.000000 0 0 1
13.767867 19.672903 12.742951 27.183820 0.960178 1.082899 0.044588 0.003824 -343631.000000 0 0 1
13.826367 18.736003 13.963351 27.151084 0.935047 1.030625 0.051098 0.001229 475157.000000 0 0 1
15.163967 18.273203 14.230551 27.683287 0.878119 1.030898 0.055278 -0.004364 992822.000000 0 0 1
15.392967 17.874103 15.546851 28.251222 0.859843 0.988064 0.053872 -0.004123 176720.000000 0 0 1
16.862967 17.383703 15.661051 28.841312 0.800602 0.996782 0.041315 -0.009070 122897.000000 0 0 1
17.248167 17.104503 16.974351 29.634302 0.781216 0.960886 0.049041 -0.022031 131131.000000 0 0 1
18.448167 16.353203 16.850251 29.861230 0.725273 0.971229 0.038391 -0.014793 227184.000000 0 0 1
18.901967 15.716503 18.236351 30.608125 0.693640 0.932534 0.048009 -0.018196 50481.900000 0 0 1
19.589267 16.475203 19.204751 31.999908 0.699265 0.927107 0.058414 -0.019162 247305.000000 0 0 1
18.749367 17.442903 19.760351 32.346021 0.749316 0.913593 0.052620 -0.017587 -369752.000000 0 0 1
19.419867 18.432503 20.658951 33.818347 0.759319 0.913625 0.046898 -0.018548 109439.000000 0 0 1
18.394767 19.300003 21.192151 34.058256 0.809408 0.899205 0.066522 -0.014986 789730.000000 0 0 1
18.935467 20.486003 21.806451 35.408325 0.824710 0.907324 0.058224 -0.008181 418197.000000 0 0 1
17.872867 21.538303 22.289451 35.779288 0.878136 0.898262 0.070070 -0.012353 1068440.000000 0 0 1
16.982367 21.069803 23.351151 35.743721 0.892405 0.858870 0.067850 -0.019161 631371.000000 0 0 1
16.190267 22.126003 23.847751 36.337308 0.939091 0.854907 0.060084 -0.023194 -52069.800000 0 0 1
15.704367 21.710303 25.261161 36.825136 0.944564 0.814852 0.074433 -0.023155 120123.000000 0 0 1
14.558167 20.879703 25.273081 35.869636 0.961925 0.788963 0.082780 -0.020977 -21675.700000 0 0 1
14.055967 20.647603 26.600451 36.489419 0.973103 0.753950 0.074939 -0.019508 513500.000000 0 0 1
12.923667 19.580403 26.711161 35.551363 0.987402 0.720706 0.102374 -0.015059 192749.000000 0 0 1
13.362167 18.231203 26.634761 34.933290 0.938311 0.703711 0.094391 -0.021867 -20822.100000 0 0 1
13.885767 17.708903 25.407611 33.940631 0.905818 0.724864 0.102600 -0.026372 293989.000000 0 0 1
12.869167 17.470303 24.235151 32.529517 0.935906 0.730231 0.114008 -0.021445 -67181.400000 0 0 1
12.436867 18.593103 23.443051 32.403021 0.981251 0.761961 0.099834 -0.019805 224920.000000 0 0 1
13.431067 19.362503 22.741651 32.748782 0.964336 0.803173 0.088345 -0.014070 469672.000000 0 0 1
14.182167 18.506703 21.655551 31.821294 0.916928 0.822302 0.100432 -0.015744 291485.000000 0 0 1
13.311667 18.172403 20.597151 30.523422 0.938576 0.830105 0.076351 -0.005945 228445.000000 0 0 1
13.992467 17.237703 19.821451 29.762685 0.888940 0.841985 0.075553 -0.008495 550055.000000 0 0 1
13.025967 16.520203 18.798251 28.212890 0.903115 0.841560 0.075134 0.001689 397253.000000 0 0 1
12.624467 17.352603 17.727051 27.834121 0.941835 0.880349 0.075804 0.002036 825598.000000 0 0 1
11.642267 16.607603 16.940951 26.426325 0.959386 0.874913 0.063284 0.004110 709833.000000 0 0 1
11.156667 17.048903 15.561651 25.637887 0.991340 0.918543 0.052046 0.005514 -93829.100000 0 0 1
10.436667 18.268103 15.610451 26.197972 1.051743 0.932454 0.045137 0.004381 1214.430000 0 0 1
9.998667 18.541303 14.318351 25.470933 1.076233 0.973820 0.041802 0.002364 -323589.000000 0 0 1
8.920367 19.626003 14.199251 25.814175 1.144192 0.988365 0.038141 -0.000510 218361.000000 0 0 1
7.679467 19.309903 14.812651 25.519819 1.192278 0.951531 0.039117 -0.005085 -413884.000000 0 0 1
6.858367 20.405303 14.792451 26.119536 1.246551 0.968742 0.031468 -0.009934 259950.000000 0 0 1
5.468867 20.291403 15.512151 26.120420 1.307535 0.934935 0.029917 -0.009650 816680.000000 0 0 1
4.556267 19.437903 14.817751 24.862771 1.340552 0.932309 0.029733 -0.019288 89969.100000 0 1 0
3.424467 19.191803 15.654351 25.002219 1.394221 0.894231 0.019330 -0.016211 809345.000000 0 0 1
2.255267 18.585403 14.809851 23.871219 1.450041 0.901536 0.011863 -0.019764 493335.000000 0 1 0
1.551167 19.429403 13.893651 23.936193 1.491129 0.951521 0.012352 -0.029285 -51853.200000 0 1 0
0.533567 18.669003 13.286851 22.920662 1.542224 0.952450 0.010019 -0.033677 213045.000000 0 1 0
-0.496533 19.472503 12.406651 23.094369 -1.545303 1.003664 0.015200 -0.039065 -61709.800000 0 1 0
-1.517533 20.100503 13.128251 24.055854 -1.495442 0.993524 0.021793 -0.034094 -1023810.000000 0 1 0
-2.506833 20.469803 12.237851 23.980451 -1.448938 1.035232 0.022571 -0.035659 -656786.000000 0 1 0
-3.532033 21.359203 12.918351 25.210605 -1.406916 1.032799 0.024290 -0.020357 -559062.000000 0 0 1
-4.415533 20.739503 13.805551 25.302513 -1.361024 0.993668 0.033036 -0.022047 67784.900000 0 0 1
-5.499533 21.655703 14.008051 26.371193 -1.322101 1.010795 0.036751 -0.008537 820710.000000 0 0 1
-6.436433 21.323903 15.275251 27.008698 -1.277651 0.969675 0.044997 -0.003934 -615569.000000 0 0 1
-7.210933 20.170903 15.035351 26.171065 -1.227463 0.958800 0.044153 -0.003715 125317.000000 0 0 1
-8.017833 19.835203 16.164251 26.814249 -1.186655 0.923762 0.038915 0.018930 1060930.000000 0 0 1
-9.230133 20.811803 16.499151 28.116694 -1.153357 0.943683 0.027603 0.022180 388885.000000 0 0 1
-10.326933 20.787803 15.604751 27.969386 -1.109729 0.978916 0.022639 0.007851 884844.000000 0 0 1
-11.494933 20.064103 16.034251 28.138922 -1.050534 0.964504 0.006802 0.015083 939908.000000 0 0 1
-12.717133 20.175703 15.095951 28.225382 -1.008381 1.006483 0.005386 0.000853 78676.800000 0 0 1
-13.476633 21.345903 15.028751 29.379084 -1.007647 1.033813 -0.003401 -0.001687 -887113.000000 0 0 1
-14.633833 21.194903 14.319851 29.469155 -0.966515 1.063373 0.000270 -0.010159 -1263140.000000 0 0 1
-15.571533 22.391503 14.505451 30.891102 -0.963150 1.081996 0.012222 -0.016781 58126.800000 0 0 1
-16.519433 22.118403 15.553651 31.686456 -0.929305 1.057718 0.016503 -0.030053 242789.000000 0 0 1
-17.621133 23.005103 15.469951 32.849025 -0.917155 1.080439 0.023009 -0.030411 -737530.000000 0 0 1
-18.840633 22.553503 16.193951 33.554046 -0.874854 1.067149 0.026603 -0.027158 -1316860.000000 0 0 1
-19.409733 21.376603 15.603551 32.820233 -0.833585 1.075350 0.026244 -0.019251 749710.000000 0 0 1
-20.661133 20.911403 16.111051 33.522159 -0.791418 1.069447 0.038801 -0.022380 1075330.000000 0 0 1
-21.934533 21.781303 15.866051 34.745942 -0.781893 1.096592 0.050013 -0.029390 -322029.000000 0 0 1
-22.258533 22.071903 14.523051 34.547507 -0.781188 1.136933 0.059884 -0.034325 -271696.000000 0 0 1
-23.152633 23.127003 14.556751 35.816221 -0.784844 1.152254 0.087893 -0.042642 -804226.000000 0 0 1
-22.723633 24.420403 13.897351 36.136629 -0.821374 1.176046 0.051751 -0.026482 -880605.000000 0 0 1
-21.588633 24.917303 14.502051 36.017365 -0.856851 1.156397 0.024532 -0.024185 -538213.000000 0 0 1
-21.196333 26.179403 13.918051 36.446643 -0.890195 1.178972 0.024415 -0.002816 54593.700000 0 0 1
-19.733233 26.583903 14.260151 36.047972 -0.932241 1.164088 0.015053 -0.006094 561946.000000 0 0 1
-18.822933 25.970403 13.339451 34.737668 -0.943630 1.176666 0.012553 -0.005180 -424526.000000 0 0 1
-17.525233 26.455503 13.465651 34.472470 -0.985724 1.169491 0.016646 -0.010544 -211003.000000 0 0 1
-16.458433 25.840803 12.500651 33.089173 -1.003674 1.183392 0.013806 -0.015265 474080.000000 0 0 1
-15.155733 26.294803 12.823351 32.947705 -1.047927 1.171030 0.013907 -0.006347 17540.900000 0 0 1
-14.228533 25.944903 11.816951 31.862666 -1.069172 1.190849 0.013997 -0.002286 -300622.000000 0 0 1
-12.879833 26.618203 12.093551 31.947970 -1.120133 1.182579 0.015863 0.003056 -842275.000000 0 0 1
-11.774433 25.933403 11.528351 30.725910 -1.144600 1.186184 0.018922 0.000630 677239.000000 0 0 1
-10.507933 26.418403 11.972751 30.849561 -1.192231 1.172226 0.035121 -0.002142 322630.000000 0 0 1
-10.005633 27.589103 11.170451 31.401437 -1.222883 1.207101 0.031769 -0.011637 -468621.000000 0 0 1
-8.793733 28.159103 11.666051 31.723202 -1.268105 1.194213 0.051306 -0.019770 508181.000000 0 0 1
-8.362733 29.191303 10.831151 32.239437 -1.291789 1.228172 0.047225 -0.022417 356126.000000 0 0 1
-6.991033 29.783803 11.291151 32.610421 -1.340244 1.217232 0.040076 -0.018471 1045880.000000 0 0 1
-5.821333 29.208303 10.697951 31.645838 -1.374070 1.225950 0.042717 -0.015588 767264.000000 0 0 1
-4.664633 29.514503 11.479451 32.010037 -1.414047 1.204007 0.047598 -0.024189 51199.100000 0 0 1
-3.303933 29.091703 10.946951 31.258261 -1.457711 1.213001 0.047705 -0.026915 -573585.000000 0 0 1
-2.980633 29.827803 9.833651 31.548101 -1.471199 1.253811 0.059223 -0.032157 -509803.000000 0 0 1
-1.839433 29.312903 9.225251 30.785306 -1.508127 1.266456 0.035757 -0.028351 -228250.000000 0 0 1
-1.347233 30.225803 8.035151 31.304598 -1.526254 1.311215 0.026941 -0.028160 -88832.400000 0 0 1
-2.189233 30.198203 6.907451 31.055387 -1.498427 1.346497 0.049895 -0.027837 69887.500000 0 0 1
-1.700533 30.968803 5.817951 31.556412 -1.515940 1.385369 0.047879 -0.025006 -38865.600000 0 0 1
11.541267 34.105303 -26.822739 44.898016 1.244492 2.211070 0.068262 -0.019631 141871.000000 0 0 1
11.904167 -34.286443 -25.447669 44.326665 -1.236620 2.182293 0.059523 -0.018055 299785.000000 0 0 1
13.147867 -33.634043 -25.321229 44.105327 -1.198151 2.182311 0.061649 -0.013181 -23450.200000 0 0 1
13.745867 -33.413843 -23.913019 43.327431 -1.180516 2.155454 0.054251 -0.001530 -219592.000000 0 0 1
13.240167 -32.232043 -23.244619 41.886978 -1.181035 2.159083 0.057435 -0.003245 493522.000000 0 0 1
13.620067 -32.140543 -21.846019 41.179719 -1.169971 2.129992 0.041989 -0.004526 1348440.000000 0 0 1
15.152667 -31.898243 -21.489319 41.338748 -1.127322 2.117454 0.027987 -0.002334 1933440.000000 0 0 1
16.108567 -32.928143 -21.874119 42.687535 -1.115823 2.108802 0.027798 0.006217 211069.000000 0 0 1
17.383767 -32.610243 -21.409219 42.708055 -1.081039 2.095888 0.015446 0.005551 -378460.000000 0 0 1
18.476867 -33.562343 -21.968219 44.163652 -1.067551 2.091427 0.004091 0.006715 654930.000000 0 0 1
19.792667 -33.435943 -21.406419 44.361546 -1.036311 2.074354 0.016829 0.010410 783309.000000 0 0 1
20.427167 33.926203 -21.578719 45.098753 1.028830 2.069716 0.008142 0.010284 98408.900000 0 0 1
21.954367 33.815103 -21.320619 45.607282 0.994950 2.057237 0.023610 0.012151 27744.600000 0 0 1
22.698967 -34.063743 -22.239719 46.585264 -0.983001 2.068488 0.019934 0.010280 -642025.000000 0 0 1
24.063467 34.302303 -22.079019 47.362237 0.959057 2.055757 0.015084 0.011860 -373630.000000 0 0 1
24.937467 -33.725943 -23.232619 47.948629 -0.934104 2.076624 0.037994 0.005595 37089.100000 0 0 1
24.919667 -32.341443 -23.458119 47.087600 -0.914292 2.092295 0.044445 0.003256 -164050.000000 0 0 1
23.815367 -31.850843 -24.176219 46.541782 -0.928759 2.117006 0.022628 0.005625 -106421.000000 0 0 1
23.554067 -30.328743 -23.961519 45.263463 -0.910472 2.128665 0.026690 -0.003275 -566674.000000 0 0 1
24.484267 -29.534043 -24.651319 45.600730 -0.878610 2.141935 0.036067 -0.008886 -88798.800000 0 0 1
24.426467 -28.184343 -24.276919 44.501441 -0.856705 2.147819 0.046040 -0.004707 501964.000000 0 0 1
25.023967 -27.220743 -25.416729 44.868451 -0.827421 2.173015 0.043487 -0.006288 716896.000000 0 0 1
24.147867 -27.146943 -26.552129 45.001017 -0.843799 2.201897 0.038335 -0.012778 -89586.300000 0 0 1
24.771967 -26.473043 -27.610709 45.572180 -0.818581 2.221652 0.030868 -0.012620 -149211.000000 0 0 1
23.824267 -26.167943 -28.834489 45.648490 -0.832245 2.254494 0.029493 -0.022115 598977.000000 0 0 1
23.137667 -24.918643 -28.854559 44.596816 -0.822441 2.274452 0.044642 -0.026006 946290.000000 0 0 1
21.986267 -24.940243 -27.947359 43.433472 -0.848264 2.269796 0.043478 -0.019150 722488.000000 0 0 1
21.315867 -23.564043 -27.710019 42.160117 -0.835449 2.287969 0.048370 -0.017991 168986.000000 0 0 1
20.735867 -22.884943 -28.830409 42.247950 -0.834626 2.321850 0.062784 -0.017319 419919.000000 0 0 1
20.010767 -21.717443 -28.471799 41.020988 -0.826275 2.337936 0.053782 -0.003933 188772.000000 0 0 1
18.884767 -21.287943 -29.461289 40.960694 -0.845148 2.373529 0.066859 -0.011740 -2947.310000 0 0 1
17.773467 -22.123743 -29.384269 40.850843 -0.894006 2.373600 0.063818 -0.018967 290758.000000 0 0 1
16.624567 -21.580543 -30.047579 40.558021 -0.914398 2.405138 0.060809 -0.022983 531724.000000 0 0 1
15.356767 -22.450143 -30.058589 40.538352 -0.970863 2.406078 0.052158 -0.023730 -216476.000000 0 0 1
15.540867 -23.575743 -30.858889 41.828283 -0.987989 2.400530 0.038723 -0.008998 353158.000000 0 0 1
14.753467 -24.617043 -30.286259 41.724346 -1.030878 2.383088 0.046814 -0.014152 -201239.000000 0 0 1
15.094367 -25.978743 -30.850169 43.063534 -1.044444 2.369407 0.058007 -0.006282 30085.700000 0 0 1
14.256067 -26.983943 -30.317069 43.017360 -1.084753 2.352886 0.052640 -0.004324 138769.000000 0 0 1
14.664167 -28.314543 -30.681869 44.250743 -1.092930 2.336943 0.092517 -0.013791 316042.000000 0 0 1
13.944167 -29.395943 -29.807969 44.125687 -1.127873 2.312472 0.077635 -0.021885 -81250.000000 0 0 1
14.321667 -29.561343 -28.456899 43.460076 -1.119647 2.284691 0.083942 -0.020984 147452.000000 0 0 1
13.906567 -28.476743 -27.604319 42.027561 -1.116514 2.287383 0.078120 -0.006337 189852.000000 0 0 1
14.974467 -28.325043 -26.471349 41.560499 -1.084480 2.261313 0.064099 -0.005187 123047.000000 0 0 1
15.012967 -29.280343 -25.415949 41.577616 -1.097015 2.228485 0.063484 -0.013456 -165896.000000 0 0 1
15.873867 -28.998343 -24.341519 41.053539 -1.069947 2.205478 0.061132 -0.014506 -1024260.000000 0 0 1
15.529767 -27.794843 -23.402919 39.514853 -1.061277 2.204652 0.053987 -0.012496 907712.000000 0 0 1
14.396067 -27.964843 -22.525319 38.686809 -1.095386 2.192287 0.052865 -0.012654 1304270.000000 0 0 1
13.114967 -28.163543 -23.154019 38.746563 -1.134986 2.211271 0.057508 -0.006260 -249105.000000 0 0 1
11.986667 -28.054843 -22.134119 37.691824 -1.167014 2.198440 0.041830 -0.001458 -436059.000000 0 0 1
11.823867 -26.693343 -21.741419 36.400930 -1.153819 2.210897 0.033059 -0.000057 585191.000000 0 0 1
10.520867 -26.545043 -21.160419 35.539996 -1.193449 2.208556 0.038983 -0.003812 223118.000000 0 0 1
10.043167 -25.080743 -21.027219 34.235257 -1.189916 2.232165 0.041750 -0.011623 -253123.000000 0 0 1
10.656067 -24.487243 -19.928819 33.321685 -1.160345 2.211892 0.043068 -0.021913 -9535.940000 0 0 1
10.471767 -23.074243 -19.914919 32.228599 -1.144763 2.236900 0.047195 -0.027684 -195307.000000 0 0 1
11.017767 -22.305643 -18.747919 31.151523 -1.112004 2.216587 0.046186 -0.019605 -429327.000000 0 0 1
10.367267 -22.640443 -17.524219 30.449436 -1.141385 2.184035 0.060364 -0.026694 371941.000000 0 0 1
10.922167 -22.054643 -16.316019 29.528181 -1.110970 2.156226 0.059223 -0.025436 -124571.000000 0 0 1
10.116267 -22.399743 -15.034819 28.812031 -1.146593 2.119784 0.049450 -0.023976 -29182.700000 0 0 1
10.392867 -23.703543 -14.534619 29.683746 -1.157587 2.082484 0.069153 -0.021683 -3833.280000 0 0 1
9.632367 -24.117343 -13.426919 29.235439 -1.190811 2.047968 0.073834 -0.017616 -193364.000000 0 0 1
9.790767 -25.621343 -13.214019 30.445404 -1.205787 2.019750 0.084339 -0.017233 116603.000000 0 0 1
11.049667 -26.035743 -12.724019 31.013799 -1.169431 1.993546 0.071288 -0.014246 -249575.000000 0 0 1
11.291167 -27.365243 -13.129219 32.383999 -1.179467 1.988238 0.077106 -0.016604 -1433810.000000 0 0 1
12.635667 -27.831843 -12.653919 33.081615 -1.144621 1.963303 0.059825 -0.019168 -639659.000000 0 0 1
13.800767 -27.250243 -13.211619 33.280381 -1.102006 1.979020 0.055008 -0.011826 183556.000000 0 0 1
14.055367 -27.536943 -14.595419 34.188636 -1.098849 2.011868 0.057247 -0.012369 -1688860.000000 0 0 1
15.443967 -27.154743 -15.000419 34.654130 -1.053680 2.018460 0.044383 -0.011572 -623304.000000 0 0 1
16.511867 -28.020543 -14.664719 35.676975 -1.038299 1.994393 0.040688 -0.004680 903132.000000 0 0 1
17.716167 -27.742043 -15.410719 36.345203 -1.002474 2.008664 0.047543 -0.004334 1502520.000000 0 0 1
18.960767 -28.638643 -15.127519 37.530313 -0.985983 1.985670 0.046596 -0.002707 605399.000000 0 0 1
19.019567 -29.839243 -15.881119 38.785749 -1.003329 1.992656 0.041026 0.000976 -160049.000000 0 0 1
20.304867 -30.420743 -15.950719 39.901562 -0.982239 1.982042 0.042532 0.001080 27885.100000 0 0 1
20.423267 -31.539243 -16.996319 41.239648 -0.996145 1.995593 0.032546 0.001850 -377663.000000 0 0 1
19.919967 -32.805643 -16.703819 41.857292 -1.025091 1.981294 0.033373 0.003628 9829.300000 0 0 1
20.312667 -33.644243 -17.795219 43.141736 -1.027625 1.995974 0.027356 0.004242 79087.500000 0 0 1
20.111267 33.426703 -17.680919 42.830158 1.029162 1.996339 0.016233 -0.000159 124563.000000 0 0 1
21.023567 32.847003 -16.745519 42.442059 1.001451 1.976375 0.025208 -0.001871 413144.000000 0 0 1
20.606867 31.537303 -16.353519 41.069234 0.992026 1.980343 0.020827 -0.011894 -415299.000000 0 0 1
21.422667 30.973903 -15.185619 40.606851 0.965706 1.954079 0.026234 -0.013309 -209066.000000 0 0 1
22.785567 30.713703 -15.476319 41.255667 0.932519 1.955335 0.030917 -0.014529 603467.000000 0 0 1
23.623567 30.490903 -14.307719 41.139748 0.911627 1.926002 0.039407 -0.015616 589832.000000 0 0 1
23.366167 29.260703 -13.403919 39.772246 0.896939 1.914543 0.043119 -0.012519 -1059600.000000 0 0 1
23.648367 27.952003 -13.950619 39.181367 0.868609 1.934836 0.047516 -0.009811 163640.000000 0 0 1
23.175967 26.877403 -13.154019 37.849022 0.859214 1.925742 0.031037 -0.012031 296929.000000 0 0 1
21.666667 26.843803 -12.781919 36.788744 0.891718 1.925637 0.023359 -0.013365 -172584.000000 0 0 1
20.840767 26.387803 -13.856819 36.368463 0.902313 1.961687 0.023061 -0.015019 1003430.000000 0 0 1
19.427567 26.589303 -13.717319 35.673326 0.939792 1.965491 0.029129 -0.016387 803367.000000 0 0 1
18.790067 27.992203 -13.759119 36.413506 0.979620 1.958278 0.022431 -0.015784 -477739.000000 0 0 1
18.944467 28.640903 -15.028419 37.483963 0.986415 1.983327 0.022861 -0.017432 54586.200000 0 0 1
18.116967 28.114903 -16.039919 37.093817 0.998375 2.017966 0.012875 -0.006689 -516497.000000 0 0 1
18.119767 28.927203 -17.324319 38.278467 1.011197 2.040460 0.003631 -0.000369 -591861.000000 0 0 1
17.340667 30.043803 -17.336119 38.779761 1.047326 2.034250 0.006474 -0.006376 -534613.000000 0 0 1
17.522667 30.661403 -18.586419 39.907649 1.051604 2.055262 -0.004009 0.003432 -824483.000000 0 0 1
16.598967 31.788403 -18.852119 40.514573 1.089570 2.054789 -0.007455 0.002643 -585566.000000 0 0 1
16.876867 32.925403 -18.046819 41.165501 1.097136 2.024610 0.000259 -0.011011 498289.000000 0 0 1
15.960967 33.981803 -18.431819 41.824004 1.131688 2.027174 0.013439 -0.006478 480659.000000 0 0 1
16.100567 -33.337443 -17.581819 40.984555 -1.120875 2.014167 0.006887 -0.000117 -15135.200000 0 0 1
15.099167 -32.424743 -17.955019 40.021638 -1.134990 2.036031 0.014769 0.001127 -62653.600000 0 0 1
14.831967 -31.457543 -16.945219 38.687268 -1.130214 2.024175 0.021411 0.003288 -132547.000000 0 0 1
13.724767 -30.459843 -17.280919 37.613846 -1.147456 2.048149 0.036726 -0.000585 229037.000000 0 0 1
12.405067 -30.987643 -17.382519 37.633385 -1.190012 2.050922 0.034189 -0.003169 253232.000000 0 0 1
11.496567 -29.964443 -17.790919 36.695445 -1.204443 2.076961 0.026296 0.003487 331707.000000 0 0 1
10.134067 -30.623743 -18.111019 36.993539 -1.251218 2.082396 0.044539 -0.001452 -1190860.000000 0 0 1
9.400667 -31.140843 -17.031219 36.717667 -1.277620 2.053124 0.053598 -0.004929 -527182.000000 0 0 1
8.374667 -31.981043 -17.388419 37.353437 -1.314684 2.055008 0.070521 0.001225 -199025.000000 0 0 1
7.116767 -31.403843 -18.100719 36.938946 -1.347940 2.082906 0.070180 0.005146 -683092.000000 0 0 1
7.341167 -30.977243 -19.421219 37.291635 -1.338103 2.118576 0.046737 0.015424 36392.300000 0 0 1
6.941367 -31.938343 -20.383819 38.519351 -1.356788 2.128435 0.054439 0.003572 -878632.000000 0 0 1
7.152767 -31.304843 -21.779719 38.800921 -1.346165 2.166776 0.048392 0.009479 -175604.000000 0 0 1
8.480567 -31.022743 -22.152719 39.052190 -1.303950 2.173970 0.045142 0.005272 415851.000000 0 0 1
9.462767 -32.053943 -22.296719 40.176397 -1.283736 2.159124 0.043434 0.004807 27570.800000 0 0 1
9.177867 -33.155643 -23.372419 41.590863 -1.300747 2.167550 0.049554 -0.003484 -131884.000000 0 0 1
8.274067 -34.196743 -22.977619 42.021999 -1.333404 2.149334 0.052225 -0.014264 144272.000000 0 0 1
8.178667 33.461003 -23.959119 41.959131 1.331073 2.178533 0.056529 -0.024747 -2931.760000 0 0 1
6.986367 32.494303 -23.672819 40.805531 1.359017 2.189694 0.067486 -0.039627 674449.000000 0 0 1
5.692367 33.068303 -23.803119 41.140055 1.400327 2.187792 0.075780 -0.037907 552550.000000 0 0 1
5.181967 33.702403 -22.605819 40.911218 1.418234 2.156226 0.067590 -0.033286 220094.000000 0 0 1
3.806767 -34.154243 -22.729519 41.202364 -1.459796 2.155144 0.065105 -0.022887 505766.000000 0 0 1
2.721767 33.554703 -22.634719 40.566693 1.489859 2.162726 0.064728 -0.031080 -86633.300000 0 0 1
1.554067 34.251203 -23.008819 41.291231 1.525455 2.161846 0.055811 -0.024287 -728380.000000 0 0 1
0.200767 33.664803 -22.644019 40.572292 1.564833 2.162909 0.052443 -0.032408 -393585.000000 0 0 1
-0.065033 33.916503 -21.283119 40.041286 -1.568879 2.131201 0.047579 -0.030015 54592.800000 0 0 1
-1.344833 33.492403 -20.841819 39.470635 -1.530665 2.127080 0.035786 -0.030339 449034.000000 0 0 1
-1.732433 33.747603 -19.342719 38.936394 -1.519506 2.090678 0.042169 -0.027274 90100.400000 0 0 1
-0.834433 33.133003 -18.459819 37.937542 -1.545617 2.078972 0.040902 -0.028729 -280684.000000 0 0 1
-1.318133 33.103703 -17.118919 37.291420 -1.530999 2.047731 0.028099 -0.022660 131809.000000 0 0 1
-0.605033 32.116103 -16.166719 35.960714 -1.551960 2.037076 0.024708 -0.014795 486780.000000 0 0 1
0.691067 32.511603 -15.751919 36.133154 1.549544 2.021880 0.034040 -0.015876 -14054.900000 0 0 1
1.330867 31.525303 -14.976919 34.927411 1.528606 2.013962 0.032149 -0.006407 417929.000000 0 0 1
2.527667 32.076203 -14.158919 35.153192 1.492157 1.985346 0.038424 -0.012270 402726.000000 0 0 1
3.597167 32.762103 -14.836219 36.144272 1.461438 1.993768 0.051658 -0.015781 590361.000000 0 0 1
4.388667 33.389703 -13.843819 36.411317 1.440108 1.960816 0.057363 -0.023573 -53299.500000 0 0 1
5.876067 33.660203 -14.143419 36.980721 1.397968 1.963247 0.079419 -0.029088 217613.000000 0 0 1
6.611267 32.495803 -14.413319 36.158399 1.370086 1.980804 0.073130 -0.018233 -203028.000000 0 0 1
7.882367 32.672103 -15.010819 36.809275 1.334063 1.990840 0.065007 -0.010051 88468.700000 0 0 1
8.528667 31.316103 -15.204219 35.841383 1.304904 2.008884 0.053126 -0.013041 -422032.000000 0 0 1
9.192567 31.004703 -14.028319 35.250370 1.282563 1.980091 0.048567 -0.016937 -479369.000000 0 0 1
10.096567 29.922003 -14.109919 34.588390 1.245364 1.990991 0.048481 -0.012412 -50188.200000 0 0 1
9.529867 28.520303 -13.870519 33.115213 1.248317 2.002982 0.050979 -0.011809 -399363.000000 0 0 1
8.687367 28.190303 -14.947519 33.069500 1.271862 2.039806 0.048094 -0.013295 -154304.000000 0 0 1
8.123567 26.926403 -14.744819 31.755837 1.277785 2.053661 0.043869 -0.009207 -425850.000000 0 0 1
7.292967 26.288803 -15.821719 31.537522 1.300184 2.096335 0.041859 -0.002252 -301804.000000 0 0 1
8.065067 25.702603 -16.860919 31.779863 1.266742 2.130050 0.049988 -0.000853 -76831.400000 0 0 1
7.410467 24.687303 -17.617919 31.221291 1.279181 2.170372 0.039654 0.005265 34077.400000 0 0 1
8.388367 23.846503 -18.475719 31.310902 1.232550 2.201946 0.051410 0.011059 -264693.000000 0 0 1
7.766867 22.888503 -19.279419 30.917694 1.243654 2.244100 0.048285 0.007226 -430840.000000 0 0 1
8.696467 22.001003 -19.838719 30.874705 1.194369 2.268625 0.045377 0.006367 -528902.000000 0 0 1
8.043567 20.986703 -20.756919 30.593959 1.204795 2.316467 0.032290 -0.005581 -43289.500000 0 0 1
7.314167 19.932203 -20.182319 29.293613 1.219100 2.330859 0.037672 -0.007958 -43679.300000 0 0 1
6.585667 19.144803 -21.080519 29.228116 1.239483 2.376389 0.041294 -0.011953 -98729.700000 0 0 1
24.969867 -12.573797 -9.507219 29.529338 -0.466491 1.898594 0.061382 -0.018017 -96435.500000 0 0 1
25.666967 -11.838497 -8.525019 29.523197 -0.432157 1.863724 0.061633 -0.023116 753604.000000 0 0 1
24.886367 -11.783897 -7.331619 28.494633 -0.442230 1.831022 0.055483 -0.018307 -159896.000000 0 0 1
25.761167 -11.300897 -6.170119 28.799624 -0.413400 1.786713 0.044997 -0.015999 -284002.000000 0 0 1
25.812467 -9.949897 -5.875019 28.280731 -0.367917 1.780060 0.038098 -0.013851 100354.000000 0 0 1
26.628867 -9.200197 -6.708919 28.961177 -0.332658 1.804572 0.038878 -0.016576 -1474710.000000 0 0 1
26.813167 -7.776397 -6.113319 28.579554 -0.282277 1.786367 0.068843 -0.015066 -49471.300000 0 0 1
27.382667 -7.855997 -4.768619 28.883678 -0.279393 1.736653 0.069973 -0.021805 987765.000000 0 0 1
28.766267 -8.187997 -4.795219 30.290849 -0.277305 1.729771 0.064506 -0.023467 -331545.000000 0 0 1
29.548867 -7.906897 -3.495819 30.787583 -0.261462 1.684588 0.078867 -0.025141 -226800.000000 0 0 1
29.553467 -6.553097 -3.080819 30.427651 -0.218207 1.672221 0.078697 -0.022872 263330.000000 0 0 1
30.332567 -6.408197 -1.915419 31.061204 -0.208203 1.632501 0.090606 -0.023043 40917.500000 0 0 1
30.392867 -5.000897 -1.380119 30.832451 -0.163081 1.615573 0.093406 -0.022502 71040.000000 0 0 1
29.106367 -4.640797 -0.930519 29.488700 -0.158112 1.602357 0.098179 -0.018653 -442316.000000 0 0 1
29.168467 -3.333797 -0.360119 29.360574 -0.113801 1.583062 0.092017 -0.017644 -340445.000000 0 0 1
29.693867 -3.238997 1.118881 29.890947 -0.108650 1.533355 0.098635 -0.014087 -913851.000000 0 0 1
28.769367 -3.281997 2.138581 29.034832 -0.113589 1.497074 0.099450 -0.019200 -352749.000000 0 0 1
29.356067 -2.981197 3.393681 29.701570 -0.101206 1.456287 0.101195 -0.014266 -166890.000000 0 0 1
29.238567 -4.131597 4.452581 29.862842 -0.140377 1.421137 0.102144 -0.022651 -99988.800000 0 0 1
30.132967 -5.244697 4.397481 30.900491 -0.172325 1.428000 0.087003 -0.028478 190228.000000 0 0 1
29.790367 -6.228997 5.383181 30.907038 -0.206125 1.395730 0.088492 -0.027633 -27467.700000 0 0 1
30.631067 -7.539997 5.469081 32.016006 -0.241357 1.399131 0.057481 -0.024391 -151545.000000 0 0 1
31.963067 -7.299197 5.845681 33.302971 -0.224514 1.394352 0.067731 -0.020403 -349141.000000 0 0 1
32.783267 -8.407397 5.532981 34.293451 -0.251044 1.408746 0.071241 -0.023633 599702.000000 0 0 1
34.297167 -8.014697 5.548481 35.655528 -0.229564 1.414548 0.072095 -0.021155 462280.000000 0 0 1
34.731467 -7.237997 4.457381 35.756561 -0.205458 1.445812 0.082965 -0.020103 326685.000000 0 0 1
36.130967 -6.993597 4.619181 37.090349 -0.191198 1.445934 0.088842 -0.019198 686069.000000 0 0 1
-35.548048 -6.937797 3.227881 36.362287 0.192744 1.481909 0.087807 -0.013835 -108185.000000 0 0 1
-35.347648 -8.212897 2.545381 36.378384 0.228296 1.500770 0.087830 -0.015166 -262006.000000 0 0 1
-34.466548 -7.946497 1.519881 35.403386 0.226597 1.527853 0.114246 -0.015715 -549692.000000 0 0 1
-34.175748 -9.132197 0.638281 35.380590 0.261112 1.552755 0.094772 -0.010098 -353842.000000 0 0 1
-33.435748 -10.129097 1.263681 34.959186 0.294154 1.534641 0.087354 -0.008396 143354.000000 0 0 1
-33.482148 -11.363997 0.552681 35.362411 0.327205 1.555167 0.074465 -0.015235 -812975.000000 0 0 1
-33.304348 -12.569297 1.460781 35.627246 0.360879 1.529783 0.061665 -0.013896 208384.000000 0 0 1
-32.043348 -12.745797 2.073981 34.547545 0.378580 1.510728 0.053719 -0.003796 591046.000000 0 0 1
-31.037048 -13.290897 1.197981 33.784337 0.404601 1.535329 0.051240 0.002829 -384381.000000 0 0 1
-29.772348 -13.708597 1.939381 32.834121 0.431508 1.511696 0.049253 0.011077 -403092.000000 0 0 1
-29.065748 -12.621097 2.512181 31.787117 0.409659 1.491682 0.061439 0.007575 -634082.000000 0 0 1
-27.883748 -13.077297 3.048881 30.948582 0.438536 1.472122 0.057499 0.011652 -729495.000000 0 0 1
-27.000848 -11.937897 3.651981 29.747204 0.416290 1.447719 0.067854 0.011547 -391103.000000 0 0 1
-25.886348 -12.404397 4.362481 29.034519 0.446859 1.419974 0.058940 0.013409 151370.000000 0 0 1
-25.074548 -11.272697 4.743981 27.898243 0.422494 1.399920 0.057707 0.018415 748976.000000 0 0 1
-23.611248 -11.697597 5.094781 26.838062 0.459981 1.379803 0.059837 0.016944 502702.000000 0 0 1
-23.484448 -12.326697 6.337781 27.269657 0.483359 1.336240 0.049292 0.012007 -425089.000000 0 0 1
-22.170148 -12.686397 6.663381 26.398120 0.519749 1.315617 0.048826 0.008859 -371041.000000 0 0 1
-21.634348 -12.141797 8.033481 26.076906 0.511423 1.257634 0.051524 -0.000864 -565902.000000 0 0 1
-21.383048 -10.755497 8.200481 25.301449 0.466038 1.240724 0.053667 0.000323 -35541.200000 0 0 1
-22.449448 -9.934097 8.594281 26.010107 0.416608 1.234047 0.049183 -0.002026 -778422.000000 0 0 1
-22.875548 -10.029097 10.090281 26.938583 0.413182 1.186868 0.050696 -0.004731 -306620.000000 0 0 1
-23.388248 -11.315697 10.486381 28.018196 0.450620 1.187186 0.042105 -0.010466 -767504.000000 0 0 1
-24.696748 -11.550197 10.124081 29.083215 0.437460 1.215245 0.030198 -0.005889 -871563.000000 0 0 1
-25.774948 -11.101297 11.176381 30.207585 0.406690 1.191802 0.046385 -0.017649 -148097.000000 0 0 1
-25.726348 -11.985497 12.305181 30.934036 0.435984 1.161692 0.044981 -0.017117 15546.300000 0 0 1
-26.626648 -11.540097 13.288581 31.917685 0.408967 1.141381 0.029090 -0.021890 -147811.000000 0 0 1
-26.631248 -12.495197 14.505081 32.798638 0.438700 1.112694 0.034502 -0.021298 -243192.000000 0 0 1
-26.859648 -13.912097 14.403081 33.502774 0.477908 1.126406 0.035908 -0.015400 289583.000000 0 0 1
-26.765048 -14.527397 15.662581 34.245138 0.497279 1.095765 0.029611 -0.010721 -219211.000000 0 0 1
-26.414948 -16.011497 15.523281 34.570070 0.544931 1.105108 0.030625 0.000196 826463.000000 0 0 1
-27.664448 -16.749097 15.482881 35.854895 0.544408 1.124286 0.043746 -0.002716 1231630.000000 0 0 1
-27.375048 -18.124397 15.565381 36.334117 0.584819 1.128080 0.029752 0.004010 -67600.900000 0 0 1
-28.461848 -18.995997 16.230981 37.873070 0.588524 1.127895 0.023935 0.009480 -165127.000000 0 0 1
-28.402848 -18.893297 17.657481 38.411783 0.586980 1.093151 0.048350 0.009231 -198635.000000 0 0 1
-28.909948 -19.934097 18.434981 39.661087 0.603660 1.087373 0.051105 0.012033 -388481.000000 0 0 1
-28.107648 -21.254897 18.454881 39.779305 0.647455 1.088368 0.025570 0.016103 -15795.800000 0 0 1
-26.967048 -21.208397 19.306681 39.367064 0.666428 1.058216 0.044733 0.014682 526434.000000 0 0 1
-26.266848 -22.491797 19.367581 39.634977 0.708129 1.060256 0.044355 0.014059 479261.000000 0 0 1
-24.916348 -22.397397 20.118981 39.079933 0.732209 1.030003 0.049349 0.013009 221823.000000 0 0 1
-23.935548 -21.704397 19.386081 37.680385 0.736551 1.030387 0.056870 0.013491 556693.000000 0 0 1
-22.654848 -21.622197 20.033281 37.176523 0.762080 1.001702 0.061326 0.016814 1524890.000000 0 0 1
-21.480348 -21.259397 19.032481 35.715580 0.780229 1.008784 0.058526 0.012165 581824.000000 0 0 1
-21.200348 -22.302897 18.147881 35.724215 0.810737 1.037936 0.048671 0.010528 -36064.900000 0 0 1
-20.136148 -22.063297 17.266381 34.501905 0.831034 1.046681 0.046899 0.005650 -23601.800000 0 0 1
-19.943148 -23.175797 16.187181 34.595831 0.860229 1.083890 0.044259 0.008203 -214393.000000 0 0 1
-19.799548 -24.575397 16.439581 35.584154 0.892610 1.090557 0.048703 -0.001347 196913.000000 0 0 1
-18.723848 -25.031997 17.246281 35.701786 0.928579 1.066645 0.046699 -0.003884 410401.000000 0 0 1
-17.295948 -25.091297 16.644581 34.724128 0.967274 1.070896 0.041191 -0.002180 239958.000000 0 0 1
-16.701148 -23.803497 16.409481 33.388709 0.958980 1.057022 0.043169 -0.007203 -169384.000000 0 0 1
-15.414948 -24.020797 15.876681 32.660194 1.000254 1.063155 0.046850 -0.008794 -481872.000000 0 0 1
-14.630148 -22.702397 15.719281 31.249574 0.998345 1.043702 0.050066 -0.008957 -320818.000000 0 0 1
-15.171348 -21.689597 14.855281 30.352723 0.960422 1.059370 0.048661 -0.003488 -403544.000000 0 0 1
-16.232248 -20.923597 15.343781 30.605790 0.910995 1.045654 0.046178 0.002479 -251314.000000 0 0 1
-15.858248 -19.647597 16.208381 30.003728 0.891720 1.000107 0.046723 -0.005991 -67251.800000 0 0 1
-15.427948 -18.464597 15.474981 28.608355 0.874756 0.999260 0.037420 -0.011622 -2538.120000 0 0 1
-15.156048 -17.385397 16.347281 28.269974 0.853799 0.954207 0.022881 -0.010901 -563422.000000 0 0 1
-14.534848 -16.114697 15.659081 26.761018 0.836898 0.945737 0.030529 -0.015953 278070.000000 0 0 1
-15.280048 -15.351897 14.689781 26.171555 0.787744 0.974855 0.035567 -0.022724 31725.000000 0 0 1
-15.574648 -15.975397 13.459081 26.056282 0.798100 1.027993 0.045510 -0.021313 -317620.000000 0 0 1
-16.303748 -15.057097 12.475381 25.459055 0.745667 1.058687 0.041685 -0.014934 -579451.000000 0 0 1
-17.681948 -15.183197 12.675281 26.530049 0.709514 1.072681 0.024994 -0.011716 -707695.000000 0 0 1
-18.524448 -14.251297 12.078281 26.308544 0.655754 1.093813 0.044542 -0.011351 -637220.000000 0 0 1
-20.003048 -14.597597 12.297281 27.648415 0.630427 1.109875 0.023013 -0.015810 -339495.000000 0 0 1
-20.527848 -15.701697 11.585081 28.322251 0.652967 1.149389 0.032887 -0.012394 -78068.300000 0 0 1
-20.661548 -15.546697 10.166281 27.784035 0.645065 1.196193 0.037796 -0.005192 -465120.000000 0 0 1
-21.286748 -16.695497 9.375981 28.631700 0.665103 1.237173 0.035088 0.002492 444173.000000 0 0 1
-20.468048 -17.854497 9.262881 28.697125 0.717305 1.242130 0.038977 0.011770 562068.000000 0 0 1
-21.324248 -18.886097 8.729181 29.792731 0.724837 1.273436 0.047382 -0.007180 834258.000000 0 0 1
-20.729648 -20.354397 8.832381 30.364959 0.776265 1.275656 0.050472 0.002533 357627.000000 0 0 1
-19.596748 -20.542397 7.997781 29.495544 0.808953 1.296206 0.067782 0.000598 -143880.000000 0 0 1
-19.283248 -21.943897 7.989081 30.285371 0.849845 1.303844 0.054752 0.005418 534549.000000 0 0 1
-17.952748 -22.244797 7.202081 29.478842 0.891769 1.323985 0.049725 -0.011455 722318.000000 0 0 1
-16.829148 -21.807397 7.944781 28.668839 0.913540 1.289998 0.032707 -0.008256 635129.000000 0 0 1
-15.583648 -22.192397 7.311181 28.085689 0.958591 1.307446 0.042109 -0.013401 1385530.000000 0 0 1
-14.333148 -21.680697 8.153881 27.239264 0.986656 1.266792 0.000224 -0.003331 402190.000000 0 0 1
-13.174948 -22.129197 7.493081 26.822134 1.033792 1.287667 0.027022 -0.002172 -660442.000000 0 0 1
-12.043348 -21.811097 8.268981 26.251518 1.066292 1.250350 0.024940 0.002910 274357.000000 0 0 1
-10.711648 -22.307397 7.651381 25.901795 1.123127 1.270923 0.018163 0.007004 180923.000000 0 0 1
-10.730048 -23.708097 7.535781 27.092357 1.145791 1.288927 0.027783 0.006330 -33937.800000 0 0 1
-9.613948 -24.230197 6.812781 26.943356 1.193073 1.315166 0.037891 0.000106 379011.000000 0 0 1
-9.403448 -25.716097 7.036081 28.270991 1.220236 1.319273 0.024380 -0.001007 -509203.000000 0 0 1
-10.362848 -26.444747 6.349881 29.103853 1.197320 1.350847 0.030734 -0.002791 -506533.000000 0 0 1
-10.254548 -27.867247 6.446881 30.385876 1.218196 1.357004 0.050417 -0.001282 384645.000000 0 0 1
-9.140548 -28.561347 5.582281 30.503475 1.261064 1.386754 0.060150 0.000069 851834.000000 0 0 1
-7.805548 -28.266767 5.954281 29.923071 1.301372 1.370473 0.046634 0.001011 527532.000000 0 0 1
-6.674548 -29.106157 5.722981 30.405106 1.345376 1.381442 0.041891 0.000389 990020.000000 0 0 1
-6.573548 -30.517627 6.294081 31.845762 1.358636 1.371844 0.051119 -0.009570 -243232.000000 0 0 1
-6.729548 -30.578897 7.709481 32.245804 1.354178 1.329373 0.054232 0.002157 102960.000000 0 0 1
-6.510548 -31.872497 8.238081 33.557552 1.369300 1.322770 0.081058 -0.011418 -156386.000000 0 0 1
-6.976548 -31.923667 9.707781 34.088616 1.355641 1.282019 0.060678 -0.006353 -233512.000000 0 0 1
-6.123548 -31.252837 10.605981 33.566717 1.377312 1.249320 0.047440 -0.002907 92996.800000 0 0 1
-6.550548 -31.369087 11.961281 34.205285 1.364933 1.213555 0.045147 -0.004695 -515291.000000 0 0 1
-5.698548 -30.557107 12.931781 33.666618 1.386426 1.176550 0.040115 -0.009663 -82600.000000 0 0 1
-6.001548 -29.140767 13.037281 32.483435 1.367686 1.157804 0.035228 0.002461 -31295.300000 0 0 1
-5.186548 -28.483697 13.987881 32.154037 1.390681 1.120728 0.025443 -0.009345 -245419.000000 0 0 1
-5.880548 -28.157847 15.346981 32.603298 1.364913 1.080691 0.032209 0.002351 75105.400000 0 0 1
-6.427548 -29.273687 15.970581 33.960589 1.354659 1.081202 0.027199 -0.007858 374948.000000 0 0 1
-5.447548 -29.938657 16.760881 34.740842 1.390808 1.067341 0.019437 -0.012291 405427.000000 0 0 1
-5.897548 -31.385607 16.933181 36.146508 1.385056 1.083250 0.026241 -0.009256 151986.000000 0 0 1
-5.901548 -32.173777 15.803381 36.328048 1.389386 1.120737 0.023292 -0.007733 333171.000000 0 0 1
-6.530548 -33.423587 16.151981 37.691786 1.377840 1.127933 0.027035 -0.011202 -24523.200000 0 0 1
-5.881548 33.982993 15.530681 37.823782 -1.399421 1.147677 0.024562 -0.016848 -473117.000000 0 0 1
-6.246548 33.748060 14.210281 37.146777 -1.387774 1.178248 0.033886 -0.021641 -165383.000000 0 0 1
-5.464548 32.722671 13.675281 35.883810 -1.405327 1.179812 0.041635 -0.026226 -506737.000000 0 0 1
-4.271548 33.230590 12.883181 35.895607 -1.442955 1.203700 0.044484 -0.027824 -603942.000000 0 0 1
-4.593548 33.484990 11.547681 35.716861 -1.434465 1.241569 0.043166 -0.028535 -239802.000000 0 0 1
-3.595548 34.198776 10.877581 36.066689 -1.466044 1.264430 0.049254 -0.033416 -655345.000000 0 0 1
-3.953548 -34.024697 9.372681 35.512782 1.455119 1.303708 0.043188 -0.031984 -940975.000000 0 0 1
-3.955548 33.489524 8.458081 34.766848 -1.453228 1.325050 0.055419 -0.037209 -177341.000000 0 0 1
-4.813548 32.394409 8.555281 33.849089 -1.423284 1.315277 0.068405 -0.036350 432516.000000 0 0 1
-6.348548 32.661387 8.704981 34.392542 -1.378816 1.314906 0.071349 -0.029481 760475.000000 0 0 1
-7.102548 33.176347 7.599681 34.768827 -1.359895 1.350440 0.078604 -0.028506 483667.000000 0 0 1
-8.468548 33.426597 7.949081 35.387026 -1.322669 1.344230 0.065526 -0.021910 737619.000000 0 0 1
-9.362648 33.827822 6.734481 35.739809 -1.300782 1.381232 0.077462 -0.025949 36525.400000 0 0 1
-9.302348 -33.393757 6.366781 35.245036 1.299118 1.389156 0.085038 -0.023866 267836.000000 0 0 1
-10.023348 -33.247197 5.141881 35.103882 1.277983 1.423791 0.079451 -0.024216 -198785.000000 0 0 1
-10.056648 -31.870077 4.491581 33.719613 1.265134 1.437195 0.064194 -0.020375 378501.000000 0 0 1
-10.915848 -30.891607 5.091681 33.156784 1.231132 1.416622 0.085498 -0.023674 1422810.000000 0 0 1
-12.326648 -31.005817 4.742881 33.701659 1.192396 1.429596 0.078074 -0.019836 1415560.000000 0 0 1
-13.257548 -30.084497 5.592181 33.348344 1.155722 1.402310 0.067513 -0.020029 22033.500000 0 0 1
-13.622448 -30.677527 6.810281 34.249988 1.152899 1.370622 0.064946 -0.009848 -420637.000000 0 0 1
-14.567248 -29.900707 7.453981 34.085463 1.117451 1.350330 0.052136 -0.005441 -388585.000000 0 0 1
33.192781 -13.134397 -12.572119 37.846152 -0.376794 1.909421 0.067029 -0.023894 -559032.000000 0 0 1
32.263661 -13.155997 -11.543619 36.705302 -0.387183 1.890721 0.074699 -0.025959 -217416.000000 0 0 1
31.984981 -14.455697 -11.028519 36.791771 -0.424477 1.875232 0.073105 -0.022860 -87629.800000 0 0 1
32.978061 -15.096397 -10.008719 37.624834 -0.429297 1.840052 0.055707 -0.027282 657989.000000 0 0 1
34.253691 -15.355497 -10.613219 39.009576 -0.421429 1.846337 0.064673 -0.026909 340586.000000 0 0 1
35.169561 -15.740997 -9.595919 39.708420 -0.420835 1.814872 0.058960 -0.026422 -155915.000000 0 0 1
-35.777640 -15.930397 -10.135219 40.454169 0.418906 1.824030 0.055898 -0.029733 -226378.000000 0 0 1
-35.219608 -14.648597 -10.500319 39.563353 0.394156 1.839420 0.057286 -0.023454 -701007.000000 0 0 1
-33.956443 -14.805097 -11.034119 38.652073 0.411153 1.860296 0.056453 -0.027790 -542842.000000 0 0 1
-33.278653 -13.463197 -11.534219 37.706295 0.384431 1.881676 0.054576 -0.032716 64312.800000 0 0 1
-32.645943 -12.679597 -10.535919 36.572331 0.370464 1.863022 0.066206 -0.030689 245634.000000 0 0 1
-32.238733 -11.459697 -11.126419 35.978574 0.341534 1.885202 0.070683 -0.028821 -399632.000000 0 0 1
-32.583933 -10.141297 -10.417219 35.680206 0.301733 1.867073 0.069613 -0.022874 -321503.000000 0 0 1
-32.188223 -10.006397 -9.102119 34.915015 0.301400 1.834537 0.073559 -0.022482 -234131.000000 0 0 1
-33.022473 -9.171697 -8.403619 35.287740 0.270913 1.811252 0.082426 -0.022895 -633692.000000 0 0 1
-32.580353 -8.938097 -6.934219 34.488439 0.267753 1.773235 0.078846 -0.024096 158351.000000 0 0 1
-31.443753 -8.030697 -6.910519 33.180672 0.250053 1.780602 0.089102 -0.026173 1124630.000000 0 0 1
-31.010863 -7.778397 -5.568319 32.452785 0.245758 1.743232 0.085031 -0.020537 72991.500000 0 0 1
-30.223033 -8.910497 -4.811119 31.874372 0.286702 1.722315 0.079072 -0.014996 -307885.000000 0 0 1
-31.003363 -10.074697 -4.508219 32.909453 0.314191 1.708217 0.073465 -0.014051 517775.000000 0 0 1
-31.164373 -10.217297 -3.148019 32.947251 0.316809 1.666490 0.071401 -0.017217 -225162.000000 0 0 1
-31.554193 -11.616097 -2.706419 33.733152 0.352736 1.651113 0.067480 -0.019888 524629.000000 0 0 1
-32.942673 -11.866997 -2.958019 35.139653 0.345761 1.655075 0.064599 -0.026030 734284.000000 0 0 1
-33.311803 -13.189797 -2.677919 35.927959 0.377010 1.645401 0.067637 -0.031162 -119410.000000 0 0 1
-34.845090 -13.348397 -2.650819 37.408380 0.365834 1.641717 0.048885 -0.028302 -80670.100000 0 0 1
-35.443273 -12.615097 -1.611119 37.655836 0.341942 1.613595 0.063683 -0.032958 89986.400000 0 0 1
35.515551 -12.585697 -1.699819 37.717947 -0.340564 1.615878 0.083694 -0.033839 279883.000000 0 0 1
34.913321 -11.522997 -0.740819 36.773200 -0.318789 1.590943 0.089967 -0.038807 -288757.000000 0 0 1
34.921821 -11.960897 0.586781 36.918030 -0.329982 1.554901 0.104882 -0.029414 151844.000000 0 0 1
34.986531 -10.910497 1.523681 36.679938 -0.302291 1.529244 0.092605 -0.027222 -139222.000000 0 0 1
35.488831 -11.315397 2.944581 37.365303 -0.308654 1.491909 0.091051 -0.034044 793.433000 0 0 1
34.398451 -11.649497 3.736881 36.509293 -0.326540 1.468263 0.093169 -0.036618 -58998.100000 0 0 1
34.940421 -12.247997 4.888381 37.346254 -0.337155 1.439526 0.089307 -0.033888 349054.000000 0 0 1
33.890351 -12.503997 5.999181 36.618247 -0.353460 1.406224 0.091341 -0.013533 104412.000000 0 0 1
33.277561 -11.379397 6.537181 35.771797 -0.329489 1.387017 0.079242 -0.021317 -234766.000000 0 0 1
32.874931 -11.657197 7.837781 35.750275 -0.340760 1.349764 0.066841 -0.014005 -517104.000000 0 0 1
32.259321 -10.416797 8.445381 34.935625 -0.312339 1.326636 0.057184 -0.021586 920730.000000 0 0 1
30.848401 -10.165397 8.215781 33.503107 -0.318321 1.323045 0.065735 -0.023581 1249670.000000 0 0 1
30.370641 -9.120997 9.034281 32.972513 -0.291753 1.293252 0.058913 -0.016060 -252117.000000 0 0 1
28.848121 -8.969997 8.919881 31.499829 -0.301462 1.283696 0.064318 -0.022121 16893.900000 0 0 1
28.267261 -8.388897 7.744981 30.486003 -0.288492 1.313931 0.079033 -0.023890 229725.000000 0 0 1
27.359341 -9.243197 7.069781 29.731331 -0.325805 1.330707 0.094120 -0.032465 -129285.000000 0 0 1
26.499281 -8.500097 6.032981 28.475611 -0.310399 1.357314 0.094881 -0.027685 -759384.000000 0 0 1
25.421981 -7.829997 6.654481 27.420213 -0.298781 1.325663 0.100367 -0.026558 844014.000000 0 0 1
24.378781 -7.516397 5.678581 26.135559 -0.299070 1.351775 0.102384 -0.029348 598010.000000 0 0 1
24.635181 -6.323497 4.700681 25.864554 -0.251261 1.388038 0.097637 -0.030128 -459129.000000 0 0 1
25.633381 -6.648397 3.739181 26.744212 -0.253773 1.430524 0.094371 -0.025188 700114.000000 0 0 1
26.090081 -5.504097 2.986581 26.831084 -0.207916 1.459255 0.101512 -0.024369 292348.000000 0 0 1
26.735781 -5.804297 1.584281 27.404412 -0.213781 1.512953 0.097932 -0.027756 824324.000000 0 0 1
25.748381 -5.748697 0.526181 26.387563 -0.219662 1.550855 0.100835 -0.032342 999601.000000 0 0 1
26.424081 -5.744997 -0.713819 27.050815 -0.214084 1.597187 0.093807 -0.029628 -114819.000000 0 0 1
25.384381 -5.881897 -1.893419 26.125630 -0.227695 1.643334 0.091721 -0.027151 1258140.000000 0 0 1
24.536781 -4.722497 -2.130819 25.077799 -0.190141 1.655867 0.106382 -0.025461 474600.000000 0 0 1
23.711881 -4.843497 -3.270519 24.421487 -0.201493 1.705120 0.084596 -0.025584 613438.000000 0 1 0
22.588381 -3.725197 -3.281419 23.127467 -0.163445 1.713161 0.076812 -0.025725 210550.000000 0 1 0
23.105181 -2.450497 -3.230319 23.458245 -0.105663 1.708940 0.065501 -0.023687 109206.000000 0 1 0
23.454981 -1.768197 -4.440919 23.937093 -0.075245 1.757402 0.064779 -0.020901 -54897.300000 0 1 0
22.247681 -1.012197 -5.043219 22.834577 -0.045465 1.793491 0.044589 -0.011038 93700.400000 0 1 0
22.000081 0.109903 -4.187919 22.395408 0.004996 1.758903 0.033821 -0.006717 606757.000000 0 1 0
20.988681 0.991903 -4.696619 21.530602 0.047224 1.790701 0.034186 0.000240 -61042.500000 0 1 0
20.905381 2.336203 -3.991719 21.410899 0.111290 1.758328 0.046300 -0.000263 -776269.000000 0 1 0
21.982481 3.184303 -4.193419 22.604292 0.143856 1.757392 0.065405 0.002495 244950.000000 0 1 0
22.970381 3.070203 -3.141219 23.386573 0.132872 1.705521 0.086670 -0.003406 656550.000000 0 1 0
24.162881 4.051803 -3.338819 24.726699 0.166141 1.706239 0.077059 -0.005102 -65357.500000 0 1 0
23.708481 5.359303 -3.385319 24.541283 0.222314 1.709181 0.079279 -0.002175 650164.000000 0 1 0
24.738881 6.340903 -3.386019 25.762073 0.250912 1.702612 0.073802 -0.001908 185899.000000 0 0 1
24.072681 7.747503 -3.488219 25.528130 0.311369 1.707867 0.073012 -0.012930 -237634.000000 0 0 1
23.257281 7.863403 -2.369019 24.664681 0.326039 1.666994 0.090106 -0.019666 211157.000000 0 1 0
22.394081 8.987303 -2.424619 24.251706 0.381648 1.670941 0.073184 -0.009148 160420.000000 0 1 0
21.374681 9.103803 -1.235419 23.265478 0.402646 1.623922 0.060200 -0.008935 -71731.100000 0 1 0
21.880881 9.788203 -0.127519 23.970776 0.420640 1.576116 0.050150 -0.012652 1594420.000000 0 1 0
20.878281 9.979303 0.946481 23.159985 0.445873 1.529918 0.035738 -0.013643 903211.000000 0 1 0
21.623481 10.230503 2.306281 24.032417 0.441913 1.474683 0.070858 -0.012856 -151941.000000 0 1 0
22.489681 11.345403 2.377081 25.301273 0.467218 1.476707 0.082515 -0.023894 126520.000000 0 0 1
22.014881 12.577903 2.038181 25.436446 0.519077 1.490582 0.083434 -0.019618 -597675.000000 0 0 1
20.858981 13.215603 2.889481 24.861584 0.564738 1.454310 0.064509 -0.011906 345490.000000 0 1 0
19.557981 12.772003 2.461181 23.488212 0.578504 1.465820 0.092647 -0.015320 1212120.000000 0 1 0
18.487381 13.451303 3.131081 23.076492 0.629006 1.434694 0.077988 -0.018782 155837.000000 0 1 0
18.374581 13.505803 4.676781 23.278836 0.633849 1.368517 0.056259 -0.011417 -952613.000000 0 1 0
17.988581 12.295103 5.234781 22.408961 0.599563 1.335016 0.046944 -0.005511 424193.000000 0 1 0
18.465581 12.357203 6.573081 23.170747 0.589756 1.283167 0.063728 -0.018247 -9350.450000 0 1 0
18.469481 11.043403 7.274781 22.715653 0.538894 1.244799 0.039129 -0.018014 105575.000000 0 1 0
19.400781 10.182003 6.617181 22.887782 0.483309 1.277495 0.017622 -0.023724 653481.000000 0 1 0
19.467881 8.889103 7.190481 22.576925 0.428332 1.246662 0.026771 -0.020657 -103324.000000 0 1 0
20.493681 8.027703 6.437581 22.932017 0.373345 1.286247 0.032343 -0.014067 -256844.000000 0 1 0
20.026181 7.533603 5.242181 22.029152 0.359812 1.330526 0.022431 -0.017341 87216.400000 0 1 0
20.980481 6.804003 4.529581 22.516486 0.313600 1.368247 0.025335 -0.014897 -391207.000000 0 1 0
20.597681 6.674803 3.004581 21.859665 0.313378 1.432911 0.029597 -0.011112 283514.000000 0 1 0
21.563881 5.780803 2.424581 22.456563 0.261920 1.462618 0.031085 -0.014217 897611.000000 0 1 0
21.470681 5.704603 1.055581 22.240658 0.259693 1.523317 0.048500 -0.007095 -330464.000000 0 1 0
22.572881 4.846403 0.450581 23.091678 0.211490 1.551282 0.067142 -0.004847 -102974.000000 0 1 0
22.386881 3.513403 0.890681 22.678398 0.155670 1.531512 0.061305 -0.003616 649481.000000 0 1 0
23.522381 2.810003 0.433181 23.693589 0.118897 1.552513 0.074434 -0.001276 107495.000000 0 1 0
23.227481 1.264003 0.500381 23.267229 0.054365 1.549289 0.075975 -0.009843 118221.000000 0 1 0
22.198081 0.911703 -0.426919 22.220897 0.041048 1.590010 0.054541 -0.015864 848841.000000 0 1 0
22.320981 -0.422697 -0.876719 22.342191 -0.018935 1.610047 0.060684 -0.019828 -1167060.000000 0 1 0
22.249181 -1.704497 0.082481 22.314528 -0.076460 1.567100 0.077631 -0.017726 -483322.000000 0 1 0
23.193981 -1.960997 1.061781 23.300936 -0.084347 1.525212 0.086489 -0.015653 77452.500000 0 1 0
24.505581 -2.218697 0.567881 24.612367 -0.090292 1.547721 0.102389 -0.022590 51829.300000 0 1 0
25.583781 -1.975097 1.638181 25.712147 -0.077048 1.507041 0.103184 -0.020015 -353206.000000 0 0 1
25.450881 -0.601697 2.018481 25.537886 -0.023637 1.491675 0.087989 -0.021940 282022.000000 0 0 1
26.403781 -0.040497 2.896681 26.562230 -0.001534 1.461526 0.090181 -0.015103 -97091.700000 0 0 1
26.109781 1.465503 3.260281 26.353326 0.056070 1.446764 0.081839 -0.011085 61410.600000 0 0 1
26.153981 2.483403 2.269481 26.369462 0.094669 1.484625 0.084203 -0.009561 1337210.000000 0 0 1
27.545641 2.800603 1.989681 27.759044 0.101323 1.499058 0.094132 -0.013448 1324930.000000 0 0 1
27.630291 3.876803 0.898781 27.915415 0.139400 1.538594 0.090878 -0.017198 -308772.000000 0 0 1
27.349481 3.412803 -0.359519 27.563936 0.124143 1.583840 0.107397 -0.012022 391938.000000 0 0 1
27.860691 4.225303 -1.440719 28.216076 0.150511 1.621879 0.109987 -0.006988 -145511.000000 0 0 1
29.260421 3.814603 -1.955519 29.572749 0.129636 1.636970 0.096334 -0.005512 -364641.000000 0 0 1
30.213321 4.023203 -0.923719 30.494002 0.132381 1.601093 0.096415 -0.012593 -336112.000000 0 0 1
31.461461 3.538903 -1.365319 31.689295 0.112013 1.613894 0.086829 -0.019571 942.551000 0 0 1
32.646941 3.967203 -0.459819 32.890316 0.120925 1.584777 0.065348 -0.027960 -148092.000000 0 0 1
32.653581 3.344303 0.802181 32.834192 0.102062 1.546363 0.070615 -0.025349 594486.000000 0 0 1
31.701861 3.883403 1.734281 31.985880 0.121890 1.516550 0.065414 -0.013918 276777.000000 0 0 1
31.834201 3.138103 3.067481 32.135237 0.098259 1.475195 0.075966 -0.009292 130472.000000 0 0 1
31.000831 1.963503 3.127281 31.219973 0.063253 1.470459 0.079353 -0.013536 385173.000000 0 0 1
31.282961 1.059103 4.160681 31.576203 0.033843 1.438646 0.082147 -0.012700 270319.000000 0 0 1
32.483881 0.069503 3.887581 32.715755 0.002140 1.451686 0.092139 -0.012121 829409.000000 0 0 1
33.741131 0.714503 4.060881 33.992134 0.021173 1.451045 0.091428 -0.024106 -114886.000000 0 0 1
34.798671 -0.176297 3.894581 35.016372 -0.005066 1.459344 0.089363 -0.028442 -470492.000000 0 0 1
36.156541 0.487903 4.298781 36.414462 0.013493 1.452469 0.105367 -0.034531 336270.000000 0 0 1
-35.772500 1.651003 3.605481 35.991625 -0.046120 1.470452 0.093317 -0.039231 250737.000000 0 0 1
-35.493080 1.383103 2.226381 35.589725 -0.038949 1.508199 0.111291 -0.032893 -953361.000000 0 0 1
-35.273786 2.676903 1.352481 35.401060 -0.075744 1.532582 0.102212 -0.037416 397521.000000 0 0 1
-34.028022 3.330803 1.523481 34.224575 -0.097573 1.526267 0.112085 -0.045711 584477.000000 0 0 1
-32.915423 2.711603 0.900081 33.039189 -0.082195 1.543550 0.127388 -0.044598 -1502940.000000 0 0 1
-31.625683 3.438703 1.104781 31.831259 -0.108306 1.536082 0.121934 -0.034371 -1155410.000000 0 0 1
-31.171773 3.111703 2.429881 31.420797 -0.099495 1.493386 0.120748 -0.037386 257831.000000 0 0 1
-30.502053 4.242103 2.983381 30.939801 -0.138190 1.474221 0.125104 -0.027732 -411472.000000 0 0 1
-30.839773 4.390903 4.472681 31.470248 -0.141427 1.428189 0.129825 -0.032022 110904.000000 0 0 1
-32.095323 4.983703 4.759181 32.826771 -0.154048 1.425305 0.121112 -0.018623 1709840.000000 0 0 1
-33.290503 4.124303 4.781781 33.884110 -0.123260 1.429202 0.120213 -0.023016 1129710.000000 0 0 1
-33.380043 3.208803 6.061881 34.077414 -0.095835 1.391959 0.108953 -0.016874 -702112.000000 0 0 1
-33.508973 3.910403 7.222581 34.500844 -0.116172 1.359891 0.102485 -0.010005 271266.000000 0 0 1
-33.591813 3.234703 8.464481 34.792538 -0.095998 1.325046 0.102335 -0.011173 50680.200000 0 0 1
-34.742813 2.219403 8.720981 35.889335 -0.063794 1.325343 0.082624 -0.012161 -37804.200000 0 0 1
-34.491592 0.939703 8.126581 35.448474 -0.027238 1.339489 0.082890 -0.017257 -13954.000000 0 0 1
-35.378335 -0.064597 8.548981 36.396646 0.001826 1.333697 0.075290 -0.012180 -221176.000000 0 0 1
-35.106177 -0.747797 9.920181 36.488531 0.021298 1.295459 0.076725 -0.006218 265101.000000 0 0 1
-34.029127 -1.689797 9.832681 35.461508 0.049617 1.289837 0.088600 -0.012919 434823.000000 0 0 1
-34.020523 -2.584497 10.874681 35.809696 0.075823 1.262244 0.075557 -0.005900 -568.943000 0 0 1
-32.755013 -3.458497 10.715881 34.636429 0.105197 1.256253 0.081292 -0.009555 -102580.000000 0 0 1
-32.607353 -4.317397 9.591281 34.261817 0.131640 1.287064 0.077989 -0.020468 514279.000000 0 0 1
-31.381983 -5.075497 9.611781 33.211081 0.160344 1.277181 0.059505 -0.022265 751338.000000 0 0 1
-31.367553 -6.261897 8.649581 33.135329 0.197040 1.306699 0.058379 -0.011846 422531.000000 0 0 1
-32.299613 -7.282897 9.023181 34.317975 0.221771 1.304740 0.060687 -0.014230 147748.000000 0 0 1
-32.457243 -8.241597 7.998981 34.429352 0.248666 1.336323 0.063205 -0.006621 247277.000000 0 0 1
-33.497473 -9.325097 8.350681 35.759922 0.271508 1.335099 0.064923 -0.006599 1513210.000000 0 0 1
-34.880429 -8.903597 8.469881 36.981851 0.249924 1.339717 0.073008 -0.013326 1445280.000000 0 0 1
-35.778109 -10.009897 8.562381 38.125917 0.272802 1.344283 0.069466 -0.019825 243710.000000 0 0 1
7.854167 -23.701397 10.984181 27.278130 -1.250805 1.156361 0.103287 -0.020651 54651.800000 0 0 1
7.383767 -24.252497 9.740581 27.158471 -1.275258 1.203967 0.097726 -0.020661 -360912.000000 0 0 1
6.253067 -25.055587 9.930281 27.667558 -1.326225 1.203692 0.096503 -0.020830 26288.600000 0 0 1
5.854267 -25.920507 8.730881 27.970939 -1.348669 1.253350 0.075722 -0.008362 36131.500000 0 0 1
5.239967 -25.251387 7.660581 26.903054 -1.366188 1.282053 0.077835 -0.009503 -245905.000000 0 0 1
4.938567 -26.189797 6.662281 27.471456 -1.384417 1.325837 0.064643 -0.002366 -73770.500000 0 0 1
4.124067 -25.792297 5.390481 26.670354 -1.412243 1.367279 0.064873 -0.005082 1510670.000000 0 0 1
2.699767 -25.765637 5.637181 26.512914 -1.466396 1.356541 0.049415 -0.009956 1100780.000000 0 0 1
1.960667 -26.897367 5.153281 27.456673 -1.498031 1.381989 0.036577 -0.009277 -261837.000000 0 0 1
0.451767 -26.790667 4.971081 27.251708 -1.553935 1.387356 0.052643 -0.016245 -296948.000000 0 0 1
-0.158333 -26.752647 6.261981 27.476201 1.564878 1.340870 0.044981 -0.014276 -670432.000000 0 0 1
-1.546933 -26.846207 6.383681 27.638076 1.513238 1.337718 0.025643 -0.009167 -119566.000000 0 0 1
-2.150533 -28.250927 6.449481 29.057451 1.494820 1.346976 0.028308 -0.011246 -338791.000000 0 0 1
-1.691833 -28.945517 7.594681 29.973062 1.512414 1.314620 0.024205 -0.011893 273738.000000 0 0 1
-2.372333 -30.191587 7.741781 31.258520 1.492381 1.320522 0.033555 -0.011842 154336.000000 0 0 1
-2.320133 -30.625947 9.226881 32.069721 1.495184 1.278958 0.032689 -0.014043 65141.100000 0 0 1
-0.979333 -30.953047 9.500681 32.393104 1.539168 1.273126 0.036653 -0.018435 -124702.000000 0 0 1
-0.771433 -31.286807 10.833281 33.118264 1.546144 1.237554 0.035467 -0.015257 47095.000000 0 0 1
0.703767 -31.531227 11.202281 33.469459 -1.548480 1.229508 0.029553 -0.011400 -145841.000000 0 0 1
1.245967 -32.785887 10.831881 34.551360 -1.532811 1.251919 0.028124 -0.011680 245589.000000 0 0 1
2.662567 -32.837077 10.961581 34.720587 -1.489889 1.249593 0.033320 -0.011069 619188.000000 0 0 1
3.212267 -33.394857 12.286781 35.728142 -1.474901 1.219733 0.032349 -0.010791 -353359.000000 0 0 1
2.699167 -32.648827 13.405481 35.396869 -1.488311 1.182384 0.022215 -0.004834 689022.000000 0 0 1
3.409067 -32.937257 14.656681 36.211917 -1.467662 1.154094 0.018620 0.001778 -63663.200000 0 0 1
3.134767 -31.920047 15.794281 35.751580 -1.472903 1.113216 0.021820 0.004209 154298.000000 0 0 1
3.664967 -30.616957 15.536281 34.528337 -1.451659 1.104079 0.026848 0.000307 283227.000000 0 0 1
5.072367 -30.497447 15.699081 34.673972 -1.405984 1.100935 0.035193 0.006212 447182.000000 0 0 1
5.722067 -29.246517 14.935981 33.334432 -1.377587 1.106197 0.049943 -0.003573 303455.000000 0 0 1
5.944067 -29.354287 13.524081 32.861936 -1.371004 1.146651 0.045106 0.000303 442859.000000 0 0 1
4.708467 -29.350327 12.794181 32.362052 -1.411729 1.164353 0.030674 0.007801 99565.300000 0 0 1
4.893567 -29.405077 11.265181 31.867065 -1.405889 1.209480 0.030148 -0.006362 83381.900000 0 0 1
5.304067 -30.627447 10.651281 32.857624 -1.399317 1.240668 0.027766 -0.006847 108910.000000 0 0 1
6.591267 -31.054787 11.065681 33.619844 -1.361654 1.235402 0.031758 -0.001698 -332386.000000 0 0 1
6.907067 -32.460647 10.505281 34.810374 -1.361140 1.264231 0.009109 0.008486 -229755.000000 0 0 1
6.441467 -33.541887 11.343981 35.989395 -1.381064 1.250125 -0.001663 0.002142 169783.000000 0 0 1
6.735167 33.776689 10.850481 36.110388 1.373975 1.265600 0.010281 -0.002904 -68824.500000 0 0 1
6.308167 32.591560 11.795181 35.229662 1.379608 1.229395 0.019261 -0.005260 1191690.000000 0 0 1
4.879667 32.426829 11.906381 34.886564 1.421435 1.222509 0.022488 -0.007014 929772.000000 0 0 1
4.600567 31.138829 12.542581 33.883746 1.424114 1.191610 0.031032 0.000102 6247.050000 0 0 1
3.403767 31.210229 13.503681 34.176212 1.462166 1.164599 0.035610 -0.005355 -305753.000000 0 0 1
3.667167 31.787289 14.750381 35.234268 1.455938 1.138852 0.053439 -0.000369 149111.000000 0 0 1
2.692667 31.563589 15.768981 35.386034 1.485693 1.108922 0.034154 -0.000535 -168319.000000 0 0 1
3.247267 31.582309 17.204881 36.110870 1.468337 1.074188 0.023027 0.002340 -195617.000000 0 0 1
3.551567 32.910431 17.657181 37.516479 1.463296 1.080767 0.029472 -0.000710 194278.000000 0 0 1
4.162467 32.944392 18.942081 38.229067 1.445114 1.052399 0.021010 0.004674 -806.822000 0 0 1
4.617567 -34.225103 19.415681 39.618787 -1.436689 1.058635 0.025905 0.003817 -116253.000000 0 0 1
3.580567 -33.274257 19.508681 38.737389 -1.463601 1.043020 0.027232 -0.000695 -241549.000000 0 0 1
3.859067 -32.405777 20.572781 38.578052 -1.452269 1.008327 0.030439 -0.001749 -301508.000000 0 0 1
2.625067 -31.623027 20.994681 38.048436 -1.487975 0.986289 0.016756 -0.005498 223923.000000 0 0 1
1.602567 -32.489237 21.528781 39.007783 -1.521510 0.986144 0.021544 -0.005038 430415.000000 0 0 1
0.621167 -31.753177 22.249581 38.777493 -1.551236 0.959688 0.021253 -0.002768 -31099.100000 0 0 1
-0.540233 -32.603997 22.807381 39.793079 1.554228 0.960452 0.020643 -0.002957 -180837.000000 0 0 1
-1.535833 -32.875127 21.812281 39.483014 1.524113 0.985499 0.012223 -0.005266 -110576.000000 0 0 1
-2.389333 -33.899167 22.208581 40.596595 1.500429 0.991954 0.018547 -0.003001 -359169.000000 0 0 1
-3.709433 -33.476777 22.870481 40.712571 1.460440 0.974291 0.034822 -0.000379 -646122.000000 0 0 1
-4.682233 -33.139517 21.911181 40.003134 1.430437 0.991140 0.033962 -0.007067 -219700.000000 0 0 1
-5.845733 -32.729997 22.635081 40.221539 1.394055 0.973075 0.046720 -0.005972 443284.000000 0 0 1
-7.095833 -32.491857 21.749581 39.738091 1.355784 0.991634 0.039888 -0.014096 185715.000000 0 0 1
-7.616833 -33.605387 21.102281 40.405995 1.347907 1.021302 0.029405 -0.010294 385683.000000 0 0 1
-8.846233 -33.369827 20.430381 40.114856 1.311660 1.036428 0.037359 -0.021290 571378.000000 0 0 1
-9.998933 34.226213 20.492581 41.126126 -1.286564 1.049175 0.050021 -0.023526 223281.000000 0 0 1
-10.511233 33.982261 21.787481 41.713001 -1.270815 1.021229 0.065179 -0.021950 -1218100.000000 0 0 1
-11.810033 33.530170 21.738081 41.668853 -1.232144 1.021970 0.059363 -0.018391 -1068500.000000 0 0 1
-12.350933 33.429883 23.199181 42.524166 -1.216893 0.993748 0.062175 -0.020057 -274481.000000 0 0 1
-12.483333 -34.030637 23.950181 43.445702 1.219211 0.986914 0.057731 -0.016687 -162555.000000 0 0 1
-11.273733 -33.641397 24.545781 43.143204 1.247443 0.965583 0.048277 -0.012291 -108206.000000 0 0 1
-11.351633 -32.244127 25.251181 42.499005 1.232294 0.934576 0.040715 -0.007460 89056.600000 0 0 1
-12.301333 -32.303927 26.303181 43.436435 1.206951 0.920332 0.042524 -0.001499 549736.000000 0 0 1
-12.984333 -31.036037 26.430881 42.783408 1.174561 0.904876 0.048901 -0.002706 272772.000000 0 0 1
-13.644933 -30.680147 27.826081 43.609018 1.152319 0.878793 0.052445 -0.006419 -25420.800000 0 0 1
-12.857233 -30.230307 28.925981 43.770907 1.168664 0.848846 0.034558 -0.002644 75896.100000 0 0 1
-13.602733 -30.260437 30.128481 44.815776 1.148340 0.833520 0.043620 -0.002311 -48.687700 0 0 1
-12.866533 -29.603877 31.311981 44.970850 1.160803 0.800605 0.033032 -0.001982 -304722.000000 0 0 1
-13.738733 -29.330937 32.382081 45.800173 1.132743 0.785507 0.032826 -0.002165 178108.000000 0 0 1
-13.131533 -28.998887 33.608881 46.291787 1.145592 0.758276 0.025410 -0.000848 -388240.000000 0 0 1
-12.461333 -30.074367 -33.944788 47.031915 1.177980 2.377108 0.037258 0.002401 -711681.000000 0 0 1
-11.244533 -30.470997 33.953781 46.987024 1.217275 0.763211 0.030955 0.001194 -1120630.000000 0 0 1
-10.731433 -31.472017 -33.693388 47.338102 1.242177 2.362798 0.037485 0.001644 -660124.000000 0 0 1
-9.323333 -31.797917 -34.193188 47.615189 1.285584 2.371886 0.042875 -0.012690 -8019.360000 0 0 1
-8.324433 -30.931717 -33.647888 46.456944 1.307902 2.380788 0.045584 -0.013637 -91070.400000 0 0 1
-7.198233 -31.592277 -33.175988 46.373837 1.346773 2.367997 0.055081 -0.019757 -217745.000000 0 0 1
-6.237033 -30.837147 -32.252188 45.055897 1.371231 2.368603 0.056389 -0.015137 156384.000000 0 0 1
-6.752233 -30.719957 -30.917488 44.104416 1.354437 2.347604 0.065420 -0.024890 108534.000000 0 0 1
-5.745333 -30.062027 -30.192788 42.992311 1.381958 2.349396 0.058616 -0.020573 219861.000000 0 0 1
-6.102633 -29.900137 -28.666588 41.869244 1.369461 2.324946 0.054555 -0.021721 -117658.000000 0 0 1
-5.940433 -31.133097 -27.927288 42.243247 1.382255 2.293089 0.048345 -0.020382 360814.000000 0 0 1
-6.832133 -31.248897 -26.814288 41.739402 1.355547 2.268450 0.061535 -0.020532 22884.100000 0 0 1
-6.508833 -32.519287 -26.040388 42.165990 1.373254 2.236444 0.052399 -0.025691 525124.000000 0 0 1
-5.266533 -32.458937 -25.348988 41.519756 1.409946 2.227524 0.028313 -0.025316 296816.000000 0 0 1
-5.030433 -33.657337 -24.654288 42.023273 1.422434 2.197752 0.041457 -0.032264 -105590.000000 0 0 1
-4.014933 -33.546047 -23.480188 41.143361 1.451679 2.178145 0.049439 -0.038299 -234450.000000 0 0 1
-4.326033 -32.881877 -22.265388 39.945962 1.439985 2.162032 0.052466 -0.037549 -73537.400000 0 0 1
-4.681033 -31.508577 -22.411288 38.948278 1.423311 2.183904 0.022687 -0.017975 -690365.000000 0 0 1
-5.112933 -30.801277 -21.170688 37.723451 1.406299 2.166640 0.048058 -0.024909 88111.900000 0 0 1
-6.465033 -30.995807 -20.726488 37.843414 1.365167 2.150398 0.049509 -0.033841 1054980.000000 0 0 1
-7.137433 -29.836077 -20.193688 36.727639 1.335988 2.152948 0.054304 -0.034345 292096.000000 0 0 1
-7.576333 -28.764447 -21.258788 36.561323 1.313253 2.191313 0.076251 -0.040561 287169.000000 0 0 1
-6.473633 -27.978767 -21.792188 36.050226 1.343421 2.219928 0.065511 -0.028181 521900.000000 0 0 1
-6.703733 -27.436597 -23.099388 36.486828 1.331156 2.256333 0.092971 -0.038662 -1058040.000000 0 0 1
-5.684433 -27.971067 -24.121788 37.370497 1.370301 2.272444 0.076909 -0.027336 1264010.000000 0 0 1
-4.321333 -27.483977 -24.092588 36.803474 1.414842 2.284487 0.064921 -0.018033 1221680.000000 0 0 1
-3.627533 -27.796107 -22.904688 36.199548 1.441025 2.255875 0.040438 -0.022836 -1214110.000000 0 0 1
-2.129433 -27.381617 -22.965888 35.801110 1.493184 2.267229 0.045219 -0.025634 183890.000000 0 0 1
-1.745633 -25.997887 -23.081488 34.809373 1.503752 2.295726 0.049563 -0.022758 286581.000000 0 0 1
-2.183533 -25.164237 -22.015588 33.506608 1.484242 2.287698 0.053600 -0.026204 -566819.000000 0 0 1
-1.938633 -23.696897 -22.402888 32.667884 1.489169 2.326467 0.053665 -0.017764 -141134.000000 0 0 1
-2.675833 -23.309997 -23.502888 33.209965 1.456503 2.357042 0.055246 -0.023569 -355430.000000 0 0 1
-4.035633 -23.022397 -23.309788 33.010049 1.397268 2.354831 0.054556 -0.017877 -767017.000000 0 0 1
-4.820833 -23.049297 -24.614688 34.064547 1.364615 2.378337 0.049771 -0.013058 -393754.000000 0 0 1
-4.609933 -22.035597 -25.562288 34.062437 1.364567 2.419545 0.063771 -0.014558 -123821.000000 0 0 1
-5.480233 -22.188997 -26.631388 35.094378 1.328662 2.432343 0.076472 -0.012138 -107026.000000 0 0 1
-5.334933 -21.019397 -27.602088 35.102020 1.322235 2.475657 0.079707 -0.017746 -192774.000000 0 0 1
-5.886833 -21.338497 -28.813388 36.334523 1.301614 2.486519 0.087867 -0.017141 -436511.000000 0 0 1
-4.937733 -21.673997 -29.782388 37.163611 1.346801 2.500405 0.081193 -0.020409 -528892.000000 0 0 1
-5.565333 -22.145597 -31.068788 38.557360 1.324588 2.507789 0.090990 -0.026991 -459970.000000 0 0 1
-6.220233 -21.122997 -31.762788 38.649023 1.284414 2.535406 0.081517 -0.030004 -140402.000000 0 0 1
-6.965233 -21.556197 -32.869988 39.920173 1.258266 2.538161 0.087448 -0.031077 -364071.000000 0 0 1
-6.992233 -20.466797 -33.949488 40.253557 1.241590 2.574360 0.078298 -0.032603 -887516.000000 0 0 1
-5.814733 -20.411197 33.803481 39.913700 1.293269 0.560641 0.075163 -0.031703 -1123670.000000 0 0 1
-5.937733 -19.651597 32.655081 38.571962 1.277368 0.561229 0.076509 -0.023244 740138.000000 0 0 1
-4.687933 -20.064797 31.805481 37.896721 1.341274 0.574862 0.055599 -0.023272 -261485.000000 0 0 1
-4.913933 -21.302097 31.128681 38.038413 1.344084 0.612265 0.047166 -0.022386 637585.000000 0 0 1
-3.800633 -21.750997 30.333381 37.518858 1.397809 0.629225 0.041233 -0.023540 1522180.000000 0 0 1
-2.345933 -21.882097 30.926081 37.957240 1.463996 0.618479 0.032395 -0.026373 482603.000000 0 0 1
-1.624433 -20.648497 30.843681 37.152818 1.492287 0.591358 0.036160 -0.026655 29132.100000 0 0 1
-0.482133 -20.491897 31.657381 37.713924 1.547273 0.574603 0.042460 -0.025649 -51664.700000 0 0 1
-0.710733 -20.204997 33.162181 38.839121 1.535635 0.547489 0.031915 -0.029133 10279.100000 0 0 1
-1.391433 -18.912097 33.353481 38.367411 1.497355 0.516976 0.022514 -0.026093 262569.000000 0 0 1
-1.703333 -18.762597 -33.746688 38.649390 1.480261 2.632422 0.027787 -0.025362 241078.000000 0 0 1
-2.818433 -17.687197 -33.561488 38.041477 1.412776 2.651383 0.033952 -0.038420 289090.000000 0 0 1
-2.388333 -16.354697 -33.817688 37.640620 1.425788 2.686991 0.045962 -0.040509 723366.000000 0 0 1
-3.435533 -15.361097 -33.569888 37.076995 1.350766 2.703141 0.052154 -0.039284 742968.000000 0 0 1
-2.999933 -13.911097 -33.910588 36.775620 1.358399 2.744254 0.049220 -0.038949 -548741.000000 0 0 1
-1.964533 -13.473197 -33.077388 35.770100 1.426006 2.751100 0.049890 -0.030221 -342753.000000 0 0 1
-1.764333 -12.051197 -32.970688 35.148407 1.425426 2.787733 0.037939 -0.026041 33714.400000 0 0 1
-1.262133 -11.346997 34.168981 36.025916 1.460021 0.322470 0.030949 -0.022824 -874353.000000 0 0 1
-2.209533 -11.412897 33.146481 35.125852 1.379562 0.337307 0.032720 -0.023156 -390259.000000 0 0 1
-1.895933 -10.876197 31.861881 33.720405 1.398211 0.333555 0.023941 -0.017349 -33861.900000 0 0 1
-0.961533 -11.860897 31.009181 33.214074 1.489906 0.366421 0.021928 -0.019275 743070.000000 0 0 1
-1.599733 -13.014397 30.502681 33.201615 1.448490 0.405993 0.035485 -0.018999 -556283.000000 0 0 1
-0.654633 -13.968497 30.211581 33.290946 1.523966 0.433499 0.034912 -0.025701 -580590.000000 0 0 1
-1.019233 -15.458897 30.499181 34.208426 1.504960 0.469998 0.035508 -0.025926 -851927.000000 0 0 1
-1.882933 -16.048797 29.652581 33.769585 1.454005 0.498950 0.043689 -0.025172 -644908.000000 0 0 1
-2.338433 -17.244097 30.267381 34.913343 1.436011 0.521789 0.040970 -0.022907 -235055.000000 0 0 1
-2.894733 -18.283797 29.265381 34.628590 1.413777 0.564003 0.043130 -0.018904 -466087.000000 0 0 1
-4.106833 -17.907597 28.672981 34.054192 1.345360 0.569852 0.048194 -0.016208 -456605.000000 0 0 1
-4.697833 -18.784297 27.721881 33.814526 1.325730 0.609697 0.045954 -0.009976 -234241.000000 0 0 1
-3.973733 -19.178597 26.432081 32.897782 1.366491 0.637711 0.036084 -0.014566 -681916.000000 0 0 1
-4.688633 -19.940197 25.478281 32.691552 1.339857 0.677163 0.047054 -0.009919 -416052.000000 0 0 1
-4.488033 -21.317497 25.692081 33.684732 1.363294 0.703285 0.040964 -0.017387 -187162.000000 0 0 1
-29.088683 -34.266543 -0.655319 44.953053 0.866944 1.585375 0.024121 -0.001633 215474.000000 0 0 1
-28.453833 -32.998143 -0.453619 43.574119 0.859213 1.581207 0.038278 0.001157 260371.000000 0 0 1
-29.021003 -32.473243 0.754181 43.557995 0.841479 1.553481 0.021153 0.007548 -145330.000000 0 0 1
-28.478603 -31.165543 1.278281 42.236903 0.830417 1.540527 0.041134 -0.004144 -187275.000000 0 0 1
-27.075763 -31.161043 1.443681 41.306075 0.855433 1.535838 0.052770 -0.011009 -290933.000000 0 0 1
-26.765003 -29.861843 1.968281 40.149336 0.840032 1.521753 0.067028 -0.018291 338657.000000 0 0 1
-25.243703 -29.646843 2.161481 38.998101 0.865443 1.515343 0.075135 -0.011636 231491.000000 0 0 1
-24.607633 -30.225243 3.303381 39.115384 0.887492 1.486243 0.054075 -0.004964 440835.000000 0 0 1
-23.253933 -29.752743 3.257081 37.902239 0.907393 1.484756 0.048358 -0.002872 403589.000000 0 0 1
-22.388233 -30.564543 4.249681 38.124586 0.938596 1.459096 0.034795 -0.009282 -314740.000000 0 0 1
-22.626333 -30.305843 5.606381 38.233841 0.929475 1.423632 0.019389 0.003176 -100831.000000 0 0 1
-22.063133 -31.259443 6.447581 38.800850 0.956184 1.403851 0.014442 0.003788 -359688.000000 0 0 1
-22.491033 -30.977843 7.898481 39.087842 0.942809 1.367325 -0.002462 0.023749 -326875.000000 0 0 1
-22.077933 -29.684543 8.361481 37.927848 0.931306 1.348513 0.000753 0.012017 138452.000000 0 0 1
-22.548233 -29.571143 9.682481 38.426889 0.919338 1.316079 -0.023184 0.006613 -326175.000000 0 0 1
-22.147833 -28.293343 10.444381 37.418243 0.906636 1.287913 0.004848 0.007099 102098.000000 0 0 1
-20.845533 -28.348143 10.978781 36.860373 0.936744 1.268359 -0.005358 0.003984 -362901.000000 0 0 1
-20.661833 -27.220343 11.828881 36.163253 0.921523 1.237567 0.016070 0.003909 -575786.000000 0 0 1
-19.369133 -27.292043 12.590481 35.756666 0.953591 1.210966 0.018515 -0.000334 -822795.000000 0 0 1
-19.277133 -28.330443 13.518081 36.836944 0.973320 1.195046 0.019562 -0.000741 145199.000000 0 0 1
-18.076133 -28.259843 14.295381 36.465371 1.001738 1.167963 0.030097 -0.006161 483732.000000 0 0 1
-18.081833 -29.363443 15.310981 37.730500 1.018844 1.152944 0.041272 -0.010317 -146555.000000 0 0 1
-18.016933 -30.673643 14.746281 38.508896 1.039712 1.177828 0.036164 -0.007857 -180292.000000 0 0 1
-17.802333 -31.632943 15.780781 39.580288 1.058195 1.160694 0.048506 -0.006726 44516.500000 0 0 1
-17.538533 -32.967843 15.060481 40.265332 1.081886 1.187445 0.046606 -0.005671 69079.900000 0 0 1
-17.522733 -34.072643 15.904381 41.484220 1.095793 1.177339 0.055631 0.000609 61344.200000 0 0 1
-17.586033 33.358703 15.147781 40.638983 -1.085642 1.188836 0.045379 -0.002724 -141254.000000 0 0 1
-17.475433 32.162303 16.061981 39.972387 -1.073072 1.157285 0.052970 -0.009280 -201361.000000 0 0 1
-18.566833 31.937803 16.911081 40.629241 -1.044208 1.141502 0.054900 -0.011701 -129712.000000 0 0 1
-18.404833 30.759603 17.719381 39.985842 -1.031595 1.111696 0.043422 -0.006830 -4081.400000 0 0 1
-19.077233 30.764803 19.083581 40.921840 -1.015729 1.085645 0.044565 -0.018803 541194.000000 0 0 1
-18.349433 31.645803 19.977381 41.680383 -1.045334 1.070940 0.048742 -0.016992 1107610.000000 0 0 1
-19.284433 31.924003 21.041281 42.822504 -1.027387 1.057145 0.041978 -0.015657 425064.000000 0 0 1
-18.836933 32.972803 22.055181 43.914312 -1.051757 1.044618 0.038261 -0.002293 -289467.000000 0 0 1
-17.798633 32.493403 22.859181 43.533375 -1.069673 1.017969 0.025880 -0.009805 -259470.000000 0 0 1
-17.608033 33.138203 24.097281 44.596662 -1.082383 0.999957 0.023215 -0.011923 48732.800000 0 0 1
-18.479233 32.486903 25.224581 45.090580 -1.053618 0.977110 0.023172 -0.004427 -99542.100000 0 0 1
-19.835633 32.678903 24.940281 45.644065 -1.025256 0.992727 0.025821 -0.004247 -350169.000000 0 0 1
-20.731433 31.924503 25.751481 45.957644 -0.994850 0.976011 0.014363 0.003162 -356745.000000 0 0 1
-22.187833 32.242703 25.441481 46.681483 -0.968067 0.994405 0.016987 -0.004733 -765236.000000 0 0 1
-22.471833 31.891603 24.101081 45.857603 -0.956969 1.017419 0.017788 0.006395 -619379.000000 0 0 1
-23.680233 32.389803 23.662681 46.580847 -0.939500 1.037945 0.012400 -0.001261 -916527.000000 0 0 1
-24.085233 32.125003 22.220881 45.889888 -0.927465 1.065323 0.010197 -0.012343 -189177.000000 0 0 1
-23.368133 32.891603 21.279881 45.615354 -0.953085 1.085459 0.009867 -0.018647 -89041.400000 0 0 1
-23.033733 32.205603 20.109181 44.408703 -0.949936 1.100870 -0.006702 -0.002094 -51143.700000 0 0 1
-22.604533 33.143303 18.969581 44.376666 -0.972237 1.129107 0.006573 -0.001604 -563537.000000 0 0 1
-21.328733 33.672703 19.146881 44.219553 -1.006170 1.122983 0.026228 -0.005337 -632472.000000 0 0 1
-21.024233 -33.962543 18.189681 43.890059 1.016493 1.143472 0.041209 0.000107 -1213940.000000 0 0 1
-19.715633 -33.294343 18.376581 42.835946 1.036160 1.127412 0.050603 -0.010361 -1368180.000000 0 0 1
-19.808333 -32.436243 19.478381 42.706993 1.022557 1.097196 0.057061 -0.019760 415198.000000 0 0 1
-18.619633 -31.754343 19.834481 41.814300 1.040463 1.076574 0.043216 -0.023328 124647.000000 0 0 1
-18.972633 -30.832143 21.028981 41.866453 1.019165 1.044555 0.039268 -0.013941 128588.000000 0 0 1
-19.837333 -29.791443 20.640081 41.316617 0.983343 1.047707 0.051995 -0.017385 280302.000000 0 0 1
-20.176533 -28.958143 21.736381 41.450414 0.962256 1.018792 0.062715 -0.008494 -128189.000000 0 0 1
-20.967333 -27.653043 21.442281 40.793275 0.922050 1.017338 0.058667 -0.018472 -770665.000000 0 0 1
-20.243233 -26.643143 20.827881 39.413782 0.921058 1.014032 0.053504 -0.011171 147603.000000 0 0 1
-20.976533 -25.487143 20.407381 38.808126 0.882173 1.017078 0.049316 0.006055 -342651.000000 0 0 1
-22.137433 -25.635243 19.429481 39.047873 0.858486 1.049988 0.045163 0.000103 -163806.000000 0 0 1
-23.335833 -26.242343 19.917081 40.372166 0.843956 1.054874 0.045405 0.000395 354454.000000 0 0 1
-24.160533 -26.388143 18.777681 40.406272 0.829438 1.087476 0.034930 0.001207 -515248.000000 0 0 1
-25.687893 -26.366843 19.036781 41.442458 0.798440 1.093528 0.024159 0.002954 233417.000000 0 0 1
-26.305583 -27.504943 19.571881 42.796777 0.807683 1.095816 0.014564 0.005058 -71055.800000 0 0 1
-26.386503 -28.541243 18.620781 43.099694 0.824607 1.124043 0.020260 0.001230 -1341710.000000 0 0 1
-27.214413 -29.698543 19.094681 44.578410 0.829018 1.128142 0.033460 -0.012565 -92067.100000 0 0 1
-28.600703 -29.408443 19.176781 45.283614 0.799322 1.133511 0.018398 -0.009124 296156.000000 0 0 1
-29.344043 -29.805943 18.030581 45.547437 0.793207 1.163788 0.019812 -0.004458 -275631.000000 0 0 1
-30.783343 -29.259643 17.987581 46.122598 0.760027 1.170170 0.016256 -0.005490 40008.700000 0 0 1
-30.892733 -27.897543 17.773181 45.260577 0.734495 1.167246 0.021899 -0.004273 229688.000000 0 0 1
-32.244003 -27.525743 18.018781 46.065375 0.706621 1.168908 0.019637 0.024481 262171.000000 0 0 1
-32.628173 -26.190243 17.340381 45.290345 0.676378 1.177894 0.039267 0.003412 -295056.000000 0 0 1
-32.635133 -26.304243 15.910481 44.834234 0.678395 1.208018 0.057642 -0.017738 -191199.000000 0 0 1
-33.384203 -25.240443 15.438281 44.608581 0.647368 1.217403 0.066629 -0.016324 -733082.000000 0 0 1
-32.616353 -24.036043 14.928881 43.179039 0.635085 1.217765 0.056027 -0.015898 -423088.000000 0 0 1
-31.917203 -23.471843 16.007381 42.730218 0.634090 1.186815 0.047057 -0.006520 -181326.000000 0 0 1
-31.516993 -22.112843 15.782081 41.609768 0.611810 1.181770 0.047511 -0.003340 -737011.000000 0 0 1
-32.588313 -21.057643 15.819781 41.900931 0.573679 1.183645 0.067975 -0.012672 -670073.000000 0 0 1
-33.169963 -20.901843 17.069081 42.760812 0.562290 1.160179 0.076146 -0.009474 789732.000000 0 0 1
-34.388498 -20.132943 16.973381 43.312814 0.529657 1.168123 0.105561 -0.024316 712273.000000 0 0 1
-34.820143 -19.474743 18.300381 43.893188 0.509952 1.140731 0.076961 -0.000452 -224736.000000 0 0 1
-35.949249 -20.063943 18.899481 45.300119 0.509055 1.140428 0.081757 0.002955 -15957.700000 0 0 1
-36.165443 -19.560943 20.184281 45.803657 0.495810 1.114452 0.081376 0.007078 1765800.000000 0 0 1
34.820011 -20.045943 20.907781 45.292475 -0.522362 1.090979 0.066442 0.016941 1774010.000000 0 0 1
34.569671 -21.450643 21.176481 45.865407 -0.555360 1.090875 0.051840 0.008001 -543338.000000 0 0 1
35.441841 -22.087543 22.045581 47.222784 -0.557308 1.085080 0.034105 0.017593 -617828.000000 0 0 1
34.874421 -23.381543 22.612081 47.688867 -0.590617 1.076788 0.034345 0.021966 210593.000000 0 0 1
33.958541 -23.177043 23.693781 47.452641 -0.598891 1.047989 0.038076 0.009048 264164.000000 0 0 1
33.534101 -24.339943 24.294981 48.033477 -0.627850 1.040496 0.032890 -0.005030 -136968.000000 0 0 1
32.574051 -24.158743 25.544481 47.929471 -0.638140 1.008702 0.035677 -0.008875 382805.000000 0 0 1
31.222331 -24.262943 25.198681 46.888142 -0.660622 1.003420 0.052548 -0.006474 -516685.000000 0 0 1
30.307281 -24.186343 26.259081 46.830010 -0.673543 0.975527 0.017314 -0.006674 -773026.000000 0 0 1
29.055041 -24.997743 26.059581 46.348510 -0.710477 0.973689 0.029920 -0.009580 -647563.000000 0 0 1
28.110661 -24.171943 25.384281 44.931657 -0.710205 0.970420 0.043657 -0.005908 -644788.000000 0 0 1
26.808581 -24.685243 25.489381 44.472124 -0.744187 0.960447 0.041924 0.004269 -480484.000000 0 0 1
25.790981 -23.687543 24.936181 42.989389 -0.742912 0.952001 0.044293 -0.004179 -703790.000000 0 0 1
25.791581 -23.351843 23.558881 42.018271 -0.735794 0.975587 0.041905 0.004461 587144.000000 0 0 1
26.887981 -22.485243 23.154481 42.008091 -0.696461 0.987005 0.040831 0.007697 831359.000000 0 0 1
26.619481 -21.903943 21.743381 40.757258 -0.688522 1.008081 0.041305 0.004787 519285.000000 0 0 1
25.645181 -20.861343 21.774081 39.585118 -0.682895 0.988364 0.029229 0.005144 164926.000000 0 0 1
25.648781 -20.121943 20.532381 38.527020 -0.665229 1.008731 0.010208 0.003404 -216142.000000 0 0 1
24.864581 -18.818643 20.545781 37.343244 -0.647868 0.988208 0.012427 0.006759 -457674.000000 0 0 1
25.461081 -17.712543 21.135781 37.532946 -0.607815 0.972632 0.014317 -0.001642 -241682.000000 0 0 1
25.455581 -17.722843 22.546381 38.346122 -0.608189 0.942249 0.013578 0.004474 130489.000000 0 0 1
25.945581 -16.401043 23.187181 38.468334 -0.563712 0.923840 0.029297 0.005027 -583228.000000 0 0 1
24.936081 -15.481543 23.037781 37.312540 -0.555609 0.905328 0.027783 0.002678 -668644.000000 0 0 1
25.127981 -14.358843 23.859581 37.508285 -0.519146 0.881344 0.032317 0.003545 218919.000000 0 0 1
23.862581 -13.463543 23.901181 36.358716 -0.513689 0.853471 0.039436 0.000435 -220284.000000 0 0 1
22.744681 -14.090043 24.412681 36.219178 -0.554625 0.831150 0.042198 0.001628 -2055190.000000 0 0 1
21.718181 -13.212643 24.553981 35.343335 -0.546550 0.802756 0.034065 -0.003216 -1837270.000000 0 0 1
20.513681 -13.966643 25.030781 35.247954 -0.597754 0.781107 0.038186 0.005290 -1046600.000000 0 0 1
19.966181 -14.955243 24.207381 34.760682 -0.642879 0.800426 0.044471 0.000797 620626.000000 0 0 1
18.663381 -15.366343 24.652181 34.527907 -0.688813 0.775632 0.060636 -0.001984 986587.000000 0 0 1
17.954281 -16.442643 23.740581 34.004881 -0.741480 0.797983 0.076344 -0.007452 286805.000000 0 0 1
18.451081 -17.760743 23.909481 35.036405 -0.766337 0.819731 0.050928 -0.004751 75680.800000 0 0 1
17.889781 -18.666843 22.953281 34.573811 -0.806651 0.844785 0.058073 -0.007302 248859.000000 0 0 1
18.323381 -20.148543 23.220781 35.789870 -0.832804 0.864778 0.027873 -0.008959 -160931.000000 0 0 1
17.561281 -20.675143 24.284481 36.408737 -0.866656 0.840627 0.029611 -0.013373 166118.000000 0 0 1
17.824081 -22.058343 24.695681 37.605120 -0.891171 0.854348 0.034281 -0.013074 -450465.000000 0 0 1
17.281681 -23.061243 23.685081 37.302286 -0.927691 0.882853 0.023718 -0.009064 135353.000000 0 0 1
18.076381 -23.273543 22.510081 37.082572 -0.910430 0.918484 0.019945 -0.003292 -422242.000000 0 0 1
19.239081 -23.999443 22.753581 38.260175 -0.895052 0.933896 0.020568 -0.006098 -1107170.000000 0 0 1
20.144681 -24.203243 21.590781 38.180715 -0.876660 0.969770 0.021306 0.006188 -578909.000000 0 0 1
19.430981 -24.824143 20.560581 37.636931 -0.906665 0.992871 0.028245 -0.003983 117778.000000 0 0 1
20.345481 -25.362543 19.593881 37.962052 -0.894724 1.028454 0.020825 -0.008614 200892.000000 0 0 1
19.802981 -25.971543 18.267481 37.421651 -0.919351 1.060824 0.022478 -0.013537 -296888.000000 0 0 1
19.357481 -27.254643 18.534581 38.223793 -0.953227 1.064552 0.030660 -0.022101 -405736.000000 0 0 1
18.728881 -27.796543 17.392981 37.761549 -0.977882 1.092125 0.040049 -0.024268 -491001.000000 0 0 1
17.929581 -29.052343 17.721781 38.465180 -1.017864 1.091987 0.040497 -0.017592 -95441.700000 0 0 1
16.853981 -28.732043 18.588281 38.145920 -1.040294 1.061808 0.058530 -0.022321 -340891.000000 0 0 1
16.197281 -29.870843 19.044081 38.952487 -1.073927 1.059962 0.079278 -0.022382 -165936.000000 0 0 1
15.012481 -29.420043 19.928281 38.575250 -1.098958 1.027912 0.071926 -0.019717 -122356.000000 0 0 1
14.069981 -28.695843 19.183581 37.274999 -1.114927 1.030197 0.062211 -0.025803 -193123.000000 0 0 1
12.830381 -28.593043 19.865281 37.105393 -1.149004 1.005845 0.047446 -0.021686 491277.000000 0 0 1
11.665481 -27.999343 19.038381 35.812102 -1.176033 1.010286 0.057651 -0.023353 298501.000000 0 0 1
11.183281 -28.899743 18.022281 35.847783 -1.201575 1.044025 0.051457 -0.026022 -388667.000000 0 0 1
10.094881 -28.328243 17.368681 34.728476 -1.228472 1.047050 0.079321 -0.017878 -268165.000000 0 0 1
9.767481 -29.003943 16.019281 34.543448 -1.245961 1.088581 0.059812 -0.013328 161821.000000 0 0 1
9.022981 -30.217843 16.090681 35.403986 -1.280626 1.098999 0.047638 -0.010680 178215.000000 0 0 1
9.506281 -31.121143 15.120381 35.882041 -1.274337 1.135817 0.040767 -0.002842 935675.000000 0 0 1
8.302081 -32.012143 14.556481 36.132991 -1.317045 1.156159 0.022760 0.002263 1030090.000000 0 0 1
7.712781 -32.907843 15.497281 37.183045 -1.340577 1.140892 0.032243 0.001673 -252769.000000 0 0 1
7.113181 -33.985843 14.894681 37.782091 -1.364476 1.165571 0.005753 0.004424 -118385.000000 0 0 1
6.898081 33.406203 15.857581 37.616762 1.367167 1.135635 0.027041 0.000654 1261130.000000 0 0 1
8.220681 32.909003 16.133181 37.561438 1.326006 1.126841 0.028145 0.000708 872974.000000 0 0 1
8.048181 31.751803 16.934581 36.874520 1.322553 1.093647 0.035372 -0.006756 548605.000000 0 0 1
9.334781 30.883003 17.129781 36.528447 1.277265 1.082702 0.051421 -0.012449 346812.000000 0 0 1
9.695881 30.208503 15.940781 35.505947 1.260218 1.105194 0.052184 -0.017425 548777.000000 0 0 1
10.779581 29.310503 16.290881 35.223540 1.218378 1.089984 0.047122 -0.011241 760691.000000 0 0 1
11.540781 28.677403 15.075981 34.392852 1.188193 1.117038 0.036333 -0.012392 48123.900000 0 0 1
10.827681 27.757103 14.293381 33.045366 1.198865 1.123490 0.043860 -0.014787 -191482.000000 0 0 1
11.684181 27.365503 13.270481 32.580616 1.167260 1.151287 0.041689 -0.008863 -19830.700000 0 0 1
-9.315833 -9.487497 19.403351 23.522061 0.794527 0.600771 0.033438 -0.028319 17208.600000 0 1 0
-9.362733 -9.611097 18.025451 22.471111 0.798487 0.639891 0.023309 -0.030064 31064.900000 0 1 0
-9.260833 -10.945597 17.605351 22.705010 0.868583 0.683456 0.028101 -0.033208 4625.600000 0 1 0
-9.690633 -11.151797 16.123351 21.868548 0.855389 0.741754 0.037610 -0.031967 193578.000000 0 1 0
-11.087133 -10.971797 15.947151 22.307319 0.780170 0.774338 0.041062 -0.035743 322593.000000 0 1 0
-11.630833 -11.319697 14.685451 21.887766 0.771842 0.835316 0.052379 -0.033048 100601.000000 0 1 0
-11.611533 -12.849097 14.276851 22.444497 0.835949 0.881368 0.040419 -0.038511 -141079.000000 0 1 0
-10.354433 -13.342697 13.815151 21.819721 0.910838 0.885181 0.039284 -0.038218 429520.000000 0 1 0
-10.269533 -14.754797 13.882551 22.713268 0.962751 0.913209 0.043473 -0.035093 8658.130000 0 1 0
-9.970733 -15.474597 15.197851 23.871601 0.998418 0.880650 0.046806 -0.040026 -955450.000000 0 1 0
-10.967033 -15.269297 16.081351 24.739383 0.947933 0.863172 0.053577 -0.027118 -982273.000000 0 1 0
-10.474033 -15.259097 17.412051 25.411118 0.969248 0.815899 0.058406 -0.031771 -16811.800000 0 0 1
-11.602533 -14.787597 18.336251 26.258520 0.905509 0.797780 0.035211 -0.024943 -450719.000000 0 0 1
-11.933433 -13.391897 18.117751 25.495149 0.842924 0.780396 0.036364 -0.028599 1333920.000000 0 0 1
-13.272233 -13.155297 17.597851 25.669016 0.780973 0.815413 0.048730 -0.038292 1136230.000000 0 0 1
-14.488833 -13.365997 18.503051 27.035884 0.745110 0.817032 0.022182 -0.022317 -511409.000000 0 0 1
-14.716633 -14.765197 18.721851 28.019601 0.787045 0.839050 0.027063 -0.020059 -373803.000000 0 0 1
-15.573533 -14.827397 19.835351 29.254534 0.760860 0.825722 0.022186 -0.011717 -198631.000000 0 0 1
-16.006233 -16.264797 20.163551 30.451796 0.793410 0.847117 0.021446 -0.004759 -255458.000000 0 0 1
-17.089333 -16.654197 19.366651 30.732308 0.772503 0.889021 0.027799 0.003393 -403791.000000 0 0 1
-17.441633 -17.988997 19.624251 31.826495 0.800846 0.906378 0.009443 0.004054 382879.000000 0 0 1
-18.808933 -18.385697 18.967151 32.427806 0.774020 0.946035 0.030737 0.008177 451639.000000 0 0 1
-18.861033 -18.590897 17.590851 31.793050 0.778185 0.984485 0.040987 0.002579 -26484.400000 0 0 1
-19.115933 -17.384597 16.931751 30.892188 0.738001 0.990715 0.040514 -0.000909 -455181.000000 0 0 1
-18.785833 -17.369197 15.397251 29.860875 0.746236 1.029050 0.045610 -0.005793 -218488.000000 0 0 1
-19.552033 -18.291197 14.658051 30.523898 0.752093 1.069896 0.052392 -0.003233 67322.200000 0 0 1
-19.085133 -18.326997 13.295551 29.612376 0.765136 1.105166 0.046924 -0.006506 161008.000000 0 0 1
-19.337733 -19.596097 12.533651 30.249749 0.792034 1.143580 0.045733 0.008226 -108653.000000 0 0 1
-18.416933 -20.621497 12.844851 30.486386 0.841810 1.135884 0.047426 0.013690 -46116.500000 0 0 1
-18.506433 -21.747397 11.977451 30.966057 0.865738 1.173645 0.032319 0.006845 -341102.000000 0 0 1
-17.683633 -22.937797 12.486151 31.539774 0.914029 1.163764 0.038796 0.003890 -117223.000000 0 0 1
-17.729133 -24.147297 11.813151 32.201935 0.937479 1.195180 0.032854 -0.004711 204654.000000 0 0 1
-17.057533 -24.081897 10.536951 31.335675 0.954513 1.227853 0.043047 -0.006425 -184344.000000 0 0 1
-17.342633 -25.377737 9.655751 32.218473 0.971312 1.266422 0.057232 -0.007260 773467.000000 0 0 1
-18.696233 -25.320047 9.195051 32.790286 0.934763 1.286565 0.031776 -0.000767 411597.000000 0 0 1
-19.029733 -26.412157 8.305751 33.596403 0.946450 1.320985 0.039633 -0.006072 520364.000000 0 0 1
-20.332533 -26.099907 7.531051 33.931310 0.908975 1.346983 0.044694 -0.008653 134835.000000 0 0 1
-20.019433 -25.309357 6.409051 32.900109 0.901574 1.374739 0.056540 -0.017518 -52016.200000 0 0 1
-21.102833 -24.683097 5.762551 32.981689 0.863435 1.395175 0.064068 -0.025374 -389136.000000 0 0 1
-20.672133 -23.673697 4.697851 31.778150 0.852980 1.422420 0.065638 -0.021777 -250999.000000 0 0 1
-21.367433 -23.763297 3.478651 32.145956 0.838436 1.462370 0.071730 -0.026766 -89288.000000 0 0 1
-21.580033 -22.495197 2.822851 31.300163 0.806159 1.480487 0.066779 -0.012707 149730.000000 0 0 1
-22.255933 -22.634197 1.477851 31.777626 0.793824 1.524274 0.058908 -0.013893 -55130.700000 0 0 1
-21.345033 -23.336797 0.650051 31.632880 0.829945 1.550245 0.064765 -0.023430 264693.000000 0 0 1
-21.701833 -23.390297 -0.705449 31.915094 0.822825 1.592902 0.044935 -0.018869 -714651.000000 0 0 1
-20.891333 -24.332697 -1.546249 32.107925 0.861348 1.618973 0.047155 -0.017830 -869378.000000 0 0 1
-19.540533 -23.966297 -1.683149 30.968513 0.886775 1.625173 0.051427 -0.016739 -127161.000000 0 0 1
-18.824233 -24.442797 -2.813849 30.979345 0.914533 1.661752 0.049150 -0.010675 125988.000000 0 0 1
-18.611533 -25.996037 -2.957649 32.108111 0.949454 1.663042 0.058365 -0.020686 -605110.000000 0 0 1
-19.762833 -26.657937 -3.406049 33.358902 0.932855 1.673078 0.090521 -0.029168 -170473.000000 0 0 1
-19.337133 -27.956797 -3.780249 34.202303 0.965677 1.681549 0.093598 -0.024501 296146.000000 0 0 1
-20.511033 -28.874457 -4.207949 35.667122 0.953156 1.689050 0.110014 -0.027696 188901.000000 0 0 1
-21.238333 -28.450107 -5.346749 35.903525 0.929532 1.720272 0.087833 -0.021378 -361015.000000 0 0 1
-22.096133 -29.473977 -5.739549 37.281320 0.927498 1.725363 0.101056 -0.038785 -142750.000000 0 0 1
-22.722033 -29.206917 -7.124749 37.684172 0.909635 1.761006 0.072359 0.002001 -866370.000000 0 0 1
-21.696733 -28.966917 -7.988149 37.062664 0.927924 1.788032 0.096399 -0.001563 -614132.000000 0 0 1
-22.024833 -29.099857 -9.377449 37.680652 0.922912 1.822306 0.086511 -0.004263 -229381.000000 0 0 1
-22.898733 -27.939357 -9.935549 37.465648 0.884226 1.839198 0.052486 0.005290 -108737.000000 0 0 1
-22.334733 -26.705667 -10.328149 36.313959 0.874293 1.859190 0.050219 0.003252 16588.700000 0 0 1
-22.028633 -25.820827 -9.270349 35.184019 0.864485 1.837426 0.031216 0.004847 49083.200000 0 0 1
-21.560633 -24.390797 -9.624449 33.947046 0.846911 1.858252 0.013742 0.004287 -44345.400000 0 0 1
-22.601233 -23.604597 -10.143849 34.218276 0.807110 1.871765 0.003664 0.009187 252023.000000 0 0 1
-22.084633 -22.378197 -10.693349 33.209373 0.792001 1.898635 0.001081 0.017307 621836.000000 0 0 1
-23.226433 -21.302797 -10.804449 33.316850 0.742226 1.901061 0.000337 0.016022 388094.000000 0 0 1
-24.028433 -21.537897 -11.981849 34.421089 0.730795 1.926336 -0.004806 0.020016 1233860.000000 0 0 1
-25.195383 -20.673697 -12.086949 34.760659 0.687138 1.925934 -0.001249 0.011098 701067.000000 0 0 1
-25.077473 -19.130997 -12.015049 33.752572 0.651691 1.934753 0.002098 -0.002624 -1108910.000000 0 0 1
-24.535533 -18.581797 -13.218849 33.496471 0.648184 1.976466 0.012820 -0.005612 436695.000000 0 0 1
-24.411433 -17.188797 -13.247949 32.663144 0.613492 1.988424 0.014287 -0.009130 155901.000000 0 0 1
-23.297033 -16.573197 -12.352849 31.145072 0.618327 1.978631 -0.006168 -0.002870 -345129.000000 0 0 1
-23.761133 -16.542797 -11.028649 30.982038 0.608179 1.934747 0.023665 -0.007132 344419.000000 0 0 1
-22.770733 -16.414997 -10.037749 29.811321 0.624603 1.914216 0.016432 -0.004917 -288012.000000 0 0 1
-23.342233 -16.732497 -8.598949 29.979631 0.621935 1.861709 0.004733 -0.013214 64346.800000 0 0 1
-23.697633 -18.092897 -8.410549 30.978510 0.652079 1.845744 0.002378 -0.000279 373049.000000 0 0 1
-25.069793 -18.124397 -8.043649 31.963864 0.625968 1.825179 0.009114 -0.003059 62085.200000 0 0 1
-25.531073 -19.461597 -7.493849 32.965850 0.651308 1.800123 0.007367 0.008328 -137480.000000 0 0 1
-25.572553 -20.613997 -8.362549 33.894315 0.678448 1.820095 0.005125 -0.003667 180312.000000 0 0 1
-26.289073 -21.697897 -7.847749 34.978583 0.690013 1.797081 0.012413 0.005037 45101.300000 0 0 1
-25.811953 -22.892997 -8.736149 35.590259 0.725538 1.818795 -0.006093 0.012538 309504.000000 0 0 1
-26.356223 -24.156797 -8.300749 36.702913 0.741884 1.798931 0.004153 0.021061 -144995.000000 0 0 1
-26.082543 -25.244307 -9.183149 37.442013 0.769068 1.818588 0.007403 0.026842 340232.000000 0 0 1
-26.684263 -26.618417 -8.687249 38.678913 0.784163 1.797328 0.009966 0.007998 225296.000000 0 0 1
-26.169193 -27.000697 -7.414549 38.325447 0.801036 1.765487 0.038235 -0.006808 341285.000000 0 0 1
-26.964683 -28.097777 -7.022749 39.571432 0.805974 1.749212 0.034272 -0.015649 237558.000000 0 0 1
-26.501423 -28.573597 -5.606549 39.372697 0.823005 1.713679 0.055231 -0.022996 90130.600000 0 0 1
-27.013273 -27.823277 -4.528749 39.043069 0.800168 1.687052 0.038392 -0.023256 -305078.000000 0 0 1
-26.346633 -28.013007 -3.327249 38.599796 0.816043 1.657102 0.052222 -0.030116 -336572.000000 0 0 1
-26.509543 -29.278497 -2.470549 39.573854 0.834991 1.633266 0.054337 -0.020894 -499810.000000 0 0 1
-25.994883 -30.384217 -3.129749 40.108976 0.863095 1.648907 0.080284 -0.025837 -90980.400000 0 0 1
-26.185763 -31.626867 -2.413149 41.131207 0.879238 1.629500 0.070576 -0.023000 331842.000000 0 0 1
-25.190633 -31.875197 -1.209749 40.645537 0.902005 1.600564 0.087534 -0.028416 169827.000000 0 0 1
-23.867433 -31.597267 -1.554949 39.629024 0.923871 1.610044 0.099485 -0.036418 -528471.000000 0 0 1
-22.911833 -31.787447 -0.534849 39.187753 0.946258 1.584445 0.107009 -0.014164 500230.000000 0 0 1
-21.721533 -30.817367 -0.463949 37.706105 0.956825 1.583101 0.104378 -0.016263 196835.000000 0 0 1
-22.129933 -29.481727 -0.143249 36.863623 0.926891 1.574682 0.099107 -0.026027 4913.820000 0 0 1
-22.497233 -28.712977 -1.280449 36.499317 0.906184 1.605885 0.107174 -0.040407 -162615.000000 0 0 1
-23.136733 -27.362927 -0.914849 35.845155 0.868891 1.596321 0.085244 -0.026380 -225359.000000 0 0 1
-24.463333 -27.467077 -0.456849 36.784558 0.843175 1.583216 0.083091 -0.030528 19875.900000 0 0 1
-25.100233 -26.236957 -0.065949 36.309833 0.807537 1.572613 0.073668 -0.039621 372722.000000 0 0 1
-24.509933 -25.536007 1.189051 35.415227 0.805898 1.537215 0.071763 -0.028068 -278414.000000 0 0 1
-24.761833 -26.226707 2.394851 36.148636 0.814120 1.504498 0.062545 -0.024596 -96437.600000 0 0 1
-24.262433 -25.513187 3.512351 35.382552 0.810521 1.471365 0.064184 -0.023924 -231507.000000 0 0 1
-25.161033 -24.421797 4.130051 35.306644 0.770490 1.453551 0.067891 -0.021871 -124034.000000 0 0 1
-25.240843 -23.348797 3.255251 34.537851 0.746479 1.476405 0.045955 -0.017879 -187251.000000 0 0 1
-26.169053 -22.395197 3.670751 34.638687 0.707845 1.464624 0.032394 -0.005250 -365199.000000 0 0 1
-26.406013 -21.324997 2.577951 34.039372 0.679346 1.494989 0.033283 0.000681 -2664.280000 0 0 1
-25.386713 -20.355697 2.575951 32.641617 0.675853 1.491798 0.046343 0.000771 -127964.000000 0 0 1
-25.224153 -19.663097 1.389951 32.012923 0.662137 1.527364 0.035365 0.005098 471278.000000 0 0 1
-24.002433 -18.691897 1.521751 30.460130 0.661649 1.520817 0.046243 0.006452 -474061.000000 0 0 1
-22.805733 -19.334197 1.647951 29.943754 0.703203 1.515734 0.044436 -0.011036 -673620.000000 0 0 1
-21.667533 -18.461997 1.720051 28.518168 0.705688 1.510445 0.047915 -0.006525 -305253.000000 0 0 1
-20.389633 -19.190297 1.451551 28.037683 0.755106 1.519002 0.056722 -0.019690 -1234110.000000 0 0 1
-20.095933 -19.412097 0.125351 27.940862 0.768091 1.566310 0.034446 -0.013741 271074.000000 0 0 1
-19.131833 -20.451297 -0.001449 28.005046 0.818720 1.570848 0.055338 -0.013386 212619.000000 0 0 1
-18.754933 -20.931897 -1.467749 28.143314 0.840197 1.622973 0.060474 -0.013338 176087.000000 0 0 1
-18.187533 -19.855097 -2.243749 27.019357 0.829204 1.653934 0.057594 -0.016018 260061.000000 0 0 1
-17.926633 -20.317297 -3.524449 27.323588 0.847828 1.700146 0.053654 -0.006789 38663.800000 0 0 1
-17.229533 -19.311697 -4.521449 26.272456 0.842318 1.743756 0.068515 -0.002214 908541.000000 0 0 1
-15.834533 -19.214497 -4.210349 25.251859 0.881536 1.738313 0.093594 -0.013049 478215.000000 0 0 1
-15.134033 -18.427097 -5.147049 24.394446 0.883206 1.783387 0.102824 -0.011999 -455461.000000 0 1 0
-13.626933 -18.469097 -4.878049 23.464787 0.935134 1.780212 0.113479 -0.015046 -724291.000000 0 1 0
-12.962833 -19.620097 -5.287149 24.102639 0.986942 1.791955 0.100829 -0.012374 -1329380.000000 0 1 0
-11.722933 -19.214497 -5.708349 23.220881 1.022977 1.819170 0.082873 -0.017215 -1586540.000000 0 1 0
-10.682833 -20.290697 -5.813849 23.656630 1.086183 1.819100 0.069610 -0.022812 -521353.000000 0 1 0
-10.869033 -21.212297 -6.840449 24.796959 1.097284 1.850279 0.072520 -0.019385 -494041.000000 0 1 0
-9.736433 -21.985297 -7.145049 25.083922 1.153895 1.859642 0.069090 -0.006047 -162308.000000 0 0 1
-9.938633 -23.099497 -8.189149 26.446651 1.164485 1.885619 0.073498 0.002875 -312990.000000 0 0 1
-10.322033 -22.662997 -9.501649 26.654027 1.143413 1.935295 0.071571 -0.003116 29882.300000 0 0 1
-10.409933 -23.782697 -10.358049 27.951254 1.158209 1.950425 0.080444 -0.002396 -192573.000000 0 0 1
-11.241433 -23.455297 -11.615249 28.485695 1.123869 1.990793 0.093982 -0.006110 -163831.000000 0 0 1
-10.701333 -22.545497 -12.580349 27.947865 1.127629 2.037714 0.072419 -0.000379 -49315.900000 0 0 1
-11.705033 -21.946897 -13.409749 28.257662 1.080838 2.065252 0.076516 -0.007553 -222819.000000 0 0 1
-11.258533 -20.838897 -14.309549 27.672683 1.075458 2.114256 0.070752 -0.002691 -401546.000000 0 0 1
-10.997533 -19.662597 -13.540149 26.284960 1.060832 2.111955 0.075892 -0.010295 -152399.000000 0 0 1
-11.042933 -18.449697 -14.311749 25.829515 1.031449 2.158060 0.064487 0.004418 -122534.000000 0 0 1
-10.457233 -17.297097 -13.481849 24.296163 1.027026 2.159035 0.075381 -0.010516 8494.040000 0 1 0
-11.353333 -16.858897 -12.452549 23.836665 0.978124 2.120473 0.081297 -0.016514 202159.000000 0 1 0
-10.889033 -15.850197 -11.567749 22.441315 0.968851 2.112348 0.076976 -0.017538 -95673.100000 0 1 0
-10.709933 -14.421397 -12.267749 21.752633 0.932021 2.169977 0.078227 -0.006904 652482.000000 0 1 0
-11.917333 -13.817097 -12.757949 22.264327 0.859086 2.180985 0.068672 0.002272 533942.000000 0 1 0
-11.893833 -13.717997 -14.177349 23.035710 0.856502 2.233754 0.074783 0.001354 291573.000000 0 1 0
-13.118033 -12.994097 -14.823049 23.678094 0.780652 2.247240 0.069268 0.008286 133595.000000 0 1 0
-13.123333 -11.615497 -14.483849 22.735953 0.724523 2.261456 0.049519 0.005015 -364739.000000 0 1 0
-14.088633 -10.889597 -15.180349 23.399058 0.658019 2.276749 0.034365 -0.002418 -572323.000000 0 1 0
-14.360733 -9.479897 -14.653149 22.601192 0.583461 2.276192 0.029601 -0.005460 763087.000000 0 1 0
-13.300733 -8.489497 -14.782149 21.621587 0.568087 2.323584 0.027653 -0.006233 752501.000000 0 1 0
-13.244033 -7.916797 -16.077549 22.283799 0.538773 2.376749 0.025645 0.007049 -596273.000000 0 1 0
-12.182033 -6.848997 -16.161349 21.365859 0.512178 2.428603 0.019291 0.011824 -807782.000000 0 1 0
-10.895733 -7.369997 -15.955649 20.678893 0.594719 2.452135 0.017862 0.001615 -443894.000000 0 1 0
-10.010433 -6.297297 -15.703749 19.658903 0.561523 2.496113 0.018410 0.004617 95724.400000 0 1 0
11.177667 21.759203 16.277351 29.382908 1.096250 0.983667 0.060671 0.009401 -19860.900000 0 0 1
12.123067 21.820903 17.322851 30.384234 1.063686 0.964137 0.075910 -0.009967 -84549.700000 0 0 1
12.632367 20.542903 17.599251 29.855002 1.019474 0.940368 0.074246 -0.004561 150677.000000 0 0 1
13.860367 20.549103 18.543551 30.955430 0.977390 0.928494 0.081335 -0.014399 908049.000000 0 0 1
15.106467 20.959003 17.967051 31.469033 0.946271 0.963141 0.070052 -0.008135 30716.300000 0 0 1
16.201667 20.384203 18.602951 32.001242 0.899225 0.950447 0.076547 -0.004785 -83658.900000 0 0 1
17.560967 20.900903 18.068851 32.737114 0.872018 0.986110 0.064612 -0.003983 -423120.000000 0 0 1
17.740067 22.287803 18.439051 33.933092 0.898527 0.996321 0.068123 -0.014645 -579860.000000 0 0 1
18.810167 22.855603 17.779051 34.529634 0.882187 1.029914 0.061242 -0.010221 363656.000000 0 0 1
20.280767 22.633203 18.262951 35.455701 0.840161 1.029681 0.051907 -0.012544 325418.000000 0 0 1
20.645967 21.274103 18.280651 34.828517 0.800381 1.018227 0.056644 -0.012166 704142.000000 0 0 1
21.948667 21.118303 18.894651 35.843193 0.766120 1.015556 0.067936 -0.017287 600792.000000 0 0 1
22.353267 19.719003 18.745051 35.211994 0.722867 1.009424 0.056203 -0.023961 -404634.000000 0 0 1
22.451167 19.229803 17.422751 34.313153 0.708265 1.038217 0.037274 -0.022267 -230650.000000 0 0 1
22.342067 17.793403 17.323651 33.404820 0.672547 1.025587 0.025326 -0.019323 111574.000000 0 0 1
23.436167 16.809103 17.908051 33.948463 0.622196 1.015133 0.026294 -0.021247 564777.000000 0 0 1
24.619067 16.889803 17.118351 34.415139 0.601299 1.050188 0.044746 -0.032506 503753.000000 0 0 1
25.456467 15.722203 17.322151 34.572768 0.553268 1.046003 0.041239 -0.019144 416908.000000 0 0 1
26.684567 15.780503 16.336551 35.042449 0.534051 1.085813 0.079943 -0.027734 49535.600000 0 0 1
27.624467 16.833403 16.611251 36.364932 0.547278 1.096409 0.071160 -0.026272 1149510.000000 0 0 1
28.712867 16.533003 17.507251 37.473627 0.522439 1.084688 0.073625 -0.030310 466163.000000 0 0 1
29.639367 15.310203 17.209851 37.537625 0.476799 1.094524 0.062884 -0.035120 -653002.000000 0 0 1
30.576067 15.581903 16.174951 37.938379 0.471307 1.130345 0.089867 -0.015583 54759.400000 0 0 1
30.942467 14.541703 15.365951 37.483460 0.439328 1.148409 0.085808 -0.028893 -170359.000000 0 0 1
30.000567 14.365303 14.156051 36.149546 0.446572 1.168430 0.074481 -0.013527 -217302.000000 0 0 1
30.007167 15.354503 13.124251 36.172320 0.472959 1.199498 0.080588 0.005519 -100695.000000 0 0 1
29.137567 15.214003 12.035051 35.004373 0.481205 1.219819 0.066299 0.002250 -347075.000000 0 0 1
27.872767 16.075303 12.008751 34.344091 0.523140 1.213588 0.054105 -0.007190 -550453.000000 0 0 1
27.949867 17.484203 11.701551 34.983120 0.558999 1.229731 0.045631 0.005197 -2322.380000 0 0 1
28.525867 18.327103 12.691151 36.203219 0.571066 1.212635 0.053662 -0.000301 -34327.300000 0 0 1
27.764067 18.585303 14.061751 36.248996 0.589893 1.172421 0.054280 -0.009421 292119.000000 0 0 1
26.525067 19.274103 13.899951 35.612903 0.628381 1.169832 0.051904 -0.003357 502148.000000 0 0 1
25.627867 19.060403 14.970651 35.273317 0.639481 1.132477 0.050732 -0.020358 -255724.000000 0 0 1
25.932967 19.712203 16.343951 36.444676 0.649947 1.105756 0.067706 -0.023471 -570951.000000 0 0 1
25.882267 21.156403 16.360351 37.217552 0.685267 1.115658 0.058952 -0.015371 595919.000000 0 0 1
24.609067 21.797003 16.517751 36.790645 0.724875 1.105188 0.063494 -0.013741 74103.200000 0 0 1
24.659767 23.342803 16.372051 37.696612 0.757970 1.121523 0.059287 -0.009285 -162396.000000 0 0 1
24.548367 23.784603 15.042851 37.344571 0.769597 1.156209 0.065711 -0.013880 89381.500000 0 0 1
24.756867 25.157303 15.018651 38.358209 0.793420 1.168495 0.080761 -0.015130 -265936.000000 0 0 1
24.651567 25.767503 13.614651 38.170966 0.807528 1.206089 0.070371 -0.013151 1209690.000000 0 0 1
23.256167 25.645203 13.231051 37.061927 0.834214 1.205744 0.070987 -0.015624 1312920.000000 0 0 1
23.162367 25.903703 11.829551 36.707429 0.841210 1.242674 0.063032 -0.021944 -116371.000000 0 0 1
22.691067 24.745903 10.941451 35.312315 0.828688 1.255763 0.071107 -0.017441 -932864.000000 0 0 1
21.316467 24.577603 11.052651 34.360026 0.856337 1.243302 0.072881 -0.019416 -531599.000000 0 0 1
20.748967 23.273503 10.950351 33.046720 0.842682 1.233052 0.071374 -0.017017 149678.000000 0 0 1
20.664167 22.635503 9.552951 32.103468 0.830894 1.268653 0.080900 -0.008003 609553.000000 0 0 1
19.517867 23.161703 8.816651 31.545918 0.870568 1.287537 0.093257 -0.005849 893025.000000 0 0 1
19.835267 23.867003 7.658651 31.964458 0.877392 1.328844 0.088977 -0.009104 1320.630000 0 0 1
18.645167 24.264303 6.730551 31.332075 0.915611 1.354296 0.073545 -0.003598 -453242.000000 0 0 1
18.014167 23.164903 6.090551 29.970281 0.909833 1.366151 0.075932 0.002265 307737.000000 0 0 1
17.068167 23.494503 5.112051 29.486387 0.942522 1.396546 0.098006 -0.013864 480902.000000 0 0 1
15.768767 24.310303 5.407251 29.476825 0.995374 1.386311 0.082105 -0.016929 -155555.000000 0 0 1
15.974967 25.720603 5.693051 30.808437 1.015009 1.384939 0.090436 -0.026227 151869.000000 0 0 1
14.846267 26.269503 6.334551 30.832206 1.056394 1.363870 0.058074 -0.027326 -33069.000000 0 0 1
14.328667 27.554103 5.590951 31.556267 1.091262 1.392682 0.066874 -0.029025 -335284.000000 0 0 1
13.867067 27.278703 4.282851 30.899288 1.100493 1.431742 0.052758 -0.014321 284592.000000 0 0 1
13.807267 28.454903 3.461051 31.816678 1.119032 1.461800 0.044652 -0.016253 -33278.500000 0 0 1
13.206267 28.179803 2.063851 31.189201 1.132548 1.504576 0.050239 -0.009280 315267.000000 0 0 1
14.228867 27.578003 1.285751 31.058977 1.094470 1.529387 0.062154 -0.017599 282574.000000 0 0 1
13.667167 26.777803 0.307951 30.065545 1.098870 1.560554 0.053703 -0.008152 -155588.000000 0 0 1
14.622967 26.343903 -0.816749 30.141325 1.064061 1.597897 0.045467 -0.012989 -29997.800000 0 0 1
14.905467 27.289403 -1.843749 31.149380 1.070875 1.630022 0.039988 -0.005652 -126927.000000 0 0 1
16.073567 26.883803 -2.523349 31.423967 1.031929 1.651183 0.039568 -0.003861 -35313.700000 0 0 1
16.080367 27.515103 -3.887749 32.105664 1.041912 1.692187 0.032953 -0.007202 -1435790.000000 0 0 1
14.946567 27.238303 -4.591949 31.407181 1.068926 1.717529 0.044930 -0.010602 -1242030.000000 0 0 1
15.010967 27.713703 -5.914749 32.068095 1.074391 1.756302 0.039166 -0.007981 -109300.000000 0 0 1
13.781267 27.365603 -6.738949 31.372169 1.104274 1.787290 0.044810 -0.022401 -170556.000000 0 0 1
13.620167 26.022403 -7.178849 30.235910 1.088603 1.810514 0.041691 -0.016599 -857494.000000 0 0 1
12.357467 25.804003 -7.711749 29.631480 1.124173 1.834083 0.032638 -0.024110 -429469.000000 0 0 1
11.903667 24.363603 -7.968149 28.262587 1.116323 1.856604 0.040999 -0.010014 421292.000000 0 0 1
12.646867 23.744003 -9.079249 28.392846 1.081384 1.896286 0.034590 -0.015655 298389.000000 0 0 1
12.165267 22.510503 -9.493849 27.291934 1.075333 1.926087 0.042572 -0.008382 -468689.000000 0 0 1
12.591167 22.042503 -10.871549 27.615213 1.051806 1.975427 0.042053 -0.002736 61842.700000 0 0 1
11.999967 20.783103 -11.215949 26.490264 1.047167 2.007990 0.045277 -0.005614 -148924.000000 0 0 1
12.037167 20.405403 -12.580049 26.824084 1.037836 2.058936 0.044648 -0.006245 267908.000000 0 0 1
13.323967 19.620503 -13.020449 27.055948 0.974246 2.072867 0.047364 -0.000632 157543.000000 0 0 1
14.437067 20.444703 -12.880649 28.148284 0.955953 2.046090 0.042936 0.001183 -1829270.000000 0 0 1
15.595767 19.818003 -13.304649 28.513065 0.904064 2.056257 0.039698 0.003303 -287335.000000 0 0 1
16.769067 20.841803 -13.157849 29.811262 0.893264 2.027923 0.050012 0.008607 -213578.000000 0 0 1
16.942967 21.893903 -14.056449 31.048203 0.912195 2.040621 0.050936 0.003865 51608.200000 0 0 1
15.859067 22.802603 -14.301549 31.241047 0.963101 2.046294 0.039371 0.001825 161247.000000 0 0 1
16.234167 24.215003 -14.909049 32.744378 0.980201 2.043524 0.045442 -0.005309 112057.000000 0 0 1
16.703467 24.156703 -16.230349 33.555571 0.965823 2.075657 0.038249 -0.004481 -296676.000000 0 0 1
15.681867 24.521703 -17.125849 33.771728 1.001831 2.102620 0.035103 0.005539 32880.000000 0 0 1
15.999067 24.501503 -18.647749 34.699169 0.992327 2.138162 0.021457 0.007692 -19062.300000 0 0 1
16.352367 23.172903 -19.095949 34.191207 0.956277 2.163378 0.027472 0.010609 133574.000000 0 0 1
16.216767 23.166903 -20.493249 34.923662 0.960072 2.197899 0.028286 0.015376 38707.000000 0 0 1
16.614267 21.821703 -21.152549 34.635977 0.920062 2.227754 0.036403 0.015509 -186105.000000 0 0 1
15.591667 20.864503 -21.036349 33.480674 0.929037 2.250179 0.052543 0.011949 156943.000000 0 0 1
16.009267 19.717303 -21.676049 33.390414 0.888817 2.277289 0.050325 0.001240 19575.800000 0 0 1
14.835667 18.725403 -21.791049 32.335546 0.900784 2.310276 0.044051 -0.001826 -743615.000000 0 0 1
14.565367 18.103803 -20.555549 31.023027 0.893289 2.295068 0.042513 -0.002055 360276.000000 0 0 1
13.573767 17.068103 -20.579649 29.984817 0.898946 2.327235 0.036040 -0.007930 655791.000000 0 0 1
12.111967 17.544003 -20.851149 29.820500 0.966558 2.345105 0.029335 -0.002206 -540038.000000 0 0 1
11.228267 16.910403 -19.936949 28.452024 0.984652 2.347205 0.026688 0.004724 -758536.000000 0 0 1
9.940967 17.232803 -20.388549 28.486580 1.047563 2.368458 0.023111 0.003432 -628191.000000 0 0 1
8.858567 16.825703 -19.384649 27.154063 1.086182 2.365815 0.028789 -0.006242 -567418.000000 0 0 1
8.746567 15.426703 -19.177649 26.120257 1.055013 2.395293 0.031689 -0.015242 -120781.000000 0 0 1
7.475967 15.060003 -18.692549 25.141702 1.110023 2.409067 0.044847 -0.015302 123795.000000 0 0 1
7.207867 15.309003 -17.170949 24.107269 1.130760 2.363527 0.040365 -0.020967 -45106.500000 0 1 0
7.194067 16.701503 -16.761849 24.731648 1.164071 2.315493 0.036815 -0.014594 -298201.000000 0 1 0
6.545367 16.831703 -15.520349 23.812377 1.199920 2.280721 0.037488 -0.022483 -50294.800000 0 1 0
6.256867 18.314303 -15.192449 24.604321 1.241590 2.236320 0.022363 -0.010023 505979.000000 0 1 0
7.397967 19.146703 -14.911449 25.370800 1.202083 2.199060 0.015304 -0.006290 402466.000000 0 0 1
7.987667 19.833703 -15.980149 26.693516 1.187937 2.212615 0.030967 -0.002374 504722.000000 0 0 1
9.169767 20.813603 -15.607149 27.583941 1.155815 2.172206 0.024701 0.008228 122174.000000 0 0 1
8.989767 22.026603 -14.882649 28.062081 1.183299 2.129807 0.033675 0.007960 -305794.000000 0 0 1
8.629367 21.787803 -13.547649 27.068674 1.193688 2.094963 0.016329 0.002920 -298099.000000 0 0 1
8.405967 23.025003 -12.705749 27.608823 1.220751 2.049024 0.033283 0.002213 -391844.000000 0 0 1
7.107467 23.503703 -12.961549 27.765841 1.277141 2.056484 0.021771 0.006042 -140170.000000 0 0 1
6.545567 24.462103 -12.039849 28.039203 1.309342 2.014617 0.014930 0.002714 274964.000000 0 0 1
6.026567 23.951903 -10.696649 26.915265 1.324302 1.979499 0.008785 -0.008021 -112099.000000 0 0 1
7.055467 23.850803 -9.696449 26.695722 1.283182 1.942519 0.006583 -0.006659 363561.000000 0 0 1
6.679167 23.099303 -8.568449 25.526602 1.289323 1.913110 0.010537 -0.019457 238300.000000 0 0 1
7.790467 23.158503 -7.466649 25.549139 1.246290 1.867372 0.014147 -0.021469 401849.000000 0 0 1
7.806467 24.464403 -6.898949 26.590288 1.261915 1.833253 0.005185 -0.020104 182192.000000 0 0 1
8.669767 24.503603 -5.774049 26.625759 1.230726 1.789393 0.008093 -0.016300 18143.000000 0 0 1
8.905167 25.919103 -5.186549 27.892691 1.239856 1.757831 0.004895 -0.014764 34798.400000 0 0 1
9.567267 26.772503 -6.093549 29.076294 1.227585 1.781933 0.016566 -0.014378 -127457.000000 0 0 1
9.639767 28.034103 -5.604149 30.170226 1.239603 1.757632 0.017313 -0.017888 153500.000000 0 0 1
9.809167 29.104503 -6.749149 31.445872 1.245720 1.787107 0.027744 -0.012306 707528.000000 0 0 1
11.124067 29.157003 -7.305749 32.050736 1.206319 1.800761 0.025589 -0.013936 168976.000000 0 0 1
11.166067 30.378603 -8.016249 33.343677 1.218561 1.813588 0.036578 -0.014863 -101665.000000 0 0 1
12.470767 30.580103 -8.805649 34.178973 1.183578 1.831369 0.035380 -0.017830 -363593.000000 0 0 1
13.531167 30.823103 -7.947549 34.587855 1.157132 1.802647 0.030999 -0.006152 -287991.000000 0 0 1
14.709867 31.209003 -8.679149 35.576814 1.130343 1.817239 0.029396 -0.007846 1838230.000000 0 0 1
15.991767 31.542803 -7.789649 36.212756 1.101575 1.787599 0.033804 -0.008148 1470810.000000 0 0 1
16.737367 30.395803 -7.301949 35.459311 1.067456 1.778205 0.031758 -0.004858 491272.000000 0 0 1
17.831467 30.877103 -6.504649 36.244547 1.047087 1.751240 0.037700 -0.001232 564489.000000 0 0 1
18.877667 29.813303 -6.114849 35.813276 1.006325 1.742380 0.036048 -0.006206 -243487.000000 0 0 1
18.515567 28.937903 -5.099749 34.730907 1.001598 1.718165 0.039689 -0.011624 -8357.890000 0 0 1
19.548267 27.986203 -4.814049 34.475170 0.961080 1.710892 0.038714 -0.011982 16794.000000 0 0 1
19.622267 26.723603 -5.773249 33.652856 0.937440 1.743202 0.032259 -0.003879 -135379.000000 0 0 1
20.075367 27.012803 -7.078749 34.392159 0.931675 1.778103 0.026350 -0.002661 133825.000000 0 0 1
19.787567 25.965103 -7.929449 33.594799 0.919607 1.809077 0.028170 -0.006424 -642586.000000 0 0 1
20.333967 26.324303 -9.357349 34.554292 0.913087 1.845022 0.023428 -0.010383 228460.000000 0 0 1
21.746467 26.255003 -9.469949 35.382396 0.879048 1.841745 0.032345 -0.015158 165608.000000 0 0 1
22.312267 24.976503 -9.492049 34.810371 0.841678 1.846973 0.046718 -0.019516 -12427.700000 0 0 1
23.869667 24.928803 -9.281049 35.739951 0.807099 1.833490 0.030862 -0.012792 949452.000000 0 0 1
24.584567 25.293503 -10.451849 36.788631 0.799611 1.858870 0.037738 -0.016945 645647.000000 0 0 1
25.982367 25.454603 -10.158249 37.765199 0.775138 1.843135 0.030691 -0.008552 1108670.000000 0 0 1
26.896667 25.386403 -11.412649 38.705926 0.756520 1.870100 0.041634 -0.007625 185808.000000 0 0 1
26.795367 26.612503 -12.111149 39.659765 0.781974 1.881130 0.036180 -0.011571 -38878.000000 0 0 1
27.684667 26.505803 -13.197349 40.536014 0.763648 1.902412 0.054361 -0.018255 58758.100000 0 0 1
27.396467 27.468903 -14.370949 41.371865 0.786718 1.925551 0.059310 -0.020353 50100.600000 0 0 1
27.714167 28.826803 -14.146249 42.416695 0.805074 1.910817 0.051785 -0.016135 -24021.800000 0 0 1
27.749267 29.547603 -15.343949 43.341890 0.816774 1.932664 0.049458 -0.015442 -252471.000000 0 0 1
28.106767 31.022703 -15.230449 44.546212 0.834673 1.919737 0.047777 -0.012713 151416.000000 0 0 1
29.377667 31.158503 -14.613449 45.248785 0.814807 1.899649 0.056178 -0.014245 48619.800000 0 0 1
29.854667 32.445103 -14.986049 46.567881 0.826954 1.898438 0.047147 -0.010904 -80024.400000 0 0 1
15.552767 -32.475443 -28.229659 45.754307 -1.124164 2.235700 0.049189 -0.021526 844110.000000 0 0 1
16.703367 -33.213643 -27.705129 46.365102 -1.104826 2.211229 0.037451 -0.014212 1265050.000000 0 0 1
17.259367 -32.541843 -26.600959 45.436421 -1.083145 2.196237 0.035156 -0.018799 -961978.000000 0 0 1
18.402267 -33.283643 -25.861119 45.991758 -1.065735 2.167960 0.002924 -0.007584 455933.000000 0 0 1
19.716067 -32.939543 -26.282569 46.524297 -1.031441 2.171134 0.015778 -0.011875 460164.000000 0 0 1
20.022867 -33.464343 -27.551939 47.748160 -1.031602 2.185879 0.029688 -0.014571 -755757.000000 0 0 1
21.468667 -33.191143 -28.075569 48.484979 -0.996660 2.188368 0.045563 -0.013638 425721.000000 0 0 1
21.714867 -31.825543 -28.422239 47.877179 -0.972042 2.206382 0.050593 -0.024202 -139067.000000 0 0 1
22.950767 -31.399743 -27.912209 47.872466 -0.939617 2.193278 0.027455 -0.014582 -329273.000000 0 0 1
23.488067 -30.149043 -28.650789 47.765278 -0.908952 2.214078 0.018368 -0.012365 -193162.000000 0 0 1
24.043167 -30.431143 -29.901759 48.971865 -0.902131 2.227602 0.026807 -0.027516 -218874.000000 0 0 1
24.326567 -29.226843 -30.562319 48.785710 -0.876647 2.247800 0.028075 -0.033912 134521.000000 0 0 1
24.859067 -29.425643 -31.989849 50.071869 -0.869323 2.263836 0.030549 -0.026523 384900.000000 0 0 1
26.019467 -30.199543 -32.236699 51.266264 -0.859615 2.250817 0.038848 -0.035270 -71790.900000 0 0 1
26.265367 -30.260343 -33.599689 52.292418 -0.855956 2.268598 0.035143 -0.035221 -741122.000000 0 0 1
27.377367 -31.120043 -34.161338 53.711957 -0.849291 2.260113 0.037037 -0.030636 -139093.000000 0 0 1
28.610567 -30.418443 -33.962809 53.826746 -0.816016 2.253593 0.029268 -0.034857 -479485.000000 0 0 1
29.646067 -31.129043 33.865756 54.724729 -0.809794 0.903533 0.020776 -0.012583 -610622.000000 0 0 1
30.907067 -30.264943 33.860073 54.933761 -0.774902 0.906659 0.020598 -0.019465 -506617.000000 0 0 1
30.808067 -29.120743 33.077807 53.770772 -0.757250 0.908203 0.022009 -0.015799 410008.000000 0 0 1
32.083367 -28.506743 32.808188 54.021792 -0.726437 0.918121 0.016356 -0.015030 665971.000000 0 0 1
32.079267 -27.286743 31.792451 52.767467 -0.704844 0.924165 0.009733 -0.020068 -423809.000000 0 0 1
33.379267 -27.107843 31.273871 53.170157 -0.682085 0.941984 0.000410 -0.013703 211143.000000 0 0 1
33.310967 -26.170643 30.209601 52.030213 -0.665927 0.951311 0.008376 -0.011153 -11483.000000 0 0 1
33.986367 -26.657743 28.882981 51.960898 -0.665135 0.981399 0.008579 -0.000287 -79390.000000 0 0 1
33.363767 -27.714043 28.161041 51.713183 -0.693160 0.994929 0.004650 -0.010911 117176.000000 0 0 1
32.327167 -27.259143 27.311681 50.339194 -0.700549 0.997323 0.010200 -0.012455 -106548.000000 0 0 1
31.759067 -28.414743 26.491011 50.177780 -0.729878 1.014620 0.005328 -0.006995 581646.000000 0 0 1
30.476067 -28.096943 25.929101 48.893222 -0.744802 1.011817 0.017093 -0.000452 520825.000000 0 0 1
30.052667 -29.033843 24.979191 48.683537 -0.768157 1.032012 0.022382 -0.001784 -42702.200000 0 0 1
28.619967 -28.801343 24.460231 47.401717 -0.788557 1.028598 0.027335 -0.000530 -8166.790000 0 0 1
27.611967 -28.731443 25.438101 47.275929 -0.805264 1.002642 0.023745 0.004606 -460963.000000 0 0 1
26.427267 -28.259343 24.862711 45.990709 -0.818887 0.999643 0.033228 0.008683 118662.000000 0 0 1
25.236467 -28.066343 25.845591 45.744873 -0.838439 0.970370 0.038865 0.002096 96286.300000 0 0 1
25.328067 -27.043243 26.791131 45.723218 -0.818137 0.944755 0.037017 0.003276 -413719.000000 0 0 1
24.176667 -26.999843 27.588061 45.547819 -0.840508 0.920158 0.044497 -0.003808 -260254.000000 0 0 1
23.971567 -25.764543 28.538871 45.309103 -0.821432 0.889410 0.053447 0.003031 -100151.000000 0 0 1
22.753567 -25.765143 29.272231 45.148985 -0.847389 0.865384 0.067143 -0.000663 452530.000000 0 0 1
22.625967 -24.737243 30.203921 45.123634 -0.829945 0.837450 0.065940 0.005814 -314694.000000 0 0 1
21.866967 -23.499043 29.707221 43.736578 -0.821358 0.824083 0.066119 -0.002509 -529741.000000 0 0 1
22.542567 -22.755143 28.715531 43.017968 -0.790091 0.839918 0.068474 -0.006757 110324.000000 0 0 1
22.143367 -21.419943 28.602121 42.038363 -0.768793 0.822513 0.058482 -0.001143 43691.700000 0 0 1
23.072067 -20.492743 29.435851 42.646712 -0.726261 0.808996 0.062899 0.000323 110990.000000 0 0 1
22.751367 -20.416943 30.781111 43.381482 -0.731374 0.781944 0.065266 0.000784 -23869.300000 0 0 1
23.637167 -19.549243 31.457401 43.936962 -0.691022 0.772789 0.057657 -0.005198 -152578.000000 0 0 1
23.239567 -19.269543 32.890885 44.645303 -0.692276 0.742596 0.085325 -0.006922 -167325.000000 0 0 1
23.464067 -20.362643 33.730349 45.857781 -0.714750 0.744329 0.062331 -0.006316 163924.000000 0 0 1
22.889067 -20.063443 -33.458129 45.231599 -0.719708 2.403431 0.063283 -0.008405 -17539.900000 0 0 1
22.803267 -21.221843 -32.391269 44.939402 -0.749493 2.375718 0.044125 -0.000184 15714.500000 0 0 1
24.010867 -21.386743 -31.685049 45.142628 -0.727659 2.348840 0.032007 0.005426 -212094.000000 0 0 1
23.765067 -22.208143 -30.535159 44.613630 -0.751545 2.324626 0.035962 -0.003530 -375601.000000 0 0 1
25.013667 -22.590843 -29.757469 44.961502 -0.734547 2.294071 0.017701 0.001830 -719058.000000 0 0 1
25.857367 -23.471943 -30.430779 46.320275 -0.737079 2.287582 0.010228 0.002695 -721237.000000 0 0 1
26.850267 -23.938743 -29.543129 46.548864 -0.728135 2.258377 0.010734 -0.004459 330118.000000 0 0 1
28.011867 -24.716043 -30.279469 48.087355 -0.722973 2.251933 0.008594 -0.006448 -66959.200000 0 0 1
28.886167 -23.853343 -30.981209 48.613043 -0.690258 2.261789 0.005894 -0.001005 -40615.000000 0 0 1
28.560767 -23.694443 -32.368559 49.242945 -0.692540 2.288058 0.006747 -0.004664 19671.100000 0 0 1
29.087967 -24.909443 -33.206089 50.687617 -0.708168 2.285128 0.005775 -0.014160 -457059.000000 0 0 1
28.336767 -26.051143 -33.019619 50.714196 -0.743398 2.279819 0.020791 -0.018158 -570029.000000 0 0 1
28.660167 -27.236643 -33.702329 51.952737 -0.759937 2.276686 0.025779 -0.023854 -280886.000000 0 0 1
28.258767 -27.345943 33.262694 51.505003 -0.768983 0.868706 0.022376 -0.014552 -402692.000000 0 0 1
28.888667 -26.416643 32.412345 50.822772 -0.740730 0.879220 -0.000634 -0.016873 -149352.000000 0 0 1
28.424567 -26.502543 31.078491 49.761565 -0.750420 0.896244 0.009827 -0.013811 5956.610000 0 0 1
29.394367 -25.756143 30.051071 49.299843 -0.719525 0.915295 0.011260 -0.017479 223424.000000 0 0 1
29.532067 -24.342943 30.079351 48.677399 -0.689377 0.904686 0.008244 -0.014080 59722.700000 0 0 1
29.942267 -23.780143 31.315021 49.423325 -0.671194 0.884588 0.007084 -0.007918 -1518320.000000 0 0 1
30.346567 -22.278343 31.159351 48.868638 -0.633267 0.879399 -0.000681 -0.007239 976509.000000 0 0 1
31.662367 -22.063343 30.629821 49.269488 -0.608596 0.899912 -0.007856 -0.009865 1738550.000000 0 0 1
32.776967 -22.599443 31.415251 50.714715 -0.603638 0.902754 -0.006219 -0.010426 480962.000000 0 0 1
34.178367 -22.100943 30.956801 51.136444 -0.574006 0.920558 -0.001328 -0.014624 251530.000000 0 0 1
34.536867 -22.598943 29.679521 50.836811 -0.579422 0.947371 -0.000153 -0.011630 235507.000000 0 0 1
35.796867 -22.047343 29.333081 51.263346 -0.552030 0.961606 -0.001805 -0.014873 130281.000000 0 0 1
36.115967 -22.426643 27.862081 50.829252 -0.555690 0.990645 0.016469 -0.009871 -255865.000000 0 0 1
-36.087548 -23.795143 27.606481 51.289743 0.582936 1.002442 0.019090 -0.006310 223251.000000 0 0 1
-35.790748 -23.995543 26.231971 50.446803 0.590610 1.023954 0.016800 0.003258 -260455.000000 0 0 1
-35.524848 -25.466543 25.906881 50.810689 0.621956 1.035762 0.013593 -0.005974 -1244740.000000 0 0 1
35.737767 -26.239343 26.039241 51.417246 -0.633324 1.039757 0.018330 -0.001114 -985419.000000 0 0 1
35.869767 -27.545843 25.578421 51.958341 -0.654884 1.056081 0.021697 0.003247 -161232.000000 0 0 1
-35.680448 -28.555143 26.374261 52.764497 0.674925 1.047372 0.032830 -0.008240 -903461.000000 0 0 1
-35.443248 -29.824643 25.726961 52.986882 0.699525 1.063822 0.033874 -0.006039 1076310.000000 0 0 1
-34.395248 -30.638743 26.349871 53.066763 0.727700 1.051186 0.050487 -0.019252 1058560.000000 0 0 1
-32.975548 -30.031743 26.356951 51.807154 0.738710 1.037063 0.063085 -0.016744 -1023710.000000 0 0 1
-32.513148 -29.921043 25.066971 50.800852 0.743905 1.054761 0.067403 -0.016743 -490168.000000 0 0 1
-31.235448 -29.332943 25.059871 49.639418 0.753998 1.041602 0.049090 -0.012777 -148899.000000 0 0 1
-30.669048 -29.333443 23.614151 48.566135 0.763143 1.063030 0.030525 -0.007797 -353234.000000 0 0 1
-30.385348 -30.616943 23.186751 48.972359 0.789195 1.077575 0.035795 -0.012337 511427.000000 0 0 1
-29.756248 -30.618843 21.893351 47.981941 0.799684 1.096983 0.027510 -0.009535 -567671.000000 0 0 1
-29.981048 -31.943743 21.043651 48.601452 0.817082 1.122996 0.032729 -0.008784 186929.000000 0 0 1
-29.168648 -33.111743 21.313051 49.004527 0.848626 1.120847 0.042973 -0.023168 785477.000000 0 0 1
-27.776948 -32.826543 21.130651 47.912891 0.868528 1.114059 0.045431 -0.019217 42369.300000 0 0 1
-26.878748 -34.034543 21.317951 48.324654 0.902337 1.113927 0.036209 -0.006940 -520416.000000 0 0 1
-26.862548 33.700003 20.170351 47.582872 -0.897821 1.133050 0.026490 -0.007678 -26410.100000 0 0 1
-27.977548 32.834403 20.043051 47.566428 -0.865096 1.135841 0.038127 -0.006441 92372.300000 0 0 1
-28.129448 31.642703 21.033751 47.275206 -0.844108 1.109710 0.040926 -0.001153 273472.000000 0 0 1
-26.986948 30.779103 21.046251 46.028178 -0.850951 1.095899 0.024457 0.002558 250695.000000 0 0 1
-27.033948 29.645303 21.926351 45.721364 -0.831438 1.070638 0.030842 -0.003595 -117540.000000 0 0 1
-26.069048 28.492703 21.541651 44.220720 -0.829789 1.061985 0.027792 0.003807 -1134540.000000 0 0 1
-24.778948 28.914303 21.683751 43.820294 -0.862265 1.053153 0.025976 -0.004247 -1250950.000000 0 0 1
-23.898248 28.168003 20.806551 42.396641 -0.867221 1.057835 0.029663 -0.001495 272325.000000 0 0 1
-22.451648 28.638903 21.057951 42.044031 -0.905915 1.046210 0.020125 -0.003956 -157868.000000 0 0 1
-22.005948 28.362703 22.396651 42.312109 -0.910939 1.012997 0.022195 -0.009154 -62894.700000 0 0 1
-20.710548 28.818403 22.665551 42.108839 -0.947658 1.002424 0.040570 -0.009624 -252708.000000 0 0 1
-20.328848 28.862603 24.154231 42.775446 -0.957169 0.970757 0.035534 -0.001241 -415366.000000 0 0 1
-19.930948 27.631903 24.684621 42.072500 -0.945916 0.943798 0.043219 -0.018504 331011.000000 0 0 1
-19.973448 27.672503 26.103271 42.966112 -0.945602 0.917847 0.055363 -0.014846 291562.000000 0 0 1
-18.584848 28.005803 26.754181 42.959373 -0.984915 0.898507 0.056507 -0.011114 -363600.000000 0 0 1
-18.185448 29.276103 26.443181 43.440102 -1.014956 0.916341 0.035079 -0.009046 104656.000000 0 0 1
-16.802548 29.501203 26.657211 43.165420 -1.053064 0.905160 0.039023 -0.008732 90238.300000 0 0 1
-16.400448 29.758703 28.124401 44.108242 -1.067098 0.879388 0.033927 -0.002273 -659882.000000 0 0 1
-16.516448 28.570803 28.862871 43.842321 -1.046644 0.852194 0.038222 -0.004828 11003.800000 0 0 1
-16.399548 28.732803 30.240251 44.821779 -1.052154 0.830268 0.035505 0.002670 -71973.200000 0 0 1
-16.596348 27.418003 31.084561 44.647906 -1.026483 0.800685 0.028372 0.003098 -1111310.000000 0 0 1
-15.366148 26.882203 31.372531 44.079553 -1.051513 0.778845 0.029761 0.011467 -794756.000000 0 0 1
-15.344948 25.728403 32.248961 44.016061 -1.033013 0.748569 0.039304 0.007623 -284940.000000 0 0 1
-15.675848 25.985103 33.732887 45.374722 -1.027981 0.732613 0.033179 0.011787 499563.000000 0 0 1
-17.068048 26.083803 34.008866 46.133350 -0.991366 0.741900 0.030944 0.006243 84003.200000 0 0 1
-17.409848 26.901003 -33.340449 46.242321 -0.996405 2.376032 0.044064 -0.001096 329417.000000 0 0 1
-18.827948 26.582203 -32.753009 46.193773 -0.954527 2.358925 0.023759 -0.001115 272915.000000 0 0 1
-19.718048 26.684103 -33.843629 47.394451 -0.934409 2.366111 0.021361 0.001637 -909232.000000 0 0 1
-20.983148 26.273803 -33.439459 47.421542 -0.896889 2.353436 0.042757 -0.007072 -566154.000000 0 0 1
-22.044948 26.128503 33.882372 48.132042 -0.869964 0.789858 0.041264 -0.019965 -276733.000000 0 0 1
-21.925048 25.001103 32.989009 46.840554 -0.850856 0.789384 0.049829 -0.009786 -78138.700000 0 0 1
-21.912548 23.751603 33.525536 46.564578 -0.825650 0.767024 0.056168 -0.017397 -217805.000000 0 0 1
-22.255048 22.703003 32.388489 45.384223 -0.795362 0.776100 0.069143 -0.021915 68069.500000 0 0 1
-23.573848 22.897703 31.916201 45.811297 -0.770850 0.800025 0.076340 -0.028751 -20682.700000 0 0 1
-23.661148 22.245103 30.633091 44.643933 -0.754561 0.814593 0.087718 -0.030472 526492.000000 0 0 1
-25.149348 21.957603 30.290121 45.079013 -0.717746 0.833979 0.074574 -0.025088 580360.000000 0 0 1
-25.720348 20.751503 30.769181 45.154220 -0.678881 0.821089 0.081803 -0.033252 -117505.000000 0 0 1
-27.082448 20.697303 30.420981 45.686687 -0.652548 0.842149 0.065785 -0.026784 -60175.300000 0 0 1
-27.770248 19.330903 30.704181 45.690449 -0.608105 0.833884 0.080700 -0.029130 -227511.000000 0 0 1
-28.216548 19.194203 32.024771 46.799326 -0.597345 0.817153 0.072084 -0.026684 112835.000000 0 0 1
-28.618548 17.941203 32.533866 46.897339 -0.559970 0.804148 0.054268 -0.016052 343082.000000 0 0 1
-29.635148 16.990403 31.832621 46.692949 -0.520570 0.820653 0.031644 -0.017099 -19298.600000 0 0 1
-30.996848 17.319403 31.826671 47.683364 -0.509534 0.840006 0.039931 -0.019516 -276817.000000 0 0 1
-31.755248 16.261403 31.254971 47.431025 -0.473269 0.851366 0.058935 -0.009259 -235137.000000 0 0 1
-33.263748 16.507503 31.366331 48.608860 -0.460652 0.869406 0.052225 -0.014992 -653682.000000 0 0 1
-33.674948 16.565803 32.686169 49.767595 -0.457173 0.854261 0.051928 -0.011362 31425.800000 0 0 1
-35.068848 16.555603 32.871151 50.837236 -0.441070 0.867683 0.063834 -0.019422 -223731.000000 0 0 1
-35.473148 16.991503 -34.157559 52.094090 -0.446704 2.285892 0.056588 -0.008365 -386255.000000 0 0 1
35.522767 16.877903 -33.945299 51.952034 0.443554 2.282859 0.053058 -0.016236 -547502.000000 0 0 1
35.166167 17.521603 -32.711909 51.124699 0.462248 2.265094 0.038389 -0.018961 666896.000000 0 0 1
33.644767 17.519803 -32.374449 49.870019 0.480093 2.277298 0.046874 -0.021125 458201.000000 0 0 1
33.008867 16.266403 -32.437059 49.054500 0.457862 2.293274 0.045652 -0.021770 1546920.000000 0 0 1
31.617867 16.481903 -32.000989 47.910395 0.480530 2.302226 0.039285 -0.022584 1352720.000000 0 0 1
30.759267 15.237603 -32.069809 46.976480 0.459947 2.322218 0.034536 -0.028736 -459529.000000 0 0 1
30.154467 15.127403 -33.345269 47.434556 0.464978 2.350367 0.042626 -0.028583 557345.000000 0 0 1
29.437967 13.840803 -33.599129 46.766047 0.439499 2.372370 0.032699 -0.026344 53299.000000 0 0 1
30.359367 12.699203 -33.990799 47.311048 0.396179 2.372373 0.039066 -0.019109 -329128.000000 0 0 1
31.089767 12.270103 -32.885049 46.888756 0.375900 2.348075 0.047601 -0.020603 -531953.000000 0 0 1
32.026467 11.330003 -33.313839 47.580200 0.340029 2.346420 0.071507 -0.025450 -381236.000000 0 0 1
17.613367 -21.180297 10.036481 29.318367 -0.877087 1.221403 0.006880 -0.007724 -98822.600000 0 0 1
17.388867 -22.409497 10.682581 30.309665 -0.910887 1.210611 0.005881 -0.009615 691961.000000 0 0 1
18.577467 -23.070397 11.168281 31.655900 -0.892862 1.210232 0.001048 -0.010212 681775.000000 0 0 1
18.217967 -24.477797 11.772881 32.705620 -0.930976 1.202566 0.011882 -0.011720 -39875.400000 0 0 1
17.585867 -25.378217 10.912581 32.747535 -0.964817 1.231065 0.024684 -0.013058 -187465.000000 0 0 1
16.252867 -25.619527 11.304981 32.377746 -1.005470 1.214123 0.032190 -0.011262 -110227.000000 0 0 1
15.437167 -26.489407 10.340081 32.356021 -1.043144 1.245518 0.037010 -0.009495 -47378.600000 0 0 1
15.105167 -25.971837 9.086781 31.389042 -1.044018 1.277103 0.030815 -0.012068 -43113.200000 0 0 1
14.307067 -26.750727 8.247681 31.437522 -1.079675 1.305338 0.048563 -0.002901 -275468.000000 0 0 1
14.214767 -26.035597 6.895781 30.454289 -1.071049 1.342385 0.052180 -0.006408 -196762.000000 0 0 1
13.519467 -24.822297 7.046781 29.130388 -1.072070 1.326468 0.053483 -0.017150 13217.900000 0 0 1
13.040967 -24.349197 5.795481 28.223001 -1.079091 1.363979 0.054858 -0.009615 195805.000000 0 0 1
12.304867 -22.958197 5.899581 26.707557 -1.078790 1.348064 0.058134 -0.010309 125172.000000 0 0 1
11.757567 -22.476797 4.654781 25.789800 -1.088842 1.389312 0.053590 -0.007134 83043.700000 0 0 1
11.115967 -21.235897 4.957381 24.476594 -1.088564 1.366850 0.063251 -0.010996 1793.150000 0 1 0
10.155467 -20.719497 3.911381 23.403631 -1.115067 1.402881 0.048614 -0.012857 666.023000 0 1 0
10.902267 -20.038497 2.894881 22.995241 -1.072520 1.444571 0.041085 -0.008156 436842.000000 0 1 0
10.073867 -19.467597 1.898081 22.001655 -1.093272 1.484419 0.021711 -0.001419 -6013.440000 0 1 0
10.950967 -19.086897 0.713381 22.016862 -1.049908 1.538389 0.024321 0.001924 -127156.000000 0 1 0
11.699267 -17.944797 0.940781 21.442333 -0.993045 1.526907 0.020733 0.002828 -136947.000000 0 1 0
12.352167 -17.553297 -0.306019 21.465971 -0.957595 1.585053 0.023508 -0.002884 68609.000000 0 1 0
13.701967 -16.843597 -0.167319 21.713559 -0.887888 1.578502 0.036504 0.007598 -190995.000000 0 1 0
14.669167 -17.464697 0.617481 22.816252 -0.872176 1.543730 0.043658 0.001396 652917.000000 0 1 0
15.961367 -16.807097 0.514681 23.184232 -0.811202 1.548595 0.056137 -0.003561 1005350.000000 0 1 0
17.036367 -17.572497 1.286081 24.508865 -0.800888 1.518298 0.049394 0.003479 -407147.000000 0 1 0
17.622067 -18.566997 0.516581 25.603466 -0.811503 1.550619 0.061786 -0.002808 257978.000000 0 0 1
18.720467 -19.170597 1.208681 26.822166 -0.797277 1.525718 0.050016 0.005552 741655.000000 0 0 1
19.255367 -20.535597 0.688981 28.159449 -0.817561 1.546327 0.041143 0.003411 257606.000000 0 0 1
18.230167 -21.509697 0.803181 28.207289 -0.867737 1.542318 0.047816 0.000735 85969.200000 0 0 1
18.474467 -22.733097 0.059881 29.293399 -0.888378 1.568752 0.057095 -0.007158 -26971.500000 0 0 1
17.339967 -23.785897 0.144181 29.435763 -0.940870 1.565898 0.049650 -0.001241 -30735.400000 0 0 1
17.371767 -24.490297 1.377381 30.057447 -0.953834 1.524955 0.038783 -0.002821 -701988.000000 0 0 1
16.166767 -25.101557 1.661481 29.903395 -0.998612 1.515206 0.037610 -0.004076 -1081340.000000 0 0 1
16.230967 -25.760697 3.080581 30.603068 -1.008562 1.469963 0.025867 0.004131 113978.000000 0 0 1
17.049567 -26.875937 3.407181 32.009570 -1.005480 1.464152 0.037728 -0.003901 395689.000000 0 0 1
18.381567 -26.415727 3.645881 32.387730 -0.962856 1.457987 0.022534 0.000513 -316737.000000 0 0 1
19.472067 -27.449107 3.847481 33.873559 -0.953797 1.456967 0.025769 -0.001568 -395972.000000 0 0 1
19.980467 -27.826907 2.551981 34.352124 -0.948074 1.496439 0.054784 0.004327 -379086.000000 0 0 1
21.007467 -28.782797 2.636181 35.731114 -0.940309 1.496951 0.076313 0.003650 -357782.000000 0 0 1
20.719067 -30.244267 2.988681 36.782164 -0.970169 1.489453 0.070495 0.000540 -315617.000000 0 0 1
20.380967 -30.537437 4.310481 36.966189 -0.982280 1.453924 0.073898 -0.005927 -297623.000000 0 0 1
19.897667 -31.846087 4.349981 37.802285 -1.012336 1.455469 0.065297 -0.021665 -345847.000000 0 0 1
19.450567 -32.302367 5.724181 38.138350 -1.028804 1.420137 0.071788 -0.026810 -73282.900000 0 0 1
20.438167 -32.871847 6.578181 39.262571 -1.014535 1.402459 0.061512 -0.028576 181162.000000 0 0 1
19.838167 -33.406587 7.735081 39.615456 -1.034919 1.374280 0.062049 -0.025922 -241511.000000 0 0 1
20.773767 -34.265711 8.562381 40.975635 -1.025790 1.360282 0.049909 -0.028460 187362.000000 0 0 1
21.787367 -33.551607 9.286081 41.068613 -0.994865 1.342713 0.046040 -0.024576 979413.000000 0 0 1
22.833967 34.153691 9.741281 42.222710 0.981481 1.337987 0.066834 -0.028444 536439.000000 0 0 1
23.871767 -33.648417 10.527181 42.578149 -0.953758 1.320962 0.062824 -0.023651 17450.600000 0 0 1
24.808067 -32.899837 9.717981 42.335312 -0.924709 1.339183 0.060221 -0.021134 466168.000000 0 0 1
25.589067 -32.091037 10.589881 42.388449 -0.897649 1.318292 0.064662 -0.013987 31813.300000 0 0 1
26.305567 -31.027207 9.791581 41.839520 -0.867568 1.334579 0.054832 -0.018724 468198.000000 0 0 1
25.384067 -29.974577 9.406381 40.389431 -0.868132 1.335746 0.048424 -0.021300 693730.000000 0 0 1
25.844867 -29.388857 8.217381 39.989841 -0.849474 1.363835 0.055820 -0.021667 -57880.600000 0 0 1
25.407367 -27.903807 8.232681 38.625558 -0.832192 1.356008 0.037659 -0.018339 -176399.000000 0 0 1
26.135367 -27.146647 9.161281 38.780496 -0.804376 1.332308 0.044902 -0.022685 -191732.000000 0 0 1
25.708367 -25.788657 9.278781 37.577530 -0.786957 1.321292 0.031736 -0.019779 388208.000000 0 0 1
26.613467 -24.911197 10.248181 37.866470 -0.752372 1.296739 0.049366 -0.031263 537213.000000 0 0 1
27.929267 -24.640997 9.843081 38.524134 -0.722930 1.312427 0.069744 -0.034006 -761289.000000 0 0 1
28.624667 -23.894697 10.779281 38.813928 -0.695579 1.289380 0.053761 -0.037874 -650138.000000 0 0 1
30.069467 -23.666097 10.372681 39.646557 -0.666793 1.306087 0.067285 -0.039983 -371295.000000 0 0 1
30.114367 -22.849997 9.242181 38.915490 -0.649093 1.331011 0.084458 -0.038242 -371780.000000 0 0 1
31.442567 -22.750997 8.780681 39.791246 -0.626372 1.348296 0.083235 -0.046786 141410.000000 0 0 1
31.732767 -22.036597 7.482281 39.351806 -0.606987 1.379493 0.083431 -0.027403 -436269.000000 0 0 1
31.327967 -20.703297 7.521281 38.296706 -0.583970 1.373116 0.090268 -0.015406 -119088.000000 0 0 1
31.539167 -20.171997 6.271481 37.959979 -0.569019 1.404822 0.081831 -0.017078 19941.200000 0 0 1
31.113167 -18.674697 6.139781 36.803130 -0.540580 1.403185 0.090144 -0.013013 144547.000000 0 0 1
31.821667 -17.765497 6.955881 37.102771 -0.509180 1.382204 0.096202 -0.005113 84999.400000 0 0 1
31.346167 -16.429797 6.783181 36.035149 -0.482773 1.381429 0.094930 0.000732 195750.000000 0 0 1
31.902967 -15.535897 7.903481 36.354207 -0.453172 1.351644 0.092335 -0.028253 310132.000000 0 0 1
33.309067 -15.365097 7.945281 37.532754 -0.432202 1.357493 0.082798 -0.020843 -183877.000000 0 0 1
33.705967 -14.757897 9.107781 37.905664 -0.412698 1.328147 0.074665 -0.031836 -1107600.000000 0 0 1
35.193367 -14.912497 9.257681 39.327602 -0.400795 1.333167 0.057915 -0.036539 -933200.000000 0 0 1
35.971467 -13.960297 8.548281 39.521000 -0.370200 1.352776 0.065213 -0.018602 -319684.000000 0 0 1
-35.055648 -14.360797 8.499881 38.824978 0.388804 1.350080 0.057250 -0.022471 99089.400000 0 0 1
-34.122648 -13.242497 8.019781 37.470464 0.370193 1.355098 0.057327 -0.017179 -433833.000000 0 0 1
-34.503148 -12.891597 6.680381 37.433781 0.357574 1.391377 0.076217 -0.019087 558483.000000 0 0 1
-33.413548 -12.589197 5.783681 36.171868 0.360321 1.410213 0.059096 -0.007873 171153.000000 0 0 1
-32.536148 -13.746997 5.342681 35.722893 0.399764 1.420674 0.037264 0.000923 -870462.000000 0 0 1
-31.687648 -14.066997 6.397281 35.254966 0.417792 1.388328 0.047877 -0.000718 -512238.000000 0 0 1
-30.883348 -15.140197 5.881581 34.894122 0.455808 1.401433 0.037067 0.010521 196826.000000 0 0 1
-30.127448 -15.802997 7.052581 34.743873 0.483085 1.366388 0.030851 -0.007036 -496298.000000 0 0 1
-31.064748 -16.481397 7.820581 36.025220 0.487788 1.351968 0.037788 -0.015315 -246045.000000 0 0 1
-30.697748 -16.687297 9.188481 36.128185 0.497916 1.313641 0.029552 -0.019168 246276.000000 0 0 1
-31.847948 -17.367397 9.978681 37.623029 0.499245 1.302356 0.013677 -0.017557 -862533.000000 0 0 1
-33.015248 -16.563597 10.099681 38.293118 0.465003 1.303892 0.042411 -0.016322 -216691.000000 0 0 1
-33.948448 -17.110297 10.966481 39.566691 0.466849 1.289955 0.054829 -0.018785 -469921.000000 0 0 1
-34.671448 -18.412797 10.490881 40.634947 0.488190 1.309665 0.057941 -0.026227 -1815510.000000 0 0 1
-33.945448 -19.591797 10.284881 40.520497 0.523453 1.314170 0.051158 -0.025704 -614990.000000 0 0 1
-33.337648 -20.123697 11.482481 40.598144 0.543086 1.284050 0.060249 -0.035655 -428379.000000 0 0 1
-34.276148 -20.820397 12.496681 42.006074 0.545866 1.268726 0.075846 -0.044761 61195.600000 0 0 1
-34.623448 -22.178097 12.155681 42.876703 0.569704 1.283351 0.079401 -0.046561 -610151.000000 0 0 1
-35.930448 -22.299297 11.695781 43.875358 0.555446 1.300966 0.078723 -0.045532 -677766.000000 0 0 1
-36.131848 -23.736597 11.272881 44.676776 0.581241 1.315718 0.078606 -0.042246 -76255.100000 0 0 1
-36.120548 -24.602097 12.425981 45.435252 0.597936 1.293779 0.088915 -0.031625 42052.800000 0 0 1
35.610767 -25.835117 12.215881 45.659695 -0.627627 1.299955 0.085477 -0.020656 509738.000000 0 0 1
34.325567 -25.895877 13.117381 44.954495 -0.646324 1.274696 0.094684 -0.034752 1206100.000000 0 0 1
33.271467 -24.963197 12.786481 43.516041 -0.643686 1.272561 0.087609 -0.032777 238137.000000 0 0 1
32.134167 -25.045697 13.588381 42.948058 -0.662059 1.248874 0.075023 0.000862 -380756.000000 0 0 1
31.543967 -23.675397 14.009881 41.854785 -0.643854 1.229482 0.079850 -0.006180 358384.000000 0 0 1
32.335567 -22.902497 14.963581 42.355897 -0.616259 1.209719 0.091849 -0.010674 310523.000000 0 0 1
33.512267 -22.370497 14.370781 42.778856 -0.588601 1.228202 0.078075 -0.024519 560460.000000 0 0 1
34.632167 -21.847297 15.344481 43.728074 -0.562787 1.212257 0.079630 -0.026184 380355.000000 0 0 1
34.557567 -20.526997 15.973681 43.252069 -0.535992 1.192523 0.103562 -0.017019 -240160.000000 0 0 1
33.584267 -20.389697 16.969181 42.797147 -0.545639 1.163092 0.085233 -0.014290 -269648.000000 0 0 1
33.568867 -18.970897 17.607081 42.388360 -0.514388 1.142441 0.084882 -0.003961 -365036.000000 0 0 1
33.333067 -17.919597 16.705381 41.367560 -0.493267 1.155099 0.068767 -0.010972 49438.700000 0 0 1
33.372767 -16.590897 17.223881 41.056808 -0.461356 1.137887 0.047745 -0.002491 663240.000000 0 0 1
34.724667 -15.961397 17.738681 42.133472 -0.430855 1.136236 0.056965 -0.014067 572727.000000 0 0 1
35.225467 -16.321297 19.000781 43.223234 -0.433890 1.115647 0.045633 0.007226 -24798.500000 0 0 1
-35.959848 -15.616197 19.276781 43.687190 0.409694 1.113810 0.059974 -0.007712 -110008.000000 0 0 1
-35.548848 -15.624697 20.778581 44.040903 0.414111 1.079463 0.042387 0.006019 -164269.000000 0 0 1
-34.812548 -16.769197 21.153181 44.051975 0.448901 1.069929 0.060437 0.011031 93223.800000 0 0 1
-34.427948 -16.721597 22.497381 44.396256 0.452141 1.039397 0.048458 0.012304 -226085.000000 0 0 1
-33.532548 -17.882697 22.924081 44.381709 0.489926 1.028013 0.054001 0.012288 -531830.000000 0 0 1
-34.117448 -19.161597 22.701181 45.238376 0.511733 1.045103 0.045087 0.008906 464061.000000 0 0 1
-33.473448 -20.293297 23.362981 45.586385 0.545003 1.032704 0.043814 0.010299 230482.000000 0 0 1
-32.251648 -20.924897 22.626281 44.609065 0.575532 1.038849 0.041997 0.015700 83707.600000 0 0 1
-31.113548 -20.116397 22.656181 43.428387 0.573945 1.021965 0.043530 0.016540 -208359.000000 0 0 1
-29.940148 -20.831197 22.318181 42.760407 0.607876 1.021678 0.053500 0.017145 -98204.700000 0 0 1
-28.669148 -19.989597 22.313081 41.465378 0.608879 1.002599 0.064492 0.018578 -384767.000000 0 0 1
-28.176848 -19.550797 23.543481 41.598845 0.606593 0.969193 0.045979 0.008420 -537946.000000 0 0 1
-27.112848 -18.699097 23.349281 40.372660 0.603764 0.954099 0.067262 0.005805 -758175.000000 0 0 1
-26.758348 -18.091797 24.749181 40.692066 0.594517 0.916997 0.064258 -0.002926 -549947.000000 0 0 1
-25.705748 -17.151897 24.739881 39.585790 0.588399 0.895705 0.061260 -0.005216 232312.000000 0 0 1
-25.267248 -16.592097 25.991081 39.865622 0.581046 0.860620 0.055033 -0.016336 321840.000000 0 0 1
-24.141748 -17.254497 26.818181 39.996956 0.620534 0.835906 0.053543 -0.011853 -160347.000000 0 0 1
-24.492848 -18.545197 27.283181 41.087661 0.648073 0.844609 0.058364 -0.011174 1024090.000000 0 0 1
-23.475148 -19.164897 28.147881 41.360356 0.684656 0.822280 0.063560 -0.017661 965645.000000 0 0 1
-24.139148 -20.407597 28.766981 42.740001 0.701826 0.832445 0.057626 -0.009129 -63143.200000 0 0 1
-25.125848 -20.211697 29.741381 43.867649 0.677429 0.825785 0.043020 -0.015574 -141648.000000 0 0 1
-25.480048 -21.374997 30.347381 45.023181 0.698010 0.831133 0.030059 -0.013914 -583804.000000 0 0 1
-26.710048 -21.221597 31.237481 46.255411 0.671389 0.829390 0.020713 -0.009136 -871103.000000 0 0 1
-26.315648 -20.613497 32.474481 46.604951 0.664485 0.799865 0.029864 -0.015121 1006450.000000 0 0 1
-27.411548 -20.331897 33.362881 47.726940 0.638186 0.796747 0.028177 -0.020154 539574.000000 0 0 1
-28.587948 -19.432997 32.927781 47.740453 0.597014 0.809687 0.020435 -0.022565 -42471.900000 0 0 1
-29.478848 -20.068397 32.006181 47.918041 0.597705 0.839364 0.034528 -0.026074 128784.000000 0 0 1
-30.778948 -19.559197 32.137581 48.607920 0.566095 0.848433 0.047850 -0.036359 -175386.000000 0 0 1
-31.873448 -20.096697 31.196581 48.918509 0.562556 0.879255 0.045022 -0.008099 -245445.000000 0 0 1
-32.039648 -19.455497 29.981881 47.999673 0.545720 0.896143 0.044419 -0.023811 1030830.000000 0 0 1
-33.207448 -19.991397 29.318481 48.600040 0.541900 0.923213 0.039700 -0.020386 547627.000000 0 0 1
-33.646248 -19.241097 28.108281 47.878651 0.519475 0.943357 0.029286 -0.010349 -488058.000000 0 0 1
-34.731248 -19.777097 27.415481 48.466501 0.517640 0.969565 0.010756 0.000558 -109685.000000 0 0 1
-35.273048 -18.851397 26.464881 47.957825 0.490820 0.986231 0.020633 0.004916 -568149.000000 0 0 1
35.989867 -19.471597 25.649481 48.293990 -0.495930 1.010885 0.003934 0.005454 421938.000000 0 0 1
34.792667 -19.691497 26.441281 47.931473 -0.515019 0.986458 -0.001818 0.004329 1116700.000000 0 0 1
33.681967 -20.180397 25.685681 46.919905 -0.539791 0.991498 0.018934 0.007380 570468.000000 0 0 1
32.551867 -20.615597 26.657781 46.853646 -0.564557 0.965557 0.018085 -0.007590 52063.300000 0 0 1
31.896867 -19.584897 27.406081 46.390426 -0.550655 0.938783 0.016776 -0.010349 116312.000000 0 0 1
30.991567 -20.250297 28.247181 46.566672 -0.578771 0.919024 0.015396 -0.005231 -259312.000000 0 0 1
-30.298763 -5.667397 34.185167 46.029991 0.184914 0.733745 0.028271 -0.016622 55641.900000 0 0 1
-30.769273 -5.878397 32.879729 45.413437 0.188773 0.761200 0.028082 -0.002650 199669.000000 0 0 1
-30.564193 -4.700797 32.078701 44.556823 0.152605 0.767066 0.027818 -0.003223 12024.900000 0 0 1
-31.214093 -4.875197 30.663751 44.026728 0.154934 0.800316 0.029101 -0.004465 69259.200000 0 0 1
-30.875073 -5.990397 29.798181 43.325357 0.191639 0.812374 0.021047 -0.005653 793583.000000 0 0 1
-29.535623 -5.798697 29.270551 41.985034 0.193863 0.799359 0.027652 -0.007123 891151.000000 0 0 1
-29.169783 -6.663897 28.060351 41.020325 0.224598 0.817483 0.030855 -0.007971 -175341.000000 0 0 1
-29.851213 -6.337097 26.864181 40.656339 0.209184 0.848962 0.034317 -0.004885 92647.400000 0 0 1
-29.382773 -7.205397 25.818741 39.772760 0.240480 0.864322 0.048619 -0.004273 132939.000000 0 0 1
-30.029643 -6.895997 24.459651 39.339659 0.225726 0.899814 0.034044 -0.000177 -74798.100000 0 0 1
-29.566903 -5.680397 23.896921 38.438672 0.189807 0.899898 0.036660 -0.000466 733272.000000 0 0 1
-30.493763 -5.129897 22.909451 38.484131 0.166667 0.933162 0.049643 -0.000149 773273.000000 0 0 1
-29.908253 -3.782597 22.338951 37.521199 0.125805 0.933072 0.050916 -0.007648 444290.000000 0 0 1
-28.685123 -3.976197 21.656751 36.161600 0.137738 0.928684 0.062929 -0.007939 -198762.000000 0 0 1
-28.202753 -2.748897 21.227551 35.405658 0.097162 0.927854 0.071649 -0.008285 313031.000000 0 0 1
-26.763093 -2.752797 20.632151 33.904671 0.102498 0.916584 0.075122 -0.005885 134855.000000 0 0 1
-26.507173 -3.538797 19.481051 33.085717 0.132719 0.941216 0.091954 -0.012094 -716787.000000 0 0 1
-25.314033 -3.120497 18.902651 31.746622 0.122653 0.933005 0.077711 -0.015225 -833312.000000 0 0 1
-25.094563 -3.766597 17.535251 30.844925 0.148984 0.966118 0.080872 -0.021652 458615.000000 0 0 1
-26.051693 -3.276197 16.550251 31.037638 0.125101 1.008380 0.084497 -0.018299 752660.000000 0 0 1
-25.821783 -3.830197 15.312351 30.263889 0.147258 1.040300 0.084568 -0.024805 -26903.700000 0 0 1
-27.117253 -4.028297 14.490051 31.008614 0.147473 1.084572 0.095157 -0.026498 159880.000000 0 0 1
-27.568643 -2.790797 13.971851 31.032745 0.100887 1.103774 0.102526 -0.030902 339748.000000 0 0 1
-28.853363 -2.895497 13.358351 31.927199 0.100017 1.139113 0.094980 -0.028222 47261.500000 0 0 1
-29.255383 -1.685997 12.529051 31.870004 0.057567 1.166763 0.094630 -0.020920 -298029.000000 0 0 1
-28.547303 -1.517097 11.325351 30.749206 0.053093 1.193602 0.102856 -0.024608 -52749.300000 0 0 1
-28.946443 -0.357497 10.577351 30.820525 0.012350 1.220483 0.105199 -0.017674 1259820.000000 0 0 1
-30.297053 -0.565697 9.752751 31.833121 0.018670 1.259418 0.102802 -0.016137 1141910.000000 0 0 1
-30.092413 -1.317997 8.587451 31.321474 0.043770 1.293068 0.087559 -0.019255 -380999.000000 0 0 1
-31.269973 -1.801897 8.014351 32.330912 0.057560 1.320300 0.097808 -0.019134 -437485.000000 0 0 1
-31.071193 -2.369297 6.568051 31.846066 0.076107 1.363062 0.095960 -0.015161 -257220.000000 0 0 1
-30.489123 -1.531697 5.611051 31.038953 0.050195 1.389022 0.109477 -0.022643 859718.000000 0 0 1
-31.448403 -0.538097 5.185351 31.877570 0.017109 1.407406 0.113529 -0.020713 169727.000000 0 0 1
-31.139973 0.056103 3.828451 31.374482 -0.001802 1.448467 0.110910 -0.030136 -338625.000000 0 0 1
-31.384523 -0.901197 2.755151 31.518111 0.028707 1.483270 0.114880 -0.030254 434966.000000 0 0 1
-30.865653 -0.521597 1.468651 30.904976 0.016897 1.523257 0.108408 -0.036970 -162357.000000 0 0 1
-31.636563 -1.064797 0.249551 31.655461 0.033644 1.562913 0.109780 -0.032318 807208.000000 0 0 1
-32.899123 -0.417697 -0.045949 32.901807 0.012696 1.572193 0.107135 -0.027924 917663.000000 0 0 1
-33.524723 -1.044897 -1.112949 33.559463 0.031158 1.603966 0.117991 -0.025549 -713909.000000 0 0 1
-35.007133 -0.700997 -1.214149 35.035196 0.020022 1.605458 0.130567 -0.030481 -687845.000000 0 0 1
-35.814503 -1.259997 -0.212849 35.837293 0.035167 1.576736 0.113498 -0.021801 433807.000000 0 0 1
35.175891 -1.181397 -0.525749 35.199651 -0.033573 1.585733 0.104654 -0.022644 622676.000000 0 0 1
34.313221 -2.373197 0.041351 34.395216 -0.069053 1.569594 0.095014 -0.023605 -142888.000000 0 0 1
34.164621 -2.508497 1.456851 34.287553 -0.073292 1.528294 0.092490 -0.025450 223879.000000 0 0 1
33.357451 -3.613697 1.769451 33.599245 -0.107912 1.518109 0.085133 -0.019024 -230346.000000 0 0 1
33.639861 -4.162097 3.217051 34.048681 -0.123100 1.476171 0.090242 -0.014368 255280.000000 0 0 1
32.994081 -3.332297 4.187151 33.425227 -0.100655 1.445197 0.087751 -0.015475 304008.000000 0 0 1
33.081051 -3.907497 5.490751 33.760521 -0.117574 1.407432 0.078869 -0.014222 -114317.000000 0 0 1
32.581511 -2.912097 6.529551 33.356711 -0.089142 1.373775 0.078153 -0.014000 -160158.000000 0 0 1
31.190671 -2.722897 6.532051 31.983430 -0.087078 1.365117 0.077207 -0.015929 -235479.000000 0 0 1
30.817351 -1.458497 7.118551 31.662440 -0.047292 1.344032 0.087629 -0.020673 -138241.000000 0 0 1
29.355571 -1.439597 7.580451 30.352680 -0.049001 1.318379 0.087866 -0.017821 -767387.000000 0 0 1
28.387381 -1.234697 6.588551 29.168080 -0.043467 1.342948 0.090444 -0.019476 175904.000000 0 0 1
27.085981 -1.218497 7.157751 28.042262 -0.044956 1.312691 0.093204 -0.013700 409648.000000 0 0 1
26.282181 -2.553197 7.218151 27.374688 -0.096842 1.303961 0.107149 -0.028738 -266150.000000 0 0 1
26.876881 -3.468697 8.139251 28.295688 -0.128349 1.279024 0.101045 -0.032702 764666.000000 0 0 1
26.284881 -4.766097 7.966451 27.876065 -0.179376 1.280975 0.107325 -0.034864 -14245.700000 0 0 1
26.641981 -5.746097 9.087851 28.729807 -0.212424 1.248947 0.101921 -0.037348 -59308.800000 0 0 1
25.872981 -5.487597 10.256251 28.367508 -0.209000 1.200867 0.108968 -0.037470 605395.000000 0 0 1
26.252781 -6.411497 11.230051 29.264822 -0.239533 1.176955 0.098255 -0.027909 -123884.000000 0 0 1
25.327681 -6.267297 12.483451 28.924159 -0.242576 1.124539 0.095222 -0.026666 748811.000000 0 0 1
24.017281 -6.625397 11.981451 27.645629 -0.269165 1.122541 0.110627 -0.032938 64328.000000 0 0 1
23.116881 -6.194797 12.974851 27.223380 -0.261826 1.074005 0.117782 -0.037142 286147.000000 0 0 1
22.051881 -7.321997 13.309851 26.777774 -0.320582 1.050602 0.104035 -0.037331 382622.000000 0 0 1
22.568681 -8.491697 13.905151 27.835364 -0.359875 1.047717 0.090863 -0.028897 213382.000000 0 0 1
21.549281 -9.495997 14.026251 27.409509 -0.415063 1.033600 0.124582 -0.048218 235523.000000 0 0 1
21.993781 -10.785397 14.775351 28.607030 -0.455925 1.028045 0.104524 -0.043360 -149756.000000 0 0 1
21.932781 -10.669097 16.189651 29.274243 -0.452745 0.984795 0.106375 -0.040644 233280.000000 0 0 1
22.053481 -11.953097 16.775551 30.177005 -0.496684 0.981345 0.084614 -0.033016 -125350.000000 0 0 1
21.927081 -11.975397 18.313251 30.977123 -0.499880 0.938267 0.089642 -0.025146 230194.000000 0 0 1
20.592681 -11.838397 18.806551 30.296741 -0.521747 0.901104 0.098806 -0.026932 268703.000000 0 0 1
20.492681 -12.346897 20.083251 31.236722 -0.542258 0.872469 0.107751 -0.014977 243330.000000 0 0 1
21.051281 -11.357497 21.163351 31.938011 -0.494758 0.846460 0.086011 -0.017218 106828.000000 0 0 1
20.182781 -10.309797 21.582051 31.295710 -0.472267 0.809836 0.084711 -0.022879 96594.200000 0 0 1
20.001381 -9.208697 20.714251 30.231366 -0.431471 0.815931 0.082079 -0.017296 -652738.000000 0 0 1
21.026181 -8.064297 20.927251 30.742202 -0.366233 0.822033 0.068378 0.002206 429138.000000 0 0 1
22.397881 -8.365197 20.777151 31.675410 -0.357439 0.855370 0.068944 -0.007569 206324.000000 0 0 1
22.884781 -8.646897 19.457651 31.258314 -0.361262 0.898890 0.065483 -0.008677 -1784010.000000 0 0 1
24.292781 -9.129697 19.426151 32.417062 -0.359489 0.928224 0.066426 -0.011415 -1139360.000000 0 0 1
24.366581 -10.467897 19.926551 33.171894 -0.405761 0.926413 0.047499 -0.014519 -420506.000000 0 0 1
25.656381 -10.993197 19.752251 34.194322 -0.404813 0.954953 0.040059 -0.017620 -51543.600000 0 0 1
25.648681 -12.470397 20.175851 34.934661 -0.452547 0.955095 0.016485 -0.007969 -67979.100000 0 0 1
24.858881 -13.195897 19.284151 34.117065 -0.488008 0.970079 0.049478 -0.020608 -149245.000000 0 0 1
24.972681 -14.602897 19.472451 34.871990 -0.529134 0.978343 0.039523 -0.011989 -261526.000000 0 0 1
23.769781 -15.353497 18.876551 34.015533 -0.573505 0.982507 0.057772 -0.017413 -345286.000000 0 0 1
23.635881 -15.280997 17.493351 33.138815 -0.573923 1.014693 0.038140 -0.019460 -569956.000000 0 0 1
22.631181 -16.038597 16.909851 32.486151 -0.616538 1.023331 0.050523 -0.025341 -693236.000000 0 0 1
22.675681 -17.620597 17.016651 33.380209 -0.660602 1.035864 0.033603 -0.025845 15529.600000 0 0 1
23.760381 -18.165797 16.252551 34.039643 -0.652743 1.073035 0.029328 -0.015048 460908.000000 0 0 1
23.851781 -19.547197 16.476951 34.964128 -0.686535 1.080085 0.019921 -0.011815 -475085.000000 0 0 1
25.145681 -20.172697 15.975651 35.978666 -0.676101 1.110704 0.019040 0.006900 -545614.000000 0 0 1
25.237881 -20.362197 14.577351 35.553746 -0.678880 1.148333 0.017363 -0.006695 -183658.000000 0 0 1
26.352581 -21.175297 14.324851 36.715842 -0.676894 1.169997 0.021298 -0.009031 -227730.000000 0 0 1
26.614981 -21.265397 12.818251 36.398927 -0.674132 1.210918 0.022979 -0.030709 -540380.000000 0 0 1
25.484481 -21.732497 12.156951 35.630768 -0.706102 1.222611 0.020647 -0.022658 -288932.000000 0 0 1
25.583281 -21.439797 10.786851 35.078844 -0.697509 1.258229 0.044400 -0.018120 529165.000000 0 0 1
24.184781 -21.568197 10.104751 33.944023 -0.728271 1.268526 0.003727 -0.013277 450719.000000 0 0 1
23.636881 -22.852797 10.169351 34.414650 -0.768534 1.270823 0.003719 -0.012599 -239787.000000 0 0 1
22.368381 -22.952597 9.575451 33.449296 -0.798288 1.280467 -0.016933 -0.002996 -73013.300000 0 0 1
22.287781 -24.100697 8.518651 33.913953 -0.824459 1.316893 -0.010348 -0.002231 -350438.000000 0 0 1
22.200981 -25.425797 9.038951 34.943631 -0.853005 1.309149 -0.008050 -0.002967 -5135.100000 0 0 1
21.981481 -26.368387 7.993851 35.247397 -0.875883 1.342013 0.001593 -0.004083 -234219.000000 0 0 1
20.519781 -26.714717 7.643951 34.542257 -0.915807 1.347656 0.000340 0.003192 337510.000000 0 0 1
19.792881 -25.531497 7.176151 33.092486 -0.911340 1.352208 -0.000566 0.009363 -660088.000000 0 0 1
18.440281 -25.727547 7.415051 32.510515 -0.948915 1.340689 0.011913 -0.003458 -523932.000000 0 0 1
17.574581 -24.459997 7.619751 31.067957 -0.947760 1.323008 0.012259 -0.000570 -100290.000000 0 0 1
17.368281 -23.819397 6.356151 30.156616 -0.940763 1.358432 0.029869 -0.002918 -16148.600000 0 0 1
16.547481 -22.699797 6.562751 28.847350 -0.940891 1.341288 0.041004 -0.007366 -208609.000000 0 0 1
16.072481 -22.074997 5.265751 27.809320 -0.941469 1.380294 0.053683 0.000205 88227.500000 0 0 1
15.279981 -20.880997 5.422651 26.436698 -0.939068 1.364212 0.074242 -0.003962 460842.000000 0 0 1
14.929481 -20.302297 4.173651 25.543923 -0.936731 1.406669 0.068322 -0.004857 264137.000000 0 0 1
14.311281 -18.877997 4.156751 24.051405 -0.922136 1.397096 0.080333 0.000414 -43573.700000 0 1 0
15.265581 -17.914897 4.415351 23.947376 -0.865075 1.385358 0.066641 -0.000100 -256795.000000 0 1 0
14.659781 -16.642797 4.329651 22.597295 -0.848664 1.378004 0.053386 0.003710 162155.000000 0 1 0
15.648981 -15.487697 4.528751 22.478188 -0.780218 1.367935 0.048078 0.003025 -364705.000000 0 1 0
16.230081 -15.249597 5.788251 23.010206 -0.754262 1.316513 0.066972 -0.006402 184950.000000 0 1 0
17.106981 -14.130097 5.678351 22.903102 -0.690385 1.320254 0.060627 -0.014667 257807.000000 0 1 0
18.591981 -14.566497 5.749451 24.308450 -0.664588 1.332013 0.063899 -0.009402 243481.000000 0 1 0
19.588581 -13.574297 5.500151 24.458653 -0.605992 1.343981 0.069813 -0.014986 -27948.400000 0 1 0
20.829281 -14.171197 5.249251 25.733954 -0.597416 1.365373 0.062145 -0.005575 -316110.000000 0 0 1
21.921181 -13.073597 5.218251 26.051627 -0.537762 1.369128 0.062226 -0.007131 -256372.000000 0 0 1
22.228381 -12.439697 6.441451 26.274308 -0.510208 1.323110 0.087938 -0.015523 -540153.000000 0 0 1
23.372381 -11.691097 6.506651 26.931142 -0.463816 1.326779 0.093311 -0.018747 -887482.000000 0 0 1
23.600781 -10.884997 7.786651 27.131383 -0.432140 1.279705 0.105877 -0.023055 -79258.400000 0 0 1
23.852581 -11.629597 8.989751 28.018008 -0.453647 1.244163 0.092756 -0.016309 269080.000000 0 0 1
23.567381 -10.882997 10.168851 27.879501 -0.432609 1.197440 0.113484 -0.029501 -40706.600000 0 0 1
23.783781 -11.780097 11.443151 28.903021 -0.459880 1.163732 0.084280 -0.016001 21038.000000 0 0 1
22.917681 -12.880397 11.617551 28.741820 -0.512031 1.154688 0.088898 -0.020495 343591.000000 0 0 1
23.437481 -13.622597 12.721351 29.945340 -0.526505 1.132034 0.082113 -0.018313 377653.000000 0 0 1
22.505681 -14.832897 12.939151 29.898865 -0.582727 1.123240 0.058214 -0.020387 1501830.000000 0 0 1
21.223381 -14.488597 13.547951 29.049928 -0.599001 1.085616 0.068824 -0.029843 1060580.000000 0 0 1
20.393981 -15.643997 13.687651 29.120455 -0.654349 1.081465 0.045916 -0.024520 455744.000000 0 0 1
19.007881 -15.202297 14.242951 28.200550 -0.674612 1.041346 0.047945 -0.030725 -425358.000000 0 0 1
19.011981 -14.664597 15.537251 28.599160 -0.657016 0.996462 0.054129 -0.031915 -184578.000000 0 0 1
18.688581 -13.348897 15.669751 27.802827 -0.620246 0.972056 0.079922 -0.041028 -816872.000000 0 0 1
17.193181 -13.084397 15.677151 26.694193 -0.650518 0.943094 0.067142 -0.038203 -562909.000000 0 0 1
16.473981 -13.532697 14.462251 25.762038 -0.687689 0.974746 0.063138 -0.034518 306763.000000 0 0 1
15.087281 -13.252397 14.457051 24.743855 -0.720742 0.946818 0.073787 -0.038804 442754.000000 0 1 0
14.620781 -11.739397 14.228751 23.538012 -0.676522 0.921657 0.054155 -0.030400 -296084.000000 0 1 0
15.011681 -10.846997 15.238551 23.983772 -0.625714 0.882310 0.051744 -0.016228 210241.000000 0 1 0
14.605681 -9.551297 14.864851 22.924157 -0.579143 0.865268 0.041773 -0.013004 -731828.000000 0 1 0
15.060581 -8.457997 15.834451 23.432640 -0.511704 0.828824 0.039224 -0.017339 -1042590.000000 0 1 0
16.432881 -8.351897 15.954051 24.378792 -0.470220 0.857377 0.040170 -0.026483 -776080.000000 0 1 0
17.017781 -9.024097 17.043151 25.719801 -0.487573 0.846449 0.061359 -0.027167 -737601.000000 0 0 1
18.534281 -8.950997 17.030451 26.714718 -0.449909 0.879556 0.077379 -0.032322 -318364.000000 0 0 1
19.176781 -7.734497 17.436051 27.047869 -0.383370 0.870248 0.070641 -0.032041 1012500.000000 0 0 1
20.444881 -7.518797 16.796351 27.507142 -0.352408 0.913956 0.068169 -0.021873 738500.000000 0 0 1
21.072181 -6.104997 17.141451 27.841284 -0.281998 0.907542 0.057706 -0.012043 -3663.180000 0 0 1
21.315681 -5.935997 18.499851 28.841615 -0.271599 0.874437 0.069450 -0.014240 197851.000000 0 0 1
21.735881 -4.642597 18.747551 29.077016 -0.210429 0.870094 0.072850 -0.008698 -416077.000000 0 0 1
-5.368633 -33.614943 -6.202319 34.601379 1.412424 1.751021 0.013062 -0.015886 -509896.000000 0 0 1
-5.811733 -32.279643 -6.400619 33.417354 1.392661 1.763523 0.010478 -0.015756 140455.000000 0 0 1
-5.576733 -31.557743 -5.239919 32.472263 1.395887 1.732871 0.014374 -0.014329 -155672.000000 0 0 1
-6.176933 -30.094543 -5.464619 31.204136 1.368357 1.746829 0.020348 -0.011781 1641190.000000 0 0 1
-7.580333 -29.907543 -5.187419 31.286290 1.322565 1.737370 0.013203 -0.010807 1166180.000000 0 0 1
-8.524733 -30.358143 -6.138519 32.124280 1.297041 1.763065 0.012149 -0.014180 -705447.000000 0 0 1
-9.955033 -30.066843 -5.762119 32.191921 1.251060 1.750759 0.036890 -0.009031 -665047.000000 0 0 1
-10.932633 -30.632743 -6.578319 33.183757 1.227993 1.770357 0.029605 -0.019010 165934.000000 0 0 1
-12.279533 -30.380143 -6.196519 33.348716 1.186678 1.757692 0.041423 -0.015393 701041.000000 0 0 1
-13.377333 -30.913643 -7.134119 34.431120 1.162395 1.779508 0.055991 -0.029106 147043.000000 0 0 1
-13.389233 -30.287543 -8.403519 34.164689 1.154556 1.819318 0.068260 -0.033436 816601.000000 0 0 1
-14.604433 -30.653843 -9.097219 35.152624 1.126181 1.832568 0.083331 -0.031258 851881.000000 0 0 1
-14.832533 -29.823643 -10.361219 34.882784 1.109278 1.872377 0.089841 -0.029423 -132781.000000 0 0 1
-15.247333 -28.421543 -10.218419 33.833140 1.078399 1.877611 0.096607 -0.029469 349116.000000 0 0 1
-14.205233 -27.514243 -9.862219 32.497471 1.094205 1.879135 0.082661 -0.023332 14449.000000 0 0 1
-14.619033 -26.089543 -9.705519 31.441652 1.060049 1.884605 0.081502 -0.013305 -120737.000000 0 0 1
-14.981533 -25.364543 -10.893819 31.408306 1.037281 1.925002 0.093842 -0.018949 261088.000000 0 0 1
-15.424033 -24.094643 -10.409919 30.443703 1.001381 1.919777 0.066868 -0.000236 -209864.000000 0 0 1
-15.996533 -23.168943 -11.522519 30.421332 0.966522 1.959257 0.069193 0.001625 34781.200000 0 0 1
-17.333633 -23.576343 -11.748719 31.533018 0.936826 1.952589 0.070614 -0.002517 -84570.400000 0 0 1
-17.740133 -23.239643 -13.053319 32.018471 0.918802 1.990709 0.067979 -0.012841 -685546.000000 0 0 1
-19.147333 -23.709743 -13.410219 33.295740 0.891455 1.985327 0.052670 -0.002398 -513079.000000 0 0 1
-19.401133 -25.095843 -13.580119 34.505434 0.912686 1.975302 0.084479 -0.009900 -7652.930000 0 0 1
-19.341233 -25.842743 -12.361419 34.564944 0.928307 1.936524 0.099611 -0.021614 -1047410.000000 0 0 1
-19.280433 -27.389043 -12.521519 35.758681 0.957426 1.928546 0.111805 -0.034999 390401.000000 0 0 1
-18.310133 -27.996943 -13.377219 36.028319 0.991611 1.951202 0.109017 -0.028995 1936930.000000 0 0 1
-16.897033 -27.737343 -13.038119 34.998036 1.023654 1.952539 0.104320 -0.032212 1912110.000000 0 0 1
-16.011433 -28.890943 -13.682119 35.752664 1.064732 1.963500 0.095817 -0.032083 113181.000000 0 0 1
-15.902633 -28.973443 -15.106319 36.339442 1.068822 1.999509 0.114041 -0.033128 -122935.000000 0 0 1
-15.374233 -30.159943 -15.704819 37.317966 1.099374 2.005165 0.115097 -0.037283 -15333.100000 0 0 1
-16.202333 -31.434743 -15.493619 38.609726 1.094883 1.983719 0.106769 -0.041739 -97691.300000 0 0 1
-16.334033 -31.827643 -14.140819 38.467678 1.096642 1.947226 0.103890 -0.040565 -51020.700000 0 0 1
-16.592833 -33.213243 -14.023719 39.687609 1.107481 1.931949 0.085408 -0.031463 -588857.000000 0 0 1
-17.237833 -33.537743 -12.640419 39.770634 1.096025 1.894239 0.101680 -0.036799 706569.000000 0 0 1
-18.606033 -33.220743 -12.364819 40.033623 1.060253 1.884791 0.120183 -0.036009 812356.000000 0 0 1
-19.120133 -31.889143 -12.483519 39.221617 1.030685 1.894713 0.123035 -0.038528 -186348.000000 0 0 1
-18.644333 -30.873043 -11.387519 37.821046 1.027512 1.876631 0.136072 -0.043471 -129065.000000 0 0 1
-19.031333 -31.210143 -10.078919 37.918983 1.023216 1.839831 0.131436 -0.046269 316026.000000 0 0 1
-18.414333 -30.310943 -9.150919 36.627589 1.024870 1.823308 0.124749 -0.038828 -227737.000000 0 0 1
-18.615033 -30.570143 -7.674219 36.605283 1.023838 1.782011 0.131093 -0.040412 317689.000000 0 0 1
-17.575733 -31.335943 -7.057619 36.614993 1.059638 1.764762 0.124344 -0.045134 244697.000000 0 0 1
-17.792233 -31.515143 -5.704219 36.637494 1.056842 1.727126 0.127466 -0.046602 -278984.000000 0 0 1
-16.944233 -32.641343 -5.052219 37.122625 1.091983 1.707315 0.121761 -0.038082 -17937.700000 0 0 1
-15.613033 -32.308543 -4.761719 36.197828 1.120640 1.702726 0.107471 -0.031716 -179224.000000 0 0 1
-15.504733 -31.811443 -3.456819 35.557197 1.117284 1.668169 0.084638 -0.029503 -362257.000000 0 0 1
-14.135733 -31.233743 -3.082819 34.421933 1.145800 1.660476 0.074819 -0.020670 -670252.000000 0 0 1
-13.033833 -32.059643 -3.079819 34.744594 1.184657 1.659554 0.034187 -0.017110 -251014.000000 0 0 1
-11.925633 -31.380443 -2.446119 33.659121 1.207620 1.643534 0.030795 -0.010045 578357.000000 0 0 1
-10.611933 -32.173843 -2.524919 33.972703 1.252201 1.645187 0.031992 -0.017048 -650665.000000 0 0 1
-10.592333 -33.392943 -1.799619 35.078837 1.263633 1.622121 0.044088 -0.016538 20571.600000 0 0 1
-9.344133 -34.075743 -1.855219 35.382354 1.303159 1.623254 0.036650 -0.023809 515128.000000 0 0 1
-8.288233 -33.541643 -0.839819 34.560699 1.328546 1.595099 0.043369 -0.023206 -221040.000000 0 0 1
-8.723733 -33.657343 0.483381 34.772891 1.317185 1.556895 0.056310 -0.021743 -163840.000000 0 0 1
-7.738333 -33.121643 1.329181 34.039562 1.341280 1.531738 0.059264 -0.029550 741400.000000 0 0 1
-6.601133 -34.028843 1.869281 34.713561 1.379190 1.516922 0.072133 -0.034507 341144.000000 0 0 1
-7.260733 33.623103 2.709381 34.504667 -1.358117 1.492193 0.091357 -0.037237 525736.000000 0 0 1
-6.408333 32.784503 3.510581 33.588905 -1.377762 1.466089 0.079405 -0.036056 119033.000000 0 0 1
-5.670633 33.399203 4.724981 34.205092 -1.402617 1.432216 0.072011 -0.030480 235955.000000 0 0 1
-4.577133 34.208303 4.331181 34.783865 -1.437785 1.445955 0.064098 -0.032533 -417719.000000 0 0 1
-3.879833 -33.902743 5.398981 34.548489 1.456852 1.413881 0.043170 -0.029466 233894.000000 0 0 1
-2.644233 -33.028143 5.024181 33.512574 1.490907 1.420310 0.056498 -0.025039 159406.000000 0 0 1
-2.972633 -31.700343 4.621881 32.173127 1.477297 1.426641 0.046284 -0.017962 136542.000000 0 0 1
-3.358833 -31.637143 3.248481 31.980357 1.465025 1.469043 0.050366 -0.025460 52088.400000 0 0 1
-3.929633 -30.243243 2.856681 30.630971 1.441586 1.477399 0.044013 -0.023176 -208214.000000 0 0 1
-2.917033 -29.322243 2.685681 29.589118 1.471641 1.479905 0.037090 -0.009404 -548217.000000 0 0 1
-3.444433 -28.171143 2.058781 28.455509 1.449132 1.498382 0.041213 -0.006506 197700.000000 0 0 1
-2.663333 -26.865943 2.264281 27.092420 1.471985 1.487123 0.038037 -0.010065 -345607.000000 0 0 1
-3.186133 -25.767143 1.607981 26.013126 1.447770 1.508943 0.045430 -0.015231 -467719.000000 0 0 1
-2.948233 -24.549743 2.318481 24.834599 1.451276 1.477303 0.031947 -0.011599 101840.000000 0 1 0
-4.085333 -24.192343 3.301381 24.755980 1.403506 1.437041 0.026376 -0.007015 -105269.000000 0 1 0
-4.052533 -25.025043 4.473181 25.742672 1.410251 1.396145 0.031884 -0.004480 84899.400000 0 0 1
-4.877933 -24.434643 5.472581 25.510687 1.373755 1.354595 0.012722 0.005157 84739.200000 0 0 1
-5.553633 -25.431543 6.460981 26.820711 1.355796 1.327508 0.024173 -0.003775 -102103.000000 0 0 1
-4.755733 -25.999143 7.467681 27.465227 1.389878 1.295434 0.020376 -0.002952 -427519.000000 0 0 1
-5.583733 -26.710443 8.333581 28.531990 1.364717 1.274397 0.025835 -0.003671 -81303.500000 0 0 1
-4.859633 -27.326443 9.516381 29.341303 1.394800 1.240489 0.016965 0.000988 -59536.800000 0 0 1
-4.415733 -26.408243 10.479381 28.752590 1.405119 1.197736 0.013350 -0.001329 171239.000000 0 0 1
-5.491333 -25.909543 11.283881 28.788629 1.361944 1.168039 0.021782 -0.003788 391026.000000 0 0 1
-5.048233 -24.963643 12.376581 28.316919 1.371264 1.118454 0.007149 0.001288 98820.800000 0 0 1
-4.091133 -25.538243 13.227281 29.049961 1.411950 1.098055 0.000037 -0.002781 -351502.000000 0 0 1
-3.490933 -24.558943 14.060581 28.513650 1.429597 1.055127 0.002817 -0.000007 -194140.000000 0 0 1
-2.405633 -25.109743 14.965681 29.330153 1.475283 1.035322 0.017669 -0.008540 -285738.000000 0 0 1
-2.921733 -25.699743 16.149781 30.493094 1.457595 1.012643 0.013517 -0.009355 -220445.000000 0 0 1
-1.871133 -26.315043 16.823381 31.289116 1.499811 1.003119 0.009610 -0.005935 -105860.000000 0 0 1
-2.306033 -26.813143 18.241981 32.512033 1.485004 0.975102 0.020010 -0.015650 153508.000000 0 0 1
-2.623433 -25.821243 19.177381 32.270590 1.469544 0.934441 0.016211 -0.012590 -35236.200000 0 0 1
-2.708033 -26.381443 20.460381 33.495391 1.468505 0.913673 0.035631 -0.019012 50566.900000 0 0 1
-3.054333 -25.327543 21.532381 33.383482 1.450783 0.869772 0.040997 -0.022373 -387606.000000 0 0 1
-2.432233 -25.602043 22.735081 34.325855 1.476079 0.846870 0.014879 -0.027330 -279343.000000 0 0 1
-2.528633 -24.581243 23.656581 34.209141 1.468288 0.807194 0.015779 -0.025666 -171287.000000 0 0 1
-1.813133 -23.235843 23.355581 32.995076 1.492922 0.784346 0.016831 -0.024146 -235399.000000 0 0 1
-2.327433 -22.412643 22.350181 31.737582 1.467323 0.789475 0.030380 -0.014925 338017.000000 0 0 1
-1.289933 -21.490843 21.911281 30.718472 1.510846 0.776610 0.025427 -0.020484 565987.000000 0 0 1
-1.819433 -20.186143 21.196081 29.326858 1.480906 0.763018 0.025330 -0.008003 -91473.900000 0 0 1
-2.568233 -19.205043 21.921381 29.257075 1.437858 0.723841 0.034934 -0.020717 257973.000000 0 0 1
-3.843133 -19.604043 22.389481 30.006284 1.377213 0.728521 0.041390 -0.021686 98485.800000 0 0 1
-5.052733 -19.368043 21.425481 29.320683 1.315604 0.751407 0.037808 -0.020452 107822.000000 0 0 1
-5.113533 -20.281443 20.314481 29.157560 1.323815 0.799990 0.048601 -0.013881 -252631.000000 0 0 1
-5.684033 -21.550643 20.664381 30.393340 1.312917 0.823172 0.034856 -0.007654 154282.000000 0 0 1
-5.750733 -22.432543 19.366981 30.188903 1.319844 0.874310 0.020761 -0.004598 169156.000000 0 0 1
-6.181733 -23.730143 19.549181 31.360868 1.315959 0.897761 0.026609 -0.006824 -443899.000000 0 0 1
-5.945033 -24.432543 18.332681 31.118801 1.332110 0.940828 0.030882 -0.006789 87423.600000 0 0 1
-6.593233 -25.821143 18.175081 32.257336 1.320796 0.972252 0.034843 -0.009994 942203.000000 0 0 1
-8.023633 -25.758343 18.104481 32.490663 1.268826 0.979761 0.050466 -0.017679 421537.000000 0 0 1
-8.611033 -26.931243 17.548881 33.277695 1.261328 1.015322 0.053034 -0.025029 -38273.300000 0 0 1
-10.146833 -26.918243 17.595981 33.721931 1.210317 1.021841 0.062945 -0.019544 -448010.000000 0 0 1
-10.743433 -26.020843 16.652881 32.708166 1.179238 1.036617 0.063124 -0.022528 -300710.000000 0 0 1
-12.125433 -25.867343 16.826881 33.155535 1.132456 1.038500 0.042554 -0.017630 -171074.000000 0 0 1
-12.617033 -25.019743 18.016081 33.313004 1.103728 0.999394 0.044257 -0.023888 -835500.000000 0 0 1
-12.380433 -23.641243 17.766181 32.059643 1.088385 0.983442 0.034815 -0.019177 -146596.000000 0 0 1
-12.791133 -22.825643 18.839181 32.241865 1.060015 0.946769 0.033616 -0.012702 -164531.000000 0 0 1
-11.702233 -22.345043 19.853781 32.100091 1.088364 0.903969 0.025250 -0.018035 305903.000000 0 0 1
-11.151733 -23.419743 20.597981 33.122837 1.126395 0.899673 0.028882 -0.017581 643375.000000 0 0 1
-9.808933 -23.702343 20.147781 32.618236 1.178418 0.905001 0.054441 -0.019601 543143.000000 0 0 1
-9.109333 -24.747443 21.000981 33.711380 1.218096 0.898270 0.053915 -0.019957 -129495.000000 0 0 1
-8.907833 -24.199643 22.246581 34.057049 1.218091 0.858973 0.046158 -0.013117 278352.000000 0 0 1
-7.934233 -24.933943 23.001481 34.838509 1.262718 0.849669 0.047066 -0.017847 477685.000000 0 0 1
-7.664733 -24.356243 24.425881 35.335512 1.265915 0.807571 0.051253 -0.026841 822583.000000 0 0 1
-6.628633 -24.899143 25.283981 36.099665 1.310612 0.794847 0.050263 -0.030686 481093.000000 0 0 1
-6.574133 -24.221743 26.532081 36.522095 1.305767 0.757630 0.044928 -0.024043 269007.000000 0 0 1
-5.497133 -24.730043 27.543481 37.422411 1.352067 0.743631 0.047022 -0.022130 271894.000000 0 0 1
-4.187433 -24.367643 27.183981 36.746231 1.400615 0.738059 0.046825 -0.019138 -1070690.000000 0 0 1
-3.282433 -24.441943 28.212381 37.471608 1.437300 0.718339 0.043381 -0.017444 310630.000000 0 0 1
-1.868333 -24.023243 27.668881 36.690242 1.493181 0.716482 0.033638 -0.020327 -479048.000000 0 0 1
-1.954733 -22.705843 27.083981 35.396587 1.484919 0.699510 0.036312 -0.019131 91831.400000 0 0 1
-0.723833 -22.117443 26.670881 34.656040 1.538081 0.692600 0.035601 -0.025474 91035.600000 0 0 1
0.226567 -21.809543 27.826681 35.355787 -1.560408 0.664788 0.037459 -0.023099 -1095860.000000 0 0 1
0.848867 -22.929043 28.326381 36.453333 -1.533792 0.680817 0.041036 -0.022336 -830208.000000 0 0 1
1.581167 -22.702643 29.452981 37.220803 -1.501262 0.657857 0.040872 -0.032167 -350827.000000 0 0 1
2.338967 -23.935343 30.034881 38.476818 -1.473385 0.675176 0.067161 -0.033762 -194277.000000 0 0 1
3.306167 -24.492243 29.154981 38.220592 -1.436619 0.703151 0.060986 -0.040174 481701.000000 0 0 1
4.097867 -25.503043 29.779881 39.421302 -1.411477 0.714492 0.067568 -0.032446 -80843.900000 0 0 1
5.322467 -25.004843 30.633481 39.899637 -1.361069 0.695453 0.067988 -0.033602 315288.000000 0 0 1
6.428067 -24.542143 29.869281 39.189422 -1.314631 0.704127 0.066052 -0.031055 -198222.000000 0 0 1
7.229567 -25.516743 29.327781 39.540986 -1.294706 0.735186 0.056429 -0.031083 -327596.000000 0 0 1
8.411667 -24.858143 28.519481 38.756215 -1.244505 0.743848 0.052883 -0.024505 598643.000000 0 0 1
7.881967 -24.340743 27.307881 37.420817 -1.257634 0.752839 0.065167 -0.030555 1064.830000 0 0 1
8.836567 -23.653343 26.583881 36.664265 -1.213266 0.759671 0.059389 -0.019926 -82334.200000 0 0 1
8.078867 -22.665743 25.648281 35.168712 -1.228400 0.753509 0.060850 -0.019244 44616.100000 0 0 1
7.390067 -23.152243 24.547481 34.542992 -1.261824 0.780395 0.066071 -0.012489 -202415.000000 0 0 1
7.004267 -22.080943 23.710481 33.148374 -1.263627 0.773767 0.074956 -0.009473 -40180.300000 0 0 1
6.589567 -22.611643 22.316481 32.445865 -1.287226 0.812333 0.068412 -0.009347 402206.000000 0 0 1
7.643567 -23.269543 21.600081 32.656688 -1.253421 0.848074 0.077180 -0.010323 448326.000000 0 0 1
7.229467 -23.464743 20.214181 31.803655 -1.271926 0.882020 0.089255 -0.007356 36128.300000 0 0 1
8.158967 -24.331843 19.355481 32.144082 -1.247258 0.924608 0.107413 -0.016847 -858766.000000 0 0 1
9.229967 -23.577043 18.939281 31.619071 -1.197655 0.928566 0.109140 -0.019655 -1393140.000000 0 0 1
9.983667 -24.334643 18.059681 31.906121 -1.181472 0.969120 0.113711 -0.022664 -416087.000000 0 0 1
11.395767 -23.809443 17.737981 31.802344 -1.124395 0.979115 0.099208 -0.023823 76314.000000 0 0 1
11.389167 -22.550743 17.032781 30.469079 -1.103120 0.977595 0.089278 -0.021906 -350114.000000 0 0 1
12.700467 -22.337443 16.584581 30.582864 -1.053806 0.997644 0.083280 -0.022061 -218032.000000 0 0 1
-12.333833 22.753303 11.479281 28.312720 -1.074063 1.153330 0.026521 -0.001890 -86746.000000 0 0 1
-13.279433 21.818903 11.035681 27.824344 -1.024062 1.162965 0.009366 -0.007985 239431.000000 0 0 1
-12.640033 20.545503 10.958181 26.494714 -1.019260 1.144393 0.029211 -0.012168 -113481.000000 0 0 1
-13.361933 19.698703 9.903081 25.780830 -0.974773 1.176536 0.034616 -0.016628 -64114.500000 0 0 1
-13.360333 20.333103 8.653081 25.822653 -0.989465 1.229089 0.035504 -0.028304 657831.000000 0 0 1
-14.172033 19.785403 7.573881 25.488672 -0.949223 1.269093 0.032247 -0.029139 1584670.000000 0 0 1
-15.745533 19.869903 7.515581 26.442746 -0.900688 1.282603 0.038982 -0.024719 1362250.000000 0 0 1
-16.428133 18.961903 8.403981 26.458727 -0.856872 1.247571 0.029077 -0.021101 864527.000000 0 0 1
-17.840233 19.172403 8.495081 27.532188 -0.821375 1.257127 0.030586 -0.017735 422302.000000 0 0 1
-18.522433 18.097203 9.370381 27.538942 -0.773787 1.223604 0.038875 -0.020972 -187267.000000 0 0 1
-18.645633 16.832103 8.795981 26.614820 -0.734325 1.233972 0.049589 -0.029848 176522.000000 0 0 1
-19.155633 15.866103 9.692681 26.694936 -0.691745 1.199214 0.059449 -0.031859 -227947.000000 0 0 1
-18.077733 15.205603 10.606881 25.894415 -0.699318 1.148758 0.050929 -0.023365 630942.000000 0 0 1
-17.207733 14.285203 9.880881 24.450050 -0.692864 1.154774 0.039355 -0.012263 461109.000000 0 1 0
-16.410833 13.489603 10.725381 23.797450 -0.688009 1.103253 0.023707 -0.012221 -84858.200000 0 1 0
-17.158233 12.422803 11.598981 24.150929 -0.626662 1.069833 0.022926 -0.005621 -112083.000000 0 1 0
-17.828433 11.502203 10.696981 23.760874 -0.572966 1.103815 0.007368 -0.006232 766933.000000 0 1 0
-18.800833 10.767903 11.479381 24.519283 -0.520131 1.083569 0.025516 -0.010971 613863.000000 0 1 0
-19.927033 10.028603 10.708881 24.745498 -0.466257 1.123243 0.033545 -0.007033 -37981.700000 0 1 0
-19.564733 8.848703 10.011881 23.692111 -0.424747 1.134503 0.031480 -0.009766 205300.000000 0 1 0
-18.947333 9.121703 8.779681 22.787929 -0.448677 1.175288 0.041767 -0.008285 -762265.000000 0 1 0
-19.902433 9.448103 7.605581 23.307045 -0.443221 1.238387 0.060119 -0.011733 -790557.000000 0 1 0
-20.738733 8.374603 7.512281 23.593715 -0.383790 1.246753 0.065232 -0.007513 -192667.000000 0 1 0
-21.507033 8.467803 6.310081 23.959827 -0.375083 1.304292 0.072796 -0.004528 19947.800000 0 1 0
-21.701933 7.071503 5.694881 23.524705 -0.314998 1.326286 0.082046 -0.005881 -714565.000000 0 1 0
-22.559233 6.263603 6.383381 24.267247 -0.270830 1.304619 0.084256 0.000168 83178.500000 0 1 0
-22.253333 4.917803 6.046381 23.578684 -0.217496 1.311465 0.081662 -0.017817 836243.000000 0 1 0
-23.535133 3.960603 6.127481 24.640108 -0.166723 1.319480 0.121571 -0.016719 743335.000000 0 1 0
-24.405633 4.169903 5.041281 25.267322 -0.169224 1.369930 0.106291 -0.022287 501232.000000 0 0 1
-25.448353 3.179203 5.101481 26.148635 -0.124284 1.374442 0.124179 -0.027790 -1962.440000 0 0 1
-26.465253 3.245103 3.943081 26.953445 -0.122008 1.423977 0.119720 -0.023219 -521700.000000 0 0 1
-25.942423 3.189503 2.625081 26.269246 -0.122332 1.470699 0.107236 -0.019498 -45142.400000 0 0 1
-26.891593 3.057103 1.599781 27.112045 -0.113197 1.511756 0.108581 -0.018803 -433014.000000 0 0 1
-26.325433 3.206503 0.167581 26.520524 -0.121205 1.564477 0.111014 -0.022321 -197780.000000 0 0 1
-26.024123 4.571903 -0.179019 26.423273 -0.173905 1.577571 0.114738 -0.020323 349616.000000 0 0 1
-25.681863 4.736003 -1.543019 26.160442 -0.182362 1.629813 0.122438 -0.019973 200540.000000 0 0 1
-26.867833 5.281603 -2.422819 27.489013 -0.194102 1.659049 0.118082 -0.032611 559167.000000 0 0 1
-27.926543 4.349403 -2.543819 28.377458 -0.154503 1.660559 0.110959 -0.034156 63544.500000 0 0 1
-29.123283 5.059903 -2.779919 29.690002 -0.172024 1.664565 0.103800 -0.026432 1145630.000000 0 0 1
-30.451893 4.159003 -2.675719 30.850844 -0.135736 1.657636 0.108028 -0.017879 1029730.000000 0 0 1
-30.459583 3.179003 -3.676619 30.844932 -0.103991 1.690277 0.117830 -0.020111 450082.000000 0 0 1
-31.609733 2.355803 -3.667119 31.908820 -0.074390 1.685976 0.122188 -0.020251 -55072.900000 0 0 1
-31.833253 1.721503 -5.068619 32.280187 -0.054026 1.728468 0.128919 -0.038554 267597.000000 0 0 1
-30.679643 1.001503 -5.523719 31.189020 -0.032632 1.748840 0.136180 -0.028805 852778.000000 0 0 1
-30.898713 0.221103 -6.728219 31.623540 -0.007156 1.785195 0.146894 -0.030289 -135506.000000 0 0 1
-31.230333 0.888803 -8.133919 32.284429 -0.028452 1.825486 0.138475 -0.030614 -234150.000000 0 0 1
-32.498253 1.497603 -8.201819 33.550695 -0.046050 1.817760 0.132015 -0.037294 32551.500000 0 0 1
-32.863343 1.970303 -9.444719 34.250316 -0.059883 1.850172 0.123958 -0.027052 -913505.000000 0 0 1
-34.371809 2.016903 -9.581119 35.739152 -0.058612 1.842201 0.130338 -0.025467 -538851.000000 0 0 1
-35.045536 2.979703 -8.779619 36.251206 -0.084820 1.815417 0.103507 -0.023972 393699.000000 0 0 1
36.054201 2.582703 -8.317619 37.091219 0.071512 1.796967 0.103306 -0.020332 -88747.500000 0 0 1
35.527121 3.361103 -7.158819 36.396731 0.094326 1.768776 0.100551 -0.013589 534459.000000 0 0 1
34.129701 3.147203 -6.935519 34.969169 0.091953 1.770453 0.096711 -0.016489 826881.000000 0 0 1
33.622751 3.794203 -5.787119 34.327483 0.112371 1.740191 0.090981 -0.026610 1891750.000000 0 0 1
32.174751 3.257003 -5.312419 32.772617 0.100885 1.733614 0.082068 -0.018091 1756830.000000 0 0 1
32.275901 1.883803 -4.905119 32.700805 0.058299 1.721365 0.104953 -0.030430 417270.000000 0 0 1
31.020591 1.391103 -4.452319 31.369338 0.044814 1.713209 0.100464 -0.031212 274493.000000 0 0 1
31.225071 0.083203 -3.709219 31.444718 0.002665 1.689032 0.123148 -0.037149 -106704.000000 0 0 1
31.767961 -0.926897 -4.567519 32.108016 -0.029169 1.713535 0.113377 -0.035551 334027.000000 0 0 1
31.814031 -2.099597 -3.843419 32.114058 -0.065900 1.690764 0.111330 -0.024636 -95975.600000 0 0 1
33.143081 -2.849197 -4.083319 33.515000 -0.085756 1.692935 0.104353 -0.022921 51072.300000 0 0 1
33.156671 -4.172597 -3.586319 33.610074 -0.125187 1.677704 0.088566 -0.024397 -615138.000000 0 0 1
34.467321 -4.589097 -3.416319 34.938907 -0.132365 1.668733 0.106924 -0.023861 -540670.000000 0 0 1
34.502141 -6.042597 -2.867919 35.144497 -0.173378 1.652491 0.087587 -0.017863 -62520.900000 0 0 1
34.108461 -6.065797 -1.500619 34.676114 -0.175998 1.614085 0.089959 -0.019676 47944.500000 0 0 1
34.381921 -7.286997 -0.916719 35.157605 -0.208852 1.596874 0.094496 -0.020534 -778.742000 0 0 1
33.777981 -7.393497 0.517081 34.581544 -0.215487 1.555843 0.082097 -0.013350 -213938.000000 0 0 1
32.386701 -7.566397 0.442781 33.261762 -0.229510 1.557484 0.066240 -0.015478 -123441.000000 0 0 1
31.729711 -7.938197 1.655581 32.749511 -0.245150 1.520222 0.063179 -0.021623 -231857.000000 0 0 1
31.657991 -9.435997 2.090081 33.100376 -0.289677 1.507611 0.077312 -0.023099 -77213.100000 0 0 1
30.520871 -10.104297 1.538481 32.186757 -0.319705 1.522980 0.080261 -0.029815 544193.000000 0 0 1
29.397731 -9.993697 2.403781 31.142876 -0.327692 1.493534 0.070785 -0.033540 818507.000000 0 0 1
28.138411 -10.880097 1.894881 30.228087 -0.368957 1.508069 0.079068 -0.031090 911646.000000 0 0 1
26.889881 -10.510097 2.421181 28.972227 -0.372600 1.487130 0.092570 -0.030118 843450.000000 0 0 1
26.196281 -9.301197 1.917881 27.864595 -0.341174 1.501913 0.094076 -0.028280 306850.000000 0 0 1
25.592581 -9.336297 0.459781 27.246248 -0.349803 1.553920 0.084736 -0.023475 -329987.000000 0 0 1
26.571681 -9.398497 -0.577519 28.190770 -0.339970 1.591284 0.078942 -0.029037 391990.000000 0 0 1
26.124581 -9.425797 -1.948219 27.841245 -0.346265 1.640830 0.073874 -0.023751 -280690.000000 0 0 1
25.397681 -10.708797 -2.438919 27.670722 -0.399025 1.659052 0.079614 -0.017305 -80647.900000 0 0 1
24.095081 -10.933797 -1.940119 26.530829 -0.425991 1.643989 0.091987 -0.016039 123535.000000 0 0 1
23.815281 -12.322597 -1.994519 26.888512 -0.477489 1.645042 0.084341 -0.009079 801003.000000 0 0 1
22.330381 -12.641897 -1.554019 25.707556 -0.515143 1.631283 0.099685 -0.009642 758157.000000 0 0 1
21.391881 -12.334597 -2.555919 24.825140 -0.523037 1.673936 0.093978 -0.005314 -284347.000000 0 1 0
20.102181 -12.630697 -2.092719 23.832995 -0.560987 1.658717 0.109924 -0.004933 -962461.000000 0 1 0
19.014381 -12.063797 -2.951219 22.711045 -0.565371 1.701111 0.108995 -0.006065 -718217.000000 0 1 0
18.880781 -12.735297 -4.212519 23.160678 -0.593414 1.753697 0.093772 -0.011160 227591.000000 0 1 0
17.791881 -12.146897 -4.876119 22.087885 -0.599035 1.793390 0.083861 -0.015780 -133928.000000 0 1 0
17.561481 -12.726097 -6.333719 22.593697 -0.627085 1.854935 0.074906 -0.022097 -296648.000000 0 1 0
17.096681 -14.061997 -6.522319 23.077628 -0.688310 1.857326 0.072576 -0.021220 432438.000000 0 1 0
17.153481 -14.367297 -7.894019 23.727129 -0.697235 1.909962 0.064722 -0.031067 -1650.070000 0 1 0
16.183181 -15.522697 -8.335419 23.923392 -0.764570 1.926683 0.057475 -0.028270 -819552.000000 0 1 0
14.841081 -15.175397 -8.269119 22.780006 -0.796535 1.942281 0.065412 -0.026531 -626998.000000 0 1 0
13.990981 -16.030997 -8.979119 23.094696 -0.853245 1.970120 0.063490 -0.027250 -336990.000000 0 1 0
13.958881 -15.889397 -10.509419 23.617180 -0.849986 2.031960 0.072796 -0.036724 -910912.000000 0 1 0
13.280781 -14.796297 -11.111019 22.776397 -0.839323 2.080399 0.060469 -0.030569 5961.210000 0 1 0
13.770081 -13.509997 -10.846319 22.130924 -0.775865 2.082998 0.065147 -0.026023 -241056.000000 0 1 0
13.601781 -12.625197 -12.087919 22.147727 -0.748180 2.148123 0.060538 -0.017818 1205.850000 0 1 0
14.566381 -12.906397 -13.087419 23.452826 -0.725049 2.162808 0.059688 -0.017200 197285.000000 0 1 0
14.392581 -12.112897 -14.223119 23.583167 -0.699601 2.218184 0.063219 -0.015248 1045370.000000 0 1 0
15.777981 -11.768397 -14.960719 24.723733 -0.640856 2.220708 0.067736 -0.024154 1520800.000000 0 1 0
16.401581 -12.948897 -15.436319 25.980102 -0.668300 2.207016 0.062275 -0.017645 807831.000000 0 0 1
17.657181 -12.697997 -16.103319 27.061634 -0.623457 2.208138 0.065603 -0.014856 909557.000000 0 0 1
18.701981 -13.855197 -16.068519 28.282996 -0.637614 2.175032 0.065560 -0.010822 -260513.000000 0 0 1
19.309881 -13.902097 -14.805819 28.024134 -0.623988 2.127422 0.054310 -0.028723 -558718.000000 0 0 1
20.341881 -14.834497 -14.855719 29.232632 -0.630094 2.103878 0.048233 -0.017960 -702681.000000 0 0 1
21.350481 -14.632697 -13.721819 29.295856 -0.600831 2.058261 0.041980 -0.022538 -198071.000000 0 0 1
21.964981 -13.352897 -13.799419 29.175061 -0.546221 2.063474 0.036551 -0.027245 450724.000000 0 0 1
23.009381 -13.208297 -12.832119 29.471240 -0.521112 2.021292 0.038292 -0.021302 667914.000000 0 0 1
23.871681 -11.903197 -12.840319 29.604341 -0.462553 2.019426 0.050226 -0.018036 -168709.000000 0 0 1
23.180981 -10.736797 -12.357419 28.378557 -0.433754 2.021333 0.040444 -0.021514 372820.000000 0 0 1
23.782581 -9.465297 -12.637719 28.546715 -0.378775 2.029407 0.054485 -0.025333 -172124.000000 0 0 1
24.972581 -9.106297 -11.711519 29.046757 -0.349668 1.985802 0.074267 -0.019124 -371864.000000 0 0 1
26.028381 -9.991797 -11.985419 30.347370 -0.366534 1.976800 0.058438 -0.014948 -797690.000000 0 0 1
27.053081 -9.725397 -11.064819 30.803940 -0.345107 1.938208 0.055229 -0.015619 -652155.000000 0 0 1
28.255211 -10.662697 -11.325219 32.253847 -0.360848 1.929572 0.059729 -0.012796 -301891.000000 0 0 1
28.882261 -10.346597 -12.518919 33.135485 -0.343991 1.958226 0.051810 -0.012805 -245454.000000 0 0 1
30.145671 -10.917897 -12.705219 34.487455 -0.347476 1.948085 0.056087 -0.015740 -351406.000000 0 0 1
30.871741 -10.578197 -14.041219 35.526307 -0.330112 1.977119 0.054439 -0.012306 -156738.000000 0 0 1
30.233911 -10.961297 -15.233019 35.584888 -0.347811 2.013159 0.050309 -0.017026 163626.000000 0 0 1
31.083981 -10.679997 -16.329919 36.700715 -0.330949 2.031913 0.040861 -0.018119 -485964.000000 0 0 1
30.806541 -11.346297 -17.682119 37.288587 -0.352891 2.064848 0.013761 -0.007513 1088590.000000 0 0 1
29.489571 -11.086397 -18.254619 36.411181 -0.359597 2.095951 0.043198 -0.006459 1307630.000000 0 0 1
29.286351 -9.741297 -18.682619 36.078019 -0.321111 2.115120 0.024279 0.000379 734096.000000 0 0 1
27.795411 -9.461097 -19.143419 35.050930 -0.328082 2.148570 0.003138 -0.001357 1116290.000000 0 0 1
27.479481 -9.835897 -20.467519 35.648086 -0.343727 2.182368 0.011284 -0.000361 70991.300000 0 0 1
26.162381 -9.501597 -20.841319 34.772275 -0.348366 2.213505 0.044903 0.003640 -12989.600000 0 0 1
25.678581 -10.027497 -22.173219 35.377844 -0.372290 2.248177 0.051732 0.006442 -99274.600000 0 0 1
25.429281 -11.412397 -22.180419 35.621091 -0.421847 2.242955 0.053324 -0.002410 -50798.800000 0 0 1
24.714681 -11.728197 -23.327819 35.952096 -0.443076 2.276879 0.053848 -0.006998 -688239.000000 0 0 1
24.722381 -13.265697 -23.476019 36.582759 -0.492487 2.267540 0.051642 0.000206 1259900.000000 0 0 1
25.934481 -13.881697 -23.972719 37.947201 -0.491456 2.254591 0.041464 0.002230 1505310.000000 0 0 1
27.171581 -13.768997 -23.233619 38.310327 -0.469027 2.222395 0.024175 0.005715 -69097.800000 0 0 1
28.282441 -14.332197 -24.071519 39.808873 -0.469035 2.220157 0.001953 0.005325 -923822.000000 0 0 1
28.591011 -13.578697 -25.224629 40.473557 -0.443390 2.243672 -0.004448 -0.000247 90553.500000 0 0 1
29.949901 -13.837197 -25.519049 41.709548 -0.432798 2.229165 -0.025943 -0.001714 -141330.000000 0 0 1
30.534971 -13.293397 -26.808019 42.752412 -0.410604 2.248560 -0.022799 0.003119 -188976.000000 0 0 1
30.250511 -13.943697 -28.039509 43.540029 -0.431915 2.270504 -0.010720 -0.003634 734075.000000 0 0 1
31.256921 -13.499797 -28.978899 44.710359 -0.407699 2.275945 -0.014374 -0.005264 748254.000000 0 0 1
31.332831 -14.377597 -30.237609 45.856020 -0.430203 2.290821 -0.008109 -0.008770 126031.000000 0 0 1
31.876541 -15.676197 -29.975229 46.479795 -0.457049 2.271700 0.000514 -0.006656 -22555.900000 0 0 1
32.076991 -16.513897 -31.099139 47.631907 -0.475434 2.282211 -0.001634 -0.009117 -469104.000000 0 0 1
30.851331 -17.081197 -31.798439 47.483814 -0.505650 2.304559 -0.013300 -0.001526 -127901.000000 0 0 1
30.203851 -16.200697 -32.726879 47.389701 -0.492325 2.333102 -0.026736 0.000792 -439227.000000 0 0 1
28.994991 -16.697297 -33.186289 47.125778 -0.522487 2.352102 -0.016056 -0.002441 -353219.000000 0 0 1
28.306891 -15.856397 34.105559 47.073289 -0.510610 0.760458 0.016332 -0.000976 486454.000000 0 0 1
27.613601 -14.610297 -33.943719 46.131852 -0.486654 2.397640 0.025377 -0.002180 584693.000000 0 0 1
28.440741 -13.632097 -33.372179 45.917449 -0.446964 2.384428 0.024605 -0.010262 -596447.000000 0 0 1
27.626001 -12.416097 -33.031909 44.815872 -0.422384 2.399504 0.042104 -0.005226 -29056.500000 0 0 1
27.230781 -11.703397 -34.158837 45.225115 -0.405917 2.426918 0.070867 -0.008211 -332263.000000 0 0 1
26.391781 -10.633297 -33.832379 44.206594 -0.383005 2.442341 0.054088 -0.016823 27981.900000 0 0 1
20.796267 -29.934543 9.499381 37.666959 -0.963620 1.315849 0.032791 -0.005364 73509.600000 0 0 1
21.209467 -29.630943 8.197081 37.350052 -0.949553 1.349529 0.033694 -0.014387 -76297.600000 0 0 1
22.283667 -30.443743 7.786981 38.522985 -0.938940 1.367255 0.047227 -0.017151 -201744.000000 0 0 1
22.687267 -30.015043 6.323281 38.152310 -0.923553 1.404290 0.038295 -0.011117 -263680.000000 0 0 1
23.167567 -28.700343 6.115881 37.387830 -0.891667 1.406478 0.036748 -0.000679 257415.000000 0 0 1
23.901667 -28.533643 4.879181 37.540177 -0.873506 1.440455 0.041196 -0.001136 259667.000000 0 0 1
24.134467 -27.044943 4.457681 36.520848 -0.842205 1.448433 0.031130 -0.004768 47316.300000 0 0 1
24.977767 -26.295243 5.301281 36.652861 -0.811088 1.425652 0.028379 -0.006561 30464.100000 0 0 1
24.973867 -24.943043 4.919181 35.637730 -0.784781 1.432321 0.017128 -0.002598 -97679.900000 0 0 1
25.588967 -23.939743 5.916881 35.537530 -0.752112 1.403521 0.014438 -0.002327 -26624.800000 0 0 1
26.993267 -23.880843 5.718481 36.491535 -0.724295 1.413441 0.028198 -0.001517 504244.000000 0 0 1
27.709967 -22.955243 6.605781 36.584447 -0.691826 1.389238 0.042326 -0.008612 335514.000000 0 0 1
27.207067 -21.496643 6.702081 35.316399 -0.668683 1.379866 0.031267 -0.003143 -439805.000000 0 0 1
27.285967 -20.708343 5.545281 34.700282 -0.649197 1.410303 0.041777 0.001268 16117.600000 0 0 1
26.941067 -19.359743 5.833581 33.684587 -0.623098 1.396736 0.035070 -0.005629 -80907.400000 0 0 1
26.819767 -18.461443 4.581981 32.880379 -0.602866 1.430988 0.034610 0.000509 -32798.100000 0 0 1
28.058367 -18.256543 3.934281 33.705369 -0.576841 1.453804 0.096227 -0.012366 -83516.700000 0 0 1
28.111567 -17.523143 2.686281 33.234573 -0.557407 1.489880 0.086793 -0.012512 -530466.000000 0 0 1
29.230367 -16.509543 2.538381 33.666344 -0.514141 1.495327 0.089663 -0.029567 -226385.000000 0 0 1
29.074867 -15.392543 3.380681 33.071245 -0.486898 1.468393 0.084952 -0.028904 512083.000000 0 0 1
30.312167 -14.687343 3.395681 33.853746 -0.451200 1.470323 0.100447 -0.030645 629432.000000 0 0 1
30.321667 -13.479643 4.400981 33.473465 -0.418317 1.438938 0.096068 -0.030388 238744.000000 0 0 1
29.840167 -13.751443 5.713581 33.349404 -0.431829 1.398622 0.087980 -0.025420 158798.000000 0 0 1
29.529267 -12.552843 6.451681 32.728820 -0.401954 1.372371 0.082205 -0.021940 -128248.000000 0 0 1
29.094467 -12.918043 7.897181 32.798313 -0.417856 1.327627 0.088119 -0.018726 -296234.000000 0 0 1
27.753067 -13.348543 7.977881 31.812936 -0.448312 1.317316 0.078259 -0.012111 201902.000000 0 0 1
27.116667 -13.221243 9.286281 31.565011 -0.453653 1.272183 0.064589 0.002897 552393.000000 0 0 1
27.564167 -14.286943 10.312281 32.714571 -0.478193 1.250108 0.066400 0.007279 -112727.000000 0 0 1
28.808867 -14.033543 10.941381 33.861556 -0.453295 1.241771 0.066711 0.008293 16978.300000 0 0 1
29.230567 -15.285943 11.444181 34.914973 -0.481834 1.236851 0.064985 -0.001295 -267220.000000 0 0 1
29.934867 -15.279643 12.777581 35.955950 -0.471956 1.207489 0.055052 0.000501 821520.000000 0 0 1
31.285467 -14.783143 12.633681 36.836553 -0.441426 1.220724 0.049430 0.001479 839715.000000 0 0 1
32.036367 -15.032143 13.801381 37.983842 -0.438723 1.198937 0.044035 0.002496 1879220.000000 0 0 1
33.627167 -15.001643 13.600281 39.253067 -0.419620 1.216984 0.050144 -0.008154 1771910.000000 0 0 1
34.206467 -13.737743 13.569181 39.280156 -0.381896 1.218082 0.058167 -0.010914 8084.720000 0 0 1
35.541467 -13.689443 13.117681 40.282382 -0.367655 1.239104 0.052534 -0.014132 14578.400000 0 0 1
-36.123348 -12.355343 13.461281 40.481562 0.329559 1.231813 0.057552 -0.022480 -202914.000000 0 0 1
-34.852548 -12.258443 12.864481 39.121150 0.338209 1.235725 0.071609 -0.024638 -274789.000000 0 0 1
-34.289448 -10.944343 13.024581 38.277730 0.308955 1.223597 0.068956 -0.022862 373391.000000 0 0 1
-33.055548 -10.666143 12.096381 36.779862 0.312126 1.235673 0.065665 -0.022904 1804240.000000 0 0 1
-31.904448 -11.566743 12.271181 36.086912 0.347805 1.223831 0.057485 -0.021754 1300880.000000 0 0 1
-32.124948 -12.869143 11.764681 36.551810 0.381021 1.243100 0.052990 -0.022704 -839303.000000 0 0 1
-31.043548 -13.896243 12.128281 36.109592 0.420887 1.228263 0.037565 -0.016732 16830.600000 0 0 1
-29.767848 -13.642543 11.583781 34.733668 0.429733 1.230779 0.041773 -0.017644 -382354.000000 0 0 1
-28.945648 -14.720343 11.977681 34.612192 0.470465 1.217435 0.040765 -0.011663 123029.000000 0 0 1
-27.482548 -14.723943 11.478181 33.223991 0.491842 1.218047 0.037441 -0.005310 145293.000000 0 0 1
-27.451948 -14.968643 10.087881 32.854757 0.499202 1.258710 0.040387 -0.002369 106359.000000 0 0 1
-26.130748 -14.919243 9.590681 31.581339 0.518782 1.262242 0.043393 -0.003234 50574.900000 0 0 1
-26.081048 -14.710543 8.063881 31.010439 0.513552 1.307735 0.047505 0.008127 120405.000000 0 0 1
-26.553248 -15.795043 7.262281 31.737975 0.536620 1.339931 0.058172 0.010263 289689.000000 0 0 1
-26.268248 -15.428043 5.917781 31.033296 0.531049 1.378930 0.063814 0.011328 -508327.000000 0 0 1
-26.658048 -16.387743 4.823781 31.661941 0.551187 1.417848 0.057385 0.007862 -520160.000000 0 0 1
-28.029648 -16.668943 4.722181 32.951689 0.536506 1.426995 0.035298 0.005473 -197069.000000 0 0 1
-28.304248 -17.750043 3.866981 33.632544 0.560119 1.455564 0.033166 0.008551 1035680.000000 0 0 1
-29.815548 -18.210343 3.829381 35.146090 0.548299 1.461623 0.042376 -0.001543 965590.000000 0 0 1
-30.708248 -17.370643 3.130581 35.419433 0.514792 1.482295 0.044111 -0.000583 -1008050.000000 0 0 1
-31.984048 -17.714043 3.535481 36.732360 0.505787 1.474397 0.052333 -0.008327 -489777.000000 0 0 1
-33.107148 -16.882543 2.814781 37.269646 0.471565 1.495200 0.055864 -0.012348 411221.000000 0 0 1
-33.258748 -17.199643 1.458081 37.471296 0.477270 1.531875 0.054382 -0.011552 198942.000000 0 0 1
-34.087248 -16.232843 0.803881 37.763632 0.444439 1.549508 0.075727 -0.022938 4811.050000 0 0 1
-34.580048 -16.676843 -0.581419 38.395766 0.449361 1.585940 0.069777 -0.027925 63218.800000 0 0 1
-33.535348 -16.774643 -1.548019 37.528716 0.463814 1.612057 0.059011 -0.025682 333723.000000 0 0 1
-33.884848 -17.657043 -2.590019 38.297027 0.480377 1.638478 0.053719 -0.019167 -198189.000000 0 0 1
-32.739448 -18.275143 -3.400419 37.648574 0.509117 1.661240 0.053343 -0.011613 -373453.000000 0 0 1
-33.218948 -19.332643 -4.133519 38.656637 0.527061 1.677930 0.058944 -0.025973 154497.000000 0 0 1
-32.181548 -19.930943 -4.891219 38.168292 0.554510 1.699298 0.042254 -0.014760 -162166.000000 0 0 1
-32.617348 -21.184443 -5.671819 39.304472 0.576012 1.715607 0.051364 -0.020585 -123984.000000 0 0 1
-33.140648 -22.277343 -4.937019 40.236261 0.591828 1.693807 0.057819 -0.025488 58807.000000 0 0 1
-33.680448 -23.169143 -5.897619 41.303313 0.602566 1.714074 0.055566 -0.015802 -148167.000000 0 0 1
-34.229548 -24.459243 -5.316319 42.404950 0.620435 1.696497 0.050363 -0.015991 -203716.000000 0 0 1
-33.305048 -25.399243 -4.812719 42.160527 0.651532 1.685198 0.044318 -0.017043 -528582.000000 0 0 1
-33.866748 -26.685743 -4.741319 43.377017 0.667358 1.680320 0.031069 -0.006167 -183650.000000 0 0 1
-33.027348 -27.722943 -4.005419 43.306012 0.698304 1.663420 0.017583 -0.007755 -608326.000000 0 0 1
-31.943048 -28.124443 -4.833119 42.833417 0.721912 1.683872 0.014499 -0.007491 491265.000000 0 0 1
-31.109248 -29.194743 -4.339719 42.882998 0.753661 1.672169 0.014307 -0.008500 829309.000000 0 0 1
-30.190248 -28.892743 -3.106619 41.903374 0.763441 1.645002 0.030131 -0.013453 -126986.000000 0 0 1
-30.970748 -28.596043 -1.948819 42.198564 0.745553 1.616995 0.019756 -0.016277 23548.400000 0 0 1
-30.082048 -28.340143 -0.905019 41.338993 0.755591 1.592691 0.038174 -0.022252 -261170.000000 0 0 1
-30.788048 -28.192843 0.406481 41.748120 0.741426 1.561060 0.028647 -0.012513 -248419.000000 0 0 1
-31.154748 -29.430543 0.941381 42.867953 0.756947 1.548835 0.027166 -0.007889 -169298.000000 0 0 1
-31.934848 -29.129143 2.085081 43.274577 0.739484 1.522595 0.032981 -0.001865 -242957.000000 0 0 1
-32.563148 -30.393443 2.665781 44.623159 0.750948 1.511021 0.016242 0.003587 -1025590.000000 0 0 1
-33.456148 -30.144443 3.738381 45.188237 0.733375 1.487973 0.019703 0.005155 421041.000000 0 0 1
-34.036848 -31.440243 4.133181 46.519663 0.745762 1.481831 0.024952 0.009449 225514.000000 0 0 1
-34.997748 -32.181643 3.161381 47.649710 0.743504 1.504401 0.013484 0.006000 -306342.000000 0 0 1
-35.767748 -33.212943 3.791481 48.957192 0.748379 1.493274 0.028996 0.003466 -376244.000000 0 0 1
35.752867 -33.851143 2.927481 49.322789 -0.758083 1.511408 0.033662 0.004432 -676568.000000 0 0 1
34.617567 33.990503 3.678681 48.654526 0.776259 1.495116 0.038482 0.001349 705987.000000 0 0 1
33.681167 -33.898243 4.555981 48.002800 -0.788610 1.475743 0.038862 -0.001497 1042150.000000 0 0 1
33.066467 -32.694343 4.099981 46.681058 -0.779739 1.482853 0.044145 -0.000602 -338901.000000 0 0 1
32.044567 -32.749243 2.948381 45.913616 -0.796273 1.506536 0.047511 0.003344 -758787.000000 0 0 1
32.511867 -33.289643 1.771081 46.565637 -0.797218 1.532753 0.042717 0.002227 -484410.000000 0 0 1
31.683267 -32.979843 0.645281 45.737466 -0.805447 1.556687 0.045281 0.002965 -484688.000000 0 0 1
32.107767 -33.605243 -0.757119 46.484345 -0.808182 1.587085 0.045648 -0.003010 344520.000000 0 0 1
33.295767 -33.233843 -1.411919 47.064742 -0.784467 1.600800 0.023232 0.009425 478906.000000 0 0 1
34.535567 -33.173943 -0.680319 47.892366 -0.765291 1.585002 0.021613 0.009354 531759.000000 0 0 1
35.762567 -32.985243 -1.611919 48.678391 -0.745021 1.603916 0.009467 0.005671 -165866.000000 0 0 1
36.066867 -34.157843 -2.316919 49.728716 -0.758220 1.617404 0.017848 0.001691 120368.000000 0 0 1
-35.494848 -33.784943 -3.416519 49.122085 0.760722 1.640404 0.017589 -0.002016 -95734.000000 0 0 1
-34.822048 33.651403 -4.233619 48.609829 -0.768304 1.658001 0.024513 -0.007894 331165.000000 0 0 1
-33.607048 33.185603 -3.670219 47.372866 -0.779089 1.648349 0.018676 -0.004457 132104.000000 0 0 1
-32.982848 32.270103 -4.591319 46.371413 -0.774476 1.669971 0.020577 -0.014409 1044680.000000 0 0 1
-31.636348 31.609703 -4.131219 44.912123 -0.784977 1.662911 0.033869 -0.010198 1406150.000000 0 0 1
-30.401148 32.359703 -4.098119 44.588953 -0.816595 1.662835 0.029668 -0.015641 728224.000000 0 0 1
-29.248248 31.588403 -3.874319 43.223807 -0.823845 1.660551 0.037149 -0.018001 268043.000000 0 0 1
-28.927448 31.121803 -2.415919 42.558201 -0.821925 1.627594 0.031747 -0.013532 -935453.000000 0 0 1
-29.948448 30.394503 -1.831719 42.709373 -0.792790 1.613697 0.027973 -0.013192 -627734.000000 0 0 1
-29.675348 30.153603 -0.430219 42.308996 -0.793392 1.580965 0.031758 -0.003896 343030.000000 0 0 1
-30.907148 29.544603 0.315581 42.757864 -0.762863 1.563416 0.024544 -0.002683 208912.000000 0 0 1
-31.266648 28.309803 -0.155919 42.179053 -0.735808 1.574493 0.031460 -0.005499 -1379460.000000 0 0 1
-32.564848 28.368803 -0.580519 43.192537 -0.716644 1.584237 0.041330 -0.006271 -1292540.000000 0 0 1
-33.071348 26.977403 -1.104319 42.693253 -0.684261 1.596666 0.035398 -0.003729 -212865.000000 0 0 1
-33.116248 25.945603 -0.152419 42.069982 -0.664580 1.574419 0.048189 -0.010265 -248910.000000 0 0 1
-33.751148 24.812903 -0.621919 41.895189 -0.633944 1.585642 0.045046 -0.004048 -571619.000000 0 0 1
-33.824548 23.675303 0.350481 41.288531 -0.610689 1.562308 0.044434 -0.010583 323280.000000 0 0 1
-32.591448 23.136203 0.821681 39.977012 -0.617330 1.550241 0.059948 -0.022191 178371.000000 0 0 1
-31.959848 23.838003 1.835381 39.913041 -0.640855 1.524796 0.064501 -0.031165 -1660200.000000 0 0 1
-30.495248 23.442403 2.016981 38.517199 -0.655377 1.518407 0.047466 -0.037187 -43555.400000 0 0 1
-29.539048 24.187303 1.260381 38.199077 -0.686115 1.537795 0.060312 -0.028752 181622.000000 0 0 1
-29.437148 25.593603 1.691481 39.044068 -0.715668 1.527460 0.031749 -0.019773 -652618.000000 0 0 1
-28.633348 26.491503 0.723781 39.015281 -0.746563 1.552244 0.012526 -0.006247 665514.000000 0 0 1
-27.266648 26.142403 0.498281 37.777554 -0.764352 1.557606 0.016791 -0.010682 212498.000000 0 0 1
-26.706948 26.993103 -0.447119 37.974841 -0.790727 1.582571 0.022507 -0.009446 -165839.000000 0 0 1
-25.567748 26.307003 -1.200619 36.704354 -0.799648 1.603513 0.020353 -0.007709 -685081.000000 0 0 1
-26.006348 25.459903 -2.238019 36.462933 -0.774781 1.632213 0.045787 -0.022535 -855592.000000 0 0 1
-25.022948 24.737503 -2.833719 35.300452 -0.779662 1.651157 0.041259 -0.017890 -722189.000000 0 0 1
-24.185948 23.716003 -2.094219 33.938100 -0.775588 1.632543 0.047433 -0.017910 97784.200000 0 0 1
-24.869348 22.473803 -1.969319 33.577291 -0.734842 1.629480 0.036798 -0.026879 738938.000000 0 0 1
-23.964248 21.549503 -1.289019 32.254113 -0.732393 1.610771 0.041743 -0.032343 -51170.500000 0 0 1
-24.655848 20.215703 -0.836219 31.894901 -0.686767 1.597017 0.047315 -0.029900 -433516.000000 0 0 1
-25.602748 20.367603 0.233781 32.716885 -0.672006 1.563651 0.022753 -0.031081 1144610.000000 0 0 1
-26.829048 21.028103 -0.138719 34.088094 -0.664773 1.574866 0.027577 -0.033879 -59200.300000 0 0 1
-27.696748 20.399903 -1.246719 34.421217 -0.634834 1.607024 0.029220 -0.035682 -1273900.000000 0 0 1
-28.072548 19.102703 -0.832919 33.965791 -0.597502 1.595321 0.028046 -0.029316 75614.000000 0 0 1
-28.947548 18.513503 -1.754319 34.406219 -0.568996 1.621807 0.045916 -0.025193 -302564.000000 0 0 1
-29.129648 16.974103 -1.643119 33.754353 -0.527608 1.619494 0.048730 -0.021793 45140.100000 0 0 1
-29.928548 16.500503 -0.545719 34.180146 -0.503864 1.586763 0.047461 -0.021819 651296.000000 0 0 1
-29.963348 15.074903 -0.502119 33.545596 -0.466134 1.585765 0.057541 -0.025045 859756.000000 0 0 1
-28.626248 14.417003 0.052681 32.051752 -0.466546 1.569153 0.067045 -0.022091 403690.000000 0 0 1
-28.539748 14.549003 1.487181 32.068713 -0.471441 1.524405 0.069135 -0.024172 589719.000000 0 0 1
-27.320448 14.073203 2.063881 30.801323 -0.475667 1.503740 0.077368 -0.024895 300137.000000 0 0 1
-26.908648 12.582103 1.804581 29.759723 -0.437382 1.510121 0.094172 -0.020516 -344855.000000 0 0 1
-26.445348 12.243003 0.478681 29.145783 -0.433575 1.554372 0.086611 -0.023245 583196.000000 0 0 1
-26.117148 10.829003 0.413981 28.276211 -0.393056 1.556155 0.104603 -0.017292 -100848.000000 0 0 1
-26.162348 10.271603 -0.997619 28.124180 -0.374120 1.606276 0.103876 -0.021992 -343484.000000 0 0 1
-27.482848 10.186903 -1.471419 29.346976 -0.354964 1.620956 0.102875 -0.032799 149019.000000 0 0 1
-27.573448 9.323603 -2.575619 29.220855 -0.326068 1.659054 0.109101 -0.036330 322740.000000 0 0 1
-28.974248 9.131103 -3.247119 30.552051 -0.305293 1.677279 0.112121 -0.038723 219955.000000 0 0 1
-28.975548 8.142803 -4.213119 30.391413 -0.273957 1.709873 0.140756 -0.032756 810358.000000 0 0 1
-30.272648 8.003203 -4.805719 31.679321 -0.258458 1.723083 0.131986 -0.039196 430154.000000 0 0 1
-11.217833 18.179103 -19.492219 28.918267 -1.017918 2.310468 0.061080 -0.010217 402077.000000 0 0 1
-11.657433 17.494003 -20.665819 29.479009 -0.983001 2.347644 0.042169 -0.003971 -74933.600000 0 0 1
-10.579133 17.365303 -21.549819 29.628812 -1.023632 2.385215 0.037926 -0.007158 77594.300000 0 0 1
-10.969433 16.301803 -22.630319 29.970128 -0.978493 2.426597 0.027631 -0.004582 183043.000000 0 0 1
-10.665133 15.008703 -22.150819 28.803906 -0.952994 2.448105 0.022508 -0.006957 -233478.000000 0 0 1
-10.698833 13.985603 -23.160619 29.094267 -0.917771 2.491544 0.017751 -0.007903 -303482.000000 0 0 1
-9.897833 12.701203 -22.973619 28.054854 -0.908816 2.530257 0.004501 -0.003088 -633950.000000 0 0 1
-8.512933 12.870703 -22.887619 27.603770 -0.986435 2.548379 0.017870 -0.010622 -874243.000000 0 0 1
-8.043433 11.635703 -22.503419 26.579885 -0.965952 2.580423 0.011624 -0.003954 823020.000000 0 0 1
-6.483133 11.501103 -22.335419 25.945661 -1.057498 2.607741 0.023095 -0.004700 1287450.000000 0 0 1
-5.722333 11.385903 -23.531319 26.760173 -1.105086 2.645273 0.013582 -0.010171 429092.000000 0 0 1
-4.339933 11.133903 -23.261619 26.151515 -1.199119 2.667033 0.031773 -0.012394 677008.000000 0 0 1
-3.449933 11.010803 -24.494019 27.075760 -1.267162 2.701348 0.053542 -0.023619 -163222.000000 0 0 1
-3.433133 9.782703 -25.095179 27.152453 -1.233285 2.749817 0.047435 -0.018989 -141635.000000 0 0 1
-2.610133 9.820303 -26.246289 28.144606 -1.311013 2.772212 0.039693 -0.019029 -230488.000000 0 0 1
-2.258433 8.457503 -26.951729 28.337706 -1.309852 2.827544 0.042015 -0.003655 -203919.000000 0 0 1
-1.288233 7.699703 -26.244889 27.381365 -1.405022 2.852471 0.053246 -0.007523 68136.600000 0 0 1
-1.772933 6.828803 -25.270249 26.236641 -1.316779 2.869335 0.059604 -0.016613 -667788.000000 0 0 1
-0.683533 5.947603 -24.697319 25.412571 -1.456372 2.903775 -0.009952 -0.009529 -13551.600000 0 0 1
0.220067 6.589603 -23.787819 24.684643 1.537413 2.871210 0.019491 -0.009128 309699.000000 0 1 0
1.094767 5.709003 -23.124019 23.843479 1.381335 2.895311 0.010058 -0.003716 17421.300000 0 1 0
1.578167 6.343403 -21.809719 22.768250 1.326958 2.850394 0.021481 -0.004910 468136.000000 0 1 0
2.345267 7.557403 -22.023219 23.401641 1.269892 2.796657 0.017210 -0.008030 293479.000000 0 1 0
2.409267 8.171203 -20.731519 22.413590 1.284072 2.751708 0.029639 -0.004843 280082.000000 0 1 0
3.124367 9.558803 -20.634319 22.954466 1.254885 2.688103 0.038498 -0.011654 186886.000000 0 1 0
2.646467 10.213403 -19.456919 22.133438 1.317256 2.644711 0.035074 -0.017995 195857.000000 0 1 0
3.209767 11.477003 -19.311419 22.692622 1.298094 2.588683 0.041572 -0.016218 -295365.000000 0 1 0
4.445667 11.654203 -18.424719 22.249824 1.206370 2.546477 0.037842 -0.025710 -324874.000000 0 1 0
5.548267 10.948203 -18.941319 22.570334 1.101744 2.566631 0.045315 -0.022630 -929964.000000 0 1 0
6.506367 10.822903 -17.931519 21.931881 1.029520 2.528028 0.044020 -0.023987 330022.000000 0 1 0
7.688867 9.900403 -18.453219 22.308248 0.910474 2.544889 0.069703 -0.032552 422343.000000 0 1 0
7.417867 8.491703 -18.635519 21.781100 0.852792 2.597471 0.070537 -0.032148 -43911.400000 0 1 0
6.711767 8.305603 -19.857219 22.546396 0.891135 2.648191 0.061160 -0.024145 48816.100000 0 1 0
6.328267 6.835103 -20.165119 22.212555 0.823883 2.708865 0.071597 -0.025989 -541666.000000 0 1 0
7.440967 6.124603 -20.605219 22.747611 0.688664 2.704105 0.070013 -0.015688 -214391.000000 0 1 0
7.210767 4.768003 -20.905819 22.622605 0.584232 2.749501 0.059052 -0.007118 -228087.000000 0 1 0
7.325767 4.487103 -22.415319 24.005155 0.549567 2.775606 0.075659 -0.012243 -12406.200000 0 1 0
6.193167 4.882203 -23.166619 24.472095 0.667579 2.813487 0.068254 -0.014917 -10650.100000 0 1 0
6.308667 4.558103 -24.528619 25.733805 0.625677 2.834337 0.076725 -0.018622 47677.100000 0 0 1
5.335367 5.387303 -25.423619 26.530163 0.790242 2.851758 0.060735 -0.022786 93666.100000 0 0 1
5.438467 6.824003 -25.406239 26.863003 0.897911 2.810755 0.069565 -0.030964 180289.000000 0 0 1
5.083567 7.488303 -24.156419 25.796316 0.974394 2.783106 0.072497 -0.034059 -797741.000000 0 0 1
4.902567 8.996903 -24.222519 26.300377 1.071864 2.741424 0.081966 -0.036504 528664.000000 0 0 1
3.836367 9.481903 -25.032419 27.041564 1.186332 2.753683 0.079486 -0.035344 708959.000000 0 0 1
2.505567 9.267603 -24.559119 26.368857 1.306751 2.768950 0.059544 -0.024570 -519333.000000 0 0 1
1.480267 9.801103 -25.502239 27.360866 1.420899 2.770881 0.058742 -0.011841 -897009.000000 0 0 1
1.402367 11.235503 -25.702469 28.085941 1.446623 2.726643 0.081230 -0.033502 46052.800000 0 0 1
0.395267 11.556803 -26.635679 29.037481 1.536608 2.732008 0.094028 -0.037763 -534372.000000 0 0 1
0.222367 13.046303 -26.881879 29.881280 1.553754 2.689701 0.089927 -0.042852 -360161.000000 0 0 1
-0.164633 13.761903 -25.736299 29.185170 -1.558834 2.650521 0.081894 -0.039278 -14870.500000 0 0 1
-0.742233 15.036303 -25.963559 30.012459 -1.521474 2.616131 0.081112 -0.052573 -149177.000000 0 0 1
-1.234233 15.771003 -24.762719 29.384351 -1.492696 2.573108 0.088268 -0.041504 -602311.000000 0 0 1
-2.278333 15.067303 -24.175919 28.577779 -1.420723 2.579176 0.068500 -0.034817 -783140.000000 0 0 1
-2.559633 15.589503 -22.926819 27.842833 -1.408059 2.538238 0.069447 -0.036954 -1004350.000000 0 0 1
-3.823633 15.011603 -22.299519 27.152107 -1.321388 2.534450 0.055915 -0.025508 155224.000000 0 0 1
-5.050033 15.485203 -22.871719 28.078637 -1.255552 2.522766 0.041625 -0.023477 249270.000000 0 0 1
-5.437833 14.948303 -24.102019 28.877831 -1.221902 2.558239 0.043600 -0.024631 -1301870.000000 0 0 1
-6.912833 15.084703 -24.429819 29.532213 -1.141088 2.544949 0.009846 -0.018094 -538057.000000 0 0 1
-7.263333 16.370303 -25.007519 30.759045 -1.153202 2.520106 0.008020 -0.015193 211679.000000 0 0 1
-8.606133 16.326903 -25.467549 31.452016 -1.085694 2.514483 0.009100 -0.011835 260078.000000 0 0 1
-9.210733 17.680403 -25.932989 32.710154 -1.090524 2.486205 0.016894 -0.015853 22745.400000 0 0 1
-9.639233 18.606203 -24.950719 32.582879 -1.092801 2.443021 0.023383 -0.020181 -166311.000000 0 0 1
-10.743033 19.346603 -25.397559 33.685899 -1.063898 2.424854 0.029376 -0.017887 151592.000000 0 0 1
-11.267533 20.401603 -24.386119 33.732262 -1.066199 2.378832 0.031285 -0.016860 452928.000000 0 0 1
-10.327833 21.477303 -24.291719 34.029785 -1.122568 2.365758 0.036802 -0.016379 577288.000000 0 0 1
-10.930933 22.719303 -24.657419 35.265285 -1.122359 2.345071 0.037675 -0.020684 95447.500000 0 0 1
-10.636933 23.175003 -26.129149 36.509691 -1.140497 2.368389 0.021187 -0.018245 -228779.000000 0 0 1
-11.322033 22.358303 -27.045369 36.871861 -1.102049 2.394248 0.016521 -0.017361 168497.000000 0 0 1
-11.180533 22.927103 -28.349319 38.135813 -1.117073 2.408903 0.027362 -0.012404 -152421.000000 0 0 1
-11.904933 22.017903 -29.381779 38.597985 -1.075126 2.435997 0.034230 -0.011483 -202808.000000 0 0 1
-11.281333 20.862503 -29.858899 38.132222 -1.075085 2.470328 0.035724 -0.015623 -343972.000000 0 0 1
-11.054733 19.779103 -28.918779 36.738479 -1.061138 2.476974 0.027116 -0.014522 -102875.000000 0 0 1
-9.995233 18.809203 -29.490889 36.378611 -1.082344 2.516084 0.010924 -0.022052 -579840.000000 0 0 1
-8.728433 19.447303 -29.563729 36.447184 -1.148920 2.516893 -0.000331 -0.024763 593061.000000 0 0 1
-7.624733 18.686703 -30.086379 36.228713 -1.183387 2.550723 -0.007218 -0.026366 516092.000000 0 0 1
-7.195333 17.429903 -29.381729 34.912180 -1.179291 2.571016 0.004361 -0.034457 -1369740.000000 0 0 1
-8.096633 16.322803 -29.607329 34.764684 -1.110328 2.589921 0.005247 -0.031758 435505.000000 0 0 1
-7.743933 15.162703 -28.916369 33.556407 -1.098608 2.609455 -0.011439 -0.023588 -1017530.000000 0 0 1
-8.881233 14.173203 -28.896849 33.388379 -1.011032 2.616897 0.001020 -0.018193 -1014520.000000 0 0 1
-9.835133 14.645403 -27.989409 33.085113 -0.979420 2.579200 0.007666 -0.012425 -654026.000000 0 0 1
-10.999233 13.854803 -28.022519 33.139105 -0.899790 2.578490 0.054975 -0.015090 407192.000000 0 0 1
-12.068833 14.261203 -26.946469 32.789493 -0.868472 2.535363 0.038573 -0.008169 523292.000000 0 0 1
-12.738733 15.484103 -27.270849 33.848663 -0.882368 2.507602 0.032297 -0.010360 459491.000000 0 0 1
-13.587133 15.905903 -26.127419 33.470135 -0.863858 2.466452 0.014837 -0.010410 759087.000000 0 0 1
-14.546433 17.044103 -26.528949 34.725859 -0.864298 2.440215 0.000740 -0.012950 62933.500000 0 0 1
-13.957333 18.318003 -26.743999 35.293028 -0.919693 2.430685 0.004470 -0.012451 -87304.400000 0 0 1
-14.997533 19.232403 -26.913469 36.320051 -0.908491 2.405367 -0.002076 -0.008973 -490657.000000 0 0 1
-14.485833 20.686703 -27.050819 37.007105 -0.959904 2.390528 0.009323 -0.014292 296855.000000 0 0 1
-15.503533 21.676303 -27.302949 38.153279 -0.949922 2.368296 -0.004729 -0.012183 400378.000000 0 0 1
-14.999533 22.977403 -27.320679 38.721655 -0.992459 2.354018 0.011968 -0.013767 -44924.600000 0 0 1
-14.654633 23.630403 -25.901109 38.000285 -1.015685 2.320747 -0.014306 -0.013670 295802.000000 0 0 1
-14.007133 24.890203 -26.024119 38.639057 -1.058212 2.309755 0.014477 -0.019042 113604.000000 0 0 1
-13.853233 25.542403 -24.785919 38.192515 -1.073836 2.277030 0.028542 -0.022093 -49003.500000 0 0 1
-13.428633 27.031403 -24.900319 39.128644 -1.109729 2.260580 0.051602 -0.018884 1191760.000000 0 0 1
-14.489633 27.906103 -25.443309 40.448264 -1.091885 2.251106 0.064578 -0.026875 1176280.000000 0 0 1
-15.089333 28.707803 -24.403919 40.587895 -1.086865 2.215875 0.066885 -0.023967 -20397.700000 0 0 1
-16.408133 29.406503 -24.800419 41.821406 -1.061850 2.205585 0.071284 -0.026539 329179.000000 0 0 1
-17.415833 28.409303 -24.815919 41.547919 -1.020849 2.210907 0.052007 -0.027585 -169337.000000 0 0 1
-18.634733 28.769403 -25.455709 42.695725 -0.996020 2.209571 0.044648 -0.022921 -54439.100000 0 0 1
-19.670433 27.672203 -25.448199 42.429796 -0.952834 2.214012 0.035487 -0.014877 -462063.000000 0 0 1
-20.188233 27.600203 -24.102019 41.835909 -0.939272 2.184756 0.039419 -0.023826 -373708.000000 0 0 1
-21.251933 26.685203 -24.107519 41.772206 -0.898258 2.185992 0.039796 -0.031909 -603983.000000 0 0 1
-21.851033 26.590703 -22.721119 41.240543 -0.882930 2.154288 0.039478 -0.028159 -499263.000000 0 0 1
-22.596933 27.730503 -22.386519 42.199033 -0.887050 2.129985 0.035297 -0.022739 -121105.000000 0 0 1
-22.963933 27.800803 -21.033519 41.744889 -0.880392 2.098856 0.017626 -0.017768 -294368.000000 0 0 1
-24.306733 28.474403 -20.699819 42.779568 -0.864196 2.075870 0.002334 -0.012155 -156485.000000 0 0 1
-25.412283 27.654003 -21.051619 43.054601 -0.827617 2.081684 0.000712 -0.009088 -469408.000000 0 0 1
-26.541333 28.477003 -21.116319 44.286352 -0.820566 2.067822 0.012303 -0.007831 -705989.000000 0 0 1
-27.790033 27.683403 -21.481719 44.722712 -0.783476 2.071829 0.005958 -0.008354 -547315.000000 0 0 1
-27.944493 27.393503 -22.868819 45.324183 -0.775442 2.099670 0.003031 -0.003305 -639415.000000 0 0 1
-29.198963 26.867803 -23.164319 45.946098 -0.743844 2.099209 0.013801 -0.003877 -617505.000000 0 0 1
-29.415173 26.383203 -24.556219 46.522400 -0.731114 2.126848 0.010508 0.007067 -24400.100000 0 0 1
-28.925283 25.116403 -24.837519 45.655318 -0.715034 2.146020 0.025557 0.003203 -268074.000000 0 0 1
-28.967313 24.911403 -26.223119 46.339348 -0.710261 2.172312 0.046138 0.002448 -51470.900000 0 0 1
-29.004973 23.418503 -26.667769 45.835408 -0.679235 2.191756 0.051081 -0.005007 -264859.000000 0 0 1
-27.810823 22.676803 -26.592319 44.663528 -0.684058 2.208550 0.048477 -0.007909 -225293.000000 0 0 1
-27.995773 21.373203 -27.018539 44.391199 -0.652050 2.225150 0.061631 -0.019486 -49207.000000 0 0 1
-26.721743 20.496703 -27.053799 43.198084 -0.654319 2.247560 0.063273 -0.016453 -32378.100000 0 0 1
-26.220163 20.152003 -25.808289 41.948396 -0.655280 2.233485 0.072804 -0.013024 59152.100000 0 0 1
-25.691423 18.817803 -25.718479 40.934082 -0.632177 2.250150 0.045946 -0.023370 4648.330000 0 0 1
-26.721743 17.664703 -25.747299 41.097648 -0.584112 2.247839 0.057834 -0.017471 -49692.400000 0 0 1
-27.426363 17.464103 -26.967519 42.242720 -0.567014 2.263207 0.062283 -0.019515 -214910.000000 0 0 1
-28.305823 16.424203 -26.665159 42.213798 -0.525764 2.254501 0.044741 -0.020558 -398810.000000 0 0 1
-29.149743 15.939103 -27.869789 43.364590 -0.500384 2.268795 0.039384 -0.027805 -145995.000000 0 0 1
-30.378403 16.588603 -28.062309 44.559200 -0.499818 2.252061 0.031808 -0.028167 -436071.000000 0 0 1
-31.096853 15.902603 -29.040279 45.422955 -0.472718 2.264424 0.027844 -0.020833 -234679.000000 0 0 1
-32.465943 16.519603 -29.365499 46.789607 -0.470686 2.249272 0.012930 -0.016815 -537411.000000 0 0 1
-33.509993 16.204503 -28.510339 46.886512 -0.450419 2.224425 0.006646 -0.016778 -436955.000000 0 0 1
-34.708893 16.659703 -29.104599 48.263140 -0.447507 2.218103 0.014840 -0.017052 889413.000000 0 0 1
-36.052013 16.354803 -28.331939 48.681886 -0.425881 2.191959 0.009917 -0.013539 966820.000000 0 0 1
35.955801 17.225703 -27.251579 48.292784 0.446772 2.170380 0.013144 -0.018880 -571545.000000 0 0 1
34.765641 16.884003 -26.627879 46.933605 0.452103 2.174083 0.022173 -0.022891 -559478.000000 0 0 1
34.379121 17.910803 -25.552229 46.428840 0.480290 2.153583 0.027319 -0.012913 -161611.000000 0 0 1
33.762991 19.041703 -26.122049 46.742779 0.513514 2.163791 0.028364 -0.021533 104719.000000 0 0 1
33.468681 20.033903 -25.162029 46.418074 0.539380 2.143700 0.035304 -0.017229 -801477.000000 0 0 1
32.813951 21.309803 -25.747309 46.837880 0.575962 2.152815 0.036859 -0.023748 354275.000000 0 0 1
31.473951 21.115703 -26.161899 46.053528 0.590924 2.174962 0.037482 -0.026704 -296116.000000 0 0 1
30.445541 21.240303 -25.238599 44.889512 0.609146 2.167886 0.061240 -0.018690 196519.000000 0 0 1
29.053611 21.129803 -25.968359 44.327605 0.628794 2.196698 0.033607 -0.021328 674494.000000 0 0 1
28.794921 19.851103 -26.435929 43.841443 0.603574 2.218040 0.038210 -0.026601 -520533.000000 0 0 1
27.503501 19.803503 -26.976509 43.316894 0.624047 2.243076 0.048206 -0.029760 -155042.000000 0 0 1
26.787081 18.436603 -26.977289 42.251984 0.602806 2.263325 0.066669 -0.022957 -45124.000000 0 0 1
27.545141 17.459703 -27.666359 42.766850 0.564944 2.274323 0.058463 -0.028629 408413.000000 0 0 1
28.445621 16.777503 -26.773719 42.514350 0.532893 2.252037 0.057876 -0.020945 745203.000000 0 0 1
29.498831 15.864903 -27.501739 43.338456 0.493440 2.258262 0.044841 -0.015752 562215.000000 0 0 1
28.867341 14.705303 -28.094779 42.882233 0.471147 2.285192 0.058459 -0.023053 580782.000000 0 0 1
28.262681 13.733603 -27.170899 41.540928 0.452326 2.283756 0.066786 -0.021331 429755.000000 0 0 1
29.253551 13.031603 -26.164629 41.354331 0.419081 2.255823 0.059856 -0.013938 270703.000000 0 0 1
29.656791 13.902003 -25.156869 41.299624 0.438347 2.225760 0.063185 -0.019197 17689.000000 0 0 1
30.383051 13.332703 -24.082919 40.998509 0.413518 2.198651 0.058961 -0.017545 -53243.100000 0 0 1
-14.313533 -31.368643 -23.978019 41.997790 1.142715 2.178441 0.113094 0.000946 -336871.000000 0 0 1
-13.656233 -30.349243 -24.626119 41.400664 1.147968 2.207843 0.101365 -0.010941 -27315.300000 0 0 1
-14.219433 -29.950143 -25.904129 42.074069 1.127536 2.234044 0.081644 -0.001197 169728.000000 0 0 1
-13.507333 -28.706543 -26.539189 41.362329 1.131000 2.267414 0.077782 -0.004130 -72971.400000 0 0 1
-13.909033 -27.547543 -25.846449 40.253786 1.103228 2.268014 0.082241 -0.012110 -63092.500000 0 0 1
-13.395133 -26.360243 -26.410719 39.646161 1.100645 2.299846 0.075216 -0.015885 -340285.000000 0 0 1
-13.897133 -25.011243 -25.785059 38.517033 1.063637 2.304259 0.051651 -0.010850 -312062.000000 0 0 1
-13.252233 -24.680043 -24.594319 37.277429 1.078019 2.291301 0.067424 -0.016657 19795.500000 0 0 1
-13.610933 -23.379943 -24.235819 36.321539 1.043596 2.301317 0.072554 -0.012055 -26064.900000 0 0 1
-12.917333 -22.819643 -22.961719 34.854471 1.055705 2.290003 0.075388 -0.006030 -164725.000000 0 0 1
-11.552233 -22.521743 -23.084319 34.257390 1.096853 2.310203 0.087823 -0.013101 -449547.000000 0 0 1
-11.118033 -21.990343 -21.839419 32.926374 1.102689 2.295990 0.076298 -0.011009 402964.000000 0 0 1
-9.582633 -21.749243 -21.848219 32.283140 1.155790 2.314161 0.064604 -0.011451 239812.000000 0 0 1
-9.122733 -20.691043 -22.650019 32.005732 1.155534 2.357014 0.067390 -0.010178 632807.000000 0 0 1
-7.706433 -20.812043 -22.844319 31.849539 1.216164 2.370655 0.065396 -0.004331 625685.000000 0 0 1
-7.127333 -19.700643 -23.722019 31.648829 1.223664 2.418161 0.060020 0.003645 -89450.200000 0 0 1
-7.170833 -18.507743 -22.992719 30.374702 1.201155 2.429459 0.068071 -0.002806 -113385.000000 0 0 1
-7.780033 -17.425543 -23.684519 30.416030 1.150879 2.463364 0.056970 -0.015085 389597.000000 0 0 1
-6.881933 -16.648043 -24.743019 30.606132 1.178811 2.512282 0.066574 -0.008622 516424.000000 0 0 1
-6.459933 -17.332343 -25.879389 31.810118 1.214035 2.521042 0.081015 -0.015171 217937.000000 0 0 1
-5.559333 -16.605943 -26.710859 31.939529 1.247745 2.561286 0.058339 -0.018176 12799.600000 0 0 1
-5.384033 -17.272743 -28.080619 33.404440 1.268634 2.569233 0.061978 -0.015535 310803.000000 0 0 1
-6.403033 -17.056643 -29.068649 34.306184 1.211677 2.581733 0.086488 -0.020109 554313.000000 0 0 1
-6.112333 -17.908143 -30.211109 35.647908 1.241879 2.582028 0.082673 -0.030054 -14439.100000 0 0 1
-6.913133 -17.500443 -31.412119 36.616637 1.194585 2.601896 0.095243 -0.028274 -30328.500000 0 0 1
-6.289533 -16.378743 -32.044339 36.533014 1.204154 2.640657 0.086818 -0.028736 211636.000000 0 0 1
-6.527333 -15.134543 -31.474539 35.528961 1.163613 2.659192 0.068021 -0.026488 -28924.800000 0 0 1
-7.250433 -14.183543 -32.469439 36.166368 1.098240 2.685499 0.071189 -0.026216 -594591.000000 0 0 1
-6.371533 -13.716543 -33.439719 36.700883 1.135938 2.716843 0.067215 -0.033662 -534922.000000 0 0 1
-6.921233 -13.055343 33.904012 36.984151 1.083324 0.411011 0.069822 -0.026335 -434438.000000 0 0 1
-7.406733 -11.567243 34.127790 36.788134 1.001256 0.382633 0.050577 -0.020275 205956.000000 0 0 1
-6.360533 -10.631443 -34.155355 36.332798 1.031646 2.793630 0.037282 -0.019218 -48702.700000 0 0 1
-5.625633 -10.406643 33.075575 35.127476 1.075213 0.343484 0.039481 -0.025246 -433724.000000 0 0 1
-4.698533 -9.235343 33.271916 34.848073 1.100169 0.301909 0.032004 -0.023366 -691724.000000 0 0 1
-4.411733 -8.695943 31.976161 33.429892 1.101300 0.295989 0.028820 -0.022009 -184085.000000 0 0 1
-3.465433 -7.660843 32.051521 33.136049 1.145984 0.256553 0.017813 -0.027055 -715081.000000 0 0 1
-3.642833 -6.810543 30.754421 31.709433 1.079634 0.246049 0.011736 -0.021310 1959160.000000 0 0 1
-4.892333 -6.026043 30.664721 31.631839 0.888862 0.247916 0.003718 -0.017289 1176780.000000 0 0 1
-6.093733 -6.681943 30.408071 31.724324 0.831407 0.289069 0.007778 -0.016125 -952738.000000 0 0 1
-7.293933 -5.758743 30.345251 31.736396 0.668321 0.297181 0.005148 -0.016711 -973592.000000 0 0 1
-8.413933 -6.360743 29.821471 31.631842 0.647316 0.339962 0.012394 -0.012948 -909839.000000 0 0 1
-9.510533 -5.470643 29.716271 31.677041 0.521999 0.353689 0.017265 -0.011906 -155361.000000 0 0 1
-10.666633 -5.932843 28.865321 31.339790 0.507595 0.400044 0.033975 -0.011911 -371736.000000 0 0 1
-10.197733 -5.993543 27.526481 29.960365 0.531351 0.405860 0.029776 -0.012421 325076.000000 0 0 1
-11.170733 -6.575743 26.700491 29.680665 0.532038 0.451962 0.035840 -0.015127 -123106.000000 0 0 1
-10.907933 -6.344943 25.184491 28.169130 0.526841 0.464500 0.028839 -0.014510 -14560.300000 0 0 1
-9.896833 -7.218643 24.724121 27.592359 0.630179 0.460007 0.021898 -0.012426 238134.000000 0 0 1
-9.305533 -6.891943 23.445711 26.149439 0.637476 0.458755 0.025539 -0.023176 -152318.000000 0 0 1
-10.199233 -7.111743 22.206551 25.450582 0.608900 0.510427 0.038007 -0.026441 478966.000000 0 0 1
-11.300433 -6.187243 22.139551 25.615259 0.500939 0.527017 0.035647 -0.019023 -6891.570000 0 0 1
-12.105733 -6.376443 20.992651 25.057917 0.484802 0.577619 0.039440 -0.019389 -155949.000000 0 0 1
-13.247533 -5.356043 20.997251 25.398206 0.384212 0.597541 0.035908 -0.008069 -4407.920000 0 0 1
-12.781333 -4.166143 20.452251 24.474758 0.315096 0.581487 0.027060 -0.007373 62998.000000 0 1 0
-13.856033 -3.249743 20.424051 24.893620 0.230373 0.608593 0.034697 -0.005499 243838.000000 0 1 0
-13.489633 -1.805743 20.160451 24.324364 0.133070 0.593806 0.019281 0.002624 345734.000000 0 1 0
-12.605733 -1.002743 20.980051 24.496378 0.079379 0.542433 0.026816 -0.006682 347016.000000 0 1 0
-12.730133 0.408257 20.831251 24.416469 -0.032059 0.548775 0.021048 -0.004995 -159439.000000 0 1 0
-12.254833 1.075257 19.458551 23.021127 -0.087517 0.563768 0.022541 -0.012919 245160.000000 0 1 0
-13.067133 0.852257 18.290551 22.494901 -0.065129 0.621343 0.031221 -0.011439 -506428.000000 0 1 0
-14.208233 1.662257 18.325351 23.247698 -0.116463 0.662812 0.029875 -0.007898 -360668.000000 0 1 0
-15.374333 1.028257 17.534351 23.342684 -0.066782 0.720962 0.044921 -0.000879 -112428.000000 0 1 0
-15.764533 -0.238743 18.060651 23.974249 0.015143 0.717677 0.038074 0.002335 -12419.100000 0 1 0
-16.789133 -0.719743 17.226751 24.065618 0.042843 0.772993 0.050948 0.005300 -82911.500000 0 1 0
-16.946033 -2.311743 17.204451 24.259129 0.135581 0.782441 0.050363 0.003978 54055.500000 0 1 0
-17.494833 -2.732743 18.441151 25.565858 0.154951 0.765091 0.055416 0.006503 42240.000000 0 0 1
-17.298833 -4.176543 18.608451 25.748157 0.236901 0.763081 0.053948 -0.000042 -111042.000000 0 0 1
-18.032133 -4.653543 19.885651 27.244309 0.252559 0.752619 0.049231 0.003318 -525309.000000 0 0 1
-17.539233 -4.205143 21.098451 27.757027 0.235315 0.707311 0.059537 0.002001 -35987.000000 0 0 1
-18.411133 -4.244643 22.229151 29.173995 0.226588 0.704476 0.054875 -0.004489 -278440.000000 0 0 1
-18.864133 -5.624243 22.739451 30.076074 0.289754 0.713517 0.051951 -0.001905 454845.000000 0 0 1
-17.884033 -6.453343 23.400201 30.150517 0.346302 0.682319 0.071783 -0.009596 526671.000000 0 0 1
-16.877633 -7.037943 22.591651 29.064924 0.395074 0.680462 0.047949 -0.005363 253028.000000 0 0 1
-15.718433 -7.602843 23.489611 29.268313 0.450514 0.639220 0.045122 -0.010461 208142.000000 0 0 1
-16.065733 -8.681043 24.335761 30.425278 0.495401 0.643745 0.053104 -0.014274 -355040.000000 0 0 1
-14.993433 -9.028643 25.163891 30.651930 0.542016 0.607713 0.057284 -0.009100 -35407.800000 0 0 1
-15.323433 -9.946443 26.345501 32.059706 0.575742 0.606297 0.044428 -0.014190 -92242.600000 0 0 1
-15.340133 -11.304643 25.976741 32.216544 0.635085 0.632898 0.037877 -0.015660 -7650.980000 0 0 1
-14.659233 -12.120443 26.942961 32.980621 0.690878 0.614723 0.040194 -0.011528 174385.000000 0 0 1
-14.946433 -13.639443 26.808921 33.587922 0.739708 0.646543 0.016417 -0.012540 -999899.000000 0 0 1
-16.123833 -14.143643 27.295431 34.713991 0.720068 0.666007 0.023695 -0.016396 -971440.000000 0 0 1
-16.302033 -15.564043 27.116881 35.260756 0.762243 0.693461 0.028827 -0.007051 109991.000000 0 0 1
-15.232333 -16.467743 27.799021 35.721087 0.824350 0.678963 0.030422 -0.006240 164455.000000 0 0 1
-13.928733 -16.415343 27.281751 34.752943 0.867163 0.668068 0.031411 -0.012422 162483.000000 0 0 1
-13.027633 -17.187143 28.091041 35.415021 0.922203 0.654757 0.031733 -0.010299 169801.000000 0 0 1
-11.926533 -17.860043 27.268291 34.709984 0.982025 0.667125 0.033144 -0.011048 -117691.000000 0 0 1
-10.927933 -18.465643 28.074071 35.334872 1.036429 0.652589 0.041029 -0.020111 231371.000000 0 0 1
-9.914933 -19.027843 27.249931 34.683187 1.090431 0.667000 0.034561 -0.017539 60067.100000 0 0 1
-8.688233 -19.475043 28.073481 35.254546 1.151173 0.649629 0.059377 -0.017862 -175494.000000 0 0 1
-8.969233 -20.628143 28.750541 36.504260 1.160650 0.663902 0.048819 -0.014188 208494.000000 0 0 1
-7.913233 -21.061843 29.596931 37.177934 1.211400 0.649992 0.065534 -0.020094 130141.000000 0 0 1
-8.205333 -22.389543 30.355801 38.601733 1.219516 0.665862 0.046755 -0.018553 15623.300000 0 0 1
-8.104333 -23.555643 29.549261 38.648510 1.239431 0.700432 0.043745 -0.017267 17213.800000 0 0 1
-8.555333 -24.695643 30.307001 40.019780 1.237305 0.711627 0.035258 -0.015338 -70146.900000 0 0 1
-8.595733 -25.983743 29.399091 40.166504 1.251317 0.749645 0.043187 -0.012612 238940.000000 0 0 1
-9.724333 -25.957143 28.513861 39.766521 1.212350 0.771262 0.042106 -0.015331 594434.000000 0 0 1
-9.738033 -27.152543 27.771241 40.041625 1.226444 0.804378 0.049948 -0.017331 389642.000000 0 0 1
-11.067333 -27.409243 26.976441 40.018506 1.187035 0.831052 0.039369 -0.015212 540320.000000 0 0 1
-11.108933 -26.696343 25.772981 38.734347 1.176469 0.842796 0.049335 -0.015973 151770.000000 0 0 1
-11.779833 -25.457043 25.794641 38.107598 1.137404 0.827267 0.035773 -0.008156 -408584.000000 0 0 1
-11.959833 -24.867743 24.358651 36.807419 1.122515 0.847597 0.040287 -0.020577 -283897.000000 0 0 1
-13.078933 -25.385643 23.697011 37.108458 1.095055 0.878135 0.028987 -0.009228 -255613.000000 0 0 1
-13.339933 -24.687343 22.516651 35.978025 1.075388 0.894582 0.033825 -0.015257 191954.000000 0 0 1
-14.778233 -24.803443 21.942051 36.263764 1.033461 0.920945 0.028316 -0.011718 115975.000000 0 0 1
-15.031133 -26.045843 21.243851 36.818774 1.047383 0.955765 0.041018 -0.012805 432771.000000 0 0 1
-16.237333 -26.042243 20.477151 36.893944 1.013277 0.982400 0.036916 -0.015007 425516.000000 0 0 1
-16.499633 -27.405143 19.805951 37.623868 1.028861 1.016412 0.037481 -0.010885 129473.000000 0 0 1
-15.707833 -27.610643 18.649651 36.836030 1.053555 1.039921 0.028648 -0.021582 124390.000000 0 0 1
-15.584433 -28.969643 18.427551 37.705297 1.077246 1.060168 0.045798 -0.009337 492210.000000 0 0 1
-14.522233 -29.355643 17.320451 37.049252 1.111398 1.084338 0.041359 -0.013555 601715.000000 0 0 1
-14.892633 -29.127543 16.003751 36.418736 1.098157 1.115824 0.040876 -0.018862 107717.000000 0 0 1
-13.676633 -28.943543 15.305851 35.483067 1.129367 1.124801 0.049213 -0.009498 311497.000000 0 0 1
-13.956633 -28.403943 13.860951 34.549928 1.114083 1.157985 0.042286 -0.012591 37556.900000 0 0 1
-14.367933 -27.065743 13.861451 33.632303 1.082772 1.145987 0.043815 -0.008975 -173890.000000 0 0 1
-14.586433 -26.435143 12.615151 32.721902 1.066586 1.175018 0.052329 -0.021648 -197240.000000 0 0 1
-13.489533 -26.487043 11.538251 31.885141 1.099746 1.200524 0.043345 -0.013966 -233823.000000 0 0 1
-13.813133 -25.952943 10.298251 31.151435 1.081692 1.233871 0.044103 -0.008041 33906.500000 0 0 1
-12.877133 -26.256543 9.263651 30.676405 1.114830 1.264028 0.049429 -0.006310 321549.000000 0 0 1
-13.390833 -25.609643 7.965551 29.976962 1.089011 1.301843 0.056797 -0.011551 -440688.000000 0 0 1
-14.587033 -26.129843 7.511851 30.854143 1.061640 1.324861 0.044344 -0.009001 -680314.000000 0 0 1
-15.165133 -25.468943 6.403951 30.325879 1.033739 1.358023 0.051710 -0.012423 452040.000000 0 0 1
-15.921633 -26.379443 5.358851 31.274442 1.027762 1.398597 0.047908 -0.013061 700748.000000 0 0 1
-15.043733 -27.030443 4.448851 31.253017 1.062940 1.427962 0.062232 -0.017469 248018.000000 0 0 1
-15.700533 -27.190843 3.189951 31.559856 1.047145 1.469547 0.069718 -0.021404 -352474.000000 0 0 1
-15.280633 -28.444243 2.368751 32.375665 1.077823 1.497566 0.065155 -0.011817 -1651800.000000 0 0 1
-13.976233 -28.432543 1.985151 31.744061 1.113925 1.508219 0.051045 -0.004529 -1652240.000000 0 0 1
-13.581933 -29.690643 1.552451 32.686592 1.141766 1.523283 0.036428 -0.005385 983092.000000 0 0 1
-12.107533 -29.669343 0.958451 32.059022 1.183342 1.540895 0.019231 -0.004914 1041340.000000 0 0 1
-12.027533 -29.152843 -0.381149 31.538787 1.179503 1.582882 0.029275 0.000100 -13736.300000 0 0 1
-12.164333 -27.744043 -0.482149 30.297449 1.157590 1.586711 0.020974 -0.004579 -454394.000000 0 0 1
-11.830533 -27.162943 -1.861949 29.685920 1.160033 1.633559 0.027923 0.003366 17813.000000 0 0 1
-10.500733 -27.397943 -2.284149 29.430087 1.204797 1.648487 0.020318 0.004842 -139001.000000 0 0 1
-10.131833 -26.615443 -3.404549 28.681472 1.207060 1.689779 0.036660 0.002214 -1826220.000000 0 0 1
-8.714133 -26.701843 -3.734549 28.334986 1.255344 1.702981 0.028160 0.002893 -1913040.000000 0 0 1
-8.375033 -26.002943 -4.951549 27.763503 1.259208 1.750103 0.036997 0.003764 -681387.000000 0 0 1
-6.985833 -26.050043 -5.113349 27.450919 1.308791 1.758163 0.034985 0.005645 22298.600000 0 0 1
-6.354633 -24.920843 -5.991549 26.406978 1.321124 1.799682 0.030508 0.007186 -4664.980000 0 0 1
-6.711133 -25.004043 -7.364249 26.916048 1.308575 1.847931 0.039786 0.006454 -156647.000000 0 0 1
-6.247533 -23.877243 -8.006749 25.947302 1.314881 1.884493 0.025306 0.008097 -251868.000000 0 0 1
-6.539533 -23.814143 -9.539349 26.474103 1.302795 1.939415 0.042361 0.002918 8958.530000 0 0 1
-5.598333 -24.604243 -10.275049 27.244940 1.347070 1.957498 0.019445 -0.000287 271154.000000 0 0 1
-5.741233 -24.615443 -11.694349 27.850307 1.341656 2.004132 0.014241 0.001745 277655.000000 0 0 1
-7.037833 -25.385643 -12.132649 29.002813 1.300352 2.002399 0.019754 -0.003023 680215.000000 0 0 1
-7.350733 -25.324943 -13.518449 29.633334 1.288302 2.044506 0.032899 -0.003625 159600.000000 0 0 1
-8.494833 -26.074043 -13.885249 30.737893 1.255844 2.039501 0.041255 -0.003709 -128249.000000 0 0 1
-8.601633 -26.002943 -15.487249 31.464203 1.251332 2.085432 0.041295 -0.009758 30689.900000 0 0 1
-7.737933 -26.858443 -16.203949 32.308197 1.290292 2.096178 0.031398 -0.016149 2591.550000 0 0 1
-6.489133 -26.253743 -16.473649 31.666213 1.328483 2.117914 0.029799 -0.008480 516373.000000 0 0 1
-5.369133 -27.250743 -16.988449 32.558225 1.376261 2.119740 0.022423 -0.010215 269075.000000 0 0 1
-5.359233 -27.295943 -18.410049 33.357455 1.376924 2.155440 0.056971 -0.013642 -412012.000000 0 0 1
-4.226933 -27.875043 -18.959449 33.975664 1.420304 2.162807 0.053840 -0.021010 -754185.000000 0 0 1
-24.994833 13.849203 -4.957819 29.002105 -0.505972 1.742587 0.063814 -0.038258 -39574.500000 0 0 1
-25.074963 12.438803 -4.725219 28.386710 -0.460494 1.738034 0.066212 -0.025889 215460.000000 0 0 1
-23.810833 11.873303 -4.943419 27.062308 -0.462568 1.754496 0.070355 -0.019867 -562350.000000 0 0 1
-23.917933 10.346203 -4.684719 26.477501 -0.408266 1.748665 0.079336 -0.033561 -229541.000000 0 0 1
-24.444933 9.592203 -5.728219 26.877083 -0.373938 1.785570 0.073531 -0.050390 547138.000000 0 0 1
-25.860353 9.601503 -5.880519 28.205092 -0.355508 1.780829 0.086214 -0.051122 -34467.400000 0 0 1
-26.221853 9.258403 -7.284619 28.746640 -0.339416 1.826998 0.096783 -0.039047 -239928.000000 0 0 1
-25.992353 10.300803 -8.186219 29.132854 -0.377314 1.855628 0.113261 -0.019735 76385.700000 0 0 1
-26.208033 9.751603 -9.480219 29.526756 -0.356212 1.897658 0.114323 -0.025448 -419319.000000 0 0 1
-26.502413 10.784503 -10.535019 30.490491 -0.386462 1.923587 0.095478 -0.023834 -128167.000000 0 0 1
-25.394563 11.466203 -11.055019 29.976176 -0.424119 1.948507 0.081826 -0.024307 693.352000 0 0 1
-25.888093 12.364003 -12.015219 31.103495 -0.445563 1.967411 0.086289 -0.023289 468661.000000 0 0 1
-24.855733 13.411203 -12.613719 30.931760 -0.494794 1.990831 0.062593 -0.019080 255901.000000 0 0 1
-24.561433 14.477003 -11.727419 30.828233 -0.532604 1.961038 0.054396 -0.015738 376318.000000 0 0 1
-23.748333 15.492303 -12.325619 30.917886 -0.578028 1.980848 0.037195 -0.015146 53794.400000 0 0 1
-23.776933 16.878303 -11.677019 31.409751 -0.617313 1.951705 0.023450 -0.012744 -183352.000000 0 0 1
-23.014133 17.014103 -10.465619 30.473910 -0.636611 1.921362 0.025039 -0.004334 360079.000000 0 0 1
-23.020633 18.380303 -10.089419 31.138103 -0.673781 1.900774 -0.000005 0.002302 121274.000000 0 0 1
-21.948833 18.631603 -8.980619 30.158571 -0.703835 1.873163 0.011573 0.002365 165555.000000 0 0 1
-22.313033 17.959603 -7.776019 29.679711 -0.677717 1.835888 0.031585 -0.006169 643611.000000 0 0 1
-23.243133 18.665103 -6.942219 30.607576 -0.676590 1.799601 0.039865 -0.017831 140318.000000 0 0 1
-23.567733 17.990003 -5.618119 30.176838 -0.651979 1.758062 0.039424 -0.015104 -915200.000000 0 0 1
-22.529433 17.960603 -4.743519 29.200336 -0.673035 1.733967 0.045957 -0.022384 -689133.000000 0 0 1
-22.944233 17.395003 -3.521519 29.007328 -0.648692 1.692498 0.036089 -0.019414 219091.000000 0 0 1
-21.763033 17.299303 -2.509819 27.914059 -0.671620 1.660830 0.055919 -0.025842 -188239.000000 0 0 1
-21.320833 18.538903 -2.051519 28.328035 -0.715718 1.643280 0.071426 -0.030940 24218.300000 0 0 1
-20.322233 18.376203 -1.077919 27.419699 -0.735153 1.610118 0.106191 -0.038982 -197634.000000 0 0 1
-19.741633 19.649103 -0.492519 27.857888 -0.783049 1.588477 0.097405 -0.046238 -208744.000000 0 0 1
-20.604533 20.225503 0.448981 28.875930 -0.776115 1.555247 0.074470 -0.041567 92195.700000 0 0 1
-20.401233 21.612203 0.689781 29.728327 -0.814214 1.547591 0.081685 -0.030291 164962.000000 0 0 1
-21.443933 22.004303 1.764681 30.775733 -0.798295 1.513425 0.043206 -0.031620 66130.900000 0 0 1
-21.048533 21.729203 3.061481 30.406770 -0.801309 1.469941 0.076334 -0.030806 232809.000000 0 0 1
-22.097933 22.009903 3.955281 31.438809 -0.783402 1.444653 0.044338 -0.021545 -331839.000000 0 0 1
-21.683433 21.414103 5.292181 30.931251 -0.779149 1.398855 0.051947 -0.021153 -425868.000000 0 0 1
-20.690633 22.194003 5.888381 30.908722 -0.820440 1.379116 0.047268 -0.005804 -161110.000000 0 0 1
-20.037233 21.710203 7.046281 30.372252 -0.825450 1.336666 0.048956 -0.013291 -295925.000000 0 0 1
-20.820633 21.425803 8.351181 31.021058 -0.799722 1.298224 0.046523 -0.036543 -450853.000000 0 0 1
-21.821533 20.410303 8.272781 31.003205 -0.751994 1.300687 0.050880 -0.034432 870652.000000 0 0 1
-22.417133 20.069603 9.528381 31.561161 -0.730201 1.264109 0.058077 -0.032339 443961.000000 0 0 1
-23.014033 21.136903 10.575481 32.988713 -0.742908 1.244456 0.059387 -0.034577 -627044.000000 0 0 1
-24.118933 21.851603 10.103381 34.077761 -0.736117 1.269791 0.064223 -0.029726 149861.000000 0 0 1
-24.646033 22.633803 11.152781 35.271809 -0.742864 1.249080 0.071854 -0.025349 655145.000000 0 0 1
-25.836293 23.616103 10.744181 36.615185 -0.740533 1.272978 0.076545 -0.026204 514949.000000 0 0 1
-26.554653 23.870103 11.894281 37.635161 -0.732210 1.249242 0.073906 -0.022865 -269611.000000 0 0 1
-27.160863 25.159103 11.862881 38.876997 -0.747157 1.260712 0.064076 -0.020074 -112374.000000 0 0 1
-27.594593 25.567303 13.256681 39.885939 -0.747282 1.231987 0.052063 -0.014649 -161539.000000 0 0 1
-26.563473 25.762503 14.205881 39.637504 -0.770092 1.204248 0.046384 -0.015900 -117356.000000 0 0 1
-27.027573 26.242403 15.441381 40.713507 -0.770660 1.181790 0.035995 -0.009803 559269.000000 0 0 1
-25.970003 26.179703 16.629381 40.451876 -0.789419 1.147146 0.031443 -0.011972 412192.000000 0 0 1
-25.579623 24.911703 17.118581 39.597423 -0.772171 1.123737 0.053954 -0.015483 -102699.000000 0 0 1
-24.603033 25.207303 18.083681 39.594657 -0.797529 1.096491 0.054978 -0.012245 -384273.000000 0 0 1
-24.074033 23.918803 18.728981 38.761359 -0.782164 1.066505 0.070959 -0.015716 -615291.000000 0 0 1
-22.903033 23.959803 19.473581 38.442704 -0.807945 1.039605 0.077699 -0.020060 -152291.000000 0 0 1
-22.488933 22.675203 19.869181 37.612515 -0.789522 1.014247 0.084656 -0.021592 -524383.000000 0 0 1
-21.039933 22.649303 20.362381 37.017513 -0.822218 0.988343 0.070912 -0.027016 -582797.000000 0 0 1
-20.129833 22.851603 19.242481 36.023312 -0.848638 1.007274 0.050856 -0.025362 580964.000000 0 0 1
-18.784533 22.629303 19.625281 35.356693 -0.877971 0.982355 0.046404 -0.024635 255225.000000 0 0 1
-18.379533 21.085803 19.542881 34.122464 -0.853864 0.960967 0.037794 -0.012373 -696070.000000 0 0 1
-18.904233 20.366303 20.624381 34.605223 -0.822612 0.932298 0.055115 -0.017723 417567.000000 0 0 1
-18.136533 20.593403 21.815681 35.056327 -0.848749 0.899114 0.068446 -0.026292 -132664.000000 0 0 1
-18.962133 20.163903 23.015581 35.998090 -0.816104 0.877136 0.073981 -0.020117 -760860.000000 0 0 1
-20.052533 21.002803 23.121681 37.119186 -0.808540 0.898347 0.064899 -0.011251 -881655.000000 0 0 1
-20.696933 20.857803 24.338481 38.154589 -0.789269 0.879039 0.082606 -0.014369 -857571.000000 0 0 1
-21.835933 21.780303 24.602981 39.452456 -0.784123 0.897443 0.080527 -0.012438 -1102640.000000 0 0 1
-21.347533 23.071603 24.951581 40.132250 -0.824192 0.899842 0.081167 -0.020572 334976.000000 0 0 1
-22.350333 23.993303 25.350081 41.446865 -0.820835 0.912679 0.076114 -0.027990 143391.000000 0 0 1
-23.239433 24.499603 24.144881 41.512373 -0.811789 0.950064 0.060693 -0.020812 92341.500000 0 0 1
-24.236033 23.608503 23.692981 41.305013 -0.772283 0.959890 0.059530 -0.023016 -94873.500000 0 0 1
-24.995233 24.297103 22.723881 41.611125 -0.771236 0.993093 0.056063 -0.009997 348710.000000 0 0 1
-26.080653 23.391203 22.045381 41.392604 -0.731088 1.009136 0.060503 -0.011890 241180.000000 0 0 1
-27.288323 23.233103 22.741481 42.445313 -0.705303 1.005361 0.057994 -0.013654 204483.000000 0 0 1
-28.215873 22.432403 22.004081 42.231834 -0.671702 1.022738 0.058603 -0.016634 656075.000000 0 0 1
-29.706093 22.569203 22.403181 43.516933 -0.649712 1.030004 0.057640 -0.011878 -101537.000000 0 0 1
-30.345783 23.731403 21.967481 44.346548 -0.663689 1.052548 0.049764 -0.009831 622341.000000 0 0 1
-31.772313 23.711703 22.072581 45.375363 -0.641129 1.062781 0.035794 -0.005982 1362790.000000 0 0 1
-32.672113 22.975403 20.987581 45.120003 -0.612878 1.086992 0.031949 -0.008697 -287708.000000 0 0 1
-32.519063 21.548403 21.025881 44.316034 -0.585209 1.076454 0.026254 -0.005619 476348.000000 0 0 1
-33.196463 20.899003 19.949081 44.008401 -0.561868 1.100330 0.025768 -0.007220 99416.400000 0 0 1
-34.730853 20.760603 19.968581 45.121825 -0.538768 1.112358 0.014111 0.005504 54679.600000 0 0 1
-35.223806 19.761503 19.034681 44.649218 -0.511270 1.130380 0.023206 0.001376 885754.000000 0 0 1
35.715641 19.701403 18.992681 44.994158 0.504085 1.135020 0.032072 -0.000248 824403.000000 0 0 1
35.167191 18.708303 17.979081 43.703310 0.488904 1.146818 0.042469 -0.005682 -350882.000000 0 0 1
35.389191 17.329903 18.207881 43.407917 0.455370 1.137946 0.044845 -0.008657 367316.000000 0 0 1
34.838841 16.566003 17.107381 42.199997 0.443859 1.153393 0.056201 -0.018346 318377.000000 0 0 1
35.095741 15.072103 17.277681 41.921326 0.405639 1.145989 0.062249 -0.017510 163280.000000 0 0 1
34.326861 14.333103 16.343081 40.630869 0.395542 1.156842 0.080097 -0.032839 85421.700000 0 0 1
34.714601 12.970503 16.269881 40.472787 0.357571 1.157101 0.080595 -0.035188 -156020.000000 0 0 1
33.853091 12.136903 15.268081 39.069815 0.344242 1.169307 0.084742 -0.038079 -1895.870000 0 0 1
34.034151 12.616703 13.961281 38.889870 0.355002 1.203605 0.088526 -0.037726 453735.000000 0 0 1
33.030041 12.159003 13.058881 37.541435 0.352725 1.215517 0.095863 -0.035990 -13934.300000 0 0 1
33.104311 12.782703 11.669181 37.355892 0.368496 1.253100 0.109301 -0.031535 -675718.000000 0 0 1
34.203971 12.285503 10.993881 37.969865 0.344833 1.277048 0.094220 -0.027612 -325037.000000 0 0 1
34.241541 12.595803 9.637181 37.736092 0.352489 1.312552 0.084951 -0.015495 -628720.000000 0 0 1
35.645111 12.410103 9.085281 38.821733 0.335032 1.334580 0.071393 -0.008880 -787189.000000 0 0 1
36.112621 11.083003 9.044481 38.842721 0.297776 1.335790 0.086715 -0.015488 1998530.000000 0 0 1
-34.847451 10.956503 8.635481 37.536134 -0.304627 1.338659 0.096596 -0.011468 2121780.000000 0 0 1
-34.565708 11.017403 7.135381 36.974113 -0.308558 1.376595 0.107094 -0.021497 -358324.000000 0 0 1
-34.833853 12.304203 6.563181 37.521542 -0.339545 1.394974 0.097155 -0.027650 99694.100000 0 0 1
-34.482419 12.265903 5.191081 36.965348 -0.341757 1.429900 0.097599 -0.034732 283154.000000 0 0 1
-35.530477 13.012703 4.300181 38.081975 -0.351069 1.457636 0.094737 -0.033462 304244.000000 0 0 1
35.580041 12.363603 4.239981 37.904821 0.334434 1.458703 0.089374 -0.031648 333080.000000 0 0 1
34.506461 13.276203 4.019481 37.190182 0.367287 1.462506 0.086252 -0.031461 220709.000000 0 0 1
33.869651 13.740203 5.322981 36.936169 0.385392 1.426180 0.080724 -0.012213 -1251130.000000 0 0 1
33.358561 15.063403 5.191181 36.968203 0.424151 1.429908 0.064469 -0.002788 -72423.100000 0 0 1
33.133151 15.688903 6.422881 37.218285 0.442233 1.397355 0.054340 0.006973 128242.000000 0 0 1
31.865751 15.269703 7.216281 36.064728 0.446860 1.369344 0.067669 0.000882 -153562.000000 0 0 1
31.827781 13.892003 7.489581 35.525895 0.411549 1.358382 0.087828 -0.003534 -273102.000000 0 0 1
30.579131 13.439803 7.968281 34.339555 0.414095 1.336618 0.092484 -0.011666 18522.000000 0 0 1
30.386251 12.048303 7.402581 33.515430 0.377490 1.348089 0.107316 -0.011308 -136707.000000 0 0 1
30.156441 12.086503 6.010581 33.039697 0.381190 1.387858 0.082858 -0.018328 220563.000000 0 0 1
30.712611 10.963303 5.340981 33.045190 0.342865 1.408458 0.098143 -0.028403 -344203.000000 0 0 1
30.645711 11.051803 3.839181 32.803068 0.346114 1.453490 0.082990 -0.030133 179736.000000 0 0 1
29.294081 11.140003 3.409181 31.525630 0.363393 1.462444 0.063892 -0.020370 460574.000000 0 0 1
29.234491 11.148103 1.977481 31.350376 0.364312 1.507678 0.072027 -0.021735 1158510.000000 0 0 1
27.743381 11.305003 1.426881 29.992237 0.386942 1.523203 0.072759 -0.012299 1175530.000000 0 0 1
27.126281 10.042403 1.301781 28.954785 0.354564 1.525822 0.068023 -0.011991 -460116.000000 0 0 1
25.772781 10.108103 1.630581 27.732089 0.373765 1.511965 0.069739 -0.007835 -473513.000000 0 0 1
25.026981 8.745003 1.661381 26.562851 0.336161 1.508210 0.076084 -0.015948 -100647.000000 0 0 1
25.390081 7.914403 2.713581 26.733079 0.302167 1.469115 0.074376 -0.013640 414497.000000 0 0 1
26.711581 7.398403 2.678981 27.846398 0.270200 1.474442 0.093899 -0.017044 -4897.800000 0 0 1
27.064181 6.507603 3.890381 28.106118 0.235971 1.431933 0.091456 -0.012327 134427.000000 0 0 1
28.433361 6.130703 3.909881 29.348402 0.212365 1.437176 0.105653 -0.018685 571783.000000 0 0 1
28.810121 5.600003 5.208281 29.807873 0.191982 1.395166 0.089408 -0.011501 -623158.000000 0 0 1
30.299321 5.594103 5.491981 31.297040 0.182572 1.394404 0.089568 -0.018615 -679170.000000 0 0 1
30.843591 6.879503 5.636881 32.100297 0.219453 1.394279 0.105186 -0.027351 60927.700000 0 0 1
32.230021 6.841203 5.943381 33.479846 0.209157 1.392329 0.089227 -0.025209 358912.000000 0 0 1
32.798331 8.029003 6.668581 34.418968 0.240078 1.375816 0.077604 -0.028953 -43502.500000 0 0 1
32.327281 7.933903 8.009981 34.236818 0.240668 1.334650 0.088221 -0.036577 -48299.700000 0 0 1
32.892551 8.849703 8.833881 35.189126 0.262825 1.317042 0.088117 -0.030562 -305545.000000 0 0 1
32.407421 8.668403 10.281681 35.086965 0.261363 1.273397 0.087274 -0.033183 -743042.000000 0 0 1
31.081961 9.025703 10.512281 34.030276 0.282612 1.256750 0.091393 -0.039031 -629121.000000 0 0 1
30.774731 8.769403 11.862281 34.127704 0.277597 1.215802 0.097805 -0.047263 -854696.000000 0 0 1
29.301551 9.022803 12.162581 32.983636 0.298715 1.193137 0.077274 -0.047115 -680842.000000 0 0 1
28.937121 10.406303 12.454281 33.177662 0.345217 1.185988 0.089274 -0.042728 321140.000000 0 0 1
28.899011 11.274503 11.346381 33.030404 0.371973 1.220141 0.094137 -0.045289 -250814.000000 0 0 1
27.638281 11.230503 10.435681 31.605414 0.385959 1.234295 0.082460 -0.034175 -35679.100000 0 0 1
27.660961 12.208203 9.465381 31.682210 0.415638 1.267403 0.070555 0.000049 -414180.000000 0 0 1
26.348781 12.397403 9.063681 30.497609 0.439780 1.269045 0.069184 -0.002029 -956968.000000 0 0 1
26.296481 13.512503 8.045881 30.640314 0.474668 1.305090 0.047791 0.004921 -78292.300000 0 0 1
26.097881 14.797903 8.602381 31.210227 0.515813 1.291554 0.043508 0.007439 342385.000000 0 0 1
26.440481 15.851203 7.716681 31.779031 0.540056 1.325521 0.034394 0.008503 -798765.000000 0 0 1
26.371881 17.302203 8.210781 32.592319 0.580641 1.316129 0.048662 0.007620 740985.000000 0 0 1
25.122981 17.999603 8.335481 32.009844 0.621688 1.307356 0.059066 0.006012 738054.000000 0 0 1
24.083081 17.376503 9.073581 31.052657 0.625026 1.274270 0.066596 0.002315 -505213.000000 0 0 1
22.856681 18.283103 9.193581 30.679336 0.674681 1.266453 0.068484 -0.008434 -481046.000000 0 0 1
22.079481 18.366003 8.006281 29.814662 0.693840 1.298924 0.075914 -0.008284 739981.000000 0 0 1
21.045081 19.373403 8.140681 29.740458 0.744062 1.293533 0.112006 -0.021020 928477.000000 0 0 1
20.183881 19.547703 6.878281 28.927711 0.769388 1.330722 0.096700 -0.019029 6660.340000 0 0 1
21.009381 20.177903 5.914981 29.724213 0.765213 1.370464 0.062790 -0.002121 42753.000000 0 0 1
20.387981 20.604503 4.742181 29.371816 0.790680 1.408633 0.071507 -0.006297 -260348.000000 0 0 1
17.712167 17.280903 33.594127 41.724283 0.773075 0.634875 0.068880 -0.008646 383570.000000 0 0 1
16.996267 17.837303 32.459700 40.751375 0.809538 0.649262 0.056747 -0.012829 483545.000000 0 0 1
16.687067 16.790603 31.537961 39.433812 0.788491 0.643885 0.071095 -0.019583 50725.000000 0 0 1
16.178267 17.250203 30.146971 38.316389 0.817454 0.665205 0.077473 -0.023008 822079.000000 0 0 1
17.237667 17.761803 29.327321 38.375911 0.800373 0.700978 0.076285 -0.009410 528128.000000 0 0 1
16.613867 18.156003 28.140861 37.384075 0.829722 0.718567 0.082599 -0.019997 -154824.000000 0 0 1
17.614967 18.518803 27.072571 37.231132 0.810407 0.756637 0.079317 -0.021256 -558801.000000 0 0 1
18.342567 19.690603 27.244341 38.293912 0.820827 0.779232 0.075019 -0.019910 -119099.000000 0 0 1
19.071467 19.972903 26.071781 37.978618 0.808482 0.814151 0.077965 -0.017093 123504.000000 0 0 1
19.903067 21.300603 26.225281 39.212410 0.819303 0.838202 0.087569 -0.014821 390065.000000 0 0 1
19.086367 22.443603 26.007811 39.298994 0.866062 0.847588 0.071357 -0.016853 29604.700000 0 0 1
19.730567 23.533003 26.497141 40.561015 0.873063 0.858906 0.076339 -0.015090 -507009.000000 0 0 1
19.045967 24.886603 26.304241 40.914605 0.917569 0.872510 0.089485 -0.018189 -168090.000000 0 0 1
18.921067 25.251303 24.961541 40.233240 0.927737 0.901517 0.091920 -0.021332 104891.000000 0 0 1
18.069167 26.359403 25.004711 40.577684 0.969874 0.906864 0.081545 -0.025200 -275583.000000 0 0 1
18.088967 27.130303 23.664501 40.289858 0.982740 0.943008 0.069762 -0.022885 26796.700000 0 0 1
19.295767 27.834603 23.408011 41.170702 0.964629 0.966042 0.082077 -0.023933 341209.000000 0 0 1
19.033567 28.781403 22.417751 41.148528 0.986508 0.994645 0.072259 -0.019614 602508.000000 0 0 1
20.273867 29.701603 22.188151 42.255519 0.971854 1.017970 0.068279 -0.015635 145361.000000 0 0 1
21.188367 29.327903 21.213351 41.941376 0.945152 1.040504 0.070199 -0.015265 -187532.000000 0 0 1
22.427467 30.001403 21.341151 43.110557 0.928867 1.052923 0.068917 -0.024735 54824.900000 0 0 1
22.847867 30.537003 20.005551 43.066874 0.928447 1.087701 0.075721 -0.023339 -448760.000000 0 0 1
22.012667 31.486303 19.403251 43.039876 0.960662 1.103112 0.052492 -0.017645 -51232.300000 0 0 1
22.216067 31.483503 18.004651 42.531541 0.956294 1.133684 0.058712 -0.012356 202743.000000 0 0 1
21.277567 32.455203 17.212251 42.453935 0.990496 1.153343 0.066683 -0.015549 -210755.000000 0 0 1
21.609867 33.808503 17.378551 43.726596 1.002062 1.162075 0.062864 -0.015406 163349.000000 0 0 1
21.922567 -34.034943 16.214951 43.610789 -0.998566 1.189838 0.050418 -0.019690 585738.000000 0 0 1
23.062667 34.174703 15.149551 43.923864 0.977152 1.218659 0.043174 -0.014068 822936.000000 0 0 1
22.755967 32.942803 14.540451 42.596796 0.966291 1.222443 0.069430 -0.020768 85883.700000 0 0 1
22.046667 33.104603 13.322951 41.946052 0.983276 1.247577 0.034859 -0.013294 -232014.000000 0 0 1
21.869767 31.771203 12.604751 40.578021 0.967931 1.254941 0.040606 -0.025838 -698983.000000 0 0 1
22.904267 31.244703 11.832151 40.507242 0.938225 1.274375 0.067758 -0.040355 -296911.000000 0 0 1
22.409667 30.069003 11.136851 39.119912 0.930326 1.282119 0.063163 -0.035983 -304238.000000 0 0 1
23.487967 29.380403 10.256451 38.988299 0.896395 1.304599 0.073394 -0.032443 1332570.000000 0 0 1
24.664767 28.767703 10.842451 39.414340 0.862035 1.292114 0.076127 -0.027534 1263370.000000 0 0 1
25.580367 29.689203 11.409351 40.816384 0.859603 1.287493 0.087338 -0.033163 -266912.000000 0 0 1
27.030467 29.237103 11.739751 41.512360 0.824595 1.284083 0.095130 -0.033339 554634.000000 0 0 1
27.164967 28.419003 12.862551 41.364482 0.807955 1.254597 0.092480 -0.024757 -139579.000000 0 0 1
28.501767 28.411503 13.318651 42.390455 0.783812 1.251193 0.088104 -0.011969 94101.300000 0 0 1
28.736267 27.298303 14.415351 42.175499 0.759742 1.221971 0.072920 -0.020451 -409115.000000 0 0 1
29.867267 27.496803 15.197651 43.348545 0.744099 1.212593 0.068098 -0.029903 -446337.000000 0 0 1
30.126467 26.359003 16.080951 43.139286 0.718799 1.188806 0.069432 -0.030006 196142.000000 0 0 1
31.380767 26.573203 16.947451 44.475878 0.702633 1.179867 0.072736 -0.034016 691869.000000 0 0 1
32.645967 26.626803 16.283751 45.165322 0.684195 1.201953 0.081196 -0.024562 170607.000000 0 0 1
33.716667 26.536903 17.199051 46.225839 0.666798 1.189563 0.062821 -0.020125 457899.000000 0 0 1
35.084767 26.699703 16.455851 47.059643 0.650508 1.213566 0.064214 -0.026041 330059.000000 0 0 1
35.377367 27.987703 15.945751 47.844922 0.669302 1.231016 0.096480 -0.029986 -60209.600000 0 0 1
-35.741848 27.995003 15.300151 47.909231 -0.664447 1.245745 0.088610 -0.024892 295572.000000 0 0 1
-35.718448 29.227203 14.373351 48.338702 -0.685780 1.268884 0.092402 -0.025516 170543.000000 0 0 1
-35.948948 30.500903 14.993751 49.471653 -0.703594 1.262876 0.098731 -0.025414 110857.000000 0 0 1
-36.154748 31.511603 14.022751 49.967834 -0.716887 1.286340 0.091349 -0.009576 -168398.000000 0 0 1
35.023867 32.396503 14.375951 49.828432 0.746448 1.278127 0.093212 -0.014415 -1046640.000000 0 0 1
34.908867 33.558503 13.550551 50.283392 0.765678 1.297940 0.072429 -0.017746 484291.000000 0 0 1
33.895267 -34.101443 13.901251 50.050398 -0.788430 1.289350 0.075038 -0.014063 355016.000000 0 0 1
32.418467 34.153303 13.658351 49.030150 0.811452 1.288491 0.099918 -0.013688 -333380.000000 0 0 1
32.014167 33.033203 14.402851 48.203127 0.801063 1.267367 0.092075 -0.026726 -404860.000000 0 0 1
30.925367 32.387303 13.794951 46.857405 0.808485 1.271966 0.102034 -0.019010 3919.220000 0 0 1
30.080067 31.379903 14.627151 45.863518 0.806544 1.246198 0.101479 -0.032105 -81573.300000 0 0 1
29.310567 31.760203 15.726751 45.990765 0.825488 1.221800 0.099435 -0.035449 59751.400000 0 0 1
28.905467 30.619403 16.489551 45.221445 0.814184 1.197550 0.093994 -0.034556 13450.500000 0 0 1
27.845067 30.911803 17.572551 45.162837 0.837545 1.171149 0.080590 -0.035028 -146180.000000 0 0 1
27.730267 29.861903 18.562151 44.780067 0.822394 1.143383 0.068004 -0.022930 238652.000000 0 0 1
28.670067 30.060903 19.629951 45.945245 0.809075 1.129351 0.062559 -0.023851 302604.000000 0 0 1
28.631867 28.872103 20.672751 45.615181 0.789576 1.100446 0.053131 -0.021122 -505180.000000 0 0 1
27.430667 28.779503 21.365851 45.135361 0.809390 1.077681 0.062536 -0.020184 -549731.000000 0 0 1
27.420467 27.829403 22.418251 45.043708 0.792800 1.049851 0.043257 -0.014460 614932.000000 0 0 1
26.080067 27.832603 23.229551 44.659105 0.817894 1.023767 0.060069 -0.019742 968008.000000 0 0 1
24.882567 27.346403 22.588551 43.326787 0.832537 1.022361 0.082520 -0.019081 719922.000000 0 0 1
23.791767 27.334303 23.498551 43.190209 0.854578 0.995515 0.095278 -0.026216 81966.700000 0 0 1
23.681067 26.208303 24.588261 43.037781 0.836012 0.962685 0.085658 -0.025296 -419430.000000 0 0 1
24.765267 26.149703 25.499551 44.128817 0.812583 0.954712 0.065038 -0.024130 357374.000000 0 0 1
24.431467 25.220303 26.533341 44.011117 0.801284 0.923693 0.079394 -0.018670 -162821.000000 0 0 1
25.664567 24.970903 27.427421 45.105203 0.771700 0.917161 0.071024 -0.017279 157100.000000 0 0 1
26.101067 25.976303 28.344201 46.469643 0.783002 0.914798 0.073851 -0.020880 556681.000000 0 0 1
26.812767 27.025703 27.625831 47.037215 0.789353 0.943055 0.052236 -0.009030 -490309.000000 0 0 1
27.039267 28.339503 28.400761 48.382358 0.808873 0.943440 0.029872 -0.004788 -757394.000000 0 0 1
27.847667 28.139003 29.514311 49.380062 0.790602 0.930171 0.039399 -0.001245 -120113.000000 0 0 1
28.224767 29.399803 30.072831 50.649393 0.805787 0.935091 0.038995 0.000199 -550447.000000 0 0 1
29.723767 29.520603 30.300071 51.701669 0.781969 0.944614 0.022989 -0.000993 -486027.000000 0 0 1
30.412467 29.531903 29.045811 51.387844 0.770710 0.970088 0.003621 -0.001418 645277.000000 0 0 1
31.791767 29.902503 29.237101 52.532696 0.754785 0.980568 0.037250 -0.016336 870115.000000 0 0 1
32.425567 30.329803 27.899101 52.437335 0.752015 1.009781 0.025508 -0.010298 -265727.000000 0 0 1
32.165367 31.680103 27.473171 52.848981 0.777798 1.024129 0.020170 -0.009636 125646.000000 0 0 1
32.797067 31.872603 26.238421 52.725374 0.771104 1.049917 0.025486 -0.014432 -113584.000000 0 0 1
32.454667 33.274403 25.683471 53.104914 0.797869 1.065992 0.024486 -0.016978 -42400.500000 0 0 1
33.145267 34.253603 26.441491 54.507526 0.801841 1.064321 0.036479 -0.017379 3213.330000 0 0 1
32.768867 -33.046243 26.061741 53.339171 -0.789613 1.060307 0.033001 -0.009426 -170574.000000 0 0 1
33.545067 -31.819443 26.662451 53.372603 -0.759004 1.047713 0.033030 -0.009221 123933.000000 0 0 1
33.393967 -31.732543 28.085711 53.952928 -0.759893 1.023290 0.021810 -0.011792 290048.000000 0 0 1
34.295067 -30.754643 28.579121 54.210385 -0.731025 1.015507 0.025491 -0.018520 -23987.700000 0 0 1
34.109867 -30.401443 30.054981 54.690334 -0.727977 0.988973 0.014218 -0.011429 -121697.000000 0 0 1
34.536467 -31.416443 30.937851 56.008134 -0.738127 0.985578 0.024360 -0.011937 557431.000000 0 0 1
33.444467 -32.245543 31.330801 56.035047 -0.767149 0.977462 0.015752 -0.012484 -56141.400000 0 0 1
33.758067 -33.223643 32.496735 57.440885 -0.777420 0.969463 0.032291 -0.007643 -445176.000000 0 0 1
33.815267 -32.618543 33.826521 57.893653 -0.767386 0.946795 0.014631 -0.011905 218969.000000 0 0 1
33.944167 -33.466843 -33.467179 58.243352 -0.778317 2.182923 0.020657 -0.006199 118782.000000 0 0 1
32.874967 34.031103 -33.202549 57.803881 0.802676 2.182667 0.028088 0.000660 131585.000000 0 0 1
33.107067 32.971703 -34.087376 57.837360 0.783350 2.201070 0.039441 -0.004606 219845.000000 0 0 1
32.276767 31.851103 -33.846109 56.584817 0.778761 2.211985 0.047834 -0.000083 -125573.000000 0 0 1
32.399767 30.813003 33.438954 55.833231 0.760301 0.928660 0.036091 0.005826 464160.000000 0 0 1
33.675667 30.170303 33.426584 56.228411 0.730550 0.934179 0.042238 -0.006336 509733.000000 0 0 1
33.724767 29.310703 32.297921 55.132866 0.715487 0.944905 0.041185 -0.010723 507807.000000 0 0 1
35.122267 28.614303 32.140131 55.545836 0.683644 0.953756 0.052976 -0.016313 555493.000000 0 0 1
35.276567 27.513103 33.008681 55.596582 0.662380 0.935125 0.056650 -0.014164 130063.000000 0 0 1
-35.772948 27.063403 32.839500 55.592844 -0.647669 0.938852 0.032382 -0.013366 130792.000000 0 0 1
-35.523848 25.732603 33.612666 55.262301 -0.626899 0.916957 0.035925 -0.010815 -102677.000000 0 0 1
-36.091448 24.609103 33.048923 54.776197 -0.598443 0.923108 0.040601 -0.012207 -101160.000000 0 0 1
36.109267 23.566003 34.001465 54.912068 0.578222 0.903075 0.022646 -0.013851 256796.000000 0 0 1
35.609267 22.251503 33.302716 53.593098 0.558513 0.900269 0.019583 -0.020144 -185195.000000 0 0 1
-35.696648 21.717703 32.570223 52.978568 -0.546570 0.908688 0.029097 -0.017128 42894.500000 0 0 1
-35.978748 20.556803 31.888651 52.287077 -0.519094 0.914892 0.030482 -0.013348 254570.000000 0 0 1
-34.719348 20.168303 31.051931 50.758407 -0.526253 0.912514 0.023170 -0.019694 368998.000000 0 0 1
-34.341948 20.946203 29.912551 50.128569 -0.547689 0.931393 0.021401 -0.019619 145528.000000 0 0 1
-33.303848 20.410003 29.108881 48.713873 -0.549809 0.930357 0.050315 -0.023516 -46297.500000 0 0 1
-33.756348 19.295303 28.149501 48.002022 -0.519279 0.944160 0.053985 -0.020383 -384378.000000 0 0 1
-34.346048 18.163903 28.702701 48.305521 -0.486460 0.934537 0.058245 -0.019833 35392.000000 0 0 1
-34.926948 17.347903 27.741861 47.858669 -0.460997 0.952482 0.052023 -0.027410 -285901.000000 0 0 1
-35.689548 16.176903 28.327161 48.351463 -0.425568 0.944856 0.052714 -0.020604 -90459.400000 0 0 1
-34.827148 15.163203 28.837061 47.690974 -0.410633 0.921451 0.065755 -0.021899 388415.000000 0 0 1
-35.587548 14.065003 29.289581 48.188976 -0.376381 0.917501 0.072607 -0.027513 7946.340000 0 0 1
-34.669448 12.863503 29.610111 47.372977 -0.355288 0.895611 0.074970 -0.020256 329700.000000 0 0 1
-33.641948 13.249303 30.538251 47.327681 -0.375179 0.869444 0.074969 -0.016192 693840.000000 0 0 1
-32.751748 12.148103 30.707641 46.510349 -0.355184 0.849668 0.073722 -0.011399 257701.000000 0 0 1
-31.260548 12.563103 30.718791 45.592735 -0.382129 0.831504 0.067423 -0.011020 -592461.000000 0 0 1
-30.597348 12.616203 29.485791 44.325817 -0.391090 0.843027 0.060906 -0.010928 1913690.000000 0 0 1
-29.149248 12.802503 29.578151 43.456296 -0.413841 0.822159 0.055623 -0.017056 1792730.000000 0 0 1
-28.243148 11.700903 30.108311 42.908005 -0.392766 0.793023 0.068683 -0.012435 -642759.000000 0 0 1
-28.068948 10.590703 29.219411 41.878428 -0.360795 0.798587 0.068138 -0.017681 293689.000000 0 0 1
-26.981448 9.833103 29.762111 41.357849 -0.349480 0.767535 0.053457 -0.014464 13867.200000 0 0 1
-26.591648 8.610903 28.959061 40.247864 -0.313164 0.767688 0.049955 -0.018490 122503.000000 0 0 1
-27.446048 7.466903 28.881481 40.536158 -0.265629 0.777760 0.058108 -0.019241 750291.000000 0 0 1
-28.720448 7.691003 28.236511 41.003855 -0.261649 0.811197 0.064319 -0.018360 516442.000000 0 0 1
-29.479648 6.374903 28.087631 41.214124 -0.212968 0.820979 0.064426 -0.018188 -145888.000000 0 0 1
-30.029148 5.910503 29.332331 42.391855 -0.194341 0.806633 0.071748 -0.019031 -43126.300000 0 0 1
-30.622348 4.660703 29.217141 42.580414 -0.151040 0.814594 0.070124 -0.019077 -119338.000000 0 0 1
-31.358648 4.248103 30.527961 43.970075 -0.134649 0.803364 0.062472 -0.019852 1248530.000000 0 0 1
-32.522148 5.000403 30.996231 45.204650 -0.152559 0.815250 0.066922 -0.021366 933666.000000 0 0 1
-32.969348 4.599303 32.276941 46.367363 -0.138608 0.800827 0.060593 -0.024430 -14061.100000 0 0 1
-34.388648 5.078203 32.627045 47.674849 -0.146611 0.817063 0.057474 -0.019607 -84393.900000 0 0 1
-34.460948 6.467703 32.789621 48.005701 -0.185524 0.818885 0.065275 -0.019246 -261779.000000 0 0 1
-35.798748 6.838003 32.563581 48.874281 -0.188739 0.841598 0.053562 -0.010090 -48835.500000 0 0 1
-36.108748 8.314103 32.699869 49.419099 -0.226307 0.847733 0.048010 -0.008469 -157483.000000 0 0 1
-36.099948 8.680803 34.074074 50.394494 -0.235985 0.828276 0.052646 -0.013347 64156.200000 0 0 1
35.793467 9.959903 -34.075879 50.413663 0.271395 2.313016 0.052888 -0.017769 -57983.500000 0 0 1
35.825267 10.167603 -32.489899 49.420880 0.276539 2.288176 0.050947 -0.025597 -411091.000000 0 0 1
34.765167 9.481803 -31.909519 48.132513 0.266263 2.295551 0.065624 -0.017679 -355776.000000 0 0 1
34.841667 9.548503 -30.503969 47.282214 0.267487 2.272012 0.051934 -0.007151 -612977.000000 0 0 1
33.693667 8.964003 -29.720619 45.814099 0.260021 2.276700 0.047745 -0.005678 -612028.000000 0 0 1
33.568067 7.585703 -29.716059 45.468694 0.222247 2.283061 0.040317 -0.007339 -1695000.000000 0 0 1
32.310367 7.198403 -29.428329 44.292249 0.219209 2.297504 0.039839 -0.003534 -1805110.000000 0 0 1
34.665271 6.191103 -20.084719 40.538953 0.176733 2.089140 0.031741 -0.015121 -666860.000000 0 0 1
34.285391 6.988403 -19.017819 39.824656 0.201076 2.068648 0.026538 -0.011155 173819.000000 0 0 1
35.011561 8.164303 -18.837719 40.587250 0.229095 2.053447 0.027465 -0.006229 -95356.800000 0 0 1
-35.858152 8.116003 -18.429519 41.125707 -0.222586 2.035465 0.031495 -0.010651 208605.000000 0 0 1
-34.899224 7.721103 -19.380319 40.659169 -0.217733 2.067640 0.032458 -0.017303 93161.100000 0 0 1
-34.422686 8.690903 -20.293119 40.893322 -0.247308 2.090065 0.031174 -0.007766 297749.000000 0 0 1
-33.250723 8.144703 -21.208019 40.270670 -0.240218 2.125436 0.024755 -0.002137 439625.000000 0 0 1
-33.648233 7.054903 -22.001519 40.817179 -0.206673 2.140077 0.017239 0.004222 117652.000000 0 0 1
-34.463756 7.385903 -23.087719 42.134841 -0.211116 2.150706 0.017553 0.003405 -67246.700000 0 0 1
-34.648024 6.191103 -24.022919 42.613566 -0.176819 2.169702 0.036030 -0.002207 386067.000000 0 0 1
-33.375593 5.967203 -24.619119 41.900343 -0.176920 2.198841 0.032746 -0.005688 442095.000000 0 0 1
-33.361763 4.765603 -25.218629 42.091537 -0.141886 2.213220 0.040329 0.002992 359748.000000 0 0 1
-32.098143 4.644203 -26.118929 41.642020 -0.143690 2.248782 0.047126 0.002652 620695.000000 0 0 1
-30.854663 4.714403 -25.434699 40.263628 -0.151621 2.254546 0.048840 -0.001794 17831.600000 0 0 1
-29.819083 4.253603 -26.291289 39.981280 -0.141691 2.288412 0.054071 -0.004968 -581851.000000 0 0 1
-28.468833 4.558703 -25.675969 38.607145 -0.158782 2.298367 0.049459 -0.012577 -890564.000000 0 0 1
-28.104903 5.917903 -25.807189 38.612409 -0.207533 2.302805 0.034453 -0.014357 -230552.000000 0 0 1
-26.811603 6.070103 -25.285669 37.350680 -0.222645 2.314448 0.043372 -0.005803 -173205.000000 0 0 1
-26.231223 7.470203 -25.450199 37.304070 -0.277438 2.321614 0.039742 -0.013328 -171277.000000 0 0 1
-26.892713 8.377103 -24.615519 37.407454 -0.301974 2.289006 0.042191 -0.012802 -232588.000000 0 0 1
-26.516873 9.722203 -24.814719 37.595692 -0.351423 2.291670 0.030351 -0.012470 -243744.000000 0 0 1
-25.233373 10.128003 -24.087519 36.325035 -0.381690 2.295763 0.046515 -0.002487 -696418.000000 0 0 1
-25.288503 10.528703 -22.708119 35.581184 -0.394516 2.262962 0.033522 0.002539 33972.300000 0 0 1
-24.006233 10.679603 -22.129119 34.351871 -0.418578 2.270760 0.051269 -0.004420 -465623.000000 0 0 1
-23.896233 11.148203 -20.677219 33.509100 -0.436511 2.235801 0.060344 -0.013176 -1273060.000000 0 0 1
-24.192933 12.515903 -20.541119 34.115736 -0.477421 2.216926 0.043743 -0.017467 1162670.000000 0 0 1
-25.578163 12.892403 -20.555519 35.256004 -0.466874 2.193257 0.038545 -0.007351 978505.000000 0 0 1
-26.668393 12.118003 -19.704819 35.303386 -0.426503 2.162959 0.048996 -0.001940 -417862.000000 0 0 1
-26.469573 12.161803 -18.329019 34.416576 -0.430696 2.132423 0.052225 -0.008970 32628.000000 0 0 1
-27.423293 11.389003 -17.654819 34.546187 -0.393629 2.107202 0.052819 -0.006384 -698513.000000 0 0 1
-27.062083 11.190103 -16.147819 33.441394 -0.392088 2.074725 0.066456 -0.010846 888732.000000 0 0 1
-26.076863 10.151903 -15.861119 32.165805 -0.371254 2.086452 0.077716 -0.014245 368043.000000 0 0 1
-24.764833 10.495403 -16.151919 31.374113 -0.400856 2.111590 0.075940 -0.015337 -1240330.000000 0 0 1
-23.808933 9.304403 -15.844419 30.074621 -0.372546 2.125671 0.076944 -0.013685 14309.500000 0 0 1
-22.430333 9.590403 -16.009719 29.178876 -0.404040 2.151575 0.071257 -0.012131 271630.000000 0 0 1
-21.718533 8.388203 -15.779119 28.125384 -0.368574 2.166423 0.062268 -0.013622 -564494.000000 0 0 1
-20.217533 8.592203 -15.547319 26.912706 -0.401860 2.186698 0.073451 -0.015661 -502243.000000 0 0 1
-19.661333 8.848503 -16.842419 27.359297 -0.422892 2.233945 0.078210 -0.023718 85008.400000 0 0 1
-18.258933 8.930303 -16.675119 26.290655 -0.454883 2.257848 0.087361 -0.027665 -564374.000000 0 0 1
-17.447133 9.463003 -17.867119 26.705520 -0.496975 2.303716 0.065293 -0.017521 -175409.000000 0 0 1
-17.179933 8.501203 -18.904219 26.921925 -0.459506 2.349260 0.083306 -0.021763 286410.000000 0 0 1
-16.166033 7.555003 -18.614919 25.786312 -0.437178 2.377328 0.078826 -0.020920 -741049.000000 0 0 1
-15.669633 6.904103 -19.884619 26.241229 -0.415013 2.430674 0.063835 -0.017427 294649.000000 0 0 1
-16.610333 6.034803 -20.523119 27.083582 -0.348488 2.430685 0.056202 -0.017820 26909.500000 0 0 1
-17.669333 6.620803 -21.216619 28.393402 -0.358513 2.414692 0.059489 -0.019264 -751974.000000 0 0 1
-18.547233 5.577503 -21.879119 29.219929 -0.292116 2.417007 0.057295 -0.008808 -416818.000000 0 0 1
-19.432333 4.942403 -20.977019 29.018584 -0.249058 2.378761 0.076992 -0.011408 404920.000000 0 0 1
-20.343533 4.125403 -21.711519 30.037782 -0.200074 2.378652 0.042584 0.004391 -397641.000000 0 0 1
-21.025333 3.170403 -20.771119 29.724661 -0.149662 2.344493 0.069421 -0.008170 -265961.000000 0 0 1
-21.808933 2.168503 -21.423719 30.648127 -0.099106 2.344825 0.069422 -0.007678 706375.000000 0 0 1
-22.440633 1.361203 -20.412419 30.366128 -0.060584 2.307986 0.071213 -0.013559 -165188.000000 0 0 1
-23.199433 0.094203 -20.815219 31.168829 -0.004061 2.302075 0.075430 -0.007342 -463197.000000 0 0 1
-22.429233 -1.073497 -20.781319 30.595524 0.047825 2.317506 0.060404 -0.010200 -316838.000000 0 0 1
-23.099233 -2.269397 -21.035019 31.324060 0.097931 2.307067 0.061370 -0.014735 -459276.000000 0 0 1
-23.726233 -2.587197 -22.418919 32.745010 0.108615 2.324922 0.052750 -0.017973 221433.000000 0 0 1
-22.806433 -2.684997 -23.487019 32.847872 0.117190 2.367455 0.034345 -0.012880 29779.700000 0 0 1
-21.919933 -3.788697 -23.485719 32.348365 0.171152 2.383320 0.034688 -0.020699 421853.000000 0 0 1
-20.795833 -3.717897 -24.546319 32.385355 0.176912 2.430953 0.030983 -0.014336 342451.000000 0 0 1
-21.381933 -4.105897 -25.771559 33.737497 0.189717 2.440108 0.021977 -0.015459 246122.000000 0 0 1
-20.509633 -3.814397 -26.805819 33.966846 0.183880 2.480262 0.025080 -0.022012 -591531.000000 0 0 1
-21.225133 -3.820597 -28.161319 35.470595 0.178096 2.488049 0.014989 -0.022991 28606.400000 0 0 1
-21.353433 -5.161997 -28.544209 36.019261 0.237190 2.485646 0.013275 -0.017910 277578.000000 0 0 1
-22.232833 -5.208997 -29.659149 37.431239 0.230142 2.485470 -0.001918 -0.016321 -154700.000000 0 0 1
-22.119233 -6.526497 -30.480379 38.221841 0.286918 2.493870 0.018812 -0.015315 391294.000000 0 0 1
-20.915433 -6.468697 -31.241239 38.148583 0.299947 2.530350 0.009706 -0.013959 44743.900000 0 0 1
-20.108533 -7.601097 -31.305969 37.976222 0.361401 2.539862 0.016456 -0.016514 -484575.000000 0 0 1
-18.822833 -7.132697 -32.029599 37.829481 0.362219 2.580518 0.027733 -0.014630 -1132460.000000 0 0 1
-18.940433 -6.769097 -33.414879 39.001472 0.343242 2.599749 0.034190 -0.022389 52834.700000 0 0 1
-19.055433 -7.852397 34.097697 39.842472 0.390878 0.543676 0.045377 -0.022762 -545423.000000 0 0 1
-18.864833 -7.495197 32.619995 38.420359 0.378186 0.556652 0.054124 -0.020889 -617688.000000 0 0 1
-17.594433 -7.272997 32.104351 37.324923 0.391978 0.535268 0.069190 -0.022428 -241159.000000 0 0 1
-17.041033 -5.950897 32.431588 37.116275 0.335971 0.507868 0.047463 -0.023374 625153.000000 0 0 1
-15.744133 -5.570897 31.636731 35.774227 0.340091 0.485709 0.055107 -0.022025 407973.000000 0 0 1
-15.975233 -5.375497 30.239591 34.619891 0.324588 0.508503 0.067616 -0.025888 1296240.000000 0 0 1
-14.748233 -4.960197 29.566811 33.411229 0.324440 0.484439 0.062085 -0.019705 1195520.000000 0 0 1
-14.943633 -4.926197 28.054031 32.165326 0.318434 0.511150 0.066660 -0.020327 493642.000000 0 0 1
-15.866033 -3.928597 27.580201 32.059825 0.242728 0.534991 0.059770 -0.025141 454065.000000 0 0 1
-16.374333 -4.110497 26.236321 31.198710 0.245951 0.571774 0.067384 -0.021265 194265.000000 0 0 1
-15.447533 -3.664197 25.087211 29.688731 0.232898 0.564217 0.078529 -0.013684 -1935.890000 0 0 1
-15.201033 -2.286497 25.128011 29.457026 0.149298 0.549014 0.071715 -0.009001 98106.700000 0 0 1
-14.276833 -1.914697 24.122701 28.096240 0.133317 0.538315 0.059169 -0.008704 163418.000000 0 0 1
-13.944133 -0.438797 24.168231 27.905820 0.031458 0.523521 0.057856 -0.000313 83812.500000 0 0 1
-15.017133 0.254603 23.548381 27.930366 -0.016953 0.567755 0.060613 -0.006837 429869.000000 0 0 1
-15.058033 1.523903 24.098431 28.457003 -0.100859 0.560787 0.037911 -0.007189 -561965.000000 0 0 1
-15.925433 2.512203 23.415911 28.429482 -0.156459 0.602981 0.040550 -0.007460 -605413.000000 0 0 1
-15.225633 3.088803 22.311051 27.187195 -0.200152 0.608257 0.025925 -0.006684 314168.000000 0 0 1
-15.779733 4.254703 21.809951 27.253925 -0.263368 0.643085 0.032655 -0.004721 -272504.000000 0 0 1
-14.915133 4.870803 20.685451 25.962931 -0.315649 0.648931 0.036138 0.001639 268906.000000 0 0 1
-13.834433 5.669703 21.136951 25.890302 -0.388948 0.615640 0.011184 -0.004429 -207605.000000 0 0 1
-12.909633 5.801103 20.121951 24.600901 -0.422324 0.612983 0.010227 -0.001598 -150286.000000 0 1 0
-11.871133 6.929403 20.380651 24.582745 -0.528362 0.593366 0.008118 0.000268 780670.000000 0 1 0
-12.518733 8.206103 20.149251 25.100819 -0.580236 0.638933 0.014598 -0.000130 723589.000000 0 0 1
-11.507633 9.196403 20.203351 25.003496 -0.674227 0.630011 0.012287 -0.000475 -38417.500000 0 0 1
-11.967833 10.637103 20.367551 25.907800 -0.726597 0.666233 0.003762 0.006158 -613892.000000 0 0 1
-12.494133 11.185503 19.166051 25.466769 -0.730190 0.718809 0.018277 0.005374 453715.000000 0 0 1
-13.135133 12.432103 19.347551 26.484271 -0.757908 0.751699 0.004633 0.006946 -334975.000000 0 0 1
-13.551333 13.240503 18.051351 26.168699 -0.773797 0.809574 0.009048 0.011918 -437314.000000 0 0 1
-12.579133 13.895303 17.286951 25.498092 -0.835072 0.825798 0.008105 0.011571 -356485.000000 0 0 1
-12.338633 15.232303 17.630251 26.364572 -0.889969 0.838324 0.020566 0.007059 -262852.000000 0 0 1
-13.253233 16.350603 17.015351 27.064969 -0.889646 0.890935 0.015706 0.014769 7080.790000 0 0 1
-13.208033 16.533703 15.603651 26.292383 -0.896754 0.935437 0.012776 0.000983 122508.000000 0 0 1
-13.707833 15.408303 14.839651 25.407395 -0.843735 0.947065 0.032212 -0.004640 -286127.000000 0 0 1
-14.205733 15.852803 13.464651 25.187517 -0.840139 1.006790 0.026404 -0.009565 -479634.000000 0 0 1
-15.342433 16.625903 13.665251 26.430096 -0.825525 1.027414 0.019881 -0.006810 -770143.000000 0 0 1
-15.699233 17.281803 12.501551 26.484248 -0.833346 1.079196 0.016969 -0.008855 -770200.000000 0 0 1
-16.719333 18.358803 12.758951 27.917245 -0.832102 1.096146 0.022605 -0.019515 -422492.000000 0 0 1
-17.953933 17.743003 13.103451 28.440434 -0.779489 1.091975 0.036085 -0.021948 -130122.000000 0 0 1
-18.935233 18.749303 13.328451 29.794748 -0.780464 1.107005 0.042767 -0.028843 -532778.000000 0 0 1
-20.321133 18.153903 13.500151 30.409977 -0.729129 1.110807 0.046145 -0.020264 -710886.000000 0 0 1
-20.785233 17.640103 12.305551 29.910295 -0.703730 1.146790 0.053308 -0.021156 -207948.000000 0 0 1
-22.128633 17.232803 12.510151 30.710744 -0.661652 1.151241 0.077897 -0.027475 -202461.000000 0 0 1
-22.660433 16.536903 11.285251 30.237746 -0.630428 1.188322 0.080602 -0.023657 -423721.000000 0 0 1
-22.125233 15.276903 11.008851 29.053477 -0.604304 1.182171 0.072739 -0.015240 -107680.000000 0 0 1
-22.714433 14.661503 9.889851 28.787398 -0.573185 1.220104 0.074671 -0.019318 -361919.000000 0 0 1
-22.197633 13.252903 9.514551 27.548158 -0.538241 1.218154 0.086987 -0.010190 -629860.000000 0 0 1
-22.682633 12.266003 10.400151 27.805032 -0.495726 1.187437 0.087197 -0.009191 1079390.000000 0 0 1
-24.004233 11.714003 10.214251 28.596363 -0.453999 1.205542 0.089752 -0.006571 697983.000000 0 0 1
-24.391933 11.194103 8.843051 28.257280 -0.430252 1.252501 0.095204 -0.005534 -720260.000000 0 0 1
-24.722233 12.202303 7.899551 28.679050 -0.458495 1.291742 0.096289 -0.005858 220585.000000 0 0 1
-25.937753 11.871103 7.256651 29.433809 -0.429219 1.321687 0.110091 -0.009064 41160.800000 0 0 1
-26.667533 12.989703 6.451051 30.356314 -0.453273 1.356652 0.096321 -0.011180 -201354.000000 0 0 1
-26.059243 13.289003 5.203151 29.711185 -0.471579 1.394764 0.092549 -0.012962 981809.000000 0 0 1
-24.757533 13.871903 5.064151 28.827257 -0.510725 1.394208 0.084820 -0.010214 421439.000000 0 0 1
-24.541733 15.230503 5.777151 29.455736 -0.555426 1.373387 0.084686 -0.026760 220127.000000 0 0 1
-23.150933 15.641403 5.761351 28.527397 -0.594181 1.367439 0.090347 -0.034106 1441060.000000 0 0 1
-22.977733 16.889203 6.398751 29.226108 -0.633848 1.350069 0.079654 -0.038726 -530128.000000 0 0 1
-21.518233 17.316503 6.421351 28.357175 -0.677622 1.342370 0.076374 -0.035162 -400367.000000 0 0 1
-20.954133 17.774403 5.193751 27.963908 -0.703479 1.383981 0.077451 -0.043825 1329890.000000 0 0 1
-19.552533 18.092803 5.372851 27.175699 -0.746642 1.371777 0.075949 -0.038091 857702.000000 0 0 1
-19.092633 18.943303 4.170651 27.217122 -0.781472 1.416954 0.080993 -0.030389 -256669.000000 0 0 1
-17.680933 19.047803 4.194251 26.325386 -0.822596 1.410791 0.063292 -0.031964 338425.000000 0 0 1
-17.097833 20.146403 3.498651 26.654343 -0.867070 1.439156 0.067664 -0.029043 168692.000000 0 0 1
-17.404733 21.594103 4.014251 28.023994 -0.892411 1.427059 0.068767 -0.027614 -127861.000000 0 0 1
-16.672633 21.931003 5.185551 28.032758 -0.920779 1.384743 0.068663 -0.023510 132338.000000 0 0 1
-16.976533 23.254103 5.604851 29.332070 -0.940189 1.378531 0.055153 -0.016188 -461263.000000 0 0 1
-16.247133 23.585803 6.872651 29.453230 -0.967591 1.335284 0.036158 -0.000936 -330302.000000 0 0 1
-16.743033 22.940603 8.011451 29.509046 -0.940321 1.295854 0.034939 -0.009898 -110662.000000 0 0 1
-15.841633 22.953003 9.086651 29.331978 -0.966693 1.255828 0.027742 -0.003077 167360.000000 0 0 1
-16.398033 22.147603 10.350151 29.437008 -0.933469 1.211513 0.015194 -0.010669 308451.000000 0 0 1
-17.379033 22.807503 11.114051 30.752807 -0.919667 1.201028 0.021277 -0.002041 -203620.000000 0 0 1
-18.378933 21.991603 11.700451 30.956685 -0.874648 1.183202 0.009660 -0.012253 552780.000000 0 0 1
-19.576233 22.874403 12.164851 32.472308 -0.862937 1.186807 0.023895 -0.025278 77478.300000 0 0 1
-20.342933 23.564703 11.168551 33.073655 -0.858643 1.226338 0.042392 -0.022567 436315.000000 0 0 1
-19.809233 24.762903 10.563651 33.424509 -0.896082 1.249238 0.019104 -0.010261 -267652.000000 0 0 1
-20.944433 25.454303 9.793651 34.387591 -0.882292 1.281997 0.033169 0.003191 66130.000000 0 0 1
-21.912633 26.047103 10.617051 35.655811 -0.871393 1.268446 0.030148 -0.009075 100136.000000 0 0 1
-22.831533 26.891803 9.916451 36.644017 -0.866875 1.296764 0.029241 -0.003762 425122.000000 0 0 1
-24.023133 27.267603 10.841551 37.923243 -0.848570 1.280870 0.020901 0.002843 -69240.700000 0 0 1
-23.531333 27.859703 12.047351 38.406059 -0.869424 1.251726 0.013909 -0.000471 779652.000000 0 0 1
-24.557033 28.400003 12.892451 39.696641 -0.857839 1.240023 0.007163 -0.003615 293842.000000 0 0 1
8.755067 -32.711843 28.005181 43.943214 -1.309283 0.879802 0.051316 -0.030356 -620450.000000 0 0 1
10.102867 -32.495043 27.740991 43.903967 -1.269365 0.886851 0.037540 -0.032414 -374072.000000 0 0 1
10.436467 -32.364643 26.365631 43.029483 -1.258859 0.911281 0.044463 -0.030475 -88878.000000 0 0 1
11.934267 -32.555943 26.076331 43.385380 -1.219430 0.925995 0.019376 -0.022760 18089.400000 0 0 1
12.480267 -33.892743 26.059111 44.537090 -1.217976 0.945780 0.032480 -0.028635 274343.000000 0 0 1
13.862467 -33.873043 25.738171 44.743765 -1.182343 0.957905 0.047293 -0.020220 -5573.800000 0 0 1
14.474267 33.364803 25.833511 44.610366 1.161480 0.953182 0.067942 -0.023478 -404620.000000 0 0 1
14.497167 32.750203 24.569611 43.432815 1.154064 0.969524 0.049690 -0.016464 510303.000000 0 0 1
15.442967 31.684303 24.631141 43.000853 1.117278 0.960871 0.055030 -0.022329 -124149.000000 0 0 1
15.654867 31.171603 23.193151 41.888733 1.105378 0.984014 0.061832 -0.021928 -632222.000000 0 0 1
14.685767 30.295403 22.696551 40.603160 1.119421 0.977635 0.052884 -0.018730 -183351.000000 0 0 1
14.962167 28.896503 22.705351 39.678801 1.093022 0.961575 0.061270 -0.015358 -157188.000000 0 0 1
14.410867 28.181803 23.973491 39.706616 1.098107 0.922580 0.069001 -0.024237 -64517.900000 0 0 1
15.230867 28.469703 25.103761 40.898681 1.079554 0.909927 0.069527 -0.019428 562862.000000 0 0 1
14.714467 27.932203 26.284031 41.080089 1.085945 0.876527 0.066830 -0.022904 63996.800000 0 0 1
15.642467 28.437603 27.443361 42.503201 1.067905 0.868886 0.066892 -0.025146 437986.000000 0 0 1
15.545667 29.855203 27.645181 43.557513 1.090725 0.883199 0.069189 -0.034659 520895.000000 0 0 1
16.382367 30.197303 28.760141 44.804070 1.073721 0.873811 0.082457 -0.032945 170160.000000 0 0 1
16.212567 31.678103 29.247441 46.062591 1.097761 0.882853 0.086910 -0.040584 -230364.000000 0 0 1
16.752167 32.648103 28.404331 46.404092 1.096713 0.912072 0.076309 -0.030688 -40124.500000 0 0 1
16.591067 33.977403 28.903521 47.593496 1.116555 0.918139 0.066048 -0.020699 -421487.000000 0 0 1
17.261767 -33.530343 28.128661 47.047572 -1.095371 0.929946 0.052898 -0.016627 -838616.000000 0 0 1
16.928367 -33.359943 26.777621 46.005395 -1.101210 0.949544 0.063934 -0.014949 -421939.000000 0 0 1
17.260367 -32.197243 26.094951 44.894645 -1.078701 0.950534 0.058752 -0.016377 39332.200000 0 0 1
18.746267 -31.736643 26.015751 45.116032 -1.037256 0.956185 0.066327 -0.009850 431119.000000 0 0 1
19.258667 -31.249243 27.273001 45.729946 -1.018483 0.931797 0.055647 -0.011361 109623.000000 0 0 1
20.425667 -30.473043 27.025271 45.565112 -0.980292 0.935876 0.066543 -0.009116 152041.000000 0 0 1
20.691767 -29.541843 28.195151 45.780304 -0.959787 0.907295 0.067716 -0.009423 108080.000000 0 0 1
19.610667 -28.638543 28.368551 44.827660 -0.970369 0.885586 0.073932 -0.011133 249320.000000 0 0 1
19.814967 -27.753343 29.484631 45.080200 -0.950758 0.857872 0.076433 -0.005923 -46686.100000 0 0 1
18.472167 -27.215243 30.021631 44.533007 -0.974479 0.830992 0.074237 -0.006128 81586.200000 0 0 1
17.766367 -26.464243 29.075621 43.143849 -0.979569 0.831291 0.075308 -0.008176 279623.000000 0 0 1
16.445967 -26.141543 29.480031 42.695694 -1.009245 0.808660 0.065689 -0.007665 55280.900000 0 0 1
15.621967 -25.380343 28.411861 41.175739 -1.019047 0.809287 0.058370 -0.011762 -408978.000000 0 0 1
15.068667 -26.218943 27.371101 40.788170 -1.049169 0.835166 0.050474 -0.013220 496550.000000 0 0 1
14.450567 -25.576043 26.250751 39.396126 -1.056507 0.841523 0.059838 -0.021995 -982044.000000 0 0 1
13.111867 -24.875643 26.531221 38.660372 -1.085707 0.814456 0.049863 -0.015664 -257341.000000 0 0 1
12.042867 -25.712743 26.936801 39.137795 -1.132778 0.811715 0.043828 -0.017189 226058.000000 0 0 1
11.530767 -26.492643 25.842111 38.763816 -1.160281 0.841084 0.039781 -0.025739 -1233700.000000 0 0 1
10.730967 -27.718043 26.194091 39.617849 -1.201419 0.848421 0.060246 -0.033219 -137110.000000 0 0 1
9.369067 -27.442643 26.449161 39.248391 -1.241799 0.831333 0.041508 -0.037166 8098.690000 0 0 1
8.644467 -28.616643 26.792121 40.142955 -1.277434 0.840061 0.034116 -0.033624 -1509.920000 0 0 1
7.127667 -28.396943 26.953281 39.795343 -1.324876 0.826713 0.043809 -0.040367 -250519.000000 0 0 1
6.200767 -28.098343 25.933581 38.736507 -1.353597 0.837279 0.051396 -0.038233 157571.000000 0 0 1
6.427267 -26.930243 25.210591 37.444915 -1.336515 0.832172 0.059711 -0.034789 -417190.000000 0 0 1
5.186167 -26.689143 24.298641 36.464100 -1.378871 0.841464 0.058972 -0.030122 -79759.200000 0 0 1
5.011867 -27.630243 23.189051 36.418144 -1.391357 0.880528 0.036482 -0.025348 165962.000000 0 0 1
4.467567 -28.931843 23.570951 37.584577 -1.417589 0.892915 0.027373 -0.022627 -484227.000000 0 0 1
2.995967 -28.927043 23.991841 37.700903 -1.467595 0.881009 0.023666 -0.024826 -694709.000000 0 0 1
2.076067 -28.659443 22.941951 36.769646 -1.498483 0.897025 0.020187 -0.019709 1695400.000000 0 0 1
0.719767 -28.236743 23.299751 36.615709 -1.545311 0.881062 0.025012 -0.023381 1816520.000000 0 0 1
0.592567 -26.745243 23.647831 35.705449 -1.548644 0.846908 0.028802 -0.026221 -613287.000000 0 0 1
1.293167 -26.420043 24.815211 36.269624 -1.521889 0.817308 0.025843 -0.028181 -140840.000000 0 0 1
1.239267 -25.072843 25.104441 35.502341 -1.521410 0.785378 0.017599 -0.026895 -142259.000000 0 0 1
2.386467 -24.613043 26.036311 35.908030 -1.474139 0.759641 0.035649 -0.023469 -632219.000000 0 0 1
3.526067 -24.166343 25.384171 35.225011 -1.425911 0.766087 0.037354 -0.024856 -157036.000000 0 0 1
4.481667 -23.497943 26.227321 35.498042 -1.382334 0.739451 0.051228 -0.025745 323099.000000 0 0 1
4.153967 -22.016543 26.499281 34.701520 -1.384314 0.701872 0.040789 -0.011083 -433915.000000 0 0 1
4.043667 -21.253143 25.324641 33.307428 -1.382781 0.706975 0.039373 -0.006606 161824.000000 0 0 1
3.252967 -20.112343 25.538041 32.669246 -1.410445 0.673385 0.038931 -0.015878 -126908.000000 0 0 1
3.132967 -19.263643 24.222951 31.107150 -1.409572 0.678215 0.043903 -0.019836 -1102070.000000 0 0 1
4.257667 -18.598743 23.861381 30.551701 -1.345752 0.674505 0.078039 -0.014979 -1338280.000000 0 0 1
4.150767 -18.170143 22.565251 29.267277 -1.346211 0.690377 0.090727 -0.013514 -218274.000000 0 0 1
5.393167 -17.379643 22.142751 28.660768 -1.269903 0.687901 0.074629 -0.007024 610919.000000 0 0 1
6.597267 -18.153443 22.291251 29.495276 -1.222219 0.713988 0.058274 -0.012332 101892.000000 0 0 1
7.676567 -17.471043 21.694851 28.893487 -1.156802 0.721439 0.044046 -0.010809 393019.000000 0 0 1
9.045467 -17.705043 22.397151 29.948646 -1.098469 0.725976 0.069518 -0.000585 306029.000000 0 0 1
9.188267 -16.940443 23.570781 30.446421 -1.073817 0.685390 0.074326 0.000381 -310806.000000 0 0 1
10.290267 -17.272843 24.362851 31.587801 -1.033509 0.689956 0.081809 -0.001277 -276904.000000 0 0 1
10.491967 -16.347043 25.594641 32.130870 -1.000188 0.649188 0.095493 -0.024403 74434.300000 0 0 1
10.801267 -14.991543 25.258281 31.295279 -0.946450 0.631580 0.098840 -0.018725 116686.000000 0 0 1
10.858567 -14.222043 26.417381 31.906942 -0.918709 0.595353 0.083703 -0.017618 37444.400000 0 0 1
11.045267 -12.660843 26.399691 31.292787 -0.853443 0.566779 0.072897 -0.021005 -790093.000000 0 0 1
9.984367 -11.983343 25.886471 30.222466 -0.876144 0.542287 0.065216 -0.011657 -1010700.000000 0 0 1
10.285067 -10.628243 25.893691 29.819882 -0.801806 0.518958 0.062595 -0.012036 -338243.000000 0 0 1
9.273267 -9.786443 25.145021 28.531386 -0.812316 0.492167 0.048370 -0.007208 -582544.000000 0 0 1
7.971767 -9.914443 25.639061 28.621787 -0.893587 0.460595 0.035082 -0.004745 -708078.000000 0 0 1
7.017167 -9.472243 24.712791 27.380395 -0.933200 0.445089 0.026022 0.003699 537419.000000 0 0 1
5.533667 -9.638443 25.183331 27.526736 -1.049620 0.415615 0.021752 -0.005637 13008.800000 0 0 1
5.160867 -8.676243 26.162581 28.042688 -1.034189 0.368259 0.021096 -0.005257 626001.000000 0 0 1
3.789167 -8.648543 26.575231 28.202801 -1.157859 0.341389 0.017312 -0.005332 1408330.000000 0 0 1
2.693767 -8.316843 25.489051 26.946576 -1.257566 0.330406 0.018250 -0.000755 -23492.100000 0 0 1
2.798467 -7.031743 24.953701 26.076119 -1.192036 0.294470 0.014504 -0.000211 -74667.100000 0 0 1
1.784467 -6.743543 24.005841 24.998801 -1.312107 0.282794 0.023723 -0.010143 174938.000000 0 1 0
1.966567 -5.414243 23.219251 23.923106 -1.222392 0.243175 0.026540 -0.014889 -417655.000000 0 1 0
1.831167 -4.224843 24.011891 24.449404 -1.161809 0.189464 0.034877 -0.004978 30115.400000 0 1 0
2.168667 -3.009743 23.246851 23.540980 -0.946412 0.158243 0.026604 -0.007298 -1135120.000000 0 1 0
1.209767 -2.566743 22.168351 22.349216 -1.130352 0.127308 0.031097 -0.015899 -26213.400000 0 1 0
0.056067 -1.826743 22.527751 22.601763 -1.540114 0.080949 0.031224 -0.018529 693446.000000 0 1 0
-0.975933 -2.586743 23.195551 23.359736 1.210026 0.118632 0.034298 -0.017833 -284607.000000 0 1 0
-1.963133 -1.635743 23.869361 24.005748 0.694678 0.106647 0.035789 -0.023787 -350028.000000 0 1 0
-1.427933 -0.963743 24.994921 25.054218 0.593696 0.068814 0.035032 -0.019904 316410.000000 0 0 1
-2.137733 0.271257 25.249521 25.341306 -0.126215 0.085137 0.045068 -0.022074 64900.400000 0 0 1
-1.626733 1.121257 26.468241 26.541877 -0.603488 0.074507 0.054503 -0.019851 -330638.000000 0 0 1
-1.888733 0.532257 27.754521 27.823803 -0.274683 0.070584 0.057169 -0.016275 -119842.000000 0 0 1
-1.153633 -0.597743 28.104931 28.134948 0.478054 0.046197 0.053038 -0.022362 -1579920.000000 0 0 1
0.241067 -0.333743 28.638231 28.641190 -0.945253 0.014375 0.063805 -0.022164 -536332.000000 0 0 1
1.237467 0.008257 27.645311 27.672994 0.006672 0.044733 0.054278 -0.019878 384382.000000 0 0 1
1.725167 -1.119743 26.947421 27.025793 -0.575717 0.076175 0.050679 -0.016634 -718331.000000 0 0 1
2.937067 -1.782743 27.615761 27.828668 -0.545537 0.123777 0.041667 -0.015228 -772551.000000 0 0 1
2.575267 -2.478743 28.797201 29.018183 -0.766302 0.123491 0.034850 -0.013725 -44355.900000 0 0 1
3.573467 -3.313743 29.363031 29.764713 -0.747705 0.164473 0.027942 -0.002503 -227750.000000 0 0 1
3.989267 -4.542343 28.536571 29.169899 -0.850134 0.208762 0.033713 -0.005051 -59814.100000 0 0 1
4.851967 -4.266343 27.460051 28.209885 -0.721261 0.231081 0.033650 -0.007646 -227071.000000 0 0 1
5.260467 -5.295643 26.684731 27.709045 -0.788731 0.272752 0.027311 -0.010034 -180018.000000 0 0 1
6.188067 -4.937643 25.455421 26.658037 -0.673477 0.301516 0.013654 0.002487 -214249.000000 0 0 1
7.457367 -4.541143 25.861161 27.295310 -0.546972 0.325603 0.011212 0.003176 -805663.000000 0 0 1
8.454967 -5.523343 25.920891 27.818813 -0.578668 0.371523 0.031649 0.004188 -185876.000000 0 0 1
9.267967 -5.697943 24.618591 26.915363 -0.551231 0.416113 0.028128 0.000736 -625285.000000 0 0 1
8.505567 -6.200343 23.541061 25.787021 -0.629909 0.420455 0.025685 -0.000423 429771.000000 0 0 1
9.186667 -5.965843 22.248051 24.798425 -0.575955 0.457509 0.028105 0.001123 515480.000000 0 1 0
9.388667 -4.518843 21.686351 24.059609 -0.448583 0.447898 0.024511 0.003300 -324033.000000 0 1 0
8.225567 -3.899143 21.250851 23.118432 -0.442654 0.404710 0.024393 0.001397 -617606.000000 0 1 0
8.501167 -2.844743 20.307851 22.198450 -0.322917 0.415705 0.022930 -0.003700 -154219.000000 0 1 0
7.176767 -2.151743 20.014851 21.371247 -0.291292 0.358193 0.020124 -0.001951 66728.700000 0 1 0
6.718267 -1.410743 21.193451 22.277514 -0.206979 0.313246 0.021684 0.002003 206148.000000 0 1 0
5.416667 -0.872743 21.111251 21.812539 -0.159749 0.254262 0.016878 0.005046 -170530.000000 0 1 0
4.993467 -0.098743 22.366551 22.917396 -0.019772 0.219695 0.026986 -0.000768 784963.000000 0 1 0
3.645367 0.409257 22.293551 22.593330 0.111799 0.163083 0.022055 -0.003019 979491.000000 0 1 0
3.036667 0.574257 23.571711 23.773444 0.186900 0.130366 0.032412 -0.005253 -700135.000000 0 1 0
1.572767 0.926257 23.529821 23.600508 0.532243 0.077417 0.033507 -0.008231 -927019.000000 0 1 0
1.289967 2.273257 23.165651 23.312638 1.054652 0.112354 0.037803 -0.009482 1262010.000000 0 1 0
-0.124533 2.517257 22.985251 23.123015 -1.521365 0.109214 0.030421 -0.012669 1043330.000000 0 1 0
-0.575033 3.891257 22.508151 22.849275 -1.424082 0.173012 0.037071 -0.015015 -239560.000000 0 1 0
-0.406033 4.998257 23.353651 23.885988 -1.489739 0.211518 0.043919 -0.009705 93090.500000 0 1 0
-1.494333 5.890257 23.149351 23.933671 -1.322342 0.256714 0.029499 -0.011694 154533.000000 0 1 0
-1.478133 7.256257 23.913461 25.033812 -1.369841 0.300304 0.040442 -0.009382 -207287.000000 0 0 1
-0.465733 8.111257 23.466941 24.833580 -1.513441 0.333299 0.033396 -0.011091 -335293.000000 0 1 0
-0.463233 9.404257 23.962181 25.745693 -1.521578 0.374404 0.034280 -0.000878 -866767.000000 0 0 1
0.373167 10.415257 23.142751 25.381169 1.534983 0.423131 0.033620 -0.005737 1834130.000000 0 0 1
1.830167 10.344257 23.276551 25.537247 1.395683 0.423942 0.033340 -0.012981 1793530.000000 0 0 1
2.318167 10.663257 24.609871 26.920711 1.356730 0.417362 0.040810 -0.008288 -762891.000000 0 0 1
3.676367 11.382257 24.653221 27.401692 1.258383 0.451721 0.037316 -0.009273 334959.000000 0 0 1
4.864467 10.799257 24.132051 26.882017 1.147573 0.456270 0.047236 -0.006754 420239.000000 0 0 1
4.931667 10.591257 22.749051 25.573724 1.135016 0.474442 0.046973 -0.013828 -497756.000000 0 0 1
6.356167 10.138257 22.323451 25.328276 1.010797 0.492053 0.063073 -0.006764 352985.000000 0 0 1
7.229567 11.242257 22.093751 25.822254 0.999308 0.544070 0.065851 -0.005936 430357.000000 0 0 1
8.500767 10.704257 21.713651 25.657879 0.899634 0.561840 0.079829 -0.011830 421151.000000 0 0 1
9.432467 11.783257 21.151051 25.984293 0.895752 0.619802 0.086476 -0.011971 -301469.000000 0 0 1
9.053267 12.107257 19.789951 24.903603 0.928733 0.652346 0.071780 -0.018036 169682.000000 0 1 0
9.771567 13.136257 19.164451 25.205573 0.931235 0.706982 0.083680 -0.013315 505205.000000 0 0 1
11.232867 12.863257 18.666151 25.299523 0.852957 0.740981 0.086054 -0.009437 419139.000000 0 0 1
12.163267 12.891257 19.719051 26.513591 0.814446 0.732158 0.093117 -0.007556 -782779.000000 0 0 1
13.430167 12.634257 19.208951 26.626633 0.754871 0.764948 0.085491 -0.004211 -224095.000000 0 0 1
14.596467 12.438257 20.208051 27.859152 0.705736 0.759232 0.082312 -0.004354 533761.000000 0 0 1
15.243067 13.593257 20.717451 29.091931 0.728248 0.778258 0.079740 -0.004325 -535582.000000 0 0 1
16.461067 13.331257 21.317251 30.051860 0.680728 0.782222 0.079107 -0.005375 -347319.000000 0 0 1
17.154467 14.574257 21.956651 31.444859 0.704256 0.797834 0.090460 -0.005646 -222409.000000 0 0 1
16.578167 15.075257 23.185451 32.243822 0.737954 0.768338 0.085784 -0.007430 470365.000000 0 0 1
17.176867 16.343257 23.431001 33.334045 0.760534 0.791309 0.085003 -0.007109 106074.000000 0 0 1
-20.788133 12.732403 -24.819219 34.788708 -0.549549 2.365174 0.013239 0.002231 -109937.000000 0 0 1
-20.509733 12.824603 -26.190389 35.651873 -0.558810 2.395895 0.013888 -0.011938 -646224.000000 0 0 1
-21.368433 13.565503 -26.964549 36.982695 -0.565643 2.387821 0.025298 -0.017336 -681375.000000 0 0 1
-21.073433 13.484203 -28.495079 37.919426 -0.569219 2.421074 0.030095 -0.015389 44030.700000 0 0 1
-19.862533 14.058803 -28.936119 37.808321 -0.615945 2.442362 0.029444 -0.013411 -347268.000000 0 0 1
-19.875033 14.430403 -30.275179 38.985125 -0.628001 2.460020 0.046449 -0.023952 625538.000000 0 0 1
-18.450233 14.892803 -30.736899 38.819630 -0.679108 2.484526 0.028651 -0.022235 205147.000000 0 0 1
-17.520933 13.888503 -30.816109 38.072381 -0.670262 2.513941 0.028773 -0.020363 -1258990.000000 0 0 1
-16.196433 14.323103 -30.804509 37.635004 -0.724094 2.529603 0.022544 -0.018653 392223.000000 0 0 1
-15.370033 13.810703 -29.546319 36.054936 -0.732012 2.531300 0.035829 -0.010765 322396.000000 0 0 1
-15.925933 14.396603 -28.379349 35.584898 -0.735005 2.493955 0.025630 -0.007450 -290361.000000 0 0 1
-16.523933 13.410403 -27.616719 34.864917 -0.681759 2.485048 0.037666 -0.000572 -28927.300000 0 0 1
-17.306033 13.953403 -26.367549 34.488315 -0.678555 2.441117 0.028740 -0.005430 445748.000000 0 0 1
-16.451133 14.426903 -25.324729 33.468152 -0.719936 2.429018 0.059914 -0.007592 367335.000000 0 0 1
-17.287933 14.744003 -24.270219 33.246079 -0.706146 2.389144 0.044571 -0.007033 -136611.000000 0 0 1
-16.456133 15.363803 -23.157319 32.297247 -0.751083 2.370294 0.047906 -0.006403 138588.000000 0 0 1
-15.785833 16.545203 -23.579919 32.847357 -0.808881 2.371525 0.021804 -0.011536 -92420.600000 0 0 1
-15.212733 17.214403 -22.504619 32.159303 -0.847048 2.345894 0.025744 -0.006905 -318994.000000 0 0 1
-14.921033 18.739303 -22.706819 33.006035 -0.898351 2.329470 0.028790 -0.011240 75354.600000 0 0 1
-16.046133 19.586203 -22.767519 34.050810 -0.884423 2.303166 -0.000077 -0.006752 40884.400000 0 0 1
-16.851733 19.512603 -23.918519 35.168425 -0.858440 2.318714 -0.010958 -0.000201 50392.200000 0 0 1
-18.165533 20.330203 -23.822119 36.204932 -0.841570 2.288929 -0.016683 -0.006153 68729.900000 0 0 1
-17.910333 21.707303 -24.064419 37.028142 -0.880947 2.278243 -0.011838 -0.013364 546114.000000 0 0 1
-19.125533 22.463503 -24.174919 38.142125 -0.865487 2.257267 0.000528 -0.019390 314425.000000 0 0 1
-18.981433 23.989603 -24.391819 39.124886 -0.901422 2.243925 0.010001 -0.028069 -34897.000000 0 0 1
-18.428933 24.517903 -23.180319 38.445810 -0.926239 2.217971 0.015577 -0.021146 248615.000000 0 0 1
-17.515133 25.603703 -23.297119 38.795428 -0.970831 2.214938 0.016454 -0.015104 -96960.000000 0 0 1
-16.490233 25.629403 -22.135319 37.666516 -0.999067 2.198967 0.025353 -0.024363 320182.000000 0 0 1
-15.442633 24.629003 -22.214519 36.586166 -1.010753 2.223307 0.036480 -0.032801 560910.000000 0 0 1
-15.818833 23.259603 -22.013219 35.718712 -0.973552 2.234824 0.024048 -0.017327 -894693.000000 0 0 1
-14.602133 22.347203 -21.917619 34.539858 -0.992020 2.258236 0.056442 -0.019043 251364.000000 0 0 1
-13.777833 22.532703 -20.752519 33.588963 -1.021993 2.236786 0.074521 -0.030328 245676.000000 0 0 1
-12.780533 21.547203 -20.551119 32.403279 -1.035435 2.257808 0.065734 -0.025447 86342.500000 0 0 1
-11.977433 21.804703 -19.227119 31.441789 -1.068487 2.228770 0.064619 -0.023672 -214491.000000 0 0 1
-12.603933 21.727103 -17.948119 30.871688 -1.045136 2.191218 0.074758 -0.019034 -16041.300000 0 0 1
-13.340533 22.931203 -17.693619 31.888463 -1.043894 2.158990 0.078268 -0.027241 -35985.900000 0 0 1
-14.202533 22.928403 -16.432119 31.582244 -1.016213 2.117994 0.086332 -0.024750 -41720.200000 0 0 1
-13.385733 23.199603 -15.290519 30.841521 -1.047474 2.089526 0.092649 -0.032358 345165.000000 0 0 1
-14.171733 23.420803 -14.136719 30.809396 -1.026641 2.047490 0.088529 -0.023747 -146767.000000 0 0 1
-13.356633 23.864203 -12.947319 30.257774 -1.060542 2.012965 0.093523 -0.023203 -306920.000000 0 0 1
-12.793733 25.143803 -12.998719 31.062150 -1.100116 2.002561 0.092907 -0.033070 140380.000000 0 0 1
-12.045833 25.355103 -11.824519 30.459852 -1.127279 1.969474 0.075853 -0.025390 -356371.000000 0 0 1
-11.486833 26.765503 -11.633419 31.363608 -1.165403 1.950797 0.078865 -0.028176 305132.000000 0 0 1
-10.530033 27.087303 -12.654819 31.697761 -1.200031 1.981477 0.083509 -0.030805 489808.000000 0 0 1
-10.511133 28.469703 -12.812119 32.941741 -1.217117 1.970269 0.058782 -0.018138 -969775.000000 0 0 1
-10.085033 28.885003 -14.224519 33.740009 -1.234884 2.005997 0.071396 -0.029146 139041.000000 0 0 1
-8.695233 29.072103 -14.410419 33.592476 -1.280173 2.014157 0.066224 -0.031982 -22519.900000 0 0 1
-7.924333 27.908403 -14.459019 32.415077 -1.294137 2.033153 0.069908 -0.034483 -1440590.000000 0 0 1
-6.603033 28.030503 -15.164119 32.546269 -1.339448 2.055476 0.061295 -0.035704 -760408.000000 0 0 1
-5.679033 28.819003 -14.480019 32.748394 -1.376231 2.028801 0.052470 -0.028382 -809757.000000 0 0 1
-4.359833 28.554403 -14.871219 32.488694 -1.419281 2.046243 0.056225 -0.032072 -410566.000000 0 0 1
-3.298933 29.397503 -14.183919 32.806702 -1.459046 2.017892 0.036381 -0.019657 -494610.000000 0 0 1
-3.295433 30.809803 -14.334919 34.140793 -1.464241 2.004106 0.034785 -0.016534 703890.000000 0 0 1
-4.425133 31.471603 -13.716019 34.614632 -1.431105 1.978224 0.024227 -0.017897 725464.000000 0 0 1
-4.225833 32.982703 -13.928919 36.051784 -1.443368 1.967477 0.024258 -0.023723 333032.000000 0 0 1
-3.201733 33.551903 -13.133719 36.172861 -1.475658 1.942370 0.014305 -0.026722 70065.500000 0 0 1
-3.185133 -33.668143 -13.371619 36.366044 1.476473 1.947326 0.015167 -0.022604 32189.900000 0 0 1
-2.369233 -32.823443 -12.401419 35.167981 1.498740 1.931181 0.022483 -0.026873 -42422.500000 0 0 1
-3.005033 -32.635643 -11.111919 34.606216 1.478977 1.897683 0.013408 -0.028631 8103.640000 0 0 1
-2.162733 -31.924143 -10.266319 33.603953 1.503154 1.881270 0.006667 -0.026469 -306055.000000 0 0 1
-2.533733 -32.012443 -8.744819 33.281950 1.491813 1.836667 0.003275 -0.014228 -451154.000000 0 0 1
-1.664233 -31.202143 -8.042819 32.265002 1.517510 1.822727 0.006044 -0.016453 -560982.000000 0 0 1
-1.934433 -31.183743 -6.658619 31.945345 1.508842 1.780774 0.007361 -0.016210 -252101.000000 0 0 1
-0.680033 -30.918043 -5.844519 31.472945 1.548805 1.757580 0.023174 -0.013954 -261670.000000 0 0 1
-1.025133 -30.896943 -4.498219 31.239494 1.537629 1.715290 0.039597 -0.014749 -41269.300000 0 0 1
0.101867 -30.451043 -3.786319 30.685707 -1.567451 1.694502 0.033595 -0.007830 -367774.000000 0 0 1
0.055967 -30.721843 -2.272019 30.805793 -1.568975 1.644616 0.034898 -0.001107 -773313.000000 0 0 1
0.226867 -32.088443 -1.829119 32.141334 -1.563726 1.627736 0.039710 -0.012819 599867.000000 0 0 1
1.399767 -32.809543 -2.253519 32.916619 -1.528159 1.639311 0.041199 -0.015120 650745.000000 0 0 1
2.751067 -32.198843 -1.804719 32.366509 -1.485563 1.626584 0.047414 -0.012798 -1138060.000000 0 0 1
2.983867 -32.552943 -0.402719 32.691891 -1.479390 1.583115 0.030018 -0.008799 421016.000000 0 0 1
4.234067 -32.137843 0.147781 32.415893 -1.439804 1.566237 0.023277 -0.008086 577272.000000 0 0 1
4.649767 -30.614143 0.185681 30.965797 -1.420065 1.564800 0.011445 -0.005957 -743853.000000 0 0 1
4.645567 -29.912243 -1.004719 30.287506 -1.416721 1.603975 0.031725 -0.015078 195665.000000 0 0 1
4.431267 -28.514943 -0.801619 28.868334 -1.416628 1.598568 0.047665 -0.009636 -140287.000000 0 0 1
3.823867 -27.767443 -2.058119 28.104959 -1.433947 1.644092 0.052043 -0.008035 71906.400000 0 0 1
2.466867 -28.039743 -2.338219 28.244998 -1.483045 1.653675 0.045768 -0.008135 -98744.900000 0 0 1
1.852067 -27.266243 -3.331019 27.531325 -1.502975 1.692084 0.038749 -0.005823 10280.400000 0 0 1
2.425567 -27.228843 -4.787819 27.752774 -1.481950 1.744180 0.033521 -0.002650 -154592.000000 0 0 1
2.241967 -28.447043 -5.520919 29.064432 -1.492147 1.761912 0.027353 -0.008772 149765.000000 0 0 1
2.793867 -28.371343 -6.851719 29.320383 -1.472638 1.806662 0.034880 -0.014128 -72418.800000 0 0 1
2.264067 -29.442543 -7.817819 30.546811 -1.494050 1.829605 0.022469 -0.012292 -246668.000000 0 0 1
0.963067 -29.065943 -8.203219 30.216707 -1.537675 1.845726 0.019083 -0.004323 -477108.000000 0 0 1
0.851967 -28.930443 -9.645919 30.508034 -1.541356 1.892493 0.016327 -0.003362 -504010.000000 0 0 1
-0.470733 -28.300643 -10.048619 30.035358 1.554165 1.911934 0.010389 -0.006583 -622603.000000 0 0 1
-0.563933 -26.945943 -9.606919 28.612843 1.549871 1.913203 -0.001927 -0.003465 888038.000000 0 0 1
-1.850033 -26.277143 -9.749019 28.088329 1.500508 1.925257 0.013905 -0.002329 1870240.000000 0 0 1
-2.934833 -26.654743 -8.672019 28.183195 1.461133 1.883573 0.018758 -0.004487 261197.000000 0 0 1
-2.582033 -26.377743 -7.341119 27.501714 1.473220 1.841006 0.020969 -0.006333 -337307.000000 0 0 1
-2.223933 -27.563843 -6.640519 28.439547 1.490288 1.806468 0.023873 -0.002844 325840.000000 0 0 1
-1.831133 -27.265843 -5.162819 27.810681 1.503739 1.757521 0.028686 0.000995 561751.000000 0 0 1
-2.965333 -27.062743 -4.324919 27.566106 1.461659 1.728340 0.032925 -0.007570 367082.000000 0 0 1
-2.522633 -27.073543 -2.982819 27.353933 1.477888 1.680059 0.034382 0.000984 -325345.000000 0 0 1
-3.644033 -27.183043 -1.982219 27.497746 1.437535 1.642945 0.041117 -0.000526 -190243.000000 0 0 1
-4.661833 -26.202043 -2.129219 26.698564 1.394720 1.650631 0.036827 -0.000854 134663.000000 0 0 1
-5.625533 -26.266843 -1.084319 26.884371 1.359815 1.611140 0.056698 -0.001727 678839.000000 0 0 1
-6.546233 -24.969743 -1.115619 25.837683 1.314400 1.613988 0.029071 -0.006912 831897.000000 0 0 1
-5.854233 -23.740143 -0.743119 24.462598 1.329024 1.601179 0.020590 -0.006024 -30796.700000 0 1 0
-6.693833 -22.927043 -0.007419 23.884237 1.286730 1.571107 0.028467 -0.008936 -398855.000000 0 1 0
-6.009033 -21.618843 0.345281 22.441080 1.299686 1.555410 0.014259 -0.008945 -6341.840000 0 1 0
-5.050333 -21.748043 1.368981 22.368669 1.342620 1.509557 0.017650 -0.009680 -274929.000000 0 1 0
-4.419833 -20.537643 1.623181 21.070464 1.358823 1.493684 0.008132 -0.002153 -34065.900000 0 1 0
-3.419033 -20.478043 2.817981 20.951875 1.405361 1.435890 0.012451 0.006029 33477.200000 0 1 0
-3.955033 -20.320643 4.111581 21.106301 1.378568 1.374739 0.011156 0.013709 -497025.000000 0 1 0
-3.015733 -20.234243 5.153881 21.096960 1.422844 1.324004 0.025113 0.011400 -241275.000000 0 1 0
-2.203733 -21.470643 5.589881 22.295554 1.468515 1.317375 0.024266 0.000698 891982.000000 0 1 0
-1.132033 -21.610843 4.612381 22.126548 1.518462 1.360802 0.035734 -0.004442 476040.000000 0 1 0
-0.435333 -22.847043 4.778581 23.345487 1.551744 1.364650 0.041375 -0.006640 -1184290.000000 0 1 0
0.536667 -23.160343 3.653181 23.452830 -1.547629 1.414392 0.048846 -0.015390 -315855.000000 0 1 0
1.679667 -22.365343 3.531081 22.704590 -1.495836 1.414640 0.027370 -0.015787 -434712.000000 0 1 0
2.629967 -22.777543 4.497081 23.365722 -1.455842 1.377123 0.049830 -0.014700 -948697.000000 0 1 0
3.826967 -21.795143 4.681781 22.618422 -1.396980 1.362299 0.056836 -0.022511 429638.000000 0 1 0
4.740067 -21.831043 3.593081 22.626819 -1.356990 1.411324 0.036353 -0.012230 421796.000000 0 1 0
5.873967 -20.961343 3.801981 22.098336 -1.297576 1.397888 0.049296 -0.012519 849958.000000 0 1 0
6.548167 -20.608143 2.478081 21.764994 -1.263139 1.456693 0.048731 -0.007020 -4144.610000 0 1 0
7.201267 -21.707943 1.835081 22.944729 -1.250486 1.490732 0.045519 -0.003233 -51108.700000 0 1 0
6.956267 -21.533943 0.474381 22.634606 -1.258341 1.549837 0.041358 -0.012933 -316614.000000 0 1 0
7.751267 -22.440843 -0.421019 23.745544 -1.238217 1.588528 0.042249 -0.006473 79469.900000 0 1 0
9.120267 -22.058243 -0.422419 23.873077 -1.178738 1.588492 0.036956 -0.001618 -250046.000000 0 1 0
9.888267 -22.902643 -1.266619 24.978255 -1.163220 1.621527 0.035931 -0.003320 -316316.000000 0 1 0
11.219367 -22.264243 -1.606719 24.983040 -1.104019 1.635153 0.039320 -0.003769 -584030.000000 0 1 0
11.132167 -21.243443 -2.633619 24.127680 -1.088111 1.680168 0.040413 -0.003618 -85166.200000 0 1 0
12.416667 -20.836843 -3.056319 24.447673 -1.033397 1.696139 0.043935 -0.016419 -145861.000000 0 1 0
12.458967 -19.725943 -4.128719 23.693565 -1.007463 1.745945 0.040252 -0.024255 -128915.000000 0 1 0
12.382967 -18.409943 -3.644619 22.484375 -0.978681 1.733610 0.041224 -0.016925 79346.300000 0 1 0
12.579767 -17.444243 -4.648419 22.003635 -0.946022 1.783657 0.051252 -0.023818 -849990.000000 0 1 0
13.040267 -16.086743 -4.119919 21.114109 -0.889612 1.767183 0.054213 -0.013908 -404745.000000 0 1 0
14.286567 -16.026343 -3.495019 21.752352 -0.842729 1.732169 0.050865 -0.008549 57522.600000 0 1 0
15.382667 -15.988243 -4.414919 22.621712 -0.804700 1.767220 0.056372 -0.009829 311593.000000 0 1 0
16.795867 -15.698843 -3.824619 23.306277 -0.751651 1.735644 0.062734 -0.007850 556439.000000 0 1 0
17.416067 -16.804243 -3.155619 24.406145 -0.767521 1.700455 0.065565 -0.010768 1356640.000000 0 1 0
18.843067 -16.586943 -3.107919 25.295197 -0.721806 1.693974 0.071293 0.000488 943471.000000 0 0 1
19.591267 -17.386843 -2.004919 26.270511 -0.725854 1.647189 0.054773 -0.009490 -83152.000000 0 0 1
20.964067 -17.346343 -2.298119 27.306942 -0.691246 1.655055 0.052859 -0.004160 36780.600000 0 0 1
21.799667 -17.904343 -1.286419 28.239084 -0.687602 1.616367 0.039847 -0.002434 110340.000000 0 0 1
23.292367 -18.082743 -1.600419 29.531022 -0.660145 1.625017 0.038311 -0.010545 -330661.000000 0 0 1
23.997867 -16.919243 -1.375019 29.394712 -0.614095 1.617591 0.041914 -0.000674 1069740.000000 0 0 1
25.262567 -17.126943 -0.682119 30.528589 -0.595779 1.593142 0.063481 -0.008558 1069040.000000 0 0 1
26.041867 -15.906543 -0.247419 30.516523 -0.548328 1.578904 0.055405 -0.014506 169137.000000 0 0 1
25.283367 -15.135443 0.704081 29.475855 -0.539413 1.546907 0.035168 -0.012591 930866.000000 0 0 1
26.058267 -14.040743 1.197981 29.624498 -0.494220 1.530346 0.039389 -0.014767 785825.000000 0 0 1
25.137867 -13.279143 2.226681 28.516769 -0.485993 1.492634 0.031359 -0.018265 454821.000000 0 0 1
24.711467 -14.015243 3.409881 28.613125 -0.515919 1.451341 0.042131 -0.003281 -49758.000000 0 0 1
25.722567 -14.498743 4.263681 29.833588 -0.513269 1.427390 0.071319 -0.003794 -117631.000000 0 0 1
25.196367 -15.000743 5.646581 29.862402 -0.536996 1.380564 0.048260 0.005620 200824.000000 0 0 1
24.338867 -16.132643 5.581581 29.728718 -0.585345 1.381925 0.048310 0.005448 -293541.000000 0 0 1
23.783367 -16.348143 6.796481 29.649662 -0.602204 1.339514 0.031476 0.013649 -344957.000000 0 0 1
23.067467 -17.749243 6.898681 29.912129 -0.655833 1.338070 0.031373 0.010797 -93769.300000 0 0 1
23.952867 -18.834543 6.819081 31.224665 -0.666342 1.350634 0.041175 0.005083 -320498.000000 0 0 1
23.249967 -19.981843 7.179381 31.486164 -0.709946 1.340756 0.023110 0.018567 -28301.900000 0 0 1
1.941767 23.298203 -3.142019 23.589171 1.487644 1.704391 0.025591 -0.023325 24553.100000 0 1 0
2.854467 24.171203 -2.512119 24.468465 1.453247 1.673645 0.026892 -0.028138 -19869.500000 0 1 0
3.519267 24.914503 -3.521919 25.407117 1.430471 1.709864 0.031981 -0.022047 339318.000000 0 0 1
4.564667 26.025203 -3.100719 26.603794 1.397168 1.687614 0.024066 -0.017479 78252.400000 0 0 1
5.676967 25.331403 -2.605719 26.090184 1.350331 1.670837 0.006995 -0.014780 -1049120.000000 0 0 1
6.468467 26.219403 -1.908019 27.072840 1.328921 1.641332 0.008148 -0.013445 -717844.000000 0 0 1
7.626467 25.571203 -1.162119 26.709548 1.280951 1.614320 -0.002801 -0.025423 -878449.000000 0 0 1
8.677467 25.146003 -1.948019 26.672358 1.238508 1.643897 -0.003673 -0.023587 -1179310.000000 0 0 1
9.620267 24.544603 -1.122019 26.386474 1.197248 1.613332 -0.006695 -0.019604 -225821.000000 0 0 1
10.882867 24.075603 -1.895319 26.488935 1.146257 1.642409 0.012028 -0.020152 -453441.000000 0 0 1
11.689867 25.204303 -2.275019 27.876255 1.136522 1.652499 0.017545 -0.009210 67302.300000 0 0 1
12.399967 25.150203 -3.496019 28.257991 1.112735 1.694832 0.036013 -0.010037 742784.000000 0 0 1
13.478167 23.975503 -3.575819 27.735757 1.058662 1.700081 0.043925 -0.009566 -144597.000000 0 0 1
12.973867 22.610303 -3.633819 26.320176 1.049862 1.709301 0.046610 -0.017693 -98891.800000 0 0 1
12.630667 22.179503 -4.981219 26.005319 1.053124 1.763534 0.048293 -0.022469 -164608.000000 0 0 1
11.714267 20.944103 -5.119019 24.537397 1.060833 1.780961 0.050657 -0.021628 166249.000000 0 1 0
10.363367 21.332403 -4.897419 24.216843 1.118570 1.774433 0.031708 -0.019237 -285047.000000 0 1 0
9.592267 20.167703 -5.060719 22.898880 1.126838 1.793639 0.016509 -0.019002 685366.000000 0 1 0
8.054867 20.451203 -4.876619 22.514751 1.195596 1.789123 0.010526 -0.015624 805077.000000 0 1 0
7.687967 20.781003 -3.545219 22.439329 1.216459 1.729452 0.007656 -0.027776 -203458.000000 0 1 0
6.375767 21.290003 -3.566519 22.508547 1.279824 1.729919 0.011718 -0.020971 -84818.100000 0 1 0
5.933967 21.997703 -2.280819 22.897883 1.307314 1.670570 0.011177 -0.024842 59819.100000 0 1 0
5.589467 21.222903 -1.176219 21.978108 1.313275 1.624340 0.006657 -0.023034 -240956.000000 0 1 0
5.151367 22.039103 -0.121619 22.633458 1.341181 1.576170 0.017231 -0.016463 -25517.700000 0 1 0
4.419467 21.225403 0.956581 21.701716 1.365513 1.526703 0.003788 -0.010748 -252344.000000 0 1 0
3.950667 21.932103 2.056581 22.379777 1.392576 1.478772 0.021301 -0.004879 -127779.000000 0 1 0
3.472967 20.962003 2.944381 21.450791 1.406609 1.433099 0.020243 -0.012347 159209.000000 0 1 0
2.503667 21.470103 4.064881 21.994475 1.454709 1.384914 0.022153 -0.013603 1250190.000000 0 1 0
1.184267 21.830403 3.605981 22.157890 1.516601 1.407329 0.015943 -0.004164 486879.000000 0 1 0
0.259367 22.128603 4.609481 22.605080 1.559076 1.365443 0.016394 -0.013443 -176055.000000 0 1 0
-1.141933 22.169803 3.976281 22.552494 -1.519333 1.393558 0.021264 -0.015376 554327.000000 0 1 0
-2.209633 22.239403 4.958081 22.892272 -1.471765 1.352483 0.028383 -0.021747 679333.000000 0 1 0
-3.463433 22.471603 4.338381 23.147135 -1.417875 1.382255 0.037510 -0.023219 1029460.000000 0 1 0
-4.661333 22.733003 5.334581 23.811241 -1.368553 1.344842 0.043607 -0.027148 549507.000000 0 1 0
-4.710733 24.082303 5.911681 25.240767 -1.377626 1.334389 0.059957 -0.018607 -384168.000000 0 0 1
-5.867233 24.295403 6.672781 25.869230 -1.333838 1.309904 0.061230 -0.021410 -154014.000000 0 0 1
-6.181433 25.814703 6.878681 27.421256 -1.335768 1.317236 0.072167 -0.019459 180461.000000 0 0 1
-5.169533 26.524903 7.610181 28.075067 -1.378316 1.296297 0.071733 -0.020860 252105.000000 0 0 1
-5.618333 27.681503 8.229081 29.420215 -1.370553 1.287306 0.063813 -0.021771 -222578.000000 0 0 1
-5.842833 29.020303 7.316081 30.493306 -1.372116 1.328509 0.074586 -0.023711 966408.000000 0 0 1
-7.063833 28.918403 6.557581 30.482350 -1.331220 1.353974 0.069047 -0.028998 383683.000000 0 0 1
-7.218933 30.100703 5.775081 31.488361 -1.335416 1.386349 0.081447 -0.030802 51773.400000 0 0 1
-8.655633 30.269503 5.201381 31.909515 -1.292277 1.407062 0.079773 -0.031589 1234520.000000 0 0 1
-9.666333 30.762203 6.113881 32.819669 -1.266338 1.383415 0.080940 -0.027003 478264.000000 0 0 1
-10.254933 29.853703 6.986681 32.329877 -1.239918 1.352972 0.067766 -0.021027 -327087.000000 0 0 1
-11.215533 30.481803 8.060081 33.464809 -1.218228 1.327552 0.044490 -0.023394 151912.000000 0 0 1
-10.614233 31.115603 9.183981 34.134853 -1.242052 1.298390 0.044211 -0.023084 -421240.000000 0 0 1
-11.582433 31.538503 10.081181 35.077915 -1.218840 1.279291 0.052564 -0.016297 -535104.000000 0 0 1
-11.036333 31.987603 11.422281 35.713806 -1.238566 1.245248 0.046735 -0.020918 -375348.000000 0 0 1
-10.205433 33.100803 11.407281 36.468344 -1.271730 1.252657 0.029539 -0.013443 -313544.000000 0 0 1
-9.343733 33.168503 12.489381 36.652962 -1.296207 1.223085 0.037258 -0.019904 -57113.400000 0 0 1
-8.955133 -34.006343 12.770281 37.412643 1.313305 1.222458 0.040318 -0.020446 283255.000000 0 0 1
-10.108833 -33.346743 13.285581 37.292097 1.276459 1.206537 0.032881 -0.005233 468263.000000 0 0 1
-9.862233 -31.993943 13.357481 36.045781 1.271785 1.191174 0.026339 0.011805 -89688.700000 0 0 1
-10.973433 -31.202543 14.081581 35.948656 1.232622 1.168303 0.027177 -0.003853 -154987.000000 0 0 1
-11.043533 -31.266743 15.486581 36.597856 1.231270 1.133871 0.022208 -0.003627 426349.000000 0 0 1
-10.000533 -30.643643 16.278381 36.111345 1.255344 1.103154 0.037657 -0.003708 538212.000000 0 0 1
-10.151533 -30.842243 17.830981 37.043778 1.252821 1.068603 0.040784 -0.012444 312846.000000 0 0 1
-11.254833 -30.172543 18.436381 37.107328 1.213766 1.050843 0.050024 -0.016229 408211.000000 0 0 1
-11.650033 -30.778643 19.645481 38.327446 1.208952 1.032622 0.054012 -0.021027 -76646.500000 0 0 1
-11.753333 -29.840343 20.826681 38.240523 1.195582 0.994856 0.056133 -0.020339 -287530.000000 0 0 1
-10.516233 -29.517343 21.395581 37.942530 1.228544 0.971702 0.053880 -0.021803 -50511.200000 0 0 1
-10.746333 -28.821843 22.611281 38.176595 1.213909 0.936909 0.044938 -0.017921 500574.000000 0 0 1
-9.449433 -28.734543 23.471781 38.286947 1.253084 0.910882 0.059443 -0.022119 492363.000000 0 0 1
-9.089733 -29.947443 24.199681 39.561309 1.276111 0.912588 0.061101 -0.010899 305793.000000 0 0 1
-7.926733 -29.832343 25.007581 39.726325 1.311088 0.889891 0.068357 -0.012639 229244.000000 0 0 1
-7.725033 -31.034843 25.974881 41.201118 1.326839 0.888675 0.072386 -0.008217 -164436.000000 0 0 1
-7.308033 -32.263143 25.398881 41.706366 1.348042 0.916006 0.084325 -0.005119 303186.000000 0 0 1
-7.336833 -33.297543 26.358881 43.096939 1.353920 0.912692 0.074082 -0.007301 -302817.000000 0 0 1
-7.245133 33.865703 25.781181 43.174612 -1.360036 0.930869 0.056060 -0.014302 22659.700000 0 0 1
-6.030433 33.595803 25.096181 42.365817 -1.393188 0.936801 0.066128 -0.008202 141951.000000 0 0 1
-5.823133 32.407303 24.272281 40.905816 -1.393008 0.935557 0.051169 -0.002516 -713666.000000 0 0 1
-6.794833 32.054303 23.152081 40.120655 -1.361910 0.955670 0.050614 -0.004605 -553355.000000 0 0 1
-7.945433 31.410603 23.621581 40.096571 -1.323039 0.940830 0.059009 -0.014548 -140081.000000 0 0 1
-8.856533 31.161703 22.548381 39.470488 -1.293886 0.962742 0.047639 -0.016078 218648.000000 0 0 1
-9.834933 30.015403 22.770081 38.937475 -1.254158 0.946180 0.048107 -0.024409 -92817.800000 0 0 1
-9.115133 28.796103 22.657381 37.757888 -1.264235 0.927208 0.048307 -0.018228 128532.000000 0 0 1
-9.722033 27.588703 23.147081 37.302035 -1.231992 0.901376 0.039928 -0.019270 -338414.000000 0 0 1
-9.009833 26.272403 22.679181 35.857517 -1.240426 0.886045 0.033841 -0.010329 -1158530.000000 0 0 1
-7.749933 26.258103 23.194581 35.882280 -1.283800 0.867930 0.016176 -0.011643 -1348500.000000 0 0 1
-7.220133 24.946503 23.284281 34.880024 -1.289070 0.839878 0.006978 -0.012567 983860.000000 0 0 1
-5.703133 24.909403 23.700081 34.852517 -1.345721 0.823019 -0.010648 -0.007583 658413.000000 0 0 1
-4.791833 25.510703 22.833181 34.570389 -1.385124 0.849333 0.007350 -0.004904 -1093030.000000 0 0 1
-3.565533 25.627603 23.474581 34.936271 -1.432555 0.833990 0.000069 -0.009281 -663867.000000 0 0 1
-2.503733 26.041903 22.421681 34.455496 -1.474948 0.862233 0.010924 -0.003582 -296177.000000 0 0 1
-2.287033 25.039603 21.477781 33.068222 -1.479712 0.863871 0.008128 0.002709 -36897.800000 0 0 1
-1.490833 25.476703 20.389681 32.665335 -1.512345 0.896690 0.010511 0.003725 88024.100000 0 0 1
-1.130933 24.335803 19.337681 31.103958 -1.524358 0.899871 0.008742 0.001411 -175107.000000 0 0 1
-0.130433 23.498303 19.877981 30.778587 -1.565246 0.868676 0.011304 -0.001478 -130180.000000 0 0 1
0.168067 22.431503 19.010281 29.403935 1.563304 0.867780 0.006776 -0.001692 -142040.000000 0 0 1
1.377167 21.593703 19.506881 29.132508 1.507106 0.837138 0.010606 -0.000608 -24452.100000 0 0 1
2.613667 22.179703 19.156981 29.423807 1.453497 0.861802 0.009381 -0.009091 -1060140.000000 0 0 1
3.597467 21.326503 19.598581 29.186742 1.403684 0.834580 0.014346 -0.001577 -952571.000000 0 0 1
4.999667 21.851303 19.258181 29.552557 1.345864 0.861027 0.022717 -0.005202 92345.500000 0 0 1
5.891367 20.753103 18.973081 28.729380 1.294194 0.849436 0.035160 -0.005529 -313654.000000 0 0 1
7.183867 21.221603 18.713481 29.191758 1.244388 0.874926 0.039758 -0.004730 -563842.000000 0 0 1
8.131167 20.045803 18.471981 28.445811 1.185446 0.864035 0.049088 0.000652 -331915.000000 0 0 1
8.417367 19.338903 19.648081 28.825203 1.160271 0.820810 0.048475 -0.002535 -433642.000000 0 0 1
9.350967 18.341903 19.368381 28.266591 1.099328 0.815913 0.060578 -0.003863 -257281.000000 0 0 1
9.881967 17.665903 20.615881 28.892074 1.060780 0.776247 0.088372 -0.007608 -162979.000000 0 0 1
8.916267 16.782503 21.107281 28.401928 1.082436 0.733010 0.076944 -0.004541 149814.000000 0 0 1
9.449967 16.187303 22.288381 29.122201 1.042382 0.699227 0.080066 -0.009425 353775.000000 0 0 1
8.483167 15.141403 22.893781 28.728930 1.060108 0.648668 0.074860 -0.007385 -84502.700000 0 0 1
7.374867 15.694703 23.582081 29.271606 1.131521 0.634058 0.052670 -0.003098 -740513.000000 0 0 1
6.368167 14.793303 23.809481 28.745204 1.164296 0.594740 0.056220 0.001700 -612139.000000 0 0 1
6.613067 13.581503 24.732781 28.981034 1.117670 0.548298 0.058949 -0.001471 -782348.000000 0 0 1
7.015367 13.936003 26.060981 30.374369 1.104433 0.539448 0.063869 -0.008458 66364.200000 0 0 1
7.353567 12.821103 26.896481 30.690004 1.050051 0.502477 0.062675 -0.015567 -541504.000000 0 0 1
8.117567 13.198003 28.193681 32.170885 1.019377 0.502518 0.057320 -0.013391 321445.000000 0 0 1
9.474667 13.581203 28.029781 32.555906 0.961662 0.533615 0.086013 -0.012271 297188.000000 0 0 1
9.723467 14.797603 27.344981 32.577030 0.989448 0.574628 0.079583 -0.012484 -467624.000000 0 0 1
11.169667 14.891403 26.782881 32.616531 0.927247 0.607383 0.101279 -0.020998 438312.000000 0 0 1
11.260567 14.041803 25.627681 31.316938 0.894879 0.612292 0.098733 -0.018535 465275.000000 0 0 1
12.602367 13.727803 25.237381 31.371924 0.828115 0.636035 0.119530 -0.027158 378807.000000 0 0 1
12.733867 12.594003 24.088481 30.016915 0.779876 0.639328 0.107804 -0.016434 61247.800000 0 0 1
12.427867 11.304703 24.459881 29.673793 0.738108 0.601845 0.102250 -0.010248 1357350.000000 0 0 1
11.029967 11.017903 24.779881 29.276217 0.784851 0.561576 0.107316 -0.011663 1319380.000000 0 0 1
10.803567 9.588203 25.170681 29.020921 0.725868 0.520986 0.088471 -0.009438 -135832.000000 0 0 1
10.724467 8.758903 23.983281 27.693507 0.684854 0.523599 0.093249 -0.007360 104720.000000 0 0 1
10.411767 7.458803 24.387981 27.546547 0.621636 0.483578 0.078955 -0.011076 64653.400000 0 0 1
10.619167 6.383703 23.285781 26.376997 0.541264 0.488993 0.061212 -0.019303 -565272.000000 0 0 1
11.956767 6.200503 22.937681 26.599769 0.478398 0.530950 0.064922 -0.021315 -299022.000000 0 0 1
12.304367 5.060003 22.139781 25.829653 0.390155 0.541094 0.063977 -0.024909 -111365.000000 0 0 1
11.990367 3.642403 22.703381 25.932210 0.294919 0.504348 0.050593 -0.021504 -344735.000000 0 0 1
12.892167 3.189903 23.708281 27.174732 0.242558 0.510627 0.047687 -0.010810 -98754.700000 0 0 1
12.576167 1.910703 24.251381 27.385037 0.150777 0.483076 0.042906 -0.003275 -784802.000000 0 0 1
13.648667 1.261803 25.134881 28.629364 0.092187 0.499253 0.031862 0.002640 94327.500000 0 0 1
14.637967 0.658403 24.280181 28.358963 0.044949 0.542979 0.044417 -0.005304 124265.000000 0 0 1
15.928667 1.170703 24.522781 29.265334 0.073365 0.577287 0.040696 -0.015084 46580.400000 0 0 1
17.042167 0.292103 23.867481 29.328782 0.017138 0.620152 0.046324 -0.017890 245553.000000 0 0 1
17.144367 -1.023597 24.357681 29.803921 -0.059634 0.614149 0.044246 -0.016611 -187678.000000 0 0 1
18.199767 -1.660297 23.686781 29.917415 -0.090974 0.657146 0.042292 -0.000736 -78582.000000 0 0 1
18.433167 -3.089797 24.145081 30.533808 -0.166078 0.658738 0.041855 0.002895 -197469.000000 0 0 1
17.553367 -3.958697 23.482781 29.584337 -0.221813 0.653835 0.041046 0.002975 -38277.300000 0 0 1
17.574367 -5.319297 23.898581 30.137941 -0.293908 0.655123 0.050684 -0.001310 643543.000000 0 0 1
16.432167 -6.089997 23.116181 29.007964 -0.354920 0.648665 0.054396 -0.006021 651935.000000 0 0 1
16.627667 -6.097997 21.713981 28.020740 -0.351508 0.684199 0.050007 -0.005838 -133045.000000 0 0 1
15.820267 -7.039197 21.028781 27.240425 -0.418645 0.688862 0.050919 -0.008036 -275804.000000 0 0 1
16.183667 -8.514397 21.001881 27.847532 -0.484317 0.716401 0.060447 -0.008890 -253295.000000 0 0 1
16.071667 -9.190497 22.254881 28.948980 -0.519460 0.693893 0.058342 -0.008098 -13481.800000 0 0 1
16.745667 -10.443797 22.310281 29.786556 -0.557644 0.724237 0.062516 -0.006888 -16978.200000 0 0 1
16.495667 -11.447297 23.484681 30.897862 -0.606659 0.707368 0.069985 -0.005749 -88144.500000 0 0 1
15.316267 -12.202797 23.351681 30.476176 -0.672739 0.697847 0.087972 -0.011920 -152452.000000 0 0 1
15.198067 -13.114897 24.412481 31.606186 -0.711954 0.688192 0.098046 -0.006991 -287632.000000 0 0 1
14.125667 -14.136897 24.108081 31.314308 -0.785796 0.692152 0.095650 -0.013707 -421386.000000 0 0 1
14.475467 -15.070197 23.097381 31.147054 -0.805525 0.735405 0.103521 -0.015451 403298.000000 0 0 1
13.360967 -15.895797 22.779381 30.823562 -0.871823 0.739174 0.102089 -0.006768 259588.000000 0 0 1
13.666867 -16.673997 21.470181 30.426536 -0.884187 0.787470 0.095616 -0.014711 373122.000000 0 0 1
14.843767 -17.449097 21.683181 31.543125 -0.865902 0.812874 0.092706 -0.017630 305281.000000 0 0 1
15.156167 -18.092997 20.453081 31.231306 -0.873497 0.856759 0.079085 -0.011989 49787.200000 0 0 1
-23.973433 -31.957343 26.993401 48.214531 0.927187 0.976579 0.024880 -0.011347 -744467.000000 0 0 1
-23.903533 -33.311443 26.532891 48.836722 0.948371 0.996436 0.031348 -0.004519 469097.000000 0 0 1
-25.112333 -34.050043 26.635581 49.994889 0.935335 1.008931 0.026538 -0.011235 207948.000000 0 0 1
-25.728393 34.278403 28.016191 51.204161 -0.926930 0.991845 0.019395 -0.007256 -601731.000000 0 0 1
-26.294823 -33.243543 28.629871 51.149002 0.901582 0.976731 0.041613 -0.010907 -132109.000000 0 0 1
-26.277963 -33.478543 30.032891 52.089526 0.905319 0.956281 0.018739 -0.008732 -676933.000000 0 0 1
-27.477063 -32.829843 30.700741 52.681335 0.873925 0.948672 0.011483 -0.015767 -556874.000000 0 0 1
-27.514573 -31.414143 30.542041 51.736992 0.851476 0.939325 0.016281 -0.008927 -510139.000000 0 0 1
-28.516193 -30.914343 31.338671 52.449806 0.825728 0.930419 0.018920 -0.003050 -733242.000000 0 0 1
-28.748093 -29.392843 31.183861 51.602570 0.796487 0.921899 0.015041 -0.009053 -454485.000000 0 0 1
-29.566903 -29.136743 30.090781 51.269939 0.778071 0.943561 0.023078 0.001154 -4072.710000 0 0 1
-29.880773 -27.750943 29.956411 50.600020 0.748459 0.937229 0.034631 0.001478 96977.400000 0 0 1
-30.575943 -27.425843 28.596291 50.048107 0.731141 0.962615 0.026128 -0.003862 -405593.000000 0 0 1
-29.740283 -27.325643 27.520021 48.872556 0.743110 0.972667 0.026637 -0.000586 -215262.000000 0 0 1
-29.081933 -26.059843 27.381341 47.692893 0.730647 0.959270 0.018187 0.001685 -43093.700000 0 0 1
-28.067703 -26.099043 26.213071 46.433620 0.749070 0.970935 0.023736 0.001639 -346293.000000 0 0 1
-28.629633 -26.140243 24.939821 46.097320 0.739978 0.999140 0.013955 0.001839 783404.000000 0 0 1
-27.609573 -26.274043 23.908951 44.991686 0.760618 1.010534 0.020028 0.010100 389194.000000 0 0 1
-28.149843 -26.790743 22.572551 44.940824 0.760666 1.044571 -0.002552 0.017953 -190229.000000 0 0 1
-28.753913 -25.702643 21.902651 44.352446 0.729425 1.054305 -0.002579 0.008108 257903.000000 0 0 1
-29.318993 -26.068143 20.627051 44.324109 0.726772 1.086745 -0.005567 0.018653 -92463.700000 0 0 1
-29.778483 -24.786743 19.902451 43.557413 0.694170 1.096262 0.006720 0.008247 -651271.000000 0 0 1
-31.063043 -24.420843 20.277051 44.412262 0.666251 1.096667 0.028521 0.007717 -631578.000000 0 0 1
-31.564873 -23.354443 19.479151 43.831593 0.636997 1.110282 0.055024 0.005987 681745.000000 0 0 1
-33.089903 -23.047543 19.712851 44.885715 0.608382 1.116112 0.065914 0.013634 1058280.000000 0 0 1
-33.916593 -24.086543 19.131251 45.787571 0.617519 1.139745 0.044917 0.007737 -86878.900000 0 0 1
-35.187174 -23.563443 18.857051 46.356892 0.590072 1.151870 0.045449 0.007339 -366599.000000 0 0 1
-36.133953 -24.408143 18.019151 47.181668 0.594087 1.178934 0.053755 0.007328 -61493.600000 0 0 1
35.859841 -25.652343 18.627551 47.863938 -0.620954 1.171058 0.042814 0.009135 -183704.000000 0 0 1
35.352581 -26.630943 17.740251 47.683630 -0.645607 1.189590 0.058876 0.013510 19770.600000 0 0 1
34.739091 -27.842743 18.445051 48.189653 -0.675644 1.178015 0.061293 0.012740 203419.000000 0 0 1
33.630701 -27.756443 19.322751 47.694998 -0.689997 1.153674 0.061550 0.004725 73101.900000 0 0 1
33.887091 -27.003143 20.494951 47.932741 -0.672821 1.128985 0.061761 0.004266 -278751.000000 0 0 1
32.708981 -27.116943 21.494451 47.615307 -0.692197 1.102441 0.049603 0.000964 -388606.000000 0 0 1
31.585911 -26.467543 21.036651 46.268145 -0.697459 1.098797 0.051747 0.002810 -1013780.000000 0 0 1
30.591381 -26.372143 22.038751 46.011184 -0.711464 1.071296 0.048958 0.009754 289671.000000 0 0 1
29.469671 -25.328443 21.708351 44.511167 -0.709969 1.061337 0.053624 0.016179 125130.000000 0 0 1
29.736741 -23.951443 21.448951 43.795010 -0.678055 1.058984 0.037194 0.024539 -329663.000000 0 0 1
30.699601 -23.246143 22.218851 44.458137 -0.648102 1.047463 0.047840 0.014212 349445.000000 0 0 1
31.365391 -22.018943 21.462151 43.923177 -0.612076 1.060278 0.037711 0.017309 523689.000000 0 0 1
30.373551 -21.061643 21.133051 42.576416 -0.606297 1.051400 0.034268 0.007786 292864.000000 0 0 1
31.057951 -19.960843 20.587451 42.271441 -0.571224 1.062111 0.034121 0.002582 230393.000000 0 0 1
30.317051 -18.604443 20.914251 41.263237 -0.550405 1.039270 0.000145 0.010705 235708.000000 0 0 1
30.324801 -18.207343 22.242251 41.782994 -0.540722 1.009448 0.002809 0.001831 26850.400000 0 0 1
29.455701 -18.912143 23.100651 41.939808 -0.570769 0.987468 0.015917 0.005414 -216698.000000 0 0 1
29.593181 -18.418043 24.544431 42.631089 -0.556709 0.957287 0.011031 0.007919 7699.320000 0 0 1
29.326991 -17.033143 24.658311 41.931285 -0.526183 0.942132 0.013126 -0.002718 182677.000000 0 0 1
29.533101 -16.577543 25.962141 42.673783 -0.511493 0.916771 0.006689 0.003287 -147995.000000 0 0 1
29.297281 -15.032343 26.055981 41.990667 -0.474070 0.901393 0.016137 -0.001303 -633794.000000 0 0 1
27.943351 -14.711443 26.092751 40.964485 -0.484602 0.880248 0.024652 -0.001238 -550594.000000 0 0 1
27.625431 -13.442743 26.703871 40.705878 -0.452876 0.855263 0.020392 0.000257 142144.000000 0 0 1
28.071971 -12.133243 25.971621 40.122017 -0.407969 0.866739 0.025091 -0.009081 -167207.000000 0 0 1
27.318181 -11.961543 24.778971 38.773172 -0.412713 0.877501 0.024869 -0.007131 259131.000000 0 0 1
27.896111 -11.060243 23.820731 38.313825 -0.377468 0.899851 0.028319 -0.006204 -239215.000000 0 0 1
28.965561 -11.625543 22.876251 38.697284 -0.381676 0.938301 0.034724 -0.011391 -352760.000000 0 0 1
28.550171 -12.738743 22.083251 38.276073 -0.419679 0.955811 0.028252 -0.011017 -67891.900000 0 0 1
29.369161 -13.887543 22.285951 39.396384 -0.441702 0.969532 0.016154 -0.011570 -272394.000000 0 0 1
28.838091 -15.140843 21.564451 39.062849 -0.483470 0.985981 0.018774 -0.001441 -242633.000000 0 0 1
29.052331 -15.018443 20.154651 38.416162 -0.477111 1.018504 0.012870 -0.002152 -413979.000000 0 0 1
28.517931 -15.992443 19.370151 38.003070 -0.511086 1.035961 0.009366 -0.002425 -493037.000000 0 0 1
28.577811 -15.689043 17.842351 37.164322 -0.502070 1.070035 0.017602 -0.004248 -330158.000000 0 0 1
28.307011 -16.739243 16.955151 36.999544 -0.534032 1.094768 0.026333 -0.010238 -250720.000000 0 0 1
26.961381 -16.992043 16.620051 35.942616 -0.562356 1.090090 0.036996 -0.014987 -325125.000000 0 0 1
26.336981 -15.972943 15.643251 34.546820 -0.545173 1.100878 0.044156 -0.007494 -629990.000000 0 0 1
26.535781 -16.004543 14.250851 34.108354 -0.542718 1.139762 0.052208 -0.010817 -2255.430000 0 0 1
25.730881 -17.015943 13.682451 33.746555 -0.584281 1.153328 0.043415 -0.023165 -74384.400000 0 0 1
26.183281 -17.496443 12.268351 33.796481 -0.589084 1.199304 0.042355 -0.008733 -23669.600000 0 0 1
25.626181 -16.695543 11.219951 32.578054 -0.577431 1.219194 0.046755 -0.011418 -55685.700000 0 0 1
25.408881 -17.304443 9.981951 32.321731 -0.597887 1.256833 0.036819 -0.006700 250240.000000 0 0 1
26.679381 -17.585843 9.104151 33.225544 -0.582784 1.293236 0.046823 -0.006862 603630.000000 0 0 1
27.494691 -18.553043 9.721451 34.564144 -0.593603 1.285691 0.056314 -0.006336 -1036680.000000 0 0 1
28.786621 -18.693743 9.216951 35.539805 -0.575946 1.308456 0.070913 -0.007184 -354543.000000 0 0 1
29.537671 -19.619543 10.188551 36.894539 -0.586308 1.291007 0.080030 -0.027975 -214245.000000 0 0 1
29.815021 -18.963943 11.418151 37.134092 -0.566508 1.258248 0.071448 -0.033842 57369.700000 0 0 1
30.151361 -19.909943 12.453351 38.217749 -0.583605 1.238883 0.042120 -0.027614 12463.300000 0 0 1
29.937831 -19.273643 13.871351 38.212058 -0.571996 1.199300 0.047747 -0.017300 113302.000000 0 0 1
29.862371 -20.315443 14.811851 39.036769 -0.597383 1.181613 0.046787 -0.011788 -106435.000000 0 0 1
29.731801 -19.824743 16.120851 39.203090 -0.588085 1.147011 0.045770 -0.010782 -54189.900000 0 0 1
29.281771 -20.845343 17.173651 39.835722 -0.618660 1.125072 0.028516 0.004256 462643.000000 0 0 1
27.963361 -21.382443 17.142251 39.153738 -0.652817 1.117625 0.003539 0.009549 -24194.600000 0 0 1
27.921241 -22.593743 17.848251 40.107767 -0.680323 1.109614 0.037359 0.008534 39587.800000 0 0 1
26.564781 -23.314643 17.902351 39.620125 -0.720330 1.101958 0.028118 0.016685 696219.000000 0 0 1
25.484281 -22.507843 18.417251 38.668420 -0.723458 1.074370 0.022464 0.013888 1259690.000000 0 0 1
24.247181 -23.251043 18.429651 38.316952 -0.764429 1.069025 0.033890 0.005938 1856210.000000 0 0 1
23.028581 -22.637243 19.251451 37.594929 -0.776829 1.033197 0.015208 0.002029 820684.000000 0 0 1
22.327181 -21.571443 18.592551 36.187195 -0.768184 1.031202 0.013382 0.001362 193907.000000 0 0 1
21.130081 -21.116343 19.203951 35.512983 -0.785073 0.999458 0.008367 -0.001266 465309.000000 0 0 1
21.254681 -20.495743 20.647551 36.029964 -0.767222 0.960554 0.009652 0.002077 -371386.000000 0 0 1
21.591581 -21.478643 21.653751 37.368615 -0.782776 0.952726 0.007206 0.000390 -427533.000000 0 0 1
22.158381 -20.798443 22.724951 37.947233 -0.753750 0.928724 0.018875 0.004885 97058.200000 0 0 1
22.736181 -21.764043 23.813551 39.467616 -0.763556 0.923077 0.017334 0.002066 1364510.000000 0 0 1
21.655181 -22.432743 24.579971 39.703272 -0.803033 0.903211 0.033419 -0.001869 1221420.000000 0 0 1
22.141981 -23.462143 25.390781 41.054004 -0.814338 0.903999 0.038686 -0.003194 -127339.000000 0 0 1
20.994981 -24.193143 26.133441 41.340708 -0.856055 0.886474 0.050921 -0.010641 -101026.000000 0 0 1
20.292181 -25.176043 25.431981 41.138685 -0.892401 0.904344 0.059212 -0.011577 -287860.000000 0 0 1
19.293681 -25.666143 26.298251 41.504157 -0.926197 0.884561 0.066428 -0.007918 -353605.000000 0 0 1
18.433881 -26.674543 25.518881 41.261998 -0.966091 0.904015 0.064071 -0.007250 -20380.700000 0 0 1
17.490881 -26.103843 24.603241 39.908157 -0.980455 0.906511 0.060223 -0.011944 418418.000000 0 0 1
17.088981 -27.122743 23.732861 39.886403 -1.008566 0.933517 0.060609 -0.018807 -808503.000000 0 0 1
16.289381 -26.532243 22.597851 38.470335 -1.020185 0.942942 0.044351 -0.017297 497634.000000 0 0 1
14.907381 -26.399243 22.993751 38.050790 -1.056745 0.921921 0.054400 -0.020680 798027.000000 0 0 1
14.238981 -25.650243 21.998951 36.669297 -1.064030 0.927385 0.051359 -0.022203 505254.000000 0 0 1
12.810681 -25.113643 22.307451 35.950396 -1.099095 0.901408 0.056748 -0.023528 1230160.000000 0 0 1
11.746581 -26.076143 22.309851 36.272260 -1.147550 0.908326 0.061438 -0.029584 809226.000000 0 0 1
10.456981 -25.464743 22.464151 35.530827 -1.181147 0.886350 0.075080 -0.024577 1370750.000000 0 0 1
9.298781 -26.520143 22.577751 36.049135 -1.233560 0.893992 0.072123 -0.025933 391606.000000 0 0 1
8.997881 -27.170843 21.330451 35.696004 -1.251004 0.930344 0.074954 -0.026223 585410.000000 0 0 1
7.742781 -27.830043 21.534451 36.030467 -1.299442 0.930200 0.059899 -0.025145 320287.000000 0 0 1
7.118281 -28.639743 20.406051 35.879126 -1.327187 0.965818 0.066057 -0.019200 -190315.000000 0 0 1
7.721381 -29.894643 20.087651 36.835080 -1.318034 0.994001 0.070166 -0.022311 -29463.100000 0 0 1
7.192581 -30.610443 18.978851 36.727772 -1.340011 1.027753 0.049026 -0.013054 46478.600000 0 0 1
7.875881 -31.992843 18.785651 37.927196 -1.329420 1.052607 0.046144 -0.004674 142546.000000 0 0 1
7.671281 -32.812343 19.903851 39.136450 -1.341129 1.037266 0.042945 -0.008662 275583.000000 0 0 1
8.565881 -33.908543 19.835651 40.207172 -1.323356 1.054875 0.041634 -0.007245 78159.800000 0 0 1
8.227781 33.581303 20.917451 40.409653 1.330519 1.026712 0.051470 -0.018193 95172.700000 0 0 1
7.204781 32.658403 20.588651 39.273053 1.353664 1.018970 0.039531 -0.012488 -67503.200000 0 0 1
7.246981 31.521903 21.442151 38.806120 1.344820 0.985381 0.037865 -0.024083 -912917.000000 0 0 1
6.324681 30.407403 21.061251 37.525831 1.365722 0.974905 0.032761 -0.017480 97551.500000 0 0 1
4.949681 30.659803 21.359451 37.692824 1.410739 0.968336 0.027836 -0.024335 679315.000000 0 0 1
4.155181 29.562303 20.842051 36.408603 1.431154 0.961307 0.028804 -0.019098 2244020.000000 0 0 1
2.626781 29.425603 21.314951 36.429290 1.481764 0.945787 0.018733 -0.014037 1631050.000000 0 0 1
2.429381 29.186203 22.674051 37.038479 1.487750 0.911987 0.018717 -0.019482 -1480890.000000 0 0 1
1.164981 28.918703 23.117251 37.041272 1.530533 0.896824 0.014087 -0.017346 -1255520.000000 0 0 1
1.096781 28.304703 24.551761 37.485305 1.532067 0.856653 0.018680 -0.013757 -350557.000000 0 0 1
1.207681 29.295003 25.568151 38.902262 1.529595 0.853645 0.024996 -0.015494 149500.000000 0 0 1
1.062381 28.812303 26.891401 39.426195 1.533941 0.820208 0.028652 -0.014494 -366130.000000 0 0 1
2.286981 28.088103 27.473321 39.356768 1.489554 0.798114 0.021502 -0.013637 -539381.000000 0 0 1
2.524681 26.812903 26.905051 38.068196 1.476914 0.785889 0.023957 -0.015449 178385.000000 0 0 1
3.407081 26.115903 27.765931 38.270034 1.441069 0.758997 0.024036 -0.010748 -12013.000000 0 0 1
3.990581 24.868303 27.045411 36.956886 1.411684 0.749823 0.027712 0.002982 93711.300000 0 0 1
2.998281 23.863803 26.801811 36.011218 1.445810 0.731366 0.029014 0.003172 344005.000000 0 0 1
3.543581 22.588503 26.496701 34.998180 1.415189 0.711952 0.046035 0.006593 715876.000000 0 0 1
2.377081 21.517303 26.336541 34.091908 1.460769 0.688003 0.033540 0.006688 560208.000000 0 0 1
2.669481 20.135803 26.468421 33.363962 1.438991 0.654547 0.043972 0.007536 -165020.000000 0 0 1
3.490881 19.568903 25.464761 32.304524 1.394264 0.662800 0.044697 0.005308 -502037.000000 0 0 1
3.849681 18.109103 25.789161 31.746503 1.361332 0.622632 0.035548 0.003771 -311405.000000 0 0 1
4.988281 17.902703 26.586961 32.438499 1.299056 0.610064 0.042934 0.001776 824222.000000 0 0 1
6.185681 17.867103 25.743251 31.940741 1.237506 0.633486 0.051242 -0.001297 -219241.000000 0 0 1
7.450981 17.561303 26.526791 32.673951 1.169532 0.623459 0.042696 -0.009388 -438899.000000 0 0 1
8.075481 18.540403 27.329601 33.998044 1.160014 0.637043 0.054314 -0.006764 160112.000000 0 0 1
8.765781 19.555903 26.653781 34.200823 1.149405 0.677198 0.043007 -0.016361 -345110.000000 0 0 1
9.236381 20.792203 27.410121 35.622200 1.152757 0.692790 0.046035 -0.014033 -236341.000000 0 0 1
10.192381 20.541403 28.389251 36.493608 1.110204 0.679441 0.053581 -0.029313 -387970.000000 0 0 1
10.501881 21.722703 29.127931 37.823295 1.120475 0.691790 0.058394 -0.030096 605431.000000 0 0 1
11.618481 21.515203 30.228771 38.880221 1.075653 0.680140 0.070403 -0.027038 416134.000000 0 0 1
12.919381 21.394903 29.726451 38.837020 1.027548 0.699110 0.063595 -0.028031 -608909.000000 0 0 1
13.851681 21.138503 30.782861 39.828255 0.990717 0.687413 0.058246 -0.008116 554197.000000 0 0 1
15.262381 20.961303 30.157041 39.771392 0.941445 0.710157 0.043483 -0.012873 433742.000000 0 0 1
15.872181 22.231703 29.791921 40.419466 0.950773 0.742074 0.044421 -0.027664 22193.300000 0 0 1
17.163981 22.025503 29.271171 40.454004 0.908819 0.761841 0.081129 -0.012696 -68287.700000 0 0 1
-8.559333 16.770003 4.340681 19.321923 -1.098867 1.344212 0.009698 -0.013074 -267956.000000 0 1 0
-8.432633 18.149703 4.602081 20.535340 -1.135855 1.344771 0.010855 -0.016712 -490070.000000 0 1 0
-7.182233 18.534303 5.072581 20.514286 -1.201103 1.320934 0.011727 -0.006026 -804085.000000 0 1 0
-7.093233 20.007003 5.637681 21.963096 -1.230085 1.311202 0.018865 -0.003466 -138841.000000 0 1 0
-7.374833 21.119303 4.808281 22.880837 -1.234836 1.359074 0.028937 -0.008500 91802.400000 0 1 0
-8.700233 21.195403 4.312681 23.313910 -1.181290 1.384742 0.031986 -0.018138 11764.700000 0 1 0
-8.745933 22.378603 3.231881 24.243314 -1.198232 1.437088 0.054599 -0.025562 104023.000000 0 1 0
-7.994533 22.124403 2.051981 23.613818 -1.224051 1.483789 0.039627 -0.026569 -189206.000000 0 1 0
-8.437733 21.073203 1.182081 22.730432 -1.189944 1.518769 0.048625 -0.024404 -1341050.000000 0 1 0
-7.838233 21.027503 -0.245019 22.442233 -1.213990 1.581714 0.032144 -0.011142 490424.000000 0 1 0
-6.513933 20.520103 -0.325019 21.531642 -1.263416 1.585892 0.029477 -0.009017 20082.600000 0 1 0
-5.544833 21.402703 0.176881 22.110001 -1.317298 1.562796 0.038692 -0.016101 -550603.000000 0 1 0
-4.122433 21.227303 -0.440219 21.628376 -1.378980 1.591151 0.038811 -0.012314 273675.000000 0 1 0
-3.981333 21.591403 -1.834019 22.031871 -1.388450 1.654137 0.038693 -0.011652 833292.000000 0 1 0
-2.600233 21.618003 -2.248019 21.889560 -1.451090 1.673676 0.035153 -0.003278 842047.000000 0 1 0
-2.391433 21.781203 -3.757019 22.231845 -1.461441 1.740604 0.044991 -0.008970 1282550.000000 0 1 0
-1.054833 22.160203 -4.188619 22.577241 -1.523232 1.757401 0.040457 -0.011603 1174590.000000 0 1 0
-1.144433 22.363003 -5.580419 23.077147 -1.519666 1.815033 0.046955 -0.024021 535932.000000 0 1 0
0.169767 22.946003 -6.194219 23.767966 1.563398 1.834452 0.042043 -0.028668 473396.000000 0 1 0
1.349567 22.211703 -5.898519 23.021156 1.510112 1.829908 0.025952 -0.019821 -113851.000000 0 1 0
2.359267 22.680903 -6.768919 23.786714 1.467149 1.859351 0.015914 -0.016759 -202768.000000 0 1 0
3.643767 21.845103 -6.758219 23.155109 1.405518 1.866975 0.013835 -0.006879 -188174.000000 0 1 0
3.374967 20.669003 -7.514619 22.250114 1.408938 1.915305 0.010953 -0.019932 177377.000000 0 1 0
4.280267 19.604603 -7.326419 21.362059 1.355840 1.920867 0.012599 -0.020155 196510.000000 0 1 0
3.948967 18.738903 -8.513219 20.957474 1.363099 1.989103 0.004099 -0.018685 221676.000000 0 1 0
4.247867 19.311703 -9.766219 22.053691 1.354281 2.029558 0.007855 -0.012657 -159711.000000 0 1 0
3.345867 18.838503 -10.728819 21.936079 1.395021 2.081848 0.014369 -0.017969 -778616.000000 0 1 0
3.707567 19.252903 -12.189219 23.086736 1.380553 2.127011 0.020473 -0.016400 -11827.400000 0 1 0
3.692467 20.665103 -12.434819 24.398883 1.393981 2.105571 0.038093 -0.014569 68725.200000 0 1 0
4.203567 20.923203 -13.737819 25.380663 1.372531 2.142744 0.047585 -0.005324 133761.000000 0 0 1
4.524667 22.379203 -14.223819 26.900155 1.371304 2.127939 0.030874 -0.002336 -842673.000000 0 0 1
3.423467 23.189003 -14.417619 27.519406 1.424222 2.122228 0.046335 0.001602 -960260.000000 0 0 1
3.704167 24.521703 -14.767119 28.863516 1.420873 2.107864 0.034724 -0.004377 -38905.100000 0 0 1
2.472067 25.310703 -15.303319 29.680539 1.473436 2.112505 0.043131 0.005897 602073.000000 0 0 1
1.580467 25.660203 -14.226719 29.382706 1.509282 2.076230 0.037307 -0.002211 360153.000000 0 0 1
1.320467 27.075403 -14.181319 30.592987 1.522065 2.052792 0.026122 0.001033 -739313.000000 0 0 1
0.408667 27.442203 -12.991519 30.364800 1.555906 2.012907 0.034134 -0.010411 316020.000000 0 0 1
-1.014433 27.439303 -13.112319 30.428232 -1.533843 2.016315 0.030512 -0.023043 651860.000000 0 0 1
-1.600933 26.157203 -13.348719 29.410042 -1.509668 2.041915 0.027812 -0.018304 -582788.000000 0 0 1
-1.401433 25.061703 -12.275219 27.941617 -1.514935 2.025634 0.057112 -0.023150 -462765.000000 0 0 1
-1.973733 25.330803 -11.019819 27.694433 -1.493035 1.980031 0.061137 -0.021222 -66845.400000 0 0 1
-1.913033 24.108103 -10.329119 26.297358 -1.491610 1.974451 0.065185 -0.020111 -116009.000000 0 0 1
-2.557433 24.063003 -8.937319 25.796206 -1.464913 1.924590 0.061053 -0.027753 -145361.000000 0 0 1
-1.945333 24.628803 -7.794319 25.905862 -1.491974 1.876402 0.053640 -0.029284 -460241.000000 0 0 1
-1.895833 26.039603 -7.854419 27.264391 -1.498119 1.863021 0.057660 -0.030941 -93038.400000 0 0 1
-1.848233 26.671003 -6.447919 27.501528 -1.501609 1.807456 0.067391 -0.026957 623695.000000 0 0 1
-0.716033 26.115503 -5.747619 26.750090 -1.543385 1.787348 0.057844 -0.026975 456170.000000 0 0 1
-0.851833 26.281403 -4.352019 26.652914 -1.538396 1.734816 0.066473 -0.029165 432288.000000 0 0 1
-1.896433 25.460303 -3.482719 25.767282 -1.496448 1.706372 0.068702 -0.031952 238683.000000 0 0 1
-3.238633 25.799303 -3.650219 26.256749 -1.445918 1.710268 0.059036 -0.025777 -771620.000000 0 0 1
-4.047933 25.187503 -2.707619 25.653991 -1.411447 1.676537 0.063821 -0.020021 397312.000000 0 0 1
-5.322333 24.466603 -3.265219 25.250813 -1.356599 1.700471 0.063555 -0.022472 438234.000000 0 0 1
-6.412233 25.270603 -3.594219 26.318027 -1.322298 1.707793 0.072707 -0.023787 -597579.000000 0 0 1
-7.467533 24.688603 -4.292419 26.147964 -1.277076 1.735702 0.068959 -0.019995 33916.300000 0 0 1
-8.738333 25.550103 -4.397319 27.358776 -1.241259 1.732224 0.049860 -0.022515 -103118.000000 0 0 1
-9.397733 25.589103 -3.140319 27.440503 -1.218833 1.685489 0.054955 -0.014755 848548.000000 0 0 1
-10.717233 26.185503 -3.222519 28.476732 -1.182315 1.684202 0.054827 -0.013714 1461670.000000 0 0 1
-11.550633 26.178803 -1.869919 28.674788 -1.155267 1.636054 0.056630 -0.013859 168855.000000 0 0 1
-11.978233 24.856503 -1.426319 27.628938 -1.121737 1.622443 0.049290 -0.010286 -322256.000000 0 0 1
-10.982833 23.986503 -1.014119 26.400822 -1.141412 1.609218 0.051623 -0.011874 -523028.000000 0 0 1
-11.520833 22.650503 -0.407419 25.415367 -1.100265 1.586827 0.053678 -0.012157 -21272.900000 0 0 1
-12.197133 22.806203 0.842181 25.876673 -1.079685 1.538245 0.060878 -0.013178 -477240.000000 0 0 1
-12.960833 21.680603 1.023981 25.280037 -1.031990 1.530280 0.072074 -0.015058 -607041.000000 0 0 1
-13.930233 21.968803 2.205281 26.106378 -1.005686 1.486223 0.077830 -0.019136 -38739.900000 0 0 1
-13.308133 22.088403 3.486781 26.022329 -1.028545 1.436400 0.069626 -0.023774 201453.000000 0 0 1
-12.761933 23.392403 3.777481 26.913581 -1.071369 1.429975 0.066245 -0.018570 129804.000000 0 0 1
-12.459433 23.431603 5.290981 27.060524 -1.082083 1.374005 0.055187 -0.015268 -291579.000000 0 0 1
-11.386133 22.681603 5.807081 26.035002 -1.105551 1.345855 0.049836 -0.014299 -76935.300000 0 0 1
-11.501633 22.507603 7.186781 26.277930 -1.098379 1.293776 0.042577 -0.012342 -860173.000000 0 0 1
-10.361033 21.859103 7.951081 25.463525 -1.128171 1.253232 0.036465 -0.017468 72793.700000 0 0 1
-9.243033 22.804803 8.022881 25.881641 -1.185720 1.255621 0.039204 -0.018198 1362270.000000 0 0 1
-8.108333 22.353403 8.771981 25.344967 -1.222823 1.217382 0.041322 -0.018686 275828.000000 0 0 1
-8.263333 22.216603 10.294081 25.842373 -1.214708 1.161089 0.043617 -0.027084 -352524.000000 0 0 1
-9.130633 21.183803 10.747381 25.448540 -1.163838 1.134795 0.044169 -0.019274 237029.000000 0 0 1
-8.828833 20.862203 12.094681 25.679975 -1.170453 1.080398 0.041979 -0.009138 74427.100000 0 0 1
-9.724733 19.706303 12.627881 25.345063 -1.112376 1.049231 0.043806 -0.008181 -295124.000000 0 0 1
-9.642133 18.499603 11.861181 23.997785 -1.090327 1.053811 0.042628 -0.021309 -43320.100000 0 1 0
-10.431333 17.531003 12.490881 23.920094 -1.034045 1.021377 0.040197 -0.017970 -256265.000000 0 1 0
-10.640933 16.322603 11.501281 22.626009 -0.993077 1.037562 0.035101 -0.028770 -186267.000000 0 1 0
-11.085633 15.110003 12.130481 22.323800 -0.937834 0.996329 0.030217 -0.024877 50528.800000 0 1 0
-11.263033 14.132003 11.141381 21.229692 -0.897895 1.018314 0.026516 -0.019533 -7912.040000 0 1 0
-11.683533 12.791203 11.831381 20.978594 -0.830625 0.971606 0.019916 -0.023780 243390.000000 0 1 0
-12.774133 12.886103 12.735981 22.168341 -0.789762 0.958788 0.025295 -0.016481 17705.000000 0 1 0
-13.382733 11.652603 12.893781 21.934683 -0.716400 0.942427 0.026875 -0.015573 -370029.000000 0 1 0
-14.265033 11.667703 14.134381 23.225142 -0.685575 0.916525 0.031332 -0.011885 396698.000000 0 1 0
-15.542533 12.291903 14.112781 24.327594 -0.669140 0.951928 0.045011 -0.009255 586980.000000 0 1 0
-16.207933 12.427203 15.383281 25.569079 -0.654126 0.925249 0.032943 -0.006602 87208.300000 0 0 1
-17.382333 13.399103 15.404381 26.813736 -0.656710 0.958808 0.035679 -0.006071 -945937.000000 0 0 1
-18.524533 12.950603 14.773281 27.002339 -0.610125 0.991887 0.046302 -0.006027 -816399.000000 0 0 1
-19.414933 14.029103 14.615981 28.060333 -0.625729 1.022918 0.059654 -0.010806 -130192.000000 0 0 1
-20.663833 13.713003 13.770781 28.366792 -0.585893 1.063914 0.057490 -0.007784 531602.000000 0 0 1
-21.561133 12.774503 14.417281 28.912426 -0.534870 1.048752 0.056123 0.003032 620656.000000 0 0 1
-22.748533 12.587803 13.655881 29.367187 -0.505408 1.087156 0.058507 0.002189 52229.100000 0 0 1
-23.683733 11.624603 14.381481 30.047922 -0.456282 1.071716 0.057695 -0.000391 -255649.000000 0 0 1
-24.072433 12.145703 15.699581 31.200593 -0.467280 1.043519 0.062631 0.000172 177672.000000 0 0 1
-25.088063 11.370703 16.292781 32.002477 -0.425538 1.036646 0.052924 -0.002017 -398492.000000 0 0 1
-25.772913 12.091203 17.425681 33.378056 -0.438659 1.021520 0.053734 -0.004560 -409541.000000 0 0 1
-26.810943 12.903403 16.942781 34.240069 -0.448555 1.053165 0.054777 0.003927 40607.900000 0 0 1
-27.509783 13.584703 17.969281 35.555976 -0.458686 1.040974 0.048506 0.006776 431949.000000 0 0 1
-28.614233 14.545903 17.431781 36.527040 -0.470301 1.073297 0.045706 0.005069 564309.000000 0 0 1
-28.114693 15.857603 17.033181 36.496970 -0.513553 1.085239 0.057855 0.000476 559256.000000 0 0 1
-29.203423 16.721003 16.744881 37.587537 -0.520006 1.109075 0.053037 -0.000874 388897.000000 0 0 1
-28.646973 18.164003 16.719281 37.816854 -0.565090 1.112845 0.070149 -0.007791 -34292.600000 0 0 1
-28.296363 18.654603 18.023681 38.386605 -0.582856 1.082037 0.066510 -0.006880 -377572.000000 0 0 1
-29.279393 18.839503 19.009781 39.668395 -0.571749 1.071034 0.057517 -0.004788 -960795.000000 0 0 1
-28.686663 19.035503 20.405781 40.020881 -0.585853 1.035753 0.063555 -0.015562 374562.000000 0 0 1
-28.096323 17.913403 21.101881 39.440877 -0.567588 1.006258 0.062385 -0.010266 545801.000000 0 0 1
-26.933183 17.367003 20.469281 38.026315 -0.572724 1.002387 0.077316 -0.002908 -42531.700000 0 0 1
-26.359803 16.151003 21.169581 37.467924 -0.549715 0.970356 0.078252 -0.002948 234147.000000 0 0 1
-27.284833 15.042303 21.097781 37.627774 -0.503846 0.975569 0.044413 0.002572 303495.000000 0 0 1
-26.940613 13.819403 21.709581 37.256925 -0.473960 0.948750 0.047664 0.007648 -866853.000000 0 0 1
-28.105583 12.914803 22.065781 37.994929 -0.430734 0.951139 0.053736 -0.001106 -667483.000000 0 0 1
-28.784063 12.507703 20.923681 37.719562 -0.409920 0.982774 0.056100 -0.000519 95013.500000 0 0 1
-29.771613 11.506503 21.192381 38.312734 -0.368808 0.984665 0.067687 -0.000369 433548.000000 0 0 1
-30.722793 11.202903 19.963681 38.313753 -0.349661 1.022706 0.060632 0.004733 10597.100000 0 0 1
-30.157433 10.731603 18.769881 37.107230 -0.341879 1.040455 0.072862 -0.006107 142279.000000 0 0 1
-29.460873 9.472103 18.952381 36.288518 -0.311076 1.021286 0.082404 -0.006847 381400.000000 0 0 1
-28.725033 9.040003 17.601381 34.880622 -0.304895 1.041857 0.081766 -0.018004 355274.000000 0 0 1
-29.550263 8.664903 16.470881 34.922608 -0.285231 1.079647 0.079618 -0.003456 496894.000000 0 0 1
-30.302653 9.685603 15.812781 35.526128 -0.309366 1.109507 0.075211 -0.000659 -184615.000000 0 0 1
-29.588973 10.933503 15.225781 35.026750 -0.353951 1.121102 0.071268 -0.007701 -27207.200000 0 0 1
-28.878983 10.620303 14.026381 33.816060 -0.352401 1.143090 0.068802 -0.011172 -230927.000000 0 0 1
-27.894673 11.533803 13.741081 33.165626 -0.392070 1.143604 0.061096 -0.005015 -467482.000000 0 0 1
-27.351563 11.572303 12.259981 32.129945 -0.400256 1.179297 0.074772 -0.007845 -120111.000000 0 0 1
-26.660543 10.448003 11.742381 30.948810 -0.373496 1.181635 0.076372 -0.007219 396779.000000 0 0 1
-27.415773 9.259703 11.541281 31.153939 -0.325721 1.191292 0.077520 -0.006659 -264357.000000 0 0 1
-26.704963 8.192903 10.670081 29.901996 -0.297677 1.205919 0.087200 -0.014372 -231396.000000 0 0 1
-26.560643 8.584303 9.294081 29.420027 -0.312600 1.249381 0.092816 -0.011619 420335.000000 0 0 1
-26.090653 7.507803 8.462781 28.437791 -0.280188 1.268630 0.111598 -0.018213 -19886.000000 0 0 1
-25.503783 7.987803 7.103281 27.653292 -0.303523 1.311015 0.104120 -0.004372 191553.000000 0 0 1
-26.466773 8.564803 6.234481 28.508151 -0.312970 1.350323 0.097404 -0.004392 578127.000000 0 0 1
-25.777463 8.915203 5.057481 27.740522 -0.332975 1.387457 0.099758 -0.001879 -68902.800000 0 0 1
-26.768793 9.150603 3.920281 28.559945 -0.329386 1.433097 0.090188 -0.006892 610648.000000 0 0 1
-27.641173 8.096703 3.399381 29.002532 -0.284950 1.453316 0.108931 -0.018053 1106750.000000 0 0 1
-26.920493 6.908703 3.059781 27.960783 -0.251212 1.461146 0.119825 -0.018324 -63556.100000 0 0 1
-25.916773 6.922503 1.873881 26.890735 -0.261012 1.501055 0.138926 -0.012427 944134.000000 0 0 1
-24.647433 7.512003 2.285581 25.867935 -0.295835 1.482325 0.120369 -0.011338 758976.000000 0 0 1
-23.737833 7.349203 1.244281 24.880590 -0.300240 1.520765 0.128727 -0.009168 -1305360.000000 0 1 0
-22.540933 8.218303 1.554081 24.042657 -0.349617 1.506113 0.121850 -0.008712 -953395.000000 0 1 0
-22.762633 9.645003 1.556481 24.770672 -0.400787 1.507919 0.105279 -0.013871 -889370.000000 0 1 0
-21.619433 10.312403 1.810981 24.021349 -0.445076 1.495334 0.110104 -0.011013 -1667130.000000 0 1 0
-21.790033 11.723503 2.400081 24.859736 -0.493600 1.474101 0.089799 -0.016970 -836566.000000 0 1 0
-20.674933 12.521403 2.603681 24.310853 -0.544550 1.463491 0.090021 -0.019309 -344904.000000 0 1 0
-21.069433 13.769403 3.174181 25.369133 -0.578849 1.445348 0.084250 -0.027325 -208629.000000 0 0 1
-19.930033 14.563303 3.827981 24.978980 -0.631048 1.416942 0.063758 -0.018706 -333382.000000 0 1 0
-19.339133 13.838503 4.831681 24.266260 -0.621099 1.370346 0.053120 -0.018854 -199511.000000 0 1 0
-18.380233 14.540203 5.576981 24.090521 -0.669277 1.337176 0.051981 -0.023801 -458951.000000 0 1 0
-17.909933 13.797803 6.867181 23.628442 -0.656429 1.275909 0.032681 -0.010804 435579.000000 0 1 0
-16.944033 12.772903 6.501881 22.192832 -0.645947 1.273462 0.046692 -0.013570 601293.000000 0 1 0
-16.630733 11.973403 7.579681 21.849376 -0.623994 1.216526 0.033686 -0.011504 -269545.000000 0 1 0
11.048267 -32.359143 -14.542219 37.157159 -1.241780 1.972917 0.047506 -0.013531 -1001850.000000 0 0 1
12.048767 -32.361043 -13.609419 37.116387 -1.214375 1.946222 0.027807 -0.013261 -635858.000000 0 0 1
12.762767 -31.148543 -13.669319 36.331395 -1.181923 1.956531 0.038270 -0.018448 26818.800000 0 0 1
14.186067 -31.149743 -13.057219 36.633891 -1.143448 1.935235 0.051958 -0.015121 -245898.000000 0 0 1
14.982367 -32.082943 -13.700619 37.967006 -1.133905 1.939982 0.039447 -0.008874 -55308.000000 0 0 1
16.353367 -31.906343 -13.339619 38.254317 -1.097165 1.926989 0.033814 -0.005469 354688.000000 0 0 1
17.294067 -32.788843 -14.123119 39.669327 -1.085440 1.934803 0.029236 -0.009729 -301483.000000 0 0 1
17.353367 -34.052143 -13.518419 40.539307 -1.099489 1.910772 0.027723 -0.007362 40521.600000 0 0 1
18.257567 33.656303 -14.164619 40.825505 1.073752 1.925119 0.025643 0.004730 340837.000000 0 0 1
18.202767 32.210803 -13.618319 39.425057 1.056424 1.923486 0.024822 -0.003366 -375627.000000 0 0 1
18.841367 32.073503 -12.383219 39.205239 1.039661 1.892155 0.029402 -0.018593 -114915.000000 0 0 1
18.419667 30.931103 -11.671719 37.845030 1.033688 1.884316 0.025731 -0.010366 718895.000000 0 0 1
19.344067 30.796803 -10.377919 37.819799 1.009957 1.848767 0.025796 -0.014444 1512760.000000 0 0 1
20.712167 30.459603 -10.649219 38.343019 0.973628 1.852232 0.022466 -0.015832 343747.000000 0 0 1
21.425767 30.345503 -9.465219 38.334102 0.956014 1.820290 0.019658 -0.011548 12182.000000 0 0 1
22.659167 29.422003 -9.619519 38.361794 0.914527 1.824259 0.024838 -0.002719 279790.000000 0 0 1
23.778867 29.960203 -10.288919 39.609470 0.899920 1.833569 0.028851 -0.011583 882756.000000 0 0 1
24.940667 29.105303 -10.191519 39.661349 0.862303 1.830675 0.031840 -0.002285 1133740.000000 0 0 1
26.217467 29.455803 -10.997519 40.938311 0.843500 1.842773 0.036179 -0.010854 301954.000000 0 0 1
26.792367 30.725103 -10.651119 42.134418 0.853667 1.826358 0.033385 -0.006733 -49505.500000 0 0 1
27.717267 31.058103 -11.645619 43.225838 0.842178 1.843580 0.040698 -0.006981 -91548.900000 0 0 1
28.327567 32.462903 -11.544719 44.604615 0.853320 1.832600 0.030712 -0.009534 -247806.000000 0 0 1
27.433467 33.423003 -11.998319 44.873733 0.883503 1.841469 0.040629 -0.005780 -183361.000000 0 0 1
27.924767 -33.868543 -11.672019 45.421436 -0.881291 1.830684 0.033902 -0.000843 -163438.000000 0 0 1
26.949767 -32.735343 -11.928919 44.047608 -0.882031 1.845040 0.027202 0.006070 -379808.000000 0 0 1
25.731667 -32.930543 -11.241219 43.277065 -0.907505 1.833560 0.042942 -0.001401 -360542.000000 0 0 1
24.794567 -31.869643 -11.338919 41.940622 -0.909615 1.844560 0.043655 -0.006174 -67599.700000 0 0 1
25.122567 -30.442043 -10.874219 40.940322 -0.880842 1.839634 0.031305 -0.005410 -429400.000000 0 0 1
26.025767 -29.730543 -11.709819 41.211231 -0.851747 1.858907 0.027831 -0.001197 -293987.000000 0 0 1
26.443167 -28.537243 -11.077919 40.451645 -0.823467 1.848196 0.026496 -0.007149 -115108.000000 0 0 1
27.367167 -27.704043 -11.990719 40.746204 -0.791515 1.869496 0.037291 0.003536 1036490.000000 0 0 1
28.633667 -28.258943 -12.400019 42.097686 -0.778812 1.869785 0.029969 0.002668 634524.000000 0 0 1
28.526867 -29.271843 -13.362919 43.002215 -0.798287 1.886778 0.034278 -0.000717 -554870.000000 0 0 1
29.838167 -29.895143 -13.870719 44.457087 -0.786352 1.888096 0.028209 -0.000976 519414.000000 0 0 1
30.706467 -30.529943 -12.903619 45.182606 -0.782516 1.860416 0.047372 -0.006259 757172.000000 0 0 1
31.731267 -31.293243 -13.528619 46.574284 -0.778448 1.865518 0.037736 -0.009850 191821.000000 0 0 1
32.500367 -32.240143 -12.559019 47.470303 -0.781379 1.838550 0.023736 -0.006515 231595.000000 0 0 1
33.262567 -33.184943 -13.302419 48.832296 -0.784230 1.846693 0.019417 -0.005468 210686.000000 0 0 1
34.098867 -34.030243 -12.515219 49.773697 -0.784391 1.824967 0.019162 -0.002619 324574.000000 0 0 1
33.331267 33.393003 -11.800119 48.634440 0.786323 1.815871 0.024306 -0.008324 678463.000000 0 0 1
32.597267 33.855403 -10.629019 48.184501 0.804329 1.793216 0.021759 -0.008089 287591.000000 0 0 1
31.859867 32.804103 -10.036119 46.817560 0.799999 1.786840 0.026640 -0.006885 -199114.000000 0 0 1
31.154367 33.121303 -8.707519 46.297259 0.815990 1.760002 0.016962 -0.002623 149493.000000 0 0 1
30.202367 34.150103 -8.915519 46.453191 0.846667 1.763919 0.016824 -0.002640 -272468.000000 0 0 1
29.533567 -34.155143 -7.694419 45.804033 -0.857836 1.739582 0.014683 -0.002636 823002.000000 0 0 1
28.576167 -32.895143 -7.891919 44.282842 -0.855543 1.749970 0.015287 -0.006757 654267.000000 0 0 1
29.313667 -31.650743 -7.911919 43.859538 -0.823714 1.752182 0.006064 -0.002308 230377.000000 0 0 1
28.563467 -30.477043 -8.197219 42.566609 -0.817798 1.764581 0.021647 -0.000312 468566.000000 0 0 1
27.359967 -30.074443 -7.258019 41.300348 -0.832625 1.747451 0.026514 -0.012388 1179950.000000 0 0 1
26.584567 -28.997043 -7.813619 40.107610 -0.828775 1.766867 0.024225 -0.019672 123340.000000 0 0 1
25.534967 -28.510143 -7.003019 38.908933 -0.840393 1.751767 0.038922 -0.027673 162091.000000 0 0 1
24.542867 -27.592743 -7.747819 37.732486 -0.843830 1.777603 0.072023 -0.030584 16089.700000 0 0 1
23.585867 -28.294743 -8.527919 37.810197 -0.875914 1.798299 0.074612 -0.030139 372892.000000 0 0 1
22.754267 -27.467043 -9.316619 36.864543 -0.878964 1.826293 0.072780 -0.027060 213830.000000 0 0 1
21.446967 -28.126643 -9.810619 36.705976 -0.919334 1.841361 0.066936 -0.020322 39370.500000 0 0 1
21.675667 -28.982443 -10.924719 37.804312 -0.928647 1.863958 0.063903 -0.015344 -551315.000000 0 0 1
20.623767 -29.833543 -11.238419 37.969489 -0.965937 1.871283 0.059937 -0.014467 -378985.000000 0 0 1
20.478767 -31.153243 -10.376219 38.698454 -0.989267 1.842248 0.051446 -0.013762 425238.000000 0 0 1
21.428367 -32.165343 -10.726019 40.110244 -0.983121 1.841504 0.042401 -0.004067 363329.000000 0 0 1
20.926467 -33.429543 -10.353719 40.775616 -1.011487 1.827527 0.030922 -0.004000 524241.000000 0 0 1
22.033467 34.087903 -10.536119 41.934098 0.996976 1.824772 0.036617 -0.004731 977806.000000 0 0 1
23.041367 34.177203 -9.510519 42.301723 0.977615 1.797561 0.044092 0.004009 113425.000000 0 0 1
24.048867 33.205803 -9.694119 42.130147 0.943989 1.802976 0.030790 0.007903 -534198.000000 0 0 1
25.346167 33.583103 -8.987519 43.023580 0.924275 1.781244 0.030756 0.002429 -599701.000000 0 0 1
25.493267 33.248803 -7.600019 42.581097 0.916666 1.750241 0.028291 -0.007197 -49486.900000 0 0 1
25.719867 31.871703 -7.280619 41.597168 0.891813 1.746729 0.028790 -0.012699 -118567.000000 0 0 1
25.660067 31.632903 -5.789919 41.141253 0.889274 1.711998 0.032088 -0.007979 -620535.000000 0 0 1
26.621367 32.343203 -5.035819 42.191698 0.882134 1.690437 0.026726 -0.002956 -54243.700000 0 0 1
27.521667 31.499003 -4.294219 42.048420 0.852685 1.673100 0.031121 -0.001378 135934.000000 0 0 1
27.010767 30.305403 -3.399019 40.737603 0.842817 1.654330 0.036357 0.004943 -639528.000000 0 0 1
26.458267 30.767903 -2.149019 40.636462 0.860565 1.623705 0.039666 0.001119 -104154.000000 0 0 1
26.154867 29.710103 -1.287219 39.603336 0.848952 1.603305 0.037428 0.004453 -17015.700000 0 0 1
24.875267 28.911803 -1.622719 38.174657 0.860304 1.613317 0.029316 0.005707 -85888.200000 0 0 1
23.722667 29.660703 -1.258819 38.001406 0.896177 1.603928 0.027783 -0.003456 188131.000000 0 0 1
22.504067 28.921403 -1.377819 36.671228 0.909545 1.608377 0.047460 0.000703 223921.000000 0 0 1
21.333367 29.639603 -0.748119 36.526405 0.946932 1.591279 0.047483 -0.008831 -367944.000000 0 0 1
21.605767 29.840803 0.623381 36.846591 0.944121 1.553877 0.069589 -0.017621 243002.000000 0 0 1
20.468167 30.411803 1.252381 36.679587 0.978399 1.536646 0.062492 -0.016464 181235.000000 0 0 1
19.861867 29.523403 2.397681 35.663342 0.978594 1.503515 0.060034 -0.029196 -227209.000000 0 0 1
19.142667 28.448003 1.839681 34.338244 0.978491 1.517195 0.066973 -0.020497 188544.000000 0 0 1
18.840067 27.561203 2.917281 33.512364 0.971181 1.483635 0.085308 -0.024775 -27729.100000 0 0 1
18.349367 26.192603 2.389581 32.069640 0.959698 1.496215 0.068712 -0.006821 418109.000000 0 0 1
19.434367 25.424203 1.902281 32.057813 0.918140 1.511422 0.065662 -0.011618 946750.000000 0 0 1
20.260467 24.732103 2.894481 32.102047 0.884459 1.480509 0.072049 -0.005110 324178.000000 0 0 1
21.454767 23.992603 2.286281 32.267307 0.841181 1.499882 0.052645 0.005527 -351874.000000 0 0 1
20.999967 22.888903 1.494481 31.098777 0.828411 1.522722 0.061356 0.009153 971850.000000 0 0 1
22.077067 22.028503 1.088081 31.206341 0.784297 1.535922 0.035131 0.006170 442081.000000 0 0 1
21.615167 21.032303 0.019081 30.159137 0.771732 1.570164 0.057295 -0.003022 18770.600000 0 0 1
21.201767 21.672003 -1.225319 30.342907 0.796366 1.611190 0.037879 0.001605 549427.000000 0 0 1
21.584367 20.823203 -2.314419 30.080678 0.767451 1.647813 0.074095 -0.009687 73949.000000 0 0 1
21.367567 21.298003 -3.780119 30.405051 0.783768 1.695444 0.057658 -0.010275 -242001.000000 0 0 1
22.219567 22.378603 -4.114319 31.803123 0.788964 1.700528 0.049432 -0.003430 151266.000000 0 0 1
21.841567 23.114403 -5.232619 32.229024 0.813704 1.733876 0.053012 -0.010300 -1022210.000000 0 0 1
22.752167 24.258303 -5.559419 33.719927 0.817426 1.736423 0.042690 -0.000141 -647937.000000 0 0 1
22.793967 25.439803 -4.721419 34.482463 0.840198 1.708150 0.031447 0.005639 -69757.600000 0 0 1
23.265367 25.348403 -3.363019 34.570634 0.828221 1.668230 0.040795 0.006330 -479953.000000 0 0 1
22.282967 25.027103 -2.211919 33.582422 0.843336 1.636709 0.031431 0.007730 -884736.000000 0 0 1
21.270567 26.032903 -2.261519 33.693672 0.885736 1.637967 0.037491 -0.003243 887958.000000 0 0 1
20.187367 25.810103 -1.342219 32.794706 0.907035 1.611736 0.046849 0.001189 958987.000000 0 0 1
19.201867 24.602803 -1.666019 31.253563 0.908075 1.624128 0.054532 -0.007487 -278737.000000 0 0 1
18.541867 24.798603 -2.919019 31.101322 0.928770 1.664790 0.040690 -0.007042 107183.000000 0 0 1
17.870867 23.711103 -3.459819 29.892384 0.924937 1.686799 0.044192 -0.017305 -33971.600000 0 0 1
17.335967 24.064003 -4.864919 30.054607 0.946503 1.733381 0.039828 -0.016154 -196004.000000 0 0 1
16.577667 23.065303 -5.480919 28.928666 0.947612 1.761412 0.037466 -0.018830 -4777.080000 0 0 1
16.092867 23.512603 -6.742819 29.279489 0.970593 1.803174 0.032562 -0.015788 -23168.700000 0 0 1
15.287667 22.440003 -7.485519 28.165573 0.972753 1.839797 0.037091 -0.020959 -898833.000000 0 0 1
15.995467 21.258803 -7.660019 27.685150 0.925751 1.851137 0.039101 -0.020168 -165638.000000 0 0 1
15.290167 20.220603 -8.289619 26.671703 0.923360 1.886833 0.051522 -0.018947 -95427.600000 0 0 1
16.158167 18.922603 -8.480619 26.288251 0.864038 1.899273 0.051186 -0.016553 556362.000000 0 0 1
17.238967 19.101503 -9.394219 27.391618 0.836606 1.920862 0.048746 -0.022997 477323.000000 0 0 1
18.020667 17.937703 -9.561619 27.164870 0.783091 1.930487 0.047467 -0.018515 104522.000000 0 0 1
19.439667 18.166203 -10.127219 28.468792 0.751548 1.934492 0.043586 -0.022628 -80229.400000 0 0 1
19.439367 18.409603 -11.560919 29.162601 0.758198 1.978421 0.044640 -0.023076 -251757.000000 0 0 1
20.734667 18.807203 -11.899819 30.417807 0.736692 1.972745 0.052883 -0.012152 -359462.000000 0 0 1
20.866667 19.179303 -13.377319 31.340327 0.743287 2.011792 0.055648 -0.016995 -131497.000000 0 0 1
20.911467 18.081303 -14.262919 31.107134 0.712943 2.047114 0.047887 -0.005501 268656.000000 0 0 1
21.194767 18.560103 -15.581719 32.194495 0.719222 2.076002 0.051934 -0.007409 -8613.180000 0 0 1
21.089667 17.443203 -16.624819 32.022242 0.691047 2.116670 0.049599 -0.007553 -117286.000000 0 0 1
22.080067 16.431103 -16.524119 32.102289 0.639753 2.111493 0.063085 -0.011991 169984.000000 0 0 1
22.061667 15.645903 -17.657519 32.300145 0.616867 2.149178 0.070823 -0.017728 -57239.800000 0 0 1
22.893867 16.276703 -18.857919 33.833139 0.618046 2.162023 0.069580 -0.013225 137638.000000 0 0 1
24.277167 16.166603 -18.552619 34.567897 0.587484 2.137319 0.082551 -0.014574 231882.000000 0 0 1
25.077267 16.332603 -19.708719 35.833739 0.577282 2.153166 0.105046 -0.012848 251359.000000 0 0 1
26.569667 16.599503 -19.369819 36.833145 0.558422 2.124546 0.089387 -0.016010 281679.000000 0 0 1
26.716967 17.802603 -18.671019 37.139412 0.587777 2.097548 0.076820 -0.016959 -323156.000000 0 0 1
28.058867 18.132003 -18.423019 38.150716 0.573708 2.074761 0.067693 -0.026396 -71795.700000 0 0 1
28.147767 19.456503 -17.676819 38.513922 0.604814 2.047634 0.060759 -0.012380 88846.300000 0 0 1
27.748067 19.279003 -16.307619 37.517644 0.607219 2.020463 0.062760 -0.018192 757092.000000 0 0 1
26.595767 20.100303 -15.984119 36.970922 0.647184 2.017886 0.056781 -0.012363 764342.000000 0 0 1
25.664067 19.452203 -14.934419 35.497456 0.648573 2.005033 0.056654 -0.013408 -111451.000000 0 0 1
26.069567 19.555803 -13.605719 35.315256 0.643590 1.966291 0.052438 -0.016254 199984.000000 0 0 1
25.050167 19.077803 -12.747319 33.970098 0.650874 1.955464 0.060064 -0.023467 140375.000000 0 0 1
25.378667 19.505703 -11.361219 33.965077 0.655291 1.911868 0.057225 -0.020749 -22044.600000 0 0 1
25.196867 20.920903 -11.207319 34.614596 0.692944 1.900512 0.061018 -0.020194 105721.000000 0 0 1
25.689967 21.454803 -9.970219 34.924035 0.695805 1.860307 0.056889 -0.018922 -48197.100000 0 0 1
24.875067 21.099603 -8.727419 33.765812 0.703462 1.832233 0.055472 -0.018504 -992753.000000 0 0 1
25.085867 19.807803 -8.190519 32.995975 0.668367 1.821647 0.066029 -0.018288 313144.000000 0 0 1
24.274267 19.522403 -7.046519 31.937715 0.677323 1.793260 0.062276 -0.017127 1455740.000000 0 0 1
22.710667 19.346303 -7.268719 30.706483 0.705573 1.809781 0.054661 -0.024195 900694.000000 0 0 1
22.129667 20.585503 -7.630319 31.172213 0.749264 1.818089 0.054254 -0.021254 -898642.000000 0 0 1
20.764767 20.472803 -7.877119 30.205301 0.778318 1.834633 0.049207 -0.028048 -782725.000000 0 0 1
20.056667 21.842203 -7.877119 30.682254 0.827988 1.830436 0.042025 -0.025293 -635625.000000 0 0 1
20.339667 22.731303 -8.944019 31.786941 0.840869 1.856022 0.044303 -0.024782 -100361.000000 0 0 1
19.721467 22.471403 -10.199219 31.589939 0.850481 1.899549 0.045865 -0.013608 1214180.000000 0 0 1
18.151067 22.695103 -10.301219 30.832516 0.896190 1.911449 0.034921 -0.016039 1035680.000000 0 0 1
17.678567 23.985503 -9.941519 31.411302 0.935633 1.892829 0.042049 -0.019367 -91183.300000 0 0 1
16.516467 24.404503 -10.603919 31.317991 0.975825 1.916213 0.039049 -0.011100 52021.200000 0 0 1
16.027267 25.830603 -10.201419 32.064970 1.015457 1.894572 0.040469 -0.012688 167757.000000 0 0 1
17.017867 26.776503 -10.541719 33.432271 1.004645 1.891586 0.051911 -0.007154 131081.000000 0 0 1
16.829267 27.967403 -9.826119 34.087424 1.029094 1.863208 0.042014 -0.017488 4516.120000 0 0 1
19.987767 28.904403 34.002704 48.899480 0.965789 0.801877 0.042454 0.001719 690634.000000 0 0 1
18.602867 29.203503 33.901336 48.458351 1.003609 0.795962 0.054845 -0.011115 501595.000000 0 0 1
17.704767 28.094703 34.005572 47.530516 1.008480 0.773532 0.053510 -0.008124 302954.000000 0 0 1
16.229267 28.482703 33.835029 47.111173 1.052883 0.769591 0.065686 -0.018018 -124961.000000 0 0 1
15.831167 28.838803 32.514800 46.254887 1.068757 0.791262 0.073440 -0.020694 622838.000000 0 0 1
14.507167 29.395903 32.545293 46.192781 1.112354 0.789002 0.081780 -0.028140 233534.000000 0 0 1
13.749167 29.513003 31.251001 45.129613 1.134825 0.805886 0.083529 -0.032359 -438027.000000 0 0 1
13.347167 28.267403 30.746531 43.846802 1.129655 0.793680 0.078291 -0.028382 -472009.000000 0 0 1
11.983067 28.074803 30.966351 43.482218 1.167380 0.778224 0.075097 -0.016558 -1021890.000000 0 0 1
11.466267 26.635603 30.897011 42.374000 1.164288 0.753717 0.060133 -0.016684 -67538.500000 0 0 1
11.511067 26.025703 29.584351 41.049673 1.154367 0.765990 0.057275 -0.015318 178561.000000 0 0 1
12.827967 25.672103 29.226591 40.961045 1.107401 0.776285 0.044053 -0.019892 -206990.000000 0 0 1
12.899567 24.703303 28.055681 39.544572 1.089563 0.782051 0.063172 -0.014203 -251300.000000 0 0 1
12.869367 25.290303 26.798951 39.030805 1.100081 0.813980 0.050822 -0.020269 175579.000000 0 0 1
12.984267 24.410003 25.717691 37.760284 1.081937 0.821563 0.052703 -0.021274 -375369.000000 0 0 1
11.737367 23.580503 25.380741 36.578517 1.108945 0.803947 0.058275 -0.014700 -452219.000000 0 0 1
11.709167 22.929303 24.134921 35.289544 1.098654 0.817686 0.073284 -0.016177 -750762.000000 0 0 1
10.613567 22.123903 23.905491 34.257661 1.123493 0.798455 0.079053 -0.015462 -683609.000000 0 0 1
10.496267 21.867803 22.402251 33.018680 1.123287 0.825116 0.081769 -0.022907 -423341.000000 0 0 1
10.131967 22.989103 21.626851 33.149303 1.155679 0.860040 0.078391 -0.022988 -69806.400000 0 0 1
10.458967 22.795603 20.297451 32.264780 1.140636 0.890414 0.075320 -0.006814 -717671.000000 0 0 1
10.261567 24.084203 19.440751 32.608149 1.168019 0.932046 0.063392 -0.009690 523051.000000 0 0 1
8.943167 24.562603 19.195851 32.431194 1.221619 0.937389 0.052479 -0.009587 127402.000000 0 0 1
8.143967 24.928803 20.303351 33.166179 1.255038 0.911994 0.051650 -0.012560 -300254.000000 0 0 1
6.821067 25.528503 19.750251 32.989450 1.309702 0.928939 0.037257 -0.013936 169854.000000 0 0 1
6.959067 26.648003 18.900051 33.402943 1.315353 0.969369 0.038833 -0.018288 28572.700000 0 0 1
5.653267 27.080803 18.558151 33.312674 1.364996 0.979919 0.028012 -0.019839 58702.400000 0 0 1
5.587267 28.188403 17.559051 33.676756 1.375121 1.022306 0.032446 -0.016694 -58287.700000 0 0 1
5.906367 27.718403 16.251751 32.669778 1.360852 1.050134 0.034500 -0.013751 -91474.500000 0 0 1
6.427367 28.759103 15.486051 33.289860 1.350920 1.086949 0.033006 -0.011247 -148721.000000 0 0 1
7.095167 28.224603 14.236551 32.398287 1.324517 1.115840 0.035748 -0.017977 432824.000000 0 0 1
6.167067 27.899603 13.176251 31.464808 1.353250 1.138715 0.029492 -0.019548 192697.000000 0 0 1
6.634167 26.837003 12.384951 30.292308 1.328453 1.149605 0.025701 -0.019454 -58840.800000 0 0 1
6.186467 27.000403 10.935451 29.780500 1.345559 1.194798 0.018012 -0.018150 -8677.080000 0 0 1
6.939367 27.848803 10.045951 30.407758 1.326590 1.234096 0.011097 -0.012400 -4295.450000 0 0 1
6.751567 29.257303 10.148351 31.694833 1.344001 1.244867 0.008345 -0.009950 -84908.800000 0 0 1
6.843167 30.059503 8.887251 32.084044 1.346957 1.290127 0.000100 -0.001948 1108890.000000 0 0 1
5.713267 29.763303 7.990551 31.342376 1.381146 1.313007 -0.007305 -0.000040 1095870.000000 0 0 1
5.904467 28.614403 7.130451 30.074742 1.367306 1.331426 -0.011545 0.008602 -458805.000000 0 0 1
4.529967 28.158103 6.671651 29.290106 1.411287 1.341001 -0.012454 0.010010 -319008.000000 0 0 1
3.887767 29.156403 5.922351 30.004746 1.438236 1.372111 -0.010161 0.010715 -495274.000000 0 0 1
2.532467 28.936303 5.640351 29.589467 1.483500 1.379002 0.002336 0.002292 -167917.000000 0 0 1
1.857367 30.080603 4.936451 30.539500 1.509128 1.408443 0.002473 0.000744 -757538.000000 0 0 1
2.377367 30.248403 3.630251 30.558084 1.492363 1.451717 -0.007715 0.002540 313248.000000 0 0 1
1.524967 30.954803 2.725351 31.111941 1.521572 1.483086 -0.009908 -0.015728 -352745.000000 0 0 1
0.279867 30.371003 2.103551 30.445050 1.561582 1.501648 0.029318 -0.008723 -661627.000000 0 0 1
0.474067 29.420803 1.064351 29.443866 1.554684 1.534640 0.043092 -0.004436 -511062.000000 0 0 1
-0.508933 28.430203 1.104951 28.456219 -1.552897 1.531957 0.058946 -0.003718 -224537.000000 0 0 1
-0.867033 28.077403 -0.307049 28.092465 -1.539926 1.581727 0.058397 -0.016102 -272378.000000 0 0 1
-1.678933 29.020703 -0.936549 29.084311 -1.513008 1.603003 0.058949 -0.023072 -287314.000000 0 0 1
-1.068333 29.577103 -2.052449 29.667472 -1.534692 1.640033 0.051818 -0.020030 -384753.000000 0 0 1
-2.047233 30.438403 -2.858849 30.640832 -1.503639 1.664234 0.053570 -0.021723 -87356.400000 0 0 1
-3.285133 29.917503 -3.253949 30.272715 -1.461428 1.678492 0.056132 -0.025828 -223429.000000 0 0 1
-3.264533 29.067603 -4.360549 29.573588 -1.458957 1.718783 0.054408 -0.026696 764282.000000 0 0 1
-4.721933 28.674703 -4.882449 29.468179 -1.407589 1.737249 0.051194 -0.024423 1239690.000000 0 0 1
-5.322533 29.776903 -5.521649 30.748690 -1.393917 1.751349 0.039499 -0.022435 9137.150000 0 0 1
-6.551833 29.422703 -6.140649 30.762470 -1.351692 1.771761 0.040580 -0.026812 163947.000000 0 0 1
-7.115333 30.588903 -6.947549 32.164847 -1.342249 1.788510 0.039667 -0.022136 31412.900000 0 0 1
-7.864733 31.543303 -6.170449 33.089401 -1.326447 1.758372 0.030332 -0.020819 165732.000000 0 0 1
-8.057133 32.744703 -6.850749 34.410256 -1.329530 1.771226 0.028222 -0.021342 -287432.000000 0 0 1
-9.075633 33.711003 -6.197949 35.457206 -1.307813 1.746500 0.025916 -0.021021 -725563.000000 0 0 1
-10.359733 33.205103 -6.269349 35.344132 -1.268374 1.749120 0.041646 -0.026362 -1254890.000000 0 0 1
-11.269433 34.191503 -5.813749 36.467228 -1.252412 1.730903 0.037539 -0.026634 -19230.900000 0 0 1
-12.737433 33.735203 -5.823649 36.526990 -1.209774 1.730914 0.068014 -0.028720 -14047.800000 0 0 1
-13.223033 33.741703 -7.158449 36.940419 -1.197301 1.765814 0.066343 -0.024753 -577975.000000 0 0 1
-14.600333 33.511303 -7.240549 37.263960 -1.159911 1.766345 0.073844 -0.029400 -782279.000000 0 0 1
-15.034933 33.477503 -8.746749 37.726623 -1.148686 1.804771 0.098465 -0.034141 -560131.000000 0 0 1
-16.382233 33.233403 -8.989049 38.126627 -1.112809 1.808805 0.125511 -0.039756 -492453.000000 0 0 1
-17.189833 -34.203243 -8.855149 39.290786 1.105088 1.798124 0.120562 -0.042327 54470.200000 0 0 1
-18.701333 34.110303 -9.235749 39.981892 -1.069290 1.803900 0.109998 -0.044478 1096290.000000 0 0 1
-19.480433 33.360603 -8.327649 39.519196 -1.042273 1.783112 0.104599 -0.046062 61835.500000 0 0 1
-19.691933 34.064303 -7.121449 39.985798 -1.046650 1.749851 0.112759 -0.037691 -874170.000000 0 0 1
-20.447433 33.172903 -6.137049 39.448731 -1.018413 1.727001 0.104518 -0.029882 -648986.000000 0 0 1
-20.194833 33.586503 -4.805049 39.483832 -1.029437 1.692795 0.103944 -0.033794 -533666.000000 0 0 1
-21.277233 33.633603 -3.929149 39.992226 -1.006737 1.669203 0.083296 -0.021008 -677874.000000 0 0 1
-22.184533 -33.745943 -4.056849 40.588179 0.989238 1.670915 0.102940 -0.033999 -420209.000000 0 0 1
-22.971633 -33.892243 -5.212149 41.274043 0.975136 1.697416 0.106202 -0.034472 -448210.000000 0 0 1
-23.938633 -32.861343 -5.267649 40.996026 0.941215 1.699644 0.104555 -0.039773 43317.800000 0 0 1
-24.645833 -33.107043 -6.661849 41.807579 0.930870 1.730824 0.126306 -0.032013 -142839.000000 0 0 1
-23.808033 -32.753143 -7.728749 41.222863 0.942248 1.759399 0.146221 -0.032323 -24587.500000 0 0 1
-24.175433 -33.321743 -8.956649 42.130888 0.943150 1.785022 0.099698 -0.027956 -212127.000000 0 0 1
-25.295343 -32.631143 -9.765949 42.426639 0.911367 1.803063 0.070398 -0.018861 446861.000000 0 0 1
-26.602823 -32.811443 -9.212049 43.233816 0.889517 1.785518 0.076940 -0.009102 1254280.000000 0 0 1
-27.676053 -32.049343 -9.837649 43.473022 0.858491 1.799067 0.008584 -0.002734 703143.000000 0 0 1
-27.728843 -30.502143 -9.622949 42.330493 0.832988 1.800130 -0.007023 0.005969 -538169.000000 0 0 1
-26.786593 -29.669543 -10.266949 41.270009 0.836419 1.822212 0.001137 0.008127 -48061.900000 0 0 1
-26.993473 -29.639243 -11.688549 41.758287 0.832082 1.854496 0.007560 0.002031 -336468.000000 0 0 1
-26.041823 -28.720243 -12.456449 40.720905 0.834269 1.881678 0.036561 -0.002186 -712048.000000 0 0 1
-24.774433 -29.294543 -12.557049 40.368581 0.868803 1.887104 0.048906 -0.015847 -1271020.000000 0 0 1
-23.896333 -28.527443 -13.284449 39.513623 0.873509 1.913675 0.051707 -0.022309 45781.600000 0 0 1
-22.476433 -29.195643 -13.302649 39.173156 0.914708 1.917273 0.078893 -0.027340 337866.000000 0 0 1
-22.421033 -30.375143 -14.100349 40.301016 0.934931 1.928235 0.081848 -0.032080 47127.100000 0 0 1
-23.056233 -31.485243 -13.491949 41.290957 0.938728 1.903662 0.072860 -0.031188 -275493.000000 0 0 1
-23.119333 -32.749843 -14.378749 42.588781 0.956097 1.915182 0.067897 -0.023659 45097.800000 0 0 1
-23.792533 -33.798743 -13.722449 43.551640 0.957426 1.891342 0.054227 -0.029931 -25711.700000 0 0 1
-23.886333 33.632003 -14.503649 43.726701 -0.953240 1.908889 0.055737 -0.028412 -163713.000000 0 0 1
-24.266233 32.420803 -13.585749 42.714531 -0.928270 1.894478 0.042483 -0.028670 536120.000000 0 0 1
-23.298833 31.956803 -12.599949 41.507007 -0.940824 1.879225 0.040175 -0.028289 685942.000000 0 0 1
-23.051433 32.803703 -11.502649 41.710460 -0.958255 1.850191 0.078563 -0.029066 114386.000000 0 0 1
-22.255333 32.088303 -10.389949 40.409282 -0.964402 1.830835 0.083883 -0.031169 59182.200000 0 0 1
-23.101933 31.255103 -9.629749 40.041389 -0.934281 1.813672 0.078977 -0.031555 119565.000000 0 0 1
-22.460733 30.633203 -8.539349 38.933253 -0.938124 1.791927 0.080757 -0.028811 -220093.000000 0 0 1
-23.389433 29.689603 -7.757949 38.583985 -0.903540 1.773243 0.073130 -0.030664 -57149.300000 0 0 1
-23.677633 28.535303 -8.484049 38.037783 -0.878167 1.795731 0.070644 -0.014307 -233445.000000 0 0 1
-24.129433 27.375503 -7.775949 37.311032 -0.848339 1.780744 0.066645 -0.009779 -255160.000000 0 0 1
-23.230633 26.545803 -6.828149 35.930010 -0.851901 1.762000 0.067894 -0.007596 -295760.000000 0 0 1
-23.166433 27.242403 -5.635249 36.202047 -0.866081 1.727093 0.067636 -0.000952 49931.100000 0 0 1
-22.215933 26.608503 -4.801549 34.994500 -0.875123 1.708439 0.057150 0.005395 1538570.000000 0 0 1
-20.806733 27.387703 -4.761049 34.722817 -0.921109 1.708346 0.057301 -0.005529 1588730.000000 0 0 1
-20.024033 27.319803 -5.970349 34.394456 -0.938297 1.745265 0.067402 -0.017751 299174.000000 0 0 1
-18.816833 28.046703 -5.799049 34.268349 -0.979861 1.740839 0.073410 -0.018938 730648.000000 0 0 1
-17.807333 27.798303 -7.000949 33.747001 -1.001064 1.779768 0.068927 -0.020997 222188.000000 0 0 1
-18.085433 28.396303 -8.234049 34.658801 -1.003690 1.810664 0.072139 -0.025186 -65144.500000 0 0 1
-18.037733 29.813803 -8.223549 35.802925 -1.026699 1.802555 0.085343 -0.028212 -198064.000000 0 0 1
-18.037833 30.566203 -9.546749 36.753185 -1.037671 1.833563 0.093338 -0.032251 -707121.000000 0 0 1
-16.841333 30.457703 -10.244649 36.280229 -1.065697 1.857066 0.082579 -0.029923 -627094.000000 0 0 1
-16.855033 31.238703 -11.419049 37.287309 -1.076007 1.882042 0.088991 -0.026729 -1082510.000000 0 0 1
-15.493133 31.574403 -11.963249 37.149690 -1.114627 1.898667 0.081398 -0.027245 -894018.000000 0 0 1
-15.459233 32.345503 -13.152249 38.186400 -1.124951 1.922420 0.081938 -0.023030 -325234.000000 0 0 1
-15.676433 31.651503 -14.330849 38.117469 -1.110930 1.956235 0.085652 -0.023683 -107866.000000 0 0 1
-14.947433 32.186603 -15.582149 38.758310 -1.136033 1.984533 0.100729 -0.029861 127704.000000 0 0 1
-13.574333 31.881703 -15.668749 38.029137 -1.168272 1.995466 0.082365 -0.034806 -258810.000000 0 0 1
-13.038133 32.360803 -16.882849 38.758807 -1.187793 2.021487 0.070920 -0.040364 -106586.000000 0 0 1
-11.506233 32.272303 -17.000949 38.248232 -1.228311 2.031401 0.094163 -0.046235 -227189.000000 0 0 1
-11.061833 30.953103 -17.160649 37.080273 -1.227567 2.051944 0.086179 -0.053401 -487989.000000 0 0 1
-9.722833 30.803703 -17.540749 36.757033 -1.265055 2.068271 0.077003 -0.051622 -384334.000000 0 0 1
-9.404933 31.006303 -19.087249 37.605408 -1.276293 2.103155 0.073831 -0.054456 -327163.000000 0 0 1
-9.961833 29.893503 -19.797749 37.213042 -1.249126 2.131770 0.075126 -0.057615 271828.000000 0 0 1
-9.781733 30.110003 -21.186149 38.093930 -1.256685 2.160549 0.059762 -0.053677 197520.000000 0 0 1
-10.963833 29.473903 -22.054449 38.409834 -1.214672 2.182408 0.061551 -0.045526 1166460.000000 0 0 1
-12.035233 30.342503 -22.329449 39.548940 -1.193185 2.170748 0.074772 -0.042528 398663.000000 0 0 1
-12.976433 30.682003 -21.314449 39.548437 -1.170678 2.139981 0.090634 -0.038627 45118.200000 0 0 1
-13.879733 31.889303 -21.675449 40.980480 -1.160278 2.128125 0.120900 -0.039272 -1425.210000 0 0 1
-14.473333 31.742703 -22.939149 41.752619 -1.142999 2.152450 0.106340 -0.032593 -111722.000000 0 0 1
-15.134233 32.915503 -23.288249 43.067597 -1.139831 2.142109 0.111628 -0.030991 181266.000000 0 0 1
-15.783733 33.014803 -24.710049 44.155294 -1.124838 2.164720 0.106578 -0.021284 603745.000000 0 0 1
-14.753433 33.072603 -25.709549 44.412181 -1.151197 2.188157 0.105242 -0.018468 336391.000000 0 0 1
-15.132533 33.382003 -27.022649 45.536527 -1.145190 2.206107 0.107925 -0.006509 -41332.400000 0 0 1
-15.755133 -33.820343 -27.343149 46.256758 1.134842 2.203239 0.092608 0.001275 239033.000000 0 0 1
-17.080933 -33.684443 -26.883249 46.358485 1.101495 2.189401 0.086099 0.008276 -472940.000000 0 0 1
-17.657133 -32.611143 -27.555649 46.201459 1.074545 2.209835 0.070764 0.011642 676560.000000 0 0 1
-19.108533 -32.358243 -27.009349 46.278471 1.037369 2.193984 0.063253 0.001102 1141580.000000 0 0 1
-20.127833 -33.286943 -27.344049 47.548368 1.026945 2.183497 0.054989 0.002900 -307257.000000 0 0 1
-21.421933 -32.783843 -27.138749 47.646525 0.992014 2.176797 0.042963 0.007711 840285.000000 0 0 1
-22.553333 -33.879343 -27.311449 49.014059 0.983466 2.161826 0.024374 0.011734 397346.000000 0 0 1
-22.600733 33.782503 -26.247649 48.383776 -0.981175 2.144193 0.051236 0.004544 175613.000000 0 0 1
-23.700633 32.845603 -26.227549 48.253891 -0.945735 2.145436 0.030119 0.002161 311002.000000 0 0 1
-23.645833 31.625503 -27.189749 47.943512 -0.928780 2.173802 0.035936 -0.004324 -151633.000000 0 0 1
-22.692033 30.645803 -26.842049 46.632491 -0.933428 2.184144 0.047091 -0.030926 -51582.800000 0 0 1
-23.171933 29.683503 -25.866549 45.685088 -0.907976 2.172675 0.019950 -0.025584 177013.000000 0 0 1
31.450901 10.023003 -26.311809 42.212925 0.308512 2.243767 0.034966 -0.008506 -137407.000000 0 0 1
31.113391 8.693003 -26.467669 41.763009 0.272450 2.257199 0.027442 -0.005081 -378156.000000 0 0 1
29.717181 8.576203 -26.440839 40.691277 0.280960 2.278106 0.037730 -0.005623 -215713.000000 0 0 1
29.311371 7.115903 -26.257349 39.990510 0.238162 2.287084 0.030878 -0.005297 -137180.000000 0 0 1
29.565991 6.729903 -24.928119 39.253669 0.223810 2.258872 0.019139 -0.000611 180973.000000 0 0 1
28.860551 5.561403 -24.542419 38.290872 0.190366 2.266528 0.022626 -0.000389 59627.100000 0 0 1
28.854791 5.188003 -23.050919 37.294225 0.177896 2.237098 0.023104 -0.005678 -198554.000000 0 0 1
30.125001 4.812803 -22.569619 37.948207 0.158422 2.207748 0.031401 -0.012017 45111.200000 0 0 1
30.111481 4.601603 -21.157519 37.087958 0.151646 2.177873 0.019968 -0.009648 -119580.000000 0 0 1
31.461711 4.359703 -20.440419 37.771113 0.137695 2.142619 0.015395 -0.008963 -317908.000000 0 0 1
31.936581 3.005003 -20.506219 38.072040 0.093817 2.139590 0.025477 -0.010144 362079.000000 0 0 1
32.868551 2.854003 -19.434619 38.290878 0.086614 2.103138 0.043370 -0.016576 -235219.000000 0 0 1
33.398711 1.442503 -19.368419 38.635351 0.043164 2.095912 0.047248 -0.018928 511662.000000 0 0 1
32.321331 0.509703 -19.031619 37.511741 0.015769 2.102904 0.042178 -0.016598 758605.000000 0 0 1
32.775051 -0.817897 -19.019619 37.902755 -0.024950 2.096475 0.048143 -0.014850 179714.000000 0 0 1
31.663341 -1.817897 -18.580719 36.757516 -0.057350 2.100751 0.039446 -0.010437 383553.000000 0 0 1
31.571621 -1.849597 -17.203019 36.001835 -0.058517 2.068987 0.040913 -0.006351 -585221.000000 0 0 1
30.235831 -1.768797 -16.845619 34.657019 -0.058433 2.078380 0.045337 -0.009707 -884983.000000 0 0 1
29.850101 -2.162197 -15.389519 33.653245 -0.072309 2.045749 0.058777 -0.012086 -218849.000000 0 0 1
29.836781 -3.574797 -15.169919 33.662132 -0.119243 2.038292 0.054988 -0.004121 1030900.000000 0 0 1
28.784051 -3.939997 -14.229519 32.350029 -0.136036 2.026240 0.047188 -0.004698 547870.000000 0 0 1
28.575631 -5.388097 -13.735719 32.160041 -0.186368 2.012085 0.048719 -0.002933 -24408.500000 0 0 1
27.870221 -6.242997 -14.662419 32.104684 -0.220365 2.045086 0.041165 0.002885 551996.000000 0 0 1
27.756551 -7.591597 -14.229119 32.101811 -0.266977 2.030017 0.038973 -0.005235 -440746.000000 0 0 1
26.954681 -8.389097 -15.225919 32.074295 -0.301727 2.065428 0.031101 0.000264 -352493.000000 0 0 1
25.753681 -7.806897 -15.655919 31.133704 -0.294332 2.097702 0.040494 -0.010461 -242267.000000 0 0 1
24.982481 -8.630397 -16.469919 31.142677 -0.332623 2.128046 0.034890 -0.005269 -128042.000000 0 0 1
23.609481 -8.080297 -16.879219 30.126513 -0.329752 2.165518 0.058285 -0.007138 -146358.000000 0 0 1
23.617381 -7.389097 -18.112319 30.666521 -0.303219 2.202626 0.048321 -0.002641 -199599.000000 0 0 1
22.347781 -6.899197 -18.449319 29.789253 -0.299437 2.238683 0.047778 -0.009592 -238672.000000 0 0 1
22.052781 -7.210697 -19.983719 30.621370 -0.316017 2.281816 0.049832 -0.008007 -480758.000000 0 0 1
22.851981 -6.471497 -20.819919 31.584210 -0.275966 2.290534 0.042576 -0.011076 -63153.300000 0 0 1
22.618381 -6.858497 -22.144419 32.388353 -0.294414 2.323638 0.065494 -0.011754 536287.000000 0 0 1
23.887481 -6.425097 -22.964619 33.753034 -0.262755 2.319066 0.067116 -0.020267 494658.000000 0 0 1
23.892181 -6.609197 -24.362519 34.757015 -0.269877 2.347508 0.072151 -0.019435 20622.500000 0 0 1
23.746581 -5.338097 -24.977619 34.875160 -0.221119 2.369140 0.077999 -0.028805 -126544.000000 0 0 1
23.712481 -5.468797 -26.527879 35.998859 -0.226666 2.399282 0.093824 -0.031191 -477243.000000 0 0 1
22.587781 -6.127197 -27.016979 35.744475 -0.264887 2.427727 0.109687 -0.035976 -542627.000000 0 0 1
22.667381 -6.456197 -28.383929 36.893632 -0.277476 2.448611 0.105585 -0.039529 363006.000000 0 0 1
21.441081 -7.230497 -28.969649 36.759224 -0.325250 2.478499 0.096690 -0.040780 375312.000000 0 0 1
21.250081 -8.542397 -28.527419 36.583495 -0.382224 2.465126 0.080928 -0.029847 -256144.000000 0 0 1
20.197381 -9.190597 -29.174759 36.654711 -0.427036 2.491346 0.097213 -0.034890 -455928.000000 0 0 1
20.088981 -10.682097 -28.836679 36.731844 -0.488715 2.473588 0.099744 -0.024141 -201956.000000 0 0 1
19.157081 -11.017897 -27.807929 35.519976 -0.521935 2.470080 0.104179 -0.028613 209753.000000 0 0 1
19.264381 -12.342697 -27.292379 35.613656 -0.569810 2.443930 0.099754 -0.025190 -137790.000000 0 0 1
19.148581 -13.534297 -28.315769 36.764495 -0.615278 2.449941 0.085973 -0.014592 -150721.000000 0 0 1
17.807181 -13.617497 -28.723569 36.435907 -0.652855 2.478888 0.081957 -0.018256 21312.500000 0 0 1
17.644581 -14.652797 -29.688599 37.515978 -0.693029 2.483825 0.076065 -0.011319 -613346.000000 0 0 1
16.428781 -14.686297 -30.614489 37.720539 -0.729455 2.517705 0.060596 -0.013857 -115921.000000 0 0 1
15.310881 -15.217197 -29.893509 36.872863 -0.782329 2.516175 0.050796 -0.014256 1075500.000000 0 0 1
14.331881 -15.763497 -30.829549 37.474681 -0.832932 2.536900 0.042310 -0.019003 953098.000000 0 0 1
13.098881 -16.458597 -30.146649 36.759849 -0.898580 2.532377 0.043603 -0.023014 264416.000000 0 0 1
13.307081 -17.714997 -29.536219 36.922727 -0.926543 2.498003 0.040622 -0.023451 450151.000000 0 0 1
12.223181 -18.142097 -28.692939 36.080834 -0.977908 2.490200 0.047354 -0.026085 202924.000000 0 0 1
12.583781 -19.499097 -28.071959 36.422537 -0.997696 2.450783 0.039569 -0.025198 -416480.000000 0 0 1
13.549381 -19.349397 -27.068949 35.926493 -0.959904 2.424095 0.051194 -0.021775 -265790.000000 0 0 1
13.502581 -20.379197 -26.146379 35.794755 -0.985637 2.389781 0.046660 -0.016303 125648.000000 0 0 1
14.662681 -20.277797 -25.114569 35.453136 -0.944741 2.358008 0.030836 -0.009314 717810.000000 0 0 1
15.954781 -20.700697 -25.570639 36.564073 -0.914155 2.345267 0.043068 -0.015834 354742.000000 0 0 1
16.874681 -20.799297 -24.547419 36.330997 -0.889197 2.312657 0.046689 -0.010167 -191481.000000 0 0 1
18.328081 -21.092097 -25.037619 37.519028 -0.855400 2.301416 0.037729 -0.011490 349078.000000 0 0 1
18.715781 -22.421597 -25.325399 38.657267 -0.875240 2.285146 0.046541 -0.024982 170570.000000 0 0 1
18.818281 -23.298297 -24.215619 38.514082 -0.891371 2.250737 0.037354 -0.022580 -567492.000000 0 0 1
19.388481 -24.719497 -24.482519 39.829141 -0.905678 2.232787 0.035132 -0.018771 -183760.000000 0 0 1
20.791981 -24.793097 -24.313019 40.473782 -0.872946 2.215186 0.047217 -0.019073 -107999.000000 0 0 1
21.145581 -26.047997 -23.700919 41.077576 -0.888906 2.185822 0.045019 -0.024972 -52624.700000 0 0 1
21.160981 -26.138097 -22.125019 40.255480 -0.890239 2.152700 0.054256 -0.020719 -138133.000000 0 0 1
19.888481 -26.084847 -21.508519 39.224830 -0.919373 2.151173 0.038807 -0.015258 44901.500000 0 0 1
19.965081 -26.206037 -20.113219 38.599254 -0.919754 2.118910 0.036497 -0.016574 -199323.000000 0 0 1
18.692281 -26.717007 -19.421319 37.952437 -0.960312 2.107991 0.036355 -0.010041 -516127.000000 0 0 1
18.554981 -28.069567 -19.693419 38.987417 -0.986702 2.100320 0.036187 -0.004551 302454.000000 0 0 1
17.511281 -28.773317 -19.019919 38.682115 -1.024081 2.084835 0.029467 -0.000741 721045.000000 0 0 1
16.063281 -28.541457 -19.531219 38.132824 -1.058175 2.108528 0.037575 -0.002911 41947.300000 0 0 1
15.318481 -27.605587 -18.809619 36.749504 -1.064195 2.108114 0.037691 -0.007160 39655.200000 0 0 1
14.080081 -27.186837 -19.351519 36.219526 -1.092931 2.134457 0.035491 0.000717 54285.700000 0 0 1
13.235781 -26.197607 -18.572219 34.733670 -1.102975 2.134953 0.040765 -0.012312 -368392.000000 0 0 1
12.500681 -26.819667 -17.535019 34.395326 -1.134634 2.105758 0.043820 -0.012911 161413.000000 0 0 1
11.677181 -25.842817 -16.877319 33.000782 -1.146402 2.107635 0.055932 -0.023789 1273950.000000 0 0 1
10.135881 -25.836137 -17.211019 32.656718 -1.196933 2.125896 0.063759 -0.023040 359947.000000 0 0 1
9.377581 -26.705187 -16.358619 32.691137 -1.233096 2.094856 0.074111 -0.015245 -515891.000000 0 0 1
8.003881 -26.486007 -16.467319 32.198498 -1.277329 2.107646 0.070397 -0.007314 -200101.000000 0 0 1
7.394081 -27.365487 -17.598019 33.365140 -1.306901 2.126378 0.068506 -0.001724 -567875.000000 0 0 1
7.574181 -26.854937 -18.936319 33.721507 -1.295896 2.167054 0.061152 -0.003831 -88675.200000 0 0 1
6.948181 -27.666987 -19.926819 34.796803 -1.324749 2.180546 0.053047 0.003785 65054.600000 0 0 1
7.044281 -27.257617 -21.433919 35.383788 -1.317896 2.221511 0.044259 -0.001293 -305350.000000 0 0 1
6.072981 -26.225837 -21.531319 34.471340 -1.343242 2.245435 0.062335 -0.012231 281734.000000 0 0 1
6.104181 -25.647937 -22.818119 34.867524 -1.337144 2.284216 0.052397 -0.009327 167970.000000 0 0 1
4.774481 -24.969197 -23.265319 34.460579 -1.381862 2.311935 0.044731 -0.010514 971955.000000 0 0 1
3.659681 -25.863907 -23.410219 35.076677 -1.430232 2.301510 0.035914 -0.008109 480134.000000 0 0 1
2.502781 -25.266427 -23.941019 34.897401 -1.472063 2.326829 0.034449 -0.009716 578497.000000 0 0 1
1.485181 -26.298317 -24.572019 36.022095 -1.514382 2.321478 0.030899 -0.016230 383149.000000 0 0 1
2.002181 -27.084697 -25.618169 37.334704 -1.497008 2.327015 0.028703 -0.002665 235443.000000 0 0 1
0.985981 -27.834057 -26.241549 38.266510 -1.535388 2.326440 0.026999 -0.007380 243401.000000 0 0 1
1.660181 -28.631527 -27.410449 39.671819 -1.512877 2.333571 0.032445 -0.001827 -231026.000000 0 0 1
2.017681 -27.782237 -28.512349 39.860730 -1.498299 2.367849 0.039742 -0.005563 1217.390000 0 0 1
2.592481 -28.531417 -29.524769 41.139697 -1.480181 2.371248 0.035612 -0.001219 -605439.000000 0 0 1
4.090581 -28.832407 -29.487779 41.443572 -1.429862 2.362450 0.037252 -0.000672 -827437.000000 0 0 1
4.504381 -29.575767 -28.349829 41.215631 -1.419658 2.329308 0.027908 -0.008149 531629.000000 0 0 1
5.580981 -30.434507 -28.810459 42.278234 -1.389435 2.320537 0.033450 -0.002637 843082.000000 0 0 1
6.190681 -31.456937 -27.878479 42.486151 -1.376481 2.286539 0.049602 -0.008220 263502.000000 0 0 1
5.306481 -32.595377 -27.790709 43.161798 -1.409414 2.270346 0.039081 -0.019271 565068.000000 0 0 1
5.852881 -33.716967 -27.083849 43.642009 -1.398920 2.240293 0.061113 -0.032272 40336.400000 0 0 1
4.742681 33.874161 -26.755209 43.425718 1.431692 2.234596 0.068901 -0.033314 -167119.000000 0 0 1
4.094881 33.269286 -27.871759 43.594133 1.448329 2.264444 0.062440 -0.030910 65398.000000 0 0 1
3.160781 32.322139 -27.404379 42.493661 1.473316 2.271695 0.056403 -0.029625 -451138.000000 0 0 1
1.841881 32.413719 -28.190159 42.996823 1.514033 2.285818 0.051249 -0.019519 -275220.000000 0 0 1
1.844981 31.582579 -29.315929 43.131044 1.512445 2.318142 0.057467 -0.027413 -146247.000000 0 0 1
0.655281 31.819899 -30.023989 43.753575 1.550206 2.327057 0.055713 -0.023768 11500.300000 0 0 1
0.365781 30.763309 -31.172459 43.797685 1.558907 2.362765 0.049201 -0.025238 41673.400000 0 0 1
1.421781 30.715419 -32.123239 44.467527 1.524541 2.378060 0.058989 -0.025884 304487.000000 0 0 1
1.226081 29.648969 -33.005239 44.383673 1.529467 2.409287 0.052984 -0.022582 -673235.000000 0 0 1
2.362081 29.428289 -33.999739 45.028723 1.490702 2.426554 0.058245 -0.019655 -422591.000000 0 0 1
2.482181 30.426999 33.417320 45.262355 1.489398 0.740246 0.048434 -0.014513 -7927.410000 0 0 1
3.321081 29.907939 32.384532 44.207152 1.460206 0.748716 0.039817 -0.019706 -112935.000000 0 0 1
2.696181 29.041499 31.276411 42.765546 1.478223 0.750503 0.036646 -0.011870 -389924.000000 0 0 1
2.483381 27.654109 31.538221 42.018761 1.481235 0.721865 0.042328 -0.016649 -231821.000000 0 0 1
3.595081 26.783679 31.566711 41.554149 1.437367 0.708018 0.043781 -0.012432 -438809.000000 0 0 1
3.237881 25.270929 31.779931 40.731655 1.443364 0.675768 0.055826 -0.018438 -203980.000000 0 0 1
2.560581 24.730409 30.686811 39.494684 1.467624 0.680933 0.063989 -0.003271 -37042.000000 0 0 1
2.506581 23.308449 30.705971 38.631896 1.463668 0.652061 0.057771 -0.002663 170965.000000 0 0 1
1.401381 22.593249 29.859391 37.470014 1.508849 0.648671 0.049100 0.008782 796152.000000 0 0 1
0.144581 22.500149 30.535001 37.929723 1.564371 0.635051 0.017323 0.007316 945766.000000 0 0 1
-0.888419 22.077249 29.613401 36.947905 -1.530577 0.641013 0.031512 0.007771 228957.000000 0 0 1
-2.227519 21.675049 30.224531 37.259789 -1.468387 0.624623 0.020196 0.013072 -356628.000000 0 0 1
-2.994419 22.803649 30.610831 38.288326 -1.440230 0.644364 0.028931 0.008422 692284.000000 0 0 1
-4.395819 22.532849 30.487701 38.164806 -1.378131 0.645426 -0.000022 0.012640 268243.000000 0 0 1
-5.256119 23.738929 30.746891 39.198659 -1.352898 0.669090 -0.024047 0.003100 -779632.000000 0 0 1
-5.555619 24.057259 32.082781 40.483595 -1.343842 0.655918 -0.027948 0.007463 -51884.400000 0 0 1
-4.753419 25.106529 32.520463 41.358352 -1.383681 0.665984 -0.008054 -0.005472 -334072.000000 0 0 1
-5.061019 25.559819 33.940797 42.788970 -1.375318 0.654728 0.005817 -0.003864 192352.000000 0 0 1
-6.295819 26.220009 34.187447 43.542023 -1.335143 0.667842 0.000611 -0.002208 212215.000000 0 0 1
-6.495319 26.355259 -32.878419 42.635423 -1.329159 2.451446 0.011273 -0.002414 -201364.000000 0 0 1
-7.946619 26.741609 -32.535919 42.858470 -1.281944 2.432799 0.036815 -0.004628 -391725.000000 0 0 1
-8.248819 27.990679 -33.115669 44.138064 -1.284210 2.419274 0.043581 -0.012414 -687399.000000 0 0 1
-9.466419 28.600339 -32.847039 44.570399 -1.251156 2.399373 0.052769 -0.018129 -566377.000000 0 0 1
-9.693419 29.037479 -31.370209 43.831810 -1.248604 2.368415 0.059710 -0.011633 -482844.000000 0 0 1
-8.935219 30.150519 -30.968209 44.135268 -1.282688 2.348529 0.063045 -0.013507 -166907.000000 0 0 1
-8.933419 30.203739 -29.550989 43.189499 -1.283223 2.324326 0.068781 -0.019115 -458040.000000 0 0 1
-8.289719 31.401639 -28.906849 43.478596 -1.312695 2.298093 0.057173 -0.026359 -486870.000000 0 0 1
-6.920519 31.629719 -29.053699 43.502300 -1.355393 2.302134 0.036630 -0.030960 -616312.000000 0 0 1
-6.483019 32.889970 -28.569239 44.045216 -1.376179 2.276585 0.044518 -0.022340 803435.000000 0 0 1
-4.909819 32.821331 -28.502239 43.746128 -1.422305 2.280406 0.055954 -0.025460 629257.000000 0 0 1
-4.201119 33.995649 -28.149709 44.336888 -1.447842 2.258682 0.057734 -0.023882 -18407.100000 0 0 1
-4.150619 -33.578017 -29.163969 44.668198 1.447809 2.282206 0.057850 -0.026521 165372.000000 0 0 1
-3.007919 -33.856777 -30.209699 45.474771 1.482187 2.297377 0.056261 -0.027870 225052.000000 0 0 1
-3.327419 33.713486 -31.097189 45.985933 -1.472418 2.313433 0.058188 -0.030556 -350634.000000 0 0 1
-4.132619 34.062209 -32.181489 47.042118 -1.450061 2.324165 0.064957 -0.028476 -331877.000000 0 0 1
-3.627519 -33.608577 -33.298459 47.449791 1.463278 2.348664 0.045309 -0.025635 -298197.000000 0 0 1
-3.551819 -32.310957 -32.850139 46.214121 1.461310 2.361466 0.045858 -0.028746 120610.000000 0 0 1
-2.619819 -31.537527 -33.591179 46.150258 1.487917 2.386000 0.040340 -0.025585 120613.000000 0 0 1
32.398061 19.835003 12.426751 39.968560 0.549362 1.254643 0.064858 -0.002275 -337973.000000 0 0 1
33.187061 18.955903 13.147151 40.417259 0.518961 1.239483 0.061809 -0.012060 3928.020000 0 0 1
32.914501 17.624803 12.656851 39.423266 0.491621 1.243958 0.075126 -0.010982 -271963.000000 0 0 1
33.756991 16.518503 13.304651 39.867394 0.455080 1.230547 0.077414 -0.017516 -282844.000000 0 0 1
35.050851 16.567603 12.760051 40.815028 0.441548 1.252835 0.074602 -0.001979 -517498.000000 0 0 1
35.890541 15.659503 13.383151 41.381876 0.411414 1.241470 0.068617 -0.006856 483010.000000 0 0 1
-35.286302 15.055203 12.545151 40.362892 -0.403275 1.254752 0.070716 -0.016880 1419230.000000 0 0 1
-34.446725 14.063503 13.174851 39.470694 -0.387614 1.230477 0.059000 -0.016818 450194.000000 0 0 1
-35.128124 12.816503 13.174451 39.646110 -0.349843 1.232054 0.061820 -0.017531 479309.000000 0 0 1
-34.468725 11.907703 14.320751 39.178697 -0.332628 1.196601 0.066759 -0.017853 324152.000000 0 0 1
-34.615285 12.343303 15.621951 39.932699 -0.342529 1.168854 0.064992 -0.017165 -133608.000000 0 0 1
-33.962613 11.575603 16.600251 39.535073 -0.328486 1.137476 0.064314 -0.015169 -93218.600000 0 0 1
-33.778373 12.397203 17.906451 40.190921 -0.351753 1.109025 0.054899 -0.007651 74030.900000 0 0 1
-34.958321 12.318303 18.678651 41.505623 -0.338786 1.104001 0.056825 -0.003355 11858.600000 0 0 1
-34.863408 13.002503 19.919251 42.205436 -0.356977 1.079284 0.053187 -0.006691 -353117.000000 0 0 1
-36.152683 13.157503 20.731351 43.702692 -0.349041 1.076545 0.062804 -0.014530 -269168.000000 0 0 1
35.657271 11.930603 21.139451 43.135329 0.322882 1.058623 0.054808 -0.001688 107829.000000 0 0 1
34.668191 12.112603 22.142751 42.882397 0.336128 1.028201 0.061641 -0.012631 161932.000000 0 0 1
34.615871 10.837103 23.015751 42.958423 0.303402 1.005379 0.044002 -0.009986 481831.000000 0 0 1
35.614861 10.744703 24.042741 44.293570 0.293008 0.997024 0.051776 -0.004443 636348.000000 0 0 1
35.090661 11.396003 25.215191 44.688133 0.314014 0.971274 0.050125 -0.004736 -1352350.000000 0 0 1
-36.167083 11.574003 26.188001 46.128373 -0.309716 0.967063 0.058749 -0.008431 -727960.000000 0 0 1
-35.347019 12.634703 25.932241 45.623772 -0.343294 0.966245 0.069198 -0.017327 277557.000000 0 0 1
-34.370021 12.525103 24.860391 44.229126 -0.349462 0.973896 0.061206 -0.013988 -500616.000000 0 0 1
-33.497463 13.749003 24.589771 43.769532 -0.389482 0.974235 0.051234 -0.014430 -422673.000000 0 0 1
-32.432903 13.915203 25.475741 43.526308 -0.405293 0.945552 0.050753 -0.019839 -195493.000000 0 0 1
-32.799933 14.449203 26.732491 44.712874 -0.414947 0.929955 0.050154 -0.019949 -281209.000000 0 0 1
-31.580943 15.032303 27.555641 44.526840 -0.444258 0.903513 0.038752 -0.006469 341456.000000 0 0 1
-30.967683 16.123403 26.925611 44.090249 -0.480033 0.913861 0.044340 -0.017805 -213698.000000 0 0 1
-30.402663 16.977703 27.901561 44.621311 -0.509291 0.895285 0.051311 -0.027726 -135917.000000 0 0 1
-29.699673 18.149803 27.254551 44.207426 -0.548549 0.906487 0.051579 -0.012894 145226.000000 0 0 1
-30.672333 19.011503 26.664241 44.868820 -0.554870 0.934437 0.044605 -0.031453 543899.000000 0 0 1
-30.080453 20.201103 26.181241 44.703194 -0.591389 0.945092 0.045383 -0.032261 -113695.000000 0 0 1
-31.116713 21.108003 25.478711 45.419845 -0.596047 0.975251 0.047188 -0.015692 166508.000000 0 0 1
-32.148243 21.568103 26.353051 46.831356 -0.590924 0.973121 0.038441 -0.018247 713084.000000 0 0 1
-33.151503 22.411003 25.772851 47.597427 -0.594448 0.998605 0.040383 -0.007011 22886.600000 0 0 1
-32.936973 23.905603 25.737051 48.153067 -0.627831 1.006899 0.036714 -0.010533 -339166.000000 0 0 1
-33.870893 24.443003 24.833511 48.594249 -0.625110 1.034404 0.039698 -0.010252 -57888.900000 0 0 1
-33.909123 25.853103 24.920461 49.388672 -0.651405 1.041903 0.050644 -0.008027 115630.000000 0 0 1
-34.876006 26.450403 23.883131 49.863449 -0.648863 1.071315 0.059244 -0.002826 -70868.700000 0 0 1
-34.425930 26.365803 22.561951 48.880895 -0.653581 1.091032 0.059633 -0.002360 648888.000000 0 0 1
-35.293620 27.106803 21.628451 49.479372 -0.654945 1.118402 0.067461 -0.015928 782448.000000 0 0 1
-34.819197 26.909203 20.140251 48.395365 -0.657951 1.141577 0.056902 -0.023927 212838.000000 0 0 1
-34.965735 25.591403 19.589451 47.552804 -0.631816 1.146202 0.060152 -0.025600 -47248.700000 0 0 1
-34.241028 25.436403 18.414951 46.460403 -0.638918 1.163250 0.069954 -0.028082 -277712.000000 0 0 1
-34.518084 24.072903 17.716951 45.660630 -0.608979 1.172321 0.055801 -0.016524 28589.200000 0 0 1
-35.865120 23.928403 17.334351 46.468861 -0.588356 1.188522 0.063143 -0.024685 -311696.000000 0 0 1
-35.957070 22.976603 16.281751 45.671989 -0.568604 1.206285 0.047617 -0.019996 -325185.000000 0 0 1
35.049001 22.910403 15.609451 44.687515 0.578949 1.213970 0.050126 -0.019994 -685777.000000 0 0 1
34.120141 22.136503 16.290151 43.812986 0.575518 1.189837 0.056345 -0.020718 -870555.000000 0 0 1
32.987781 22.066503 15.469851 42.596250 0.589568 1.199124 0.060037 -0.010824 -427912.000000 0 0 1
31.920091 20.982103 15.906251 41.378130 0.581512 1.176226 0.052928 -0.014592 759357.000000 0 0 1
31.029581 21.317203 16.947951 41.285482 0.601945 1.147787 0.049847 -0.016288 1185.110000 0 0 1
30.002751 22.208403 16.597351 40.851564 0.637207 1.152412 0.054610 -0.008955 -209475.000000 0 0 1
29.208421 22.889203 17.777351 41.147073 0.664692 1.124038 0.051078 -0.014056 185515.000000 0 0 1
29.915451 23.780103 18.562251 42.485111 0.671630 1.118634 0.042237 -0.012174 -106405.000000 0 0 1
29.054771 24.390003 19.529251 42.666657 0.698337 1.095371 0.034683 0.001961 780460.000000 0 0 1
29.987191 25.074203 20.647751 44.207204 0.696406 1.084825 0.038333 -0.004604 1050950.000000 0 0 1
30.920491 25.950103 20.034351 45.065062 0.698221 1.110108 0.044346 -0.014990 218786.000000 0 0 1
31.773441 26.445203 21.066751 46.397287 0.694131 1.099489 0.040722 -0.014442 -139936.000000 0 0 1
32.729761 27.570703 20.716351 47.545221 0.700050 1.119960 0.070039 -0.022887 429154.000000 0 0 1
33.712161 27.966803 21.725851 48.894421 0.692517 1.110357 0.070505 -0.015176 1046810.000000 0 0 1
33.182791 28.909203 22.648551 49.495419 0.716680 1.095515 0.054943 -0.019749 490433.000000 0 0 1
34.171911 29.309203 23.836561 50.940460 0.708947 1.083849 0.042534 -0.019739 224624.000000 0 0 1
35.389541 29.886103 23.490171 51.936373 0.701286 1.101468 0.074080 -0.018140 -802334.000000 0 0 1
36.070801 30.057103 24.688091 53.047469 0.694707 1.086714 0.075487 -0.015721 -1049520.000000 0 0 1
-35.095962 30.963003 24.629531 52.887124 -0.722915 1.086371 0.094341 -0.025642 60893.200000 0 0 1
-33.884013 30.232003 24.371841 51.537239 -0.728500 1.078220 0.086262 -0.021185 511421.000000 0 0 1
-32.775713 31.059903 24.707131 51.472393 -0.758526 1.070133 0.088594 -0.015304 379456.000000 0 0 1
-31.385863 30.488003 24.337561 50.069028 -0.770888 1.063198 0.090347 -0.018662 -82441.100000 0 0 1
-31.092813 30.291803 22.938751 49.097277 -0.772350 1.084664 0.065342 -0.009848 248812.000000 0 0 1
-31.732563 29.243603 22.163251 48.511376 -0.744602 1.096326 0.067496 -0.010112 -249199.000000 0 0 1
-31.258663 27.856903 22.602451 47.581318 -0.727917 1.075801 0.055634 -0.000319 -697577.000000 0 0 1
-29.882933 27.692703 22.400451 46.493609 -0.747376 1.068093 0.035016 -0.002032 -453109.000000 0 0 1
-29.388533 26.589603 23.099851 45.872606 -0.735439 1.043076 0.038102 -0.005972 -29381.700000 0 0 1
-28.912933 26.895703 24.581211 46.514218 -0.749268 1.014003 0.055643 -0.003347 -718345.000000 0 0 1
-29.927383 27.101103 25.526991 47.767618 -0.735880 1.006999 0.044994 -0.003818 -347749.000000 0 0 1
-29.527003 27.427103 26.815651 48.406291 -0.748545 0.983671 0.062009 -0.009542 -1604670.000000 0 0 1
-30.684593 27.727103 27.680601 49.764969 -0.734810 0.980958 0.063760 -0.015565 -1118180.000000 0 0 1
-31.329213 26.554003 28.146781 49.788311 -0.703087 0.969964 0.041890 -0.015258 -323142.000000 0 0 1
-32.413463 26.983103 28.924531 51.140482 -0.694226 0.969648 0.048694 -0.013538 -55953.600000 0 0 1
-33.227113 25.801803 29.516951 51.390899 -0.660264 0.958972 0.039105 -0.012945 -47869.000000 0 0 1
-32.525173 25.260203 30.604631 51.308948 -0.660331 0.931691 0.032472 -0.010265 -122494.000000 0 0 1
-33.123723 24.066003 31.007091 51.359451 -0.628323 0.922628 0.027938 -0.021802 -674695.000000 0 0 1
-32.310493 23.152203 31.853551 50.937620 -0.621750 0.895224 0.023582 -0.028140 -1564970.000000 0 0 1
-31.126073 22.626903 31.335871 49.626061 -0.628581 0.887388 0.027180 -0.024415 -392918.000000 0 0 1
-30.650893 21.523103 32.081621 49.314821 -0.612202 0.862492 0.032000 -0.027102 -142178.000000 0 0 1
-29.990913 21.882103 33.430129 49.958531 -0.630333 0.837722 0.036944 -0.033628 -919423.000000 0 0 1
-30.889503 22.275203 -33.986439 51.043355 -0.624764 2.299408 0.063566 -0.039539 238921.000000 0 0 1
-30.391853 22.065203 -32.641199 49.759278 -0.627979 2.286279 0.045698 -0.025038 37048.300000 0 0 1
-29.106173 22.731903 -32.076459 48.916336 -0.663047 2.285960 0.062981 -0.032402 104200.000000 0 0 1
-29.054663 24.131703 -31.776729 49.358617 -0.693101 2.270241 0.050076 -0.028705 151981.000000 0 0 1
-27.972833 24.304303 -30.847169 48.215416 -0.715338 2.265006 0.077123 -0.025595 442436.000000 0 0 1
-27.997913 25.615203 -29.976159 48.358990 -0.740985 2.239370 0.056892 -0.016503 -24439.900000 0 0 1
-27.667633 26.765103 -30.688039 49.230320 -0.768819 2.243824 0.046539 -0.023198 257806.000000 0 0 1
-28.736483 27.231803 -31.521899 50.606192 -0.758520 2.243223 0.042008 -0.016898 140961.000000 0 0 1
-28.605453 28.698103 -31.980319 51.619704 -0.787015 2.238949 0.041763 -0.017002 -334749.000000 0 0 1
-28.929313 29.561103 -30.959969 51.665111 -0.796199 2.213352 0.032506 -0.016805 118693.000000 0 0 1
-28.819093 30.875703 -31.480629 52.677122 -0.819837 2.211319 0.030964 -0.029085 -178326.000000 0 0 1
-29.113663 32.009703 -30.464069 52.917728 -0.832743 2.184241 0.022320 -0.012264 520234.000000 0 0 1
-27.956223 32.361503 -29.696939 52.064628 -0.858303 2.177772 0.014562 -0.011684 593879.000000 0 0 1
-28.274713 33.366703 -28.768839 52.349235 -0.867818 2.152629 -0.004606 -0.005240 -160257.000000 0 0 1
-27.395283 33.466203 -27.467839 51.234466 -0.884819 2.136631 0.000911 -0.001400 -111789.000000 0 0 1
-26.136913 34.057803 -27.553089 51.012203 -0.916234 2.141385 -0.007631 -0.004750 -671118.000000 0 0 1
-26.188773 -33.107343 -27.753079 50.519119 0.901551 2.152392 0.001183 0.017089 -722882.000000 0 0 1
-26.525963 -32.095943 -26.632809 49.427551 0.880129 2.139838 -0.015438 0.020767 262442.000000 0 0 1
-27.927403 -31.977043 -26.449919 50.020689 0.852897 2.127958 -0.019093 0.013158 -93796.500000 0 0 1
-28.318153 -31.184743 -25.385789 49.181748 0.833537 2.113161 -0.019387 0.016745 172861.000000 0 0 1
-29.822753 -30.835943 -25.428399 49.868382 0.802100 2.105877 -0.018446 0.014993 151822.000000 0 0 1
-30.200673 -29.956443 -26.450609 50.090956 0.781338 2.127101 -0.009799 0.006353 -44312.400000 0 0 1
-31.597023 -29.791043 -26.454669 50.850051 0.755988 2.117938 -0.009208 -0.003517 -228886.000000 0 0 1
-32.228383 -28.951543 -27.627979 51.382543 0.731889 2.138494 0.007762 -0.013542 1029790.000000 0 0 1
-33.652573 -29.156243 -27.491529 52.329403 0.713933 2.123929 0.012871 -0.008593 1085390.000000 0 0 1
-34.354032 -28.395143 -28.478779 52.891630 0.690718 2.139377 0.028860 -0.018025 934084.000000 0 0 1
-35.907238 -28.524143 -28.612039 54.051876 0.671307 2.128624 0.042091 -0.019104 888067.000000 0 0 1
35.717451 -27.834643 -27.631149 53.046998 -0.661992 2.118678 0.027362 -0.002812 -216692.000000 0 0 1
34.388321 -28.301943 -27.670449 52.432913 -0.688615 2.126723 0.031994 -0.008516 768728.000000 0 0 1
33.421861 -27.742643 -26.509639 50.886501 -0.692812 2.118767 0.036104 -0.000879 853901.000000 0 0 1
33.704131 -28.404443 -25.286909 50.815437 -0.700275 2.091652 0.026867 -0.000113 1207710.000000 0 0 1
32.693391 -27.887443 -24.359319 49.395786 -0.706233 2.086498 0.037506 0.004306 954316.000000 0 0 1
32.564841 -28.573143 -22.970219 49.035949 -0.720201 2.058316 0.030807 0.007803 -67684.400000 0 0 1
32.077371 -29.909143 -22.957019 49.502922 -0.750433 2.053020 0.043516 0.002999 108498.000000 0 0 1
31.639411 -30.394143 -21.681419 48.938126 -0.765327 2.029780 0.049566 -0.010231 643494.000000 0 0 1
32.774021 -30.666443 -20.604319 49.387297 -0.752189 2.001157 0.028880 -0.005429 -585324.000000 0 0 1
33.789531 -31.590043 -20.978719 50.791435 -0.751769 1.996582 0.023396 0.001201 433294.000000 0 0 1
34.937341 -31.482243 -20.146719 51.162874 -0.733426 1.975532 0.010796 -0.000229 543893.000000 0 0 1
35.806081 -30.208543 -20.384819 51.089846 -0.700808 1.981222 -0.006296 0.000446 -1003750.000000 0 0 1
35.202751 -28.944943 -19.969219 49.757543 -0.688153 1.983765 -0.012032 0.003022 -188038.000000 0 0 1
35.755131 -27.804743 -20.572519 49.746976 -0.660959 1.997138 -0.020026 0.004575 19251.000000 0 0 1
34.931661 -26.533443 -20.166519 48.279737 -0.649605 2.001710 -0.020934 0.005115 110218.000000 0 0 1
33.759821 -26.296543 -20.878419 47.614515 -0.661761 2.024713 0.005395 0.001774 -382319.000000 0 0 1
32.791611 -25.562043 -20.172919 46.213142 -0.662134 2.022522 0.040264 -0.002756 -172483.000000 0 0 1
31.438141 -25.399643 -20.861419 45.482935 -0.679554 2.047288 0.044317 -0.004356 -68529.300000 0 0 1
30.639491 -26.533943 -21.085719 45.688468 -0.713713 2.050494 0.064439 -0.006983 -337553.000000 0 0 1
29.468601 -26.292243 -21.802019 45.111069 -0.728496 2.075213 0.064996 -0.014009 -45319.800000 0 0 1
28.727871 -27.565343 -22.299319 45.633303 -0.764750 2.081353 0.073939 -0.010507 -63873.400000 0 0 1
27.987311 -28.272843 -21.331519 45.140635 -0.790473 2.062986 0.075019 -0.012922 42301.500000 0 0 1
27.434511 -29.435343 -21.969119 45.844673 -0.820566 2.070548 0.072157 -0.010239 158845.000000 0 0 1
26.672381 -30.341143 -20.931219 45.498536 -0.849659 2.048838 0.069289 -0.007807 -177419.000000 0 0 1
27.429581 -30.907043 -19.896719 45.864002 -0.844938 2.019524 0.080645 -0.015830 -439678.000000 0 0 1
28.136431 -32.057643 -20.333319 47.252461 -0.850449 2.015635 0.085156 -0.012417 108669.000000 0 0 1
29.257091 -32.323043 -19.295219 47.676640 -0.835145 1.987458 0.059753 -0.015510 -105460.000000 0 0 1
28.844701 -32.910243 -18.078619 47.349101 -0.851137 1.962556 0.066977 -0.017290 -310144.000000 0 0 1
28.115851 -32.066543 -17.205419 45.986854 -0.850949 1.954263 0.047475 -0.013934 -200098.000000 0 0 1
27.638721 -32.941843 -16.073119 45.906525 -0.872714 1.928503 0.046603 -0.007367 -186991.000000 0 0 1
26.301281 -33.371643 -16.194119 45.471677 -0.903334 1.934926 0.042097 -0.002121 -183499.000000 0 0 1
26.028681 -34.180643 -15.118619 45.545376 -0.919974 1.909162 0.049101 0.002247 857794.000000 0 0 1
24.490881 34.169803 -14.841119 44.582928 0.948923 1.910161 0.041213 -0.005389 777890.000000 0 0 1
23.854481 -33.250843 -14.640119 43.462489 -0.948481 1.914360 0.028674 0.004947 69541.600000 0 0 1
22.449481 -33.493943 -14.518019 42.855528 -0.980314 1.916402 0.036967 -0.002961 602547.000000 0 0 1
-1.005033 -7.356997 -28.861129 29.801011 1.435028 2.889776 0.031253 -0.011520 398918.000000 0 0 1
-0.397233 -8.643697 -28.714699 29.990085 1.524872 2.848909 0.046220 -0.008881 7571.460000 0 0 1
-0.714633 -9.452797 -29.817809 31.288461 1.495340 2.833775 0.021866 -0.006498 -101660.000000 0 0 1
-0.291433 -10.926297 -29.616619 31.569178 1.544130 2.788044 0.029443 -0.005692 -84170.200000 0 0 1
1.095867 -11.083697 -29.469659 31.504128 -1.472245 2.780248 0.019376 -0.010103 -286999.000000 0 0 1
1.436567 -12.468097 -29.398229 31.965185 -1.456083 2.738100 0.024363 -0.012976 -307870.000000 0 0 1
2.858967 -12.790697 -28.922799 31.753802 -1.350892 2.716124 0.021562 -0.008296 -859012.000000 0 0 1
3.713367 -12.830197 -30.078719 32.910976 -1.289070 2.723689 0.024179 -0.013903 1197760.000000 0 0 1
5.103167 -13.095997 -29.749529 32.902613 -1.199223 2.700227 0.035707 -0.014131 1470590.000000 0 0 1
5.465467 -14.492597 -29.170299 33.027459 -1.210167 2.653467 0.039235 -0.018739 -1200090.000000 0 0 1
4.923667 -14.715197 -27.896279 31.921496 -1.247909 2.633970 0.037263 -0.020481 -190310.000000 0 0 1
5.594767 -15.740397 -27.199289 31.919631 -1.229283 2.590815 0.037543 -0.020134 -155272.000000 0 0 1
5.323467 -17.251597 -27.567049 32.952983 -1.271488 2.561765 0.035424 -0.027733 -292256.000000 0 0 1
5.789267 -17.575997 -28.873179 34.294194 -1.252604 2.571639 0.045465 -0.041583 348699.000000 0 0 1
5.295367 -18.863597 -29.301619 35.248561 -1.297121 2.552213 0.035648 -0.035626 -79929.200000 0 0 1
5.532567 -19.154797 -30.843599 36.726600 -1.289614 2.567741 0.052698 -0.043799 -239314.000000 0 0 1
6.910667 -19.274297 -31.123829 37.255182 -1.226531 2.559698 0.052055 -0.038176 59583.100000 0 0 1
7.150767 -19.923597 -32.326199 38.640216 -1.226207 2.561834 0.061081 -0.039066 -783059.000000 0 0 1
8.633767 -20.140197 -32.570659 39.255793 -1.165810 2.549372 0.062348 -0.036252 -693277.000000 0 0 1
9.266967 -18.930197 -32.911719 39.082096 -1.115557 2.571994 0.061983 -0.039694 -378212.000000 0 0 1
10.292967 -19.121597 -33.832409 40.202146 -1.076988 2.570956 0.057712 -0.038824 -625794.000000 0 0 1
10.756967 -17.761997 34.112765 39.935968 -1.026257 0.546812 0.057516 -0.032185 -181029.000000 0 0 1
9.771167 -17.196597 33.259417 38.696091 -1.054085 0.536499 0.075727 -0.030057 195121.000000 0 0 1
10.095767 -15.922697 32.775903 37.811593 -1.005716 0.522004 0.061637 -0.024938 -1085760.000000 0 0 1
9.055667 -15.282097 31.950291 36.556376 -1.035860 0.507421 0.078642 -0.033168 -888625.000000 0 0 1
8.937367 -15.948497 30.731951 35.758689 -1.060012 0.536650 0.075279 -0.027504 -600268.000000 0 0 1
7.883367 -15.415597 30.008671 34.645467 -1.098079 0.523321 0.074059 -0.027438 -702438.000000 0 0 1
7.740267 -16.113797 28.672251 33.788521 -1.122992 0.557502 0.071376 -0.008314 -292694.000000 0 0 1
7.164267 -17.394497 28.797261 34.397347 -1.180099 0.578664 0.083811 -0.020690 260745.000000 0 0 1
7.196367 -18.040797 27.569281 33.724224 -1.191244 0.613754 0.079209 -0.021612 -68443.600000 0 0 1
6.762667 -19.487997 27.747621 34.575224 -1.236781 0.639274 0.078555 -0.024801 -512426.000000 0 0 1
7.555567 -20.076097 28.706871 35.836025 -1.210846 0.641729 0.087361 -0.024857 56557.800000 0 0 1
6.962867 -21.236897 29.243151 36.805559 -1.253974 0.652562 0.076119 -0.027835 -127377.000000 0 0 1
7.561967 -21.541297 30.663921 38.229398 -1.233191 0.639988 0.074127 -0.028120 -196783.000000 0 0 1
7.185467 -20.728497 31.750721 38.592872 -1.237112 0.604635 0.090424 -0.041795 12749.500000 0 0 1
7.273467 -19.309197 31.645221 37.777882 -1.210550 0.577802 0.079493 -0.042394 -310764.000000 0 0 1
6.577567 -18.556297 32.800333 38.255226 -1.230149 0.540585 0.079867 -0.045717 -352372.000000 0 0 1
5.201167 -18.793597 32.809052 38.166547 -1.300802 0.536254 0.086462 -0.050713 -871763.000000 0 0 1
4.541267 -17.920297 33.673617 38.414484 -1.322606 0.502074 0.075062 -0.046246 -184719.000000 0 0 1
3.010167 -18.103897 33.731557 38.400913 -1.406032 0.498282 0.071439 -0.043971 34941.200000 0 0 1
2.607467 -19.297297 -34.059049 39.232682 -1.436489 2.622218 0.069212 -0.047460 98630.700000 0 0 1
2.307267 -19.073897 -32.705889 37.931678 -1.450417 2.610455 0.053290 -0.048498 -475813.000000 0 0 1
1.806867 -20.248197 -31.845199 37.780563 -1.481796 2.573445 0.048484 -0.029219 198008.000000 0 0 1
0.549067 -20.870797 -32.242549 38.411894 -1.544495 2.566956 0.042285 -0.022218 1173000.000000 0 0 1
0.071967 -21.721297 -31.213759 38.027867 -1.567483 2.533629 0.033168 -0.016506 -4350.580000 0 0 1
-0.596833 -20.896097 -30.106579 36.652547 1.542242 2.534666 0.028541 -0.016948 -1280070.000000 0 0 1
-1.854633 -20.351397 -30.397209 36.627986 1.479917 2.549707 0.034388 -0.029385 -253726.000000 0 0 1
-2.211433 -19.211097 -29.643699 35.393581 1.456188 2.563570 0.036964 -0.020086 -211398.000000 0 0 1
-1.632933 -17.873797 -30.074699 35.023229 1.479690 2.603538 0.026404 -0.019658 -268750.000000 0 0 1
-2.200233 -16.825597 -29.290659 33.850915 1.440767 2.616513 0.035786 -0.018953 -7086.090000 0 0 1
-1.949733 -15.565797 -29.858839 33.729005 1.446188 2.657843 0.039353 -0.021181 207785.000000 0 0 1
-3.082133 -14.552997 -29.499609 33.038102 1.362093 2.674534 0.044230 -0.011044 384560.000000 0 0 1
-2.944933 -14.157197 -28.179699 31.673242 1.365704 2.667485 0.036838 -0.013991 -20149.400000 0 0 1
-3.881933 -13.184697 -27.806149 31.017536 1.284460 2.682524 0.034998 -0.011672 -201822.000000 0 0 1
-3.849933 -12.971497 -26.290679 29.568252 1.282278 2.666286 0.042100 -0.012450 -73219.900000 0 0 1
-4.429533 -14.030997 -25.478789 29.422072 1.265002 2.617894 0.036797 -0.002606 436423.000000 0 0 1
-4.506433 -13.708997 -24.093119 28.084211 1.253203 2.601942 0.039636 -0.000839 -741157.000000 0 0 1
-5.377333 -12.615697 -23.555019 27.256383 1.167875 2.614358 0.054162 -0.009434 -1184750.000000 0 0 1
-6.735433 -12.888397 -23.685019 27.793110 1.089235 2.590954 0.042487 -0.008234 -1045100.000000 0 0 1
-7.599833 -11.848697 -23.413019 27.318831 1.000486 2.600271 0.019839 -0.008167 -332757.000000 0 0 1
-8.958133 -12.143997 -24.089319 28.425694 0.935240 2.581957 0.044495 -0.007466 -330591.000000 0 0 1
-9.679033 -13.081197 -23.337119 28.450352 0.933778 2.532688 0.038678 -0.012461 -347389.000000 0 0 1
-10.331533 -14.014197 -24.140119 29.763797 0.935525 2.516752 0.058694 -0.016560 -163072.000000 0 0 1
-11.228333 -15.118497 -23.521919 30.131795 0.931991 2.466477 0.058810 -0.026480 -516674.000000 0 0 1
-10.647933 -16.235397 -22.900119 30.023025 0.990322 2.438354 0.061986 -0.019212 -702400.000000 0 0 1
-11.532133 -16.979597 -22.102119 30.162899 0.974183 2.393163 0.066460 -0.014880 -380856.000000 0 0 1
-12.400833 -17.970797 -22.815719 31.579855 0.966776 2.378175 0.060181 -0.008621 316667.000000 0 0 1
-13.418133 -17.403197 -23.659819 32.290937 0.913980 2.393089 0.062797 -0.010626 554057.000000 0 0 1
-14.179433 -18.351297 -24.410919 33.670750 0.912946 2.381815 0.043174 -0.017042 450627.000000 0 0 1
-15.404133 -17.820997 -25.189239 34.487288 0.858012 2.389692 0.063273 -0.021035 -95973.600000 0 0 1
-16.446733 -17.314397 -24.401819 34.142820 0.811093 2.366989 0.055150 -0.017711 -201987.000000 0 0 1
-17.464833 -16.886897 -25.291509 35.069190 0.768576 2.376313 0.029982 -0.013954 -254706.000000 0 0 1
-18.273833 -15.715797 -24.794119 34.578427 0.710280 2.370343 0.043689 -0.016283 -314737.000000 0 0 1
-19.121533 -16.011297 -23.691019 34.398533 0.697100 2.330521 0.029822 -0.013054 163781.000000 0 0 1
-19.668933 -14.806497 -23.203919 33.830772 0.645282 2.326611 0.038223 -0.016564 34344.500000 0 0 1
-20.401133 -14.809597 -21.826219 33.345378 0.627911 2.284384 0.024371 -0.019050 -17850.400000 0 0 1
-19.528933 -14.902497 -20.704119 32.126690 0.651831 2.271103 0.041763 -0.016412 -118835.000000 0 0 1
-20.076933 -14.840997 -19.427519 31.634901 0.636557 2.232063 0.024733 -0.017836 -374732.000000 0 0 1
-20.670233 -13.500597 -18.932719 31.112257 0.578581 2.225002 0.026658 -0.021636 -566009.000000 0 0 1
-21.861533 -13.083197 -19.506819 32.087578 0.539284 2.224240 0.030736 -0.023637 -571182.000000 0 0 1
-22.443333 -12.071397 -18.754619 31.641074 0.493476 2.205241 0.033271 -0.018981 190788.000000 0 0 1
-23.885833 -11.674297 -19.168019 32.775527 0.454610 2.195463 0.044934 -0.017184 181541.000000 0 0 1
-24.002733 -11.097697 -20.426319 33.414437 0.433078 2.228501 0.042216 -0.025091 900472.000000 0 0 1
-25.388583 -10.763197 -20.625319 34.435888 0.400971 2.212984 0.027524 -0.020442 729355.000000 0 0 1
-25.489543 -9.692997 -21.746219 34.879350 0.363386 2.243969 0.040331 -0.019294 -44501.600000 0 0 1
-25.322233 -10.346897 -22.990319 35.732738 0.387906 2.269723 0.014271 -0.014160 84522.900000 0 0 1
-26.069763 -9.657797 -23.934619 36.684760 0.354784 2.281597 0.012772 -0.011181 -639741.000000 0 0 1
-26.159203 -10.159697 -25.405829 37.854716 0.370449 2.306542 0.021645 -0.006321 67920.600000 0 0 1
-25.041933 -10.008597 -26.259959 37.641146 0.380225 2.342894 0.007210 -0.011640 -46971.900000 0 0 1
-23.962933 -10.905597 -26.170949 37.122403 0.427089 2.353206 0.016975 -0.008966 -7401.350000 0 0 1
-22.943833 -10.628797 -27.297529 37.209487 0.433820 2.394426 0.035300 -0.014710 11273.500000 0 0 1
-23.493033 -11.068597 -28.586599 38.621627 0.440297 2.404121 0.037679 -0.003352 357836.000000 0 0 1
-22.606933 -10.779397 -29.655049 38.816115 0.444931 2.440268 0.037024 0.002407 153588.000000 0 0 1
-23.125033 -11.199397 -31.092239 40.335108 0.451007 2.450968 0.032126 -0.001929 78717.200000 0 0 1
-24.247033 -10.489497 -31.516039 41.124310 0.408298 2.443952 0.033008 -0.011024 -139644.000000 0 0 1
-23.788733 -9.454597 -32.366349 41.265891 0.378298 2.472422 0.037454 -0.016570 24799.200000 0 0 1
-24.914833 -8.565897 -32.970219 42.203778 0.331147 2.467406 0.034881 -0.013737 58935.100000 0 0 1
-25.876433 -9.085597 -33.895709 43.601112 0.337668 2.461325 0.053288 -0.023435 760886.000000 0 0 1
-26.962593 -9.808397 -33.372809 44.010572 0.348896 2.431484 0.052421 -0.021821 201277.000000 0 0 1
-27.973903 -9.133997 -32.366319 43.744117 0.315605 2.403720 0.032910 -0.006264 -539835.000000 0 0 1
-29.326263 -9.301797 -32.679339 44.883096 0.307146 2.386341 0.036606 -0.007340 -153513.000000 0 0 1
-30.175303 -8.615397 -31.763549 44.650835 0.278112 2.362251 0.043719 -0.004124 -701570.000000 0 0 1
-31.630523 -8.921997 -31.967479 45.847702 0.274926 2.342355 0.043563 -0.002221 -1027380.000000 0 0 1
-31.935013 -10.309797 -31.667589 46.140797 0.312274 2.327220 0.048964 -0.010056 612220.000000 0 0 1
-33.310983 -10.673897 -31.750429 47.240273 0.310095 2.307844 0.051150 -0.013139 224177.000000 0 0 1
-33.450733 -12.172597 -31.809249 47.738370 0.349001 2.300065 0.047386 -0.018384 -826407.000000 0 0 1
-34.737153 -12.649597 -31.613889 48.642780 0.349226 2.278275 0.035309 -0.022075 -667154.000000 0 0 1
-34.631801 -14.057597 -31.518719 48.891792 0.385596 2.271378 0.034336 -0.026461 777013.000000 0 0 1
-35.884686 -14.810797 -30.929699 49.635841 0.391435 2.243538 0.032211 -0.027250 648387.000000 0 0 1
-36.086373 -14.711197 -29.557409 48.911002 0.387098 2.219696 0.031605 -0.023323 -194894.000000 0 0 1
35.775471 -15.863297 -28.982349 48.698101 -0.417362 2.208240 0.036006 -0.018921 -19966.500000 0 0 1
35.800781 -15.874497 -27.412279 47.803019 -0.417362 2.181498 0.046207 -0.021507 285360.000000 0 0 1
-35.190047 -15.909997 -27.112059 47.186133 0.424613 2.182883 0.048715 -0.022065 352781.000000 0 0 1
-34.928718 -15.625497 -25.736139 46.114210 0.420651 2.162885 0.054279 -0.027120 609091.000000 0 0 1
-33.450693 -15.346397 -25.308019 44.664937 0.430129 2.173194 0.066681 -0.019485 690198.000000 0 0 1
-32.546243 -16.463797 -25.322579 44.402112 0.468323 2.177669 0.062969 -0.010139 -193796.000000 0 0 1
-31.276383 -15.960397 -25.011219 43.110410 0.471855 2.189730 0.071700 -0.006460 -828525.000000 0 0 1
-30.217943 -17.035597 -25.069019 42.799432 0.513344 2.196580 0.057845 -0.006092 -574381.000000 0 0 1
-30.264723 -18.084497 -24.100019 42.706129 0.538611 2.170408 0.057234 -0.009503 -77752.300000 0 0 1
-30.868293 -19.236897 -24.640919 43.932728 0.557299 2.166243 0.040369 -0.013661 -15810.100000 0 0 1
-30.580553 -20.548697 -23.814819 43.869862 0.591654 2.144625 0.035953 -0.016873 358180.000000 0 0 1
-29.304863 -21.163897 -23.947419 43.360863 0.625469 2.155895 0.032493 -0.011339 335120.000000 0 0 1
-29.224313 -22.231397 -23.053919 43.356414 0.650324 2.131439 0.026895 -0.011536 -343489.000000 0 0 1
-27.967933 -23.124197 -23.260019 43.104086 0.690877 2.140787 0.032435 -0.010378 1819480.000000 0 0 1
-26.656433 -22.535097 -22.925419 41.760877 0.701812 2.151926 0.019092 -0.014721 1717770.000000 0 0 1
-26.382143 -22.281497 -21.544419 40.701899 0.701332 2.128598 0.013447 -0.016100 -482156.000000 0 0 1
-26.303353 -23.496197 -20.641619 40.865806 0.729089 2.100303 0.018147 -0.013071 -331596.000000 0 0 1
-26.202233 -23.144797 -19.242419 39.906257 0.723519 2.073950 0.020753 -0.019431 116910.000000 0 0 1
-26.317933 -24.246797 -18.338019 40.209747 0.744461 2.044358 0.017975 0.004599 -101089.000000 0 0 1
-26.309773 -23.728197 -16.862919 39.237604 0.733852 2.015028 0.023106 0.001420 44057.700000 0 0 1
-27.478923 -23.007697 -16.526719 39.466160 0.697066 2.002872 0.028224 -0.009163 -52132.600000 0 0 1
-27.143193 -21.943997 -15.696319 38.270960 0.679874 1.993400 0.023066 -0.011491 -147334.000000 0 0 1
-28.310043 -21.181397 -15.035919 38.421205 0.642344 1.972888 0.026215 -0.005904 -491593.000000 0 0 1
-29.152693 -20.577597 -15.934619 39.079779 0.614645 1.990780 0.029696 -0.005447 -945771.000000 0 0 1
-30.335183 -20.257897 -15.278219 39.547815 0.588788 1.967438 0.039670 -0.005997 -246526.000000 0 0 1
-31.471653 -19.615097 -16.117419 40.434987 0.557349 1.980787 0.053938 -0.016146 81878.300000 0 0 1
-32.257033 -20.468197 -16.921519 41.782785 0.565426 1.987762 0.026831 -0.002801 -402775.000000 0 0 1
-33.074823 -19.656297 -17.716819 42.357994 0.536216 2.002329 0.027767 -0.008393 3194.060000 0 0 1
-33.908503 -20.565597 -18.709919 43.849646 0.545187 2.011619 0.012801 0.004228 888985.000000 0 0 1
-34.999634 -21.337497 -18.174319 44.839369 0.547484 1.988126 0.008076 0.005976 353845.000000 0 0 1
-34.706874 -22.348697 -17.210719 44.724045 0.572094 1.965809 0.011029 0.009808 187951.000000 0 0 1
-35.694654 -23.593597 -17.289519 46.148604 0.584058 1.954814 0.001402 0.024233 -328376.000000 0 0 1
35.359521 -23.356197 -16.979719 45.652147 -0.583746 1.951891 0.008276 0.015255 -1267630.000000 0 0 1
34.706641 -24.581997 -16.917219 45.771364 -0.616261 1.949378 0.006005 0.006502 -208379.000000 0 0 1
33.296241 -24.491297 -16.296119 44.430021 -0.634194 1.946344 0.016553 -0.001202 34279.100000 0 0 1
32.270551 -24.259197 -17.237619 43.897979 -0.644616 1.974334 0.028045 -0.008538 -462008.000000 0 0 1
31.020381 -24.555797 -16.666919 42.930611 -0.669599 1.969506 0.049149 -0.006834 65877.500000 0 0 1
29.857911 -24.466597 -17.685519 42.460414 -0.686479 2.000408 0.066651 -0.021442 7396.770000 0 0 1
29.574871 -23.142097 -18.117919 41.695187 -0.663974 2.020316 0.053094 -0.018958 -1096470.000000 0 0 1
28.296031 -22.984297 -18.574319 40.913917 -0.682184 2.042029 0.077877 -0.030423 -1370000.000000 0 0 1
34.432121 29.475803 -18.456819 48.939228 0.707999 1.957500 0.055322 -0.014650 -104535.000000 0 0 1
33.526811 29.572603 -19.504819 48.775238 0.722814 1.982195 0.055553 -0.030089 190105.000000 0 0 1
34.091401 28.782703 -20.549619 49.121833 0.701164 2.002413 0.055019 -0.031220 262298.000000 0 0 1
33.272291 28.987203 -21.828419 49.231932 0.716680 2.030162 0.046548 -0.032170 1570930.000000 0 0 1
31.906491 28.460303 -21.700919 47.947293 0.728373 2.040475 0.050135 -0.031619 1739420.000000 0 0 1
31.142781 28.549103 -22.888919 48.050252 0.741974 2.067299 0.061780 -0.021792 131333.000000 0 0 1
30.108201 29.685003 -22.949319 48.107945 0.778321 2.068078 0.060696 -0.016772 -149140.000000 0 0 1
30.698631 30.988303 -22.847119 49.240955 0.790094 2.053286 0.070903 -0.022838 452912.000000 0 0 1
29.632431 31.934003 -22.831019 49.184519 0.822764 2.053518 0.074542 -0.011727 -314444.000000 0 0 1
29.988781 33.333803 -22.364619 50.106343 0.838174 2.033471 0.074076 -0.011811 -27390.100000 0 0 1
30.535741 33.294903 -21.067319 49.847908 0.828598 2.007144 0.071665 -0.019517 -33311.600000 0 0 1
31.944331 33.208603 -21.025919 50.649194 0.804800 1.998880 0.061646 -0.019093 -467456.000000 0 0 1
32.498721 33.297303 -19.582319 50.481130 0.797535 1.969163 0.055320 -0.022796 -331012.000000 0 0 1
32.281821 -34.126343 -18.891319 50.632057 -0.813167 1.953155 0.049172 -0.019916 113848.000000 0 0 1
32.658361 -34.209443 -17.515519 50.434591 -0.808590 1.925478 0.037381 -0.025940 -199454.000000 0 0 1
32.502861 -32.836343 -16.800519 49.162169 -0.790502 1.919561 0.036032 -0.010805 -20507.600000 0 0 1
33.587301 -31.990243 -17.055619 49.420406 -0.761049 1.923155 0.025998 -0.010396 -406308.000000 0 0 1
34.645521 -32.125243 -16.147319 49.930745 -0.747671 1.900111 0.021472 -0.005678 94037.600000 0 0 1
35.901071 -31.234743 -16.414919 50.338312 -0.716004 1.902963 0.007077 -0.000035 198104.000000 0 0 1
-35.639893 -31.764643 -17.397919 50.812224 0.727969 1.920263 0.000215 -0.005202 169958.000000 0 0 1
-34.361054 -31.105243 -17.404819 49.509049 0.735706 1.930021 -0.015300 0.005238 663049.000000 0 0 1
-33.325113 -31.606843 -18.405119 49.480341 0.758942 1.951925 -0.008602 -0.002739 -884647.000000 0 0 1
-33.012453 -32.963843 -18.113919 50.045490 0.784661 1.941154 0.008345 -0.006555 -164543.000000 0 0 1
-32.243473 -33.604643 -19.095419 50.334368 0.806067 1.959913 0.025943 -0.001293 719194.000000 0 0 1
-30.745183 -33.206343 -19.313219 49.202926 0.823864 1.974168 0.008563 -0.000806 -612608.000000 0 0 1
-30.653463 -31.894743 -20.000519 48.548226 0.805241 1.995414 0.000339 0.002280 465304.000000 0 0 1
-29.397863 -31.501743 -20.587219 47.753825 0.819931 2.016520 0.007966 0.001088 774957.000000 0 0 1
-28.675953 -32.624343 -21.464119 48.449628 0.849720 2.029760 0.005364 0.012734 -318076.000000 0 0 1
-29.426883 -33.159943 -22.550719 49.739906 0.844974 2.041342 0.000255 0.021593 -213784.000000 0 0 1
-28.765623 -34.244343 -23.156819 50.362430 0.872130 2.048570 -0.006224 0.011457 65811.400000 0 0 1
-29.525643 33.759803 -24.369919 51.042932 -0.852204 2.068535 -0.010728 0.005836 -264479.000000 0 0 1
-30.656333 32.995103 -23.951219 51.011258 -0.822125 2.059553 -0.004201 -0.004898 -37631.500000 0 0 1
-31.141753 32.220803 -24.999219 51.312278 -0.802426 2.079674 0.001551 -0.002000 460615.000000 0 0 1
-32.010193 32.968003 -26.090809 52.841953 -0.800138 2.087195 -0.001587 -0.008278 -273532.000000 0 0 1
-31.252093 33.841103 -26.858839 53.322704 -0.825151 2.098677 -0.005990 -0.007216 -320580.000000 0 0 1
-32.152943 -34.013743 -27.628059 54.351229 0.813514 2.104034 -0.009639 -0.004608 742591.000000 0 0 1
-31.375643 -33.108343 -28.691959 53.887122 0.812262 2.132283 -0.010939 -0.005240 428442.000000 0 0 1
-31.112513 -33.742443 -29.914549 54.785228 0.825927 2.148418 -0.008866 -0.001128 225638.000000 0 0 1
-32.285793 -33.844743 -30.718939 55.959738 0.808968 2.151900 -0.003849 -0.000823 257227.000000 0 0 1
-32.147183 33.848403 -32.012279 56.603372 -0.811170 2.171901 0.011524 -0.004081 158002.000000 0 0 1
-31.382363 -34.113443 -33.030179 56.917242 0.827073 2.189917 0.017271 -0.025216 47737.900000 0 0 1
-31.544273 33.764203 -34.217775 57.497119 -0.819377 2.208213 0.020627 -0.027685 -375702.000000 0 0 1
-30.611043 34.222003 33.093173 56.598052 -0.841037 0.946280 0.031054 -0.029097 395896.000000 0 0 1
-29.265863 33.765503 33.125937 55.623085 -0.856665 0.932855 0.028051 -0.027116 306977.000000 0 0 1
-29.106603 32.409103 32.634233 54.429197 -0.839032 0.927830 0.032731 -0.029897 -998205.000000 0 0 1
-27.748113 31.836803 32.976733 53.581757 -0.853910 0.907843 0.029814 -0.025423 -995335.000000 0 0 1
-27.468473 31.680103 -34.115339 54.055548 -0.856482 2.253788 0.031418 -0.030176 586291.000000 0 0 1
-26.109523 31.372303 -33.815719 53.004070 -0.876699 2.262673 0.034873 -0.025418 268319.000000 0 0 1
-25.308913 30.160203 34.159305 52.125205 -0.872635 0.856175 0.044303 -0.023015 -532345.000000 0 0 1
-25.836473 29.087103 -33.567649 51.384530 -0.844514 2.282683 0.044335 -0.024939 242035.000000 0 0 1
-25.312183 27.842003 -33.940149 50.673637 -0.832956 2.304708 0.034047 -0.020775 -487395.000000 0 0 1
-25.211273 26.844703 -32.752239 49.284435 -0.816766 2.297695 0.053645 -0.035139 -563344.000000 0 0 1
-24.153433 27.019903 -31.839619 48.241319 -0.841355 2.291625 0.051579 -0.029039 -93043.300000 0 0 1
-24.300233 28.163903 -30.920819 48.371519 -0.858909 2.264301 0.037237 -0.024368 487515.000000 0 0 1
-23.105533 28.273503 -29.900839 47.194457 -0.885646 2.256951 0.052546 -0.023615 971404.000000 0 0 1
-21.827033 28.370903 -30.549139 47.059297 -0.915028 2.277279 0.048477 -0.024572 -41255.400000 0 0 1
-20.749233 28.176403 -29.710259 45.903593 -0.936053 2.274744 0.032885 -0.022923 -296712.000000 0 0 1
-20.308433 29.342603 -28.762419 45.833367 -0.965382 2.249190 0.032592 -0.009727 -579328.000000 0 0 1
-19.856633 30.487803 -29.472899 46.823539 -0.993509 2.251637 0.034056 -0.000157 10207.800000 0 0 1
-19.586933 31.652803 -28.669679 46.984023 -1.016664 2.227110 0.043523 -0.002124 149693.000000 0 0 1
-19.188833 32.873203 -29.560949 48.194486 -1.042431 2.231114 0.046737 0.004620 17664.200000 0 0 1
-18.097633 32.584503 -30.391669 48.092907 -1.063812 2.254846 0.053733 -0.003411 -470001.000000 0 0 1
-17.767533 33.592503 -31.334489 49.254357 -1.084286 2.260329 0.053588 -0.000043 -172365.000000 0 0 1
-16.277033 33.743203 -31.655989 49.047397 -1.121344 2.272364 0.051244 0.006610 -525036.000000 0 0 1
-15.537333 -34.253743 -30.613249 48.496378 1.144957 2.253958 0.061722 -0.001565 1371800.000000 0 0 1
-14.118233 -34.028743 -30.858229 48.057363 1.177519 2.268047 0.065479 -0.001437 2251670.000000 0 0 1
-13.198633 33.290703 -30.872099 47.281723 -1.193340 2.282255 0.072709 -0.014023 -268542.000000 0 0 1
-13.131233 32.661803 -29.643189 46.021096 -1.188536 2.270671 0.085290 -0.022534 -88411.800000 0 0 1
-12.503433 31.396103 -29.667259 44.968849 -1.191801 2.291255 0.079428 -0.021348 -65738.900000 0 0 1
-12.530833 30.661703 -28.328499 43.585154 -1.182829 2.278325 0.066140 -0.029178 -53910.900000 0 0 1
-11.500033 31.148303 -27.489779 43.106328 -1.217118 2.262331 0.071388 -0.018068 -149229.000000 0 0 1
-11.518233 30.669603 -26.162609 41.925843 -1.211536 2.244674 0.057491 -0.018779 549161.000000 0 0 1
-10.245833 31.059003 -25.329829 41.367125 -1.252154 2.229785 0.058748 -0.020486 1457180.000000 0 0 1
-9.041133 30.438003 -25.823059 40.927307 -1.282063 2.253573 0.060297 -0.017556 766591.000000 0 0 1
-7.904533 30.827403 -25.028519 40.487494 -1.319791 2.237220 0.058049 -0.017852 -595809.000000 0 0 1
-6.642433 30.191803 -25.458189 40.047300 -1.354239 2.259715 0.046520 -0.023860 -1580170.000000 0 0 1
-6.644433 28.775103 -25.307669 38.892585 -1.343865 2.279311 0.035761 -0.033853 -485149.000000 0 0 1
-5.562933 28.294603 -26.075219 38.877343 -1.376665 2.305955 0.029688 -0.044873 -274724.000000 0 0 1
-4.909233 27.110703 -25.390689 37.467024 -1.391657 2.315401 0.043663 -0.028605 -576486.000000 0 0 1
-5.780333 26.015503 -25.312279 36.755001 -1.352160 2.330457 0.053938 -0.026028 -340928.000000 0 0 1
-5.358233 24.936103 -24.491519 35.360351 -1.359136 2.335921 0.054730 -0.038149 -29215.400000 0 0 1
-6.293033 23.665603 -24.585819 34.700512 -1.310896 2.358187 0.050040 -0.036002 357270.000000 0 0 1
-6.176433 22.905203 -25.742929 35.007071 -1.307409 2.397000 0.052977 -0.031569 -615038.000000 0 0 1
-7.142833 21.934303 -25.722049 34.550796 -1.255980 2.410538 0.043001 -0.030810 -863369.000000 0 0 1
-7.155433 21.028803 -26.961759 34.933468 -1.242817 2.452468 0.021689 -0.024104 911416.000000 0 0 1
-5.943733 20.252203 -27.166449 34.401971 -1.285327 2.481079 0.042230 -0.041044 412557.000000 0 0 1
-5.785333 19.116903 -26.286199 33.013487 -1.276929 2.491828 0.037646 -0.034141 -436676.000000 0 0 1
-4.608833 18.218203 -26.676369 32.630858 -1.323015 2.527887 0.052698 -0.044446 -208632.000000 0 0 1
-4.670033 17.721703 -27.974779 33.443328 -1.313133 2.561630 0.034219 -0.046733 -884292.000000 0 0 1
-3.788533 16.640503 -28.112509 32.887269 -1.346943 2.595989 0.043621 -0.045753 -296575.000000 0 0 1
-3.378133 16.303103 -29.565219 33.930887 -1.366480 2.628716 0.040511 -0.043327 607096.000000 0 0 1
-2.396933 17.281503 -30.023749 34.724935 -1.432976 2.615183 0.045261 -0.046833 663837.000000 0 0 1
-2.081333 17.041703 -31.358769 35.750860 -1.449266 2.640685 0.036166 -0.050705 -108800.000000 0 0 1
-1.392233 18.323103 -31.912199 36.824759 -1.494960 2.619137 0.043823 -0.026636 -172677.000000 0 0 1
-0.200833 18.536903 -31.192569 36.285444 -1.559963 2.605369 0.073615 -0.036093 -446548.000000 0 0 1
0.477767 19.665003 -31.690719 37.299360 1.546506 2.586083 0.087817 -0.012509 269140.000000 0 0 1
0.215767 20.992803 -30.849479 37.315341 1.560519 2.544056 0.082190 -0.016772 308288.000000 0 0 1
1.135167 21.031003 -29.760419 36.459213 1.516873 2.525714 0.100900 -0.047365 6995.450000 0 0 1
0.948467 22.213803 -28.998669 36.541421 1.528125 2.487472 0.098807 -0.048023 -348525.000000 0 0 1
2.086167 22.402303 -28.017909 35.933529 1.477941 2.465007 0.113144 -0.043217 152913.000000 0 0 1
3.324567 22.535103 -28.737479 36.670510 1.424325 2.471344 0.095401 -0.041207 915170.000000 0 0 1
4.468867 22.546403 -27.850529 36.110428 1.375125 2.451615 0.098359 -0.042606 799920.000000 0 0 1
4.960767 23.997203 -27.445779 36.793284 1.366945 2.412749 0.102161 -0.043496 -279408.000000 0 0 1
5.860867 24.535403 -28.395069 37.981781 1.336316 2.415233 0.092989 -0.045550 111623.000000 0 0 1
6.238067 25.842203 -28.020079 38.624574 1.333937 2.382480 0.074380 -0.041318 -138428.000000 0 0 1
6.987167 26.547603 -29.147969 40.039978 1.313439 2.386155 0.064678 -0.032633 -49991.800000 0 0 1
8.365867 26.258003 -29.173719 40.131986 1.262362 2.384658 0.059563 -0.030754 26504.200000 0 0 1
9.083867 27.078803 -30.090279 41.487385 1.247133 2.382248 0.065928 -0.026214 -153557.000000 0 0 1
10.589367 27.173103 -29.833489 41.719891 1.199200 2.367550 0.056465 -0.028290 -542465.000000 0 0 1
11.151867 28.193803 -30.576319 43.060027 1.194138 2.360417 0.054001 -0.018882 -282492.000000 0 0 1
12.516567 28.324703 -30.226929 43.273785 1.154702 2.344102 0.047246 -0.025855 87219.400000 0 0 1
13.228767 29.467003 -31.016089 44.780602 1.148828 2.335916 0.059922 -0.020401 -130331.000000 0 0 1
12.742067 30.776103 -30.838709 45.393334 1.178258 2.317695 0.060207 -0.015012 35383.200000 0 0 1
13.532867 31.738003 -31.511659 46.727122 1.167746 2.310916 0.078420 -0.021194 -190421.000000 0 0 1
12.934067 33.140003 -31.621599 47.597010 1.198692 2.297435 0.075015 -0.025497 -223032.000000 0 0 1
12.005067 33.131403 -32.680429 48.060607 1.223165 2.318537 0.064594 -0.022866 100326.000000 0 0 1
11.002667 34.126303 -32.472109 48.374591 1.258909 2.306709 0.057023 -0.014548 -52333.200000 0 0 1
9.908167 34.105103 -33.537639 48.847754 1.288061 2.327564 0.046705 -0.011048 -334749.000000 0 0 1
10.325867 -33.877543 33.719205 48.900882 -1.274942 0.809940 0.041176 -0.004643 680858.000000 0 0 1
9.238167 -33.703943 32.784127 47.917622 -1.303269 0.817322 0.051868 -0.016223 624747.000000 0 0 1
9.629367 -32.794443 31.580051 46.534931 -1.285196 0.824899 0.052157 -0.008970 -10452.100000 0 0 1
9.517467 -31.393043 31.849291 45.721796 -1.276433 0.800164 0.042294 -0.007210 -111167.000000 0 0 1
9.918067 -30.601043 30.743991 44.497021 -1.257371 0.808032 0.046182 -0.010155 -823661.000000 0 0 1
9.276567 -29.172043 30.827061 43.443877 -1.262913 0.781889 0.041011 -0.021041 358226.000000 0 0 1
7.888967 -29.155543 30.528691 42.945110 -1.306542 0.780052 0.046869 -0.013827 201288.000000 0 0 1
7.183767 -29.446543 31.733081 43.882728 -1.331511 0.762468 0.049675 0.000243 -395885.000000 0 0 1
5.649767 -29.148643 31.898941 43.578730 -1.379344 0.749567 0.052972 -0.009993 694982.000000 0 0 1
4.767667 -30.048843 31.276521 43.633523 -1.413444 0.771594 0.061150 -0.012348 -88592.900000 0 0 1
4.858367 -30.408143 29.863241 42.896061 -1.412363 0.800738 0.068408 -0.019446 -671844.000000 0 0 1
4.375867 -29.277643 28.893521 41.366220 -1.422434 0.797524 0.051190 -0.030596 363882.000000 0 0 1
2.966667 -29.026743 29.001411 41.139212 -1.468945 0.788433 0.057281 -0.029513 843734.000000 0 0 1
2.538967 -28.376343 27.801311 39.806734 -1.481559 0.797627 0.053495 -0.035082 -186787.000000 0 0 1
1.112267 -28.743643 27.352951 39.694056 -1.532120 0.810558 0.046216 -0.037994 -84618.100000 0 0 1
1.045167 -30.078843 26.812661 40.308162 -1.536063 0.843046 0.051640 -0.033179 135612.000000 0 0 1
0.749167 -31.036643 27.787751 41.665256 -1.546663 0.840717 0.074234 -0.034554 -493780.000000 0 0 1
1.220667 -32.427743 27.360711 42.445931 -1.533171 0.870294 0.062638 -0.028389 339221.000000 0 0 1
2.640067 -32.461643 27.262241 42.473027 -1.489646 0.873859 0.049915 -0.025089 564201.000000 0 0 1
3.146867 -32.555543 25.895201 41.717234 -1.474434 0.901121 0.046664 -0.034120 289987.000000 0 0 1
4.685667 -32.394343 25.935731 41.761359 -1.427148 0.900720 0.058257 -0.018661 74998.200000 0 0 1
5.316967 -32.054143 24.733751 40.834993 -1.406418 0.920151 0.049827 -0.034837 -45249.500000 0 0 1
6.676567 -31.764843 24.992121 40.965692 -1.363625 0.914642 0.060353 -0.034700 -35601.200000 0 0 1
7.511467 -31.508543 23.699301 40.135611 -1.336770 0.939142 0.049509 -0.025519 -857027.000000 0 0 1
8.814467 -31.138543 23.962301 40.267798 -1.294941 0.933439 0.044246 -0.016231 -903831.000000 0 0 1
9.530067 -30.996843 22.757851 39.617499 -1.272516 0.958877 0.044030 -0.013072 -234631.000000 0 0 1
10.751367 -30.089943 22.918851 39.322643 -1.227626 0.948576 0.038740 -0.014429 222340.000000 0 0 1
11.854467 -30.685743 23.617411 40.495991 -1.202140 0.948129 0.045356 -0.012007 154379.000000 0 0 1
12.957167 -29.815943 23.588921 40.166103 -1.160846 0.943097 0.063310 -0.012999 -38669.900000 0 0 1
14.261967 -30.325243 24.247711 41.363940 -1.131190 0.944431 0.060529 -0.012019 -103210.000000 0 0 1
14.351667 -30.495443 25.672611 42.367739 -1.130930 0.919840 0.052603 -0.016705 -37670.100000 0 0 1
14.415567 -29.278043 26.391411 41.970453 -1.113273 0.890775 0.048105 -0.016037 -194659.000000 0 0 1
-11.074833 -13.656097 25.569261 31.031081 0.889396 0.602381 0.049104 -0.019077 -905552.000000 0 0 1
-9.754533 -13.968497 25.336011 30.531676 0.961196 0.591999 0.043563 -0.025081 -1378850.000000 0 0 1
-9.102433 -14.452097 26.457921 31.491887 1.008728 0.573236 0.043713 -0.023900 -56136.200000 0 0 1
-7.580033 -14.250497 26.294371 30.853322 1.081945 0.550548 0.059141 -0.025447 50327.200000 0 0 1
-6.811333 -15.207397 25.596111 30.542103 1.149693 0.577079 0.056647 -0.024187 180073.000000 0 0 1
-6.837733 -15.076197 24.167021 29.293194 1.144998 0.600586 0.059091 -0.025074 -474455.000000 0 0 1
-6.131433 -16.209297 23.452291 29.160688 1.209165 0.636395 0.047611 -0.026624 -97639.900000 0 0 1
-6.827333 -17.446297 23.381801 29.961548 1.197783 0.675501 0.056287 -0.021239 -298821.000000 0 0 1
-7.044733 -18.207797 24.554511 31.369988 1.201627 0.671742 0.058146 -0.017338 -234191.000000 0 0 1
-7.659533 -19.637197 24.216781 32.105146 1.198895 0.716215 0.053000 -0.012037 -82743.100000 0 0 1
-8.965133 -19.524897 23.714321 31.999441 1.140348 0.736111 0.039297 -0.012988 -504831.000000 0 0 1
-9.473233 -20.814197 23.350451 32.683581 1.143682 0.774973 0.026814 -0.012388 -824767.000000 0 0 1
-10.967533 -21.008097 23.380611 33.290838 1.089655 0.792154 0.016726 -0.009929 -965612.000000 0 0 1
-11.398833 -20.978797 24.710771 34.360813 1.073073 0.768210 0.022444 -0.011129 1059130.000000 0 0 1
-12.835333 -21.160297 24.813611 35.045959 1.025555 0.784091 0.026938 -0.008162 1188590.000000 0 0 1
-13.324133 -21.121497 26.259531 36.238282 1.008014 0.760292 0.030266 -0.017993 -944345.000000 0 0 1
-13.022933 -22.309997 26.989871 37.360218 1.042429 0.763497 0.036563 -0.010476 -298086.000000 0 0 1
-12.134333 -21.992797 28.026511 37.635229 1.066617 0.730729 0.037018 -0.010915 -137138.000000 0 0 1
-11.746533 -23.202297 28.939441 38.907825 1.102149 0.732066 0.032596 -0.011018 -679663.000000 0 0 1
-12.771533 -23.678697 29.733461 40.098272 1.076152 0.735471 0.042602 -0.008932 -644209.000000 0 0 1
-12.474033 -24.972397 30.221201 41.140528 1.107539 0.745742 0.028323 -0.002996 -193049.000000 0 0 1
-13.619533 -25.524377 31.083881 42.464022 1.080640 0.749536 0.030017 -0.010245 -120785.000000 0 0 1
-13.741333 -24.688197 32.228631 42.860424 1.062904 0.719791 0.046700 -0.015544 -276017.000000 0 0 1
-14.690233 -25.151247 33.161963 44.137330 1.042168 0.720712 0.048807 -0.019354 -211546.000000 0 0 1
-14.528633 -24.537297 -33.831619 44.246340 1.036203 2.441247 0.043090 -0.022990 25300.600000 0 0 1
-14.694433 -23.148697 -33.596579 43.364947 1.005192 2.457101 0.050431 -0.021385 -148099.000000 0 0 1
-15.950733 -22.616797 -33.940989 43.794248 0.956549 2.457528 0.052127 -0.027607 -536372.000000 0 0 1
-15.973133 -21.062497 -33.660459 42.799489 0.921961 2.475867 0.047778 -0.034876 -65126.000000 0 0 1
-16.061533 -20.823297 -32.292119 41.645690 0.913786 2.458147 0.048207 -0.033691 233678.000000 0 0 1
-16.526433 -19.488797 -32.124739 41.047960 0.867466 2.469651 0.040132 -0.028114 -169366.000000 0 0 1
-16.538833 -19.222497 -30.612059 39.750919 0.860301 2.449789 0.040721 -0.024995 516801.000000 0 0 1
-17.675333 -19.761797 -29.916329 39.974151 0.841073 2.416430 0.039466 -0.020268 576011.000000 0 0 1
-17.485233 -19.723697 -28.521969 38.836327 0.845485 2.395600 0.036918 -0.008984 -311373.000000 0 0 1
-16.552333 -20.749797 -27.855199 38.476563 0.897453 2.380311 0.032285 -0.012812 40960.100000 0 0 1
-15.190433 -20.346597 -27.867239 37.700348 0.929485 2.402644 0.039460 -0.015167 -58558.200000 0 0 1
-14.435133 -21.473797 -27.486409 37.749168 0.978958 2.386390 0.046317 -0.016297 -750083.000000 0 0 1
-12.939033 -21.403997 -27.690659 37.313835 1.027064 2.406997 0.082588 -0.014296 -807033.000000 0 0 1
-12.292933 -20.433197 -26.864119 35.920922 1.029190 2.415641 0.084279 -0.020131 -119087.000000 0 0 1
-10.892933 -20.355697 -26.906889 35.454070 1.079442 2.432453 0.069156 -0.022188 62115.900000 0 0 1
-10.135933 -21.357097 -26.004179 35.143706 1.127680 2.403775 0.080490 -0.018682 -452137.000000 0 0 1
-10.108133 -22.661597 -26.582549 36.364189 1.151235 2.390596 0.078563 -0.015511 173075.000000 0 0 1
-9.782733 -23.659897 -25.610489 36.213115 1.178729 2.356349 0.085875 -0.017859 -81344.900000 0 0 1
-9.865733 -25.120467 -26.120889 37.558906 1.196567 2.339863 0.082272 -0.020644 -427082.000000 0 0 1
-8.790333 -25.452377 -26.957899 38.102779 1.238258 2.356758 0.076753 -0.019578 -29711.600000 0 0 1
-8.911833 -26.740417 -27.603919 39.451831 1.249101 2.345755 0.068568 -0.011580 -179489.000000 0 0 1
-8.873833 -28.111147 -26.791909 39.834506 1.265027 2.308487 0.081888 -0.011311 -378098.000000 0 0 1
-9.897133 -28.314657 -25.859599 39.602928 1.234530 2.282298 0.077767 -0.016549 -75278.000000 0 0 1
-9.665133 -29.488227 -25.139019 39.936707 1.254068 2.251669 0.097610 -0.020293 56412.700000 0 0 1
-10.625733 -29.589407 -23.905519 39.495735 1.226032 2.220899 0.106818 -0.026086 33169.000000 0 0 1
-10.497133 -28.642307 -22.852219 38.115554 1.219507 2.213736 0.098050 -0.031666 -106590.000000 0 0 1
-11.100433 -27.396537 -23.139319 37.539552 1.185835 2.234957 0.101701 -0.028781 -154543.000000 0 0 1
-10.832733 -26.143317 -22.140319 35.930695 1.177973 2.234699 0.109285 -0.028509 -15545.500000 0 0 1
-11.343833 -26.406947 -20.869719 35.518369 1.165055 2.198855 0.088134 -0.024614 70498.900000 0 0 1
-11.777033 -25.256257 -20.200019 34.418277 1.134469 2.198019 0.068444 -0.012308 -134452.000000 0 0 1
-12.471533 -25.487207 -18.872419 34.077926 1.115725 2.157720 0.077243 -0.014831 299114.000000 0 0 1
-13.792433 -26.018987 -18.914819 34.999847 1.083367 2.141739 0.097389 -0.019398 305137.000000 0 0 1
-14.120933 -26.483917 -17.619419 34.802910 1.080951 2.101642 0.091638 -0.017217 -35979.000000 0 0 1
-15.619233 -26.762877 -17.368219 35.522768 1.042511 2.081661 0.091845 -0.022682 -735807.000000 0 0 1
-16.402533 -25.563457 -17.240419 34.925141 1.000321 2.087066 0.082699 -0.015723 -483988.000000 0 0 1
-17.618733 -25.736097 -16.583419 35.323876 0.970486 2.059484 0.088664 -0.012885 -176321.000000 0 0 1
-18.685433 -26.333157 -17.583619 36.766346 0.953671 2.069461 0.083570 -0.007182 -1183010.000000 0 0 1
-18.730233 -27.713987 -17.983419 37.977494 0.976470 2.064089 0.094601 -0.019655 -113264.000000 0 0 1
-18.941033 -28.611387 -16.921319 38.258401 0.986024 2.028947 0.087976 -0.026262 1871080.000000 0 0 1
-20.487833 -29.036797 -16.668019 39.251876 0.956334 2.009363 0.079047 -0.019070 2279440.000000 0 0 1
-20.975433 -29.881577 -17.714319 40.579238 0.958761 2.022542 0.068626 -0.009963 -379432.000000 0 0 1
-22.243133 -30.394507 -17.427719 41.500704 0.939036 2.004173 0.059482 -0.010432 5967.520000 0 0 1
-22.875233 -31.266397 -18.575419 42.964056 0.939160 2.017891 0.036933 -0.009134 -20942.300000 0 0 1
-22.330033 -32.577367 -18.492019 43.610434 0.969905 2.008684 0.044799 -0.012359 197561.000000 0 0 1
-22.692333 -33.377127 -19.599019 44.867540 0.973704 2.022856 0.025589 0.005837 -268567.000000 0 0 1
-22.075533 33.836492 -19.684019 44.941050 -0.992723 2.024165 0.025959 0.001623 -364071.000000 0 0 1
-22.813633 32.871967 -18.984819 44.288277 -0.964099 2.013811 0.017320 0.000742 56495.900000 0 0 1
-21.998933 31.718589 -18.699719 42.891741 -0.964402 2.021917 0.021139 -0.004832 -26795.000000 0 0 1
-22.738033 30.483239 -18.208019 42.163705 -0.929912 2.017329 0.026605 -0.021201 -460663.000000 0 0 1
-23.363233 30.674119 -16.987019 42.134322 -0.919875 1.985767 0.019533 -0.026103 -239866.000000 0 0 1
-24.073433 29.526599 -16.517819 41.523350 -0.886787 1.979910 0.025535 -0.019268 42386.500000 0 0 1
-23.243933 28.235569 -16.170019 39.987465 -0.882060 1.987094 0.028944 -0.025601 -35226.000000 0 0 1
-22.711533 27.616799 -17.300319 39.721561 -0.882557 2.021434 0.018285 -0.023479 -254942.000000 0 0 1
-21.851733 26.556559 -17.004519 38.365385 -0.882284 2.029990 0.022997 -0.023948 -289341.000000 0 0 1
-21.201833 25.946289 -18.258519 38.158894 -0.885689 2.069727 0.039688 -0.020886 -1115010.000000 0 0 1
-20.854833 24.604089 -18.123319 36.996486 -0.867688 2.082732 0.038955 -0.023226 -181201.000000 0 0 1
-20.231133 24.076919 -19.253319 36.873935 -0.871978 2.120153 0.038966 -0.013290 970508.000000 0 0 1
-18.733833 24.570149 -19.431919 36.499976 -0.919366 2.132208 0.031917 -0.016047 476839.000000 0 0 1
-17.839533 24.040079 -18.400619 35.139111 -0.932387 2.121927 0.050414 -0.018915 868191.000000 0 0 1
-16.497633 24.472259 -18.446119 34.804061 -0.977640 2.129396 0.076441 -0.030379 -343783.000000 0 0 1
-16.242833 25.781519 -17.690619 35.234562 -1.008596 2.096800 0.076450 -0.028156 -186805.000000 0 0 1
-17.149933 26.790339 -18.164819 36.630631 -1.001374 2.089657 0.060721 -0.028472 263144.000000 0 0 1
-17.084333 27.963439 -17.357519 37.082500 -1.022362 2.057911 0.074935 -0.040615 418205.000000 0 0 1
-18.359833 28.881039 -17.518219 38.445883 -1.004536 2.043909 0.075855 -0.030963 742113.000000 0 0 1
-18.654633 29.527839 -18.716819 39.625849 -1.007348 2.062738 0.080964 -0.028518 101893.000000 0 0 1
-19.023733 28.740379 -19.859519 39.778290 -0.986089 2.093535 0.054868 -0.021864 -232469.000000 0 0 1
-18.943033 29.516159 -21.231719 40.997903 -1.000218 2.115159 0.061774 -0.028499 -53545.400000 0 0 1
-19.962933 30.463559 -21.375819 42.231183 -0.990701 2.101525 0.059159 -0.025121 -70425.300000 0 0 1
-19.879333 30.952809 -22.695219 43.224267 -0.999891 2.123579 0.064622 -0.023439 86693.800000 0 0 1
-20.925333 31.975519 -23.148019 44.678118 -0.991322 2.115432 0.054762 -0.013203 -262311.000000 0 0 1
-20.504933 33.240526 -22.616419 45.131888 -1.018068 2.095687 0.036358 -0.008076 322196.000000 0 0 1
-20.851833 -34.267392 -23.401519 46.440114 1.024148 2.098913 0.051081 0.006154 446569.000000 0 0 1
-19.715933 -33.149707 -23.225519 45.022726 1.034243 2.112810 0.060281 0.005496 935703.000000 0 0 1
-19.698833 -32.348277 -22.064719 43.832715 1.023814 2.098308 0.072565 0.003301 184475.000000 0 0 1
-18.924233 -32.940687 -21.018119 43.416319 1.049342 2.076138 0.082546 -0.009062 -146534.000000 0 0 1
-18.453133 -31.831047 -20.042619 41.897974 1.045421 2.069591 0.087161 -0.020289 229427.000000 0 0 1
-17.366133 -31.071287 -20.561519 41.106977 1.061136 2.094621 0.094240 -0.017372 220288.000000 0 0 1
-16.986233 -29.999887 -19.720619 39.716850 1.055593 2.090393 0.096671 -0.021822 -818027.000000 0 0 1
-15.761733 -29.283997 -20.224019 38.922945 1.077029 2.117169 0.109521 -0.030489 -1454080.000000 0 0 1
-14.607433 -29.958147 -19.891919 38.814380 1.117122 2.108876 0.116187 -0.029047 -2083190.000000 0 0 1
-13.542033 -29.199857 -20.242419 38.023333 1.136550 2.132192 0.098883 -0.031527 -1350950.000000 0 0 1
-12.200933 -29.988367 -20.457919 38.297407 1.184394 2.134340 0.109169 -0.033908 645745.000000 0 0 1
-11.630933 -30.560217 -19.257619 37.948140 1.207133 2.103045 0.093487 -0.033384 269316.000000 0 0 1
-11.174633 -29.568407 -18.325419 36.537434 1.209464 2.096188 0.061839 -0.033895 -724844.000000 0 0 1
-10.241933 -30.236347 -17.283319 36.302162 1.244197 2.067006 0.054080 -0.020599 129266.000000 0 0 1
-10.888333 -31.008787 -16.224019 36.651323 1.233109 2.029358 0.076061 -0.030547 69010.500000 0 0 1
-11.286933 -32.290987 -16.631719 38.035730 1.234533 2.023352 0.087280 -0.025387 -141156.000000 0 0 1
-12.312533 -32.790057 -15.563219 38.327537 1.211591 1.988933 0.091481 -0.033641 -90108.000000 0 0 1
-11.866733 -33.058057 -14.219519 37.892601 1.226156 1.955472 0.080740 -0.027828 -59127.800000 0 0 1
-12.950933 -33.311537 -13.328419 38.144881 1.199998 1.927744 0.079420 -0.023477 -42164.800000 0 0 1
-12.589733 -33.807397 -11.935719 37.998722 1.214311 1.890314 0.065437 -0.020121 -178463.000000 0 0 1
-11.931333 -32.851827 -11.166119 36.691708 1.222423 1.880024 0.055267 -0.018316 -95323.300000 0 0 1
-11.736233 -33.249877 -9.822019 36.602808 1.231477 1.842466 0.059836 -0.020916 679273.000000 0 0 1
-10.407833 -32.573457 -9.231519 35.419967 1.261530 1.834471 0.046076 -0.019233 1271950.000000 0 0 1
-9.289133 -33.313017 -9.763719 35.935711 1.298860 1.845955 0.032723 -0.012863 -421530.000000 0 0 1
-8.157133 -32.699727 -9.186719 34.931458 1.326330 1.836919 0.017529 -0.016050 -459225.000000 0 0 1
-6.882233 -33.165907 -9.902519 35.290259 1.366191 1.855218 0.024185 -0.020375 -175160.000000 0 0 1
-6.492633 34.104978 -9.517019 35.998298 -1.382675 1.838351 0.010283 -0.011985 -174349.000000 0 0 1
-5.245933 33.805704 -10.114419 35.674177 -1.416845 1.858261 0.018380 -0.013011 135400.000000 0 0 1
-4.578433 32.565770 -9.480719 34.225363 -1.431121 1.851476 0.023671 -0.019772 -9942.300000 0 0 1
-4.202533 32.921188 -8.193419 34.184763 -1.443829 1.812833 0.020592 -0.025632 -405725.000000 0 0 1
-3.395233 31.958089 -7.573519 33.018257 -1.464953 1.802230 0.031578 -0.030782 -183308.000000 0 0 1
-2.911233 32.455749 -6.196819 33.170039 -1.481337 1.758720 0.038302 -0.026492 -455643.000000 0 0 1
-2.059733 33.581780 -6.325919 34.234423 -1.509538 1.756647 0.027691 -0.021475 -112264.000000 0 0 1
-1.555933 34.146832 -5.168019 34.570732 -1.525262 1.720850 0.031178 -0.022889 544189.000000 0 0 1
-0.493233 33.368355 -4.294619 33.647201 -1.556016 1.698782 0.042958 -0.023922 -434683.000000 0 0 1
0.815567 33.460085 -4.741919 33.804264 1.546427 1.711536 0.040561 -0.022665 -773566.000000 0 0 1
1.678867 32.664226 -3.954019 32.945478 1.519444 1.691103 0.035788 -0.023074 1000760.000000 0 0 1
3.198567 32.693610 -4.351819 33.136706 1.473272 1.702506 0.037554 -0.014930 858478.000000 0 0 1
3.793967 33.927210 -4.099219 34.383912 1.459432 1.690300 0.039420 -0.010368 -134253.000000 0 0 1
5.193267 33.914050 -4.320019 34.580275 1.418846 1.696051 0.053906 -0.011222 678184.000000 0 0 1
5.985967 -33.395557 -3.893619 34.150480 -1.393435 1.685058 0.045111 -0.006673 387787.000000 0 0 1
5.760067 -32.289687 -4.760519 33.143096 -1.394266 1.714930 0.046184 -0.006963 -118002.000000 0 0 1
6.049867 -31.071577 -4.054519 31.913679 -1.378495 1.698187 0.043099 -0.010004 118610.000000 0 0 1
6.011867 -29.762787 -4.876719 30.753023 -1.371485 1.730045 0.042911 -0.004991 231563.000000 0 0 1
7.094467 -29.601167 -5.788319 30.984919 -1.335565 1.758711 0.063998 -0.005081 194659.000000 0 0 1
6.802867 -28.449187 -6.592619 29.984961 -1.336080 1.792472 0.066683 -0.006381 271911.000000 0 0 1
7.102167 -27.059457 -5.967019 28.605249 -1.314121 1.780938 0.065307 -0.004694 375348.000000 0 0 1
6.148867 -26.521327 -5.041519 27.687655 -1.342975 1.753903 0.046148 -0.002353 -231977.000000 0 0 1
6.656367 -25.459897 -4.265819 26.659159 -1.315075 1.731500 0.044892 -0.012448 -368451.000000 0 0 1
5.688367 -24.975797 -3.180619 25.812096 -1.346861 1.694332 0.042583 -0.013328 -410390.000000 0 0 1
4.617667 -24.334897 -3.813519 25.060985 -1.383271 1.723559 0.042338 -0.014675 -659250.000000 0 0 1
3.801967 -23.709297 -2.815219 24.176666 -1.411792 1.687505 0.038102 -0.014764 412858.000000 0 1 0
2.550667 -23.040997 -3.464419 23.439190 -1.460544 1.719144 0.039040 -0.016232 392367.000000 0 1 0
1.658067 -24.030097 -3.953519 24.409528 -1.501906 1.733479 0.034263 -0.008808 -409025.000000 0 1 0
0.461967 -23.395197 -4.366819 23.803734 -1.551053 1.755292 0.017534 -0.004114 67564.400000 0 1 0
-14.934433 23.587703 18.067351 33.254266 -1.006361 0.996422 0.000279 -0.015142 -114592.000000 0 0 1
-15.425533 23.095603 19.307651 33.825129 -0.981941 0.963307 0.001847 -0.001582 479104.000000 0 0 1
-15.038133 24.006903 20.369351 34.891077 -1.011185 0.947397 0.002197 -0.009234 -959070.000000 0 0 1
-15.037533 23.286703 21.743851 35.230569 -0.997410 0.905634 0.028608 -0.020992 -1273580.000000 0 0 1
-14.106633 22.278403 22.031351 34.361385 -1.006324 0.874780 0.015498 -0.014345 -399393.000000 0 0 1
-12.768533 22.694203 21.993851 34.085066 -1.058305 0.869428 0.004524 -0.017785 -785979.000000 0 0 1
-12.320833 23.687203 23.091351 35.300099 -1.091161 0.857746 0.018960 -0.009318 -1286040.000000 0 0 1
-12.098033 23.179903 24.323471 35.711364 -1.089768 0.821515 0.001508 0.000287 124075.000000 0 0 1
-12.002233 24.197303 25.305931 37.012879 -1.110342 0.817967 0.026371 -0.008159 -324036.000000 0 0 1
-11.523933 23.798503 26.697251 37.575430 -1.119845 0.780591 0.012712 -0.008098 -1282310.000000 0 0 1
-10.201733 23.447203 26.608151 36.903121 -1.160407 0.765513 -0.023237 0.005009 -1413240.000000 0 0 1
-9.810033 22.785303 27.794831 37.255327 -1.164241 0.728666 -0.039809 0.011805 -89601.200000 0 0 1
-8.294333 22.371203 27.765811 36.608837 -1.215749 0.709872 -0.032369 0.003163 1080420.000000 0 0 1
-7.339233 23.359103 28.131501 37.294683 -1.266371 0.716204 -0.028942 0.008894 240663.000000 0 0 1
-7.245333 24.418503 27.275501 37.319044 -1.282356 0.751195 -0.023760 0.006230 -1103230.000000 0 0 1
-6.220333 25.512803 27.701501 38.170261 -1.331650 0.758694 -0.025972 -0.000923 257186.000000 0 0 1
-4.909533 25.007003 27.483371 37.480520 -1.376936 0.747676 -0.017447 0.001383 286277.000000 0 0 1
-3.938533 25.955703 27.962221 38.354874 -1.420205 0.753879 -0.008373 0.004167 96478.200000 0 0 1
-2.506633 25.398003 27.969921 37.863679 -1.472421 0.739656 -0.002420 0.004542 -282272.000000 0 0 1
-2.069133 25.322203 26.610871 36.791761 -1.489265 0.762251 -0.002630 -0.001855 806403.000000 0 0 1
-0.657933 25.007703 26.671431 36.567517 -1.544493 0.753388 0.011758 0.004795 1247570.000000 0 0 1
-0.005433 24.725803 25.306071 35.380257 -1.570577 0.773801 0.011150 -0.003399 -166439.000000 0 0 1
-0.442933 23.531403 24.767981 34.166884 -1.551975 0.759890 0.007301 0.000124 -41740.100000 0 0 1
-0.130833 23.439503 23.400891 33.121430 -1.565215 0.786230 0.008268 0.004079 16579.500000 0 0 1
-0.678633 22.084003 22.839451 31.777417 -1.540076 0.768819 0.010104 0.004651 372929.000000 0 0 1
0.082367 20.984103 23.323651 31.374066 1.566871 0.732649 0.014342 0.002663 254393.000000 0 0 1
-0.265733 19.836003 22.554651 30.037475 -1.557401 0.721397 0.020827 -0.002170 -700247.000000 0 0 1
0.627867 18.678203 22.791151 29.473819 1.537194 0.686818 0.024638 0.005167 -793862.000000 0 0 1
1.935067 18.891803 22.341151 29.321864 1.468723 0.704511 0.026954 0.000297 -818312.000000 0 0 1
2.736467 17.781903 22.436751 28.759209 1.418104 0.675877 0.016621 -0.001352 516319.000000 0 0 1
4.174867 18.006103 21.825051 28.600386 1.342964 0.702695 0.026733 -0.002266 845325.000000 0 0 1
5.060067 18.786703 22.582651 29.808062 1.307697 0.711165 0.025897 0.003982 -511474.000000 0 0 1
6.264767 18.991403 21.881451 29.643188 1.252163 0.740456 0.043602 -0.006546 23825.400000 0 0 1
7.416567 19.546603 22.780551 30.919713 1.208148 0.742524 0.054109 -0.011987 -241442.000000 0 0 1
7.215267 20.747003 23.567791 32.217060 1.236106 0.750231 0.045310 -0.007647 65655.900000 0 0 1
6.859567 21.980603 22.877951 32.459223 1.268300 0.788625 0.047047 -0.015301 -226099.000000 0 0 1
5.613167 22.727603 23.395461 33.096815 1.328666 0.785720 0.024547 -0.008513 -179871.000000 0 0 1
5.428967 23.989503 22.837751 33.563861 1.348239 0.822451 0.019114 -0.012891 -455316.000000 0 0 1
4.233467 24.495403 23.327051 34.089563 1.399660 0.817171 0.000057 -0.004222 -1055230.000000 0 0 1
3.904367 25.878403 22.733451 34.666202 1.421052 0.855579 0.003320 -0.006738 -10235.000000 0 0 1
3.635567 25.943603 21.327451 33.780883 1.431570 0.887508 0.009648 -0.014693 -81436.300000 0 0 1
2.552967 25.156403 20.907351 32.809748 1.469659 0.879898 0.006342 -0.013830 -691726.000000 0 0 1
2.479467 25.504303 19.420051 32.152070 1.473883 0.922278 0.014620 -0.011929 -451013.000000 0 0 1
1.753067 26.711203 19.228751 32.959163 1.505260 0.947874 0.009106 -0.014054 341113.000000 0 0 1
1.769567 27.070403 17.874151 32.487280 1.505520 0.988206 0.016616 -0.007797 -262614.000000 0 0 1
0.654867 28.131203 17.709851 33.248041 1.547522 1.009058 0.008678 0.005271 -12569.300000 0 0 1
0.810967 29.316003 18.490651 34.669725 1.543140 1.008256 0.006178 0.003559 756738.000000 0 0 1
-0.344033 30.181303 18.490951 35.396958 -1.559398 1.021147 0.003649 0.004767 529028.000000 0 0 1
-0.095033 31.519103 19.108651 36.859238 -1.567781 1.025791 0.008285 0.006425 16015.900000 0 0 1
0.388567 31.595403 20.462551 37.644873 1.558499 0.996114 0.010179 0.005215 205240.000000 0 0 1
0.773267 32.911003 20.816851 38.949625 1.547305 1.006933 0.018519 0.004472 25342.100000 0 0 1
1.422567 32.900503 22.193651 39.711773 1.527585 0.977776 0.023092 -0.005445 -416822.000000 0 0 1
0.427067 32.730503 23.131451 40.081570 1.557749 0.955612 0.015010 -0.004182 -135911.000000 0 0 1
0.985667 32.834803 24.428501 40.937116 1.540786 0.931374 0.035996 -0.016577 206065.000000 0 0 1
-0.049233 32.727203 25.593391 41.546286 -1.569292 0.907115 0.027986 -0.004872 13139.400000 0 0 1
-0.917633 33.863803 25.673151 42.505410 -1.543705 0.922289 0.030789 0.000225 1203510.000000 0 0 1
-2.017433 33.659703 26.609141 42.954534 -1.510932 0.902726 0.025557 -0.003563 769716.000000 0 0 1
-1.624633 33.728003 28.086841 43.921387 -1.522665 0.876975 0.046809 -0.017554 -463765.000000 0 0 1
-0.899033 32.595803 28.639831 43.399707 -1.543222 0.850099 0.041073 -0.016212 735648.000000 0 0 1
-0.304833 33.110903 29.861461 44.588470 -1.561590 0.836975 0.048016 -0.019895 -193598.000000 0 0 1
0.797867 32.183403 30.471311 44.327292 1.546010 0.812871 0.042796 -0.023927 725311.000000 0 0 1
2.130167 32.253303 29.957021 44.070809 1.504847 0.823378 0.037147 -0.020510 702235.000000 0 0 1
2.341467 31.918003 28.600301 42.921074 1.497569 0.841498 0.037795 -0.021197 -408373.000000 0 0 1
3.833067 31.689403 28.228311 42.611597 1.450424 0.846704 0.026136 -0.018106 242374.000000 0 0 1
4.350367 30.471703 28.775751 42.136613 1.428987 0.819050 0.029211 -0.022621 -524904.000000 0 0 1
5.739967 30.486003 28.698181 42.260255 1.384693 0.824285 0.039203 -0.035205 -959887.000000 0 0 1
6.352867 29.255203 29.273501 41.870797 1.356963 0.796604 0.044354 -0.027937 -275565.000000 0 0 1
6.475267 29.393503 30.676951 42.976533 1.353964 0.775877 0.047140 -0.032161 -465799.000000 0 0 1
7.260467 28.400003 31.146671 42.771365 1.320507 0.755085 0.038755 -0.027347 -605518.000000 0 0 1
7.238067 28.261303 32.684324 43.810454 1.320073 0.728702 0.053185 -0.027456 -309526.000000 0 0 1
5.992567 27.826903 33.189196 43.723793 1.358684 0.708921 0.056275 -0.031160 -106614.000000 0 0 1
5.863767 27.947303 -33.828349 44.269546 1.363981 2.440511 0.069719 -0.032235 -178101.000000 0 0 1
6.105067 26.557203 -33.162519 42.922133 1.344838 2.453755 0.064695 -0.026211 51790.000000 0 0 1
7.446867 26.137303 -33.291549 42.976059 1.293237 2.456963 0.049632 -0.023953 114876.000000 0 0 1
7.516167 24.723503 -33.034019 41.940324 1.275666 2.477771 0.062489 -0.028211 -472615.000000 0 0 1
8.921867 24.194803 -33.261489 42.086991 1.217515 2.482100 0.062738 -0.026512 -979532.000000 0 0 1
9.232167 23.997003 33.836113 42.496724 1.203530 0.649799 0.051006 -0.019436 566823.000000 0 0 1
10.454967 23.328203 33.495758 42.136411 1.149466 0.651894 0.062928 -0.033386 338404.000000 0 0 1
10.468967 21.821403 33.833257 41.598824 1.123474 0.620956 0.063023 -0.034565 -736326.000000 0 0 1
9.751967 21.133003 32.854108 40.262849 1.138456 0.616356 0.063013 -0.037387 -96422.600000 0 0 1
9.526167 19.794303 33.191515 39.802499 1.122254 0.584650 0.056184 -0.030587 167202.000000 0 0 1
8.225867 19.341603 33.932654 39.914752 1.168677 0.554568 0.079621 -0.032576 232109.000000 0 0 1
8.148967 19.881903 -33.218449 39.562117 1.181812 2.567440 0.077817 -0.033626 -893742.000000 0 0 1
7.084467 20.715403 -33.029439 39.626524 1.241275 2.556242 0.091853 -0.035089 -986231.000000 0 0 1
6.904567 21.271403 -31.614879 38.725265 1.256932 2.525927 0.098787 -0.042387 317113.000000 0 0 1
8.011667 22.101203 -31.279429 39.128668 1.223030 2.497091 0.096188 -0.040082 390496.000000 0 0 1
7.835167 22.634903 -29.987539 38.379437 1.237552 2.467613 0.071056 -0.037546 454004.000000 0 0 1
9.209667 23.128703 -29.433019 38.549416 1.191849 2.439533 0.063096 -0.035913 1363080.000000 0 0 1
10.109667 22.054403 -29.042589 37.842754 1.140982 2.445657 0.066343 -0.041437 509060.000000 0 0 1
11.496767 22.325703 -29.036099 38.388901 1.095255 2.428538 0.052007 -0.044726 264969.000000 0 0 1
12.314467 21.024603 -29.097739 37.952054 1.040945 2.444477 0.054534 -0.053108 -542766.000000 0 0 1
12.198167 20.226803 -30.290089 38.411044 1.028123 2.479289 0.051035 -0.041695 180293.000000 0 0 1
10.963567 19.511603 -30.365329 37.722084 1.058863 2.506429 0.068272 -0.035962 337267.000000 0 0 1
10.762167 18.459503 -31.475129 38.042887 1.042959 2.545186 0.060278 -0.029026 -274592.000000 0 0 1
11.405967 17.233903 -31.118789 37.356158 0.986148 2.555358 0.056720 -0.020631 267292.000000 0 0 1
11.524167 16.336703 -32.212599 37.912344 0.956445 2.586136 0.048072 -0.013600 -516069.000000 0 0 1
12.728867 16.493903 -33.138809 39.144010 0.913531 2.580336 0.038257 0.000729 -597755.000000 0 0 1
12.792367 17.766303 -33.694749 40.182363 0.946750 2.565405 0.050271 -0.012907 -211855.000000 0 0 1
13.302267 17.861803 33.408083 40.150894 0.930675 0.587979 0.058234 -0.015755 -108923.000000 0 0 1
12.539367 17.275903 32.190431 38.625333 0.942944 0.585561 0.069850 -0.029430 -719288.000000 0 0 1
12.770967 18.073603 31.055221 38.133705 0.955649 0.619141 0.065424 -0.020493 -67135.700000 0 0 1
12.251067 17.504003 29.861601 36.717761 0.960137 0.621040 0.072893 -0.024433 973889.000000 0 0 1
10.684667 17.604103 29.721781 36.158689 1.025288 0.605914 0.064467 -0.025195 820374.000000 0 0 1
9.953667 16.796203 30.651641 36.341587 1.035825 0.567157 0.062039 -0.021622 -412412.000000 0 0 1
8.580767 17.077403 30.542331 36.029172 1.105180 0.559141 0.066497 -0.018716 -182804.000000 0 0 1
7.770067 16.205503 31.497041 36.263698 1.123706 0.518516 0.065871 -0.013218 -163737.000000 0 0 1
8.110967 16.493403 32.845563 37.638426 1.113754 0.510172 0.077684 -0.015224 293608.000000 0 0 1
7.482867 15.530703 33.676030 37.832142 1.121805 0.473137 0.088998 -0.015897 -177644.000000 0 0 1
7.525767 15.912603 -33.263099 37.633520 1.129027 2.654867 0.095361 -0.022900 -13159.200000 0 0 1
6.544567 16.804903 -32.759269 37.395265 1.199423 2.638358 0.101615 -0.026372 160525.000000 0 0 1
6.537367 16.870203 -31.321609 36.171592 1.201104 2.617778 0.101234 -0.033021 -128315.000000 0 0 1
5.659467 17.987503 -30.742199 36.064700 1.265969 2.591389 0.105725 -0.040688 -364612.000000 0 0 1
5.525867 17.817403 -29.368299 34.792126 1.270064 2.575695 0.102499 -0.044246 132085.000000 0 0 1
4.691267 18.673303 -28.586779 34.465985 1.324662 2.548865 0.115715 -0.044268 792932.000000 0 0 1
3.157867 18.481503 -28.758949 34.330966 1.401564 2.563849 0.125179 -0.051708 -400397.000000 0 0 1
2.442167 17.446703 -28.064839 33.135884 1.431721 2.581041 0.127335 -0.053983 689866.000000 0 0 1
1.066367 17.342403 -28.416689 33.307721 1.509385 2.592802 0.118953 -0.052801 897702.000000 0 0 1
0.131667 18.529403 -28.000899 33.576874 1.563691 2.556995 0.110384 -0.058551 -659552.000000 0 0 1
-0.259233 18.590003 -26.632929 32.480276 -1.556852 2.532159 0.109706 -0.064581 126787.000000 0 0 1
-0.899033 19.821003 -26.344839 32.980766 -1.525470 2.496084 0.106784 -0.057053 -209183.000000 0 0 1
-1.269933 19.999603 -24.876919 31.944607 -1.507384 2.463470 0.102800 -0.057052 -1252910.000000 0 0 1
-2.368833 19.290503 -24.526319 31.293373 -1.448610 2.471484 0.088534 -0.043227 -1174890.000000 0 0 1
-2.739133 19.583903 -23.188319 30.475076 -1.431831 2.435487 0.074667 -0.038351 -97216.400000 0 0 1
-4.054033 18.927303 -22.686419 29.821998 -1.359795 2.435230 0.052891 -0.028749 -167170.000000 0 0 1
-5.183533 19.650803 -23.116019 30.779431 -1.312889 2.420404 0.044454 -0.026628 -922072.000000 0 0 1
-6.269233 18.884303 -22.703819 30.189130 -1.250263 2.421967 0.039817 -0.029357 178575.000000 0 0 1
-7.676933 19.570703 -22.630819 30.888536 -1.196974 2.393020 0.046930 -0.026910 609799.000000 0 0 1
-8.022933 20.387403 -21.527219 30.715384 -1.195885 2.347400 0.041278 -0.024123 203653.000000 0 0 1
-7.317833 21.626103 -21.577419 31.413755 -1.244511 2.327981 0.041368 -0.027510 -51571.000000 0 0 1
-7.607733 22.554303 -20.368619 31.328179 -1.245473 2.278603 0.053672 -0.030624 -241246.000000 0 0 1
-6.806533 22.388903 -19.228319 30.287293 -1.275661 2.258629 0.064447 -0.030350 -172770.000000 0 0 1
-7.047633 23.413303 -18.296919 30.538977 -1.278413 2.213215 0.070245 -0.026873 305763.000000 0 0 1
-5.971033 23.423903 -17.146519 29.636727 -1.321200 2.187754 0.071575 -0.024429 775094.000000 0 0 1
-4.675433 23.771803 -17.610919 29.951674 -1.376595 2.199353 0.060679 -0.026670 -213503.000000 0 0 1
-3.757233 23.712903 -16.531719 29.149894 -1.413656 2.173811 0.050207 -0.017982 637812.000000 0 0 1
-2.343333 24.269303 -16.860119 29.643783 -1.474539 2.175791 0.043437 -0.005051 481049.000000 0 0 1
-2.480133 25.656603 -16.877919 30.810331 -1.474429 2.150529 0.030121 -0.009925 45976.100000 0 0 1
-1.191533 26.171703 -17.116919 31.294835 -1.525300 2.149521 0.027059 -0.014556 108486.000000 0 0 1
-1.080433 27.721903 -17.373219 32.733774 -1.531842 2.130273 0.023083 -0.028829 -70771.600000 0 0 1
-1.899533 28.146103 -18.451619 33.708657 -1.503410 2.150033 0.027258 -0.034951 179384.000000 0 0 1
-1.785933 29.491603 -18.683119 34.957161 -1.510313 2.134662 0.038446 -0.028118 -251154.000000 0 0 1
-3.069633 30.009903 -19.350719 35.839465 -1.468863 2.141148 0.058311 -0.034906 228720.000000 0 0 1
-3.878333 30.820503 -18.504219 36.157309 -1.445618 2.108040 0.058318 -0.032827 -648702.000000 0 0 1
-5.086233 30.271003 -18.125419 35.647359 -1.404328 2.104197 0.044847 -0.030410 -853696.000000 0 0 1
-5.947133 31.264803 -17.342519 36.243886 -1.382824 2.069736 0.052414 -0.022271 -375155.000000 0 0 1
-6.472233 32.334503 -18.077719 37.606034 -1.373242 2.072264 0.065524 -0.031267 -10278.500000 0 0 1
-6.823433 33.435603 -17.227919 38.226954 -1.369484 2.038317 0.073668 -0.044464 -85440.100000 0 0 1
-7.237533 -33.907743 -18.050819 39.088988 1.360504 2.050806 0.070727 -0.033204 405810.000000 0 0 1
-8.548533 -34.086443 -18.575819 39.749517 1.325074 2.057055 0.079144 -0.037861 289314.000000 0 0 1
-8.951933 -32.977543 -19.355619 39.272070 1.305728 2.086170 0.104052 -0.042561 -992961.000000 0 0 1
29.521067 -20.657097 -25.873919 44.358412 -0.610552 2.193572 0.036445 -0.002164 29752.500000 0 0 1
28.911167 -21.770697 -25.349939 44.186403 -0.645431 2.181818 0.049175 -0.007160 -147795.000000 0 0 1
27.602767 -22.035797 -25.836979 43.761153 -0.673715 2.202362 0.040688 -0.010509 467194.000000 0 0 1
27.031867 -23.342097 -25.240229 43.733791 -0.712281 2.186010 0.040462 -0.010106 80411.300000 0 0 1
27.408767 -24.547397 -25.890229 44.990212 -0.730381 2.183967 0.040791 0.003554 -447032.000000 0 0 1
28.675867 -25.028097 -25.534269 45.833501 -0.717579 2.161697 0.045364 0.007529 -290242.000000 0 0 1
29.137667 -26.307967 -26.267369 47.234388 -0.734407 2.160491 0.047143 0.012044 -341995.000000 0 0 1
28.323367 -27.397927 -26.024279 47.224174 -0.768791 2.154454 0.055409 0.001111 -715208.000000 0 0 1
28.710667 -28.614257 -26.570449 48.467173 -0.783716 2.151025 0.042231 0.006051 231627.000000 0 0 1
27.583267 -29.214737 -27.459789 48.665978 -0.814114 2.170321 0.059505 -0.000261 98689.600000 0 0 1
27.421467 -28.558897 -28.713909 48.908445 -0.805714 2.198262 0.032028 -0.002350 468332.000000 0 0 1
28.505167 -28.689537 -29.655589 50.150653 -0.788622 2.203503 0.024841 -0.004117 298810.000000 0 0 1
28.865367 -30.064927 -30.277119 51.515174 -0.805751 2.199049 0.037691 -0.001442 -1513120.000000 0 0 1
29.471167 -31.033987 -29.432639 51.941681 -0.811222 2.173228 0.046025 0.004214 180063.000000 0 0 1
30.828167 -30.900317 -29.031569 52.421727 -0.786567 2.157727 0.038067 0.012082 62914.600000 0 0 1
31.839167 -30.605997 -30.119529 53.456951 -0.765653 2.169334 0.023014 0.006630 -1682800.000000 0 0 1
31.750967 -29.288747 -30.657219 52.969988 -0.745082 2.188011 0.025957 -0.001658 -568413.000000 0 0 1
33.023767 -28.936827 -31.136569 53.827456 -0.719533 2.187625 0.022508 -0.007012 -47937.700000 0 0 1
33.060467 -27.535607 -31.719629 53.454083 -0.694474 2.206072 0.019822 -0.001289 96021.500000 0 0 1
32.932167 -26.504697 -30.716299 52.254355 -0.677677 2.199161 0.021405 0.004081 897486.000000 0 0 1
31.601567 -26.191417 -30.219749 50.969428 -0.692058 2.205451 0.022063 0.005199 972868.000000 0 0 1
31.360667 -24.972197 -29.238709 49.618587 -0.672475 2.200950 0.020996 0.005647 -531096.000000 0 0 1
32.124667 -25.041797 -28.061119 49.462230 -0.662127 2.174049 0.021223 0.008883 -82109.100000 0 0 1
32.207867 -23.723997 -27.506719 48.546826 -0.634863 2.173172 0.015965 0.006939 80170.300000 0 0 1
33.259167 -23.666997 -26.364229 48.593945 -0.618464 2.144256 0.018225 0.004487 -661536.000000 0 0 1
32.911167 -24.298097 -25.126779 48.009347 -0.635967 2.121601 0.027920 0.005359 754102.000000 0 0 1
31.985867 -23.591997 -24.229719 46.548440 -0.635502 2.118264 0.034651 0.004674 596141.000000 0 0 1
32.565967 -22.350797 -23.541619 45.981606 -0.601488 2.108283 0.042359 -0.000593 -261057.000000 0 0 1
32.938967 -21.298897 -24.352919 46.170155 -0.573993 2.126405 0.040552 -0.002501 -21683.100000 0 0 1
33.107267 -20.124697 -23.583419 45.357162 -0.546181 2.117588 0.027305 -0.012251 -63220.000000 0 0 1
33.283067 -18.882797 -24.466919 45.419739 -0.516058 2.139671 0.024484 -0.024351 -454198.000000 0 0 1
32.104067 -18.615797 -25.167029 44.839696 -0.525477 2.166712 0.028327 -0.028112 -105159.000000 0 0 1
32.114167 -17.363197 -25.772309 44.687943 -0.495653 2.185501 0.022599 -0.022380 -209938.000000 0 0 1
31.120267 -17.263097 -26.921979 44.623743 -0.506461 2.218442 0.008239 -0.004166 195749.000000 0 0 1
29.746667 -17.361397 -26.592109 43.513475 -0.528305 2.228276 0.011703 -0.001329 564547.000000 0 0 1
28.840367 -17.052897 -27.667519 43.451808 -0.533987 2.261060 -0.000565 0.001359 -873899.000000 0 0 1
27.516867 -16.623097 -27.154759 42.081899 -0.543433 2.272191 0.010429 0.003414 -1257320.000000 0 0 1
26.783867 -17.682197 -26.569469 41.665001 -0.583499 2.262296 0.020788 0.005026 8077.500000 0 0 1
26.662567 -17.465197 -25.194949 40.628943 -0.579914 2.239696 0.038290 0.003006 62305.300000 0 0 1
26.015767 -18.689097 -24.430319 40.285766 -0.622953 2.222354 0.052657 -0.003603 198347.000000 0 0 1
25.774667 -18.333397 -23.082419 39.156672 -0.618266 2.201222 0.071133 0.000286 196518.000000 0 0 1
25.082367 -19.367097 -22.375219 38.792525 -0.657521 2.185592 0.081964 -0.009379 44909.900000 0 0 1
24.992667 -18.925497 -20.849119 37.649616 -0.648120 2.157678 0.088553 -0.020218 -103149.000000 0 0 1
24.288467 -17.739697 -20.463219 36.378150 -0.630823 2.168220 0.079672 -0.017536 279180.000000 0 0 1
24.714867 -16.463497 -20.991919 36.366633 -0.587636 2.186129 0.081566 -0.012183 736936.000000 0 0 1
26.107367 -15.925797 -20.472419 36.801434 -0.547748 2.160716 0.074865 -0.017455 867592.000000 0 0 1
25.986167 -15.148697 -19.286719 35.731518 -0.527790 2.140957 0.072188 -0.031686 213494.000000 0 0 1
27.058567 -14.233497 -19.271819 36.140856 -0.484251 2.133224 0.064161 -0.031282 -48975.600000 0 0 1
26.868867 -13.090697 -18.271119 35.030503 -0.453361 2.119495 0.066829 -0.022764 -97570.900000 0 0 1
27.050367 -13.572597 -16.901119 34.663894 -0.465049 2.080102 0.056548 -0.027899 459250.000000 0 0 1
26.577367 -12.560397 -16.009819 33.472889 -0.441486 2.069505 0.044592 -0.016645 125140.000000 0 0 1
27.325067 -12.653797 -14.688219 33.504054 -0.433681 2.024615 0.053725 -0.018463 -328662.000000 0 0 1
27.034867 -13.874197 -14.055919 33.480535 -0.474149 2.004047 0.064795 -0.030882 204816.000000 0 0 1
27.467167 -13.953797 -12.747219 33.341345 -0.470041 1.963107 0.070206 -0.031848 -464143.000000 0 0 1
26.986267 -15.142897 -11.978019 33.181905 -0.511351 1.940115 0.059963 -0.035698 1039330.000000 0 0 1
25.568467 -15.139297 -11.674219 31.925416 -0.534596 1.945151 0.044095 -0.036454 1373960.000000 0 0 1
25.144367 -16.270697 -10.962119 31.892676 -0.574328 1.921671 0.038901 -0.035308 36922.500000 0 0 1
23.662467 -16.262497 -10.525519 30.580511 -0.602131 1.922173 0.049106 -0.035995 -179709.000000 0 0 1
23.338267 -15.393997 -9.462719 29.515977 -0.583097 1.897155 0.047223 -0.039538 226147.000000 0 0 1
22.001167 -15.547197 -9.050719 28.419750 -0.615177 1.894907 0.056661 -0.035579 -385459.000000 0 0 1
21.612867 -15.335197 -7.596319 27.567886 -0.617100 1.849958 0.060433 -0.032637 -433846.000000 0 0 1
21.848467 -14.014297 -7.235619 26.946432 -0.570328 1.842651 0.071161 -0.023938 397253.000000 0 0 1
21.794567 -13.765697 -5.833919 26.429759 -0.563339 1.793362 0.069176 -0.011858 129883.000000 0 0 1
22.624767 -14.651197 -4.800419 27.378489 -0.574667 1.747043 0.065102 -0.005616 243205.000000 0 0 1
24.018467 -14.441897 -4.864619 28.445028 -0.541362 1.742659 0.064282 -0.007710 446775.000000 0 0 1
24.787767 -15.194797 -3.921319 29.337552 -0.549920 1.704860 0.055663 -0.012218 1235060.000000 0 0 1
26.332867 -14.868997 -4.027419 30.507819 -0.514025 1.703195 0.062753 -0.015641 877275.000000 0 0 1
26.725367 -13.585497 -3.560719 30.190887 -0.470295 1.689012 0.058490 -0.017258 849606.000000 0 0 1
28.083567 -13.364697 -3.987319 31.356029 -0.444174 1.698304 0.059675 -0.027029 892926.000000 0 0 1
28.733767 -12.139297 -3.224719 31.359061 -0.399730 1.673811 0.071394 -0.032662 -910622.000000 0 0 1
29.260567 -12.451697 -1.922119 31.857810 -0.402332 1.631167 0.080467 -0.041220 745203.000000 0 0 1
29.929367 -11.309397 -1.309719 32.021630 -0.361284 1.611709 0.080744 -0.034804 214395.000000 0 0 1
31.321067 -10.913097 -1.823819 33.217935 -0.335273 1.625729 0.078623 -0.035023 -901066.000000 0 0 1
31.261567 -10.509997 -3.188619 33.134768 -0.324324 1.667177 0.072994 -0.025005 -646767.000000 0 0 1
32.464467 -10.587097 -3.870419 34.365802 -0.315239 1.683660 0.080869 -0.027224 -776332.000000 0 0 1
32.322267 -10.218497 -5.383719 34.323913 -0.306201 1.728297 0.076424 -0.032702 -293430.000000 0 0 1
31.332667 -11.037297 -5.948119 33.748156 -0.338688 1.747972 0.063005 -0.028458 144699.000000 0 0 1
31.383267 -11.092097 -7.364219 34.090699 -0.339736 1.788531 0.049922 -0.022114 -287337.000000 0 0 1
30.206167 -11.900997 -7.908419 33.415405 -0.375317 1.809733 0.056857 -0.019326 -191672.000000 0 0 1
30.201667 -13.241497 -7.548319 33.829795 -0.413196 1.795817 0.054311 -0.021106 796246.000000 0 0 1
28.955867 -13.886497 -7.868019 33.063314 -0.447174 1.811070 0.058117 -0.024401 663745.000000 0 0 1
29.023467 -15.427597 -7.840619 33.791237 -0.488573 1.804962 0.064709 -0.029576 -145839.000000 0 0 1
29.337867 -15.897897 -9.140419 34.597699 -0.496595 1.838162 0.074485 -0.035465 419461.000000 0 0 1
29.464967 -17.347097 -9.183019 35.403868 -0.532096 1.833175 0.070758 -0.032609 -272413.000000 0 0 1
29.674967 -17.889897 -10.655419 36.251759 -0.542521 1.869130 0.071268 -0.037726 85358.200000 0 0 1
30.918067 -17.548797 -11.258019 37.291153 -0.516248 1.877476 0.079504 -0.031147 471650.000000 0 0 1
31.059867 -17.975897 -12.619519 38.040773 -0.524648 1.908940 0.072615 -0.021346 -70900.800000 0 0 1
30.321267 -17.145497 -13.713819 37.435493 -0.514636 1.945860 0.076804 -0.030595 140716.000000 0 0 1
31.067567 -16.003097 -14.180219 37.714340 -0.475659 1.956261 0.074144 -0.026888 510833.000000 0 0 1
30.494267 -15.299797 -15.300419 37.391000 -0.465028 1.992374 0.066981 -0.030236 -183599.000000 0 0 1
31.396167 -14.154097 -15.872419 37.920857 -0.423538 2.002663 0.061541 -0.023272 909161.000000 0 0 1
32.529867 -14.497297 -16.658319 39.317470 -0.419240 2.008309 0.042600 -0.029938 1932580.000000 0 0 1
33.754867 -14.970497 -16.013219 40.248354 -0.417441 1.979980 0.052464 -0.028691 1930710.000000 0 0 1
34.877867 -15.469897 -17.011019 41.775089 -0.417473 1.990188 0.054880 -0.021633 825228.000000 0 0 1
-36.180348 -15.709197 -16.577719 42.785712 0.409630 1.968670 0.057920 -0.019024 181389.000000 0 0 1
-35.297548 -16.121697 -17.603319 42.611064 0.428442 1.996670 0.059751 -0.016788 1633410.000000 0 0 1
-33.764148 -15.953697 -17.159219 41.097164 0.441410 2.001520 0.058775 -0.016601 1376660.000000 0 0 1
-33.433548 -16.903197 -16.151419 40.796918 0.468098 1.977842 0.052324 -0.020814 126870.000000 0 0 1
-33.692448 -16.461397 -14.799819 40.313686 0.454469 1.946703 0.064814 -0.022851 -327944.000000 0 0 1
-33.309348 -17.419797 -13.618919 39.980457 0.481854 1.918393 0.065457 -0.026408 -1265710.000000 0 0 1
-31.958848 -17.378797 -13.388119 38.763801 0.498060 1.923437 0.063786 -0.028334 -1131380.000000 0 0 1
-31.592048 -17.825097 -12.111919 38.242517 0.513701 1.893059 0.070532 -0.019285 -547700.000000 0 0 1
-30.093548 -17.954097 -11.851319 36.992228 0.537923 1.896920 0.073519 -0.024686 -638737.000000 0 0 1
-29.470048 -16.699297 -11.976819 35.927627 0.515539 1.910661 0.064120 -0.029318 -100650.000000 0 0 1
-28.145548 -16.650597 -11.492819 34.662647 0.534212 1.908755 0.061675 -0.023641 -2205.490000 0 0 1
-27.981148 -16.319797 -10.012719 33.904792 0.528007 1.870585 0.070345 -0.026896 -247223.000000 0 0 1
-28.323848 -17.401897 -9.144419 34.477337 0.550933 1.839239 0.072865 -0.022105 -100973.000000 0 0 1
-28.782148 -17.031197 -7.903119 34.364705 0.534315 1.802851 0.064562 -0.022005 -465527.000000 0 0 1
-29.271548 -18.197897 -6.997619 35.170351 0.556217 1.771097 0.051849 -0.015863 1323700.000000 0 0 1
-30.505548 -18.848997 -7.460819 36.626997 0.553468 1.775929 0.051115 -0.017058 1359500.000000 0 0 1
-30.347248 -19.633497 -8.624119 37.159185 0.574236 1.805018 0.042133 -0.016502 -53845.400000 0 0 1
-31.608848 -20.466897 -9.000219 38.717142 0.574619 1.805403 0.041103 -0.020827 286345.000000 0 0 1
-32.666348 -19.738097 -9.576519 39.349618 0.543526 1.816635 0.044206 -0.021462 431308.000000 0 0 1
-33.825748 -20.564197 -9.756019 40.770667 0.546241 1.812431 0.052558 -0.020360 294637.000000 0 0 1
-35.089548 -19.759197 -10.069319 41.510160 0.512851 1.815815 0.060387 -0.027506 -149999.000000 0 0 1
-35.165448 -19.408197 -11.448719 41.765536 0.504309 1.848470 0.060213 -0.028025 1450320.000000 0 0 1
35.817567 -19.086797 -11.737619 42.248972 -0.489612 1.852321 0.073135 -0.029601 1402420.000000 0 0 1
35.357467 -18.879397 -13.206219 42.201733 -0.490443 1.889073 0.062013 -0.021895 -101316.000000 0 0 1
35.058067 -20.028597 -13.881119 42.695412 -0.519048 1.901935 0.045419 -0.014864 92730.400000 0 0 1
34.702067 -19.682997 -15.262519 42.715317 -0.515952 1.936180 0.041815 -0.009908 734049.000000 0 0 1
33.365667 -20.368497 -15.726319 42.136213 -0.548077 1.953280 0.058334 -0.019814 124866.000000 0 0 1
32.245567 -19.965697 -14.973419 40.775101 -0.554401 1.946814 0.078901 -0.023884 370493.000000 0 0 1
31.162967 -20.923597 -15.046319 40.439079 -0.591290 1.952038 0.088804 -0.025249 1252340.000000 0 0 1
30.191067 -20.598197 -16.275619 40.008524 -0.598721 1.989749 0.093390 -0.028935 26493.500000 0 0 1
29.357867 -19.472597 -15.965519 38.677696 -0.585657 1.996304 0.079666 -0.030117 476924.000000 0 0 1
28.591967 -19.054597 -17.083319 38.372099 -0.587840 2.032196 0.081149 -0.036361 14296.700000 0 0 1
27.774167 -17.777497 -16.929119 37.068029 -0.569365 2.045083 0.079632 -0.035083 -742644.000000 0 0 1
26.614167 -17.873497 -16.191019 35.915524 -0.591395 2.038467 0.076977 -0.039811 -249469.000000 0 0 1
25.985467 -16.592697 -16.010319 34.740357 -0.568275 2.049756 0.065248 -0.031978 -1378510.000000 0 0 1
24.586967 -16.549697 -15.444919 33.420905 -0.592449 2.051196 0.048545 -0.025930 -470637.000000 0 0 1
23.578067 -17.198397 -16.207219 33.382391 -0.630202 2.077734 0.049734 -0.020734 376342.000000 0 0 1
23.120667 -16.457097 -17.320519 33.247581 -0.618596 2.118767 0.060398 -0.017536 -464839.000000 0 0 1
21.942767 -17.116897 -18.085719 33.189854 -0.662470 2.147087 0.047349 -0.011313 53342.300000 0 0 1
20.680667 -16.972097 -17.510719 31.974479 -0.687221 2.150345 0.030458 -0.004646 -183569.000000 0 0 1
19.639167 -17.350397 -18.399719 32.020037 -0.723601 2.182950 0.025117 -0.007675 1179290.000000 0 0 1
18.147067 -17.493697 -17.960719 30.950491 -0.767068 2.189899 0.036074 -0.007953 883577.000000 0 0 1
17.442567 -16.261497 -17.842619 29.783191 -0.750370 2.213152 0.037803 -0.010551 -532059.000000 0 0 1
16.094267 -16.560497 -17.660419 29.071737 -0.799675 2.223677 0.038306 -0.006803 -1207520.000000 0 0 1
15.189267 -15.385997 -17.632419 27.898834 -0.791832 2.254944 0.041612 -0.005100 -676525.000000 0 0 1
14.762867 -15.021997 -18.915119 28.308733 -0.794098 2.302546 0.034947 0.000352 372681.000000 0 0 1
13.455667 -14.461597 -18.917019 27.350436 -0.821415 2.334572 0.033739 -0.000935 736903.000000 0 0 1
12.806067 -14.027997 -20.249519 27.763700 -0.830903 2.388171 0.030687 0.003883 534921.000000 0 0 1
13.512267 -12.881897 -20.699919 27.874922 -0.761520 2.407741 0.034722 0.003193 -68069.200000 0 0 1
12.859467 -12.371197 -21.801719 28.173167 -0.766048 2.455689 0.043189 -0.006042 -236353.000000 0 0 1
13.313267 -10.928397 -22.169519 28.074196 -0.687335 2.481077 0.044034 -0.012849 258668.000000 0 0 1
14.584567 -10.856797 -22.809319 29.169241 -0.639909 2.468608 0.040991 -0.014141 167886.000000 0 0 1
14.897167 -9.530297 -23.067519 29.066520 -0.569128 2.487518 0.058604 -0.015298 129812.000000 0 0 1
16.065167 -9.352797 -24.068819 30.411715 -0.527212 2.483945 0.059267 -0.016184 80393.600000 0 0 1
15.747967 -9.600197 -25.416719 31.403373 -0.547459 2.513863 0.079704 -0.020810 199149.000000 0 0 1
16.931067 -9.591597 -26.193469 32.630623 -0.515429 2.502650 0.082722 -0.025371 -354121.000000 0 0 1
22.189067 5.319103 -7.371819 23.978975 0.235278 1.883286 0.095792 0.026676 -176089.000000 0 1 0
21.790667 6.674303 -7.441919 23.974187 0.297219 1.886425 0.070719 0.013605 724640.000000 0 1 0
21.590367 7.274003 -6.229719 23.619154 0.324966 1.837711 0.075201 0.011769 -303588.000000 0 1 0
21.336967 8.838303 -6.272119 23.931595 0.392709 1.835979 0.068459 0.012743 -261971.000000 0 1 0
20.097567 9.143703 -6.896619 23.131858 0.426976 1.873544 0.024046 0.003891 900968.000000 0 1 0
19.799967 10.547503 -7.038319 23.512261 0.489467 1.874804 0.027514 0.011468 -29995.900000 0 1 0
19.417667 11.294703 -5.703719 23.176464 0.526834 1.819450 0.048459 0.012934 -1241040.000000 0 1 0
20.451267 11.489803 -4.839219 23.951783 0.511868 1.774237 0.066474 0.010980 -758629.000000 0 1 0
20.071367 12.297003 -3.753619 23.836227 0.549679 1.728930 0.088525 -0.007640 148339.000000 0 1 0
21.146167 12.472803 -2.629119 24.690959 0.532914 1.677480 0.088196 -0.021215 -36628.300000 0 1 0
22.330367 13.127103 -3.061519 26.083309 0.531444 1.688442 0.088790 -0.028127 597590.000000 0 0 1
23.359067 13.305803 -2.115519 26.966012 0.517782 1.649328 0.087414 -0.031434 109286.000000 0 0 1
24.127267 12.036603 -1.645219 27.013174 0.462751 1.631738 0.077365 -0.033820 -928896.000000 0 0 1
25.172367 11.686103 -2.535619 27.868305 0.434635 1.661908 0.067182 -0.024664 185332.000000 0 0 1
25.885467 10.608803 -2.004119 28.046757 0.388957 1.642314 0.080904 -0.028367 -616888.000000 0 0 1
27.331067 10.408503 -2.457319 29.348979 0.363872 1.654622 0.072462 -0.025837 -490864.000000 0 0 1
28.191267 11.446703 -2.067919 30.496734 0.385700 1.638656 0.055321 -0.031133 577771.000000 0 0 1
29.548367 11.010103 -2.185819 31.608640 0.356676 1.640004 0.057928 -0.027311 64872.000000 0 0 1
30.595667 12.058303 -1.983719 32.945905 0.375425 1.631044 0.033878 -0.014655 -918252.000000 0 0 1
30.405967 12.581003 -0.690919 32.913247 0.392318 1.591790 0.050708 -0.020126 171111.000000 0 0 1
31.258267 13.614803 -0.311919 34.096032 0.410780 1.579945 0.049501 -0.016080 914574.000000 0 0 1
32.781467 13.296803 0.059781 35.375600 0.385341 1.569106 0.059028 -0.014777 1455420.000000 0 0 1
33.605167 14.430803 0.233981 36.573352 0.405610 1.564399 0.063795 -0.016083 370040.000000 0 0 1
34.358967 14.849003 -0.917619 37.441601 0.407930 1.595307 0.061067 -0.009233 9820.230000 0 0 1
33.657367 15.877603 -1.834619 37.259662 0.440787 1.620055 0.032156 0.012470 -198407.000000 0 0 1
32.579267 15.388303 -2.605519 36.124745 0.441271 1.642985 0.034302 0.010582 -410771.000000 0 0 1
31.981167 16.460903 -3.310819 36.120879 0.475343 1.662585 0.029882 0.030993 -876990.000000 0 0 1
30.658267 15.996503 -3.845819 34.793789 0.480910 1.681554 0.035267 0.013578 -1657430.000000 0 0 1
30.821467 14.992903 -4.819819 34.611856 0.452744 1.710504 0.018533 0.012778 -63912.200000 0 0 1
29.723067 14.729503 -5.650619 33.650385 0.460088 1.739517 0.018186 0.000428 -607793.000000 0 0 1
28.577367 13.962903 -5.003519 32.197263 0.454486 1.726831 0.030150 -0.019347 -943117.000000 0 0 1
27.528967 13.667703 -5.890819 31.294598 0.460831 1.760164 0.045859 -0.025968 -477610.000000 0 0 1
26.536867 13.003503 -5.179919 30.002132 0.455629 1.744317 0.058062 -0.015739 -110470.000000 0 0 1
25.272367 12.715003 -6.044019 28.929120 0.466140 1.781272 0.057187 -0.012747 156257.000000 0 0 1
25.690367 11.913003 -7.161019 29.209498 0.434200 1.818482 0.053016 -0.009148 593478.000000 0 0 1
24.705767 11.675303 -8.168719 28.520441 0.441467 1.861281 0.066466 -0.007310 70287.900000 0 0 1
24.568667 12.817403 -9.198219 29.197815 0.480854 1.891286 0.064492 -0.002719 457727.000000 0 0 1
23.775567 13.985103 -8.811219 28.956834 0.531708 1.879987 0.070646 -0.017449 594587.000000 0 0 1
23.687467 14.950703 -9.780919 29.669614 0.563020 1.906741 0.058503 -0.017212 -553982.000000 0 0 1
22.853867 16.168703 -9.289919 29.496250 0.615730 1.891203 0.055543 -0.017164 2059950.000000 0 0 1
21.443867 15.859703 -9.002519 28.149866 0.636806 1.896322 0.066420 -0.015607 1866770.000000 0 0 1
21.119467 15.194503 -7.808119 27.163790 0.623664 1.862355 0.077615 -0.017445 -1298160.000000 0 0 1
19.736967 14.606103 -7.738019 25.744184 0.637095 1.876090 0.084655 -0.012783 -485677.000000 0 0 1
18.663967 15.470403 -7.419319 25.351988 0.692111 1.867796 0.089646 -0.026871 1462940.000000 0 0 1
17.346567 14.903703 -7.684219 24.126147 0.709795 1.894945 0.088759 -0.029951 780172.000000 0 1 0
16.367667 15.264703 -6.612319 23.337404 0.750544 1.858067 0.086765 -0.015158 -720348.000000 0 1 0
16.435467 14.385503 -5.498619 22.523367 0.718984 1.817418 0.061442 -0.019109 396597.000000 0 1 0
16.323667 15.133303 -4.311719 22.673109 0.747575 1.762130 0.078743 -0.003119 -10291.900000 0 1 0
15.948467 14.203903 -3.110219 21.581888 0.727604 1.715412 0.056809 0.012705 -137295.000000 0 1 0
17.057967 13.405803 -2.730319 21.866514 0.666082 1.695986 0.059631 0.001782 631954.000000 0 1 0
16.860967 12.512303 -1.572819 21.055253 0.638417 1.645566 0.055276 -0.005575 -167804.000000 0 1 0
16.850267 13.230603 -0.158719 21.424414 0.665643 1.578205 0.064009 -0.008916 -494067.000000 0 1 0
15.716167 14.031303 -0.072119 21.068473 0.728820 1.574219 0.055301 -0.016023 124136.000000 0 1 0
15.837867 14.805703 1.145581 21.710809 0.751728 1.518006 0.058277 -0.017114 151348.000000 0 1 0
14.630567 15.767403 1.421981 21.556589 0.822779 1.504783 0.061500 -0.016049 243535.000000 0 1 0
14.684267 16.903603 0.577681 22.398509 0.855542 1.545002 0.075093 -0.013748 333038.000000 0 1 0
13.688567 17.800703 1.041481 22.479470 0.915252 1.524449 0.056304 -0.016873 -13448.500000 0 1 0
13.478267 19.224603 0.449481 23.482995 0.959336 1.551654 0.047214 -0.015074 -236513.000000 0 1 0
12.842467 19.283003 -0.773919 23.181072 0.983256 1.604188 0.043803 -0.017661 -327349.000000 0 1 0
12.287167 20.541203 -1.067819 23.959460 1.031722 1.615379 0.035443 -0.022798 90222.000000 0 1 0
10.745867 20.540303 -1.049219 23.205141 1.088793 1.616027 0.025212 -0.025385 210611.000000 0 1 0
10.160067 20.668303 0.247681 23.031870 1.113910 1.560042 0.021789 -0.027408 20854.700000 0 1 0
8.790967 20.315403 0.273781 22.137562 1.162401 1.558429 0.013354 -0.028224 289530.000000 0 1 0
8.177267 20.471503 1.691281 22.109061 1.190767 1.494224 0.006209 -0.020506 -156401.000000 0 1 0
8.215667 21.798503 2.215581 23.400443 1.210369 1.475973 0.007909 -0.010382 194704.000000 0 1 0
7.367667 21.738603 3.352081 23.196677 1.244025 1.425782 0.006664 -0.010442 81264.100000 0 1 0
7.044867 23.137303 3.878281 24.495020 1.275234 1.411798 0.005055 -0.003468 36460.600000 0 1 0
7.878267 23.520703 4.950581 25.294245 1.247591 1.373805 0.001245 -0.005403 -16288.800000 0 0 1
7.480867 24.681703 5.581981 26.387655 1.276504 1.357648 -0.007258 0.001601 -462830.000000 0 0 1
8.154767 25.043903 6.872681 27.220049 1.256005 1.315548 -0.011033 0.005641 -581437.000000 0 0 1
7.640967 24.268303 7.895181 26.639609 1.265769 1.269907 0.016892 -0.010242 121167.000000 0 0 1
8.217067 24.424803 9.163681 27.350763 1.246268 1.229145 0.017579 -0.018506 -299858.000000 0 0 1
7.524967 23.421603 10.085181 26.587732 1.259930 1.181738 0.021951 -0.014658 324805.000000 0 0 1
6.245567 23.776403 10.585881 26.765375 1.313920 1.164177 0.017409 -0.015646 200829.000000 0 0 1
5.658967 22.721503 11.315181 26.006229 1.326705 1.120652 0.017860 -0.015379 34285.700000 0 0 1
4.339267 23.177003 11.980181 26.448581 1.385716 1.100712 0.027874 -0.022812 385827.000000 0 0 1
3.242467 23.258203 11.072681 25.962701 1.432277 1.130194 0.013734 -0.020619 -726822.000000 0 0 1
2.057867 23.479503 11.732481 26.328179 1.483374 1.108925 0.014649 -0.020111 -1359330.000000 0 0 1
0.884167 23.537203 10.777481 25.902428 1.533249 1.141666 0.024857 -0.017606 -794601.000000 0 0 1
0.913367 24.648003 9.924481 26.586719 1.533757 1.188247 0.020441 -0.016882 -297893.000000 0 0 1
0.052467 24.644303 8.836481 26.180677 1.568667 1.226516 0.022824 -0.017639 -665446.000000 0 0 1
-1.286033 25.353403 9.006381 26.936292 -1.520115 1.229872 0.032618 -0.021116 -452524.000000 0 0 1
-2.200733 24.640903 9.792381 26.606542 -1.481720 1.193892 0.038954 -0.020327 -2273560.000000 0 0 1
-3.347233 25.286803 9.887281 27.356621 -1.439191 1.201004 0.047969 -0.018014 -2437850.000000 0 0 1
-4.418033 24.476103 10.640281 27.052065 -1.392215 1.166550 0.050297 -0.020499 -99023.000000 0 0 1
-4.741133 24.688303 12.036181 27.872214 -1.381067 1.124271 0.048220 -0.012814 26162.400000 0 0 1
-5.472333 25.859403 12.275581 29.143525 -1.362254 1.136016 0.047480 -0.004948 -262101.000000 0 0 1
-6.215033 25.854003 13.637281 29.883633 -1.334883 1.096912 0.055023 -0.011285 406709.000000 0 0 1
-7.375433 25.025403 13.715381 29.475066 -1.284193 1.086799 0.052385 -0.015925 403290.000000 0 0 1
-7.869033 25.066003 15.047781 30.276425 -1.266607 1.050643 0.040584 0.007342 22095.500000 0 0 1
-9.164533 24.248603 15.252181 30.076776 -1.209450 1.038970 0.038977 -0.006373 295236.000000 0 0 1
-10.340033 25.034803 15.064681 30.993584 -1.179111 1.063223 0.042076 -0.003653 93740.400000 0 0 1
-11.467233 24.227403 15.370981 30.898731 -1.128722 1.050124 0.028455 -0.007805 87020.400000 0 0 1
-12.794733 24.994803 15.196781 31.927849 -1.097677 1.074727 0.017947 -0.005824 -204731.000000 0 0 1
-13.155533 25.769403 16.333481 33.225183 -1.098776 1.056871 0.011007 -0.012870 457088.000000 0 0 1
-13.993733 26.918003 16.028981 34.312267 -1.091383 1.084731 0.009674 -0.007088 34340.400000 0 0 1
-14.639933 27.570003 17.268881 35.674178 -1.082650 1.065494 0.023976 -0.004379 -645247.000000 0 0 1
-15.806833 26.950003 17.703081 35.910413 -1.040344 1.055286 0.026118 -0.009254 -284509.000000 0 0 1
-16.277033 27.435603 18.992481 37.126385 -1.035332 1.033794 0.041194 -0.020407 -1121160.000000 0 0 1
-17.537233 26.741403 19.362481 37.383992 -0.990349 1.026361 0.024555 -0.022586 -1548250.000000 0 0 1
-18.624333 27.127503 18.596081 37.796580 -0.969156 1.056406 0.021070 -0.012556 -549397.000000 0 0 1
-19.743033 26.299603 18.850981 37.905356 -0.926849 1.050293 0.035803 -0.017968 352771.000000 0 0 1
-20.878033 26.470603 17.801081 38.124318 -0.902968 1.084990 0.035367 -0.016790 -92877.100000 0 0 1
-21.560133 27.694803 17.848881 39.375424 -0.909309 1.100332 0.028545 -0.013806 -44752.900000 0 0 1
-22.556233 27.717203 16.857581 39.512087 -0.887698 1.130018 0.010238 -0.014098 -745329.000000 0 0 1
-23.362933 29.027903 16.893481 40.912535 -0.893109 1.145142 0.008462 -0.006287 -678683.000000 0 0 1
-24.524933 28.906403 17.650981 41.816380 -0.867217 1.135028 0.019728 -0.009842 -641460.000000 0 0 1
-25.284373 30.062303 17.518981 43.011118 -0.871512 1.151286 0.005783 -0.007201 -93372.600000 0 0 1
-26.689063 29.944903 18.149081 44.027179 -0.842824 1.145902 0.017574 -0.005954 310676.000000 0 0 1
-27.589503 28.972103 17.617181 43.714168 -0.809837 1.155995 0.028716 0.002175 1779200.000000 0 0 1
-28.893223 28.966803 18.295081 44.817452 -0.786670 1.150300 0.046241 -0.008170 1466060.000000 0 0 1
-29.227803 27.638903 19.031481 44.501356 -0.757465 1.128893 0.053495 -0.011413 -179763.000000 0 0 1
-29.384213 26.429903 18.251281 43.532528 -0.732516 1.138170 0.042687 -0.010040 -15643.400000 0 0 1
-29.728533 25.347703 19.073181 43.475027 -0.706024 1.116627 0.039776 -0.005090 -22846.100000 0 0 1
-29.783793 23.999803 18.278181 42.392886 -0.678268 1.125017 0.060079 -0.007029 -91250.100000 0 0 1
-30.818283 23.924003 17.316281 42.684635 -0.660117 1.153074 0.062597 -0.010231 46123.400000 0 0 1
-30.595253 22.938603 16.344481 41.585948 -0.643337 1.166873 0.059800 -0.011355 -139356.000000 0 0 1
-31.202803 21.583303 16.834181 41.507151 -0.605141 1.153191 0.062997 -0.014841 -326489.000000 0 0 1
-32.541103 21.386803 16.473981 42.281329 -0.581437 1.170569 0.057375 -0.011475 -351530.000000 0 0 1
-32.827323 19.971303 16.425881 41.788703 -0.546554 1.166828 0.049291 -0.006642 795910.000000 0 0 1
-34.191760 19.646803 15.715081 42.450408 -0.521538 1.191574 0.046581 -0.018537 577906.000000 0 0 1
-34.133748 19.792503 14.348481 41.984936 -0.525473 1.222015 0.047610 -0.024101 508891.000000 0 0 1
-35.342383 19.383103 13.697581 42.572438 -0.501643 1.243222 0.052513 -0.016120 684279.000000 0 0 1
-35.493326 19.893903 12.259281 42.495101 -0.510867 1.278150 0.057303 -0.016957 -110294.000000 0 0 1
-35.391427 21.281003 12.079981 43.027435 -0.541378 1.286220 0.053078 -0.025224 21531.600000 0 0 1
-35.364016 21.733703 10.753181 42.878881 -0.551065 1.317310 0.032582 -0.024729 111173.000000 0 0 1
-34.175032 21.394003 9.818181 41.497384 -0.559327 1.331934 0.061171 -0.029385 -257805.000000 0 0 1
-34.247250 20.092903 9.264981 40.773015 -0.530584 1.341561 0.061503 -0.022609 -1393.390000 0 0 1
-33.009123 19.673603 8.733281 39.407145 -0.537477 1.347324 0.087751 -0.028134 -65262.300000 0 0 1
-32.249843 18.624503 9.577181 38.453178 -0.523716 1.319086 0.075274 -0.033242 -107829.000000 0 0 1
-31.818413 19.197203 10.807881 38.700831 -0.542869 1.287765 0.082748 -0.032546 281901.000000 0 0 1
-31.469553 18.189703 11.737081 38.196298 -0.524093 1.258460 0.079346 -0.034414 -44509.700000 0 0 1
-30.931363 18.627403 13.123381 38.418127 -0.542048 1.222185 0.060192 -0.019742 1352760.000000 0 0 1
-29.658203 19.343703 13.160281 37.775400 -0.577935 1.214952 0.064561 -0.021072 1173650.000000 0 0 1
-29.763783 20.727603 12.974481 38.520819 -0.608308 1.227262 0.054992 -0.011705 156561.000000 0 0 1
-28.421703 21.433703 13.286581 37.996448 -0.646140 1.213567 0.064273 -0.017232 120780.000000 0 0 1
-28.254363 21.407403 14.682981 38.368944 -0.648390 1.178102 0.060792 -0.014229 349863.000000 0 0 1
-27.023913 22.066003 14.987781 37.971489 -0.684743 1.165043 0.077640 -0.026020 177649.000000 0 0 1
-26.415643 21.844603 16.382481 37.991559 -0.690963 1.124959 0.081273 -0.023487 -244023.000000 0 0 1
-25.741303 20.604603 16.457381 36.851184 -0.675015 1.107845 0.100152 -0.030094 120911.000000 0 0 1
-25.263053 20.413703 17.777781 37.026891 -0.679628 1.069992 0.088797 -0.018659 -65178.100000 0 0 1
-24.311533 19.220403 17.994481 35.836795 -0.668975 1.044744 0.087074 -0.017943 145892.000000 0 0 1
-23.823133 19.121903 19.346981 36.159294 -0.676361 1.006231 0.087976 -0.020398 -223562.000000 0 0 1
-22.917533 18.078903 19.453481 35.078455 -0.667916 0.982949 0.072095 -0.014696 -421377.000000 0 0 1
-22.335033 18.010903 20.901581 35.498203 -0.678629 0.941215 0.078064 -0.012253 -292678.000000 0 0 1
-23.219133 17.626103 21.915881 36.470721 -0.649312 0.926148 0.100445 -0.008653 -286074.000000 0 0 1
-22.678433 17.831303 23.180281 37.008001 -0.666311 0.893923 0.122537 -0.019781 -6680.050000 0 0 1
-23.415033 17.027503 24.289481 37.791250 -0.628751 0.872743 0.110923 -0.012551 -348141.000000 0 0 1
-23.013033 15.720803 24.275681 36.960141 -0.599311 0.854220 0.114625 -0.030620 -299278.000000 0 0 1
-23.764533 14.816303 25.010481 37.547304 -0.557493 0.841821 0.105842 -0.036440 -171383.000000 0 0 1
20.421567 24.648003 33.452696 46.299539 0.878901 0.763345 0.069209 0.003245 -489190.000000 0 0 1
21.554067 23.900603 33.123011 46.183876 0.836976 0.771022 0.076071 -0.009701 -311051.000000 0 0 1
21.485367 22.549103 33.678477 45.872898 0.809550 0.746354 0.078476 -0.011091 -92795.200000 0 0 1
20.460667 21.581203 33.085063 44.486049 0.812045 0.732182 0.073636 -0.013592 -97717.300000 0 0 1
20.883567 21.030003 31.839991 43.499073 0.788892 0.749588 0.073488 -0.012867 331298.000000 0 0 1
19.919467 20.071803 31.386401 42.246521 0.789207 0.733352 0.083362 -0.015617 16695.900000 0 0 1
20.120667 19.621203 29.901131 41.035478 0.772831 0.754425 0.073523 -0.004507 621943.000000 0 0 1
21.428167 19.029803 29.806831 41.349086 0.726187 0.765756 0.074352 -0.005935 520763.000000 0 0 1
21.484067 18.187903 28.662301 40.173280 0.702503 0.776363 0.066112 -0.006712 960100.000000 0 0 1
22.804967 17.319103 28.692031 40.537026 0.649518 0.784420 0.063368 -0.004506 993985.000000 0 0 1
24.035167 18.008703 28.712491 41.550087 0.643030 0.807879 0.071720 -0.002957 -211834.000000 0 0 1
25.070867 17.110103 29.042841 42.009410 0.598863 0.807453 0.051477 0.005938 740407.000000 0 0 1
26.486267 17.764003 29.199811 43.240156 0.590781 0.829433 0.025108 -0.000503 563183.000000 0 0 1
27.321767 17.708603 28.084011 42.997502 0.575074 0.859054 0.035741 0.002866 -285309.000000 0 0 1
28.642867 18.102403 28.381241 44.199611 0.563620 0.873542 0.026909 0.002248 609206.000000 0 0 1
29.628967 17.741903 27.185951 43.951413 0.539539 0.903906 0.040562 0.002421 208961.000000 0 0 1
29.511467 18.504603 26.028191 43.483488 0.560058 0.929074 0.042166 -0.002827 644294.000000 0 0 1
30.484467 18.122903 25.015191 43.399333 0.536363 0.956485 0.043095 0.008714 414168.000000 0 0 1
30.884367 19.323603 24.127131 43.696272 0.559085 0.985849 0.042295 0.000585 833267.000000 0 0 1
29.789467 19.738003 23.261251 42.639030 0.585170 0.993764 0.042384 -0.002337 921918.000000 0 0 1
30.168967 20.824803 22.456051 42.989687 0.604167 1.021181 0.041395 -0.008130 -204982.000000 0 0 1
30.842267 20.492903 21.121651 42.630137 0.586461 1.052429 0.047581 -0.002076 -628386.000000 0 0 1
30.049867 19.626103 20.373551 41.270570 0.578564 1.054505 0.057589 -0.012865 -286163.000000 0 0 1
30.605567 19.014003 19.225851 40.839519 0.555905 1.080638 0.055628 -0.010469 -657125.000000 0 0 1
31.785967 18.077503 19.471351 41.427977 0.517106 1.081500 0.057486 -0.012875 -645313.000000 0 0 1
31.424967 16.881703 20.030651 40.911458 0.492968 1.059154 0.071390 -0.018208 -425724.000000 0 0 1
32.516567 16.204403 20.550551 41.740088 0.462321 1.056014 0.054467 -0.018924 -1064170.000000 0 0 1
32.221167 14.747203 21.053951 41.218350 0.429228 1.034692 0.059292 -0.027749 289617.000000 0 0 1
31.334867 14.598303 22.180251 41.072470 0.435981 1.000327 0.046392 -0.019912 1618990.000000 0 0 1
29.941367 14.846803 21.877351 39.944104 0.460332 0.991185 0.040129 -0.016943 989924.000000 0 0 1
28.991867 14.316503 23.026051 39.694957 0.458684 0.951976 0.019985 -0.016059 310997.000000 0 0 1
28.811067 12.891303 22.967551 39.035518 0.420725 0.941748 0.032376 -0.014719 389591.000000 0 0 1
27.925867 12.581203 24.064891 38.952017 0.423288 0.904844 0.019866 -0.000934 223881.000000 0 0 1
27.398667 11.155203 23.940911 38.056441 0.386650 0.890415 0.025739 0.000753 242971.000000 0 0 1
26.229267 11.083403 23.121151 36.679747 0.399801 0.888790 0.025939 0.001492 377693.000000 0 0 1
25.982367 9.732203 22.770651 35.892920 0.358393 0.883558 0.020721 0.006241 -107001.000000 0 0 1
24.766967 9.468603 21.840651 34.352163 0.365162 0.881769 0.009052 -0.001375 -769540.000000 0 0 1
23.583367 9.543503 22.546151 33.993860 0.384527 0.845654 0.005321 -0.006099 -478034.000000 0 0 1
22.500667 9.258903 21.673551 32.584507 0.390376 0.843103 0.007794 0.006787 448007.000000 0 0 1
21.041467 9.197003 22.191551 31.934199 0.412066 0.802495 0.012298 -0.003862 265669.000000 0 0 1
20.714867 8.269203 23.223751 32.199814 0.379809 0.765207 0.019518 -0.001175 1096780.000000 0 0 1
19.319367 8.526603 23.505301 31.598102 0.415637 0.731934 0.039463 -0.009717 1006450.000000 0 0 1
18.840667 7.825303 24.819021 32.127712 0.393661 0.688010 0.045300 -0.008758 -258540.000000 0 0 1
18.727467 6.405903 24.708101 31.658235 0.329583 0.675389 0.050466 -0.007051 232348.000000 0 0 1
18.582167 5.829603 26.023741 32.504096 0.303996 0.642451 0.045356 -0.015214 -116823.000000 0 0 1
18.781267 4.288503 26.077201 32.421407 0.224491 0.636265 0.047206 -0.020808 259088.000000 0 0 1
20.125167 3.857103 25.893881 33.021094 0.189359 0.669452 0.061591 -0.015139 268114.000000 0 0 1
20.225667 2.463003 25.873011 32.932608 0.121179 0.667074 0.060912 -0.016504 82892.500000 0 0 1
21.677667 2.127903 25.428331 33.482073 0.097848 0.708312 0.058061 -0.016845 484633.000000 0 0 1
22.509967 2.450603 26.566181 34.906532 0.108440 0.705841 0.066579 -0.021732 -51866.400000 0 0 1
23.838267 2.637203 26.142621 35.477520 0.110181 0.742355 0.061313 -0.010119 64648.000000 0 0 1
24.853067 3.021403 27.258161 37.010959 0.120977 0.742931 0.047878 -0.010619 -467852.000000 0 0 1
25.165567 1.933503 28.087281 37.761614 0.076681 0.732051 0.058819 -0.015752 164933.000000 0 0 1
26.075667 2.309503 29.106121 39.146398 0.088339 0.732478 0.056123 -0.007073 -372896.000000 0 0 1
27.550267 2.456303 28.806221 39.935560 0.088922 0.765094 0.042131 -0.002573 -1705600.000000 0 0 1
27.828167 3.707503 28.170701 39.771105 0.132448 0.783680 0.032152 0.011212 814492.000000 0 0 1
29.209467 3.890903 27.812871 40.520215 0.132427 0.814276 0.032919 0.009083 891352.000000 0 0 1
29.787367 2.930103 26.704881 40.112633 0.098052 0.842301 0.045540 0.006605 -503932.000000 0 0 1
29.307067 3.091403 25.363551 38.881495 0.105095 0.860142 0.041010 0.010588 -44311.400000 0 0 1
29.590367 1.996603 24.534091 38.490230 0.067373 0.879663 0.054168 0.012986 -508793.000000 0 0 1
29.300367 2.238803 23.033451 37.337161 0.076261 0.905993 0.056944 0.004145 338619.000000 0 0 1
30.044467 3.279903 22.392651 37.614605 0.108738 0.933135 0.046797 0.002705 148156.000000 0 0 1
31.445267 3.058003 22.292951 38.666934 0.096944 0.956311 0.048466 0.004472 -112575.000000 0 0 1
32.121567 4.225103 21.647751 38.965005 0.130784 0.981749 0.046950 -0.000021 -869788.000000 0 0 1
31.822167 4.348203 20.340451 38.016984 0.135800 1.006246 0.042034 -0.015258 -115073.000000 0 0 1
32.226967 5.596203 19.859251 38.265973 0.171935 1.025140 0.044476 -0.006565 861706.000000 0 0 1
33.752667 5.677503 19.374151 39.329814 0.166649 1.055713 0.035858 -0.010312 1474670.000000 0 0 1
34.651867 5.679703 20.518851 40.669818 0.162463 1.041967 0.039597 -0.003549 407437.000000 0 0 1
34.693767 6.920003 21.261851 41.274813 0.196876 1.029638 0.034873 -0.002252 -644037.000000 0 0 1
35.292367 6.783003 22.669051 42.490542 0.189879 1.008053 0.031298 -0.006157 -48437.200000 0 0 1
34.387967 6.022503 23.451561 42.056848 0.173376 0.979286 0.035738 0.005058 223627.000000 0 0 1
34.787567 5.802403 24.758601 43.090962 0.165274 0.958723 0.040566 0.008394 -210308.000000 0 0 1
33.873167 4.763703 25.396571 42.603639 0.139717 0.932146 0.051104 0.008508 -60420.000000 0 0 1
34.157967 3.448403 24.948781 42.439366 0.100614 0.942374 0.049087 0.001337 39319.900000 0 0 1
33.629967 2.470303 25.843991 42.485161 0.073324 0.916871 0.043137 0.002334 -37958.100000 0 0 1
33.567267 1.004303 25.308101 42.050802 0.029910 0.924986 0.046315 0.000891 -257737.000000 0 0 1
32.685267 0.687203 24.265401 40.713739 0.021022 0.932286 0.056918 -0.000698 -276818.000000 0 0 1
32.722667 -0.725197 24.121011 40.658603 -0.022158 0.935697 0.056110 0.004073 -309567.000000 0 0 1
31.565767 -1.320797 23.314151 39.264383 -0.041818 0.935056 0.056658 0.005919 435211.000000 0 0 1
30.302867 -1.293497 24.003681 38.679627 -0.042660 0.901318 0.055890 0.009354 213869.000000 0 0 1
29.392767 -2.079897 23.272751 37.548390 -0.070644 0.902300 0.066480 0.005788 -210821.000000 0 0 1
27.900367 -1.876397 23.545281 36.555869 -0.067152 0.870963 0.046965 0.007749 -186490.000000 0 0 1
27.469967 -0.605097 23.067751 35.875985 -0.022024 0.872406 0.056652 0.009287 -339223.000000 0 0 1
26.066767 -0.581797 23.145151 34.864205 -0.022316 0.844820 0.060560 0.004637 -304780.000000 0 0 1
25.388967 0.749103 22.903551 34.201366 0.029497 0.837035 0.063687 0.011432 -230258.000000 0 0 1
25.489467 1.310603 21.590251 33.430069 0.051372 0.868682 0.057171 -0.001426 311957.000000 0 0 1
24.588167 2.399103 21.331651 32.640051 0.097264 0.858541 0.042191 0.003607 171763.000000 0 0 1
25.024667 3.266303 20.187251 32.317608 0.129790 0.896111 0.046432 -0.005782 -353910.000000 0 0 1
24.790867 2.709703 18.911951 31.298425 0.108870 0.921977 0.061751 -0.007850 283788.000000 0 0 1
24.028367 3.620603 18.124051 30.314227 0.149555 0.929952 0.042907 -0.012445 67000.100000 0 0 1
23.672467 3.140903 16.705551 29.143204 0.131911 0.960363 0.055844 -0.023801 -113843.000000 0 0 1
24.803267 3.012803 15.868851 29.598977 0.120876 1.004952 0.053494 -0.027253 25522.200000 0 0 1
24.538867 2.891503 14.481151 28.639492 0.117293 1.040678 0.050161 -0.041243 -178408.000000 0 0 1
23.617467 1.752403 13.969751 27.495628 0.074064 1.037852 0.055155 -0.023552 64511.200000 0 0 1
22.228367 1.814903 14.205451 26.442182 0.081467 1.003651 0.048872 -0.019222 298156.000000 0 0 1
21.591467 0.722903 13.609451 25.532943 0.033468 1.008636 0.050817 -0.020463 -889079.000000 0 0 1
20.071467 0.575503 13.734051 24.327333 0.028665 0.970906 0.042539 -0.026487 -345588.000000 0 1 0
19.235967 1.276703 12.845451 23.165880 0.066273 0.983036 0.056370 -0.027956 195390.000000 0 1 0
19.308967 0.907003 11.452451 22.468143 0.046939 1.035938 0.056660 -0.022807 -1018680.000000 0 1 0
19.058067 -0.618097 11.033651 22.030284 -0.032421 1.046227 0.051167 -0.016278 -100335.000000 0 1 0
20.032167 -1.630397 11.274051 23.044525 -0.081210 1.059591 0.061920 -0.030590 250617.000000 0 1 0
21.127667 -1.638797 10.382251 23.597777 -0.077411 1.115234 0.061742 -0.031071 -541706.000000 0 1 0
22.346367 -2.328197 10.964951 25.000215 -0.103812 1.116762 0.091582 -0.041880 -257030.000000 0 0 1
22.991067 -1.687097 12.102851 26.036790 -0.073249 1.087346 0.096542 -0.047913 389279.000000 0 0 1
23.989067 -2.554497 12.589451 27.212038 -0.106086 1.089823 0.098323 -0.047847 -43492.700000 0 0 1
24.475067 -2.184397 14.009451 28.285423 -0.089014 1.052629 0.113255 -0.043832 -224060.000000 0 0 1
25.290667 -1.068497 14.059551 28.955664 -0.042224 1.063799 0.091873 -0.039232 -281943.000000 0 0 1
25.747667 -0.823497 15.377451 30.001441 -0.031972 1.032636 0.082838 -0.034725 63483.900000 0 0 1
26.989567 0.115103 15.514151 31.130995 0.004265 1.049101 0.091651 -0.031509 -174547.000000 0 0 1
28.144267 -0.614497 15.245651 32.014172 -0.021830 1.074450 0.078707 -0.023936 -78363.900000 0 0 1
29.317567 0.074803 15.657651 33.236837 0.002551 1.080267 0.055820 -0.021711 1067300.000000 0 0 1
30.717467 -0.626997 15.693951 34.500086 -0.020409 1.098541 0.052673 -0.017827 818292.000000 0 0 1
31.161667 -1.063397 14.440951 34.361626 -0.034112 1.137060 0.059589 -0.019040 -41506.300000 0 0 1
32.145567 -2.073797 14.554051 35.347680 -0.064423 1.146434 0.063919 -0.012773 -196411.000000 0 0 1
32.462367 -2.508197 13.120551 35.103349 -0.077112 1.187727 0.061262 -0.012366 308306.000000 0 0 1
33.477667 -1.697597 12.459751 35.761451 -0.050665 1.214919 0.050552 -0.018564 749646.000000 0 0 1
33.570867 -1.992897 11.103551 35.415584 -0.059294 1.251897 0.055425 -0.018309 138152.000000 0 0 1
32.805367 -0.963797 10.157751 34.355507 -0.029371 1.270644 0.061527 -0.013244 156843.000000 0 0 1
33.363067 0.338403 10.008851 34.833688 0.010143 1.279356 0.062252 -0.012547 171075.000000 0 0 1
32.400567 1.219603 9.485451 33.782509 0.037624 1.286190 0.055202 -0.015851 -105054.000000 0 0 1
32.964467 2.618603 9.058951 34.286699 0.079271 1.303410 0.048222 -0.017831 125725.000000 0 0 1
33.504567 2.559303 7.755651 34.485593 0.076239 1.343961 0.069090 -0.022610 23656.100000 0 0 1
33.938667 3.780403 7.261251 34.912037 0.110932 1.361280 0.067361 -0.023830 -210152.000000 0 0 1
34.534767 3.499803 5.831851 35.198142 0.100997 1.404342 0.071995 -0.019964 -28312.100000 0 0 1
34.957767 4.774303 5.330451 35.682673 0.135734 1.420850 0.067147 -0.012987 75926.400000 0 0 1
35.356767 4.721203 4.001751 35.894355 0.132745 1.459077 0.089758 -0.033334 -400763.000000 0 0 1
35.711067 6.095003 3.479251 36.394155 0.169047 1.475051 0.091057 -0.036662 -525329.000000 0 0 1
34.690167 7.029603 3.546851 35.572505 0.199932 1.470923 0.082067 -0.038350 -463381.000000 0 0 1
35.165667 8.330903 3.168651 36.277657 0.232616 1.483340 0.083597 -0.038454 259300.000000 0 0 1
33.963067 9.343203 3.088751 35.359945 0.268458 1.483333 0.089086 -0.036005 1299180.000000 0 0 1
32.939567 9.106703 2.100251 34.239716 0.269730 1.509418 0.089091 -0.038646 1190090.000000 0 0 1
32.056467 7.967703 2.326251 33.113634 0.243615 1.500488 0.093723 -0.031334 383531.000000 0 0 1
30.880867 7.835003 1.302751 31.885927 0.248474 1.529928 0.110905 -0.032921 500151.000000 0 0 1
31.372667 7.676503 -0.022649 32.298195 0.239973 1.571498 0.110500 -0.030862 271829.000000 0 0 1
30.314467 7.353303 -0.891749 31.206300 0.237971 1.599376 0.119207 -0.032156 -163134.000000 0 0 1
30.777767 7.110603 -2.344349 31.675346 0.227047 1.644876 0.094648 -0.023795 -454528.000000 0 0 1
29.716067 6.838603 -3.213249 30.661639 0.226193 1.675786 0.107349 -0.021719 467909.000000 0 0 1
30.212167 6.496303 -4.481949 31.226028 0.211798 1.714826 0.091498 -0.020905 -913477.000000 0 0 1
29.122267 5.983603 -5.368049 30.211353 0.202645 1.749428 0.105881 -0.010292 -882731.000000 0 0 1
28.678767 4.688503 -4.896549 29.469135 0.162050 1.737729 0.103724 -0.015933 1001520.000000 0 0 1
27.481267 4.301603 -5.556449 28.365436 0.155269 1.767959 0.106743 -0.023605 -61138.800000 0 0 1
27.275367 2.775103 -5.519849 27.966329 0.101395 1.769476 0.101289 -0.015237 -342312.000000 0 0 1
27.080367 2.285903 -4.244049 27.506064 0.084212 1.725710 0.093428 -0.023746 525392.000000 0 0 1
26.788867 0.862703 -4.350449 27.153527 0.032193 1.731707 0.072735 -0.019122 -107690.000000 0 0 1
26.951367 0.226603 -2.972449 27.115733 0.008408 1.680638 0.077568 -0.021749 -1112710.000000 0 0 1
28.223467 0.280703 -2.474849 28.333156 0.009945 1.658256 0.091963 -0.030234 -907701.000000 0 0 1
28.146367 -0.017197 -1.119849 28.168641 -0.000611 1.610562 0.098523 -0.024005 -358989.000000 0 0 1
29.311667 0.375703 -0.215449 29.314866 0.012817 1.578146 0.106588 -0.020960 -128856.000000 0 0 1
30.533367 -0.292297 -0.460249 30.538234 -0.009573 1.585868 0.094460 -0.016017 823832.000000 0 0 1
31.579067 0.107203 0.440851 31.582326 0.003395 1.556837 0.083464 -0.023522 339550.000000 0 0 1
-2.660933 -21.146197 -8.380219 22.901316 1.445619 1.945425 0.005135 0.002159 194499.000000 0 1 0
-3.236433 -21.778497 -7.290119 23.193173 1.423269 1.890538 0.003217 0.005670 -118857.000000 0 1 0
-2.518433 -22.972597 -7.044419 24.160020 1.461605 1.866668 0.007146 0.008466 70737.400000 0 1 0
-3.028033 -23.562697 -5.770419 24.447237 1.442987 1.809080 0.008011 0.010785 -542996.000000 0 1 0
-2.926133 -22.770397 -4.619619 23.417816 1.442991 1.769368 0.005457 0.005657 -88578.000000 0 1 0
-3.500333 -23.352597 -3.476219 23.867975 1.422013 1.716960 0.006247 0.004609 -181191.000000 0 1 0
-2.898433 -22.800097 -2.160619 23.084922 1.444351 1.664528 0.009470 -0.005155 424244.000000 0 1 0
-1.543833 -23.156197 -1.901519 23.285374 1.504224 1.652549 0.016930 -0.000439 -103865.000000 0 1 0
-1.350733 -22.555297 -0.620419 22.604221 1.510982 1.598247 0.024207 -0.012825 721982.000000 0 1 0
0.135967 -22.492097 -0.127019 22.492867 -1.564751 1.576443 0.035197 -0.015661 566573.000000 0 1 0
0.846767 -21.438197 -0.696219 21.466207 -1.531319 1.603235 0.025364 -0.014007 232823.000000 0 1 0
2.074067 -21.148297 0.000881 21.249758 -1.473036 1.570755 0.022705 -0.014400 757232.000000 0 1 0
2.812767 -19.987197 -0.731319 20.197389 -1.430986 1.607013 0.025937 -0.016947 -231552.000000 0 1 0
3.665867 -20.462497 -1.706519 20.858201 -1.393526 1.652703 0.024194 -0.012146 -1162520.000000 0 1 0
4.377167 -19.408997 -2.194219 20.017076 -1.348985 1.680634 0.030278 -0.014316 -773937.000000 0 1 0
5.247067 -19.892597 -3.358719 20.845338 -1.312900 1.732627 0.032429 -0.011842 -356232.000000 0 1 0
6.331867 -20.748297 -2.993719 21.898555 -1.274598 1.707934 0.037647 -0.018434 117630.000000 0 1 0
6.922067 -21.569797 -3.977219 22.999770 -1.260264 1.744594 0.037254 -0.010982 155424.000000 0 1 0
8.209067 -20.861897 -4.453919 22.857054 -1.195910 1.766911 0.045821 -0.010418 -383741.000000 0 1 0
7.926467 -19.636397 -5.107419 21.783083 -1.187137 1.807467 0.039765 -0.019767 -185513.000000 0 1 0
8.959767 -19.292897 -5.996119 22.100831 -1.136026 1.845547 0.045268 -0.014164 -480516.000000 0 1 0
8.828867 -17.923397 -6.696919 21.072393 -1.113095 1.894210 0.041141 -0.021803 680930.000000 0 1 0
9.849467 -17.590897 -7.705319 21.582947 -1.060370 1.935861 0.049204 -0.019316 1269240.000000 0 1 0
9.477867 -16.495097 -8.501019 20.837118 -1.049273 1.991031 0.041929 -0.015613 -116273.000000 0 1 0
10.467067 -16.403297 -9.662019 21.725152 -1.002827 2.031679 0.053616 -0.021675 -636514.000000 0 1 0
10.098767 -17.085797 -10.846119 22.617423 -1.036975 2.070935 0.063564 -0.020817 34892.500000 0 1 0
9.201167 -16.345697 -11.658019 22.085123 -1.058095 2.126884 0.041699 -0.025243 42613.200000 0 1 0
8.682467 -17.105797 -12.893119 23.113330 -1.101107 2.162555 0.044687 -0.023529 556716.000000 0 1 0
7.429467 -17.767697 -12.678419 23.057110 -1.174747 2.153005 0.043476 -0.018793 599155.000000 0 1 0
6.942167 -18.420597 -13.824519 24.054717 -1.210387 2.183048 0.042297 -0.011375 -351063.000000 0 1 0
5.601567 -19.103197 -13.560119 24.087061 -1.285565 2.168763 0.041229 -0.011950 -557135.000000 0 1 0
5.681767 -20.246597 -12.746519 24.590260 -1.297205 2.115724 0.053305 -0.020052 317186.000000 0 1 0
4.485667 -21.040097 -12.772419 25.018824 -1.360745 2.106577 0.069051 -0.017393 401874.000000 0 0 1
4.784467 -22.512997 -12.361219 26.125196 -1.361392 2.063663 0.055701 -0.015309 5265.340000 0 0 1
5.349167 -23.227397 -13.438519 27.362736 -1.344447 2.084177 0.073442 -0.022874 -195861.000000 0 0 1
5.028767 -24.646297 -13.406919 28.503928 -1.369522 2.060487 0.054383 -0.019060 944051.000000 0 0 1
3.613767 -25.093617 -13.934519 28.929565 -1.427768 2.073356 0.059127 -0.019257 1241370.000000 0 0 1
2.494567 -24.644297 -13.143719 28.041426 -1.469917 2.058643 0.064030 -0.019418 232532.000000 0 0 1
1.235367 -24.933497 -13.685819 28.469405 -1.521290 2.072272 0.040500 -0.022332 36984.800000 0 0 1
0.610467 -26.280667 -13.279419 29.451470 -1.547572 2.038560 0.023484 -0.012811 -523047.000000 0 0 1
1.177267 -27.387107 -14.004119 30.782380 -1.527837 2.043101 0.035333 -0.007722 133345.000000 0 0 1
0.688167 -28.617707 -13.560119 31.675283 -1.546754 2.013183 0.022700 0.005067 -7403.970000 0 0 1
-0.749533 -29.079557 -13.861119 32.222865 1.545027 2.015471 0.007512 -0.003909 984904.000000 0 0 1
-1.838133 -28.428987 -13.148919 31.376426 1.506229 2.003217 0.009258 -0.010170 -62932.800000 0 0 1
-3.051933 -29.008997 -13.440419 32.116679 1.465975 2.002575 0.013836 -0.007802 138829.000000 0 0 1
-4.339533 -28.244597 -12.876619 31.343199 1.418347 1.994157 0.009947 -0.006835 992817.000000 0 0 1
-4.640033 -28.402487 -11.477019 30.983111 1.408860 1.950266 0.008757 -0.009412 19989.000000 0 0 1
-4.981733 -29.707617 -11.038219 32.081185 1.404650 1.922046 0.005991 -0.014012 -863638.000000 0 0 1
-5.439433 -29.765947 -9.554719 31.731557 1.390051 1.876654 0.013689 -0.013525 214348.000000 0 0 1
-6.754733 -29.315197 -9.259719 31.476175 1.344331 1.869396 0.025875 -0.011198 -171324.000000 0 0 1
-6.885933 -27.940397 -9.350019 30.257308 1.329161 1.884955 0.027418 -0.010321 -1330090.000000 0 0 1
-8.324233 -27.469657 -8.981419 30.075585 1.276559 1.874051 0.033991 -0.011377 -30868.400000 0 0 1
-9.310533 -27.677607 -9.917919 30.839927 1.246295 1.898208 0.047863 -0.013916 -686548.000000 0 0 1
-9.488433 -29.025727 -10.352919 32.244474 1.254849 1.897661 0.047153 -0.021527 -2446570.000000 0 0 1
-10.882633 -29.281437 -10.879419 33.078634 1.214960 1.905930 0.054367 -0.018915 -861741.000000 0 0 1
-11.049033 -28.699667 -12.172819 33.074606 1.203298 1.947698 0.058480 -0.022256 207572.000000 0 0 1
-11.887333 -29.383817 -13.091619 34.294429 1.186370 1.962476 0.069571 -0.020796 -61274.400000 0 0 1
-11.718933 -28.592667 -14.391419 34.087930 1.181821 2.006651 0.081178 -0.022741 -28791.900000 0 0 1
-12.590933 -27.505137 -14.654219 33.612651 1.141502 2.021916 0.064955 -0.032839 -64286.500000 0 0 1
-12.597933 -26.407207 -13.746619 32.326739 1.125665 2.010023 0.071761 -0.018231 -258780.000000 0 0 1
-13.577433 -25.277167 -14.091219 31.966300 1.077878 2.027303 0.093792 -0.014361 -113787.000000 0 0 1
-13.304133 -24.505797 -15.234919 31.774782 1.073423 2.070842 0.081101 -0.009751 469814.000000 0 0 1
-14.372833 -23.556397 -15.381919 31.592493 1.022950 2.079317 0.086911 -0.010983 285191.000000 0 0 1
-14.280833 -22.669797 -16.640119 31.539744 1.008646 2.126560 0.087101 -0.008051 108247.000000 0 0 1
-13.428133 -21.527397 -16.587019 30.312914 1.013082 2.149803 0.077350 -0.006996 333604.000000 0 0 1
-13.289033 -20.907197 -17.888219 30.556467 1.004597 2.196188 0.065308 -0.002687 -116377.000000 0 0 1
-13.389533 -19.323597 -17.936319 29.570129 0.964844 2.222534 0.058891 -0.003556 519435.000000 0 0 1
-12.257833 -18.582897 -17.449219 28.285222 0.987681 2.235597 0.063993 -0.000895 360298.000000 0 0 1
-12.377033 -17.215397 -17.795719 27.681193 0.947464 2.269050 0.063096 0.004692 -27413.000000 0 0 1
-11.040433 -16.466197 -17.856219 26.680918 0.980151 2.303996 0.067913 -0.000136 52818.000000 0 0 1
-10.353133 -16.187797 -16.640619 25.419330 1.001792 2.284508 0.060393 0.005515 1109560.000000 0 0 1
-9.025133 -15.677597 -16.924619 24.772622 1.048458 2.322930 0.052989 0.003475 223625.000000 0 1 0
-8.376233 -14.802897 -15.796019 23.212093 1.055865 2.319252 0.033454 0.005306 138227.000000 0 1 0
-7.832133 -15.483897 -14.693819 22.737671 1.102500 2.273433 0.044474 -0.002304 -239258.000000 0 1 0
-6.861133 -16.421797 -15.001719 23.276644 1.175034 2.271161 0.050106 -0.004765 -1412410.000000 0 1 0
-6.458233 -17.321697 -13.744919 23.036336 1.213920 2.210132 0.038646 -0.006184 -465356.000000 0 1 0
-5.681733 -16.669197 -12.774019 21.755914 1.242294 2.198332 0.028684 -0.005615 124667.000000 0 1 0
-5.509033 -17.433597 -11.626819 21.667087 1.264725 2.137213 0.020605 -0.005855 562475.000000 0 1 0
-4.386633 -18.573197 -11.674019 22.371610 1.338866 2.119783 0.023293 -0.005119 733335.000000 0 1 0
-3.068333 -18.093897 -11.885019 21.864525 1.402816 2.145487 0.024348 0.002398 -550983.000000 0 1 0
-2.164833 -19.168597 -11.724919 22.574218 1.458336 2.116938 0.010560 0.003067 -482292.000000 0 1 0
-0.763033 -18.774297 -12.152419 22.377170 1.530176 2.144888 0.016740 0.008243 -1243720.000000 0 1 0
-0.610133 -18.566397 -13.535919 22.984875 1.537946 2.200500 0.028312 0.004960 -402635.000000 0 1 0
0.612067 -17.959497 -13.870619 22.700489 -1.536729 2.228154 0.035473 -0.002916 483433.000000 0 1 0
1.905367 -18.828397 -13.870319 23.463263 -1.469943 2.203281 0.038605 -0.011901 -480713.000000 0 1 0
1.973667 -19.736997 -14.929319 24.825974 -1.471129 2.215997 0.053172 -0.006951 -59692.400000 0 1 0
1.174367 -20.888797 -14.750419 25.598747 -1.514636 2.184888 0.043056 -0.009876 -975349.000000 0 0 1
1.182867 -21.816697 -16.018219 27.091526 -1.516631 2.203420 0.055612 -0.012025 150084.000000 0 0 1
2.276067 -22.706097 -16.152019 27.957737 -1.470890 2.186741 0.074838 -0.018482 438968.000000 0 0 1
3.524767 -22.056497 -16.349519 27.680676 -1.412330 2.202657 0.070777 -0.034354 346350.000000 0 0 1
4.811267 -22.911097 -16.606619 28.702725 -1.363807 2.187774 0.072809 -0.027707 754963.000000 0 0 1
4.791067 -23.439497 -17.924419 29.893965 -1.369172 2.213797 0.065200 -0.020249 -600549.000000 0 0 1
6.094267 -23.745497 -18.270019 30.574210 -1.319569 2.211255 0.066485 -0.020413 -599037.000000 0 0 1
6.223867 -23.544597 -19.747519 31.353613 -1.312364 2.252134 0.063816 -0.014149 -64674.200000 0 0 1
6.516067 -22.174397 -20.078919 30.615780 -1.284986 2.286085 0.077644 -0.028828 -28417.900000 0 0 1
6.901267 -22.092697 -21.422519 31.537899 -1.268023 2.317554 0.072850 -0.023810 182945.000000 0 0 1
7.296967 -20.638797 -21.868719 30.942633 -1.230957 2.355691 0.059053 -0.026253 297478.000000 0 0 1
6.129667 -19.867197 -22.116519 30.354880 -1.271530 2.387070 0.061486 -0.026455 198655.000000 0 0 1
6.399467 -18.576497 -22.618719 29.960739 -1.239036 2.426367 0.063836 -0.022896 358923.000000 0 0 1
5.086867 -17.752297 -22.803319 29.342999 -1.291727 2.460889 0.051180 -0.017821 528823.000000 0 0 1
4.269667 -18.090997 -23.967019 30.330384 -1.339027 2.481929 0.054614 -0.021976 1001220.000000 0 0 1
3.128467 -17.242697 -24.139019 29.829350 -1.391312 2.513649 0.051361 -0.021290 1404260.000000 0 0 1
1.847067 -17.551697 -23.280919 29.214293 -1.465946 2.492945 0.048848 -0.001606 307914.000000 0 0 1
2.082167 -17.150897 -21.927419 27.915952 -1.449985 2.474267 0.062414 -0.002487 41714.100000 0 0 1
1.242667 -16.047097 -21.556119 26.902041 -1.493512 2.500231 0.055836 -0.010975 284602.000000 0 0 1
1.720567 -15.315697 -20.281819 25.473184 -1.458925 2.491789 0.063055 -0.018070 -164774.000000 0 0 1
2.568467 -14.247797 -20.593319 25.173032 -1.392441 2.528845 0.054579 -0.015826 -342970.000000 0 0 1
2.865967 -13.548397 -19.379119 23.818545 -1.362334 2.521139 0.050675 -0.018723 -115847.000000 0 1 0
3.860167 -12.393497 -19.400719 23.342826 -1.268853 2.551917 0.049977 -0.018998 208086.000000 0 1 0
5.229467 -12.807397 -19.411919 23.836932 -1.183142 2.522427 0.041848 -0.020268 1368660.000000 0 1 0
6.291767 -11.806397 -19.431619 23.591633 -1.081167 2.538642 0.035745 -0.014859 1031390.000000 0 1 0
6.337267 -10.765197 -18.298419 22.155869 -1.038741 2.542584 0.032604 -0.015315 -1325900.000000 0 1 0
5.279467 -9.870797 -18.256019 21.414659 -1.079653 2.591548 0.017786 -0.005062 -726872.000000 0 1 0
5.349067 -8.697697 -19.078619 21.639227 -1.019422 2.650182 0.026489 -0.013355 -292051.000000 0 1 0
5.011967 -8.880897 -20.567819 22.957032 -1.057000 2.681309 0.037839 -0.018372 -549105.000000 0 1 0
3.661067 -9.210697 -20.753919 22.999250 -1.192464 2.696043 0.036843 -0.015169 -364173.000000 0 1 0
3.307867 -9.240097 -22.158019 24.234256 -1.227021 2.724638 0.030962 -0.014814 -908969.000000 0 1 0
1.798667 -9.217197 -22.213719 24.117239 -1.378076 2.741621 0.044474 -0.014725 -810952.000000 0 1 0
1.322467 -7.954297 -21.785419 23.229813 -1.406045 2.787097 0.039094 -0.016479 -1015480.000000 0 1 0
-0.065833 -7.842897 -21.802419 23.170257 1.562403 2.796268 0.037802 -0.019802 -429404.000000 0 1 0
-0.444433 -6.685997 -22.719219 23.686768 1.504422 2.854787 0.043289 -0.025240 -197927.000000 0 1 0
-0.606233 -7.074997 -24.062219 25.088114 1.485318 2.854631 0.049237 -0.021766 -393148.000000 0 0 1
-1.230033 -6.107297 -24.850919 25.619918 1.372051 2.895963 0.058894 -0.021690 -259014.000000 0 0 1
-0.321733 -5.115397 -25.548769 26.057828 1.507984 2.943604 0.052847 -0.017982 -358402.000000 0 0 1
-1.058433 -4.346297 -26.469309 26.844644 1.331921 2.974174 0.046669 -0.018524 24992.600000 0 0 1
-0.339533 -3.171597 -26.848569 27.037381 1.464148 3.023343 0.031970 -0.010570 -405443.000000 0 0 1
-0.763933 -1.807297 -26.200109 26.273477 1.170881 3.066842 0.038883 -0.014681 63246.900000 0 0 1
-2.155033 -1.567997 -26.260239 26.395131 0.629009 3.040451 0.038953 -0.012082 -73424.600000 0 0 1
-2.592433 -1.024097 -27.479529 27.620536 0.376217 3.040504 0.040778 -0.004360 206978.000000 0 0 1
-4.149733 -1.147797 -27.510889 27.845767 0.269849 2.986349 0.051012 -0.009371 696162.000000 0 0 1
-4.889433 -0.247297 -26.717199 27.162040 0.050535 2.960362 0.042737 -0.008863 125935.000000 0 0 1
-6.287033 -0.473697 -26.743469 27.476614 0.075203 2.910067 0.054500 -0.022014 -95887.200000 0 0 1
-7.088333 0.550003 -25.912079 26.869738 -0.077438 2.873807 0.043749 -0.010234 -787891.000000 0 0 1
-7.296633 1.832803 -26.526709 27.572927 -0.246093 2.865237 0.045129 -0.013258 732239.000000 0 0 1
-8.313333 1.892803 -27.555399 28.844310 -0.223866 2.841520 0.080795 -0.022201 -33039.600000 0 0 1
-9.739833 1.750703 -27.043039 28.796793 -0.177848 2.790795 0.087686 -0.026362 -1373930.000000 0 0 1
-10.774433 2.085703 -27.905219 29.985660 -0.191214 2.766896 0.093651 -0.033075 84734.200000 0 0 1
-12.027333 1.551803 -27.594289 30.141493 -0.128314 2.727525 0.079122 -0.023864 1568450.000000 0 0 1
-13.358133 2.131503 -28.283089 31.351493 -0.158232 2.695475 0.054317 -0.020059 1700740.000000 0 0 1
-14.617533 1.494803 -28.057849 31.672537 -0.101907 2.659169 0.041595 -0.016820 1570210.000000 0 0 1
-15.693033 2.084303 -28.841499 32.900572 -0.132044 2.639601 0.032244 -0.011360 946257.000000 0 0 1
-16.438233 3.306403 -28.152559 32.767581 -0.198492 2.604420 0.016089 -0.004541 -334645.000000 0 0 1
-15.756433 4.544503 -28.003189 32.451445 -0.280801 2.611828 0.029793 -0.008463 -119824.000000 0 0 1
-15.313033 5.132903 -29.215719 33.382539 -0.323428 2.636603 0.021770 0.001273 23010.900000 0 0 1
-16.384133 5.777403 -30.177529 34.820992 -0.339009 2.619240 0.002809 0.009724 386140.000000 0 0 1
-17.156933 6.815603 -29.566709 34.856894 -0.378134 2.583433 0.001474 0.007907 631758.000000 0 0 1
-17.815333 7.625403 -30.574699 36.198689 -0.404430 2.576680 -0.006566 0.012446 -545580.000000 0 0 1
-18.892133 8.535003 -30.055669 36.511672 -0.424329 2.537785 -0.007101 0.005189 -792531.000000 0 0 1
-18.300433 9.456203 -29.138169 35.684149 -0.476934 2.526219 -0.008371 0.000181 180345.000000 0 0 1
-19.169033 10.398003 -28.603959 35.968830 -0.497019 2.490205 0.017720 0.002368 -557065.000000 0 0 1
-8.647933 25.012203 30.685961 40.521910 -1.237914 0.711676 -0.011254 0.005672 -620858.000000 0 0 1
-9.442133 26.172103 30.828341 41.527334 -1.224558 0.734207 0.000394 0.002678 107859.000000 0 0 1
-9.088633 26.998903 31.944461 42.801782 -1.246082 0.728258 0.014270 -0.008100 -265274.000000 0 0 1
-7.707833 27.665903 31.834981 42.875154 -1.299083 0.733995 0.013590 -0.012757 -437208.000000 0 0 1
-7.609333 28.705003 30.927021 42.876098 -1.311669 0.765102 0.031646 0.000668 -528476.000000 0 0 1
-6.341233 28.828303 30.377871 42.356786 -1.354279 0.771034 0.023144 -0.001883 -781299.000000 0 0 1
-6.137433 29.999303 29.377541 42.434257 -1.368995 0.806115 0.044792 -0.011816 -505194.000000 0 0 1
-6.205133 31.273403 29.950681 43.744402 -1.374925 0.816639 0.053639 -0.010514 362280.000000 0 0 1
-5.871833 32.315803 29.059431 43.854761 -1.391056 0.846473 0.063890 -0.004972 -73601.600000 0 0 1
-6.289333 33.631603 29.722991 45.322142 -1.385925 0.855533 0.057519 -0.009805 -313305.000000 0 0 1
-5.435333 33.986003 30.777061 46.171622 -1.412211 0.841186 0.059518 -0.018573 -103009.000000 0 0 1
-6.036233 -33.829543 31.779061 46.805799 1.394224 0.824457 0.063134 -0.019074 -153072.000000 0 0 1
-7.084833 34.165103 32.689174 47.812459 -1.366324 0.817981 0.054639 -0.021768 -305476.000000 0 0 1
-6.558433 33.297003 33.638288 47.783238 -1.376318 0.789815 0.069451 -0.026621 3605.140000 0 0 1
-6.686033 31.940703 33.398500 46.694446 -1.364449 0.773805 0.058313 -0.020375 -209579.000000 0 0 1
-6.765433 31.099603 -33.749449 46.389457 -1.356593 2.385503 0.058617 -0.025987 266229.000000 0 0 1
-5.474833 30.968003 -33.151319 45.694649 -1.395814 2.382552 0.054219 -0.020427 486560.000000 0 0 1
-5.557733 30.233403 -31.923709 44.317832 -1.388998 2.375082 0.056608 -0.026325 -675821.000000 0 0 1
-4.207733 30.176503 -31.160219 43.580794 -1.432252 2.367419 0.053601 -0.024020 888664.000000 0 0 1
-3.265833 29.150703 -31.531899 43.066110 -1.459229 2.392305 0.044676 -0.015798 749181.000000 0 0 1
-2.776033 29.249503 -32.855279 44.076174 -1.476171 2.411962 0.046364 -0.023731 -1227200.000000 0 0 1
-2.270733 27.860503 -33.270999 43.454841 -1.489472 2.442840 0.037866 -0.013886 412262.000000 0 0 1
-0.970833 27.527703 -32.712669 42.764888 -1.535543 2.441748 0.060129 -0.014356 1068790.000000 0 0 1
-0.460033 26.266203 -33.026289 42.200246 -1.553284 2.469642 0.075362 -0.012993 90288.700000 0 0 1
-0.082133 25.920003 33.986426 42.742607 -1.567628 0.651555 0.051494 -0.003214 94725.200000 0 0 1
-1.284033 25.859803 33.207613 42.108475 -1.521183 0.662234 0.041931 0.000322 749933.000000 0 0 1
-1.011833 25.460603 31.862411 40.798031 -1.531076 0.674564 0.057169 0.002735 -192102.000000 0 0 1
-0.865933 26.695403 30.956191 40.886185 -1.538370 0.711887 0.041855 -0.004372 251465.000000 0 0 1
-2.018733 27.517003 30.796571 41.348392 -1.497564 0.730551 0.015213 -0.004599 304536.000000 0 0 1
-1.710233 28.637003 30.017891 41.522001 -1.511146 0.762749 0.013585 -0.005117 -33866.900000 0 0 1
-2.641433 29.824703 30.241251 42.556120 -1.482462 0.780417 0.024572 -0.002810 -574581.000000 0 0 1
-2.384433 30.349803 31.520191 43.821439 -1.492392 0.768021 0.042345 -0.015704 410989.000000 0 0 1
-3.222633 31.470503 31.897481 44.924684 -1.468750 0.781268 0.048723 -0.010247 107297.000000 0 0 1
-2.720533 32.247103 33.139552 46.319616 -1.486630 0.773523 0.061200 -0.014990 -51168.700000 0 0 1
-1.424733 32.761503 32.971558 46.502361 -1.527336 0.782675 0.064857 -0.025902 -202827.000000 0 0 1
-0.628333 32.673503 34.160544 47.274680 -1.551568 0.763244 0.051661 -0.025960 1209820.000000 0 0 1
0.847267 33.220903 34.058799 47.585166 1.545298 0.773107 0.061954 -0.027519 872044.000000 0 0 1
0.796767 -33.994243 33.714990 47.884694 -1.547362 0.789660 0.081989 -0.023079 -408086.000000 0 0 1
1.915367 -33.566143 33.031572 47.132147 -1.513796 0.794237 0.062450 -0.023165 -694683.000000 0 0 1
1.939467 -32.083943 32.575673 45.763691 -1.510420 0.778705 0.073901 -0.025327 -537261.000000 0 0 1
1.638067 -31.180243 33.612925 45.877222 -1.518309 0.748558 0.070533 -0.016207 267591.000000 0 0 1
1.509867 -29.852843 33.081167 44.585149 -1.520262 0.734782 0.063672 -0.007963 -159617.000000 0 0 1
1.128667 -28.820643 34.126979 44.682816 -1.531655 0.701677 0.052044 -0.000219 -460073.000000 0 0 1
-0.234433 -28.853143 -34.008169 44.599489 1.562671 2.438001 0.044281 -0.002308 -339108.000000 0 0 1
-0.451733 -28.099543 -32.811599 43.201729 1.554722 2.433336 0.046545 -0.003608 -48734.500000 0 0 1
-1.886133 -27.547743 -32.720129 42.814045 1.502435 2.440656 0.053365 -0.006574 -63505.900000 0 0 1
-2.241333 -26.987343 -31.466869 41.515107 1.487935 2.430979 0.047670 -0.008835 139796.000000 0 0 1
-3.523233 -26.400543 -31.439119 41.204612 1.438127 2.438738 0.056322 -0.016555 -232364.000000 0 0 1
-3.939433 -25.847343 -30.088319 39.861149 1.419549 2.426188 0.060934 -0.020689 -423135.000000 0 0 1
-4.263933 -26.931543 -29.259839 39.995341 1.413775 2.391435 0.061329 -0.019224 -58426.200000 0 0 1
-4.521733 -26.639243 -27.882959 38.827242 1.402659 2.371906 0.064118 -0.017508 281599.000000 0 0 1
-3.316133 -26.384243 -26.894769 37.821338 1.445766 2.361858 0.059663 -0.017369 290928.000000 0 0 1
-2.661033 -25.215143 -27.319849 37.272761 1.465652 2.393475 0.058908 -0.012376 168785.000000 0 0 1
-1.741933 -24.666343 -26.392539 36.166683 1.500294 2.388749 0.052443 -0.005812 -911256.000000 0 0 1
-0.957333 -23.446143 -26.982409 35.758754 1.529988 2.425792 0.051372 -0.008897 238660.000000 0 0 1
-0.101233 -23.661343 -28.107139 36.740722 1.566518 2.441858 0.029028 -0.013239 -250414.000000 0 0 1
1.055767 -24.284343 -27.645309 36.811779 -1.527348 2.420358 0.030681 -0.014210 -1614840.000000 0 0 1
2.027467 -24.666443 -28.737159 37.925827 -1.488785 2.430609 0.020207 -0.017520 -679508.000000 0 0 1
2.645367 -23.750843 -29.566109 38.016514 -1.459874 2.461823 0.033839 -0.013262 191547.000000 0 0 1
3.457367 -24.435843 -30.511569 39.243084 -1.430242 2.461480 0.048611 -0.015428 -542166.000000 0 0 1
4.238067 -23.472743 -31.491179 39.504749 -1.392168 2.493355 0.063192 -0.020699 -674682.000000 0 0 1
5.339167 -22.764543 -31.004029 38.832730 -1.340422 2.495429 0.061840 -0.024474 -159890.000000 0 0 1
6.462467 -23.549243 -30.693049 39.222361 -1.302966 2.469531 0.053538 -0.015657 -852377.000000 0 0 1
7.426967 -23.633843 -31.882649 40.376004 -1.266317 2.481024 0.056739 -0.014225 -920197.000000 0 0 1
6.937667 -24.593643 -32.805109 41.583094 -1.295849 2.479821 0.062502 -0.013772 53496.300000 0 0 1
7.217767 -24.366643 34.218999 42.623577 -1.282816 0.638789 0.074349 -0.021547 -167936.000000 0 0 1
6.495567 -23.157643 33.623742 41.340353 -1.297330 0.620927 0.074827 -0.025794 664718.000000 0 0 1
5.094367 -23.350743 33.361244 41.038791 -1.355995 0.621648 0.080167 -0.018306 741343.000000 0 0 1
4.522467 -22.201643 32.814202 39.876528 -1.369846 0.604309 0.087960 -0.044053 -196808.000000 0 0 1
3.054567 -22.016243 33.257945 40.001703 -1.432935 0.589150 0.069719 -0.031910 305167.000000 0 0 1
2.077167 -22.944343 32.795356 40.078583 -1.480512 0.612390 0.058530 -0.027986 165496.000000 0 0 1
1.552867 -23.645343 33.881159 41.345454 -1.505217 0.610319 0.059977 -0.021057 86423.300000 0 0 1
0.186567 -24.343943 33.623757 41.511678 -1.563133 0.626673 0.060757 -0.016343 310878.000000 0 0 1
0.158467 -25.328543 32.626380 41.304247 -1.564540 0.660144 0.069634 -0.015875 345006.000000 0 0 1
-1.168233 -25.711043 32.247941 41.259571 1.525391 0.673591 0.056166 -0.016825 545043.000000 0 0 1
-1.187433 -26.781843 31.198101 41.133911 1.526488 0.709862 0.052588 -0.025749 -813922.000000 0 0 1
-2.412233 -26.899743 30.581411 40.799972 1.481361 0.723422 0.046797 -0.031945 -909592.000000 0 0 1
-2.473433 -27.941443 29.639881 40.808879 1.482504 0.757859 0.050236 -0.037645 -87141.900000 0 0 1
-3.829533 -28.147643 28.936861 40.549933 1.435575 0.776158 0.048019 -0.026169 217250.000000 0 0 1
-4.874233 -28.671243 29.764181 41.613757 1.402402 0.773817 0.041639 -0.021612 849815.000000 0 0 1
-5.975033 -29.049243 28.898601 41.408799 1.367939 0.798355 0.034168 -0.015054 -18978.200000 0 0 1
-7.087133 -29.678243 29.707811 42.586143 1.336387 0.798763 0.035656 -0.008121 -882215.000000 0 0 1
-8.178533 -30.111443 28.935261 42.553927 1.305586 0.823079 0.059940 -0.006106 313876.000000 0 0 1
-9.410133 -30.347143 29.607981 43.429624 1.270115 0.820649 0.054533 -0.007202 349020.000000 0 0 1
-9.509933 -31.416643 30.769541 44.991209 1.276861 0.817700 0.047331 -0.000441 -801889.000000 0 0 1
-9.375133 -32.747743 30.411871 45.663877 1.291971 0.841971 0.059196 -0.004107 -175891.000000 0 0 1
-10.491933 -33.318743 29.801761 45.916928 1.265730 0.864479 0.056233 -0.001184 -491044.000000 0 0 1
-10.263633 33.869803 29.270601 45.926831 -1.276560 0.879766 0.058644 -0.004664 -353245.000000 0 0 1
-10.484133 32.992003 30.364881 46.047967 -1.263110 0.850751 0.055867 -0.006735 484997.000000 0 0 1
-9.972733 31.700803 29.973731 44.752886 -1.266009 0.836910 0.057875 -0.008764 132273.000000 0 0 1
-10.501733 30.623103 30.971391 44.802766 -1.240429 0.807533 0.054281 -0.001856 1350230.000000 0 0 1
-11.933033 30.441603 30.729411 44.870761 -1.197208 0.816409 0.051338 0.006348 1533200.000000 0 0 1
-12.432033 29.215503 31.270671 44.564065 -1.168478 0.793013 0.044627 0.000830 76173.800000 0 0 1
-12.484833 29.164303 32.825385 45.650120 -1.166315 0.768341 0.053175 -0.007089 -367095.000000 0 0 1
-13.573733 29.896003 33.370037 46.814278 -1.144595 0.777289 0.056562 -0.003210 432957.000000 0 0 1
-13.559333 29.745703 -33.700609 46.950968 -1.143095 2.371409 0.059007 -0.010205 893771.000000 0 0 1
-14.974233 30.057003 -33.062359 47.125053 -1.108594 2.348420 0.048218 -0.004342 891211.000000 0 0 1
-15.023833 29.722603 -31.689649 45.971541 -1.102784 2.331363 0.040400 -0.009050 8817.360000 0 0 1
-16.297733 29.994403 -31.134049 46.201832 -1.073066 2.310231 0.052366 -0.006277 227704.000000 0 0 1
-16.463633 29.559003 -29.641699 44.982399 -1.062614 2.290234 0.065085 -0.019985 -96885.600000 0 0 1
-16.654633 28.192203 -29.517969 44.085004 -1.037204 2.304425 0.048975 -0.018073 75413.800000 0 0 1
-16.544833 27.722803 -28.198669 42.865490 -1.032737 2.288745 0.046491 -0.019352 -245933.000000 0 0 1
-17.085633 26.292603 -28.163879 42.147644 -0.994543 2.302609 0.022791 -0.025336 -508498.000000 0 0 1
-18.470533 26.261103 -28.303639 42.800725 -0.957831 2.293332 0.026015 -0.020710 -795915.000000 0 0 1
-18.996533 24.982503 -28.031169 42.080163 -0.920676 2.299814 0.008131 -0.019615 1066060.000000 0 0 1
-20.536533 24.786403 -28.290089 42.853752 -0.878893 2.291820 0.020672 -0.013955 1003850.000000 0 0 1
-21.477133 25.340003 -27.377949 43.045733 -0.867721 2.260126 0.019806 -0.017806 -200990.000000 0 0 1
-22.762033 24.988503 -27.784069 43.754885 -0.831992 2.258796 0.025964 -0.022481 272673.000000 0 0 1
-23.847533 24.895503 -26.620039 43.555911 -0.806895 2.228333 0.050267 -0.029696 567846.000000 0 0 1
-24.210133 26.216303 -26.217699 44.280840 -0.825161 2.204431 0.031922 -0.012468 -343339.000000 0 0 1
-25.362643 26.181703 -25.423739 44.442229 -0.801287 2.179815 0.041159 -0.010953 -290140.000000 0 0 1
-25.154023 25.856403 -23.951519 43.300736 -0.799167 2.156929 0.027462 -0.009423 -823064.000000 0 0 1
-25.043383 24.488603 -23.546719 42.205577 -0.774198 2.162656 0.025410 -0.014114 67622.900000 0 0 1
-26.277503 23.856303 -23.260319 42.434335 -0.737141 2.150945 0.029042 -0.012811 -90553.600000 0 0 1
-26.909763 24.168503 -21.849519 42.256992 -0.731782 2.114212 0.021565 -0.009713 122741.000000 0 0 1
-26.219333 23.669303 -20.676519 40.929302 -0.734328 2.100383 0.004846 -0.001195 580530.000000 0 0 1
-24.977533 24.304603 -20.395019 40.380041 -0.771744 2.100267 0.011654 -0.000830 -170481.000000 0 0 1
-24.215133 23.695903 -19.245519 38.964837 -0.774561 2.087389 0.015703 -0.007241 -635992.000000 0 0 1
-24.856233 23.826203 -18.028219 38.865627 -0.764243 2.053144 0.012047 -0.011211 207422.000000 0 0 1
-23.913233 23.743903 -16.962519 37.727214 -0.781845 2.037125 0.017193 -0.018471 -193023.000000 0 0 1
-24.584733 23.861603 -15.594319 37.642635 -0.770473 1.997940 0.015609 -0.014816 -558059.000000 0 0 1
-24.940233 25.181703 -15.331019 38.615716 -0.790216 1.979059 0.027007 -0.021423 -4171.650000 0 0 1
-25.365813 25.239903 -13.960219 38.410479 -0.782910 1.942763 -0.001486 -0.020487 181420.000000 0 0 1
-25.546843 26.704603 -13.425919 39.319618 -0.807552 1.919262 0.000418 -0.017796 -189983.000000 0 0 1
-24.296733 27.329603 -13.309919 38.915195 -0.844077 1.919866 0.024255 -0.025728 -328697.000000 0 0 1
-24.197433 28.366203 -12.427419 39.301374 -0.864542 1.892526 0.025020 -0.016108 -61489.700000 0 0 1
-22.764933 28.780403 -12.007819 38.610122 -0.901575 1.887043 0.052449 -0.023678 356074.000000 0 0 1
-21.978833 27.666203 -11.503719 37.159433 -0.899462 1.885545 0.054593 -0.027327 746187.000000 0 0 1
-20.966633 28.125703 -10.585119 36.642866 -0.930206 1.863845 0.058422 -0.025063 252163.000000 0 0 1
-20.288833 26.926603 -9.856819 35.125996 -0.925068 1.855229 0.069619 -0.020610 167375.000000 0 0 1
-19.439333 26.246803 -10.788819 34.397398 -0.933315 1.889833 0.061778 -0.021322 267444.000000 0 0 1
-18.908933 25.024803 -10.298119 33.012721 -0.923716 1.888035 0.073426 -0.015942 15685.100000 0 0 1
-18.121033 24.184703 -11.353219 32.282616 -0.927758 1.930164 0.066961 -0.016934 42108.600000 0 0 1
-17.747633 22.919903 -10.800119 30.934495 -0.911903 1.927437 0.047822 -0.011670 132746.000000 0 0 1
-17.043733 22.179103 -11.755719 30.341364 -0.915586 1.968659 0.065285 -0.001702 -210816.000000 0 0 1
-16.769633 20.699203 -11.329919 28.949001 -0.889892 1.972922 0.050754 0.006223 -260140.000000 0 0 1
-17.854733 19.806803 -11.337919 28.976704 -0.837184 1.972815 0.038460 0.007452 -135614.000000 0 0 1
-17.424033 18.542603 -10.889219 27.676708 -0.816488 1.975170 0.056211 -0.009373 -259132.000000 0 0 1
-18.637733 17.596003 -10.678819 27.767276 -0.756656 1.965552 0.044697 -0.004068 161845.000000 0 0 1
-19.299133 17.003403 -11.741719 28.274374 -0.722243 1.999044 0.030903 -0.001486 247925.000000 0 0 1
-20.058233 17.938703 -12.515919 29.677904 -0.729674 2.006143 0.026995 0.007250 -521565.000000 0 0 1
-20.807033 17.405203 -13.797919 30.434459 -0.696608 2.041333 0.023930 0.001031 -199689.000000 0 0 1
-19.961333 17.209003 -14.872719 30.262227 -0.711487 2.084563 0.039310 -0.004872 29205.700000 0 0 1
-20.617333 16.387403 -15.824319 30.725079 -0.671584 2.111838 0.026273 -0.000838 843678.000000 0 0 1
-19.592533 16.155503 -16.996819 30.557478 -0.689547 2.160632 0.041818 -0.009635 296238.000000 0 0 1
-19.207533 17.291803 -17.772619 31.365614 -0.732960 2.173203 0.027130 -0.003165 -24399.900000 0 0 1
-18.301733 16.947803 -18.792719 31.230558 -0.747007 2.216476 0.033515 -0.001315 -931299.000000 0 0 1
-17.490233 18.116303 -19.261019 31.703242 -0.802979 2.223757 0.021354 0.003985 -717898.000000 0 0 1
-16.448933 18.502603 -18.400319 30.846158 -0.844088 2.209953 0.043349 -0.004892 -94162.100000 0 0 1
-15.812833 19.628103 -18.939119 31.527739 -0.892637 2.215189 0.049454 -0.004429 -47692.900000 0 0 1
32.986541 31.506603 1.906481 45.655367 0.762455 1.529026 0.078981 -0.016422 -377269.000000 0 0 1
34.286421 31.280603 1.438381 46.433864 0.739587 1.539814 0.076982 -0.014933 -261870.000000 0 0 1
34.410061 31.751403 0.118881 46.821128 0.745235 1.568257 0.064245 -0.010951 480740.000000 0 0 1
35.833521 31.487503 -0.455319 47.704417 0.720931 1.580341 0.038291 -0.004061 55260.000000 0 0 1
-35.516142 32.252103 0.072981 47.974992 -0.737271 1.569275 0.028667 0.000572 91455.200000 0 0 1
-34.395399 32.304103 -0.829619 47.194140 -0.754054 1.588376 0.034234 -0.007525 -22822.000000 0 0 1
-33.382243 33.328703 -0.431619 47.173752 -0.784596 1.579946 0.028437 -0.001364 -624036.000000 0 0 1
-32.612443 33.046903 0.711181 46.434632 -0.792015 1.555480 0.025599 0.014361 -25379.200000 0 0 1
-32.309003 34.221003 1.430381 47.084974 -0.814129 1.540413 0.013949 0.007031 -452668.000000 0 0 1
-31.455263 34.117603 2.671381 46.482047 -0.825977 1.513293 0.027153 0.006710 -355082.000000 0 0 1
-31.308353 -33.299443 3.378481 45.830994 0.816207 1.497013 0.020288 0.009997 -120058.000000 0 0 1
-30.679223 -33.532643 4.600481 45.681696 0.829807 1.469918 0.025927 0.009612 -404293.000000 0 0 1
-30.551073 -32.323043 5.483581 44.813133 0.813574 1.448123 0.039745 0.003987 680993.000000 0 0 1
-31.719513 -31.807943 6.165481 45.341878 0.786790 1.434396 0.038097 -0.001033 535467.000000 0 0 1
-31.994913 -32.602643 7.292981 46.257912 0.794806 1.412477 0.038262 -0.015171 -1515070.000000 0 0 1
-32.960493 -31.924943 8.319681 46.634893 0.769440 1.391436 0.059776 -0.014469 740093.000000 0 0 1
-34.297269 -31.731943 7.879281 47.384618 0.746566 1.403737 0.057535 -0.015408 428957.000000 0 0 1
-34.995005 -32.909743 7.400881 48.605294 0.754699 1.417937 0.044278 -0.013220 -1522190.000000 0 0 1
35.870801 -32.672043 7.346181 49.072835 -0.738764 1.420532 0.052777 -0.009356 -56972.900000 0 0 1
35.169491 -32.696443 8.598881 48.784129 -0.748974 1.393607 0.049938 -0.005581 -693674.000000 0 0 1
33.811971 -32.534443 8.401781 47.668955 -0.766145 1.393618 0.052356 0.004723 -1298210.000000 0 0 1
33.036501 -32.631843 9.717781 47.441362 -0.779236 1.364498 0.078715 -0.003480 -448623.000000 0 0 1
31.680021 -32.500943 9.331981 46.335957 -0.798188 1.368011 0.070654 -0.010597 588053.000000 0 0 1
30.720761 -32.440443 10.419481 45.877152 -0.812618 1.341680 0.076116 -0.008161 744103.000000 0 0 1
30.634821 -31.061643 11.193681 45.040165 -0.792316 1.319637 0.081989 -0.011427 -256716.000000 0 0 1
29.874841 -29.973043 10.609081 43.628454 -0.787039 1.325165 0.068412 -0.017334 564794.000000 0 0 1
30.457481 -29.331043 9.479681 43.333966 -0.766560 1.350254 0.067888 -0.019323 -63338.200000 0 0 1
29.646531 -28.091143 9.109781 41.845158 -0.758466 1.351337 0.061978 -0.024732 -99291.400000 0 0 1
30.029631 -27.554943 7.908281 41.516196 -0.742450 1.379138 0.064125 -0.034883 -518567.000000 0 0 1
29.376721 -26.368643 7.549281 40.190655 -0.731489 1.381837 0.061404 -0.031549 -171957.000000 0 0 1
29.718951 -25.761443 6.185081 39.813606 -0.714187 1.414814 0.058208 -0.019352 -765583.000000 0 0 1
31.044351 -25.425743 5.978281 40.570432 -0.686228 1.422902 0.065130 -0.023323 -1213990.000000 0 0 1
31.170921 -24.699243 4.774981 40.055953 -0.670078 1.451304 0.061510 -0.023937 384875.000000 0 0 1
32.589511 -24.218243 4.350881 40.835398 -0.639090 1.464047 0.063478 -0.026639 484803.000000 0 0 1
33.468451 -25.274043 4.042881 42.133827 -0.646795 1.474695 0.052748 -0.012383 -1134630.000000 0 0 1
34.788051 -24.864643 3.899181 42.937892 -0.620555 1.479861 0.044835 -0.015857 -582394.000000 0 0 1
35.699201 -26.088043 3.934481 44.390304 -0.631082 1.482046 0.041555 -0.013526 -260144.000000 0 0 1
35.506601 -26.793743 5.134681 44.777096 -0.646447 1.455871 0.033048 -0.009692 -389021.000000 0 0 1
-36.133763 -28.008743 5.105681 46.002245 0.659398 1.459580 0.030405 -0.010708 -752401.000000 0 0 1
35.582851 -29.076743 6.045381 46.348063 -0.685115 1.439989 0.045912 -0.011120 364183.000000 0 0 1
34.272361 -29.510843 5.817781 45.599684 -0.710885 1.442864 0.030695 -0.001919 -47673.200000 0 0 1
33.222601 -28.552843 5.734681 44.180229 -0.709949 1.440627 0.046187 -0.017096 -457757.000000 0 0 1
31.798761 -29.155843 5.692181 43.515805 -0.742067 1.439613 0.046312 -0.015236 -41854.300000 0 0 1
31.341461 -29.725243 4.510881 43.430695 -0.758938 1.466745 0.025305 -0.013147 261913.000000 0 0 1
30.098651 -29.196943 4.030581 42.126427 -0.770192 1.474972 0.035185 -0.009818 441841.000000 0 0 1
28.971721 -30.219343 4.219581 42.075815 -0.806473 1.470342 0.050440 -0.012583 -446784.000000 0 0 1
29.147651 -31.416543 3.551181 43.002275 -0.822843 1.488121 0.054435 -0.001608 -265726.000000 0 0 1
27.986121 -32.234543 3.591681 42.839105 -0.855829 1.486857 0.061212 -0.001864 13949.500000 0 0 1
27.992361 -33.543443 2.714581 43.773323 -0.875364 1.508742 0.067067 -0.004275 -73703.900000 0 0 1
27.962611 -33.396943 1.312281 43.577351 -0.873733 1.540678 0.063458 -0.007040 165048.000000 0 0 1
28.132831 33.959803 0.735781 44.105167 0.878967 1.554113 0.056579 -0.004212 -166552.000000 0 0 1
27.889261 34.148003 -0.769719 44.096365 0.885945 1.588253 0.049365 -0.005374 118683.000000 0 0 1
28.947731 -33.774943 -1.451519 44.506458 -0.862208 1.603416 0.031996 -0.004675 350390.000000 0 0 1
28.663911 -33.847143 -2.843519 44.444735 -0.868126 1.634819 0.038967 0.000184 44883.600000 0 0 1
29.727561 -33.236643 -3.779019 44.751350 -0.841072 1.655342 0.018832 0.000128 -30914.100000 0 0 1
29.552441 -31.885743 -4.086519 43.666314 -0.823358 1.664519 0.015346 0.012470 330405.000000 0 0 1
30.659421 -31.444643 -4.871319 44.187050 -0.798041 1.681264 0.004586 0.015028 204768.000000 0 0 1
30.948931 -29.895043 -4.745019 43.290474 -0.768079 1.680626 -0.001711 0.018860 57767.900000 0 0 1
29.960921 -28.981743 -5.246119 42.013331 -0.768787 1.695991 0.001355 0.008078 261479.000000 0 0 1
30.318061 -27.606843 -5.023419 41.310499 -0.738627 1.692700 0.010417 -0.007133 -137841.000000 0 0 1
31.366671 -27.031143 -5.969819 41.835266 -0.711293 1.713983 0.022402 -0.011783 -312511.000000 0 0 1
32.640241 -27.607643 -5.793319 43.140814 -0.702060 1.705492 0.012917 0.005126 -581757.000000 0 0 1
33.605671 -27.191443 -6.704619 43.745487 -0.680285 1.724667 0.023942 -0.000264 -163906.000000 0 0 1
33.765651 -28.037943 -7.935719 44.600685 -0.692986 1.749677 0.022776 -0.010289 -266657.000000 0 0 1
32.633661 -27.923043 -8.800519 43.841776 -0.707766 1.772903 0.021999 -0.005956 312791.000000 0 0 1
32.368131 -29.051243 -9.677519 44.556986 -0.731447 1.789735 0.019873 0.007966 159664.000000 0 0 1
32.124771 -30.444343 -9.083219 45.181454 -0.758547 1.773214 0.019764 0.009526 -564853.000000 0 0 1
33.217801 -30.948843 -8.352019 46.162857 -0.750053 1.752723 0.017934 0.003374 -698520.000000 0 0 1
33.065211 -32.300043 -7.930919 46.898832 -0.773693 1.740720 0.023225 -0.000034 1539030.000000 0 0 1
34.396621 -32.966143 -7.300719 48.199529 -0.764166 1.722850 0.008327 -0.002515 1521370.000000 0 0 1
34.176531 -34.190443 -6.657319 48.798991 -0.785602 1.707646 0.012855 -0.001418 -118738.000000 0 0 1
33.588091 -34.094843 -5.346819 48.158142 -0.792885 1.682052 0.020436 0.002460 -104848.000000 0 0 1
33.263701 33.193903 -4.668819 47.224007 0.784348 1.669823 0.019030 0.003286 -471544.000000 0 0 1
32.226021 32.588103 -5.353519 46.142833 0.790985 1.687079 0.030287 -0.002576 -591705.000000 0 0 1
32.147071 31.219803 -5.016619 45.091870 0.770766 1.682280 0.037780 -0.000811 -285267.000000 0 0 1
30.876421 30.586103 -5.561619 43.815461 0.780675 1.698072 0.037479 -0.002390 -516152.000000 0 0 1
30.899031 30.342903 -6.938019 43.858613 0.776318 1.729654 0.025005 -0.004840 -545423.000000 0 0 1
29.742731 29.702603 -7.398719 42.680390 0.784723 1.745028 0.024480 -0.004364 -265626.000000 0 0 1
29.839761 29.119603 -8.840719 42.620663 0.773184 1.779741 0.034553 -0.005739 -430928.000000 0 0 1
30.573551 27.924503 -8.984419 42.370269 0.740145 1.784464 0.044160 -0.009651 -17038.400000 0 0 1
30.877871 27.627303 -10.396919 42.717756 0.729895 1.816652 0.038414 -0.008683 464454.000000 0 0 1
32.065301 28.460603 -10.956919 44.252045 0.725912 1.821001 0.045531 -0.012141 -557846.000000 0 0 1
33.301411 28.269103 -10.336819 44.888484 0.703847 1.803159 0.037037 -0.015149 -15329.000000 0 0 1
34.390261 28.949903 -10.954619 46.268678 0.699717 1.809827 0.044927 -0.011472 411419.000000 0 0 1
34.674041 30.372603 -10.365319 47.246417 0.719366 1.791984 0.037651 -0.010501 -377302.000000 0 0 1
35.281621 30.258403 -9.049919 47.352558 0.708904 1.763097 0.027959 -0.002790 250750.000000 0 0 1
35.221921 31.509303 -8.422219 48.003684 0.729820 1.747159 0.030710 -0.002254 -560880.000000 0 0 1
-36.184053 31.600203 -7.223719 48.580250 -0.717877 1.720046 0.023733 -0.002227 1288770.000000 0 0 1
-34.773429 31.737103 -7.482419 47.669924 -0.739778 1.728411 0.030626 -0.001996 610251.000000 0 0 1
-34.133526 30.534503 -7.820519 46.460887 -0.729802 1.739926 0.025918 -0.001365 -197853.000000 0 0 1
-32.726693 30.823303 -8.444219 45.742948 -0.755456 1.756463 0.034528 -0.003520 202126.000000 0 0 1
-31.818713 31.321803 -7.471019 45.269217 -0.777528 1.736590 0.022821 -0.010596 309272.000000 0 0 1
-30.502173 31.562003 -7.978519 44.611651 -0.802473 1.750608 0.030740 -0.022381 568126.000000 0 0 1
-30.415773 32.930003 -8.670919 45.658397 -0.825068 1.761865 0.013851 -0.013463 -463393.000000 0 0 1
-30.643963 34.055403 -7.858519 46.482032 -0.838077 1.740678 -0.004951 -0.004152 -214415.000000 0 0 1
-29.574283 -34.299843 -7.003019 45.827500 0.859246 1.724210 0.020264 -0.016122 -171157.000000 0 0 1
-29.787543 -32.840543 -6.537619 44.816732 0.834108 1.717193 0.000478 -0.011543 532275.000000 0 0 1
-30.733773 -32.661643 -5.451219 45.178131 0.815799 1.691752 -0.005679 -0.015239 366132.000000 0 0 1
-30.366703 -33.134143 -4.166719 45.137232 0.828952 1.663240 -0.001595 -0.016123 -381496.000000 0 0 1
-31.555473 -33.043643 -3.217919 45.803769 0.808431 1.641109 0.004018 -0.013877 -437636.000000 0 0 1
-32.005553 -31.730143 -2.943119 45.164360 0.781077 1.636007 0.003692 -0.015787 -17363.100000 0 0 1
-32.774483 -31.675343 -1.754919 45.613308 0.768346 1.609280 0.014451 -0.011897 -101850.000000 0 0 1
-33.665023 -30.448343 -1.563719 45.418946 0.735268 1.605232 0.024844 -0.007730 -344479.000000 0 0 1
-34.512694 -30.437343 -0.476919 46.019402 0.722734 1.581160 0.017959 -0.003565 -399974.000000 0 0 1
-35.085996 -29.126643 -0.273619 45.601133 0.692857 1.576797 0.026580 -0.004511 -247545.000000 0 0 1
-35.981171 -29.069443 0.941081 46.266217 0.679544 1.550454 0.026623 0.002084 -1054650.000000 0 0 1
35.278311 -29.922843 0.935081 46.268890 -0.703445 1.550585 0.011116 0.010175 211763.000000 0 0 1
34.325241 -29.723043 1.983481 45.449045 -0.713666 1.527141 0.015493 0.011947 340620.000000 0 0 1
33.482941 -28.457143 1.858581 43.981481 -0.704436 1.528525 0.012448 0.018797 -1352430.000000 0 0 1
32.606961 -28.534543 0.755081 43.335946 -0.718890 1.553372 -0.001526 0.011812 -132100.000000 0 0 1
31.979201 -27.271943 0.667381 42.034195 -0.706119 1.554919 0.001466 0.008540 -706648.000000 0 0 1
30.874901 -27.206743 -0.425119 41.153944 -0.722327 1.581126 0.002358 -0.000035 324367.000000 0 0 1
29.608951 -27.609643 0.126581 40.484545 -0.750471 1.567670 0.009914 0.005805 413529.000000 0 0 1
29.277131 -28.973343 0.216781 41.190436 -0.780183 1.565533 0.017356 0.005629 -480723.000000 0 0 1
28.901621 -29.637343 -1.144519 41.412386 -0.797966 1.598437 0.015448 0.005744 -41171.600000 0 0 1
27.524221 -29.359943 -1.356319 40.266967 -0.817658 1.604486 0.029188 0.013907 190899.000000 0 0 1
27.255081 -29.845343 -2.647019 40.504205 -0.830730 1.636195 0.027795 0.010838 -389614.000000 0 0 1
25.822481 -30.224343 -3.026319 39.868158 -0.863776 1.646778 0.051350 0.006999 -458040.000000 0 0 1
24.968181 -29.169343 -3.316119 38.539036 -0.862845 1.656949 0.069701 0.005266 -115877.000000 0 0 1
23.660981 -29.674643 -3.587019 38.122082 -0.897675 1.665029 0.062994 0.001792 -58714.200000 0 0 1
22.628781 -28.576843 -3.650519 36.633645 -0.901040 1.670611 0.063932 -0.000530 -535033.000000 0 0 1
22.606781 -27.792943 -4.839919 36.151612 -0.887938 1.705078 0.065757 -0.007259 108303.000000 0 0 1
22.014981 -26.506743 -4.559219 34.757061 -0.877707 1.702349 0.076618 -0.018878 191093.000000 0 0 1
21.439081 -25.765443 -5.802919 34.017145 -0.876794 1.742223 0.068989 -0.036999 160161.000000 0 0 1
20.221181 -26.293943 -6.301219 33.763486 -0.915218 1.758525 0.073395 -0.036250 -130035.000000 0 0 1
19.673181 -25.576543 -7.379319 33.100573 -0.915127 1.795622 0.078977 -0.034905 -218905.000000 0 0 1
18.172281 -25.774643 -7.581919 32.435313 -0.956693 1.806734 0.072057 -0.031485 -265745.000000 0 0 1
17.393081 -25.452443 -6.437619 31.492683 -0.971328 1.776664 0.067762 -0.029542 -198634.000000 0 0 1
16.024181 -25.648743 -6.711719 30.978695 -1.012373 1.789184 0.068119 -0.029572 -233066.000000 0 0 1
15.119181 -24.631543 -6.032819 29.524523 -1.020282 1.776578 0.061510 -0.022427 -393459.000000 0 0 1
15.012081 -24.923743 -4.665519 29.467314 -1.028672 1.729794 0.044195 -0.011809 137296.000000 0 0 1
14.385281 -23.883643 -3.935419 28.157632 -1.028682 1.711019 0.042769 -0.015147 -124824.000000 0 0 1
14.376681 -24.197143 -2.419919 28.249720 -1.034691 1.656563 0.042218 -0.010372 -111466.000000 0 0 1
13.785081 -25.497743 -2.258619 29.073437 -1.075168 1.648561 0.037321 -0.010055 215203.000000 0 0 1
14.474581 -26.379743 -1.413619 30.123125 -1.068951 1.617742 0.029665 -0.009825 -376626.000000 0 0 1
13.980981 -27.826043 -1.554219 31.179675 -1.105197 1.620664 0.027675 -0.005947 -469750.000000 0 0 1
12.719181 -28.036043 -0.998619 30.802508 -1.144893 1.603222 0.035429 -0.011618 -473548.000000 0 0 1
12.146281 -29.331343 -1.328619 31.774598 -1.178189 1.612622 0.034306 -0.009502 -34001.400000 0 0 1
12.731081 -30.702343 -0.841619 33.247897 -1.177715 1.596112 0.027771 -0.006304 -624027.000000 0 0 1
13.889381 -31.067343 -1.527019 34.065033 -1.150379 1.615638 0.028604 0.002471 -547979.000000 0 0 1
14.240181 -32.404443 -1.194819 35.415509 -1.156749 1.604540 0.030433 -0.001670 -521458.000000 0 0 1
15.627081 -32.855843 -1.683219 36.421770 -1.126838 1.617027 0.039239 0.003748 -421372.000000 0 0 1
16.601881 -32.135543 -0.979619 36.183909 -1.093941 1.597873 0.040876 0.012811 -886119.000000 0 0 1
17.760581 -32.005243 -1.737019 36.644114 -1.064178 1.618216 0.060875 0.005905 -141135.000000 0 0 1
18.723181 -30.946543 -1.057319 36.185135 -1.026696 1.600020 0.061607 0.005060 214564.000000 0 0 1
18.339481 -29.676743 -1.398519 34.914202 -1.017265 1.610863 0.053216 0.004220 98452.200000 0 0 1
19.057881 -28.720443 -0.677319 34.474997 -0.984944 1.590444 0.049476 0.002547 -132586.000000 0 0 1
18.636981 -27.319143 -1.143819 33.090497 -0.972120 1.605370 0.049796 0.000899 -49845.800000 0 0 1
19.047781 -26.929643 -2.449019 33.075993 -0.955177 1.644906 0.059315 -0.010642 -286874.000000 0 0 1
18.170581 -26.073543 -3.091419 31.930495 -0.962156 1.667765 0.067540 -0.008142 -319308.000000 0 0 1
32.367671 -29.164143 13.825681 45.709549 -0.733382 1.263515 0.076986 -0.026676 -178108.000000 0 0 1
33.117271 -29.858143 14.765281 46.971011 -0.733692 1.251026 0.082841 -0.014804 27788.200000 0 0 1
32.310821 -30.637943 15.632681 47.191667 -0.758829 1.233158 0.082556 -0.009870 15327.400000 0 0 1
33.227121 -31.089043 16.779181 48.498568 -0.752167 1.217521 0.077522 -0.006296 -311531.000000 0 0 1
32.681781 -31.416043 18.048481 48.793588 -0.765654 1.191901 0.070280 -0.009123 -27262.600000 0 0 1
33.593211 -31.675743 19.123081 49.975482 -0.756029 1.178134 0.052566 -0.007049 152177.000000 0 0 1
34.296651 -33.094343 19.053481 51.327682 -0.767559 1.190482 0.052846 -0.010333 711551.000000 0 0 1
35.438541 -33.065743 18.167781 51.761973 -0.750775 1.212171 0.063461 0.000349 725766.000000 0 0 1
35.993401 34.202703 18.053481 52.832547 0.759894 1.222059 0.060522 -0.000521 -832545.000000 0 0 1
-35.208538 34.213803 17.143581 52.001229 -0.771070 1.234835 0.065758 -0.000748 -1116400.000000 0 0 1
-34.075261 -33.727543 17.625581 51.081618 0.780270 1.218507 0.049428 0.003062 -10701.300000 0 0 1
-33.080383 -33.513543 16.641881 49.944184 0.791903 1.231091 0.063327 0.003201 -473117.000000 0 0 1
-31.789973 -32.899243 17.232081 48.886678 0.802544 1.210565 0.041901 -0.003043 824179.000000 0 0 1
-30.719293 -32.781143 16.246981 47.772824 0.817857 1.223785 0.033376 -0.003708 756432.000000 0 0 1
-30.929103 -31.728943 15.311581 46.880484 0.798163 1.238083 0.049124 -0.002088 -858400.000000 0 0 1
-29.821993 -31.515143 14.288081 45.680464 0.812995 1.252674 0.038312 -0.010743 654790.000000 0 0 1
-28.556903 -31.070843 14.796281 44.719391 0.827534 1.233572 0.041026 -0.011522 797267.000000 0 0 1
-27.520293 -30.966443 13.812681 43.670096 0.844252 1.248974 0.038386 -0.005625 369221.000000 0 0 1
-26.183433 -30.692043 14.484081 42.864464 0.864504 1.226107 0.032773 -0.012294 -406911.000000 0 0 1
-25.018533 -30.672243 13.713681 41.890077 0.886571 1.237274 0.027062 -0.009381 -100595.000000 0 0 1
-23.868433 -30.563743 14.541681 41.416241 0.907786 1.212039 0.024089 -0.004170 -469093.000000 0 0 1
-22.563133 -30.342543 13.825281 40.260444 0.931395 1.220266 0.018423 0.002718 -520064.000000 0 0 1
-22.068733 -31.558743 13.287481 40.737457 0.960547 1.238543 0.007940 0.003986 -51376.300000 0 0 1
-20.846033 -31.426943 12.591781 39.758808 0.985116 1.248544 -0.005293 0.003954 37142.300000 0 0 1
-20.511933 -32.777043 11.888081 40.452447 1.011621 1.272515 0.005433 0.003766 -114205.000000 0 0 1
-21.383333 -33.233143 10.873881 40.986950 0.999051 1.302280 0.005245 0.006104 92709.000000 0 0 1
-21.376033 33.972403 10.883881 41.587472 -1.009170 1.306002 0.014719 0.009556 29113.900000 0 0 1
-22.465733 33.369503 9.973181 41.445111 -0.978256 1.327775 0.002200 0.012604 -102584.000000 0 0 1
-22.159133 33.675503 8.585281 41.216183 -0.988804 1.360961 0.008322 0.008320 371764.000000 0 0 1
-23.218133 33.194803 7.759081 41.245363 -0.960439 1.381549 0.012254 0.007826 -424489.000000 0 0 1
-23.115733 33.361503 6.185681 41.055933 -0.964861 1.419556 0.028094 0.003690 -563407.000000 0 0 1
-22.304233 32.416503 5.510081 39.732474 -0.968134 1.431668 0.015950 0.009454 486640.000000 0 0 1
-20.913833 32.392303 5.804881 38.991619 -0.997491 1.421366 0.024244 0.006492 -138019.000000 0 0 1
-20.005233 33.527603 5.296481 39.400028 -1.032822 1.435960 0.026174 0.000727 -814509.000000 0 0 1
-20.090833 -33.879443 6.008481 39.844198 1.035533 1.419419 0.017899 0.000947 175020.000000 0 0 1
-19.209733 -33.860043 7.128381 39.576890 1.054747 1.389693 0.022052 0.000552 -284970.000000 0 0 1
-19.214433 -32.634843 8.045281 38.716327 1.038675 1.361470 0.013055 0.002513 -639580.000000 0 0 1
-18.484233 -31.464943 7.668881 37.289694 1.039652 1.363661 0.030134 -0.004217 -67002.700000 0 0 1
-18.706033 -30.332543 8.491681 36.634513 1.018189 1.336874 0.031784 -0.007383 -76986.200000 0 0 1
-18.064133 -30.330643 9.900581 36.664456 1.033638 1.297370 0.009433 0.001584 854677.000000 0 0 1
-16.649833 -30.547643 9.919081 36.176838 1.071765 1.293056 0.020282 -0.009105 257267.000000 0 0 1
-16.096133 -30.624443 11.205481 36.366260 1.086881 1.257571 0.032878 -0.005667 307756.000000 0 0 1
-14.758533 -31.414743 11.190181 36.468076 1.131602 1.258916 0.043473 -0.004773 357794.000000 0 0 1
-13.695933 -30.668743 10.612881 35.224759 1.150793 1.264751 0.042327 -0.003668 235518.000000 0 0 1
-12.548233 -31.509543 10.444581 35.488009 1.191812 1.272060 0.039222 0.008347 271278.000000 0 0 1
-11.355433 -30.771643 9.835581 34.242934 1.217276 1.279463 0.041672 0.010076 196489.000000 0 0 1
-10.471433 -30.096943 10.738281 33.627185 1.235973 1.245770 0.033510 0.007450 -77715.200000 0 0 1
-9.615633 -29.205943 10.092281 32.362041 1.252738 1.253651 0.051599 0.006878 -49332.700000 0 0 1
-8.728633 -28.404443 11.037981 31.699187 1.272657 1.215135 0.044678 0.010469 -36519.900000 0 0 1
-9.418733 -27.342743 11.683781 31.190526 1.239057 1.186838 0.045306 0.000879 -288719.000000 0 0 1
-9.023433 -27.156443 12.979781 31.422436 1.249998 1.144970 0.044670 0.003393 85800.500000 0 0 1
-9.479733 -25.797443 13.621581 30.674434 1.218645 1.110661 0.038243 -0.004096 248034.000000 0 0 1
-8.804333 -24.679843 13.064281 29.279453 1.228128 1.108290 0.028419 0.001092 -128991.000000 0 0 1
-9.583133 -23.959943 12.139081 28.517935 1.190320 1.131100 0.029692 0.004007 -215434.000000 0 0 1
-8.896233 -22.764943 11.537581 27.027789 1.198258 1.129758 0.025357 -0.000807 -587907.000000 0 0 1
-7.914033 -23.006243 10.587581 26.533300 1.239481 1.160338 0.012593 0.003702 -851451.000000 0 0 1
-7.277133 -21.829343 10.289281 25.206075 1.249018 1.150308 0.019132 0.011925 -121437.000000 0 0 1
-6.129133 -22.023843 9.248381 24.660667 1.299369 1.186372 0.015619 0.011773 -326252.000000 0 1 0
-5.009933 -22.540343 9.857481 25.106502 1.352086 1.167311 0.001795 0.008831 -1189200.000000 0 0 1
-4.030933 -22.904943 8.885081 24.896376 1.396595 1.205868 0.011764 0.009453 261194.000000 0 1 0
-2.936133 -23.808243 9.488281 25.796915 1.448092 1.194147 0.019202 0.007600 -330101.000000 0 0 1
-2.288433 -23.095243 10.484681 25.466757 1.472032 1.146477 0.023760 0.013606 -592753.000000 0 0 1
-1.187733 -23.829943 10.982281 26.265708 1.520995 1.139419 0.034751 -0.001299 319028.000000 0 0 1
-0.212633 -23.074243 11.904781 25.965164 1.561581 1.094500 0.039106 0.003829 44764.800000 0 0 1
-0.798433 -22.781643 13.190781 26.336998 1.535763 1.046220 0.027040 0.004441 616939.000000 0 0 1
0.176467 -22.527743 14.247281 26.655494 -1.562963 1.006884 0.045844 0.001235 365696.000000 0 0 1
0.774167 -21.139643 14.246581 25.503900 -1.534191 0.978095 0.036448 -0.005812 -293945.000000 0 0 1
1.716267 -21.008543 13.208781 24.875216 -1.489284 1.011014 0.052732 -0.015019 -550965.000000 0 1 0
2.066867 -19.674743 13.117681 23.736913 -1.466128 0.985282 0.050349 -0.014687 -595040.000000 0 1 0
3.549167 -19.498043 12.824581 23.605935 -1.390741 0.996460 0.053329 -0.016379 -534030.000000 0 1 0
3.919767 -20.083043 11.585381 23.514129 -1.378042 1.055608 0.052635 -0.009653 147486.000000 0 1 0
5.341967 -19.963643 11.471281 23.636285 -1.309337 1.064061 0.070504 -0.019687 762156.000000 0 1 0
5.926667 -20.716843 10.283481 23.875991 -1.292159 1.125524 0.079244 -0.027117 -350943.000000 0 1 0
5.604967 -19.985043 9.053881 22.644875 -1.297363 1.159476 0.065083 -0.028751 -217554.000000 0 1 0
5.757167 -20.788643 7.897681 22.971418 -1.300629 1.219831 0.066057 -0.031865 -419232.000000 0 1 0
7.129467 -21.352443 7.490181 23.724648 -1.248541 1.249588 0.062233 -0.018432 -649132.000000 0 1 0
8.080767 -20.557743 6.839781 23.123629 -1.196273 1.270512 0.055355 -0.028831 485805.000000 0 1 0
8.835167 -19.595043 7.647181 22.814585 -1.147204 1.228991 0.065244 -0.024105 526158.000000 0 1 0
9.696867 -20.117143 8.824381 24.012463 -1.121636 1.194486 0.058751 -0.019305 -488537.000000 0 1 0
9.006267 -20.244243 10.014581 24.315305 -1.152208 1.146298 0.078071 -0.022381 -1099600.000000 0 1 0
9.829267 -19.896443 11.087881 24.807742 -1.111943 1.107441 0.077893 -0.017341 62352.900000 0 1 0
9.158267 -19.866943 12.482281 25.186834 -1.138849 1.052285 0.078350 -0.021097 26612.600000 0 0 1
9.143067 -21.144443 13.065781 26.483916 -1.162666 1.054862 0.078474 -0.021562 -609804.000000 0 0 1
8.327967 -21.121443 14.182581 26.769684 -1.195222 1.012431 0.084248 -0.023242 -35068.300000 0 0 1
8.259367 -22.416543 15.008481 28.212995 -1.217781 1.009870 0.090383 -0.017002 250560.000000 0 0 1
7.919567 -23.549643 14.247981 28.641058 -1.246385 1.050120 0.093093 -0.017357 -256487.000000 0 0 1
7.908167 -24.729143 15.072981 30.021066 -1.261283 1.044794 0.096775 -0.016800 342081.000000 0 0 1
7.591067 -26.043243 14.387381 30.706214 -1.287175 1.083148 0.089819 -0.015439 870427.000000 0 0 1
8.810367 -26.407643 13.726281 31.038637 -1.248779 1.112711 0.083277 -0.009555 449859.000000 0 0 1
8.636467 -27.390343 12.673081 31.391503 -1.265353 1.155227 0.068588 -0.004587 -564244.000000 0 0 1
9.917967 -27.871843 12.005781 31.927175 -1.228927 1.185281 0.054683 -0.010611 -735881.000000 0 0 1
10.577767 -28.797843 12.794081 33.239937 -1.218784 1.175696 0.057471 -0.014556 355644.000000 0 0 1
11.791867 -29.185043 12.125881 33.732060 -1.186814 1.203090 0.040155 -0.013219 896270.000000 0 0 1
12.863367 -30.016543 12.889881 35.108519 -1.165929 1.194860 0.050986 -0.019330 114537.000000 0 0 1
13.707567 -29.281943 13.735681 35.128315 -1.132974 1.169063 0.055044 -0.016892 977723.000000 0 0 1
14.577667 -30.096743 14.634481 36.503292 -1.119739 1.158288 0.069806 -0.018572 1749230.000000 0 0 1
16.076367 -30.223443 14.209681 37.065093 -1.081942 1.177353 0.056870 -0.011888 131137.000000 0 0 1
16.754667 -29.028943 14.158581 36.384940 -1.047332 1.171106 0.050112 -0.019919 -1347850.000000 0 0 1
18.033567 -29.230243 13.721881 36.985222 -1.018008 1.190700 0.040191 -0.011950 -1361060.000000 0 0 1
18.876267 -27.993343 13.509181 36.365350 -0.977519 1.190188 0.012355 -0.016389 309504.000000 0 0 1
20.157767 -28.203843 12.916981 36.995145 -0.950261 1.214129 -0.006544 -0.014584 833833.000000 0 0 1
20.895567 -26.976643 12.760681 36.430742 -0.911749 1.212934 -0.003096 -0.014151 566221.000000 0 0 1
22.271467 -27.103443 12.040481 37.088921 -0.882951 1.240167 0.011332 -0.011009 589724.000000 0 0 1
23.258467 -27.733643 12.846981 38.407762 -0.872936 1.229733 0.020629 -0.017078 115823.000000 0 0 1
24.352067 -28.171343 12.071481 39.145477 -0.857986 1.257312 0.030699 -0.021559 -321733.000000 0 0 1
25.462667 -28.927043 12.873981 40.630784 -0.849008 1.248387 0.053460 -0.022822 437240.000000 0 0 1
26.494567 -28.107343 13.452581 40.901794 -0.814927 1.235658 0.040355 -0.019899 384004.000000 0 0 1
27.553067 -28.112843 12.484981 41.296225 -0.795454 1.263663 0.022732 -0.018396 191354.000000 0 0 1
28.872467 -27.397943 12.989781 41.868855 -0.759200 1.255341 0.055544 -0.024986 455116.000000 0 0 1
28.840167 -26.018843 13.453381 41.106312 -0.734015 1.237370 0.060590 -0.019116 -473653.000000 0 0 1
28.188267 -25.735843 14.627481 40.876341 -0.739950 1.204835 0.051965 -0.014391 -503924.000000 0 0 1
29.076367 -25.842243 15.928581 42.035418 -0.726577 1.182154 0.045674 -0.003487 462723.000000 0 0 1
29.554967 -27.134943 16.361681 43.330195 -0.742735 1.183588 0.077340 0.001663 139064.000000 0 0 1
30.302667 -27.044243 17.556581 44.247895 -0.728640 1.162793 0.089206 0.011742 163950.000000 0 0 1
30.482767 -28.431743 18.194681 45.481969 -0.750599 1.159234 0.071993 0.017757 618504.000000 0 0 1
29.236767 -28.964843 18.660181 45.187974 -0.780726 1.145110 0.046415 0.014694 331836.000000 0 0 1
29.471567 -29.885643 19.647781 46.343934 -0.792374 1.132988 0.058089 -0.001210 -937437.000000 0 0 1
28.310867 -30.696343 20.127981 46.356297 -0.825803 1.121644 0.054274 -0.000611 -1894550.000000 0 0 1
27.475767 -29.897843 20.980781 45.705492 -0.827589 1.093879 0.053549 0.002467 805637.000000 0 0 1
26.396467 -30.622543 21.612181 45.843211 -0.859380 1.079877 0.052754 -0.003252 731967.000000 0 0 1
25.297667 -31.124443 20.647881 45.111394 -0.888305 1.095380 0.068346 -0.007200 -1250720.000000 0 0 1
25.642667 -32.272143 19.864781 45.756389 -0.899372 1.121710 0.054300 -0.008013 -218829.000000 0 0 1
24.860567 -32.576343 18.716381 45.050736 -0.918934 1.142358 0.058737 -0.003125 -274015.000000 0 0 1
25.117767 -31.616443 17.541181 44.024933 -0.899447 1.160984 0.051784 -0.002282 640616.000000 0 0 1
26.448467 -31.746443 17.033681 44.693449 -0.876186 1.179786 0.064201 -0.018666 379980.000000 0 0 1
26.810967 -30.705143 16.131481 43.839006 -0.853001 1.193970 0.068786 -0.027381 102809.000000 0 0 1
28.232667 -30.901743 15.547081 44.651013 -0.830503 1.215156 0.086739 -0.024457 14404.800000 0 0 1
28.377267 -31.883143 14.522481 45.085547 -0.843511 1.242839 0.100368 -0.021659 223154.000000 0 0 1
28.293467 -33.182643 14.917281 46.088321 -0.864761 1.241193 0.081474 -0.029060 -413072.000000 0 0 1
27.340467 -34.094243 14.101581 45.921380 -0.894893 1.258672 0.093335 -0.030017 -53302.300000 0 0 1
27.745767 34.260803 12.812681 45.910728 0.890084 1.287962 0.103915 -0.022962 495623.000000 0 0 1
27.045767 33.086903 12.330181 44.477523 0.885526 1.289894 0.104654 -0.026536 265757.000000 0 0 1
27.610467 32.675503 10.949881 44.157969 0.869218 1.320211 0.108321 -0.025598 -667937.000000 0 0 1
28.913167 32.213403 11.023881 44.667667 0.839336 1.321422 0.112065 -0.026129 -670814.000000 0 0 1
29.349867 31.634603 9.805181 44.252733 0.822845 1.347370 0.112937 -0.032235 -349672.000000 0 0 1
30.853867 31.337303 9.800181 45.055868 0.793171 1.351532 0.090528 -0.026516 -377757.000000 0 0 1
31.238767 30.543603 10.875481 45.022753 0.774147 1.326828 0.082567 -0.015844 -136356.000000 0 0 1
32.629467 30.347403 10.959081 45.888435 0.749177 1.329646 0.082965 -0.015365 -36140.700000 0 0 1
32.991867 29.421503 12.146081 45.843379 0.728255 1.302647 0.066067 -0.004457 -153467.000000 0 0 1
32.636867 28.052903 11.934681 44.660576 0.710010 1.300278 0.063018 -0.012518 236600.000000 0 0 1
32.632867 27.272003 13.082081 44.495022 0.696146 1.272374 0.071291 -0.022421 -67145.700000 0 0 1
32.522767 25.757803 12.841781 43.429323 0.669840 1.270615 0.052122 -0.015938 392094.000000 0 0 1
33.626267 25.216003 12.100281 43.737735 0.643431 1.290484 0.052690 -0.004710 301180.000000 0 0 1
33.720267 23.783503 12.085781 42.997413 0.614286 1.285875 0.048482 -0.004628 446847.000000 0 0 1
32.549167 23.078703 11.272081 41.462448 0.616768 1.295469 0.036478 -0.000796 1365080.000000 0 0 1
31.323367 23.109203 12.016881 40.738115 0.635623 1.271363 0.049125 0.000827 252806.000000 0 0 1
30.287567 22.439203 11.301481 39.351976 0.637633 1.279505 0.053065 0.004920 464507.000000 0 0 1
29.072767 22.151903 12.253581 38.549745 0.651103 1.247320 0.050720 0.013243 182064.000000 0 0 1
28.415067 23.251503 12.759481 38.869690 0.685789 1.236332 0.059441 0.004598 -325547.000000 0 0 1
27.251367 22.897903 13.457581 38.053350 0.698805 1.209326 0.063041 -0.001332 -344271.000000 0 0 1
24.192867 9.657703 25.817811 36.675951 0.379813 0.789861 0.016587 -0.001092 -523982.000000 0 0 1
23.963467 8.284203 26.100051 36.388025 0.332840 0.770919 0.028391 -0.003036 338829.000000 0 0 1
22.596867 8.067403 26.403761 35.677163 0.342910 0.737615 0.037783 -0.007068 -74376.800000 0 0 1
22.351767 6.635703 26.928051 35.619572 0.288588 0.713631 0.054111 -0.014971 -74271.300000 0 0 1
22.690667 6.462403 28.333351 36.870147 0.277458 0.694360 0.058838 -0.012894 215654.000000 0 0 1
24.052867 6.497103 28.681181 37.991616 0.263821 0.715242 0.062035 -0.012672 -346150.000000 0 0 1
24.223767 6.179903 30.206501 39.209881 0.249789 0.691360 0.073523 -0.019786 -149066.000000 0 0 1
23.717067 7.225903 31.009511 39.702678 0.295737 0.674462 0.068358 -0.014964 354118.000000 0 0 1
23.832867 6.862003 32.385406 40.791017 0.280339 0.653543 0.082401 -0.015891 -83504.200000 0 0 1
23.800567 8.036703 33.344385 41.748096 0.325647 0.645657 0.078834 -0.012622 163012.000000 0 0 1
24.995767 8.803003 33.349932 42.596939 0.338615 0.671453 0.058094 -0.017647 59309.600000 0 0 1
25.073267 9.527703 -33.854709 43.192443 0.363142 2.471575 0.065270 -0.013895 621294.000000 0 0 1
26.175867 10.645103 -33.724879 43.998428 0.386248 2.444173 0.037829 -0.014532 456815.000000 0 0 1
25.761867 11.865603 34.054942 44.319356 0.431624 0.694461 0.023268 -0.016529 414129.000000 0 0 1
25.906867 12.880003 -33.424099 44.206680 0.461378 2.428110 0.027908 -0.017966 -759961.000000 0 0 1
25.564767 14.342303 -33.817339 44.753451 0.511263 2.427422 0.031644 -0.014735 -807766.000000 0 0 1
26.335367 15.007003 33.652449 45.290716 0.517949 0.733207 0.017958 -0.015391 -13852.100000 0 0 1
26.350567 16.417103 33.727379 45.841135 0.557179 0.744031 0.020739 -0.007810 518054.000000 0 0 1
27.180467 17.071603 -33.515529 46.405906 0.560814 2.377811 0.017905 -0.016984 47566.000000 0 0 1
26.435067 16.941803 -32.368189 45.094757 0.569940 2.371407 0.026232 -0.020660 89237.500000 0 0 1
27.255867 16.367903 -31.382469 44.672697 0.540807 2.349697 0.023145 -0.025825 -313807.000000 0 0 1
26.458967 15.873203 -30.149789 43.139834 0.540359 2.344634 0.031244 -0.020270 71733.800000 0 0 1
25.650167 14.783503 -30.551999 42.543009 0.522849 2.371928 0.039377 -0.014041 109455.000000 0 0 1
24.737667 14.332003 -29.560989 41.124330 0.525104 2.372900 0.054392 -0.022917 261183.000000 0 0 1
24.122567 12.984903 -30.072629 40.680080 0.493807 2.402748 0.055622 -0.024099 -801031.000000 0 0 1
23.353467 13.181703 -31.284769 41.205321 0.513864 2.432942 0.058887 -0.026303 585347.000000 0 0 1
22.693367 12.020303 -31.794729 40.870299 0.487111 2.462180 0.059504 -0.021991 277094.000000 0 0 1
21.655567 11.418903 -30.784349 39.332316 0.485246 2.469745 0.060845 -0.021885 -220993.000000 0 0 1
20.482867 12.207703 -30.493569 38.709606 0.537470 2.477947 0.063489 -0.020810 935819.000000 0 0 1
19.855367 11.562803 -29.374669 37.293500 0.527342 2.477801 0.048744 -0.004204 -136734.000000 0 0 1
18.546567 12.202103 -28.897799 36.441038 0.581921 2.486516 0.054448 -0.006705 234066.000000 0 0 1
17.422467 12.100103 -29.785519 36.566815 0.607033 2.522750 0.029937 -0.004788 60693.900000 0 0 1
16.279867 12.452503 -29.057149 35.558639 0.652970 2.527265 0.029307 -0.018645 -1317070.000000 0 0 1
15.231467 13.052303 -29.977999 36.069940 0.708504 2.551893 0.022775 -0.015170 -647192.000000 0 0 1
14.568367 12.238203 -30.882099 36.272785 0.698691 2.589416 0.016520 -0.000924 -194595.000000 0 0 1
13.421867 11.629103 -30.309829 35.129308 0.713955 2.611593 0.032935 -0.009258 -310555.000000 0 0 1
12.569467 10.957703 -31.384119 35.539072 0.716999 2.653199 0.038818 -0.003863 283299.000000 0 0 1
11.910767 11.857003 -32.322089 36.430376 0.783136 2.662100 0.044607 -0.004387 -174886.000000 0 0 1
10.998067 11.218303 -33.134969 36.670614 0.795311 2.698858 0.064513 -0.006858 -355176.000000 0 0 1
10.408967 12.102803 -34.180904 37.724775 0.860499 2.704674 0.071670 -0.011131 181709.000000 0 0 1
11.311667 12.217103 33.166382 37.110918 0.823861 0.465250 0.048840 -0.005786 444260.000000 0 0 1
10.711367 13.001403 32.175291 36.318304 0.881674 0.482312 0.062579 -0.008818 64849.300000 0 0 1
11.488567 12.985703 30.795711 35.341073 0.846494 0.512776 0.055844 -0.004599 169105.000000 0 0 1
11.675467 11.648603 30.339651 34.532606 0.784246 0.497916 0.044890 -0.004879 26147.200000 0 0 1
11.814667 11.633403 28.934001 33.348145 0.777668 0.520372 0.061286 0.000265 -146401.000000 0 0 1
12.363567 10.219203 28.538981 32.737796 0.690726 0.512046 0.059991 -0.000864 -431589.000000 0 0 1
11.532767 9.132603 28.668451 32.222495 0.669772 0.474102 0.059798 -0.013627 -255956.000000 0 0 1
12.206267 8.012703 28.132951 31.696360 0.580890 0.478739 0.036208 -0.015525 -90639.200000 0 0 1
11.493567 6.673403 28.330141 31.292703 0.526048 0.438646 0.041666 -0.008551 -334776.000000 0 0 1
10.272367 6.488903 27.681791 30.230926 0.563392 0.413605 0.050129 -0.011681 -215490.000000 0 0 1
9.454367 5.384803 28.101921 30.134682 0.517734 0.369400 0.041939 -0.011623 71510.200000 0 0 1
9.763867 3.921503 27.569621 29.509240 0.381914 0.364588 0.038695 -0.007573 157096.000000 0 0 1
10.942667 3.358803 28.143081 30.381845 0.297817 0.386292 0.022422 -0.004757 409236.000000 0 0 1
11.165967 2.030303 27.695661 29.930763 0.179865 0.388906 -0.003624 0.003527 -81193.800000 0 0 1
11.583367 1.040603 28.814841 31.073337 0.089595 0.383616 -0.001185 0.002195 555594.000000 0 0 1
10.511467 0.937503 29.757671 31.573546 0.088953 0.340800 0.003822 -0.001336 418013.000000 0 0 1
10.734467 -0.197997 30.543491 32.375497 -0.018443 0.338018 0.006329 -0.010893 -58057.000000 0 0 1
9.647567 -0.365497 31.599721 33.041663 -0.037867 0.296517 0.025800 -0.012205 -210866.000000 0 0 1
9.733167 0.656103 32.567988 33.997630 0.067307 0.291030 0.022817 -0.011202 -445071.000000 0 0 1
8.578967 0.825303 33.319576 34.416187 0.095906 0.253116 0.034136 -0.021591 -895659.000000 0 0 1
8.618167 2.227103 34.101593 35.244168 0.252887 0.255325 0.034289 -0.015993 -203861.000000 0 0 1
8.634267 3.434703 33.363111 34.633003 0.378608 0.271637 0.039588 -0.017879 588257.000000 0 0 1
9.844467 3.671303 32.642683 34.291934 0.356955 0.311400 0.027750 -0.009606 23558.300000 0 0 1
9.902467 5.055203 31.954281 33.833267 0.472012 0.334839 0.033231 -0.014574 29637.100000 0 0 1
10.048367 6.104903 32.870708 34.910212 0.545954 0.343509 0.032893 -0.016613 101188.000000 0 0 1
10.272167 7.280803 32.139201 34.517470 0.616601 0.373381 0.032527 -0.015098 -479627.000000 0 0 1
10.415567 8.549603 33.024153 35.667554 0.687325 0.387418 0.060221 -0.025768 -77411.800000 0 0 1
9.240067 9.056703 33.613644 36.017770 0.775377 0.367435 0.075402 -0.029175 -141422.000000 0 0 1
8.608567 8.229103 -33.863809 35.896840 0.762865 2.803426 0.069648 -0.026746 -748796.000000 0 0 1
7.323567 8.876203 -33.367819 35.296359 0.880949 2.809498 0.077288 -0.026886 -444512.000000 0 0 1
6.674267 8.151903 -32.359649 34.031548 0.884734 2.826837 0.081193 -0.027005 320815.000000 0 0 1
5.296367 8.483103 -32.213849 33.730499 1.012670 2.840578 0.076246 -0.024984 414302.000000 0 0 1
4.725167 7.884903 -30.980139 32.315134 1.030916 2.853151 0.077609 -0.021540 -430218.000000 0 0 1
5.427867 8.344603 -29.814559 31.432500 0.994095 2.819347 0.083742 -0.029980 181255.000000 0 0 1
5.194767 7.755503 -28.535069 30.023051 0.980616 2.825440 0.074312 -0.024583 -211968.000000 0 0 1
3.766067 7.853503 -27.950009 29.275651 1.123651 2.839509 0.067140 -0.016067 -50544.800000 0 0 1
2.837967 7.169703 -28.770379 29.785792 1.193892 2.879730 0.053026 -0.013240 -592265.000000 0 0 1
1.545967 7.121503 -28.232699 29.158037 1.357029 2.888988 0.060954 -0.002975 -639877.000000 0 0 1
0.536567 6.584603 -29.215489 29.953125 1.489488 2.919205 0.048785 -0.001099 -595151.000000 0 0 1
0.221867 7.359903 -30.341649 31.222317 1.540660 2.903517 0.047238 -0.006818 85261.000000 0 0 1
-0.326833 6.504603 -31.307759 31.977999 -1.520592 2.936492 0.054681 -0.000197 -578519.000000 0 0 1
-0.499733 7.181003 -32.711039 33.493710 -1.501317 2.924986 0.064161 -0.008164 331031.000000 0 0 1
0.702067 7.695603 -33.296479 34.181438 1.479819 2.913546 0.049227 -0.006775 939355.000000 0 0 1
1.662167 6.745103 -33.769239 34.476379 1.329185 2.938707 0.057182 -0.014451 97185.500000 0 0 1
1.427967 6.426503 33.157249 33.804469 1.352149 0.195997 0.067319 -0.025029 221124.000000 0 0 1
0.331967 5.518303 32.992967 33.452918 1.510711 0.166017 0.067799 -0.022180 209417.000000 0 0 1
0.090367 5.216803 31.616661 32.044288 1.553476 0.163552 0.079580 -0.019797 49203.200000 0 0 1
1.124367 4.336903 30.826821 31.150695 1.317126 0.144327 0.084044 -0.018779 262955.000000 0 0 1
0.647667 4.078203 29.522871 29.810252 1.413300 0.138967 0.073827 -0.020852 -381789.000000 0 0 1
1.610967 3.564103 28.669061 28.934635 1.146282 0.135591 0.069430 -0.014454 -460970.000000 0 0 1
1.370367 3.668503 27.127141 27.408349 1.213298 0.143370 0.067719 -0.008790 -40087.500000 0 0 1
1.875367 4.917803 26.716141 27.229652 1.206477 0.194515 0.067050 -0.010726 175661.000000 0 0 1
1.958767 5.026803 25.339591 25.907535 1.199231 0.209774 0.049716 -0.004047 -417931.000000 0 0 1
2.386967 6.484903 24.993481 25.931171 1.218106 0.269744 0.043780 0.003381 660040.000000 0 0 1
3.771967 6.732303 25.263241 26.415582 1.060096 0.296461 0.053429 0.006753 727099.000000 0 0 1
4.500967 6.842503 24.032151 25.389423 0.988961 0.328455 0.054165 0.004167 269519.000000 0 0 1
6.027567 7.152303 24.101961 25.853269 0.870529 0.370187 0.056952 0.005540 1065060.000000 0 0 1
6.917267 6.155603 24.665631 26.346411 0.727201 0.359125 0.056576 0.000134 424133.000000 0 0 1
6.851067 4.727503 24.347621 25.731168 0.604009 0.329418 0.053694 -0.000307 -994216.000000 0 0 1
7.175467 4.267803 22.860251 24.337061 0.536570 0.350158 0.042603 -0.005716 527065.000000 0 1 0
6.145367 4.491303 21.887751 23.173497 0.631128 0.334677 0.045966 -0.020415 495736.000000 0 1 0
4.945567 3.749403 22.126251 22.980157 0.648687 0.273462 0.034497 -0.011454 448975.000000 0 1 0
3.831367 3.984903 21.048751 21.762553 0.805039 0.256829 0.023042 -0.012560 350325.000000 0 1 0
3.285667 5.290303 21.288451 22.180646 1.015026 0.284593 0.017599 -0.013025 -675915.000000 0 1 0
2.125567 5.506803 20.573551 21.403595 1.202426 0.279406 0.012694 -0.011452 -827492.000000 0 1 0
1.628267 6.933003 20.666351 21.858999 1.340120 0.331857 0.012797 -0.005950 -93322.200000 0 1 0
2.216167 7.920103 19.846351 21.482948 1.297959 0.392858 0.008211 -0.008954 -162163.000000 0 1 0
1.604067 9.151703 20.124351 22.165653 1.397284 0.432533 0.015885 -0.010358 106208.000000 0 1 0
2.527467 10.322003 19.744551 22.422736 1.330659 0.493755 0.012194 -0.012172 -791810.000000 0 1 0
2.606367 10.487203 18.323451 21.272598 1.327203 0.532848 0.009153 -0.011472 489572.000000 0 1 0
3.544467 11.528803 17.898451 21.583120 1.272524 0.592978 0.016324 -0.010229 331005.000000 0 1 0
5.000967 11.094103 18.051451 21.770247 1.147296 0.593157 0.026734 -0.016877 -1089510.000000 0 1 0
5.571667 10.326103 17.005251 20.660359 1.075995 0.603973 0.035239 -0.016256 597206.000000 0 1 0
6.889167 9.866103 17.325651 21.094520 0.961235 0.607050 0.034604 -0.011086 552075.000000 0 1 0
7.023667 8.439703 17.792251 20.907526 0.876717 0.552915 0.042833 -0.014086 -62960.400000 0 1 0
6.522467 8.160903 19.150351 21.814647 0.896523 0.499407 0.054923 -0.016991 58951.600000 0 1 0
6.664067 6.837803 19.605651 21.807037 0.798265 0.453198 0.043676 -0.024450 -740263.000000 0 1 0
7.979867 6.153103 19.935951 22.337884 0.656855 0.467999 0.059550 -0.020408 -395349.000000 0 1 0
8.876167 6.021103 18.826351 21.667291 0.596044 0.517854 0.050748 -0.020230 642845.000000 0 1 0
10.159167 5.498103 19.186751 22.395741 0.496059 0.541931 0.052930 -0.018398 554779.000000 0 1 0
10.326067 3.973703 19.034251 22.016373 0.367354 0.526542 0.042025 -0.014615 -146732.000000 0 1 0
9.591767 3.339303 20.080951 22.503278 0.335019 0.468256 0.045585 -0.018767 308787.000000 0 1 0
9.956867 1.959903 20.196251 22.602410 0.194355 0.465618 0.031968 -0.015671 -191543.000000 0 1 0
9.137067 1.047603 21.124051 23.039292 0.114156 0.410627 0.032826 -0.002064 -143597.000000 0 1 0
9.455467 1.175403 22.476851 24.413034 0.123675 0.400950 0.025810 0.004472 -45024.700000 0 1 0
8.786667 0.204103 23.239551 24.846003 0.023225 0.361567 0.028183 -0.002844 -987877.000000 0 1 0
9.074767 0.171403 24.760351 26.371495 0.018886 0.351359 0.021719 0.010390 -962384.000000 0 0 1
10.337367 -0.272897 25.097491 27.144422 -0.026393 0.390836 0.022662 0.006268 -795709.000000 0 0 1
10.485267 -1.642797 24.825801 26.999259 -0.155413 0.403991 0.026067 0.003710 100211.000000 0 0 1
11.945267 -2.107897 25.141921 27.915028 -0.174665 0.449513 0.030574 0.000559 581800.000000 0 0 1
11.925567 -3.513497 25.156731 28.061092 -0.286513 0.458994 0.042940 0.000760 -23533.400000 0 0 1
13.133567 -4.136397 25.536711 29.012479 -0.305114 0.494518 0.047675 -0.003113 -53686.700000 0 0 1
12.922267 -5.653697 25.624521 29.250048 -0.412424 0.503186 0.054007 -0.005510 -126448.000000 0 0 1
12.920567 -6.324297 24.380571 28.308126 -0.455192 0.533058 0.059299 -0.000688 241239.000000 0 0 1
12.417167 -7.656597 24.462481 28.481967 -0.552546 0.537725 0.060474 -0.007155 -65866.800000 0 0 1
12.543967 -8.465597 23.135851 27.645705 -0.593663 0.579257 0.067548 -0.009251 33095.600000 0 0 1
12.134367 -9.783697 23.282151 28.018246 -0.678558 0.589958 0.066332 -0.004741 -430307.000000 0 0 1
12.408067 -10.607497 22.176651 27.536938 -0.707324 0.634544 0.067177 -0.010216 262260.000000 0 0 1
11.765367 -12.001997 22.476351 28.065247 -0.795354 0.642065 0.073719 -0.009610 -189224.000000 0 0 1
10.380467 -11.961797 22.350151 27.392844 -0.856058 0.616491 0.053145 -0.011393 -947627.000000 0 0 1
9.694667 -13.210797 22.468951 27.809449 -0.937715 0.630113 0.052399 -0.009705 1159700.000000 0 0 1
8.172467 -12.942097 22.752351 27.421826 -1.007562 0.592196 0.031339 -0.009641 671107.000000 0 0 1
7.437267 -12.360497 21.741251 26.091700 -1.029130 0.585813 0.024067 -0.015540 619128.000000 0 0 1
6.010267 -12.373197 21.940951 25.896421 -1.118614 0.559995 0.011749 -0.016725 1414160.000000 0 0 1
5.220767 -11.136297 21.407151 24.688856 -1.132414 0.521491 0.008971 -0.010056 204574.000000 0 1 0
5.515267 -9.963797 22.067851 24.833152 -1.065247 0.476415 0.012408 -0.001830 -437410.000000 0 1 0
4.924467 -8.809597 21.479451 23.732386 -1.061078 0.439254 0.009697 0.004695 -51895.200000 0 1 0
5.376367 -7.425997 22.044151 23.874575 -0.944149 0.394128 0.011001 0.009262 -70238.800000 0 1 0
4.765367 -6.353297 21.338551 22.768549 -0.927256 0.356299 0.003107 0.006168 -103870.000000 0 1 0
5.193167 -5.133697 21.844251 23.032479 -0.779639 0.322611 0.012843 -0.002267 -334840.000000 0 1 0
-8.438033 -15.361997 -20.633819 27.072972 1.068506 2.437433 0.041454 0.007391 78179.600000 0 0 1
-7.763633 -14.785297 -19.511719 25.682410 1.087278 2.433695 0.031165 0.001326 412818.000000 0 0 1
-7.000933 -13.628297 -19.886119 25.103810 1.096244 2.485129 0.030448 -0.006142 121691.000000 0 0 1
-6.039933 -13.077097 -18.842519 23.717752 1.138114 2.488894 0.014314 -0.002182 -11767.100000 0 1 0
-5.144833 -14.046797 -18.335019 23.663363 1.219707 2.457238 0.026785 0.003704 172944.000000 0 1 0
-4.390833 -13.538897 -17.256819 22.369152 1.257186 2.451923 0.035088 -0.003309 362764.000000 0 1 0
-3.477733 -14.536297 -16.425819 22.208244 1.335966 2.403312 0.044115 -0.007143 540113.000000 0 1 0
-2.256333 -14.715397 -17.119019 22.686885 1.418650 2.425807 0.040675 -0.011098 -203600.000000 0 1 0
-1.306633 -15.412597 -16.322019 22.486968 1.486222 2.383056 0.043673 -0.008873 405992.000000 0 1 0
0.023267 -15.595197 -17.130619 23.166113 -1.569304 2.403077 0.043728 -0.004424 347750.000000 0 1 0
-0.101033 -16.553997 -18.202319 24.604256 1.564693 2.403575 0.059510 -0.008292 -202392.000000 0 1 0
-0.548133 -17.888497 -17.932619 25.335303 1.540164 2.357192 0.048749 -0.004291 -306461.000000 0 0 1
-0.697033 -18.696397 -19.296019 26.877081 1.533532 2.371629 0.063235 -0.004204 563504.000000 0 0 1
-1.950933 -18.270997 -19.831819 27.035837 1.464422 2.394310 0.054831 -0.007054 383896.000000 0 0 1
-1.908033 -18.488197 -21.198219 28.192526 1.467958 2.421750 0.047864 -0.007245 548559.000000 0 0 1
-2.996733 -17.617697 -21.941419 28.298225 1.402311 2.458087 0.039970 -0.006332 583741.000000 0 0 1
-2.733833 -16.223197 -22.019719 27.486978 1.403851 2.499921 0.040460 0.001501 -103749.000000 0 0 1
-3.095033 -15.594897 -20.789419 26.172122 1.374878 2.488708 0.032262 0.004594 171906.000000 0 0 1
-2.316833 -14.262797 -20.483519 25.067302 1.409764 2.527230 0.051365 -0.010017 169624.000000 0 0 1
-2.517733 -13.312897 -21.496119 25.409749 1.383884 2.579195 0.049669 -0.017987 374249.000000 0 0 1
-1.584733 -12.235697 -21.409619 24.710229 1.441996 2.618798 0.046933 -0.012886 333380.000000 0 1 0
-1.698833 -11.370597 -22.666919 25.415856 1.422488 2.672197 0.061131 -0.007015 317145.000000 0 0 1
-2.818433 -10.490797 -22.750519 25.210841 1.308336 2.696127 0.049735 -0.008196 442233.000000 0 0 1
-2.773133 -9.819997 -23.979019 26.059853 1.295567 2.739264 0.057831 -0.011722 559622.000000 0 0 1
-3.790433 -8.611597 -24.180119 25.946197 1.156160 2.770504 0.065731 -0.013939 641183.000000 0 0 1
-5.168533 -8.915597 -24.046319 26.161557 1.045423 2.736706 0.066846 -0.011300 416145.000000 0 0 1
-5.880533 -7.683497 -24.033619 25.908138 0.917546 2.758860 0.070009 -0.024737 -659337.000000 0 0 1
-7.381633 -7.765897 -23.678319 25.989622 0.810761 2.716664 0.035429 -0.022062 -4322.840000 0 0 1
-8.234833 -8.169197 -24.711219 27.298216 0.781397 2.702722 0.028803 -0.008533 -142381.000000 0 0 1
-8.545933 -7.122797 -25.601059 27.913821 0.694820 2.731657 0.034419 -0.016082 -632556.000000 0 0 1
-9.522633 -7.533597 -26.712899 29.343050 0.669306 2.714963 0.040297 -0.023244 27196.000000 0 0 1
-10.152733 -6.438797 -27.375259 29.898844 0.565183 2.727784 0.049597 -0.032401 89625.600000 0 0 1
-10.800233 -6.975697 -28.504669 31.270138 0.573476 2.717863 0.052510 -0.023122 -175379.000000 0 0 1
-11.597833 -5.966897 -29.373609 32.139112 0.475167 2.723715 0.058078 -0.024667 160925.000000 0 0 1
-10.775333 -5.169697 -30.185459 32.465297 0.447334 2.764601 0.042590 -0.018462 -349420.000000 0 0 1
-11.550133 -4.630497 -31.177799 33.569364 0.381286 2.761843 0.060934 -0.026433 -224419.000000 0 0 1
-10.837533 -3.602497 -32.101299 34.072327 0.320919 2.799789 0.057002 -0.031840 -885103.000000 0 0 1
-9.751933 -4.073597 -32.769829 34.431905 0.395690 2.829616 0.054595 -0.019103 -746301.000000 0 0 1
-9.081333 -3.071097 -33.527659 34.871280 0.326103 2.863093 0.045725 -0.017380 576048.000000 0 0 1
-7.990633 -3.680597 33.966108 35.086942 0.431645 0.253440 0.033934 -0.020801 572096.000000 0 0 1
-6.780033 -4.130997 -33.908269 34.825345 0.547221 2.911593 0.028759 -0.022529 46175.400000 0 0 1
-5.836133 -4.489497 33.545409 34.344002 0.655713 0.216072 0.011434 -0.021172 -62630.300000 0 0 1
-4.348933 -4.299397 33.853726 34.401639 0.779670 0.178714 0.016435 -0.020356 -103986.000000 0 0 1
-3.993633 -2.927697 33.838103 34.198504 0.632591 0.145307 0.033343 -0.027153 48553.700000 0 0 1
-2.588533 -2.767397 33.959957 34.170713 0.818781 0.111123 0.036491 -0.030474 261110.000000 0 0 1
-2.284533 -1.334697 -34.043389 34.146051 0.528745 3.064029 0.049147 -0.030410 1131.040000 0 0 1
-2.642433 -1.055297 -32.708159 32.831688 0.379959 3.054819 0.040274 -0.033913 -173244.000000 0 0 1
-3.280833 0.178303 -32.585339 32.750572 -0.054293 3.041099 0.057542 -0.036769 -510901.000000 0 0 1
-3.856833 0.395003 -31.162139 31.402390 -0.102061 3.017815 0.082042 -0.038764 220663.000000 0 0 1
-4.988833 -0.400797 -30.887639 31.290499 0.080167 2.980953 0.071545 -0.041829 669925.000000 0 0 1
-6.209333 0.358503 -30.776439 31.398623 -0.057672 2.942186 0.081053 -0.040532 849602.000000 0 0 1
-7.511233 -0.470697 -30.669279 31.579184 0.062584 2.900956 0.071695 -0.047668 47641.200000 0 0 1
-7.810033 -0.857497 -29.369139 30.401945 0.109356 2.880189 0.070290 -0.037096 120376.000000 0 0 1
-8.713233 -1.964297 -29.478429 30.801894 0.221732 2.847388 0.061266 -0.030838 92329.100000 0 0 1
-9.036433 -2.672197 -28.114339 29.651540 0.287520 2.818184 0.059884 -0.028803 -476850.000000 0 0 1
-9.919433 -1.949197 -27.337149 29.146427 0.194031 2.787393 0.060044 -0.025556 -121383.000000 0 0 1
-10.107233 -2.573697 -26.096229 28.103260 0.249340 2.761374 0.052941 -0.019980 663067.000000 0 0 1
-11.105733 -1.697497 -25.199609 27.590562 0.151675 2.722213 0.068794 -0.017391 716651.000000 0 0 1
-10.512633 -0.514997 -24.702419 26.851260 0.048949 2.738806 0.061961 -0.014202 317318.000000 0 0 1
-11.387933 0.200003 -23.808919 26.392985 -0.017561 2.695391 0.071279 -0.017653 149289.000000 0 0 1
-10.770433 1.433803 -23.180419 25.600583 -0.132346 2.703269 0.061966 -0.013858 -111218.000000 0 0 1
-10.706433 2.545803 -24.013619 26.415199 -0.233447 2.711875 0.045539 -0.016093 94486.300000 0 0 1
-9.988033 3.608003 -23.434219 25.728216 -0.346646 2.716104 0.038173 -0.014016 -610104.000000 0 0 1
-9.779633 4.830603 -24.375819 26.704990 -0.458792 2.720839 0.037245 -0.015461 279456.000000 0 0 1
-10.998333 5.513203 -24.664519 27.562606 -0.464668 2.678901 0.034377 -0.011460 263792.000000 0 0 1
-11.745033 4.956803 -25.700079 28.688147 -0.399356 2.681121 0.038276 -0.014949 -224898.000000 0 0 1
-13.171333 5.444403 -26.026339 29.673150 -0.391964 2.640588 0.030841 -0.008312 42406.900000 0 0 1
-13.183733 6.809103 -26.343329 30.234842 -0.476743 2.628622 0.025513 -0.007500 555638.000000 0 0 1
-14.483433 7.384303 -26.533739 31.118115 -0.471492 2.591887 0.034899 -0.008830 -224712.000000 0 0 1
-14.438233 8.911503 -26.877539 31.784895 -0.552982 2.578498 0.029352 -0.000758 -206080.000000 0 0 1
-14.112433 9.695603 -25.769829 30.939450 -0.601965 2.555145 0.039019 -0.007544 245780.000000 0 0 1
-14.640733 11.017803 -25.915269 31.738686 -0.645128 2.526153 0.031005 -0.006986 -24159.200000 0 0 1
-14.309633 11.872703 -24.699219 30.915661 -0.692590 2.496298 0.025629 0.001943 -236660.000000 0 0 1
-14.978833 11.397503 -23.571519 30.164300 -0.650445 2.467763 0.045203 0.001917 -191879.000000 0 0 1
-14.561633 11.971003 -22.349119 29.237462 -0.688067 2.440907 0.037753 -0.000301 -274280.000000 0 0 1
-15.441333 11.832303 -21.081319 28.685539 -0.653836 2.396332 0.047320 -0.007193 -513262.000000 0 0 1
-16.622133 12.552003 -21.211019 29.728024 -0.646781 2.365281 0.042928 -0.009803 -396035.000000 0 0 1
-17.280733 12.794103 -19.968919 29.344003 -0.637308 2.319256 0.043751 -0.006565 1335130.000000 0 0 1
-18.768533 13.351103 -20.043319 30.532678 -0.618307 2.286906 0.045561 -0.012165 1205670.000000 0 0 1
-18.914533 14.589103 -20.695519 31.605474 -0.657005 2.284725 0.031919 -0.007240 85564.200000 0 0 1
-20.278233 14.933403 -20.826519 32.679614 -0.634757 2.261778 0.011789 -0.008552 -142610.000000 0 0 1
-20.484633 16.283903 -21.595319 33.928506 -0.671643 2.260741 0.003283 -0.007192 -291363.000000 0 0 1
-20.358433 16.261203 -22.977819 34.740073 -0.673975 2.293508 0.013494 -0.006972 210304.000000 0 0 1
-20.770033 17.492303 -23.563319 35.952816 -0.699942 2.285503 -0.006750 0.003584 -71143.400000 0 0 1
-20.851433 17.437503 -25.119159 37.011092 -0.696471 2.316777 -0.011152 0.004062 646826.000000 0 0 1
-19.587833 17.555903 -25.794099 36.840582 -0.730748 2.346410 -0.000905 -0.002610 666295.000000 0 0 1
-19.537633 16.972603 -27.073839 37.453720 -0.715258 2.378730 -0.001315 -0.011914 114812.000000 0 0 1
-18.534533 17.736903 -27.967929 37.951702 -0.763411 2.399321 -0.015267 -0.000864 141569.000000 0 0 1
-19.110033 18.976503 -28.318819 39.080130 -0.781892 2.381301 -0.023765 -0.014687 298388.000000 0 0 1
-18.462133 20.060103 -27.700919 38.866425 -0.826856 2.364166 -0.026901 -0.020572 -1566120.000000 0 0 1
-19.226433 21.394303 -27.684109 39.922197 -0.838716 2.337065 0.016439 -0.015395 457144.000000 0 0 1
-20.279533 21.564703 -26.728899 39.883956 -0.816102 2.305230 0.020038 -0.005958 368817.000000 0 0 1
-21.405633 20.719903 -26.891439 40.133091 -0.769121 2.305081 0.060226 -0.022121 -436203.000000 0 0 1
-22.531633 21.196703 -25.901919 40.347046 -0.754880 2.267872 0.050536 -0.008659 256732.000000 0 0 1
-22.264933 20.887403 -24.540319 39.169352 -0.753487 2.247874 -0.003403 0.002321 254270.000000 0 0 1
-23.212333 21.553403 -23.707619 39.565298 -0.748357 2.213301 0.007533 -0.010877 -58467.700000 0 0 1
-23.079633 21.123403 -22.270319 38.403577 -0.741171 2.189405 0.004039 0.004158 -304865.000000 0 0 1
-22.046433 21.603203 -21.450119 37.587913 -0.775244 2.178112 0.007847 0.000254 332701.000000 0 0 1
-20.907533 20.733703 -21.381619 36.389353 -0.781224 2.198860 0.001126 0.004585 169758.000000 0 0 1
-20.871833 19.779103 -20.115619 35.092513 -0.758524 2.181223 0.010155 -0.005187 -585154.000000 0 0 1
-21.831733 18.707903 -20.167919 35.119157 -0.708494 2.182510 0.019564 -0.007184 594830.000000 0 0 1
-22.414533 18.395603 -18.916919 34.621660 -0.687236 2.148844 0.009045 -0.001620 -7494.290000 0 0 1
-23.506133 19.394703 -18.448619 35.623649 -0.689854 2.115162 0.003463 -0.003101 -1390680.000000 0 0 1
-24.705933 19.202603 -19.105419 36.662517 -0.660712 2.118954 0.000126 -0.003298 -1010520.000000 0 0 1
-25.518123 20.303303 -18.893719 37.687814 -0.672078 2.095922 0.007298 -0.006629 -883389.000000 0 0 1
-26.955613 20.172603 -19.447619 38.881215 -0.642453 2.094603 0.012765 -0.000340 614369.000000 0 0 1
-27.868193 19.189203 -18.909219 38.761066 -0.603014 2.080411 0.013149 -0.003588 632973.000000 0 0 1
-28.130813 19.256703 -17.557419 38.346137 -0.600275 2.046390 0.006529 -0.004439 -865085.000000 0 0 1
-29.113903 18.173903 -17.059419 38.326673 -0.558049 2.032089 0.010025 -0.006476 -238446.000000 0 0 1
-28.536713 16.900403 -16.940219 37.241625 -0.534689 2.043026 0.010688 -0.013666 -274176.000000 0 0 1
-29.440153 15.963603 -16.454419 37.313632 -0.496865 2.027482 0.019828 -0.011787 -194663.000000 0 0 1
-28.718083 14.719903 -15.896819 35.973778 -0.473650 2.028512 0.037087 -0.004656 169218.000000 0 0 1
-28.005153 14.840303 -14.610019 34.899511 -0.487291 2.002734 0.040252 -0.005754 403895.000000 0 0 1
-28.812293 15.109503 -13.494719 35.221482 -0.482986 1.963988 0.026787 0.000183 135913.000000 0 0 1
-27.976503 15.742603 -12.314719 34.382650 -0.512547 1.937100 0.029413 -0.007021 255331.000000 0 0 1
-27.807163 17.136503 -12.424519 34.946627 -0.552291 1.934276 0.029609 -0.001442 379699.000000 0 0 1
-28.753923 17.944503 -11.704619 35.857934 -0.557931 1.903306 0.029193 -0.003674 180660.000000 0 0 1
-28.554193 19.444603 -11.948719 36.554157 -0.597841 1.903794 0.052353 -0.014501 259897.000000 0 0 1
-27.418343 19.899603 -11.243819 35.695703 -0.627817 1.891243 0.027365 -0.024869 282866.000000 0 0 1
-26.682063 20.914203 -11.940319 35.943116 -0.664803 1.909432 0.011037 -0.019810 752859.000000 0 0 1
-25.819573 21.894603 -11.071019 35.617292 -0.703323 1.886865 0.024529 -0.015635 289242.000000 0 0 1
-26.624023 22.853803 -10.445219 36.609255 -0.709345 1.860133 0.043124 -0.023191 -209259.000000 0 0 1
-25.915323 23.973903 -10.025519 36.699633 -0.746503 1.847491 0.039548 -0.021238 -602570.000000 0 0 1
-26.793583 24.833303 -9.150819 37.660676 -0.747446 1.816234 0.063970 -0.007495 -455108.000000 0 0 1
-26.576303 24.705103 -7.734619 37.100759 -0.748925 1.780813 0.061539 -0.010040 73253.100000 0 0 1
-27.764013 24.829603 -6.986419 37.896697 -0.729662 1.756211 0.068184 -0.017224 -90306.800000 0 0 1
-27.808243 24.029903 -5.713319 37.193772 -0.712640 1.725016 0.064410 -0.021058 -173911.000000 0 0 1
-27.954763 22.655403 -5.886919 36.460827 -0.681069 1.732965 0.074143 -0.027340 44503.100000 0 0 1
-27.626213 21.980403 -4.643019 35.607631 -0.672074 1.701563 0.064177 -0.016940 149887.000000 0 0 1
-27.471503 20.504103 -4.961719 34.636980 -0.641178 1.714540 0.072016 -0.015301 -458559.000000 0 0 1
-26.445683 20.224403 -5.888619 33.809414 -0.652876 1.745860 0.073624 -0.030750 -82265.600000 0 0 1
-26.651853 20.331103 -7.300819 34.307098 -0.651668 1.785244 0.061459 -0.019243 -650406.000000 0 0 1
-27.634543 19.260703 -7.838019 34.584349 -0.608696 1.799418 0.059571 -0.020511 -430346.000000 0 0 1
-27.287513 17.894903 -7.744519 33.538240 -0.580435 1.803815 0.049549 -0.012477 -227389.000000 0 0 1
-26.616373 17.434603 -8.861519 33.029127 -0.579905 1.842418 0.021566 -0.011592 -508235.000000 0 0 1
-26.138413 15.979703 -8.723919 31.853953 -0.548723 1.848213 0.048480 -0.002482 464538.000000 0 0 1
-27.160693 15.194603 -8.071519 32.151651 -0.510057 1.824556 0.056455 -0.002681 520035.000000 0 0 1
-26.959323 13.790103 -8.219619 31.377288 -0.472817 1.835850 0.068279 -0.015195 414657.000000 0 0 1
-28.022803 12.876903 -7.509519 31.740904 -0.430739 1.809649 0.074638 -0.021732 909385.000000 0 0 1
-29.404963 13.006803 -7.862119 33.100479 -0.416460 1.810611 0.076613 -0.015142 511922.000000 0 0 1
-30.171533 12.136903 -7.069819 33.280748 -0.382456 1.784857 0.085075 -0.024067 32255.600000 0 0 1
-30.853453 10.984503 -7.807419 33.668244 -0.342029 1.804819 0.079641 -0.020044 65503.800000 0 0 1
-29.843483 10.064603 -8.184919 32.541091 -0.325268 1.825053 0.087937 -0.020001 245530.000000 0 0 1
-30.418163 8.893803 -8.711819 32.867312 -0.284456 1.839063 0.079682 -0.017769 -169908.000000 0 0 1
-29.452373 7.747603 -9.097719 31.784212 -0.257228 1.861090 0.106611 -0.021121 -442474.000000 0 0 1
-28.730613 7.967903 -10.270919 31.534543 -0.270532 1.902552 0.108340 -0.029598 -41756.300000 0 0 1
-27.887513 6.843203 -10.467019 30.563071 -0.240631 1.920344 0.117006 -0.034215 -223956.000000 0 0 1
-27.187163 6.852803 -11.828819 30.430638 -0.246917 1.970032 0.100358 -0.026815 -596860.000000 0 0 1
-26.183743 7.777103 -11.997419 29.833032 -0.288721 1.984663 0.106343 -0.025808 -124738.000000 0 0 1
-25.308843 7.552803 -13.067719 29.467739 -0.290012 2.030250 0.100264 -0.014280 -192965.000000 0 0 1
-31.319463 25.596203 -34.108601 52.910028 -0.685178 2.271365 0.015909 -0.004832 -147132.000000 0 0 1
-31.629583 26.983203 34.219108 53.846737 -0.706291 0.882152 0.014666 -0.014033 356274.000000 0 0 1
-31.450063 27.480203 32.925922 53.182557 -0.718134 0.903186 0.030698 -0.021440 -107024.000000 0 0 1
-31.659303 29.004303 32.881322 54.080887 -0.741660 0.917254 0.038061 -0.028430 -18009.600000 0 0 1
-31.604993 29.516303 31.577021 53.546204 -0.751239 0.940090 0.045315 -0.020981 277592.000000 0 0 1
-32.297143 30.747203 31.480011 54.584678 -0.760818 0.956090 0.060282 -0.029470 -63787.200000 0 0 1
-32.276443 31.372003 30.032911 54.110508 -0.771189 0.982398 0.082512 -0.027259 336637.000000 0 0 1
-30.953973 31.606403 29.558691 53.205539 -0.795827 0.981764 0.065783 -0.020474 404507.000000 0 0 1
-30.917803 32.113203 28.235631 52.767596 -0.804361 1.006177 0.072453 -0.013652 633054.000000 0 0 1
-29.445583 32.211803 27.700271 51.690885 -0.830232 1.005243 0.061123 -0.009048 662956.000000 0 0 1
-28.851683 30.977703 27.314821 50.379928 -0.820918 0.997771 0.085980 -0.014726 146117.000000 0 0 1
-27.640183 31.044403 26.602721 49.350172 -0.843342 1.001475 0.056095 0.000021 -284934.000000 0 0 1
-27.610853 31.496803 25.077271 48.818821 -0.851047 1.031327 0.063405 -0.013250 -483353.000000 0 0 1
-27.731423 32.911103 24.927371 49.734760 -0.870605 1.045804 0.049304 -0.013247 1028410.000000 0 0 1
-28.925663 33.348403 24.216971 50.351481 -0.856300 1.069049 0.063001 -0.013651 741680.000000 0 0 1
-29.179093 -33.835643 24.634151 51.020698 0.859160 1.066917 0.067991 -0.015049 -240248.000000 0 0 1
-29.774563 -33.817343 25.892431 51.966867 0.848887 1.049218 0.068119 -0.023072 163121.000000 0 0 1
-29.532463 -32.556043 26.513281 51.332411 0.834058 1.028036 0.059056 -0.026223 18717.400000 0 0 1
-29.949273 -32.575943 27.999581 52.365328 0.827383 1.006647 0.062115 -0.023753 51556.100000 0 0 1
-31.342103 -32.698743 28.206391 53.358558 0.806579 1.013823 0.076650 -0.032201 42620.200000 0 0 1
-31.613323 -32.951943 29.530551 54.380936 0.806128 0.996753 0.059361 -0.026657 9025.090000 0 0 1
-33.113633 -33.246743 29.748571 55.559303 0.787404 1.005770 0.068406 -0.031140 133646.000000 0 0 1
-33.363713 -33.767943 31.002261 56.697015 0.791420 0.992252 0.053236 -0.023845 -485925.000000 0 0 1
-34.726347 -33.713843 31.321741 57.650619 0.770605 0.996430 0.045880 -0.030280 -355514.000000 0 0 1
-35.031256 -34.141843 32.798386 58.894723 0.772541 0.980149 0.047208 -0.015581 -323626.000000 0 0 1
-34.746446 33.148303 33.001586 58.268604 -0.761864 0.968702 0.028858 -0.000443 -3688.200000 0 0 1
-35.632132 32.553803 33.934625 58.999641 -0.740283 0.957989 0.036164 0.000231 73223.000000 0 0 1
-35.239140 31.138903 -34.013989 58.037744 -0.723706 2.196992 0.027080 0.004435 -41705.800000 0 0 1
-34.186025 31.121303 -33.091389 56.852967 -0.738505 2.192046 0.020062 0.001635 -429052.000000 0 0 1
-33.855423 29.831603 -32.723229 55.739788 -0.722301 2.198233 0.016743 -0.002581 69032.400000 0 0 1
-32.930913 29.824203 -31.475579 54.448510 -0.735933 2.187170 0.011261 -0.001399 162855.000000 0 0 1
-33.551493 29.906103 -30.185699 54.141058 -0.728015 2.162213 0.018250 -0.002802 -149685.000000 0 0 1
-33.943043 31.211503 -29.814829 54.910947 -0.743499 2.144763 0.006240 0.006824 874009.000000 0 0 1
-35.007229 31.264703 -28.619629 54.973365 -0.728986 2.118360 0.000815 0.010809 1024030.000000 0 0 1
-34.421821 31.044803 -27.314479 53.802624 -0.733860 2.103285 -0.008531 -0.000580 -389857.000000 0 0 1
-35.427820 31.004803 -26.361169 53.956830 -0.718917 2.081235 0.021134 -0.005863 -595037.000000 0 0 1
-35.121459 30.547803 -24.899119 52.788742 -0.715864 2.061985 0.026674 -0.014539 -170712.000000 0 0 1
-34.532787 31.613203 -24.144619 52.677041 -0.741288 2.046936 0.028322 -0.016784 16915.500000 0 0 1
-34.262978 31.342603 -22.789619 51.726948 -0.740913 2.027036 0.025955 -0.021943 736929.000000 0 0 1
-35.548850 30.969803 -21.919019 51.993200 -0.716668 2.005978 0.023795 -0.018849 490455.000000 0 0 1
35.829251 31.928003 -21.756419 52.692261 0.727885 1.996428 0.032412 -0.022516 -695797.000000 0 0 1
36.032721 33.222703 -21.180119 53.391969 0.744846 1.978706 0.038455 -0.034642 -774013.000000 0 0 1
-35.995658 33.149203 -19.703119 52.751967 -0.744255 1.953581 0.031511 -0.025612 695253.000000 0 0 1
-34.769963 32.448603 -19.414019 51.368924 -0.750877 1.958359 0.028023 -0.023990 600875.000000 0 0 1
-34.696166 32.303303 -18.001819 50.708903 -0.749699 1.933714 0.041421 -0.012868 -146181.000000 0 0 1
-33.487863 31.412903 -17.704819 49.210447 -0.753438 1.938826 0.037649 -0.007255 -114130.000000 0 0 1
-33.287183 31.108603 -16.326019 48.397527 -0.751580 1.914877 0.028946 0.001166 666830.000000 0 0 1
-32.046593 30.429103 -16.048119 47.015493 -0.759514 1.919135 0.028841 0.004551 630296.000000 0 0 1
-31.761703 30.196403 -14.565219 46.181968 -0.760140 1.891661 0.030922 0.002307 -34651.300000 0 0 1
-32.759533 29.466403 -13.870919 46.193704 -0.732525 1.875780 0.034410 -0.000599 153276.000000 0 0 1
-32.236723 29.038503 -12.639319 45.190634 -0.733251 1.854266 0.050838 -0.002268 -137696.000000 0 0 1
-33.333713 28.450803 -11.759519 45.374783 -0.706531 1.832953 0.034754 -0.003259 -183094.000000 0 0 1
-32.774853 27.978903 -10.588719 44.374891 -0.706621 1.811740 0.045635 -0.002165 280093.000000 0 0 1
-33.642933 27.014603 -10.059619 44.303856 -0.676555 1.799854 0.037587 -0.006761 53709.600000 0 0 1
-32.772833 26.340203 -9.040619 43.006949 -0.677006 1.782589 0.039652 -0.000253 30728.100000 0 0 1
-32.650563 27.209703 -7.900119 43.230072 -0.694755 1.754575 0.045491 -0.009153 -132317.000000 0 0 1
-31.428903 27.024303 -7.241719 42.077683 -0.710188 1.743761 0.063492 -0.018983 -318379.000000 0 0 1
-31.373593 27.949903 -6.037219 42.449352 -0.727750 1.713502 0.055306 -0.016440 -258736.000000 0 0 1
-30.335523 27.403203 -5.273219 41.218762 -0.734656 1.699080 0.059554 -0.016145 -278863.000000 0 0 1
-30.574213 27.768903 -3.907919 41.486942 -0.737352 1.665133 0.040944 -0.013520 -58006.600000 0 0 1
-29.872213 26.757803 -3.014319 40.217102 -0.730458 1.645818 0.051448 -0.009008 -77455.300000 0 0 1
-30.450713 25.448403 -3.032419 39.800285 -0.696148 1.647061 0.046296 -0.011118 -53854.800000 0 0 1
-29.709103 24.598903 -2.199819 38.633872 -0.691578 1.627767 0.031569 -0.014946 100062.000000 0 0 1
-30.425713 23.308403 -1.688419 38.364781 -0.653710 1.614820 0.033402 -0.021035 -176577.000000 0 0 1
-30.715073 22.442303 -2.768519 38.141020 -0.631009 1.643447 0.039340 -0.010715 142926.000000 0 0 1
-31.583133 21.407803 -2.331419 38.225958 -0.595687 1.631825 0.043020 -0.005076 137124.000000 0 0 1
-32.112743 20.515703 -3.489119 38.266125 -0.568507 1.662103 0.042542 -0.002027 777735.000000 0 0 1
-30.975953 19.787303 -4.007319 36.974392 -0.568458 1.679391 0.043782 -0.007884 869974.000000 0 0 1
-31.260423 18.947003 -5.119819 36.910914 -0.544894 1.709952 0.057764 -0.007370 -331696.000000 0 0 1
-30.023403 18.159303 -5.546819 35.523686 -0.543969 1.727582 0.065419 -0.013991 -676076.000000 0 0 1
-29.801453 17.001803 -4.725319 34.634038 -0.518448 1.707659 0.069029 -0.011475 134048.000000 0 0 1
-29.291223 15.925503 -5.469619 33.786301 -0.497990 1.733401 0.067401 -0.019492 -535113.000000 0 0 1
-29.057213 14.646503 -4.661319 32.872018 -0.466888 1.713078 0.071725 -0.019563 613712.000000 0 0 1
-30.260413 14.035303 -4.137419 33.612506 -0.434285 1.694201 0.078270 -0.018106 1050170.000000 0 0 1
-29.942143 12.777003 -3.511119 32.743117 -0.403329 1.678235 0.072752 -0.031623 188505.000000 0 0 1
-31.108823 11.955803 -2.855619 33.449285 -0.366918 1.656272 0.078622 -0.040951 -502396.000000 0 0 1
-32.004663 11.536603 -3.819619 34.234211 -0.345968 1.682602 0.086209 -0.026821 -110349.000000 0 0 1
-32.891143 10.572303 -3.251019 34.701153 -0.311002 1.664620 0.072707 -0.021604 161758.000000 0 0 1
-33.922643 10.127703 -4.333919 35.666496 -0.290129 1.692610 0.056070 -0.011491 -63316.700000 0 0 1
-33.350563 9.299003 -5.287519 35.024126 -0.271920 1.722344 0.054691 -0.018541 -268848.000000 0 0 1
-34.295380 8.752903 -6.125419 35.920846 -0.249887 1.742159 0.052252 -0.013382 -607530.000000 0 0 1
-33.704523 7.760803 -7.144319 35.316657 -0.226315 1.774495 0.058533 -0.015701 -45851.400000 0 0 1
-33.056023 6.614603 -6.504619 34.333129 -0.197494 1.761404 0.064555 -0.018497 627121.000000 0 0 1
-32.626463 5.727003 -7.513619 33.966736 -0.173762 1.793846 0.075687 -0.014875 -1280340.000000 0 0 1
-31.577593 4.774603 -7.104419 32.717182 -0.150066 1.789687 0.107150 -0.019349 -997362.000000 0 0 1
-30.317943 5.401603 -6.923019 31.563954 -0.176315 1.791927 0.107210 -0.025944 19450.100000 0 0 1
-29.416343 4.404903 -6.544119 30.455704 -0.148639 1.787358 0.105634 -0.028342 -552135.000000 0 0 1
-27.984063 4.865603 -6.225219 29.078089 -0.172150 1.786553 0.111603 -0.027011 358001.000000 0 0 1
-27.157433 5.242803 -7.336819 28.615417 -0.190706 1.830086 0.114362 -0.028889 926379.000000 0 0 1
-25.776863 4.955203 -7.167119 27.209710 -0.189918 1.837344 0.123386 -0.033215 1077520.000000 0 0 1
-24.821533 5.251603 -8.412219 26.729259 -0.208500 1.890957 0.114125 -0.029306 461123.000000 0 0 1
-25.060973 4.384203 -9.493219 27.155015 -0.173189 1.927934 0.113985 -0.034666 181321.000000 0 0 1
-24.082333 4.437103 -10.484619 26.637828 -0.182204 1.975340 0.096198 -0.034110 -461097.000000 0 0 1
-24.465133 3.626703 -11.752219 27.382666 -0.147168 2.014386 0.094280 -0.038094 -221139.000000 0 0 1
-25.459813 4.206703 -12.548819 28.694447 -0.163750 2.023419 0.114736 -0.021221 113256.000000 0 0 1
-25.870123 3.506603 -13.667619 29.468006 -0.134725 2.053090 0.114551 -0.020877 83641.100000 0 0 1
-26.881903 4.131903 -14.667519 30.900574 -0.152512 2.065383 0.105033 -0.013949 -259334.000000 0 0 1
-26.218303 5.127703 -15.438919 30.855356 -0.193139 2.094816 0.093975 -0.013410 200393.000000 0 0 1
-26.968883 5.978403 -16.259419 32.053559 -0.218150 2.102796 0.120217 -0.013784 -26449.000000 0 0 1
-27.971053 5.386203 -17.326619 33.340707 -0.190235 2.117277 0.072329 -0.003197 -26418.800000 0 0 1
-29.051163 4.706703 -16.747219 33.861372 -0.160619 2.088150 0.083941 -0.016210 -842464.000000 0 0 1
-29.701033 4.128003 -17.823319 34.883556 -0.138100 2.107071 0.084663 -0.009120 -748318.000000 0 0 1
-31.163123 3.734503 -17.600819 35.984380 -0.119268 2.081881 0.081884 -0.013672 -477608.000000 0 0 1
-31.465113 2.574003 -16.855519 35.788090 -0.081623 2.061199 0.084440 -0.025010 192361.000000 0 0 1
-31.187033 1.370603 -17.511719 35.793434 -0.043920 2.082019 0.093690 -0.031175 -454162.000000 0 0 1
-31.134143 0.173003 -16.526819 35.249121 -0.005557 2.058793 0.102232 -0.025702 -206878.000000 0 0 1
-30.697823 -0.991897 -17.210619 35.207181 0.032300 2.081554 0.100717 -0.018596 289160.000000 0 0 1
-30.746183 -2.069597 -16.335819 34.877930 0.067211 2.058243 0.102972 -0.024940 -46903.600000 0 0 1
-30.519923 -3.380397 -17.013619 35.104929 0.110311 2.076760 0.094314 -0.016194 125362.000000 0 0 1
-31.551583 -3.699497 -17.930619 36.478703 0.116719 2.084650 0.095830 -0.016866 210747.000000 0 0 1
-31.275933 -4.911097 -18.595919 36.716632 0.155753 2.101884 0.086563 -0.015523 332946.000000 0 0 1
-32.249573 -5.054397 -19.803819 38.180796 0.155463 2.116109 0.087235 -0.020986 185573.000000 0 0 1
-32.037693 -6.232797 -20.478219 38.530754 0.192146 2.131140 0.086823 -0.018763 -285182.000000 0 0 1
-32.877733 -6.421897 -21.550419 39.832231 0.192898 2.142457 0.087228 -0.020611 -727486.000000 0 0 1
-32.564683 -7.742397 -22.280619 40.209816 0.233421 2.158089 0.092381 -0.024472 -36417.500000 0 0 1
-31.271373 -7.630097 -22.829819 39.462866 0.239320 2.187702 0.091299 -0.024254 -169010.000000 0 0 1
-31.001063 -8.613697 -23.792619 40.016877 0.271015 2.207520 0.093032 -0.020319 565652.000000 0 0 1
-29.621453 -8.299397 -24.484419 39.316628 0.273177 2.243048 0.076621 -0.013598 323743.000000 0 0 1
-29.627853 -7.123097 -25.240719 39.568195 0.235941 2.262570 0.065997 -0.007093 1766.330000 0 0 1
-29.502423 -7.320597 -26.623459 40.407829 0.243223 2.290110 0.045971 -0.000949 -310989.000000 0 0 1
-30.843123 -7.279397 -27.364989 41.870401 0.231772 2.283080 0.063662 -0.002646 -288495.000000 0 0 1
-31.681243 -8.388797 -27.112999 42.534548 0.258847 2.261961 0.082860 -0.020285 273316.000000 0 0 1
-32.908393 -8.227297 -27.841819 43.884139 0.244984 2.258079 0.078005 -0.017153 695397.000000 0 0 1
-33.998473 -9.233097 -27.431569 44.650165 0.265178 2.232379 0.082376 -0.022411 -482385.000000 0 0 1
-33.683393 -10.582697 -27.846119 44.966330 0.304416 2.238604 0.087641 -0.019476 558318.000000 0 0 1
-34.700902 -11.590997 -27.625409 45.843942 0.322374 2.217547 0.061421 -0.017332 226233.000000 0 0 1
-35.970293 -11.508097 -28.467139 47.293512 0.309642 2.216706 0.047661 -0.015976 -853989.000000 0 0 1
35.566771 -10.473297 -28.118359 46.533077 -0.286374 2.219641 0.029902 -0.013642 -179256.000000 0 0 1
34.402721 -10.443097 -28.929119 46.146499 -0.294715 2.248361 0.018982 -0.008486 186037.000000 0 0 1
33.265471 -9.477397 -28.538069 44.842323 -0.277548 2.260630 0.015984 -0.009373 -356685.000000 0 0 1
32.395521 -9.971797 -27.576989 43.696645 -0.298610 2.253768 -0.000949 -0.003374 -520905.000000 0 0 1
31.621951 -8.918797 -27.048769 42.557357 -0.274904 2.259561 -0.006881 -0.004266 -118881.000000 0 0 1
30.541441 -9.384497 -26.066049 41.234540 -0.298114 2.255110 -0.017300 0.001952 -309091.000000 0 0 1
31.044011 -9.680297 -24.808219 40.900935 -0.302270 2.222503 -0.017225 0.002226 -189809.000000 0 0 1
30.008821 -10.139597 -23.981719 39.729883 -0.325843 2.218829 -0.029234 0.008124 -187602.000000 0 0 1
30.418661 -10.512197 -22.562019 39.304528 -0.332735 2.182217 -0.032495 0.004169 303183.000000 0 0 1
31.248101 -11.682997 -22.456219 40.214649 -0.357787 2.163263 -0.022400 -0.002263 351322.000000 0 0 1
31.525561 -11.963497 -21.089419 39.771219 -0.362697 2.129713 -0.000645 -0.010899 -914097.000000 0 0 1
32.579931 -13.032497 -20.929319 40.857487 -0.380520 2.108601 0.033238 -0.017077 -36042.100000 0 0 1
33.846901 -12.589597 -21.450719 42.002904 -0.356100 2.106791 0.037502 -0.018995 438784.000000 0 0 1
34.876371 -13.187397 -20.708519 42.651043 -0.361502 2.077770 0.042615 -0.017768 -116170.000000 0 0 1
-36.043983 -12.864097 -21.128319 43.715667 0.342809 2.075231 0.048060 -0.027776 -210951.000000 0 0 1
-35.628192 -11.519597 -21.210519 43.034350 0.312719 2.086186 0.065660 -0.019620 116765.000000 0 0 1
-36.060343 -10.671997 -22.288119 43.714987 0.287735 2.105808 0.082134 -0.027328 -703597.000000 0 0 1
-35.722502 -10.912597 -23.769119 44.273615 0.296479 2.137518 0.076986 -0.027237 -5477.110000 0 0 1
36.079181 -11.993597 -24.508419 45.235122 -0.320932 2.143374 0.070727 -0.020232 -247601.000000 0 0 1
34.716241 -11.808497 -24.767419 44.250232 -0.327867 2.164835 0.078717 -0.016869 -636324.000000 0 0 1
34.044351 -12.903797 -25.643569 44.532218 -0.362298 2.184431 0.034324 -0.023736 -207509.000000 0 0 1
33.879081 -14.272797 -25.202369 44.572012 -0.398721 2.171751 0.039255 -0.023266 481458.000000 0 0 1
33.237831 -14.432197 -23.940819 43.430456 -0.409646 2.154652 0.024205 -0.027685 -390269.000000 0 0 1
-29.478443 7.665903 -20.073419 36.478580 -0.254416 2.153495 0.052492 -0.000689 21281.000000 0 0 1
-28.203463 7.067603 -20.090219 35.341240 -0.245537 2.175434 0.048586 0.000302 250860.000000 0 0 1
-27.378863 7.703003 -21.075919 35.399615 -0.274259 2.208524 0.055952 -0.006294 64638.700000 0 0 1
-25.989433 7.105903 -21.346819 34.374863 -0.266892 2.240815 0.054444 -0.011244 -398129.000000 0 0 1
-25.079963 7.442403 -20.341319 33.138545 -0.288470 2.231695 0.069630 -0.005519 93095.400000 0 0 1
-23.963533 6.550303 -20.392019 32.140190 -0.266827 2.258120 0.075772 -0.009752 1122380.000000 0 0 1
-22.635033 7.068303 -19.703419 30.830672 -0.302678 2.264104 0.064745 -0.008598 1014160.000000 0 0 1
-22.098033 8.128903 -20.500819 31.219957 -0.352493 2.287175 0.066543 -0.011299 -994947.000000 0 0 1
-20.947433 8.627503 -19.948019 30.185298 -0.390692 2.292750 0.054209 -0.005179 -902942.000000 0 0 1
-20.237633 9.689603 -20.828019 30.614646 -0.446537 2.319007 0.045007 -0.001033 -340885.000000 0 0 1
-19.514333 9.087703 -21.857419 30.678043 -0.435828 2.363819 0.056618 -0.008403 -144754.000000 0 0 1
-18.949033 10.040903 -22.729719 31.249411 -0.487273 2.385270 0.048988 -0.006239 409100.000000 0 0 1
-17.866333 9.410103 -23.657019 31.103222 -0.484775 2.435029 0.056192 -0.005450 199365.000000 0 0 1
-18.525933 8.647003 -24.622619 32.003972 -0.436697 2.448637 0.051107 -0.010430 -387110.000000 0 0 1
-17.665233 7.944303 -25.432179 31.968236 -0.422616 2.490703 0.042650 -0.006499 -1469400.000000 0 0 1
-18.316933 6.999303 -26.491059 32.958709 -0.365000 2.504393 0.023041 -0.004116 -392180.000000 0 0 1
-18.988533 5.998303 -25.795219 32.587380 -0.305971 2.484172 0.037208 -0.003008 54422.200000 0 0 1
-19.690633 5.088903 -26.623609 33.502754 -0.252909 2.489259 0.027918 -0.007297 -303672.000000 0 0 1
-20.281433 3.818403 -25.945049 33.152108 -0.186093 2.469638 0.033913 -0.000109 -106658.000000 0 0 1
-19.403033 2.761103 -25.629499 32.264107 -0.141354 2.488759 0.035241 0.000342 544629.000000 0 0 1
-18.318033 3.082803 -24.745419 30.941716 -0.166731 2.497663 0.032960 -0.001290 334228.000000 0 0 1
-17.479333 1.838103 -24.239219 29.940699 -0.104774 2.514223 0.033016 -0.003609 32551.600000 0 0 1
-17.923733 1.009203 -23.180219 29.318957 -0.056246 2.482621 0.041423 0.000216 453494.000000 0 0 1
-19.252233 0.497503 -23.303119 30.231297 -0.025836 2.450936 0.036788 0.004134 195089.000000 0 0 1
-19.568133 -0.408397 -22.126319 29.540694 0.020867 2.417365 0.043732 -0.000671 -262839.000000 0 0 1
-18.814933 -1.615397 -22.121019 29.085232 0.085647 2.434969 0.049236 -0.004289 310675.000000 0 0 1
-19.073533 -2.278797 -20.901919 28.388075 0.118911 2.398371 0.052788 -0.004731 -111896.000000 0 0 1
-18.408833 -3.684597 -20.730219 27.967899 0.197543 2.405674 0.038203 -0.018341 -107462.000000 0 0 1
-18.794133 -4.661797 -21.691719 29.077181 0.243138 2.412839 0.046461 -0.027690 315943.000000 0 0 1
-18.843333 -6.003397 -21.190719 28.985489 0.308428 2.390700 0.057295 -0.022967 -198015.000000 0 0 1
-18.912333 -7.052097 -22.272219 30.057614 0.356914 2.405331 0.032190 -0.030406 -239396.000000 0 0 1
-17.645233 -7.000297 -22.873719 29.724829 0.377680 2.448879 0.039257 -0.022539 -50366.900000 0 0 1
-17.666533 -7.812597 -24.023219 30.826257 0.416370 2.464361 0.050135 -0.030976 731654.000000 0 0 1
-16.321233 -7.737397 -24.823919 30.699787 0.442689 2.512569 0.048672 -0.029217 122296.000000 0 0 1
-16.294233 -8.506897 -25.995899 31.837966 0.481155 2.526130 0.051155 -0.050144 -488807.000000 0 0 1
-15.147433 -8.448697 -26.795459 31.918989 0.508785 2.567128 0.069726 -0.046375 66477.900000 0 0 1
-14.024933 -9.449197 -26.347499 31.307775 0.592885 2.570969 0.066415 -0.044767 2103.580000 0 0 1
-13.499733 -9.138397 -25.047119 29.884967 0.595076 2.564620 0.056862 -0.029109 -580744.000000 0 0 1
-12.678433 -10.122697 -24.588419 29.458479 0.673776 2.558349 0.027293 -0.021122 -766460.000000 0 0 1
-11.900033 -9.614797 -23.373719 27.935387 0.679578 2.562038 0.045570 -0.010208 117807.000000 0 0 1
-12.732133 -9.173097 -22.271719 27.244860 0.624331 2.527792 0.044366 -0.008164 215488.000000 0 0 1
-11.964533 -8.915797 -21.114919 25.855005 0.640413 2.526407 0.040528 -0.010407 -778166.000000 0 0 1
-12.634933 -8.586997 -19.801119 25.009246 0.596919 2.484468 0.025800 -0.005611 -118310.000000 0 0 1
-13.379533 -7.390097 -19.578419 24.838275 0.504641 2.478733 0.018266 0.003611 1442000.000000 0 1 0
-14.680633 -7.325397 -20.231019 26.047583 0.462834 2.460197 0.017613 -0.005994 895747.000000 0 0 1
-15.396133 -6.014897 -19.834219 25.818911 0.372443 2.446829 0.030070 -0.006764 -445161.000000 0 0 1
-15.662433 -5.830597 -18.426119 24.876285 0.356372 2.404923 0.025205 -0.000904 348026.000000 0 1 0
-15.134733 -4.622397 -17.946319 23.926911 0.296419 2.418930 0.018993 -0.010611 -646298.000000 0 1 0
-15.018533 -4.355497 -16.429919 22.681908 0.282265 2.380905 0.030355 -0.004334 -456417.000000 0 1 0
-16.212533 -4.200397 -15.712919 22.964873 0.253509 2.324324 0.046873 -0.014761 -83330.000000 0 1 0
-16.626533 -2.783197 -15.737419 23.061963 0.165857 2.321833 0.019677 -0.016914 4983.730000 0 1 0
-17.876033 -2.493597 -14.883119 23.393970 0.138600 2.260352 0.026979 -0.016526 -254642.000000 0 1 0
-17.722833 -2.876297 -13.533719 22.484071 0.160891 2.216706 0.048373 -0.021572 595431.000000 0 1 0
-18.676733 -2.260197 -12.686519 22.690893 0.120431 2.164098 0.045085 -0.019464 -24228.600000 0 1 0
-18.096033 -0.991397 -12.037019 21.756358 0.054731 2.157074 0.034920 -0.017923 -176305.000000 0 1 0
-17.792433 0.016003 -12.953619 22.008343 -0.000899 2.200095 0.050475 -0.021849 -214548.000000 0 1 0
-16.872333 0.847103 -12.387619 20.948659 -0.050165 2.203506 0.050638 -0.015916 -1392530.000000 0 1 0
-16.451933 1.956503 -13.346119 21.274701 -0.118366 2.248908 0.064699 -0.013901 -86151.700000 0 1 0
-15.609833 1.540103 -14.399419 21.292771 -0.098344 2.313468 0.057620 -0.020032 -389949.000000 0 1 0
-14.251233 1.448503 -14.116719 20.111628 -0.101293 2.348883 0.044904 -0.020613 -1166080.000000 0 1 0
-13.520833 0.525003 -15.096519 20.272973 -0.038810 2.410825 0.033083 -0.022832 -369015.000000 0 1 0
-13.513933 1.099003 -16.367019 21.253553 -0.081145 2.449769 0.043892 -0.025949 282089.000000 0 1 0
-13.082833 0.150603 -17.320519 21.706763 -0.011511 2.494653 0.033426 -0.013007 -232383.000000 0 1 0
-12.434433 0.862303 -18.512619 22.317611 -0.069237 2.549021 0.047184 -0.017599 78919.700000 0 1 0
-11.115433 1.265003 -18.142619 21.314495 -0.113318 2.589039 0.026683 -0.018945 278592.000000 0 1 0
-10.598033 1.951603 -19.309419 22.112908 -0.182108 2.632566 0.021076 -0.012493 -751832.000000 0 1 0
-9.206433 2.500903 -19.152019 21.396559 -0.265247 2.679447 0.012330 -0.014242 -1469420.000000 0 1 0
-8.155633 1.581303 -19.429719 21.131229 -0.191515 2.737549 0.015235 -0.004467 -209753.000000 0 1 0
-6.892233 2.141603 -19.201219 20.512829 -0.301269 2.782053 0.018866 -0.003962 -185842.000000 0 1 0
-6.413433 3.335703 -20.081119 21.342689 -0.479607 2.796044 0.021932 -0.004469 -1347740.000000 0 1 0
-6.084733 2.833303 -21.330119 22.361251 -0.435785 2.836728 0.014912 -0.006094 284872.000000 0 1 0
-5.781333 3.896503 -22.235919 23.303275 -0.593049 2.837761 0.007558 -0.004444 -839550.000000 0 1 0
-5.424333 3.470103 -23.675619 24.535687 -0.569121 2.876035 0.022039 -0.005291 -9598.910000 0 1 0
-4.157433 2.840703 -23.602519 24.133643 -0.599418 2.931408 0.029764 -0.010998 -149144.000000 0 1 0
-3.855233 2.167603 -24.775319 25.166997 -0.512199 2.964936 0.043602 -0.009918 -413155.000000 0 0 1
-2.406333 1.680903 -24.782819 24.956041 -0.609741 3.023702 0.037172 -0.008887 -1235600.000000 0 1 0
-1.411433 2.669303 -24.809119 24.992193 -1.084403 3.020479 0.031908 -0.007126 396937.000000 0 1 0
-0.079433 2.166803 -24.775519 24.870217 -1.534153 3.054299 0.031710 -0.010373 631747.000000 0 1 0
0.396867 1.227903 -23.579419 23.614704 1.258187 3.086920 0.032002 -0.013455 -1130690.000000 0 1 0
0.050467 -0.166997 -23.567919 23.568564 -1.277322 3.134191 0.026112 -0.016194 -180103.000000 0 1 0
0.769067 -0.874597 -22.596419 22.626412 -0.849515 3.090097 0.028565 -0.014442 -1045720.000000 0 1 0
0.474967 -2.405197 -22.604919 22.737478 -1.375830 3.033559 0.035934 -0.019183 275468.000000 0 1 0
-0.707533 -2.861097 -21.929619 22.126786 1.328366 3.007996 0.040433 -0.022236 1203780.000000 0 1 0
-1.933033 -2.718897 -22.692219 22.936125 0.952751 2.995627 0.054180 -0.025266 675331.000000 0 1 0
-2.674733 -1.363697 -22.628919 22.827217 0.471492 3.009687 0.048852 -0.025974 -1712480.000000 0 1 0
-3.282833 -1.174497 -21.356519 21.639254 0.343579 2.979763 0.034999 -0.027010 588457.000000 0 1 0
-4.194133 -0.060097 -21.264119 21.673881 0.014328 2.946833 0.023574 -0.024264 1955510.000000 0 1 0
-5.574133 -0.191597 -22.066519 22.760468 0.034359 2.894023 0.028633 -0.013044 1150710.000000 0 1 0
-6.440833 -1.247697 -21.598119 22.572546 0.191347 2.846693 0.036257 -0.004432 -178858.000000 0 1 0
-7.760033 -0.967797 -21.906819 23.260771 0.124075 2.798719 0.024333 -0.000363 -221041.000000 0 1 0
-8.881233 -2.008897 -21.613519 23.453276 0.222452 2.742867 0.045347 0.001569 345625.000000 0 1 0
-8.890433 -3.089597 -22.586319 24.468903 0.334463 2.746763 0.073840 -0.006543 84454.500000 0 1 0
-9.203833 -4.361797 -22.045219 24.284305 0.442559 2.708797 0.048431 -0.013037 -483287.000000 0 1 0
-10.057233 -5.223397 -22.932519 25.579919 0.479021 2.682612 0.045156 -0.014452 34763.100000 0 0 1
-11.421733 -4.842297 -22.978419 26.113436 0.400985 2.646545 0.040243 -0.015023 482052.000000 0 0 1
-12.323733 -5.702997 -23.687519 27.303793 0.433419 2.621059 0.045296 -0.022112 763169.000000 0 0 1
-13.797433 -5.417997 -23.290419 27.607381 0.374181 2.574805 0.043912 -0.021380 44824.600000 0 0 1
-14.287033 -4.216797 -23.796019 28.074031 0.287000 2.582274 0.048931 -0.029434 1432190.000000 0 0 1
-15.748033 -4.219597 -23.689019 28.757176 0.261795 2.538808 0.058222 -0.026742 1929520.000000 0 0 1
-16.387933 -2.899897 -24.213319 29.381262 0.175140 2.539421 0.052101 -0.024353 -156026.000000 0 0 1
-16.036833 -2.635597 -25.548329 30.279424 0.162890 2.575032 0.049418 -0.030463 126816.000000 0 0 1
-16.481033 -1.348897 -25.993739 30.807766 0.081663 2.575009 0.049589 -0.018653 781495.000000 0 0 1
-17.943933 -1.458397 -26.582019 32.104756 0.081097 2.546288 0.047579 -0.013226 330181.000000 0 0 1
-18.137733 -1.905997 -27.963329 33.384996 0.104700 2.563674 0.053992 -0.024045 -56367.900000 0 0 1
-17.707033 -0.961197 -28.902929 33.909324 0.054230 2.591277 0.042144 -0.019503 -290262.000000 0 0 1
-17.729533 -1.633397 -30.251239 35.101877 0.091869 2.609629 0.030761 -0.017898 1353120.000000 0 0 1
-19.079433 -1.866697 -30.737439 36.225674 0.097528 2.583938 0.018587 -0.014528 1231650.000000 0 0 1
-19.095533 -2.660497 -31.931339 37.300510 0.138434 2.598387 0.023917 -0.020109 -746274.000000 0 0 1
-20.449033 -3.274497 -32.288179 38.358986 0.158782 2.571289 0.001636 -0.011615 236576.000000 0 0 1
-21.452233 -2.289497 -32.621319 39.109980 0.106323 2.557281 0.004285 -0.014533 936912.000000 0 0 1
-22.323033 -1.927397 -31.529389 38.679905 0.086128 2.523761 -0.000174 0.000874 292673.000000 0 0 1
-23.453933 -0.954497 -31.931039 39.630661 0.040674 2.507679 -0.000218 -0.000280 11499.100000 0 0 1
-22.900133 0.263103 -32.425159 39.697308 -0.011489 2.526656 0.008770 -0.007023 46061.500000 0 0 1
-23.904633 1.194903 -32.669479 40.498816 -0.049945 2.509305 0.011783 -0.010882 -435192.000000 0 0 1
-23.410533 2.400703 -33.385389 40.846060 -0.102191 2.527587 0.012695 -0.008148 -470932.000000 0 0 1
-22.710233 3.454603 -32.745669 39.999598 -0.150959 2.529853 0.013729 -0.008193 849023.000000 0 0 1
-23.535733 4.422803 -32.029559 39.992306 -0.185752 2.499581 0.020394 -0.013466 377528.000000 0 0 1
-24.699433 5.175003 -32.762579 41.354918 -0.206532 2.485250 0.020605 -0.013596 -22303.500000 0 0 1
-25.795233 4.335303 -32.969939 42.085696 -0.166510 2.470914 0.025953 -0.021281 16542.300000 0 0 1
-26.808873 4.889403 -33.820159 43.432995 -0.180397 2.463347 0.043096 -0.029198 176585.000000 0 0 1
-28.065453 4.002203 -33.886169 44.180988 -0.141647 2.444926 0.052660 -0.030859 -495035.000000 0 0 1
-28.061853 2.850103 33.818315 44.037133 -0.101218 0.695162 0.045529 -0.026354 132439.000000 0 0 1
-29.261323 2.537503 33.140019 44.282330 -0.086502 0.725180 0.049264 -0.028963 -8567.910000 0 0 1
-29.257073 1.061303 32.663152 43.863244 -0.036259 0.730773 0.050348 -0.003835 -135894.000000 0 0 1
-29.359463 0.128103 33.717561 44.708706 -0.004363 0.716421 0.037540 0.002073 93481.400000 0 0 1
-29.150633 -1.205297 33.371814 44.327081 0.041324 0.718409 0.021743 0.004815 -682546.000000 0 0 1
-28.829553 -2.073297 -33.841619 44.505021 0.071792 2.434725 -0.015627 0.014609 245746.000000 0 0 1
-27.507843 -1.916897 -33.337339 43.263542 0.069573 2.450522 0.001070 0.008240 585928.000000 0 0 1
-27.114093 -0.739697 -32.693859 42.480697 0.027274 2.449037 0.007205 0.014661 -894244.000000 0 0 1
-27.488443 -0.613697 -31.181509 41.572559 0.022322 2.418934 0.023060 0.015379 -648051.000000 0 0 1
-26.645603 -1.261297 -30.290389 40.361946 0.047301 2.419568 0.009936 0.006773 -100961.000000 0 0 1
-26.828593 -0.882997 -28.933709 39.467868 0.032901 2.393658 0.009724 0.007516 -247605.000000 0 0 1
-25.683033 -1.319897 -27.991229 38.011435 0.051347 2.398515 0.009858 0.005254 13803.800000 0 0 1
-25.769023 -2.713297 -27.709119 37.936787 0.104906 2.389707 0.000904 0.008264 583255.000000 0 0 1
-24.862433 -2.956897 -26.613689 36.540009 0.118374 2.386698 0.022416 -0.004140 265959.000000 0 0 1
-25.059483 -4.379597 -25.921089 36.318885 0.173021 2.365575 0.017569 -0.008908 -787373.000000 0 0 1
-26.140833 -4.269997 -25.098309 36.489740 0.161916 2.329275 0.025426 -0.006743 -1067520.000000 0 0 1
-26.401473 -5.516197 -24.493519 36.433483 0.205972 2.308081 0.016432 -0.010484 881.096000 0 0 1
-27.497343 -5.341797 -23.438719 36.524132 0.191876 2.267551 0.040926 -0.016354 -122338.000000 0 0 1
-27.583433 -6.490697 -22.667519 36.287620 0.231107 2.245496 0.032830 -0.015858 35875.600000 0 0 1
-28.460443 -6.201197 -21.576619 36.249168 0.214535 2.208349 0.059440 -0.015645 204398.000000 0 0 1
-28.819093 -7.431097 -20.701719 36.253586 0.252356 2.178551 0.053816 -0.020403 240332.000000 0 0 1
-27.699623 -7.774497 -19.886519 34.974070 0.273631 2.175608 0.044927 -0.014045 481700.000000 0 0 1
-28.032243 -8.733197 -18.865919 34.899832 0.302011 2.141915 0.050559 -0.007417 -73827.800000 0 0 1
-28.937163 -8.224497 -17.743219 34.925973 0.276917 2.103685 0.048020 -0.008719 85323.600000 0 0 1
-28.244173 -7.202197 -17.009119 33.747816 0.249677 2.099028 0.054271 -0.013476 261528.000000 0 0 1
-28.882843 -6.797897 -15.833919 33.632470 0.231154 2.060985 0.057286 -0.013429 -251234.000000 0 0 1
-28.001093 -5.941597 -14.890619 32.265993 0.209090 2.050477 0.073060 -0.014972 61217.900000 0 0 1
-27.707233 -4.667697 -15.407419 32.044761 0.166898 2.072374 0.076341 -0.012714 109905.000000 0 0 1
-26.759683 -4.039497 -14.568819 30.735137 0.149823 2.064638 0.083959 -0.020747 21170.300000 0 0 1
-13.962433 21.316703 -5.300019 26.027708 -0.990914 1.775860 0.047170 -0.012614 83224.100000 0 0 1
-13.877333 20.541103 -6.476019 25.621400 -0.976642 1.826326 0.057746 -0.015070 348761.000000 0 0 1
-14.768033 19.422303 -6.407819 25.226589 -0.920695 1.827621 0.063408 -0.028174 27050.900000 0 0 1
-14.965733 18.594403 -7.737619 25.091747 -0.893104 1.884279 0.070501 -0.036330 456190.000000 0 0 1
-13.786833 17.921503 -8.246819 24.067968 -0.915063 1.920529 0.065380 -0.030336 784122.000000 0 1 0
-14.027633 16.941603 -9.169619 23.830114 -0.879214 1.965778 0.055309 -0.036676 -596806.000000 0 1 0
-14.674733 15.633003 -8.766919 23.164573 -0.817006 1.958931 0.056543 -0.041892 380153.000000 0 1 0
-16.101133 15.674103 -8.631119 24.071149 -0.771960 1.937529 0.055096 -0.032527 723371.000000 0 1 0
-16.427433 14.982003 -7.444219 23.446479 -0.739412 1.893887 0.067481 -0.018639 -221013.000000 0 1 0
-17.909233 15.245903 -7.125819 24.575506 -0.705241 1.864977 0.085448 -0.012441 -708204.000000 0 1 0
-18.806333 14.692103 -7.986219 25.165766 -0.663192 1.893724 0.074242 -0.018291 655219.000000 0 0 1
-20.157533 15.204403 -7.780519 26.420380 -0.646234 1.869717 0.046174 -0.013578 1283290.000000 0 0 1
-21.206433 14.665803 -8.754319 27.229335 -0.605048 1.898113 0.045821 -0.003020 -310527.000000 0 0 1
-21.580833 13.371503 -8.421319 26.747861 -0.554707 1.891085 0.072763 -0.005404 -228005.000000 0 0 1
-22.393933 12.869603 -9.436019 27.498243 -0.521602 1.921065 0.068297 -0.006223 -312592.000000 0 0 1
-22.801733 11.475403 -8.974519 27.058195 -0.466259 1.908875 0.070567 -0.008392 -313292.000000 0 0 1
-21.748333 10.541203 -8.842119 25.734996 -0.451325 1.921526 0.071472 -0.012911 -354236.000000 0 0 1
-22.102333 9.421403 -8.101719 25.355745 -0.402940 1.896021 0.088851 -0.028122 -845514.000000 0 0 1
-21.044833 8.553203 -7.455519 23.908723 -0.386035 1.887917 0.081887 -0.011860 -797013.000000 0 1 0
-20.685133 7.499703 -8.364119 23.538878 -0.347824 1.934066 0.060937 -0.015343 305842.000000 0 1 0
-19.978933 6.522003 -7.608419 22.351339 -0.315537 1.918140 0.064295 -0.007157 -138610.000000 0 1 0
-19.509833 5.290203 -8.440319 21.905680 -0.264789 1.966332 0.037063 -0.013855 -113342.000000 0 1 0
-20.558433 4.372403 -8.704619 22.749450 -0.209559 1.963437 0.052436 -0.007085 492868.000000 0 1 0
-20.168533 3.260703 -9.454219 22.511867 -0.160286 2.004204 0.035073 -0.008503 -175708.000000 0 1 0
-21.090333 2.000803 -9.386619 23.171404 -0.094585 1.987879 0.030826 -0.009268 34272.200000 0 1 0
-20.785033 1.044903 -8.334419 22.418117 -0.050230 1.951713 0.032958 -0.012691 767524.000000 0 1 0
-21.810633 0.063103 -8.118219 23.272584 -0.002893 1.927121 0.049684 -0.012306 1700.700000 0 1 0
-21.670533 -1.132697 -9.084319 23.524878 0.052221 1.967259 0.031255 -0.020988 -101001.000000 0 1 0
-20.488333 -1.866797 -8.871319 22.404398 0.090864 1.977913 0.021482 -0.011343 79422.100000 0 1 0
-20.514033 -3.268797 -9.228219 22.730390 0.158016 1.988854 0.021329 -0.014033 255757.000000 0 1 0
-21.626433 -4.127897 -8.542719 23.616100 0.188604 1.940922 0.044050 -0.014553 276346.000000 0 1 0
-21.178233 -4.337897 -7.222619 22.792568 0.202034 1.893240 0.025050 -0.015595 855100.000000 0 1 0
-22.107233 -5.009797 -6.359319 23.542913 0.222850 1.844310 0.039032 -0.017792 -435774.000000 0 1 0
-22.407733 -6.480097 -6.631719 24.250317 0.281510 1.847794 0.056317 -0.022455 -228379.000000 0 1 0
-21.298133 -7.299197 -6.309319 23.381537 0.330170 1.844025 0.044729 -0.027014 859786.000000 0 1 0
-21.329033 -8.575797 -6.977819 24.024194 0.382291 1.865493 0.044369 -0.024765 -587051.000000 0 1 0
-20.611233 -9.730297 -6.301419 23.647611 0.441069 1.840527 0.056600 -0.019152 -839561.000000 0 1 0
-19.225633 -9.657297 -6.454019 22.462028 0.465497 1.862235 0.046604 -0.021803 -556893.000000 0 1 0
-18.585133 -10.514297 -5.546819 22.061841 0.514845 1.824945 0.066073 -0.014331 345793.000000 0 1 0
-17.702433 -11.615097 -6.261919 22.079363 0.580672 1.858352 0.048367 -0.012048 207252.000000 0 1 0
-16.548833 -11.413397 -7.041519 21.300528 0.603766 1.907714 0.046315 -0.018919 565591.000000 0 1 0
-16.843833 -10.785497 -8.328319 21.665700 0.569542 1.965355 0.041423 -0.026526 -460683.000000 0 1 0
-15.894333 -11.070997 -9.486619 21.568327 0.608398 2.026217 0.047914 -0.014921 -274162.000000 0 1 0
-16.023233 -12.332597 -10.022319 22.567318 0.655971 2.030974 0.054795 -0.014387 777264.000000 0 1 0
-15.054733 -12.564797 -11.088219 22.527044 0.695490 2.085432 0.050485 -0.000011 718040.000000 0 1 0
-15.193433 -13.917097 -11.882319 23.784775 0.741582 2.093906 0.064468 -0.000790 -169472.000000 0 1 0
-16.251233 -13.948297 -12.801219 24.950527 0.709288 2.109547 0.056800 -0.004528 -9721.660000 0 1 0
-16.293233 -15.246297 -13.389819 26.023187 0.752216 2.111261 0.040848 0.000448 -71189.200000 0 0 1
-16.865533 -15.194897 -14.827019 27.114048 0.733336 2.149380 0.065481 0.001867 -121114.000000 0 0 1
-16.971233 -16.464197 -15.430919 28.234833 0.770235 2.149000 0.054932 0.004790 391304.000000 0 0 1
-17.449433 -16.409497 -16.761719 29.235416 0.754694 2.181368 0.055666 0.002626 -728604.000000 0 0 1
-17.470733 -17.821997 -17.409119 30.429057 0.795351 2.179887 0.044783 -0.000970 -245783.000000 0 0 1
-18.623933 -18.590297 -17.186619 31.429761 0.784494 2.149365 0.011973 0.001979 -503391.000000 0 0 1
-19.553333 -18.594697 -18.222319 32.559922 0.760274 2.164766 0.011711 0.002943 192733.000000 0 0 1
-20.995233 -18.170197 -17.829719 32.997799 0.713392 2.141626 -0.000042 -0.000467 52516.100000 0 0 1
-21.232333 -16.846897 -17.334819 32.173372 0.670737 2.139801 -0.002713 0.005159 188696.000000 0 0 1
-20.936433 -16.719797 -15.948219 31.180628 0.673886 2.107701 -0.014390 0.003741 -597602.000000 0 0 1
-21.077833 -15.215197 -15.423819 30.226999 0.625245 2.106291 0.004062 -0.002310 -286558.000000 0 0 1
-22.392133 -14.771797 -15.195019 30.830216 0.583155 2.086171 0.006625 -0.004052 216620.000000 0 0 1
-22.343133 -13.348597 -14.917819 29.999033 0.538532 2.091253 0.015649 -0.006294 -699908.000000 0 0 1
-23.700333 -12.769397 -14.565719 30.609206 0.494193 2.066739 0.034477 -0.014197 -757769.000000 0 0 1
-24.314333 -13.414897 -13.446719 30.853857 0.504169 2.021745 0.038241 -0.010076 944654.000000 0 0 1
-25.418113 -12.625797 -12.964719 31.202166 0.461024 1.999296 0.057252 -0.020250 170301.000000 0 0 1
-26.027263 -13.111897 -11.661819 31.390099 0.466663 1.951434 0.068848 -0.030251 118562.000000 0 0 1
-26.974163 -12.120197 -11.211019 31.625806 0.422293 1.933164 0.074312 -0.030653 616970.000000 0 0 1
-27.682043 -12.601897 -10.054219 32.034211 0.427201 1.890051 0.070614 -0.031565 595915.000000 0 0 1
-28.600833 -11.444797 -9.540119 32.249107 0.380641 1.871116 0.082385 -0.029667 259270.000000 0 0 1
-27.814983 -10.574197 -8.737019 31.013262 0.363288 1.856381 0.082086 -0.032548 192443.000000 0 0 1
-28.584643 -9.579397 -8.117019 31.220709 0.323361 1.833806 0.093065 -0.030529 -666730.000000 0 0 1
-27.825423 -8.328997 -7.765619 30.065449 0.290842 1.832049 0.088800 -0.027908 -96529.200000 0 0 1
-27.005473 -8.523497 -6.603119 29.078287 0.305726 1.799875 0.086180 -0.031421 1093100.000000 0 0 1
-26.192113 -7.427297 -6.072619 27.893875 0.276316 1.790258 0.084485 -0.024767 809406.000000 0 0 1
-27.072643 -6.321197 -5.392119 28.318907 0.229381 1.762373 0.091406 -0.027222 32115.200000 0 0 1
-27.865303 -6.670297 -4.259119 28.967362 0.234955 1.718363 0.093894 -0.021003 568321.000000 0 0 1
-27.169853 -7.019297 -3.075819 28.229986 0.252821 1.679969 0.102750 -0.013733 -119949.000000 0 0 1
-26.395333 -5.859497 -2.294319 27.135055 0.218448 1.655449 0.108190 -0.008266 191102.000000 0 0 1
-27.238533 -4.865097 -1.739019 27.724196 0.176747 1.633563 0.112778 -0.017795 170706.000000 0 0 1
-26.590793 -3.921697 -0.885119 26.893000 0.146428 1.603715 0.089363 -0.022001 -331410.000000 0 0 1
-27.528513 -2.848997 -0.271719 27.676880 0.103125 1.580614 0.102786 -0.022956 713276.000000 0 0 1
-28.490093 -3.304997 0.721881 28.690234 0.115489 1.545632 0.105610 -0.021684 789278.000000 0 0 1
-27.908523 -3.579597 1.964181 28.205624 0.127565 1.501102 0.097241 -0.017382 23263.600000 0 0 1
-28.960573 -3.865397 3.090581 29.380398 0.132687 1.465409 0.093271 -0.015645 112971.000000 0 0 1
-29.439983 -5.157097 2.934681 30.031993 0.173414 1.472922 0.090740 -0.006292 190856.000000 0 0 1
-30.507713 -5.366997 3.849881 31.214529 0.174141 1.447145 0.107729 -0.013692 30404.000000 0 0 1
-31.345773 -6.620397 3.670281 32.246831 0.208146 1.456731 0.092140 -0.008093 -43504.800000 0 0 1
-30.616103 -7.778797 4.044681 31.846741 0.248811 1.443448 0.073745 0.001752 343979.000000 0 0 1
-31.359863 -8.909197 3.748881 32.815681 0.276802 1.456306 0.088589 -0.000098 -59304.000000 0 0 1
-30.628683 -10.132697 4.316781 32.548769 0.319490 1.437779 0.066925 0.010233 95157.500000 0 0 1
-30.572413 -10.270497 5.736181 32.757584 0.324095 1.394779 0.055274 0.013109 -482808.000000 0 0 1
-29.618233 -11.198997 6.044481 32.236517 0.361496 1.382176 0.046654 0.009806 -895087.000000 0 0 1
-29.558803 -11.546097 7.547181 32.618939 0.372389 1.337306 0.045051 -0.006527 31804.100000 0 0 1
-29.073273 -10.507797 8.392581 32.032865 0.346816 1.305703 0.041862 -0.004599 233679.000000 0 0 1
-29.346503 -10.833297 9.722781 32.758359 0.353633 1.269453 0.051921 -0.009057 -297998.000000 0 0 1
-29.552863 -9.604597 10.664981 32.853643 0.314229 1.240185 0.049281 -0.010246 61940.500000 0 0 1
-28.548983 -8.584997 10.558581 31.626417 0.292109 1.230408 0.054465 -0.010764 424921.000000 0 0 1
-28.765573 -7.631297 11.515081 31.910688 0.259319 1.201614 0.058886 -0.020295 -334269.000000 0 0 1
-27.651223 -6.594497 11.577781 30.694015 0.234115 1.184025 0.068810 -0.014005 -368042.000000 0 0 1
-27.629473 -5.681297 10.479581 30.091304 0.202798 1.215083 0.081053 -0.015538 495844.000000 0 0 1
-26.712203 -4.618397 10.698981 29.143431 0.171202 1.194891 0.078959 -0.018238 -217222.000000 0 0 1
-26.880193 -3.658897 9.482481 28.737602 0.135287 1.234527 0.097373 -0.027232 38599.400000 0 0 1
-26.371983 -4.174497 8.271881 27.952316 0.156990 1.270369 0.067858 -0.013873 95117.200000 0 0 1
-26.656163 -3.281397 7.245981 27.817672 0.122485 1.307276 0.074506 -0.032187 -337488.000000 0 0 1
-26.017503 -3.720597 5.903981 26.937155 0.142041 1.349826 0.065682 -0.015096 177210.000000 0 0 1
-24.602833 -3.821497 5.953081 25.599657 0.154096 1.336102 0.085801 -0.039915 577431.000000 0 0 1
-24.128333 -4.286497 4.672081 24.947522 0.175820 1.382408 0.096385 -0.026846 519581.000000 0 1 0
-22.579633 -4.045297 4.620281 23.399813 0.177276 1.372041 0.093670 -0.030492 669860.000000 0 1 0
-22.209233 -2.686397 4.610681 22.841304 0.120374 1.367543 0.064525 -0.031620 1101250.000000 0 1 0
-20.788533 -2.530397 4.430181 21.405432 0.121125 1.362324 0.050068 -0.023804 259816.000000 0 1 0
-20.255733 -1.119597 4.714981 20.827369 0.055217 1.342433 0.028552 -0.028315 -864568.000000 0 1 0
-20.521733 -0.117497 3.783781 20.867974 0.005725 1.388468 0.038133 -0.023018 1399490.000000 0 1 0
-21.851933 0.427503 3.935681 22.207641 -0.019561 1.392633 0.037184 -0.040878 770238.000000 0 1 0
-22.203433 1.530603 2.960081 22.452111 -0.068827 1.438572 0.076571 -0.026225 -494327.000000 0 1 0
-21.515533 2.626203 3.428681 21.944725 -0.121460 1.413912 0.054292 -0.027490 153269.000000 0 1 0
-21.738533 3.835703 2.622781 22.229607 -0.174650 1.452535 0.073898 -0.011270 -87419.500000 0 1 0
-20.682533 4.152203 1.536781 21.151115 -0.198125 1.498075 0.063073 -0.005283 -282157.000000 0 1 0
-21.062033 5.037403 0.491281 21.661626 -0.234760 1.548115 0.088193 -0.008702 418145.000000 0 1 0
-21.976933 4.551203 -0.483219 22.448442 -0.204203 1.592324 0.099958 -0.009450 -163600.000000 0 1 0
-21.460233 3.497103 -1.507819 21.795524 -0.161537 1.640032 0.085050 -0.008957 -318021.000000 0 1 0
-21.323233 2.223803 -0.894919 21.457550 -0.103914 1.612515 0.057197 -0.011313 542078.000000 0 1 0
-20.771833 1.241003 -1.775619 20.884491 -0.059674 1.655920 0.041298 -0.008472 94329.000000 0 1 0
-19.959433 0.168703 -0.916419 19.981173 -0.008452 1.616677 0.033123 -0.010077 -114410.000000 0 1 0
-20.777333 -0.644597 -0.120019 20.787676 0.031014 1.576570 0.042078 -0.014930 420749.000000 0 1 0
-20.071333 -1.420697 0.855281 20.139720 0.070665 1.528316 0.043796 -0.018406 -843519.000000 0 1 0
-19.113633 -2.487497 0.334581 19.277722 0.129415 1.553440 0.016175 -0.017787 -568863.000000 0 1 0
-18.359733 -3.131997 1.329281 18.672338 0.168964 1.499546 0.019507 -0.015230 749200.000000 0 1 0
-17.546933 -4.213997 0.864981 18.066567 0.235692 1.522901 0.004039 -0.013480 33358.200000 0 1 0
-18.385333 -5.455897 0.408181 19.182125 0.288475 1.549515 -0.003504 -0.014483 -267717.000000 0 1 0
-18.953533 -6.008097 1.549581 19.943291 0.306971 1.493019 0.015664 -0.020026 -218883.000000 0 1 0
-19.812933 -7.026397 1.178281 21.054950 0.340800 1.514805 0.018069 -0.017171 -807052.000000 0 1 0
-20.800633 -7.290697 2.323081 22.163423 0.337123 1.465787 0.051599 -0.016972 -528345.000000 0 1 0
-20.088433 -7.652497 3.473981 21.775546 0.363969 1.410576 0.050412 -0.020221 793297.000000 0 1 0
-21.009333 -8.148297 4.413781 22.962323 0.369981 1.377374 0.066290 -0.024496 311051.000000 0 1 0
-20.330833 -9.187097 5.370381 22.947473 0.424416 1.334576 0.063209 -0.014718 87253.900000 0 1 0
-19.964833 -10.359697 4.657081 22.969682 0.478651 1.366632 0.069128 -0.010589 -61365.600000 0 1 0
-19.207033 -11.137497 5.498581 22.873311 0.525483 1.328026 0.089915 -0.015654 -825593.000000 0 1 0
-18.594133 -12.406097 4.850481 22.873133 0.588375 1.357114 0.065776 -0.010387 -244092.000000 0 1 0
-19.366733 -13.597597 4.831381 24.151755 0.612141 1.369395 0.067738 -0.002342 312604.000000 0 1 0
-18.596033 -14.658097 4.256781 24.058106 0.667528 1.392922 0.051007 0.000626 247476.000000 0 1 0
-19.092433 -16.052397 4.645481 25.372839 0.699113 1.386669 0.048411 0.000628 459011.000000 0 0 1
-18.176633 -17.113997 4.292981 25.331968 0.755296 1.400506 0.044084 -0.014181 745359.000000 0 0 1
-18.641533 -18.275997 4.885781 26.559173 0.775497 1.385784 0.041944 -0.015929 315879.000000 0 0 1
-17.448833 -19.265697 4.849181 26.441320 0.834844 1.386358 0.038826 -0.023100 -126075.000000 0 0 1
-17.154133 -19.616497 3.472481 26.289339 0.852264 1.438322 0.052235 -0.026778 494670.000000 0 0 1
-16.391833 -20.831797 3.339781 26.717225 0.904115 1.445464 0.049882 -0.030077 714189.000000 0 0 1
-14.947433 -21.009497 3.879181 26.074370 0.952420 1.421468 0.043334 -0.029925 13522.300000 0 0 1
-14.493833 -22.339997 3.897281 26.913481 0.995276 1.425478 0.046355 -0.025507 -1356800.000000 0 0 1
-13.206833 -22.410097 4.353181 26.373909 1.038263 1.404981 0.051893 -0.018451 -1318340.000000 0 0 1
-12.621133 -23.817697 4.395481 27.311096 1.083511 1.409152 0.048624 -0.009502 -454215.000000 0 0 1
-12.296133 -24.371097 3.111381 27.474096 1.103525 1.457305 0.043234 -0.018564 107465.000000 0 0 1
-12.052133 -25.759327 3.317781 28.632229 1.133178 1.454660 0.047270 -0.014177 -87031.800000 0 0 1
18.643167 18.898103 -24.154219 35.890559 0.792189 2.309049 0.074069 -0.015926 758759.000000 0 0 1
17.626867 18.906103 -25.197409 36.097875 0.820400 2.343439 0.060384 -0.018093 894901.000000 0 0 1
18.242467 19.121903 -26.457529 37.395663 0.808931 2.356754 0.058588 -0.018077 -64936.300000 0 0 1
17.186267 19.411003 -27.513839 37.804314 0.846113 2.385899 0.047180 -0.019208 -241792.000000 0 0 1
16.912767 20.749403 -27.518159 38.390474 0.886918 2.369994 0.043007 -0.018250 353899.000000 0 0 1
16.040567 20.994303 -28.630799 38.958737 0.918368 2.396316 0.031847 -0.025636 -73951.100000 0 0 1
15.878067 22.468903 -29.038499 40.002488 0.955609 2.383164 0.037959 -0.015953 -263627.000000 0 0 1
15.171567 23.300703 -28.109839 39.538111 0.993634 2.361652 0.038270 -0.027130 493149.000000 0 0 1
14.962867 24.569403 -28.547769 40.527991 1.023782 2.352369 0.033413 -0.018301 327986.000000 0 0 1
14.004667 25.415203 -27.615269 40.058286 1.067159 2.331425 0.028601 -0.017329 190080.000000 0 0 1
12.658867 25.016103 -27.550159 39.307297 1.102337 2.347443 0.034603 -0.027912 -392767.000000 0 0 1
11.993967 25.851003 -26.618659 38.995930 1.136390 2.322112 0.027751 -0.017298 -1238910.000000 0 0 1
10.533467 25.465803 -26.423289 38.179199 1.178594 2.335171 0.044718 -0.021255 -50521.400000 0 0 1
9.826667 26.340803 -25.501989 37.957248 1.213729 2.307515 0.033722 -0.015844 349238.000000 0 0 1
9.562967 27.660403 -25.995969 39.145097 1.237933 2.297076 0.039261 -0.016736 -766926.000000 0 0 1
9.038767 28.569503 -24.917219 38.971574 1.264382 2.264474 0.041046 -0.015597 -201642.000000 0 0 1
10.050067 28.847403 -23.992519 38.843500 1.235559 2.236575 0.028263 -0.010142 193968.000000 0 0 1
9.508267 29.767903 -23.078519 38.847821 1.261626 2.206912 0.063506 -0.018168 -247162.000000 0 0 1
10.501367 30.119503 -21.979519 38.737093 1.235319 2.174144 0.041914 -0.017054 -267887.000000 0 0 1
11.633967 30.819403 -22.433719 39.855445 1.209846 2.168659 0.012425 -0.014131 -400841.000000 0 0 1
12.378867 31.234003 -21.374219 39.820303 1.193461 2.137397 0.005900 -0.007661 -650594.000000 0 0 1
13.610167 32.107503 -21.664019 41.054331 1.169863 2.126677 0.009126 -0.001442 -356514.000000 0 0 1
14.629967 31.363103 -22.275419 41.156706 1.134330 2.142701 0.002857 0.000930 -582936.000000 0 0 1
15.624467 32.291403 -22.660019 42.430356 1.120145 2.134182 0.005722 0.003023 -448796.000000 0 0 1
16.934867 31.649003 -23.138919 42.706658 1.079477 2.143386 -0.011394 0.006079 -416493.000000 0 0 1
17.640467 31.047703 -22.127719 42.009307 1.054108 2.125550 -0.003027 0.012368 -1008930.000000 0 0 1
18.744067 30.390803 -22.619119 42.267783 1.018139 2.135468 0.007931 0.009519 -672225.000000 0 0 1
19.682867 29.670503 -21.642219 41.667009 0.985071 2.116956 0.003375 0.009483 -312034.000000 0 0 1
20.605967 30.454503 -20.926519 42.308413 0.975938 2.088192 0.011348 0.010404 334190.000000 0 0 1
21.582767 29.548003 -20.381319 41.884346 0.939938 2.079001 0.024046 0.008479 125798.000000 0 0 1
22.316367 30.230103 -19.254219 42.220899 0.934879 2.044331 0.026841 -0.001302 -531115.000000 0 0 1
23.323567 31.150203 -19.659919 43.598582 0.928099 2.038604 0.030197 -0.000237 256197.000000 0 0 1
23.681367 31.887803 -18.496819 43.815196 0.932018 2.006618 0.036839 -0.008056 -441418.000000 0 0 1
24.907267 32.827603 -18.570319 45.198232 0.921732 1.994198 0.040303 -0.001034 693922.000000 0 0 1
26.055767 32.027403 -18.907319 45.410838 0.887850 2.000236 0.041007 -0.000699 158858.000000 0 0 1
27.274167 32.754003 -18.750619 46.564907 0.876434 1.985236 0.045959 -0.006510 889581.000000 0 0 1
28.461667 31.843903 -19.240919 46.843501 0.841424 1.994072 0.060101 -0.016517 81439.700000 0 0 1
28.846867 30.845603 -18.371319 46.055383 0.818870 1.981109 0.051837 -0.009744 -298172.000000 0 0 1
29.942867 30.125803 -18.879319 46.481910 0.788444 1.989050 0.045165 -0.019812 15394.100000 0 0 1
30.356767 28.921603 -18.006619 45.631466 0.761192 1.976439 0.050673 -0.022135 -115910.000000 0 0 1
31.081467 29.348803 -16.878319 45.959629 0.756734 1.946839 0.058063 -0.016336 77413.900000 0 0 1
31.345167 28.218503 -16.054619 45.128197 0.732954 1.934519 0.066611 -0.024271 -268737.000000 0 0 1
31.814767 28.624303 -14.619719 45.224620 0.732659 1.899978 0.068346 -0.020047 454115.000000 0 0 1
33.144267 29.104803 -14.513319 46.435637 0.720597 1.888670 0.035492 -0.006915 105625.000000 0 0 1
33.221467 30.509203 -14.824119 47.478751 0.742866 1.888332 0.039184 -0.010459 -176851.000000 0 0 1
34.684567 30.981303 -14.904419 48.836482 0.729062 1.880935 0.040716 -0.011404 49297.000000 0 0 1
35.339467 31.127103 -13.684419 49.041184 0.722107 1.853590 0.039028 -0.007208 85035.200000 0 0 1
-35.710448 31.617403 -13.878419 49.674005 -0.724680 1.853955 0.034195 -0.008869 413251.000000 0 0 1
-34.943648 31.942103 -12.585019 48.987132 -0.740553 1.830614 0.026598 -0.001551 -372342.000000 0 0 1
-35.522848 32.979103 -11.810519 49.889701 -0.748281 1.809798 0.038464 -0.008926 -25452.900000 0 0 1
-34.746548 33.432503 -10.695419 49.390756 -0.766127 1.789072 0.020122 -0.005820 -201288.000000 0 0 1
-35.175948 -33.870143 -9.933819 49.831864 0.766488 1.771488 0.023086 -0.000625 -619946.000000 0 0 1
-34.240348 -33.250043 -9.131119 48.593663 0.770726 1.759828 0.018190 -0.002493 -623264.000000 0 0 1
-34.095748 -33.884743 -7.896919 48.714034 0.782294 1.733623 0.010891 -0.004098 145093.000000 0 0 1
-33.727248 -32.800543 -6.841519 47.541658 0.771469 1.715203 0.011160 -0.012308 -58509.200000 0 0 1
-34.862948 -32.101543 -6.379219 47.818706 0.744185 1.704599 0.009328 -0.003103 -317846.000000 0 0 1
-34.522848 -30.941443 -5.620619 46.698943 0.730745 1.691447 0.023801 -0.005978 -66567.400000 0 0 1
-35.726248 -30.192043 -5.041919 47.046203 0.701639 1.678172 0.024361 -0.001322 -473393.000000 0 0 1
36.062167 -30.773543 -3.950019 47.571982 -0.706434 1.653924 0.008603 -0.003691 -192057.000000 0 0 1
34.709467 -30.367443 -3.844819 46.278627 -0.718775 1.653972 0.006327 0.001011 123570.000000 0 0 1
34.428167 -29.498043 -2.569319 45.409631 -0.708428 1.627407 0.005447 -0.000442 -214208.000000 0 0 1
35.021867 -28.187743 -2.654419 45.034719 -0.677698 1.629772 0.022853 -0.004561 452497.000000 0 0 1
34.316067 -27.160943 -1.954519 43.807869 -0.669532 1.615427 0.018607 -0.001331 -334005.000000 0 0 1
34.849967 -25.744843 -2.288219 43.388398 -0.636252 1.623559 0.023578 -0.015067 -170967.000000 0 0 1
34.531867 -25.416943 -3.599719 43.028233 -0.634509 1.654554 0.024739 -0.016013 286875.000000 0 0 1
34.402067 -24.060443 -3.733919 42.146759 -0.610316 1.659506 0.036379 -0.027553 -150573.000000 0 0 1
33.942767 -23.657443 -5.168619 41.695331 -0.608697 1.695078 0.047691 -0.032390 364670.000000 0 0 1
35.048667 -23.677043 -6.081719 42.731706 -0.594126 1.713605 0.049433 -0.032789 939741.000000 0 0 1
34.574567 -23.404143 -7.380519 42.398427 -0.595066 1.745763 0.046889 -0.032109 125065.000000 0 0 1
35.773567 -23.201143 -8.333519 43.445237 -0.575359 1.763809 0.045025 -0.023962 109697.000000 0 0 1
-35.943948 -24.400243 -8.695119 44.305128 0.596384 1.768334 0.036699 -0.016200 45030.600000 0 0 1
-34.736548 -24.048043 -9.361919 43.273336 0.605538 1.788864 0.041556 -0.010591 286501.000000 0 0 1
-34.143048 -25.225343 -10.122419 43.640910 0.636303 1.804876 0.033162 -0.012025 -411988.000000 0 0 1
-33.506748 -26.246343 -9.373719 43.582557 0.664484 1.787570 0.026101 -0.003784 -99120.400000 0 0 1
-34.392048 -27.206343 -8.845319 44.735195 0.669269 1.769834 0.022236 0.000188 -97953.000000 0 0 1
-33.654748 -28.429443 -8.257019 44.822468 0.701431 1.756071 0.004027 0.001013 15078.500000 0 0 1
-33.044648 -29.156643 -9.344119 45.048542 0.722973 1.779737 0.004384 -0.005482 620021.000000 0 0 1
-32.225648 -30.278643 -8.942519 45.113825 0.754258 1.770339 0.002741 -0.007644 138627.000000 0 0 1
-31.899448 -31.212943 -10.049019 45.747190 0.774521 1.792267 0.004429 -0.002271 -52066.000000 0 0 1
-30.911548 -30.767743 -10.971919 44.972890 0.783067 1.817251 -0.012606 0.011204 266068.000000 0 0 1
-30.685048 -31.757443 -11.931119 45.743403 0.802571 1.834675 -0.011989 0.011146 -164538.000000 0 0 1
-30.662248 -31.272543 -13.391819 45.798321 0.795252 1.867541 -0.022463 0.018569 271205.000000 0 0 1
-29.651548 -30.288443 -13.629919 44.523912 0.796023 1.881917 -0.018886 0.014454 82177.300000 0 0 1
-30.034448 -29.531043 -14.731019 44.622343 0.776947 1.907234 -0.022949 0.023156 284011.000000 0 0 1
-29.082748 -28.344643 -15.099419 43.326868 0.772546 1.926767 -0.003786 0.002006 695640.000000 0 0 1
-27.805048 -28.801443 -15.538119 42.942717 0.802998 1.941030 0.015689 -0.006547 -189403.000000 0 0 1
-26.974348 -27.815043 -16.065419 41.945080 0.800741 1.963850 0.029045 0.003658 -571294.000000 0 0 1
-25.731648 -28.537943 -16.558419 41.841524 0.837062 1.977671 0.045741 -0.000454 -790418.000000 0 0 1
-26.025848 -29.276243 -17.735019 42.999698 0.844106 1.995933 0.030802 -0.000925 24829.800000 0 0 1
-26.216448 -28.590143 -18.972219 43.181518 0.828682 2.025682 0.018668 0.002585 -764458.000000 0 0 1
-25.004748 -27.982643 -19.638419 42.354849 0.841539 2.052922 0.030326 0.004366 -551079.000000 0 0 1
-24.470348 -26.863443 -18.952919 40.983602 0.831983 2.051554 0.037241 -0.003386 -331222.000000 0 0 1
-23.080248 -26.777743 -19.140019 40.200568 0.859423 2.067026 0.050846 -0.012257 -123616.000000 0 0 1
-22.433748 -25.660743 -18.282319 38.678029 0.852395 2.063125 0.047435 -0.013297 -124138.000000 0 0 1
-22.503848 -26.080943 -16.921419 38.379333 0.858891 2.027397 0.055037 -0.009320 191206.000000 0 0 1
-21.932448 -25.097243 -16.083619 37.007927 0.852590 2.020390 0.043316 -0.009383 -211451.000000 0 0 1
-22.572748 -24.983643 -14.688319 36.734971 0.836050 1.982145 0.044652 -0.008421 346738.000000 0 0 1
-23.948448 -24.618843 -14.611319 37.324338 0.799201 1.973024 0.014127 0.005063 494302.000000 0 0 1
-24.367448 -24.620943 -13.283319 37.099999 0.790573 1.936965 0.012213 0.005976 684455.000000 0 0 1
-25.901448 -24.387043 -13.002919 37.877286 0.755293 1.921215 -0.000660 0.026818 14884.200000 0 0 1
-26.639348 -25.558843 -13.354819 39.258891 0.764701 1.917897 0.017406 0.011169 188458.000000 0 0 1
-27.918648 -25.590843 -12.760119 39.964519 0.741923 1.895772 0.000681 0.014170 -81200.100000 0 0 1
-29.003248 -24.625143 -13.299419 40.304598 0.703941 1.907071 0.005421 0.011214 -1681310.000000 0 0 1
-29.046148 -23.375443 -12.635219 39.366722 0.677642 1.897541 0.004953 0.012227 1080.400000 0 0 1
-29.485748 -23.329443 -11.218519 39.236812 0.669359 1.860761 0.020208 0.005488 866648.000000 0 0 1
-30.971748 -23.909543 -11.089219 40.667999 0.657420 1.846970 0.003566 0.005894 345003.000000 0 0 1
-32.003848 -23.038343 -11.460719 41.065309 0.623932 1.853638 0.040926 -0.002662 -111056.000000 0 0 1
-32.160148 -22.859243 -12.884519 41.506998 0.617934 1.886429 0.040617 0.004995 -1621740.000000 0 0 1
-33.566048 -22.437543 -13.271219 42.499978 0.589243 1.888372 0.023009 -0.001756 -857016.000000 0 0 1
-34.456748 -23.479143 -13.100719 43.705451 0.598140 1.875227 0.032789 0.004028 -1285760.000000 0 0 1
-35.775948 -23.123243 -13.356719 44.643082 0.573794 1.874639 0.052904 -0.011727 -643718.000000 0 0 1
35.676467 -24.312343 -13.013519 45.091595 -0.598179 1.863563 0.047305 -0.002272 -373198.000000 0 0 1
35.666767 -25.456243 -13.813919 45.945216 -0.619878 1.876182 0.019457 0.004764 139069.000000 0 0 1
34.783767 -26.444243 -13.256419 45.661155 -0.650027 1.865359 0.015185 -0.003994 507561.000000 0 0 1
34.469867 -27.662443 -14.173219 46.414035 -0.676270 1.881118 0.009542 -0.009314 226084.000000 0 0 1
33.621167 -27.392343 -15.253819 45.971756 -0.683661 1.909016 0.014939 -0.016789 -327264.000000 0 0 1
33.634667 -28.540843 -16.048719 46.940728 -0.703654 1.919727 0.005399 -0.008357 -48915.800000 0 0 1
32.784067 -28.522343 -17.359819 46.794042 -0.715995 1.950864 0.008654 -0.009601 -125575.000000 0 0 1
31.430467 -28.751843 -17.056919 45.885523 -0.740919 1.951666 0.063257 -0.014738 -245298.000000 0 0 1
30.616067 -28.318343 -18.160119 45.486943 -0.746430 1.981482 0.062903 -0.021265 -252982.000000 0 0 1
29.136067 -28.493943 -17.849219 44.490559 -0.774256 1.983613 0.072193 -0.018862 -545373.000000 0 0 1
28.603967 -27.561943 -16.928919 43.179114 -0.766848 1.973669 0.066107 -0.021544 436864.000000 0 0 1
27.172867 -27.607443 -16.969019 42.290462 -0.793331 1.983677 0.070437 -0.015790 724699.000000 0 0 1
26.584167 -26.571443 -15.968719 40.838211 -0.785159 1.972540 0.058147 -0.018334 -80652.500000 0 0 1
26.690967 -25.215043 -16.364019 40.199344 -0.756971 1.990042 0.063279 -0.024917 43373.200000 0 0 1
26.127867 -24.377143 -15.370219 38.899282 -0.750748 1.977004 0.054783 -0.016566 -65480.700000 0 0 1
25.911667 -22.864643 -15.616219 37.921929 -0.723010 1.995224 0.049593 -0.019559 -186348.000000 0 0 1
24.609867 -22.517643 -15.999019 36.995383 -0.741032 2.018016 0.047447 -0.020659 -568244.000000 0 0 1
24.468667 -21.104643 -16.015719 36.064177 -0.711716 2.030954 0.044302 -0.026033 48436.500000 0 0 1
23.056267 -20.477843 -16.142519 34.806816 -0.726240 2.053047 0.043625 -0.021186 254441.000000 0 0 1
22.297467 -20.590543 -14.936819 33.826854 -0.745620 2.028141 0.038450 -0.019413 -571711.000000 0 0 1
21.157167 -19.819543 -14.945219 32.615940 -0.752766 2.046786 0.038878 -0.019583 -669699.000000 0 0 1
21.239367 -18.568543 -14.006919 31.497544 -0.718406 2.031634 0.040947 -0.012774 -241456.000000 0 0 1
21.084467 -18.869243 -12.636519 30.988460 -0.730010 1.990819 0.043140 -0.030044 182084.000000 0 0 1
20.555667 -17.723743 -11.915519 29.641965 -0.711552 1.984476 0.040464 -0.038429 -47813.300000 0 0 1
19.626667 -18.005043 -10.716719 28.709505 -0.742333 1.953340 0.045281 -0.026230 -134779.000000 0 0 1
20.308667 -18.558143 -9.639619 29.150795 -0.740390 1.907822 0.049393 -0.038789 169668.000000 0 0 1
19.385567 -18.831343 -8.586319 28.357443 -0.770897 1.878414 0.056758 -0.044958 -104949.000000 0 0 1
19.942167 -19.435843 -7.291619 28.785582 -0.772541 1.826895 0.065197 -0.041334 -884372.000000 0 0 1
20.848167 -18.596543 -6.692419 28.727442 -0.728377 1.805919 0.066311 -0.043067 -488557.000000 0 0 1
21.593867 -19.251043 -5.709519 29.487223 -0.728102 1.765654 0.072466 -0.036937 -1108420.000000 0 0 1
22.908367 -18.555243 -5.465319 29.982662 -0.680795 1.754104 0.064241 -0.031738 -1247480.000000 0 0 1
23.816167 -18.726443 -6.523919 30.991144 -0.666326 1.782892 0.049132 -0.038844 -81948.900000 0 0 1
24.703667 -17.624143 -6.411519 31.015950 -0.619677 1.779014 0.059956 -0.033321 -172163.000000 0 0 1
25.785467 -17.597743 -7.535819 32.114785 -0.598862 1.807658 0.052469 -0.039414 205325.000000 0 0 1
26.868567 -18.491343 -7.515419 33.471348 -0.602773 1.797260 0.063912 -0.049037 276293.000000 0 0 1
26.534867 -19.696243 -8.149119 34.036000 -0.638541 1.812571 0.064698 -0.056065 -500831.000000 0 0 1
27.541767 -20.844243 -7.946819 35.442677 -0.647854 1.796935 0.068396 -0.052776 502446.000000 0 0 1
28.812167 -20.590343 -8.540919 36.428704 -0.620484 1.807455 0.061523 -0.039723 442496.000000 0 0 1
29.749067 -21.620943 -8.314519 37.704156 -0.628472 1.793144 0.063928 -0.043706 -112873.000000 0 0 1
-29.258503 30.101903 4.200581 42.188025 -0.799605 1.471063 0.022836 0.005482 186811.000000 0 0 1
-28.691803 30.992803 3.272081 42.361302 -0.823932 1.493477 0.015815 0.011003 124125.000000 0 0 1
-27.471333 31.509503 3.799681 41.975713 -0.853757 1.480151 0.008028 0.020698 282650.000000 0 0 1
-27.004383 32.773803 3.117481 42.580249 -0.881614 1.497517 0.014800 0.013294 -250666.000000 0 0 1
-26.195023 32.525503 1.984681 41.809407 -0.892790 1.523309 0.007534 0.023325 -4251.010000 0 0 1
-25.794433 33.688103 1.289781 42.448847 -0.917333 1.540407 0.031274 0.006954 161820.000000 0 0 1
-24.430733 34.272203 1.736681 42.124348 -0.951502 1.529557 0.034373 0.008929 -64575.800000 0 0 1
-23.324633 33.451903 1.440881 40.806182 -0.961912 1.535479 0.040258 0.010540 -592053.000000 0 0 1
-22.217933 33.824803 2.215881 40.529791 -0.989618 1.516096 0.044342 0.007792 -332961.000000 0 0 1
-20.866333 33.554103 1.557781 39.543753 -1.014450 1.531392 0.045507 0.009131 -321073.000000 0 0 1
-20.517233 -34.241543 0.518381 39.921283 1.030972 1.557811 0.065605 -0.000884 108205.000000 0 0 1
-19.132333 34.192403 0.254581 39.182029 -1.060651 1.564299 0.070036 -0.004375 156043.000000 0 0 1
-18.673133 -33.593043 -1.005519 38.447231 1.063463 1.596953 0.083278 -0.011389 -10414.400000 0 0 1
-18.566033 -32.194443 -0.869819 37.174405 1.047697 1.594197 0.081454 -0.021418 713612.000000 0 0 1
-17.674933 -31.710543 0.182281 36.304202 1.062302 1.565775 0.077864 -0.014227 347366.000000 0 0 1
-17.391233 -30.168043 0.027281 34.821927 1.047852 1.570013 0.078901 -0.028040 -113444.000000 0 0 1
-16.568533 -29.793843 -1.060319 34.107384 1.063277 1.601889 0.068708 -0.022158 68581.400000 0 0 1
-16.366033 -28.386843 -1.097419 32.785122 1.047809 1.604276 0.057744 -0.020094 -204715.000000 0 0 1
-15.455033 -27.881343 -2.218719 31.955439 1.064647 1.640284 0.052037 -0.012983 -651962.000000 0 0 1
-15.929833 -28.191743 -3.494819 32.569122 1.056469 1.678308 0.048118 -0.018600 277286.000000 0 0 1
-15.111533 -27.529943 -4.473819 31.721779 1.068788 1.712301 0.050097 -0.005907 273880.000000 0 0 1
-15.761933 -27.596243 -5.878219 32.319416 1.051851 1.753693 0.072853 -0.019759 -316506.000000 0 0 1
-16.744133 -26.628143 -5.989219 32.020224 1.009459 1.758949 0.073805 -0.013274 -780898.000000 0 0 1
-17.478633 -26.735743 -7.193219 32.742098 0.991786 1.792296 0.090585 -0.019947 450796.000000 0 0 1
-18.278333 -25.402343 -7.415719 32.161614 0.947068 1.803467 0.067453 -0.014649 97048.100000 0 0 1
-17.382033 -24.338343 -7.353119 30.798675 0.950615 1.811873 0.044233 0.000345 46632.400000 0 0 1
-18.045233 -23.127443 -7.641219 30.313319 0.908213 1.825620 0.028017 0.008897 51746.500000 0 0 1
-17.144733 -21.930843 -7.286119 28.774838 0.907275 1.826795 0.032385 0.011324 303220.000000 0 0 1
-16.048433 -21.875043 -8.176219 28.335848 0.937847 1.863505 0.051051 0.003575 -164880.000000 0 0 1
-15.007333 -21.038243 -7.659419 26.953561 0.951176 1.858938 0.085287 -0.011753 530520.000000 0 0 1
-13.893333 -20.862243 -8.714819 26.536880 0.983286 1.905410 0.093898 -0.008954 202608.000000 0 0 1
-14.323533 -20.089543 -9.811819 26.552310 0.951409 1.949297 0.090920 -0.008094 -615959.000000 0 0 1
-13.282333 -19.976043 -10.716619 26.273725 0.984009 1.990931 0.087805 -0.006202 -30011.000000 0 0 1
-13.767333 -19.192643 -12.003019 26.494707 0.948538 2.040963 0.096436 -0.006827 -1129750.000000 0 0 1
-14.734533 -19.826243 -12.689019 27.770445 0.931672 2.045332 0.068940 0.014784 -1280650.000000 0 0 1
-14.999533 -19.056443 -13.842119 27.923794 0.903964 2.089449 0.068791 -0.002874 -641653.000000 0 0 1
-16.115833 -19.745043 -14.592819 29.368983 0.886257 2.090795 0.065858 -0.000592 477064.000000 0 0 1
-17.398633 -19.383243 -14.025219 29.582585 0.839302 2.064742 0.043957 0.005197 611620.000000 0 0 1
-18.444333 -20.110043 -14.587919 30.942118 0.828575 2.061740 0.024991 0.004445 -1031310.000000 0 0 1
-19.857233 -19.868143 -14.109219 31.434422 0.785673 2.036270 0.004278 0.015428 -478691.000000 0 0 1
-20.731533 -20.594343 -14.938019 32.818712 0.782078 2.043357 0.004002 0.008442 -313378.000000 0 0 1
-22.097833 -20.476243 -14.645019 33.497274 0.747328 2.023280 -0.013041 0.009027 -47633.000000 0 0 1
-23.090833 -21.178743 -15.605219 35.003551 0.742233 2.032884 -0.004940 0.000367 -194230.000000 0 0 1
-23.283933 -20.365143 -16.724919 35.165374 0.718628 2.066451 -0.004634 -0.014693 330774.000000 0 0 1
-23.880633 -21.181743 -17.741519 36.520027 0.725577 2.078077 0.013967 -0.023955 -156702.000000 0 0 1
-24.228533 -20.436343 -19.033719 36.972265 0.700698 2.111583 0.010770 -0.019995 610108.000000 0 0 1
-23.037733 -19.970843 -19.692519 36.295551 0.714210 2.144278 -0.005415 -0.013588 879633.000000 0 0 1
-23.350733 -19.687443 -21.051019 37.094441 0.700486 2.174260 0.001360 -0.016571 -101060.000000 0 0 1
-22.251533 -18.827843 -21.741219 36.363430 0.702247 2.211659 -0.010013 -0.006214 94867.700000 0 0 1
-21.163133 -19.668143 -22.049119 36.343881 0.748801 2.222674 -0.018591 -0.002073 40700.700000 0 0 1
-20.141033 -18.923743 -22.747619 35.794182 0.754247 2.259467 -0.010029 -0.011899 391065.000000 0 0 1
-18.872933 -19.781143 -22.921319 35.677277 0.808890 2.268504 0.016969 -0.008461 -623796.000000 0 0 1
-18.951433 -20.773343 -23.914019 36.912991 0.831229 2.275553 0.005291 -0.005121 583281.000000 0 0 1
-17.763833 -21.587843 -23.986519 36.836691 0.882269 2.279906 0.021234 -0.002543 504353.000000 0 0 1
-17.959233 -23.000543 -24.566219 38.145225 0.907862 2.270536 0.039929 -0.002034 -208591.000000 0 0 1
-18.092433 -22.898843 -25.993449 39.081358 0.902120 2.298439 0.047427 -0.009859 123184.000000 0 0 1
-18.287433 -24.177743 -26.546459 40.295260 0.923228 2.290017 0.053635 -0.011231 -76062.800000 0 0 1
-18.070533 -24.157243 -28.126479 41.245792 0.928552 2.321186 0.041852 -0.004479 206684.000000 0 0 1
-16.688433 -24.038143 -28.418409 40.791446 0.963941 2.341549 0.046053 -0.006879 222489.000000 0 0 1
-16.489933 -23.956943 -29.835059 41.665139 0.967955 2.368949 0.053063 -0.014324 -871446.000000 0 0 1
-15.047533 -23.811043 -30.264569 41.344143 1.007211 2.392073 0.031065 -0.016771 -1007660.000000 0 0 1
-14.317733 -24.954743 -29.954139 41.532964 1.049903 2.376349 0.041879 -0.011845 -1102450.000000 0 0 1
-13.007733 -24.776243 -30.374429 41.299749 1.087343 2.397146 0.049387 -0.012098 -429457.000000 0 0 1
-12.097433 -25.967243 -29.928459 41.428954 1.134821 2.378070 0.054534 -0.013041 -281746.000000 0 0 1
-12.344533 -27.093443 -30.769799 42.816150 1.143272 2.372654 0.051798 -0.002500 561149.000000 0 0 1
-11.521433 -28.233943 -30.422019 43.074334 1.183352 2.355009 0.049498 -0.004092 1267050.000000 0 0 1
-10.090833 -28.288543 -31.099099 43.234483 1.228155 2.373608 0.045503 -0.007384 824969.000000 0 0 1
-9.276133 -27.256243 -30.622199 42.031756 1.242762 2.386998 0.060760 -0.012774 369823.000000 0 0 1
-8.043533 -27.092443 -31.346659 42.205591 1.282193 2.407910 0.065942 -0.010815 717313.000000 0 0 1
-7.369733 -25.699843 -31.248409 41.124907 1.291528 2.433866 0.076580 -0.011137 -354564.000000 0 0 1
-8.225333 -24.612143 -31.506829 40.817814 1.248268 2.452604 0.078103 -0.015335 121439.000000 0 0 1
-8.751933 -24.040443 -30.326229 39.676434 1.221660 2.440811 0.076799 -0.014284 -192604.000000 0 0 1
-9.141033 -22.562043 -30.333829 38.894029 1.185857 2.465318 0.088748 -0.024193 -867814.000000 0 0 1
-10.080233 -22.236043 -31.276679 39.677240 1.145178 2.478801 0.074672 -0.024008 -676694.000000 0 0 1
-10.694733 -21.030743 -30.997389 38.955200 1.100349 2.490990 0.072092 -0.025068 142259.000000 0 0 1
-11.413033 -20.338043 -32.196249 39.755399 1.059420 2.514707 0.059186 -0.028318 90680.100000 0 0 1
-11.784733 -19.019043 -31.995739 39.042685 1.016069 2.531346 0.066274 -0.026989 -39074.500000 0 0 1
-12.431933 -18.622443 -33.186269 40.033446 0.982163 2.548048 0.062131 -0.026615 -281713.000000 0 0 1
-13.163733 -17.233243 -32.994819 39.483245 0.918486 2.560141 0.070741 -0.025234 253287.000000 0 0 1
-12.385733 -16.019843 -33.022339 38.736503 0.912643 2.591520 0.076042 -0.026814 478002.000000 0 0 1
-11.572433 -15.797643 -31.840099 37.380190 0.938562 2.590190 0.065855 -0.020913 424140.000000 0 0 1
-11.147133 -14.263643 -31.884409 36.665046 0.907434 2.625215 0.066026 -0.015768 207113.000000 0 0 1
-10.292733 -13.838143 -32.956749 37.196530 0.931279 2.659479 0.073188 -0.025275 196873.000000 0 0 1
-10.881933 -13.698043 34.166607 38.385021 0.899470 0.473226 0.076203 -0.026510 -256319.000000 0 0 1
-11.510033 -12.367243 33.766175 37.756908 0.821283 0.463922 0.071380 -0.016234 236010.000000 0 0 1
-12.809433 -12.110043 -34.151467 38.432505 0.757340 2.665100 0.056838 -0.014734 -179118.000000 0 0 1
-13.476733 -11.379043 33.327956 37.707527 0.701203 0.486758 0.050288 -0.012771 -139940.000000 0 0 1
-14.727733 -10.663243 33.848754 38.423287 0.626669 0.492944 0.061855 -0.007456 78097.400000 0 0 1
-14.353133 -9.637843 -33.729289 37.902050 0.591328 2.667937 0.061794 -0.010316 23999.300000 0 0 1
-15.460733 -9.109443 -33.037809 37.596716 0.532439 2.644016 0.070993 -0.013402 119584.000000 0 0 1
-14.972133 -8.078143 -32.011559 36.251360 0.494781 2.653107 0.056100 -0.025784 89225.200000 0 0 1
-14.580833 -6.801143 -32.494449 36.259419 0.436444 2.681848 0.056206 -0.030466 397407.000000 0 0 1
-15.618333 -5.816043 -32.439949 36.470659 0.356477 2.667004 0.058580 -0.025610 -5977.540000 0 0 1
-15.879933 -5.082743 -31.095309 35.283492 0.309769 2.649401 0.057931 -0.033206 134391.000000 0 0 1
-16.627033 -5.774043 -30.075679 34.847443 0.334239 2.612107 0.066523 -0.033165 149032.000000 0 0 1
-16.878333 -5.173543 -28.787439 33.769221 0.297427 2.591499 0.063429 -0.037297 196132.000000 0 0 1
-15.640633 -4.676543 -27.979559 32.393752 0.290539 2.613427 0.061651 -0.039274 409199.000000 0 0 1
-15.163433 -3.477743 -28.611119 32.567169 0.225452 2.643565 0.062097 -0.031133 271245.000000 0 0 1
-13.801833 -3.199743 -28.285179 31.635112 0.227810 2.677230 0.068272 -0.035255 567567.000000 0 0 1
-13.333633 -1.855743 -28.880539 31.864009 0.138289 2.705404 0.062364 -0.018779 65334.100000 0 0 1
-13.407033 -1.915743 -30.268199 33.159953 0.141930 2.720869 0.065176 -0.018675 123721.000000 0 0 1
-13.325533 -0.682743 -30.920179 33.676304 0.051191 2.734203 0.067651 -0.024747 -37103.100000 0 0 1
-13.423433 -0.861743 -32.423809 35.103198 0.064109 2.748349 0.055835 -0.023123 -400343.000000 0 0 1
-14.675233 -1.314743 -32.856679 36.009059 0.089351 2.720043 0.042544 -0.019426 46889.300000 0 0 1
-14.594533 -1.324743 34.180671 37.189697 0.090522 0.405032 0.031458 -0.016424 -1086330.000000 0 0 1
-15.944133 -1.706743 33.686658 37.308434 0.106639 0.444273 0.026303 -0.016594 -1226080.000000 0 0 1
-16.026033 -2.049743 32.315801 36.129575 0.127210 0.463615 0.040594 -0.022701 -342824.000000 0 0 1
-17.342833 -2.163743 31.864941 36.343226 0.124122 0.501676 0.032965 -0.017061 -339353.000000 0 0 1
-17.395733 -2.207743 30.331741 35.035698 0.126238 0.524173 0.051469 -0.014481 99860.900000 0 0 1
-16.890933 -0.992743 29.778191 34.249523 0.058706 0.516712 0.060068 -0.000011 114637.000000 0 0 1
-17.168133 -0.995743 28.364401 33.170401 0.057935 0.545030 0.070406 -0.011309 66287.200000 0 0 1
-16.443333 0.143257 27.584991 32.114412 -0.008712 0.537561 0.047958 -0.010415 -12901.000000 0 0 1
-16.723233 1.528257 27.848751 32.520071 -0.091132 0.542626 0.038748 -0.004725 44395.200000 0 0 1
-18.065833 1.902257 27.552691 33.002177 -0.104909 0.582891 0.037621 -0.011160 285782.000000 0 0 1
-18.254233 2.780257 26.291091 32.127376 -0.151146 0.612281 0.054740 -0.017007 -393401.000000 0 0 1
-17.851933 4.151257 26.461301 32.188894 -0.228478 0.605771 0.038250 -0.012481 183652.000000 0 0 1
-18.362233 5.008257 25.451331 31.780882 -0.266271 0.642104 0.053028 -0.010693 -283092.000000 0 0 1
-18.089733 6.509257 25.697921 32.093488 -0.345406 0.642299 0.046640 -0.015697 -275907.000000 0 0 1
-16.771533 6.973257 25.571361 31.365668 -0.394035 0.617608 0.030455 -0.018256 -347824.000000 0 0 1
-16.374033 7.271257 24.264601 30.162079 -0.417914 0.636007 0.032628 -0.007648 -121875.000000 0 0 1
-15.159033 8.221257 24.197431 29.713650 -0.496938 0.619181 0.013919 -0.013039 83659.600000 0 0 1
-13.917333 7.567257 24.301111 29.008611 -0.498016 0.577701 0.007566 -0.002769 -141318.000000 0 0 1
-12.864733 8.322257 23.751371 28.264623 -0.574196 0.572920 0.012621 -0.005007 195508.000000 0 0 1
-11.463833 7.959257 24.325741 28.044802 -0.606885 0.520866 0.008134 -0.003712 324679.000000 0 0 1
-10.458533 8.735257 23.702931 27.340712 -0.695855 0.521754 0.003553 0.001983 -58029.600000 0 0 1
-9.252733 8.856257 24.408491 27.564847 -0.763508 0.483241 0.005398 0.002137 -228246.000000 0 0 1
-9.125333 10.225257 25.147281 28.639366 -0.842179 0.498989 0.004572 -0.004940 -424128.000000 0 0 1
-10.033733 10.277257 26.259041 29.930503 -0.797387 0.500519 -0.006679 -0.005208 642132.000000 0 0 1
-10.122733 11.585257 26.881491 30.972608 -0.852669 0.519814 -0.007179 -0.005152 -470475.000000 0 0 1
-10.689333 12.750257 25.989691 30.859276 -0.873098 0.569445 -0.022824 -0.006612 -612984.000000 0 0 1
-12.070833 12.639257 25.812291 31.172587 -0.808398 0.595185 -0.011741 -0.014921 -411417.000000 0 0 1
-12.481933 11.854257 24.736941 30.136992 -0.759612 0.607957 -0.008603 -0.007156 32622.700000 0 0 1
-14.008733 11.951257 24.422451 30.586488 -0.706308 0.646044 -0.003707 -0.017331 236008.000000 0 0 1
-14.483833 13.145257 23.882191 30.869698 -0.736988 0.686222 -0.007262 -0.018051 212929.000000 0 0 1
-15.780633 12.965257 23.309351 30.991162 -0.687769 0.719510 0.013032 -0.006785 249418.000000 0 0 1
-15.958033 12.211257 21.946351 29.755939 -0.653165 0.741368 0.016742 -0.004192 -545569.000000 0 0 1
-15.903933 10.777257 22.141451 29.314300 -0.595566 0.714666 0.025996 -0.010627 -23300.300000 0 0 1
-15.654233 10.130257 20.929551 28.030755 -0.574352 0.727764 0.023405 -0.009912 -154596.000000 0 0 1
-16.261433 8.676257 20.872651 27.845631 -0.490125 0.723362 0.026954 -0.003087 756052.000000 0 0 1
-17.673133 8.684257 20.686851 28.560493 -0.456729 0.760753 0.040407 -0.008107 57768.200000 0 0 1
-18.185733 7.338257 20.683851 28.502501 -0.383535 0.758766 0.037980 -0.002974 934612.000000 0 0 1
-19.712133 7.219257 21.025551 29.711271 -0.351063 0.784612 0.058967 -0.010389 783148.000000 0 0 1
-19.894433 7.677257 22.348951 30.890198 -0.368292 0.761942 0.061031 -0.016894 -266120.000000 0 0 1
-21.159133 7.451257 22.906751 32.061650 -0.338592 0.774945 0.061851 -0.013903 -380898.000000 0 0 1
-21.260833 8.117257 24.263091 33.265755 -0.364714 0.753394 0.067695 -0.020996 -662644.000000 0 0 1
-21.304433 9.569257 24.328731 33.724423 -0.422161 0.764977 0.070574 -0.027259 248589.000000 0 0 1
-20.315733 10.407257 23.737381 32.931797 -0.473420 0.765834 0.062298 -0.026948 543798.000000 0 0 1
-18.899833 10.426257 24.400071 32.577200 -0.504116 0.724257 0.064086 -0.028594 312676.000000 0 0 1
-18.814633 11.236257 25.544551 33.656618 -0.538364 0.709058 0.079307 -0.031871 41556.200000 0 0 1
-19.233933 10.618257 26.767991 34.629711 -0.504422 0.687275 0.047829 -0.021772 -106375.000000 0 0 1
-29.624883 -14.072597 20.687651 38.776934 0.443470 1.008058 0.064382 0.007485 -70350.500000 0 0 1
-29.277063 -15.463097 20.624551 39.008023 0.485924 1.013698 0.081935 0.004589 -384091.000000 0 0 1
-30.288863 -16.294197 20.089951 39.831171 0.493552 1.042135 0.085122 0.005613 162417.000000 0 0 1
-30.387093 -16.261097 18.508851 39.120024 0.491356 1.077956 0.086397 0.002463 227056.000000 0 0 1
-30.902393 -15.047997 18.005651 38.802108 0.453155 1.088248 0.095982 -0.013093 -95678.000000 0 0 1
-30.389763 -14.887597 16.711851 37.742075 0.455526 1.112087 0.087653 -0.015797 -246388.000000 0 0 1
-31.181433 -13.773997 15.970851 37.644028 0.415961 1.132652 0.076763 -0.014554 1104510.000000 0 0 1
-32.484233 -14.089197 15.444851 38.629966 0.409237 1.159481 0.094150 -0.017826 2013220.000000 0 0 1
-33.642393 -14.136497 16.339751 39.982979 0.397797 1.149803 0.095441 -0.014231 999325.000000 0 0 1
-34.290431 -12.815697 16.768451 40.264832 0.357665 1.141255 0.079734 -0.016810 -278850.000000 0 0 1
-35.345276 -12.997097 17.686951 41.605785 0.352371 1.131715 0.058618 -0.014067 -138601.000000 0 0 1
-35.935677 -11.754897 18.059351 41.900962 0.316139 1.125195 0.054735 -0.012666 327167.000000 0 0 1
35.456041 -11.883397 19.249651 42.058233 -0.323392 1.095400 0.056844 -0.003686 181299.000000 0 0 1
36.129671 -12.496697 20.358351 43.312619 -0.333004 1.081468 0.041044 -0.001144 256509.000000 0 0 1
35.373311 -12.294497 21.551651 43.207631 -0.334503 1.048591 0.027523 -0.001417 -1001200.000000 0 0 1
36.101581 -12.683197 22.906051 44.596802 -0.337850 1.031392 0.025622 -0.001711 215115.000000 0 0 1
-35.106766 -11.912697 23.144451 43.704267 0.327136 1.012703 0.033013 -0.001911 534217.000000 0 0 1
-33.967733 -12.392497 22.425951 42.547669 0.349826 1.015638 0.044636 -0.009441 -578683.000000 0 0 1
-32.799623 -11.403997 22.324451 41.282533 0.334613 0.999441 0.061705 -0.010047 -67510.900000 0 0 1
-33.021233 -10.270197 21.527251 40.734522 0.301534 1.013991 0.071763 -0.012382 -418831.000000 0 0 1
-31.908083 -9.446897 21.618651 39.682940 0.287844 0.994664 0.079745 -0.008855 -538853.000000 0 0 1
-32.013323 -8.175297 20.736051 39.008616 0.250028 1.010336 0.068732 -0.007646 45634.000000 0 0 1
-32.117103 -8.377597 19.329551 38.409946 0.255160 1.043448 0.066478 -0.006437 -271256.000000 0 0 1
-33.440823 -8.613097 18.950751 39.390418 0.252083 1.068887 0.066633 -0.011584 -725398.000000 0 0 1
-33.714503 -8.665097 17.441151 38.935143 0.251569 1.106321 0.070218 -0.014195 197691.000000 0 0 1
-35.090471 -8.750397 17.091551 40.000396 0.244383 1.129309 0.024991 -0.012002 365769.000000 0 0 1
-35.230363 -8.721497 15.655951 39.526596 0.242677 1.163546 0.038967 -0.009340 605015.000000 0 0 1
35.611371 -8.738497 15.379651 39.762604 -0.240630 1.173652 0.038727 -0.017256 610279.000000 0 0 1
34.910591 -9.888997 15.826151 39.585460 -0.276035 1.159501 0.035021 -0.002310 499479.000000 0 0 1
33.500231 -9.684597 15.732851 38.256757 -0.281418 1.146978 0.016956 -0.001189 869709.000000 0 0 1
32.662491 -11.000597 15.772651 37.902875 -0.324864 1.141607 0.017363 0.006290 315749.000000 0 0 1
32.795161 -11.630497 17.010551 38.731768 -0.340803 1.116101 0.008284 -0.000359 -356695.000000 0 0 1
31.699791 -12.452497 17.245751 38.175350 -0.374306 1.102069 0.012793 -0.000262 -378006.000000 0 0 1
31.574991 -12.895397 18.722851 38.907794 -0.387731 1.068761 0.007161 0.005487 397234.000000 0 0 1
32.502871 -13.878597 19.201851 40.221426 -0.403560 1.073099 -0.001632 0.006663 65626.700000 0 0 1
32.338561 -13.953097 20.598651 40.801665 -0.407337 1.041590 -0.003081 0.007936 -379461.000000 0 0 1
32.932341 -15.318797 21.150251 42.030200 -0.435389 1.043481 -0.007595 0.008952 147395.000000 0 0 1
32.915401 -15.318697 22.540251 42.733464 -0.435583 1.015187 -0.016424 0.003441 -123696.000000 0 0 1
33.375361 -16.574197 23.044551 43.814039 -0.460924 1.016950 -0.010007 0.012561 243769.000000 0 0 1
33.721421 -16.596997 24.571361 44.903745 -0.457372 0.991780 -0.005791 0.012528 141602.000000 0 0 1
34.787761 -15.719197 24.841981 45.545641 -0.424400 0.993894 0.013212 0.018168 117548.000000 0 0 1
35.313201 -15.860297 26.191431 46.739300 -0.422132 0.975961 0.006160 0.014586 249738.000000 0 0 1
-35.900126 -14.874297 26.522271 47.047791 0.392794 0.971901 0.018324 0.009248 103989.000000 0 0 1
-34.665474 -15.201197 25.916581 45.874183 0.413259 0.970425 0.014178 0.012048 -12449.200000 0 0 1
-33.856993 -14.038897 25.905361 44.882896 0.393074 0.955529 0.021551 0.000664 -624121.000000 0 0 1
-32.387523 -14.303997 25.644171 43.717039 0.415890 0.943949 0.036342 0.003408 -977633.000000 0 0 1
-32.017733 -14.517097 24.251961 42.708769 0.425684 0.966911 0.042913 0.007219 -132939.000000 0 0 1
-30.693083 -14.961797 24.098991 41.793326 0.453569 0.956207 0.060681 -0.004207 -129580.000000 0 0 1
-30.373283 -16.438397 24.464791 42.323554 0.496071 0.954469 0.065111 -0.004521 -593570.000000 0 0 1
-30.328193 -16.609397 25.874511 43.187518 0.501041 0.928395 0.060982 -0.013730 210840.000000 0 0 1
-29.963463 -17.978197 26.243431 43.700599 0.540422 0.926635 0.066502 -0.020554 -287194.000000 0 0 1
-29.660013 -18.123697 27.755011 44.480618 0.548504 0.896971 0.050493 -0.024443 542065.000000 0 0 1
-28.454563 -17.421497 28.099251 43.620392 0.549383 0.870850 0.053138 -0.023525 510130.000000 0 0 1
-27.935513 -17.928097 29.341031 44.302434 0.570566 0.846926 0.050460 -0.030529 658526.000000 0 0 1
-26.582243 -17.247597 29.702421 43.431890 0.575559 0.817722 0.042161 -0.027404 389081.000000 0 0 1
-26.851013 -16.004797 30.257041 43.504241 0.537517 0.801686 0.051173 -0.034924 -444269.000000 0 0 1
-25.702413 -15.237297 30.115531 42.423277 0.535135 0.781465 0.044587 -0.028615 -845144.000000 0 0 1
-25.756973 -13.899497 30.871281 42.540024 0.494855 0.758746 0.046392 -0.028255 -230042.000000 0 0 1
-25.335453 -13.904597 32.179951 43.252425 0.501937 0.731754 0.043819 -0.027509 1943.670000 0 0 1
-25.050643 -12.627997 32.633255 43.034060 0.466921 0.710076 0.052396 -0.018194 -349657.000000 0 0 1
-24.369933 -12.654497 34.021190 43.720376 0.478942 0.679075 0.054575 -0.016232 717313.000000 0 0 1
-22.948033 -12.890097 33.949103 42.957053 0.511788 0.659492 0.035754 -0.006394 930096.000000 0 0 1
-22.576833 -14.231097 34.099794 43.301656 0.562431 0.664064 0.026260 -0.007138 -434414.000000 0 0 1
-22.673233 -14.819997 -32.906649 42.621067 0.578926 2.452896 0.019550 -0.008962 -312726.000000 0 0 1
-21.775333 -14.342897 -31.899649 41.200381 0.582450 2.456335 0.012229 -0.002026 147236.000000 0 0 1
-21.787733 -15.131997 -30.707329 40.578599 0.607038 2.429104 0.017779 -0.009388 915371.000000 0 0 1
-20.426533 -15.226097 -29.885749 39.271303 0.640556 2.435661 0.011365 -0.011795 1177580.000000 0 0 1
-19.937233 -14.124197 -29.134069 38.023416 0.616363 2.443725 0.026758 -0.015834 271907.000000 0 0 1
-20.566933 -14.036797 -27.864419 37.369189 0.598880 2.412309 0.028284 -0.011340 7494.310000 0 0 1
-20.136033 -12.777997 -27.070509 36.076994 0.565461 2.419393 0.023044 -0.010139 421198.000000 0 0 1
-18.773633 -12.876197 -26.636239 35.039049 0.601177 2.434398 0.021703 -0.016369 611679.000000 0 0 1
-18.300933 -11.767997 -25.897329 33.824275 0.571458 2.442837 0.023895 -0.024763 -257502.000000 0 0 1
-16.895433 -11.904497 -25.332789 32.694386 0.613806 2.457252 0.053714 -0.031960 -983541.000000 0 0 1
-16.824933 -12.825597 -24.271719 32.197681 0.651325 2.424675 0.061704 -0.038288 29354.800000 0 0 1
-15.523033 -12.979997 -23.766319 31.213503 0.696414 2.436284 0.080716 -0.039595 28782.100000 0 0 1
-14.460633 -13.758397 -24.580419 31.663866 0.760518 2.459559 0.065351 -0.028108 -905631.000000 0 0 1
-13.866633 -13.016797 -25.577279 31.873464 0.753797 2.502208 0.069168 -0.030661 -305997.000000 0 0 1
-13.288533 -13.897797 -26.547449 32.779581 0.807805 2.514740 0.074869 -0.023105 180341.000000 0 0 1
-12.339133 -13.086897 -27.529249 32.884352 0.814799 2.562854 0.078944 -0.025426 441394.000000 0 0 1
-12.956733 -11.945297 -28.114639 33.181320 0.744804 2.581683 0.091285 -0.026876 -261018.000000 0 0 1
-12.111333 -11.429497 -29.074999 33.506318 0.756442 2.621447 0.081539 -0.029304 -497867.000000 0 0 1
-12.746033 -10.244697 -29.778729 33.973341 0.677027 2.639406 0.061487 -0.020407 -41581.000000 0 0 1
-11.903533 -9.344797 -30.502599 34.050373 0.665555 2.681042 0.063046 -0.010005 88692.700000 0 0 1
-11.438333 -9.893797 -31.707329 35.129438 0.713120 2.696535 0.070740 -0.005169 104458.000000 0 0 1
-10.627333 -9.003497 -32.708869 35.550995 0.702867 2.739017 0.058005 -0.009703 109903.000000 0 0 1
-9.327533 -8.762397 -32.247939 34.694553 0.754168 2.763800 0.041674 -0.011307 -902116.000000 0 0 1
-8.774433 -7.656897 -32.813039 34.818304 0.717490 2.800554 0.034411 -0.010788 159849.000000 0 0 1
-7.295233 -7.408297 -32.380859 34.009165 0.793088 2.830898 0.035150 -0.012118 45358.300000 0 0 1
-7.100233 -7.249997 -30.953899 32.574831 0.795834 2.824801 0.031663 -0.010363 -200661.000000 0 0 1
-7.493533 -6.009597 -30.385239 31.867398 0.675942 2.835406 0.047043 -0.017208 -33693.700000 0 0 1
-6.660633 -4.738797 -30.798929 31.865251 0.618378 2.882163 0.034076 -0.020798 -85181.800000 0 0 1
-5.328133 -4.713697 -30.366529 31.188684 0.724287 2.911474 0.051589 -0.025006 -487514.000000 0 0 1
-4.773233 -3.506197 -30.838279 31.401857 0.633542 2.951850 0.046270 -0.031390 1907770.000000 0 0 1
-3.264033 -3.330097 -30.275559 30.632547 0.795416 2.988775 0.025649 -0.013227 831581.000000 0 0 1
-2.264833 -4.195397 -30.723499 31.091224 1.075789 2.987640 0.016138 -0.009538 -912862.000000 0 0 1
-0.972133 -3.810397 -30.458279 30.711088 1.320999 3.013194 0.029272 -0.011049 -672220.000000 0 0 1
-0.443833 -2.424297 -30.957129 31.055081 1.389724 3.062147 0.024755 -0.009351 -70060.700000 0 0 1
0.998267 -2.287797 -30.756279 30.857402 -1.159357 3.060612 0.048577 -0.010659 1687970.000000 0 0 1
1.521567 -1.001397 -31.213659 31.266763 -0.582073 3.083302 0.014248 -0.006498 17928.900000 0 0 1
1.475267 0.107003 -30.131289 30.167572 0.072405 3.092542 0.024795 -0.009533 1258950.000000 0 0 1
0.119067 0.527903 -29.793959 29.798873 1.348962 3.123431 0.032102 -0.011555 1182940.000000 0 0 1
0.268667 1.685903 -28.993159 29.043376 1.412764 3.082779 0.046826 -0.018397 -273952.000000 0 0 1
-0.951433 2.290303 -28.315769 28.424171 -1.177070 3.054230 0.040979 -0.008726 -351355.000000 0 0 1
-1.887933 2.921103 -29.180569 29.387118 -0.997021 3.022960 0.025708 -0.018430 -772553.000000 0 0 1
-2.848033 3.602603 -28.479999 28.847883 -0.901845 2.981719 0.063042 -0.020877 -984376.000000 0 0 1
-3.996433 3.852703 -29.468359 29.986647 -0.767089 2.955399 0.080099 -0.022310 -341523.000000 0 0 1
-3.551633 4.568303 -30.647069 31.188561 -0.909957 2.954979 0.071001 -0.021254 774266.000000 0 0 1
-4.705033 5.019603 -31.375869 32.121315 -0.817735 2.925734 0.086114 -0.016055 265730.000000 0 0 1
-4.405833 5.630203 -32.758469 33.529507 -0.906796 2.926723 0.084627 -0.012333 -107509.000000 0 0 1
-4.108433 4.836203 -33.882769 34.471874 -0.866583 2.956453 0.093901 -0.015673 188448.000000 0 0 1
-2.940033 4.037803 -33.716589 34.084542 -0.941442 2.994523 0.077478 -0.018790 -90356.200000 0 0 1
-2.320133 3.486603 33.441875 33.703092 -0.983642 0.124584 0.063200 -0.014345 -788224.000000 0 0 1
-3.130733 2.450303 32.944558 33.183570 -0.664079 0.120095 0.056942 -0.023520 101698.000000 0 0 1
-2.859833 2.014103 31.600671 31.793673 -0.613588 0.110242 0.053556 -0.020042 -119477.000000 0 0 1
-2.780933 3.103103 30.493911 30.777287 -0.840097 0.135805 0.055614 -0.016213 88487.600000 0 0 1
-4.013433 3.741003 30.204181 30.698457 -0.750280 0.179691 0.046614 -0.011428 104964.000000 0 0 1
-3.870333 4.636503 29.130111 29.749621 -0.875221 0.204435 0.046092 -0.014118 -518189.000000 0 0 1
-5.026133 5.584503 29.000181 29.957623 -0.837973 0.253502 0.049236 -0.008029 -375109.000000 0 0 1
-4.955533 6.191903 27.763491 28.874009 -0.895857 0.278244 0.049041 -0.003234 -113011.000000 0 0 1
-6.164933 6.902303 27.629811 29.138542 -0.841767 0.323206 0.041168 0.001627 -237580.000000 0 0 1
-6.268533 7.585203 26.212851 27.998988 -0.880154 0.359118 0.035173 -0.001087 -595566.000000 0 0 1
-5.324433 8.596903 26.121091 28.010136 -1.016275 0.369360 0.040436 0.000830 -524233.000000 0 0 1
-5.259333 9.279603 24.916241 27.103333 -1.055175 0.404484 0.036809 -0.002236 -197643.000000 0 0 1
-4.356733 10.519603 24.887011 27.367982 -1.178148 0.429083 0.033879 -0.009231 -790827.000000 0 0 1
-4.523733 11.288303 23.743781 26.676901 -1.189648 0.473341 0.042946 -0.011732 150558.000000 0 0 1
-4.038233 12.618703 23.674361 27.129584 -1.261076 0.510214 0.037742 -0.006034 -365853.000000 0 0 1
-2.493633 12.814603 23.685831 27.045348 -1.378605 0.503743 0.030347 -0.005416 68142.700000 0 0 1
-1.734933 12.368403 24.794591 27.762549 -1.431434 0.466618 0.035053 -0.005298 -38446.200000 0 0 1
-1.972033 13.038103 26.002771 29.155190 -1.420683 0.469323 0.040175 -0.003995 -890954.000000 0 0 1
-1.221233 12.509603 27.249391 30.008513 -1.473481 0.432179 0.040006 -0.000518 523188.000000 0 0 1
0.174567 12.778803 27.110021 29.971345 1.557137 0.440517 0.034232 0.001048 146765.000000 0 0 1
0.850467 12.274003 28.254431 30.816997 1.501617 0.410690 0.037064 -0.006564 -244064.000000 0 0 1
2.353067 12.546103 28.301381 31.046896 1.385397 0.423713 0.043113 -0.006020 -247767.000000 0 0 1
2.669967 13.951603 28.298601 31.663650 1.381709 0.465215 0.038401 -0.009955 617539.000000 0 0 1
4.075967 14.187803 28.458081 32.058846 1.291044 0.478509 0.046382 -0.012875 627994.000000 0 0 1
4.578267 15.601903 28.739481 33.020261 1.285366 0.514865 0.050536 -0.010425 -417646.000000 0 0 1
4.349867 15.984903 30.072401 34.333478 1.305106 0.503516 0.056323 -0.004947 844419.000000 0 0 1
3.162767 16.795103 30.222661 34.720135 1.384661 0.514650 0.047174 -0.001868 711789.000000 0 0 1
3.237167 18.219003 29.603401 34.910924 1.394951 0.558654 0.056117 0.001576 14432.200000 0 0 1
4.257367 19.022103 30.185351 35.932172 1.350613 0.573394 0.078065 0.001542 219794.000000 0 0 1
4.760467 20.047703 29.322891 35.838587 1.337657 0.612535 0.064963 -0.004709 -21998.300000 0 0 1
5.989867 20.733403 29.904731 36.878793 1.289554 0.625121 0.075920 -0.005736 -249585.000000 0 0 1
5.586367 21.553703 31.000431 38.168001 1.317193 0.622866 0.068409 -0.017024 161511.000000 0 0 1
6.672067 22.213603 31.609021 39.205750 1.279010 0.633037 0.057222 -0.020757 -54662.200000 0 0 1
7.034367 23.651803 31.113641 39.710814 1.281714 0.670509 0.056018 -0.008662 -83053.100000 0 0 1
7.451467 23.641103 29.803041 38.763995 1.265462 0.693782 0.042916 -0.007221 107880.000000 0 0 1
7.585767 24.957003 29.271101 39.207055 1.275716 0.727894 0.036300 -0.010412 101742.000000 0 0 1
8.182967 24.925303 27.838331 38.251854 1.253583 0.755740 0.048673 -0.011472 -94716.200000 0 0 1
7.247967 24.416903 26.902871 37.047032 1.282239 0.758045 0.035506 -0.013024 442742.000000 0 0 1
7.684267 24.610603 25.568881 36.311119 1.268154 0.789555 0.043051 -0.016177 -237757.000000 0 0 1
28.244101 2.286303 6.760681 29.131825 0.080772 1.336589 0.077117 0.000305 281806.000000 0 0 1
28.782941 3.047703 7.844581 29.988058 0.105493 1.306127 0.071779 -0.010149 464341.000000 0 0 1
27.859681 2.940903 8.918681 29.399891 0.105172 1.262582 0.072880 -0.009910 -6131.870000 0 0 1
28.143511 3.845603 10.191681 30.178075 0.135802 1.226305 0.064289 -0.020807 -32014.000000 0 0 1
28.043381 5.261503 9.997381 30.233462 0.185464 1.233780 0.058596 -0.023962 566431.000000 0 0 1
29.109041 5.817703 9.204281 31.078943 0.197260 1.270129 0.073754 -0.029403 352214.000000 0 0 1
28.873071 7.288203 8.843481 31.064116 0.247257 1.282119 0.084962 -0.033499 -275542.000000 0 0 1
27.938051 7.595703 7.871081 30.003055 0.265460 1.305347 0.072960 -0.024661 -357440.000000 0 0 1
28.224581 8.916103 7.433981 30.518649 0.305978 1.324733 0.093464 -0.041200 -385348.000000 0 0 1
27.397161 9.374103 6.250681 29.623458 0.329670 1.358194 0.084398 -0.028966 -945653.000000 0 0 1
26.077081 9.646403 6.593981 28.575301 0.354309 1.337940 0.072630 -0.018708 -722042.000000 0 0 1
25.369481 10.008303 5.429281 27.807441 0.375757 1.374288 0.085849 -0.023018 287690.000000 0 0 1
23.922581 10.485703 5.731681 26.741204 0.413097 1.354781 0.044179 -0.012320 258528.000000 0 0 1
23.862881 11.787003 6.241881 27.337366 0.458794 1.340437 0.042857 -0.017833 291452.000000 0 0 1
22.511581 12.175803 6.422181 26.386850 0.495805 1.324941 0.044692 -0.007819 60518.800000 0 0 1
22.296181 13.627203 6.939681 27.036633 0.548607 1.311214 0.049723 0.003114 -154966.000000 0 0 1
22.424581 14.497303 5.848281 27.335618 0.573905 1.355186 0.056337 0.008310 325778.000000 0 0 1
22.085281 15.810403 6.221281 27.864544 0.621304 1.345630 0.063598 -0.006627 -206344.000000 0 0 1
21.927781 16.634403 4.921981 27.959915 0.648982 1.393837 0.064861 -0.006622 89750.000000 0 0 1
20.580881 16.580403 4.461681 26.802780 0.678159 1.403554 0.081214 -0.008361 540925.000000 0 0 1
20.309481 17.379003 3.342181 26.938354 0.707799 1.446408 0.079114 -0.003540 191868.000000 0 0 1
18.807381 17.391703 2.968481 25.787609 0.746310 1.455428 0.076611 -0.004957 282535.000000 0 0 1
17.982781 18.280203 3.691181 25.906969 0.793600 1.427832 0.076550 -0.006969 718501.000000 0 0 1
16.599281 18.156503 3.356381 24.828613 0.830173 1.435199 0.064083 -0.018357 117685.000000 0 1 0
15.724781 19.143603 4.108781 25.112315 0.883135 1.406441 0.077134 -0.022933 945834.000000 0 0 1
14.338581 19.102903 3.708181 24.171603 0.926913 1.416777 0.077693 -0.025503 737704.000000 0 1 0
13.470381 20.098003 4.121881 24.543243 0.980328 1.402053 0.058001 -0.026243 -528287.000000 0 1 0
12.028781 19.774403 3.756081 23.448384 1.024296 1.409918 0.043783 -0.024657 -585266.000000 0 1 0
11.404181 18.991803 4.729581 22.651995 1.030025 1.360456 0.032676 -0.031981 894850.000000 0 1 0
9.961881 19.041303 4.633181 21.983554 1.088783 1.358447 0.029332 -0.022915 1259510.000000 0 1 0
9.328481 18.530303 5.967681 21.587170 1.104418 1.290703 0.017178 -0.020811 -684061.000000 0 1 0
9.101081 19.544303 6.973781 22.659282 1.134993 1.257951 0.022695 -0.018572 -67264.700000 0 1 0
8.760981 19.009303 8.231281 22.491384 1.138933 1.196116 0.030837 -0.011461 -513707.000000 0 1 0
7.755281 19.749603 9.129481 23.098455 1.196616 1.164465 0.023486 -0.012936 1013170.000000 0 1 0
6.452181 19.931403 8.543581 22.624859 1.257723 1.183573 0.021677 -0.020990 688200.000000 0 1 0
6.354181 21.112303 7.782281 23.380951 1.278449 1.231475 0.020901 -0.015116 -43571.800000 0 1 0
5.038881 21.073903 6.900681 22.740253 1.336098 1.262478 0.004166 -0.006352 303387.000000 0 1 0
3.847281 21.494103 7.468181 23.077516 1.393680 1.241251 0.006758 -0.006175 -721511.000000 0 1 0
3.750781 22.854703 8.020481 24.509874 1.408132 1.237421 0.010976 -0.008159 -709676.000000 0 1 0
3.868581 24.032603 6.980981 25.323231 1.411193 1.291505 0.013153 -0.009062 -417146.000000 0 0 1
2.760381 24.044003 6.147981 24.970612 1.456491 1.322030 0.015519 -0.007754 -267073.000000 0 1 0
2.944281 25.070903 5.177981 25.768788 1.453894 1.368479 0.016937 0.000192 162756.000000 0 0 1
1.683381 25.394403 4.340381 25.817598 1.504604 1.401877 0.024091 -0.004869 -291013.000000 0 0 1
0.600781 25.933603 5.026481 26.423062 1.547634 1.379399 0.032630 -0.008624 -935156.000000 0 0 1
-0.478419 26.093903 4.173081 26.429818 -1.552464 1.412240 0.039694 -0.009113 -410992.000000 0 0 1
-1.691819 26.784603 4.851981 27.273044 -1.507716 1.391940 0.049754 -0.007525 -82083.900000 0 0 1
-2.685219 27.040203 3.902881 27.452058 -1.471816 1.428142 0.074601 -0.013210 -1058880.000000 0 0 1
-3.790519 27.608103 4.492881 28.226962 -1.434352 1.410947 0.072476 -0.016808 -1111210.000000 0 0 1
-4.742919 28.276903 3.520681 28.887259 -1.404612 1.448616 0.071105 -0.022932 -520928.000000 0 0 1
-4.144719 29.258403 2.694181 29.673076 -1.430074 1.479876 0.067485 -0.025405 -205685.000000 0 0 1
-4.868619 29.578903 1.543881 30.016637 -1.407661 1.519339 0.084537 -0.030488 -175876.000000 0 0 1
-4.187119 30.672403 0.638881 30.963469 -1.435124 1.550161 0.070160 -0.025474 223400.000000 0 0 1
-4.070419 32.008903 1.145281 32.286992 -1.444310 1.535317 0.064933 -0.018399 -161078.000000 0 0 1
-2.943619 32.132903 1.985881 32.328502 -1.479444 1.509329 0.064541 -0.025168 -629011.000000 0 0 1
-2.235619 33.494503 1.887181 33.622034 -1.504149 1.514638 0.050045 -0.020103 -527574.000000 0 0 1
-1.410719 33.561703 0.696381 33.598556 -1.528787 1.550068 0.031755 -0.013101 121047.000000 0 0 1
-0.557219 -33.967143 0.605181 33.977103 1.554393 1.552984 0.018373 -0.014421 83599.600000 0 0 1
0.704281 -33.945643 1.521181 33.987008 -1.550052 1.526024 0.006237 -0.003601 -64065.700000 0 0 1
0.324081 -33.844143 2.912781 33.970802 -1.561221 1.484947 0.004940 -0.010453 972785.000000 0 0 1
1.509781 -34.141943 3.699581 34.374971 -1.526604 1.462963 -0.008973 -0.006384 1061490.000000 0 0 1
1.310581 -34.024243 5.217281 34.446869 -1.532296 1.418752 -0.009491 -0.012101 -322862.000000 0 0 1
0.402981 33.663903 5.727881 34.150101 1.558826 1.402273 0.007222 -0.018184 -122831.000000 0 0 1
-0.024419 34.029803 7.124381 34.767584 -1.570079 1.364420 0.016263 -0.025086 409386.000000 0 0 1
1.012781 33.701903 8.240681 34.709549 1.540754 1.331089 0.004205 -0.019688 229216.000000 0 0 1
1.078381 32.318503 8.394981 33.408446 1.537441 1.316791 0.007237 -0.023337 -222981.000000 0 0 1
2.317881 32.027203 8.993581 33.346646 1.498550 1.297715 0.018611 -0.011857 -191855.000000 0 0 1
2.726981 30.523503 8.933281 31.920592 1.481693 1.287149 0.011943 -0.007759 31960.500000 0 0 1
1.962781 29.716303 9.826581 31.360371 1.504841 1.252084 0.018900 -0.020301 306797.000000 0 0 1
2.440081 28.380703 9.814381 30.128730 1.485030 1.238993 0.025999 -0.018598 80196.600000 0 0 1
2.154981 27.532103 11.123581 29.772381 1.492684 1.187887 0.016476 -0.024501 -176636.000000 0 0 1
2.793981 28.028603 12.286481 30.730547 1.471441 1.159483 0.020028 -0.012202 -212915.000000 0 0 1
2.700581 27.180703 13.391781 30.420775 1.471765 1.114955 0.016797 -0.010028 176225.000000 0 0 1
1.284381 26.872603 14.017981 30.336286 1.523037 1.090450 0.006596 -0.010373 650940.000000 0 0 1
0.629681 27.939803 14.645781 31.551989 1.548263 1.088088 0.009794 -0.013149 85689.400000 0 0 1
0.100381 28.943303 13.706781 32.025001 1.567328 1.128515 0.011089 -0.019739 -648741.000000 0 0 1
-0.672019 30.068503 14.393181 33.342618 -1.548450 1.124447 0.007041 -0.011537 235729.000000 0 0 1
-1.856619 29.643803 15.063881 33.303492 -1.508247 1.101430 0.010130 -0.009724 320173.000000 0 0 1
-2.559719 30.766503 15.542681 34.564502 -1.487789 1.104398 0.008167 -0.007668 -326965.000000 0 0 1
-3.933019 30.510803 16.178681 34.758128 -1.442597 1.086637 0.020287 -0.007771 -223188.000000 0 0 1
-4.884419 30.081803 15.232381 34.070484 -1.409830 1.107293 0.032350 -0.013644 127164.000000 0 0 1
-6.065219 29.630703 15.878981 34.160028 -1.368892 1.087341 0.038580 -0.011569 -229802.000000 0 0 1
-7.261019 29.347503 14.959981 33.731282 -1.328252 1.111291 0.044494 -0.021470 -265879.000000 0 0 1
-8.435319 29.086503 15.684581 34.105503 -1.288532 1.092932 0.043241 -0.015632 -90993.500000 0 0 1
-9.492719 28.737103 14.820181 33.698228 -1.251751 1.115430 0.037338 -0.009619 88650.900000 0 0 1
-10.853619 28.445303 15.471581 34.151225 -1.206286 1.100633 0.043770 -0.010759 -392210.000000 0 0 1
-11.614519 29.405003 16.151381 35.502371 -1.194621 1.098494 0.038173 -0.023024 206979.000000 0 0 1
-11.356919 29.509003 17.578481 36.176842 -1.203407 1.063399 0.043936 -0.027199 -254089.000000 0 0 1
-12.208319 30.535603 18.364281 37.665806 -1.190457 1.061505 0.047531 -0.024643 911504.000000 0 0 1
-13.587419 30.190903 18.604881 37.976969 -1.147901 1.058822 0.062425 -0.019717 892541.000000 0 0 1
-14.397019 31.333003 18.832381 39.289818 -1.140083 1.070917 0.058317 -0.015599 90036.800000 0 0 1
-15.115719 31.311303 20.173981 40.197913 -1.121039 1.045041 0.053316 -0.017017 352735.000000 0 0 1
-14.240219 31.037603 21.300481 40.247076 -1.140644 1.013088 0.055722 -0.023886 202553.000000 0 0 1
-15.030019 30.506103 22.310781 40.673022 -1.113015 0.990179 0.052505 -0.018876 -209174.000000 0 0 1
-14.444219 30.624903 23.701181 41.331176 -1.130085 0.960091 0.048417 -0.017868 -689448.000000 0 0 1
-13.347119 29.780503 23.954281 40.482484 -1.149454 0.937606 0.047442 -0.021923 131537.000000 0 0 1
-13.182219 29.493503 25.384981 41.085702 -1.150479 0.904785 0.049765 -0.016513 -308557.000000 0 0 1
-12.667719 30.577403 26.286181 42.265967 -1.178037 0.899600 0.049585 -0.010397 -545080.000000 0 0 1
-13.639019 31.536503 26.634181 43.473595 -1.162604 0.911385 0.052407 -0.003893 281525.000000 0 0 1
-13.050519 32.560303 27.366881 44.490848 -1.189591 0.908268 0.050663 -0.003207 63753.000000 0 0 1
-14.149619 33.566803 27.861681 45.860825 -1.171863 0.917853 0.057173 -0.004110 296013.000000 0 0 1
-14.978319 33.164403 28.915181 46.479193 -1.146581 0.899361 0.038376 -0.003360 -81912.000000 0 0 1
-14.342719 33.008603 30.158881 46.955719 -1.160894 0.873323 0.056473 -0.003345 -162094.000000 0 0 1
-15.216119 32.197203 31.175581 47.329769 -1.129315 0.851722 0.039746 -0.003489 -517202.000000 0 0 1
-16.280819 32.905303 31.656281 48.476223 -1.111335 0.859222 0.037232 -0.001885 -1190570.000000 0 0 1
-16.909019 32.247703 32.694581 48.936335 -1.087861 0.839138 0.029790 0.004725 1498030.000000 0 0 1
-18.395119 32.721003 33.064981 50.023369 -1.058649 0.848658 0.031831 0.004327 1421990.000000 0 0 1
-18.582819 34.017503 33.573681 51.280637 -1.070820 0.857004 0.043166 0.002114 116001.000000 0 0 1
-19.950219 -34.258343 33.779781 52.083769 1.043459 0.865097 0.031442 -0.004512 275670.000000 0 0 1
-20.216019 -32.726243 33.688581 51.133306 1.017441 0.851523 0.044969 -0.001297 -81721.100000 0 0 1
-19.758219 -31.917043 -33.664488 50.422045 1.016488 2.301850 0.053035 -0.000332 45258.000000 0 0 1
-20.332819 -32.238843 -32.407688 50.030239 1.008113 2.275439 0.051835 -0.002976 -8299.680000 0 0 1
-19.868819 -31.346243 -31.266388 48.527765 1.005858 2.270903 0.068746 -0.000375 62065.900000 0 0 1
-20.239019 -30.022443 -31.465288 47.969046 0.977645 2.286237 0.076686 -0.008071 57290.300000 0 0 1
-19.848719 -29.311743 -30.297388 46.594867 0.975565 2.278684 0.065844 -0.002439 44282.800000 0 0 1
-20.209819 -27.842043 -30.474888 45.960145 0.942915 2.295712 0.063195 -0.013733 -513285.000000 0 0 1
-21.553719 -27.635743 -30.183088 46.252740 0.908419 2.281766 0.058402 -0.012400 -719606.000000 0 0 1
-21.802719 -26.202843 -30.239388 45.567183 0.876801 2.296447 0.054921 -0.014670 -518734.000000 0 0 1
-23.166319 -26.004743 -29.603988 45.709092 0.843060 2.275307 0.045736 -0.018963 -646553.000000 0 0 1
-23.206619 -26.221743 -28.181088 44.947755 0.846323 2.248460 0.041397 -0.011278 241595.000000 0 0 1
-22.572819 -25.144943 -27.466988 43.545789 0.839249 2.253330 0.060022 -0.021318 31608.800000 0 0 1
-22.367019 -25.439643 -25.988088 42.694727 0.849582 2.225212 0.052597 -0.010402 -302180.000000 0 0 1
-23.576819 -25.314643 -25.309688 42.863480 0.820928 2.202440 0.032462 -0.011136 -62994.000000 0 0 1
-23.365819 -25.687343 -23.969188 42.193875 0.832690 2.174958 0.035403 -0.000297 68467.000000 0 0 1
-24.707919 -25.576643 -23.192788 42.456464 0.802673 2.148704 0.024567 0.002396 -550925.000000 0 0 1
-25.764519 -26.372743 -23.512388 43.728302 0.797063 2.138494 0.009725 0.005415 -1051080.000000 0 0 1
-25.615819 -27.810743 -23.460488 44.497215 0.826458 2.126140 0.022405 0.016667 -1120190.000000 0 0 1
-26.919019 -28.589643 -23.199588 45.609453 0.815486 2.104421 -0.005045 0.017725 372308.000000 0 0 1
-27.657219 -28.333443 -22.009888 45.300562 0.797475 2.078147 0.001347 0.018039 517855.000000 0 0 1
-28.566819 -27.214343 -22.139788 45.242169 0.761157 2.082154 0.004966 0.018142 12776.100000 0 0 1
-29.175619 -26.819043 -20.788788 44.750995 0.743337 2.053915 0.013360 0.020673 -38223.500000 0 0 1
-29.973819 -27.859943 -20.204188 45.637873 0.748864 2.029411 0.005916 0.018655 441064.000000 0 0 1
-30.433219 -27.424443 -18.885888 45.110505 0.733442 2.002764 0.006155 0.016905 -726224.000000 0 0 1
-31.491619 -28.394643 -18.318388 46.190272 0.733730 1.978591 -0.005577 0.009604 224754.000000 0 0 1
-32.804619 -28.286443 -18.871288 47.248190 0.711575 1.981667 -0.007708 0.015917 984021.000000 0 0 1
-33.572719 -27.073943 -18.619988 46.976907 0.678648 1.978350 -0.015014 0.019150 -316147.000000 0 0 1
-34.151219 -26.932443 -17.168488 46.759162 0.667765 1.946759 0.003241 0.016554 -555717.000000 0 0 1
-33.216019 -26.435543 -16.232888 45.449406 0.672216 1.936026 -0.004628 0.022928 133862.000000 0 0 1
-33.770119 -26.023543 -14.979888 45.188968 0.656561 1.908683 -0.001994 0.018941 -238099.000000 0 0 1
-33.432619 -26.891743 -13.749988 45.055167 0.677392 1.880925 0.020277 0.024906 4821.710000 0 0 1
-34.131419 -28.132043 -13.763788 46.322862 0.689340 1.872479 0.008331 0.011634 273206.000000 0 0 1
-34.023219 -28.824743 -12.547388 46.323668 0.702871 1.845086 -0.000160 0.000010 -78484.600000 0 0 1
-34.834219 -30.118243 -12.488288 47.712564 0.712919 1.835621 0.013964 0.003323 -138546.000000 0 0 1
-34.220619 -30.978543 -13.357288 48.053492 0.735713 1.852473 0.001231 0.006057 25644.400000 0 0 1
-34.740919 -32.289943 -13.235788 49.241832 0.748850 1.842935 0.002347 -0.001599 -140805.000000 0 0 1
-34.211419 -33.316343 -14.284488 49.844223 0.772144 1.861454 0.001982 0.019457 935860.000000 0 0 1
-32.819019 -33.648343 -14.071488 49.064303 0.797875 1.861678 -0.000272 0.015185 1070540.000000 0 0 1
-32.339419 -34.205843 -15.312188 49.500918 0.813438 1.885286 0.018574 -0.005798 487134.000000 0 0 1
-30.841519 33.972403 -15.300388 48.367606 -0.833666 1.892660 0.016585 -0.001456 597172.000000 0 0 1
-30.335519 33.768303 -16.609888 48.336636 -0.838897 1.921575 0.023937 -0.000214 -978591.000000 0 0 1
-29.040919 33.272703 -16.480288 47.138600 -0.853205 1.927955 0.021115 -0.003473 -798321.000000 0 0 1
9.482167 20.198903 -9.186819 24.130993 1.131894 1.961356 0.027761 -0.015428 -1081010.000000 0 1 0
8.092967 20.298403 -9.079619 23.663490 1.191411 1.964593 0.024895 -0.012154 -795233.000000 0 1 0
7.441967 20.192203 -10.297219 23.856669 1.217687 2.017094 0.030821 -0.015752 -27643.400000 0 1 0
7.430067 18.839703 -11.086719 23.087998 1.195141 2.071672 0.024660 -0.013140 291501.000000 0 1 0
8.723367 18.639703 -11.691319 23.669022 1.133075 2.087423 0.039391 -0.007343 788198.000000 0 1 0
8.623067 17.459703 -12.425419 23.099557 1.112054 2.138749 0.038425 -0.013245 418948.000000 0 1 0
9.952867 17.016603 -13.112519 23.676201 1.041560 2.157750 0.050719 -0.011281 630594.000000 0 1 0
9.727967 15.775003 -13.770219 23.089023 1.018210 2.209801 0.054410 -0.030212 140949.000000 0 1 0
10.846767 15.521203 -14.593719 23.906834 0.960852 2.227414 0.068120 -0.028705 -226934.000000 0 1 0
10.779967 14.242303 -15.474519 23.632850 0.922895 2.284699 0.066859 -0.032402 -461486.000000 0 1 0
10.772767 13.079003 -14.684519 22.422041 0.881789 2.284866 0.075998 -0.038674 291612.000000 0 1 0
11.992967 12.672503 -14.095519 22.430052 0.812941 2.250318 0.081407 -0.035970 78581.300000 0 1 0
12.936967 11.845303 -15.038319 23.104704 0.741376 2.279535 0.086794 -0.036930 -118893.000000 0 1 0
13.466267 12.558603 -16.113519 24.468435 0.750536 2.289677 0.065325 -0.028259 372822.000000 0 1 0
14.612567 11.891803 -16.632619 25.131377 0.683103 2.294049 0.079711 -0.037408 64233.800000 0 0 1
15.177267 12.649103 -17.814519 26.602750 0.694792 2.304533 0.057020 -0.030330 144543.000000 0 0 1
16.003767 13.794203 -17.488719 27.427283 0.711382 2.262226 0.036262 -0.014777 477360.000000 0 0 1
16.571067 14.320603 -18.714519 28.808213 0.712676 2.277887 0.029040 -0.012227 844979.000000 0 0 1
17.903367 15.145403 -18.502819 29.870857 0.702140 2.238809 0.033885 0.000476 421926.000000 0 0 1
17.834767 16.473803 -17.951519 30.194737 0.745751 2.207471 0.037011 -0.000224 102971.000000 0 0 1
17.100367 17.482803 -18.650819 30.755877 0.796456 2.222340 0.048749 -0.001382 -112187.000000 0 0 1
17.076767 18.863403 -18.008319 31.172800 0.835069 2.186696 0.050614 0.004145 996504.000000 0 0 1
18.365767 19.510203 -17.977719 32.266822 0.815604 2.161756 0.047455 0.006031 993250.000000 0 0 1
18.093367 20.757403 -17.384419 32.564670 0.853862 2.133935 0.042696 0.012288 477953.000000 0 0 1
19.222867 21.828003 -17.472319 33.930256 0.848774 2.111743 0.046981 0.007326 941848.000000 0 0 1
20.263067 21.907203 -16.483119 34.091210 0.824366 2.075446 0.040617 0.003062 338064.000000 0 0 1
19.889567 22.629903 -15.341419 33.809267 0.849758 2.041781 0.045788 0.000209 402023.000000 0 0 1
21.145367 23.097103 -14.530519 34.521568 0.829484 2.005246 0.034096 -0.006667 276701.000000 0 0 1
21.841767 22.132103 -13.764719 34.005297 0.792001 1.987536 0.044858 -0.009150 -98613.300000 0 0 1
22.907067 22.650803 -12.995619 34.737281 0.779773 1.954235 0.047462 -0.011488 -107533.000000 0 0 1
24.254167 22.539203 -13.728119 35.843291 0.748765 1.963842 0.056075 -0.014625 -833714.000000 0 0 1
24.435767 23.219703 -14.972119 36.883948 0.759886 1.988787 0.051432 -0.010551 -538899.000000 0 0 1
25.610967 23.950603 -14.977019 38.129570 0.751910 1.974463 0.049148 -0.015176 -630428.000000 0 0 1
26.102467 24.555903 -16.300519 39.370523 0.754878 1.997672 0.048294 -0.008933 -47288.400000 0 0 1
26.601967 23.689603 -17.298019 39.599032 0.727553 2.022867 0.050885 -0.012571 292027.000000 0 0 1
27.013867 24.365503 -18.506219 40.815522 0.733898 2.041385 0.042889 -0.007301 -290635.000000 0 0 1
27.455767 23.308203 -19.640019 41.022211 0.703876 2.070044 0.045107 -0.011347 28794.500000 0 0 1
28.815367 22.961403 -19.746919 41.803016 0.672815 2.062786 0.046523 -0.014615 -411763.000000 0 0 1
29.129267 22.140803 -20.828719 42.101839 0.649926 2.088312 0.049300 -0.012863 81039.900000 0 0 1
30.650967 22.014703 -21.054819 43.213821 0.622862 2.079705 0.062919 -0.010413 -298845.000000 0 0 1
31.095767 23.186403 -21.630919 44.412303 0.640708 2.079503 0.053235 -0.013809 20300.500000 0 0 1
32.508367 23.306103 -21.536919 45.429145 0.621996 2.064712 0.061946 -0.011902 166122.000000 0 0 1
32.838767 24.704503 -22.094119 46.656695 0.644970 2.064109 0.048728 -0.016319 -368713.000000 0 0 1
32.963267 24.898403 -23.494119 47.523479 0.646909 2.087905 0.042317 -0.014526 399678.000000 0 0 1
31.792067 24.685703 -24.282319 47.007983 0.660230 2.113622 0.038863 -0.018281 -143901.000000 0 0 1
31.877867 25.226903 -25.726729 48.108831 0.669451 2.135021 0.040888 -0.019723 -381039.000000 0 0 1
31.722667 26.641303 -25.806469 48.806357 0.698554 2.127926 0.045438 -0.018556 649489.000000 0 0 1
30.456567 27.096103 -26.330039 48.529086 0.727075 2.144280 0.054425 -0.013277 874747.000000 0 0 1
30.323367 26.906103 -27.884409 49.203508 0.725757 2.173311 0.042865 -0.006281 -99964.700000 0 0 1
29.901467 25.564703 -28.147199 48.372684 0.707369 2.191837 0.029117 -0.014790 -78185.000000 0 0 1
29.511867 25.403803 -29.456809 48.826295 0.710730 2.218426 0.036514 -0.018203 -505762.000000 0 0 1
28.810067 24.072603 -29.699209 47.870170 0.696052 2.240064 0.039972 -0.021627 929005.000000 0 0 1
27.527967 24.007803 -29.004719 46.641583 0.717199 2.241917 0.049277 -0.016740 1101820.000000 0 0 1
26.858467 22.803503 -29.343149 45.851907 0.703928 2.265236 0.054917 -0.023062 633834.000000 0 0 1
25.402867 22.676703 -28.769379 44.578197 0.728758 2.272302 0.053723 -0.016893 619029.000000 0 0 1
25.359267 22.789203 -27.390329 43.734086 0.732071 2.247585 0.060826 -0.010447 -634902.000000 0 0 1
24.055167 22.776803 -26.926589 42.690455 0.758108 2.253303 0.063242 -0.011665 -791070.000000 0 0 1
24.009967 22.989003 -25.381779 41.823527 0.763678 2.222923 0.057970 -0.004488 -179777.000000 0 0 1
24.463767 21.857703 -24.670819 41.047343 0.729197 2.215590 0.058552 -0.006646 141040.000000 0 0 1
24.566267 22.196203 -23.292919 40.481267 0.734758 2.183889 0.054166 0.000708 64176.100000 0 0 1
25.034667 20.877303 -22.541319 39.632151 0.695094 2.175798 0.063298 0.001133 1003580.000000 0 0 1
26.382267 20.484103 -22.877819 40.484776 0.660206 2.171347 0.048471 -0.006447 866946.000000 0 0 1
26.696967 19.262203 -22.226219 39.721094 0.625019 2.164648 0.083890 -0.010253 317466.000000 0 0 1
27.875667 18.516303 -22.899919 40.550124 0.586325 2.170904 0.086355 -0.017429 833506.000000 0 0 1
29.195867 18.755603 -22.402919 41.304504 0.571018 2.144069 0.091770 -0.026483 -277554.000000 0 0 1
30.086867 18.087803 -23.221419 42.090646 0.541291 2.155198 0.070721 -0.019540 344955.000000 0 0 1
31.480667 17.986803 -22.483719 42.662338 0.519095 2.125881 0.077917 -0.019919 964497.000000 0 0 1
32.190567 19.231403 -22.275519 43.615114 0.538523 2.106829 0.059711 -0.019107 590441.000000 0 0 1
33.434867 18.969203 -21.624719 44.106116 0.516065 2.083217 0.061554 -0.017917 592942.000000 0 0 1
33.806567 20.032103 -20.584319 44.360830 0.534924 2.053324 0.050140 -0.018570 57949.700000 0 0 1
32.941067 19.993303 -19.447919 43.163267 0.545508 2.038196 0.064101 -0.018269 271879.000000 0 0 1
33.276667 21.014303 -18.510019 43.492048 0.563262 2.010416 0.055937 -0.006722 -90641.600000 0 0 1
32.600667 20.859603 -17.162819 42.337795 0.569208 1.988189 0.067857 -0.020897 -199519.000000 0 0 1
33.081567 19.731103 -16.502919 41.905284 0.537796 1.975574 0.068460 -0.030089 28514.000000 0 0 1
32.642167 19.625803 -15.191819 41.005787 0.541331 1.950322 0.073685 -0.028947 -168509.000000 0 0 1
33.240967 18.355603 -14.569519 40.671377 0.504529 1.937163 0.063312 -0.023274 435135.000000 0 0 1
34.671467 18.182703 -14.681019 41.812123 0.482999 1.929562 0.056270 -0.026484 1081030.000000 0 0 1
35.180167 17.199803 -13.780219 41.513513 0.454733 1.909161 0.037943 -0.010195 -41167.800000 0 0 1
35.186867 17.605403 -12.347319 41.237387 0.463920 1.874882 0.045761 -0.021136 -259781.000000 0 0 1
35.968967 18.781803 -11.953319 42.301354 0.481223 1.857274 0.038205 -0.028794 643443.000000 0 0 1
35.655667 19.288903 -10.663319 41.917714 0.495890 1.828010 0.023812 -0.020173 36443.000000 0 0 1
34.488467 20.323403 -10.607919 41.412836 0.532501 1.829834 0.022706 -0.018835 415414.000000 0 0 1
33.222967 19.738303 -10.821519 40.130679 0.536082 1.843833 0.058447 -0.032378 -571424.000000 0 0 1
32.146367 20.614803 -10.692919 39.657250 0.570220 1.843809 0.046801 -0.018065 586833.000000 0 0 1
30.746767 19.908403 -10.799719 38.188246 0.574613 1.857511 0.042940 -0.020625 737112.000000 0 0 1
30.544067 19.464603 -12.146619 38.201454 0.567369 1.894376 0.058949 -0.024031 229083.000000 0 0 1
29.340067 18.702203 -12.253219 36.888389 0.567487 1.909400 0.060289 -0.022752 527180.000000 0 0 1
29.267667 18.074003 -13.649519 37.007773 0.553218 1.948545 0.093328 -0.028302 -306418.000000 0 0 1
30.213067 17.058103 -13.795319 37.337904 0.513978 1.949237 0.085814 -0.026074 -134473.000000 0 0 1
29.833267 16.161903 -14.794919 37.015139 0.496480 1.981985 0.073268 -0.026624 -617869.000000 0 0 1
31.041067 15.671103 -15.560119 38.095257 0.467521 1.991555 0.090741 -0.028230 -529600.000000 0 0 1
31.755767 14.704403 -14.803019 37.997073 0.433650 1.970975 0.075560 -0.027209 292998.000000 0 0 1
32.954167 14.292803 -15.450819 39.102290 0.409231 1.977015 0.084645 -0.024095 358178.000000 0 0 1
33.735367 13.309603 -14.499019 39.056908 0.375782 1.951128 0.063041 -0.034268 -288719.000000 0 0 1
34.309367 13.927503 -13.378619 39.371251 0.385616 1.917508 0.052930 -0.019559 -153876.000000 0 0 1
35.099067 13.001203 -12.698819 39.525128 0.354744 1.897882 0.036983 -0.014276 445220.000000 0 0 1
36.186067 13.687203 -11.769619 40.438779 0.361613 1.866118 0.053890 -0.006875 874253.000000 0 0 1
-35.017048 14.183503 -12.379619 39.757016 -0.384848 1.887443 0.046112 -0.015933 305097.000000 0 0 1
-34.083848 14.706903 -11.439819 38.844190 -0.407356 1.869734 0.038318 -0.008242 669186.000000 0 0 1
-32.622448 14.891403 -11.981619 37.809220 -0.428227 1.893252 0.063182 -0.019684 1211030.000000 0 0 1
-31.833548 13.707903 -12.311419 36.781142 -0.406614 1.912105 0.058502 -0.018785 572967.000000 0 0 1
-31.551148 12.750003 -11.321919 35.863956 -0.384041 1.891981 0.076907 -0.007347 -187777.000000 0 0 1
-30.572748 11.660103 -11.884219 34.812147 -0.364360 1.919183 0.089607 -0.015960 296171.000000 0 0 1
-31.058848 10.883703 -12.980619 35.378008 -0.337051 1.946484 0.064041 -0.001086 366598.000000 0 0 1
-30.262548 9.699703 -13.108519 34.376435 -0.310173 1.962023 0.085382 -0.008927 147565.000000 0 0 1
-30.371548 9.112303 -14.540519 34.883974 -0.291482 2.000746 0.083657 -0.009732 390179.000000 0 0 1
-31.653248 8.568003 -14.812019 35.982421 -0.264349 1.995056 0.051755 -0.004804 569372.000000 0 0 1
-31.428948 7.684403 -15.821519 36.015958 -0.239796 2.025607 0.077967 -0.019210 427868.000000 0 0 1
-32.755648 7.219503 -16.498919 37.380048 -0.216936 2.027936 0.079907 -0.020979 358743.000000 0 0 1
-33.536748 6.386003 -15.641119 37.551818 -0.188165 2.000411 0.079302 -0.023754 442726.000000 0 0 1
-34.426348 5.495703 -16.328719 38.496795 -0.158301 2.008828 0.044952 -0.027941 14802.000000 0 0 1
-35.560848 5.095903 -15.364419 39.071824 -0.142332 1.974944 0.026320 -0.028932 -938237.000000 0 0 1
35.866167 4.270203 -15.911319 39.468806 0.118502 1.985738 0.033905 -0.025934 -235983.000000 0 0 1
35.073367 3.771003 -14.784019 38.248251 0.107106 1.967660 0.042884 -0.025229 178945.000000 0 0 1
33.993467 2.783803 -15.232719 37.354264 0.081710 1.990829 0.044436 -0.022777 -503460.000000 0 0 1
34.601067 1.634003 -15.676019 38.021590 0.047189 1.995765 0.059204 -0.024690 763502.000000 0 0 1
33.716367 0.460203 -15.507319 37.114446 0.013648 2.001846 0.051050 -0.015699 729555.000000 0 0 1
33.264867 0.007803 -14.104519 36.131549 0.000235 1.971825 0.064942 -0.021162 -477805.000000 0 0 1
34.257667 -0.543797 -13.281219 36.746078 -0.015872 1.940600 0.091854 -0.020754 -146453.000000 0 0 1
34.012067 -0.408497 -11.851419 36.020045 -0.012010 1.906065 0.085362 -0.018341 -499872.000000 0 0 1
34.219067 1.023303 -11.290919 36.048253 0.029896 1.889375 0.082122 -0.025760 -106402.000000 0 0 1
33.167667 1.929103 -11.570919 35.180985 0.058097 1.905932 0.065365 -0.018546 490941.000000 0 0 1
33.519267 3.227903 -11.092519 35.454260 0.096004 1.889008 0.069856 -0.018321 -327136.000000 0 0 1
32.614767 4.389203 -11.493019 34.857963 0.133773 1.906793 0.067215 -0.020539 -247783.000000 0 0 1
32.620667 4.647103 -12.882119 35.378700 0.141507 1.943485 0.052764 -0.018337 867782.000000 0 0 1
31.427967 5.367703 -13.198419 34.506921 0.169162 1.963282 0.054662 -0.020365 335521.000000 0 0 1
31.522767 6.048603 -14.602919 35.263517 0.189576 1.997759 0.034295 -0.012786 -171989.000000 0 0 1
31.327867 5.212703 -15.776519 35.461332 0.164881 2.031852 0.024085 -0.006860 119410.000000 0 0 1
31.722767 5.829203 -16.987919 36.454121 0.181727 2.055570 0.019644 -0.011157 -1012790.000000 0 0 1
30.737767 6.808103 -17.672619 36.103767 0.217971 2.082307 0.041124 -0.014004 70573.800000 0 0 1
29.604967 6.259603 -18.308519 35.367196 0.208369 2.114921 0.026580 -0.013708 378590.000000 0 0 1
28.600667 5.732603 -17.429719 33.980229 0.197815 2.109399 0.016610 -0.005303 -980353.000000 0 0 1
27.246067 5.840503 -18.133719 33.245923 0.211166 2.147713 0.008534 -0.007031 -581457.000000 0 0 1
27.188967 4.836703 -19.129319 33.594113 0.176050 2.176602 0.015906 -0.003148 1008570.000000 0 0 1
26.037667 5.031703 -19.995019 33.212632 0.190894 2.216838 0.013780 0.001775 792996.000000 0 0 1
25.708067 3.721603 -20.701819 33.216266 0.143765 2.243680 0.017448 0.003246 -330756.000000 0 0 1
25.222967 2.791503 -19.810319 32.193777 0.110224 2.233621 0.017259 -0.000421 -17586.600000 0 0 1
24.939667 1.588103 -20.504719 32.325726 0.063592 2.257919 0.025482 -0.003060 -528751.000000 0 0 1
23.911967 0.738303 -19.743219 31.018090 0.030866 2.260757 0.031021 -0.005455 -449166.000000 0 0 1
22.683267 1.375203 -19.571319 29.990970 0.060552 2.281772 0.033993 -0.007538 -299564.000000 0 0 1
21.759467 0.530803 -18.894819 28.823087 0.024389 2.285700 0.032783 -0.007827 758419.000000 0 0 1
20.384067 1.248603 -18.665719 27.667277 0.061177 2.311286 0.034463 -0.010768 276197.000000 0 0 1
19.543167 1.407203 -19.810119 27.863173 0.071881 2.361685 0.043289 -0.013684 690253.000000 0 0 1
18.493967 2.347103 -19.550519 27.014042 0.126237 2.379970 0.028679 -0.009894 788135.000000 0 0 1
17.146367 1.836603 -18.979419 25.643505 0.106706 2.404054 0.049831 -0.014669 -438976.000000 0 0 1
17.254767 1.545603 -17.572819 24.676301 0.089337 2.363329 0.041957 -0.021742 203701.000000 0 1 0
16.023167 1.325203 -16.922619 23.342516 0.082518 2.381787 0.030318 -0.021023 273568.000000 0 1 0
15.117867 2.566503 -16.622919 22.615443 0.168163 2.396500 0.047567 -0.024773 -52540.500000 0 1 0
14.677267 3.329303 -17.741119 23.264860 0.223059 2.438075 0.058099 -0.015249 147510.000000 0 1 0
13.940667 4.415203 -17.283619 22.639781 0.306719 2.439385 0.075630 -0.023267 -324580.000000 0 1 0
-19.714333 -22.245297 -17.724819 34.607476 0.845644 2.108503 0.023990 -0.004791 -47264.100000 0 0 1
-19.503833 -22.516997 -19.086319 35.379404 0.856982 2.140610 0.035867 -0.006506 594205.000000 0 0 1
-20.655033 -22.279097 -19.910219 36.323620 0.823207 2.150928 0.032430 -0.004161 341618.000000 0 0 1
-20.452733 -22.996697 -21.268219 37.409885 0.843881 2.175500 0.032959 0.002923 -65886.100000 0 0 1
-20.550233 -24.365597 -20.971819 38.155099 0.870139 2.152737 0.036999 0.000580 292357.000000 0 0 1
-19.976233 -25.121497 -22.017919 38.922079 0.898998 2.172069 0.043777 -0.003403 -172604.000000 0 0 1
-19.817333 -26.610567 -21.627719 39.605646 0.930685 2.148470 0.054905 0.009542 28829.100000 0 0 1
-21.013333 -27.366697 -21.679019 40.748940 0.915973 2.131774 0.043153 0.018678 95578.000000 0 0 1
-20.782633 -28.747357 -21.498319 41.478984 0.944839 2.115652 0.077863 -0.001493 -108592.000000 0 0 1
-22.068233 -29.582767 -21.657419 42.792415 0.929871 2.101458 0.062005 0.001340 118275.000000 0 0 1
-22.735133 -29.568447 -22.935819 43.786198 0.915310 2.122118 0.032513 0.011716 226209.000000 0 0 1
-22.069033 -30.119927 -24.046419 44.412639 0.938456 2.142936 0.045188 0.007567 -548778.000000 0 0 1
-22.557133 -29.477967 -25.371499 44.960958 0.917625 2.170382 0.028584 0.020751 93512.200000 0 0 1
-23.866933 -29.827037 -25.791469 46.092109 0.895947 2.164656 0.018928 0.023086 504552.000000 0 0 1
-24.322133 -29.055057 -26.916849 46.478804 0.873836 2.188446 0.015908 0.024759 -122253.000000 0 0 1
-23.849333 -29.349547 -28.378589 47.281401 0.888422 2.214555 0.029381 -0.000320 -335389.000000 0 0 1
-24.299533 -30.616457 -28.856719 48.585440 0.899924 2.206741 0.015758 0.010329 369579.000000 0 0 1
-23.916633 -30.751227 -30.233599 49.312410 0.909773 2.230779 0.047980 0.002193 49072.600000 0 0 1
-24.512733 -32.011707 -30.859199 50.773159 0.917296 2.224065 0.018325 -0.000130 -93128.800000 0 0 1
-23.852933 -33.244617 -30.590219 51.087459 0.948423 2.212775 0.021886 -0.007788 -145262.000000 0 0 1
-24.689333 34.268908 -30.832819 52.293250 -0.946471 2.201377 0.022504 -0.009481 -301315.000000 0 0 1
-23.943733 32.958848 -30.821939 51.084048 -0.942523 2.218501 0.031257 -0.008769 389692.000000 0 0 1
-22.991833 32.700506 -31.865249 51.120853 -0.957991 2.243793 0.030736 -0.019284 265371.000000 0 0 1
-22.433433 31.420909 -31.738329 49.978535 -0.950759 2.258856 0.039355 -0.012644 -290741.000000 0 0 1
-21.138333 31.180299 -32.521739 49.766492 -0.975031 2.282978 0.037590 -0.005722 -146707.000000 0 0 1
-21.385133 31.099469 -33.962119 50.773285 -0.968416 2.303521 0.026800 0.002009 324638.000000 0 0 1
-21.060733 29.833139 33.933106 49.850039 -0.956088 0.822074 0.016460 0.008612 -106862.000000 0 0 1
-21.130333 29.746949 32.413311 48.805683 -0.953167 0.844467 0.011603 0.007669 84476.400000 0 0 1
-20.314333 30.716619 31.747171 48.621659 -0.986486 0.859333 0.018327 0.007407 350093.000000 0 0 1
-20.331033 30.570819 30.352651 47.636218 -0.983916 0.879968 0.024844 0.007979 -81277.100000 0 0 1
-19.824133 31.817329 29.591811 47.759962 -1.013593 0.902570 0.020140 0.001107 -531870.000000 0 0 1
-20.757333 32.838030 29.513481 48.787792 -1.007099 0.921111 0.022237 0.008358 -252472.000000 0 0 1
-20.244433 34.137123 29.303121 49.334097 -1.035516 0.934808 0.024606 -0.005809 -951347.000000 0 0 1
-21.335833 -33.447697 29.368771 49.360824 1.002984 0.933554 0.030063 -0.013838 -731651.000000 0 0 1
-21.580033 -33.203327 30.712301 50.113912 0.994466 0.911134 0.032116 -0.009242 35811.500000 0 0 1
-22.649633 -32.267137 30.812301 50.035706 0.958769 0.907387 0.039685 -0.011261 69138.800000 0 0 1
-22.252533 -30.761487 30.529361 48.718438 0.944545 0.893551 0.052641 -0.012913 -224245.000000 0 0 1
-22.199433 -30.341807 29.151531 47.573646 0.939146 0.911240 0.030239 -0.006722 -149166.000000 0 0 1
-22.078833 -28.958687 28.999531 46.551619 0.919390 0.898283 0.046112 -0.015688 499355.000000 0 0 1
-23.392533 -28.207307 28.555521 46.457298 0.878439 0.908839 0.043159 -0.014667 -20600.000000 0 0 1
-24.459633 -28.196727 29.449641 47.545877 0.856251 0.902825 0.044160 -0.010286 103414.000000 0 0 1
-25.459403 -29.187137 29.252821 48.536560 0.853508 0.923920 0.034205 0.003797 178599.000000 0 0 1
-26.444463 -29.205037 28.042881 48.359559 0.834964 0.952211 0.023207 -0.000841 -570690.000000 0 0 1
-25.868543 -29.463277 26.782191 47.482122 0.850274 0.971517 0.024331 0.001827 97927.900000 0 0 1
-26.774163 -29.698367 25.681321 47.522406 0.837133 0.999879 0.016848 0.002300 280461.000000 0 0 1
-26.054463 -30.101267 24.338981 46.661626 0.857338 1.022064 0.016822 -0.005438 30006.800000 0 0 1
-25.251333 -29.065507 23.758811 45.242840 0.855504 1.017917 0.016107 -0.007583 607297.000000 0 0 1
-24.797733 -29.368297 22.430351 44.503315 0.869579 1.042555 0.030223 -0.014540 106161.000000 0 0 1
-23.661833 -30.404027 22.214251 44.472015 0.909461 1.047762 0.035806 -0.018999 -577427.000000 0 0 1
-24.074133 -31.758607 22.210851 45.623403 0.922173 1.062339 0.024095 -0.019197 1251960.000000 0 0 1
-22.982333 -32.638887 21.777551 45.472478 0.957297 1.071376 0.037596 -0.015584 840571.000000 0 0 1
-22.122933 -33.191377 22.925851 46.007459 0.982891 1.049151 0.036380 -0.009102 -739826.000000 0 0 1
-21.414733 -32.194437 23.573451 45.285540 0.983831 1.023300 0.048214 -0.009097 -305672.000000 0 0 1
-20.859633 -32.836067 24.704601 46.083065 1.004849 1.005000 0.045517 -0.016279 -127474.000000 0 0 1
-19.928433 -31.937247 25.567261 45.506208 1.012926 0.974187 0.046558 -0.009046 -49531.900000 0 0 1
-18.676433 -31.693797 24.921021 44.433807 1.038299 0.975376 0.057410 -0.009933 667417.000000 0 0 1
-17.698433 -31.032047 25.704741 44.010864 1.052481 0.947082 0.077547 -0.006302 245609.000000 0 0 1
-16.947033 -31.878837 26.717201 44.914040 1.082183 0.933715 0.065800 -0.018710 -815675.000000 0 0 1
-17.662733 -31.946687 27.957451 45.980235 1.065743 0.917217 0.050790 -0.009929 622257.000000 0 0 1
-16.910133 -32.565957 28.966991 46.750195 1.091861 0.902548 0.044851 -0.008002 -205411.000000 0 0 1
-17.439133 -31.990747 30.256481 47.360172 1.071699 0.877782 0.058682 -0.010366 76388.400000 0 0 1
-16.904933 -30.684487 30.470091 46.429957 1.067241 0.854946 0.057841 -0.009512 177015.000000 0 0 1
-17.363133 -30.025287 31.643371 46.949964 1.046498 0.831212 0.064921 -0.010188 18495.900000 0 0 1
-17.287633 -28.489457 31.449041 45.820886 1.025386 0.814342 0.063247 -0.010504 169.742000 0 0 1
-18.230733 -27.921017 30.549101 45.223781 0.992357 0.829141 0.082963 -0.012804 161774.000000 0 0 1
-18.053633 -28.057907 29.122481 44.286552 0.999045 0.853178 0.085887 -0.011018 245907.000000 0 0 1
-16.675333 -27.674947 28.485801 43.074473 1.028509 0.848226 0.075426 -0.004108 521765.000000 0 0 1
-16.341533 -26.273047 28.392261 41.993323 1.014366 0.828321 0.064324 -0.003972 176643.000000 0 0 1
-15.108533 -26.044447 27.746541 40.944493 1.045133 0.826217 0.055370 -0.003033 -48001.700000 0 0 1
-15.147133 -24.579197 27.178301 39.651388 1.018508 0.815601 0.046496 0.004801 -482131.000000 0 0 1
-16.073833 -24.489597 26.119251 39.246958 0.989968 0.842619 0.079384 -0.008304 8778.260000 0 0 1
-16.088733 -23.319397 25.350851 38.017197 0.966861 0.840855 0.044474 -0.002256 -180992.000000 0 0 1
-16.655533 -22.006897 25.970801 37.897134 0.922937 0.815785 0.055490 -0.000170 -709438.000000 0 0 1
-16.493033 -20.973497 25.081361 36.619426 0.904419 0.816303 0.030138 0.001935 64846.100000 0 0 1
-16.956333 -19.768997 25.621641 36.534900 0.861835 0.793588 0.049538 0.003350 -239072.000000 0 0 1
-16.627633 -18.507997 24.796501 35.126779 0.838864 0.787083 0.026732 -0.003642 40032.500000 0 0 1
-15.270933 -18.134197 24.759491 34.279482 0.870902 0.763698 0.011990 -0.003976 -453579.000000 0 0 1
-15.144433 -16.950897 24.003431 33.058304 0.841623 0.758172 0.018636 0.000939 1319820.000000 0 0 1
-13.710533 -16.252097 23.907171 31.994721 0.870020 0.726924 0.028304 -0.008826 1099360.000000 0 0 1
-12.748933 -17.084397 23.266951 31.555711 0.929711 0.741688 0.007988 -0.000847 -202946.000000 0 0 1
-11.454533 -16.578397 23.490221 30.948991 0.966183 0.709024 0.016687 -0.010296 -528953.000000 0 0 1
-10.890933 -15.700797 22.311051 29.375337 0.964342 0.708227 0.028940 -0.022484 -235747.000000 0 0 1
-10.403933 -16.379997 21.152151 28.704697 1.004924 0.742341 0.039711 -0.018257 287162.000000 0 0 1
-9.179933 -17.041997 21.459051 28.899683 1.076697 0.733948 0.035542 -0.011150 -480496.000000 0 0 1
-8.862733 -18.172997 20.405651 28.726233 1.117048 0.780802 0.034265 -0.010091 29026.700000 0 0 1
-8.617833 -17.765097 19.116251 27.482663 1.119140 0.801577 0.033504 -0.014852 -252265.000000 0 0 1
-8.101433 -18.843297 18.404651 27.557834 1.164751 0.839473 0.037561 -0.008834 185367.000000 0 0 1
-7.896133 -18.674197 16.888351 26.387325 1.170760 0.876275 0.025949 -0.012520 185567.000000 0 0 1
-6.894133 -17.696597 16.691751 25.284643 1.199310 0.849773 0.035313 -0.014118 -155246.000000 0 0 1
-6.556933 -17.569497 15.283951 24.192556 1.213605 0.886971 0.037835 -0.022388 416798.000000 0 1 0
-5.627733 -16.338297 15.043951 22.911390 1.239074 0.854475 0.030019 -0.029563 171698.000000 0 1 0
-6.232533 -15.158197 15.439851 22.516758 1.180701 0.815225 0.032588 -0.040330 -824352.000000 0 1 0
-5.314533 -14.147097 15.487551 21.639058 1.211445 0.773139 0.027804 -0.038853 -1124490.000000 0 1 0
-5.492933 -13.211997 16.669351 21.968077 1.176784 0.709329 0.010484 -0.024600 -239108.000000 0 1 0
-5.175133 -13.684197 18.003351 23.198273 1.209238 0.682395 0.017419 -0.022664 -222429.000000 0 1 0
-6.068733 -14.642597 18.535151 24.388255 1.177889 0.707478 0.036780 -0.029712 -383145.000000 0 1 0
-7.379333 -14.145897 19.131151 24.911080 1.089972 0.695119 0.047664 -0.037138 -492609.000000 0 1 0
-7.191933 -13.185997 20.158251 25.138605 1.071475 0.640354 0.046819 -0.038115 78211.600000 0 0 1
-8.389633 -12.996197 20.909451 26.009464 0.997559 0.636944 0.045944 -0.031439 623875.000000 0 0 1
-8.118033 -12.123397 22.198951 26.564499 0.980754 0.581459 0.052014 -0.018864 -1010150.000000 0 0 1
-7.816633 -10.832297 21.763151 25.535723 0.945717 0.550500 0.045417 -0.017396 -79496.700000 0 0 1
-7.063033 -10.058697 22.638951 25.760161 0.958608 0.497380 0.030417 -0.023647 -255107.000000 0 0 1
-5.620533 -10.513197 22.909751 25.825847 1.079840 0.479802 0.041121 -0.025786 -745171.000000 0 0 1
-5.589933 -11.486897 23.910421 27.109120 1.117897 0.490693 0.048341 -0.021200 -434091.000000 0 0 1
-4.272133 -11.623897 24.366821 27.333277 1.218591 0.470215 0.051302 -0.011647 -458459.000000 0 0 1
-4.147633 -12.658997 25.482501 28.754320 1.254176 0.481687 0.052920 -0.010662 -54146.600000 0 0 1
-2.817233 -12.841797 25.950391 29.090743 1.354837 0.468936 0.054768 -0.011323 288109.000000 0 0 1
-2.611733 -14.025297 26.735541 30.303782 1.386689 0.490174 0.050193 -0.014480 -72000.600000 0 0 1
-2.584233 -15.396997 25.963641 30.296145 1.404506 0.541387 0.044754 -0.018149 -154564.000000 0 0 1
-1.550933 -15.639997 25.007571 29.536308 1.471955 0.561096 0.034990 -0.018054 176212.000000 0 0 1
-1.711733 -17.008697 24.491031 29.866978 1.470495 0.609379 0.034042 -0.017130 -248472.000000 0 0 1
-0.494333 -17.902897 24.809471 30.598495 1.543191 0.625267 0.032659 -0.026148 -81373.300000 0 0 1
-0.281433 -18.249597 26.176771 31.911601 1.555376 0.608878 0.036296 -0.029357 2724.290000 0 0 1
0.279367 -17.237297 26.970321 32.009384 -1.554591 0.568749 0.057107 -0.028279 -697061.000000 0 0 1
0.743867 -17.834397 28.343381 33.495765 -1.529111 0.562024 0.051785 -0.024217 -650449.000000 0 0 1
1.819167 -18.750297 28.200701 33.914046 -1.474078 0.588932 0.039741 -0.024957 310683.000000 0 0 1
2.626567 -18.926397 29.353331 35.024639 -1.432899 0.577048 0.045969 -0.037241 319312.000000 0 0 1
3.683667 -17.853897 29.661111 34.815406 -1.367329 0.551091 0.080361 -0.033336 -538823.000000 0 0 1
3.129667 -16.602997 30.008281 34.437643 -1.384482 0.512788 0.064346 -0.037609 -430236.000000 0 0 1
4.151267 -15.725097 30.307071 34.395206 -1.312695 0.492524 0.073577 -0.040919 -625125.000000 0 0 1
3.640567 -14.523797 31.093531 34.510897 -1.325195 0.448780 0.073998 -0.039978 151773.000000 0 0 1
2.992467 -15.079797 32.213781 35.694296 -1.374899 0.445278 0.062046 -0.043448 596741.000000 0 0 1
1.907967 -14.289797 32.736871 35.770677 -1.438062 0.414824 0.053562 -0.031345 510035.000000 0 0 1
1.037967 -14.911497 33.837059 36.991575 -1.501300 0.415974 0.037391 -0.027167 -223034.000000 0 0 1
1.767767 -15.119097 -33.450729 36.751372 -1.454402 2.714539 0.059725 -0.029597 -136231.000000 0 0 1
0.982067 -15.629897 -32.384409 35.972324 -1.508046 2.691160 0.026408 -0.031350 319384.000000 0 0 1
1.896767 -15.654497 -31.154199 34.917690 -1.450220 2.673030 0.035627 -0.025395 622900.000000 0 0 1
1.298367 -16.488597 -30.129079 34.370350 -1.492215 2.639549 0.033980 -0.025452 191604.000000 0 0 1
1.953767 -16.171597 -28.919819 33.191771 -1.450564 2.628631 0.027579 -0.025980 -17827.600000 0 0 1
1.532267 -17.166197 -27.841569 32.744146 -1.481772 2.587306 0.042163 -0.027155 -94611.800000 0 0 1
2.171267 -18.412897 -28.019019 33.597836 -1.453417 2.557029 0.045473 -0.025332 111354.000000 0 0 1
1.698267 -19.380697 -27.088879 33.351205 -1.483393 2.518763 0.048324 -0.029257 -664457.000000 0 0 1
2.428167 -20.782797 -27.212599 34.327047 -1.454488 2.486096 0.046355 -0.026709 -364778.000000 0 0 1
3.801967 -20.755597 -26.983329 34.254194 -1.389627 2.477925 0.048672 -0.024027 -602966.000000 0 0 1
4.188867 -20.713797 -25.608999 33.202843 -1.371261 2.451661 0.052691 -0.019179 -1439030.000000 0 0 1
5.644867 -21.103797 -25.486219 33.567575 -1.309434 2.432958 0.053989 -0.022305 -995497.000000 0 0 1
5.933267 -22.510497 -25.593739 34.597191 -1.313080 2.403515 0.053323 -0.015688 134056.000000 0 0 1
5.842367 -23.069897 -26.919589 35.930734 -1.322765 2.417662 0.049808 -0.014841 -395904.000000 0 0 1
5.161267 -24.465797 -26.902169 36.727926 -1.362886 2.392742 0.047887 -0.008815 -335181.000000 0 0 1
5.932967 -25.498247 -26.337389 37.135142 -1.342183 2.359203 0.055000 -0.002717 -73631.300000 0 0 1
5.372067 -26.772727 -26.584829 38.110250 -1.372772 2.342806 0.045473 0.000291 -132413.000000 0 0 1
5.836867 -27.990847 -25.718939 38.458033 -1.365215 2.303327 0.043405 0.000774 1351950.000000 0 0 1
7.221867 -28.367707 -25.945369 39.115781 -1.321511 2.296012 0.050964 0.001975 1373600.000000 0 0 1
7.738467 -29.409347 -25.096379 39.428692 -1.313499 2.260749 0.051341 0.003026 629727.000000 0 0 1
9.105167 -30.003257 -25.568949 40.458258 -1.276157 2.254906 0.060948 -0.005245 466795.000000 0 0 1
9.038667 -30.818897 -26.684579 41.756061 -1.285513 2.264070 0.055835 0.008225 -79939.200000 0 0 1
10.342367 -31.022407 -27.194829 42.531318 -1.249000 2.264523 0.068272 -0.001094 240764.000000 0 0 1
10.577367 -30.511807 -28.584019 43.126525 -1.237096 2.295341 0.061978 -0.003590 149332.000000 0 0 1
9.849867 -31.329727 -29.517209 44.156962 -1.266187 2.302934 0.052739 -0.010677 427466.000000 0 0 1
10.192867 -30.965027 -30.837929 44.874328 -1.252794 2.328433 0.054089 -0.003537 31012.000000 0 0 1
-34.150512 -4.635597 -5.728419 34.936529 0.134916 1.735507 0.138157 -0.017788 -43772.500000 0 0 1
-33.890433 -3.903197 -4.552219 34.416843 0.114666 1.703452 0.122604 -0.022717 114499.000000 0 0 1
-33.464733 -2.571297 -4.708419 33.892022 0.076685 1.710171 0.142034 -0.027157 -480575.000000 0 0 1
-34.446561 -1.530697 -5.294619 34.884690 0.044408 1.723160 0.141993 -0.025429 -47576.500000 0 0 1
-35.354438 -0.964497 -4.363819 35.635789 0.027274 1.693561 0.118356 -0.021392 453038.000000 0 0 1
36.173361 0.001803 -4.982719 36.514922 0.000050 1.707680 0.121520 -0.029336 235954.000000 0 0 1
35.344371 0.870903 -4.062619 35.587749 0.024636 1.685204 0.121327 -0.029987 -406670.000000 0 0 1
36.175491 1.780503 -3.405819 36.379059 0.049179 1.664554 0.117848 -0.025643 249562.000000 0 0 1
35.472421 2.681603 -2.558319 35.665510 0.075453 1.642589 0.106016 -0.027949 -100706.000000 0 0 1
-36.097403 3.982003 -2.232619 36.384935 -0.109869 1.632196 0.091805 -0.029555 -166114.000000 0 0 1
-35.920157 4.728603 -3.427819 36.391858 -0.130889 1.665128 0.099399 -0.029594 1265800.000000 0 0 1
-34.563609 4.877803 -3.908919 35.124289 -0.140200 1.682316 0.074973 -0.021712 914143.000000 0 0 1
-33.761463 6.072503 -3.304819 34.462059 -0.177962 1.666841 0.063928 -0.020284 -264600.000000 0 0 1
-33.467713 5.914303 -1.920519 34.040494 -0.174911 1.627245 0.079939 -0.023880 375296.000000 0 0 1
-33.306943 7.124303 -1.207519 34.081759 -0.210723 1.606234 0.085953 -0.038400 -385379.000000 0 0 1
-32.389693 7.064903 0.007081 33.151246 -0.214758 1.570583 0.084655 -0.038900 -1153230.000000 0 0 1
-31.021253 6.947503 -0.267519 31.790840 -0.220324 1.579211 0.085208 -0.034982 171722.000000 0 0 1
-30.190973 7.353803 0.822681 31.084564 -0.238924 1.544327 0.086972 -0.036850 85861.400000 0 0 1
-30.121413 8.894403 1.080081 31.425730 -0.287126 1.536420 0.089701 -0.037704 -1066540.000000 0 0 1
-31.323123 9.470803 1.509581 32.758404 -0.293619 1.524698 0.081464 -0.040832 -83176.700000 0 0 1
-31.157863 10.807703 1.929581 33.035468 -0.333883 1.512354 0.077030 -0.030366 272337.000000 0 0 1
-32.411373 11.661603 1.574581 34.481436 -0.345378 1.525116 0.085366 -0.035855 -562991.000000 0 0 1
-32.673523 11.997503 0.209981 34.807231 -0.351909 1.564764 0.077068 -0.035190 1268650.000000 0 0 1
-33.869873 12.791803 -0.037919 36.204972 -0.361114 1.571844 0.076671 -0.025661 1255930.000000 0 0 1
-35.212398 12.038603 0.186081 37.213917 -0.329428 1.565796 0.088313 -0.034413 -509647.000000 0 0 1
-35.510131 11.013103 -0.692419 37.185176 -0.300733 1.589418 0.076932 -0.032455 -253655.000000 0 0 1
35.638401 10.480203 -0.256019 37.148295 0.286008 1.577688 0.081720 -0.032772 53459.900000 0 0 1
35.113181 9.389403 -1.247019 36.368275 0.261291 1.605092 0.076268 -0.027628 79459.500000 0 0 1
34.700311 9.847803 -2.497919 36.157024 0.276525 1.639937 0.065747 -0.019180 26906.500000 0 0 1
34.434911 8.702103 -3.248519 35.665706 0.247529 1.662005 0.063641 -0.031433 -9485.050000 0 0 1
33.780461 9.014703 -4.628919 35.267709 0.260784 1.702427 0.049797 -0.019558 678274.000000 0 0 1
32.377921 9.296403 -4.608919 33.999926 0.279600 1.706772 0.066110 -0.028747 751311.000000 0 0 1
32.008791 9.721203 -5.940919 33.975859 0.294852 1.746557 0.056687 -0.017216 -260811.000000 0 0 1
30.604121 10.329403 -6.017119 32.855966 0.325511 1.754972 0.070739 -0.018615 -445881.000000 0 0 1
29.559631 9.404203 -6.063819 31.606656 0.308018 1.763846 0.076809 -0.011837 50935.200000 0 0 1
28.306721 10.003003 -6.280819 30.672124 0.339682 1.777028 0.095584 -0.010418 -310609.000000 0 0 1
27.135881 9.012903 -6.418019 29.304938 0.320676 1.791594 0.110324 -0.006173 -366742.000000 0 0 1
27.210281 8.146203 -7.557719 29.391821 0.290888 1.830855 0.106857 -0.014227 1014150.000000 0 0 1
26.038481 7.306803 -7.647219 28.104658 0.273579 1.846369 0.114779 -0.016282 549409.000000 0 0 1
26.101381 6.311703 -8.854819 28.275917 0.237260 1.889312 0.105435 -0.018869 63740.300000 0 0 1
27.024981 5.256203 -8.608419 28.845834 0.192096 1.873842 0.106836 -0.021525 714015.000000 0 0 1
26.953081 4.257403 -9.651619 28.943873 0.156662 1.910767 0.097320 -0.018596 -302294.000000 0 0 1
27.887511 3.021003 -9.418119 29.589537 0.107907 1.894724 0.087914 -0.015044 1182330.000000 0 0 1
29.299431 3.306603 -9.616719 31.014054 0.112380 1.886069 0.105589 -0.012729 1725210.000000 0 0 1
30.233651 2.836203 -8.680519 31.582734 0.093536 1.849230 0.082241 -0.022640 30140.900000 0 0 1
30.375361 1.287303 -8.558019 31.584163 0.042354 1.845186 0.085775 -0.026808 -662714.000000 0 0 1
29.332751 0.776803 -7.738019 30.346180 0.026476 1.828635 0.094768 -0.027159 446441.000000 0 0 1
29.477251 -0.624597 -7.327519 30.380766 -0.021186 1.814388 0.090943 -0.022861 -196531.000000 0 0 1
29.284431 -1.708697 -8.440119 30.524304 -0.058282 1.850952 0.080556 -0.021831 -1135370.000000 0 0 1
30.231781 -1.732297 -9.413719 31.710874 -0.057238 1.872200 0.087314 -0.023336 -438095.000000 0 0 1
30.115961 -2.969097 -10.068419 31.892941 -0.098271 1.891985 0.067226 -0.019843 -180243.000000 0 0 1
31.042011 -3.185097 -11.296419 33.186750 -0.102248 1.918127 0.074590 -0.021506 450369.000000 0 0 1
32.394011 -3.393597 -10.871219 34.337615 -0.104379 1.892937 0.105091 -0.018929 844096.000000 0 0 1
33.157901 -4.009897 -11.936919 35.468517 -0.120349 1.914047 0.084638 -0.022455 -454207.000000 0 0 1
34.571291 -4.359997 -11.533519 36.704302 -0.125454 1.890440 0.113800 -0.017645 -887753.000000 0 0 1
34.726691 -5.509497 -10.750919 36.767919 -0.157342 1.867531 0.105017 -0.023021 -32636.100000 0 0 1
36.062601 -5.717997 -10.369219 37.956915 -0.157248 1.847498 0.115963 -0.016642 -214766.000000 0 0 1
-36.126963 -7.050797 -9.562919 38.030522 0.192744 1.824978 0.106555 -0.026711 -218061.000000 0 0 1
35.899031 -6.984097 -8.193519 37.478684 -0.192148 1.791194 0.090590 -0.012598 491924.000000 0 0 1
35.623141 -8.229297 -7.536619 37.330016 -0.227027 1.774085 0.084097 -0.013498 -473689.000000 0 0 1
35.198221 -7.933697 -6.085819 36.590921 -0.221696 1.737893 0.077919 -0.011857 -375089.000000 0 0 1
36.181461 -7.764497 -5.059619 37.349501 -0.211393 1.706681 0.083542 -0.011044 477624.000000 0 0 1
-35.892569 -8.865097 -4.170819 37.205674 0.242143 1.683134 0.082100 -0.019645 -7526.550000 0 0 1
-35.334631 -10.215897 -4.649519 37.074503 0.281444 1.696538 0.080896 -0.019368 -407158.000000 0 0 1
36.052361 -10.990797 -5.283119 38.058924 -0.295906 1.710060 0.062034 -0.022900 223638.000000 0 0 1
-35.801197 -12.134197 -5.943819 38.266087 0.326782 1.726756 0.056805 -0.021260 178365.000000 0 0 1
35.870651 -12.437897 -7.329319 38.666831 -0.333770 1.761501 0.054684 -0.021893 14043.500000 0 0 1
36.036141 -11.481897 -8.351319 38.732182 -0.308452 1.788120 0.071150 -0.021571 451167.000000 0 0 1
35.499911 -12.052597 -9.562419 38.690420 -0.327300 1.820536 0.075276 -0.015807 104618.000000 0 0 1
35.912911 -11.093797 -10.697819 39.080082 -0.299609 1.848077 0.064138 -0.023583 -455336.000000 0 0 1
35.073711 -10.000797 -10.853619 38.052361 -0.277765 1.860041 0.070127 -0.021287 77412.000000 0 0 1
35.244131 -9.458497 -12.164919 38.465532 -0.262193 1.892576 0.070126 -0.022292 -6046.370000 0 0 1
34.050741 -8.599697 -12.655519 37.330549 -0.247382 1.916663 0.070527 -0.019681 -63711.200000 0 0 1
34.386401 -7.951097 -13.823619 37.904313 -0.227234 1.944105 0.079261 -0.014257 707572.000000 0 0 1
33.286321 -7.176497 -14.296119 36.930479 -0.212349 1.968290 0.068630 -0.012613 179123.000000 0 0 1
33.618431 -6.232197 -15.445619 37.518080 -0.183300 1.995098 0.063591 -0.015239 86716.400000 0 0 1
34.592531 -5.227897 -15.186419 38.139237 -0.149993 1.980332 0.063621 -0.005738 426840.000000 0 0 1
34.297731 -4.091797 -16.032119 38.080257 -0.118741 2.005353 0.073375 -0.014272 301711.000000 0 0 1
35.389181 -2.970797 -16.108919 38.996372 -0.083750 1.996638 0.072676 -0.020174 -852252.000000 0 0 1
-35.971853 -3.270997 -16.974419 39.909956 0.090683 2.010109 0.079972 -0.020204 -29115.000000 0 0 1
-34.770086 -2.487897 -16.831719 38.709886 0.071431 2.020631 0.086021 -0.016943 586892.000000 0 0 1
-34.749191 -0.928797 -16.746719 38.585250 0.026722 2.019745 0.075522 -0.010617 -977419.000000 0 0 1
-35.285804 -0.153797 -17.799719 39.521407 0.004359 2.037989 0.061301 -0.016644 312052.000000 0 0 1
-35.237483 1.166303 -17.375219 39.305709 -0.033086 2.028683 0.072209 -0.024066 -291250.000000 0 0 1
-35.530517 2.165703 -18.506719 40.119902 -0.060878 2.050240 0.041732 -0.020826 -979573.000000 0 0 1
-34.547887 2.288203 -19.449319 39.712320 -0.066136 2.082605 0.058516 -0.019651 -439717.000000 0 0 1
-34.394073 3.614703 -19.902619 39.901536 -0.104712 2.093002 0.046744 -0.013687 -66791.900000 0 0 1
-33.434563 3.764503 -21.098319 39.713733 -0.112121 2.130883 0.044216 -0.009012 431959.000000 0 0 1
-32.041093 3.563103 -20.875419 38.407167 -0.110749 2.145432 0.055608 -0.012105 486867.000000 0 0 1
-31.327723 3.956403 -21.990219 38.479203 -0.125626 2.179108 0.053099 -0.006874 -495991.000000 0 0 1
-29.856443 4.351603 -21.846319 37.250575 -0.144732 2.197489 0.072836 -0.016227 -143593.000000 0 0 1
-28.960723 3.258303 -21.688719 36.328234 -0.112037 2.210579 0.074243 -0.007149 580991.000000 0 0 1
-27.658693 3.797103 -21.467519 35.217548 -0.136431 2.226313 0.060779 -0.000947 -296757.000000 0 0 1
-26.653713 2.842003 -20.917519 34.000588 -0.106226 2.233449 0.078473 -0.011540 -737712.000000 0 0 1
-26.682693 2.913203 -19.530419 33.194731 -0.108749 2.199824 0.084227 -0.006242 -287990.000000 0 0 1
-25.940893 1.958903 -18.910819 32.161877 -0.075371 2.199366 0.080889 -0.012308 -930483.000000 0 0 1
-25.241583 2.384703 -17.633019 30.882806 -0.094196 2.178478 0.079692 -0.014919 23074.600000 0 0 1
-24.170633 3.297103 -17.841819 30.222854 -0.135573 2.202279 0.077376 -0.006028 208183.000000 0 0 1
-23.553733 3.664803 -16.627819 29.063611 -0.154356 2.179882 0.077001 -0.012993 300268.000000 0 0 1
-22.300133 4.581503 -16.821819 28.306531 -0.202628 2.207158 0.065541 -0.014647 1135100.000000 0 0 1
-21.132133 3.946103 -17.355619 27.628903 -0.184609 2.249994 0.072073 -0.016341 558682.000000 0 0 1
-19.962733 4.707903 -17.153219 26.737763 -0.231603 2.267294 0.060743 -0.015601 174450.000000 0 0 1
-18.681233 4.138003 -17.820019 26.146981 -0.217986 2.320651 0.071138 -0.018604 -16321.500000 0 0 1
-18.310433 2.987503 -17.092519 25.226005 -0.161733 2.315257 0.087489 -0.019100 -185058.000000 0 0 1
-17.240233 2.283303 -17.667819 24.790945 -0.131674 2.364097 0.067338 -0.022637 -954292.000000 0 1 0
-17.143133 0.753203 -17.261319 24.339422 -0.043908 2.359148 0.062870 -0.021627 318853.000000 0 1 0
-18.167333 -0.078497 -17.773919 25.415947 0.004321 2.345244 0.054692 -0.017225 911465.000000 0 0 1
-19.524133 0.208203 -17.407919 26.158570 -0.010663 2.298929 0.058969 -0.020610 -123248.000000 0 0 1
-20.468733 -0.884497 -17.846419 27.170684 0.043185 2.287398 0.060118 -0.020912 -557609.000000 0 0 1
-20.293033 -2.050897 -17.038619 26.576830 0.100722 2.266737 0.045879 -0.016243 42943.900000 0 0 1
-21.163233 -2.998097 -17.541219 27.650776 0.140729 2.258008 0.059114 -0.012603 -422535.000000 0 0 1
-21.422433 -4.131297 -16.555119 27.387227 0.190510 2.219913 0.075360 -0.017322 -83102.000000 0 0 1
-22.148133 -3.668497 -15.435319 27.244206 0.164144 2.173114 0.069720 -0.019157 280763.000000 0 0 1
-22.454533 -4.812897 -14.605919 27.215858 0.211145 2.137281 0.076558 -0.027762 34928.800000 0 0 1
-22.676733 -4.411397 -13.118819 26.566860 0.192134 2.087255 0.067886 -0.026814 369009.000000 0 0 1
-23.702833 -3.412497 -13.014919 27.255413 0.142987 2.068623 0.064280 -0.025579 696907.000000 0 0 1
-23.964333 -3.013097 -11.663219 26.821609 0.125076 2.020661 0.072898 -0.031886 -748683.000000 0 0 1
-25.015233 -1.925697 -11.665719 27.668741 0.076829 2.006028 0.105470 -0.033055 -683792.000000 0 0 1
-25.308403 -1.460697 -10.374819 27.391345 0.057652 1.959255 0.096958 -0.033148 344541.000000 0 0 1
-25.693053 -0.128897 -10.328319 27.691583 0.005017 1.953012 0.107358 -0.036244 -423791.000000 0 0 1
-26.099753 0.408003 -8.919819 27.584901 -0.015631 1.900073 0.116869 -0.029747 -167110.000000 0 0 1
-25.057643 0.365103 -7.952619 26.291880 -0.014569 1.878084 0.089843 -0.029928 485850.000000 0 0 1
-25.435093 0.851403 -6.656919 26.305578 -0.033461 1.826639 0.091402 -0.031548 171580.000000 0 0 1
-24.194533 1.119903 -5.741819 24.891728 -0.046254 1.803564 0.058163 -0.024067 131056.000000 0 1 0
-23.787733 2.475703 -5.796019 24.608519 -0.103701 1.808559 0.075744 -0.023717 1000770.000000 0 1 0
-22.455933 2.602703 -5.274119 23.213344 -0.115388 1.800000 0.062342 -0.009356 280893.000000 0 1 0
-21.990233 4.065603 -5.280919 22.977981 -0.182818 1.802694 0.067705 -0.015146 -37302.500000 0 1 0
-22.615633 4.894003 -4.267319 23.529304 -0.213113 1.753167 0.079193 -0.018313 883310.000000 0 1 0
-22.190133 6.207803 -4.539919 23.485095 -0.272782 1.765332 0.070368 -0.024637 -295619.000000 0 1 0
-22.863833 7.260703 -3.663219 24.267094 -0.307491 1.722330 0.087313 -0.022013 -497295.000000 0 1 0
-22.409833 7.353003 -2.299519 23.697153 -0.317047 1.667987 0.090461 -0.018367 1021190.000000 0 1 0
-21.119833 7.868203 -1.970919 22.623892 -0.356621 1.658024 0.099759 -0.014986 279222.000000 0 1 0
-20.694433 9.308203 -2.430819 22.821286 -0.422681 1.677514 0.098337 -0.017134 -516835.000000 0 1 0
-20.389833 9.579803 -3.769319 22.841316 -0.439224 1.736577 0.068853 -0.018293 700607.000000 0 1 0
-19.942733 10.945703 -3.895219 23.080159 -0.501965 1.740377 0.083767 -0.012599 -299971.000000 0 1 0
-19.709033 11.379203 -5.341819 23.376640 -0.523606 1.801344 0.078463 -0.017281 230343.000000 0 1 0
-18.521033 10.918203 -5.986419 22.317550 -0.532665 1.842360 0.045988 -0.012472 766024.000000 0 1 0
-18.543033 11.481603 -7.308119 23.001737 -0.554408 1.894121 0.051500 -0.008444 -117417.000000 0 1 0
-17.348933 11.008803 -8.150819 22.104639 -0.565439 1.948447 0.046301 -0.013366 -276312.000000 0 1 0
-17.280133 9.617503 -8.492719 21.522677 -0.507869 1.976422 0.058263 -0.011732 285544.000000 0 1 0
-18.098433 9.206303 -9.588819 22.455617 -0.470567 2.011982 0.052011 -0.005938 -179091.000000 0 1 0
-17.994133 9.906403 -10.965319 23.284413 -0.503254 2.061141 0.050414 -0.007529 93502.900000 0 1 0
-16.781633 9.739303 -11.675319 22.644874 -0.525849 2.112485 0.040507 -0.009323 221909.000000 0 1 0
-16.925233 10.388703 -12.899019 23.680654 -0.550505 2.146836 0.042687 -0.012358 531148.000000 0 1 0
-15.828833 9.912903 -13.921919 23.294580 -0.559502 2.211359 0.033692 -0.003164 26511.400000 0 1 0
-15.898733 8.634703 -14.574719 23.232526 -0.497535 2.248931 0.039978 -0.012948 -615.182000 0 1 0
-15.611433 7.480603 -13.844619 22.166410 -0.446849 2.245385 0.030551 -0.009627 -262838.000000 0 1 0
-15.787733 6.195703 -14.725819 22.460833 -0.373970 2.285803 0.047039 -0.007110 -95579.500000 0 1 0
-14.879833 5.971603 -15.785019 22.499696 -0.381645 2.348389 0.062153 -0.009322 230238.000000 0 1 0
-15.062233 4.703903 -16.448319 22.793525 -0.302701 2.376939 0.065444 -0.010088 -137243.000000 0 1 0
32.173581 -16.046197 28.379091 45.803848 -0.462638 0.902590 -0.013879 0.000221 -168013.000000 0 0 1
31.352731 -14.910797 28.631521 45.000995 -0.443923 0.881179 -0.011722 0.006918 -113696.000000 0 0 1
30.471071 -14.989497 29.748791 45.146004 -0.457167 0.851379 -0.002852 0.000509 420.086000 0 0 1
30.961771 -14.954797 31.216971 46.441107 -0.449962 0.833642 -0.013281 -0.006036 -128080.000000 0 0 1
31.542651 -13.742997 31.669601 46.762938 -0.410895 0.826795 -0.022790 -0.001969 -30385.500000 0 0 1
31.620581 -13.702197 33.120572 47.797318 -0.408906 0.805240 -0.028215 -0.001141 -121475.000000 0 0 1
32.016511 -12.286997 33.700124 48.080407 -0.366438 0.794121 -0.022789 -0.001647 81984.800000 0 0 1
31.721571 -12.112597 -33.355319 47.597798 -0.364755 2.347279 -0.024630 -0.003902 21254.000000 0 0 1
31.808931 -10.721297 -32.998229 47.070558 -0.325095 2.347648 -0.003642 0.001177 -376174.000000 0 0 1
31.444841 -10.361897 -31.542919 45.728576 -0.318320 2.331989 0.005522 -0.002610 1760650.000000 0 0 1
30.003761 -10.453497 -31.282529 44.588091 -0.335254 2.348422 0.037499 -0.004496 1732400.000000 0 0 1
29.639161 -9.935297 -30.004999 43.330012 -0.323437 2.335712 0.026222 -0.005830 -235383.000000 0 0 1
28.417971 -10.721697 -29.509189 42.347704 -0.360773 2.341766 0.028421 0.007898 -140576.000000 0 0 1
28.102161 -10.411897 -28.141759 41.110797 -0.354821 2.324761 0.018535 0.006830 -663591.000000 0 0 1
27.156881 -11.312897 -27.738939 40.434225 -0.394714 2.326810 0.049708 0.005098 -1348150.000000 0 0 1
26.594781 -11.036197 -26.316369 39.008092 -0.393350 2.311271 0.035956 0.011268 -702155.000000 0 0 1
25.757181 -9.886597 -26.112439 37.987322 -0.366497 2.328698 0.034924 0.008256 1389510.000000 0 0 1
24.574381 -9.534297 -26.883989 37.650390 -0.370099 2.366052 0.037500 0.003266 1068380.000000 0 0 1
23.554181 -10.698597 -26.942299 37.351665 -0.426351 2.376495 0.052540 0.008510 -1293270.000000 0 0 1
24.031481 -11.736097 -27.766279 38.551450 -0.454295 2.374944 0.045780 0.006677 -646349.000000 0 0 1
23.448381 -12.980997 -27.523069 38.416821 -0.505602 2.369472 0.058062 -0.007305 -145312.000000 0 0 1
24.244081 -14.216397 -28.048549 39.706454 -0.530349 2.355192 0.039556 0.008496 79344.400000 0 0 1
24.284381 -14.238297 -29.428049 40.724321 -0.530296 2.378376 0.037394 0.001891 319316.000000 0 0 1
25.258781 -15.067297 -30.069759 42.062095 -0.537855 2.367263 0.036169 0.010374 82916.000000 0 0 1
25.123781 -15.215697 -31.585259 43.131779 -0.544548 2.392485 0.049759 -0.000775 -170455.000000 0 0 1
23.876081 -15.639097 -32.104149 42.957246 -0.579890 2.414863 0.065875 -0.002767 85191.400000 0 0 1
23.885281 -16.058397 -33.482799 44.152877 -0.591902 2.431556 0.064821 -0.004758 -58231.900000 0 0 1
24.083281 -14.978197 33.814529 44.133583 -0.556391 0.697912 0.056592 -0.010068 115772.000000 0 0 1
23.145881 -13.918497 33.757937 43.232565 -0.541403 0.674779 0.075084 -0.016837 -46915.200000 0 0 1
23.309481 -13.097697 32.594812 42.158075 -0.511937 0.686992 0.072567 -0.016535 -752923.000000 0 0 1
22.298081 -11.985997 32.586208 41.264142 -0.493223 0.660480 0.085542 -0.027345 191261.000000 0 0 1
20.919981 -12.313497 32.455558 40.529385 -0.531995 0.642182 0.075166 -0.019564 530444.000000 0 0 1
20.419381 -12.696197 31.160331 39.358744 -0.556275 0.657209 0.068100 -0.018148 943370.000000 0 0 1
18.843881 -12.885597 31.310391 38.748819 -0.599776 0.629988 0.064728 -0.016339 1579570.000000 0 0 1
18.100181 -11.692497 31.531511 38.191193 -0.573550 0.599492 0.068959 -0.020199 -846338.000000 0 0 1
17.094081 -11.847897 32.431255 38.527478 -0.606080 0.570244 0.042176 -0.014590 -622395.000000 0 0 1
16.246481 -10.584797 32.739373 38.050658 -0.577438 0.534712 0.051504 -0.019643 -998853.000000 0 0 1
15.508381 -10.206097 31.641951 36.686337 -0.582050 0.530608 0.059676 -0.020710 -444594.000000 0 0 1
14.801781 -8.996997 31.897631 36.297348 -0.546158 0.497482 0.065750 -0.025463 930147.000000 0 0 1
13.551781 -9.040797 32.866020 36.681903 -0.588323 0.460178 0.066262 -0.025378 -730482.000000 0 0 1
12.615381 -9.982497 32.439411 36.209300 -0.669411 0.460375 0.059597 -0.021509 -1089240.000000 0 0 1
11.458681 -10.087397 33.168591 36.513180 -0.721840 0.431354 0.045193 -0.017299 -149193.000000 0 0 1
10.327081 -9.097897 32.698425 35.476856 -0.722204 0.398399 0.053952 -0.021579 -194853.000000 0 0 1
10.682981 -7.712297 32.837989 35.382751 -0.625289 0.381576 0.064971 -0.026051 -40396.200000 0 0 1
9.573181 -6.918497 32.524205 34.602533 -0.625796 0.348350 0.067884 -0.022732 -199327.000000 0 0 1
9.922881 -5.415297 32.473360 34.384707 -0.499565 0.334992 0.062005 -0.021457 -41492.500000 0 0 1
10.125481 -4.804597 33.746941 35.559324 -0.443045 0.320646 0.063572 -0.027203 359738.000000 0 0 1
10.574881 -3.442197 33.593204 35.386158 -0.314690 0.319694 0.041435 -0.024164 -226097.000000 0 0 1
10.423081 -2.703797 -33.541819 35.227897 -0.253810 2.830952 0.036517 -0.022627 -498052.000000 0 0 1
9.082981 -2.414697 -33.269479 34.571513 -0.259838 2.866272 0.037698 -0.008917 -514563.000000 0 0 1
8.979681 -1.669297 -32.072009 33.347188 -0.183799 2.864155 0.042433 -0.006783 562216.000000 0 0 1
7.513681 -1.271297 -31.709789 32.612610 -0.167610 2.905746 0.032996 0.000222 269348.000000 0 0 1
7.035081 -0.328497 -32.654799 33.405631 -0.046660 2.929174 0.034218 -0.007804 27200.700000 0 0 1
5.652081 -0.128497 -32.415209 32.904533 -0.022731 2.968919 0.047771 -0.007820 369246.000000 0 0 1
4.913081 0.774703 -33.454539 33.822251 0.156394 2.994001 0.046487 -0.012418 124308.000000 0 0 1
5.324081 2.140403 -33.375039 33.864736 0.382249 2.971326 0.055868 -0.012897 -127638.000000 0 0 1
4.666181 2.961303 34.125980 34.570580 0.565495 0.160551 0.045094 -0.013632 -268551.000000 0 0 1
5.139481 4.462203 34.078389 34.751433 0.714977 0.197131 0.056625 -0.016108 -107823.000000 0 0 1
4.758981 5.325803 33.120979 33.882315 0.841545 0.212390 0.070097 -0.031911 -663071.000000 0 0 1
5.672981 6.357803 33.077132 34.157005 0.842259 0.252123 0.070251 -0.032455 -612698.000000 0 0 1
5.390181 7.502303 32.082531 33.386035 0.947782 0.280357 0.076159 -0.032230 1030230.000000 0 0 1
4.200381 8.348103 32.318371 33.642400 1.104629 0.281485 0.078546 -0.021028 1385320.000000 0 0 1
4.068481 9.455803 31.514231 33.152850 1.164476 0.315718 0.075221 -0.031560 -306907.000000 0 0 1
3.642081 9.224103 30.059591 31.653243 1.194743 0.318671 0.072444 -0.025708 261294.000000 0 0 1
2.283581 8.883903 29.824841 31.203519 1.319196 0.298371 0.072232 -0.024436 105764.000000 0 0 1
2.040081 8.755203 28.428771 29.816279 1.341868 0.306270 0.054933 -0.013785 -240946.000000 0 0 1
0.796181 8.005403 27.935391 29.070714 1.471667 0.280395 0.058436 -0.009561 -196793.000000 0 0 1
-0.362019 8.648803 28.410051 29.699559 -1.528963 0.295758 0.059945 -0.004107 -668279.000000 0 0 1
-1.451219 8.474703 27.552381 28.862784 -1.401200 0.302486 0.053388 -0.006202 455333.000000 0 0 1
-2.862419 8.754403 28.156731 29.624896 -1.254784 0.316143 0.042596 -0.003740 229666.000000 0 0 1
-3.113819 10.107903 28.343441 30.252540 -1.271963 0.357157 0.044290 -0.000144 -966837.000000 0 0 1
-4.357319 10.174303 28.938381 30.982778 -1.166162 0.365304 0.037824 0.004512 -1001930.000000 0 0 1
-4.560319 11.457803 29.750921 32.205512 -1.192007 0.392950 0.019693 -0.002656 -123544.000000 0 0 1
-4.666719 12.730003 29.158671 32.156793 -1.219417 0.435248 0.016081 -0.007990 -32318.700000 0 0 1
-5.781119 12.867603 28.318821 31.637828 -1.148544 0.462155 0.012635 -0.008337 -316412.000000 0 0 1
-5.908019 14.277303 27.719451 31.735060 -1.178446 0.508523 -0.006169 -0.008963 -279354.000000 0 0 1
-4.907419 14.658103 26.837271 30.970661 -1.247733 0.522572 0.000032 -0.001112 -293722.000000 0 0 1
-5.277119 15.909303 26.314281 31.199283 -1.250516 0.567168 -0.009189 0.001774 -368595.000000 0 0 1
-4.118819 16.641703 25.641221 30.844499 -1.328172 0.589343 0.021703 0.002086 -422222.000000 0 0 1
-3.871919 16.159603 24.348511 29.478373 -1.335625 0.598860 0.025804 0.001631 -330488.000000 0 0 1
-3.070619 17.051203 23.663231 29.327815 -1.392624 0.631991 0.035390 -0.000262 -404196.000000 0 0 1
-3.071819 16.707003 22.166251 27.926738 -1.388963 0.653882 0.040544 -0.001764 -373413.000000 0 0 1
-2.473819 15.496103 21.856251 26.906220 -1.412491 0.622691 0.028886 -0.005151 4363.910000 0 0 1
-2.160819 15.422803 20.450751 25.705353 -1.431597 0.650827 0.033398 -0.005490 151265.000000 0 0 1
-1.326419 14.193803 19.965551 24.532563 -1.477616 0.620068 0.029646 -0.008356 110389.000000 0 1 0
-1.995219 12.955503 20.100451 23.996960 -1.417991 0.577876 0.028228 -0.003689 103384.000000 0 1 0
-1.221319 12.045003 19.322851 22.802330 -1.469745 0.559714 0.025591 -0.007801 -47219.900000 0 1 0
-1.907519 10.660003 19.034851 21.899768 -1.393729 0.517254 0.019150 -0.014064 -317086.000000 0 1 0
-2.140219 9.777503 20.107651 22.461027 -1.355303 0.461863 0.028698 -0.018363 -78408.400000 0 1 0
-3.061919 10.193103 21.084651 23.618577 -1.278981 0.467462 0.039233 -0.010669 -589123.000000 0 1 0
-4.560719 10.016503 20.823551 23.553147 -1.143527 0.486212 0.029064 -0.006978 -308126.000000 0 1 0
-5.140819 8.729003 21.053551 23.363979 -1.038552 0.448470 0.020947 -0.009746 -1634.090000 0 1 0
-6.530719 8.745203 20.829351 23.515755 -0.929361 0.482664 0.018839 -0.008242 -99531.900000 0 1 0
-7.109319 7.313103 20.957051 23.307120 -0.799527 0.452929 0.010258 -0.008548 -224834.000000 0 1 0
-7.072019 6.846903 22.261751 24.340893 -0.769226 0.416322 0.013820 -0.006286 204091.000000 0 1 0
-7.892619 5.703903 22.448051 24.469224 -0.625791 0.409301 0.012524 -0.002863 24602.100000 0 1 0
-7.958519 5.054103 23.883961 25.677335 -0.565798 0.375955 0.012069 -0.003022 -311176.000000 0 0 1
-8.743319 5.619103 24.898411 26.980563 -0.571208 0.395439 0.000605 -0.001458 13797.100000 0 0 1
-8.745819 4.784303 26.019351 27.863695 -0.500567 0.365883 0.005831 0.006660 21920.700000 0 0 1
-9.788019 5.330103 27.036451 29.243546 -0.498652 0.391003 0.005545 0.004585 -103311.000000 0 0 1
-9.343719 6.510603 27.658511 29.911306 -0.608568 0.390591 0.010986 0.002380 15893.800000 0 0 1
-10.243919 6.997303 28.628181 31.200526 -0.599272 0.408911 0.013754 -0.004359 142688.000000 0 0 1
-9.595919 8.207903 29.375691 31.974717 -0.707594 0.405979 0.020734 0.001850 -437408.000000 0 0 1
-8.559719 7.846503 30.205161 32.360286 -0.741953 0.367016 0.027126 0.001578 -734587.000000 0 0 1
-8.062419 9.030303 30.809291 33.102286 -0.841963 0.374392 0.033471 -0.006624 262822.000000 0 0 1
-7.022619 8.574203 31.878371 33.750032 -0.884553 0.334595 0.048942 -0.008164 938162.000000 0 0 1
-5.702419 8.257403 31.433461 32.996435 -0.966419 0.309020 0.044162 -0.003906 542452.000000 0 0 1
-4.890319 7.618003 32.468538 33.706900 -1.000106 0.271906 0.064653 -0.005473 722725.000000 0 0 1
-3.428019 7.464103 31.990821 33.028423 -1.140262 0.251322 0.050739 -0.004361 339917.000000 0 0 1
-2.807819 8.752503 31.930721 33.227414 -1.260366 0.280290 0.043798 -0.006720 398431.000000 0 0 1
-1.391819 8.758403 31.713631 32.930247 -1.413202 0.272672 0.049495 -0.010059 904635.000000 0 0 1
-0.874119 10.086603 31.146271 32.750478 -1.484351 0.314286 0.052866 -0.015928 -119776.000000 0 0 1
-0.747419 11.090003 32.186251 34.051454 -1.503502 0.332516 0.046050 -0.025106 -31399.800000 0 0 1
-1.386919 12.259303 31.730941 34.045068 -1.458143 0.370828 0.030821 -0.024922 -104567.000000 0 0 1
-1.541619 13.350503 32.855659 35.497983 -1.455833 0.388273 0.025797 -0.033930 -632351.000000 0 0 1
-0.369119 14.040203 33.163231 36.014767 -1.544512 0.400610 0.064245 -0.031910 -531986.000000 0 0 1
-0.548719 14.732803 -34.090235 37.141630 -1.533569 2.733412 0.061341 -0.033154 473066.000000 0 0 1
0.844881 15.134803 -33.530279 36.797496 1.515030 2.717010 0.063934 -0.032210 368037.000000 0 0 1
1.440281 16.251903 34.210421 37.901868 1.482405 0.445013 0.063495 -0.032309 42823.900000 0 0 1
2.656881 16.586903 -33.616599 37.580049 1.411966 2.678182 0.079242 -0.030800 1226.420000 0 0 1
3.577181 17.550803 34.043141 38.467679 1.369732 0.484344 0.097639 -0.020664 267742.000000 0 0 1
2.973381 18.820003 33.889096 38.878070 1.414101 0.512184 0.085835 -0.016949 -36625.900000 0 0 1
3.864681 19.645003 33.215891 38.783467 1.376551 0.542454 0.073536 -0.004852 -97457.300000 0 0 1
3.468881 21.115103 33.414067 39.678465 1.407966 0.569592 0.074780 -0.007561 -142166.000000 0 0 1
3.674281 21.668003 -33.734599 40.261965 1.402822 2.564180 0.084379 -0.022118 157323.000000 0 0 1
3.106881 22.931203 -33.621449 40.815372 1.436129 2.538781 0.076618 -0.021785 -124684.000000 0 0 1
3.409881 23.501503 -32.212499 40.019908 1.426710 2.506323 0.071236 -0.019626 -43152.200000 0 0 1
3.091281 24.849903 -32.063219 40.683211 1.447034 2.478544 0.071724 -0.021127 236583.000000 0 0 1
2.879381 25.252203 -30.702159 39.857084 1.457262 2.450118 0.074832 -0.027856 48971.300000 0 0 1
2.551381 26.756503 -30.518169 40.666677 1.475728 2.419534 0.081354 -0.030818 422385.000000 0 0 1
3.737281 27.534203 -30.609229 41.340349 1.435888 2.404492 0.077309 -0.034964 527421.000000 0 0 1
3.410881 28.836203 -30.126159 41.841919 1.453059 2.374598 0.071208 -0.033445 -342259.000000 0 0 1
4.553481 29.864003 -30.045839 42.606869 1.419488 2.353484 0.079548 -0.034761 130489.000000 0 0 1
5.359381 29.775003 -28.853489 41.806669 1.392707 2.332513 0.065457 -0.035657 643855.000000 0 0 1
6.224681 30.920003 -28.714959 42.653747 1.372136 2.309339 0.058143 -0.034679 -531869.000000 0 0 1
7.422881 30.712303 -27.744989 42.049127 1.333653 2.291380 0.059180 -0.032636 578332.000000 0 0 1
8.493381 30.018903 -28.411699 42.195932 1.295069 2.309497 0.056300 -0.028461 97984.100000 0 0 1
9.565281 30.684803 -29.007099 43.295075 1.268616 2.304986 0.064000 -0.029171 -514456.000000 0 0 1
9.403181 31.924703 -29.882599 44.727801 1.284354 2.302447 0.064055 -0.027203 -1532580.000000 0 0 1
8.976481 33.014703 -29.125839 44.931752 1.305321 2.276046 0.067542 -0.025313 207148.000000 0 0 1
8.467681 34.174303 -29.804119 46.128842 1.327909 2.273268 0.049912 -0.018610 732701.000000 0 0 1
7.147181 34.021503 -30.658289 46.351651 1.363729 2.293518 0.036835 -0.013557 372031.000000 0 0 1
7.283081 33.166303 -31.812949 46.530749 1.354634 2.323613 0.025110 -0.010290 358323.000000 0 0 1
6.007981 33.007403 -32.428759 46.660571 1.390748 2.339206 0.033526 -0.008841 354674.000000 0 0 1
6.009881 32.108203 -33.659489 46.904334 1.385762 2.371175 0.037683 -0.018889 39636.700000 0 0 1
6.815081 32.701503 33.775758 47.504057 1.365334 0.779866 0.047153 -0.016733 155520.000000 0 0 1
6.691881 32.166603 32.451349 46.179667 1.365684 0.791584 0.046845 -0.019887 -427459.000000 0 0 1
5.773281 33.061603 31.576331 46.081070 1.397918 0.815871 0.053362 -0.025299 143285.000000 0 0 1
6.384081 34.218703 31.038401 46.637522 1.386350 0.842600 0.052799 -0.018775 318243.000000 0 0 1
5.591681 -33.873443 29.969581 45.572501 -1.407196 0.853136 0.039195 -0.027299 225746.000000 0 0 1
17.846967 -22.100597 29.810621 41.177952 -0.891479 0.761291 0.075647 -0.007700 -819544.000000 0 0 1
16.927867 -21.097097 30.085641 40.457211 -0.894606 0.732296 0.067534 -0.010175 524278.000000 0 0 1
15.567767 -21.571797 30.099021 40.170248 -0.945673 0.723812 0.071018 -0.011590 796735.000000 0 0 1
15.106367 -22.127897 31.485641 41.342372 -0.971786 0.705044 0.066374 -0.011110 -520089.000000 0 0 1
15.812767 -23.320497 31.912871 42.571357 -0.974945 0.723290 0.079906 -0.011841 439339.000000 0 0 1
15.546267 -23.606997 33.272559 43.658217 -0.988438 0.704224 0.059886 -0.009191 222935.000000 0 0 1
16.441667 -24.769297 33.810871 45.022455 -0.984786 0.721254 0.061895 -0.007433 341821.000000 0 0 1
16.021667 -26.029837 33.334792 45.226702 -1.019049 0.742087 0.063105 -0.008602 160755.000000 0 0 1
16.697767 -27.032467 34.086167 46.598674 -1.017469 0.750301 0.061821 -0.008632 264109.000000 0 0 1
16.276067 -28.459347 33.726614 47.035404 -1.051291 0.771239 0.060513 -0.006938 346888.000000 0 0 1
17.128267 -28.973157 32.678870 46.911937 -1.036890 0.800148 0.057180 -0.014289 442446.000000 0 0 1
16.737067 -30.259247 32.140331 47.209663 -1.065559 0.821942 0.062678 -0.020674 -405564.000000 0 0 1
17.637767 -30.824707 31.052391 47.175251 -1.051072 0.852325 0.062218 -0.024792 -338015.000000 0 0 1
18.689767 -31.566897 31.600901 48.418935 -1.036229 0.859712 0.077488 -0.032017 -93544.800000 0 0 1
19.538267 -32.139207 30.614081 48.496334 -1.024569 0.887612 0.071243 -0.028097 -736410.000000 0 0 1
20.918167 -32.621717 30.993611 49.622072 -1.000608 0.896186 0.067977 -0.031226 -592268.000000 0 0 1
21.829767 -31.549827 31.146501 49.416948 -0.965518 0.888883 0.068475 -0.029723 234575.000000 0 0 1
23.059867 -31.964697 31.711811 50.587926 -0.945841 0.893273 0.064649 -0.029980 -52193.800000 0 0 1
24.141467 -30.877437 31.752841 50.442734 -0.907222 0.889909 0.049880 -0.028139 -104309.000000 0 0 1
24.803867 -30.699877 30.494881 49.876367 -0.891229 0.912956 0.044259 -0.023711 -197574.000000 0 0 1
25.614767 -29.554107 30.573671 49.641825 -0.856682 0.907287 0.029751 -0.020327 -44784.800000 0 0 1
26.717767 -29.501807 29.497601 49.540934 -0.834879 0.933010 0.018646 -0.016784 -122820.000000 0 0 1
27.746067 -30.433787 29.676021 50.761460 -0.831562 0.946388 0.011625 -0.008222 -968841.000000 0 0 1
28.713967 -30.373167 28.702081 50.703359 -0.813471 0.969055 0.006836 -0.018045 -574595.000000 0 0 1
29.874067 -31.327627 29.039121 52.126295 -0.809144 0.979917 -0.010684 -0.001927 -341479.000000 0 0 1
29.586767 -32.694967 29.110661 52.837186 -0.835262 0.987294 -0.002863 -0.006236 -164168.000000 0 0 1
30.720767 -33.507527 29.376861 54.125039 -0.828759 0.997078 0.006709 -0.003723 -660729.000000 0 0 1
30.312467 33.687818 29.766561 54.219580 0.838089 0.989629 0.006410 -0.004488 -230544.000000 0 0 1
29.730467 33.526695 31.068671 54.527077 0.845339 0.964553 0.021286 0.002803 -57232.400000 0 0 1
28.669167 34.246897 31.596331 54.709224 0.873821 0.955094 0.011114 0.005269 683622.000000 0 0 1
27.311967 34.296346 30.755971 53.554763 0.898284 0.959060 0.016190 0.001965 729318.000000 0 0 1
26.606067 33.079835 30.732441 52.408408 0.893440 0.944185 0.008895 0.005479 448452.000000 0 0 1
25.241867 33.135012 30.308681 51.514046 0.919793 0.941770 0.021706 0.001069 724698.000000 0 0 1
24.528067 31.805319 30.429141 50.389850 0.913869 0.922443 0.036368 -0.012090 -203773.000000 0 0 1
24.668167 30.898969 29.386131 49.262657 0.897063 0.931639 0.030277 -0.003854 150208.000000 0 0 1
23.868267 29.748799 29.671411 48.322643 0.894638 0.909644 0.066216 -0.014971 -58001.700000 0 0 1
23.476767 29.084019 28.303171 46.883987 0.891677 0.922681 0.068918 -0.018158 -609504.000000 0 0 1
22.381067 29.747719 27.739301 46.425292 0.925785 0.930412 0.075358 -0.018440 -204251.000000 0 0 1
21.845267 29.123979 26.587751 45.081374 0.927245 0.940019 0.072730 -0.019531 -746921.000000 0 0 1
20.436867 29.584309 26.306491 44.552534 0.966271 0.939168 0.083412 -0.016731 -897909.000000 0 0 1
20.428767 30.890539 25.769211 45.117759 0.986499 0.962885 0.073429 -0.022474 1032910.000000 0 0 1
19.094367 31.432819 25.558931 44.787006 1.024905 0.963466 0.068805 -0.018677 842074.000000 0 0 1
19.014467 32.909269 25.080181 45.536638 1.046872 0.987511 0.080963 -0.018042 -3497.100000 0 0 1
19.530967 33.262268 23.778871 45.313043 1.039856 1.018353 0.080576 -0.015531 447716.000000 0 0 1
20.939967 33.383102 23.620201 45.943744 1.010572 1.030825 0.072864 -0.010596 388164.000000 0 0 1
21.383467 33.594991 22.169851 45.578266 1.003965 1.062817 0.071741 -0.013032 -17976.300000 0 0 1
21.034267 -33.712717 21.789451 45.318515 -1.012969 1.069222 0.064830 -0.006098 405228.000000 0 0 1
21.501767 -33.495967 20.437751 44.743798 -1.000121 1.096432 0.069505 -0.008623 161360.000000 0 0 1
21.042567 -32.097317 19.881951 43.224060 -0.990504 1.092830 0.055607 -0.012266 -90820.300000 0 0 1
21.648967 -30.987227 20.488451 42.996077 -0.960983 1.074105 0.050305 -0.000498 430677.000000 0 0 1
21.056267 -29.757507 20.019451 41.589109 -0.954991 1.068587 0.052938 -0.013320 -37034.200000 0 0 1
21.808267 -29.193127 18.824051 41.014437 -0.929196 1.093970 0.041155 -0.011781 -383848.000000 0 0 1
21.645667 -29.952147 17.590751 40.927992 -0.945014 1.126528 0.029379 -0.021715 180763.000000 0 0 1
22.313867 -29.228107 16.592251 40.342207 -0.918750 1.146930 0.029230 -0.021577 -369989.000000 0 0 1
22.121667 -29.747317 15.129851 40.039772 -0.931370 1.183301 0.002592 -0.017115 -99778.500000 0 0 1
22.765467 -31.006227 14.862751 41.237773 -0.937470 1.202083 0.039136 -0.017430 134339.000000 0 0 1
22.768867 -31.351847 13.463851 41.019933 -0.942678 1.236370 0.039180 -0.017366 -86188.700000 0 0 1
21.442067 -31.608037 12.711051 40.254205 -0.974732 1.249529 0.022308 -0.017786 239392.000000 0 0 1
20.598967 -32.714917 13.025251 40.795102 -1.008860 1.245822 0.026349 -0.013472 -264955.000000 0 0 1
19.494167 -32.824717 12.210151 40.082070 -1.034884 1.261248 0.031640 -0.003665 -759272.000000 0 0 1
18.344867 -33.662677 12.781851 40.411455 -1.071830 1.248977 0.047812 -0.004764 -244255.000000 0 0 1
17.860267 -33.078307 13.986551 40.109689 -1.075710 1.214605 0.042460 -0.001850 295435.000000 0 0 1
18.495367 -33.609437 15.164751 41.250970 -1.067721 1.194346 0.023689 -0.009268 -1066400.000000 0 0 1
18.357667 -32.715697 16.416751 40.949120 -1.059450 1.158291 0.029572 -0.015325 -805630.000000 0 0 1
17.113967 -32.261257 16.844151 40.216936 -1.083063 1.138637 0.039177 -0.017154 -686429.000000 0 0 1
16.158067 -33.225357 17.252651 40.775745 -1.118155 1.133921 0.046511 -0.008949 -400909.000000 0 0 1
16.404967 -34.025547 18.538951 42.077945 -1.121541 1.114545 0.034656 -0.011888 -613319.000000 0 0 1
17.280867 33.492958 18.417051 41.947519 1.094466 1.116255 0.027790 -0.007172 -178585.000000 0 0 1
17.671267 32.924366 19.660951 42.223696 1.078204 1.086441 0.027252 -0.001641 527568.000000 0 0 1
18.392167 31.514589 19.518751 41.381430 1.042517 1.079602 0.037732 -0.009795 465799.000000 0 0 1
17.554167 30.517599 18.995051 40.003557 1.048801 1.076021 0.023845 -0.005961 -19806.500000 0 0 1
18.345467 29.329369 18.978251 39.458105 1.011839 1.069033 0.029446 -0.012467 212809.000000 0 0 1
17.672967 27.986779 18.661151 37.997791 1.007554 1.057431 0.043451 -0.006200 -109704.000000 0 0 1
17.061967 27.445769 19.826651 37.914074 1.014602 1.020504 0.062137 -0.013117 -20676.800000 0 0 1
16.874967 26.087469 19.553251 36.710355 0.996631 1.009084 0.054192 -0.013694 -783775.000000 0 0 1
17.010567 25.214869 20.792851 36.844153 0.977305 0.971156 0.065282 -0.016019 421081.000000 0 0 1
15.803367 25.318629 21.543751 36.809137 1.012787 0.945568 0.064679 -0.015415 489897.000000 0 0 1
14.747367 24.517379 21.048251 35.519228 1.029270 0.936529 0.060016 -0.015002 -1094770.000000 0 0 1
13.490767 24.717639 21.867851 35.653406 1.071187 0.910507 0.064215 -0.022911 -575145.000000 0 0 1
12.843467 25.962319 21.686951 36.184534 1.111401 0.928116 0.059783 -0.019860 642157.000000 0 0 1
11.614067 26.186839 22.385651 36.355941 1.153354 0.907477 0.055374 -0.021887 630709.000000 0 0 1
10.637867 27.216769 21.774151 36.442151 1.198197 0.930418 0.037499 -0.016678 -54291.000000 0 0 1
11.157267 28.555979 21.700551 37.561183 1.198319 0.954841 0.034503 -0.021340 -114921.000000 0 0 1
10.452767 29.356399 20.806051 37.469324 1.228729 0.982094 0.041806 -0.020535 -180802.000000 0 0 1
10.979567 30.803939 20.794351 38.753562 1.228401 1.004418 0.029279 -0.016314 -182875.000000 0 0 1
10.527467 31.614039 21.870851 39.857360 1.249346 0.989954 0.044697 -0.015648 -369522.000000 0 0 1
11.038667 31.363699 23.176651 40.530124 1.232379 0.962052 0.053710 -0.018485 -32259.400000 0 0 1
10.649467 32.329099 24.323021 41.835286 1.252583 0.950348 0.037850 -0.023681 181859.000000 0 0 1
9.350167 32.116069 24.835441 41.661333 1.287491 0.932128 0.034276 -0.017563 -361319.000000 0 0 1
9.116567 32.660041 26.098711 42.789400 1.298590 0.914819 0.035460 -0.024123 -72323.800000 0 0 1
7.624667 32.444019 26.494451 42.575883 1.339975 0.899134 0.070063 -0.035332 325520.000000 0 0 1
6.716367 33.308295 25.775141 42.648681 1.371822 0.921834 0.055133 -0.022903 515943.000000 0 0 1
6.256967 32.836723 24.486861 41.436776 1.382506 0.938566 0.046573 -0.028168 262.645000 0 0 1
5.159867 31.722669 24.526251 40.428813 1.409553 0.918953 0.033983 -0.031161 -281897.000000 0 0 1
5.597267 30.561209 25.165951 39.983021 1.389655 0.889995 0.031928 -0.032185 -400410.000000 0 0 1
4.776567 29.448719 24.896061 38.856872 1.409997 0.875371 0.015724 -0.029390 -613773.000000 0 0 1
5.622967 28.137049 25.042771 38.084796 1.373553 0.853230 0.035737 -0.027867 1091000.000000 0 0 1
6.637067 27.893669 24.006831 37.395660 1.337198 0.873734 0.050756 -0.031328 1239920.000000 0 0 1
7.784967 28.730109 24.010521 38.243038 1.306182 0.892021 0.061640 -0.032019 88529.300000 0 0 1
8.973067 28.214709 24.889121 38.678858 1.262883 0.871759 0.043047 -0.038448 -494948.000000 0 0 1
8.713767 28.226529 26.323831 39.567799 1.271369 0.842922 0.045878 -0.035437 224806.000000 0 0 1
9.775267 27.780249 27.176431 40.073139 1.232449 0.825526 0.062389 -0.019518 704890.000000 0 0 1
11.031367 28.733889 27.220931 41.089007 1.204233 0.846662 0.054186 -0.020897 181588.000000 0 0 1
10.815767 30.025759 27.638021 42.218328 1.225049 0.857083 0.053627 -0.035966 -776650.000000 0 0 1
12.035167 30.659569 27.756821 43.073141 1.196736 0.870543 0.060145 -0.032273 -769583.000000 0 0 1
11.880567 31.984549 28.546611 44.486720 1.215144 0.874099 0.040194 -0.036999 -214910.000000 0 0 1
11.603467 31.835759 29.922061 45.204930 1.221281 0.847419 0.037946 -0.044888 -422746.000000 0 0 1
10.302067 31.630219 30.377501 45.048817 1.255928 0.830747 0.060436 -0.042452 -793931.000000 0 0 1
10.182567 31.543339 31.892511 45.997817 1.258545 0.804671 0.075659 -0.036780 -432799.000000 0 0 1
10.460967 30.238669 32.431960 45.559203 1.237737 0.778648 0.060038 -0.034550 280134.000000 0 0 1
10.523267 30.229769 33.827583 46.571273 1.235807 0.757783 0.079820 -0.029198 -108571.000000 0 0 1
10.515067 28.810309 -34.001779 45.789972 1.220843 2.407680 0.072518 -0.024687 -493366.000000 0 0 1
11.719367 28.138809 -34.219676 45.827092 1.176161 2.413903 0.082699 -0.022108 -195731.000000 0 0 1
11.634667 26.812209 -33.623709 44.551249 1.161385 2.426023 0.078436 -0.023578 626275.000000 0 0 1
13.014367 26.078509 -33.755529 44.597064 1.107912 2.429353 0.078296 -0.018529 729974.000000 0 0 1
12.884867 24.672129 -33.532039 43.579025 1.089512 2.448782 0.062801 -0.023073 -216143.000000 0 0 1
12.971067 24.268439 -32.178619 42.339925 1.079944 2.434119 0.063233 -0.015716 -198296.000000 0 0 1
13.133167 22.761049 -32.115599 41.496471 1.047459 2.455829 0.055698 -0.039802 -713217.000000 0 0 1
14.330067 22.282249 -32.625889 42.027349 0.999276 2.459573 0.045564 -0.026827 -676457.000000 0 0 1
14.392567 20.883249 -32.573019 41.282655 0.967361 2.480016 0.041178 -0.027099 983553.000000 0 0 1
15.816167 20.254749 -32.934599 41.774320 0.907834 2.478989 0.060106 -0.033562 1705380.000000 0 0 1
16.812967 20.500249 -31.926869 41.500133 0.883898 2.448572 0.053732 -0.029171 -234040.000000 0 0 1
17.932867 19.720349 -32.208999 41.807888 0.832835 2.450272 0.064705 -0.029355 -382525.000000 0 0 1
19.192667 20.029049 -31.364179 41.871625 0.806719 2.417432 0.058033 -0.021695 -112916.000000 0 0 1
19.758767 21.222549 -31.864719 43.083242 0.821101 2.403284 0.060331 -0.008512 140345.000000 0 0 1
20.827167 21.732949 -31.050599 43.246175 0.806677 2.371716 0.051353 0.001606 528620.000000 0 0 1
20.463367 22.219849 -29.589079 42.284568 0.826527 2.345859 0.055629 -0.015679 82191.200000 0 0 1
19.598767 23.349249 -29.688049 42.552078 0.872503 2.342961 0.046930 0.001866 106297.000000 0 0 1
19.160367 23.866459 -28.419399 41.765892 0.894341 2.319166 0.041348 -0.002856 177045.000000 0 0 1
20.308967 24.443429 -27.530579 42.046024 0.877522 2.284678 0.037730 -0.006200 383340.000000 0 0 1
21.051167 25.552599 -28.001239 43.360769 0.881689 2.272832 0.037508 0.002689 -395139.000000 0 0 1
20.386967 26.795349 -28.134249 43.876590 0.920394 2.266875 0.029569 0.004604 -553021.000000 0 0 1
21.255667 27.883339 -28.812229 45.380927 0.919465 2.258672 0.026417 0.003031 -525771.000000 0 0 1
21.444267 28.018419 -30.239319 46.468320 0.917535 2.279370 0.037081 -0.000484 45103.800000 0 0 1
21.744967 26.804549 -30.955659 46.363566 0.889238 2.301874 0.040465 0.001669 -98552.000000 0 0 1
23.105267 26.150679 -30.636999 46.436377 0.847148 2.291300 0.055459 -0.005950 -140262.000000 0 0 1
24.263367 26.791379 -31.102239 47.684780 0.834873 2.281341 0.049275 0.003475 -1055310.000000 0 0 1
25.439767 26.381479 -30.550459 47.712626 0.803568 2.265687 0.058819 -0.006746 -830931.000000 0 0 1
26.649967 27.231459 -30.984189 49.110010 0.796190 2.253527 0.045342 0.004402 -220622.000000 0 0 1
26.673767 28.478119 -30.353549 49.435119 0.818103 2.231925 0.036497 0.005855 -138294.000000 0 0 1
27.864367 29.158269 -30.642569 50.651699 0.808085 2.220520 0.042324 0.001522 -54323.900000 0 0 1
28.044367 30.423279 -29.730629 50.950689 0.826063 2.193850 0.043342 0.006864 -108943.000000 0 0 1
28.381167 30.140749 -28.413069 50.212129 0.815456 2.172273 0.056842 -0.002170 271670.000000 0 0 1
27.883367 31.142379 -27.564299 50.071154 0.840556 2.153762 0.047092 0.001252 -279600.000000 0 0 1
28.354367 30.969709 -26.065049 49.421451 0.829455 2.126338 0.066686 -0.003635 -163509.000000 0 0 1
27.964367 29.756469 -25.469889 48.126588 0.816436 2.128486 0.060988 0.002604 -221525.000000 0 0 1
26.611467 29.604529 -25.148849 47.085697 0.838590 2.134249 0.050939 -0.001029 -528543.000000 0 0 1
26.284467 29.813779 -23.643319 46.246526 0.848228 2.107429 0.054310 0.008666 -299755.000000 0 0 1
26.537767 31.065699 -23.174119 46.972018 0.863842 2.086745 0.059510 0.002648 3756.650000 0 0 1
26.077067 31.224869 -21.858419 46.182208 0.874994 2.063839 0.054075 0.003687 -262679.000000 0 0 1
3.314467 -26.076267 -19.772919 32.892639 -1.444368 2.215717 0.056789 -0.008089 -287294.000000 0 0 1
3.169767 -27.037807 -18.784619 33.074950 -1.454094 2.174798 0.057760 -0.001387 203688.000000 0 0 1
2.959967 -26.564157 -17.520619 31.959160 -1.459827 2.151030 0.073811 -0.002781 -196644.000000 0 0 1
3.111167 -27.741927 -16.494719 32.424830 -1.459116 2.104478 0.067535 -0.012801 163114.000000 0 0 1
4.422567 -28.210407 -16.233719 32.846914 -1.415291 2.087738 0.072481 -0.013333 -31261.900000 0 0 1
4.371667 -29.133187 -15.149919 33.126637 -1.421850 2.045791 0.069748 -0.020373 68643.200000 0 0 1
5.722067 -29.734847 -14.736419 33.675885 -1.380684 2.023719 0.098695 -0.012353 -197134.000000 0 0 1
6.622267 -28.899747 -14.048519 32.808698 -1.345539 2.013291 0.085489 -0.006171 953506.000000 0 0 1
7.968067 -29.449987 -13.986519 33.562100 -1.306560 2.000647 0.088403 -0.003642 1335470.000000 0 0 1
8.317467 -30.586567 -12.966119 34.246731 -1.305285 1.959089 0.079556 -0.008044 -716713.000000 0 0 1
8.415867 -30.081227 -11.634519 33.332703 -1.298000 1.927345 0.076058 -0.012302 6061.560000 0 0 1
8.685467 -30.959957 -10.516319 33.831187 -1.297288 1.886880 0.077763 -0.008694 1598840.000000 0 0 1
10.146067 -31.584667 -10.424819 34.773707 -1.259974 1.875269 0.069461 -0.011415 1888290.000000 0 0 1
11.259867 -30.811567 -9.961619 34.283686 -1.220431 1.865613 0.075738 -0.013860 -126158.000000 0 0 1
12.409567 -31.566207 -9.897119 35.332361 -1.196228 1.854710 0.060638 -0.016827 -939870.000000 0 0 1
13.476167 -31.031387 -8.949619 34.994996 -1.161096 1.829409 0.055571 -0.016295 -659819.000000 0 0 1
14.397267 -30.184017 -9.551119 34.779017 -1.125731 1.848994 0.055268 -0.022810 -262812.000000 0 0 1
15.444767 -29.906217 -8.649619 34.752533 -1.094083 1.822332 0.057038 -0.016909 508126.000000 0 0 1
16.668067 -29.183117 -9.321519 34.876489 -1.051857 1.841358 0.059756 -0.026102 509994.000000 0 0 1
16.470867 -27.787877 -9.473119 33.662970 -1.035735 1.856060 0.067325 -0.025835 47398.100000 0 0 1
16.014367 -27.291097 -10.709719 33.406017 -1.040141 1.897151 0.062964 -0.022009 -223641.000000 0 0 1
15.633567 -25.803787 -10.603719 31.979410 -1.026077 1.908774 0.073420 -0.024440 -336260.000000 0 0 1
14.477167 -25.593107 -9.801819 30.994695 -1.056005 1.892562 0.060699 -0.021643 307820.000000 0 0 1
13.813967 -24.364397 -9.893819 29.704161 -1.055015 1.910363 0.050603 -0.014617 319729.000000 0 0 1
13.240067 -23.894197 -11.282719 29.555571 -1.064801 1.962481 0.045597 -0.008275 4281.200000 0 0 1
14.258867 -23.659397 -12.243319 30.215579 -1.028414 1.987993 0.049221 -0.014065 280512.000000 0 0 1
13.613267 -23.301897 -13.489419 30.170579 -1.042066 2.034323 0.060996 -0.019507 331928.000000 0 0 1
14.560267 -22.698697 -14.538519 30.636591 -1.000449 2.065246 0.045451 -0.019492 -91832.700000 0 0 1
15.512667 -23.557197 -15.103619 31.995369 -0.988461 2.062418 0.039066 -0.018117 63196.900000 0 0 1
16.090467 -22.970497 -16.284419 32.430374 -0.959746 2.096862 0.039451 -0.014736 -345216.000000 0 0 1
16.932967 -24.034997 -17.087519 34.005731 -0.957048 2.097272 0.040748 -0.012197 386927.000000 0 0 1
18.148567 -24.417697 -16.511819 34.615525 -0.931626 2.068042 0.043798 -0.012605 168407.000000 0 0 1
19.279167 -23.552297 -16.681019 34.708116 -0.884835 2.072145 0.045555 -0.009728 -39594.400000 0 0 1
20.628667 -24.192397 -16.399419 35.773662 -0.864741 2.047015 0.035629 -0.011519 -184627.000000 0 0 1
21.169167 -25.154377 -17.298419 37.149853 -0.871217 2.055153 0.044967 -0.009151 288312.000000 0 0 1
22.407667 -25.678577 -16.831019 38.010210 -0.853315 2.029518 0.050569 -0.003624 592253.000000 0 0 1
23.226967 -26.567917 -17.802219 39.525500 -0.852392 2.038008 0.051890 -0.003687 138240.000000 0 0 1
23.895867 -25.872177 -18.885619 39.963090 -0.825088 2.063008 0.063185 -0.007092 151489.000000 0 0 1
24.381867 -26.788097 -19.839819 41.300072 -0.832388 2.071887 0.065434 -0.010174 -419871.000000 0 0 1
25.579867 -26.200897 -20.589719 42.008965 -0.797391 2.083032 0.067712 -0.019608 -414423.000000 0 0 1
25.272567 -25.114477 -21.459419 41.592622 -0.782261 2.112904 0.072070 -0.021007 116311.000000 0 0 1
25.617667 -23.867797 -20.781619 40.716241 -0.750052 2.106448 0.082784 -0.020352 -113830.000000 0 0 1
24.394067 -22.887797 -20.815419 39.398013 -0.753552 2.127437 0.105156 -0.022945 333882.000000 0 0 1
24.123767 -22.238797 -22.071119 39.543071 -0.744763 2.162956 0.098694 -0.016351 -72697.300000 0 0 1
23.659067 -23.119197 -23.049119 40.317621 -0.773858 2.179359 0.063784 -0.019019 -618360.000000 0 0 1
22.857667 -22.518697 -24.234219 40.210223 -0.777928 2.217662 0.056426 -0.021009 125263.000000 0 0 1
23.659467 -21.701797 -25.075619 40.737268 -0.742268 2.233874 0.049867 -0.010932 -190167.000000 0 0 1
22.847967 -21.007597 -25.934399 40.446777 -0.743458 2.266855 0.048048 -0.007747 -334441.000000 0 0 1
23.631267 -20.331697 -27.085439 41.296921 -0.710485 2.286132 0.037859 -0.002721 90528.900000 0 0 1
22.819967 -19.410197 -27.775759 40.853389 -0.704830 2.318407 0.034395 0.002325 48400.200000 0 0 1
23.467667 -18.996497 -28.945179 41.826088 -0.680492 2.335103 0.041374 0.005420 -20440.800000 0 0 1
22.714967 -17.961997 -29.827529 41.572641 -0.669079 2.370974 0.070127 -0.000183 -690310.000000 0 0 1
21.490067 -18.324297 -30.364889 41.468413 -0.706052 2.392404 0.072376 -0.001892 -574420.000000 0 0 1
20.899367 -17.257497 -31.019039 41.192056 -0.690242 2.423458 0.089495 -0.004582 -245833.000000 0 0 1
19.598667 -17.712097 -31.692939 41.258556 -0.734878 2.446750 0.076633 -0.006300 -11599.300000 0 0 1
19.937667 -18.527397 -32.784009 42.609462 -0.748751 2.448708 0.067734 -0.004289 798146.000000 0 0 1
18.716667 -19.114397 -33.231019 42.661158 -0.795911 2.463790 0.063974 -0.009679 346426.000000 0 0 1
18.762667 -20.137797 34.110430 43.830240 -0.820733 0.678939 0.081419 -0.007712 -11439.100000 0 0 1
19.547667 -21.297397 -34.088633 44.695920 -0.828210 2.438241 0.080369 -0.006561 167333.000000 0 0 1
19.733567 -22.151997 33.262899 44.570675 -0.843073 0.728317 0.080776 -0.011627 278969.000000 0 0 1
20.611467 -23.394597 33.653021 45.876634 -0.848558 0.747259 0.072236 -0.007357 10508.300000 0 0 1
20.003367 -24.282197 -33.906139 46.253497 -0.881718 2.393592 0.080101 -0.009058 -97850.200000 0 0 1
20.272867 -24.086497 -32.474249 45.229695 -0.871159 2.371700 0.079955 -0.009037 632910.000000 0 0 1
19.215767 -24.819497 -31.533629 44.492953 -0.911973 2.358497 0.076628 -0.010089 646844.000000 0 0 1
19.222667 -26.237557 -31.599049 45.347769 -0.938499 2.341745 0.079220 -0.015588 986068.000000 0 0 1
20.355067 -26.801257 -30.862199 45.663020 -0.921254 2.312939 0.074284 -0.029316 929576.000000 0 0 1
20.370967 -28.327367 -30.978729 46.659379 -0.947349 2.296863 0.074230 -0.033870 436762.000000 0 0 1
19.269467 -29.061417 -30.423069 46.275711 -0.985295 2.288200 0.069587 -0.031431 236237.000000 0 0 1
19.472067 -30.399907 -30.579139 47.311726 -1.001107 2.273565 0.069020 -0.031895 -448369.000000 0 0 1
18.292667 -31.316737 -30.231199 47.215305 -1.042137 2.265664 0.087036 -0.030497 -476408.000000 0 0 1
17.128967 -31.247767 -30.993219 47.227154 -1.069362 2.286646 0.087100 -0.033558 -250401.000000 0 0 1
17.244667 -31.918277 -32.233479 48.529909 -1.075450 2.297217 0.090588 -0.035181 -679797.000000 0 0 1
15.866067 -32.369237 -32.728699 48.689499 -1.115053 2.307962 0.085617 -0.032153 -69883.300000 0 0 1
15.044367 -31.361047 -33.272459 48.134237 -1.123508 2.334004 0.078773 -0.021886 -330610.000000 0 0 1
13.733267 -31.852477 -33.423689 48.169761 -1.163726 2.337650 0.046822 -0.015601 -501702.000000 0 0 1
12.846567 -30.931447 -34.203214 47.871166 -1.177150 2.366684 0.042854 -0.004842 -454388.000000 0 0 1
12.512067 -29.799127 -33.403259 46.479216 -1.173270 2.372685 0.049726 -0.006160 -105253.000000 0 0 1
11.588067 -29.073017 -34.189718 46.351488 -1.191510 2.400333 0.042483 0.001782 132232.000000 0 0 1
10.819067 -27.962887 -33.408009 44.889534 -1.201627 2.410173 0.043939 -0.004937 974202.000000 0 0 1
9.752567 -28.459567 -32.564969 44.334374 -1.240656 2.395771 0.046654 -0.002825 1216520.000000 0 0 1
8.660667 -27.526117 -32.420459 43.402539 -1.265968 2.414292 0.042135 0.005161 951120.000000 0 0 1
7.359567 -27.975507 -31.689509 42.907076 -1.313553 2.401730 0.034101 0.009715 374768.000000 0 0 1
6.459767 -28.762237 -32.419339 43.817900 -1.349870 2.403666 0.043961 0.005546 169975.000000 0 0 1
6.967667 -30.060367 -32.582109 44.875025 -1.343029 2.383376 0.036685 0.001965 -839999.000000 0 0 1
5.827667 -30.988487 -32.969779 45.620767 -1.384908 2.378486 0.037859 0.000535 260719.000000 0 0 1
4.928567 -31.243627 -31.884349 44.911766 -1.414339 2.360200 0.041187 -0.004362 699979.000000 0 0 1
3.891467 -32.151967 -32.271689 45.720394 -1.450349 2.354417 0.054191 -0.016597 -222956.000000 0 0 1
3.130567 -32.872797 -31.096409 45.358658 -1.475850 2.326179 0.042110 -0.028597 405986.000000 0 0 1
2.106667 -32.116467 -30.494659 44.337678 -1.505296 2.329226 0.056770 -0.029764 959606.000000 0 0 1
0.895567 -31.963717 -31.271559 44.725738 -1.542785 2.345053 0.044961 0.002796 411879.000000 0 0 1
-0.091533 -30.897177 -30.722739 43.572131 1.567834 2.353361 0.035831 -0.003451 236626.000000 0 0 1
-0.819133 -31.240467 -29.520839 42.989739 1.544582 2.327729 0.021436 -0.014935 327379.000000 0 0 1
-1.484633 -30.087577 -29.055439 41.853135 1.521493 2.338137 0.041702 -0.010513 -172256.000000 0 0 1
-2.172833 -30.351037 -27.704089 41.151223 1.499328 2.309360 0.039394 -0.017243 -510324.000000 0 0 1
-1.343033 -30.298937 -26.594299 40.337155 1.526499 2.290684 0.028904 -0.012285 -17265.700000 0 0 1
-2.030933 -30.600887 -25.345219 39.785916 1.504525 2.261448 0.031003 -0.015428 -170467.000000 0 0 1
-1.063133 -30.722627 -24.203319 39.125576 1.536206 2.237764 0.022227 -0.008103 -388954.000000 0 0 1
-1.714233 -31.024107 -22.956919 38.632291 1.515598 2.207119 0.037788 -0.024273 -416730.000000 0 0 1
-0.785233 -31.312247 -21.966719 38.257158 1.545724 2.182406 0.041815 -0.013706 -184494.000000 0 0 1
-1.385233 -30.914707 -20.585619 37.167266 1.526018 2.157795 0.015691 -0.007355 25244.000000 0 0 1
-1.511533 -29.519677 -20.148219 35.772151 1.519637 2.169095 0.012333 -0.010462 849299.000000 0 0 1
-0.252433 -28.901097 -19.793719 35.030393 1.562062 2.171283 0.034860 -0.016656 641331.000000 0 0 1
-0.317133 -27.425027 -19.301119 33.537529 1.559233 2.184022 0.027384 -0.020897 -224625.000000 0 0 1
-1.145833 -27.391567 -18.150619 32.879414 1.528989 2.155600 0.019611 -0.015416 -65975.700000 0 0 1
-1.061533 -26.187147 -17.321419 31.415364 1.530282 2.154799 0.026993 -0.017288 170373.000000 0 0 1
-2.102533 -26.038897 -16.160119 30.717979 1.490225 2.124781 0.019309 -0.013755 -56887.900000 0 0 1
-1.954533 -24.864697 -15.471119 29.350109 1.492351 2.126008 0.013389 -0.011437 166201.000000 0 0 1
-3.035233 -24.734797 -14.574619 28.869401 1.448696 2.100001 0.014709 -0.009717 -6227.790000 0 0 1
-2.852533 -23.507497 -13.619419 27.317173 1.450041 2.092740 0.013960 -0.007058 -73525.300000 0 0 1
-1.777833 -23.708397 -12.717819 26.962784 1.495949 2.061992 0.021525 -0.005522 -43457.400000 0 0 1
-1.438033 -22.483797 -12.091219 25.569252 1.506925 2.063354 0.019838 -0.003654 9998.190000 0 0 1
-0.263333 -22.615297 -11.117819 25.201724 1.559153 2.027679 0.014576 -0.005053 49941.300000 0 0 1
0.185467 -21.407697 -10.514319 23.851096 -1.562133 2.027321 0.014637 -0.005301 -1009480.000000 0 1 0
1.384267 -21.537997 -9.857419 23.726993 -1.506614 1.999236 0.008501 -0.002732 -658974.000000 0 1 0
1.985167 -20.160697 -9.497819 22.374163 -1.472646 2.009205 0.020372 -0.003485 -785665.000000 0 1 0
2.344367 -19.415497 -10.671219 22.278521 -1.450631 2.070302 0.023315 -0.002242 207352.000000 0 1 0
3.103467 -18.234397 -10.385519 21.212820 -1.402213 2.082412 0.011019 -0.004889 1496320.000000 0 1 0
4.622467 -18.400297 -9.964219 21.429507 -1.324673 2.054404 0.032358 -0.021727 943326.000000 0 1 0
4.574367 -18.857297 -8.621319 21.233220 -1.332815 1.988902 0.036654 -0.021998 -374747.000000 0 1 0
5.609467 -19.768697 -8.366019 22.186883 -1.294309 1.957428 0.050088 -0.015653 -498702.000000 0 1 0
5.324567 -20.774297 -7.248519 22.637656 -1.319892 1.896734 0.051722 -0.018442 -199195.000000 0 1 0
4.368467 -21.758997 -7.556819 23.444465 -1.372664 1.898985 0.038980 -0.017611 14639.700000 0 1 0
4.307267 -22.858897 -6.690519 24.204230 -1.384552 1.850863 0.042317 -0.015708 7068.960000 0 1 0
3.415167 -23.971097 -7.304619 25.290993 -1.429279 1.863793 0.034847 -0.009145 312447.000000 0 0 1
3.903467 -24.585697 -8.465419 26.293666 -1.413341 1.898592 0.043540 -0.006610 -146856.000000 0 0 1
2.841367 -25.298757 -9.031719 27.012449 -1.458953 1.911716 0.031980 -0.004713 217148.000000 0 0 1
3.341067 -26.046737 -10.293719 28.205600 -1.443221 1.944379 0.037859 -0.008055 409887.000000 0 0 1
4.002467 -27.295357 -9.989819 29.340292 -1.425199 1.918225 0.039763 -0.005550 -53356.000000 0 0 1
4.428567 -27.891897 -11.206319 30.383412 -1.413335 1.948546 0.059617 -0.004509 325809.000000 0 0 1
4.683667 -29.408517 -11.047919 31.762464 -1.412860 1.926051 0.060488 -0.006430 514369.000000 0 0 1
3.443867 -30.073647 -11.269519 32.299946 -1.456779 1.927196 0.061311 -0.003669 200070.000000 0 0 1
3.508767 -31.461157 -11.345319 33.627847 -1.459728 1.914927 0.065023 -0.006315 -732728.000000 0 0 1
2.127867 -32.082147 -11.462819 34.134853 -1.504568 1.913261 0.052082 -0.013989 -583065.000000 0 0 1
1.754467 -31.845247 -12.836719 34.379925 -1.515758 1.953444 0.055653 -0.016773 252839.000000 0 0 1
1.271667 -33.067357 -13.409419 35.705458 -1.532358 1.955794 0.049842 -0.016452 -408347.000000 0 0 1
0.820767 -32.859407 -14.894819 36.086977 -1.545823 1.996265 0.055551 -0.011400 -595729.000000 0 0 1
-0.319233 -32.079637 -14.975319 35.404310 1.560845 2.007528 0.052271 -0.009566 -588529.000000 0 0 1
-0.680933 -32.045617 -16.358819 35.986056 1.549551 2.042706 0.032923 -0.011172 737555.000000 0 0 1
-1.863233 -31.088897 -16.822519 35.397575 1.510935 2.066039 0.030848 -0.008121 492006.000000 0 0 1
-3.085233 -31.450627 -16.242019 35.531166 1.473012 2.045551 0.029464 -0.010572 -1087700.000000 0 0 1
-4.125133 -30.922337 -17.001819 35.528432 1.438176 2.069789 0.030074 -0.007888 -678473.000000 0 0 1
-5.438133 -31.056937 -16.238619 35.465467 1.397452 2.046396 0.029301 -0.011377 -866765.000000 0 0 1
-5.613933 -29.971257 -15.356119 34.140927 1.385631 2.037322 0.017252 -0.005432 551355.000000 0 0 1
-6.944733 -29.689737 -14.883019 33.929545 1.341017 2.024886 0.031471 -0.013763 677511.000000 0 0 1
-7.479033 -30.688337 -13.787519 34.464556 1.331747 1.982367 0.024838 -0.017493 -116746.000000 0 0 1
-7.780933 -31.911227 -14.417019 35.870876 1.331633 1.984403 0.030320 -0.016655 -44840.700000 0 0 1
-8.525733 -32.773247 -13.529719 36.466795 1.316294 1.950898 0.039158 -0.014196 410674.000000 0 0 1
-8.860133 -34.201838 -14.042619 38.019243 1.317314 1.949112 0.064329 -0.020560 80262.400000 0 0 1
-7.751733 33.526190 -14.075319 37.178077 -1.343575 1.959071 0.055184 -0.016838 255136.000000 0 0 1
-8.229033 32.159049 -14.196519 36.103498 -1.320286 1.974924 0.067171 -0.023210 137048.000000 0 0 1
-7.686133 -22.181897 -3.539719 23.741163 1.237239 1.720451 0.041931 0.004539 146087.000000 0 1 0
-7.545933 -21.280397 -4.567919 23.036108 1.230033 1.770413 0.028758 0.008702 141011.000000 0 1 0
-6.207833 -21.204197 -5.041619 22.662151 1.285991 1.795142 0.013650 0.006907 355492.000000 0 1 0
-6.014433 -20.209497 -6.167719 21.969022 1.281539 1.855368 0.013404 0.007578 16009.900000 0 1 0
-6.590833 -20.536797 -7.416619 22.808011 1.260252 1.901994 0.018038 0.008282 -317173.000000 0 1 0
-6.748133 -19.372297 -8.173319 22.082263 1.235602 1.949946 0.013192 0.002515 565683.000000 0 1 0
-7.832733 -19.513997 -9.322219 23.001121 1.189092 1.988097 0.031000 -0.006043 858197.000000 0 1 0
-7.318033 -20.242097 -10.408219 23.908725 1.223891 2.021203 0.033991 -0.003235 18071.300000 0 1 0
-8.349133 -20.442597 -11.347319 24.826789 1.183054 2.045483 0.048077 -0.005070 44154.100000 0 1 0
-7.822933 -21.271997 -12.477019 25.872227 1.218390 2.074024 0.041420 -0.003442 371719.000000 0 0 1
-6.872233 -20.581697 -13.318719 25.460206 1.248536 2.121303 0.046270 -0.006713 142743.000000 0 0 1
-6.371733 -21.473197 -14.280919 26.563919 1.282343 2.138391 0.033259 -0.004263 -627711.000000 0 0 1
-5.392433 -20.737397 -15.177819 26.258030 1.316396 2.187104 0.025433 -0.002125 -1559910.000000 0 0 1
-4.157233 -20.707197 -14.552619 25.648573 1.372667 2.174123 0.022757 -0.004138 -1091210.000000 0 0 1
-3.159933 -20.013697 -15.252819 25.361028 1.414200 2.216083 0.029499 -0.001850 -95984.400000 0 0 1
-3.313433 -18.447197 -15.373619 24.241000 1.393074 2.257768 0.044373 -0.005164 -1700230.000000 0 1 0
-4.430733 -18.018697 -16.053619 24.536168 1.329684 2.284032 0.045131 -0.004311 -979240.000000 0 1 0
-4.347133 -17.991297 -17.531419 25.493822 1.333716 2.329076 0.052111 -0.007139 110436.000000 0 0 1
-5.761333 -17.860997 -18.178119 26.127613 1.258768 2.340251 0.039220 0.007391 774048.000000 0 0 1
-6.678933 -18.886897 -17.842119 26.826558 1.230893 2.298413 0.036603 0.008972 -611688.000000 0 0 1
-7.907733 -18.823797 -18.477819 27.537200 1.173090 2.306371 0.030299 0.012695 -515493.000000 0 0 1
-8.789833 -19.925397 -17.831719 28.146986 1.155337 2.256892 0.055556 0.003661 -94139.800000 0 0 1
-8.288733 -21.189497 -18.143819 29.101478 1.197924 2.243966 0.045597 0.004334 350707.000000 0 0 1
-9.189233 -22.178497 -17.720419 29.838582 1.177997 2.206664 0.059942 0.007597 174165.000000 0 0 1
-8.607133 -23.542897 -18.159119 30.953261 1.220298 2.197728 0.061154 -0.005507 -436572.000000 0 0 1
-8.545833 -23.800397 -19.560219 31.970179 1.226071 2.229165 0.054999 -0.009057 455037.000000 0 0 1
-7.637233 -24.793397 -20.015019 32.766459 1.271984 2.227916 0.054163 -0.022297 201050.000000 0 0 1
-6.126433 -24.491097 -19.961619 32.184053 1.325677 2.239836 0.037402 -0.015102 -348492.000000 0 0 1
-5.603033 -23.355997 -20.669419 31.687875 1.335349 2.281387 0.032875 -0.010683 74859.800000 0 0 1
-5.586333 -22.112097 -20.039919 30.360341 1.323337 2.291707 0.037535 -0.007372 -213513.000000 0 0 1
-4.589233 -21.925197 -18.837119 29.267941 1.364462 2.270001 0.034581 -0.001076 -83128.000000 0 0 1
-3.305133 -22.262597 -19.280319 29.635752 1.423412 2.279139 0.032961 -0.009230 -697760.000000 0 0 1
-2.361433 -22.237297 -18.222819 28.846921 1.465000 2.254550 0.016703 -0.007696 11268.700000 0 0 1
-1.024933 -22.853797 -18.666619 29.526076 1.525979 2.255196 0.040102 -0.009392 -69702.600000 0 0 1
-0.290433 -22.059397 -19.611419 29.517945 1.557631 2.297473 0.059743 -0.015202 704397.000000 0 0 1
1.044367 -22.617197 -19.670119 29.992364 -1.524653 2.286088 0.049495 -0.021133 1080300.000000 0 0 1
1.919767 -22.066697 -20.809119 30.391513 -1.484016 2.324991 0.053973 -0.024109 -74937.900000 0 0 1
1.433367 -22.308497 -22.075319 31.417245 -1.506632 2.349911 0.045102 -0.029558 -330725.000000 0 0 1
0.921967 -21.161097 -22.706119 31.051729 -1.527255 2.390927 0.053266 -0.022047 -342679.000000 0 0 1
0.558367 -21.411897 -24.136319 32.269846 -1.544725 2.415769 0.051634 -0.024493 -49272.600000 0 0 1
0.074367 -20.309697 -24.914319 32.143625 -1.567135 2.457660 0.046366 -0.019911 -366559.000000 0 0 1
-1.320033 -20.159997 -24.755819 31.953381 1.505412 2.457113 0.045792 -0.020013 -368392.000000 0 0 1
-1.809233 -18.902997 -25.486269 31.782802 1.475376 2.501246 0.035034 -0.008451 -36819.800000 0 0 1
-1.239933 -17.743697 -24.886419 30.589378 1.501030 2.521052 0.037124 -0.014501 143901.000000 0 0 1
-1.585133 -16.564597 -25.604569 30.536740 1.475393 2.565292 0.035711 -0.011177 -88840.000000 0 0 1
-0.777033 -15.358497 -25.100649 29.436878 1.520246 2.591917 0.034414 -0.009450 -371781.000000 0 0 1
0.512767 -15.243497 -25.649939 29.842026 -1.537171 2.605134 0.043526 -0.022599 -399692.000000 0 0 1
1.172467 -14.010897 -25.280349 28.927080 -1.487308 2.634034 0.047021 -0.023790 284286.000000 0 0 1
0.572467 -12.646597 -25.756369 28.699384 -1.525561 2.684759 0.043266 -0.014962 -307046.000000 0 0 1
1.346067 -11.520397 -25.436869 27.956497 -1.454482 2.713775 0.028521 -0.009638 34606.300000 0 0 1
0.841767 -10.357797 -26.114239 28.105978 -1.489706 2.762862 0.026152 -0.005171 -979009.000000 0 0 1
1.674167 -9.016997 -25.903209 27.478815 -1.387219 2.801312 0.033634 -0.008329 -28916.900000 0 0 1
2.999067 -8.910797 -26.305659 27.935361 -1.246140 2.798330 0.038143 -0.011121 -755853.000000 0 0 1
3.190967 -9.391297 -27.595569 29.323952 -1.243256 2.796544 0.033475 -0.003810 -334047.000000 0 0 1
4.655067 -9.069897 -28.105779 29.897617 -1.096610 2.793625 0.020884 -0.001498 132782.000000 0 0 1
4.832167 -7.656997 -28.408789 29.816752 -1.007838 2.833058 0.018590 0.002810 -281269.000000 0 0 1
6.041067 -7.312597 -29.022769 30.533419 -0.880332 2.825717 0.027724 -0.001196 -188691.000000 0 0 1
7.283967 -7.316697 -28.060079 29.899135 -0.787640 2.789031 0.025582 -0.005764 64829.800000 0 0 1
7.778467 -8.574097 -27.524189 29.859683 -0.834015 2.743454 0.019416 -0.008199 406265.000000 0 0 1
8.298167 -9.477797 -28.472419 31.134657 -0.851662 2.725049 0.020660 -0.015438 -790238.000000 0 0 1
8.718067 -10.801497 -27.758589 31.035726 -0.891731 2.677901 0.044095 -0.027328 -253482.000000 0 0 1
7.715967 -11.747897 -27.437209 30.827742 -0.989659 2.668178 0.029121 -0.020975 -25203.900000 0 0 1
8.140567 -12.864897 -26.677759 30.716074 -1.006627 2.623020 0.038808 -0.021997 -31844.100000 0 0 1
9.118067 -13.880797 -27.358719 32.004924 -0.989597 2.596016 0.038113 -0.029759 -9079.180000 0 0 1
8.545967 -14.512897 -28.483759 33.090516 -1.038613 2.607603 0.045498 -0.033358 -520336.000000 0 0 1
9.404767 -15.448597 -28.986719 34.166338 -1.023947 2.583752 0.038177 -0.033840 -636386.000000 0 0 1
8.730467 -16.232697 -30.120819 35.312678 -1.077343 2.592454 0.053463 -0.035353 -235408.000000 0 0 1
8.338667 -15.350897 -31.128749 35.695692 -1.073186 2.630190 0.051634 -0.032079 83700.200000 0 0 1
7.876967 -16.116797 -32.194259 36.854688 -1.116195 2.633237 0.069396 -0.034873 51270.400000 0 0 1
6.679667 -15.428497 -32.923409 36.967652 -1.162217 2.669460 0.084657 -0.035096 539165.000000 0 0 1
7.127867 -14.253997 -33.628169 37.213393 -1.107100 2.699031 0.076913 -0.035008 640482.000000 0 0 1
5.986967 -13.624897 -34.218433 37.314645 -1.156781 2.731350 0.073790 -0.036225 575652.000000 0 0 1
6.286967 -12.344497 33.303503 36.069874 -1.099742 0.394197 0.087912 -0.028596 14487.200000 0 0 1
6.751767 -12.618097 31.989301 35.044516 -1.079475 0.420661 0.082045 -0.027323 117955.000000 0 0 1
7.104167 -11.486897 31.228611 34.024169 -1.016915 0.408202 0.076185 -0.024201 -171800.000000 0 0 1
7.584667 -11.927697 29.818041 32.998677 -1.004406 0.442665 0.056733 -0.023113 208033.000000 0 0 1
6.564867 -12.451497 28.977321 32.215250 -1.085599 0.452194 0.062417 -0.022718 512761.000000 0 0 1
6.927867 -12.204097 27.583561 30.948152 -1.054490 0.470630 0.053546 -0.022624 -11869.200000 0 0 1
6.109967 -13.052797 26.611721 30.263689 -1.132996 0.496346 0.047886 -0.027657 -333678.000000 0 0 1
6.440667 -14.433697 26.592351 30.934882 -1.151087 0.536264 0.049936 -0.022572 -51322.000000 0 0 1
5.990367 -15.077897 25.401891 30.141060 -1.192624 0.568393 0.040405 -0.018940 254754.000000 0 0 1
4.479767 -15.376597 25.203851 29.862052 -1.287306 0.566081 0.026915 -0.023131 431694.000000 0 0 1
3.792467 -14.163597 24.791111 28.802594 -1.309172 0.534104 0.009280 -0.024140 891977.000000 0 0 1
2.381767 -14.396997 24.609591 28.610807 -1.406846 0.535232 0.008251 -0.019967 878077.000000 0 0 1
1.503967 -13.164997 24.640841 27.977671 -1.457050 0.493390 0.024405 -0.019044 -643078.000000 0 0 1
1.483267 -12.432897 23.439451 26.574139 -1.452056 0.490622 0.009961 -0.013788 -257586.000000 0 0 1
0.395367 -11.588197 23.193051 25.929910 -1.536692 0.463593 0.023925 -0.001685 7138.050000 0 0 1
-0.985733 -12.202697 22.894751 25.962417 1.490191 0.491042 0.029406 0.001737 -683162.000000 0 0 1
-1.138233 -12.896597 21.664251 25.238018 1.482766 0.538659 0.029261 -0.004432 -208648.000000 0 0 1
-2.184433 -13.836197 21.683151 25.814165 1.414211 0.573567 0.044862 -0.004340 35787.600000 0 0 1
-2.547033 -14.356497 20.234651 24.940679 1.395210 0.624405 0.048498 -0.020270 158015.000000 0 1 0
-1.468833 -15.000097 19.590951 24.717721 1.473186 0.655756 0.058040 -0.033942 -224824.000000 0 1 0
-1.781033 -15.271697 18.251151 23.864226 1.454698 0.700079 0.055736 -0.037125 922897.000000 0 1 0
-2.881333 -16.344497 17.861051 24.381587 1.396302 0.748717 0.034314 -0.040512 790065.000000 0 1 0
-2.332433 -17.657997 17.834751 25.205623 1.439467 0.784742 0.020465 -0.020567 211899.000000 0 0 1
-3.374733 -18.615797 18.004351 26.116917 1.391461 0.810170 0.024521 -0.005997 440412.000000 0 0 1
-3.157033 -19.968597 17.275551 26.592412 1.413994 0.863683 0.026666 -0.001902 261002.000000 0 0 1
-2.094333 -20.652797 17.917251 27.421745 1.469735 0.858735 0.021751 -0.006460 -168932.000000 0 0 1
-2.054133 -22.046797 17.595451 28.282160 1.477893 0.899324 0.012322 -0.016848 -190275.000000 0 0 1
-0.943233 -22.903197 18.212551 29.277007 1.529636 0.899404 0.027557 -0.010896 -628055.000000 0 0 1
0.278167 -22.745097 17.594651 28.757408 -1.558567 0.912424 0.046926 -0.015540 -1271910.000000 0 0 1
1.288167 -23.520197 18.170351 29.749297 -1.516082 0.913748 0.056092 -0.021151 -1361340.000000 0 0 1
2.592567 -23.443097 17.470251 29.351488 -1.460654 0.933271 0.070825 -0.022137 -1318700.000000 0 0 1
3.175567 -22.173497 17.653051 28.519789 -1.428549 0.903359 0.056201 -0.024543 -696730.000000 0 0 1
4.261767 -22.012897 16.781651 28.006322 -1.379559 0.928283 0.068120 -0.016744 -141573.000000 0 0 1
4.831067 -20.611597 17.066651 27.192788 -1.340566 0.892308 0.072611 -0.015945 -334909.000000 0 0 1
5.705767 -20.511397 18.183551 27.998477 -1.299480 0.863938 0.074812 -0.013426 134742.000000 0 0 1
6.281467 -19.215897 18.413451 27.345250 -1.254857 0.832040 0.070715 -0.012599 -229396.000000 0 0 1
7.380667 -18.719097 17.542551 26.694942 -1.195226 0.853766 0.077644 -0.019412 -1196860.000000 0 0 1
6.905967 -18.181497 16.291651 25.370792 -1.207794 0.873507 0.060367 -0.022145 -540220.000000 0 0 1
7.837967 -17.649597 15.416451 24.710503 -1.152870 0.897096 0.061514 -0.018061 -460638.000000 0 1 0
7.192967 -16.758497 14.324951 23.190304 -1.165363 0.904965 0.041070 -0.025147 1092210.000000 0 1 0
6.090967 -17.318697 13.539351 22.811207 -1.232609 0.935347 0.042265 -0.022697 950314.000000 0 1 0
5.512767 -16.381697 12.646651 21.417011 -1.246181 0.939124 0.025037 -0.026329 42307.000000 0 1 0
6.084367 -16.521897 11.200751 20.867425 -1.217947 1.004207 0.026955 -0.026650 -222784.000000 0 1 0
7.482767 -16.438097 11.138551 21.219570 -1.143619 1.018177 0.031806 -0.013352 -529313.000000 0 1 0
7.936167 -16.450997 9.797751 20.727131 -1.121317 1.078442 0.035622 -0.020293 479086.000000 0 1 0
9.480967 -16.260697 9.826051 21.233235 -1.042926 1.089682 0.038761 -0.008011 596852.000000 0 1 0
10.158367 -16.472897 8.615451 21.184304 -1.018208 1.151968 0.044283 -0.014083 -922052.000000 0 1 0
11.414867 -15.874197 8.571751 21.348635 -0.947377 1.157628 0.039762 -0.015878 -504587.000000 0 1 0
12.472467 -16.789897 7.947251 22.374581 -0.931883 1.207678 0.051557 -0.014491 -222743.000000 0 1 0
12.681967 -17.991897 8.675351 23.660142 -0.956809 1.195374 0.059140 -0.018709 -176735.000000 0 1 0
13.579767 -18.804097 7.982251 24.529991 -0.945345 1.239353 0.068334 -0.018309 -168325.000000 0 1 0
14.221967 -20.024497 8.617151 26.028832 -0.953239 1.233368 0.066088 -0.016693 -38672.100000 0 0 1
13.280067 -21.030397 8.988251 26.446671 -1.007558 1.224025 0.069596 -0.019129 200412.000000 0 0 1
13.875967 -22.265897 9.431451 27.879471 -1.013497 1.225693 0.064398 -0.012061 -254505.000000 0 0 1
12.884567 -23.258997 10.018651 28.414193 -1.064917 1.210456 0.066232 -0.013978 -209004.000000 0 0 1
12.517467 -22.744697 11.317851 28.321404 -1.067687 1.159692 0.069452 -0.027259 -93428.700000 0 0 1
11.489167 -23.347897 12.089251 28.692773 -1.113500 1.135880 0.082053 -0.023304 130611.000000 0 0 1
11.759967 -24.828497 12.500551 30.183022 -1.128452 1.143778 0.059445 -0.022551 -283637.000000 0 0 1
12.836967 -24.916597 13.396151 31.065759 -1.095065 1.124953 0.040506 -0.022129 -167115.000000 0 0 1
12.828067 -26.181487 14.024051 32.352798 -1.115207 1.122454 0.045636 -0.027377 -263405.000000 0 0 1
14.022667 -26.390467 14.950251 33.415594 -1.082382 1.106936 0.055673 -0.025297 -176634.000000 0 0 1
13.913967 -25.626647 16.175951 33.346437 -1.073383 1.064333 0.050392 -0.021525 -235120.000000 0 0 1
14.980567 -26.011747 16.968351 34.481202 -1.048274 1.056291 0.052951 -0.021735 -638862.000000 0 0 1
14.765767 -25.611947 18.467551 34.857569 -1.047821 1.012431 0.055727 -0.017495 -128109.000000 0 0 1
15.117467 -24.331697 18.919951 34.329780 -1.014857 0.987086 0.027585 -0.013140 631886.000000 0 0 1
16.512267 -24.240597 19.259051 35.088068 -0.972812 0.989776 0.017809 -0.014234 483382.000000 0 0 1
16.912167 -22.806597 19.642751 34.525351 -0.932727 0.965584 0.015686 -0.013022 -165839.000000 0 0 1
17.054967 -21.843297 18.605951 33.379378 -0.907881 0.979535 0.014879 -0.014661 210054.000000 0 0 1
15.850767 -21.183997 18.240451 32.136001 -0.928421 0.967206 0.030773 -0.011699 -333397.000000 0 0 1
16.006067 -20.136297 17.043851 30.857049 -0.899181 0.985617 0.018791 -0.010900 491240.000000 0 0 1
16.806767 -18.955697 17.296251 30.674845 -0.845415 0.971747 0.014553 -0.009379 398221.000000 0 0 1
18.210267 -19.089697 17.340251 31.570788 -0.808971 0.989330 0.024300 -0.015618 -239535.000000 0 0 1
18.857167 -17.724297 17.597651 31.295698 -0.754440 0.973629 0.041069 -0.015850 -405821.000000 0 0 1
19.223367 -17.585897 18.927951 32.203554 -0.740942 0.942509 0.041009 -0.013245 28061.200000 0 0 1
19.603467 -16.263797 19.181551 31.886343 -0.692554 0.925344 0.054522 -0.017059 -400875.000000 0 0 1
20.083967 -16.142797 20.609551 32.995593 -0.677033 0.896158 0.043462 -0.010998 -171988.000000 0 0 1
21.370167 -16.718697 20.675051 34.112411 -0.663878 0.919666 0.038863 -0.007323 -350792.000000 0 0 1
21.793667 -16.732397 22.016051 35.208571 -0.654774 0.895276 0.040883 0.001414 -10369.300000 0 0 1
33.575451 -1.111097 -7.802319 34.487992 -0.033080 1.799005 0.117269 -0.027856 397396.000000 0 0 1
34.856631 -0.939997 -8.409319 35.868997 -0.026961 1.807444 0.116796 -0.027178 302376.000000 0 0 1
35.669341 -2.064597 -8.229019 36.664440 -0.057817 1.797166 0.134350 -0.037949 402149.000000 0 0 1
-35.264603 -1.809997 -8.774319 36.384846 0.051281 1.814350 0.114000 -0.027776 608157.000000 0 0 1
-34.375999 -2.918797 -8.838519 35.613875 0.084705 1.821593 0.120857 -0.019828 -66122.500000 0 0 1
-33.106373 -2.485997 -9.247019 34.463306 0.074951 1.842440 0.162260 -0.025519 -429568.000000 0 0 1
-31.939393 -3.401897 -8.860919 33.319868 0.106111 1.839970 0.150440 -0.022026 -307529.000000 0 0 1
-31.519663 -3.282897 -7.501519 32.565924 0.103780 1.803232 0.143994 -0.021481 40490.700000 0 0 1
-30.435343 -4.111597 -7.219519 31.548959 0.134280 1.801678 0.133811 -0.029333 -529786.000000 0 0 1
-30.016023 -3.977997 -5.746319 30.818928 0.131761 1.758348 0.124387 -0.034205 -308060.000000 0 0 1
-29.683043 -2.647697 -5.399319 30.286069 0.088964 1.750032 0.128072 -0.027919 500879.000000 0 0 1
-29.493623 -2.415897 -4.000919 29.861643 0.081730 1.705182 0.131324 -0.023344 -352943.000000 0 0 1
-29.135543 -1.004797 -3.557719 29.369148 0.034473 1.692233 0.144448 -0.028654 14797.400000 0 0 1
-27.717773 -0.899197 -3.489119 27.950983 0.032430 1.695953 0.114487 -0.026298 638698.000000 0 0 1
-27.446883 0.364603 -3.066419 27.620052 -0.013283 1.682047 0.117030 -0.033029 -207162.000000 0 0 1
-26.026803 0.533003 -2.486419 26.150734 -0.020476 1.666020 0.098976 -0.024169 -166040.000000 0 0 1
-25.826783 0.020303 -1.180419 25.853753 -0.000786 1.616470 0.092404 -0.024557 -804964.000000 0 0 1
-24.484533 0.213303 -0.951219 24.503932 -0.008712 1.609625 0.077907 -0.023711 -1093350.000000 0 1 0
-23.981233 -0.478997 0.368681 23.988850 0.019971 1.555427 0.067623 -0.027770 -273475.000000 0 1 0
-23.961433 -1.862297 0.215781 24.034662 0.077565 1.561818 0.075564 -0.025668 229949.000000 0 1 0
-23.252433 -2.588797 1.179381 23.425808 0.110878 1.520430 0.062766 -0.026299 -889675.000000 0 1 0
-23.125733 -4.126497 0.901281 23.508293 0.176579 1.532448 0.051745 -0.012256 -438583.000000 0 1 0
-24.198233 -4.808997 1.479481 24.715781 0.196177 1.510901 0.059130 -0.014263 143882.000000 0 1 0
-24.058033 -6.189797 1.288281 24.874932 0.251824 1.518983 0.038926 -0.001176 105762.000000 0 1 0
-25.342483 -6.925297 1.784081 26.332188 0.266756 1.502992 0.063804 -0.000963 402621.000000 0 0 1
-25.591703 -6.909097 3.130981 26.692208 0.263688 1.453226 0.061318 -0.001104 143740.000000 0 0 1
-26.900333 -7.316697 3.474281 28.093284 0.265568 1.446809 0.074604 0.013058 122934.000000 0 0 1
-27.066403 -7.334197 4.974481 28.480276 0.264616 1.395232 0.059955 0.001257 23091.700000 0 0 1
-26.585783 -8.549997 5.593681 28.481496 0.311154 1.373114 0.058386 0.019310 143222.000000 0 0 1
-26.837613 -8.668397 7.012781 29.061619 0.312417 1.327084 0.029876 0.007189 -93854.800000 0 0 1
-26.216523 -7.541897 7.900781 28.400857 0.280114 1.288889 0.045573 0.002816 -486034.000000 0 0 1
-24.824133 -7.615097 7.883881 27.136376 0.297649 1.276018 0.062696 -0.009850 -514497.000000 0 0 1
-24.250733 -6.500797 8.555281 26.524541 0.261908 1.242382 0.062114 -0.018618 1172350.000000 0 0 1
-22.811833 -6.052797 8.048781 24.935897 0.259360 1.242132 0.083575 -0.029488 1944410.000000 0 1 0
-21.651633 -6.697497 8.637781 24.254092 0.299994 1.206666 0.076781 -0.032828 565945.000000 0 1 0
-20.523833 -6.249397 7.926181 22.871534 0.295575 1.216903 0.075026 -0.029792 -726839.000000 0 1 0
-19.239433 -6.573997 8.661281 22.099571 0.329256 1.168078 0.092675 -0.037811 -763685.000000 0 1 0
-19.109833 -5.823597 9.830381 22.265139 0.295803 1.113510 0.077507 -0.025005 280756.000000 0 1 0
-18.006833 -6.158297 10.658981 21.812486 0.329528 1.060238 0.073338 -0.028039 -36787.900000 0 1 0
-17.656633 -5.100997 11.721081 21.798179 0.281242 1.003079 0.055123 -0.011420 6992.120000 0 1 0
-18.739033 -4.954297 12.610581 23.124082 0.258470 0.993997 0.068767 -0.011620 326109.000000 0 1 0
-18.951833 -3.606797 13.044481 23.288183 0.188065 0.976250 0.071509 -0.003016 100092.000000 0 1 0
-20.136533 -3.485397 14.029581 24.788246 0.171390 0.969178 0.071876 -0.009496 -98142.100000 0 1 0
-19.833833 -3.761397 15.371481 25.373441 0.187420 0.920013 0.074192 -0.006360 920793.000000 0 0 1
-21.083333 -3.994297 16.055481 26.799997 0.187234 0.928438 0.061618 -0.004106 787229.000000 0 0 1
-20.990333 -4.906697 17.271081 27.621731 0.229636 0.895317 0.062456 -0.002482 -196882.000000 0 0 1
-21.973933 -4.633297 18.251081 28.938265 0.207810 0.888354 0.053347 -0.003256 362807.000000 0 0 1
-21.790633 -5.391597 19.441181 29.696137 0.242556 0.857050 0.059388 0.004345 257801.000000 0 0 1
-22.760533 -4.918797 20.608581 31.095821 0.212838 0.846319 0.045673 0.000245 16839.400000 0 0 1
-22.523333 -3.597197 20.983781 30.992893 0.158372 0.827048 0.056374 -0.003840 227788.000000 0 0 1
-23.153133 -3.344597 22.218581 32.263280 0.143463 0.811151 0.061911 -0.001276 -116693.000000 0 0 1
-23.315433 -1.808197 22.418181 32.395275 0.077399 0.806513 0.056502 0.001826 -180651.000000 0 0 1
-24.278433 -1.096197 21.685081 32.571256 0.045120 0.842266 0.063942 -0.006204 -201535.000000 0 0 1
-24.169333 0.288103 21.852481 32.584822 -0.011920 0.835734 0.066199 -0.007628 -172864.000000 0 0 1
-25.512973 0.929603 21.515881 33.387260 -0.036420 0.870514 0.084606 -0.013023 222383.000000 0 0 1
-26.558283 0.753303 22.445581 34.780943 -0.028357 0.869326 0.090318 -0.009669 -403057.000000 0 0 1
-27.817953 1.278003 22.158281 35.587375 -0.045909 0.898679 0.075101 -0.010976 -178464.000000 0 0 1
-28.646593 1.129203 23.451481 37.038823 -0.039398 0.885168 0.056584 -0.004524 -330121.000000 0 0 1
-28.254163 2.134403 24.369781 37.372980 -0.075400 0.860485 0.050926 -0.003807 116360.000000 0 0 1
-28.958643 1.953003 25.569981 38.681277 -0.067339 0.848589 0.050622 -0.006183 -347740.000000 0 0 1
-28.563883 2.938503 26.675081 39.192986 -0.102514 0.822203 0.061267 -0.006714 86511.200000 0 0 1
-27.331643 2.589603 27.286081 38.707299 -0.094465 0.788467 0.053813 -0.012514 378513.000000 0 0 1
-27.064423 3.409403 28.386381 39.368689 -0.125314 0.765495 0.050590 -0.012087 265957.000000 0 0 1
-25.722923 2.975203 29.059881 38.922966 -0.115152 0.727860 0.055775 -0.012424 420449.000000 0 0 1
-25.990683 2.062603 30.085581 39.810955 -0.079193 0.714057 0.046823 -0.013444 -95295.200000 0 0 1
-24.788433 1.809203 30.734381 39.526470 -0.072857 0.680013 0.035509 -0.012466 -248797.000000 0 0 1
-24.918333 0.693103 31.777981 40.388660 -0.027808 0.665182 0.041534 -0.018373 155575.000000 0 0 1
-25.314833 -0.472797 31.129781 40.126395 0.018675 0.682825 0.038448 -0.025844 -259892.000000 0 0 1
-25.576773 -1.501097 32.040981 41.024981 0.058623 0.674513 0.045956 -0.023024 -414032.000000 0 0 1
-26.242703 -2.705397 31.246281 40.894116 0.102728 0.701186 0.026094 -0.010639 1325350.000000 0 0 1
-27.625873 -2.442497 30.900081 41.520714 0.088184 0.731447 0.029661 -0.004442 1134950.000000 0 0 1
-27.750443 -1.670397 29.730881 40.703840 0.060121 0.751860 0.030916 -0.009763 -1031370.000000 0 0 1
-29.206053 -1.532797 29.250081 41.363151 0.052434 0.785333 0.033095 -0.011830 -266435.000000 0 0 1
-29.900253 -0.788097 30.186581 42.495599 0.026351 0.780807 0.047976 -0.014033 -471322.000000 0 0 1
-31.238603 -0.617597 29.717581 43.120371 0.019768 0.810443 0.036081 -0.013060 230716.000000 0 0 1
-32.191363 -0.201797 30.820581 44.567172 0.006269 0.807159 0.043041 -0.009363 -477539.000000 0 0 1
-32.406163 -1.348297 31.657481 45.322990 0.041582 0.797516 0.043726 -0.005149 -77313.300000 0 0 1
-33.365483 -1.103997 32.668581 46.708784 0.033076 0.796225 0.057783 -0.009886 7310.010000 0 0 1
-33.537933 -2.363197 33.563281 47.506542 0.070347 0.786259 0.062093 -0.004804 -26737.600000 0 0 1
-34.310945 -3.370697 32.928381 47.674740 0.097925 0.808356 0.061944 -0.006981 -114963.000000 0 0 1
-34.448141 -4.504397 33.821481 48.485633 0.130021 0.798814 0.037052 0.004659 -748392.000000 0 0 1
-35.674255 -5.280997 33.407981 49.159278 0.146966 0.823598 0.034280 0.004258 -144027.000000 0 0 1
35.489201 -4.726197 33.923381 49.321558 -0.132394 0.812342 0.047524 -0.009530 576267.000000 0 0 1
34.340731 -5.297397 33.317181 48.139202 -0.153053 0.806401 0.038187 -0.008174 383797.000000 0 0 1
32.935451 -4.942097 33.873681 47.503626 -0.148943 0.776921 0.066847 -0.013346 169918.000000 0 0 1
32.584851 -5.533897 -33.285788 46.907784 -0.168225 2.359727 0.066057 -0.015085 165092.000000 0 0 1
32.132841 -6.893697 -33.315288 46.796912 -0.211334 2.363014 0.049305 -0.012709 -621371.000000 0 0 1
30.679331 -7.123897 -33.740988 46.156533 -0.228162 2.390600 0.039352 -0.009982 -449456.000000 0 0 1
29.752601 -6.795297 -32.716688 44.741200 -0.224542 2.390939 0.045894 -0.011841 -490443.000000 0 0 1
28.493561 -7.203497 -33.175088 44.321099 -0.247623 2.416619 0.034275 -0.008674 -1399500.000000 0 0 1
27.390011 -6.941997 -32.207388 42.845302 -0.248223 2.421453 0.041878 -0.019146 -748472.000000 0 0 1
26.202781 -7.602197 -32.629588 42.533153 -0.282377 2.445193 0.046112 -0.021564 117928.000000 0 0 1
25.108481 -7.124497 -31.869488 41.192943 -0.276481 2.455400 0.050867 -0.025569 568822.000000 0 0 1
23.694281 -7.635197 -32.344288 40.815048 -0.311732 2.485628 0.067231 -0.028139 696847.000000 0 0 1
23.458681 -9.009797 -32.366288 40.976368 -0.366699 2.481405 0.066917 -0.029133 117661.000000 0 0 1
23.390381 -9.680097 -31.150388 40.139268 -0.392388 2.459187 0.065218 -0.021779 -436157.000000 0 0 1
23.092181 -11.211897 -31.401488 40.558709 -0.452003 2.456283 0.071245 -0.015021 306535.000000 0 0 1
21.783881 -11.467697 -31.894788 40.290483 -0.484568 2.484254 0.084418 -0.026180 55890.200000 0 0 1
21.497881 -12.834497 -32.092388 40.703864 -0.538220 2.479058 0.073911 -0.015223 -624905.000000 0 0 1
20.168781 -13.134597 -32.797588 40.681435 -0.577242 2.508506 0.085486 -0.014696 802455.000000 0 0 1
18.927181 -12.756397 -32.185388 39.457104 -0.593043 2.524745 0.078158 -0.011704 639700.000000 0 0 1
18.746281 -11.348297 -32.313688 39.043326 -0.544353 2.545680 0.084045 -0.024548 -1519120.000000 0 0 1
17.429881 -10.908097 -31.702888 37.787041 -0.559194 2.566218 0.067859 -0.025417 -280613.000000 0 0 1
16.282881 -11.247697 -32.476788 38.031364 -0.604503 2.594321 0.054488 -0.011103 -500986.000000 0 0 1
15.126381 -10.929797 -31.746088 36.825018 -0.625710 2.610155 0.064256 -0.015911 412629.000000 0 0 1
13.893081 -11.455097 -32.595488 37.238458 -0.689513 2.636889 0.045983 -0.005995 -102135.000000 0 0 1
13.931481 -12.844097 -32.814588 37.892667 -0.744809 2.617919 0.055769 -0.011397 -103311.000000 0 0 1
12.877981 -13.392897 -33.576488 38.374375 -0.804996 2.636173 0.034294 -0.014937 -606628.000000 0 0 1
11.604381 -13.647097 -32.791788 37.365844 -0.866117 2.641602 0.019761 -0.014913 -671710.000000 0 0 1
10.847081 -12.444697 -32.662988 36.597820 -0.853882 2.673620 0.069480 -0.022822 -538328.000000 0 0 1
9.885781 -12.478497 -31.647088 35.425693 -0.900814 2.675514 0.064301 -0.024330 -278296.000000 0 0 1
8.705781 -11.554197 -32.020788 35.137173 -0.925076 2.717246 0.052091 -0.015406 -351060.000000 0 0 1
8.918981 -10.117897 -32.069288 34.790218 -0.848294 2.743470 0.052806 -0.017125 467126.000000 0 0 1
7.784581 -9.445697 -32.620888 34.841688 -0.881508 2.782626 0.042325 -0.009098 429703.000000 0 0 1
8.049581 -7.929897 -32.799388 34.691193 -0.777908 2.809823 0.056617 -0.010354 -157723.000000 0 0 1
8.133181 -7.116397 -31.631888 33.427056 -0.718821 2.812376 0.041645 -0.012291 53865.000000 0 0 1
8.566681 -5.836097 -31.922688 33.563463 -0.598035 2.827620 0.040072 -0.004083 -109411.000000 0 0 1
8.990781 -5.049997 -30.658588 32.346339 -0.511771 2.817131 0.035579 -0.000845 -340132.000000 0 0 1
7.892281 -4.517497 -29.964088 31.313614 -0.519874 2.846939 0.043674 -0.001105 -256601.000000 0 0 1
8.211681 -3.644897 -28.953988 30.315844 -0.417742 2.840718 0.047546 -0.001521 -30263.300000 0 0 1
6.918281 -3.069497 -28.329688 29.323295 -0.417585 2.880527 0.034158 0.001012 -472952.000000 0 0 1
6.276481 -2.124797 -29.237588 29.979085 -0.326423 2.918719 0.032445 0.009923 964807.000000 0 0 1
4.947781 -1.694897 -28.895488 29.364987 -0.330029 2.962533 0.041550 0.001894 905848.000000 0 0 1
3.836181 -2.748997 -28.775688 29.160135 -0.621778 2.979031 0.025013 -0.002151 -990344.000000 0 0 1
3.991081 -3.590597 -27.657088 28.173314 -0.732625 2.949866 0.026244 -0.005198 -307163.000000 0 0 1
3.015681 -4.600897 -27.583688 28.126899 -0.990596 2.944741 0.045716 -0.008840 -147505.000000 0 0 1
3.295881 -5.575297 -26.380088 27.163502 -1.036904 2.900842 0.032584 -0.013777 -130545.000000 0 0 1
3.060481 -4.966497 -25.123988 25.792391 -1.018532 2.913437 0.049886 -0.023193 73245.400000 0 0 1
3.229081 -5.907197 -24.112988 25.035138 -1.070540 2.869333 0.044443 -0.033242 -188264.000000 0 0 1
3.155481 -5.278197 -22.745888 23.562509 -1.031972 2.877548 0.051326 -0.042076 -639160.000000 0 1 0
4.193881 -4.409897 -22.514288 23.322285 -0.810500 2.877597 0.038970 -0.031609 -668146.000000 0 1 0
3.900781 -3.575497 -21.415588 22.059639 -0.741917 2.899357 0.036667 -0.029232 -240784.000000 0 1 0
4.910181 -2.452597 -21.150088 21.850660 -0.463241 2.887685 0.047718 -0.028156 594844.000000 0 1 0
6.215181 -2.941597 -20.825188 21.931027 -0.442054 2.822679 0.045812 -0.028298 748525.000000 0 1 0
7.146881 -1.909497 -20.466788 21.762663 -0.261081 2.794760 0.070606 -0.019813 1654650.000000 0 1 0
8.581781 -2.426197 -20.008888 21.906369 -0.275524 2.722313 0.062907 -0.026636 162467.000000 0 1 0
9.318381 -2.922797 -21.094988 23.245935 -0.303941 2.708018 0.066679 -0.033403 -80615.400000 0 1 0
10.499681 -3.613097 -20.781888 23.562356 -0.331422 2.650876 0.058025 -0.035168 510226.000000 0 1 0
11.692281 -2.834497 -20.127988 23.449514 -0.237836 2.602849 0.050262 -0.028728 -944952.000000 0 1 0
11.474081 -2.449697 -18.775088 22.139546 -0.210340 2.583061 0.060300 -0.027082 34321.300000 0 1 0
12.474581 -1.680097 -18.113988 22.057979 -0.133876 2.534305 0.048609 -0.031777 -29532.500000 0 1 0
12.509781 -0.119497 -18.351288 22.209878 -0.009552 2.543244 0.042841 -0.025866 109927.000000 0 1 0
13.144081 0.189203 -19.601588 23.601375 0.014394 2.550850 0.044370 -0.026219 396332.000000 0 1 0
12.977981 1.578003 -19.806588 23.732236 0.120997 2.558177 0.059885 -0.028720 -78349.700000 0 1 0
13.359081 2.091303 -21.199688 25.144887 0.155285 2.573821 0.054492 -0.023221 543515.000000 0 0 1
14.748381 2.055103 -21.564088 26.205879 0.138453 2.537244 0.049550 -0.011790 935754.000000 0 0 1
15.171281 3.318003 -22.081188 26.995477 0.215313 2.528650 0.051242 -0.021466 -276686.000000 0 0 1
16.617081 3.336503 -22.604788 28.253072 0.198153 2.498229 0.036915 -0.008729 -18411.800000 0 0 1
16.755081 2.528903 -23.770088 29.191526 0.149803 2.522285 0.025940 -0.010435 168697.000000 0 0 1
17.429981 1.288103 -23.551088 29.327755 0.073767 2.503160 0.024397 -0.001367 -385008.000000 0 0 1
9.250867 26.818203 2.874981 28.514208 1.238630 1.469798 -0.017197 0.011799 131836.000000 0 0 1
9.179767 27.444903 4.147681 29.235151 1.248014 1.428443 -0.012303 0.013000 396975.000000 0 0 1
10.481467 27.567003 4.705981 29.865483 1.207459 1.412564 -0.001267 0.003514 2182.650000 0 0 1
10.506067 28.450803 6.006681 30.917727 1.217057 1.375273 -0.003155 0.000485 -43887.300000 0 0 1
10.196967 27.619503 7.161281 30.300149 1.217125 1.332194 -0.004481 -0.003553 150891.000000 0 0 1
10.397567 28.325303 8.377281 31.314709 1.218990 1.299979 0.016523 -0.011503 -439426.000000 0 0 1
10.172967 27.419903 9.616881 30.786762 1.215531 1.253109 0.021626 -0.021302 -51156.900000 0 0 1
11.231167 26.624803 10.112881 30.615186 1.171613 1.234151 0.026457 -0.014433 182490.000000 0 0 1
11.924267 25.760403 9.197881 29.839362 1.137274 1.257447 0.022780 -0.012707 -715885.000000 0 0 1
13.131167 25.020303 9.745181 29.889993 1.087490 1.238690 0.030290 -0.010376 173688.000000 0 0 1
14.174267 26.002103 10.017181 31.262807 1.071707 1.244625 0.036576 -0.017884 675533.000000 0 0 1
15.260367 25.392903 10.704981 31.500396 1.029664 1.224053 0.045315 -0.016603 162799.000000 0 0 1
16.389367 26.377803 11.104781 32.980540 1.014839 1.227379 0.047872 -0.018056 -617667.000000 0 0 1
17.167767 26.747903 9.984781 33.314837 1.000182 1.266408 0.055510 -0.023309 -453080.000000 0 0 1
18.529867 26.485403 10.061081 33.853477 0.960322 1.269043 0.070731 -0.031334 31425.300000 0 0 1
19.386167 27.382703 11.070381 35.329721 0.954741 1.252083 0.058719 -0.026768 -433687.000000 0 0 1
19.455467 28.803803 10.931881 36.437347 0.976739 1.266084 0.051730 -0.032938 -135398.000000 0 0 1
18.289367 29.512403 11.286381 36.508427 1.016004 1.256503 0.042681 -0.021432 -187019.000000 0 0 1
18.551367 31.014403 11.579981 37.949208 1.031736 1.260706 0.027087 -0.008994 -1068050.000000 0 0 1
18.812667 31.845203 10.525381 38.455390 1.037203 1.293555 0.043631 -0.025722 195166.000000 0 0 1
17.894867 31.951203 9.423781 37.814194 1.060256 1.318929 0.062607 -0.031822 956508.000000 0 0 1
16.482967 32.559903 9.761681 37.777320 1.102173 1.309430 0.049531 -0.021435 256619.000000 0 0 1
16.508067 33.969703 10.006781 39.071635 1.118440 1.311797 0.050846 -0.020762 -641929.000000 0 0 1
15.274567 -34.004343 10.008781 38.597713 -1.148612 1.308488 0.062242 -0.014042 -566427.000000 0 0 1
15.300167 -32.491643 10.177381 37.328020 -1.130702 1.294653 0.067021 -0.010334 473198.000000 0 0 1
15.967167 -31.774243 9.070781 36.699210 -1.105135 1.321042 0.067484 -0.017189 588658.000000 0 0 1
16.138167 -30.365443 9.364581 35.639809 -1.082295 1.304919 0.051258 -0.011699 -89279.600000 0 0 1
16.810867 -29.739343 8.143681 35.119130 -1.056302 1.336779 0.039643 -0.005734 -24697.100000 0 0 1
16.009467 -29.661143 6.984681 34.421973 -1.075860 1.366464 0.045391 -0.006499 56851.600000 0 0 1
16.814767 -29.250843 5.905981 34.252428 -1.049077 1.397505 0.041609 -0.007815 102324.000000 0 0 1
16.242267 -29.622143 4.503481 34.081724 -1.069248 1.438271 0.048173 -0.012071 -142567.000000 0 0 1
16.294067 -30.993143 4.123281 35.257240 -1.086776 1.453580 0.046172 -0.015605 127812.000000 0 0 1
16.138567 -31.146943 2.737981 35.186389 -1.092740 1.492904 0.043690 -0.007890 -168768.000000 0 0 1
16.324867 -32.576743 2.253581 36.507864 -1.106253 1.509028 0.031018 -0.009674 184509.000000 0 0 1
17.687467 -32.972143 2.360281 37.491061 -1.078426 1.507799 0.052658 -0.002758 434839.000000 0 0 1
17.986567 -34.226443 1.807081 38.706996 -1.086944 1.524093 0.067814 -0.006446 1266010.000000 0 0 1
19.525467 34.008303 1.974281 39.264568 1.049610 1.520494 0.087810 -0.012149 1443300.000000 0 0 1
19.808867 33.559703 3.319281 39.110900 1.037571 1.485826 0.077228 -0.038493 146162.000000 0 0 1
21.189167 33.371903 3.553981 39.689992 1.005081 1.481133 0.069797 -0.026969 126822.000000 0 0 1
21.599367 33.158603 5.072781 39.896851 0.993441 1.443304 0.073885 -0.020661 -352323.000000 0 0 1
21.048067 31.940503 5.549181 38.652429 0.988136 1.426732 0.078273 -0.029041 -170441.000000 0 0 1
21.799267 30.763203 5.432181 38.093192 0.954312 1.427706 0.059038 -0.035060 -618610.000000 0 0 1
21.213967 29.592103 6.253181 36.943568 0.948832 1.400714 0.070269 -0.040914 733520.000000 0 0 1
19.889867 29.275203 5.812481 35.866827 0.974023 1.408021 0.071660 -0.036851 -303747.000000 0 0 1
19.043467 29.022903 6.852781 35.382808 0.990108 1.375889 0.073424 -0.045691 139370.000000 0 0 1
17.538967 29.128703 6.404281 34.599299 1.028820 1.384624 0.080474 -0.040355 368324.000000 0 0 1
16.999467 30.430903 6.270881 35.416743 1.061355 1.392798 0.072041 -0.044652 105513.000000 0 0 1
17.454467 31.193003 5.176781 36.117321 1.060640 1.426969 0.083642 -0.040681 -354511.000000 0 0 1
17.350667 32.717403 5.514381 37.441721 1.083189 1.422980 0.087488 -0.037449 300030.000000 0 0 1
16.006467 33.137203 5.647481 37.231374 1.120812 1.418522 0.074532 -0.032297 219553.000000 0 0 1
16.052367 -34.086843 5.803581 38.121817 -1.130678 1.417964 0.070909 -0.029430 1481290.000000 0 0 1
14.586267 -33.417643 5.816981 36.923371 -1.159239 1.412595 0.064272 -0.025525 1470700.000000 0 0 1
14.010667 -33.531543 4.556481 36.625465 -1.175010 1.446066 0.049076 -0.013580 -941111.000000 0 0 1
12.744767 -32.948143 4.623481 35.628441 -1.201710 1.440660 0.029763 -0.009838 -565994.000000 0 0 1
12.204767 -32.724343 3.202181 35.072681 -1.213818 1.479368 0.031957 -0.001963 -292258.000000 0 0 1
11.067767 -31.894543 3.287281 33.919958 -1.236787 1.473731 0.022538 -0.008440 -367220.000000 0 0 1
10.521667 -31.723943 2.015681 33.483982 -1.250550 1.510562 0.021529 -0.001674 -337542.000000 0 0 1
9.665267 -30.379143 2.061781 31.946215 -1.262768 1.506212 0.028412 -0.001818 159370.000000 0 0 1
9.114667 -29.834143 0.891681 31.208146 -1.274291 1.542220 0.041770 0.000741 -143628.000000 0 0 1
8.119267 -30.609043 0.284281 31.668862 -1.311510 1.561820 0.035955 -0.004699 -1224500.000000 0 0 1
8.558767 -31.129243 -1.031019 32.300856 -1.302483 1.602721 0.047211 -0.010769 223541.000000 0 0 1
9.626067 -32.092643 -1.002019 33.520187 -1.279389 1.600694 0.036812 -0.014343 381508.000000 0 0 1
9.600067 -32.885043 -2.151619 34.325163 -1.286761 1.633521 0.034512 -0.004536 -798471.000000 0 0 1
10.834367 -33.744543 -2.058919 35.500942 -1.260123 1.628825 0.021906 -0.000700 -758212.000000 0 0 1
10.901267 33.865803 -1.051819 35.592647 1.259374 1.600352 0.014636 -0.000238 -598772.000000 0 0 1
12.074567 33.143503 -1.201619 35.294912 1.221429 1.604848 0.033820 -0.004588 -771594.000000 0 0 1
12.262667 31.988003 -0.143919 34.258226 1.204723 1.574997 0.012666 -0.001622 -334970.000000 0 0 1
12.349667 32.368303 1.231881 34.666105 1.206308 1.535253 0.028301 -0.002051 1307430.000000 0 0 1
13.569067 33.116303 1.615481 35.824836 1.181922 1.525687 0.038239 -0.009032 1405360.000000 0 0 1
14.776367 32.171003 1.911581 35.453753 1.140230 1.516853 0.051252 -0.018627 -453071.000000 0 0 1
15.376967 31.748903 0.742681 35.284494 1.119763 1.549746 0.056229 -0.020546 -258094.000000 0 0 1
16.139667 30.574203 0.994381 34.586985 1.085090 1.542042 0.074321 -0.018099 206778.000000 0 0 1
16.900767 30.011603 -0.254419 34.444114 1.057920 1.578183 0.063756 -0.007670 328816.000000 0 0 1
17.891167 30.809503 -0.899219 35.638854 1.044687 1.596030 0.044122 0.001044 279615.000000 0 0 1
17.470267 31.991303 -1.539119 36.483182 1.070957 1.612996 0.061864 -0.007285 -439434.000000 0 0 1
18.690367 32.639803 -2.197919 37.676483 1.050749 1.629166 0.053397 -0.004262 166212.000000 0 0 1
19.493167 33.447003 -1.340619 38.736066 1.043114 1.605412 0.048402 -0.001274 -103690.000000 0 0 1
20.569967 33.957103 -2.075419 39.755701 1.026150 1.623024 0.052330 0.001730 -512810.000000 0 0 1
21.725367 -33.901043 -1.363419 40.288103 -1.000883 1.604645 0.058716 0.003381 74043.700000 0 0 1
22.756167 33.919803 -0.792319 40.853689 0.979881 1.590192 0.062563 0.000359 981867.000000 0 0 1
23.663667 33.133103 -1.613519 40.747700 0.950604 1.610404 0.065493 0.001544 805317.000000 0 0 1
24.602467 33.928703 -2.596219 41.990220 0.943408 1.632665 0.054529 0.006300 -406215.000000 0 0 1
23.850967 -34.138743 -3.660819 41.805789 -0.960978 1.658476 0.057690 -0.000079 210672.000000 0 0 1
24.666467 -33.599543 -4.718719 41.947946 -0.937529 1.683525 0.045922 0.001526 -204127.000000 0 0 1
23.954467 -33.186043 -5.963819 41.360574 -0.945573 1.715492 0.044747 -0.004765 -414417.000000 0 0 1
23.007867 -32.154843 -5.803219 39.962147 -0.949721 1.716530 0.053525 -0.003739 163930.000000 0 0 1
22.439867 -31.653943 -7.003119 39.427952 -0.954114 1.749362 0.051935 -0.005473 253967.000000 0 0 1
21.475667 -30.455943 -6.801319 37.881746 -0.956630 1.751316 0.057363 -0.012976 -447052.000000 0 0 1
20.302867 -30.679043 -6.127519 37.295530 -0.986182 1.735841 0.070821 -0.010471 -475927.000000 0 0 1
19.486467 -29.472143 -6.000219 35.837581 -0.986600 1.739017 0.075702 -0.017038 749944.000000 0 0 1
18.346567 -29.566343 -4.984919 35.151310 -1.015424 1.713089 0.056899 -0.006284 236654.000000 0 0 1
17.191067 -30.299243 -5.359419 35.246280 -1.054710 1.723445 0.055413 -0.015941 309058.000000 0 0 1
16.127567 -30.022843 -4.421519 34.365962 -1.077852 1.699814 0.033348 -0.006873 134734.000000 0 0 1
14.818267 -30.598943 -4.921319 34.352522 -1.119809 1.714550 0.021904 -0.005366 -669227.000000 0 0 1
14.869567 -32.003443 -4.901819 35.627970 -1.135848 1.708818 0.018897 0.016581 -224883.000000 0 0 1
13.582167 -32.562843 -5.050619 35.641588 -1.175631 1.712981 0.024950 0.015681 -265501.000000 0 0 1
13.674367 -34.124743 -5.175019 37.125022 -1.189672 1.710646 0.022755 0.005132 32497.900000 0 0 1
13.810567 33.841603 -3.911019 36.759787 1.183332 1.677392 0.031062 -0.003597 -221151.000000 0 0 1
14.172167 32.430803 -4.020919 35.619869 1.158808 1.683922 0.028968 -0.005346 -300126.000000 0 0 1
13.251967 31.385703 -4.654119 34.385139 1.171275 1.706566 0.022834 -0.007936 -528704.000000 0 0 1
12.321767 30.744103 -3.818719 33.340792 1.189614 1.685584 0.016790 -0.007522 -254928.000000 0 0 1
12.786567 29.600403 -3.105219 32.393248 1.163035 1.666804 0.028748 -0.016755 -52172.400000 0 0 1
11.692567 28.730703 -2.409019 31.112261 1.184295 1.648304 0.024688 -0.011474 172038.000000 0 0 1
10.942567 29.448703 -1.479519 31.450832 1.215027 1.617856 0.013213 -0.016564 -6632.050000 0 0 1
9.870267 28.660403 -0.969619 30.327892 1.239131 1.602773 -0.002821 -0.007218 399165.000000 0 0 1
8.838167 29.388503 -0.063719 30.688782 1.278665 1.572873 -0.014989 0.005259 168028.000000 0 0 1
7.825767 28.501803 0.364281 29.558892 1.302829 1.558472 -0.013905 0.005958 -364359.000000 0 0 1
6.673967 29.287703 0.578981 30.044078 1.346746 1.551524 -0.003806 0.010150 -18903.800000 0 0 1
5.573067 28.579603 1.415081 29.152277 1.378212 1.522236 -0.008131 0.010397 336221.000000 0 0 1
5.057867 27.417103 0.719181 27.889008 1.388369 1.545006 0.001832 -0.001359 -31975.200000 0 0 1
3.881767 26.980903 1.355381 27.292385 1.427906 1.521114 0.002577 -0.000197 146391.000000 0 0 1
3.252867 25.732703 0.668981 25.946111 1.445053 1.545010 0.010796 -0.006336 -587627.000000 0 0 1
2.034367 25.326703 1.173081 25.435343 1.490643 1.524660 0.026563 -0.005611 -781556.000000 0 0 1
1.531567 24.245203 0.412181 24.297026 1.507710 1.553831 0.028715 -0.013706 -1024330.000000 0 1 0
0.121867 23.856003 0.757681 23.868343 1.565688 1.539047 0.036320 -0.012013 -1045500.000000 0 1 0
-0.789733 24.920703 0.491681 24.938061 -1.539117 1.551079 0.048862 -0.015534 355283.000000 0 1 0
-2.061333 24.273403 0.703581 24.370930 -1.486078 1.541923 0.049340 -0.012749 332245.000000 0 1 0
-3.255933 25.132803 1.174181 25.370014 -1.441965 1.524498 0.072768 -0.019773 -3444.920000 0 0 1
-4.371533 24.256903 1.274681 24.680609 -1.392492 1.519126 0.062115 -0.018794 915072.000000 0 1 0
-5.481733 24.831603 2.045981 25.511643 -1.353525 1.490512 0.064193 -0.018019 1298000.000000 0 0 1
-6.694533 25.191503 1.146481 26.091052 -1.311054 1.526841 0.071124 -0.018227 -236216.000000 0 0 1
-6.618333 26.445203 0.477381 27.264977 -1.325567 1.553286 0.083497 -0.024739 -337448.000000 0 0 1
-7.550233 26.503503 -0.564119 27.563743 -1.293271 1.591264 0.083087 -0.018253 -292705.000000 0 0 1
-7.278533 27.651603 -1.593919 28.637891 -1.313412 1.626483 0.078310 -0.022633 228839.000000 0 0 1
-7.876633 28.921003 -1.283919 30.001904 -1.304896 1.613604 0.080367 -0.030801 353293.000000 0 0 1
-7.465933 29.749003 -2.378119 30.763595 -1.324910 1.648177 0.075497 -0.025951 -63627.000000 0 0 1
-7.551933 31.256803 -1.976719 32.216872 -1.333730 1.632192 0.057158 -0.032739 -586058.000000 0 0 1
-7.345333 32.276003 -2.980119 33.235153 -1.347029 1.660585 0.051533 -0.024236 301389.000000 0 0 1
-6.042133 32.491803 -3.513919 33.235106 -1.386938 1.676723 0.038116 -0.023472 591058.000000 0 0 1
-4.907633 32.915303 -2.547119 33.376487 -1.422788 1.647185 0.042195 -0.023121 -431429.000000 0 0 1
-5.017233 -34.297243 -2.267119 34.736341 1.425540 1.636109 0.032108 -0.016218 -30116.500000 0 0 1
-4.110933 -33.869143 -1.280519 34.141739 1.450010 1.608311 0.044414 -0.019929 -97976.600000 0 0 1
-4.022333 -32.358943 -1.184119 32.629473 1.447127 1.607094 0.038661 -0.012241 139267.000000 0 0 1
-5.231133 -31.782643 -0.731119 32.218562 1.407668 1.593491 0.036946 -0.011760 -21501.300000 0 0 1
-5.415533 -30.528143 -1.316819 31.032717 1.395228 1.613242 0.044596 -0.006803 -37523.000000 0 0 1
-6.817833 -30.009843 -0.944919 30.789063 1.347402 1.601491 0.062133 -0.014137 -27246.200000 0 0 1
-6.960033 -29.557143 0.396481 30.368141 1.339532 1.557740 0.050753 -0.012035 167706.000000 0 0 1
-8.263433 -29.080043 0.680581 30.238989 1.293933 1.548288 0.022463 -0.004521 224500.000000 0 0 1
-8.172733 -28.145743 1.887881 29.369040 1.288196 1.506471 0.032869 -0.010013 251654.000000 0 0 1
-7.364533 -26.986943 1.730981 28.027268 1.304391 1.508996 0.043124 -0.003488 -161624.000000 0 0 1
-7.170533 -26.281443 2.943981 27.400690 1.304443 1.463147 0.051807 -0.001817 -62268.100000 0 0 1
-8.295833 -25.310343 3.347181 26.844701 1.254066 1.445784 0.035148 -0.003926 59473.900000 0 0 1
-8.097933 -23.995143 2.801181 25.479208 1.245316 1.460634 0.032301 -0.007093 -23980.300000 0 0 1
-9.084733 -23.084243 3.294781 25.025392 1.195865 1.438755 0.030881 -0.011272 39445.100000 0 0 1
-8.442233 -21.757443 3.498581 23.598680 1.200664 1.421995 0.012036 0.003208 186651.000000 0 1 0
-7.795833 -21.749143 4.763881 23.590142 1.226620 1.367454 0.007193 0.008122 -460817.000000 0 1 0
-7.138233 -20.544243 5.000081 22.316387 1.236389 1.344824 0.005690 0.004156 -25996.700000 0 1 0
-8.020333 -19.456843 5.663381 21.793769 1.179807 1.307917 0.008502 0.000098 28523.400000 0 1 0
-8.421033 -19.778243 6.950581 22.592107 1.168271 1.258069 0.017930 0.002967 2292.740000 0 1 0
-9.123933 -18.732343 7.609781 22.182327 1.117547 1.220628 0.012172 -0.005475 -337943.000000 0 1 0
-27.500653 28.487603 -6.036619 40.053342 -0.803024 1.722087 0.061341 -0.017831 -332521.000000 0 0 1
-26.837903 29.467003 -5.261019 40.202682 -0.832058 1.702035 0.052900 -0.019595 171964.000000 0 0 1
-26.041583 28.674803 -4.308119 38.973944 -0.833486 1.681561 0.039260 -0.012020 518282.000000 0 0 1
-25.030103 29.596903 -3.591819 38.927932 -0.868804 1.663196 0.041837 -0.006288 -492281.000000 0 0 1
-25.610533 30.456903 -2.642119 39.881113 -0.871622 1.637095 0.035422 -0.004218 285936.000000 0 0 1
-24.806033 31.576103 -2.190219 40.214259 -0.904901 1.625287 0.032908 0.004817 1301920.000000 0 0 1
-23.493033 31.333103 -1.332119 39.184952 -0.927434 1.604799 0.018705 0.020624 919691.000000 0 0 1
-22.494533 30.568403 -1.975819 38.004410 -0.936396 1.622809 0.043777 0.006752 -684785.000000 0 0 1
-21.302033 30.807103 -1.291719 37.476963 -0.965822 1.605270 0.046196 0.015149 -623759.000000 0 0 1
-20.142833 30.038003 -1.944019 36.218705 -0.980091 1.624497 0.044293 0.006695 207121.000000 0 0 1
-18.867133 30.277403 -1.364619 35.700869 -1.013534 1.609029 0.057300 0.005449 647958.000000 0 0 1
-17.877633 29.302203 -1.725619 34.368687 -1.022974 1.621026 0.058468 0.001364 881027.000000 0 0 1
-16.459333 29.679603 -1.196219 33.959085 -1.064453 1.606029 0.055716 -0.007634 313716.000000 0 0 1
-16.203533 29.316903 0.135981 33.497071 -1.065880 1.566737 0.043769 0.000399 -247711.000000 0 0 1
-15.041933 29.988303 0.559481 33.554003 -1.105875 1.554122 0.038896 -0.005038 61255.200000 0 0 1
-14.243033 29.312103 1.697881 32.633513 -1.118484 1.518744 0.056934 -0.014991 -146630.000000 0 0 1
-14.865033 29.484003 2.919581 33.148146 -1.103816 1.482605 0.045679 -0.009103 -246690.000000 0 0 1
-14.277933 28.688503 3.942681 32.286751 -1.109000 1.448376 0.053876 -0.026682 85193.600000 0 0 1
-13.044133 29.206403 4.692381 32.329272 -1.150758 1.425138 0.061754 -0.022470 -171989.000000 0 0 1
-13.256733 30.311603 5.553381 33.546599 -1.158513 1.404488 0.056181 -0.029316 -303298.000000 0 0 1
-13.215433 31.562303 4.812781 34.554153 -1.174266 1.431060 0.065718 -0.033027 -374229.000000 0 0 1
-13.065033 32.800703 5.767881 35.774987 -1.191743 1.408863 0.062356 -0.028400 17335.000000 0 0 1
-14.220433 33.130703 6.521181 36.638641 -1.165355 1.391856 0.063649 -0.021527 184359.000000 0 0 1
-13.998533 34.273003 7.307981 37.735981 -1.183034 1.375904 0.070187 -0.020580 907712.000000 0 0 1
-15.327533 -33.864343 8.029081 38.028847 1.145769 1.358064 0.055475 -0.009703 829259.000000 0 0 1
-15.492933 33.875403 9.111481 38.348312 -1.141847 1.330904 0.040664 -0.009935 536248.000000 0 0 1
-16.666633 34.208403 9.877081 39.313461 -1.117434 1.316836 0.050320 -0.006753 -78526.800000 0 0 1
-16.757033 33.497903 11.227481 39.101969 -1.106956 1.279563 0.053448 -0.002645 323010.000000 0 0 1
-15.969633 33.773503 12.408781 39.365677 -1.129108 1.250110 0.050360 -0.011960 122652.000000 0 0 1
-14.599733 33.453003 12.263481 38.505176 -1.159288 1.246661 0.054915 -0.008765 115493.000000 0 0 1
-13.827633 33.490403 13.657881 38.721419 -1.179233 1.210318 0.052716 -0.011114 28825.100000 0 0 1
-14.059533 32.445503 14.643981 38.273063 -1.161893 1.178168 0.048835 -0.007270 -137921.000000 0 0 1
-13.662233 31.122303 14.409681 36.917384 -1.157140 1.169815 0.039485 -0.013921 -224776.000000 0 0 1
-14.542733 30.177503 13.538181 36.131083 -1.121728 1.186727 0.052114 -0.020483 47216.600000 0 0 1
-14.208833 30.272103 12.150981 35.580016 -1.131951 1.222272 0.048131 -0.014964 -171417.000000 0 0 1
-15.131133 29.591303 11.368281 35.125977 -1.098120 1.241219 0.018605 -0.005013 -452552.000000 0 0 1
-14.836433 29.449903 9.883681 34.425335 -1.104125 1.279593 0.022177 -0.005410 -46721.000000 0 0 1
-14.021733 28.331703 9.529781 33.016831 -1.111226 1.277996 0.006656 -0.001964 202626.000000 0 0 1
-14.001933 27.974803 8.227681 32.347156 -1.106733 1.313615 0.019977 -0.001994 -287564.000000 0 0 1
-13.131233 26.720503 7.838681 30.787327 -1.114029 1.313355 0.029214 -0.001281 1229610.000000 0 0 1
-11.730733 27.054003 8.053081 30.567651 -1.161660 1.304198 0.032724 -0.001221 779554.000000 0 0 1
-10.919233 25.977703 7.772881 29.231633 -1.172887 1.301652 0.047663 -0.003159 -472999.000000 0 0 1
-10.004333 26.214703 6.535681 28.809937 -1.206225 1.341949 0.058528 -0.011885 -536340.000000 0 0 1
-10.630433 26.297603 5.279981 28.852179 -1.186644 1.386758 0.064286 -0.019838 178149.000000 0 0 1
-9.674233 26.247103 4.241681 28.292986 -1.217663 1.420309 0.081444 -0.011637 -109337.000000 0 0 1
-10.133733 26.723303 2.849681 28.721911 -1.208340 1.471417 0.081114 -0.022355 -146425.000000 0 0 1
-10.204633 28.140703 2.760181 30.060810 -1.222915 1.478847 0.091327 -0.023608 145433.000000 0 0 1
-10.182533 28.481803 1.385981 30.279003 -1.227447 1.525007 0.082564 -0.025249 -46946.300000 0 0 1
-9.745033 29.932603 1.127581 31.499172 -1.256053 1.534992 0.090796 -0.036051 -27498.800000 0 0 1
-10.648533 30.883503 1.614981 32.707647 -1.238764 1.521400 0.081114 -0.036264 63328.700000 0 0 1
-10.049033 32.191103 1.578681 33.760071 -1.268214 1.524017 0.074056 -0.035383 386866.000000 0 0 1
-10.816533 33.115603 2.585781 34.933177 -1.255091 1.496708 0.065164 -0.032134 1422790.000000 0 0 1
-12.129333 33.654903 2.287681 35.846990 -1.224884 1.506935 0.068231 -0.026894 860860.000000 0 0 1
-12.124633 -34.035343 1.147381 36.148690 1.228576 1.539050 0.060946 -0.026867 -109441.000000 0 0 1
-13.544833 -33.769143 0.608981 36.389400 1.189341 1.554060 0.069445 -0.024055 333799.000000 0 0 1
-14.339333 33.799303 0.095781 36.715372 -1.169562 1.568188 0.060439 -0.025310 -80399.700000 0 0 1
-14.432733 33.731303 -1.348519 36.714072 -1.166494 1.607535 0.067799 -0.022475 249536.000000 0 0 1
-13.159633 33.204403 -2.064419 35.776671 -1.193465 1.628531 0.058483 -0.023635 173027.000000 0 0 1
-12.970133 31.821403 -2.057219 34.424674 -1.183763 1.630592 0.056414 -0.022339 60711.900000 0 0 1
-11.608833 31.444303 -2.141519 33.587130 -1.217132 1.634600 0.056020 -0.024902 95316.500000 0 0 1
-11.450033 29.947203 -2.506319 32.159289 -1.205606 1.648810 0.066802 -0.033660 46201.600000 0 0 1
-11.655833 29.531803 -3.867619 31.983501 -1.194878 1.692018 0.060806 -0.028514 592139.000000 0 0 1
-10.390333 29.475803 -4.559019 31.584278 -1.231893 1.715647 0.045222 -0.021447 698738.000000 0 0 1
-10.521333 28.931603 -6.030619 31.370439 -1.222002 1.764239 0.055512 -0.024004 -213839.000000 0 0 1
-10.901233 27.584403 -6.092219 30.279553 -1.194439 1.773378 0.050022 -0.018375 79555.600000 0 0 1
-10.708433 27.083603 -7.448719 30.061196 -1.194275 1.821190 0.036228 -0.015334 169670.000000 0 0 1
-11.185233 25.626903 -7.661119 28.992074 -1.159255 1.838221 0.055747 -0.017381 321955.000000 0 0 1
-10.404833 24.795203 -6.830419 27.743779 -1.173482 1.819550 0.028271 -0.015261 -114101.000000 0 0 1
-10.811933 23.497903 -7.017319 26.800972 -1.139556 1.835715 0.057212 -0.020368 -153859.000000 0 0 1
-10.283433 22.321403 -6.144819 25.332841 -1.139081 1.815804 0.042775 -0.013558 340849.000000 0 0 1
-8.923833 21.925003 -6.381419 24.516588 -1.184256 1.834119 0.057310 -0.020660 709460.000000 0 1 0
-8.482133 20.829803 -5.568319 23.169667 -1.184089 1.813500 0.061135 -0.020564 -336493.000000 0 1 0
-8.489933 20.871603 -3.991419 22.883055 -1.184468 1.746120 0.047048 -0.018955 364217.000000 0 1 0
-9.695333 20.790903 -3.196319 23.161986 -1.134449 1.709237 0.042305 -0.016515 523539.000000 0 1 0
-10.250833 19.461903 -3.251619 22.235518 -1.086008 1.717558 0.045636 -0.019090 -297570.000000 0 1 0
-11.565533 19.352803 -2.463319 22.679517 -1.032132 1.679625 0.049022 -0.019557 -306373.000000 0 1 0
-11.499533 19.457503 -1.058419 22.626399 -1.037015 1.617591 0.047191 -0.018497 41353.300000 0 1 0
-11.095833 18.270703 -0.445719 21.380710 -1.025025 1.591645 0.042985 -0.016140 -205741.000000 0 1 0
-10.805033 18.317803 1.071981 21.294126 -1.037862 1.520433 0.037838 -0.017027 1166870.000000 0 1 0
-12.019733 18.366903 1.879081 22.030616 -0.991318 1.485398 0.057418 -0.021946 1254870.000000 0 1 0
-11.656633 18.741303 3.233881 22.306311 -1.014375 1.425308 0.042874 -0.006823 342501.000000 0 1 0
-12.813333 18.669303 4.289881 23.046203 -0.969303 1.383562 0.059844 -0.018730 446061.000000 0 1 0
-13.303833 17.363203 4.417581 22.315641 -0.917002 1.371521 0.031399 -0.021979 788117.000000 0 1 0
-14.714733 17.319003 4.684681 23.203825 -0.866517 1.367506 0.055639 -0.031965 740220.000000 0 1 0
-15.124033 15.926803 5.120481 22.552578 -0.811246 1.341753 0.039957 -0.028398 -667839.000000 0 1 0
-14.508333 15.330703 6.252981 22.014131 -0.812951 1.282787 0.037446 -0.026192 165237.000000 0 1 0
-14.905033 16.006003 7.458181 23.107934 -0.821000 1.242158 0.032484 -0.022129 -1056830.000000 0 1 0
-13.978833 15.735203 8.681981 22.767986 -0.844439 1.179568 0.024099 -0.014260 659577.000000 0 1 0
-12.731333 16.409103 8.666381 22.504481 -0.910943 1.175485 0.021050 -0.024760 324080.000000 0 1 0
-11.820233 16.001503 7.657881 21.316875 -0.934570 1.203343 0.019309 -0.023359 -760996.000000 0 1 0
-10.643433 16.993403 7.458581 21.393664 -1.011243 1.214682 0.031392 -0.027577 -380576.000000 0 1 0
-9.689033 17.066303 8.422281 21.355816 -1.054444 1.165405 0.024816 -0.025510 -606489.000000 0 1 0
-8.793833 18.142103 8.206281 21.767188 -1.119448 1.184239 0.016797 -0.033989 -115776.000000 0 1 0
-7.615333 18.269603 9.193081 21.823942 -1.175865 1.135986 0.017224 -0.028269 -1034700.000000 0 1 0
-6.657133 17.320803 8.823481 20.547055 -1.203860 1.126937 0.014161 -0.025971 -241968.000000 0 1 0
-5.398233 17.563503 9.449481 20.661807 -1.272605 1.095794 0.017464 -0.027470 1038830.000000 0 1 0
-4.508433 18.809003 8.994581 21.330894 -1.335539 1.135511 0.016489 -0.027455 -1284980.000000 0 1 0
-5.003333 20.063903 9.397581 22.713610 -1.326411 1.144235 0.025599 -0.028813 -96037.600000 0 1 0
-4.488933 21.113103 8.571781 23.224751 -1.361302 1.192778 0.031083 -0.026975 1067050.000000 0 1 0
-3.010333 21.644603 8.780681 23.551036 -1.432603 1.188732 0.033999 -0.022401 2179580.000000 0 1 0
-1.950133 20.750803 8.262481 22.420246 -1.477093 1.193372 0.019855 -0.012872 -32098.000000 0 1 0
-0.752933 21.415703 8.198281 22.943650 -1.535653 1.205397 0.015420 -0.013204 -1028650.000000 0 1 0
0.445267 20.480403 8.078181 22.020495 1.549059 1.195177 0.015050 -0.011654 52312.400000 0 1 0
0.915067 19.865803 9.300781 21.954316 1.524766 1.133334 0.013009 -0.018355 -963948.000000 0 1 0
2.275567 19.574103 9.222281 21.757164 1.455062 1.133079 0.011764 -0.016433 -689645.000000 0 1 0
2.807067 19.038403 10.561581 21.951934 1.424409 1.068861 0.003462 -0.026914 348109.000000 0 1 0
4.210067 18.754503 10.568281 21.935009 1.349974 1.068089 0.026014 -0.009832 476553.000000 0 1 0
4.543067 18.024403 11.715681 21.972158 1.323888 1.008411 0.019352 -0.018261 -629522.000000 0 1 0
6.017367 17.951403 12.051181 22.443096 1.247364 1.003960 0.032770 -0.018761 -898982.000000 0 1 0
6.868667 17.332903 11.138181 21.717900 1.193502 1.032287 0.021674 -0.017964 337825.000000 0 1 0
7.733267 16.401403 11.860281 21.667388 1.130207 0.991567 0.026012 -0.019098 769037.000000 0 1 0
9.005167 15.887203 11.121681 21.381956 1.055132 1.023778 0.034541 -0.025037 603973.000000 0 1 0
10.046167 16.849103 10.955781 22.468798 1.033144 1.061458 0.041909 -0.020859 256662.000000 0 1 0
11.060367 16.314603 10.117981 22.155621 0.975028 1.096539 0.041655 -0.025661 114100.000000 0 1 0
12.095467 17.397803 9.738381 23.319947 0.963279 1.139995 0.050398 -0.013602 13176.100000 0 1 0
13.097867 16.974603 8.849181 23.194811 0.913604 1.179361 0.048599 -0.009117 -276659.000000 0 1 0
13.947267 18.014703 8.454181 24.300801 0.911976 1.215469 0.054457 -0.005137 -119653.000000 0 1 0
15.017567 17.655503 7.413381 24.335207 0.865961 1.261240 0.058580 -0.015950 731761.000000 0 1 0
16.041767 16.743903 7.906681 24.499228 0.806811 1.242182 0.075855 -0.022307 1004070.000000 0 1 0
16.946767 16.317803 6.878481 24.510755 0.766493 1.286345 0.094526 -0.021367 202805.000000 0 1 0
18.386867 16.201103 7.422781 25.605669 0.722288 1.276686 0.075090 -0.018954 -196237.000000 0 0 1
18.511367 15.118803 8.353781 25.318660 0.684860 1.234550 0.072245 -0.018090 387173.000000 0 0 1
19.591767 15.401203 9.239381 26.578197 0.666211 1.215754 0.071851 -0.019273 68156.000000 0 0 1
19.867067 14.276303 10.293181 26.541717 0.623095 1.172540 0.056266 -0.017146 -284451.000000 0 0 1
20.458467 13.221303 9.664381 26.205953 0.573735 1.193094 0.055985 -0.022072 -97825.400000 0 0 1
20.443267 12.040903 10.541781 25.962274 0.532285 1.152677 0.054541 -0.023783 -331291.000000 0 0 1
21.326967 10.912303 9.990181 25.956147 0.472938 1.175711 0.048768 -0.017258 -414743.000000 0 0 1
22.705167 11.164003 10.213881 27.285214 0.456981 1.187114 0.038255 -0.022764 650700.000000 0 0 1
23.626367 10.256203 9.644881 27.503066 0.409553 1.212495 0.050884 -0.023336 -200314.000000 0 0 1
23.715767 8.811303 10.128481 27.251840 0.355732 1.189997 0.055856 -0.023948 -1007600.000000 0 0 1
22.660767 8.062503 9.610881 25.901416 0.341825 1.190650 0.065107 -0.024670 67389.400000 0 0 1
22.621167 6.653403 10.004881 25.614109 0.286056 1.169513 0.068079 -0.030589 86223.500000 0 0 1
23.664567 5.646803 9.388881 26.077753 0.234238 1.202492 0.077423 -0.030559 357251.000000 0 0 1
23.356767 5.532503 7.965681 25.290299 0.232583 1.250371 0.056865 -0.014320 636154.000000 0 0 1
24.446167 5.164103 7.118381 25.979884 0.208183 1.293251 0.066798 -0.013448 134045.000000 0 0 1
23.999067 5.006503 5.663981 25.161497 0.205663 1.343745 0.052428 -0.009953 -618109.000000 0 0 1
23.187067 3.889903 5.536681 24.154218 0.166214 1.339518 0.053735 -0.009485 159024.000000 0 1 0
22.939267 3.532103 4.205681 23.587570 0.152776 1.391537 0.058292 -0.010068 -394696.000000 0 1 0
21.950167 2.378303 4.040481 22.445303 0.107929 1.389795 0.042267 -0.007289 -412987.000000 0 1 0
22.544567 1.119703 4.328881 22.983699 0.049625 1.381319 0.060022 -0.013465 235173.000000 0 1 0
21.829967 0.052903 3.808281 22.159721 0.002423 1.398083 0.051477 -0.014959 -653149.000000 0 1 0
22.390767 -1.347497 4.115481 22.805687 -0.060108 1.389344 0.068663 -0.017448 -575866.000000 0 1 0
22.305767 -1.669697 5.494881 23.033212 -0.074716 1.329910 0.066065 -0.020971 543722.000000 0 1 0
22.321767 -3.118297 5.688381 23.245273 -0.138799 1.323574 0.055340 -0.021852 -533394.000000 0 1 0
22.246567 -3.404997 7.220881 23.635669 -0.151879 1.260325 0.082787 -0.026511 -101510.000000 0 1 0
22.025867 -4.779597 7.475781 23.745961 -0.213686 1.250526 0.061455 -0.024983 508223.000000 0 1 0
22.419167 -5.151097 8.756581 24.613625 -0.225843 1.207068 0.106287 -0.031526 -207726.000000 0 1 0
22.123967 -6.605897 9.078881 24.809955 -0.290159 1.196157 0.097324 -0.033698 969841.000000 0 1 0
20.712467 -6.892797 9.081881 23.643128 -0.321257 1.176538 0.075032 -0.021093 1218760.000000 0 1 0
20.529667 -8.178297 9.666581 24.120418 -0.379096 1.158446 0.079722 -0.014668 -350216.000000 0 1 0
-25.890003 -32.998343 5.332181 42.280197 0.905526 1.444344 0.041209 -0.003318 -219630.000000 0 0 1
-26.711433 -34.025143 5.787681 43.642964 0.905238 1.437790 0.034547 -0.007121 -121920.000000 0 0 1
-26.810903 -34.036343 7.157081 43.914929 0.903592 1.407090 0.022742 0.003680 -279000.000000 0 0 1
-27.643523 33.442003 7.754081 44.075591 -0.880039 1.393949 0.021353 0.008223 245647.000000 0 0 1
-28.993283 33.389703 7.320081 44.822610 -0.855756 1.406749 0.034575 -0.006838 271624.000000 0 0 1
-29.651513 32.140303 7.621081 44.387974 -0.825653 1.398249 0.033265 -0.006913 566828.000000 0 0 1
-31.196323 32.216903 7.636181 45.491216 -0.801491 1.402137 0.052650 -0.014503 282169.000000 0 0 1
-31.805853 32.479303 6.378581 45.904289 -0.795874 1.431391 0.037429 -0.008082 -443911.000000 0 0 1
-33.197613 32.475703 6.534981 46.898388 -0.774406 1.430998 0.043938 -0.006176 -450503.000000 0 0 1
-33.952403 32.434303 5.195281 47.241302 -0.762535 1.460600 0.044205 0.001060 -414010.000000 0 0 1
-33.711193 31.297103 4.470081 46.216175 -0.748280 1.473924 0.042815 -0.004678 -116041.000000 0 0 1
-34.338319 31.194503 3.227281 46.504113 -0.737462 1.501343 0.047249 0.005370 -262949.000000 0 0 1
-33.974433 29.969003 2.410181 45.367524 -0.722840 1.517646 0.051810 -0.003475 -246412.000000 0 0 1
-34.386960 28.806303 3.096881 44.965062 -0.697316 1.501869 0.062113 -0.015561 215105.000000 0 0 1
-33.953813 27.565003 2.570581 43.809802 -0.681918 1.512087 0.043915 -0.010914 -332749.000000 0 0 1
-34.486003 26.399603 3.433681 43.566198 -0.653358 1.491899 0.064534 -0.018092 -431683.000000 0 0 1
-35.848333 26.088903 3.395981 44.466465 -0.629113 1.494350 0.062740 -0.017723 -636913.000000 0 0 1
-36.093553 25.096903 4.360581 44.177073 -0.607584 1.471928 0.068602 -0.024921 -494485.000000 0 0 1
34.801951 24.735103 4.369781 42.919647 0.617897 1.468807 0.075789 -0.026405 -807230.000000 0 0 1
34.314031 24.061003 3.214381 42.032331 0.611531 1.494248 0.069201 -0.018949 -111686.000000 0 0 1
34.693911 22.738803 3.015581 41.591037 0.580170 1.498227 0.061828 -0.016069 -1000760.000000 0 0 1
33.838521 21.975203 2.035381 40.399230 0.575963 1.520393 0.064008 -0.016243 -329178.000000 0 0 1
32.486541 21.668303 2.289181 39.116889 0.588229 1.512241 0.059790 -0.014724 289834.000000 0 0 1
32.153301 20.746103 3.326181 38.409621 0.573011 1.484090 0.043613 -0.002310 -340724.000000 0 0 1
32.433741 19.216103 3.181981 37.832938 0.534866 1.486591 0.049978 -0.013597 -257133.000000 0 0 1
31.617811 18.683003 2.172981 36.789433 0.533702 1.511697 0.039109 -0.011219 125216.000000 0 0 1
31.976761 17.383403 1.746081 36.438232 0.497936 1.522859 0.041279 -0.012067 -603537.000000 0 0 1
31.485071 16.174403 2.603681 35.492255 0.474561 1.497371 0.054766 -0.013044 365034.000000 0 0 1
30.065881 16.056803 2.706481 34.192150 0.490518 1.491558 0.036855 -0.001389 603137.000000 0 0 1
29.596481 15.034303 3.575981 33.388165 0.470008 1.463487 0.037636 -0.006160 -338336.000000 0 0 1
28.079541 14.917303 3.656681 32.005591 0.488335 1.456295 0.032278 -0.007723 -330784.000000 0 0 1
27.403281 14.575903 2.448981 31.135097 0.488844 1.492058 0.030775 -0.016923 178457.000000 0 0 1
26.024281 14.853403 2.523981 30.070871 0.518636 1.486763 0.024611 -0.007033 -42431.300000 0 0 1
25.243781 14.332003 1.271881 29.056367 0.516364 1.527009 0.042548 -0.013668 -204394.000000 0 0 1
25.600981 14.914103 -0.013819 29.628380 0.527497 1.571263 0.049020 -0.012165 894336.000000 0 0 1
26.889881 14.459003 -0.445119 30.534023 0.493360 1.585375 0.046447 -0.012897 -304070.000000 0 0 1
27.491321 15.187403 -1.661319 31.451390 0.504717 1.623643 0.058480 -0.015210 -46146.100000 0 0 1
27.878121 16.558903 -1.448119 32.457417 0.535977 1.615427 0.036451 -0.013800 871715.000000 0 0 1
28.990221 16.686503 -0.543219 33.453959 0.522278 1.587035 0.045207 -0.014782 -360376.000000 0 0 1
29.350941 18.123103 -0.328119 34.496844 0.553161 1.580308 0.048415 0.000165 -449242.000000 0 0 1
29.821831 18.622703 -1.590619 35.194840 0.558215 1.616006 0.040833 0.004783 387997.000000 0 0 1
30.402871 19.928003 -1.442119 36.380483 0.580207 1.610447 0.034252 0.021020 152430.000000 0 0 1
30.357201 20.771303 -2.765819 36.887077 0.600063 1.645847 0.041760 0.011368 -348977.000000 0 0 1
31.202901 21.872803 -2.744219 38.204336 0.611388 1.642688 0.021685 0.017857 -340901.000000 0 0 1
31.078511 22.808903 -3.807419 38.737789 0.633125 1.669242 0.031496 0.014635 108542.000000 0 0 1
32.130511 23.981003 -3.743819 40.267535 0.641169 1.663904 0.009885 0.018695 66729.000000 0 0 1
32.118341 24.770703 -2.560119 40.641478 0.656952 1.633831 0.031138 0.016989 124990.000000 0 0 1
32.638631 24.107003 -1.407419 40.600599 0.636167 1.605468 0.031657 0.019599 -459214.000000 0 0 1
32.566201 24.893703 -0.118319 40.991071 0.652656 1.573683 0.046468 -0.000195 35857.300000 0 0 1
33.345401 26.070803 -0.117819 42.327490 0.663570 1.573580 0.058780 -0.003474 262657.000000 0 0 1
34.571021 25.979803 0.615681 43.249101 0.644455 1.556560 0.067588 -0.011588 980867.000000 0 0 1
35.488521 27.271803 0.426081 44.758998 0.655216 1.561277 0.058952 -0.004851 203047.000000 0 0 1
36.088201 27.443703 -0.871919 45.346172 0.650163 1.590026 0.036422 -0.000933 -136090.000000 0 0 1
35.225611 27.540703 -1.998419 44.758548 0.663568 1.615460 0.031324 -0.006977 -358874.000000 0 0 1
35.773411 27.165903 -3.392019 45.046964 0.649482 1.646167 0.026509 0.004473 462479.000000 0 0 1
-35.516395 27.924303 -3.954419 45.352161 -0.666292 1.658101 0.032619 0.004460 398156.000000 0 0 1
-35.271530 27.583903 -5.350319 45.095216 -0.663696 1.689721 0.029378 0.003999 192570.000000 0 0 1
35.989851 27.805003 -6.432319 45.932149 0.657796 1.711298 0.019574 0.004702 292899.000000 0 0 1
34.918241 26.920803 -6.296819 44.538333 0.656785 1.712651 0.012331 0.012843 -943571.000000 0 0 1
33.815501 27.187203 -7.108319 43.967719 0.677167 1.733180 0.008123 0.006383 156650.000000 0 0 1
32.718211 26.089303 -6.865719 42.406027 0.673150 1.733416 0.008779 0.007013 -92086.100000 0 0 1
32.899501 24.724703 -7.278819 41.793173 0.644475 1.745852 0.007160 0.005099 475731.000000 0 0 1
34.097911 24.028103 -6.855719 42.273137 0.613860 1.733693 0.005920 0.011664 624800.000000 0 0 1
34.068971 22.549303 -7.148719 41.476138 0.584676 1.744019 0.003491 0.015865 56542.600000 0 0 1
33.158641 21.730303 -6.401219 40.158151 0.580123 1.730879 0.015393 0.019119 327261.000000 0 0 1
33.231221 20.382403 -6.835519 39.578791 0.550179 1.744373 0.020264 0.015590 -444899.000000 0 0 1
32.139411 19.480203 -6.292119 38.105259 0.544904 1.736681 0.031880 0.012982 111899.000000 0 0 1
30.833231 19.632103 -6.818019 37.183235 0.566982 1.755202 0.022754 0.006669 341827.000000 0 0 1
29.839331 18.822503 -6.208019 35.821945 0.562756 1.744978 0.067958 -0.002784 57122.800000 0 0 1
28.612011 18.682103 -7.096519 34.900268 0.578444 1.775561 0.053356 -0.015536 -196708.000000 0 0 1
28.772541 17.620603 -7.978919 34.669986 0.549495 1.803017 0.036975 -0.012734 -470786.000000 0 0 1
27.563981 17.439503 -8.637119 33.741801 0.564111 1.829654 0.050365 -0.018752 -428943.000000 0 0 1
27.615521 16.298903 -9.684519 33.497181 0.533188 1.864098 0.054571 -0.022931 -185373.000000 0 0 1
26.669681 16.478503 -10.726119 33.134009 0.553459 1.900454 0.057249 -0.022010 199845.000000 0 0 1
26.850281 15.437603 -11.692919 33.105612 0.521798 1.931786 0.066598 -0.025721 -358142.000000 0 0 1
25.969781 15.628903 -12.928619 32.952106 0.541750 1.973977 0.063982 -0.017530 -588478.000000 0 0 1
24.597781 15.595803 -12.594319 31.731637 0.565069 1.978934 0.046890 -0.015827 -273620.000000 0 0 1
23.779081 15.461403 -13.714119 31.505186 0.576523 2.021165 0.044576 -0.013105 -489909.000000 0 0 1
23.594981 14.048603 -14.325319 30.972587 0.537035 2.051627 0.053335 -0.017535 -308992.000000 0 0 1
24.752381 13.418403 -14.896419 31.853370 0.496762 2.057433 0.067275 -0.021238 604874.000000 0 0 1
25.019981 13.926003 -16.201319 32.900087 0.507893 2.085687 0.082781 -0.027875 -816271.000000 0 0 1
26.464381 13.692003 -16.634319 34.125283 0.477451 2.079962 0.091760 -0.028371 -449607.000000 0 0 1
26.686581 12.359903 -17.147419 34.043718 0.433736 2.098659 0.097789 -0.030602 1367490.000000 0 0 1
28.091181 12.128503 -17.453219 35.225415 0.407578 2.089175 0.089358 -0.020044 1452750.000000 0 0 1
28.365261 10.792803 -18.129419 35.351781 0.363578 2.109273 0.063148 -0.012468 -559158.000000 0 0 1
27.700581 10.683903 -19.336419 35.431131 0.368112 2.148076 0.059224 -0.017554 -125692.000000 0 0 1
27.795561 9.400803 -19.948719 35.481258 0.326135 2.167879 0.034818 0.001116 -344856.000000 0 0 1
29.141621 8.990803 -20.562619 36.781652 0.299256 2.164031 0.048544 -0.007592 -1097710.000000 0 0 1
29.342491 9.726103 -21.720619 37.780473 0.320071 2.183298 0.059581 -0.013443 561935.000000 0 0 1
30.135151 9.057203 -22.733219 38.819576 0.291964 2.196431 0.043295 -0.010067 938868.000000 0 0 1
31.577041 8.524003 -22.428419 39.658569 0.263659 2.171881 0.035635 -0.007959 272613.000000 0 0 1
32.622761 9.474103 -22.387319 40.684090 0.282639 2.153486 0.039814 -0.012953 471249.000000 0 0 1
33.921191 8.953303 -22.557119 41.708901 0.258059 2.142211 0.027454 -0.007472 -80103.800000 0 0 1
35.057651 9.963303 -22.520319 42.842398 0.276897 2.124281 0.044610 -0.014817 -544569.000000 0 0 1
35.028421 10.716103 -21.300319 42.373679 0.296885 2.097490 0.039074 -0.010015 767363.000000 0 0 1
36.061501 11.679403 -21.014619 43.341141 0.313214 2.077006 0.023637 -0.002147 306051.000000 0 0 1
35.819701 12.264003 -19.607419 42.636928 0.329872 2.048644 0.021443 0.004295 -4377.770000 0 0 1
36.135761 11.367403 -18.545619 42.177613 0.304774 2.026064 0.017655 -0.004429 297887.000000 0 0 1
-36.159183 12.093003 -17.316619 41.875918 -0.322744 1.997115 0.026968 -0.009594 -206842.000000 0 0 1
-35.595336 11.199703 -16.235019 40.694436 -0.304833 1.981167 0.026694 -0.014675 -637739.000000 0 0 1
35.922971 10.151303 -15.980519 40.606474 0.275404 1.975282 0.022036 -0.008764 -248140.000000 0 0 1
-36.011755 9.293603 -14.933819 40.077881 -0.252561 1.952627 0.019874 -0.009373 -132005.000000 0 0 1
35.442751 8.111103 -14.648719 39.199025 0.224977 1.953792 0.043177 -0.006029 -189687.000000 0 0 1
34.257981 8.233503 -13.906019 37.878453 0.235865 1.946710 0.049704 -0.007319 424608.000000 0 0 1
34.520201 8.124703 -12.529119 37.611619 0.231154 1.910405 0.047634 -0.012987 42867.100000 0 0 1
33.433671 8.871603 -11.675819 36.508087 0.259372 1.896330 0.057430 -0.016578 228788.000000 0 0 1
33.447731 10.283703 -11.784919 36.924105 0.298283 1.895646 0.057414 -0.021410 34829.200000 0 0 1
32.469351 10.882603 -10.975219 35.960328 0.323399 1.880948 0.050885 -0.016120 -480968.000000 0 0 1
32.703921 10.847903 -9.473619 35.734757 0.320280 1.839114 0.056320 -0.008286 -857804.000000 0 0 1
33.824941 11.551403 -9.076819 36.877502 0.329087 1.819486 0.049271 -0.006555 -551316.000000 0 0 1
33.576321 12.876603 -8.617219 36.978814 0.366204 1.805990 0.049111 -0.009041 -521834.000000 0 0 1
33.185441 12.996903 -7.099519 36.340007 0.373283 1.767425 0.041199 -0.007823 -203721.000000 0 0 1
34.239131 12.756203 -6.187719 37.058422 0.356632 1.738554 0.058675 -0.003573 248213.000000 0 0 1
33.954111 13.183103 -4.854319 36.745615 0.370347 1.703290 0.052019 -0.001288 331153.000000 0 0 1
35.200381 13.033703 -3.911919 37.739202 0.354619 1.674639 0.070279 0.003090 406829.000000 0 0 1
36.003701 14.197203 -3.986519 38.906547 0.375606 1.673440 0.070548 0.007871 764636.000000 0 0 1
-35.052024 13.801403 -3.515819 37.834958 -0.375099 1.663856 0.057204 -0.001880 987586.000000 0 0 1
-34.046915 14.947103 -3.429319 37.341245 -0.413681 1.662763 0.065218 -0.011543 -24091.100000 0 0 1
-34.407680 15.865203 -2.414319 37.966065 -0.432042 1.634431 0.074291 -0.008870 569503.000000 0 0 1
-33.369203 16.837203 -2.193519 37.440709 -0.467299 1.629416 0.073463 -0.007000 468614.000000 0 0 1
-33.601443 17.772903 -1.048619 38.026736 -0.486525 1.598376 0.076993 -0.002604 456820.000000 0 0 1
-34.782911 18.558003 -1.263119 39.444212 -0.490117 1.602825 0.050401 0.007551 551034.000000 0 0 1
-34.971792 19.509003 -0.207319 40.045854 -0.508850 1.575973 0.037080 0.012417 -592108.000000 0 0 1
36.159021 20.402903 -0.268719 41.518977 0.513722 1.577269 0.026015 0.004600 -307392.000000 0 0 1
36.155751 21.482203 -1.199019 42.073281 0.536112 1.599299 0.041650 0.012015 -61231.500000 0 0 1
35.966441 21.039003 -2.531519 41.744857 0.529289 1.631476 0.010152 0.023392 -211805.000000 0 0 1
36.125761 22.168803 -3.603419 42.538348 0.550400 1.655608 0.039254 -0.013921 -122550.000000 0 0 1
-34.914204 22.421403 -3.944419 41.680684 -0.570862 1.665572 0.042169 -0.000694 -382171.000000 0 0 1
-34.886152 23.656303 -4.551219 42.395494 -0.595876 1.678355 0.050905 -0.007713 -393965.000000 0 0 1
-33.428693 23.926103 -4.883319 41.397859 -0.621209 1.689032 0.047463 -0.019668 -527052.000000 0 0 1
-32.949503 23.083003 -5.864219 40.655674 -0.611100 1.715542 0.032629 -0.009431 238332.000000 0 0 1
-31.558833 23.343403 -6.100319 39.725160 -0.636863 1.724969 0.057771 -0.005986 634453.000000 0 0 1
-30.979963 22.538203 -7.294719 38.999252 -0.628951 1.758952 0.057263 -0.024042 -313631.000000 0 0 1
-31.534993 22.883003 -8.562319 39.892367 -0.627727 1.787115 0.065942 -0.035590 -351241.000000 0 0 1
-30.845543 22.435903 -9.676919 39.350477 -0.628855 1.819261 0.044621 -0.032761 -426440.000000 0 0 1
-31.738433 22.259903 -10.898719 40.269263 -0.611635 1.844860 0.028997 -0.015391 -400761.000000 0 0 1
-32.045283 23.469903 -11.466119 41.342574 -0.632140 1.851825 0.037769 -0.016777 -206217.000000 0 0 1
-32.569083 23.280503 -12.772519 42.022188 -0.620592 1.879629 0.026299 -0.012643 -312637.000000 0 0 1
-32.993323 24.616603 -13.446219 43.305165 -0.641006 1.886514 0.038278 -0.012758 533897.000000 0 0 1
-31.903293 25.535303 -13.561119 43.055496 -0.674983 1.891220 0.031953 -0.011622 -398639.000000 0 0 1
-30.963713 25.319303 -14.550619 42.562180 -0.685446 1.919700 0.027527 -0.013555 -535279.000000 0 0 1
-29.650363 26.082903 -14.240019 41.979043 -0.721476 1.916881 0.007422 -0.007503 444259.000000 0 0 1
-28.801573 25.489703 -13.203419 40.664307 -0.724472 1.901484 0.019140 -0.015445 500204.000000 0 0 1
-29.355833 25.321303 -11.913619 40.556968 -0.711743 1.868944 0.036769 -0.014295 -914565.000000 0 0 1
-29.565083 26.585603 -11.029419 41.261805 -0.732386 1.841390 0.055747 -0.005541 -298350.000000 0 0 1
-28.383703 27.245203 -10.649519 40.759636 -0.764935 1.835140 0.049057 -0.004010 -280589.000000 0 0 1
-28.690553 28.477703 -10.031219 41.650363 -0.781675 1.814031 0.036130 -0.005788 119064.000000 0 0 1
-27.431523 29.339303 -9.875119 41.361832 -0.818990 1.811874 0.032933 -0.014094 67570.100000 0 0 1
-27.750853 30.530803 -9.198219 42.271113 -0.833061 1.790152 0.019728 -0.018538 -404204.000000 0 0 1
-26.648943 31.383703 -9.055419 42.155707 -0.866806 1.787292 0.048340 -0.018064 -262828.000000 0 0 1
34.610641 -25.084027 33.943439 54.582615 -0.627144 0.899665 0.009451 -0.001863 -115214.000000 0 0 1
34.078331 -23.797297 -34.171565 53.808362 -0.609592 2.258883 0.006546 -0.008536 -74567.400000 0 0 1
32.946021 -23.872497 -33.351989 52.608854 -0.627042 2.257461 0.001462 -0.006188 -1856.500000 0 0 1
32.424701 -22.446297 -32.911059 51.364728 -0.605512 2.266248 -0.001492 -0.007208 188621.000000 0 0 1
31.921881 -21.722097 -34.019099 51.460228 -0.597503 2.293048 -0.006060 -0.010366 -51823.400000 0 0 1
31.354331 -20.497797 -33.643539 50.350188 -0.579005 2.302571 -0.005441 -0.004162 44276.700000 0 0 1
31.152201 -19.553297 33.629887 49.837338 -0.560517 0.830112 -0.013729 -0.002987 849825.000000 0 0 1
32.364881 -19.260997 32.885089 49.999006 -0.536824 0.853015 0.003834 -0.014940 861623.000000 0 0 1
31.981441 -18.633897 31.720821 48.746745 -0.527562 0.862255 -0.001159 -0.012810 -385833.000000 0 0 1
33.137531 -18.593397 30.719471 48.862012 -0.511324 0.890918 -0.003476 -0.009494 205447.000000 0 0 1
34.242961 -17.765397 31.091131 49.546424 -0.478578 0.892439 -0.006319 -0.016885 307584.000000 0 0 1
35.240801 -17.736797 30.100431 49.624026 -0.466286 0.919058 0.010344 -0.009431 291960.000000 0 0 1
-36.050243 -16.667497 30.479621 50.064286 0.433069 0.916237 0.015749 -0.016872 449967.000000 0 0 1
-34.867962 -16.627097 29.681981 48.716066 0.444964 0.915637 0.031063 -0.013393 174935.000000 0 0 1
-33.983713 -15.625897 30.047511 47.978269 0.430978 0.894033 0.033890 -0.023105 -645648.000000 0 0 1
-32.697543 -16.236997 30.589161 47.628417 0.460909 0.873371 0.057370 -0.032778 -575344.000000 0 0 1
-31.680933 -15.279197 30.844541 46.781632 0.449374 0.850869 0.051310 -0.032443 381329.000000 0 0 1
-30.480493 -15.888797 31.304701 46.491920 0.480524 0.832084 0.054348 -0.036472 257620.000000 0 0 1
-29.526473 -14.810797 31.866951 45.898528 0.464935 0.803362 0.054775 -0.040733 -238733.000000 0 0 1
-30.038863 -14.092897 32.982429 46.784438 0.438669 0.788391 0.057478 -0.036063 -156566.000000 0 0 1
-29.107743 -13.203597 33.499210 46.301109 0.425853 0.761926 0.053184 -0.036581 -418240.000000 0 0 1
-29.536683 -12.540397 -33.644119 46.493053 0.401507 2.379855 0.048106 -0.015635 -282192.000000 0 0 1
-29.511463 -13.476297 -32.567939 45.969639 0.428367 2.358119 0.063539 -0.018938 154462.000000 0 0 1
-29.763953 -12.822897 -31.379299 45.110753 0.406790 2.340059 0.066321 -0.008051 -428608.000000 0 0 1
-29.815233 -13.722697 -30.138359 44.559861 0.431352 2.313601 0.067116 -0.012896 -866146.000000 0 0 1
-30.877673 -14.581697 -30.080409 45.507006 0.441195 2.292955 0.075773 -0.012654 -803584.000000 0 0 1
-30.891523 -15.391697 -28.937989 45.039957 0.462247 2.268547 0.077268 -0.010473 913113.000000 0 0 1
-32.161703 -16.324597 -28.819989 46.167731 0.469692 2.244961 0.070474 -0.014584 853227.000000 0 0 1
-31.964773 -17.454697 -29.621999 46.945458 0.499814 2.253622 0.066614 -0.013801 370541.000000 0 0 1
-32.906393 -18.435397 -29.234529 47.721612 0.510669 2.230149 0.054293 -0.006334 17121.200000 0 0 1
-32.872863 -19.557997 -30.299659 48.797640 0.536704 2.240718 0.055992 -0.010297 28729.400000 0 0 1
-34.035672 -20.342697 -30.353499 49.935831 0.538717 2.224147 0.049657 -0.007889 -82979.100000 0 0 1
-33.766553 -21.493097 -31.145479 50.716607 0.566841 2.232052 0.042290 -0.002903 249714.000000 0 0 1
-34.944158 -22.496197 -31.344449 52.054275 0.571987 2.216987 0.034859 -0.000041 215053.000000 0 0 1
-35.519132 -23.028997 -30.198599 51.999027 0.575218 2.190450 0.036836 0.000666 -612303.000000 0 0 1
35.965151 -24.092397 -30.363859 52.876267 -0.590225 2.182476 0.043390 -0.006587 -226950.000000 0 0 1
-35.902348 -25.466387 -30.788819 53.716542 0.616956 2.181168 0.037124 -0.004420 -37642.000000 0 0 1
-35.597705 -25.670547 -32.172769 54.417467 0.624766 2.203369 0.033258 -0.003296 -218929.000000 0 0 1
-34.881879 -26.873537 -32.420809 54.681270 0.656439 2.205458 0.023868 -0.000728 14119.800000 0 0 1
-35.223616 -27.588897 -33.719189 56.025299 0.664444 2.216620 0.028944 -0.006954 174081.000000 0 0 1
35.816971 -28.069057 -33.799869 56.684729 -0.664710 2.209653 0.019153 0.001226 -98811.200000 0 0 1
35.627601 -29.395007 -34.213609 57.480113 -0.689837 2.208342 0.021830 0.001942 -132414.000000 0 0 1
-36.030773 -30.467937 -33.375949 57.796763 0.701939 2.186424 0.036151 -0.012024 -77323.600000 0 0 1
36.035921 -30.561667 -31.996709 57.064809 -0.703384 2.166037 0.034187 -0.011266 64885.700000 0 0 1
-35.404336 -31.452407 -31.401969 56.822571 0.726356 2.156315 0.028073 -0.011459 35974.100000 0 0 1
-35.915283 -32.062077 -30.061959 56.759191 0.728775 2.128973 0.020960 0.001836 177766.000000 0 0 1
35.544721 -33.145287 -30.154429 57.195514 -0.750481 2.126118 0.032193 0.004694 -106534.000000 0 0 1
34.973861 -33.320707 -28.929589 56.305964 -0.761197 2.110396 0.034860 0.001803 -1164580.000000 0 0 1
33.839931 34.296287 -28.963299 56.216091 0.792096 2.112053 0.044268 -0.002132 -747564.000000 0 0 1
32.631531 -33.746327 -29.455119 55.418728 -0.802191 2.131168 0.049846 -0.001069 -260728.000000 0 0 1
31.691821 33.835134 -29.178289 54.777371 0.818095 2.132549 0.059249 -0.001057 -148732.000000 0 0 1
30.261931 33.978944 -29.715729 54.344987 0.843194 2.149331 0.048175 0.007373 96616.000000 0 0 1
30.277441 33.802132 -31.087519 55.006740 0.840348 2.171422 0.047394 0.014523 -413894.000000 0 0 1
29.029801 34.208502 -31.569699 54.859793 0.867108 2.183965 0.040067 0.017451 -331642.000000 0 0 1
28.806651 33.712666 -33.070339 55.317396 0.863710 2.211586 0.032523 0.000097 173059.000000 0 0 1
28.317621 32.342039 -33.123029 54.268132 0.851645 2.227310 0.028018 0.007837 249845.000000 0 0 1
28.393051 31.925809 33.961110 54.578197 0.843899 0.899187 0.033124 0.008143 63870.100000 0 0 1
28.217491 30.391439 33.758298 53.474190 0.822474 0.887567 0.027477 0.002169 -138015.000000 0 0 1
29.335241 29.693459 34.210260 53.968507 0.791467 0.884220 0.035390 0.003176 -313129.000000 0 0 1
28.991651 28.344129 -34.103951 52.980987 0.774105 2.270122 0.029779 0.002004 576470.000000 0 0 1
30.279351 27.506949 -33.861949 53.104641 0.737458 2.262235 0.041971 -0.005319 570776.000000 0 0 1
30.861151 27.684899 -32.575379 52.725891 0.731199 2.236770 0.042442 -0.005853 -524267.000000 0 0 1
32.066971 27.004839 -32.460699 53.021212 0.699912 2.229663 0.048877 -0.012584 -425015.000000 0 0 1
32.840911 27.139979 -31.144929 52.774146 0.690637 2.202047 0.049152 -0.008118 -547984.000000 0 0 1
33.736761 28.203859 -31.068189 53.841054 0.696309 2.185890 0.033196 -0.000110 -262644.000000 0 0 1
33.174291 29.530689 -30.965899 54.143163 0.727356 2.179649 0.048026 -0.001918 13833.500000 0 0 1
32.291941 29.904259 -29.729569 53.111971 0.747027 2.164884 0.054143 0.007402 98396.200000 0 0 1
32.876571 29.884729 -28.456769 52.761289 0.737764 2.140461 0.039285 0.002401 -54381.100000 0 0 1
31.931631 30.273559 -27.450269 51.861688 0.758750 2.128569 0.046725 0.003748 131732.000000 0 0 1
32.505861 30.497619 -26.013989 51.608753 0.753534 2.099091 0.057363 -0.007469 125285.000000 0 0 1
33.120491 31.806419 -25.984099 52.761621 0.765162 2.085735 0.050633 -0.000206 402874.000000 0 0 1
33.668231 32.191559 -24.725819 52.737201 0.762980 2.058784 0.040300 -0.018741 31644.100000 0 0 1
34.030191 33.659925 -24.575119 53.805027 0.779928 2.045128 0.052210 -0.017295 265280.000000 0 0 1
32.882531 -34.142037 -24.327219 53.279950 -0.804188 2.044958 0.063534 -0.013937 472827.000000 0 0 1
33.139761 -32.715277 -24.039219 52.406270 -0.778953 2.047338 0.050145 -0.013041 -526954.000000 0 0 1
33.558741 -31.811167 -25.235089 52.677786 -0.758671 2.070364 0.042117 -0.010652 -46212.200000 0 0 1
34.812391 -32.007477 -25.835079 53.887220 -0.743446 2.070800 0.053225 -0.012740 -573696.000000 0 0 1
35.874461 -31.322937 -25.208959 53.885016 -0.717768 2.057629 0.052575 -0.007916 -624196.000000 0 0 1
-35.195537 -31.754777 -25.921049 54.027701 0.734051 2.071193 0.013898 -0.006089 -105168.000000 0 0 1
-34.595034 -33.020887 -25.511539 54.203634 0.762122 2.060836 0.015794 -0.008971 36053.400000 0 0 1
-34.464779 -33.401877 -24.144519 53.725824 0.769738 2.036893 0.023179 -0.009409 18635.600000 0 0 1
-33.255583 -32.649197 -23.489419 52.188664 0.776197 2.037659 0.004411 -0.006892 257112.000000 0 0 1
-33.321293 -31.264057 -23.501319 51.381532 0.753556 2.045853 -0.016032 -0.005898 -230492.000000 0 0 1
-32.821463 -30.739937 -22.262919 50.177981 0.752662 2.030496 -0.001393 -0.008512 -157107.000000 0 0 1
-32.777643 -29.199927 -22.336419 49.253683 0.727736 2.041482 -0.008435 0.005518 -217471.000000 0 0 1
-34.024113 -28.613267 -22.555819 49.851021 0.699228 2.040323 -0.022708 0.008107 -676553.000000 0 0 1
-34.306693 -28.350287 -23.963519 50.546397 0.690619 2.064726 -0.006274 0.010090 -328940.000000 0 0 1
-35.559074 -27.508387 -24.210619 51.061856 0.658433 2.064787 -0.001809 0.008789 -244546.000000 0 0 1
-35.447647 -26.219397 -23.754719 50.082723 0.636854 2.064976 -0.010912 0.012640 -404058.000000 0 0 1
36.005231 -25.375147 -24.386719 50.348652 -0.613915 2.076424 0.012341 0.007359 -383309.000000 0 0 1
-35.978218 -24.791897 -25.758699 50.720616 0.603360 2.103489 0.017675 0.005346 -1491240.000000 0 0 1
-34.934214 -23.924897 -25.670449 49.515371 0.600490 2.115815 0.015668 -0.000373 -1003520.000000 0 0 1
-34.559973 -23.296997 -26.873929 49.591833 0.593133 2.143495 0.041526 -0.005743 712155.000000 0 0 1
-33.407193 -22.221897 -26.674729 48.180851 0.586975 2.157522 0.028900 -0.007096 471456.000000 0 0 1
-33.728503 -21.075297 -25.896519 47.459559 0.558492 2.147966 0.030190 -0.007016 -42760.300000 0 0 1
-34.700750 -20.204597 -26.474489 48.096428 0.527268 2.153695 0.039564 -0.004693 -71842.500000 0 0 1
-35.795470 -19.878497 -25.435539 48.202043 0.506930 2.126670 0.028782 -0.003182 -515862.000000 0 0 1
-35.344777 -19.257697 -24.221319 46.976425 0.498883 2.112511 0.031055 -0.012180 -224785.000000 0 0 1
-34.658031 -20.051997 -23.279219 46.316128 0.524511 2.097418 0.013214 -0.000770 -150405.000000 0 0 1
-35.292438 -21.400297 -22.735619 47.121516 0.545091 2.074291 0.018308 0.000777 -294934.000000 0 0 1
36.153841 -21.134597 -21.741819 47.185571 -0.529000 2.049662 0.012370 -0.001175 -490727.000000 0 0 1
35.701831 -22.350597 -21.165719 47.139766 -0.559343 2.036441 0.004031 0.011069 -583802.000000 0 0 1
34.633821 -22.104997 -20.114719 45.746413 -0.568070 2.026061 0.008915 0.004170 -1089010.000000 0 0 1
33.484981 -21.600197 -20.726819 44.915626 -0.572903 2.050438 0.037991 0.000381 -860927.000000 0 0 1
32.531211 -21.457297 -19.700519 43.666987 -0.583088 2.038854 0.056791 -0.003658 -100471.000000 0 0 1
31.136191 -20.983097 -20.136919 42.605730 -0.593003 2.063074 0.054270 -0.010388 -425839.000000 0 0 1
30.373691 -21.750297 -21.043119 42.877143 -0.621443 2.083778 0.052596 -0.010595 -334919.000000 0 0 1
29.216511 -21.132797 -21.502519 41.982829 -0.626204 2.108511 0.079089 -0.015147 -554456.000000 0 0 1
29.236281 -19.850097 -22.381219 41.829480 -0.596461 2.135373 0.067527 -0.025336 -663880.000000 0 0 1
29.556151 -18.650297 -21.699719 41.137300 -0.562911 2.126446 0.078340 -0.022794 -9162.700000 0 0 1
29.498911 -17.463097 -22.462519 40.984268 -0.534510 2.150859 0.059682 -0.025107 -180203.000000 0 0 1
30.374451 -16.365897 -21.883019 40.857268 -0.494207 2.136011 0.054643 -0.037653 -526531.000000 0 0 1
29.941711 -16.094797 -20.513219 39.703157 -0.493225 2.113747 0.054575 -0.038462 665746.000000 0 0 1
30.946771 -15.743397 -19.547819 39.845632 -0.470603 2.083562 0.044421 -0.036287 631228.000000 0 0 1
31.934081 -16.927497 -19.137419 40.897023 -0.487418 2.057757 0.054390 -0.035471 155873.000000 0 0 1
32.971361 -17.064397 -20.054919 42.196019 -0.477590 2.066078 0.046005 -0.034040 -482076.000000 0 0 1
33.987521 -17.940297 -19.626619 43.153331 -0.485678 2.042957 0.042509 -0.021628 -315507.000000 0 0 1
35.136131 -18.025497 -20.621219 44.549982 -0.474008 2.052036 0.025838 -0.018612 -139525.000000 0 0 1
35.971241 -16.871497 -20.750919 44.823858 -0.438564 2.052110 0.034182 -0.022620 710644.000000 0 0 1
-35.331655 -17.187697 -21.651719 44.861339 0.452763 2.074459 0.025948 -0.008837 161842.000000 0 0 1
-34.429422 -15.997197 -21.958119 43.857205 0.434959 2.095172 0.028310 -0.012573 -379262.000000 0 0 1
-33.719813 -15.683697 -20.782119 42.601651 0.435355 2.080392 0.039594 -0.010933 -667664.000000 0 0 1
-32.799953 -14.674097 -20.992619 41.615575 0.420674 2.099531 0.048784 -0.016304 -497561.000000 0 0 1
-31.631533 -14.715297 -19.973519 40.199942 0.435430 2.090767 0.048754 -0.023387 355891.000000 0 0 1
-30.544373 -15.634897 -20.164719 39.799807 0.473102 2.102095 0.039955 -0.021996 789733.000000 0 0 1
-30.945423 -16.985597 -19.872119 40.509639 0.501990 2.083520 0.031020 -0.021177 165666.000000 0 0 1
-29.755893 -18.000397 -19.729419 39.983465 0.544041 2.086836 0.017764 -0.028806 52991.800000 0 0 1
-30.205363 -19.285897 -19.509119 40.803376 0.568243 2.069315 0.026778 -0.022975 235287.000000 0 0 1
-29.201753 -20.312097 -19.359519 40.498329 0.607752 2.069210 0.028012 -0.022387 140737.000000 0 0 1
-29.707533 -21.739797 -19.068319 41.457895 0.631747 2.048729 0.020692 -0.009067 -170667.000000 0 0 1
-30.330113 -22.365497 -20.164119 42.740179 0.635390 2.062109 0.024533 -0.004058 108680.000000 0 0 1
-31.005073 -23.546497 -19.841019 43.696889 0.649515 2.042113 0.013518 0.011823 -44239.500000 0 0 1
-31.932153 -24.145597 -20.939719 45.179023 0.647427 2.052718 0.000535 0.016322 -320678.000000 0 0 1
-31.302763 -24.673297 -22.054119 45.552374 0.667513 2.076186 -0.002756 0.003434 -21277.800000 0 0 1
-32.180003 -25.460227 -22.861719 46.972694 0.669341 2.079107 0.001120 0.005796 79223.400000 0 0 1
-31.744293 -25.481917 -24.330819 47.423802 0.676400 2.109532 0.003350 0.005735 -322023.000000 0 0 1
-30.482653 -26.036457 -24.528219 46.997051 0.706893 2.119885 0.005284 0.000972 -640288.000000 0 0 1
-30.160543 -26.220637 -25.899889 47.623360 0.715632 2.145813 0.004935 0.004300 -664803.000000 0 0 1
-28.672273 -26.255417 -26.208699 46.886481 0.741426 2.163954 0.008961 0.003390 -600959.000000 0 0 1
-28.281663 -24.946097 -26.544709 46.117045 0.722814 2.184127 0.015514 -0.006628 -506330.000000 0 0 1
-26.900333 -24.834597 -26.315799 45.087763 0.745490 2.194022 0.004602 0.000171 -301687.000000 0 0 1
-26.411623 -23.500597 -26.859459 44.399126 0.727141 2.220505 0.005598 0.004008 -439943.000000 0 0 1
-26.293913 -23.438597 -28.253239 45.155102 0.728048 2.246816 0.003912 -0.006179 143787.000000 0 0 1
-25.275793 -22.493797 -28.533379 44.260483 0.727226 2.271387 0.015369 -0.016655 138819.000000 0 0 1
-25.196043 -22.083097 -29.990009 44.965591 0.719651 2.300910 0.007175 -0.016791 -335839.000000 0 0 1
-24.489633 -23.001797 -30.755569 45.549202 0.754080 2.312054 0.017106 -0.025542 -3330.640000 0 0 1
-24.350033 -22.630697 -32.120799 46.225732 0.748818 2.339033 0.026343 -0.024863 -224089.000000 0 0 1
-23.872933 -23.855597 -32.933999 47.155644 0.785035 2.343971 0.029887 -0.021966 -413960.000000 0 0 1
-24.844533 -24.834997 -33.006129 48.201996 0.785206 2.325052 0.008558 -0.020266 -617220.000000 0 0 1
-24.425833 -25.900677 -33.815019 49.101139 0.814695 2.330465 0.043952 -0.025253 -71893.200000 0 0 1
-19.654233 -14.354297 -12.053719 27.159287 0.630800 2.030649 -0.004527 0.019682 -85735.400000 0 0 1
-19.914533 -13.790297 -10.809719 26.525666 0.605657 1.990532 -0.000083 0.012146 -156267.000000 0 0 1
-19.219633 -14.478597 -9.821219 25.990006 0.645625 1.958307 0.002283 -0.003906 -278792.000000 0 0 1
-19.565433 -14.062597 -8.380619 25.510735 0.623197 1.905526 0.033437 -0.021933 -269928.000000 0 0 1
-20.829733 -14.480597 -7.939419 26.581946 0.607490 1.874103 0.032967 -0.021202 -248417.000000 0 0 1
-21.007933 -13.933997 -6.661919 26.074330 0.585650 1.829158 0.046307 -0.031368 721261.000000 0 0 1
-22.381433 -14.297697 -5.970519 27.221311 0.568475 1.791927 0.041699 -0.031494 495871.000000 0 0 1
-22.603433 -15.608097 -5.477919 28.009561 0.604334 1.767638 0.034065 -0.021659 235536.000000 0 0 1
-21.726133 -15.905097 -4.405819 27.283845 0.631928 1.732987 0.050905 -0.024756 -165718.000000 0 0 1
-21.590733 -17.384497 -4.025319 28.010421 0.677893 1.715004 0.033223 -0.013345 507293.000000 0 0 1
-22.798333 -17.936097 -3.484719 29.216619 0.666596 1.690353 0.020438 -0.009782 651807.000000 0 0 1
-22.491333 -18.983497 -2.582919 29.544961 0.701021 1.658331 0.029398 -0.005910 940392.000000 0 0 1
-23.670033 -20.045397 -2.410219 31.111052 0.702673 1.648345 0.004795 -0.007099 827857.000000 0 0 1
-23.713533 -20.925697 -3.502819 31.819588 0.723027 1.681104 -0.004130 -0.009646 283444.000000 0 0 1
-24.703333 -21.951597 -3.321519 33.213849 0.726486 1.670968 0.018880 -0.007003 145441.000000 0 0 1
-24.526033 -23.230197 -4.204219 34.041795 0.758270 1.694614 0.018078 -0.001823 -59481.100000 0 0 1
-23.383633 -24.046097 -3.833319 33.759494 0.799365 1.684590 0.025449 -0.005954 466594.000000 0 0 1
-22.974933 -24.884997 -4.875319 34.218115 0.825286 1.713761 0.025562 -0.007998 596007.000000 0 0 1
-21.507933 -24.502997 -5.275019 33.027472 0.850401 1.731199 0.019644 -0.003170 257345.000000 0 0 1
-21.444133 -23.291097 -6.068619 32.235915 0.826661 1.760183 0.006539 0.008556 45649.800000 0 0 1
-21.300533 -22.120597 -5.252119 31.154747 0.804282 1.740187 0.002432 0.015987 -673443.000000 0 0 1
-21.434433 -20.773997 -6.019519 30.450427 0.769752 1.769790 0.000535 0.021127 213278.000000 0 0 1
-20.322333 -20.468897 -6.829319 29.641400 0.788991 1.803283 -0.005822 0.022866 145972.000000 0 0 1
-20.707533 -19.328497 -7.544719 29.314084 0.750967 1.831101 -0.012867 0.020447 668680.000000 0 0 1
-19.521133 -18.883597 -8.459419 28.446909 0.768799 1.872739 -0.005878 0.016288 -81087.400000 0 0 1
-19.362933 -19.794297 -9.531019 29.284428 0.796414 1.902298 -0.021672 0.016931 214891.000000 0 0 1
-18.163733 -19.709197 -10.301419 28.713984 0.826182 1.937735 0.041021 0.010995 370516.000000 0 0 1
-17.749933 -18.283897 -10.872519 27.705102 0.800215 1.974076 0.027498 0.015085 -374474.000000 0 0 1
-17.448333 -17.281897 -9.939919 26.493590 0.780606 1.955389 0.028998 0.002224 975946.000000 0 0 1
-16.058433 -17.420397 -9.553119 25.546146 0.826057 1.954067 0.075683 -0.000439 620509.000000 0 0 1
-15.640433 -16.260897 -8.573319 24.135901 0.804845 1.933935 0.062339 -0.003316 106438.000000 0 1 0
-16.289233 -16.281297 -7.288419 24.156589 0.785154 1.877288 0.049765 -0.009012 337083.000000 0 1 0
-16.106433 -15.124797 -6.563319 23.048944 0.753977 1.859548 0.039290 -0.013440 -3038.120000 0 1 0
-16.785433 -15.336397 -5.171619 23.317407 0.740318 1.794448 0.036879 -0.016230 -285108.000000 0 1 0
-17.520133 -14.248297 -4.766919 23.080133 0.682770 1.778831 0.054256 -0.013188 -260345.000000 0 1 0
-17.910833 -14.438897 -3.498419 23.270553 0.678482 1.721705 0.051199 -0.015414 -413485.000000 0 1 0
-18.798233 -13.374597 -2.839719 23.244729 0.618390 1.693268 0.054640 -0.009842 -418856.000000 0 1 0
-20.148933 -13.399197 -3.231019 24.412240 0.586853 1.703538 0.074942 -0.020918 -216098.000000 0 1 0
-20.725733 -12.322497 -2.554719 24.247197 0.536403 1.676354 0.073921 -0.015772 -965204.000000 0 1 0
-22.246833 -12.251897 -2.618919 25.532123 0.503400 1.673551 0.068537 -0.013819 -620488.000000 0 0 1
-22.602133 -11.745197 -3.908719 25.769831 0.479244 1.723062 0.076366 -0.030737 706964.000000 0 0 1
-24.005233 -11.531497 -4.040119 26.936021 0.447824 1.721354 0.069957 -0.023218 419780.000000 0 0 1
-24.523333 -10.761597 -5.293319 27.298811 0.413527 1.765935 0.074793 -0.034149 35106.900000 0 0 1
-24.175233 -11.454697 -6.476519 27.524485 0.442485 1.808324 0.069733 -0.043522 262963.000000 0 0 1
-24.637733 -10.783697 -7.651019 27.961476 0.412570 1.847958 0.076926 -0.043388 -452710.000000 0 0 1
-24.000133 -11.149997 -8.954719 27.937713 0.434913 1.897079 0.080378 -0.042504 260856.000000 0 0 1
-22.673833 -10.626497 -9.131519 26.653514 0.438269 1.920480 0.073403 -0.034059 701619.000000 0 0 1
-22.094533 -11.365197 -10.220119 26.866093 0.475093 1.961035 0.052414 -0.023813 -584103.000000 0 0 1
-20.659533 -10.862297 -10.362419 25.537924 0.484056 1.988613 0.053681 -0.019075 -647747.000000 0 0 1
-20.663833 -9.484597 -10.708019 25.131917 0.430309 2.010943 0.058931 -0.025537 567217.000000 0 0 1
-19.389333 -8.973297 -10.357019 23.743086 0.433444 2.022181 0.051112 -0.015290 52135.300000 0 1 0
-18.958233 -7.605397 -10.985719 23.193592 0.381511 2.064231 0.009066 -0.004104 -106140.000000 0 1 0
-18.640533 -7.775597 -12.351419 23.674605 0.395189 2.119657 0.027882 -0.007801 317025.000000 0 1 0
-18.459533 -6.488197 -12.921819 23.448336 0.337995 2.154450 0.046116 -0.016605 -168975.000000 0 1 0
-18.025233 -6.467297 -14.451619 23.991337 0.344485 2.217261 0.051104 -0.008633 -94252.000000 0 1 0
-18.972033 -6.968897 -15.365819 25.389210 0.352025 2.220827 0.070175 -0.020672 367286.000000 0 0 1
-18.519433 -6.733597 -16.682219 25.818737 0.348736 2.273297 0.073008 -0.033494 -395732.000000 0 0 1
-19.228433 -7.606297 -17.674519 27.202519 0.376686 2.278036 0.069904 -0.031516 -1212780.000000 0 0 1
-20.513733 -7.182897 -17.943119 28.184442 0.336809 2.260919 0.071346 -0.037212 -601295.000000 0 0 1
-21.109533 -8.118997 -18.828019 29.428299 0.367172 2.265025 0.066168 -0.036429 365224.000000 0 0 1
-22.549833 -7.763497 -19.326619 30.696662 0.331572 2.251835 0.070050 -0.031069 -149558.000000 0 0 1
-22.524433 -6.565697 -20.112919 30.902880 0.283633 2.279490 0.068226 -0.031072 88000.700000 0 0 1
-23.742933 -6.359597 -20.761719 32.174840 0.261709 2.272184 0.051160 -0.027269 -116173.000000 0 0 1
-25.023433 -5.988197 -20.003519 32.590972 0.234886 2.231629 0.061761 -0.024993 -819344.000000 0 0 1
-25.118793 -4.662997 -19.571719 32.183062 0.183548 2.224508 0.064135 -0.025473 65857.600000 0 0 1
-26.220713 -4.323897 -18.749219 32.523147 0.163433 2.185221 0.085251 -0.019245 -208218.000000 0 0 1
-26.321833 -2.880097 -18.292819 32.183242 0.108985 2.175351 0.080682 -0.015620 -31903.300000 0 0 1
-26.604213 -1.872997 -19.204819 32.865139 0.070286 2.194878 0.084925 -0.021216 -473273.000000 0 0 1
-27.939783 -1.731797 -19.584019 34.163788 0.061904 2.181250 0.090159 -0.021587 -477730.000000 0 0 1
-28.155443 -0.463197 -20.503219 34.832822 0.016450 2.200144 0.091214 -0.010396 -274361.000000 0 0 1
-27.534743 -0.458997 -21.775019 35.107324 0.016668 2.239847 0.077864 -0.011428 104252.000000 0 0 1
-28.080013 -1.332797 -22.720319 36.145212 0.047429 2.250528 0.065685 -0.009104 126057.000000 0 0 1
-27.238043 -1.269497 -24.064119 36.367629 0.046574 2.293868 0.060024 -0.006585 -513262.000000 0 0 1
-27.490243 -0.160097 -24.872919 37.072917 0.005824 2.306244 0.053967 0.006121 240090.000000 0 0 1
-26.892103 1.102603 -24.528419 36.414891 -0.040978 2.309841 0.052979 0.000147 754511.000000 0 0 1
-25.368273 1.061603 -24.150319 35.041607 -0.041823 2.331167 0.048561 -0.009964 -34122.600000 0 0 1
-24.530633 0.565703 -25.142109 35.131149 -0.023057 2.368371 0.037026 0.000868 -564730.000000 0 0 1
-23.182333 0.638103 -24.753019 33.919606 -0.027518 2.388761 0.033226 0.000010 -397492.000000 0 0 1
-22.215933 0.099803 -25.788439 34.038232 -0.004492 2.430473 0.031851 -0.000697 -445121.000000 0 0 1
-22.123433 0.971103 -26.879729 34.826845 -0.043867 2.452480 0.012236 0.001970 -300781.000000 0 0 1
-21.201433 0.489203 -27.791109 34.958344 -0.023070 2.489767 0.003595 -0.001915 -477456.000000 0 0 1
-21.213933 1.368103 -29.083679 36.024478 -0.064402 2.510411 0.009219 0.002363 -275421.000000 0 0 1
-20.539733 2.618803 -28.981319 35.618192 -0.126815 2.521227 0.012565 0.005113 327373.000000 0 0 1
-20.498633 3.425303 -30.122809 36.596588 -0.165569 2.537652 -0.000592 -0.000831 -338291.000000 0 0 1
-19.881033 2.847703 -31.370549 37.248842 -0.142269 2.572126 -0.004453 0.004317 -791660.000000 0 0 1
-18.508833 2.563803 -31.324619 36.474398 -0.137642 2.603741 -0.015985 0.006383 -93039.100000 0 0 1
-18.048233 1.888403 -32.513749 37.235046 -0.104252 2.632532 -0.002334 0.010152 -246739.000000 0 0 1
-16.542433 1.626103 -32.471319 36.478526 -0.097984 2.668468 -0.000194 -0.001737 -396865.000000 0 0 1
-15.782033 2.785703 -32.565149 36.294926 -0.174711 2.684268 -0.000842 0.004547 101147.000000 0 0 1
-14.373433 2.641003 -32.611559 35.736316 -0.181715 2.720299 0.021020 0.000570 583028.000000 0 0 1
-13.593433 3.889303 -33.145679 36.035318 -0.278671 2.738395 0.030051 0.005276 -10491.600000 0 0 1
-13.388833 4.804603 -32.109129 35.118958 -0.344538 2.724563 0.035558 -0.010963 93962.900000 0 0 1
-12.955333 6.053403 -32.699719 35.689718 -0.437108 2.729345 0.041599 -0.004278 -254173.000000 0 0 1
-12.753633 7.048803 -31.579599 34.779475 -0.504906 2.709271 0.047311 -0.011177 -214696.000000 0 0 1
-11.570133 6.951803 -30.809389 33.636498 -0.541037 2.728668 0.070341 -0.019485 204070.000000 0 0 1
-11.510633 5.836603 -29.965929 32.626944 -0.469281 2.734918 0.067855 -0.023351 -131271.000000 0 0 1
-10.107933 5.162703 -29.795169 31.883787 -0.472217 2.777628 0.085427 -0.035045 474058.000000 0 0 1
-9.691433 4.509003 -31.045519 32.834117 -0.435469 2.810004 0.082134 -0.028306 508660.000000 0 0 1
-10.035633 3.107403 -31.061629 32.790161 -0.300274 2.815449 0.086983 -0.028625 -86426.000000 0 0 1
-9.753233 2.448703 -32.414619 33.938610 -0.245981 2.840779 0.082831 -0.030284 -152395.000000 0 0 1
-10.331133 1.172803 -32.574469 34.193622 -0.113037 2.832623 0.083495 -0.033214 258090.000000 0 0 1
-9.994433 0.546603 -33.800529 35.251429 -0.054636 2.853690 0.069848 -0.021459 -356921.000000 0 0 1
-10.582833 1.154103 33.322220 34.981405 -0.108625 0.309226 0.069412 -0.017598 -595097.000000 0 0 1
-11.922033 0.914803 33.048298 35.144868 -0.076582 0.347154 0.057966 -0.016913 -837410.000000 0 0 1
-12.237133 1.443303 31.770811 34.076604 -0.117402 0.369979 0.042253 -0.011777 408050.000000 0 0 1
-13.723033 1.242203 31.351751 34.246123 -0.090274 0.414089 0.034356 -0.007651 613725.000000 0 0 1
-14.572933 2.383603 31.467941 34.760369 -0.162128 0.438753 0.023822 0.003871 122084.000000 0 0 1
-15.863433 1.979103 31.057691 34.930581 -0.124118 0.475364 0.019439 0.001065 -345636.000000 0 0 1
-16.849933 3.113403 30.838521 35.279284 -0.182712 0.507164 0.009930 0.012186 -631126.000000 0 0 1
-17.244733 3.738003 32.061211 36.596102 -0.213460 0.503120 -0.004866 0.015473 94259.000000 0 0 1
-16.571333 4.917603 32.386063 36.710339 -0.288476 0.490271 0.000735 0.012277 -353145.000000 0 0 1
-16.937333 5.335303 33.839090 38.215477 -0.305163 0.483268 -0.008668 0.014965 1224500.000000 0 0 1
-18.277833 5.871803 33.896389 38.955390 -0.310839 0.515323 -0.011489 0.017312 1022970.000000 0 0 1
-19.082033 5.525303 -33.427229 38.884863 -0.281847 2.605373 -0.023333 0.023758 1746410.000000 0 0 1
-20.489633 6.296703 -33.301889 39.604158 -0.298151 2.569682 -0.018669 0.013820 1258480.000000 0 0 1
-20.406833 7.725803 -33.214699 39.740950 -0.361913 2.560349 -0.021790 0.009650 121020.000000 0 0 1
-19.961133 8.459803 34.085613 40.396090 -0.400865 0.566499 -0.017167 0.002525 -111770.000000 0 0 1
-19.959733 9.992503 -34.036079 40.702527 -0.464154 2.561142 0.001559 -0.001469 -548089.000000 0 0 1
-18.898333 10.232503 -33.153269 39.509370 -0.496255 2.566467 -0.001701 0.005905 -38004.300000 0 0 1
-18.785433 11.626603 -32.874019 39.607720 -0.554212 2.549886 0.025253 -0.004329 306067.000000 0 0 1
-18.066133 12.510103 -33.994509 40.478568 -0.605649 2.567739 0.021865 -0.012011 -90949.500000 0 0 1
-18.798133 12.475303 33.240131 40.173490 -0.585908 0.596308 0.030880 -0.014278 -16449.900000 0 0 1
-18.037133 12.694103 32.097211 38.944953 -0.613256 0.602064 0.039532 -0.012085 -9800.760000 0 0 1
-18.844433 12.244603 30.849131 38.166894 -0.576216 0.629589 0.041063 -0.015588 231544.000000 0 0 1
-19.084233 10.845103 30.642761 37.693540 -0.516766 0.621605 0.028239 -0.009132 268895.000000 0 0 1
-17.956333 10.184403 30.082071 36.484009 -0.515935 0.601430 0.017351 -0.017679 243387.000000 0 0 1
-17.964933 8.662403 30.283841 36.261371 -0.449293 0.582383 0.014468 0.003014 408687.000000 0 0 1
-19.022233 8.026703 29.559271 36.055843 -0.399297 0.609701 0.015394 -0.010628 367273.000000 0 0 1
-19.161833 6.728903 30.004561 36.231584 -0.337709 0.595028 0.012010 -0.003403 165456.000000 0 0 1
-19.946533 5.829603 28.991041 35.669720 -0.284342 0.621917 0.022986 -0.004759 -412810.000000 0 0 1
-21.300033 6.102103 28.819921 36.352646 -0.279010 0.655428 0.041856 -0.010242 -822566.000000 0 0 1
-21.748833 5.063903 27.987531 35.804423 -0.228760 0.673445 0.044749 -0.013175 -184481.000000 0 0 1
-23.216833 5.212203 27.541381 36.396649 -0.220839 0.712544 0.056914 -0.015856 -223599.000000 0 0 1
-23.396133 6.263603 26.628191 35.995448 -0.261585 0.738075 0.062996 -0.018108 35914.300000 0 0 1
-24.768433 6.488003 26.437961 36.804011 -0.256190 0.769377 0.064008 -0.017595 -508385.000000 0 0 1
-25.215883 6.988903 25.017491 36.201663 -0.270376 0.807843 0.064318 -0.017043 -227936.000000 0 0 1
-25.183413 6.037203 23.973431 35.289906 -0.235289 0.823949 0.063728 -0.015184 419310.000000 0 0 1
-26.301543 5.161503 23.895351 35.908217 -0.193781 0.842691 0.058721 -0.012230 -42081.100000 0 0 1
-26.566023 4.688703 22.439151 35.089215 -0.174693 0.876964 0.061148 -0.005535 -126842.000000 0 0 1
-27.213693 5.518903 21.516051 35.128106 -0.200085 0.911574 0.059802 -0.001578 -79341.400000 0 0 1
-27.390743 4.887103 20.233551 34.402517 -0.176564 0.942037 0.077327 -0.005866 9210.360000 0 0 1
-28.397463 5.519203 19.254251 34.750593 -0.191962 0.983551 0.070662 -0.010948 -149619.000000 0 0 1
-29.749463 5.433903 19.613451 36.045046 -0.180664 0.995436 0.073723 -0.011433 -270608.000000 0 0 1
-30.572843 5.937203 18.561051 36.255506 -0.191811 1.033342 0.080389 -0.007659 -241908.000000 0 0 1
-32.029973 6.017803 19.031451 37.740287 -0.185715 1.042255 0.076151 -0.005778 -370177.000000 0 0 1
-32.158403 7.106803 19.949351 38.505144 -0.217498 1.026173 0.063587 -0.015764 -10771.800000 0 0 1
-33.326223 6.840003 20.688651 39.817623 -0.202433 1.024431 0.059022 -0.008965 -189662.000000 0 0 1
-33.851163 8.073403 21.492351 40.902350 -0.234123 1.017546 0.065380 -0.010082 -263395.000000 0 0 1
-33.066673 8.558103 22.562051 40.935219 -0.253256 0.987037 0.061851 0.004704 -49967.300000 0 0 1
-33.819753 9.378703 23.412431 42.188597 -0.270517 0.982497 0.068230 0.012946 -39046.200000 0 0 1
-0.486033 32.334403 11.359381 34.275142 -1.555766 1.232991 0.028922 -0.006399 -117142.000000 0 0 1
-0.552633 32.620003 12.764681 35.032943 -1.553856 1.197848 0.018628 -0.005679 2914.460000 0 0 1
-0.429033 34.002103 13.012081 36.409358 -1.558179 1.205332 0.023784 -0.009462 -149707.000000 0 0 1
-0.202633 34.254003 14.498981 37.196750 -1.564881 1.170391 0.022300 -0.003836 172520.000000 0 0 1
-1.341533 33.907403 15.261481 37.207855 -1.531252 1.148158 0.019885 0.007028 -94949.300000 0 0 1
-1.065133 34.115503 16.606881 37.957747 -1.539585 1.117969 0.012002 -0.010416 -208503.000000 0 0 1
-2.265233 -34.136943 17.483381 38.420448 1.504536 1.098363 0.023788 -0.002518 -84986.900000 0 0 1
-3.100933 33.363303 17.855481 37.967670 -1.478118 1.081187 0.010433 -0.005970 66858.900000 0 0 1
-3.912233 33.776603 18.921181 38.912409 -1.455483 1.063003 0.019286 -0.006273 -164537.000000 0 0 1
-5.028633 32.806603 19.371681 38.429447 -1.418699 1.042475 0.020201 -0.013754 -203025.000000 0 0 1
-6.099933 32.778003 18.476981 38.118309 -1.386803 1.064745 0.023205 -0.018063 -773121.000000 0 0 1
-7.027633 31.831603 18.894881 37.678311 -1.353507 1.045489 0.035739 -0.029574 71694.100000 0 0 1
-8.195633 31.667903 17.853781 37.266365 -1.317553 1.071184 0.024043 -0.035597 -130851.000000 0 0 1
-9.027033 32.775903 17.769081 38.359971 -1.302043 1.089172 0.028276 -0.025709 -304975.000000 0 0 1
-9.729333 32.768203 16.512281 37.961434 -1.282173 1.120786 0.031424 -0.016397 300961.000000 0 0 1
-10.733833 33.951003 16.439981 39.219367 -1.264584 1.138254 0.056194 -0.021056 571147.000000 0 0 1
-11.790133 33.910603 17.414081 39.902211 -1.236187 1.119182 0.052435 -0.015947 202391.000000 0 0 1
-12.802333 -33.833743 16.991781 39.966768 1.209057 1.131671 0.033700 -0.010287 -459803.000000 0 0 1
-14.114533 -33.763843 17.766681 40.680120 1.174838 1.118823 0.050704 -0.008676 -79590.600000 0 0 1
-13.995033 -33.342943 19.117581 40.903481 1.173398 1.084468 0.050302 -0.007681 -256467.000000 0 0 1
-15.110933 -33.772643 19.858781 41.991701 1.150081 1.078193 0.035410 -0.014251 132369.000000 0 0 1
-15.002633 -33.308243 21.339681 42.307211 1.147595 1.042111 0.043932 -0.018735 -115534.000000 0 0 1
-15.024733 -31.905643 21.462681 41.283888 1.130689 1.024085 0.060650 -0.014261 69306.400000 0 0 1
-15.089033 -31.474943 22.815081 41.699867 1.123766 0.991869 0.052668 -0.005844 106680.000000 0 0 1
-15.002633 -29.993143 22.891681 40.604147 1.106987 0.971845 0.062315 -0.005687 -180080.000000 0 0 1
-15.064133 -29.483143 24.241181 41.034360 1.098435 0.938804 0.066742 -0.013052 -103663.000000 0 0 1
-15.035133 -28.092943 24.394581 40.129345 1.079393 0.917385 0.045475 -0.012626 -271145.000000 0 0 1
-16.339633 -27.361143 24.073981 39.939609 1.032450 0.923841 0.068123 -0.005512 -194463.000000 0 0 1
-17.394533 -27.589743 24.989281 41.088051 1.008272 0.917020 0.077048 -0.004432 -282762.000000 0 0 1
-18.541133 -26.889243 24.613281 40.897661 0.967127 0.925011 0.080186 -0.003793 -1228230.000000 0 0 1
-19.463633 -26.647243 25.814481 41.896253 0.939946 0.906948 0.075438 -0.004591 -166326.000000 0 0 1
-20.279333 -27.758243 26.242281 43.248454 0.939847 0.918793 0.078619 -0.002400 866904.000000 0 0 1
-21.258233 -28.252243 25.325381 43.491110 0.925733 0.949227 0.072161 -0.004795 -802320.000000 0 0 1
-22.543433 -27.474343 25.139781 43.532224 0.883664 0.955135 0.061477 0.001329 -1098020.000000 0 0 1
-22.463433 -26.205843 24.539681 42.350301 0.862142 0.952748 0.065454 -0.000247 539494.000000 0 0 1
-23.746433 -25.950543 23.958381 42.559697 0.829720 0.972863 0.056849 -0.001548 418094.000000 0 0 1
-23.982533 -24.513143 23.387281 41.509288 0.796339 0.972273 0.061720 0.007356 -88798.100000 0 0 1
-24.410233 -23.583643 24.341881 41.768109 0.768177 0.948643 0.059084 0.004130 108600.000000 0 0 1
-24.812333 -22.311043 23.881181 41.033466 0.732368 0.949619 0.048236 0.005607 -57142.900000 0 0 1
-25.484013 -21.548343 25.005781 41.701980 0.701913 0.927757 0.056759 0.004661 -314117.000000 0 0 1
-26.691113 -22.054043 25.508381 43.005510 0.690555 0.935840 0.046777 0.010457 4073.780000 0 0 1
-27.107233 -21.267843 26.628481 43.545370 0.665269 0.912827 0.041641 0.004082 -593306.000000 0 0 1
-28.158383 -22.008843 27.530781 45.113497 0.663426 0.914413 0.032022 -0.005595 914780.000000 0 0 1
-29.527313 -21.815243 27.155481 45.663850 0.636305 0.933926 0.022929 -0.004411 614696.000000 0 0 1
-29.931093 -22.396343 25.940181 45.501204 0.642389 0.964170 0.015597 0.002476 -744477.000000 0 0 1
-31.485483 -22.508143 25.882881 46.560452 0.620639 0.981353 0.015302 0.008216 553078.000000 0 0 1
-32.059963 -23.272043 24.814481 46.745992 0.627892 1.011209 0.013980 0.006230 259337.000000 0 0 1
-31.823043 -24.654443 24.825981 47.295634 0.659145 1.018186 0.014205 0.000993 -531067.000000 0 0 1
-32.050083 -25.360143 23.490381 47.139609 0.669393 1.049142 0.016281 0.005966 29667.400000 0 0 1
-33.400293 -25.514643 23.119181 47.969502 0.652341 1.067911 0.013811 0.002428 -145499.000000 0 0 1
-33.513313 -26.179143 21.869681 47.820212 0.663145 1.095804 0.020451 0.005961 202290.000000 0 0 1
-34.891312 -26.861343 21.668681 49.076137 0.656089 1.113491 0.033761 -0.004112 -43655.100000 0 0 1
-35.188866 -28.018843 22.457781 50.275877 0.672445 1.107733 0.031596 -0.001659 588538.000000 0 0 1
-34.269064 -29.145443 22.360381 50.237559 0.704778 1.109518 0.016278 0.001810 67074.300000 0 0 1
-34.477864 -30.205943 21.270781 50.532844 0.719451 1.136326 0.026044 -0.002195 -255119.000000 0 0 1
-34.362635 -29.709843 19.969781 49.621141 0.712908 1.156610 0.015929 0.001536 374843.000000 0 0 1
-34.744874 -30.744743 19.064481 50.158748 0.724394 1.180910 0.033337 0.005140 -111366.000000 0 0 1
-35.087313 -30.375543 17.575981 49.625682 0.713546 1.208769 0.041315 0.010770 -721865.000000 0 0 1
-33.984723 -30.026343 16.799781 48.360887 0.723638 1.216017 0.037268 0.010348 -376478.000000 0 0 1
-34.240684 -29.379943 15.561381 47.725906 0.709144 1.238666 0.062190 -0.000337 -142581.000000 0 0 1
-34.850239 -30.261043 14.432281 48.358667 0.715032 1.267736 0.058423 -0.011041 86685.500000 0 0 1
-33.914523 -31.025143 13.694881 47.961486 0.740934 1.281227 0.057125 -0.015956 -201443.000000 0 0 1
-34.466531 -31.908943 12.772081 48.674927 0.746885 1.305292 0.074557 -0.018484 58678.900000 0 0 1
-34.967536 -31.311443 11.412281 48.305023 0.730292 1.332287 0.074615 -0.018598 567128.000000 0 0 1
-36.033953 -30.361943 11.535081 48.511354 0.700178 1.330716 0.079631 -0.022916 292491.000000 0 0 1
36.082861 -29.828343 10.213081 47.916698 -0.690788 1.356006 0.064709 -0.020315 -645397.000000 0 0 1
34.818191 -29.006543 10.076881 46.424449 -0.694592 1.351995 0.097425 -0.020106 -584801.000000 0 0 1
35.038251 -27.846443 9.323281 45.716813 -0.671528 1.365420 0.101193 -0.052012 26847.000000 0 0 1
33.866771 -27.092743 9.098581 44.314321 -0.674729 1.364006 0.090298 -0.048883 7734.540000 0 0 1
34.054091 -26.022943 7.999481 43.598926 -0.652505 1.386272 0.088043 -0.049916 262756.000000 0 0 1
34.762141 -24.875843 8.481981 43.579330 -0.621120 1.374913 0.090442 -0.051941 -54009.600000 0 0 1
35.086051 -24.147743 7.338381 43.220323 -0.602792 1.400180 0.082461 -0.053013 35637.800000 0 0 1
35.715191 -22.786743 7.699881 43.059246 -0.567902 1.391009 0.086538 -0.055737 -368789.000000 0 0 1
34.767171 -21.949743 8.266781 41.939088 -0.563142 1.372383 0.077197 -0.052341 -760130.000000 0 0 1
35.163721 -20.604743 8.140881 41.560999 -0.530036 1.373644 0.082464 -0.041597 -115203.000000 0 0 1
34.431881 -19.548443 8.970981 40.597716 -0.516363 1.347985 0.087008 -0.031993 -149040.000000 0 0 1
34.633411 -19.512543 10.371581 41.082626 -0.513075 1.315578 0.077380 -0.047399 43386.100000 0 0 1
33.826891 -18.534343 11.074881 40.130206 -0.501243 1.291194 0.089022 -0.032855 332741.000000 0 0 1
34.109961 -18.569943 12.577781 40.823189 -0.498544 1.257597 0.074253 -0.041981 124866.000000 0 0 1
35.395001 -18.015243 12.785281 41.723117 -0.470803 1.259354 0.035552 -0.025751 105848.000000 0 0 1
35.793241 -18.337043 14.108781 42.619960 -0.473443 1.233394 0.040473 -0.016192 -893034.000000 0 0 1
-35.445513 -17.485743 14.612081 42.138445 0.458284 1.216678 0.064522 -0.021771 338263.000000 0 0 1
-34.226254 -17.790243 13.871381 40.992005 0.479349 1.225588 0.066622 -0.022512 1306350.000000 0 0 1
-33.095023 -17.323743 14.622181 40.114846 0.482235 1.197692 0.077580 -0.021535 454839.000000 0 0 1
-31.725993 -17.447443 13.922781 38.791697 0.502798 1.203695 0.078305 -0.023065 -138002.000000 0 0 1
-31.348753 -18.754743 13.538081 38.958496 0.539140 1.215893 0.056351 -0.021841 -765946.000000 0 0 1
-30.162723 -18.608343 12.837581 37.694347 0.552776 1.223273 0.036908 -0.018013 -659693.000000 0 0 1
-29.506753 -20.015643 12.562581 37.803345 0.596041 1.232040 0.027432 -0.021303 235245.000000 0 0 1
-30.197523 -20.819843 11.607381 38.471907 0.603614 1.264310 0.028827 -0.015304 293169.000000 0 0 1
-29.268773 -21.734443 10.979581 38.073591 0.638736 1.278264 0.021104 -0.011774 560615.000000 0 0 1
-29.957613 -22.656943 9.900581 38.843496 0.647521 1.313069 0.027484 -0.013903 476888.000000 0 0 1
-30.603183 -23.855343 10.313881 40.149824 0.662119 1.310999 0.036877 -0.011775 138297.000000 0 0 1
-31.868303 -23.692543 10.947381 41.191874 0.639297 1.301798 0.056853 -0.025626 -37065.600000 0 0 1
-32.515093 -25.086943 10.919481 42.494954 0.657150 1.310922 0.080133 -0.033042 -167456.000000 0 0 1
-33.130113 -25.573443 9.745681 42.971894 0.657376 1.342014 0.077948 -0.029473 -74773.100000 0 0 1
-33.528743 -26.928743 9.867981 44.121547 0.676661 1.345234 0.092575 -0.024911 150629.000000 0 0 1
-33.714023 -27.584943 8.483481 44.379431 0.685743 1.378455 0.088357 -0.021596 67092.800000 0 0 1
-32.480943 -27.723443 7.817481 43.413293 0.706540 1.389738 0.070625 -0.025635 -329774.000000 0 0 1
-32.596353 -28.277143 6.529781 43.643523 0.714563 1.420616 0.060841 -0.016183 -710675.000000 0 0 1
-31.308513 -28.594843 5.797081 42.795960 0.740128 1.434920 0.055387 -0.009935 -206415.000000 0 0 1
-30.606243 -27.485743 5.220281 41.466367 0.731733 1.444569 0.059475 -0.002507 -721240.000000 0 0 1
-29.458343 -27.824343 4.540181 40.775009 0.756881 1.459218 0.060884 -0.006727 -507238.000000 0 0 1
-28.742133 -26.572543 3.956781 39.342933 0.746196 1.470054 0.047485 -0.005927 267676.000000 0 0 1
-29.277653 -26.302843 2.681981 39.448873 0.731927 1.502758 0.048945 -0.005518 21902.500000 0 0 1
-28.648533 -25.148943 2.145681 38.181301 0.720438 1.514570 0.044968 -0.008975 -99944.100000 0 0 1
-29.044373 -24.670143 0.755981 38.115130 0.704143 1.550961 0.048201 -0.006145 -634602.000000 0 0 1
-28.489043 -25.406243 -0.275919 38.173013 0.728261 1.578025 0.048919 -0.014799 -201425.000000 0 0 1
-28.879083 -24.993843 -1.587919 38.225844 0.713404 1.612349 0.048668 -0.020618 552949.000000 0 0 1
-30.373973 -24.928843 -2.052819 39.347675 0.687254 1.622991 0.056803 -0.017877 460867.000000 0 0 1
-30.937293 -23.709843 -1.655419 39.012988 0.653905 1.613242 0.051796 -0.008790 299923.000000 0 0 1
-32.294243 -23.657943 -2.127919 40.089206 0.632255 1.623901 0.049505 -0.012171 670868.000000 0 0 1
-32.959293 -22.259343 -1.932819 39.818704 0.593996 1.619356 0.059197 -0.017438 -16617.300000 0 0 1
-33.193123 -21.892843 -0.574819 39.766952 0.583066 1.585252 0.061762 -0.021290 380608.000000 0 0 1
-33.998713 -20.716843 -0.498119 39.816432 0.547260 1.583307 0.060306 -0.020071 -53974.300000 0 0 1
-34.201077 -20.147843 0.931081 39.705367 0.532366 1.547344 0.065941 -0.021450 -111665.000000 0 0 1
-34.862415 -21.041843 1.798881 40.760068 0.543039 1.526649 0.064279 -0.031973 182365.000000 0 0 1
-34.884919 -20.537943 3.146581 40.603764 0.532095 1.493224 0.068649 -0.037797 -1028630.000000 0 0 1
-35.921994 -21.261343 4.024981 41.936081 0.534424 1.474669 0.083570 -0.023857 831319.000000 0 0 1
35.118411 -21.289843 3.522081 41.218506 -0.544988 1.485243 0.075397 -0.029822 358973.000000 0 0 1
34.409451 -20.099943 3.544181 40.007240 -0.528676 1.482092 0.092055 -0.045380 -918227.000000 0 0 1
33.104411 -19.989943 2.751281 38.769439 -0.543242 1.499771 0.083787 -0.032053 453662.000000 0 0 1
32.053541 -20.840643 3.172081 38.364358 -0.576503 1.488019 0.067195 -0.021771 -283543.000000 0 0 1
30.775341 -20.487043 2.700981 37.069338 -0.587331 1.497869 0.070746 -0.033908 713399.000000 0 0 1
29.709981 -21.618143 2.952881 36.861180 -0.629036 1.490602 0.057865 -0.016089 197141.000000 0 0 1
29.611971 -22.668743 2.035881 37.348167 -0.653364 1.516258 0.032068 -0.018987 1058870.000000 0 0 1
28.482971 -23.555943 2.349981 37.036259 -0.691000 1.507303 0.029899 -0.008477 1039270.000000 0 0 1
28.377411 -24.680243 1.249081 37.629138 -0.715829 1.537596 0.022660 0.001209 108878.000000 0 0 1
27.778361 -24.345943 -0.012719 36.937277 -0.719642 1.571141 0.019157 -0.006811 166759.000000 0 0 1
27.447531 -25.502143 -0.768519 37.474216 -0.748674 1.591306 0.025116 -0.007546 -211931.000000 0 0 1
26.518681 -25.049043 -1.917719 36.529066 -0.756907 1.623319 0.049836 -0.018084 -5099.390000 0 0 1
27.126881 -24.069943 -2.785619 36.372923 -0.725759 1.647456 0.031830 -0.034286 131051.000000 0 0 1
27.732291 -24.635743 -3.911919 37.300173 -0.726336 1.675866 0.033168 -0.035446 -644305.000000 0 0 1
26.807881 -25.219943 -5.032119 37.148758 -0.754887 1.706673 0.040022 -0.030132 92664.400000 0 0 1
26.042581 -24.339843 -5.844619 36.122065 -0.751615 1.733313 0.046212 -0.042107 -526785.000000 0 0 1
24.822481 -24.060243 -5.290719 34.972025 -0.769806 1.722664 0.055732 -0.043321 -1605210.000000 0 0 1
23.967281 -22.958743 -5.971719 33.722335 -0.763909 1.748820 0.052241 -0.052410 -93042.200000 0 0 1
23.468381 -23.430643 -7.229819 33.941571 -0.784594 1.785449 0.046849 -0.049084 558538.000000 0 0 1
22.485981 -22.534243 -7.750519 32.764035 -0.786470 1.809616 0.053085 -0.047205 -116137.000000 0 0 1
23.070981 -21.320643 -8.401419 32.518054 -0.745989 1.832122 0.051283 -0.043152 -771033.000000 0 0 1
23.339981 -21.509643 -9.779119 33.212206 -0.744610 1.869669 0.037329 -0.039957 129051.000000 0 0 1
23.286481 -20.212043 -10.291519 32.506957 -0.714836 1.892933 0.036807 -0.035666 -247738.000000 0 0 1
23.901481 -19.982343 -11.696719 33.277441 -0.696327 1.929960 0.023047 -0.032463 -1496240.000000 0 0 1
25.263281 -20.075643 -11.713119 34.328734 -0.671475 1.918994 0.042036 -0.027547 -1436150.000000 0 0 1
25.784381 -19.694143 -12.977019 34.944193 -0.652276 1.951274 0.046960 -0.024694 -423135.000000 0 0 1
27.290881 -19.924843 -13.072619 36.230994 -0.630638 1.939936 0.048800 -0.026947 -476871.000000 0 0 1
27.643221 -21.309543 -13.189519 37.312300 -0.656730 1.932096 0.035122 -0.020045 -619258.000000 0 0 1
28.501151 -21.672343 -12.209819 37.829694 -0.650125 1.899438 0.055670 -0.035400 -878966.000000 0 0 1
28.738421 -23.159343 -12.257419 38.890826 -0.678308 1.891437 0.045530 -0.013655 -316939.000000 0 0 1
29.515911 -23.542643 -13.351419 40.046291 -0.673291 1.910704 0.049716 -0.024439 1845.020000 0 0 1
29.468601 -24.932443 -13.425019 40.868769 -0.702207 1.905502 0.039274 -0.012538 -97695.100000 0 0 1
-4.707333 -8.989597 -27.545629 29.355298 1.088414 2.788631 0.078019 -0.008322 136686.000000 0 0 1
-4.134333 -7.743797 -27.136199 28.520736 1.080406 2.828726 0.046387 -0.007863 123934.000000 0 0 1
-4.825433 -6.629797 -27.671099 28.860505 0.941629 2.853501 0.037249 -0.007351 -124213.000000 0 0 1
-4.585133 -5.300797 -27.028869 27.922780 0.857664 2.887876 0.039283 -0.016393 -232444.000000 0 0 1
-5.307833 -5.118697 -25.865979 26.896524 0.767260 2.863879 0.039799 -0.013707 -50322.100000 0 0 1
-4.904233 -3.939497 -25.205309 25.978428 0.676741 2.897016 0.034943 -0.026024 190628.000000 0 0 1
-5.443733 -3.873097 -23.744619 24.666618 0.618388 2.867317 0.031140 -0.022707 -96202.500000 0 1 0
-4.921833 -4.901297 -22.939419 23.967981 0.783308 2.847571 0.039026 -0.028374 343792.000000 0 1 0
-5.281233 -4.746697 -21.556019 22.695473 0.732144 2.823372 0.036657 -0.020488 -39718.700000 0 1 0
-4.702833 -5.893297 -20.699619 22.030021 0.897278 2.792284 0.041983 -0.020482 -549497.000000 0 1 0
-5.390433 -7.075697 -20.898919 22.713147 0.919771 2.739194 0.042225 -0.016019 198500.000000 0 1 0
-4.603433 -8.169297 -20.447619 22.495202 1.057644 2.711619 0.043295 -0.014883 -876723.000000 0 1 0
-5.352233 -9.512097 -20.299919 23.048061 1.058273 2.648271 0.044513 -0.012124 254943.000000 0 1 0
-6.310133 -9.503797 -19.234419 22.362978 0.984670 2.606264 0.042699 -0.014576 1202550.000000 0 1 0
-7.565933 -8.891297 -19.651319 22.857665 0.865759 2.605528 0.032439 -0.006496 299950.000000 0 1 0
-8.691633 -9.103497 -18.588119 22.448526 0.808539 2.546387 0.025183 -0.000918 -65740.000000 0 1 0
-9.281533 -10.381697 -18.657119 23.281206 0.841290 2.500397 0.044167 -0.000809 410665.000000 0 1 0
-10.095633 -10.636697 -17.509519 22.839536 0.811490 2.444376 0.037506 0.003594 331920.000000 0 1 0
-10.766233 -12.037397 -17.469119 23.790351 0.841084 2.395423 0.038410 0.004744 733153.000000 0 1 0
-11.775933 -12.322897 -18.492219 25.149325 0.808091 2.396901 0.047085 -0.007937 684709.000000 0 0 1
-11.287433 -12.789897 -19.695319 26.055579 0.847719 2.427819 0.046353 -0.003472 -759865.000000 0 0 1
-12.400233 -13.039097 -20.744219 27.460999 0.810506 2.427071 0.055239 -0.026069 328750.000000 0 0 1
-13.378033 -14.024997 -20.558119 28.254355 0.809003 2.385626 0.059550 -0.012603 -2347.750000 0 0 1
-14.310533 -13.770897 -19.511119 27.840846 0.766184 2.347327 0.045271 0.001961 -1087450.000000 0 0 1
-15.709933 -14.286097 -19.804019 29.036076 0.737966 2.321357 0.043765 -0.002865 -392174.000000 0 0 1
-15.618133 -15.677997 -19.903119 29.763397 0.787311 2.303270 0.045319 -0.000927 -119919.000000 0 0 1
-16.489833 -16.065497 -20.916119 31.104643 0.772365 2.308302 0.046471 -0.006766 -223493.000000 0 0 1
-16.089833 -17.445897 -21.404619 31.959346 0.825813 2.304662 0.056414 -0.006512 -29224.600000 0 0 1
-16.304533 -18.535797 -20.507519 32.093175 0.849353 2.263993 0.059439 0.000732 351324.000000 0 0 1
-15.791533 -19.753097 -21.094519 32.932296 0.896393 2.266000 0.063523 0.000396 -189804.000000 0 0 1
-16.238533 -21.001997 -20.319519 33.431373 0.912618 2.224081 0.054413 -0.002035 -197810.000000 0 0 1
-15.919533 -22.212397 -20.909919 34.409981 0.948953 2.223920 0.056337 -0.002655 -176742.000000 0 0 1
-16.663833 -23.272697 -20.400419 35.149379 0.949396 2.190006 0.061094 0.007037 -462451.000000 0 0 1
-16.106533 -24.641697 -20.724419 36.001877 0.991874 2.184193 0.066720 0.003362 -159589.000000 0 0 1
-16.300033 -25.046497 -22.079919 37.155631 0.993865 2.207135 0.057927 -0.002765 379028.000000 0 0 1
-15.653533 -26.309437 -22.352219 37.905689 1.034078 2.201459 0.065838 0.001312 52563.900000 0 0 1
-15.914733 -26.813847 -23.760119 39.202097 1.035150 2.221936 0.071882 -0.003320 -1114890.000000 0 0 1
-17.215333 -27.253587 -23.975319 40.173892 1.007413 2.210289 0.086834 -0.003020 -629106.000000 0 0 1
-17.300033 -28.688897 -23.875219 41.138425 1.028158 2.189971 0.095954 0.003325 -171094.000000 0 0 1
-18.295633 -29.398537 -24.835619 42.612347 1.014118 2.192999 0.092366 0.002243 -155865.000000 0 0 1
-18.005033 -29.459327 -26.220749 43.353902 1.022195 2.220320 0.083854 0.003161 -46542.500000 0 0 1
-18.029033 -28.168417 -26.856649 42.892719 1.001452 2.247383 0.101250 -0.005058 50614.200000 0 0 1
-16.824933 -27.743237 -27.742879 42.689963 1.025646 2.278208 0.103318 -0.012742 -248856.000000 0 0 1
-16.878233 -28.390987 -28.947749 43.919188 1.034436 2.290436 0.098846 -0.004965 -456176.000000 0 0 1
-15.815633 -27.955317 -29.699039 43.745479 1.055944 2.317067 0.059312 -0.001662 -731914.000000 0 0 1
-15.993533 -28.306617 -31.161179 45.034173 1.056502 2.334976 0.065053 -0.002532 39857.400000 0 0 1
-15.986533 -29.651237 -31.508759 46.125557 1.076320 2.322807 0.048794 0.000290 34529.400000 0 0 1
-16.444033 -29.830567 -32.794249 47.283525 1.066996 2.337224 0.047678 0.000599 -181686.000000 0 0 1
-16.387433 -31.263357 -33.417319 48.607228 1.087997 2.328833 0.048857 -0.002822 6473.200000 0 0 1
-15.096933 -31.719027 -33.747739 48.712667 1.126566 2.336150 0.039366 0.000992 -342698.000000 0 0 1
-15.245633 -32.721347 33.726831 49.402581 1.134780 0.819354 0.034646 0.001790 437689.000000 0 0 1
-13.917533 -33.343577 33.194855 49.065163 1.175382 0.827734 0.034787 -0.009134 512683.000000 0 0 1
-13.320933 -34.242732 34.129168 50.147902 1.199796 0.822256 0.041665 -0.009709 511842.000000 0 0 1
-12.275133 33.547707 33.559596 49.014019 -1.220027 0.816613 0.049045 -0.016688 1236970.000000 0 0 1
-11.257733 32.845926 -33.882939 48.514379 -1.240601 2.343970 0.055615 -0.019574 737632.000000 0 0 1
-10.419633 33.765606 -33.185339 48.476300 -1.271480 2.324808 0.060267 -0.015408 -130175.000000 0 0 1
-9.551833 33.071729 -32.326709 47.222801 -1.289626 2.324792 0.060005 -0.026419 -132206.000000 0 0 1
-8.738933 34.087352 -31.484829 47.218757 -1.319833 2.300685 0.054025 -0.023054 -99043.300000 0 0 1
-9.563333 -33.791497 -30.613559 46.588760 1.294999 2.287764 0.064846 -0.022691 -124043.000000 0 0 1
-8.876533 -32.730307 -29.970339 45.258005 1.305964 2.294562 0.058208 -0.025512 89402.300000 0 0 1
-9.788733 -32.009237 -28.911269 44.229764 1.274018 2.283208 0.065218 -0.014046 341083.000000 0 0 1
-9.982333 -32.494087 -27.584199 43.776714 1.272743 2.252493 0.087038 -0.018173 46278.000000 0 0 1
-10.492133 -33.823377 -27.378499 44.762572 1.270005 2.228926 0.091974 -0.018399 44033.500000 0 0 1
-10.698633 -33.999107 -25.841129 44.024584 1.265932 2.198108 0.087328 -0.021151 665176.000000 0 0 1
-9.478333 -34.048297 -25.088509 43.342342 1.299291 2.188108 0.083295 -0.026532 456102.000000 0 0 1
-9.747033 -34.190983 -23.666319 42.709749 1.293087 2.158102 0.072419 -0.026289 -758769.000000 0 0 1
-8.499233 -34.166916 -22.846819 41.971326 1.326989 2.146403 0.062208 -0.031338 -818772.000000 0 0 1
-7.768133 33.237334 -22.809319 41.052763 -1.341200 2.159893 0.057480 -0.033983 -180005.000000 0 0 1
-6.849333 33.282750 -21.746419 40.343049 -1.367838 2.140090 0.065412 -0.034850 -292728.000000 0 0 1
-6.240133 31.895959 -21.416119 38.922251 -1.377596 2.153434 0.075187 -0.038510 510166.000000 0 0 1
-5.255933 31.515049 -22.421119 39.032419 -1.405542 2.182695 0.067011 -0.048338 680451.000000 0 0 1
-5.024733 30.115519 -22.426119 37.883021 -1.405471 2.204314 0.043076 -0.036106 314630.000000 0 0 1
-3.644933 29.630269 -23.002919 37.687832 -1.448397 2.227304 0.054108 -0.044495 546621.000000 0 0 1
-3.533633 30.004929 -24.369619 38.815727 -1.453568 2.249556 0.068938 -0.044232 371170.000000 0 0 1
-2.471033 30.949549 -24.596119 39.609969 -1.491125 2.240760 0.056454 -0.054062 290697.000000 0 0 1
-2.400033 31.450779 -26.048799 40.907843 -1.494633 2.261095 0.056526 -0.030769 -393614.000000 0 0 1
-1.374533 32.371409 -26.348319 41.761602 -1.528360 2.253538 0.064502 -0.041731 -99465.700000 0 0 1
-1.694433 33.759560 -26.163789 42.744858 -1.520647 2.229500 0.049999 -0.028075 -518519.000000 0 0 1
-0.745533 -33.802097 -26.738319 43.105397 1.548744 2.239923 0.027686 -0.010983 -654451.000000 0 0 1
0.521167 -33.708037 -26.172639 42.679156 -1.555336 2.230954 0.039429 -0.013230 -496257.000000 0 0 1
1.166967 -32.546227 -26.628719 42.067890 -1.534956 2.256211 0.023332 -0.003835 -101080.000000 0 0 1
2.405667 -32.076307 -25.843809 41.262321 -1.495938 2.247632 0.027296 -0.003221 -131676.000000 0 0 1
2.101067 -31.541037 -24.574719 40.039584 -1.504281 2.231611 0.024717 -0.006157 591927.000000 0 0 1
3.068467 -30.515857 -24.293619 39.125605 -1.470580 2.240704 0.015969 -0.000775 225303.000000 0 0 1
3.012367 -29.947937 -22.867719 37.800606 -1.470547 2.220507 0.037821 -0.005371 -278918.000000 0 0 1
3.432967 -30.800397 -21.886919 37.940571 -1.459796 2.185693 0.045033 -0.003198 411543.000000 0 0 1
3.402367 -30.033147 -20.688619 36.627653 -1.457990 2.171031 0.052740 -0.002624 -380941.000000 0 0 1
3.450367 -30.884047 -19.383019 36.625549 -1.459538 2.128479 0.056162 -0.000661 -1085290.000000 0 0 1
2.292067 -31.568107 -19.098619 36.966961 -1.498316 2.113719 0.046846 -0.004154 -566622.000000 0 0 1
2.042267 -32.828777 -19.656419 38.318067 -1.508667 2.109450 0.051821 -0.002642 -327666.000000 0 0 1
2.585267 -34.005487 -18.792619 38.938660 -1.494917 2.074441 0.037612 -0.007013 793970.000000 0 0 1
3.978767 -34.273201 -18.979119 39.378799 -1.455224 2.073690 0.052490 0.001124 452884.000000 0 0 1
4.450167 33.367637 -18.069819 38.206303 1.438211 2.063437 0.064507 -0.016300 523848.000000 0 0 1
5.735667 32.656158 -18.577519 38.005878 1.396932 2.081517 0.060106 -0.009049 911128.000000 0 0 1
6.861567 33.494722 -18.868119 39.051036 1.368737 2.075063 0.092647 -0.008148 170585.000000 0 0 1
7.888967 32.745498 -19.471719 38.905672 1.334384 2.094956 0.059513 -0.013911 -383099.000000 0 0 1
9.187067 33.510514 -19.718519 39.952180 1.303216 2.086967 0.047668 -0.016499 -53180.700000 0 0 1
9.946267 33.640216 -18.493419 39.656007 1.283320 2.055952 0.045179 -0.009023 35529.200000 0 0 1
11.191567 34.249198 -18.754919 40.620263 1.254966 2.050722 0.037884 0.001306 -306628.000000 0 0 1
12.108567 -34.240758 -17.573019 40.346721 -1.230891 2.021446 0.018378 -0.004050 -608310.000000 0 0 1
12.708167 33.169242 -17.113419 39.427975 1.204916 2.019772 0.015033 -0.011058 -160421.000000 0 0 1
13.218467 33.312833 -15.811719 39.172480 1.193053 1.986292 0.015925 -0.019893 -297560.000000 0 0 1
14.425967 32.420689 -15.529719 38.734762 1.152140 1.983322 0.020089 -0.019649 -99622.200000 0 0 1
14.092667 31.141149 -15.101419 37.368801 1.145831 1.986811 0.024025 -0.017530 -405891.000000 0 0 1
15.295367 30.451129 -14.881219 37.184273 1.105317 1.982534 0.015748 -0.013248 -364943.000000 0 0 1
15.174567 29.157719 -14.009119 35.730876 1.090938 1.973680 0.032936 -0.022160 -542644.000000 0 0 1
15.092667 29.544679 -12.625919 35.497753 1.098513 1.934440 0.028349 -0.020726 667463.000000 0 0 1
13.763467 29.519799 -12.066519 34.734024 1.134515 1.925591 0.034813 -0.018492 938478.000000 0 0 1
13.149067 28.131019 -11.782219 33.212541 1.133549 1.933445 0.033847 -0.019802 -618044.000000 0 0 1
12.642967 27.362859 -12.847919 32.766442 1.137968 1.973716 0.030949 -0.018831 96524.900000 0 0 1
12.196667 26.042709 -12.541619 31.373135 1.132801 1.982048 0.043988 -0.013970 -94819.100000 0 0 1
11.260767 25.776969 -11.369919 30.340271 1.158928 1.954920 0.042227 -0.012384 -114989.000000 0 0 1
9.988367 26.414649 -11.524519 30.501077 1.209278 1.958258 0.043143 -0.011261 414817.000000 0 0 1
9.393067 26.561169 -10.254919 29.981474 1.230883 1.919885 0.027074 -0.005892 -101160.000000 0 0 1
8.316867 27.640069 -10.155119 30.598532 1.278515 1.909095 0.032836 -0.005262 137133.000000 0 0 1
8.888267 28.869329 -10.530119 31.989418 1.272127 1.906226 0.038623 -0.010333 -14802.500000 0 0 1
7.894367 29.872709 -10.474819 32.625475 1.312436 1.897648 0.038753 -0.007599 156760.000000 0 0 1
8.233567 31.236549 -10.977719 34.117795 1.313071 1.898383 0.069646 -0.016149 -959563.000000 0 0 1
9.196467 31.918569 -10.279719 34.771291 1.290271 1.870920 0.050716 -0.012618 -930040.000000 0 0 1
9.464067 33.190929 -10.838919 36.175800 1.293028 1.875089 0.063987 -0.011239 918463.000000 0 0 1
10.696367 33.105024 -11.853419 36.754026 1.258280 1.899173 0.049779 -0.022467 205673.000000 0 0 1
11.898167 32.822364 -11.179419 36.658606 1.223028 1.880693 0.033094 -0.010211 -373444.000000 0 0 1
12.904567 33.360608 -12.028419 37.737791 1.201703 1.895193 0.033902 -0.015195 -321948.000000 0 0 1
14.368767 33.269749 -11.620819 38.057602 1.163107 1.881100 0.033742 -0.013402 -189172.000000 0 0 1
14.794167 34.019479 -10.505819 38.555993 1.160593 1.846768 0.038445 -0.009643 -454955.000000 0 0 1
16.192467 34.055646 -10.445819 39.129249 1.126964 1.841030 0.043493 -0.012423 -240787.000000 0 0 1
16.762067 -33.553057 -9.406719 38.668603 -1.107494 1.816527 0.048148 -0.011736 40177.700000 0 0 1
16.685367 -33.996187 -8.052219 38.716668 -1.114535 1.780304 0.042946 -0.011992 -102275.000000 0 0 1
17.255267 -33.011517 -7.274319 37.952868 -1.089151 1.763657 0.043298 -0.006731 -607445.000000 0 0 1
17.477467 -33.527947 -5.797219 38.251703 -1.090270 1.722937 0.052902 -0.000338 432954.000000 0 0 1
18.410667 33.981946 -5.692219 39.065671 1.074288 1.717026 0.042269 -0.008546 101307.000000 0 0 1
19.757167 -34.229815 -5.730519 39.935757 -1.047316 1.714787 0.045030 -0.004621 -178059.000000 0 0 1
20.737367 33.472012 -6.547719 39.915994 1.016130 1.735579 0.025493 0.001419 353393.000000 0 0 1
21.024167 32.151729 -6.155519 38.905523 0.991681 1.729681 0.028167 0.001875 -55028.500000 0 0 1
21.963667 32.020509 -5.096419 39.162344 0.969579 1.701302 0.045807 0.005219 -182277.000000 0 0 1
22.363267 30.562059 -4.753919 38.167459 0.939089 1.695675 0.033021 -0.003201 -43113.100000 0 0 1
22.986467 29.842279 -5.849919 38.120347 0.914451 1.724864 0.026700 -0.004690 260661.000000 0 0 1
23.373367 28.526469 -5.514019 37.289115 0.884363 1.719213 0.021836 0.001863 -166603.000000 0 0 1
24.295467 27.771649 -6.492719 37.465846 0.852063 1.744973 0.018350 0.006007 -224881.000000 0 0 1
25.581967 28.345059 -6.499319 38.731390 0.836591 1.739399 0.036764 0.000690 224510.000000 0 0 1
26.617067 27.590279 -7.167619 39.000853 0.803350 1.755628 0.032417 0.003591 786864.000000 0 0 1
27.396667 26.679299 -6.172819 38.735850 0.772133 1.730835 0.038431 0.006079 -468211.000000 0 0 1
28.295067 27.272799 -5.279419 39.652095 0.767004 1.704336 0.038343 0.004018 -185333.000000 0 0 1
28.879967 26.338679 -4.391919 39.332778 0.739408 1.682690 0.038037 0.011826 155258.000000 0 0 1
30.193367 26.894299 -3.783119 40.611017 0.727673 1.664087 0.039351 0.015716 -188962.000000 0 0 1
29.993867 27.977659 -2.907519 41.119766 0.750633 1.641564 0.047805 0.000775 -807416.000000 0 0 1
31.077867 28.194409 -2.089519 42.013386 0.736789 1.620551 0.062424 -0.004513 -529714.000000 0 0 1
30.823167 29.422759 -1.168819 42.627837 0.762158 1.598219 0.072851 -0.010098 94075.100000 0 0 1
30.870167 30.583569 -1.913519 43.496936 0.780735 1.614803 0.045861 -0.002608 44231.100000 0 0 1
30.507767 31.728889 -1.145219 44.031327 0.805016 1.596808 0.058958 -0.003237 -177108.000000 0 0 1
33.233541 22.814303 19.234351 44.664537 0.601597 1.125594 0.052309 0.000536 248516.000000 0 0 1
33.810581 22.449503 20.490451 45.464207 0.586139 1.103254 0.025492 0.004810 244517.000000 0 0 1
34.614531 23.514503 20.979651 46.810718 0.596715 1.106067 0.036654 0.004389 171720.000000 0 0 1
34.566301 23.651203 22.493551 47.541228 0.600062 1.077947 0.036412 0.005611 570391.000000 0 0 1
33.278251 24.083703 22.940051 47.050108 0.626460 1.061496 0.032168 0.008789 599180.000000 0 0 1
33.232461 24.293103 24.377661 47.841631 0.631233 1.036136 0.032179 0.011656 -472288.000000 0 0 1
31.916811 24.803803 24.952621 47.503102 0.660645 1.017747 0.037629 0.006754 -401735.000000 0 0 1
31.665621 26.193803 24.847471 48.023157 0.691108 1.026979 0.027165 0.008203 -22.378100 0 0 1
30.331731 26.422503 25.218281 47.477618 0.716627 1.010826 0.028235 -0.000523 -292379.000000 0 0 1
29.988791 27.827203 25.672671 48.298725 0.748028 1.010380 0.030397 -0.000756 -268509.000000 0 0 1
29.925331 28.701703 24.587911 48.206623 0.764530 1.035550 0.028190 -0.011160 280899.000000 0 0 1
29.561721 30.009803 25.060121 49.015235 0.792920 1.034132 0.016552 -0.009466 -95027.900000 0 0 1
29.671751 30.993803 23.898001 49.113573 0.807187 1.062618 0.031535 -0.012067 -222267.000000 0 0 1
30.953461 31.098403 23.331251 49.694815 0.787734 1.082083 0.027770 -0.017283 -357285.000000 0 0 1
31.007101 32.087603 22.300151 49.883377 0.802522 1.107336 0.031709 -0.018534 -190452.000000 0 0 1
32.450961 32.408903 21.919751 50.831853 0.784750 1.124951 0.029914 -0.032225 -119896.000000 0 0 1
33.134801 33.407503 22.665351 52.227334 0.789496 1.121896 0.027599 -0.010242 -418892.000000 0 0 1
34.417381 33.564603 22.126651 52.921898 0.772855 1.139444 0.035138 -0.001399 -540418.000000 0 0 1
35.109811 -33.884343 22.816251 53.864913 -0.767638 1.133400 0.033420 -0.000741 -436446.000000 0 0 1
34.587511 -32.661343 22.387851 52.576374 -0.756764 1.130933 0.020833 -0.000259 -20798.000000 0 0 1
35.010791 -31.566743 23.159651 52.522225 -0.733714 1.114140 0.027572 -0.006315 -845048.000000 0 0 1
34.116641 -30.306643 23.055451 51.127210 -0.726327 1.102975 0.019209 -0.002837 -387738.000000 0 0 1
32.794061 -30.265143 23.469111 50.420516 -0.745316 1.086634 0.018966 -0.002409 -385091.000000 0 0 1
31.886201 -30.909243 22.598651 49.827805 -0.769842 1.100069 0.035196 0.001913 -266932.000000 0 0 1
31.074071 -32.208243 23.006151 50.321484 -0.803319 1.095971 0.023580 0.000925 519474.000000 0 0 1
29.966361 -31.934343 23.862111 49.871689 -0.817180 1.071885 0.013398 0.004871 88037.000000 0 0 1
29.411571 -33.146843 24.218051 50.500175 -0.845036 1.070639 0.008807 0.005981 -162712.000000 0 0 1
28.494851 -33.184043 25.463751 50.611657 -0.861278 1.043591 -0.005493 0.007840 210060.000000 0 0 1
27.994041 34.100203 25.608681 51.012691 0.883420 1.044880 -0.004031 -0.002538 88170.900000 0 0 1
27.191381 33.896803 26.743901 51.025490 0.894727 1.019105 -0.009993 0.001974 -401552.000000 0 0 1
26.937081 32.302703 26.931431 49.943697 0.875726 1.001267 -0.004919 0.011655 -118290.000000 0 0 1
26.304081 31.575303 25.956611 48.607099 0.876220 1.007462 0.009441 0.005936 -522566.000000 0 0 1
24.908081 31.766703 26.001871 48.017009 0.905830 0.998560 0.019457 0.005595 -368614.000000 0 0 1
24.313181 31.264603 24.632821 46.640991 0.909828 1.014392 0.048815 -0.008326 -28116.700000 0 0 1
24.579881 32.013703 23.391111 46.649671 0.916005 1.045556 0.047765 -0.017208 -271292.000000 0 0 1
25.872881 31.857303 22.883351 46.988737 0.888691 1.062149 0.030232 -0.012637 -496065.000000 0 0 1
26.182181 32.758703 21.684751 47.210885 0.896517 1.093570 0.040851 -0.008554 -457584.000000 0 0 1
27.520281 32.979103 21.363851 47.972922 0.875384 1.109252 0.054024 -0.013008 -259940.000000 0 0 1
27.452311 33.785103 20.194051 47.988147 0.888446 1.136455 0.052819 -0.021045 86367.800000 0 0 1
28.838911 34.237603 19.674851 48.897812 0.870780 1.156696 0.073536 -0.035430 51421.500000 0 0 1
29.584481 33.225403 19.062351 48.399815 0.843301 1.165978 0.091675 -0.041452 -28211.300000 0 0 1
30.699051 33.835003 18.389051 49.248313 0.833954 1.188131 0.091307 -0.035123 426532.000000 0 0 1
31.669491 32.816803 17.754951 48.940142 0.803188 1.199537 0.078125 -0.029598 14633.400000 0 0 1
32.678071 32.298503 18.609751 49.571891 0.779557 1.185958 0.060769 -0.030863 -5049.810000 0 0 1
33.386141 31.289103 17.939751 49.147503 0.752985 1.197144 0.084558 -0.036062 -206934.000000 0 0 1
34.393211 30.528503 18.800951 49.682574 0.725940 1.182706 0.082330 -0.037394 4276.810000 0 0 1
35.425861 31.345403 19.321251 51.096346 0.724363 1.183017 0.084229 -0.029322 93914.500000 0 0 1
36.170871 30.684903 20.310651 51.598621 0.703525 1.166222 0.070539 -0.025779 164875.000000 0 0 1
-34.982228 31.401403 20.943151 51.462801 -0.731509 1.151676 0.081968 -0.020765 163940.000000 0 0 1
-33.898593 31.585303 20.052451 50.486105 -0.750087 1.162346 0.073179 -0.017903 179162.000000 0 0 1
-32.828423 32.423103 20.456651 50.472146 -0.779187 1.153483 0.059500 -0.011157 291906.000000 0 0 1
-33.110893 33.857503 21.039351 51.820035 -0.796546 1.152715 0.050166 -0.010431 -573500.000000 0 0 1
-33.215853 33.871603 22.428951 52.475101 -0.795172 1.129158 0.065895 -0.014397 148541.000000 0 0 1
-33.043923 -33.477043 22.963151 52.344241 0.791909 1.116651 0.062044 -0.010880 -132739.000000 0 0 1
-33.203303 -33.468043 24.459511 53.111552 0.789369 1.092203 0.070585 -0.015487 253555.000000 0 0 1
-34.541571 -33.714943 24.871371 54.299195 0.773288 1.095004 0.065926 -0.014083 785.626000 0 0 1
-34.607868 -34.117843 26.213301 55.216564 0.778268 1.076132 0.075657 -0.019079 409583.000000 0 0 1
-35.977881 34.089603 26.829071 56.358744 -0.758455 1.074649 0.056450 -0.028706 224733.000000 0 0 1
-35.835131 33.489803 28.128071 56.541241 -0.751580 1.050106 0.078843 -0.025468 -308308.000000 0 0 1
35.283041 33.312903 28.736971 56.395531 0.756685 1.036122 0.067165 -0.031403 -249763.000000 0 0 1
35.335211 32.257303 29.897281 56.417711 0.739893 1.012282 0.069555 -0.024304 -84189.500000 0 0 1
35.354181 30.871503 29.562961 55.470140 0.717813 1.008710 0.067610 -0.026252 589280.000000 0 0 1
-35.897456 30.377003 28.820211 55.154277 -0.702293 1.020971 0.070744 -0.026111 140984.000000 0 0 1
-36.067143 28.859003 28.542651 54.298838 -0.674830 1.017307 0.069620 -0.020183 -28443.700000 0 0 1
35.170921 28.655603 27.712491 53.161258 0.683672 1.022433 0.064832 -0.015529 350241.000000 0 0 1
35.073901 27.368403 27.186081 52.137232 0.662617 1.022267 0.070923 -0.018703 38759.600000 0 0 1
34.734881 26.144903 28.130081 51.781940 0.645226 0.996504 0.074206 -0.017092 -95146.200000 0 0 1
35.825501 25.770703 28.960491 52.785468 0.623588 0.990053 0.064649 -0.018045 72734.700000 0 0 1
35.605551 24.554103 29.629121 52.426558 0.603722 0.970175 0.058036 -0.013495 -25514.200000 0 0 1
36.029771 23.304203 28.771101 51.662428 0.574125 0.980141 0.052026 -0.005501 -61548.100000 0 0 1
35.241011 23.163903 27.612001 50.407517 0.581490 0.991093 0.043710 -0.002479 56204.700000 0 0 1
35.728691 22.146003 26.718101 49.808048 0.554879 1.004605 0.036630 0.004206 119185.000000 0 0 1
35.191421 20.674303 27.123261 49.005450 0.531164 0.984266 0.042506 -0.001398 608660.000000 0 0 1
33.802941 20.368103 26.901331 47.761700 0.542295 0.972494 0.033090 -0.002004 857969.000000 0 0 1
33.499261 19.132103 27.553261 47.406962 0.518914 0.950585 0.044491 -0.004564 -70396.800000 0 0 1
33.238541 19.265003 29.086701 48.186897 0.525283 0.922759 0.040659 -0.014595 257233.000000 0 0 1
31.960801 19.831003 29.405091 47.743280 0.555342 0.907268 0.038193 -0.007769 712092.000000 0 0 1
32.029791 21.260803 29.464311 48.436297 0.586003 0.916866 0.035347 -0.010519 -593199.000000 0 0 1
30.846511 21.963703 30.196351 48.432748 0.618756 0.897624 0.029511 -0.015861 856296.000000 0 0 1
29.546961 21.818603 29.596921 47.170457 0.636060 0.892527 0.029058 -0.022525 756975.000000 0 0 1
29.374321 22.406703 28.271281 46.520709 0.651642 0.917618 0.039367 -0.016853 -691625.000000 0 0 1
29.398781 23.994303 28.224971 47.293381 0.684521 0.931282 0.041250 -0.005000 -415764.000000 0 0 1
30.698951 24.469703 28.428001 48.470023 0.672962 0.944057 0.036862 -0.003184 -256085.000000 0 0 1
30.544041 25.723603 29.017491 49.362505 0.699937 0.942404 0.024114 0.000531 212032.000000 0 0 1
30.714031 25.736203 30.561241 50.395369 0.697445 0.919234 0.025717 -0.008199 -394922.000000 0 0 1
32.040671 25.516503 30.955931 51.341661 0.672529 0.923615 0.037837 -0.010907 -391559.000000 0 0 1
32.396321 25.462403 32.326521 52.372316 0.666125 0.905561 0.034423 -0.008244 39510.900000 0 0 1
32.141761 24.119503 33.027409 52.015891 0.643764 0.882855 0.040123 -0.011696 -260394.000000 0 0 1
32.392041 24.090203 -34.046789 52.808768 0.639462 2.271451 0.030457 -0.019753 228888.000000 0 0 1
32.147831 22.748603 -33.554489 51.738629 0.615825 2.276459 0.015702 -0.012785 -249240.000000 0 0 1
32.670911 22.526803 -32.097089 51.039870 0.603649 2.250886 0.012481 -0.016331 -148436.000000 0 0 1
31.987331 23.254503 -31.082839 50.300140 0.628612 2.236926 -0.007211 -0.015707 165874.000000 0 0 1
32.434941 23.043603 -29.726579 49.665909 0.617709 2.212462 0.021848 -0.029500 -445265.000000 0 0 1
33.674461 23.844003 -29.290789 50.600950 0.616124 2.188124 0.021149 -0.008252 -26660.400000 0 0 1
34.322021 23.154603 -28.264179 50.129837 0.593494 2.169800 0.012106 -0.013212 -913422.000000 0 0 1
35.392861 23.870203 -27.746629 50.914797 0.593362 2.147140 0.024571 -0.008543 -211057.000000 0 0 1
36.121861 23.026603 -26.627879 50.438648 0.567516 2.126953 0.013195 -0.006927 -336067.000000 0 0 1
-35.443678 22.013903 -27.156539 49.782968 -0.555787 2.147780 0.015693 -0.008007 -47922.300000 0 0 1
-35.635349 20.887403 -26.427389 49.036401 -0.530168 2.139968 0.006213 -0.003768 -683336.000000 0 0 1
-34.585861 19.802903 -26.689249 47.965120 -0.520008 2.160880 0.028039 0.003315 -967645.000000 0 0 1
-33.353883 20.042803 -26.119309 46.865913 -0.541091 2.161951 0.029396 -0.001292 -1329990.000000 0 0 1
-32.474183 18.989303 -26.278589 45.888239 -0.529131 2.180549 0.021455 -0.013150 1051230.000000 0 0 1
-31.056913 19.366603 -25.632619 44.683647 -0.557581 2.181747 0.030322 -0.014278 1238380.000000 0 0 1
-31.118683 19.536403 -24.208119 44.000869 -0.560612 2.153368 0.037835 -0.015318 663455.000000 0 0 1
-29.784483 19.593603 -23.699319 42.809840 -0.581871 2.157471 0.044390 -0.011210 724058.000000 0 0 1
-29.860993 19.898603 -22.147319 42.167962 -0.587800 2.123766 0.031640 -0.012942 -81018.800000 0 0 1
-30.535643 18.940603 -21.394219 41.819667 -0.555197 2.107822 0.025126 -0.009643 -90686.200000 0 0 1
-30.970203 19.560803 -20.178419 41.820415 -0.563332 2.074305 0.032299 -0.007726 -802403.000000 0 0 1
-31.901333 18.592503 -19.402919 41.711503 -0.527686 2.054622 0.034072 -0.006816 436814.000000 0 0 1
-32.702383 19.215403 -18.389019 42.152504 -0.531240 2.022223 0.031598 -0.010856 694340.000000 0 0 1
-33.636473 20.240503 -18.770819 43.513606 -0.541700 2.016816 0.014459 -0.013552 -318098.000000 0 0 1
-34.912607 20.255103 -17.904419 44.155719 -0.525708 1.988304 0.023275 -0.017340 -85711.000000 0 0 1
-34.644896 20.705503 -16.585619 43.635644 -0.538689 1.960694 0.030853 -0.029222 -36210.500000 0 0 1
-35.796264 20.646203 -15.775919 44.232543 -0.523163 1.935485 0.037978 -0.022105 -260995.000000 0 0 1
-35.698499 21.314203 -14.396319 43.999228 -0.538256 1.904130 0.039833 -0.021368 -120907.000000 0 0 1
-35.732291 22.732903 -14.471019 44.754798 -0.566613 1.900053 0.047892 -0.034750 148577.000000 0 0 1
35.343271 23.272603 -14.590619 44.762116 0.582309 1.902822 0.043287 -0.025881 -79756.700000 0 0 1
35.283861 24.769703 -14.619019 45.521475 0.612075 1.897735 0.036602 -0.034978 -375598.000000 0 0 1
35.904211 25.506803 -13.603419 46.095145 0.617680 1.870373 0.036651 -0.025304 -39522.400000 0 0 1
35.920471 26.906703 -13.855519 46.970483 0.642901 1.870235 0.053886 -0.016224 174305.000000 0 0 1
-35.309304 27.407303 -14.772919 47.075964 -0.660063 1.890000 0.039364 -0.005919 -106814.000000 0 0 1
-35.606749 27.256703 -16.115919 47.649673 -0.653343 1.915818 0.052744 -0.008334 272715.000000 0 0 1
-34.683641 27.964603 -16.948419 47.667839 -0.678556 1.934301 0.058698 -0.007063 -610971.000000 0 0 1
-34.755119 27.421803 -18.386919 47.936963 -0.667998 1.964449 0.055635 -0.015086 -144361.000000 0 0 1
-34.256362 26.095903 -18.634219 46.922581 -0.650999 1.979180 0.044383 -0.020551 549441.000000 0 0 1
-32.862183 26.009603 -18.309019 45.734481 -0.669521 1.982676 0.044413 -0.011344 -3816.070000 0 0 1
-32.313813 24.629803 -18.708219 44.730383 -0.651268 2.002308 0.034029 -0.013113 -340790.000000 0 0 1
-31.983143 24.600703 -20.072219 45.066728 -0.655662 2.032405 0.029140 -0.013723 107579.000000 0 0 1
-31.761993 23.315703 -20.520119 44.424335 -0.633231 2.050946 0.033741 -0.010572 -192990.000000 0 0 1
-31.423093 23.376203 -22.021619 44.931162 -0.639597 2.083023 0.027784 -0.002278 132934.000000 0 0 1
-32.501733 23.637103 -22.895119 46.252154 -0.628786 2.088639 0.026709 -0.005665 685428.000000 0 0 1
-32.043023 23.269203 -24.239819 46.430378 -0.628085 2.120070 0.029469 -0.003432 684446.000000 0 0 1
-33.017763 23.918903 -25.293099 47.979448 -0.626931 2.126058 0.009172 0.006577 215906.000000 0 0 1
-32.864003 25.322803 -25.362559 48.626602 -0.656513 2.119496 0.013103 0.006875 210447.000000 0 0 1
-33.720043 25.827903 -26.368909 49.994412 -0.653632 2.126377 0.014642 -0.001457 -130128.000000 0 0 1
-33.383463 27.342103 -26.606019 50.694442 -0.686238 2.123313 0.011117 0.004043 516276.000000 0 0 1
-32.061013 27.527103 -27.117359 50.209572 -0.709457 2.141333 -0.001603 0.002905 349590.000000 0 0 1
-31.701003 28.950303 -27.130579 50.785253 -0.740077 2.134383 0.005136 -0.002738 799059.000000 0 0 1
-30.340553 29.221103 -27.866459 50.507045 -0.766606 2.155238 0.010438 -0.002917 1402720.000000 0 0 1
-29.214943 28.803103 -27.059569 49.146230 -0.778300 2.153871 -0.014894 -0.001770 18324.400000 0 0 1
-28.046203 28.543003 -27.804139 48.727432 -0.794177 2.178039 0.020131 -0.002481 360444.000000 0 0 1
-26.901463 29.540603 -27.521069 48.515412 -0.832123 2.173977 0.014354 -0.017040 -462058.000000 0 0 1
-26.498043 29.638103 -26.226569 47.627685 -0.841276 2.153949 0.010512 -0.016461 -449800.000000 0 0 1
-27.360543 30.312503 -25.323219 48.049064 -0.836538 2.125896 -0.001419 -0.006198 -531307.000000 0 0 1
-26.802493 30.642903 -23.916119 47.215907 -0.852152 2.101948 -0.019117 -0.011415 -19539.700000 0 0 1
-25.872653 31.697203 -24.008219 47.439450 -0.886229 2.101432 -0.015770 -0.004667 -95008.000000 0 0 1
-25.320763 32.093003 -22.794819 46.804975 -0.902811 2.079467 0.005156 0.007613 -141263.000000 0 0 1
-24.522033 33.410703 -22.872419 47.336590 -0.937642 2.075087 0.002607 0.015752 -444557.000000 0 0 1
-25.284913 -34.085943 -23.218719 48.376516 0.932565 2.071404 -0.014025 0.008732 -265944.000000 0 0 1
-24.509533 -32.940343 -23.270919 47.194482 0.931109 2.086429 -0.002804 0.015015 -354009.000000 0 0 1
16.926167 8.774903 -25.924689 32.180484 0.478277 2.507489 0.037567 -0.016262 230130.000000 0 0 1
15.922567 8.194403 -25.085819 30.821659 0.475292 2.521634 0.040592 -0.020626 248344.000000 0 0 1
15.741567 6.820703 -25.416009 30.664188 0.408873 2.547845 0.036558 -0.021732 -664753.000000 0 0 1
14.326567 6.301703 -25.295529 29.746021 0.414391 2.587510 0.063136 -0.024422 -752024.000000 0 0 1
13.762967 6.304803 -24.020019 28.392448 0.429569 2.579235 0.081439 -0.034780 984998.000000 0 0 1
12.551967 5.501603 -23.944319 27.588945 0.413087 2.621746 0.086276 -0.040738 1276540.000000 0 0 1
11.609367 5.656403 -22.690319 26.107908 0.453378 2.624171 0.085047 -0.046436 241366.000000 0 0 1
12.211767 5.213403 -21.486819 25.258468 0.403493 2.588070 0.087330 -0.036736 -70290.400000 0 0 1
11.382867 5.241003 -20.371019 23.916860 0.431493 2.590099 0.091096 -0.033711 -274651.000000 0 1 0
11.009467 6.624103 -19.862319 23.655841 0.541649 2.567411 0.059648 -0.038196 -57735.100000 0 1 0
10.940767 6.699403 -18.442119 22.465398 0.549439 2.533803 0.064430 -0.030619 -203803.000000 0 1 0
11.208367 7.984203 -17.870619 22.555132 0.618962 2.485379 0.063610 -0.030142 373755.000000 0 1 0
12.700767 8.355103 -17.651619 23.295855 0.581869 2.430601 0.050993 -0.026194 170553.000000 0 1 0
13.155567 7.749403 -16.471319 22.459442 0.532336 2.394078 0.056027 -0.023916 908994.000000 0 1 0
14.578767 7.921803 -16.325319 23.276843 0.497746 2.348092 0.044572 -0.018410 862781.000000 0 1 0
15.110467 7.832503 -14.883419 22.609521 0.478219 2.289329 0.042790 -0.021410 159909.000000 0 1 0
16.502567 7.542003 -14.753419 23.385463 0.428676 2.253483 0.034575 -0.027961 944115.000000 0 1 0
16.989367 7.761903 -13.431619 23.006393 0.428551 2.194224 0.029855 -0.022991 -41165.600000 0 1 0
17.610867 9.131203 -13.128119 23.788001 0.478336 2.155413 0.054636 -0.028296 -316350.000000 0 1 0
16.631867 10.167303 -13.302819 23.599958 0.548698 2.169630 0.061027 -0.018886 942712.000000 0 1 0
17.199867 11.446603 -13.111519 24.469819 0.587198 2.136280 0.086683 -0.025301 649831.000000 0 1 0
16.050567 12.563303 -12.966519 24.157564 0.664123 2.137374 0.086297 -0.019752 978288.000000 0 1 0
15.301267 12.546003 -11.731119 23.003263 0.686777 2.105954 0.097813 -0.014588 521466.000000 0 1 0
15.771967 13.363503 -10.657919 23.257889 0.702921 2.046821 0.096288 -0.018487 -258443.000000 0 1 0
15.433067 14.858903 -10.708719 23.950850 0.766446 2.034331 0.096365 -0.016262 567100.000000 0 1 0
14.066667 15.108803 -10.346419 23.091025 0.821103 2.035403 0.095741 -0.024019 960850.000000 0 1 0
13.819367 16.480803 -10.514019 23.940266 0.873009 2.025479 0.081846 -0.023253 96430.800000 0 1 0
12.754167 17.011403 -9.542519 23.304855 0.927460 1.992664 0.068356 -0.021345 264140.000000 0 1 0
13.236567 16.904503 -8.213919 22.987766 0.906495 1.936190 0.092902 -0.021966 220181.000000 0 1 0
12.138067 16.993003 -7.372719 22.146146 0.950539 1.910186 0.076790 -0.022981 -91984.200000 0 1 0
12.613667 16.955103 -5.909919 21.943273 0.931182 1.843491 0.070898 -0.016390 49158.400000 0 1 0
13.327367 18.065703 -5.469719 23.106409 0.935203 1.809783 0.077452 -0.009255 4969.290000 0 1 0
13.682167 17.879003 -4.090719 22.882185 0.917597 1.750536 0.072760 -0.005742 -137729.000000 0 1 0
14.822867 18.804803 -3.606019 24.214487 0.903262 1.720272 0.066468 -0.015899 393288.000000 0 1 0
16.059367 18.598503 -4.305219 24.946793 0.858530 1.744241 0.067672 -0.023245 498048.000000 0 1 0
16.692967 19.860903 -4.299819 26.298271 0.871847 1.735036 0.042090 -0.019705 14920.100000 0 0 1
17.923067 20.038103 -5.259419 27.393857 0.841056 1.763988 0.038251 -0.016201 1218120.000000 0 0 1
19.154567 19.411703 -4.856419 27.700116 0.792065 1.747028 0.044545 -0.025794 734152.000000 0 0 1
19.172767 18.084303 -5.290719 26.881754 0.756192 1.768904 0.053026 -0.028943 145516.000000 0 0 1
20.331167 17.311403 -4.555319 27.088594 0.705348 1.739763 0.081882 -0.031081 616976.000000 0 0 1
21.658367 17.585603 -4.951419 28.334693 0.681988 1.746446 0.064567 -0.033874 304498.000000 0 0 1
22.543967 16.815803 -4.119919 28.424908 0.640879 1.716249 0.068052 -0.033153 362732.000000 0 0 1
24.019967 16.949303 -4.575719 29.751889 0.614497 1.725205 0.058243 -0.026470 242974.000000 0 0 1
24.660967 18.080503 -3.974019 30.836029 0.632638 1.700032 0.053437 -0.021001 172305.000000 0 0 1
26.071467 18.019303 -4.095419 31.956050 0.604762 1.699308 0.056089 -0.011468 14222.600000 0 0 1
26.572467 19.316803 -3.455719 33.032966 0.628584 1.675602 0.060102 -0.011960 -338246.000000 0 0 1
26.564067 20.412303 -4.320919 33.778426 0.655185 1.699067 0.064490 -0.017973 128876.000000 0 0 1
26.492467 21.632303 -3.594719 34.390832 0.684749 1.675513 0.067805 0.001010 -303937.000000 0 0 1
26.321467 22.904803 -4.516719 35.183098 0.716102 1.699529 0.052265 0.001101 345242.000000 0 0 1
27.422567 23.231203 -5.368819 36.338825 0.702841 1.719082 0.053395 0.010025 312291.000000 0 0 1
27.749367 22.255203 -6.345919 36.132978 0.675964 1.747339 0.059208 0.002563 545596.000000 0 0 1
28.945067 22.712103 -7.278319 37.505072 0.665318 1.766098 0.041818 0.007601 461339.000000 0 0 1
28.609667 23.881403 -7.932919 38.102042 0.695563 1.780533 0.037872 -0.000270 267196.000000 0 0 1
29.723167 24.588703 -8.464719 39.493321 0.691142 1.786805 0.034868 -0.001283 233961.000000 0 0 1
30.605367 23.974903 -9.574919 40.039524 0.664510 1.812273 0.034645 -0.011158 144564.000000 0 0 1
29.904767 23.860503 -10.832419 39.761287 0.673449 1.846721 0.037782 -0.011297 269384.000000 0 0 1
30.802467 23.660203 -11.901719 40.623245 0.655002 1.868136 0.030457 -0.010909 -256872.000000 0 0 1
30.190867 23.018003 -13.150219 40.177670 0.651400 1.904243 0.045420 -0.013645 -54251.400000 0 0 1
30.256167 23.899503 -14.297919 41.122407 0.668555 1.925904 0.058399 -0.020845 151108.000000 0 0 1
29.947767 23.173203 -15.479119 40.908058 0.658552 1.958851 0.060443 -0.019200 -29433.500000 0 0 1
30.058867 24.030103 -16.710019 41.954810 0.674396 1.980444 0.063368 -0.019860 -1286660.000000 0 0 1
31.410667 24.274503 -16.787519 43.101070 0.657941 1.970876 0.057797 -0.016882 -1061480.000000 0 0 1
31.643667 25.054403 -17.955519 44.175167 0.669700 1.989375 0.066001 -0.023885 -438608.000000 0 0 1
33.074167 25.536703 -18.185819 45.571347 0.657498 1.981291 0.058866 -0.028547 120560.000000 0 0 1
33.957667 24.430003 -18.429219 45.711971 0.623644 1.985763 0.055405 -0.020593 -612129.000000 0 0 1
35.302867 24.736303 -18.516619 46.915267 0.611188 1.976518 0.054277 -0.025325 -1153820.000000 0 0 1
-36.087748 23.570803 -18.568419 46.932872 -0.578588 1.977559 0.048560 -0.029299 -426447.000000 0 0 1
36.136067 22.701103 -19.654719 46.983650 0.560906 2.002403 0.037614 -0.020098 213398.000000 0 0 1
-35.700248 23.239403 -20.869519 47.435370 -0.577049 2.026347 0.024634 -0.018248 -139231.000000 0 0 1
-35.790048 22.167003 -21.987219 47.494645 -0.554535 2.052107 0.020116 -0.017842 -124267.000000 0 0 1
-35.076748 20.989003 -21.717319 46.287778 -0.539223 2.059159 0.014677 -0.018699 170174.000000 0 0 1
-34.750048 20.281703 -22.904519 46.298275 -0.528307 2.088305 0.026957 -0.018203 297175.000000 0 0 1
-34.257448 18.861803 -22.620719 45.177840 -0.503296 2.095208 0.024866 -0.010447 233644.000000 0 0 1
-35.403548 18.064503 -22.417019 45.631789 -0.471810 2.084331 0.021241 -0.012998 321685.000000 0 0 1
-35.161148 16.664203 -22.724819 45.060175 -0.442581 2.099392 0.020432 -0.009558 -748928.000000 0 0 1
36.113567 15.697703 -22.310219 45.258739 0.410038 2.086271 0.021102 -0.004611 -686611.000000 0 0 1
35.102067 15.798303 -23.272119 44.981474 0.422910 2.114573 0.050320 -0.007960 -272081.000000 0 0 1
33.989267 14.946103 -23.192519 43.778410 0.414281 2.129127 0.062115 -0.002570 -164163.000000 0 0 1
34.196667 13.450603 -23.634419 43.691149 0.374744 2.142354 0.038699 -0.007429 -692919.000000 0 0 1
34.104267 13.416403 -25.038019 44.384719 0.374798 2.170156 0.039643 -0.005523 170351.000000 0 0 1
34.800967 12.340103 -25.582229 44.920328 0.340759 2.176697 0.031878 -0.006904 -408673.000000 0 0 1
34.746167 12.379503 -27.105839 45.774171 0.342262 2.204539 0.039936 -0.009212 -96489.900000 0 0 1
33.525467 11.943903 -27.661819 45.075381 0.342244 2.231508 0.040413 -0.009987 40574.900000 0 0 1
32.872367 12.925103 -28.477819 45.372204 0.374622 2.249326 0.049398 -0.010740 50419.700000 0 0 1
33.264167 12.995603 -29.970489 46.622105 0.372445 2.268995 0.046594 -0.023223 -386787.000000 0 0 1
34.528067 13.586103 -30.144189 47.806294 0.374873 2.253056 0.041619 -0.012625 -582283.000000 0 0 1
34.882067 13.616403 -31.552499 48.966572 0.372165 2.270993 0.040794 -0.016149 831697.000000 0 0 1
-35.989048 14.122803 -31.611039 49.939192 -0.373954 2.256206 0.062151 -0.019609 935596.000000 0 0 1
-34.955748 13.294603 -31.210099 48.710584 -0.363432 2.266239 0.054312 -0.019137 -354366.000000 0 0 1
-34.936348 13.045403 -29.796659 47.734388 -0.357371 2.244926 0.040246 -0.017647 -766354.000000 0 0 1
-33.803148 12.078403 -29.367089 46.378513 -0.343177 2.256483 0.032964 -0.019781 270753.000000 0 0 1
-34.053348 10.813203 -29.944229 46.617729 -0.307467 2.268338 0.029750 -0.026081 1206430.000000 0 0 1
-32.950748 9.873003 -29.740889 45.472502 -0.291116 2.283711 0.029597 -0.030283 904565.000000 0 0 1
-33.308448 8.431303 -30.254899 45.780983 -0.247921 2.292763 0.038562 -0.026650 -408948.000000 0 0 1
-33.366948 8.397303 -31.670569 46.764226 -0.246545 2.314800 0.032564 -0.028009 357370.000000 0 0 1
-33.937048 7.260503 -32.352419 47.445939 -0.210763 2.321126 0.037482 -0.024637 104702.000000 0 0 1
-35.351648 6.706503 -32.063809 48.195477 -0.187480 2.298674 0.042196 -0.005793 -265712.000000 0 0 1
-35.416148 6.080203 -30.793119 47.323235 -0.170021 2.279299 0.040724 -0.005422 60122.500000 0 0 1
35.696567 5.602303 -30.397799 47.219242 0.155673 2.270196 0.050167 0.005257 -586523.000000 0 0 1
35.762967 4.862803 -29.022919 46.313783 0.135144 2.248054 0.051162 -0.005177 -41700.800000 0 0 1
-35.816348 3.694903 -29.126039 46.311869 -0.102799 2.250948 0.051731 0.004990 390260.000000 0 0 1
-36.088148 2.774303 -28.024529 45.775816 -0.076725 2.229652 0.056651 0.015047 -449555.000000 0 0 1
-35.174648 1.558803 -27.862139 44.899716 -0.044287 2.240229 0.080020 0.016423 548642.000000 0 0 1
-33.972448 1.905303 -27.114979 43.508384 -0.056025 2.243640 0.068108 0.008011 992719.000000 0 0 1
-33.156348 0.724803 -27.125639 42.844708 -0.021857 2.256368 0.074209 0.019188 883711.000000 0 0 1
-31.988548 0.750003 -26.050029 41.260558 -0.023442 2.254095 0.062355 0.013260 806004.000000 0 0 1
-32.425248 0.487703 -24.689419 40.757845 -0.015040 2.221515 0.061390 0.008074 491291.000000 0 0 1
-31.349648 0.648503 -23.759819 39.341453 -0.020683 2.219230 0.081136 0.000616 336124.000000 0 0 1
-31.616248 0.193903 -22.334819 38.710061 -0.006133 2.185819 0.078078 -0.005342 -659750.000000 0 0 1
-31.854848 -1.197797 -22.223219 38.859201 0.037584 2.179605 0.087111 -0.013246 173075.000000 0 0 1
-32.309648 -1.571597 -20.953819 38.541481 0.048603 2.145599 0.083152 -0.013803 -296285.000000 0 0 1
-33.774848 -1.313797 -20.572919 39.569071 0.038879 2.117559 0.076158 -0.010150 -656564.000000 0 0 1
-34.593248 -2.428097 -20.829719 40.453252 0.070075 2.111697 0.068173 -0.019361 -83249.100000 0 0 1
-35.941648 -2.113397 -20.569219 41.465181 0.058733 2.089852 0.056533 -0.015915 141781.000000 0 0 1
35.482967 -3.282797 -20.225219 40.974103 -0.092255 2.087032 0.050732 -0.021471 -44568.000000 0 0 1
35.029967 -4.169697 -21.274619 41.195805 -0.118475 2.113469 0.045319 -0.015388 -17394.400000 0 0 1
35.964967 -5.080797 -21.768219 42.345586 -0.140342 2.110709 0.060012 -0.020662 -534360.000000 0 0 1
35.393667 -5.846197 -22.967719 42.595842 -0.163698 2.140284 0.057876 -0.027676 -739122.000000 0 0 1
34.611067 -6.945397 -22.555019 41.891447 -0.198040 2.139352 0.058009 -0.019427 45989.200000 0 0 1
34.064067 -7.663197 -23.614319 42.151172 -0.221280 2.165459 0.069362 -0.018203 -471938.000000 0 0 1
32.835067 -7.052997 -24.282419 41.443000 -0.211586 2.196815 0.037381 -0.010342 -1218820.000000 0 0 1
33.013567 -5.954397 -25.124749 41.911853 -0.178444 2.213631 0.039852 -0.008068 314027.000000 0 0 1
31.717567 -5.490797 -25.505859 41.069474 -0.171416 2.240867 0.009597 -0.002911 553113.000000 0 0 1
31.697867 -4.370397 -26.528749 41.564764 -0.137013 2.263020 0.039904 -0.036430 -67042.500000 0 0 1
32.059167 -4.729997 -27.841549 42.723704 -0.146483 2.280574 0.053094 -0.032475 223981.000000 0 0 1
31.717067 -3.674797 -28.752499 42.967227 -0.115348 2.303891 0.051874 -0.034128 -107146.000000 0 0 1
31.236767 -4.188097 -30.070969 43.560750 -0.133281 2.332731 0.064276 -0.029994 -134733.000000 0 0 1
30.703367 -3.143497 -30.848009 43.636887 -0.102027 2.355938 0.049091 -0.041581 -66918.900000 0 0 1
30.161767 -3.606997 -32.063949 44.168308 -0.119023 2.383210 0.052205 -0.035582 -966361.000000 0 0 1
29.636667 -2.430097 -32.896739 44.344479 -0.081813 2.406614 0.059177 -0.035439 97306.700000 0 0 1
28.613367 -1.662597 -32.214419 43.119111 -0.058040 2.414489 0.053167 -0.041783 1350900.000000 0 0 1
27.341667 -2.287197 -31.980149 42.137014 -0.083458 2.432505 0.065914 -0.047218 71659.300000 0 0 1
26.439067 -2.584197 -33.199889 42.519818 -0.097432 2.466757 0.067948 -0.048159 -1665560.000000 0 0 1
26.804067 -3.708697 -33.955569 43.418810 -0.137490 2.468741 0.072334 -0.044721 -114464.000000 0 0 1
26.286367 -3.652797 33.209749 42.511215 -0.138077 0.674211 0.061691 -0.036690 -828301.000000 0 0 1
26.795367 -4.861397 32.376939 42.307103 -0.179475 0.699314 0.043528 -0.031728 278325.000000 0 0 1
28.182567 -5.005097 32.087711 42.999177 -0.175763 0.728400 0.038188 -0.019660 362806.000000 0 0 1
28.639967 -4.198897 30.994141 42.408904 -0.145573 0.751244 0.056427 -0.024917 -196269.000000 0 0 1
29.151867 -2.768897 31.265691 42.837385 -0.094698 0.752666 0.041613 -0.022822 136052.000000 0 0 1
30.366967 -2.734397 32.023151 44.216646 -0.089803 0.760875 0.043807 -0.022728 258915.000000 0 0 1
30.803167 -1.422597 32.191681 44.577608 -0.046151 0.763892 0.041640 -0.018007 154628.000000 0 0 1
32.235467 -1.308897 32.796295 46.004733 -0.040582 0.777186 0.038690 -0.010670 536695.000000 0 0 1
33.218367 -1.703597 31.835761 46.042130 -0.051240 0.807304 0.052115 -0.008751 -746393.000000 0 0 1
34.487867 -1.545897 32.377732 47.329909 -0.044794 0.817446 0.053171 -0.012562 -601270.000000 0 0 1
35.566167 -2.211797 31.481301 47.549096 -0.062108 0.847206 0.047852 0.000121 -335481.000000 0 0 1
35.732267 -1.719597 30.182371 46.805207 -0.048087 0.869968 0.036652 0.002034 -555908.000000 0 0 1
-35.604048 -2.309697 29.497871 46.293707 0.064781 0.879950 0.042487 0.003569 -535226.000000 0 0 1
-35.316948 -1.873797 28.022051 45.122425 0.053007 0.900749 0.051647 0.001903 -85963.300000 0 0 1
35.983967 -2.019397 27.130121 45.110611 -0.056061 0.925527 0.054699 -0.009707 -131201.000000 0 0 1
-35.951548 -1.795097 25.760451 44.264398 0.049890 0.949650 0.058723 -0.000711 132722.000000 0 0 1
-26.791293 15.523303 11.879281 33.164192 -0.525147 1.204461 0.068542 -0.017152 350798.000000 0 0 1
-27.759323 14.681603 12.520181 33.806574 -0.486491 1.191413 0.044855 -0.002614 359424.000000 0 0 1
-28.803613 15.472703 13.037681 35.199912 -0.492947 1.191368 0.060137 -0.009272 -1191900.000000 0 0 1
-29.947983 14.653203 13.536081 35.983657 -0.455042 1.185134 0.062473 -0.007643 -1445280.000000 0 0 1
-30.956003 15.511103 13.974781 37.338492 -0.464503 1.187184 0.053131 -0.011204 -328519.000000 0 0 1
-31.886803 14.707603 14.730481 38.079770 -0.432165 1.173602 0.057010 -0.006255 31257.900000 0 0 1
-32.888483 15.549203 15.557381 39.565922 -0.441640 1.166685 0.048280 -0.009449 11274.900000 0 0 1
-32.407463 16.072303 16.802681 39.885996 -0.460398 1.135954 0.042929 -0.000115 -320451.000000 0 0 1
-33.463913 16.330803 17.650481 41.207622 -0.454012 1.128152 0.038863 -0.001789 -245995.000000 0 0 1
-32.850433 16.708803 19.036181 41.481457 -0.470530 1.094030 0.040960 0.003610 511704.000000 0 0 1
-32.219273 15.590003 19.645881 40.830019 -0.450662 1.068816 0.042146 0.007439 -201706.000000 0 0 1
-31.136573 15.852203 20.500881 40.510056 -0.470916 1.040175 0.056310 0.001498 -6923.610000 0 0 1
-31.387053 16.410203 21.923081 41.654092 -0.481747 1.016538 0.050839 -0.004704 -393164.000000 0 0 1
-31.939593 17.736003 21.882681 42.585856 -0.506902 1.031131 0.044076 0.002279 67678.200000 0 0 1
-32.110253 18.410903 23.098381 43.629863 -0.520605 1.012883 0.043395 -0.005448 -1141940.000000 0 0 1
-32.833793 17.687703 24.243181 44.481959 -0.494129 0.994393 0.021351 -0.003269 321442.000000 0 0 1
-34.196855 17.313603 24.033081 45.241295 -0.468669 1.010756 0.046019 -0.004030 372347.000000 0 0 1
-35.110312 18.373103 23.940481 46.297425 -0.482111 1.027335 0.043604 -0.005581 -738225.000000 0 0 1
35.838931 17.816103 23.677981 46.502573 0.461338 1.036570 0.014160 -0.011242 16981.100000 0 0 1
35.251051 17.290603 24.810381 46.445199 0.456018 1.007252 0.029366 -0.008822 1847.920000 0 0 1
34.365751 16.206703 24.480881 45.199288 0.440666 0.998432 0.039600 -0.007438 396825.000000 0 0 1
33.853421 15.361703 25.616381 45.146816 0.425986 0.967449 0.045197 -0.009853 531740.000000 0 0 1
32.843131 15.989803 26.469681 45.110853 0.453075 0.943733 0.040296 -0.012487 949544.000000 0 0 1
32.440071 15.189903 27.580881 45.208366 0.437923 0.914630 0.035287 -0.009547 -196782.000000 0 0 1
31.401291 14.093303 27.378081 43.979786 0.421866 0.898844 0.031363 -0.005490 -645774.000000 0 0 1
31.883071 12.963203 26.676381 43.545426 0.386171 0.911437 0.027633 -0.006272 -106589.000000 0 0 1
30.989291 11.869303 26.619881 42.542151 0.365777 0.894730 0.019187 -0.001961 -168304.000000 0 0 1
31.642661 10.478403 26.275281 42.443437 0.319782 0.903244 0.038836 0.007678 124221.000000 0 0 1
32.474871 9.984803 27.324081 43.599529 0.298289 0.893478 0.049868 0.006612 78970.700000 0 0 1
32.970221 8.703303 27.030081 43.513311 0.258087 0.900535 0.038624 0.007328 -178391.000000 0 0 1
33.964371 8.022603 27.985581 44.734030 0.231955 0.894897 0.060425 0.001812 -220632.000000 0 0 1
35.237531 8.596503 27.925181 45.775530 0.239285 0.914678 0.079622 -0.004966 -253589.000000 0 0 1
-36.141743 7.938103 28.668081 46.809165 -0.216205 0.911645 0.068612 -0.006310 431562.000000 0 0 1
-34.822519 8.716903 28.885181 46.075438 -0.245283 0.893215 0.067601 -0.011263 140500.000000 0 0 1
-34.189453 9.316303 27.776881 45.025186 -0.266032 0.905975 0.053544 -0.012159 401597.000000 0 0 1
-32.852393 9.538903 28.233081 44.355127 -0.282586 0.880814 0.078242 -0.009691 171618.000000 0 0 1
-31.962173 10.285503 27.265981 43.252813 -0.311337 0.888746 0.072489 -0.011451 -310900.000000 0 0 1
-31.540333 9.458503 26.186881 42.071471 -0.291352 0.898943 0.067668 -0.015268 -63252.300000 0 0 1
-30.558133 10.080303 25.410481 41.001275 -0.318633 0.902374 0.054319 -0.013958 -479628.000000 0 0 1
-29.858863 9.084903 24.514381 39.686800 -0.295362 0.904987 0.064533 -0.017301 -8505.570000 0 0 1
-28.828283 9.660003 23.719281 38.561508 -0.323329 0.908280 0.060312 -0.017082 155408.000000 0 0 1
-28.194043 8.659903 22.960481 37.377556 -0.298007 0.909316 0.060561 -0.006139 271637.000000 0 0 1
-26.924903 9.066103 22.162781 36.032395 -0.324794 0.908310 0.055422 -0.002937 -326030.000000 0 0 1
-25.777043 9.356103 22.947981 35.757551 -0.348176 0.873997 0.061210 -0.015513 332412.000000 0 0 1
-24.676333 9.984703 22.359181 34.764187 -0.384489 0.872169 0.059600 -0.002374 125306.000000 0 0 1
-24.052333 9.417903 21.033781 33.311133 -0.373208 0.887395 0.057537 -0.002154 -1207640.000000 0 0 1
-24.862233 9.327903 19.903781 33.185854 -0.358932 0.927586 0.052359 -0.006531 -239244.000000 0 0 1
-24.224033 8.667303 18.820881 31.877131 -0.343605 0.939218 0.058445 -0.013172 -160261.000000 0 0 1
-24.188133 7.111903 18.762581 31.427367 -0.285966 0.931022 0.060028 -0.004518 -527507.000000 0 0 1
-23.266633 6.506603 19.632581 31.130537 -0.272688 0.888401 0.062060 -0.004988 201010.000000 0 0 1
-23.329333 5.130303 19.759281 31.000113 -0.216462 0.879685 0.079435 -0.010218 -150168.000000 0 0 1
-23.179533 4.148603 18.513081 29.953895 -0.177102 0.904533 0.071750 -0.009505 -226954.000000 0 0 1
-24.411033 4.001003 17.832581 30.494385 -0.162457 0.946184 0.081124 -0.004011 474278.000000 0 0 1
-24.402533 2.952203 16.883181 29.820143 -0.120394 0.968948 0.084463 -0.010763 -241134.000000 0 0 1
-24.328133 1.467903 17.376881 29.932738 -0.060265 0.951416 0.085189 -0.013078 1301280.000000 0 0 1
-22.982133 1.027703 17.799981 29.087350 -0.044688 0.912274 0.064427 -0.008335 1899980.000000 0 0 1
-22.910733 -0.313597 18.289681 29.317443 0.013687 0.897137 0.073279 -0.011742 32649.900000 0 0 1
-21.504033 -0.945397 18.521581 28.396588 0.043935 0.860252 0.068170 -0.003459 416271.000000 0 0 1
-20.846633 -0.361297 19.663481 28.659469 0.017329 0.814671 0.060502 0.000100 400835.000000 0 0 1
-19.710733 -1.170097 19.952581 28.071117 0.059294 0.780180 0.050945 0.003151 302120.000000 0 0 1
-18.737033 -0.768897 21.088481 28.220412 0.041013 0.726841 0.062677 -0.002309 440772.000000 0 0 1
-19.221833 -0.966797 22.382281 29.519148 0.050254 0.710203 0.072615 -0.009619 -379257.000000 0 0 1
-18.165233 -0.755397 23.272681 29.532423 0.041561 0.663180 0.078058 -0.012472 -493412.000000 0 0 1
-18.575933 -0.996097 24.740181 30.953741 0.053572 0.644728 0.080723 -0.006938 352724.000000 0 0 1
-19.352733 -0.004197 25.429781 31.956253 0.000217 0.650521 0.063066 -0.009049 1197980.000000 0 0 1
-20.760633 -0.072397 25.074881 32.553937 0.003487 0.691553 0.092558 -0.011137 701988.000000 0 0 1
-21.602533 1.084403 25.607181 33.519742 -0.050156 0.701394 0.075944 -0.017203 -316032.000000 0 0 1
-21.362833 2.329403 25.033581 32.992074 -0.108611 0.709365 0.070004 -0.015000 329669.000000 0 0 1
-22.506033 2.788903 24.308881 33.244868 -0.123290 0.750707 0.069102 -0.014330 -491991.000000 0 0 1
-22.346033 3.986703 23.361581 32.573033 -0.176550 0.771011 0.084548 -0.018690 -48025.700000 0 0 1
-21.555033 3.758703 22.205981 31.174556 -0.172641 0.778011 0.091900 -0.012025 1536010.000000 0 0 1
-20.130133 3.599203 22.452281 30.369087 -0.176927 0.738746 0.076832 -0.009257 600359.000000 0 0 1
-19.518033 2.876203 21.240981 28.989747 -0.146308 0.748506 0.066199 -0.009899 -277901.000000 0 0 1
-19.355033 3.656203 20.133481 28.166331 -0.186702 0.774449 0.062050 -0.005063 34387.300000 0 0 1
-19.117633 2.875903 19.012381 27.115039 -0.149312 0.793753 0.062628 -0.004514 -46027.500000 0 0 1
-18.682533 3.685503 17.776181 26.050194 -0.194769 0.819780 0.049372 -0.007275 -88457.700000 0 0 1
-17.286933 3.889403 17.769981 25.094576 -0.221306 0.783964 0.046753 -0.013324 -21173.100000 0 0 1
-16.967933 4.785803 16.682081 24.271516 -0.274909 0.813016 0.050713 -0.011245 -427182.000000 0 1 0
-15.518933 5.275503 16.705081 23.403589 -0.327685 0.775912 0.049586 -0.006181 -393746.000000 0 1 0
-15.170533 6.350003 17.568481 24.064895 -0.396416 0.752407 0.045540 -0.008708 -78932.500000 0 1 0
-15.764333 7.613103 17.389081 24.674961 -0.449900 0.788760 0.050689 -0.016893 -243758.000000 0 1 0
-15.297233 8.519503 16.110681 23.793725 -0.508149 0.826985 0.025919 -0.013074 181466.000000 0 1 0
-15.763933 8.093303 14.864681 23.129243 -0.474315 0.872806 0.046535 -0.015479 34299.300000 0 1 0
-17.144533 8.121103 14.593181 23.934249 -0.442375 0.915090 0.043029 -0.015922 -229803.000000 0 1 0
-17.613633 7.484503 13.330081 23.322713 -0.401809 0.962404 0.043411 -0.013925 -126186.000000 0 1 0
-17.324933 6.060403 13.349981 22.695898 -0.336504 0.941951 0.042164 -0.011864 393662.000000 0 1 0
-17.918633 5.479303 12.222681 22.371726 -0.296758 0.992802 0.042384 -0.016965 146466.000000 0 1 0
-17.545533 3.963003 12.282481 21.780966 -0.222142 0.971685 0.038734 -0.009694 4982.720000 0 1 0
-18.050033 3.424103 13.456981 22.773198 -0.187473 0.938606 0.037944 -0.005848 108691.000000 0 1 0
-17.757333 2.083403 13.560181 22.439741 -0.116792 0.921918 0.034423 -0.006935 -466619.000000 0 1 0
-18.662633 1.380703 14.556481 23.708466 -0.073848 0.909706 0.046153 -0.004008 755110.000000 0 1 0
-19.968233 1.146703 13.987781 24.407034 -0.057363 0.960507 0.054304 -0.007347 1153260.000000 0 1 0
-20.923133 0.667103 14.936081 25.715930 -0.031873 0.951072 0.059296 -0.008817 721990.000000 0 0 1
-22.354833 0.387603 14.409081 26.599068 -0.017337 0.998322 0.066823 -0.015280 68846.900000 0 0 1
-22.269833 -0.782997 13.576481 26.093666 0.035145 1.023597 0.071333 -0.021063 769281.000000 0 0 1
-23.557333 -1.272797 13.191081 27.029106 0.053977 1.060962 0.095610 -0.026461 349525.000000 0 0 1
-23.643233 -2.403597 12.218181 26.721971 0.101313 1.095914 0.094603 -0.029933 -325087.000000 0 0 1
-23.162833 -3.570997 12.818281 26.712866 0.152965 1.070308 0.077835 -0.026993 239874.000000 0 0 1
-23.197433 -4.703697 11.958681 26.518969 0.200056 1.102969 0.092621 -0.032709 -294911.000000 0 0 1
-23.229233 -6.075897 12.717981 27.170956 0.255831 1.083688 0.093083 -0.030133 288505.000000 0 0 1
-24.368033 -6.315697 13.536581 28.581954 0.253599 1.077416 0.071723 -0.024706 369880.000000 0 0 1
-24.449733 -7.702097 13.798781 29.112165 0.305177 1.076983 0.080590 -0.029841 225880.000000 0 0 1
-25.565123 -8.131197 14.801781 30.639592 0.307941 1.066612 0.084185 -0.022104 -1122850.000000 0 0 1
-26.788723 -7.635497 14.506581 31.406646 0.277664 1.090665 0.073748 -0.028843 -1036340.000000 0 0 1
-27.691383 -7.786397 15.614481 32.729997 0.274107 1.073479 0.078531 -0.022784 -363696.000000 0 0 1
-29.136293 -7.258697 15.406781 33.748795 0.244159 1.096724 0.081476 -0.033922 111942.000000 0 0 1
-29.933413 -8.018597 14.524281 34.223703 0.261736 1.132506 0.074844 -0.028766 274014.000000 0 0 1
-30.062903 -9.462797 14.622981 34.744126 0.304948 1.136385 0.074266 -0.030650 -909825.000000 0 0 1
-30.414683 -10.076397 16.039781 35.831011 0.319920 1.106660 0.075127 -0.030501 -595981.000000 0 0 1
-29.355883 -10.232497 16.972181 35.419300 0.335398 1.071077 0.081053 -0.012697 -263564.000000 0 0 1
-29.601093 -10.766097 18.235581 36.396016 0.348833 1.046005 0.085105 -0.005612 -489045.000000 0 0 1
-28.317923 -10.857697 19.061781 35.821026 0.366133 1.009671 0.086474 0.000342 225456.000000 0 0 1
-27.450003 -11.901997 18.576581 35.217177 0.409122 1.015157 0.078380 0.000231 -265353.000000 0 0 1
-26.264363 -11.913397 19.322281 34.714498 0.425840 0.980502 0.069801 0.000369 -131741.000000 0 0 1
-25.180003 -12.804197 18.693481 33.873681 0.470430 0.986205 0.060520 0.003033 211399.000000 0 0 1
-24.601833 -12.433097 17.418981 32.607561 0.467937 1.007234 0.045661 -0.002714 1427580.000000 0 0 1
-23.373133 -13.159297 17.110581 31.815758 0.512776 1.002968 0.046315 -0.011014 1111730.000000 0 0 1
-23.128533 -13.115797 15.593681 30.823953 0.515864 1.040377 0.049529 -0.016189 -167692.000000 0 0 1
-22.967033 -11.741397 15.222581 29.951160 0.472590 1.037649 0.035444 -0.015922 -114938.000000 0 0 1
-22.863233 -11.551597 13.797081 29.095125 0.467837 1.076734 0.029607 -0.024024 68118.700000 0 0 1
-21.466733 -11.032097 13.352781 27.583049 0.474718 1.065469 0.036163 -0.030389 -59035.200000 0 0 1
-21.307633 -9.616397 13.610081 27.050409 0.423945 1.043571 0.056403 -0.031615 762403.000000 0 0 1
-19.981333 -9.110397 13.381181 25.715929 0.427787 1.023540 0.063395 -0.033626 681415.000000 0 0 1
-19.512833 -9.072197 11.941081 24.609853 0.435204 1.064187 0.081259 -0.024129 -759814.000000 0 1 0
-19.136333 -10.332097 11.436881 24.571401 0.495072 1.086648 0.082045 -0.031814 -6055.450000 0 1 0
-18.721433 -10.131597 10.103981 23.563356 0.496044 1.127632 0.087719 -0.029379 -1382400.000000 0 1 0
-18.128033 -11.382397 9.566381 23.445686 0.560674 1.150509 0.069797 -0.023170 -26265.100000 0 1 0
-16.724933 -11.539897 9.621281 22.482475 0.603971 1.128578 0.084739 -0.034640 468243.000000 0 1 0
-16.158133 -11.594197 10.990681 22.722362 0.622405 1.065925 0.077736 -0.027437 -967599.000000 0 1 0
-14.678833 -11.949997 11.052281 21.918565 0.683278 1.042291 0.079721 -0.025272 -480571.000000 0 1 0
-14.330333 -13.261097 10.756281 22.291539 0.746665 1.067258 0.064357 -0.027518 283375.000000 0 1 0
-12.961833 -13.622197 10.873981 21.721345 0.810234 1.046490 0.076066 -0.025511 359835.000000 0 1 0
-12.711533 -15.137797 10.568281 22.414829 0.872300 1.079821 0.078749 -0.026885 157392.000000 0 1 0
-13.200633 -15.683297 9.335081 22.524792 0.871141 1.143474 0.059322 -0.022650 252211.000000 0 1 0
-12.916033 -17.058897 9.423081 23.379999 0.922739 1.155960 0.033301 -0.011567 45366.200000 0 1 0
-13.064833 -17.986797 8.172081 23.685389 0.942599 1.218530 0.016951 -0.007307 -74264.100000 0 1 0
-12.201033 -17.729497 7.070181 22.653647 0.968049 1.253395 0.027890 -0.014434 79830.700000 0 1 0
-12.454733 -18.649597 5.996081 23.213807 0.981990 1.309536 0.012650 -0.004855 -495598.000000 0 1 0
-11.626733 -18.429797 4.762481 22.305147 1.007990 1.355625 0.017653 -0.008978 -570086.000000 0 1 0
-12.003633 -19.236197 3.718181 22.977018 1.012907 1.408260 0.031390 -0.013180 613996.000000 0 1 0
-11.225733 -18.955097 2.519281 22.173398 1.036111 1.456933 0.030990 -0.028885 773397.000000 0 1 0
-11.722733 -19.991597 1.424581 23.218869 1.040449 1.509403 0.041285 -0.021776 1010.940000 0 1 0
-11.286333 -21.303197 1.717881 24.169374 1.083598 1.499660 0.035756 -0.022273 -75282.900000 0 1 0
-11.664133 -22.297197 0.675781 25.172876 1.088823 1.543947 0.039539 -0.019271 400507.000000 0 0 1
-10.602033 -22.518497 -0.489219 24.894280 1.130769 1.590449 0.042070 -0.011581 521834.000000 0 1 0
-10.434333 -21.349597 -1.369919 23.802464 1.116200 1.628382 0.043241 -0.021431 -329579.000000 0 1 0
-11.435333 -21.149197 -2.319819 24.154439 1.075123 1.666986 0.058670 -0.022412 -164544.000000 0 1 0
-12.560633 -20.163297 -1.932319 23.834049 1.013676 1.651959 0.062024 -0.021902 490903.000000 0 1 0
-13.534733 -20.639697 -0.990819 24.701575 0.990381 1.610919 0.061906 -0.016682 -239642.000000 0 1 0
-14.637233 -19.798697 -0.942019 24.639895 0.934177 1.609037 0.077770 -0.007937 -350772.000000 0 1 0
26.581467 -20.188097 -3.992919 33.616618 -0.649541 1.689856 0.073669 -0.033050 21205.200000 0 0 1
25.471967 -20.236797 -3.118019 32.681357 -0.671362 1.666348 0.090399 -0.037819 139682.000000 0 0 1
25.326267 -21.530597 -2.567519 33.340344 -0.704569 1.647882 0.060758 -0.028254 117268.000000 0 0 1
23.976567 -21.829597 -1.834419 32.477256 -0.738562 1.627310 0.056018 -0.027840 778050.000000 0 0 1
22.916767 -22.114797 -2.761919 31.966711 -0.767591 1.657304 0.070635 -0.034181 -28591.300000 0 0 1
21.765667 -22.484697 -2.055319 31.361285 -0.801646 1.636380 0.066951 -0.029177 -228180.000000 0 0 1
20.642667 -22.988397 -2.987519 31.040479 -0.839109 1.667191 0.071882 -0.033851 -145769.000000 0 0 1
20.078067 -22.048397 -3.884419 30.072401 -0.832136 1.700327 0.072077 -0.038246 1172.880000 0 0 1
19.148167 -22.766097 -4.693019 30.115974 -0.871502 1.727266 0.073990 -0.036819 -370060.000000 0 0 1
17.976967 -21.933597 -5.209119 28.833816 -0.884213 1.752454 0.064080 -0.028900 -140943.000000 0 0 1
16.940967 -21.648897 -4.258919 27.817431 -0.906797 1.724503 0.063713 -0.022617 475118.000000 0 0 1
17.300367 -20.741297 -3.221419 27.200765 -0.875604 1.689506 0.055590 -0.024794 -525572.000000 0 0 1
16.135767 -20.309997 -2.289219 26.040343 -0.899434 1.658820 0.048614 -0.005148 -59534.500000 0 0 1
15.710267 -21.246897 -1.347019 26.458601 -0.934104 1.621729 0.053950 -0.015707 154489.000000 0 0 1
14.945167 -20.562197 -0.345219 25.422060 -0.942291 1.584376 0.052368 -0.006004 13165.200000 0 0 1
14.686267 -21.448497 0.857681 26.008846 -0.970398 1.537814 0.058770 -0.006245 483703.000000 0 0 1
13.708367 -22.493997 0.641781 26.349784 -1.023477 1.546438 0.044387 -0.001290 570278.000000 0 0 1
13.064067 -22.769197 1.915181 26.320602 -1.049894 1.497968 0.045754 -0.002166 134407.000000 0 0 1
12.120267 -23.970497 1.845881 26.923835 -1.102653 1.502183 0.034941 -0.000553 46226.100000 0 0 1
12.806167 -25.180447 1.913181 28.314538 -1.100312 1.503176 0.026732 -0.003713 347433.000000 0 0 1
11.841267 -26.207187 1.726581 28.809952 -1.146419 1.510830 0.025147 -0.002358 460745.000000 0 0 1
12.295567 -27.586617 2.298681 30.290037 -1.151518 1.494834 0.020725 0.001550 77405.500000 0 0 1
12.418367 -27.612557 3.714081 30.503500 -1.148162 1.448734 0.034675 -0.007946 71018.200000 0 0 1
12.459467 -28.922607 4.308381 31.785494 -1.164035 1.434832 0.035695 -0.003942 -53138.300000 0 0 1
12.326167 -28.872027 5.802681 31.924903 -1.167297 1.388020 0.047650 -0.005299 -110335.000000 0 0 1
12.173967 -30.178277 6.369481 33.158772 -1.187361 1.377505 0.035979 -0.007345 -217628.000000 0 0 1
12.253067 -30.281527 7.771381 33.578310 -1.186298 1.337238 0.039141 -0.005784 196759.000000 0 0 1
11.658067 -31.619257 8.282981 34.702964 -1.217559 1.329788 0.032720 -0.008825 258854.000000 0 0 1
11.674367 -31.747177 9.689381 35.186051 -1.218415 1.291816 0.033862 -0.006246 -34730.400000 0 0 1
10.747767 -32.742677 10.062381 35.900542 -1.253628 1.286705 0.033997 -0.003102 68895.400000 0 0 1
10.748267 -32.879927 11.549181 36.469143 -1.254852 1.248565 0.031176 -0.006650 -25001.800000 0 0 1
11.949067 -33.474867 12.011881 37.518425 -1.227938 1.244898 0.038529 -0.010078 169054.000000 0 0 1
12.037367 -33.912757 13.337181 38.377776 -1.229718 1.215868 0.044451 -0.008352 73413.400000 0 0 1
11.008167 33.586996 13.666281 37.895030 1.254078 1.201848 0.041253 -0.005155 221309.000000 0 0 1
11.254467 32.440119 12.893981 36.678047 1.236859 1.211575 0.049441 -0.010229 5219.160000 0 0 1
10.157067 31.561339 12.964081 35.599881 1.259443 1.198065 0.039934 -0.003832 -181551.000000 0 0 1
10.151967 30.433399 11.982781 34.246770 1.248824 1.213337 0.036939 -0.008289 -276350.000000 0 0 1
9.921467 30.795909 10.617281 34.052169 1.259128 1.253715 0.036919 -0.004992 -229776.000000 0 0 1
10.797167 31.706299 10.032581 34.964566 1.242577 1.279770 0.028740 -0.009817 -431533.000000 0 0 1
10.182367 32.201069 8.689381 34.872551 1.264533 1.318968 0.018793 -0.009088 -1217220.000000 0 0 1
8.987567 32.844435 8.863481 35.186568 1.303695 1.316154 0.018073 -0.005997 -1030400.000000 0 0 1
8.344067 33.041044 7.581181 34.911436 1.323432 1.351898 0.000342 -0.003622 -298668.000000 0 0 1
8.868667 34.208209 6.752081 35.978402 1.317126 1.382006 0.009952 0.004433 -127656.000000 0 0 1
8.209767 -33.167157 7.169581 34.912225 -1.328147 1.363965 0.013845 0.003526 336024.000000 0 0 1
8.361667 -32.096127 6.229581 33.747393 -1.315942 1.385137 0.030511 -0.003000 -145101.000000 0 0 1
7.719967 -30.837567 6.764781 32.501011 -1.325495 1.361123 0.014074 -0.001962 -403505.000000 0 0 1
8.286867 -30.428077 7.963281 32.526203 -1.304902 1.323455 0.033787 0.003014 -420945.000000 0 0 1
8.089367 -29.096607 8.328381 31.327501 -1.299627 1.301712 0.051292 0.004056 -171108.000000 0 0 1
9.146567 -28.053137 7.914081 30.549482 -1.255620 1.308750 0.057400 -0.007795 -296939.000000 0 0 1
9.391467 -27.110797 8.948181 30.054366 -1.237323 1.268479 0.060965 -0.002719 546521.000000 0 0 1
10.289167 -26.020857 8.590081 29.270146 -1.194244 1.272936 0.054151 -0.013328 533199.000000 0 0 1
9.685767 -24.904797 7.708081 27.811464 -1.199885 1.289965 0.062692 -0.015360 -162297.000000 0 0 1
9.472867 -25.409867 6.395681 27.862184 -1.213953 1.339184 0.063288 -0.011148 -504106.000000 0 0 1
8.679967 -24.587197 5.620081 26.673159 -1.231427 1.358504 0.061855 -0.011587 -108792.000000 0 0 1
8.436967 -25.076457 4.170981 26.784477 -1.246244 1.414436 0.052660 -0.010620 133965.000000 0 0 1
7.512067 -26.136147 4.040281 27.492784 -1.290920 1.423304 0.057007 -0.008204 197169.000000 0 0 1
8.080067 -27.456637 4.279281 28.939016 -1.284591 1.422380 0.049827 -0.001913 676755.000000 0 0 1
7.085667 -28.559507 3.772381 29.666192 -1.327605 1.443290 0.043790 -0.005691 712273.000000 0 0 1
5.876267 -28.666817 4.510381 29.608452 -1.368612 1.417867 0.042208 -0.006025 520150.000000 0 0 1
4.774867 -29.343767 3.898181 29.984193 -1.409488 1.440419 0.035249 -0.000290 758494.000000 0 0 1
4.817367 -30.925907 3.919381 31.543308 -1.416267 1.446220 0.029769 0.003580 -29016.700000 0 0 1
5.937867 -31.497497 3.257581 32.217424 -1.384464 1.469511 0.025424 0.000680 131672.000000 0 0 1
5.896867 -32.908837 3.350881 33.600491 -1.393490 1.470903 0.013619 0.002465 861407.000000 0 0 1
7.150967 -33.586547 2.655581 34.441901 -1.361017 1.493617 0.007559 0.005775 794029.000000 0 0 1
6.914967 -33.820417 1.295681 34.544409 -1.369115 1.533280 0.014170 0.001035 -2341.610000 0 0 1
7.848167 33.866763 0.722681 34.771736 1.343079 1.550011 0.003940 0.001794 -142735.000000 0 0 1
7.405767 33.236708 -0.613119 34.057306 1.351559 1.588800 0.019720 -0.000586 587826.000000 0 0 1
6.277867 32.375709 -0.577419 32.983808 1.379267 1.588303 0.004200 0.001438 815573.000000 0 0 1
4.955267 32.932907 -0.490119 33.307225 1.421451 1.585512 0.015821 -0.006687 301145.000000 0 0 1
3.878367 31.879049 -0.374419 32.116284 1.449732 1.582455 0.019017 -0.006387 -460091.000000 0 0 1
3.725467 31.089399 -1.534719 31.349405 1.451534 1.619771 0.022796 -0.007471 -640559.000000 0 0 1
2.876067 30.048689 -1.240719 30.211502 1.475373 1.611876 0.024655 -0.014116 -369593.000000 0 0 1
2.849667 29.048279 -2.388319 29.285273 1.473008 1.652441 0.034499 -0.011994 -122.714000 0 0 1
2.285267 29.602849 -3.563119 29.903962 1.493752 1.690232 0.045900 -0.026005 -14952.300000 0 0 1
2.086167 28.658299 -4.575719 29.096175 1.498130 1.728714 0.047031 -0.036917 -30594.600000 0 0 1
1.841667 29.503319 -5.867719 30.137480 1.508455 1.766746 0.047729 -0.035921 245500.000000 0 0 1
0.489667 29.966589 -5.881919 30.542318 1.554457 1.764590 0.049382 -0.029219 490882.000000 0 0 1
0.133367 30.585379 -7.128619 31.405420 1.566436 1.799779 0.043499 -0.030273 -186978.000000 0 0 1
-0.059333 29.627189 -8.318819 30.772985 -1.568794 1.844531 0.047136 -0.030037 441308.000000 0 0 1
-1.444433 29.400009 -8.676319 30.687545 -1.521705 1.857436 0.041649 -0.030789 974316.000000 0 0 1
-1.639533 29.133269 -10.062219 30.865575 -1.514579 1.902867 0.045677 -0.023685 -149210.000000 0 0 1
-1.613333 30.384839 -11.038819 32.368145 -1.517749 1.918819 0.036019 -0.022016 118437.000000 0 0 1
-0.278733 30.811559 -11.300519 32.819683 -1.561750 1.922312 0.039216 -0.017771 212958.000000 0 0 1
-0.214933 32.116109 -11.794219 34.213948 -1.564104 1.922736 0.030395 -0.023550 -35465.800000 0 0 1
-0.385833 33.260702 -10.749019 34.956610 -1.559197 1.883357 0.032816 -0.028415 -653494.000000 0 0 1
0.645867 33.333639 -9.833619 34.759872 1.551423 1.857614 0.035466 -0.037891 -710886.000000 0 0 1
0.361667 34.244262 -8.829319 35.366046 1.560235 1.823121 0.032683 -0.025284 -901025.000000 0 0 1
1.466167 -34.097187 -7.855319 35.021049 -1.527823 1.797024 0.044325 -0.029660 -422918.000000 0 0 1
2.499667 -33.273707 -8.394719 34.407255 -1.495813 1.817265 0.053565 -0.019288 395767.000000 0 0 1
3.414567 -32.895567 -7.335719 33.876103 -1.467367 1.789071 0.057078 -0.018696 75063.100000 0 0 1
4.727067 -32.177797 -7.848519 33.456764 -1.424935 1.807590 0.042453 -0.006818 624405.000000 0 0 1
5.531267 -33.067027 -8.575319 34.605769 -1.405056 1.821205 0.059221 -0.008542 -59780.400000 0 0 1
6.297667 -33.917967 -7.726019 35.352234 -1.387213 1.791118 0.063879 -0.008146 -1502440.000000 0 0 1
6.626267 33.252491 -8.287619 34.904444 1.374102 1.810523 0.057806 -0.014897 -492134.000000 0 0 1
5.625467 32.327669 -8.486619 33.893167 1.398508 1.823883 0.060711 -0.017140 -916951.000000 0 0 1
4.537367 32.667274 -9.323619 34.273435 1.432783 1.846305 0.063672 -0.029366 -266149.000000 0 0 1
3.651767 31.460679 -9.548019 33.079819 1.455239 1.863598 0.057616 -0.033428 -399303.000000 0 0 1
4.099867 30.584189 -10.540819 32.608441 1.437539 1.899963 0.054159 -0.023842 -314854.000000 0 0 1
3.396867 29.394539 -10.522519 31.405430 1.455746 1.912459 0.032752 -0.020764 -35830.300000 0 0 1
3.899367 28.471739 -11.651919 31.009873 1.434687 1.956001 0.028377 -0.016181 3316.940000 0 0 1
3.790167 29.138969 -12.891319 32.087864 1.441450 1.984224 0.033369 -0.010151 -328669.000000 0 0 1
4.897767 29.011299 -13.743419 32.473453 1.403551 2.007793 0.046424 -0.012262 -297353.000000 0 0 1
4.756867 29.523189 -15.187819 33.539772 1.411046 2.040733 0.047011 -0.009771 -55686.000000 0 0 1
3.822467 28.700819 -15.878219 33.022206 1.438392 2.072403 0.033054 -0.006909 219656.000000 0 0 1
3.512467 29.268829 -17.178119 34.118757 1.451360 2.098418 0.065119 -0.005241 79676.200000 0 0 1
2.637667 28.510699 -18.191119 33.922471 1.478544 2.136791 0.054982 -0.008459 -153063.000000 0 0 1
3.123367 27.249289 -18.586619 33.132184 1.456672 2.166370 0.067167 0.006488 -352310.000000 0 0 1
2.314767 26.676949 -19.560719 33.160813 1.484243 2.201700 0.044161 -0.004020 109211.000000 0 0 1
3.133567 25.582939 -20.273919 32.792344 1.448917 2.237313 0.058564 -0.005460 383037.000000 0 0 1
3.101567 24.355679 -19.583019 31.405628 1.444133 2.244073 0.051034 -0.007986 414726.000000 0 0 1
4.139867 23.500949 -20.083519 31.189435 1.396428 2.270408 0.055706 -0.004186 501273.000000 0 0 1
4.697167 22.318949 -19.249219 29.845122 1.363367 2.271781 0.063096 -0.007209 218413.000000 0 0 1
3.828767 21.159049 -19.013119 28.703023 1.391782 2.294825 0.072698 -0.003632 360163.000000 0 0 1
4.487267 20.109949 -18.280119 27.544661 1.351256 2.296489 0.060977 0.004326 -139299.000000 0 0 1
3.565167 18.939249 -17.954419 26.339452 1.384731 2.320819 0.066602 -0.011008 -223503.000000 0 0 1
2.908767 19.244649 -16.754619 25.681408 1.420785 2.281547 0.050987 -0.010068 -236708.000000 0 0 1
1.892567 18.328049 -16.362719 24.642195 1.467900 2.296968 0.035912 -0.002921 363472.000000 0 1 0
2.356567 17.161649 -15.455919 23.215534 1.434334 2.299305 0.029920 0.000316 -8995.380000 0 1 0
3.265767 16.196749 -15.964519 22.975330 1.371833 2.339014 0.035176 -0.008870 -312826.000000 0 1 0
2.776967 15.208649 -16.814319 22.841538 1.390195 2.398130 0.044188 -0.016834 -409951.000000 0 1 0
2.745167 15.524649 -18.305219 24.158471 1.395779 2.430600 0.044883 -0.017894 -259851.000000 0 1 0
4.002867 15.511349 -18.939819 24.806081 1.318246 2.439535 0.058219 -0.016412 -373574.000000 0 1 0
3.993867 16.081249 -20.271119 26.181593 1.327366 2.456327 0.062337 -0.014885 -96615.600000 0 0 1
4.507067 15.133649 -21.421719 26.612610 1.281343 2.506381 0.061183 -0.024674 655428.000000 0 0 1
3.548567 14.166249 -21.879719 26.305837 1.325352 2.553038 0.059917 -0.017848 186983.000000 0 0 1
2.476667 14.716649 -22.611719 27.092498 1.404068 2.558224 0.070927 -0.023159 105747.000000 0 0 1
1.393667 13.730549 -23.107819 26.915452 1.469642 2.603199 0.070898 -0.013896 -365000.000000 0 0 1
0.650267 13.107449 -22.144619 25.741255 1.521227 2.606610 0.059967 0.003787 -81524.100000 0 0 1
-0.140633 12.059649 -22.721019 25.723523 -1.559135 2.653604 0.042428 0.006393 268697.000000 0 0 1
-0.583033 11.020749 -21.613419 24.268018 -1.517942 2.669488 0.031483 0.004817 430798.000000 0 1 0
-1.659633 11.365349 -20.713619 23.685007 -1.425795 2.635294 0.027108 -0.001058 506793.000000 0 1 0
-1.811733 10.415849 -19.690619 22.349335 -1.398579 2.648849 0.013516 0.000581 -521789.000000 0 1 0
-2.834233 9.339649 -19.905719 22.169790 -1.276166 2.685717 0.003879 -0.006426 -541663.000000 0 1 0
-2.469133 8.262749 -20.798419 22.515414 -1.280416 2.748533 0.012842 -0.001978 38059.400000 0 1 0
-3.612433 7.446349 -20.968019 22.542307 -1.119117 2.765653 0.016962 -0.000082 364991.000000 0 1 0
-3.273533 6.115449 -21.669119 22.752263 -1.079318 2.831791 0.020409 -0.009088 -373172.000000 0 1 0
-2.337833 5.349349 -20.961219 21.758991 -1.158779 2.869967 0.020634 -0.007530 -198.725000 0 1 0
-2.159233 4.155949 -21.690519 22.190376 -1.091629 2.928938 0.024038 -0.008043 -642603.000000 0 1 0
-1.294133 3.081549 -21.042319 21.306100 -1.173201 2.984073 0.019125 -0.003945 659153.000000 0 1 0
0.128067 3.258749 -20.994719 21.246507 1.531517 2.987487 0.016852 -0.006015 471788.000000 0 1 0
0.726667 2.355649 -20.110119 20.260652 1.271580 3.019617 0.019809 -0.009174 -506536.000000 0 1 0
2.247767 2.389749 -20.090019 20.356134 0.816005 2.979719 0.023607 -0.015861 -532007.000000 0 1 0
2.850167 2.060149 -21.339819 21.627657 0.625876 2.978262 0.035773 -0.010316 -231729.000000 0 1 0
4.235167 1.987449 -21.078219 21.591153 0.438765 2.923183 0.056044 -0.018147 -16841.200000 0 1 0
5.022467 1.478049 -22.322519 22.928250 0.286208 2.911220 0.061072 -0.007220 -411096.000000 0 1 0
6.383867 1.222149 -22.109719 23.045326 0.189155 2.855669 0.062848 -0.020955 -376968.000000 0 1 0
6.956167 0.713549 -23.254019 24.282644 0.102220 2.849486 0.058652 -0.017101 -1264160.000000 0 1 0
8.455267 0.487349 -23.175119 24.674180 0.057575 2.791223 0.050901 -0.024496 -546348.000000 0 1 0
9.113367 1.768149 -23.178219 24.968172 0.191636 2.760639 0.054228 -0.030642 -49057.800000 0 1 0
10.487367 1.645249 -23.438419 25.730355 0.155611 2.716316 0.047231 -0.020899 -483795.000000 0 0 1
14.140067 -20.826397 22.756451 33.934294 -0.974339 0.835775 0.104134 -0.002008 -879810.000000 0 0 1
13.174767 -21.676397 23.278651 34.428712 -1.024666 0.828285 0.104491 -0.007824 -494634.000000 0 0 1
11.851267 -21.226997 23.167951 33.582612 -1.061595 0.809474 0.087768 -0.017953 578978.000000 0 0 1
11.143667 -21.233297 21.735351 32.364482 -1.087490 0.834457 0.086475 -0.019074 -185007.000000 0 0 1
11.534667 -20.072597 21.061051 31.297373 -1.049227 0.832629 0.085051 -0.016004 -132157.000000 0 0 1
11.139967 -20.052097 19.684551 30.226925 -1.063701 0.861598 0.096641 -0.012669 72660.900000 0 0 1
11.362567 -18.711897 18.969751 28.967127 -1.025072 0.856784 0.092928 -0.015585 477147.000000 0 0 1
10.385467 -17.732597 19.324151 28.208610 -1.040980 0.816132 0.103124 -0.016040 368134.000000 0 0 1
10.812067 -16.510897 18.783651 27.245844 -0.991023 0.810117 0.093139 -0.018620 32707.900000 0 0 1
9.815067 -15.394397 19.194551 26.490635 -1.003206 0.760373 0.078626 -0.019951 924663.000000 0 0 1
8.587367 -15.532397 18.459951 25.607967 -1.065754 0.765743 0.059757 -0.017170 215634.000000 0 0 1
7.643267 -14.562397 18.873951 25.034155 -1.087457 0.716776 0.036235 -0.016673 1095340.000000 0 0 1
6.200767 -14.743397 18.250751 24.267409 -1.172676 0.719602 0.020594 -0.016821 563084.000000 0 1 0
6.026067 -14.568397 16.848851 23.074562 -1.178587 0.752194 0.020497 -0.021671 -91856.200000 0 1 0
4.686667 -14.787997 16.442751 22.605613 -1.263886 0.756308 0.006047 -0.022757 187350.000000 0 1 0
4.101667 -16.252997 16.536651 23.546643 -1.323594 0.792182 0.005441 -0.018688 465856.000000 0 1 0
2.731767 -16.428097 16.141651 23.192624 -1.406018 0.801010 0.013465 -0.012233 520822.000000 0 1 0
2.169867 -17.645897 16.541551 24.283923 -1.448443 0.821433 0.013666 -0.012730 272253.000000 0 1 0
0.659667 -17.688897 16.213351 24.004270 -1.533521 0.829240 0.011998 -0.005951 118555.000000 0 1 0
0.261167 -17.582397 14.869751 23.028642 -1.555944 0.868848 0.018468 -0.005860 -1797490.000000 0 1 0
-1.101533 -17.605397 14.849751 23.058154 1.508310 0.871064 0.018372 -0.002274 -1685560.000000 0 1 0
-1.636333 -17.782197 13.435851 22.347398 1.479034 0.925761 0.010853 -0.015184 -516330.000000 0 1 0
-3.006933 -18.012397 13.345251 22.618218 1.405385 0.939710 0.009745 -0.011760 -638667.000000 0 1 0
-3.233133 -19.288797 12.720451 23.330682 1.404723 0.994140 0.019750 -0.013515 462971.000000 0 1 0
-4.711633 -19.579897 12.282751 23.588934 1.334650 1.023126 0.017589 -0.011767 1028330.000000 0 1 0
-5.531533 -19.938597 13.407351 24.655680 1.300174 0.995858 0.018845 -0.011078 -1620.260000 0 1 0
-5.568133 -21.328597 13.637351 25.920850 1.315432 1.016771 -0.012481 0.005343 -388662.000000 0 0 1
-6.351733 -21.691397 14.900851 27.072062 1.285937 0.987936 -0.001902 -0.000622 -568129.000000 0 0 1
-7.713933 -21.448597 14.762551 27.156583 1.225553 0.996066 0.019616 -0.000258 -926384.000000 0 0 1
-8.421633 -22.217097 15.700551 28.478599 1.208470 0.986862 0.013046 -0.007069 847658.000000 0 0 1
-9.980933 -22.014497 15.703351 28.824509 1.145135 0.994656 0.036722 -0.009635 1015310.000000 0 0 1
-10.311833 -20.740897 16.227251 28.281485 1.109412 0.959687 0.023446 -0.009177 -530729.000000 0 0 1
-11.645933 -20.355297 16.014851 28.397910 1.051119 0.971642 0.032735 -0.009597 -33766.600000 0 0 1
-12.011133 -19.051897 16.817351 28.108102 1.008293 0.929406 0.033543 -0.003728 -273820.000000 0 0 1
-12.163133 -19.374997 18.152351 29.203427 1.010204 0.900035 0.031418 -0.002614 -147204.000000 0 0 1
-12.427033 -18.250897 18.959451 29.103044 0.973005 0.861290 0.030981 -0.005879 -110130.000000 0 0 1
-12.909433 -18.710297 20.352151 30.511288 0.966838 0.840572 0.029912 -0.005284 -29689.700000 0 0 1
-14.096733 -19.470397 20.259951 31.436918 0.944138 0.870475 0.034961 -0.001857 -194659.000000 0 0 1
-14.522433 -19.886397 21.529651 32.709260 0.940043 0.852354 0.021769 0.002269 -57630.500000 0 0 1
-15.859533 -20.642797 21.399451 33.698462 0.915696 0.882752 0.033599 -0.003402 -583155.000000 0 0 1
-15.762233 -21.832197 20.567751 33.883996 0.945476 0.918510 0.029979 -0.009008 765507.000000 0 0 1
-16.997733 -22.126797 19.872451 34.255399 0.915751 0.951913 0.042952 0.000273 936767.000000 0 0 1
-17.985033 -22.917497 20.764051 35.774556 0.905409 0.951559 0.046281 -0.005134 -515340.000000 0 0 1
-18.584633 -22.111597 21.747351 36.156031 0.871848 0.925436 0.046245 -0.000719 -276471.000000 0 0 1
-19.465533 -22.846797 22.565451 37.551068 0.865141 0.926136 0.062568 0.001606 -207720.000000 0 0 1
-20.107133 -21.883397 23.536751 37.909873 0.827674 0.900956 0.061581 0.004409 -247544.000000 0 0 1
-20.844233 -20.826797 22.968051 37.359990 0.784980 0.908694 0.068908 0.007217 24386.400000 0 0 1
-20.962533 -19.769697 23.929271 37.455023 0.756122 0.877755 0.061492 0.002632 28439.800000 0 0 1
-22.000533 -18.747397 23.424461 37.204754 0.705732 0.889746 0.069213 -0.000000 169289.000000 0 0 1
-21.620033 -18.078097 22.237751 35.899317 0.696412 0.902757 0.054894 0.007147 -165110.000000 0 0 1
-22.584533 -17.079197 21.983951 35.847653 0.647479 0.910614 0.058966 0.004042 -227426.000000 0 0 1
-22.405533 -16.391297 20.601751 34.570431 0.631604 0.932366 0.049212 0.009778 -253867.000000 0 0 1
-21.266933 -15.553197 20.525351 33.398719 0.631446 0.908975 0.059257 0.010776 -300987.000000 0 0 1
-21.146733 -15.153797 19.155651 32.307288 0.621782 0.936116 0.042137 0.005000 160011.000000 0 0 1
-20.038733 -14.125297 18.828851 30.912788 0.614007 0.915876 0.026817 -0.003326 120747.000000 0 0 1
-19.790433 -14.073397 17.436651 29.895795 0.618151 0.948075 0.021194 -0.004472 -102119.000000 0 0 1
-18.834433 -13.061097 17.207051 28.660264 0.606329 0.926820 0.043452 -0.023736 -562065.000000 0 0 1
-18.205133 -13.195097 15.810551 27.486560 0.627178 0.957935 0.035107 -0.033089 63027.800000 0 0 1
-17.696833 -12.031797 15.158851 26.224660 0.597097 0.954474 0.039813 -0.030962 -126132.000000 0 0 1
-16.520833 -11.535297 15.736351 25.566262 0.609535 0.907760 0.036164 -0.040660 -694250.000000 0 0 1
-16.002033 -10.294997 15.003251 24.231169 0.571690 0.903109 0.047888 -0.041825 212413.000000 0 1 0
-16.781433 -9.141197 15.340851 24.505503 0.498781 0.894362 0.053318 -0.033904 336180.000000 0 1 0
-16.283433 -7.938197 14.738451 23.353524 0.453599 0.887824 0.040511 -0.024352 -626537.000000 0 1 0
-16.617133 -6.631997 15.434751 23.629304 0.379735 0.858988 0.055096 -0.009454 -25352.700000 0 1 0
-16.034833 -6.462397 16.698051 24.035460 0.383109 0.802758 0.055256 -0.005991 698929.000000 0 1 0
-14.675333 -6.023797 16.567251 22.937422 0.389500 0.763702 0.056586 -0.016051 455083.000000 0 1 0
-13.699633 -6.104097 17.762751 23.247694 0.419161 0.701205 0.050321 -0.011043 222898.000000 0 1 0
-13.487233 -7.343197 18.482351 24.029675 0.498576 0.693291 0.036030 -0.020684 53013.800000 0 1 0
-13.173333 -8.544097 17.750951 23.698830 0.575384 0.724211 0.045012 -0.025092 -675354.000000 0 1 0
-13.337733 -9.838597 18.558351 24.881831 0.635551 0.728972 0.041617 -0.025757 -186280.000000 0 1 0
-14.614533 -10.303397 18.869751 25.996385 0.614081 0.758512 0.041666 -0.025068 -1009460.000000 0 0 1
-15.330733 -9.531497 19.764051 26.767490 0.556241 0.740161 0.034850 -0.014985 -498399.000000 0 0 1
-16.727933 -10.210397 20.111251 28.080925 0.548017 0.772470 0.033908 -0.009878 1208220.000000 0 0 1
-17.669133 -10.197897 19.053851 27.914953 0.523455 0.819526 0.043313 -0.012021 169994.000000 0 0 1
-18.163233 -8.940997 18.604351 27.494842 0.457435 0.827595 0.043857 -0.013145 -674450.000000 0 0 1
-19.239833 -9.088097 17.503351 27.552350 0.441291 0.882430 0.061024 -0.007857 -212829.000000 0 0 1
-20.528333 -9.266797 18.016751 28.842491 0.424030 0.896100 0.052179 -0.003573 -142033.000000 0 0 1
-21.509633 -9.112597 16.969451 28.873275 0.400728 0.942556 0.063552 -0.011926 205687.000000 0 0 1
-22.952233 -9.380897 17.409451 30.296785 0.387996 0.958644 0.064630 -0.002583 -370457.000000 0 0 1
-23.444933 -8.255097 18.138151 30.770181 0.338550 0.940392 0.074810 -0.004464 40511.100000 0 0 1
-24.828133 -8.404097 18.343451 31.992925 0.326385 0.960196 0.072823 -0.000589 -403874.000000 0 0 1
-25.419633 -7.254397 19.144351 32.638784 0.277996 0.944001 0.072043 -0.006947 -469478.000000 0 0 1
-25.297943 -7.391997 20.563351 33.428714 0.284283 0.908232 0.074719 -0.003710 570904.000000 0 0 1
-26.161243 -6.419097 21.165251 34.257602 0.240613 0.904821 0.068115 -0.006775 -393195.000000 0 0 1
-26.194323 -6.625597 22.725951 35.305948 0.247744 0.871491 0.056091 -0.004050 1155.660000 0 0 1
-25.093563 -6.178697 23.490531 34.923749 0.241424 0.833048 0.055297 -0.007329 -608492.000000 0 0 1
-23.978133 -7.001697 23.347351 34.191716 0.284104 0.819158 0.057380 0.000446 -842035.000000 0 0 1
-23.036733 -6.825797 24.572701 34.367138 0.288059 0.774164 0.057785 -0.001063 -98238.500000 0 0 1
-22.488733 -5.555497 24.575941 33.772526 0.242186 0.755848 0.049730 -0.003238 -145738.000000 0 0 1
-21.799133 -5.235697 25.755851 34.146428 0.235714 0.716245 0.064505 -0.014568 284171.000000 0 0 1
-21.080233 -3.858497 25.777141 33.522011 0.181035 0.693581 0.070409 -0.018943 696947.000000 0 0 1
-20.134433 -3.494297 26.819691 33.717967 0.171837 0.651109 0.062189 -0.019728 552519.000000 0 0 1
-20.623333 -3.382197 28.134111 35.046959 0.162552 0.638896 0.053394 -0.022058 -304275.000000 0 0 1
-21.437833 -2.139397 28.509111 35.734117 0.099466 0.647139 0.061293 -0.023626 -580625.000000 0 0 1
-22.697833 -2.136197 27.952361 36.070617 0.093838 0.684185 0.075056 -0.022600 -771024.000000 0 0 1
-23.493033 -1.002997 28.405221 36.875265 0.042667 0.691476 0.064711 -0.020146 800634.000000 0 0 1
-24.866233 -0.859597 27.721021 37.249476 0.034555 0.731462 0.059323 -0.013698 -461528.000000 0 0 1
-24.645633 -0.506497 26.378651 36.103975 0.020548 0.751552 0.061021 -0.013932 421324.000000 0 0 1
-25.833903 -0.246297 25.647161 36.403682 0.009534 0.789048 0.053835 -0.016206 56270.700000 0 0 1
-26.661363 -1.476497 25.177021 36.700010 0.055323 0.814789 0.043742 -0.009587 -340528.000000 0 0 1
-27.349673 -2.133897 26.189521 37.926892 0.077865 0.808580 0.030760 -0.008850 -95816.600000 0 0 1
-27.654683 -3.499297 25.903851 38.053069 0.125867 0.822038 0.016149 0.001994 -26541.200000 0 0 1
-26.522933 -4.452497 26.300401 37.616510 0.166323 0.796558 0.029139 -0.009593 61325.100000 0 0 1
-26.480623 -4.602697 27.711251 38.604684 0.172094 0.770129 0.029308 -0.012760 -33670.000000 0 0 1
-25.427353 -5.477797 28.080011 38.275887 0.212186 0.747161 0.041465 -0.012013 115588.000000 0 0 1
-25.341413 -5.785497 29.618051 39.406701 0.224455 0.720313 0.037777 -0.010684 370464.000000 0 0 1
-26.488893 -6.551597 30.015011 40.564587 0.242468 0.737828 0.041136 -0.013084 447466.000000 0 0 1
-26.291923 -7.197597 31.265521 41.480157 0.267210 0.717052 0.059161 -0.004168 -113739.000000 0 0 1
-27.613143 -7.814197 31.806681 42.839378 0.275778 0.734056 0.025103 -0.016988 296496.000000 0 0 1
-28.142563 -8.756397 30.870381 42.680894 0.301649 0.762251 0.028758 -0.023369 -5973.480000 0 0 1
-29.319303 -9.307297 31.434171 43.981296 0.307385 0.774577 0.042811 -0.016997 202215.000000 0 0 1
-30.253853 -10.029597 30.413901 44.055576 0.320113 0.808819 0.027177 -0.024024 -89239.900000 0 0 1
-30.022843 -11.411197 30.200891 44.087190 0.363220 0.816156 0.040243 -0.029024 14346.900000 0 0 1
-30.935403 -11.992097 29.311691 44.271715 0.369814 0.847197 0.023181 -0.019256 84145.900000 0 0 1
-30.198183 -13.196297 28.645241 43.664887 0.411982 0.855257 0.032245 -0.024025 537548.000000 0 0 1
-29.046173 -12.750997 27.957401 42.283382 0.413661 0.848391 0.041377 -0.019999 140925.000000 0 0 1
-28.101733 -13.783197 27.612361 41.738788 0.455999 0.847910 0.052582 -0.014318 -153710.000000 0 0 1
-26.837213 -13.236297 26.970911 40.284806 0.458198 0.837253 0.066404 -0.014970 -208076.000000 0 0 1
-25.998063 -12.472597 27.896821 40.121036 0.447318 0.801936 0.065538 -0.019545 625764.000000 0 0 1
-26.526593 -11.169097 28.421971 40.450183 0.398523 0.791693 0.061223 -0.019369 -488083.000000 0 0 1
-26.501883 -9.977597 27.470431 39.452843 0.360073 0.800587 0.072182 -0.016734 1035280.000000 0 0 1
-25.201733 -9.488597 27.041501 38.162856 0.360090 0.783310 0.060078 -0.012154 1363450.000000 0 0 1
-24.509833 -10.218897 25.976721 37.147649 0.395016 0.796402 0.058771 -0.011437 213886.000000 0 0 1
-25.155853 -10.224197 24.581131 36.627628 0.386041 0.835093 0.060101 0.000225 -219224.000000 0 0 1
-26.307473 -11.020497 24.416051 37.545679 0.396702 0.862814 0.068658 -0.004843 260214.000000 0 0 1
-26.962293 -10.844297 23.138251 37.147580 0.382403 0.898386 0.070259 0.001801 383190.000000 0 0 1
-28.296663 -11.658997 23.003051 38.285424 0.390832 0.926257 0.084482 -0.011186 1858110.000000 0 0 1
-29.510543 -11.143697 23.640391 39.419820 0.361063 0.927660 0.076768 -0.005268 1211680.000000 0 0 1
-29.445433 -10.905297 25.054991 40.171029 0.354693 0.897319 0.070269 -0.006501 1093520.000000 0 0 1
-30.923033 -10.741397 25.707101 41.622910 0.334320 0.905085 0.039995 -0.006321 1532990.000000 0 0 1
-31.476633 -9.496597 25.322881 41.499543 0.293019 0.914488 0.037286 -0.008731 806640.000000 0 0 1
-32.901913 -9.316497 25.453231 42.628628 0.275936 0.930925 0.029629 0.002297 1377630.000000 0 0 1
-33.523393 -9.450497 26.883021 43.998029 0.274777 0.913467 0.006603 0.006984 -544644.000000 0 0 1
-33.881123 -10.706997 27.423471 44.884486 0.306085 0.913500 0.015220 -0.007264 5495.900000 0 0 1
-34.719091 -10.542897 28.523921 46.153895 0.294814 0.904578 0.005418 -0.007026 -750504.000000 0 0 1
-35.047503 -11.871497 29.311551 47.206217 0.326596 0.900873 0.003782 -0.007621 165009.000000 0 0 1
-36.058003 -12.676197 28.718621 47.808208 0.338055 0.926414 -0.003524 -0.002538 -65846.500000 0 0 1
35.032271 -12.301397 29.140791 47.199259 -0.337694 0.905364 -0.013260 0.004500 592020.000000 0 0 1
33.865851 -12.849297 28.176611 45.890322 -0.362638 0.909679 -0.008436 -0.000244 791757.000000 0 0 1
33.805741 -12.162697 26.887951 44.874505 -0.345363 0.928319 -0.000576 0.002238 -156645.000000 0 0 1
32.870431 -12.751297 26.010891 43.813551 -0.370055 0.935182 0.000192 0.001078 120369.000000 0 0 1
32.939341 -12.150097 24.583071 42.859683 -0.353379 0.959938 0.001432 -0.002188 -206656.000000 0 0 1
32.620331 -10.830397 24.517661 42.219654 -0.320562 0.951187 0.017952 -0.007820 -146121.000000 0 0 1
32.413731 -10.407897 23.140751 41.163923 -0.310696 0.973800 0.022058 -0.008792 -384540.000000 0 0 1
32.031431 -8.925597 23.108151 40.492783 -0.271758 0.963471 0.052196 0.003911 -151149.000000 0 0 1
30.694431 -8.667597 23.472221 39.600763 -0.275217 0.936363 0.059946 -0.006147 -380958.000000 0 0 1
30.389651 -7.319097 23.259851 38.963068 -0.236341 0.931075 0.071219 0.000201 -102951.000000 0 0 1
28.859661 -7.169497 23.216551 37.726515 -0.243497 0.907915 0.058845 0.008829 -147160.000000 0 0 1
28.359211 -7.696897 21.979951 36.696121 -0.265023 0.928580 0.049845 0.008776 -1192100.000000 0 0 1
26.990081 -7.594297 21.903551 35.579535 -0.274282 0.907621 0.050392 -0.004971 -1121510.000000 0 0 1
14.538267 -17.227597 26.691861 34.937182 -0.869858 0.701313 0.075770 -0.010532 262239.000000 0 0 1
13.981467 -18.551297 26.562141 35.287099 -0.924954 0.718576 0.082683 -0.006146 248809.000000 0 0 1
14.928967 -19.554997 26.853251 36.419349 -0.918752 0.741680 0.067909 -0.005160 -596226.000000 0 0 1
14.424267 -20.952097 26.481141 36.719213 -0.967871 0.765293 0.060741 -0.013152 740022.000000 0 0 1
13.540167 -21.661697 27.403031 37.463199 -1.012144 0.750328 0.052964 -0.012209 1026440.000000 0 0 1
12.235967 -21.113797 27.553211 36.806123 -1.045568 0.724842 0.056800 -0.004955 -332296.000000 0 0 1
11.570267 -21.515597 28.856551 37.808630 -1.077398 0.702504 0.042509 -0.005554 -152368.000000 0 0 1
11.964467 -20.738597 29.959701 38.351291 -1.047522 0.674224 0.043538 -0.013133 -340426.000000 0 0 1
10.968067 -19.840697 30.344491 37.877960 -1.065801 0.641645 0.052046 -0.018151 -362255.000000 0 0 1
10.945567 -18.365597 29.783471 36.662729 -1.033336 0.622602 0.054965 -0.013166 221536.000000 0 0 1
12.042667 -17.593197 30.232731 36.994113 -0.970544 0.614207 0.043580 -0.005129 -165221.000000 0 0 1
12.058467 -16.325597 29.533081 35.834824 -0.934616 0.602106 0.050353 -0.007383 237350.000000 0 0 1
12.921467 -15.283297 30.276201 36.293137 -0.868942 0.584093 0.041706 -0.006747 220821.000000 0 0 1
12.583167 -13.989497 29.845151 35.281371 -0.838273 0.562512 0.059432 -0.006789 -222965.000000 0 0 1
13.432367 -13.014097 30.358991 35.657587 -0.769584 0.552141 0.053967 -0.005852 -229795.000000 0 0 1
13.085367 -11.583197 29.893821 34.627125 -0.724579 0.529011 0.047257 -0.007225 -43814.900000 0 0 1
13.195667 -11.128097 28.588161 33.395255 -0.700600 0.543209 0.071885 -0.011144 -210755.000000 0 0 1
14.529667 -10.884497 28.225291 33.559656 -0.642939 0.571578 0.075115 -0.011279 -525480.000000 0 0 1
14.640967 -9.821497 27.127351 32.352942 -0.590875 0.576305 0.077523 -0.009751 127634.000000 0 0 1
14.719367 -8.485897 27.575111 32.389148 -0.522970 0.552207 0.073831 -0.014388 2058880.000000 0 0 1
16.108267 -8.241197 28.015671 33.350733 -0.472895 0.573455 0.075336 -0.021037 1458890.000000 0 0 1
16.462467 -6.750297 28.090641 33.251517 -0.389133 0.564619 0.067751 -0.022669 1061820.000000 0 0 1
17.859867 -6.481197 28.358051 34.134437 -0.348113 0.590297 0.072487 -0.029517 927506.000000 0 0 1
18.251267 -5.211597 27.909691 33.752338 -0.278145 0.597230 0.071036 -0.027754 1866810.000000 0 0 1
19.824267 -4.968197 27.646051 34.380062 -0.245554 0.636585 0.067428 -0.028487 1532480.000000 0 0 1
20.169167 -5.909197 26.608241 33.907409 -0.285006 0.668532 0.066591 -0.021708 1050900.000000 0 0 1
21.530767 -5.900197 26.133481 34.370700 -0.267469 0.706957 0.054617 -0.011137 1643740.000000 0 0 1
22.739467 -6.219497 27.084411 35.907252 -0.266981 0.716227 0.054480 -0.014239 145262.000000 0 0 1
23.157167 -5.043797 27.804151 36.534436 -0.214458 0.705882 0.059808 -0.017090 -169677.000000 0 0 1
24.217167 -5.353397 28.682181 37.918300 -0.217559 0.712973 0.074564 -0.030777 -308754.000000 0 0 1
24.720067 -4.003397 29.185471 38.456476 -0.160555 0.709140 0.074575 -0.028734 -220406.000000 0 0 1
25.542167 -3.335797 28.225771 38.212877 -0.129865 0.739738 0.063797 -0.016488 344678.000000 0 0 1
25.846367 -1.962497 28.592891 38.593257 -0.075784 0.736420 0.053889 -0.017903 -446399.000000 0 0 1
26.816867 -1.298497 27.608801 38.510730 -0.048383 0.771434 0.053590 -0.014977 330581.000000 0 0 1
28.174067 -1.548697 27.981721 39.738560 -0.054914 0.789578 0.064022 -0.011756 -117042.000000 0 0 1
29.003667 -1.139497 26.904751 39.577478 -0.039268 0.823307 0.056243 -0.000544 -548579.000000 0 0 1
30.445067 -1.083097 27.390021 40.966918 -0.035560 0.838487 0.047618 0.003064 -713252.000000 0 0 1
30.669367 -0.144097 28.385821 41.789779 -0.004698 0.824052 0.032144 0.011980 354197.000000 0 0 1
32.022767 -0.205997 28.855531 43.106167 -0.006433 0.837387 0.035689 0.004441 837781.000000 0 0 1
32.440267 0.966003 29.749911 44.026824 0.029769 0.828852 0.037794 -0.006234 513.250000 0 0 1
32.550367 2.211703 29.078451 43.703253 0.067843 0.842819 0.028022 0.004763 78893.600000 0 0 1
32.726367 3.284303 30.032191 44.539131 0.100022 0.830797 0.028549 0.007834 39612.900000 0 0 1
32.948967 4.627003 29.326091 44.351586 0.139517 0.848354 0.023319 0.008890 152798.000000 0 0 1
33.169167 5.769103 30.209081 45.233447 0.172207 0.839482 0.033625 0.010561 458359.000000 0 0 1
31.922367 6.170303 30.756121 44.755436 0.190936 0.813163 0.022236 0.011560 173109.000000 0 0 1
32.049367 7.265503 31.829141 45.749794 0.222929 0.801372 0.036401 -0.000457 -151157.000000 0 0 1
32.573667 6.739503 32.976798 46.839447 0.204022 0.789727 0.030031 0.003867 -84764.900000 0 0 1
32.437267 7.625403 34.119815 47.691559 0.230889 0.773562 0.032395 -0.006830 -3170.620000 0 0 1
32.911567 6.831503 -33.053709 47.142214 0.204665 2.347804 0.044251 -0.011090 -167431.000000 0 0 1
32.084867 5.798003 -32.587369 46.097637 0.178779 2.355931 0.034784 -0.008511 -272000.000000 0 0 1
32.471367 4.554003 -33.062149 46.564303 0.139338 2.360340 0.049125 -0.013242 -158430.000000 0 0 1
31.855767 3.309403 -32.341559 45.516134 0.103516 2.361078 0.043058 -0.017816 -327917.000000 0 0 1
32.357867 2.081003 -32.718509 46.063683 0.064224 2.360704 0.041582 -0.025095 -227100.000000 0 0 1
32.467267 1.262903 -31.596159 45.321469 0.038878 2.342220 0.035597 -0.021821 232787.000000 0 0 1
33.033367 -0.209997 -31.862669 45.896373 -0.006357 2.338147 0.039983 -0.028791 507101.000000 0 0 1
34.326567 -0.372997 -32.456979 47.243071 -0.010866 2.328178 0.054866 -0.023156 414100.000000 0 0 1
34.845967 -1.658697 -32.253159 47.510619 -0.047565 2.317008 0.061585 -0.015571 554827.000000 0 0 1
35.684567 -1.803597 -30.901529 47.239239 -0.050500 2.283854 0.068058 -0.011310 46010.500000 0 0 1
34.899867 -1.710797 -29.689869 45.852108 -0.048981 2.275114 0.057746 -0.011560 40362.500000 0 0 1
35.586567 -1.862397 -28.499779 45.630140 -0.052287 2.245393 0.072667 -0.007957 -637026.000000 0 0 1
34.701367 -1.544597 -27.312579 44.187641 -0.044482 2.237125 0.068858 -0.010492 -275211.000000 0 0 1
34.415067 -0.152097 -27.205249 43.869642 -0.004419 2.239715 0.045317 -0.005417 -296695.000000 0 0 1
33.355467 0.028403 -26.333699 42.497666 0.000852 2.239094 0.055292 -0.007293 -220904.000000 0 0 1
32.694567 1.491903 -26.326759 42.003080 0.045600 2.248212 0.035282 -0.005928 197153.000000 0 0 1
31.831067 1.710603 -27.413249 42.043182 0.053688 2.281050 0.044853 -0.021562 217840.000000 0 0 1
31.256767 3.029903 -27.326829 41.628372 0.096634 2.286896 0.031649 -0.005143 161581.000000 0 0 1
30.243467 3.305803 -28.455829 41.657290 0.108874 2.322787 0.044490 -0.010064 309384.000000 0 0 1
29.224267 4.247503 -28.080419 40.750570 0.144331 2.331016 0.038894 -0.007683 512978.000000 0 0 1
28.562267 4.722603 -29.222169 41.134428 0.163862 2.360872 0.043008 -0.014280 -1005670.000000 0 0 1
27.303367 5.491403 -28.946749 40.168938 0.198478 2.375500 0.040228 -0.017698 -658240.000000 0 0 1
26.232067 4.683603 -28.474119 38.997858 0.176683 2.389332 0.052387 -0.018730 1486360.000000 0 0 1
25.098567 5.439403 -27.961949 37.965718 0.213421 2.398686 0.054887 -0.024207 1039540.000000 0 0 1
23.754367 4.734803 -27.687379 36.786944 0.196745 2.422861 0.073724 -0.017972 -160622.000000 0 0 1
22.993267 4.568903 -28.829989 37.158222 0.196151 2.458891 0.073461 -0.013982 -1397730.000000 0 0 1
21.682567 4.282803 -28.570419 36.121253 0.195013 2.483171 0.063178 -0.008544 -1525120.000000 0 0 1
20.865667 3.948503 -29.839349 36.624493 0.187023 2.523073 0.061916 -0.005542 -185701.000000 0 0 1
21.116367 2.636703 -30.305379 37.030651 0.124222 2.529394 0.079224 -0.019799 305395.000000 0 0 1
20.385767 2.192803 -31.468539 37.558711 0.107153 2.564128 0.050536 -0.017877 108200.000000 0 0 1
20.596067 2.971503 -32.828979 38.868620 0.143287 2.576640 0.054081 -0.018131 -525958.000000 0 0 1
21.915167 2.923803 -33.275219 39.950761 0.132631 2.555134 0.084022 -0.026037 -689953.000000 0 0 1
22.108367 3.445403 33.924139 40.638625 0.154598 0.583071 0.077375 -0.030833 -942721.000000 0 0 1
23.495767 3.117903 33.448499 40.994810 0.131930 0.616477 0.083977 -0.025420 -1006650.000000 0 0 1
23.765367 1.743703 33.310139 40.956056 0.073240 0.620971 0.096106 -0.037976 634051.000000 0 0 1
25.052967 1.610203 32.668493 41.200416 0.064184 0.655216 0.081150 -0.031816 570497.000000 0 0 1
25.492567 0.120403 32.560128 41.352719 0.004723 0.664256 0.067943 -0.032564 -407066.000000 0 0 1
25.006467 -0.534897 31.402671 40.146447 -0.021387 0.672602 0.064018 -0.031184 1608460.000000 0 0 1
23.566267 -0.707897 31.279561 39.169898 -0.030030 0.645895 0.083542 -0.043492 1363510.000000 0 0 1
22.848267 -1.690697 32.275231 39.580200 -0.073862 0.617309 0.084921 -0.048463 -356424.000000 0 0 1
22.961767 -3.055897 31.870741 39.399560 -0.132309 0.628499 0.082487 -0.050276 240976.000000 0 0 1
22.387267 -3.969997 32.786792 39.898926 -0.175508 0.606328 0.085718 -0.045652 -148019.000000 0 0 1
22.448167 -5.379897 32.192941 39.613746 -0.235222 0.622075 0.081789 -0.041260 -256226.000000 0 0 1
23.737267 -5.916897 32.146371 40.396245 -0.244288 0.650508 0.071042 -0.029545 -371458.000000 0 0 1
23.617067 -7.328897 32.141681 40.553251 -0.300899 0.655768 0.095143 -0.033705 -194716.000000 0 0 1
25.029867 -7.920697 32.069861 41.445236 -0.306479 0.685996 0.065639 -0.024767 -219152.000000 0 0 1
25.526367 -7.697597 30.779571 40.721375 -0.292883 0.713833 0.085875 -0.025548 -234173.000000 0 0 1
26.635967 -8.497697 30.411621 41.310437 -0.308824 0.743398 0.066974 -0.020359 150577.000000 0 0 1
26.991167 -8.060397 28.953611 40.395602 -0.290200 0.771664 0.061130 -0.015012 274252.000000 0 0 1
26.030667 -8.488897 27.975171 39.144184 -0.315237 0.774644 0.051603 -0.012822 111398.000000 0 0 1
26.498867 -8.442997 26.662941 38.527737 -0.308448 0.806478 0.061515 -0.007766 -18889.900000 0 0 1
25.582067 -9.278997 25.727231 37.449063 -0.347957 0.813454 0.035144 -0.008431 298323.000000 0 0 1
24.273667 -8.736297 25.605421 36.347921 -0.345475 0.789143 0.048113 -0.013597 65726.500000 0 0 1
23.601767 -9.413297 24.541921 35.326469 -0.379505 0.802769 0.057978 -0.015513 -97888.800000 0 0 1
22.203667 -8.881497 24.206581 34.027082 -0.380508 0.779320 0.033179 -0.011045 -391974.000000 0 0 1
21.295667 -9.060197 25.280091 34.273540 -0.402250 0.741290 0.035029 -0.000697 184817.000000 0 0 1
20.003567 -8.922697 24.673231 32.992810 -0.419569 0.725999 0.049421 0.002928 313424.000000 0 0 1
18.820067 -9.117497 25.634961 33.082848 -0.451135 0.684284 0.052245 -0.000778 -169382.000000 0 0 1
18.432067 -10.476597 26.069831 33.602622 -0.516852 0.682771 0.070643 -0.006397 980136.000000 0 0 1
19.338367 -11.069697 27.016001 35.019636 -0.519894 0.689675 0.062399 -0.006972 490149.000000 0 0 1
18.397667 -11.946597 27.875471 35.471639 -0.575921 0.666723 0.062112 -0.011082 385228.000000 0 0 1
17.943267 -13.020797 27.079581 34.997223 -0.627744 0.686035 0.073076 -0.007391 -110784.000000 0 0 1
17.081467 -13.897797 27.745091 35.421961 -0.682990 0.670882 0.064708 -0.007490 -422276.000000 0 0 1
17.709667 -14.887097 28.778121 36.924764 -0.699023 0.677134 0.071944 -0.001562 -301081.000000 0 0 1
16.815867 -15.799197 29.418621 37.387742 -0.754236 0.665105 0.060246 -0.001041 112316.000000 0 0 1
17.422167 -16.888297 30.112421 38.671751 -0.769839 0.678258 0.059862 -0.004300 -719506.000000 0 0 1
17.809067 -18.147897 29.300811 38.794929 -0.794821 0.714724 0.065338 -0.002506 -69561.800000 0 0 1
18.758367 -17.779397 28.329321 38.347538 -0.758611 0.739580 0.068644 -0.008113 196121.000000 0 0 1
19.185567 -18.887197 27.527791 38.504434 -0.777561 0.774279 0.058363 -0.002359 -274053.000000 0 0 1
20.127167 -18.724897 26.329461 38.065274 -0.749321 0.806966 0.044329 -0.003980 27548.400000 0 0 1
21.453367 -18.487297 26.770551 38.970366 -0.711272 0.813518 0.051454 -0.003598 -247959.000000 0 0 1
22.317967 -18.300997 25.707451 38.650888 -0.686825 0.843143 0.041039 -0.004852 -942444.000000 0 0 1
23.756867 -17.964397 26.010771 39.543248 -0.647443 0.852928 0.040894 0.000711 -617015.000000 0 0 1
24.499367 -19.102897 26.446241 40.798815 -0.662259 0.865564 0.037487 -0.003764 887071.000000 0 0 1
25.876167 -18.766097 26.682421 41.637651 -0.627457 0.875225 0.021687 -0.002581 826023.000000 0 0 1
26.823067 -19.947497 26.909221 42.912535 -0.639437 0.893009 0.015659 -0.002946 -164460.000000 0 0 1
26.532267 -20.577297 28.154961 43.818810 -0.659658 0.872999 0.020327 -0.002016 -46894.400000 0 0 1
27.344467 -21.673497 28.534961 45.074431 -0.670219 0.885292 0.021436 0.000384 3234.570000 0 0 1
26.576467 -22.737897 29.361331 45.666271 -0.707716 0.872447 0.029897 -0.000115 120088.000000 0 0 1
26.316467 -22.323697 30.717311 46.200184 -0.703494 0.843471 0.025261 -0.004573 -139971.000000 0 0 1
26.129967 -23.522897 31.468061 47.184115 -0.732940 0.840728 0.039829 -0.002122 -257483.000000 0 0 1
25.616667 -23.415597 32.896967 47.819601 -0.740538 0.812151 0.029500 -0.002808 71012.700000 0 0 1
25.239867 -24.691397 33.401552 48.604317 -0.774414 0.813150 0.038265 -0.014145 -11036.000000 0 0 1
24.871567 -24.620597 -33.698409 48.583448 -0.780327 2.337297 0.048335 -0.010782 -328196.000000 0 0 1
24.479867 -25.941097 -33.003929 48.594894 -0.814371 2.317420 0.050574 -0.016845 646603.000000 0 0 1
23.280667 -26.667487 -33.274379 48.583213 -0.853101 2.325255 0.071124 -0.017676 195703.000000 0 0 1
23.165467 -27.026337 33.790987 49.080470 -0.862169 0.811403 0.065805 -0.015031 -539125.000000 0 0 1
21.821867 -27.729677 33.577169 48.708881 -0.904064 0.810213 0.088009 -0.016664 -121953.000000 0 0 1
21.775167 -29.045257 33.946034 49.700282 -0.927489 0.818914 0.086243 -0.027442 1226250.000000 0 0 1
20.405367 -29.423737 -34.182342 49.503210 -0.964446 2.332987 0.086138 -0.030876 1125940.000000 0 0 1
20.257567 -30.940357 -34.116404 50.315045 -0.991103 2.315910 0.074004 -0.034191 224438.000000 0 0 1
20.959867 -31.557837 -32.964279 50.218092 -0.984522 2.286863 0.055295 -0.039725 84540.500000 0 0 1
22.163567 -32.133417 -33.366649 51.352833 -0.966992 2.278056 0.049902 -0.033933 -504828.000000 0 0 1
22.811867 -32.994207 -32.237839 51.461415 -0.965872 2.247783 0.035228 -0.030071 -765557.000000 0 0 1
24.008067 -33.621187 -32.537399 52.587582 -0.950686 2.237919 0.033632 -0.018628 439233.000000 0 0 1
24.841767 -34.160574 -31.448289 52.659786 -0.942044 2.210799 0.031746 -0.005778 833692.000000 0 0 1
25.562367 -33.217667 -30.506279 51.840920 -0.914906 2.199948 0.033197 -0.014247 -538791.000000 0 0 1
26.243067 -33.817797 -29.435879 51.950100 -0.910853 2.173192 0.042753 0.009607 -189535.000000 0 0 1
26.772067 -32.846137 -28.584159 51.114249 -0.886931 2.164242 0.042660 0.008445 -70878.000000 0 0 1
27.032767 -33.329037 -27.101039 50.754916 -0.889331 2.134072 0.041572 0.006407 561209.000000 0 0 1
28.170767 -34.190245 -27.136069 51.951238 -0.881626 2.120386 0.045525 0.016736 749224.000000 0 0 1
29.009067 -34.118399 -25.957479 51.762745 -0.866159 2.096094 0.050676 0.005593 752323.000000 0 0 1
-25.846333 -31.017843 9.314581 41.435504 0.876094 1.344062 0.044601 -0.007172 -407310.000000 0 0 1
-26.069373 -32.250843 9.955581 42.647892 0.890996 1.335186 0.034462 -0.007124 239041.000000 0 0 1
-24.931733 -32.642643 10.707581 42.447447 0.918535 1.315786 0.017751 0.002553 221686.000000 0 0 1
-25.325163 -33.773843 11.662381 43.795519 0.927394 1.301253 0.002557 0.011397 21911.900000 0 0 1
-25.597773 33.645703 10.926181 43.665327 -0.920417 1.317883 0.000215 0.015033 -29019.400000 0 0 1
-26.265633 32.691503 11.698981 43.537157 -0.893962 1.298740 -0.012031 0.017288 -72513.900000 0 0 1
-26.296243 31.329003 11.096781 42.380861 -0.872513 1.305874 -0.010416 0.009789 76427.800000 0 0 1
-26.672653 31.370703 9.769781 42.320209 -0.866162 1.337841 0.010184 0.003236 -8022.510000 0 0 1
-26.786653 30.065503 9.192981 41.303392 -0.843008 1.346344 0.018676 -0.001200 -433468.000000 0 0 1
-26.033373 29.964903 7.828281 40.458793 -0.855491 1.376080 0.016851 0.003525 396981.000000 0 0 1
-24.634733 29.726003 7.922981 39.411660 -0.878783 1.368386 0.014510 0.003222 312732.000000 0 0 1
-24.156033 29.513503 6.622781 38.709457 -0.884892 1.398861 0.024401 0.009594 466715.000000 0 0 1
-22.782333 28.763003 6.500881 37.264011 -0.900909 1.395444 0.017150 0.010879 521315.000000 0 0 1
-22.760333 27.388403 6.819081 36.258203 -0.877424 1.381600 0.035039 0.005301 261120.000000 0 0 1
-23.302733 26.504103 5.845181 35.772210 -0.849586 1.406660 0.016933 0.004445 -679509.000000 0 0 1
-23.410033 25.065003 6.235581 34.859239 -0.819526 1.390950 0.032609 0.001673 -828473.000000 0 0 1
-24.369733 24.725103 7.182381 35.451392 -0.792636 1.366786 0.046994 -0.005568 79276.700000 0 0 1
-24.657433 23.306103 7.264281 34.697741 -0.757231 1.359877 0.055510 -0.024621 -153906.000000 0 0 1
-25.137093 22.486003 6.057981 34.266499 -0.729787 1.393072 0.050554 -0.031906 -1044700.000000 0 0 1
-26.428123 22.869703 5.658481 35.404624 -0.713341 1.410285 0.051693 -0.033960 -167451.000000 0 0 1
-26.879073 22.244803 4.491381 35.177953 -0.691338 1.442771 0.042901 -0.033446 -76253.200000 0 0 1
-26.564513 22.975903 3.155081 35.263579 -0.713086 1.481205 0.035023 -0.032000 -250457.000000 0 0 1
-25.181423 23.173803 2.981181 34.351371 -0.743904 1.483902 0.036957 -0.028428 -3487.080000 0 0 1
-24.931033 24.021903 1.871181 34.671452 -0.766829 1.516801 0.023907 -0.012842 -155039.000000 0 0 1
-23.628833 24.817203 2.030181 34.326913 -0.809923 1.511619 0.026460 0.003813 -226020.000000 0 0 1
-23.322933 25.495503 0.843781 34.564315 -0.829872 1.546382 0.019648 -0.001475 -139156.000000 0 0 1
-22.016033 26.036503 0.820881 34.106877 -0.868872 1.546726 0.031310 0.004029 -330937.000000 0 0 1
-21.662333 26.620803 -0.576419 34.325735 -0.887735 1.587590 0.045062 0.008762 16021.900000 0 0 1
-21.320733 25.805603 -1.698119 33.516957 -0.880279 1.621482 0.051875 -0.001008 282088.000000 0 0 1
-20.108333 25.090603 -1.534919 32.190673 -0.895185 1.618497 0.054648 -0.003601 -112732.000000 0 0 1
-19.803933 23.983703 -2.563719 31.208756 -0.880565 1.653036 0.065063 -0.020757 -249436.000000 0 0 1
-20.794533 22.994003 -2.634919 31.113977 -0.835585 1.655584 0.063172 -0.021633 -193136.000000 0 0 1
-20.513333 21.960303 -3.587619 30.264216 -0.819452 1.689619 0.066818 -0.017709 -917674.000000 0 0 1
-21.675333 21.542603 -4.423419 30.878317 -0.782327 1.714544 0.066232 -0.020888 -943184.000000 0 0 1
-22.113033 22.534303 -5.305819 32.014571 -0.794833 1.737296 0.061631 -0.019278 -325856.000000 0 0 1
-23.362633 22.214603 -5.854519 32.765479 -0.760215 1.750440 0.061559 -0.014996 -74487.200000 0 0 1
-23.537433 22.812203 -7.255219 33.571499 -0.769752 1.788627 0.055941 -0.011321 -36277.400000 0 0 1
-22.913333 22.107503 -8.312619 32.906871 -0.767501 1.826174 0.043302 -0.010702 10022.500000 0 0 1
-22.448233 22.957203 -9.306019 33.429902 -0.796607 1.852897 0.048676 -0.019429 -260243.000000 0 0 1
-21.564133 22.280303 -10.359019 32.691482 -0.801731 1.893226 0.038458 -0.021497 151103.000000 0 0 1
-22.389433 21.586903 -11.335319 33.102425 -0.767151 1.920300 0.013113 -0.011821 818486.000000 0 0 1
-21.671233 21.095703 -12.485219 32.719287 -0.771942 1.962308 0.004131 -0.000986 14790.700000 0 0 1
-22.603833 21.003803 -13.692619 33.757678 -0.748723 1.988448 -0.016240 -0.002852 34064.200000 0 0 1
-23.412933 19.829803 -13.663719 33.586958 -0.702726 1.989762 -0.013876 0.005791 -139377.000000 0 0 1
-24.427233 19.962103 -14.615619 34.767680 -0.685145 2.004660 -0.007448 -0.007616 -648902.000000 0 0 1
-25.263643 18.736603 -14.839719 34.778287 -0.638131 2.011631 0.021101 -0.012013 -575033.000000 0 0 1
-24.628333 17.704303 -15.489619 34.057678 -0.623271 2.042950 0.010410 -0.010841 -677066.000000 0 0 1
-25.442863 16.606303 -15.596719 34.152104 -0.578264 2.045061 0.034296 -0.018745 -547162.000000 0 0 1
-25.104143 15.899203 -16.945219 34.207355 -0.564567 2.089054 0.042285 -0.014284 934072.000000 0 0 1
-23.791833 15.302103 -16.871019 32.936863 -0.571556 2.108567 0.045384 -0.016436 777367.000000 0 0 1
-23.441833 14.621503 -18.010519 32.980095 -0.557689 2.148501 0.048734 -0.019602 -219538.000000 0 0 1
-22.776733 13.277303 -17.614619 31.707115 -0.527775 2.159810 0.053390 -0.015492 139658.000000 0 0 1
-21.557233 13.427703 -16.903819 30.508304 -0.557078 2.158045 0.051530 -0.023416 409381.000000 0 0 1
-20.839733 12.196203 -16.789119 29.409460 -0.529494 2.178367 0.062140 -0.020663 -405486.000000 0 0 1
-19.556933 12.347303 -15.995819 28.121091 -0.563154 2.175866 0.050280 -0.020360 -652554.000000 0 0 1
-18.536833 13.090203 -16.609019 28.121648 -0.614857 2.202615 0.044081 -0.015853 357179.000000 0 0 1
-17.430433 13.320803 -15.734919 26.997249 -0.652544 2.193008 0.049948 -0.009339 450512.000000 0 0 1
-16.537333 14.514803 -16.181619 27.313141 -0.720357 2.204891 0.029587 -0.002096 -602219.000000 0 0 1
-15.685433 14.290703 -17.234619 27.336589 -0.738904 2.252942 0.044340 -0.007305 -306852.000000 0 0 1
-14.941533 15.455103 -17.539619 27.744330 -0.802292 2.255170 0.045716 0.000703 -156576.000000 0 0 1
-14.095933 15.255203 -18.804419 28.018257 -0.824874 2.306554 0.044744 -0.000902 -589797.000000 0 0 1
-13.191133 14.253103 -18.665619 26.936263 -0.824074 2.336376 0.039140 -0.001363 -1285390.000000 0 0 1
-12.107133 14.328103 -19.523819 27.075020 -0.869217 2.376186 0.032991 -0.003125 -376952.000000 0 0 1
-11.170333 13.133403 -19.435519 25.980801 -0.865996 2.415949 0.025100 -0.009455 -134661.000000 0 0 1
-11.668433 12.003603 -20.208419 26.241551 -0.799556 2.449782 0.028445 -0.004366 -173407.000000 0 0 1
-10.968633 10.843903 -19.970019 25.232971 -0.779680 2.483934 0.013372 0.005687 -472862.000000 0 0 1
-11.384333 9.572203 -20.820319 25.587415 -0.699142 2.521275 0.016611 -0.000192 -65560.300000 0 0 1
-11.030833 9.751603 -22.166419 26.610584 -0.723922 2.555291 0.015659 0.001913 -114622.000000 0 0 1
-11.459433 8.658803 -22.916919 27.045862 -0.647079 2.581744 0.013129 0.011973 -195840.000000 0 0 1
-11.201033 8.872803 -24.404319 28.280038 -0.669931 2.611880 0.014025 -0.001648 482686.000000 0 0 1
-9.828033 8.943903 -24.796219 28.132474 -0.738334 2.649633 0.013543 0.000237 222723.000000 0 0 1
-9.617033 8.355703 -26.055539 29.003383 -0.715333 2.686823 -0.001487 -0.009936 -255877.000000 0 0 1
-9.627933 9.248303 -27.354719 30.438608 -0.765289 2.687558 0.034037 -0.014370 78468.500000 0 0 1
-8.437333 9.975103 -27.603129 30.538893 -0.868723 2.699523 0.025046 -0.020526 125973.000000 0 0 1
-8.182133 11.075103 -26.735719 30.073308 -0.934511 2.665993 0.008913 -0.013111 1180410.000000 0 0 1
-6.672233 11.578103 -26.865669 30.005588 -1.048000 2.680025 0.014161 -0.013695 1361740.000000 0 0 1
-6.351233 12.171003 -28.082729 31.258777 -1.089835 2.686898 0.011354 -0.022010 -559908.000000 0 0 1
-5.030133 12.607103 -28.099479 31.206121 -1.191159 2.691594 0.031794 -0.025553 -345632.000000 0 0 1
-4.386533 12.913803 -29.509599 32.508836 -1.243347 2.708664 0.034833 -0.022662 -144068.000000 0 0 1
-3.013833 13.204203 -29.444119 32.409725 -1.346393 2.710468 0.053049 -0.037214 -111328.000000 0 0 1
-2.424433 13.183503 -30.773799 33.566491 -1.388929 2.730792 0.055350 -0.031496 -468923.000000 0 0 1
-0.913133 13.077603 -30.734459 33.413537 -1.501085 2.738419 0.071066 -0.041485 -1126010.000000 0 0 1
-0.604433 11.846303 -30.067039 32.322238 -1.519818 2.765829 0.060234 -0.018786 564100.000000 0 0 1
0.779267 11.482803 -30.181749 32.301702 1.503036 2.777284 0.081197 -0.028625 865104.000000 0 0 1
1.160967 10.783603 -31.509369 33.323779 1.463549 2.810083 0.081899 -0.023953 -332977.000000 0 0 1
1.244167 11.646903 -32.631699 34.670248 1.464376 2.796966 0.089789 -0.037476 338111.000000 0 0 1
1.789567 10.911003 -33.733429 35.499250 1.408229 2.824858 0.084339 -0.028862 83791.300000 0 0 1
2.063667 11.744603 33.480333 35.540499 1.396860 0.342157 0.082214 -0.028307 165823.000000 0 0 1
3.284867 12.478303 33.637472 36.027460 1.313390 0.366291 0.089515 -0.029520 306428.000000 0 0 1
3.518667 13.224703 32.418084 35.188150 1.310753 0.399441 0.081460 -0.026208 -273223.000000 0 0 1
5.005967 13.503503 32.153201 35.231131 1.215787 0.421109 0.069574 -0.024553 -383507.000000 0 0 1
5.583967 12.221103 31.904901 34.618763 1.142209 0.398595 0.075312 -0.027355 -865192.000000 0 0 1
6.953067 12.258203 31.664401 34.658952 1.054831 0.418746 0.073061 -0.014108 -642654.000000 0 0 1
7.562667 10.909303 31.305871 34.003887 0.964628 0.401040 0.065950 -0.015270 14810.900000 0 0 1
7.113667 10.373403 30.031731 32.559432 0.969691 0.396634 0.062040 -0.022484 678252.000000 0 0 1
8.018967 9.303703 29.653381 32.096506 0.859428 0.392693 0.058972 -0.009197 533136.000000 0 0 1
7.628167 8.569303 28.365651 30.597909 0.843437 0.384342 0.052427 -0.008171 -187721.000000 0 0 1
6.500767 7.807303 28.698451 30.443637 0.876460 0.340239 0.054660 -0.011140 -359354.000000 0 0 1
6.177467 6.826103 27.744431 29.232006 0.835238 0.320394 0.063545 -0.005720 -6554.960000 0 0 1
5.348767 5.707003 28.420271 29.476956 0.817789 0.268567 0.068021 -0.013491 270779.000000 0 0 1
6.172867 4.728303 29.044551 30.067375 0.653651 0.261581 0.052291 -0.016942 192366.000000 0 0 1
5.478367 4.050503 30.061531 30.823931 0.636659 0.222875 0.050612 -0.025135 -413475.000000 0 0 1
6.155767 2.809303 30.557621 31.297824 0.428138 0.217918 0.070481 -0.021616 -333313.000000 0 0 1
6.053467 1.641003 29.723921 30.378427 0.264723 0.207956 0.057444 -0.009781 83900.900000 0 0 1
7.232867 1.406203 28.962551 29.885132 0.192023 0.249123 0.052579 -0.004487 27678.300000 0 0 1
7.251167 0.061803 28.226181 29.142761 0.008523 0.251466 0.036903 -0.003605 33835.900000 0 0 1
7.252967 -1.051297 29.120161 30.028228 -0.143945 0.246553 0.020999 -0.006220 -119779.000000 0 0 1
7.378467 -2.221097 28.360181 29.388346 -0.292396 0.265298 0.023676 -0.003582 -591966.000000 0 0 1
7.932867 -3.337997 29.191111 30.433428 -0.398291 0.286711 0.022009 -0.003165 890730.000000 0 0 1
9.317467 -3.091897 29.536291 31.125030 -0.320405 0.320886 0.022285 -0.009907 544330.000000 0 0 1
10.132367 -4.031397 28.915541 30.903487 -0.378672 0.360636 0.036510 -0.007393 -91602.900000 0 0 1
11.648567 -3.887397 29.270251 31.741905 -0.322101 0.397239 0.033418 -0.012953 1281190.000000 0 0 1
12.559367 -4.902197 28.756921 31.760505 -0.372136 0.438404 0.052780 -0.017961 704943.000000 0 0 1
12.611167 -6.027597 29.586731 32.722287 -0.445858 0.441348 0.058604 -0.019855 -635366.000000 0 0 1
11.863167 -7.257097 29.090261 32.243502 -0.549002 0.445941 0.066501 -0.015557 313416.000000 0 0 1
10.448167 -7.106197 29.005411 31.638206 -0.597271 0.410843 0.051529 -0.013738 349308.000000 0 0 1
9.861367 -8.420597 28.927511 31.701007 -0.706752 0.421416 0.050705 -0.012631 -690560.000000 0 0 1
8.355967 -8.463097 28.873171 31.226690 -0.791768 0.390730 0.047807 -0.009382 -1006790.000000 0 0 1
7.740767 -8.212197 30.088961 32.135731 -0.814941 0.358829 0.054276 -0.022514 -851728.000000 0 0 1
6.374267 -8.026097 29.921701 31.628431 -0.899607 0.330013 0.040072 -0.016755 -624730.000000 0 0 1
5.623867 -7.210197 30.996331 32.316982 -0.908378 0.286869 0.036125 -0.017544 -20701.800000 0 0 1
5.464367 -7.948497 32.201671 33.615257 -0.968528 0.291033 0.042745 -0.010257 166858.000000 0 0 1
4.822667 -7.142497 33.228785 34.328203 -0.976904 0.253768 0.044907 -0.013732 62965.500000 0 0 1
5.572267 -5.946397 33.874960 34.841393 -0.817867 0.236082 0.036231 -0.014410 -229821.000000 0 0 1
5.884367 -4.904697 32.988026 33.865789 -0.694844 0.228174 0.041951 -0.013804 -187966.000000 0 0 1
6.423767 -3.794897 33.644743 34.462077 -0.533597 0.218226 0.040818 -0.012899 -31758.200000 0 0 1
6.524067 -2.577797 32.675361 33.419869 -0.376293 0.211474 0.037881 -0.014658 101395.000000 0 0 1
5.235667 -2.091697 32.373022 32.860309 -0.380083 0.172429 0.040930 -0.019142 -154285.000000 0 0 1
5.343167 -0.812497 31.761781 32.218322 -0.150907 0.168546 0.047376 -0.015499 -239337.000000 0 0 1
4.010967 -0.221697 31.267901 31.524889 -0.055217 0.127773 0.041503 -0.021084 -349488.000000 0 0 1
3.123767 0.006503 32.322191 32.472788 0.002082 0.096346 0.037910 -0.022951 -882189.000000 0 0 1
1.944767 0.575903 31.835511 31.900055 0.287902 0.063624 0.043944 -0.024004 -798297.000000 0 0 1
0.939067 0.880303 32.904097 32.929263 0.753110 0.039099 0.046710 -0.025827 -654632.000000 0 0 1
1.452067 1.790203 33.883276 33.961591 0.889313 0.067925 0.038684 -0.017816 -266151.000000 0 0 1
0.594067 2.121003 -33.521789 33.594075 1.297706 3.075980 0.025812 -0.018032 -619046.000000 0 0 1
1.162467 3.280203 -32.618889 32.804008 1.230217 3.035305 0.026137 -0.013219 -238963.000000 0 0 1
2.107567 2.868703 -31.687439 31.886754 0.937175 3.029725 0.016173 -0.001437 -507992.000000 0 0 1
2.909467 3.966403 -31.289679 31.673985 0.937921 2.985658 0.026664 -0.005640 147182.000000 0 0 1
3.983467 3.484103 -30.234529 30.694197 0.718627 2.968311 0.042077 0.000929 106638.000000 0 0 1
3.547267 2.933303 -29.043109 29.405604 0.690941 2.984412 0.032719 -0.002480 -283084.000000 0 0 1
4.591467 2.870503 -28.104209 28.621109 0.558730 2.951252 0.055315 -0.008178 -125996.000000 0 0 1
4.219567 2.169803 -26.743459 27.161100 0.474962 2.966002 0.042610 -0.010715 -80947.200000 0 0 1
4.160367 0.743703 -26.672419 27.005179 0.176891 2.984446 0.047408 -0.009779 253795.000000 0 0 1
3.837767 0.357403 -25.317439 25.609157 0.092860 2.990511 0.063338 -0.018597 -197065.000000 0 0 1
4.148267 -1.170897 -25.140899 25.507723 -0.275105 2.971796 0.049671 -0.017660 219296.000000 0 0 1
5.474567 -1.436997 -24.722619 25.362250 -0.256695 2.916530 0.037269 -0.017064 27838.800000 0 0 1
5.735067 -2.807497 -24.956019 25.759967 -0.455238 2.891101 0.029778 -0.014067 99617.400000 0 0 1
7.068567 -3.283397 -24.311219 25.529996 -0.434852 2.831355 0.036344 -0.024596 324867.000000 0 0 1
8.163967 -2.780797 -25.016919 26.461848 -0.328293 2.809603 0.029410 -0.010568 -533031.000000 0 0 1
9.422067 -3.090897 -24.453519 26.387565 -0.316987 2.756347 0.021719 -0.017704 401037.000000 0 0 1
-29.432303 -3.913297 18.007051 34.725038 0.132184 1.025629 0.086633 -0.022701 -287612.000000 0 0 1
-30.820713 -3.986897 17.833851 35.830963 0.128643 1.049826 0.087628 -0.013624 -496640.000000 0 0 1
-31.334783 -5.061297 18.597551 36.787964 0.160140 1.040796 0.078610 -0.014970 -848453.000000 0 0 1
-32.781773 -4.925297 18.967251 38.192405 0.149130 1.051092 0.070552 -0.012455 -1094810.000000 0 0 1
-33.716033 -5.048497 17.947351 38.527466 0.148632 1.086221 0.061801 -0.010384 -872041.000000 0 0 1
-35.027532 -4.901697 18.367451 39.853706 0.139036 1.091819 0.057142 -0.003004 -215453.000000 0 0 1
-36.049553 -4.839697 17.158551 40.217022 0.133453 1.130012 0.048160 -0.006833 2065630.000000 0 0 1
34.963481 -5.131797 17.601351 39.478955 -0.145735 1.108682 0.046248 0.002889 1416570.000000 0 0 1
33.986371 -4.949597 16.611451 38.151176 -0.144618 1.120301 0.029678 -0.000641 1095700.000000 0 0 1
32.484741 -5.322797 16.895251 37.000541 -0.162412 1.096602 0.027294 0.003548 863240.000000 0 0 1
31.783361 -4.509297 17.783051 36.698129 -0.140935 1.064917 0.042857 0.000126 -375332.000000 0 0 1
30.649811 -5.187497 18.205151 36.024277 -0.167662 1.041000 0.058420 -0.007333 -148878.000000 0 0 1
29.832701 -4.731697 19.479751 35.942171 -0.157297 0.998011 0.072279 0.001920 912380.000000 0 0 1
29.026251 -3.527297 19.405051 35.093034 -0.120928 0.984884 0.067706 0.001888 745150.000000 0 0 1
29.798521 -2.338597 19.340551 35.601654 -0.078320 0.996495 0.062693 -0.005521 -192.977000 0 0 1
28.887911 -1.108297 19.577951 34.914694 -0.038347 0.975521 0.066137 -0.002185 27867.100000 0 0 1
29.289341 0.163603 19.106551 34.970738 0.005586 0.992786 0.055124 -0.011172 99173.100000 0 0 1
28.306991 1.173003 19.380751 34.326013 0.041415 0.970838 0.068838 -0.014193 493554.000000 0 0 1
28.700251 2.612303 18.834551 34.427733 0.090770 0.991930 0.063731 -0.014107 162516.000000 0 0 1
28.532541 2.640103 17.413851 33.530855 0.092267 1.024720 0.057724 -0.014957 -65195.400000 0 0 1
28.745111 3.890403 16.828651 33.535356 0.134524 1.045097 0.049313 -0.019375 121924.000000 0 0 1
28.193311 3.906703 15.376451 32.350585 0.137692 1.075484 0.050254 -0.021499 -3901.280000 0 0 1
28.030961 5.159303 14.802651 32.116532 0.182020 1.091782 0.049564 -0.027108 146382.000000 0 0 1
27.386881 5.036603 13.551651 30.968627 0.181873 1.117876 0.052763 -0.027890 -127942.000000 0 0 1
26.774581 6.363203 13.022551 30.445941 0.233330 1.128820 0.052086 -0.017298 -629745.000000 0 0 1
25.783481 6.868903 13.829951 30.053906 0.260360 1.092608 0.033639 -0.014245 -577419.000000 0 0 1
25.239581 8.095003 13.295451 29.653575 0.310362 1.105868 0.050024 -0.024111 476803.000000 0 0 1
23.983181 8.494403 14.164551 29.120136 0.340395 1.062811 0.039565 -0.020807 339342.000000 0 0 1
22.759481 7.839303 14.015651 27.854750 0.331714 1.043534 0.050512 -0.010505 -73702.900000 0 0 1
22.717381 6.488603 14.461251 27.700345 0.278215 1.021532 0.051607 -0.021409 -1098250.000000 0 0 1
21.442281 5.684803 14.219451 26.349216 0.259159 1.000771 0.069098 -0.015100 -541092.000000 0 0 1
21.191781 5.589203 12.819751 25.390486 0.257872 1.041526 0.072015 -0.009001 320307.000000 0 0 1
20.110581 4.713203 12.642651 24.217480 0.230209 1.021548 0.067595 -0.010202 -400521.000000 0 1 0
19.708781 4.505603 11.165351 23.095488 0.224747 1.066213 0.067192 -0.009849 -390528.000000 0 1 0
20.694781 3.880103 10.387351 23.478207 0.185340 1.112495 0.072224 -0.019279 422363.000000 0 1 0
20.263181 3.697303 9.018551 22.485569 0.180479 1.158099 0.073582 -0.014934 585940.000000 0 1 0
21.347481 2.923203 8.158951 23.039716 0.136088 1.208818 0.073631 -0.012667 -99001.300000 0 1 0
21.519081 1.583403 8.685051 23.259581 0.073449 1.188128 0.069013 -0.017458 464843.000000 0 1 0
22.218881 0.680303 7.819551 23.564525 0.030609 1.232547 0.056778 -0.012644 -1228700.000000 0 1 0
23.718181 0.822103 7.658251 24.937457 0.034647 1.258654 0.066125 -0.011569 -905956.000000 0 1 0
24.569581 0.461803 8.743751 26.083150 0.018794 1.228951 0.082091 -0.013997 541004.000000 0 0 1
24.535481 1.279403 9.891951 26.485418 0.052098 1.188031 0.089309 -0.019049 -661692.000000 0 0 1
25.412881 0.738903 11.045751 27.719471 0.029068 1.160934 0.080247 -0.021544 203489.000000 0 0 1
26.811781 0.923603 10.905551 28.959552 0.034434 1.184696 0.088307 -0.030299 15844.800000 0 0 1
27.470911 0.163203 11.883851 29.931647 0.005941 1.162515 0.074415 -0.028656 -599551.000000 0 0 1
28.976731 0.400003 11.861651 31.313091 0.013803 1.182288 0.066967 -0.024583 -412832.000000 0 0 1
29.448751 1.684703 12.276351 31.949584 0.057146 1.176410 0.061102 -0.021206 279945.000000 0 0 1
30.843681 1.615603 12.523651 33.328436 0.052333 1.185574 0.050355 -0.021386 358325.000000 0 0 1
31.497571 2.950103 13.000651 34.202587 0.093389 1.180884 0.050150 -0.023736 -341279.000000 0 0 1
31.364991 3.932903 12.010051 33.815258 0.124740 1.207704 0.054535 -0.025186 -84283.400000 0 0 1
32.043161 5.086603 12.390651 34.729899 0.157429 1.205986 0.055163 -0.026551 -634627.000000 0 0 1
33.482241 5.177803 11.918151 35.915351 0.153428 1.232543 0.054381 -0.022732 -943113.000000 0 0 1
34.303501 4.220703 12.560451 36.773760 0.122425 1.222220 0.043833 -0.022448 -20534.900000 0 0 1
35.632461 4.295503 12.081251 37.869252 0.119971 1.246095 0.047743 -0.018497 -16592.700000 0 0 1
-35.794627 3.216903 12.646151 38.098936 -0.089630 1.232448 0.076340 -0.010274 -700381.000000 0 0 1
-35.914995 1.845503 12.203651 37.976596 -0.051340 1.243645 0.077657 -0.009445 1080200.000000 0 0 1
35.279821 1.073803 12.589151 37.474065 0.030427 1.228190 0.056557 -0.005283 701232.000000 0 0 1
35.045151 0.826503 14.106351 37.786702 0.023580 1.188216 0.049284 -0.005260 83204.700000 0 0 1
36.069431 0.091303 14.780151 38.980316 0.002531 1.181898 0.055341 -0.005748 496525.000000 0 0 1
35.658481 -0.125797 16.094951 39.122762 -0.003528 1.146811 0.052008 -0.011662 385398.000000 0 0 1
-35.609474 -0.887697 16.913651 39.432147 0.024924 1.127488 0.056866 -0.009506 327914.000000 0 0 1
-34.503262 -0.082497 17.207451 38.556170 0.002391 1.108175 0.069578 -0.010731 530662.000000 0 0 1
-33.380703 -0.655997 17.924551 37.894475 0.019649 1.078090 0.064150 -0.006655 969214.000000 0 0 1
-33.476613 -0.722297 19.483651 38.740392 0.021573 1.043813 0.059171 -0.010383 -285803.000000 0 0 1
-34.423611 -1.650197 19.991651 39.841866 0.047901 1.045147 0.056551 -0.011773 223155.000000 0 0 1
-34.420890 -1.481797 21.396151 40.555994 0.043023 1.015058 0.053213 -0.011430 127990.000000 0 0 1
-35.010850 -2.640797 22.203751 41.542026 0.075285 1.006893 0.050163 -0.003879 246463.000000 0 0 1
-34.192257 -3.825297 22.026851 40.852485 0.111413 1.001333 0.062487 -0.009383 542614.000000 0 0 1
-34.547527 -4.963097 22.794451 41.686340 0.142684 0.992249 0.056923 -0.002667 -168669.000000 0 0 1
-34.408235 -4.782597 24.314211 42.402603 0.138111 0.960130 0.052117 -0.006973 183490.000000 0 0 1
-33.086383 -4.573097 24.776791 41.587394 0.137347 0.932564 0.056172 -0.013355 -182647.000000 0 0 1
-33.047793 -4.732297 26.159631 42.413177 0.142229 0.906150 0.043983 -0.013961 202676.000000 0 0 1
-31.891673 -3.924097 26.779451 41.828415 0.122429 0.876010 0.034811 -0.009075 -27201.100000 0 0 1
-32.118183 -2.523497 26.708481 41.848401 0.078408 0.878613 0.039965 -0.006562 -107923.000000 0 0 1
-31.727593 -1.858797 25.509991 40.753588 0.058519 0.894438 0.049449 -0.009568 -159934.000000 0 0 1
-31.880293 -0.327197 25.531611 40.845114 0.010263 0.895558 0.048300 -0.008879 -539712.000000 0 0 1
-33.190723 0.137703 25.509381 41.861337 -0.004149 0.915520 0.055766 -0.010811 -490015.000000 0 0 1
-33.089043 1.453703 24.992811 41.492633 -0.043905 0.924363 0.050446 -0.002237 -96383.500000 0 0 1
-34.439182 2.122903 24.668331 42.415687 -0.061564 0.950120 0.046515 -0.005518 -114719.000000 0 0 1
-35.069314 1.322303 23.690051 42.341750 -0.037688 0.977018 0.038852 0.003929 30585.300000 0 0 1
36.149421 1.834203 23.036651 42.904920 0.050696 1.004010 0.039957 0.003000 101793.000000 0 0 1
-36.006368 3.066803 22.091651 42.354514 -0.084969 1.022084 0.035586 -0.003013 -156342.000000 0 0 1
-35.189084 2.883203 20.970951 41.065378 -0.081752 1.034830 0.034562 -0.014810 -347229.000000 0 0 1
-35.958629 3.109303 19.847451 41.189951 -0.086254 1.068030 0.041748 -0.007016 -447395.000000 0 0 1
-35.378095 2.643203 18.531651 40.025220 -0.074574 1.089420 0.055979 -0.011522 497454.000000 0 0 1
-34.230220 3.358803 18.011951 38.825506 -0.097811 1.088381 0.066469 -0.013921 962754.000000 0 0 1
-33.689153 2.747303 16.821651 37.755459 -0.081369 1.109017 0.084548 -0.008588 -221273.000000 0 0 1
-32.546173 3.586003 16.292751 36.572757 -0.109739 1.109076 0.091642 -0.017239 -510697.000000 0 0 1
-33.071043 4.685603 15.580751 36.856595 -0.140746 1.134330 0.092942 -0.019928 793146.000000 0 0 1
-32.096773 5.482003 14.838451 35.783164 -0.169164 1.143209 0.107709 -0.019840 428518.000000 0 0 1
-32.800343 6.700003 14.250151 36.384328 -0.201494 1.168365 0.108470 -0.024260 -50270.300000 0 0 1
-32.051473 7.415003 13.300651 35.485018 -0.227347 1.186589 0.120528 -0.021833 -218542.000000 0 0 1
-32.661773 8.615503 12.904451 36.159966 -0.257905 1.205880 0.091733 -0.021413 -182273.000000 0 0 1
-31.833643 9.258403 11.795151 35.188414 -0.283029 1.228979 0.097739 -0.016332 -17949.600000 0 0 1
-32.066043 10.643203 11.580551 35.715796 -0.320474 1.240586 0.080240 -0.006140 -355487.000000 0 0 1
-31.198443 11.138903 10.640351 34.794182 -0.342927 1.260009 0.076064 -0.013031 -281461.000000 0 0 1
-31.457903 12.695303 10.563751 35.529751 -0.383576 1.268911 0.069094 -0.011088 254322.000000 0 0 1
-30.596993 13.352603 9.653351 34.751334 -0.411489 1.289310 0.059379 -0.010236 20866.400000 0 0 1
-30.778213 14.728103 9.603851 35.446430 -0.446319 1.296427 0.058378 -0.009654 -383981.000000 0 0 1
-29.963153 15.430803 8.534351 34.766872 -0.475570 1.322788 0.057928 -0.014059 -1684010.000000 0 0 1
-28.625923 15.457303 8.817551 33.706393 -0.495114 1.306118 0.059703 -0.008715 -1288420.000000 0 0 1
-28.075643 16.530103 8.064151 33.563620 -0.532121 1.328158 0.056612 -0.027491 548937.000000 0 0 1
-26.533643 16.794403 8.253651 32.468584 -0.564294 1.313772 0.069891 -0.020499 644171.000000 0 0 1
-26.124453 17.374903 9.434451 32.762527 -0.586905 1.278696 0.060450 -0.016160 82540.200000 0 0 1
-26.595163 18.697403 9.660751 33.914977 -0.612762 1.281944 0.064476 -0.031227 -246608.000000 0 0 1
-26.552513 18.971303 11.200451 34.502122 -0.620380 1.240175 0.077843 -0.018236 332184.000000 0 0 1
-25.222043 19.121403 11.689151 33.740417 -0.648679 1.217019 0.067205 -0.007011 605262.000000 0 0 1
-25.188293 19.442103 13.056651 34.393628 -0.657352 1.181406 0.088383 -0.019717 -219014.000000 0 0 1
-25.695703 18.373603 14.073151 34.581961 -0.620753 1.151683 0.071952 -0.013899 -102405.000000 0 0 1
-24.733733 17.396003 14.389151 33.487701 -0.612958 1.126653 0.077666 -0.019555 63630.000000 0 0 1
-25.199603 16.592103 15.466851 33.904887 -0.582277 1.097095 0.079248 -0.017690 161317.000000 0 0 1
-24.207233 15.506803 15.991051 32.896273 -0.569728 1.063169 0.080490 -0.007012 238849.000000 0 0 1
-23.142933 16.015003 16.762651 32.757627 -0.605339 1.033614 0.073394 -0.002596 586109.000000 0 0 1
-22.052533 15.087603 17.010551 31.675050 -0.600020 1.003880 0.058747 -0.012374 755450.000000 0 0 1
-22.253833 13.994503 18.087851 31.910023 -0.561369 0.968132 0.071319 -0.005432 -434912.000000 0 0 1
-22.218333 14.496103 19.430851 32.883876 -0.578088 0.938631 0.079953 -0.006946 140348.000000 0 0 1
-22.569433 13.446803 20.296451 33.198520 -0.537323 0.913011 0.071378 -0.011629 -303476.000000 0 0 1
-22.314833 13.678603 21.810751 34.069999 -0.549911 0.876071 0.081520 -0.018621 400859.000000 0 0 1
-20.934033 13.664303 22.155151 33.403557 -0.578293 0.845634 0.091055 -0.021662 452767.000000 0 0 1
-20.387133 14.965503 22.337251 33.742469 -0.633225 0.847323 0.083809 -0.009636 220235.000000 0 0 1
-18.874333 15.076003 22.710851 33.155830 -0.673982 0.816230 0.065016 -0.012665 1012610.000000 0 0 1
-17.891433 14.707003 21.746951 31.769941 -0.688021 0.816860 0.038186 -0.010900 87725.600000 0 0 1
-17.708233 15.584503 20.647451 31.349250 -0.721695 0.851804 0.037637 -0.008689 -1605600.000000 0 0 1
-16.617433 15.076803 19.669251 29.838373 -0.736827 0.851051 0.031804 -0.002463 382266.000000 0 0 1
-15.375933 14.952603 20.338451 29.557609 -0.771441 0.811936 0.017301 0.004638 34853.600000 0 0 1
-14.667933 16.118103 20.706451 30.061580 -0.832468 0.810962 0.002402 0.008698 -1063850.000000 0 0 1
-13.520033 15.840603 21.712251 30.085509 -0.864271 0.764563 -0.028242 0.006885 -174699.000000 0 0 1
-12.500133 15.115703 21.062251 28.781178 -0.879829 0.749828 -0.010977 0.010940 -451447.000000 0 0 1
-11.752533 14.398603 22.015951 28.812218 -0.886239 0.701123 0.009654 0.003093 950016.000000 0 0 1
-10.295233 13.979303 21.534051 27.660949 -0.936016 0.678524 0.008889 0.009302 40579.300000 0 0 1
-9.818633 12.996103 22.406951 27.701547 -0.923781 0.628569 0.011021 0.000813 607035.000000 0 0 1
-8.534333 12.430903 22.107151 26.759826 -0.969160 0.598588 0.019172 0.010600 1208400.000000 0 0 1
-7.309333 13.367503 22.380251 27.073827 -1.070414 0.597690 0.023441 0.014828 -544591.000000 0 0 1
-7.180133 14.312603 21.300051 26.647647 -1.105818 0.644630 0.022368 0.021666 -421088.000000 0 0 1
-6.507533 15.495003 21.615451 27.380117 -1.173189 0.660871 0.021927 0.019838 -187421.000000 0 0 1
-7.384833 16.554903 22.365051 28.788818 -1.151206 0.681123 0.016222 0.003994 1333220.000000 0 0 1
-8.467733 17.156703 21.605451 28.859149 -1.112320 0.724770 -0.012097 0.006370 564537.000000 0 0 1
-7.954433 18.197803 20.776051 28.741561 -1.158714 0.762868 0.015520 0.011296 -1184600.000000 0 0 1
-8.830233 18.551003 19.548051 28.359108 -1.126534 0.810268 0.023869 0.014975 299547.000000 0 0 1
-10.012533 19.278803 19.751151 29.360365 -1.091785 0.832925 0.000720 0.010472 525972.000000 0 0 1
-10.994933 18.539003 20.547551 29.778936 -1.035488 0.809303 0.002236 0.010268 -506506.000000 0 0 1
-12.382733 19.209203 20.712851 30.843926 -0.998209 0.834515 -0.012986 0.006755 6603.880000 0 0 1
-13.067733 19.242703 19.492051 30.347773 -0.974235 0.873315 -0.013535 0.010573 -841868.000000 0 0 1
-14.219033 20.005403 19.636551 31.432327 -0.952886 0.896017 -0.027429 0.000624 -828577.000000 0 0 1
-15.094133 19.921803 18.408451 31.041620 -0.922405 0.935986 0.003544 0.008287 -779915.000000 0 0 1
-15.529633 18.678303 18.056551 30.266938 -0.877185 0.931567 0.021091 0.006786 13406.800000 0 0 1
-16.329433 18.820903 16.891751 30.103289 -0.856160 0.975050 0.028745 0.000873 -1089590.000000 0 0 1
-16.930733 17.485403 16.451751 29.377698 -0.801513 0.976401 0.035054 -0.000328 391012.000000 0 0 1
-17.891133 16.873503 17.317751 30.078435 -0.756135 0.957271 0.035963 -0.006037 1318090.000000 0 0 1
-19.064433 17.661503 17.675351 31.429275 -0.747217 0.973529 0.041354 -0.005860 264617.000000 0 0 1
34.545281 -9.494997 11.504181 37.628149 -0.268233 1.260088 0.040707 -0.017475 -531417.000000 0 0 1
33.274891 -9.992897 11.229581 36.512735 -0.291744 1.258177 0.046538 -0.013169 -515264.000000 0 0 1
32.821321 -10.957497 12.123481 36.664487 -0.322218 1.233793 0.034887 -0.011039 -493403.000000 0 0 1
31.379191 -11.377097 11.835981 35.414438 -0.347827 1.230026 0.048553 -0.002807 -1243990.000000 0 0 1
30.446181 -10.442197 12.245881 34.437930 -0.330400 1.207248 0.046131 -0.003990 968684.000000 0 0 1
29.056141 -10.863697 12.173681 33.323831 -0.357794 1.196826 0.044504 0.002074 1490850.000000 0 0 1
28.630851 -11.817697 13.309781 33.712518 -0.391459 1.164944 0.031964 0.008509 -828216.000000 0 0 1
28.624431 -11.137597 14.550881 33.987237 -0.371070 1.128376 0.046182 -0.002937 -35178.100000 0 0 1
28.177661 -11.864397 15.654881 34.348505 -0.398526 1.097564 0.051976 -0.005539 487714.000000 0 0 1
26.745881 -11.480597 16.170981 33.296349 -0.405463 1.063669 0.050619 -0.011467 681725.000000 0 0 1
26.436781 -10.155697 16.509481 32.781161 -0.366769 1.043004 0.032072 -0.001527 -700029.000000 0 0 1
25.688281 -9.536697 15.549781 31.506064 -0.355476 1.054631 0.060511 -0.014387 -297747.000000 0 0 1
25.176881 -8.114297 15.909181 30.867769 -0.311780 1.029325 0.104890 -0.027366 488664.000000 0 0 1
26.214581 -7.127497 15.778181 31.415863 -0.265473 1.044614 0.077193 -0.021493 517479.000000 0 0 1
25.836781 -5.879397 16.357881 31.139795 -0.223749 1.017723 0.080528 -0.021368 631717.000000 0 0 1
27.056181 -4.896697 16.238981 31.933040 -0.179045 1.037317 0.080317 -0.018575 591282.000000 0 0 1
27.429551 -4.743997 14.877981 31.563271 -0.171258 1.079953 0.092976 -0.026805 6837.870000 0 0 1
28.490291 -3.830397 14.744781 32.307541 -0.133644 1.096865 0.081972 -0.020315 -160200.000000 0 0 1
28.763131 -3.282097 13.280981 31.850813 -0.113616 1.140682 0.081340 -0.029507 -185567.000000 0 0 1
29.390431 -4.194997 12.392581 32.170973 -0.141776 1.175361 0.060904 -0.028515 351564.000000 0 0 1
29.599761 -3.612597 11.093181 31.815961 -0.121448 1.214648 0.068336 -0.031347 -104649.000000 0 0 1
30.112041 -4.496697 9.929481 32.024208 -0.148237 1.255538 0.083336 -0.027404 435041.000000 0 0 1
31.436201 -4.976697 10.166481 33.411968 -0.157008 1.261617 0.066188 -0.023119 469628.000000 0 0 1
31.891251 -5.609697 8.945681 33.593836 -0.174120 1.301255 0.069821 -0.019800 -1115390.000000 0 0 1
33.228111 -6.265397 9.098281 35.016300 -0.186369 1.307950 0.059284 -0.017966 -1505160.000000 0 0 1
34.258411 -5.351197 8.885581 35.794239 -0.154949 1.319933 0.064758 -0.018420 -372909.000000 0 0 1
35.444341 -6.080897 8.568881 36.968964 -0.169908 1.336883 0.070652 -0.026565 543791.000000 0 0 1
-35.726052 -5.153697 8.228781 37.021943 0.143268 1.346657 0.070725 -0.019462 356230.000000 0 0 1
-35.904466 -4.390197 7.061881 36.854779 0.121670 1.377990 0.077993 -0.016470 -297650.000000 0 0 1
-34.784228 -3.569097 7.002381 35.661104 0.102249 1.373153 0.084306 -0.011953 -422080.000000 0 0 1
-34.628675 -2.651397 5.768181 35.205780 0.076417 1.406212 0.107404 -0.012997 -471983.000000 0 0 1
-34.452037 -3.406697 4.573481 34.920842 0.098562 1.439452 0.096874 -0.013588 114816.000000 0 0 1
-34.448135 -2.665997 3.382281 34.716299 0.077238 1.473215 0.102240 -0.017389 15004.000000 0 0 1
-33.598533 -3.406097 2.300581 33.849012 0.101031 1.502778 0.123677 -0.015114 -43698.300000 0 0 1
-34.144027 -4.582497 1.747181 34.494442 0.133414 1.520124 0.117595 -0.006195 -144200.000000 0 0 1
-35.173487 -4.362097 0.817581 35.452370 0.123387 1.547733 0.106169 -0.017792 -342536.000000 0 0 1
-34.667685 -4.542797 -0.642519 34.969962 0.130296 1.589171 0.123558 -0.019160 -616423.000000 0 0 1
-34.570196 -5.908297 -1.013019 35.086075 0.169272 1.599673 0.111675 -0.020221 194662.000000 0 0 1
-33.931673 -6.145997 -2.258819 34.557691 0.179186 1.636207 0.101202 -0.019040 513694.000000 0 0 1
-32.380203 -5.915797 -2.254619 32.993295 0.180705 1.639185 0.103518 -0.020732 150695.000000 0 0 1
-31.728983 -6.983097 -1.534119 32.524538 0.216632 1.617982 0.095605 -0.017323 570483.000000 0 0 1
-30.379863 -6.554697 -1.318619 31.106895 0.212501 1.613199 0.102059 -0.023057 91296.700000 0 0 1
-29.749003 -7.388797 -0.200119 30.653508 0.243445 1.577325 0.084625 -0.014463 -305120.000000 0 0 1
-29.574633 -8.720797 -0.677019 30.841037 0.286748 1.592750 0.105107 -0.005355 646820.000000 0 0 1
-28.825823 -9.498797 0.279281 30.351824 0.318318 1.561595 0.087528 -0.001668 217322.000000 0 0 1
-28.431683 -10.902797 -0.242519 30.451444 0.366179 1.578761 0.073384 -0.001885 -87959.900000 0 0 1
-27.461493 -10.850597 -1.274019 29.554901 0.376293 1.613917 0.087577 -0.006648 351595.000000 0 0 1
-26.747203 -12.024397 -1.586619 29.368629 0.422486 1.624847 0.059940 0.004652 -231851.000000 0 0 1
-27.460453 -13.047597 -2.465719 30.502394 0.443564 1.651722 0.052227 -0.000959 -338886.000000 0 0 1
-28.596963 -13.691597 -1.922019 31.763821 0.446526 1.631343 0.056657 -0.000424 405413.000000 0 0 1
-28.976443 -14.825097 -2.688219 32.659521 0.472905 1.653200 0.044813 -0.008841 85276.100000 0 0 1
-29.701383 -15.836797 -1.755719 33.705472 0.489854 1.622910 0.056368 -0.009736 -81962.000000 0 0 1
-28.783353 -16.450697 -0.880519 33.164472 0.519226 1.597350 0.040038 0.006222 127854.000000 0 0 1
-29.340063 -17.132597 0.229981 33.976729 0.528521 1.564027 0.018389 0.011463 315572.000000 0 0 1
-30.016183 -18.561597 0.031281 35.291715 0.553829 1.569910 0.035309 0.000018 477020.000000 0 0 1
-29.031573 -19.562097 0.095881 35.007386 0.592940 1.568057 0.039243 -0.001275 393453.000000 0 0 1
-29.607493 -20.879797 -0.005219 36.229403 0.614221 1.570940 0.046691 -0.007915 634605.000000 0 0 1
-30.518363 -21.369097 1.185281 37.274840 0.610863 1.538993 0.050358 -0.006622 -289156.000000 0 0 1
-29.818833 -21.542197 2.344481 36.860896 0.625625 1.507150 0.061824 -0.010795 -945400.000000 0 0 1
-30.564503 -22.089497 3.363081 37.860864 0.625810 1.481852 0.068560 -0.010327 -814280.000000 0 0 1
-29.855453 -22.388797 4.658181 37.607246 0.643441 1.446613 0.064710 -0.009072 -443270.000000 0 0 1
-29.216913 -21.234697 5.214681 36.492921 0.628484 1.427410 0.053242 -0.007947 13339.200000 0 0 1
-28.820563 -21.390197 6.549181 36.483656 0.638481 1.390308 0.041659 -0.006752 22124.100000 0 0 1
-28.301103 -20.010097 6.960681 35.352617 0.615437 1.372608 0.041683 -0.004518 59955.700000 0 0 1
-27.493773 -20.035997 8.111481 34.973488 0.629760 1.336733 0.039723 -0.007737 -85007.500000 0 0 1
-26.755943 -18.827297 8.305081 33.753844 0.613183 1.322195 0.052323 -0.012852 190891.000000 0 0 1
-25.760133 -19.121497 9.437181 33.440642 0.638549 1.284703 0.062824 -0.011110 -320231.000000 0 0 1
-26.403673 -19.359897 10.642181 34.426960 0.632680 1.256525 0.054882 -0.014431 -155747.000000 0 0 1
-25.495683 -19.577397 11.699681 34.207994 0.654841 1.221735 0.054339 0.000658 30894.800000 0 0 1
-25.173963 -18.274397 12.467081 33.512835 0.627914 1.189624 0.050627 -0.004487 -193176.000000 0 0 1
-24.257733 -17.379397 11.806281 32.091577 0.621680 1.194054 0.044052 -0.007822 416417.000000 0 0 1
-23.803433 -16.267297 12.641281 31.480635 0.599499 1.157580 0.041645 0.000381 551483.000000 0 0 1
-22.798633 -16.623297 13.762681 31.393042 0.630014 1.116980 0.035732 0.001098 -155042.000000 0 0 1
-23.503833 -17.371597 14.762181 32.743313 0.636486 1.103084 0.043028 -0.005978 77001.500000 0 0 1
-22.747233 -17.575697 15.957381 32.878257 0.657842 1.064036 0.049772 -0.005582 -151388.000000 0 0 1
-23.524533 -18.304997 17.052081 34.340211 0.661259 1.051162 0.046143 0.016554 -39038.100000 0 0 1
-24.472833 -17.545697 17.767981 34.963870 0.622009 1.037725 0.045915 0.008255 -239489.000000 0 0 1
-25.114763 -18.403497 18.676481 36.307726 0.632386 1.030495 0.045101 0.015168 -190318.000000 0 0 1
-26.098473 -17.634997 19.582181 37.088883 0.594237 1.014576 0.066076 0.012061 -312916.000000 0 0 1
-25.446123 -16.778897 20.509881 36.738152 0.582947 0.978495 0.068505 0.004644 -521924.000000 0 0 1
-26.311813 -15.847697 21.100581 37.265206 0.542112 0.968875 0.071667 0.001766 -790735.000000 0 0 1
-25.682003 -15.010897 22.248581 37.146893 0.528938 0.928626 0.066498 0.002551 -387257.000000 0 0 1
-24.648133 -14.200697 21.765781 35.818145 0.522688 0.917667 0.060442 0.006637 -309504.000000 0 0 1
-24.117233 -13.353097 22.781481 35.762299 0.505660 0.880164 0.054825 0.002275 422181.000000 0 0 1
-22.849733 -12.522097 22.390181 34.354526 0.501321 0.860921 0.055967 0.005911 131904.000000 0 0 1
-23.091433 -11.550897 21.398281 33.533922 0.463827 0.878757 0.050774 0.010262 364355.000000 0 0 1
-21.987733 -10.843197 20.822781 32.165565 0.458151 0.866677 0.045707 0.008785 -69066.100000 0 0 1
-21.629533 -9.502697 21.542981 31.972457 0.413953 0.831459 0.046986 0.006656 147384.000000 0 0 1
-21.145833 -9.559997 22.914181 32.612873 0.424598 0.791735 0.051708 0.006340 534796.000000 0 0 1
-19.729133 -9.657197 22.953981 31.770826 0.455204 0.763405 0.042166 0.006427 91337.000000 0 0 1
-19.326133 -9.811697 24.449381 32.673247 0.469781 0.725301 0.043863 0.004793 38482.100000 0 0 1
-19.704233 -11.070897 24.990181 33.694669 0.511898 0.735246 0.045199 0.000078 48339.200000 0 0 1
-19.124033 -11.251997 26.251881 34.372916 0.531824 0.701713 0.051869 0.000332 -594318.000000 0 0 1
-19.285433 -12.624297 26.995881 35.497583 0.579604 0.706715 0.046286 -0.019944 779125.000000 0 0 1
-20.564633 -12.738497 27.617381 36.713665 0.554589 0.719346 0.048259 -0.012396 730599.000000 0 0 1
-21.704233 -13.052997 26.799381 36.873586 0.541451 0.757158 0.044138 -0.005556 1350230.000000 0 0 1
-22.961733 -13.497697 27.664681 38.402651 0.531426 0.766440 0.046946 -0.009689 707773.000000 0 0 1
-22.756033 -14.712597 28.344581 39.213682 0.573936 0.762916 0.046135 -0.012895 478159.000000 0 0 1
-21.849433 -14.615197 29.494881 39.508856 0.589551 0.727952 0.034074 -0.010549 577043.000000 0 0 1
-22.172433 -15.489097 30.746281 40.949514 0.609769 0.721473 0.025801 -0.010223 -558219.000000 0 0 1
-21.940533 -16.909797 30.645981 41.309858 0.656625 0.734962 0.032158 -0.012391 -95748.700000 0 0 1
-22.157833 -17.704897 31.793481 42.605849 0.674153 0.728426 0.030319 -0.010451 522911.000000 0 0 1
-23.647633 -17.953797 32.223781 43.816908 0.649377 0.744512 0.030291 -0.013706 512621.000000 0 0 1
-24.320733 -16.902497 32.823881 44.210854 0.607351 0.734092 0.032220 -0.020225 33527.800000 0 0 1
-25.566653 -17.304997 33.372881 45.462797 0.595025 0.746500 0.031365 -0.022142 -7032.110000 0 0 1
-26.414183 -16.296597 34.131981 46.133288 0.552800 0.737940 0.034288 -0.025634 -238351.000000 0 0 1
-25.834183 -15.935797 -33.042588 44.868333 0.552717 2.398581 0.037747 -0.021121 82077.700000 0 0 1
-26.653533 -15.067197 -32.290588 44.498465 0.514513 2.382784 0.039327 -0.018204 -362320.000000 0 0 1
-26.037413 -14.682197 -30.902188 42.993709 0.513444 2.372814 0.037480 -0.013971 52161.100000 0 0 1
-26.165483 -15.638897 -29.895588 42.696063 0.538721 2.346468 0.041017 -0.005961 221032.000000 0 0 1
-25.539643 -15.166697 -28.697688 41.302051 0.535885 2.338973 0.042269 0.001776 -5616.590000 0 0 1
-25.906593 -16.109797 -27.467388 41.050390 0.556325 2.303812 0.036266 -0.000699 -421296.000000 0 0 1
-27.143363 -15.848897 -26.863988 41.347594 0.528494 2.278001 0.046428 -0.001133 -262132.000000 0 0 1
-27.208963 -14.655497 -26.047288 40.417478 0.494070 2.271108 0.048546 0.002578 -447708.000000 0 0 1
-26.285513 -14.360197 -24.824888 38.902680 0.500010 2.262861 0.031960 -0.011227 -660739.000000 0 0 1
-25.007033 -13.947897 -25.226188 38.160924 0.508781 2.293010 0.027062 -0.012348 48445.100000 0 0 1
-23.970933 -14.044097 -24.272388 36.891613 0.529973 2.288873 0.026386 -0.014862 45866.200000 0 0 1
-23.322033 -15.437397 -24.320488 37.063683 0.584712 2.286543 0.021067 -0.017253 -912976.000000 0 0 1
-22.527133 -15.660897 -25.485788 37.446773 0.607498 2.319360 0.006262 -0.010530 132211.000000 0 0 1
-22.021033 -16.958997 -25.327888 37.603662 0.656259 2.309795 0.009003 -0.009052 -359385.000000 0 0 1
-21.322833 -17.501197 -26.605388 38.324950 0.687279 2.338112 0.006792 -0.008404 250204.000000 0 0 1
-22.119833 -17.615497 -27.807788 39.659373 0.672522 2.347827 0.016423 -0.007031 323473.000000 0 0 1
-23.142933 -18.582997 -27.856188 40.704918 0.676547 2.324501 0.023200 -0.016882 -638329.000000 0 0 1
-23.813333 -18.472297 -29.234488 41.987568 0.659755 2.340978 0.019845 -0.015473 -226524.000000 0 0 1
-23.063833 -18.970397 -30.326388 42.561793 0.688321 2.363888 0.019434 -0.016514 569283.000000 0 0 1
-23.811633 -18.655997 -31.495288 43.669134 0.664588 2.376366 0.016520 -0.009743 -461801.000000 0 0 1
-23.142333 -19.178297 -32.785588 44.477741 0.692004 2.399600 0.019248 -0.020414 -126823.000000 0 0 1
-22.049533 -18.398297 -33.258688 43.941092 0.695372 2.429342 0.020533 -0.016594 597808.000000 0 0 1
-20.809633 -18.823997 -32.705688 43.093454 0.735340 2.432492 0.040495 -0.020663 -74711.300000 0 0 1
-19.944933 -19.852397 -33.479088 43.735196 0.783073 2.442607 0.042834 -0.019023 -552040.000000 0 0 1
-19.447033 -19.497297 33.694681 43.516241 0.786689 0.685186 0.040461 -0.016782 151706.000000 0 0 1
-19.192333 -20.621397 32.862081 43.283993 0.821276 0.708682 0.045966 -0.018620 -134264.000000 0 0 1
-20.481433 -21.168697 32.224281 43.657842 0.801898 0.740532 0.053768 -0.021010 107423.000000 0 0 1
-21.387333 -21.821497 33.104981 45.050367 0.795446 0.745360 0.043250 -0.021882 1111590.000000 0 0 1
-22.610633 -22.289597 32.466181 45.410569 0.778248 0.774247 0.043906 -0.012511 905104.000000 0 0 1
-22.562533 -23.492897 31.497981 45.311223 0.805596 0.802171 0.057234 -0.008591 -716519.000000 0 0 1
-22.179433 -24.643697 32.198181 46.216468 0.837979 0.800034 0.054526 -0.008883 219935.000000 0 0 1
-22.293233 -25.789277 31.386981 46.338080 0.857980 0.826645 0.058262 -0.000136 216966.000000 0 0 1
-21.452933 -26.865607 32.162481 47.078810 0.896954 0.818712 0.080063 -0.008085 -424742.000000 0 0 1
-22.235133 -27.455057 33.147881 48.445468 0.890064 0.817248 0.058916 -0.015878 -313704.000000 0 0 1
-21.566833 -28.453677 33.874081 49.215784 0.922218 0.811685 0.068915 -0.020834 -556073.000000 0 0 1
-22.569333 -29.415017 -33.859388 50.210320 0.916332 2.310882 0.055498 -0.018129 -588733.000000 0 0 1
-23.293433 -30.147467 33.620581 50.811389 0.912956 0.847747 0.048006 -0.020005 729327.000000 0 0 1
-24.561733 -29.589807 33.204981 50.807541 0.877985 0.858539 0.032225 -0.014907 427672.000000 0 0 1
-25.692913 -29.668087 -34.180388 52.044405 0.857080 2.287303 0.024503 -0.021976 -675338.000000 0 0 1
-26.782283 -28.841397 33.898781 51.944627 0.822400 0.859793 0.019654 -0.007393 57746.300000 0 0 1
-27.680863 -28.564837 -33.481088 51.991955 0.801113 2.270468 0.015154 0.003402 319637.000000 0 0 1
-28.748883 -27.478267 -33.858488 52.229787 0.762804 2.276093 0.007313 -0.002989 -109962.000000 0 0 1
-29.682833 -28.060327 33.738881 52.978908 0.757307 0.880409 0.009733 -0.005616 -541142.000000 0 0 1
-30.798423 -27.248247 33.434481 52.998815 0.724314 0.888144 0.013434 -0.008137 309800.000000 0 0 1
