# x y z rho theta phi s1 s2 stress_xx np intf bulk
-0.741335 -10.737206 -14.328874 17.920765 1.501862 2.497372 -0.002204 0.005385 -368199.000000 1 0 0
2.218565 -13.570406 -13.048474 18.956282 -1.408744 2.330002 0.006290 0.010071 312452.000000 1 0 0
2.148865 -11.221006 -14.727374 18.639317 -1.381583 2.481808 -0.002450 0.010216 360334.000000 1 0 0
-5.597435 -6.265906 -16.521874 18.535511 0.841686 2.671140 0.012157 0.002580 449402.000000 1 0 0
4.619465 -14.080106 -11.528474 18.774838 -1.253777 2.231964 -0.000847 0.008124 1375060.000000 1 0 0
14.058865 -10.602506 -7.841474 19.275724 -0.646152 1.989751 0.041481 -0.015844 340322.000000 1 0 0
7.022165 10.768794 -10.812974 16.798753 0.992957 2.270090 0.020184 -0.014883 240981.000000 1 0 0
5.744965 -4.164006 -12.668974 14.520553 -0.627183 2.631063 0.004915 -0.006094 1841560.000000 1 0 0
13.631365 0.575494 -9.960574 16.892552 0.042193 2.201413 0.015692 0.000946 -510414.000000 1 0 0
14.223965 5.055194 -10.263074 18.253954 0.341477 2.167886 0.023812 -0.008762 287848.000000 1 0 0
4.112765 4.219294 -13.392874 14.631690 0.798183 2.727131 -0.000090 0.002029 4403860.000000 1 0 0
10.450765 -4.912406 -13.623474 17.859151 -0.439404 2.438473 0.029079 -0.010702 -387368.000000 1 0 0
2.546065 -7.527106 -12.017474 14.406924 -1.244625 2.557378 -0.005615 0.002672 1830350.000000 1 0 0
-5.478535 -1.961306 -15.082974 16.166545 0.343782 2.773386 0.008747 -0.003976 167540.000000 1 0 0
10.660265 0.074594 -9.612374 14.354252 0.006997 2.304538 0.005331 -0.001882 665318.000000 1 0 0
-1.729735 -9.503206 -16.911274 19.475474 1.390751 2.622636 0.000687 -0.001333 1354220.000000 1 0 0
8.694465 1.525194 -17.793274 19.862541 0.173654 2.681071 0.030522 -0.004732 1225830.000000 1 0 0
16.485765 -5.913506 -8.820474 19.609966 -0.344408 2.037333 0.049237 -0.008507 -775521.000000 1 0 0
10.070865 7.508494 -9.878874 15.980987 0.640657 2.237201 0.015762 -0.009633 2345890.000000 1 0 0
13.861665 -2.250406 -10.525574 17.549866 -0.160943 2.213988 0.025123 -0.005029 -1703470.000000 1 0 0
7.279465 -1.845506 -13.735774 15.654647 -0.248291 2.641263 0.013275 -0.005773 3008640.000000 1 0 0
-2.788535 6.691594 -13.814674 15.601236 -1.175958 2.658335 0.002900 -0.005257 1877190.000000 1 0 0
11.189365 1.830494 -13.820574 17.876265 0.162156 2.454549 0.007804 -0.005058 39564.000000 1 0 0
-2.399535 10.721394 -12.877074 16.927052 -1.350617 2.435248 0.003029 -0.002300 -2086860.000000 1 0 0
2.868465 -1.037606 -15.279774 15.581277 -0.347085 2.944549 0.013033 -0.006694 2211990.000000 1 0 0
-8.989035 0.386794 -15.272774 17.725969 -0.043003 2.609219 0.010143 0.003060 -785396.000000 1 0 0
2.378965 -1.734906 -18.048774 18.287362 -0.630101 2.979883 0.028640 -0.015610 1265250.000000 1 0 0
1.062065 7.815194 -13.156774 15.339685 1.435726 2.601566 -0.000091 -0.004419 -1354350.000000 1 0 0
9.399765 -9.005206 -9.832974 16.313696 -0.763964 2.217731 0.017317 -0.005147 -354509.000000 1 0 0
3.882965 7.146494 -13.339174 15.623167 1.073082 2.594052 -0.002292 -0.001275 -93324.800000 1 0 0
-2.576935 9.191794 -15.476074 18.183469 -1.297461 2.588886 0.006997 0.000583 1271600.000000 1 0 0
5.502965 -7.575806 -15.305174 17.942235 -0.942580 2.592551 0.008648 -0.004791 1177560.000000 1 0 0
4.252465 7.204094 -16.198474 18.231099 1.037551 2.664879 0.008137 -0.003934 499065.000000 1 0 0
-0.233735 5.087994 -13.421974 14.355894 -1.524890 2.778901 0.006134 -0.007570 1908340.000000 1 0 0
8.645965 4.156894 -16.728774 19.284303 0.448162 2.620913 0.010548 0.005237 -1329640.000000 1 0 0
5.389265 0.315194 -14.385074 15.364696 0.058419 2.782574 0.002987 -0.001357 292311.000000 1 0 0
6.154665 7.913094 -11.520974 15.271863 0.909750 2.425524 -0.000289 -0.003315 690910.000000 1 0 0
2.754765 -8.395806 -14.986774 17.397749 -1.253752 2.608856 -0.000915 -0.002394 1342810.000000 1 0 0
3.968065 11.518294 -13.732374 18.357416 1.239029 2.415924 0.016225 -0.011454 -1264390.000000 1 0 0
0.636265 -4.515906 -13.716974 14.455228 -1.430824 2.820618 0.004098 -0.002787 1800300.000000 1 0 0
8.520965 -0.145406 -11.601674 14.395375 -0.017063 2.508042 -0.001402 -0.001829 301015.000000 1 0 0
-0.881035 -5.048906 -16.256574 17.045348 1.398036 2.836187 0.004500 -0.005005 547115.000000 1 0 0
4.487465 0.815694 -11.656874 12.517404 0.179808 2.768634 0.002109 -0.003965 858803.000000 1 0 0
-2.887735 -7.099806 -15.619774 17.398954 1.184498 2.685413 -0.000061 0.001627 3251030.000000 1 0 0
11.405765 -3.683706 -11.193774 16.400053 -0.312394 2.322036 0.018035 -0.009663 1389180.000000 1 0 0
6.546965 -7.002806 -12.575074 15.812480 -0.819028 2.490237 0.007951 -0.005934 -878574.000000 1 0 0
3.449265 -3.989606 -14.710374 15.627203 -0.857908 2.797350 0.010654 -0.005544 3047320.000000 1 0 0
-0.569135 -1.559806 -18.309374 18.384507 1.220931 3.051155 0.028202 -0.014012 1056240.000000 1 0 0
14.810265 2.937594 -8.382074 17.269411 0.195807 2.077584 0.008413 -0.002544 -680410.000000 1 0 0
6.910265 4.235694 -14.296174 16.433911 0.549892 2.625835 0.003058 0.003398 1705150.000000 1 0 0
10.214065 -9.608306 -13.864774 19.720006 -0.754848 2.350518 0.042926 -0.015956 -816163.000000 1 0 0
9.247365 -3.159706 -15.555074 18.370025 -0.329250 2.580669 0.028852 -0.013703 -1032750.000000 1 0 0
-5.544535 -1.998606 -18.041274 18.979564 0.345966 2.825841 0.015448 0.005081 399485.000000 1 0 0
5.076965 -9.050506 -11.093274 15.190390 -1.059578 2.389531 -0.005755 0.003482 1744970.000000 1 0 0
-2.454735 4.002694 -17.130374 17.762235 -1.020676 2.874062 0.012052 -0.002096 1182960.000000 1 0 0
9.410765 9.296794 -14.445774 19.587579 0.779306 2.400152 0.030317 -0.010996 7431.230000 1 0 0
9.787965 9.900694 -11.587274 18.113335 0.791124 2.264917 0.021452 -0.012588 615893.000000 1 0 0
12.041965 -5.903806 -9.622674 16.506353 -0.455833 2.193173 0.026581 -0.007826 257170.000000 1 0 0
8.070765 6.874694 -13.630174 17.267898 0.705539 2.480523 0.005133 0.001412 534189.000000 1 0 0
3.957565 -4.159706 -17.682274 18.591081 -0.810296 2.827626 0.027068 -0.016278 -365325.000000 1 0 0
9.348365 -7.361006 -12.326674 17.132520 -0.667018 2.373864 0.025106 -0.013656 953075.000000 1 0 0
12.068165 -8.579906 -8.765374 17.207184 -0.618040 2.105286 0.032455 -0.011209 647025.000000 1 0 0
-2.820235 -2.461906 -13.858474 14.355208 0.717664 2.877757 0.001911 -0.006633 -1656280.000000 1 0 0
-0.370435 6.139394 -17.568274 18.613802 -1.510532 2.804834 0.026869 -0.002392 1465210.000000 1 0 0
1.025765 -8.490606 -17.451574 19.434506 -1.450567 2.685927 0.000782 -0.008652 2735800.000000 1 0 0
0.186465 8.548594 -16.005074 18.145953 1.548987 2.650926 0.012918 0.000878 -1072390.000000 1 0 0
1.746565 3.339894 -14.934774 15.403014 1.088965 2.894390 0.010911 -0.002373 2333200.000000 1 0 0
-1.893435 -0.412906 -15.768674 15.887311 0.214711 3.019308 0.013175 -0.011448 -375791.000000 1 0 0
14.167765 -4.263106 -8.370974 16.999201 -0.292284 2.085680 0.029901 -0.007338 138070.000000 1 0 0
0.592565 0.639694 -14.540374 14.566496 0.823626 3.081695 0.010164 -0.007225 890884.000000 1 0 0
8.758065 2.705994 -12.453274 15.463186 0.299667 2.507062 0.001548 -0.002020 631741.000000 1 0 0
5.951165 0.940994 -17.109974 18.139819 0.156821 2.803013 0.021461 0.000541 -97114.200000 1 0 0
15.133665 1.591794 -12.424074 19.644827 0.104797 2.255489 0.017444 -0.007584 -735944.000000 1 0 0
8.773765 -11.138606 -11.886874 18.502575 -0.903607 2.268480 0.018263 -0.007251 1197740.000000 1 0 0
-4.529735 0.750494 -15.053674 15.738324 -0.164190 2.845548 0.009293 -0.006885 780906.000000 1 0 0
2.297565 5.123294 -17.211974 18.104668 1.149228 2.826258 0.014093 -0.003139 595209.000000 1 0 0
5.933165 -11.612906 -12.426274 18.013171 -1.098458 2.332070 0.002133 0.002113 486985.000000 1 0 0
12.829165 7.129394 -8.611374 17.016800 0.507222 2.101397 0.013650 -0.008733 544018.000000 1 0 0
-5.061735 3.633394 -15.738274 16.926783 -0.622583 2.764625 0.008638 -0.002921 2311760.000000 1 0 0
-0.518035 -4.385406 -19.031974 19.537558 1.453214 2.913602 0.018668 -0.011231 -517686.000000 1 0 0
9.713565 4.374194 -10.201874 14.750089 0.423118 2.334565 -0.002826 0.000757 788650.000000 1 0 0
13.154965 3.748994 -12.749774 18.699326 0.277627 2.321059 0.017705 -0.010089 131837.000000 1 0 0
-6.292535 5.803794 -17.164774 19.180967 -0.745016 2.678971 0.010970 0.002886 -659344.000000 1 0 0
-10.150935 3.125694 -15.511574 18.799478 -0.298708 2.541187 0.014112 0.002872 -1751680.000000 1 0 0
10.725265 13.456194 -8.411774 19.153548 0.897857 2.025477 0.039343 -0.013802 387958.000000 1 0 0
7.380965 13.324394 -12.323374 19.592949 1.064930 2.251024 0.034935 -0.022474 190638.000000 1 0 0
5.307565 15.055094 -11.224474 19.514479 1.231858 2.183629 0.024645 -0.025052 -674516.000000 1 0 0
14.262265 9.424494 -9.653274 19.632090 0.583930 2.084848 0.048391 -0.021793 -581867.000000 1 0 0
8.387165 -17.153606 -2.173774 19.217597 -1.116032 1.684153 0.024549 -0.005058 -447589.000000 1 0 0
0.668065 -15.967206 -0.014774 15.981183 -1.528981 1.571721 0.011354 -0.013339 2806840.000000 1 0 0
-9.124335 -11.662606 7.519426 16.607578 0.906906 1.100926 0.009708 -0.009958 -748647.000000 1 0 0
2.042965 -15.938406 -2.636274 16.283625 -1.443313 1.733409 0.009874 -0.007127 1197690.000000 1 0 0
-1.268535 -11.086006 -9.418974 14.602253 1.456865 2.271866 0.006275 -0.000044 576784.000000 1 0 0
-4.707935 -12.603206 -12.920174 18.653052 1.213297 2.335963 0.012009 -0.001029 -499722.000000 1 0 0
-8.215635 -17.727406 -1.779474 19.619483 1.136820 1.661620 0.017473 -0.018098 -1754930.000000 1 0 0
-11.442135 -7.116106 -8.900974 16.148956 0.556382 2.154574 0.022691 -0.007659 2194150.000000 1 0 0
-13.563035 -11.523406 -4.786774 18.429814 0.704273 1.833539 0.014827 -0.002750 -438453.000000 1 0 0
-5.713835 -13.522406 9.671526 17.579585 1.171006 0.988244 0.011294 -0.009454 792516.000000 1 0 0
0.194365 -13.942306 -3.676574 14.420225 -1.556857 1.828602 0.008518 -0.003871 -456223.000000 1 0 0
-14.712135 -11.656206 1.844226 18.860415 0.670019 1.472857 0.001040 0.008621 1332620.000000 1 0 0
-3.821835 -16.531206 -7.549274 18.570911 1.343599 1.989428 0.010322 -0.010746 426602.000000 1 0 0
0.663965 -15.265606 -9.202074 17.836977 -1.527330 2.112853 0.011031 0.002266 929307.000000 1 0 0
4.540365 -14.211106 -2.571374 15.138772 -1.261552 1.741477 0.001520 -0.000545 1546760.000000 1 0 0
-3.491735 -17.975906 -2.517274 18.484104 1.378940 1.707407 0.001851 -0.014597 1385910.000000 1 0 0
-0.938435 -13.429406 0.589326 13.475048 1.501031 1.527048 0.009535 -0.009216 1958240.000000 1 0 0
-8.474635 -11.389206 -10.528974 17.674636 0.931086 2.208947 0.018880 -0.009413 2026320.000000 1 0 0
-3.695335 -14.147006 -0.479574 14.629535 1.315295 1.603583 0.001327 -0.005111 3401360.000000 1 0 0
-1.460835 -14.923206 -7.280474 16.668576 1.473217 2.022811 0.004429 -0.003792 1148440.000000 1 0 0
-14.179335 -7.883806 -1.838374 16.327510 0.507443 1.683629 0.005853 0.001049 1306180.000000 1 0 0
-10.597735 -7.466406 -11.707674 17.467938 0.613759 2.305326 0.020298 -0.009585 -731727.000000 1 0 0
-9.475235 -14.587106 6.805526 18.678301 0.994729 1.197857 0.006352 -0.012147 379046.000000 1 0 0
-2.409835 -14.304206 -12.293374 19.014328 1.403893 2.273826 0.023915 -0.001865 119351.000000 1 0 0
2.546165 -17.710306 -4.792874 18.523216 -1.428007 1.832524 0.015065 -0.007342 -486025.000000 1 0 0
-6.611535 -9.683306 -9.310074 14.971850 0.971723 2.241885 0.017525 -0.009995 -381082.000000 1 0 0
-10.854535 -15.325806 0.452726 18.785799 0.954553 1.546695 0.006655 -0.002820 -1164480.000000 1 0 0
-12.615935 -11.044106 4.067926 17.253467 0.719062 1.332781 0.010735 0.000397 1754760.000000 1 0 0
-17.012835 -8.858106 -1.624374 19.249447 0.480048 1.655282 0.005510 0.001325 1000910.000000 1 0 0
-1.373235 -19.218306 -4.098374 19.698369 1.499463 1.780384 0.008184 -0.007850 1421150.000000 1 0 0
3.407765 -14.182606 -8.778974 17.024382 -1.334989 2.112587 -0.000583 0.001586 1039440.000000 1 0 0
-4.182935 -8.033806 -13.061874 15.895016 1.090752 2.535287 -0.000361 0.002629 1229470.000000 1 0 0
5.557665 -16.622806 1.224726 17.570011 -1.248140 1.501034 0.021411 -0.009815 3898450.000000 1 0 0
-2.768935 -13.718306 -3.272274 14.372429 1.371630 1.800488 0.002275 -0.005740 -376724.000000 1 0 0
-0.389535 -13.935606 3.578026 14.392885 1.542851 1.319565 0.009725 -0.006734 -3717830.000000 1 0 0
1.291565 -16.123006 6.954426 17.606349 -1.490860 1.164734 0.021174 -0.011094 2498550.000000 1 0 0
-5.467335 -10.325006 -14.524574 18.640299 1.083810 2.464189 0.009635 -0.005079 -706499.000000 1 0 0
-0.176335 -17.258006 -5.836474 18.219064 1.560579 1.896895 0.011671 -0.008188 1044940.000000 1 0 0
-6.494835 -13.361006 -1.356674 14.917773 1.118327 1.661866 0.004871 -0.004531 2620310.000000 1 0 0
-1.654835 -17.745506 -0.204974 17.823678 1.477811 1.582297 0.008981 -0.013906 1589580.000000 1 0 0
-9.541835 -9.672606 -4.921974 14.451013 0.792204 1.918348 0.018844 -0.008447 1745350.000000 1 0 0
-0.817435 -16.564206 4.771626 17.257159 1.521487 1.290645 0.024115 -0.018473 1094060.000000 1 0 0
-6.835435 -9.765906 -6.372474 13.516824 0.960118 2.061728 0.020260 -0.009234 3010410.000000 1 0 0
-5.995635 -14.593006 -8.561374 17.949947 1.180966 2.067987 0.015089 -0.013096 223168.000000 1 0 0
-5.698835 -12.188506 -10.229874 16.902270 1.133437 2.220859 0.012828 -0.007939 783654.000000 1 0 0
-10.682735 -12.205406 -8.723474 18.417160 0.851827 2.064238 0.022731 -0.022376 201585.000000 1 0 0
4.084565 -17.141206 6.487926 18.777588 -1.336870 1.218009 0.031170 -0.009892 2088480.000000 1 0 0
-6.691735 -14.291306 -4.168074 16.321569 1.132879 1.829029 0.015424 -0.015965 -194882.000000 1 0 0
-2.840135 -12.272906 -7.118274 14.469292 1.343384 2.085133 0.011364 -0.004326 1481100.000000 1 0 0
-7.123035 -12.774406 4.363626 15.263169 1.062135 1.280859 -0.001876 -0.002900 2595240.000000 1 0 0
2.589865 -16.378106 2.307426 16.741385 -1.413965 1.432529 0.018791 -0.016181 3409990.000000 1 0 0
-6.190735 -12.044906 7.148626 15.313649 1.096034 1.085112 0.002299 -0.005872 1767480.000000 1 0 0
-11.106735 -12.883606 -1.130374 17.047716 0.859329 1.637151 0.008947 0.002554 -673233.000000 1 0 0
-14.260435 -8.703406 4.667726 17.346382 0.547972 1.298349 0.010113 -0.002727 -465272.000000 1 0 0
-8.062935 -15.569306 4.327526 18.059394 1.092952 1.328814 -0.001578 0.001974 1100340.000000 1 0 0
-16.304835 -9.083206 1.201526 18.702833 0.508268 1.506509 -0.009175 0.005517 -11730.800000 1 0 0
-6.536235 -16.944606 2.318726 18.308975 1.202642 1.443811 -0.006832 -0.005717 1557930.000000 1 0 0
-11.548735 -14.914306 -4.801574 19.464453 0.911899 1.820054 0.031281 -0.008312 -445440.000000 1 0 0
-10.065835 -10.161706 -12.588674 19.054029 0.790138 2.292525 0.020145 -0.004625 -1117070.000000 1 0 0
-4.306535 -15.920806 -4.623374 17.128745 1.306621 1.844105 0.004311 -0.013657 -452650.000000 1 0 0
-11.820235 -8.314306 0.090826 14.451779 0.613002 1.564512 -0.002814 0.002163 1536420.000000 1 0 0
-9.626035 -11.104006 3.435626 15.091820 0.856574 1.341135 -0.000944 0.002262 1655470.000000 1 0 0
-14.070135 -12.898506 -0.756474 19.102681 0.741981 1.610407 0.002260 0.005932 820919.000000 1 0 0
5.699765 -14.828906 -7.109274 17.404757 -1.203838 1.991571 0.004455 -0.005978 937518.000000 1 0 0
-7.458035 -10.494806 -1.304874 12.940864 0.952965 1.671802 0.005018 -0.001059 2155850.000000 1 0 0
-11.664135 -8.229706 -6.135374 15.537791 0.614445 1.976720 0.021161 -0.007651 91338.400000 1 0 0
-14.457735 -6.589106 -9.359074 18.440030 0.427625 2.103125 0.035484 -0.017098 2644130.000000 1 0 0
-3.803235 -16.464506 1.326126 16.950020 1.343782 1.492479 0.001638 -0.009878 694978.000000 1 0 0
-7.866835 -15.401506 0.150326 17.294973 1.098559 1.562104 0.009377 -0.007851 1640570.000000 1 0 0
0.943965 -18.492306 3.525526 18.849027 -1.519794 1.382648 0.017601 -0.020066 -929893.000000 1 0 0
-14.095735 -8.722806 -4.572074 17.195376 0.554147 1.839923 0.012884 -0.008419 -197418.000000 1 0 0
-3.249835 -14.462606 11.094926 18.515556 1.349762 0.928268 0.002448 -0.011819 -335699.000000 1 0 0
-10.758735 -12.197206 -3.955674 16.738267 0.847979 1.809378 0.019376 -0.008148 90615.600000 1 0 0
-9.980735 -10.682206 0.466126 14.626752 0.819333 1.538923 0.000697 0.003301 2006260.000000 1 0 0
-0.003335 -13.188806 -11.121974 17.252331 1.570543 2.271381 0.010713 -0.001099 1886030.000000 1 0 0
-5.820735 -12.569506 -6.348974 15.237550 1.137115 2.000571 0.011900 -0.015584 1196840.000000 1 0 0
1.788265 -15.743106 9.781926 18.620670 -1.457691 1.017698 0.022990 -0.009103 165989.000000 1 0 0
-8.906735 -15.819806 -5.480774 18.964047 1.058018 1.863987 0.029063 -0.016366 216898.000000 1 0 0
-3.348735 -15.415106 5.749526 16.789776 1.356883 1.221281 0.004604 -0.010763 -149146.000000 1 0 0
-17.591535 -5.453106 -6.641074 19.578109 0.300592 1.916872 0.036485 -0.006552 477094.000000 1 0 0
18.847865 5.563294 -2.886174 19.862584 0.287018 1.716620 0.005823 0.004708 -1655690.000000 1 0 0
12.903765 -12.424806 -5.827774 18.837354 -0.766491 1.885330 0.036383 -0.004947 -1910860.000000 1 0 0
10.991565 -13.512906 -1.638274 17.495630 -0.887930 1.664573 0.025810 -0.003602 1528280.000000 1 0 0
18.744765 -2.956606 4.648326 19.537519 -0.156441 1.330575 0.050443 -0.007928 -179332.000000 1 0 0
8.743965 -16.838906 5.000626 19.621721 -1.091851 1.313102 0.027037 -0.017309 -1119770.000000 1 0 0
18.101865 -1.084206 6.700026 19.332443 -0.059823 1.216885 0.056560 -0.009486 -846894.000000 1 0 0
18.000165 -4.160306 -4.935374 19.122552 -0.227138 1.831843 0.048187 -0.014211 327583.000000 1 0 0
5.315665 -11.837706 14.782126 19.669744 -1.148737 0.720439 0.012882 -0.007317 -1399550.000000 1 0 0
15.998765 -8.846206 -0.788574 18.298571 -0.505090 1.613905 0.039271 -0.008934 -1118790.000000 1 0 0
13.772065 -12.429506 -1.337374 18.599757 -0.734203 1.642761 0.027552 -0.001916 -33745.200000 1 0 0
11.072865 -1.903406 13.974126 17.930630 -0.170235 0.677178 0.008959 -0.000824 -896015.000000 1 0 0
16.931865 -6.076406 -1.401674 18.043709 -0.344558 1.648557 0.034503 -0.010368 -372744.000000 1 0 0
17.775565 3.683594 -0.895074 18.175278 0.204336 1.620063 0.011706 0.004131 849757.000000 1 0 0
9.670665 -11.181506 9.558926 17.604571 -0.857727 0.996815 0.010694 -0.003552 1166440.000000 1 0 0
9.007265 -11.115306 4.287726 14.935376 -0.889777 1.279614 0.003751 -0.005805 -824597.000000 1 0 0
13.865565 -10.186206 6.738026 18.477383 -0.633598 1.197525 0.038997 -0.017152 1350780.000000 1 0 0
16.220065 -0.532006 -4.569274 16.859768 -0.032788 1.845245 0.021369 -0.003304 -453455.000000 1 0 0
15.825665 -0.470606 -1.533374 15.906740 -0.029728 1.667344 0.023197 -0.002466 869811.000000 1 0 0
12.885265 -5.149306 -0.203474 13.877565 -0.380185 1.585459 0.012915 -0.008992 1137690.000000 1 0 0
14.282865 -7.571606 1.106826 16.203534 -0.487451 1.502435 0.033931 -0.010771 2254110.000000 1 0 0
15.557565 2.430494 3.684526 16.171606 0.154973 1.340938 0.016061 -0.001557 821333.000000 1 0 0
15.921465 -7.188006 5.061726 18.187401 -0.424073 1.288763 0.050077 -0.016678 -1718090.000000 1 0 0
13.643765 -12.163206 3.204126 18.557002 -0.728091 1.397263 0.034266 -0.010464 1148070.000000 1 0 0
13.956065 -1.076406 9.259826 16.783169 -0.076976 0.986356 0.026482 -0.008480 -406913.000000 1 0 0
14.224565 -2.765106 -1.399874 14.558286 -0.191995 1.667102 0.010975 -0.004944 -759315.000000 1 0 0
15.021465 1.727494 9.196726 17.697695 0.114499 1.024347 0.036036 -0.002768 -1180070.000000 1 0 0
14.351265 -10.019106 -2.936774 17.747279 -0.609473 1.737038 0.034307 -0.006710 -438183.000000 1 0 0
7.236865 -12.628006 6.099726 15.781173 -1.050406 1.173942 -0.000234 -0.005348 -466347.000000 1 0 0
12.308965 -4.681806 7.002326 14.915177 -0.363459 1.082098 0.012035 -0.005836 2716580.000000 1 0 0
15.016165 -8.908606 -5.640174 18.348298 -0.535455 1.883251 0.048963 -0.009882 -1410380.000000 1 0 0
14.258565 -4.695506 4.662826 15.719300 -0.318126 1.269634 0.029761 -0.014275 896714.000000 1 0 0
17.163865 -4.277806 0.997226 17.717007 -0.244257 1.514480 0.028000 -0.010502 418223.000000 1 0 0
10.152665 -14.455806 1.110226 17.699704 -0.958512 1.508029 0.019969 -0.009826 -641948.000000 1 0 0
16.349465 -2.570206 8.506626 18.608429 -0.155928 1.096021 0.049638 -0.015205 1109660.000000 1 0 0
16.075265 -2.672706 3.340026 16.634701 -0.164755 1.368635 0.029128 -0.005874 1195480.000000 1 0 0
7.840465 -15.306606 2.670626 17.403946 -1.097415 1.416738 0.010232 -0.007391 1712930.000000 1 0 0
16.585665 -7.149706 7.941326 19.729856 -0.407007 1.156547 0.059922 -0.009631 -1022530.000000 1 0 0
10.215065 -8.600306 5.156026 14.314238 -0.699787 1.202311 0.005019 -0.004883 1308100.000000 1 0 0
10.859865 -11.828506 2.144226 16.200245 -0.828066 1.438049 0.015764 -0.007126 -99121.700000 1 0 0
12.191265 -7.355806 12.149126 18.717267 -0.542892 0.864413 0.005190 -0.010495 -871272.000000 1 0 0
15.231165 -9.923506 4.248526 18.668538 -0.577448 1.341208 0.049757 -0.017785 -867039.000000 1 0 0
7.283265 -10.312206 7.814226 14.847548 -0.955871 1.016556 0.001652 -0.003308 2001240.000000 1 0 0
15.252065 -3.319706 -4.204074 16.165400 -0.214314 1.833887 0.032489 -0.003565 -102472.000000 1 0 0
11.693265 -8.960506 9.828726 17.709516 -0.653849 0.982437 0.012346 -0.007460 -2697870.000000 1 0 0
16.985165 -6.692806 2.508926 18.427810 -0.375356 1.434223 0.052165 -0.015242 1982890.000000 1 0 0
17.632265 3.936694 2.081126 18.185857 0.219664 1.456109 0.018113 0.004713 1301800.000000 1 0 0
14.651765 -5.011106 8.745326 17.783872 -0.329543 1.056691 0.041397 -0.011671 467209.000000 1 0 0
12.781365 -12.784706 5.935326 19.027351 -0.785529 1.253566 0.028797 -0.015214 1039620.000000 1 0 0
18.330065 0.812394 -0.966174 18.373479 0.044291 1.623406 0.033342 -0.002862 -411917.000000 1 0 0
11.690565 -2.214306 11.083126 16.260631 -0.187192 0.820859 0.008888 -0.001230 1494910.000000 1 0 0
5.796865 -12.518206 10.634826 17.418630 -1.137123 0.914050 0.011785 -0.000140 -1987720.000000 1 0 0
10.645765 -5.050506 11.188726 16.248923 -0.442971 0.811264 0.002621 -0.000186 1128140.000000 1 0 0
17.914965 1.259294 5.052426 18.656334 0.070177 1.296556 0.031116 -0.000155 129476.000000 1 0 0
12.176265 -7.773406 7.211426 16.145957 -0.568182 1.107790 0.024832 -0.009609 -1497070.000000 1 0 0
10.540365 -8.114106 14.391426 19.597223 -0.656061 0.746072 0.018834 -0.009074 371514.000000 1 0 0
14.277165 -0.315006 3.839526 14.787786 -0.022060 1.308145 0.014648 -0.002315 914684.000000 1 0 0
11.663565 -7.697506 2.606426 14.215618 -0.583346 1.386404 0.010859 -0.006025 1025330.000000 1 0 0
9.362065 6.047594 3.523526 11.689178 0.573536 1.264599 0.002435 0.000402 1334640.000000 1 0 0
-3.924735 14.822694 -9.929974 18.268010 -1.311957 2.145483 -0.004755 0.001010 561646.000000 1 0 0
8.766365 -6.508906 9.319326 14.354959 -0.638675 0.864256 -0.000595 -0.002619 47027.400000 1 0 0
5.886565 -10.542706 -8.479574 14.754778 -1.061562 2.183034 -0.003629 -0.000078 -488849.000000 1 0 0
5.436065 0.995694 0.648426 5.564410 0.181156 1.454000 0.001066 -0.000581 3333650.000000 1 0 0
-0.548835 9.863394 10.874826 14.691821 -1.515210 0.737435 0.003757 -0.003211 803264.000000 1 0 0
-6.337135 -5.148106 1.050426 8.231991 0.682239 1.442845 0.009360 -0.004037 3926950.000000 1 0 0
-1.075535 3.950094 -10.875274 11.620310 -1.304960 2.781559 0.005562 -0.007463 1254570.000000 1 0 0
11.013965 5.771094 1.177526 12.489976 0.482647 1.476378 0.004134 0.001052 1139290.000000 1 0 0
-10.014435 -1.857506 -13.563074 16.961610 0.183399 2.497481 0.018188 -0.002510 1112810.000000 1 0 0
7.359265 10.936694 -6.018374 14.491062 0.978493 1.999087 0.008503 -0.003989 1255050.000000 1 0 0
-12.405235 -2.880806 -9.619174 15.959869 0.228181 2.217689 0.021121 -0.004218 842652.000000 1 0 0
-3.934935 -8.752006 2.464526 9.907332 1.148272 1.319399 0.009565 -0.001964 -1987750.000000 1 0 0
8.037865 -6.594706 -5.895674 11.952255 -0.687090 2.086640 0.000027 -0.004603 1874680.000000 1 0 0
14.357965 3.163594 -4.154774 15.278142 0.216872 1.846207 0.017935 -0.001246 631253.000000 1 0 0
-2.616735 -4.967706 9.789826 11.285659 1.085979 0.520728 0.002187 -0.002277 2052690.000000 1 0 0
3.607865 -1.924306 -4.544974 6.113627 -0.489981 2.408961 0.001677 -0.004035 -1850380.000000 1 0 0
-3.877935 8.394894 -3.421274 9.859906 -1.138058 1.925155 -0.002020 0.002246 -39409.700000 1 0 0
5.812565 0.066894 11.743626 13.103554 0.011508 0.459630 0.001028 -0.003314 3515900.000000 1 0 0
7.132165 4.717194 12.417926 15.077287 0.584346 0.603035 0.005665 -0.002170 1760380.000000 1 0 0
1.222565 -14.455506 12.370226 19.065121 -1.486423 0.864736 0.006324 -0.001525 516098.000000 1 0 0
2.959765 8.762794 -9.063174 12.949435 1.245063 2.346039 0.001156 -0.002376 125765.000000 1 0 0
-4.391835 -8.766406 -4.607374 10.833559 1.106361 2.010076 0.014693 -0.004811 2966420.000000 1 0 0
5.745765 -6.604906 -3.993574 9.622226 -0.854849 1.998779 0.000213 -0.004884 2549680.000000 1 0 0
-3.165335 3.474894 8.627226 9.824625 -0.831983 0.498872 0.009358 -0.002552 2472910.000000 1 0 0
-3.774035 3.201694 -11.119274 12.170967 -0.703534 2.722823 0.001730 -0.008236 -621091.000000 1 0 0
3.008765 -6.127406 8.567826 10.954698 -1.114347 0.672745 -0.004081 -0.001702 665813.000000 1 0 0
-5.189335 -8.658606 10.467126 14.541712 1.030872 0.767282 0.004976 -0.003003 -260541.000000 1 0 0
-13.251235 -2.517306 6.480026 14.964051 0.187731 1.122934 0.010553 -0.007284 -1108620.000000 1 0 0
3.987765 -5.884206 -8.277574 10.910746 -0.975190 2.432054 -0.002856 -0.003572 2974540.000000 1 0 0
2.910265 -0.512906 12.373326 12.721317 -0.174449 0.234438 0.004464 -0.001927 609077.000000 1 0 0
1.513565 -1.430306 -7.536874 7.819279 -0.757124 2.872015 0.004067 -0.006152 -1663270.000000 1 0 0
3.669465 -3.546006 3.452726 6.161205 -0.768290 0.975930 0.000418 -0.002059 3113230.000000 1 0 0
1.544765 0.415394 -11.830974 11.938626 0.262690 3.007200 0.004475 -0.008849 -138613.000000 1 0 0
4.053865 3.487994 -10.565174 11.841572 0.710508 2.673013 -0.002058 -0.000678 690957.000000 1 0 0
2.880065 3.271994 3.421326 5.541316 0.849019 0.905336 -0.002374 0.002112 -178217.000000 1 0 0
-5.264235 0.887494 2.610026 5.942395 -0.167019 1.116065 0.006176 -0.003678 2844740.000000 1 0 0
-9.456335 -9.229406 5.666026 14.377346 0.773254 1.165714 0.000448 -0.001999 -2916160.000000 1 0 0
-2.997935 3.869094 -0.524974 4.922713 -0.911585 1.677643 0.004901 -0.002860 1329270.000000 1 0 0
-15.874835 -6.480806 5.076826 17.882545 0.387593 1.282939 0.024800 -0.008875 716165.000000 1 0 0
1.023765 6.734994 -8.068874 10.560064 1.419944 2.440431 0.000180 -0.001688 1202120.000000 1 0 0
-1.613235 6.517094 -9.399874 11.551306 -1.328135 2.521371 0.000778 -0.001092 1059710.000000 1 0 0
2.098165 -0.344706 5.302126 5.712588 -0.162835 0.381391 0.002063 0.000103 2120790.000000 1 0 0
-3.419835 -0.595606 -6.362474 7.247834 0.172433 2.642140 0.010981 -0.007541 1083610.000000 1 0 0
1.886165 -1.110906 -2.492374 3.317176 -0.532274 2.420908 0.009214 -0.001129 1207250.000000 1 0 0
2.462165 -8.522406 -7.661574 11.721492 -1.289549 2.283174 -0.002709 0.001200 1823320.000000 1 0 0
-2.449735 14.102694 -5.544674 15.350263 -1.398806 1.940362 -0.003734 0.006628 3607930.000000 1 0 0
6.894165 -5.093706 -8.116074 11.804491 -0.636322 2.328894 0.001521 -0.006661 1535090.000000 1 0 0
-14.299535 -4.949006 -2.181774 15.288215 0.333192 1.713995 0.006666 0.000672 -367753.000000 1 0 0
-2.701635 6.973894 -6.815774 10.118735 -1.201205 2.309838 -0.000136 -0.000824 -2038300.000000 1 0 0
-5.620835 -1.104306 -8.151974 9.963331 0.193996 2.529065 0.013995 -0.010081 -156494.000000 1 0 0
-5.776035 -10.655506 3.354026 12.575846 1.074061 1.300825 0.002541 -0.001847 -2967730.000000 1 0 0
8.075165 -7.575206 6.687526 12.935032 -0.753464 1.027443 -0.003063 -0.001123 678773.000000 1 0 0
8.713665 -6.080006 13.260326 16.992077 -0.609218 0.675518 0.009684 -0.004755 315809.000000 1 0 0
-4.774635 9.445294 -0.742274 10.609509 -1.102755 1.640817 0.001832 0.003418 722790.000000 1 0 0
2.809665 6.612494 12.065726 14.042829 1.169008 0.537075 0.003766 -0.002634 -206255.000000 1 0 0
6.018265 -2.821106 11.034826 12.881985 -0.438343 0.542135 -0.002055 -0.001647 1292600.000000 1 0 0
-9.782635 -6.424806 -1.191374 11.764245 0.581110 1.672241 0.004464 -0.001446 734131.000000 1 0 0
0.905165 -13.405506 6.220626 14.806185 -1.503377 1.137200 0.005031 -0.005526 389590.000000 1 0 0
-0.537135 -3.203206 8.750726 9.334037 1.404655 0.355401 0.002519 -0.002783 2415310.000000 1 0 0
4.234065 0.751094 3.516426 5.554880 0.175567 0.885331 -0.002823 0.001816 1133040.000000 1 0 0
-10.305535 5.567894 8.265926 14.336354 -0.495351 0.956271 -0.001035 -0.003106 -1161390.000000 1 0 0
9.454565 8.023094 -0.052474 12.400063 0.703678 1.575028 0.002595 0.002128 -1392050.000000 1 0 0
4.320265 2.880194 8.206826 9.711447 0.588005 0.564105 -0.002028 -0.001601 3892750.000000 1 0 0
1.333965 2.678194 -9.699974 10.150945 1.108683 2.842396 0.005425 -0.006526 2946510.000000 1 0 0
-1.417435 -10.048906 3.056026 10.598535 1.430667 1.278299 0.008190 -0.005283 -1891150.000000 1 0 0
-9.986135 9.599894 9.088626 16.567558 -0.765680 0.990132 0.008775 -0.005704 1274030.000000 1 0 0
9.842365 -2.008306 -7.510574 12.542494 -0.201284 2.212811 0.008129 -0.003978 52124.400000 1 0 0
-5.222535 -1.841706 6.633726 8.641359 0.339030 0.695596 0.004844 -0.003683 1694610.000000 1 0 0
3.166365 -7.823006 -4.926774 9.772328 -1.186202 2.099200 -0.001202 -0.003192 1790670.000000 1 0 0
-5.105135 4.922994 -13.137374 14.929463 -0.767237 2.646580 -0.001391 -0.008096 1850850.000000 1 0 0
-5.674135 9.673194 5.509226 12.494721 -1.040300 1.114168 0.005532 -0.001572 2027530.000000 1 0 0
-0.354935 -1.796406 -9.339474 9.517291 1.375728 2.947985 0.005205 -0.009349 -67500.000000 1 0 0
-16.758735 0.087694 6.389226 17.935582 -0.005233 1.206564 0.020572 -0.006390 -670241.000000 1 0 0
-6.018235 -2.883906 3.983226 7.771883 0.446865 1.032682 0.001478 -0.002617 3792650.000000 1 0 0
1.051965 -5.666206 -5.120274 7.709068 -1.387230 2.297204 0.005906 -0.004953 700887.000000 1 0 0
-6.979035 1.429494 -8.527774 11.111855 -0.202032 2.445648 0.005372 -0.005419 -67594.000000 1 0 0
8.042665 1.937294 4.728326 9.528621 0.236374 1.051553 -0.001454 -0.000261 764540.000000 1 0 0
0.526865 -8.036406 -0.527874 8.070940 -1.505330 1.636247 0.004828 -0.001581 639808.000000 1 0 0
5.468865 5.511694 -3.364074 8.461929 0.789299 1.979646 0.002832 -0.001079 1260190.000000 1 0 0
-0.715135 -0.361006 -1.246974 1.482123 0.467487 2.570560 0.007657 -0.002668 18840.700000 1 0 0
9.081865 6.377994 -6.305874 12.764134 0.612253 2.087516 0.007349 -0.004504 1513600.000000 1 0 0
-14.922335 -7.003106 2.583326 16.685118 0.438790 1.415343 -0.005337 -0.004052 1452530.000000 1 0 0
-6.532535 6.844394 8.934726 13.013419 -0.808707 0.814025 0.006948 -0.003347 598945.000000 1 0 0
-9.397835 -3.241706 -9.697374 13.887658 0.332162 2.343778 0.017092 -0.005705 2342440.000000 1 0 0
14.919165 3.451294 -1.155074 15.356663 0.227334 1.646084 0.007692 0.001101 709448.000000 1 0 0
12.096065 1.619494 -5.671774 13.457584 0.133094 2.005846 0.006585 -0.000498 -482286.000000 1 0 0
1.567165 -9.403406 12.686126 15.868770 -1.405655 0.644434 -0.006080 -0.004193 53572.100000 1 0 0
-3.675735 6.385994 7.943526 10.834738 -1.048516 0.747849 0.008510 -0.003732 1470090.000000 1 0 0
-4.116535 13.148594 -12.398374 18.535130 -1.267385 2.303541 -0.000986 0.002862 1076340.000000 1 0 0
-10.297035 7.846194 6.487726 14.480410 -0.651128 1.106230 -0.000609 -0.000957 604307.000000 1 0 0
8.127065 -9.268606 -7.073674 14.212428 -0.850926 2.091753 0.002413 -0.002708 203019.000000 1 0 0
5.961265 -3.803906 -0.346074 7.079982 -0.567967 1.619696 0.002391 -0.003517 -695150.000000 1 0 0
-1.628235 -4.468406 4.146926 6.309897 1.221361 0.853686 0.004433 -0.002316 2223460.000000 1 0 0
9.974065 -2.007706 -2.487474 10.473795 -0.198638 1.810583 0.001488 -0.003719 -2489450.000000 1 0 0
13.563365 7.120994 1.338326 15.377403 0.483460 1.483654 0.000135 0.003532 -577916.000000 1 0 0
5.472865 -3.732006 -3.265374 7.385309 -0.598482 2.028785 0.002246 -0.005234 -1661020.000000 1 0 0
-12.286735 -5.865506 1.911726 13.748554 0.445393 1.431295 -0.001375 -0.000357 1829220.000000 1 0 0
3.777965 -5.735106 -0.308474 6.874563 -0.988299 1.615683 0.003829 -0.002317 21661.900000 1 0 0
-5.186135 3.754394 -8.698874 10.801013 -0.626606 2.507105 0.002393 -0.005965 -979426.000000 1 0 0
-1.709635 -9.301606 7.229326 11.904028 1.389025 0.918138 0.001655 -0.004612 1722210.000000 1 0 0
-7.387235 -7.362806 2.545226 10.735937 0.783742 1.331442 0.007766 -0.002255 -3488650.000000 1 0 0
-5.801435 13.070994 -8.584074 16.679144 -1.153076 2.111406 0.000722 -0.002049 2025520.000000 1 0 0
9.359365 -13.925706 -4.243174 17.306864 -0.979047 1.818494 0.016112 0.001429 459061.000000 1 0 0
-6.518435 -5.098706 -6.687774 10.640166 0.663791 2.250471 0.018085 -0.005776 2201150.000000 1 0 0
3.474165 0.379694 -6.163574 7.085452 0.108859 2.625778 0.001706 -0.006806 1001800.000000 1 0 0
-3.674535 5.738494 5.022226 8.464944 -1.001248 0.935648 0.008411 -0.000344 287456.000000 1 0 0
-2.676535 -10.737606 -2.898774 11.439533 1.326507 1.826989 0.009820 -0.003541 2702460.000000 1 0 0
-12.565535 -0.424806 1.733726 12.691688 0.033794 1.433765 0.002399 -0.004519 1440450.000000 1 0 0
8.466565 -11.962706 -6.088474 15.870053 -0.954890 1.964537 0.006013 -0.003416 -453323.000000 1 0 0
6.216465 3.926394 1.028526 7.424208 0.563340 1.431813 -0.000355 -0.000185 -634069.000000 1 0 0
3.504665 -4.855806 -11.000674 12.525029 -0.945624 2.643081 -0.003903 -0.001310 190398.000000 1 0 0
-7.749935 4.243994 8.618126 12.342815 -0.501012 0.797874 0.002766 -0.001353 2267650.000000 1 0 0
8.217365 8.729894 4.045426 12.653126 0.815632 1.245365 0.000780 0.001624 658263.000000 1 0 0
0.235365 10.513394 -6.386374 12.303358 1.548413 2.116566 -0.002575 0.004255 77518.800000 1 0 0
5.491365 8.039094 3.253426 10.264838 0.971515 1.248286 0.002481 -0.000510 1921080.000000 1 0 0
8.140365 6.656094 -3.735274 11.158915 0.685420 1.912120 0.002599 -0.002574 342864.000000 1 0 0
10.491165 2.552894 -8.104774 13.500710 0.238698 2.214700 0.000935 -0.000513 1012910.000000 1 0 0
3.270565 -12.541906 -0.263674 12.964009 -1.315706 1.591137 0.001971 -0.006483 -1704150.000000 1 0 0
0.658865 2.133394 5.303126 5.754009 1.271255 0.398510 0.004519 0.000151 601700.000000 1 0 0
-4.859635 13.480394 1.441626 14.401922 -1.224801 1.470529 0.003101 0.001726 2450790.000000 1 0 0
8.144765 4.093994 -7.989974 12.121784 0.465768 2.290473 -0.000864 0.000090 1357820.000000 1 0 0
-13.930135 -0.554206 -3.639774 14.408462 0.039764 1.826177 0.006198 -0.000389 601642.000000 1 0 0
-8.524535 0.032794 -0.480674 8.538140 -0.003847 1.627123 0.005209 -0.003366 -528020.000000 1 0 0
1.801965 -3.765606 -1.192274 4.341473 -1.124470 1.848995 0.007037 -0.001592 -1400540.000000 1 0 0
8.140965 -5.579506 -0.191174 9.871309 -0.600834 1.590164 0.003451 -0.006735 2302510.000000 1 0 0
-2.280635 -1.199806 7.300726 7.742185 0.484297 0.339324 0.005536 -0.002823 2339020.000000 1 0 0
-5.864835 8.855894 -11.727374 15.822593 -0.985856 2.405621 -0.000551 -0.000534 -1439760.000000 1 0 0
-6.150735 9.197494 -8.880274 14.187484 -0.981359 2.247111 -0.002456 -0.001375 308131.000000 1 0 0
-1.562435 14.010794 -8.414574 16.417935 -1.459739 2.108917 -0.000191 0.001654 -551093.000000 1 0 0
-1.495835 7.231594 9.694126 12.186449 -1.366826 0.650990 0.010975 -0.005536 -351354.000000 1 0 0
9.978565 2.286894 -3.888874 10.951026 0.225290 1.933833 -0.001134 -0.000915 -2866630.000000 1 0 0
-2.968735 -7.503206 -7.033774 10.704460 1.194035 2.287746 0.012801 -0.004832 633217.000000 1 0 0
-5.511135 -5.032606 -1.592874 7.631316 0.740044 1.781071 0.015584 -0.004108 282325.000000 1 0 0
5.625165 7.386794 -8.694274 12.719968 0.919965 2.323362 -0.000321 -0.001444 29141.500000 1 0 0
-9.488935 5.326394 -7.412974 13.166721 -0.511498 2.168818 0.002082 -0.001421 -157392.000000 1 0 0
-0.492635 6.113894 -5.308274 8.111730 -1.490394 2.284178 0.003514 -0.000804 -1378360.000000 1 0 0
-8.209035 2.858294 -6.400574 10.794696 -0.335060 2.205498 0.005418 -0.001693 538346.000000 1 0 0
3.725765 1.378794 -2.005674 4.450294 0.354441 2.038327 0.000530 -0.002178 2104140.000000 1 0 0
-6.609635 12.386194 -3.487674 14.466131 -1.080609 1.814288 0.006668 -0.000349 1684680.000000 1 0 0
-6.541035 3.200194 -2.339474 7.648498 -0.455010 1.881652 0.004258 -0.002554 -900612.000000 1 0 0
12.164665 4.030694 -0.844974 12.842879 0.319959 1.636637 0.001295 -0.002535 -972924.000000 1 0 0
2.131665 12.372894 -5.522574 13.716097 1.400186 1.985189 0.002528 0.001660 1063970.000000 1 0 0
-9.190935 -1.365306 -4.294074 10.236036 0.147471 2.003697 0.008799 -0.000660 2224310.000000 1 0 0
-1.178335 5.723494 3.553726 6.839285 -1.367756 1.024408 0.006752 -0.001102 1352520.000000 1 0 0
11.566265 2.595994 12.058826 16.909552 0.220786 0.776833 0.017315 0.002926 454488.000000 1 0 0
-7.051735 -2.271106 -5.814274 9.417573 0.311574 2.236211 0.015637 -0.005348 -484893.000000 1 0 0
7.394465 -7.440806 10.959026 15.170496 -0.788522 0.763543 0.004457 -0.004949 -1920160.000000 1 0 0
-5.406435 -1.919506 -11.032574 12.435101 0.341159 2.662063 0.009101 -0.007582 124336.000000 1 0 0
0.829865 -6.209606 4.467526 7.694587 -1.437941 0.951323 0.003852 -0.002302 981040.000000 1 0 0
-4.810235 -9.332806 7.317226 12.797712 1.094896 0.962146 -0.003090 -0.001981 2200800.000000 1 0 0
-8.776035 9.334794 1.660626 12.919553 -0.816241 1.441904 0.008535 -0.002080 2275030.000000 1 0 0
-8.070835 7.204594 -9.078974 14.123467 -0.728751 2.268982 0.001336 -0.001968 -27155.100000 1 0 0
-1.271935 -10.554106 -0.131174 10.631284 1.450859 1.583135 0.006664 -0.003176 1059130.000000 1 0 0
-3.977935 10.324694 7.796126 13.535245 -1.203040 0.956985 0.008390 -0.004860 1451890.000000 1 0 0
-7.507435 12.060494 2.035826 14.351365 -1.014010 1.428460 0.008671 -0.002272 2869970.000000 1 0 0
-8.180435 -8.196106 -2.918774 11.942149 0.786355 1.817707 0.013628 -0.003706 1310560.000000 1 0 0
5.353865 4.584094 -7.959274 10.631454 0.708095 2.416825 0.000679 0.000565 295407.000000 1 0 0
-8.903735 -0.161006 -10.220074 13.555528 0.018081 2.424838 0.009204 -0.005906 -1739340.000000 1 0 0
-15.323835 -2.203606 -1.638974 15.567982 0.142823 1.676270 0.008116 -0.002482 -1170430.000000 1 0 0
-7.202035 -5.775606 8.699626 12.685048 0.675923 0.815070 -0.001105 0.000612 -782222.000000 1 0 0
8.179365 3.476494 -0.868274 8.929833 0.401898 1.668183 0.000666 0.000479 641261.000000 1 0 0
11.920065 7.288994 -5.858774 15.150663 0.548825 1.967848 0.009802 -0.003547 1171840.000000 1 0 0
3.638365 13.268294 -9.555274 16.750778 1.303160 2.177835 0.004290 -0.012200 1463400.000000 1 0 0
-9.742335 5.448694 -0.445474 11.171383 -0.509940 1.610683 0.002760 -0.002698 1498690.000000 1 0 0
11.416665 -1.290506 -5.041374 12.546756 -0.112559 1.984286 0.013396 -0.004419 -945961.000000 1 0 0
10.596265 1.752794 -1.042774 10.790759 0.163932 1.667583 0.001570 -0.001785 321379.000000 1 0 0
14.683765 5.086494 4.793426 16.262297 0.333466 1.271595 0.011279 0.000152 2538740.000000 1 0 0
0.841665 -0.826606 10.280226 10.347692 -0.776372 0.114254 0.006257 -0.002523 1795180.000000 1 0 0
-7.928635 1.381594 -12.571874 14.927293 -0.172521 2.572160 -0.000020 -0.005284 -863917.000000 1 0 0
3.199765 -11.483406 -7.860774 14.279317 -1.299047 2.153760 -0.006363 0.001326 -584882.000000 1 0 0
2.815865 4.983494 -6.671674 8.790650 1.056481 2.432497 0.002067 -0.000004 -1678480.000000 1 0 0
6.581165 8.023594 0.496226 10.389226 0.883843 1.523015 0.003631 -0.000754 1253100.000000 1 0 0
-9.096835 -5.407606 6.665026 12.506686 0.536328 1.008752 -0.001327 -0.002801 -2795510.000000 1 0 0
-0.282235 -6.835306 -11.810174 13.648490 1.529529 2.616565 -0.000136 0.002239 1208030.000000 1 0 0
6.549165 -13.387806 -4.606974 15.599651 -1.115835 1.870592 0.003370 -0.000997 2774420.000000 1 0 0
-3.290535 -0.345606 9.909526 10.447286 0.104647 0.322246 0.007560 -0.001354 -383764.000000 1 0 0
8.646965 8.378394 6.980226 13.917293 0.769625 1.045406 -0.000942 0.001303 699201.000000 1 0 0
-7.991735 5.693594 -2.656674 10.165764 -0.619023 1.835202 0.006272 -0.004747 136847.000000 1 0 0
-5.388435 5.884794 -6.479174 10.278411 -0.829400 2.252823 0.001650 -0.001894 -19581.300000 1 0 0
3.311565 -13.644106 2.594226 14.277889 -1.332690 1.388086 0.007372 -0.009441 -2450700.000000 1 0 0
-11.261935 -7.032006 6.445526 14.758899 0.558171 1.118845 0.007283 -0.005480 -799595.000000 1 0 0
-12.962535 -3.704106 -6.814474 15.105786 0.278337 2.038813 0.021156 -0.007160 1193090.000000 1 0 0
6.052965 0.356994 -7.289174 9.481449 0.058910 2.447732 -0.002987 -0.000427 421817.000000 1 0 0
-1.425535 2.251994 -2.456374 3.624555 -1.006457 2.315431 0.006451 -0.003587 3411070.000000 1 0 0
7.615165 0.899294 -4.967374 9.136425 0.117548 2.145623 -0.000099 -0.001126 -813876.000000 1 0 0
3.637665 -4.489306 10.903626 12.339997 -0.889809 0.487300 -0.003665 -0.000065 -488604.000000 1 0 0
6.049165 -2.594106 2.162926 6.928205 -0.405116 1.253297 0.002674 -0.002610 -1924560.000000 1 0 0
-6.363435 7.691794 1.149826 10.048836 -0.879628 1.456121 0.004693 -0.000395 1524930.000000 1 0 0
5.999765 -3.420406 8.068226 10.620387 -0.518137 0.707957 -0.000471 -0.005370 -156514.000000 1 0 0
6.860765 -2.283406 -7.848574 10.671652 -0.321289 2.397142 -0.000161 -0.005213 -305053.000000 1 0 0
12.153365 -8.055706 -5.827174 15.702058 -0.585347 1.950999 0.024273 -0.008609 2508130.000000 1 0 0
5.534065 -9.665706 10.069126 15.014628 -1.050808 0.835751 0.001003 -0.000315 3057270.000000 1 0 0
-6.590335 7.498094 -4.394674 10.907203 -0.849742 1.985496 0.001441 -0.001936 1429830.000000 1 0 0
-1.404835 -7.589106 9.677526 12.378312 1.387756 0.673228 -0.001305 -0.001893 -1677340.000000 1 0 0
10.043165 -9.214906 0.820026 13.654746 -0.742416 1.510706 0.004575 -0.004531 -500867.000000 1 0 0
11.167565 6.073594 9.864026 16.090433 0.498117 0.910898 0.006226 0.001737 294276.000000 1 0 0
-15.360935 -4.290906 -5.057874 16.731775 0.272396 1.877892 0.013993 -0.001443 1804120.000000 1 0 0
-4.770235 -4.584006 7.753326 10.192268 0.765492 0.706395 0.002446 -0.003559 -223440.000000 1 0 0
2.824465 10.896894 -11.080774 15.795678 1.317179 2.348306 -0.001143 -0.003818 -986176.000000 1 0 0
9.967165 -1.426106 1.612926 10.197043 -0.142116 1.411953 0.000926 -0.003083 -583461.000000 1 0 0
-1.622635 -2.614206 0.608326 3.136412 1.015296 1.375603 0.008826 -0.003699 1726080.000000 1 0 0
1.683465 3.003894 0.853726 3.547714 1.059983 1.327770 -0.001961 -0.001229 522859.000000 1 0 0
-8.981635 -2.357906 4.304426 10.235115 0.256732 1.136740 0.002612 -0.003435 2634190.000000 1 0 0
9.985865 4.865394 -2.694274 11.430164 0.453378 1.808752 0.003087 -0.001378 779592.000000 1 0 0
2.623165 8.399394 2.495226 9.146418 1.268090 1.294485 0.001943 -0.001913 2655840.000000 1 0 0
-8.146435 -0.034706 2.502426 8.522192 0.004260 1.272768 0.002355 -0.004609 1256800.000000 1 0 0
6.982265 2.036294 13.749626 15.554765 0.283768 0.486554 0.008613 -0.001714 196751.000000 1 0 0
6.855465 4.321494 3.777326 8.940967 0.562453 1.134623 -0.001101 0.001980 221269.000000 1 0 0
-0.313735 3.387894 7.795326 8.505490 -1.478455 0.411542 0.005545 -0.002875 1857570.000000 1 0 0
2.643365 -10.285506 9.191426 14.044975 -1.319241 0.857370 -0.000777 -0.004647 1864040.000000 1 0 0
1.322765 -4.543206 6.906026 8.371596 -1.287476 0.600708 -0.001244 -0.002802 -438859.000000 1 0 0
-0.179935 10.820394 -1.842974 10.977698 -1.554169 1.739479 0.001824 0.003599 2732000.000000 1 0 0
8.807265 5.455994 8.068726 13.131646 0.554626 0.909109 -0.001169 0.001560 -585205.000000 1 0 0
2.594565 11.370494 -2.898474 12.017531 1.346453 1.814385 0.002812 -0.001932 1554700.000000 1 0 0
1.478165 2.351994 -6.592374 7.153757 1.009703 2.742789 0.004026 -0.004002 998250.000000 1 0 0
-13.647935 -2.263606 3.527926 14.277126 0.164361 1.321107 0.000750 -0.005224 1530280.000000 1 0 0
-0.903835 -10.642006 -5.310274 11.927625 1.486069 2.032203 0.005100 -0.002539 1665280.000000 1 0 0
-5.557635 2.820894 0.423926 6.246957 -0.469686 1.502883 0.007989 -0.002735 -135340.000000 1 0 0
3.778465 7.235194 -4.970674 9.556800 1.089520 2.117787 0.001712 -0.001819 -1246060.000000 1 0 0
2.979265 9.770594 -6.458774 12.085374 1.274830 2.134628 0.000441 -0.000154 582294.000000 1 0 0
-12.146835 1.605494 -2.622674 12.530030 -0.131412 1.781667 0.004565 -0.001636 1422260.000000 1 0 0
-2.453935 9.645594 -5.779674 11.509296 -1.321671 2.096908 -0.004826 0.003283 525553.000000 1 0 0
-1.211635 3.288694 1.733826 3.910207 -1.217803 1.111396 0.003011 -0.001555 -219848.000000 1 0 0
12.899665 3.667494 9.649626 16.521717 0.277000 0.947078 0.022366 -0.000914 488763.000000 1 0 0
-2.594835 -9.569306 11.552426 15.223776 1.306001 0.709265 -0.004912 -0.007832 300785.000000 1 0 0
-0.404935 -8.916906 -7.525874 11.675357 1.525415 2.271289 0.003855 -0.001680 3088970.000000 1 0 0
2.389765 7.692694 -0.468374 8.068946 1.269594 1.628875 0.003827 0.000478 189093.000000 1 0 0
-11.874735 -1.270606 -5.600374 13.190450 0.106595 2.009292 0.008596 0.001848 -1214440.000000 1 0 0
-6.065235 -7.180006 -10.985374 14.457455 0.869364 2.433866 0.010990 -0.003517 1144820.000000 1 0 0
-4.735035 -2.242306 -1.455374 5.437519 0.442270 1.841754 0.010956 -0.003816 -1426660.000000 1 0 0
-10.470935 3.708394 4.465926 11.972350 -0.340377 1.188534 -0.000684 -0.004240 3832460.000000 1 0 0
6.850565 9.353394 -3.586874 12.135974 0.938645 1.870835 0.007598 -0.002612 1765660.000000 1 0 0
1.368665 -2.705406 -11.460774 11.855033 -1.102440 2.882971 0.002034 -0.006738 -1137030.000000 1 0 0
1.308765 8.791694 7.565326 11.672228 1.423018 0.865647 0.001475 -0.000015 262532.000000 1 0 0
10.375765 0.315094 10.558526 14.806696 0.030359 0.776899 0.004490 -0.000444 668504.000000 1 0 0
-5.275335 -0.825006 -3.978274 6.658563 0.155133 2.211135 0.011452 -0.005577 -487001.000000 1 0 0
11.763565 5.613794 5.407126 14.111454 0.445257 1.177567 0.005579 0.001573 3353540.000000 1 0 0
9.972765 -3.556606 3.690026 11.212572 -0.342571 1.235449 0.007984 -0.008597 -1676460.000000 1 0 0
7.439165 -1.687806 -3.399474 8.351424 -0.223104 1.990022 0.000641 -0.002265 -2874960.000000 1 0 0
2.411965 9.284894 10.418626 14.162436 1.316641 0.744167 0.002597 -0.000869 2864200.000000 1 0 0
2.377465 -10.900506 6.363726 12.844080 -1.356053 1.052432 -0.002674 -0.004750 1672210.000000 1 0 0
5.979365 -7.539906 -1.218374 9.699867 -0.900320 1.696736 -0.001461 -0.004014 354625.000000 1 0 0
-0.254335 -5.503606 -2.324874 5.979917 1.524617 1.970104 0.008807 -0.001053 2632780.000000 1 0 0
7.765465 -5.102106 2.795626 9.703064 -0.581298 1.278536 -0.000265 -0.006124 2495180.000000 1 0 0
-2.673435 -12.426506 4.544926 13.498951 1.358887 1.227400 0.005632 -0.005694 -935814.000000 1 0 0
4.843865 -10.276206 -1.034174 11.407583 -1.130316 1.661578 0.001369 -0.003408 716652.000000 1 0 0
0.968265 0.199394 1.064726 1.452906 0.203090 0.748331 0.000959 0.000097 -1618120.000000 1 0 0
-1.673435 8.585394 2.622526 9.131649 -1.378293 1.279503 0.004606 -0.000325 -166317.000000 1 0 0
-7.530335 0.734494 -2.986474 8.134154 -0.097230 1.946742 0.006133 -0.001075 -223966.000000 1 0 0
4.400965 -6.327906 12.965126 15.083282 -0.963107 0.536370 0.001779 -0.001201 -1166520.000000 1 0 0
-5.125035 13.042094 8.510226 16.394699 -1.196373 1.025017 0.009988 -0.009501 989035.000000 1 0 0
0.659265 6.086394 8.210126 10.241337 1.462899 0.640720 0.005112 -0.001066 420222.000000 1 0 0
7.991765 -0.504206 -0.670174 8.035649 -0.063007 1.654293 0.002319 -0.003284 5194740.000000 1 0 0
2.502665 -9.211306 -2.379674 9.837395 -1.305505 1.815121 0.000823 -0.002280 1444770.000000 1 0 0
-7.179935 12.214494 4.915926 14.997055 -1.039380 1.236830 0.005976 -0.003157 189373.000000 1 0 0
-14.958835 0.273594 0.149726 14.962086 -0.018288 1.560789 0.001318 -0.005226 115515.000000 1 0 0
6.905165 -0.520006 4.022626 8.008322 -0.075165 1.044533 -0.000028 -0.000132 1174900.000000 1 0 0
-4.237435 -5.055706 5.015626 8.286889 0.873223 0.920718 0.005855 -0.003396 508604.000000 1 0 0
2.960465 5.156594 6.870126 9.085892 1.049629 0.713415 -0.000365 -0.001171 -960063.000000 1 0 0
2.119765 -7.156806 1.848326 7.689577 -1.282840 1.328052 0.001684 -0.002693 1675760.000000 1 0 0
-2.349735 6.494994 -1.658074 7.103197 -1.223669 1.806396 0.000311 0.000287 814799.000000 1 0 0
2.799265 -3.775606 -6.575974 8.082977 -0.932817 2.521042 0.001339 -0.006308 -826126.000000 1 0 0
-5.064635 0.921494 -12.198174 13.239907 -0.179978 2.742255 0.002578 -0.008298 336282.000000 1 0 0
-7.499335 6.462694 -11.908274 15.485911 -0.711287 2.448032 0.004169 -0.006364 3276860.000000 1 0 0
-1.118035 11.225294 -9.105674 14.497259 -1.471524 2.249901 -0.003110 0.002632 2291480.000000 1 0 0
4.626265 5.887594 -0.552874 7.508112 0.904796 1.644500 0.002465 -0.000858 1387490.000000 1 0 0
-2.648635 13.412494 3.557426 14.126767 -1.375830 1.316234 0.004244 0.001426 735315.000000 1 0 0
1.369565 -7.949906 10.186526 12.993923 -1.400197 0.669801 -0.004935 -0.003286 -1131170.000000 1 0 0
13.024865 -0.256306 -0.984674 13.064546 -0.019676 1.646238 0.008117 -0.004843 853270.000000 1 0 0
-1.072735 3.065694 -5.343874 6.253497 -1.234196 2.595464 0.006938 -0.005761 1147060.000000 1 0 0
6.604365 1.112994 7.330326 9.929253 0.166955 0.740316 -0.000691 -0.002023 1845290.000000 1 0 0
5.464965 -6.089806 6.939926 10.729126 -0.839422 0.867375 -0.005208 -0.001639 1133390.000000 1 0 0
12.210065 -4.930006 2.650226 13.431840 -0.383749 1.372184 0.011144 -0.009663 178510.000000 1 0 0
4.279665 -9.215706 13.948026 17.256657 -1.136042 0.629589 0.006317 -0.005547 906022.000000 1 0 0
-2.735135 -4.340306 -1.418474 5.322715 1.008487 1.840550 0.014362 -0.004631 1647140.000000 1 0 0
-9.325735 -5.239406 -7.588974 13.115382 0.511875 2.187846 0.017237 -0.003560 1602640.000000 1 0 0
-10.616735 -3.157706 7.848126 13.574950 0.289095 0.954358 0.002275 -0.004703 288558.000000 1 0 0
12.123865 -0.668706 1.775926 12.271478 -0.055100 1.425567 0.008147 -0.004472 482738.000000 1 0 0
-7.554535 4.717794 4.387626 9.928738 -0.558238 1.113068 0.004670 -0.002699 764426.000000 1 0 0
-1.043635 10.606994 7.022026 12.763477 -1.472721 0.988234 0.004302 -0.000329 3117900.000000 1 0 0
7.355665 -9.986806 1.936826 12.553621 -0.935967 1.415893 -0.003254 -0.004035 2487000.000000 1 0 0
-4.325435 -1.687606 1.622726 4.918399 0.371994 1.234567 0.005953 -0.001310 2170720.000000 1 0 0
6.761265 -14.979306 -0.888674 16.458556 -1.146801 1.624817 0.014401 -0.005317 -633798.000000 1 0 0
-10.491535 1.701494 2.372526 10.890192 -0.160778 1.351176 -0.002689 -0.001979 -449031.000000 1 0 0
-3.011235 8.265494 -11.411374 14.408518 -1.221427 2.484855 0.000003 -0.000802 -1138840.000000 1 0 0
-1.207235 -5.177506 -6.889674 8.702390 1.341720 2.484381 0.002569 -0.005901 -407742.000000 1 0 0
12.830665 -0.556706 6.510426 14.398664 -0.043362 1.101617 0.013884 -0.005549 1765260.000000 1 0 0
5.955265 -13.265006 3.674526 14.997590 -1.148820 1.323269 0.004192 -0.006430 943242.000000 1 0 0
-5.584935 3.533594 -4.978874 8.274477 -0.564118 2.216442 0.006217 -0.004155 1875730.000000 1 0 0
-4.445235 8.015094 3.450126 9.793121 -1.064422 1.210768 0.007716 -0.000599 169641.000000 1 0 0
14.041465 6.106694 -4.051674 15.838892 0.410230 1.829477 0.013785 -0.000459 1059330.000000 1 0 0
-6.736635 -8.501906 5.222426 12.039037 0.900727 1.122100 0.007954 -0.001422 829909.000000 1 0 0
1.784065 11.340894 2.763326 11.808248 1.414763 1.334589 0.005414 -0.003437 2149510.000000 1 0 0
-7.465235 7.314094 6.029426 12.065641 -0.775172 1.047522 0.004050 -0.002444 -2118410.000000 1 0 0
-17.414435 -3.997706 5.135926 18.590911 0.225653 1.290896 0.033186 -0.011520 596062.000000 1 0 0
7.541565 -13.045806 -8.558074 17.329423 -1.046648 2.087304 0.003223 -0.002257 -766536.000000 1 0 0
-2.240835 12.834294 -2.752974 13.316129 -1.397941 1.779038 -0.003169 0.004486 958824.000000 1 0 0
-5.487135 13.957094 -5.766374 16.067364 -1.196215 1.937872 0.006019 0.002823 2885660.000000 1 0 0
-5.735435 2.481294 7.464026 9.734666 -0.408311 0.697038 0.008110 -0.003087 2027650.000000 1 0 0
-7.367435 4.997994 1.446026 9.019425 -0.596075 1.409778 0.004774 -0.000824 2035600.000000 1 0 0
10.798065 -5.673706 -5.027574 13.193394 -0.483790 1.961747 0.007685 -0.007511 2521380.000000 1 0 0
-9.520535 -0.785806 6.826426 11.741302 0.082351 0.950345 -0.000565 -0.002722 1009110.000000 1 0 0
-11.388635 -4.450206 -2.638474 12.508673 0.372514 1.783324 0.006754 -0.002199 828622.000000 1 0 0
6.546765 -4.345006 13.624926 15.728249 -0.585937 0.523107 0.009641 -0.005798 -543523.000000 1 0 0
0.111265 10.223194 -11.722074 15.554198 1.559913 2.424360 -0.003133 -0.001679 -2073680.000000 1 0 0
-11.798235 -3.148406 1.364126 12.287053 0.260777 1.459546 0.000480 -0.002905 2893630.000000 1 0 0
5.219765 5.923494 5.442526 9.589307 0.848467 0.967255 -0.001657 0.001736 -4873720.000000 1 0 0
-7.155635 0.001194 8.124526 10.826405 -0.000167 0.722075 0.002068 -0.002051 518690.000000 1 0 0
1.795465 2.030994 9.594226 9.969845 0.846873 0.275370 0.005345 -0.002933 1654300.000000 1 0 0
10.499165 -4.923206 -2.013374 11.769626 -0.438471 1.742707 0.003392 -0.007662 2817080.000000 1 0 0
-9.637535 -2.390806 -1.653574 10.066397 0.243164 1.735811 0.007240 -0.001475 -1614740.000000 1 0 0
-1.965135 -5.139606 -9.888574 11.316413 1.205596 2.633812 0.007669 -0.006369 384206.000000 1 0 0
7.613265 -1.627706 6.565626 10.184236 -0.210628 0.870185 -0.000543 -0.003300 1046870.000000 1 0 0
1.602365 -11.854906 -2.636674 12.249834 -1.436446 1.787736 0.003564 -0.003780 -3939500.000000 1 0 0
-0.649135 -1.571706 4.848026 5.137606 1.179122 0.337350 0.004960 -0.000591 1254000.000000 1 0 0
7.642865 1.482694 9.977226 12.655307 0.191617 0.662621 -0.002903 -0.001708 496943.000000 1 0 0
-3.885135 10.716294 -7.979774 13.914382 -1.222990 2.181557 -0.002045 0.003336 2428390.000000 1 0 0
-9.599835 12.747894 6.398326 17.193144 -0.925344 1.189478 0.009507 -0.005724 1048230.000000 1 0 0
-2.439935 -2.327606 -11.043174 11.546546 0.761841 2.845230 0.010820 -0.009044 -1792670.000000 1 0 0
1.112765 -11.855306 11.029526 16.230742 -1.477208 0.823654 -0.004510 -0.000538 1225640.000000 1 0 0
1.459265 3.445994 -1.974174 4.231039 1.170225 2.056231 0.002188 -0.001646 2881710.000000 1 0 0
-1.787235 -9.398806 -11.989974 15.339206 1.382884 2.468112 0.001613 0.001022 1145320.000000 1 0 0
1.336065 -2.729006 1.515526 3.395492 -1.115520 1.108131 0.009335 -0.002435 2131370.000000 1 0 0
-0.976135 -2.270506 -6.592674 7.040695 1.164766 2.782929 0.006657 -0.009873 2045390.000000 1 0 0
1.827665 5.897794 4.041626 7.379639 1.270291 0.991216 -0.001718 0.000153 -623000.000000 1 0 0
-11.085335 8.656894 3.645326 14.529793 -0.663006 1.317201 -0.002214 -0.000790 2951120.000000 1 0 0
-16.387635 -1.533406 3.901926 16.915406 0.093299 1.338027 0.015566 -0.006772 -348872.000000 1 0 0
-12.204435 0.241494 6.748426 13.948040 -0.019785 1.065775 -0.005086 -0.001979 1093880.000000 1 0 0
-5.098835 3.013194 4.761626 7.599378 -0.533744 0.893638 0.005783 -0.002346 1907240.000000 1 0 0
5.186965 -6.073106 4.016826 8.939917 -0.863934 1.104799 -0.005656 -0.003399 1440660.000000 1 0 0
9.985465 3.342494 6.340426 12.291573 0.323012 1.028814 -0.000281 0.004099 1607370.000000 1 0 0
-12.216735 5.879494 3.158526 13.920968 -0.448548 1.341913 -0.003413 -0.000987 1672070.000000 1 0 0
-4.849935 12.289994 -1.302874 13.276419 -1.194932 1.669089 -0.004195 0.004231 1786660.000000 1 0 0
-1.811335 -12.183206 10.257726 16.029111 1.423203 0.876372 0.002014 -0.004685 2143130.000000 1 0 0
5.200565 6.367194 13.832826 16.091430 0.885910 0.536233 0.006288 -0.001465 832110.000000 1 0 0
13.030665 -3.748806 -5.772074 14.736642 -0.280126 1.973255 0.015543 -0.006994 1833890.000000 1 0 0
3.540765 -2.556506 6.408926 7.755454 -0.625353 0.598154 -0.003061 -0.000523 405286.000000 1 0 0
7.250465 -11.834506 -0.640174 13.893689 -1.021124 1.616889 0.001439 -0.003043 -298760.000000 1 0 0
-6.013035 -6.491306 -4.136274 9.767416 0.823628 2.008076 0.019184 -0.004125 229500.000000 1 0 0
0.306965 -8.940306 5.138026 10.316134 -1.536475 1.049439 0.004378 -0.006075 1394510.000000 1 0 0
-10.258635 2.473794 -0.447974 10.562194 -0.236625 1.613222 0.000185 -0.002423 -1906080.000000 1 0 0
-1.851735 9.020494 -0.214074 9.211083 -1.368328 1.594039 0.002431 0.004133 1433540.000000 1 0 0
-3.543335 2.261594 -6.647774 7.865299 -0.568083 2.577741 0.008493 -0.007303 890455.000000 1 0 0
-12.674135 3.026494 6.353826 14.497051 -0.234403 1.117108 -0.002071 -0.005769 -658242.000000 1 0 0
11.395565 1.543394 8.050626 14.037576 0.134619 0.960018 0.006132 -0.005141 -1783010.000000 1 0 0
6.103065 2.639594 -3.142974 7.354804 0.408209 2.012341 0.001160 -0.001321 470915.000000 1 0 0
10.494765 -2.382406 6.331126 12.485956 -0.223226 1.039026 0.008895 -0.005689 3878280.000000 1 0 0
-0.922035 11.052594 4.124626 11.833111 -1.487567 1.214755 0.008887 -0.000635 640311.000000 1 0 0
-1.607935 -12.230406 7.334826 14.351584 1.440076 1.034354 0.005782 -0.003669 -257716.000000 1 0 0
8.050465 8.656494 -7.727574 14.123040 0.821656 2.149765 0.007825 -0.005707 1564330.000000 1 0 0
-4.655835 -5.862706 -8.709974 11.485285 0.899636 2.431589 0.015775 -0.006770 1481100.000000 1 0 0
-8.441435 -5.342306 -11.710574 15.392713 0.564237 2.435321 0.017303 -0.002094 2337930.000000 1 0 0
6.157265 -0.721606 -9.931574 11.707638 -0.116664 2.583560 0.000090 -0.002365 463231.000000 1 0 0
-11.274635 -5.460206 -5.424874 13.651392 0.451002 1.979463 0.010378 -0.004556 -964587.000000 1 0 0
3.941265 8.895794 -2.719874 10.102793 1.153739 1.843379 0.005783 -0.003506 1323960.000000 1 0 0
11.709665 -10.337506 -3.986774 16.120628 -0.723241 1.820698 0.015468 -0.004904 208582.000000 1 0 0
3.990965 -11.271506 3.971526 12.599511 -1.230495 1.250116 -0.000486 -0.003958 -814022.000000 1 0 0
-0.920235 0.789394 3.261626 3.479681 -0.709015 0.355896 0.006609 -0.001981 -1446480.000000 1 0 0
-10.617035 -5.064906 4.465626 12.582390 0.445123 1.207978 0.003456 -0.004299 2219310.000000 1 0 0
4.583865 -8.640006 2.852326 10.188095 -1.083017 1.287037 -0.004308 -0.002592 4149930.000000 1 0 0
-3.677735 -5.777006 2.597826 7.324496 1.003887 1.208228 0.007576 -0.002382 2397840.000000 1 0 0
10.092165 4.972294 12.389926 16.735763 0.457781 0.737241 0.012625 0.002893 381893.000000 1 0 0
1.687965 -12.301906 -5.272474 13.490186 -1.434436 1.972338 0.002404 -0.003075 744702.000000 1 0 0
9.844565 -10.750306 -1.754874 14.682102 -0.829349 1.690607 0.005837 -0.004731 -31552.600000 1 0 0
9.627465 -4.508206 -9.079674 13.980432 -0.437939 2.277665 0.014074 -0.005559 2971140.000000 1 0 0
-7.320835 -3.148106 -13.115974 15.347116 0.406115 2.595618 0.008692 0.003052 1570610.000000 1 0 0
0.487165 6.253794 -2.461374 6.738370 1.493054 1.944727 0.003122 -0.001173 2227140.000000 1 0 0
-5.977235 -9.495106 0.925926 11.257963 1.008963 1.488457 0.008608 -0.001789 539201.000000 1 0 0
-9.033035 -4.036706 0.528726 9.908092 0.420258 1.517408 0.003299 -0.003871 2078030.000000 1 0 0
1.908065 3.852794 12.032726 12.777763 1.110962 0.343170 0.007570 -0.003174 962094.000000 1 0 0
6.691165 4.297994 9.680626 12.528326 0.570971 0.687714 -0.001293 0.002511 2219240.000000 1 0 0
-8.222035 9.839094 -3.585074 13.313992 -0.874693 1.843432 0.007715 -0.001912 1698390.000000 1 0 0
16.389865 2.105294 -5.971774 17.570487 0.127751 1.917581 0.022093 0.001067 350869.000000 1 0 0
-10.973135 2.720094 -5.177574 12.434463 -0.242989 2.000266 0.001893 0.001073 1507690.000000 1 0 0
-13.724035 4.022394 1.427226 14.372396 -0.285106 1.471329 -0.004191 0.000138 -130087.000000 1 0 0
-17.576235 10.400594 3.302626 20.688251 -0.534325 1.410473 0.049217 -0.013404 -635134.000000 1 0 0
-14.288435 2.886794 -1.234774 14.629341 -0.199354 1.655301 0.002932 -0.001602 693521.000000 1 0 0
-14.424535 5.050294 5.068626 16.101666 -0.336780 1.250562 -0.007946 -0.001239 -129309.000000 1 0 0
-17.486135 7.415494 3.134926 19.250513 -0.401090 1.407219 0.025714 -0.004563 -442356.000000 1 0 0
-15.217735 12.722894 -3.339674 20.114793 -0.696344 1.737599 0.057594 -0.014622 542278.000000 1 0 0
-8.607335 12.486194 -9.606674 17.952143 -0.967255 2.135454 0.007304 -0.012007 1517780.000000 1 0 0
-12.365235 8.771394 -9.899674 18.106351 -0.616980 2.149276 0.012038 -0.005592 132406.000000 1 0 0
-13.847235 -3.514506 -12.261374 18.826550 0.248557 2.280068 0.026277 -0.000684 -200649.000000 1 0 0
-14.793335 5.830994 -7.782974 17.703614 -0.375465 2.025979 0.028428 -0.000250 -1405070.000000 1 0 0
-10.997135 13.518694 -8.372074 19.333486 -0.887892 2.018653 0.020640 -0.019276 296402.000000 1 0 0
-10.958135 13.614094 3.902426 17.906792 -0.893068 1.351103 0.013951 -0.005538 -489833.000000 1 0 0
-15.188735 3.338594 3.000226 15.838095 -0.216366 1.380214 -0.000646 -0.000646 407564.000000 1 0 0
-11.091435 9.478694 -12.541074 19.239130 -0.707156 2.280821 0.000694 -0.003704 1006040.000000 1 0 0
-13.172235 11.494494 -8.982774 19.655060 -0.717486 2.045439 0.024860 -0.029458 1115620.000000 1 0 0
-8.842735 14.484694 -3.546074 17.337098 -1.022701 1.776787 0.020027 -0.012328 1105330.000000 1 0 0
-16.652635 8.258894 -4.154774 19.046830 -0.460403 1.790699 0.036466 -0.006202 -1335700.000000 1 0 0
-16.883435 6.572394 0.274126 18.119655 -0.371231 1.555667 0.022183 0.000075 -1079940.000000 1 0 0
-10.450335 2.757494 -12.571974 16.579138 -0.257986 2.431499 0.010907 -0.005729 828922.000000 1 0 0
-16.869435 0.985994 2.339826 17.059450 -0.058382 1.433205 0.011288 -0.006924 158393.000000 1 0 0
-12.638035 1.261694 -7.038974 14.520984 -0.099503 2.076868 0.008081 -0.002147 2059140.000000 1 0 0
-12.330835 9.095994 -5.462274 16.267238 -0.635558 1.913233 0.020078 -0.005595 -1461000.000000 1 0 0
-9.683335 13.922094 1.214226 17.001942 -0.963072 1.499319 0.028990 -0.010176 597343.000000 1 0 0
-12.308235 11.188794 2.684926 16.849053 -0.737792 1.410762 0.012733 -0.002127 -334056.000000 1 0 0
-12.639435 6.891094 -3.675274 14.857663 -0.499155 1.820757 0.007087 -0.000854 417918.000000 1 0 0
-15.855935 3.764294 -9.510974 18.869002 -0.233091 2.099081 0.032042 -0.004070 -1599960.000000 1 0 0
-15.133535 5.855294 -4.787074 16.918169 -0.369170 1.857670 0.019739 0.002926 920024.000000 1 0 0
-17.979435 5.244294 7.581126 20.204856 -0.283809 1.186170 0.023907 -0.005675 40555.000000 1 0 0
-15.833935 10.176794 -2.042574 18.932848 -0.571241 1.678892 0.045362 -0.005932 -843892.000000 1 0 0
-8.799835 9.889594 -8.315674 15.633029 -0.843641 2.131674 0.005984 -0.008316 795413.000000 1 0 0
-16.955035 4.162194 -1.395174 17.514097 -0.240724 1.650541 0.009725 -0.001262 550611.000000 1 0 0
-10.232835 5.457994 -4.563074 12.462835 -0.489994 1.945648 0.002629 0.000498 823985.000000 1 0 0
-18.095335 2.729394 6.141126 19.302958 -0.149706 1.247025 0.029448 -0.011970 -770212.000000 1 0 0
-10.328535 10.046194 -5.716074 15.500908 -0.771542 1.948468 0.010794 -0.009864 1083920.000000 1 0 0
-15.350335 0.528994 -5.955174 16.473516 -0.034448 1.940672 0.013306 0.001043 -208298.000000 1 0 0
-16.394035 -4.084706 -8.949174 19.119020 0.244186 2.057910 0.033136 -0.015383 -1089780.000000 1 0 0
-10.016935 9.684694 -1.134074 13.979213 -0.768536 1.652011 0.007724 -0.000421 941374.000000 1 0 0
-17.458935 -2.993006 -3.464474 18.049241 0.169781 1.763941 0.028475 -0.003139 121853.000000 1 0 0
-11.866735 5.090394 -11.474674 17.274248 -0.405223 2.297306 0.009553 -0.007321 1091380.000000 1 0 0
-16.415635 6.961494 5.880126 18.775286 -0.401089 1.252252 0.019587 -0.002480 1346770.000000 1 0 0
-12.113735 6.010394 -8.784174 16.125419 -0.460574 2.146876 0.011225 -0.000566 1497010.000000 1 0 0
-14.563835 8.334294 -0.081074 16.780117 -0.519772 1.575628 0.027866 -0.002741 1668870.000000 1 0 0
-15.041835 11.937594 3.659726 19.548825 -0.670842 1.382476 0.024481 -0.011630 2108820.000000 1 0 0
-17.266435 4.116994 -4.213474 18.243706 -0.234069 1.803855 0.019067 -0.001443 -665072.000000 1 0 0
-13.896435 13.493494 -0.809474 19.386607 -0.770688 1.612563 0.039345 -0.008889 -1183340.000000 1 0 0
-10.053235 6.833694 -13.069874 17.849048 -0.597006 2.392409 0.003526 -0.007571 711633.000000 1 0 0
-15.849635 -1.067306 -8.415874 17.977125 0.067238 2.057985 0.020947 -0.008121 351133.000000 1 0 0
-11.545735 11.926894 -0.173074 16.600746 -0.801635 1.581222 0.030306 -0.008669 -815518.000000 1 0 0
-11.933335 7.380394 -0.925174 14.061673 -0.553889 1.636638 0.005927 0.000976 1124360.000000 1 0 0
-11.399935 0.073594 -11.742974 16.366471 -0.006456 2.371006 0.018329 -0.005626 395073.000000 1 0 0
-19.243335 -1.150306 -4.901474 19.891043 0.059706 1.819777 0.034833 -0.001977 97887.400000 1 0 0
-17.963135 1.496494 -5.302074 18.788979 -0.083117 1.856873 0.015479 0.002491 -1307440.000000 1 0 0
-13.322835 -0.059806 -9.582874 16.411368 0.004489 2.194341 0.022168 -0.005052 701544.000000 1 0 0
-6.125435 11.256894 -13.315074 18.480525 -1.072456 2.375308 -0.001524 -0.000145 -1779780.000000 1 0 0
16.384465 5.789294 7.037926 18.748307 0.339648 1.185979 0.026093 -0.002033 657151.000000 1 0 0
14.936165 10.097194 -5.400374 18.820371 0.594452 1.861830 0.045586 -0.014347 -42786.300000 1 0 0
2.427465 16.819094 4.481726 17.574424 1.427458 1.312934 0.011267 -0.010136 2618880.000000 1 0 0
-3.878935 18.180094 -5.843974 19.486251 -1.360587 1.875387 -0.002181 -0.007821 -107372.000000 1 0 0
5.535965 14.515694 5.771426 16.572918 1.206446 1.215099 0.010257 -0.007688 -1401060.000000 1 0 0
9.853865 5.969794 15.153326 19.035766 0.544697 0.650064 0.022076 0.001388 -1400780.000000 1 0 0
4.643065 12.731694 -1.162974 13.601712 1.221099 1.656403 0.003730 -0.002587 1929700.000000 1 0 0
3.388665 13.770894 13.035226 19.262338 1.329516 0.827497 0.003508 -0.001393 -1401540.000000 1 0 0
-0.783935 12.410494 9.189826 15.462465 -1.507713 0.934362 0.003804 -0.001127 -149545.000000 1 0 0
-7.719035 13.965994 8.389926 18.028404 -1.065881 1.086741 0.015465 -0.018875 -1021760.000000 1 0 0
11.404765 12.901994 -4.195874 17.723867 0.846918 1.809801 0.031323 -0.007517 -1464170.000000 1 0 0
-5.840835 16.181894 0.738526 17.219595 -1.224401 1.527894 0.008962 -0.004376 1298030.000000 1 0 0
3.278565 10.589594 6.804626 13.007360 1.270553 1.020269 -0.002352 0.001926 1184400.000000 1 0 0
-1.209035 15.610594 2.453726 15.848444 -1.493501 1.415347 0.003890 -0.003529 -1821440.000000 1 0 0
9.919365 8.826194 9.572526 16.368529 0.727148 0.946147 0.005191 0.000242 1742300.000000 1 0 0
7.258665 12.191594 6.253026 15.505596 1.033779 1.155703 0.003540 -0.001376 -1169870.000000 1 0 0
11.814865 14.037994 -1.506974 18.409977 0.871179 1.652744 0.026267 -0.004317 -417979.000000 1 0 0
9.660965 15.956194 -1.185974 18.690663 1.026366 1.634292 0.024007 -0.001966 -579741.000000 1 0 0
10.030065 13.756494 3.010526 17.288915 0.940796 1.395774 0.015830 0.003847 2627720.000000 1 0 0
-6.080335 14.608794 6.272226 17.021403 -1.176394 1.193412 0.002158 -0.007545 -520178.000000 1 0 0
-0.983635 18.207794 -6.224674 19.267534 -1.516826 1.899763 0.007995 0.004626 2638090.000000 1 0 0
-3.600435 15.682394 5.414026 16.976816 -1.345123 1.246220 0.004286 -0.007325 1014890.000000 1 0 0
7.035165 12.328594 10.519026 17.667418 1.052246 0.933044 -0.002088 0.000818 2447320.000000 1 0 0
1.521665 14.538094 6.277626 15.908495 1.466509 1.165155 0.003488 -0.006145 1824760.000000 1 0 0
17.530265 7.765894 -1.507174 19.232547 0.417017 1.649243 0.012599 0.008330 1450770.000000 1 0 0
2.077165 16.292094 -3.366174 16.765383 1.443985 1.772952 0.002958 0.001920 1721880.000000 1 0 0
6.718565 11.184494 0.538226 13.058396 1.029860 1.529568 0.005703 -0.001344 1640940.000000 1 0 0
12.715765 9.270994 3.211526 16.061005 0.629987 1.369481 0.006941 0.005505 -566911.000000 1 0 0
5.978065 14.282694 -3.482074 15.870017 1.174399 1.792008 0.003777 -0.001737 396994.000000 1 0 0
3.116965 16.400794 1.657026 16.776389 1.382986 1.471864 0.007134 -0.013870 -2001090.000000 1 0 0
2.781965 18.986794 -2.508174 19.352741 1.425311 1.700765 0.003561 -0.003133 -1620830.000000 1 0 0
3.965765 12.009894 10.731826 16.587252 1.251861 0.867163 0.003123 -0.002734 2049130.000000 1 0 0
8.028565 11.544994 3.425526 14.473388 0.963154 1.331852 0.000742 0.001073 1031720.000000 1 0 0
0.825465 12.536994 0.322226 12.568271 1.505049 1.545155 0.004844 -0.001771 -1626130.000000 1 0 0
12.046565 9.969094 -4.655274 16.314844 0.691313 1.860157 0.022116 -0.004792 150467.000000 1 0 0
-1.368035 16.540694 9.872926 19.311674 -1.488277 1.034168 0.001830 -0.001594 -1581100.000000 1 0 0
8.057065 14.661094 -8.093174 18.583956 1.068295 2.021382 0.018235 -0.009940 1616190.000000 1 0 0
14.584765 7.555694 -1.387974 16.484245 0.477986 1.655096 0.008027 0.003320 -23046.500000 1 0 0
12.557565 8.275694 5.970726 16.181134 0.582690 1.192871 0.004823 0.003955 -638013.000000 1 0 0
-3.042035 14.236794 10.294326 17.830127 -1.360288 0.955310 0.008387 -0.011710 1348070.000000 1 0 0
-4.582535 17.061794 -3.165274 17.947796 -1.308404 1.748084 0.006291 -0.006170 1091900.000000 1 0 0
-7.121935 16.400794 -1.882974 17.979254 -1.161123 1.675719 0.013429 -0.006331 -426673.000000 1 0 0
8.388065 11.275994 -1.851474 14.175176 0.931219 1.701784 0.013824 -0.002170 -2259280.000000 1 0 0
8.581465 12.975294 -4.171274 16.105878 0.986470 1.832774 0.018354 -0.002112 3629870.000000 1 0 0
2.477465 14.820294 -7.378774 16.739929 1.405161 2.027274 -0.001164 -0.003862 -385883.000000 1 0 0
11.337565 11.320094 9.804526 18.783334 0.784627 1.021626 0.018808 -0.003576 879899.000000 1 0 0
8.592865 15.764894 1.489926 18.016356 1.071751 1.488003 0.015201 -0.000761 -384455.000000 1 0 0
6.049465 9.799794 7.751326 13.882184 1.017749 0.978383 0.003456 0.005857 2618870.000000 1 0 0
14.462965 11.411994 2.723626 18.623348 0.668028 1.424022 0.020163 0.008893 842453.000000 1 0 0
12.137765 12.687694 1.167626 17.597336 0.807546 1.504395 0.023118 0.004513 3367990.000000 1 0 0
5.179665 15.909194 8.278926 18.667404 1.256043 1.111300 0.017359 -0.004690 194061.000000 1 0 0
11.482465 15.044794 5.120526 19.606443 0.918889 1.306567 0.027733 0.003321 1181150.000000 1 0 0
5.956765 16.691494 1.841826 17.818006 1.228011 1.467243 0.002972 -0.012642 -419226.000000 1 0 0
-0.685735 16.195494 -4.169974 16.737769 -1.528480 1.822584 0.000396 0.001752 -298363.000000 1 0 0
16.056765 6.444394 2.485026 17.479281 0.381670 1.428143 -0.002427 0.006456 136846.000000 1 0 0
7.668765 16.685494 -3.214774 18.642704 1.139982 1.744104 0.005891 -0.002781 1653400.000000 1 0 0
14.850965 8.185394 7.483526 18.535236 0.503740 1.155189 0.022151 0.002257 158366.000000 1 0 0
2.046565 12.891794 8.638426 15.652769 1.413361 0.986181 0.002784 -0.003081 1242030.000000 1 0 0
16.111065 7.365594 -5.893674 18.669595 0.428806 1.891973 0.029258 -0.003788 1430520.000000 1 0 0
-3.030235 17.117894 0.680226 17.397336 -1.395590 1.531687 0.001641 -0.002514 2159250.000000 1 0 0
-2.899235 18.604094 4.707126 19.408114 -1.416201 1.325819 -0.002836 -0.003402 1554650.000000 1 0 0
-0.874335 19.098594 0.942926 19.141835 -1.525048 1.521516 -0.001502 -0.007567 -656229.000000 1 0 0
6.934265 16.676894 -6.100774 19.063637 1.176743 1.896549 0.011182 -0.004650 1423570.000000 1 0 0
11.103065 10.100794 0.819426 15.032483 0.738165 1.516259 0.010557 0.003038 -655201.000000 1 0 0
9.230465 8.636294 14.245026 19.044889 0.752155 0.725796 0.023129 -0.005797 1622370.000000 1 0 0
6.251465 12.376394 -8.356974 16.189346 1.103068 2.113207 0.018594 -0.011632 1934200.000000 1 0 0
6.403965 8.999794 13.322726 17.306128 0.952349 0.692226 0.009849 -0.003368 452277.000000 1 0 0
16.689865 9.447994 2.874726 19.392788 0.515114 1.422011 0.010836 0.003330 283960.000000 1 0 0
2.616565 14.691594 -0.788074 14.943574 1.394545 1.623557 0.003861 -0.003714 302264.000000 1 0 0
9.133365 12.877294 8.290826 17.832017 0.953882 1.087229 0.009901 -0.007164 1989510.000000 1 0 0
7.155365 9.391494 10.505426 15.803904 0.919724 0.843656 0.001093 -0.000586 1947000.000000 1 0 0
4.264165 15.780094 -5.316474 17.188931 1.306875 1.885249 0.010199 -0.001995 1739580.000000 1 0 0
0.139665 16.379694 -8.165574 18.302745 1.562270 2.033243 -0.001785 0.001796 238578.000000 1 0 0
-2.386635 15.708694 -1.930274 16.005781 -1.420019 1.691689 -0.005781 0.001453 547522.000000 1 0 0
13.240365 10.439394 7.616026 18.501136 0.667660 1.146531 0.015925 -0.006091 2827910.000000 1 0 0
-1.007935 15.783594 7.015826 17.302011 -1.507023 1.153279 0.005592 -0.010065 3437870.000000 1 0 0
13.223165 13.333094 6.694226 19.935800 0.789538 1.228353 0.026278 -0.001392 -1051520.000000 1 0 0
5.408065 17.362894 4.627926 18.765259 1.268848 1.321603 0.013944 -0.011506 585321.000000 1 0 0
10.821765 9.534094 -1.904774 14.547773 0.722224 1.702106 0.010761 0.003716 474274.000000 1 0 0
3.329065 12.724194 4.809426 14.004226 1.314900 1.220233 0.001414 -0.000941 1245960.000000 1 0 0
-0.140635 18.080994 3.575126 18.431593 -1.563018 1.375592 0.003235 -0.009927 2917530.000000 1 0 0
-7.747435 15.844294 -5.885674 18.593159 -1.116009 1.892887 0.028559 -0.014284 -540077.000000 1 0 0
-12.410835 -9.162106 8.234526 17.486579 0.635929 1.080479 0.017512 -0.007959 754711.000000 1 0 0
-13.200635 -11.736806 6.863026 18.950212 0.726765 1.200211 0.019739 -0.004618 -383863.000000 1 0 0
-6.528635 -12.488206 12.220926 18.652866 1.089088 0.856380 0.018208 -0.005957 -1535580.000000 1 0 0
-1.915035 -10.650106 14.354026 17.975822 1.392884 0.645966 -0.000874 -0.004696 1513380.000000 1 0 0
-8.968935 2.858894 10.957726 14.445997 -0.308573 0.709742 0.003608 -0.001215 2430300.000000 1 0 0
0.574965 9.965094 15.110026 18.109295 1.513162 0.583790 0.015201 -0.015664 368649.000000 1 0 0
0.960065 -6.832306 16.565426 17.944790 -1.431192 0.394646 0.012006 -0.015023 1490060.000000 1 0 0
6.051165 2.196694 17.776426 18.906173 0.348226 0.347449 0.028786 -0.013539 1771450.000000 1 0 0
-5.163635 -2.958106 17.542626 18.524504 0.520234 0.327045 0.024551 -0.014874 437464.000000 1 0 0
-4.350935 8.279194 13.061226 16.064598 -1.086937 0.621435 0.012124 -0.005797 326702.000000 1 0 0
0.056665 -4.967506 18.552026 19.205650 -1.559390 0.261640 0.020650 -0.020694 842934.000000 1 0 0
-11.805235 2.105094 11.125826 16.357842 -0.176464 0.822826 0.007750 -0.004133 -108148.000000 1 0 0
-3.391935 -6.099906 14.341726 15.949896 1.063310 0.452919 0.013933 -0.009899 2147130.000000 1 0 0
-7.446835 -2.282006 14.504126 16.463067 0.297354 0.492804 0.013768 -0.007017 1116270.000000 1 0 0
-6.136835 -1.131806 10.589126 12.291108 0.182379 0.532526 0.007877 -0.003525 1132570.000000 1 0 0
-3.963135 2.408794 11.095026 12.025321 -0.546135 0.395929 0.009154 -0.000658 118180.000000 1 0 0
-6.484735 6.351194 13.517126 16.281958 -0.774995 0.591347 0.005249 -0.004909 30807.700000 1 0 0
-9.059235 5.492994 12.514226 16.396603 -0.545070 0.702513 0.000271 -0.006475 772372.000000 1 0 0
-12.334535 -2.204206 15.695226 20.083312 0.176835 0.673720 0.026213 -0.008733 1252250.000000 1 0 0
-3.537735 -7.725206 16.886726 18.903860 1.141353 0.466173 0.023616 -0.010303 -533356.000000 1 0 0
-0.530335 -5.398206 14.360726 15.350972 1.472868 0.361145 0.008669 -0.006523 1859790.000000 1 0 0
-14.361235 -2.291106 13.538926 19.869494 0.158201 0.821133 0.032396 -0.011084 -376685.000000 1 0 0
-6.533535 1.465094 12.055226 13.789926 -0.220593 0.507000 0.008070 -0.002526 3026390.000000 1 0 0
2.200665 -2.210106 14.533326 14.864221 -0.787539 0.211397 0.005579 -0.002413 -27601.400000 1 0 0
-12.712235 4.030094 9.101426 16.145542 -0.307002 0.971924 -0.004504 -0.000637 -1373350.000000 1 0 0
-9.073635 -3.113806 12.538626 15.787457 0.330578 0.653083 0.000661 0.000614 498873.000000 1 0 0
-7.196735 -7.273306 15.189326 18.314192 0.790690 0.592809 0.019599 -0.007404 -1531800.000000 1 0 0
-3.121235 6.044894 19.338126 20.499902 -1.094160 0.338277 0.031119 -0.014382 911460.000000 1 0 0
0.626565 5.455094 16.069226 16.981480 1.456439 0.329267 0.017966 -0.010651 1255470.000000 1 0 0
3.404765 1.465394 16.795726 17.199890 0.406431 0.217213 0.010813 -0.009455 1717210.000000 1 0 0
-11.717835 11.516094 7.789826 18.182669 -0.776715 1.128052 0.005455 -0.009453 -1341400.000000 1 0 0
0.505165 -9.510606 15.416426 18.121066 -1.517730 0.553393 -0.002874 -0.003297 -97524.700000 1 0 0
-2.607435 -3.648106 18.778526 19.306487 0.950248 0.234401 0.026744 -0.023267 2725730.000000 1 0 0
-12.922735 2.387994 13.725826 19.002576 -0.182729 0.763654 0.003069 -0.010064 348398.000000 1 0 0
-5.508935 -0.600706 15.669726 16.620756 0.108613 0.339922 0.018235 -0.004498 866956.000000 1 0 0
-4.469935 -6.010606 11.682526 13.877649 0.931356 0.570144 0.003926 -0.000803 -118138.000000 1 0 0
2.446665 1.846994 13.978026 14.310233 0.646631 0.215894 0.006856 -0.003990 -163450.000000 1 0 0
0.044265 3.296794 14.215526 14.592875 1.557371 0.227906 0.013545 -0.005438 1331670.000000 1 0 0
-13.167335 6.933894 12.170226 19.224256 -0.484699 0.885289 0.007934 -0.004643 963526.000000 1 0 0
0.861465 1.394594 18.176926 18.250689 1.017451 0.089938 0.015780 -0.010808 313090.000000 1 0 0
-2.134335 6.494594 12.500526 14.247747 -1.253282 0.500446 0.008713 -0.006571 264974.000000 1 0 0
-13.516035 -2.674206 10.872226 17.551065 0.195332 0.902739 0.023955 -0.007763 -196464.000000 1 0 0
-2.625235 3.637194 13.440426 14.169195 -0.945605 0.322119 0.011664 -0.004041 -12665.600000 1 0 0
3.525065 6.084394 16.275726 17.729782 1.045690 0.407819 0.010948 -0.007127 1370030.000000 1 0 0
-3.763935 12.426794 12.387626 17.945631 -1.276691 0.808911 0.013431 -0.008737 294363.000000 1 0 0
3.694965 -1.541406 17.061626 17.525062 -0.395215 0.230484 0.016691 -0.011549 1723020.000000 1 0 0
-15.862535 0.336294 9.173226 18.327062 -0.021197 1.046587 0.030759 -0.006264 -27737.900000 1 0 0
-4.815135 4.579194 15.066626 16.466869 -0.760288 0.415373 0.018736 -0.009411 1054890.000000 1 0 0
-8.029635 -8.178106 10.433126 15.498600 0.794558 0.832315 0.006203 -0.006155 3095460.000000 1 0 0
-2.692635 -0.550406 14.691726 14.946573 0.201634 0.184928 0.012534 -0.003749 3377230.000000 1 0 0
-1.855235 0.914894 17.099626 17.224289 -0.458146 0.120386 0.012249 -0.012095 2724540.000000 1 0 0
-0.706335 -2.491306 14.372126 14.603545 1.294526 0.178263 0.012048 -0.002304 306514.000000 1 0 0
5.040365 -8.281106 16.510226 19.146006 -1.024035 0.530938 0.011799 -0.009840 396527.000000 1 0 0
-4.587435 10.048494 10.639926 15.337041 -1.142526 0.804127 0.009581 -0.008042 -1139510.000000 1 0 0
-6.325835 2.167694 15.120826 16.533435 -0.330133 0.416376 0.018090 -0.004711 1213900.000000 1 0 0
-4.942435 6.757994 17.128826 19.065540 -0.939341 0.454643 0.021347 -0.007580 -312007.000000 1 0 0
-4.221035 9.237894 15.813826 18.794492 -1.142198 0.570914 0.022394 -0.005492 -496453.000000 1 0 0
-4.921335 -9.888606 18.055426 21.166069 1.109009 0.549020 0.046614 -0.018478 -285330.000000 1 0 0
-6.854135 -4.155806 11.080626 13.675898 0.545054 0.626251 0.003161 0.001444 1497120.000000 1 0 0
-2.423535 -0.835206 19.440926 19.609199 0.331877 0.131100 0.019214 -0.015812 127307.000000 1 0 0
-5.739535 -4.576506 15.218026 16.896005 0.673132 0.449446 0.014136 -0.008029 870421.000000 1 0 0
-12.959035 -0.033306 9.667626 16.167891 0.002570 0.929853 0.008604 -0.003558 599012.000000 1 0 0
-14.525235 8.832194 10.435126 19.946979 -0.546324 1.020261 -0.001271 -0.001623 -1749350.000000 1 0 0
-8.561935 10.487394 12.840626 18.659417 -0.886134 0.811849 0.006418 -0.015774 305790.000000 1 0 0
-10.593135 7.150094 10.736326 16.691526 -0.593732 0.872100 0.001329 -0.003211 -3018.820000 1 0 0
-9.973235 -6.492306 14.783126 18.977784 0.577059 0.677775 0.024695 -0.007247 315237.000000 1 0 0
-0.779435 -13.434606 14.423926 19.726779 1.512844 0.750739 -0.003345 -0.010897 -632269.000000 1 0 0
3.809765 -5.688006 16.877626 18.213237 -0.980635 0.385347 0.009651 -0.016500 3082560.000000 1 0 0
-7.402335 9.402994 10.406126 15.858699 -0.903890 0.855054 0.007192 -0.008924 1158220.000000 1 0 0
-10.267535 -6.731606 11.774326 17.010925 0.580316 0.806315 0.019037 -0.006013 1010310.000000 1 0 0
-11.001835 -4.026006 10.664126 15.842118 0.350804 0.832336 0.013519 -0.001362 672522.000000 1 0 0
-10.048135 -10.312806 9.826526 17.432143 0.798396 0.971936 0.013945 -0.008621 1193240.000000 1 0 0
-9.866735 -3.649706 15.222726 18.504168 0.354292 0.604714 0.022691 -0.010082 1556810.000000 1 0 0
5.632265 -3.384206 16.140126 17.426386 -0.541052 0.386620 0.013571 -0.010332 2091140.000000 1 0 0
-11.351635 0.429794 15.252526 19.017989 -0.037844 0.640152 0.018288 -0.010428 223212.000000 1 0 0
-3.117135 3.188494 18.569726 19.097585 -0.796714 0.235662 0.020109 -0.018681 381904.000000 1 0 0
0.472465 7.284794 13.801126 15.612896 1.506031 0.486538 0.014284 -0.010457 583874.000000 1 0 0
-13.058135 -7.422206 12.194226 19.346917 0.516858 0.888866 0.012323 -0.008476 -766706.000000 1 0 0
-1.537235 -1.117506 12.088826 12.237305 0.628591 0.155935 0.007638 -0.002563 1651970.000000 1 0 0
1.992465 -4.848906 13.137326 14.144651 -1.180920 0.379678 0.000095 -0.003221 369275.000000 1 0 0
-14.660535 -4.076106 8.592726 17.475151 0.271183 1.056743 0.027482 -0.012365 -426600.000000 1 0 0
8.122665 0.827294 16.167526 18.112178 0.101500 0.467644 0.027197 -0.011785 420931.000000 1 0 0
-1.317635 11.224594 13.344526 17.487254 -1.453943 0.702700 0.007326 -0.011091 1797280.000000 1 0 0
2.805665 -12.347606 -13.828474 18.749982 -1.347367 2.400186 0.004603 0.009865 -577071.000000 1 0 0
0.795465 -10.766706 -14.002574 17.681256 -1.497048 2.484783 -0.006677 0.011460 -2141840.000000 1 0 0
3.328265 -14.488606 -12.425074 19.374713 -1.344998 2.266992 0.007444 0.009871 -481389.000000 1 0 0
-5.094935 -10.247606 -16.098774 19.752021 1.109405 2.523602 0.006497 -0.010212 -416281.000000 1 0 0
-1.180635 -12.087006 -15.140174 19.409134 1.473427 2.465549 0.011509 0.003568 160677.000000 1 0 0
5.822265 -14.997606 -12.070674 20.112885 -1.200492 2.214480 0.004827 0.005054 -86089.900000 1 0 0
1.943365 -11.904006 -16.162374 20.166913 -1.408971 2.500479 0.009439 0.008335 -465355.000000 1 0 0
1.293465 -14.433506 -14.049274 20.183688 -1.481420 2.340706 0.023903 0.009186 -150504.000000 1 0 0
-1.158835 -10.572406 -15.865474 19.100574 1.461623 2.551031 -0.002236 -0.001665 -383233.000000 1 0 0
-6.082835 -5.621806 -15.116674 17.237152 0.746030 2.640342 0.014501 0.004764 66921.100000 1 0 0
-6.283635 -7.705106 -16.739374 19.469447 0.886666 2.605628 0.010435 0.006850 450336.000000 1 0 0
4.938965 -12.482406 -11.512674 17.684612 -1.194025 2.279697 -0.003633 0.006055 -186218.000000 1 0 0
-1.796935 -15.436006 -13.197074 20.387791 1.454906 2.274837 0.029559 0.000682 -452677.000000 1 0 0
15.792065 -7.352606 -8.980574 19.598491 -0.435742 2.046797 0.037595 -0.003113 475950.000000 1 0 0
19.369265 -3.506306 -4.363874 20.161994 -0.179085 1.788963 0.048690 -0.016354 804313.000000 1 0 0
14.924265 -11.539606 -8.858374 20.841473 -0.658191 2.009798 0.043571 -0.016802 589519.000000 1 0 0
17.786265 -3.668006 -6.426774 19.264187 -0.203376 1.910929 0.046860 -0.009128 469574.000000 1 0 0
9.657465 -9.132306 -15.308474 20.273505 -0.757456 2.426599 0.058944 -0.023090 143195.000000 1 0 0
1.246265 1.870194 -15.272574 15.437044 0.982990 2.995489 0.009152 -0.008558 -305473.000000 1 0 0
4.875365 -4.294806 -14.040574 15.471013 -0.722173 2.708187 0.007035 -0.003798 138854.000000 1 0 0
13.037465 -5.334406 -8.579074 16.493389 -0.388378 2.117826 0.026530 -0.007128 -1462650.000000 1 0 0
2.990265 0.926094 -12.149374 12.546179 0.300335 2.889419 0.001316 -0.005418 -3079890.000000 1 0 0
0.712865 6.261294 -12.893774 14.351355 1.457432 2.686991 0.006612 -0.004965 -493096.000000 1 0 0
3.176865 -1.089606 -16.826574 17.158476 -0.330409 2.944585 0.022230 -0.008058 -78189.900000 1 0 0
13.203465 4.421494 -11.320574 17.945375 0.323136 2.253425 0.015688 -0.009624 926812.000000 1 0 0
-3.723235 9.406594 -16.581974 19.424426 -1.193906 2.593781 0.012332 0.001784 -164865.000000 1 0 0
-0.091735 -5.078406 -17.637674 18.354459 1.552734 2.861203 0.010589 -0.007668 484905.000000 1 0 0
-0.585735 -8.624606 -17.624074 19.629949 1.502986 2.685580 -0.000341 -0.001453 243679.000000 1 0 0
5.616065 -10.079806 -12.169374 16.770103 -1.062473 2.382788 0.001234 0.001127 251478.000000 1 0 0
1.728865 -9.805906 -18.047174 20.611775 -1.396281 2.637423 0.011881 -0.011181 -524313.000000 1 0 0
10.865665 8.574194 -14.446674 20.007145 0.668065 2.377594 0.030502 -0.018423 -58227.000000 1 0 0
10.914465 -3.647706 -12.733374 17.163045 -0.322538 2.406706 0.016992 -0.013246 625201.000000 1 0 0
4.793165 7.269394 -12.055874 14.871537 0.987868 2.516088 -0.008490 -0.002826 -589092.000000 1 0 0
9.709065 -5.861106 -12.579574 16.937065 -0.543116 2.407926 0.023442 -0.014042 -976556.000000 1 0 0
-3.268935 0.299494 -15.891574 16.227069 -0.091363 2.937894 0.013196 -0.007790 -3228530.000000 1 0 0
-0.840335 10.821094 -12.782074 16.768531 -1.493295 2.437602 -0.001349 -0.000971 -3160440.000000 1 0 0
6.675265 -5.416106 -12.540374 15.203761 -0.681635 2.540681 0.010128 -0.007130 -303535.000000 1 0 0
17.872265 -6.225506 -8.088974 20.581697 -0.335189 1.974708 0.040450 -0.009219 -14235.900000 1 0 0
12.989065 4.800794 -13.949474 19.655819 0.354030 2.359850 0.014151 -0.010281 299627.000000 1 0 0
14.088365 0.914694 -11.431574 18.165890 0.064834 2.251433 0.013262 -0.002018 -91634.300000 1 0 0
15.136065 6.167894 -11.003974 19.703573 0.386952 2.163344 0.033094 -0.016470 179517.000000 1 0 0
8.267865 1.417494 -11.610874 14.324080 0.169795 2.515945 -0.006638 0.001398 398166.000000 1 0 0
9.913065 1.268694 -8.873174 13.364567 0.127290 2.296862 -0.002228 0.000105 468508.000000 1 0 0
-0.115635 -5.754306 -13.030874 14.245318 1.550704 2.725680 -0.003561 -0.001228 134288.000000 1 0 0
10.558665 -5.773906 -8.999274 15.026987 -0.500414 2.212891 0.018349 -0.007940 -782331.000000 1 0 0
10.316265 8.434694 -11.159274 17.380989 0.685388 2.267951 0.023527 -0.015334 1150650.000000 1 0 0
8.342665 8.110394 -14.600874 18.669870 0.771282 2.468754 0.022612 -0.006276 403967.000000 1 0 0
8.582965 10.462594 -10.701674 17.252796 0.883771 2.239904 0.026300 -0.013835 -797728.000000 1 0 0
7.091965 1.705794 -17.922474 19.349955 0.236041 2.755077 0.026984 0.002849 -266439.000000 1 0 0
12.033365 2.616594 -12.723374 17.706854 0.214112 2.372521 0.009190 -0.006095 -1998380.000000 1 0 0
2.585965 -0.802306 -19.361674 19.550072 -0.300838 3.002652 0.034333 -0.017358 -871020.000000 1 0 0
10.509765 -2.194606 -15.481974 18.840461 -0.205858 2.535255 0.033389 -0.006895 -264012.000000 1 0 0
8.443665 -0.874506 -13.037874 15.557840 -0.103202 2.564452 0.004461 -0.000587 2100370.000000 1 0 0
0.499865 4.323594 -14.624974 15.258872 1.455694 2.852339 0.006365 -0.005912 278968.000000 1 0 0
3.941365 -7.534406 -15.620974 17.785288 -1.088828 2.643109 0.010870 -0.011032 -1116250.000000 1 0 0
11.696965 -5.736606 -14.189474 19.263146 -0.455967 2.398844 0.039876 -0.018408 -1023760.000000 1 0 0
-5.893735 4.276094 -16.916774 18.417338 -0.627657 2.735128 0.011230 -0.002696 -376202.000000 1 0 0
11.414865 7.727294 -9.037974 16.483178 0.595088 2.151144 0.024289 -0.011590 -294097.000000 1 0 0
9.487665 6.140894 -13.321574 17.469708 0.574440 2.438046 0.006323 -0.000894 284993.000000 1 0 0
12.074865 0.617094 -10.089474 15.747401 0.051061 2.266215 0.010001 0.002605 -2831760.000000 1 0 0
5.528965 -7.229706 -13.768874 16.505150 -0.917918 2.557507 0.006823 -0.006997 -531787.000000 1 0 0
8.644665 -10.103806 -10.669674 17.048726 -0.863069 2.246997 0.013035 -0.005414 -118747.000000 1 0 0
9.753565 5.087994 -16.075874 19.479564 0.480821 2.541474 0.017248 0.007343 -706524.000000 1 0 0
9.938565 -0.424806 -10.896574 14.754350 -0.042717 2.401688 0.002461 -0.001845 -649915.000000 1 0 0
-1.649635 5.583794 -14.014774 15.176097 -1.283535 2.747843 0.006500 -0.008993 479808.000000 1 0 0
1.314365 -0.714206 -14.953574 15.028207 -0.497751 3.041890 0.010368 -0.008193 135178.000000 1 0 0
11.546965 -10.479206 -14.169174 21.069211 -0.736959 2.308386 0.060954 -0.015978 383892.000000 1 0 0
9.310865 -7.708406 -10.768874 16.188897 -0.691519 2.298560 0.021232 -0.009572 58409.500000 1 0 0
14.135365 -0.921506 -9.646074 17.137808 -0.065099 2.168630 0.018570 0.000818 1133420.000000 1 0 0
3.941465 11.147494 -12.170074 16.967983 1.230941 2.370626 0.011793 -0.011045 -1255060.000000 1 0 0
-1.324335 2.907294 -16.775974 17.077457 -1.143360 2.953412 0.010665 -0.011219 -17030.400000 1 0 0
6.116865 -0.629306 -17.502974 18.551716 -0.102520 2.803742 0.019546 -0.006901 -234533.000000 1 0 0
6.342565 -6.486906 -16.194874 18.562921 -0.796648 2.630952 0.018699 -0.007711 429497.000000 1 0 0
-1.675635 -5.263006 -19.742974 20.501025 1.262564 2.868806 0.013853 -0.013002 -242193.000000 1 0 0
0.031465 -4.264406 -15.167774 15.755872 -1.563418 2.867512 0.005545 -0.004830 -47433.100000 1 0 0
0.523665 0.652594 -12.996774 13.023680 0.894572 3.077302 0.007422 -0.010145 316302.000000 1 0 0
15.405065 0.543194 -13.657574 20.594669 0.035246 2.295830 0.015967 -0.009972 734191.000000 1 0 0
-0.155235 7.012794 -16.254074 17.703059 -1.548664 2.734184 0.015219 -0.002782 -783503.000000 1 0 0
-5.360935 -0.449606 -18.348974 19.121365 0.083671 2.856394 0.022744 -0.001532 -284164.000000 1 0 0
10.494665 -8.335506 -12.964574 18.646684 -0.671232 2.339599 0.032215 -0.021655 1103220.000000 1 0 0
4.212265 8.541394 -17.041474 19.522049 1.112637 2.631982 0.017532 -0.011192 -412063.000000 1 0 0
9.112565 0.383494 -16.689574 19.019142 0.042059 2.641451 0.016593 -0.007653 -492872.000000 1 0 0
3.186865 4.933894 -18.550874 19.458529 0.997300 2.834957 0.018890 -0.001022 -275550.000000 1 0 0
1.455265 -8.262906 -15.955374 18.026851 -1.396464 2.657482 -0.003045 -0.005266 625482.000000 1 0 0
4.595965 7.617894 -14.680174 17.165742 1.027945 2.596736 0.002728 -0.004632 386758.000000 1 0 0
-5.651235 -0.414706 -15.070474 16.100547 0.073252 2.781949 0.005864 -0.005421 -238148.000000 1 0 0
2.809565 3.279794 -13.713974 14.377892 0.862467 2.836515 0.000563 -0.001766 1357890.000000 1 0 0
-2.459435 -10.321006 -18.069174 20.953927 1.336865 2.610647 0.000629 -0.001588 -229805.000000 1 0 0
6.096065 -9.032306 -15.625074 19.049606 -0.977103 2.532611 0.008023 -0.004571 -55499.400000 1 0 0
-1.819335 5.440294 -17.389374 18.311120 -1.248069 2.822951 0.013541 -0.001235 697649.000000 1 0 0
10.076265 -12.027106 -11.578074 19.499595 -0.873430 2.206520 0.035471 -0.012007 101468.000000 1 0 0
10.807765 3.633694 -9.306974 14.718399 0.324339 2.255361 0.001270 -0.002393 -1514460.000000 1 0 0
4.916565 -0.570206 -10.935274 12.003248 -0.115461 2.716562 0.003020 -0.005941 594051.000000 1 0 0
6.210565 9.513694 -11.407174 16.099848 0.992453 2.358205 0.009721 -0.009672 134892.000000 1 0 0
10.898865 -9.419206 -9.442374 17.223969 -0.712702 2.151020 0.030602 -0.010264 -593906.000000 1 0 0
3.195565 -2.428906 -14.565374 15.108320 -0.649925 2.872690 0.010309 -0.006659 -8737.350000 1 0 0
9.405365 -4.528406 -14.749074 18.069381 -0.448715 2.525680 0.035820 -0.011649 162444.000000 1 0 0
-4.006735 -6.411106 -16.560474 18.204546 1.012220 2.713331 -0.001324 0.000326 -494071.000000 1 0 0
5.863965 -7.689006 -11.298774 14.871758 -0.919253 2.433720 -0.000545 -0.002288 71322.000000 1 0 0
5.383765 6.263094 -16.761574 18.685867 0.860754 2.683774 0.012293 -0.009845 -1698350.000000 1 0 0
9.304465 1.044994 -19.206874 21.367477 0.111842 2.688011 0.057131 -0.019143 568995.000000 1 0 0
13.150165 5.728794 -9.294574 17.091957 0.410852 2.145753 0.009479 -0.006837 905162.000000 1 0 0
-1.528935 -0.705306 -17.309174 17.390877 0.432216 3.044621 0.016739 -0.008647 815143.000000 1 0 0
-0.341935 -0.641706 -19.602174 19.615655 1.081213 3.104516 0.028879 -0.014544 -723961.000000 1 0 0
2.829765 6.414994 -16.379874 17.817407 1.155354 2.737142 0.007488 -0.002082 315467.000000 1 0 0
7.616265 3.711194 -15.587574 17.741277 0.453414 2.643729 0.010545 0.004351 -241267.000000 1 0 0
3.073465 -9.951206 -14.880374 18.163101 -1.271237 2.530923 0.002164 0.001948 -287082.000000 1 0 0
9.026565 -10.428406 -13.248974 19.125006 -0.857330 2.336101 0.030454 -0.012133 -494950.000000 1 0 0
3.874665 0.122894 -14.771474 15.271692 0.031707 2.884941 0.008155 -0.006628 -1753930.000000 1 0 0
-1.183935 -2.956306 -18.843574 19.110775 1.189878 2.974175 0.027525 -0.010886 317469.000000 1 0 0
9.209865 10.085694 -13.057274 18.895376 0.830757 2.333710 0.031184 -0.015611 259677.000000 1 0 0
4.612165 2.025194 -10.655874 11.786480 0.413751 2.700009 -0.001514 -0.001097 165261.000000 1 0 0
-0.243135 7.046494 -18.867374 20.141747 -1.536306 2.783965 0.034247 -0.000130 -215967.000000 1 0 0
0.834765 -1.874706 -17.686074 17.804734 -1.151877 3.026077 0.028054 -0.012843 -2545160.000000 1 0 0
-4.379835 -2.291906 -14.018374 14.864407 0.482102 2.802579 0.008067 -0.007264 -3567600.000000 1 0 0
9.991665 5.955494 -10.338574 15.562370 0.537507 2.297395 0.009011 -0.001949 124069.000000 1 0 0
7.875965 5.026594 -17.804374 20.107043 0.568049 2.658321 0.023017 -0.000212 -235951.000000 1 0 0
11.428165 0.233094 -13.631174 17.789496 0.020394 2.443778 0.011298 0.006200 370518.000000 1 0 0
6.755965 11.924494 -11.832774 18.106660 1.055327 2.283001 0.025494 -0.019622 -474879.000000 1 0 0
-0.898435 0.564794 -15.054874 15.092230 -0.561213 3.071219 0.014546 -0.009072 -1402290.000000 1 0 0
-4.649335 -2.859806 -19.059274 19.825507 0.551449 2.862665 0.015680 0.003910 208218.000000 1 0 0
5.801465 -11.896206 -13.981474 19.252489 -1.117058 2.383599 0.010403 0.001998 19393.500000 1 0 0
2.206665 -4.816306 -14.068574 15.032995 -1.141173 2.781449 0.003287 -0.002476 1171990.000000 1 0 0
11.704865 2.211894 -15.303274 19.392950 0.186770 2.480164 0.019130 -0.005630 379458.000000 1 0 0
9.656065 2.245894 -13.677974 16.892915 0.228526 2.514415 0.006384 -0.003023 -719579.000000 1 0 0
-2.187135 -4.167206 -16.400574 17.062473 1.087471 2.862143 -0.000200 -0.004719 -1782280.000000 1 0 0
-2.922035 10.214894 -14.320574 17.831466 -1.292180 2.503288 0.005972 -0.002337 -108807.000000 1 0 0
3.439865 5.658994 -13.492374 15.030004 1.024619 2.685308 0.002443 0.001597 -512171.000000 1 0 0
-5.023735 -2.378406 -16.556574 17.464675 0.442170 2.817699 0.006538 -0.002285 272731.000000 1 0 0
-4.317235 6.193194 -13.634574 15.585114 -0.962024 2.635914 0.002010 -0.003537 344941.000000 1 0 0
5.938465 -1.145806 -14.252674 15.482795 -0.190604 2.740280 0.009604 0.001326 -850321.000000 1 0 0
6.840665 -2.970206 -12.683774 14.713767 -0.409636 2.610066 0.007376 -0.007322 1390080.000000 1 0 0
2.915965 -3.174506 -18.335574 18.835435 -0.827823 2.910696 0.028451 -0.019830 -684924.000000 1 0 0
7.414465 -11.976806 -11.959074 18.478031 -1.016474 2.274709 0.008473 0.001114 -792208.000000 1 0 0
-6.229735 -5.489806 -17.767074 19.611642 0.722346 2.704403 0.031157 0.009505 407328.000000 1 0 0
0.406865 8.659894 -12.002174 14.805792 1.523848 2.516041 -0.003869 -0.001216 -152074.000000 1 0 0
0.657765 8.571594 -14.508774 16.864442 1.494209 2.606688 0.007524 0.000591 315882.000000 1 0 0
7.896765 -2.530206 -15.044874 17.178739 -0.310075 2.637855 0.021084 -0.011798 -355536.000000 1 0 0
14.134965 1.535194 -8.851674 16.748319 0.108186 2.127642 0.005675 0.000524 294844.000000 1 0 0
2.779865 10.839894 -14.575774 18.376184 1.319759 2.486823 0.005543 0.000225 -230372.000000 1 0 0
6.180265 1.121094 -15.523374 16.745974 0.179448 2.757107 0.013866 0.002028 373161.000000 1 0 0
16.817865 -5.291306 -10.288674 20.413116 -0.304819 2.099046 0.070173 -0.014985 592129.000000 1 0 0
4.964865 -4.265206 -11.305874 13.063868 -0.709741 2.616806 0.002246 -0.001471 -1219020.000000 1 0 0
9.088665 -3.527306 -17.079574 19.666153 -0.370205 2.622915 0.036385 -0.013433 472910.000000 1 0 0
13.384665 -9.462706 -8.682574 18.549371 -0.615396 2.057912 0.046836 -0.017662 -447665.000000 1 0 0
2.296365 -7.771206 -13.607274 15.837387 -1.283476 2.604474 -0.005706 0.003222 216562.000000 1 0 0
-7.118835 -2.353506 -18.182574 19.667811 0.319291 2.750476 0.023342 -0.000676 19941.100000 1 0 0
-1.401235 -6.475506 -15.759074 17.095147 1.357692 2.743610 -0.000783 0.000643 714095.000000 1 0 0
1.530365 -7.322006 -18.443674 19.902837 -1.364754 2.756293 0.010665 -0.011146 -318376.000000 1 0 0
5.345765 10.990494 -14.374774 18.868022 1.118089 2.436975 0.024169 -0.017628 -351748.000000 1 0 0
5.447265 -3.606206 -17.530374 18.708058 -0.584780 2.784879 0.025227 -0.014547 -597680.000000 1 0 0
3.951065 13.088494 -13.961474 19.540786 1.277622 2.366675 0.020799 -0.018384 -191682.000000 1 0 0
9.216465 10.399594 -15.564074 20.864687 0.845639 2.412761 0.039608 -0.019296 46698.500000 1 0 0
2.475465 3.855694 -16.266974 16.899963 1.000046 2.867034 0.011782 0.000059 252761.000000 1 0 0
16.530465 1.824194 -11.665874 20.314442 0.109909 2.182502 0.027543 -0.002140 83296.500000 1 0 0
10.026465 -3.624306 -10.343574 14.854464 -0.346860 2.341064 0.015483 -0.008145 739458.000000 1 0 0
14.687465 -1.961006 -11.845274 18.970442 -0.132731 2.245168 0.032218 -0.007100 -52802.900000 1 0 0
-2.825535 -8.581006 -16.210574 18.558018 1.252700 2.633158 0.000127 0.007598 -247607.000000 1 0 0
14.045065 8.139694 -8.782874 18.456904 0.525240 2.066736 0.037540 -0.015050 307231.000000 1 0 0
-8.167335 -0.009806 -16.564874 18.468907 0.001201 2.683519 -0.004618 0.003007 -856792.000000 1 0 0
-3.519935 4.169894 -15.961174 16.868225 -0.869720 2.812164 0.010484 -0.004314 583458.000000 1 0 0
15.152165 3.928894 -9.613774 18.369783 0.253708 2.121571 0.023020 -0.006939 393485.000000 1 0 0
5.422065 1.037594 -12.976374 14.101832 0.189079 2.739364 0.001521 -0.000365 781509.000000 1 0 0
7.930665 -7.630606 -12.979974 17.017677 -0.766118 2.438328 0.021188 -0.009562 -2827460.000000 1 0 0
3.231065 -6.107706 -11.948174 13.802272 -1.084208 2.617278 -0.002399 -0.001074 -1151040.000000 1 0 0
-3.235735 3.435894 -18.408474 19.003875 -0.815391 2.890613 0.011382 -0.007947 -266298.000000 1 0 0
0.781865 5.079294 -17.636774 18.370257 1.418063 2.858057 0.021588 -0.013398 -2425040.000000 1 0 0
6.358365 7.171594 -10.104074 13.926696 0.845432 2.382584 -0.004307 -0.000068 211494.000000 1 0 0
9.673765 3.669194 -11.595274 15.540112 0.362529 2.413059 0.003050 -0.000928 -324227.000000 1 0 0
4.516165 1.576294 -17.481474 18.124083 0.335814 2.874506 0.018907 -0.001983 -94218.500000 1 0 0
2.616565 8.017394 -13.080574 15.563625 1.255334 2.568924 0.001270 -0.004904 -2973230.000000 1 0 0
14.379865 -3.498506 -9.728674 17.710651 -0.238655 2.152337 0.029648 -0.004705 -198418.000000 1 0 0
-1.131635 9.390894 -16.168074 18.731687 -1.450871 2.612252 0.013887 0.002244 -1010590.000000 1 0 0
-5.165435 2.056394 -15.714074 16.668611 -0.378873 2.801532 0.009766 -0.006932 457037.000000 1 0 0
4.545165 4.150794 -11.870674 13.371631 0.740078 2.663232 -0.005066 -0.000147 231866.000000 1 0 0
9.361765 2.944594 -17.472074 20.039627 0.304737 2.629817 0.024887 -0.002036 655717.000000 1 0 0
-4.238135 14.307794 -13.507174 20.127556 -1.282819 2.306459 0.005098 0.000826 -269500.000000 1 0 0
15.540365 -4.961606 -7.937774 18.141905 -0.309043 2.023655 0.036614 -0.005574 220368.000000 1 0 0
1.355565 9.027294 -16.988774 19.285954 1.421747 2.648532 0.010547 0.003807 -768556.000000 1 0 0
0.520565 -3.216306 -12.707174 13.118227 -1.410336 2.890597 0.002306 -0.003209 16345.800000 1 0 0
7.500765 3.534094 -13.005074 15.423464 0.440314 2.574006 -0.001382 0.002796 -98851.100000 1 0 0
-2.746435 7.664894 -15.055574 17.116186 -1.226734 2.645839 0.002360 -0.000764 -189315.000000 1 0 0
12.216965 -5.059206 -10.933374 17.157752 -0.392613 2.261690 0.029736 -0.010104 -598404.000000 1 0 0
0.734565 -4.325106 -20.064474 20.538482 -1.402564 2.926333 0.027784 -0.015320 -96920.000000 1 0 0
3.485565 -4.494006 -16.211074 17.179761 -0.911110 2.804181 0.017565 -0.014264 461400.000000 1 0 0
-5.701435 4.137794 -14.372874 16.006474 -0.627797 2.685866 0.002383 -0.004149 374682.000000 1 0 0
12.446665 -7.422106 -9.792774 17.490156 -0.537704 2.165064 0.034161 -0.008652 462465.000000 1 0 0
-2.005735 -1.800206 -15.052374 15.291752 0.731448 2.964420 0.006666 -0.005021 267673.000000 1 0 0
7.033265 5.825894 -14.247974 16.923729 0.691781 2.571578 0.004008 0.000650 -131391.000000 1 0 0
4.016365 -5.529706 -18.535674 19.755507 -0.942620 2.788343 0.028651 -0.018742 71555.000000 1 0 0
7.468665 7.423394 -12.308374 16.198265 0.782358 2.433890 0.004262 -0.005560 126005.000000 1 0 0
12.337965 -2.447106 -10.895174 16.640869 -0.195798 2.284614 0.020626 -0.006889 -1743590.000000 1 0 0
7.575265 -0.893906 -10.623274 13.078136 -0.117460 2.518869 -0.000019 -0.004187 -1805130.000000 1 0 0
5.350065 3.885494 -14.441174 15.882939 0.628128 2.712216 -0.001251 0.004174 1076410.000000 1 0 0
14.495265 2.935894 -13.071574 19.738242 0.199838 2.294609 0.011272 -0.012243 -3119.700000 1 0 0
-6.670935 6.551694 -15.807074 18.365447 -0.776380 2.607432 0.008624 0.001075 233835.000000 1 0 0
-11.323535 3.748694 -16.338774 20.229451 -0.319697 2.510991 0.029048 -0.009543 -679832.000000 1 0 0
-5.037335 6.538794 -17.854874 19.670462 -0.914381 2.708566 0.010748 0.006186 -212142.000000 1 0 0
-10.039035 1.523294 -15.655774 18.660276 -0.150588 2.566220 0.016682 -0.005737 142654.000000 1 0 0
-7.560635 5.771794 -18.147674 20.489385 -0.652022 2.658820 0.007847 0.005137 -311897.000000 1 0 0
-8.728235 3.726894 -15.866874 18.488632 -0.403557 2.602542 0.004151 0.012294 -1327660.000000 1 0 0
8.959465 13.252194 -12.042674 20.022953 0.976309 2.216103 0.058194 -0.026147 -1019340.000000 1 0 0
13.915565 9.043594 -11.189674 20.015952 0.576298 2.164021 0.039253 -0.023646 387586.000000 1 0 0
8.338665 15.826194 -9.175874 20.104686 1.085869 2.044747 0.041027 -0.017641 -153874.000000 1 0 0
7.197865 13.399294 -13.913174 20.613751 1.077847 2.311688 0.044039 -0.023493 -81352.200000 1 0 0
4.682165 15.779594 -12.463874 20.646220 1.282349 2.218915 0.045129 -0.031966 -62025.700000 1 0 0
10.976565 10.980794 -11.327674 19.219235 0.785591 2.201103 0.048037 -0.022845 414791.000000 1 0 0
15.811265 9.786694 -9.377074 20.825585 0.554251 2.037861 0.057027 -0.017290 474911.000000 1 0 0
13.335565 10.627994 -9.096674 19.327209 0.672888 2.060843 0.069392 -0.020143 -234128.000000 1 0 0
10.555965 11.873194 -8.275674 17.913344 0.844059 2.051027 0.033996 -0.008722 496858.000000 1 0 0
5.356065 16.141194 -10.037574 19.747872 1.250403 2.103990 0.021557 -0.020386 -347160.000000 1 0 0
6.788465 14.558494 -11.519674 19.767040 1.134479 2.192932 0.029388 -0.014716 -716931.000000 1 0 0
10.829265 13.902194 -9.946574 20.235570 0.909016 2.084653 0.056578 -0.013144 -203736.000000 1 0 0
8.239765 -18.565006 -1.418074 20.360848 -1.153083 1.640500 0.043719 -0.003819 -53542.600000 1 0 0
7.452765 -17.164706 -3.486574 19.034890 -1.161166 1.755004 0.033090 -0.010121 239545.000000 1 0 0
4.569065 -18.416006 5.627126 19.791164 -1.327604 1.282494 0.033789 0.001112 275992.000000 1 0 0
9.911865 -17.106206 -2.665674 19.949265 -1.045638 1.704820 0.035151 -0.008551 -796294.000000 1 0 0
-9.708035 -12.276706 -9.955074 18.549042 0.901710 2.137305 0.022481 -0.017762 386206.000000 1 0 0
-4.939035 -6.947606 -12.130774 14.826294 0.952794 2.529058 0.002290 -0.002677 852545.000000 1 0 0
-10.956235 -9.534406 -5.582174 15.559713 0.716120 1.937733 0.019042 -0.007951 -1753730.000000 1 0 0
-4.483935 -11.462006 -14.012274 18.650123 1.197899 2.420861 0.009732 -0.001808 343602.000000 1 0 0
-3.056335 -15.450006 7.350926 17.380449 1.375497 1.134107 0.003729 -0.007131 288888.000000 1 0 0
-4.742835 -11.961806 -11.461774 17.232283 1.193312 2.298469 0.008575 -0.002467 193830.000000 1 0 0
-14.370435 -12.848106 -4.397474 19.771723 0.729527 1.795084 0.021426 -0.001925 -446292.000000 1 0 0
-3.211035 -12.167506 -3.368174 13.027032 1.312776 1.832320 0.006143 -0.004888 783365.000000 1 0 0
-2.416335 -17.323706 -1.546374 17.559634 1.432209 1.658975 -0.000291 -0.010578 -973163.000000 1 0 0
-5.826635 -12.198606 3.620326 13.995086 1.125190 1.309135 -0.002039 -0.001295 650631.000000 1 0 0
-8.859335 -10.963706 -11.956574 18.483786 0.891160 2.274267 0.016629 -0.003258 -116007.000000 1 0 0
-9.775935 -12.074506 -7.385874 17.202144 0.890208 2.014578 0.019417 -0.015195 322131.000000 1 0 0
-10.955535 -15.088906 6.328126 19.691217 0.942790 1.243623 0.027857 -0.012256 498410.000000 1 0 0
-9.342235 -15.476206 0.764326 18.093494 1.027696 1.528541 0.007296 -0.002889 -2624500.000000 1 0 0
-14.855335 -7.736406 -8.315374 18.699690 0.480135 2.031613 0.023373 -0.013002 258089.000000 1 0 0
-2.371735 -16.513606 5.075026 17.437896 1.428149 1.275489 0.013311 -0.009305 -710738.000000 1 0 0
4.574065 -15.761206 5.810526 17.409765 -1.288345 1.230516 0.026468 -0.007331 -474735.000000 1 0 0
4.244665 -14.606006 -10.060474 18.236385 -1.287975 2.155162 -0.001207 0.001355 -233740.000000 1 0 0
-7.509335 -13.964706 -0.308174 15.858692 1.077417 1.590230 0.004667 -0.001567 385910.000000 1 0 0
2.902765 -14.609206 9.486726 17.659358 -1.374657 1.003674 0.012377 -0.011231 -34434.000000 1 0 0
2.596665 -17.065306 10.103826 20.001366 -1.419794 1.041233 0.036463 -0.010907 -662703.000000 1 0 0
-8.294335 -17.301206 -5.581474 19.982007 1.123758 1.853887 0.029350 -0.011088 -256321.000000 1 0 0
-6.582335 -9.072306 -7.809274 13.660843 0.943133 2.179316 0.019069 -0.009424 434474.000000 1 0 0
-6.085935 -12.953506 -4.825174 15.103451 1.131575 1.895972 0.010339 -0.015035 570904.000000 1 0 0
2.419965 -19.309606 -4.984374 20.088831 -1.446122 1.821532 0.014972 -0.009666 279732.000000 1 0 0
-5.469335 -12.958906 8.217626 16.290373 1.171425 1.042055 0.005254 -0.007269 838337.000000 1 0 0
2.082065 -17.434106 3.381826 17.880710 -1.451934 1.380518 0.017524 -0.017515 -752275.000000 1 0 0
-17.670735 -10.128206 -2.457874 20.515277 0.520452 1.690892 0.025115 -0.005224 828628.000000 1 0 0
-3.349235 -15.513206 2.496626 16.065805 1.358164 1.414764 0.001333 -0.004028 -198195.000000 1 0 0
-10.038135 -10.554706 -14.187074 20.333201 0.810478 2.343019 0.013537 -0.008501 -333633.000000 1 0 0
6.223565 -14.530006 -5.620674 16.776347 -1.166113 1.912439 0.003109 -0.003802 146960.000000 1 0 0
-7.229735 -12.340406 -10.672774 17.845526 1.040840 2.211880 0.015023 -0.012251 -1605650.000000 1 0 0
-7.512735 -14.181506 3.812226 16.495132 1.083628 1.337576 0.001540 -0.002747 669908.000000 1 0 0
3.258165 -15.025006 -3.125274 15.688652 -1.357253 1.771344 0.005638 -0.006659 -114311.000000 1 0 0
-7.565935 -11.516606 7.795426 15.831749 0.989545 1.055960 0.004226 -0.009553 -1195840.000000 1 0 0
-12.600635 -12.411306 -1.215574 17.728343 0.777829 1.639417 0.002941 0.008937 -1330790.000000 1 0 0
-1.875235 -13.603006 3.920926 14.280475 1.433805 1.292658 0.004501 -0.003762 -3318680.000000 1 0 0
-3.131235 -13.909606 5.101626 15.142932 1.349374 1.227176 0.000583 -0.005546 -83253.500000 1 0 0
-14.356935 -10.250606 -4.359374 18.171425 0.620049 1.813062 0.008639 -0.006601 271215.000000 1 0 0
-6.124235 -8.708406 -10.515174 14.963672 0.957889 2.350001 0.011541 -0.005456 351727.000000 1 0 0
0.629465 -19.297506 2.164926 19.428764 -1.538189 1.459136 0.022839 -0.023476 20315.800000 1 0 0
6.509465 -14.139206 -8.239874 17.612093 -1.139341 2.057656 -0.000897 0.000668 -3601840.000000 1 0 0
-3.766135 -16.722706 -5.951474 18.145322 1.349281 1.904971 0.004305 -0.012815 69970.500000 1 0 0
-3.587035 -13.648006 -13.096974 19.252678 1.313784 2.318924 0.020929 -0.000106 -2492030.000000 1 0 0
-8.165935 -14.709706 -4.551874 17.429215 1.064016 1.835024 0.017992 -0.015267 -1293790.000000 1 0 0
-4.445135 -14.453706 10.071226 18.168612 1.272434 0.983251 0.007975 -0.005397 -420519.000000 1 0 0
-0.203835 -12.135506 -9.932274 15.683180 1.554001 2.256616 0.009647 -0.000388 597328.000000 1 0 0
2.490465 -17.139006 6.753926 18.589338 -1.426497 1.198965 0.024570 -0.014710 -321142.000000 1 0 0
-2.898535 -19.060906 -3.524074 19.599458 1.419885 1.751584 0.002447 -0.010954 984976.000000 1 0 0
0.682165 -15.330606 -3.143174 15.664367 -1.526329 1.772825 0.004073 -0.007617 -781249.000000 1 0 0
5.915265 -18.051106 0.543326 19.003368 -1.254128 1.542201 0.024193 -0.008480 -230294.000000 1 0 0
-7.040935 -16.692506 3.829226 18.516952 1.171637 1.362498 0.000092 0.000141 -14932.400000 1 0 0
-5.200835 -13.528506 -9.476374 17.316779 1.203779 2.149855 0.011901 -0.009832 418557.000000 1 0 0
5.701765 -15.184106 -2.128774 16.358450 -1.211580 1.701299 0.010899 -0.002951 63628.700000 1 0 0
-8.867735 -10.118806 -0.547874 13.465777 0.851196 1.611494 0.003236 0.001215 1000340.000000 1 0 0
-7.279135 -18.139606 -2.990174 19.773019 1.189183 1.722604 0.015367 -0.021593 -389646.000000 1 0 0
7.953365 -16.013406 -1.156774 17.917124 -1.109817 1.635404 0.014441 -0.003101 -246623.000000 1 0 0
-8.098535 -10.144606 -9.586374 16.136849 0.897087 2.206902 0.018905 -0.009892 -1035500.000000 1 0 0
-9.044035 -15.265806 -6.963074 19.061055 1.035956 1.944755 0.026615 -0.015020 -400964.000000 1 0 0
-11.429735 -10.643406 -11.916574 19.644991 0.749789 2.222568 0.032288 -0.005274 -912146.000000 1 0 0
6.585665 -16.308906 2.442626 17.757191 -1.187012 1.432802 0.022450 -0.010702 1073330.000000 1 0 0
-2.160735 -11.264206 -6.096074 12.988966 1.381275 2.059325 0.011235 -0.005866 173970.000000 1 0 0
-12.413535 -15.048306 -3.422874 19.805642 0.881048 1.744492 0.023262 -0.013416 371768.000000 1 0 0
-0.403335 -19.781006 -2.962874 20.005737 1.550409 1.719444 0.018564 -0.011724 -147857.000000 1 0 0
-5.783035 -15.442106 -4.809774 17.176614 1.212466 1.854610 0.005939 -0.014805 -2527460.000000 1 0 0
1.909865 -15.825606 -1.067874 15.976162 -1.450695 1.637688 0.012999 -0.012338 1192200.000000 1 0 0
-13.192735 -11.930206 5.263626 18.549497 0.735186 1.283082 0.017103 -0.002883 559645.000000 1 0 0
2.190465 -15.261706 -8.806074 17.755696 -1.428243 2.089734 0.008225 0.003288 -1150660.000000 1 0 0
-11.463635 -16.795006 0.185026 20.335226 0.971870 1.561697 0.021153 -0.007095 505239.000000 1 0 0
-7.658635 -16.366306 -1.082174 18.101983 1.133115 1.630614 0.015798 -0.014452 348829.000000 1 0 0
-2.981735 -14.418006 -1.833174 14.836785 1.366865 1.694669 0.001436 -0.005662 -157893.000000 1 0 0
-1.757535 -10.502706 -13.125374 16.901811 1.404991 2.459993 0.008344 -0.000283 -128458.000000 1 0 0
1.512665 -19.479106 4.648226 20.083071 -1.493296 1.337228 0.031810 -0.018517 -166725.000000 1 0 0
-17.378235 -9.318406 2.379226 19.861936 0.492195 1.450720 0.020166 -0.002451 293756.000000 1 0 0
-2.583135 -15.701106 -8.118074 17.863383 1.407738 2.042555 0.006505 -0.005450 -279625.000000 1 0 0
-10.395235 -12.133106 0.036526 15.977313 0.862387 1.568510 0.004149 0.002895 27889.200000 1 0 0
-6.810735 -11.351606 -6.544974 14.767592 1.030392 2.029960 0.019280 -0.012783 150052.000000 1 0 0
-2.131735 -13.604006 -6.737474 15.329933 1.415361 2.025836 0.004545 -0.004385 183512.000000 1 0 0
-14.373435 -14.443706 -1.156874 20.409671 0.787837 1.627509 0.029574 0.002511 471214.000000 1 0 0
-9.613035 -11.201806 -4.459574 15.420075 0.861579 1.864193 0.018670 -0.014109 841688.000000 1 0 0
9.626665 -15.101006 -5.293974 18.674561 -1.003269 1.858223 0.016219 -0.003468 183378.000000 1 0 0
-5.606335 -10.904406 -9.311174 15.395942 1.095905 2.220287 0.015453 -0.008541 -602019.000000 1 0 0
-10.372635 -15.955406 -4.864674 19.642597 0.994350 1.821060 0.028881 -0.014782 -1101120.000000 1 0 0
2.233065 -17.412106 -3.228174 17.849065 -1.443245 1.752657 0.012099 -0.006590 508321.000000 1 0 0
-0.179035 -14.462206 -8.097474 16.575782 1.558417 2.081180 0.010972 -0.002325 -59365.600000 1 0 0
-0.457435 -18.188906 -7.110474 19.534697 1.545652 1.943347 0.012945 -0.008568 -25064.400000 1 0 0
-1.610235 -9.927006 -10.482874 14.526836 1.409989 2.376938 0.006289 -0.000019 292361.000000 1 0 0
-4.978935 -17.248906 2.103726 18.075957 1.289783 1.454149 0.002001 -0.005989 -570770.000000 1 0 0
0.348465 -12.796706 -2.627874 13.068391 -1.543572 1.773263 0.006141 -0.004309 -1991060.000000 1 0 0
2.712265 -14.997606 3.142726 15.561533 -1.391884 1.367443 0.013363 -0.008809 -416431.000000 1 0 0
-9.469835 -12.975706 6.685126 17.399358 0.940341 1.176437 0.006437 -0.013578 -666151.000000 1 0 0
-0.841735 -17.784106 -4.539874 18.373715 1.523501 1.820467 0.006816 -0.010857 -364868.000000 1 0 0
-9.675735 -17.439806 -2.328474 20.079554 1.064270 1.687020 0.028447 -0.019815 -919788.000000 1 0 0
1.323365 -16.039606 1.407226 16.155512 -1.488477 1.483581 0.014766 -0.018969 -327280.000000 1 0 0
-0.413235 -17.887106 4.069826 18.348919 1.547698 1.347134 0.022920 -0.019698 -463299.000000 1 0 0
-17.260935 -9.136806 -0.068374 19.530125 0.486839 1.574297 0.000277 0.001371 959182.000000 1 0 0
-14.985735 -7.098406 -10.800474 19.789135 0.442369 2.148114 0.053974 -0.021212 770737.000000 1 0 0
2.929365 -12.662806 -8.923774 15.765836 -1.343459 2.172466 -0.007750 0.002879 511811.000000 1 0 0
-11.648535 -14.643706 1.640026 18.783402 0.898828 1.483372 0.012833 0.000720 -97182.100000 1 0 0
-2.145535 -15.548606 10.667426 18.977789 1.433673 0.973873 0.006848 -0.002818 -463084.000000 1 0 0
-6.839435 -15.683906 1.360526 17.164318 1.159579 1.491448 0.002452 -0.008041 -1277290.000000 1 0 0
-12.589335 -15.143906 -5.988774 20.583845 0.877251 1.866011 0.031402 -0.008159 324946.000000 1 0 0
1.004665 -13.714906 -5.072874 14.657492 -1.497673 1.924201 0.005135 -0.003176 413859.000000 1 0 0
5.930265 -16.369406 -7.486174 18.951736 -1.223226 1.976878 0.014822 -0.012022 41382.700000 1 0 0
-6.589135 -12.904806 5.865026 15.631675 1.098708 1.186182 0.003178 -0.005716 15740.500000 1 0 0
-2.547435 -13.551606 0.506026 13.798244 1.384984 1.534115 0.007393 -0.007763 1012020.000000 1 0 0
-4.211335 -15.570706 0.054126 16.130256 1.306651 1.567441 -0.001588 -0.008866 -295610.000000 1 0 0
-17.566035 -7.421606 -2.140274 19.189232 0.399749 1.682564 -0.000175 0.000415 105846.000000 1 0 0
1.315765 -12.808106 -11.951574 17.567554 -1.468426 2.318997 0.006011 0.007503 334215.000000 1 0 0
1.424965 -17.056106 -5.760074 18.058786 -1.487444 1.895431 0.014161 -0.003955 404803.000000 1 0 0
-12.834535 -6.441606 -9.341274 17.131229 0.465164 2.147516 0.027825 -0.005796 1272730.000000 1 0 0
-11.488835 -13.608806 -8.749274 19.842952 0.869667 2.027426 0.025794 -0.018749 400929.000000 1 0 0
-4.322735 -9.992206 3.471726 11.427297 1.162497 1.262107 0.007846 -0.003445 -4415750.000000 1 0 0
-7.042135 -14.415806 9.659026 18.727091 1.116390 1.028881 0.008472 -0.008402 -1352890.000000 1 0 0
-5.202935 -15.820206 -7.899574 18.432383 1.253060 2.013706 0.013106 -0.021528 -584913.000000 1 0 0
-0.238335 -13.350606 2.058426 13.510463 1.552946 1.417843 0.009421 -0.011152 791249.000000 1 0 0
-10.894335 -13.438506 -4.881374 17.975200 0.889577 1.845812 0.027624 -0.012045 -16588.000000 1 0 0
-9.687635 -10.519206 6.553926 15.730796 0.826528 1.141061 0.009040 -0.004380 -468578.000000 1 0 0
-15.550235 -8.107606 -4.924774 18.215282 0.480606 1.844568 0.019649 -0.005921 589572.000000 1 0 0
-14.549135 -7.345606 5.553626 17.218538 0.467546 1.242387 0.019023 -0.009340 388135.000000 1 0 0
-1.599635 -19.326106 -0.161374 19.392866 1.488214 1.579118 0.014484 -0.014881 -317256.000000 1 0 0
-15.167235 -11.959106 -1.452574 19.369441 0.667679 1.645860 -0.000224 0.004610 397393.000000 1 0 0
-4.351735 -12.086006 -6.712674 14.493762 1.225184 2.052334 0.009226 -0.008118 -1843320.000000 1 0 0
-7.362235 -18.263306 1.942026 19.786923 1.187606 1.472491 0.005528 -0.007034 12341.800000 1 0 0
-2.517835 -11.688306 -8.601174 14.728754 1.358624 2.194409 0.007550 -0.001801 466240.000000 1 0 0
-1.443235 -20.244306 -5.378974 20.996386 1.499626 1.829870 0.011606 -0.007863 -135495.000000 1 0 0
-5.273535 -8.859206 -13.881274 17.291197 1.033869 2.502763 0.005312 -0.000226 118750.000000 1 0 0
-8.277435 -19.006206 -0.752774 20.744119 1.160056 1.607093 0.016481 -0.012091 113881.000000 1 0 0
-17.093435 -7.247806 5.771926 19.443029 0.401033 1.269390 0.035703 -0.009917 -408135.000000 1 0 0
-3.514835 -14.525106 -4.387274 15.575011 1.333377 1.856348 0.003299 -0.009983 -1900420.000000 1 0 0
-2.844435 -15.003606 -10.876974 18.748535 1.383436 2.189710 0.012916 -0.004103 -277361.000000 1 0 0
-0.031135 -16.548006 6.159826 17.657320 1.568915 1.214448 0.030658 -0.015382 -424942.000000 1 0 0
-11.127435 -11.562306 3.776926 16.485506 0.804562 1.339637 0.005359 0.000797 -426375.000000 1 0 0
-0.299235 -14.686706 -0.183774 14.690904 1.550425 1.583306 0.002515 -0.008587 475737.000000 1 0 0
-7.388635 -9.530706 -2.574974 12.331131 0.911333 1.781163 0.007465 -0.003556 -410992.000000 1 0 0
-11.048335 -14.461006 -0.839674 18.217889 0.918390 1.616903 0.013042 -0.003114 297905.000000 1 0 0
0.319365 -14.649306 -10.626674 18.100563 -1.548999 2.198257 0.010857 0.003109 -117977.000000 1 0 0
-1.343635 -14.003006 -3.888774 14.594934 1.475136 1.840501 0.002434 -0.003617 -3548000.000000 1 0 0
-11.409335 -8.116006 -7.713274 15.985528 0.618301 2.074321 0.022743 -0.006746 553981.000000 1 0 0
-0.149935 -17.263306 -0.376674 17.268066 1.562111 1.592611 0.007724 -0.013255 -578374.000000 1 0 0
-12.850935 -9.487606 4.438426 16.578928 0.635959 1.299776 0.007295 -0.003232 573643.000000 1 0 0
3.991265 -16.812506 1.574326 17.351342 -1.337713 1.479939 0.018185 -0.015564 1720670.000000 1 0 0
-3.773435 -17.980106 -8.267774 20.146442 1.363931 1.993671 0.022896 -0.011477 -146708.000000 1 0 0
-13.329935 -11.402106 2.673526 17.743814 0.707607 1.419547 -0.000817 0.004046 821498.000000 1 0 0
-8.579135 -12.027906 4.236626 15.369486 0.951220 1.291529 0.001715 -0.002957 953128.000000 1 0 0
-8.330435 -9.353306 -5.972074 13.876100 0.843176 2.015716 0.017476 -0.010153 765841.000000 1 0 0
3.970365 -17.162506 -5.155374 18.354653 -1.343456 1.855503 0.004847 -0.006347 -2000910.000000 1 0 0
-2.676835 -13.017506 11.343126 17.472476 1.367990 0.864265 0.004440 -0.005987 4955.230000 1 0 0
0.156565 -16.798806 -9.471674 19.285669 -1.561477 2.084177 0.016174 0.001107 -226455.000000 1 0 0
-7.024235 -10.646306 -14.449574 19.273658 0.987576 2.418414 0.012199 -0.004065 -1232100.000000 1 0 0
-4.574935 -18.716606 -1.578274 19.332158 1.331065 1.652527 0.009885 -0.018129 -515668.000000 1 0 0
-2.459635 -17.289606 1.091226 17.497745 1.429484 1.508392 0.013161 -0.013687 178257.000000 1 0 0
4.153665 -14.464806 -7.408274 16.773970 -1.291164 2.028237 0.000390 -0.003509 -66777.800000 1 0 0
-0.834835 -15.806506 -6.108174 16.966213 1.518029 1.939086 0.006621 -0.005887 199407.000000 1 0 0
-9.318535 -15.078906 8.313326 19.578557 1.017258 1.132261 0.013352 -0.019955 -772427.000000 1 0 0
-7.194135 -12.004806 -1.759374 14.105544 1.030913 1.695851 0.006521 -0.004413 673144.000000 1 0 0
-7.386835 -15.058106 -9.236874 19.147630 1.114733 2.074192 0.024906 -0.016127 -52143.800000 1 0 0
-4.990335 -13.205406 -0.697074 14.134077 1.209485 1.620135 0.003589 -0.004162 2300300.000000 1 0 0
-6.410435 -13.685106 -7.329774 16.795875 1.132727 2.022394 0.016578 -0.016439 626946.000000 1 0 0
5.832565 -15.306906 0.323826 16.383683 -1.206740 1.551030 0.011173 -0.006762 -563804.000000 1 0 0
-14.336735 -12.771506 0.758226 19.215313 0.727722 1.531327 -0.004420 0.003475 1030600.000000 1 0 0
0.920965 -15.365406 11.062826 18.956002 -1.510930 0.947635 0.018774 -0.000133 -86671.900000 1 0 0
-9.256735 -10.876706 1.890926 14.407133 0.865687 1.439167 0.001456 0.001646 -115360.000000 1 0 0
-9.533535 -8.793106 -3.589974 13.457152 0.745018 1.840837 0.012395 -0.005417 515468.000000 1 0 0
-12.007835 -7.370206 -12.431574 18.789680 0.550493 2.293770 0.033560 -0.006807 -913447.000000 1 0 0
-13.247235 -8.386906 -0.618274 15.691135 0.564407 1.610209 -0.001505 0.000508 -386933.000000 1 0 0
-11.256335 -9.708506 0.623826 14.877814 0.711702 1.528854 -0.002886 0.003120 591728.000000 1 0 0
-15.806035 -12.180606 2.874926 20.160931 0.656574 1.427710 0.020410 0.005125 -449102.000000 1 0 0
-10.347035 -12.589706 -2.470774 16.482311 0.882865 1.721268 0.017483 -0.004538 470450.000000 1 0 0
-3.322935 -8.924206 -12.018374 15.333776 1.214350 2.471533 0.002765 0.001190 -194170.000000 1 0 0
-0.342835 -15.514206 3.674026 15.946994 1.548702 1.338318 0.018199 -0.013154 -918506.000000 1 0 0
-15.584735 -7.632206 1.273926 17.399926 0.455392 1.497516 -0.009406 0.000157 555461.000000 1 0 0
-6.066735 -13.349606 -13.352974 19.832276 1.144248 2.309453 0.007433 -0.000814 -391914.000000 1 0 0
-15.176135 -10.254806 1.131126 18.350902 0.594244 1.509119 -0.003802 0.004782 951526.000000 1 0 0
-9.786235 -8.626206 -12.450074 18.032919 0.722479 2.332849 0.017902 -0.008971 435090.000000 1 0 0
-13.383235 -11.450106 -6.356974 18.725038 0.707711 1.917172 0.031203 -0.011908 -162811.000000 1 0 0
-12.201435 -11.580206 -3.942774 17.277780 0.759282 1.801024 0.014458 -0.001068 -1787520.000000 1 0 0
-11.688935 -10.912106 -8.814974 18.259492 0.751040 2.074601 0.025521 -0.026902 885011.000000 1 0 0
-13.212835 -8.440206 -5.851674 16.734939 0.568453 1.928013 0.014396 -0.010124 -1349230.000000 1 0 0
-13.509335 -7.963606 -3.287474 16.022754 0.532655 1.777439 0.011853 -0.005501 162107.000000 1 0 0
-4.307535 -16.842806 -3.307074 17.696659 1.320414 1.758777 0.003639 -0.017787 344593.000000 1 0 0
-15.418035 -8.879406 -1.848774 17.887919 0.522518 1.674334 0.002864 0.001631 -1018340.000000 1 0 0
-9.499535 -15.867106 3.620526 18.844481 1.031338 1.377468 0.008466 0.003076 126420.000000 1 0 0
4.872265 -17.197106 7.902426 19.542972 -1.294713 1.154516 0.034962 -0.019242 479207.000000 1 0 0
-8.407935 -15.423506 5.927926 18.539640 1.071694 1.245338 0.005768 -0.003659 267397.000000 1 0 0
0.852865 -16.028806 8.509626 18.167657 -1.517638 1.083324 0.022103 -0.007284 644935.000000 1 0 0
-10.891135 -7.849406 -10.189874 16.854185 0.624494 2.220048 0.023001 -0.009816 795826.000000 1 0 0
-4.853235 -15.917206 5.479826 17.519699 1.274846 1.252677 0.002947 -0.012417 -849694.000000 1 0 0
-1.321535 -13.148606 -12.030074 17.870506 1.470625 2.309298 0.013178 -0.002846 -188947.000000 1 0 0
-6.381835 -14.349706 -2.598774 15.918402 1.152328 1.734786 0.010981 -0.009553 306758.000000 1 0 0
-17.718835 -6.836006 -7.401374 20.383043 0.368209 1.942404 0.037907 -0.014136 431833.000000 1 0 0
-17.251335 -4.135506 -10.309974 20.518444 0.235281 2.097254 0.046590 -0.013512 782800.000000 1 0 0
-15.314535 -5.286006 -8.912074 18.490590 0.332359 2.073708 0.029085 -0.024954 207841.000000 1 0 0
-16.296635 -5.432606 -5.709974 18.102413 0.321772 1.891702 0.025504 -0.003795 621431.000000 1 0 0
-15.238135 -4.318706 -12.394474 20.111563 0.276172 2.234814 0.052628 -0.013154 -586808.000000 1 0 0
-18.958335 -5.157506 -5.799474 20.485416 0.265616 1.857824 0.049953 -0.006682 789542.000000 1 0 0
-17.462635 -4.302706 -7.776674 19.594223 0.241583 1.978918 0.032438 -0.011920 843050.000000 1 0 0
12.086665 -7.816306 8.816326 16.879269 -0.574044 1.021231 0.021723 -0.009437 86566.300000 1 0 0
16.105465 -3.339806 1.864626 16.553463 -0.204473 1.457914 0.027989 -0.009763 1331800.000000 1 0 0
11.987165 -2.131706 12.631526 17.543994 -0.175993 0.767006 0.006925 -0.001588 734516.000000 1 0 0
9.626965 -10.077706 5.273326 14.901228 -0.808269 1.209074 0.002232 -0.005770 -9429.530000 1 0 0
16.827665 -1.926706 7.139526 18.380841 -0.114000 1.171878 0.043703 -0.013055 153131.000000 1 0 0
5.133565 -12.733906 9.193426 16.523466 -1.187585 0.980766 0.016050 -0.002210 -392955.000000 1 0 0
15.129465 -8.921906 -2.099874 17.689279 -0.532815 1.689786 0.029512 -0.008423 146808.000000 1 0 0
11.048565 -8.592306 6.491926 15.428662 -0.660986 1.136502 0.017435 -0.009378 -3319280.000000 1 0 0
20.033965 -3.181406 3.730426 20.625158 -0.157486 1.388928 0.062677 -0.011181 297715.000000 1 0 0
13.451765 -8.643606 6.794926 17.373339 -0.571129 1.168957 0.033685 -0.012722 -1266020.000000 1 0 0
8.231765 -11.083306 8.862726 16.405778 -0.931972 1.000098 0.004056 -0.002905 -931382.000000 1 0 0
16.970065 0.124594 -0.565874 16.979954 0.007342 1.604128 0.025465 -0.003348 -784608.000000 1 0 0
12.357965 -12.298106 2.304826 17.586214 -0.782970 1.439360 0.020726 -0.008949 -2171890.000000 1 0 0
10.251065 -11.777306 3.597526 16.022842 -0.854573 1.344341 0.009447 -0.006559 -334891.000000 1 0 0
16.317765 2.976694 2.385426 16.757697 0.180436 1.427963 0.011494 -0.000300 1099840.000000 1 0 0
18.494365 -3.399706 0.660426 18.815836 -0.181794 1.535690 0.042181 -0.008564 1073000.000000 1 0 0
13.403165 -11.399006 -0.144974 17.595544 -0.704768 1.579036 0.030530 -0.003728 -511966.000000 1 0 0
16.944465 -7.540006 -0.765074 18.562110 -0.418674 1.612025 0.037376 -0.011931 379389.000000 1 0 0
10.079465 -5.780406 9.892226 15.259910 -0.520694 0.865513 0.006506 -0.002584 9078.230000 1 0 0
11.353465 -13.614206 5.955426 18.700665 -0.875699 1.246691 0.021517 -0.008815 1335910.000000 1 0 0
13.033165 -1.841306 10.285326 16.704542 -0.140350 0.907497 0.017796 -0.003852 -87663.400000 1 0 0
15.583165 -2.012706 -1.140174 15.753920 -0.128448 1.643234 0.018831 -0.006981 -1095770.000000 1 0 0
10.423665 -12.470806 8.980926 18.569621 -0.874577 1.065993 0.017308 -0.013676 301386.000000 1 0 0
14.653365 1.181994 3.328226 15.072999 0.080489 1.348154 0.018004 -0.003843 505278.000000 1 0 0
14.834365 -6.060606 5.296026 16.877121 -0.387857 1.251605 0.039530 -0.016420 -340351.000000 1 0 0
14.483165 -3.395206 -2.823874 15.141458 -0.230266 1.758394 0.018135 -0.005638 842510.000000 1 0 0
14.046765 0.464094 9.671426 17.060582 0.033027 0.968074 0.029802 -0.002893 1103810.000000 1 0 0
15.388765 -3.578806 4.440426 16.411560 -0.228498 1.296814 0.034660 -0.011950 -472721.000000 1 0 0
18.540865 4.694494 -4.179774 19.577345 0.247985 1.785953 0.009589 -0.005216 385817.000000 1 0 0
18.284865 -5.719006 -4.883674 19.771029 -0.303133 1.820391 0.062100 -0.015418 699337.000000 1 0 0
17.388165 -0.015506 5.821826 18.336907 -0.000892 1.247713 0.046144 -0.004712 684105.000000 1 0 0
17.083065 -6.764606 4.091526 18.823697 -0.377039 1.351687 0.061287 -0.023008 46539.300000 1 0 0
9.651365 -6.804406 14.349226 18.583570 -0.614087 0.688585 0.015694 -0.007030 -296551.000000 1 0 0
8.517165 -12.297106 5.197926 15.836014 -0.965044 1.236362 0.004886 -0.006361 -1434740.000000 1 0 0
16.864765 -10.140406 -0.643974 19.689155 -0.541358 1.603509 0.045979 -0.007682 -489747.000000 1 0 0
14.972465 -8.825406 0.388426 17.384285 -0.532620 1.548451 0.042543 -0.012209 -190933.000000 1 0 0
9.941065 -12.903306 1.458326 16.353801 -0.914349 1.481504 0.012446 -0.007626 -83204.600000 1 0 0
16.940665 -8.352606 8.965426 20.907678 -0.458073 1.127621 0.071747 -0.011954 655532.000000 1 0 0
19.121365 0.067294 -2.139474 19.240802 0.003519 1.682221 0.035414 0.001567 -161081.000000 1 0 0
13.428765 -1.306106 7.786726 15.577892 -0.096957 1.047362 0.019390 -0.007513 -354941.000000 1 0 0
12.817965 -9.647506 -3.045174 16.329350 -0.645198 1.758379 0.021450 -0.006937 -1641430.000000 1 0 0
8.865965 -15.298106 1.443526 17.740382 -1.045552 1.489337 0.017119 -0.007003 -1733320.000000 1 0 0
11.298265 -8.299506 11.207726 17.948418 -0.633561 0.896381 0.011676 -0.008561 33917.000000 1 0 0
13.827865 -3.845706 -0.323074 14.356311 -0.271258 1.593302 0.017993 -0.008927 -356003.000000 1 0 0
7.206665 -13.243806 10.646126 18.457368 -1.072453 0.955996 0.019118 -0.000188 -1118070.000000 1 0 0
15.478665 -6.783606 1.861526 17.002107 -0.413044 1.461088 0.038865 -0.014334 1092830.000000 1 0 0
15.809565 -6.070806 -2.549374 17.125896 -0.366634 1.720212 0.037578 -0.009913 196315.000000 1 0 0
11.191965 -8.569806 3.851026 14.612736 -0.653480 1.304107 0.014059 -0.008919 951359.000000 1 0 0
10.588465 -14.545206 -0.468474 17.997169 -0.941545 1.596830 0.029204 -0.009216 768939.000000 1 0 0
13.479165 -12.988006 4.528326 19.258295 -0.766843 1.333437 0.033304 -0.011706 261884.000000 1 0 0
12.669765 -11.214706 6.336726 18.067835 -0.724553 1.212458 0.023969 -0.014404 397917.000000 1 0 0
10.886465 -10.430106 1.412326 15.142552 -0.763993 1.477392 0.007945 -0.007283 305615.000000 1 0 0
13.744965 -7.636806 11.887326 19.711758 -0.507138 0.923468 0.015977 -0.015715 -652010.000000 1 0 0
15.283565 -1.836306 -4.787674 16.120831 -0.119576 1.872332 0.022834 -0.002142 -279970.000000 1 0 0
12.909265 -11.441106 -7.072174 18.643060 -0.725178 1.959886 0.041765 -0.007147 946171.000000 1 0 0
17.744165 -5.409906 1.947926 18.652530 -0.295931 1.466173 0.055193 -0.011762 796326.000000 1 0 0
10.598165 -9.893806 9.160726 17.150143 -0.751039 1.007296 0.005663 -0.005035 -298884.000000 1 0 0
16.369165 1.740394 10.061926 19.293027 0.105924 1.022151 0.039298 0.000350 162243.000000 1 0 0
18.208265 3.682794 0.632226 18.587726 0.199567 1.536777 0.009412 0.002417 531922.000000 1 0 0
13.244165 -4.169206 5.786326 15.042332 -0.304975 1.175947 0.023246 -0.013013 -818604.000000 1 0 0
11.988965 -6.219406 6.786026 15.115106 -0.478543 1.105199 0.020522 -0.006924 -215550.000000 1 0 0
16.639365 -10.398106 3.702126 19.967344 -0.558535 1.384308 0.049632 -0.012855 -651717.000000 1 0 0
16.325965 -8.045806 -5.441574 18.996917 -0.457889 1.861311 0.048140 -0.012588 -341485.000000 1 0 0
14.024465 -0.331706 5.464126 15.054976 -0.023648 1.199370 0.018761 -0.003555 235722.000000 1 0 0
18.308365 -4.322806 5.403726 19.572509 -0.231865 1.291075 0.067944 -0.008012 450004.000000 1 0 0
13.705565 -13.592906 6.997626 20.532325 -0.781271 1.223018 0.044123 -0.016585 167664.000000 1 0 0
14.907865 -13.479806 -0.870374 20.117335 -0.735135 1.614075 0.030574 -0.004465 503005.000000 1 0 0
17.783765 -6.113106 7.966926 20.423131 -0.331093 1.170063 0.073078 -0.012292 -683964.000000 1 0 0
14.376265 3.202294 9.218326 17.375535 0.219171 1.011565 0.026903 -0.003278 205000.000000 1 0 0
18.809165 3.734494 3.135326 19.430939 0.195998 1.408730 0.027244 0.004564 -225902.000000 1 0 0
14.503965 -10.693406 8.137626 19.772073 -0.635307 1.146618 0.030028 -0.017673 6875.070000 1 0 0
14.672065 -4.954606 10.334526 18.617734 -0.325666 0.982325 0.033866 -0.014507 442744.000000 1 0 0
17.801865 -8.001606 1.992726 19.618946 -0.422423 1.469049 0.067674 -0.018645 478562.000000 1 0 0
18.422865 -5.704506 -1.923174 19.381484 -0.300280 1.670187 0.039675 -0.011297 858215.000000 1 0 0
14.382765 -12.761506 -5.416874 19.976548 -0.725742 1.845396 0.049796 -0.010994 -1481950.000000 1 0 0
15.445665 -1.567606 9.415826 18.157195 -0.101145 1.025615 0.046951 -0.011517 -663453.000000 1 0 0
12.836365 -9.988606 10.211626 19.204734 -0.661275 1.010161 0.011474 -0.013403 -1967480.000000 1 0 0
16.601465 2.145194 4.827026 17.421557 0.128505 1.290051 0.024051 -0.000290 -879927.000000 1 0 0
14.978765 2.393994 0.043826 15.168933 0.158485 1.567907 0.007936 0.000512 -1163050.000000 1 0 0
15.117265 -9.886806 -6.888674 19.332213 -0.579187 1.935135 0.048907 -0.011838 880709.000000 1 0 0
16.089265 -0.141506 -3.057274 16.377771 -0.008795 1.758570 0.015024 0.002031 -18497.200000 1 0 0
12.083565 2.511994 13.557826 18.334047 0.204966 0.738485 0.032507 -0.002500 -414627.000000 1 0 0
17.587765 -3.029806 9.445626 20.192302 -0.170593 1.084015 0.052049 -0.019853 358687.000000 1 0 0
7.950365 -18.184306 4.576826 20.367244 -1.158629 1.344146 0.039611 -0.014351 -101247.000000 1 0 0
6.692065 -11.234806 6.616326 14.655387 -1.033578 1.102395 0.003328 -0.005557 15795.600000 1 0 0
18.061265 2.280894 -1.589474 18.273975 0.125621 1.657887 0.024192 0.000741 397785.000000 1 0 0
17.592365 -2.387706 3.691526 18.133389 -0.134900 1.365787 0.032858 -0.008221 -1314090.000000 1 0 0
12.584065 -13.433706 -1.777674 18.492790 -0.818043 1.667073 0.027504 0.002332 -448831.000000 1 0 0
15.106765 -8.365606 4.351026 17.808120 -0.505730 1.323969 0.046758 -0.014462 -157850.000000 1 0 0
11.316965 -3.250606 14.837126 18.941500 -0.279703 0.670818 0.004698 -0.007914 194429.000000 1 0 0
12.202865 -13.768906 -6.366974 19.468720 -0.845623 1.903962 0.032479 -0.010635 -98998.400000 1 0 0
10.589765 -12.012406 -1.221874 16.060324 -0.848258 1.646950 0.019583 -0.006517 -1567860.000000 1 0 0
13.135865 -8.031506 2.118226 15.541651 -0.548773 1.434077 0.030256 -0.009159 -934269.000000 1 0 0
8.588765 -7.960206 10.041326 15.425952 -0.747435 0.861978 0.002877 -0.003503 -1584160.000000 1 0 0
15.582065 -3.894406 8.078826 17.978725 -0.244912 1.104753 0.048801 -0.015489 -300208.000000 1 0 0
10.289665 -17.151006 5.235526 20.674742 -1.030417 1.314776 0.030782 -0.017439 -520801.000000 1 0 0
15.199065 -6.469106 8.361026 18.513985 -0.402400 1.102232 0.044454 -0.006715 15216.800000 1 0 0
16.562965 -4.945506 -0.352174 17.289125 -0.290161 1.591167 0.027458 -0.009796 -127289.000000 1 0 0
14.043965 -10.599406 3.404326 17.921211 -0.646522 1.379674 0.042220 -0.013398 550623.000000 1 0 0
14.958165 -9.874506 -4.405474 18.456998 -0.583472 1.811811 0.044527 -0.013401 432962.000000 1 0 0
13.682965 -6.561106 0.023826 15.174723 -0.447121 1.569226 0.023219 -0.010249 337156.000000 1 0 0
17.777565 -0.849506 -4.792074 18.431696 -0.047749 1.833809 0.032093 -0.005931 -263838.000000 1 0 0
14.457665 0.273294 -1.420774 14.529878 0.018901 1.668736 0.012693 -0.000564 -2158270.000000 1 0 0
4.883365 -13.064206 11.826126 18.286006 -1.213081 0.867506 0.014463 0.004156 -253795.000000 1 0 0
11.912865 -7.818006 13.621326 19.712384 -0.580767 0.807920 0.011630 -0.009342 456394.000000 1 0 0
11.934265 -5.835106 11.725426 17.718938 -0.454758 0.847652 0.005023 -0.004023 338063.000000 1 0 0
13.159765 -4.729806 8.333326 16.278661 -0.345037 1.033381 0.022126 -0.011306 -1702030.000000 1 0 0
15.445265 -1.220506 3.260226 15.832716 -0.078858 1.363396 0.025641 -0.004055 -339649.000000 1 0 0
15.124665 -10.468006 5.745426 19.270302 -0.605414 1.268043 0.048732 -0.017976 1001710.000000 1 0 0
13.784765 -7.931106 -5.688974 16.890429 -0.522100 1.914330 0.037407 -0.008915 370355.000000 1 0 0
9.553165 -1.777906 13.543026 16.668457 -0.184001 0.622378 0.006568 -0.008296 -1293340.000000 1 0 0
9.716065 -9.378706 13.789226 19.300383 -0.767732 0.774954 0.022348 -0.004700 67426.400000 1 0 0
20.252365 6.255894 -3.128174 21.426151 0.299599 1.717318 0.027224 0.002571 -888972.000000 1 0 0
11.097965 -3.612706 10.635726 15.790349 -0.314710 0.831783 0.008259 -0.002197 1012520.000000 1 0 0
10.383365 -14.114006 -3.006474 17.778029 -0.936524 1.740725 0.021043 -0.000193 753340.000000 1 0 0
14.821665 -12.960706 2.407726 19.835796 -0.718515 1.449113 0.034296 -0.004950 831934.000000 1 0 0
11.483865 -0.571206 14.765826 18.714568 -0.049699 0.661614 0.031816 0.000972 64893.300000 1 0 0
19.101365 -1.980606 5.862026 20.078553 -0.103320 1.274526 0.068846 -0.007431 492757.000000 1 0 0
18.836165 -0.445406 7.971626 20.458404 -0.023642 1.170544 0.051355 -0.006148 148742.000000 1 0 0
19.314665 0.963594 0.286526 19.340809 0.049848 1.555981 0.048675 -0.006436 1126.720000 1 0 0
18.624865 0.696494 3.740126 19.009451 0.037378 1.372753 0.032699 -0.006278 41487.900000 1 0 0
16.762265 -3.763906 -4.020874 17.643921 -0.220883 1.800706 0.037751 -0.008804 -1012680.000000 1 0 0
10.958765 -8.449206 15.848026 21.039096 -0.656806 0.717783 0.034814 -0.013515 323124.000000 1 0 0
16.465565 -7.722406 6.459826 19.299734 -0.438544 1.229498 0.051685 -0.011603 574746.000000 1 0 0
18.976165 2.160594 5.897526 19.988592 0.113370 1.271294 0.041345 0.000926 503083.000000 1 0 0
15.376465 1.461494 7.634826 17.229689 0.094763 1.111720 0.035242 -0.007235 -132077.000000 1 0 0
8.636965 -15.644006 3.972526 18.306093 -1.066347 1.352050 0.012442 -0.015487 179047.000000 1 0 0
11.355665 -15.161806 1.943226 19.042259 -0.927958 1.468570 0.029690 -0.005432 406915.000000 1 0 0
8.038865 -16.136706 6.257826 19.083423 -1.108612 1.236696 0.022289 -0.009063 78437.200000 1 0 0
14.460665 -11.552206 -2.494474 18.675832 -0.674052 1.704764 0.031059 -0.005858 665576.000000 1 0 0
13.723965 -4.974206 3.196126 14.943398 -0.347720 1.355249 0.023949 -0.009567 -942075.000000 1 0 0
-0.978035 10.161994 -5.519574 11.605532 -1.474847 2.066441 -0.005036 0.006220 -2485120.000000 1 0 0
8.359865 -1.754506 -7.870674 11.615211 -0.206870 2.315315 -0.002988 -0.003206 -4234020.000000 1 0 0
2.905565 -10.128406 7.656426 13.024891 -1.291426 0.942422 -0.003360 -0.004524 865116.000000 1 0 0
-6.408335 1.386994 8.398326 10.654689 -0.213148 0.662872 0.003688 -0.002317 -223961.000000 1 0 0
7.259865 -6.275506 -7.223274 12.010966 -0.712801 2.216036 -0.000958 -0.004703 -185764.000000 1 0 0
-11.398535 -4.471206 -4.198374 12.943904 0.373817 1.901122 0.009973 -0.001657 352623.000000 1 0 0
2.131865 -3.219906 2.863626 4.807598 -0.985970 0.932727 0.004274 -0.002370 3218130.000000 1 0 0
-3.706435 -4.233606 8.884926 10.516796 0.851695 0.564545 0.001832 -0.003253 -1549640.000000 1 0 0
-4.813535 -1.079906 -2.531574 5.544834 0.220694 2.044926 0.010335 -0.002227 -442207.000000 1 0 0
5.022265 -5.271906 -3.541274 8.096713 -0.809644 2.023470 0.004091 -0.005660 -72267.000000 1 0 0
2.697565 14.342494 -8.872374 17.079315 1.384886 2.117039 0.006377 -0.008775 -129535.000000 1 0 0
5.423665 -5.481206 13.832326 15.836446 -0.790675 0.508555 0.004002 -0.003427 -933822.000000 1 0 0
-4.740735 -0.949206 9.860726 10.982235 0.197610 0.455867 0.011001 -0.002491 -3221830.000000 1 0 0
-0.905135 12.009894 -2.574374 12.316015 -1.495573 1.781376 -0.001267 0.003176 -597699.000000 1 0 0
2.982265 9.410294 -10.530874 14.434224 1.263894 2.388499 -0.000369 -0.002869 -327050.000000 1 0 0
-10.767435 2.553594 1.088826 11.119535 -0.232857 1.472719 -0.003450 -0.001781 19506.200000 1 0 0
5.660965 -8.992406 -0.592674 10.642422 -1.008948 1.626515 -0.002414 -0.003176 557682.000000 1 0 0
-7.114435 5.452694 9.436626 13.015259 -0.653932 0.759699 0.003841 -0.003609 292226.000000 1 0 0
-5.681635 -1.825506 5.127826 7.868167 0.310881 0.860949 0.003146 -0.004319 256963.000000 1 0 0
6.664065 -3.753106 -7.269774 10.552022 -0.512910 2.330830 -0.000183 -0.006331 454189.000000 1 0 0
6.281665 4.813594 11.101026 13.633150 0.653847 0.619331 0.001587 0.000731 29551.500000 1 0 0
3.722265 -9.875906 3.253626 11.044223 -1.210358 1.271760 -0.004221 -0.003558 991628.000000 1 0 0
-6.640335 6.632294 -5.764274 11.014001 -0.784792 2.121584 0.001095 -0.003291 290452.000000 1 0 0
-11.161135 8.488894 5.267826 14.979394 -0.650236 1.211440 -0.001397 -0.000336 380017.000000 1 0 0
-9.195135 -5.490306 5.043226 11.837572 0.538276 1.130690 0.000153 -0.003835 -1841280.000000 1 0 0
3.225165 9.908694 -7.988074 13.129860 1.256123 2.224827 0.002026 -0.003970 641802.000000 1 0 0
-8.114235 -8.535206 6.024626 13.228253 0.810677 1.097934 0.000235 -0.001352 -2663000.000000 1 0 0
-7.785635 -5.711606 -7.476674 12.212257 0.632928 2.229670 0.016139 -0.005659 776534.000000 1 0 0
9.187365 -1.605406 6.884326 11.592193 -0.172994 0.934928 0.001281 -0.007136 1090870.000000 1 0 0
-4.148435 -0.322506 -4.970874 6.482524 0.077586 2.444655 0.012792 -0.007476 -749979.000000 1 0 0
9.050365 1.116094 -4.425274 10.135966 0.122701 2.022603 -0.001309 -0.000875 -3876850.000000 1 0 0
-2.021235 -10.674206 10.539026 15.135889 1.383655 0.800575 -0.004177 -0.004688 294896.000000 1 0 0
-12.867535 0.213494 -2.712974 13.152159 -0.016590 1.778564 0.005211 -0.001875 -128131.000000 1 0 0
-9.858735 -5.119006 -6.098874 12.672614 0.478917 2.072893 0.013526 -0.003231 -257348.000000 1 0 0
-5.785135 8.352794 -0.184674 10.162237 -0.965055 1.588970 0.002864 0.001405 465817.000000 1 0 0
6.303565 9.606694 0.398426 11.497053 0.990100 1.536135 0.006070 -0.002488 475573.000000 1 0 0
-0.612635 -12.023506 -0.140174 12.039920 1.519887 1.582439 0.007692 -0.003683 -696718.000000 1 0 0
6.221265 4.716194 2.372926 8.159497 0.648650 1.275715 0.000496 -0.000549 463279.000000 1 0 0
3.491765 -7.426506 -8.218574 11.614232 -1.131291 2.356934 -0.003326 -0.002063 227951.000000 1 0 0
-6.546335 -9.889806 4.505526 12.687102 0.986082 1.207747 0.003992 -0.000714 -2479280.000000 1 0 0
-0.032235 6.534894 -9.256874 11.331178 -1.565864 2.526879 0.001268 -0.002138 -1136830.000000 1 0 0
-17.360335 -2.717506 4.177026 18.061385 0.155275 1.337415 0.036178 -0.008004 -278767.000000 1 0 0
-8.293235 0.938194 -9.236274 12.448563 -0.112649 2.406778 0.006826 -0.004605 212203.000000 1 0 0
-9.897535 -6.031206 -11.895674 16.608543 0.547277 2.369193 0.019243 0.003817 347205.000000 1 0 0
2.184965 9.521194 6.425526 11.692501 1.345218 0.988980 0.001180 0.000610 -550257.000000 1 0 0
-11.320235 1.574994 -1.236374 11.495954 -0.138243 1.678553 0.003511 -0.002239 -1220800.000000 1 0 0
-5.884735 -5.283206 -3.088974 8.490238 0.731588 1.943169 0.020996 -0.005048 468780.000000 1 0 0
-6.875135 -8.228506 1.315926 10.803123 0.874765 1.448683 0.008845 -0.000817 -370612.000000 1 0 0
-0.110335 11.023094 -7.847274 13.531462 -1.560787 2.189437 -0.002087 0.003662 919704.000000 1 0 0
-2.902635 9.242694 -4.277874 10.590226 -1.266503 1.986622 -0.001604 0.002637 -542289.000000 1 0 0
3.503565 -4.805906 9.360426 11.090053 -0.940863 0.566028 -0.002651 -0.003590 -1236960.000000 1 0 0
-8.986535 1.547494 -0.385274 9.126938 -0.170529 1.613022 0.000656 -0.001789 -2180300.000000 1 0 0
2.473865 3.608194 -10.398874 11.281651 0.969784 2.743368 0.001235 -0.004475 -257046.000000 1 0 0
-13.695935 0.544894 1.081026 13.749334 -0.039764 1.492091 0.001875 -0.004331 47315.300000 1 0 0
9.493265 -12.532306 -5.043574 16.511160 -0.922510 1.881223 0.015663 -0.003360 -2661070.000000 1 0 0
-4.693135 9.392294 -8.330174 13.402705 -1.107405 2.241490 -0.001845 -0.000216 -1662420.000000 1 0 0
-2.373335 7.187294 8.361326 11.278372 -1.251857 0.735703 0.009579 -0.002713 -861264.000000 1 0 0
-10.803235 -1.246206 -4.472974 11.758844 0.114847 1.961017 0.007743 -0.001853 -951049.000000 1 0 0
2.626265 -7.176506 9.711826 12.357956 -1.219981 0.666684 -0.005365 -0.002601 -1331270.000000 1 0 0
-16.194535 -6.571806 3.499626 17.824113 0.385500 1.373170 0.019460 -0.005128 455243.000000 1 0 0
-10.775535 -0.119306 6.094226 12.380064 0.011072 1.056111 0.001363 -0.003771 -570735.000000 1 0 0
-8.459535 9.988794 9.371226 16.098435 -0.868103 0.949462 0.007130 -0.009160 -65874.700000 1 0 0
0.340765 -6.010306 -3.724374 7.078903 -1.514160 2.124831 0.004898 -0.002483 412913.000000 1 0 0
4.958965 1.561394 -2.971274 5.988134 0.305036 2.090005 0.000612 -0.002057 -644987.000000 1 0 0
0.337765 5.401094 3.877126 6.657177 1.508341 0.949121 0.004268 -0.000419 -2021510.000000 1 0 0
5.988865 -11.288106 -1.461274 12.861694 -1.083011 1.684657 -0.003514 -0.003945 -1564970.000000 1 0 0
6.282365 -13.522106 5.235726 15.802794 -1.135868 1.233098 0.005805 -0.007672 -868015.000000 1 0 0
8.192665 -8.170606 -5.897974 12.987096 -0.784050 2.042204 0.000310 -0.004154 670205.000000 1 0 0
-13.167035 -1.311106 -4.760374 14.062396 0.099248 1.916138 0.007766 0.000405 -3664850.000000 1 0 0
-6.823935 -1.591206 -7.198674 10.045842 0.229087 2.369687 0.011357 -0.004361 181850.000000 1 0 0
-5.563335 12.789294 -4.674074 14.709307 -1.160487 1.894166 0.004051 0.003097 883129.000000 1 0 0
-4.267035 6.967394 -6.799074 10.629185 -1.021288 2.264853 0.000572 -0.000178 -2440310.000000 1 0 0
-9.359335 -3.743306 -8.190874 12.988453 0.380467 2.253158 0.013334 -0.002665 783008.000000 1 0 0
-2.236535 -6.345406 9.107026 11.322729 1.231927 0.636277 0.000059 -0.000012 -236043.000000 1 0 0
7.389465 -6.118106 10.108426 13.936129 -0.691553 0.759269 -0.003017 -0.001194 890000.000000 1 0 0
9.529865 -5.085806 12.357226 16.412946 -0.490220 0.718346 0.004392 0.000177 -644167.000000 1 0 0
-6.442835 2.894794 -9.064874 11.491819 -0.422275 2.479669 0.002231 -0.005292 -1199300.000000 1 0 0
7.468565 5.465394 8.946226 12.871866 0.631742 0.802346 -0.002968 0.001385 -270112.000000 1 0 0
12.721265 3.238294 11.162326 17.231211 0.249263 0.866107 0.022738 0.001231 4632.260000 1 0 0
-7.430635 -7.203906 -3.890374 11.056474 0.769907 1.930358 0.016930 -0.005278 -357768.000000 1 0 0
2.405165 1.412394 -5.716474 6.360640 0.530980 2.687652 0.001730 -0.003766 -752269.000000 1 0 0
12.812565 6.828594 -7.087374 16.156187 0.489667 2.024924 0.008472 -0.004524 361514.000000 1 0 0
0.893365 -7.809906 1.034126 7.928566 -1.456903 1.439993 0.002039 -0.002482 1215370.000000 1 0 0
-10.285735 -6.070606 -8.576774 14.704070 0.533180 2.193573 0.018053 -0.005030 201480.000000 1 0 0
-6.679035 0.225194 3.096726 7.365456 -0.033704 1.136867 0.004542 -0.005366 651507.000000 1 0 0
10.688565 -7.874106 1.339026 13.343161 -0.634925 1.470274 0.004644 -0.005423 8410.000000 1 0 0
6.250865 1.038694 10.566926 12.321206 0.164663 0.540170 0.001953 -0.001651 -857895.000000 1 0 0
-12.906935 5.331794 1.798826 14.080227 -0.391744 1.442691 -0.001937 0.000195 -174357.000000 1 0 0
2.118665 7.414094 3.645826 8.529336 1.292453 1.129131 -0.001119 0.000047 -68462.500000 1 0 0
10.076965 -9.475806 -0.785174 13.854697 -0.754662 1.627499 0.003651 -0.003426 518209.000000 1 0 0
6.874165 -11.666706 -9.031074 16.276562 -1.038347 2.158981 -0.003884 -0.001957 -520618.000000 1 0 0
10.223565 3.454394 11.979426 16.123299 0.325842 0.733272 0.007108 0.001357 -719056.000000 1 0 0
-11.053835 -3.026206 -1.948474 11.625049 0.267222 1.739201 0.003741 0.000236 -889969.000000 1 0 0
12.474365 0.884994 7.038326 14.350297 0.070826 1.058172 0.010507 -0.001871 -619154.000000 1 0 0
-9.583035 9.039794 3.056826 13.523928 -0.756236 1.342795 0.003235 -0.001658 2495390.000000 1 0 0
-6.564735 7.685094 -8.833974 13.423692 -0.863859 2.289073 -0.001051 -0.002873 -742926.000000 1 0 0
8.574465 5.435094 12.210726 15.879657 0.564952 0.693593 0.008311 0.001737 -628217.000000 1 0 0
1.348165 4.891794 -2.655674 5.727111 1.301875 2.052966 0.002017 -0.001431 621160.000000 1 0 0
1.308565 0.463594 9.457026 9.558379 0.340479 0.145755 0.006083 -0.002621 787181.000000 1 0 0
2.386665 12.546094 -3.925774 13.360851 1.382811 1.869024 0.002373 -0.000281 602927.000000 1 0 0
2.082665 0.672894 13.021126 13.203787 0.312506 0.166529 0.007488 -0.004293 3191.040000 1 0 0
-12.244435 -1.715106 0.778926 12.388483 0.139167 1.507880 0.000284 -0.002783 -7745.290000 1 0 0
3.337865 8.707294 -1.256574 9.409425 1.204733 1.704741 0.004534 -0.001360 -200722.000000 1 0 0
3.768365 -2.830606 -5.778974 7.457174 -0.644237 2.457440 0.002246 -0.005062 -980739.000000 1 0 0
-7.720735 -7.204906 9.218826 14.018102 0.750852 0.853118 -0.000950 -0.000437 -299553.000000 1 0 0
-6.990935 10.845094 -3.475174 13.362861 -0.998214 1.833883 0.010473 0.000889 187558.000000 1 0 0
0.441365 0.481194 2.533526 2.616315 0.828544 0.252237 0.001469 0.000007 -2504220.000000 1 0 0
-7.067535 4.630394 -1.919974 8.664693 -0.579997 1.794237 0.005471 -0.002185 -599917.000000 1 0 0
-7.030835 -3.844906 -5.914874 9.960004 0.500432 2.206648 0.012582 -0.003443 -18569.000000 1 0 0
2.955465 -6.065106 13.503426 15.095125 -1.117368 0.463361 -0.003461 -0.002321 -2113590.000000 1 0 0
-5.324335 -0.607606 -11.918274 13.067631 0.113627 2.719041 0.007183 -0.009385 -356540.000000 1 0 0
11.945665 2.462294 -0.638174 12.213478 0.203277 1.623072 0.001001 -0.002089 -1767770.000000 1 0 0
6.053765 -10.922506 10.838726 16.535634 -1.064698 0.855982 0.007321 -0.001155 291203.000000 1 0 0
-8.189135 6.436594 -10.463074 14.763726 -0.666141 2.358452 0.004425 -0.003875 331813.000000 1 0 0
2.942965 7.925494 11.143026 13.987191 1.215248 0.649048 0.004599 -0.000881 1043920.000000 1 0 0
-6.205435 -10.012606 -0.495674 11.790056 1.015972 1.612850 0.013072 -0.002154 -517409.000000 1 0 0
11.308265 4.255194 6.158526 13.561378 0.359902 1.099409 0.005778 0.000593 632903.000000 1 0 0
-7.788035 10.572894 1.584026 13.226818 -0.935924 1.450750 0.003061 -0.001232 489731.000000 1 0 0
4.417165 -2.601606 -3.439474 6.173304 -0.532275 2.161750 0.004276 -0.004764 -4708610.000000 1 0 0
6.484265 6.314794 6.209726 10.976475 0.772158 0.969478 -0.000251 0.001945 -5399910.000000 1 0 0
-0.355435 10.377394 -10.241674 14.584530 -1.536559 2.349319 -0.005951 0.000409 -329585.000000 1 0 0
14.318565 6.494794 -2.500074 15.920239 0.425837 1.728487 0.014340 0.002473 776398.000000 1 0 0
1.438765 9.476494 -6.209074 11.420445 1.420122 2.145613 -0.002485 0.001050 -1280040.000000 1 0 0
0.629865 7.382894 7.195826 10.328783 1.485688 0.800041 0.003263 -0.001601 90340.600000 1 0 0
12.348765 6.288494 1.859826 13.981992 0.471013 1.437385 0.004115 0.002309 -1747870.000000 1 0 0
-6.859935 6.681594 -3.108574 10.068050 -0.772229 1.884681 0.002264 -0.002954 441429.000000 1 0 0
1.041965 9.816094 11.093526 14.849502 1.465044 0.727162 0.005208 -0.002961 321628.000000 1 0 0
-3.624635 13.672394 -10.970474 17.900381 -1.311651 2.230475 -0.003196 0.003555 -48792.300000 1 0 0
-10.277435 -5.571206 -2.382574 11.930661 0.496743 1.771850 0.002192 -0.001367 -271563.000000 1 0 0
-4.028835 3.944194 -12.491474 13.704930 -0.774783 2.717612 -0.000258 -0.009475 -387811.000000 1 0 0
-3.239335 8.473394 2.564126 9.426900 -1.205645 1.295325 0.006009 0.002045 -3377750.000000 1 0 0
7.083165 8.789194 7.098826 13.334709 0.892471 1.009414 0.003686 0.004006 144618.000000 1 0 0
-1.275135 -2.340706 -8.150474 8.575261 1.071981 2.825520 0.006372 -0.010569 -1130830.000000 1 0 0
0.918665 -1.348106 4.950726 5.212583 -0.972630 0.318314 0.003851 -0.001421 -2098690.000000 1 0 0
2.669265 -8.780306 -6.100874 11.019955 -1.275669 2.157502 -0.003381 -0.001959 105977.000000 1 0 0
5.374565 3.957894 8.820926 11.061627 0.634748 0.647764 -0.000779 -0.000738 688958.000000 1 0 0
6.192665 -7.533106 -2.831974 10.154647 -0.882748 1.853429 -0.000265 -0.004360 785896.000000 1 0 0
1.806465 2.370694 -8.197174 8.722222 0.919660 2.792851 0.003431 -0.005709 137420.000000 1 0 0
-5.423935 10.904594 -0.663574 12.197113 -1.109232 1.625227 0.002195 0.003446 962671.000000 1 0 0
-5.415135 3.372994 -3.424974 7.240941 -0.557075 2.063490 0.005430 -0.001153 -205470.000000 1 0 0
1.923865 13.715594 -6.397574 15.256071 1.431437 2.003521 -0.002851 0.000568 404786.000000 1 0 0
-5.345735 -2.545306 2.563126 6.451751 0.444376 1.162250 0.001519 -0.003593 384687.000000 1 0 0
10.397065 -3.333006 -1.771374 11.060997 -0.310222 1.731635 0.000067 -0.004636 -88339.900000 1 0 0
2.305665 -3.319406 7.008326 8.090191 -0.963703 0.523100 -0.001080 -0.001394 -2155130.000000 1 0 0
-2.926735 9.847694 -11.644874 15.528874 -1.281910 2.418685 0.000912 -0.000020 -3304360.000000 1 0 0
0.484365 -2.050206 9.221126 9.458706 -1.338799 0.224604 0.004739 -0.002598 335405.000000 1 0 0
9.458265 2.656694 4.977726 11.013380 0.273830 1.101823 -0.000581 -0.001394 5964.890000 1 0 0
13.430165 2.059794 -4.907574 14.446327 0.152185 1.917406 0.011236 -0.000870 -1380010.000000 1 0 0
-6.486535 3.844794 7.690526 10.770412 -0.535060 0.775542 0.005960 -0.002535 486576.000000 1 0 0
10.672465 -0.034006 2.014726 10.861021 -0.003186 1.384215 0.001126 -0.000154 1046860.000000 1 0 0
15.412565 6.420694 -4.813774 17.376561 0.394724 1.851495 0.017917 -0.005164 481981.000000 1 0 0
8.067065 -5.026106 -9.179174 13.213497 -0.557189 2.338774 0.007431 -0.003614 1378600.000000 1 0 0
4.467265 5.608794 -2.133074 7.480977 0.898208 1.859942 0.002088 -0.002628 202499.000000 1 0 0
-1.597135 -10.429906 1.457426 10.651661 1.418846 1.433540 0.007667 -0.003824 -1222000.000000 1 0 0
-2.892835 12.201094 -12.780974 17.904985 -1.337999 2.365737 0.001112 -0.003494 -188937.000000 1 0 0
8.237865 4.186494 -9.567974 13.301702 0.470187 2.373597 -0.001835 0.001454 -167109.000000 1 0 0
4.093865 7.675294 -8.915974 12.456502 1.080801 2.368521 0.003314 -0.003232 -2213330.000000 1 0 0
-1.806835 -5.047006 -2.510674 5.919494 1.227011 2.008805 0.013461 -0.005224 776450.000000 1 0 0
-3.268635 -9.119606 7.015426 11.961079 1.226642 0.944039 0.003633 -0.001167 -1771010.000000 1 0 0
1.136165 7.319494 -1.367574 7.532338 1.416801 1.753369 0.004196 -0.000728 -74899.800000 1 0 0
0.351765 -0.776806 -2.288974 2.442656 -1.145588 2.784978 0.008928 -0.000726 -2041400.000000 1 0 0
4.151065 -6.740406 7.590126 10.966970 -1.018805 0.806416 -0.004280 -0.001339 427504.000000 1 0 0
-13.935935 3.780994 5.865326 15.585514 -0.264935 1.184962 -0.006011 -0.002709 -1218280.000000 1 0 0
4.275065 6.390394 12.528126 14.699226 0.981192 0.550433 0.005985 -0.003309 -2557530.000000 1 0 0
8.161865 10.146194 -7.174474 14.867224 0.893362 2.074383 0.013481 -0.008801 60705.500000 1 0 0
12.442465 5.239094 9.466226 16.488555 0.398533 0.959281 0.017103 0.003796 -630567.000000 1 0 0
7.573465 4.283094 0.330526 8.706980 0.514695 1.532826 0.001796 -0.001345 -1895570.000000 1 0 0
-10.905935 -7.567306 -0.985174 13.310677 0.606600 1.644878 0.004441 -0.000999 -640469.000000 1 0 0
10.464865 6.836994 0.112626 12.500822 0.578712 1.561787 0.004293 0.001935 -971140.000000 1 0 0
14.663665 3.560894 4.328526 15.698381 0.238227 1.291447 0.010043 -0.000441 229500.000000 1 0 0
2.200765 5.664194 8.170926 10.182853 1.200208 0.639457 0.000466 0.000590 -247732.000000 1 0 0
4.177165 0.056394 11.624526 12.352388 0.013500 0.345001 0.002243 -0.003107 185509.000000 1 0 0
-1.485535 -1.600006 -0.620474 2.269763 0.822480 1.847686 0.011839 -0.005204 -1034430.000000 1 0 0
3.195165 -5.176706 -9.481274 11.265075 -1.017811 2.571132 -0.006566 -0.001882 471772.000000 1 0 0
-3.967035 -5.345006 -1.268974 6.776191 0.932309 1.759178 0.013081 -0.004573 -773477.000000 1 0 0
-1.329435 -8.800606 8.642826 12.406309 1.420868 0.800082 0.001289 -0.003768 -413132.000000 1 0 0
3.910565 8.521994 -5.949574 11.104698 1.140583 2.136217 0.004867 -0.001947 486675.000000 1 0 0
-14.299535 -1.758506 -2.732274 14.664051 0.122362 1.758216 0.004384 -0.000771 -985700.000000 1 0 0
8.918365 -10.576806 -6.684474 15.365164 -0.870263 2.020880 -0.000955 -0.002724 143770.000000 1 0 0
14.806365 6.143594 1.544726 16.104607 0.393310 1.474730 -0.003241 0.004017 -927796.000000 1 0 0
-5.714035 0.472994 -8.521974 10.271220 -0.082589 2.549356 0.009125 -0.008518 -695144.000000 1 0 0
-7.917935 -4.620706 -13.015374 15.919943 0.528254 2.527943 0.013190 -0.000135 302818.000000 1 0 0
0.834365 -10.619406 11.974426 16.026691 -1.492388 0.727025 -0.006381 -0.002718 -454788.000000 1 0 0
0.293465 11.714094 3.329826 12.181702 1.545749 1.293926 0.006100 -0.000763 769272.000000 1 0 0
5.263865 -13.230206 -3.649874 14.699259 -1.192130 1.821725 -0.000174 -0.002556 1243240.000000 1 0 0
-7.516335 1.621594 -7.057874 10.437358 -0.212486 2.313406 0.002773 -0.002563 558563.000000 1 0 0
1.509865 2.803194 4.098026 5.189547 1.076730 0.660527 0.000884 0.000624 -901924.000000 1 0 0
17.275565 5.498894 2.061826 18.246482 0.308164 1.457556 0.007057 -0.000084 401506.000000 1 0 0
2.560165 -8.081106 -3.483674 9.164863 -1.263991 1.960714 0.000139 -0.001387 346942.000000 1 0 0
-0.446035 -9.288606 -0.684774 9.324488 1.522814 1.644301 0.006374 -0.001302 -778047.000000 1 0 0
0.655665 11.806194 -5.647774 13.103948 1.515318 2.016395 -0.003362 0.003343 -888072.000000 1 0 0
6.037665 -4.990806 7.955726 11.164906 -0.690758 0.777648 -0.003304 -0.002627 -869692.000000 1 0 0
-5.978735 -1.781706 -9.546674 11.404330 0.289628 2.562774 0.014028 -0.009096 -347405.000000 1 0 0
2.088365 -1.268106 11.236026 11.498593 -0.545715 0.214113 0.002299 -0.002015 98239.600000 1 0 0
17.994965 2.196794 -5.787474 19.029963 0.121477 1.879815 0.022542 0.000760 377063.000000 1 0 0
-8.997035 4.830994 7.794026 12.846478 -0.492772 0.918887 0.003349 -0.004971 -1111600.000000 1 0 0
11.450265 -7.040306 -4.806474 14.275036 -0.551274 1.914212 0.013529 -0.007450 -5479.480000 1 0 0
10.772665 0.498994 9.047726 14.076954 0.046287 0.872736 0.002946 -0.004387 -219530.000000 1 0 0
-8.506035 -7.312606 -1.571274 11.326772 0.710096 1.709967 0.009417 -0.002898 -421487.000000 1 0 0
10.296065 -10.470806 -3.249474 15.040140 -0.793812 1.788567 0.010287 -0.002827 256802.000000 1 0 0
7.832165 -13.994806 -3.816774 16.485302 -1.060576 1.804442 0.011453 -0.000127 -928061.000000 1 0 0
1.858365 -1.179606 -11.580274 11.787609 -0.565584 2.953757 0.001724 -0.008488 111043.000000 1 0 0
-11.828635 -2.608106 -6.407474 13.703086 0.217018 2.057363 0.015945 -0.004391 1104950.000000 1 0 0
2.700565 -12.031306 -6.445874 13.913830 -1.349995 2.052479 -0.000297 -0.001271 -29166.100000 1 0 0
-5.381135 1.437994 1.137726 5.684968 -0.261127 1.369307 0.004052 -0.003573 656791.000000 1 0 0
0.136765 6.758894 -3.982974 7.846364 1.550564 2.103217 0.004806 -0.000295 915397.000000 1 0 0
5.452765 -11.696006 3.599326 13.397177 -1.134546 1.298792 -0.005864 -0.006582 -3962570.000000 1 0 0
-4.404335 -9.237506 1.029026 10.285358 1.125890 1.470581 0.012915 -0.002376 -763918.000000 1 0 0
7.158465 -6.140206 -4.639874 10.510670 -0.708979 2.028004 0.002593 -0.005357 869188.000000 1 0 0
-7.045435 -5.908406 2.195426 9.453429 0.697847 1.336420 0.006395 -0.003499 13582.800000 1 0 0
-6.099735 -0.670006 7.179126 9.444339 0.109403 0.707250 0.004654 -0.003029 -603264.000000 1 0 0
4.171765 -5.112206 3.264426 7.361708 -0.886351 1.111371 -0.003969 -0.001341 -734197.000000 1 0 0
-2.559635 10.559294 -8.835774 14.004332 -1.332978 2.253550 -0.004491 0.001546 -552687.000000 1 0 0
-2.298035 -4.919806 2.708326 6.067989 1.133814 1.108136 0.005507 -0.000846 698897.000000 1 0 0
15.033565 5.160594 6.412326 17.139362 0.330668 1.187339 0.015922 -0.001928 695864.000000 1 0 0
6.785765 0.142394 0.242626 6.791594 0.020981 1.535064 0.000435 -0.003015 3033270.000000 1 0 0
-9.787335 9.363794 0.394226 13.550940 -0.763286 1.541700 0.005714 0.000837 -1223240.000000 1 0 0
7.253165 10.457894 -2.544174 12.978781 0.964406 1.768100 0.008358 -0.002843 -793412.000000 1 0 0
1.704465 -4.200406 -5.463874 7.099474 -1.185312 2.449037 0.003977 -0.005814 22602.600000 1 0 0
0.921465 -8.102906 -7.913074 11.363227 -1.457563 2.341131 -0.000866 -0.000801 487524.000000 1 0 0
-10.393435 0.221994 -10.503574 14.778290 -0.021356 2.361351 0.009983 -0.004871 -3609170.000000 1 0 0
5.915665 -2.548406 0.598226 6.468952 -0.406764 1.478187 0.001761 -0.002387 288339.000000 1 0 0
-3.295135 5.384594 -1.060074 6.401213 -1.021632 1.737168 0.005228 -0.001145 727440.000000 1 0 0
-0.406735 4.516794 -5.082274 6.811488 -1.480989 2.413031 0.004061 -0.002600 -790735.000000 1 0 0
3.906365 -9.797306 10.097826 14.601815 -1.191395 0.807169 -0.003071 -0.002785 604106.000000 1 0 0
7.366665 -13.437106 -0.769974 15.343286 -1.069311 1.621001 0.007997 -0.006623 753718.000000 1 0 0
13.059965 -0.126006 0.606326 13.074639 -0.009648 1.524405 0.005026 -0.005471 622042.000000 1 0 0
9.303465 2.481694 -0.382274 9.636358 0.260680 1.610477 0.000098 -0.001399 318273.000000 1 0 0
-0.730735 -5.782606 4.530126 7.382043 1.445095 0.910098 0.003248 -0.000327 710840.000000 1 0 0
11.506165 -3.743006 3.380226 12.562955 -0.314507 1.298376 0.009762 -0.007519 -2194370.000000 1 0 0
1.689765 -8.193206 11.695726 14.379636 -1.367408 0.620903 -0.007005 -0.002086 357730.000000 1 0 0
9.477165 -5.909006 -5.928774 12.644499 -0.557520 2.058821 0.001222 -0.006065 -203927.000000 1 0 0
3.179665 6.382094 -0.057874 7.130549 1.108577 1.578913 0.001861 0.000378 -121444.000000 1 0 0
6.384165 -1.350106 11.437526 13.168043 -0.208407 0.518463 0.000997 -0.004096 243988.000000 1 0 0
-4.842635 -7.476806 -3.823074 9.693794 0.996048 1.976193 0.018396 -0.004718 -606767.000000 1 0 0
-3.324735 -8.419706 -5.795074 10.748405 1.194715 2.140232 0.015329 -0.003612 29211.300000 1 0 0
9.902165 5.354194 2.218026 11.473443 0.495682 1.376253 0.000808 -0.000156 -290849.000000 1 0 0
8.952365 -1.406506 0.332226 9.068267 -0.155836 1.534152 0.002308 -0.002382 1439330.000000 1 0 0
-3.895235 9.710394 9.253926 13.967811 -1.189307 0.846621 0.009269 -0.005654 246874.000000 1 0 0
-14.442335 -3.620806 -6.176774 16.119672 0.245645 1.964035 0.014661 -0.002987 839.207000 1 0 0
10.659065 6.254594 -5.951474 13.716984 0.530647 2.019587 0.004657 -0.005060 750437.000000 1 0 0
-1.713035 4.434794 2.733426 5.483931 -1.202180 1.048995 0.004010 -0.002065 546132.000000 1 0 0
6.960665 -3.711406 2.788026 8.366509 -0.489851 1.231062 0.000090 -0.004086 -2006350.000000 1 0 0
8.342365 -11.193206 -1.624974 14.054304 -0.930306 1.686677 0.007200 -0.003283 -2072870.000000 1 0 0
4.585165 0.423694 1.914926 4.987002 0.092144 1.176690 0.000537 0.000283 131867.000000 1 0 0
-10.819935 2.324794 3.786026 11.696566 -0.211644 1.241173 -0.003156 -0.002962 103651.000000 1 0 0
-0.810735 -3.081806 4.281126 5.336934 1.313553 0.639876 0.005382 -0.002735 351601.000000 1 0 0
8.659265 -8.664806 -8.493174 14.906231 -0.785718 2.177026 0.007662 -0.003978 -641090.000000 1 0 0
12.014465 -4.774206 1.068026 12.972320 -0.378238 1.488372 0.007925 -0.007425 43202.600000 1 0 0
2.932865 4.870194 3.449426 6.649738 1.028756 1.025430 -0.002586 -0.000528 -77077.900000 1 0 0
6.128065 7.443894 1.909426 9.829071 0.882048 1.375290 0.000623 -0.000900 97412.100000 1 0 0
-1.555235 -1.276106 -10.257374 10.452795 0.687130 2.947922 0.009180 -0.007815 942417.000000 1 0 0
-0.890635 -8.521306 6.102526 10.518874 1.466656 0.951883 0.001113 -0.004506 -395721.000000 1 0 0
-4.181735 -0.258006 2.314426 4.786444 0.061620 1.066105 0.005107 -0.002847 692313.000000 1 0 0
-8.330635 6.181294 -7.955474 13.072775 -0.638358 2.225032 -0.000228 -0.002688 -1652370.000000 1 0 0
6.394765 11.155694 -9.375174 15.913403 1.050294 2.200787 0.014048 -0.011166 439333.000000 1 0 0
-11.121435 -5.640206 3.055026 12.838670 0.469349 1.330536 -0.002720 -0.002681 1098770.000000 1 0 0
1.512265 -6.285606 3.054126 7.150068 -1.334692 1.129462 0.002836 -0.002995 177777.000000 1 0 0
10.208065 1.981494 7.123726 12.604696 0.191726 0.970164 0.002090 0.000317 -1429020.000000 1 0 0
-3.961835 -2.443506 -10.662774 11.634501 0.552653 2.729985 0.009257 -0.010079 -2554660.000000 1 0 0
-8.270935 11.939394 5.990526 15.711266 -0.964957 1.179607 0.005462 -0.001698 -479113.000000 1 0 0
6.975065 5.918594 -2.960574 9.614898 0.703644 1.883797 0.003131 -0.001740 -1790880.000000 1 0 0
3.949865 -9.866106 -2.253974 10.863788 -1.189991 1.779790 -0.000498 -0.003138 -1902450.000000 1 0 0
8.585565 -12.967706 -7.325774 17.191285 -0.985981 2.011010 0.007554 -0.001520 915267.000000 1 0 0
-1.210835 9.514594 3.805426 10.318667 -1.444216 1.193089 0.004199 -0.001274 37196.800000 1 0 0
0.518865 -13.201906 4.682026 14.017165 -1.531514 1.230230 0.007792 -0.007985 -1227760.000000 1 0 0
-11.315135 -7.015606 -5.174274 14.283702 0.555010 1.941477 0.012743 -0.006737 -100396.000000 1 0 0
3.558165 10.251494 -3.401774 11.372147 1.236719 1.874579 0.003452 -0.002384 -332784.000000 1 0 0
11.609165 -8.000006 -7.328974 15.889829 -0.603381 2.050185 0.030647 -0.008687 410706.000000 1 0 0
11.827765 -4.839906 -5.893774 14.073282 -0.388411 2.002911 0.013787 -0.007128 127611.000000 1 0 0
1.366165 -10.283206 -2.764174 10.735520 -1.438716 1.831209 0.000145 -0.000972 -511141.000000 1 0 0
2.497965 -12.054506 -3.927374 12.921889 -1.366466 1.879613 0.001929 -0.002528 -1897120.000000 1 0 0
-7.687235 -5.627406 7.240726 11.966178 0.631911 0.920906 -0.001109 0.001510 -3513980.000000 1 0 0
-7.256735 -0.876706 9.451526 11.948229 0.120230 0.658289 0.002940 -0.001501 441240.000000 1 0 0
16.105765 2.486794 -7.540674 17.956658 0.153194 2.004173 0.021339 -0.002509 -43199.200000 1 0 0
-2.036535 6.357394 -5.474674 8.633422 -1.260784 2.257673 -0.000380 -0.000060 -1286430.000000 1 0 0
7.750365 1.214594 8.441326 11.523861 0.155450 0.748797 0.000747 -0.003335 159112.000000 1 0 0
7.987865 8.253094 -3.776674 12.090608 0.801728 1.888477 0.008967 -0.002817 -132875.000000 1 0 0
8.142065 0.490494 4.012126 9.090157 0.060169 1.113671 0.002315 -0.001522 444379.000000 1 0 0
-7.099635 5.889394 5.366426 10.671847 -0.692492 1.043894 0.005882 -0.005162 -224320.000000 1 0 0
-6.039635 -2.056406 -4.593674 7.861796 0.328173 2.194818 0.013570 -0.005386 -914976.000000 1 0 0
-15.206735 -2.331206 3.126126 15.698789 0.152117 1.370325 0.009556 -0.006321 273772.000000 1 0 0
1.070565 1.292294 -10.537874 10.670657 0.878963 2.983671 0.005521 -0.009634 616694.000000 1 0 0
1.461665 -9.248506 9.301126 13.197813 -1.414049 0.788729 -0.002790 -0.004628 -1118080.000000 1 0 0
-0.142235 -6.684206 -1.173574 6.787939 1.549520 1.744560 0.006324 -0.000788 884175.000000 1 0 0
-0.360235 -10.234306 -8.414274 13.254086 1.535612 2.258603 0.002375 0.000866 100101.000000 1 0 0
-4.443035 6.452694 3.803626 8.708926 -0.967793 1.118813 0.007398 0.001164 -68306.600000 1 0 0
10.798265 -1.157506 -8.531474 13.810445 -0.106786 2.236681 0.010687 -0.001976 1018800.000000 1 0 0
3.181665 -1.042206 6.247626 7.088160 -0.316551 0.491942 -0.002182 -0.000694 634955.000000 1 0 0
1.897365 -12.325006 6.786026 14.197039 -1.418051 1.072433 0.002640 -0.005626 -249631.000000 1 0 0
2.872965 -4.965506 -1.384774 5.901506 -1.046272 1.807652 0.008521 -0.002460 -275509.000000 1 0 0
-1.155835 9.608294 -1.542174 9.799671 -1.451076 1.728823 0.001278 0.002801 -280195.000000 1 0 0
4.583365 -2.590506 2.670926 5.903541 -0.514436 1.101311 0.001675 -0.000575 -3187770.000000 1 0 0
17.802865 6.756494 -2.712274 19.234048 0.362725 1.712282 0.011397 0.005608 115086.000000 1 0 0
-7.121935 3.505994 -5.444674 9.625925 -0.457453 2.171989 0.003643 -0.003725 -1257370.000000 1 0 0
-13.817635 -5.838206 2.429326 15.195833 0.399767 1.410239 -0.003014 -0.002026 1006900.000000 1 0 0
6.682965 -6.182606 3.359026 9.704107 -0.746527 1.217338 -0.002729 -0.005087 1626820.000000 1 0 0
-4.608935 2.052294 3.580426 6.186570 -0.418927 0.953611 0.007374 -0.003317 892808.000000 1 0 0
7.009665 -12.039606 -5.372974 14.931724 -1.043555 1.938889 0.004470 -0.001915 210806.000000 1 0 0
2.930165 -12.320406 3.400226 13.112582 -1.337304 1.308488 0.001697 -0.008381 -714428.000000 1 0 0
3.285065 11.336594 -6.069774 13.272233 1.288746 2.045785 0.002099 0.001014 542972.000000 1 0 0
-5.609535 -8.301406 6.369026 11.872015 0.976543 1.004543 0.004205 0.000841 136945.000000 1 0 0
-4.027735 6.518794 6.375826 9.968374 -1.017344 0.876811 0.008977 -0.001750 496121.000000 1 0 0
4.247165 4.329394 -6.906174 9.191153 0.794986 2.420968 0.000377 -0.000734 -2282340.000000 1 0 0
-0.248035 -2.734306 1.501526 3.129302 1.480332 1.070338 0.006429 -0.002021 -333108.000000 1 0 0
-13.244135 -0.927006 6.505726 14.784821 0.069880 1.115167 0.001569 -0.004149 -358883.000000 1 0 0
-0.463235 -9.268506 -5.962674 11.030561 1.520858 2.141898 0.003591 -0.001085 336093.000000 1 0 0
2.137465 -1.722406 -3.942474 4.804013 -0.678278 2.533366 0.005428 -0.003570 -538105.000000 1 0 0
11.392465 -1.972206 1.145726 11.618543 -0.171416 1.472024 0.004978 -0.006240 63179.600000 1 0 0
0.489265 -4.125106 -1.966474 4.595966 -1.452741 2.012931 0.008250 -0.002829 -1896690.000000 1 0 0
1.147165 -7.292106 -11.262974 13.466454 -1.414759 2.561428 -0.006598 0.002541 -554920.000000 1 0 0
-4.501035 4.165794 -10.026374 11.753354 -0.746736 2.592627 0.000443 -0.006283 -158390.000000 1 0 0
-0.982435 5.791994 -2.045974 6.220802 -1.402776 1.905927 0.004488 -0.001127 -1752140.000000 1 0 0
-11.289535 1.732394 -3.988174 12.097947 -0.152264 1.906737 0.003192 -0.001468 75016.900000 1 0 0
-1.692935 -11.234306 4.127326 12.087617 1.421228 1.222336 0.009097 -0.005344 -763020.000000 1 0 0
-3.503335 -5.167306 -9.580174 11.434778 0.975002 2.564056 0.007842 -0.000738 -1800090.000000 1 0 0
-12.825235 -3.807706 -8.386174 15.789655 0.288603 2.130716 0.021583 -0.004427 186875.000000 1 0 0
11.476765 4.454994 0.470226 12.320073 0.370271 1.532620 0.004955 0.000105 -156147.000000 1 0 0
-8.924635 -2.340006 -3.029674 9.711008 0.256424 1.888076 0.008760 -0.003065 -204070.000000 1 0 0
-2.437235 -6.109706 -6.503474 9.250070 1.191228 2.350506 0.008414 -0.006965 -629536.000000 1 0 0
0.011965 2.728894 -1.895674 3.322737 1.566412 2.177930 0.005014 -0.001913 517764.000000 1 0 0
8.092265 6.019594 -5.191474 11.343353 0.639566 2.046165 0.004295 -0.002283 -1146460.000000 1 0 0
-9.726735 -0.936306 -0.927774 9.815641 0.095965 1.665458 0.003883 -0.002200 -83551.400000 1 0 0
6.219865 0.519894 -8.874774 10.849821 0.083392 2.528661 -0.002148 -0.000727 367165.000000 1 0 0
-4.181535 2.515694 7.868726 9.259093 -0.541610 0.555119 0.004972 -0.000359 -255907.000000 1 0 0
-10.167835 -3.309506 1.374126 10.780813 0.314673 1.442988 0.003103 -0.003811 994068.000000 1 0 0
-1.811135 -8.144906 -7.870274 11.470001 1.351992 2.326996 0.007099 -0.005186 287095.000000 1 0 0
-9.440735 -9.729606 4.177826 14.186154 0.800466 1.271864 -0.001074 0.000179 -507616.000000 1 0 0
-1.123835 -10.768206 7.281626 13.047580 1.466807 0.978723 0.004230 -0.004860 -342148.000000 1 0 0
9.451965 3.748694 -3.749274 10.837407 0.377576 1.924055 0.000068 -0.000849 -724341.000000 1 0 0
12.955265 -0.847006 3.139626 13.357154 -0.065286 1.333524 0.010583 -0.003588 -462789.000000 1 0 0
6.453165 11.940494 -6.836574 15.197285 1.075320 2.037399 0.008420 -0.003656 -196283.000000 1 0 0
-11.778135 0.001494 -6.525374 13.464954 -0.000127 2.076724 0.008324 -0.000992 829259.000000 1 0 0
-7.450435 -6.610706 -11.490174 15.206397 0.725749 2.427388 0.018778 -0.003902 -1146560.000000 1 0 0
4.181965 6.045794 6.614326 9.888870 0.965653 0.838114 -0.001662 0.000689 -3627540.000000 1 0 0
-4.233035 -1.392606 -7.477374 8.704543 0.317832 2.604148 0.009494 -0.011219 -1491530.000000 1 0 0
9.681165 9.319594 0.879726 13.466762 0.766371 1.505424 0.006767 0.002686 -343262.000000 1 0 0
-8.888835 3.952394 4.769826 10.834392 -0.418393 1.114921 0.002778 -0.004433 471318.000000 1 0 0
-7.062635 7.960594 -12.180074 16.174241 -0.845098 2.423488 0.003723 -0.003826 -1328680.000000 1 0 0
11.055465 -3.644506 7.194826 13.684708 -0.318438 1.017192 0.009057 -0.005238 867791.000000 1 0 0
11.907165 6.877694 6.433626 15.181396 0.523793 1.133178 0.005171 0.001062 191325.000000 1 0 0
-9.833735 -0.893206 -14.777874 17.773174 0.090582 2.552546 0.008233 0.004030 539855.000000 1 0 0
1.713365 -13.011306 11.921426 17.729921 -1.439867 0.833363 0.001557 -0.003148 -68917.200000 1 0 0
2.980165 3.090294 13.022126 13.711567 0.803538 0.318461 0.004135 -0.002442 384855.000000 1 0 0
-2.552335 -1.385906 10.862426 11.243996 0.497450 0.261263 0.009713 -0.002571 -265558.000000 1 0 0
2.657165 -10.007506 -8.281874 13.258965 -1.311267 2.245447 -0.009602 0.003381 -902635.000000 1 0 0
13.847365 3.688994 -7.364774 16.112047 0.260357 2.045525 0.011124 -0.003899 -2498020.000000 1 0 0
7.183465 -1.670506 5.083126 8.957172 -0.228488 0.967339 -0.003029 -0.001362 344378.000000 1 0 0
-1.238535 8.716294 10.012526 13.332607 -1.429647 0.721251 0.011447 -0.004174 29634.600000 1 0 0
-12.348435 -4.595706 0.886826 13.205712 0.356287 1.503591 -0.000058 -0.001345 279616.000000 1 0 0
-4.834035 4.906694 -5.382874 8.741789 -0.792857 2.234151 0.003992 -0.005134 70942.900000 1 0 0
-11.226935 0.347294 2.074926 11.422347 -0.030924 1.388127 -0.001625 -0.001140 -2423850.000000 1 0 0
-1.488935 2.186794 -4.064874 4.849969 -0.973021 2.564631 0.006640 -0.005334 845455.000000 1 0 0
3.030365 -9.815806 13.160726 16.695445 -1.271356 0.662784 0.003443 -0.004872 -1693090.000000 1 0 0
9.038065 4.664494 -1.461774 10.275256 0.476440 1.713542 0.003403 -0.002158 -1521790.000000 1 0 0
4.103165 2.317094 3.855026 6.088194 0.514066 0.885120 -0.004061 0.003334 223960.000000 1 0 0
-5.550935 -3.171906 7.413526 9.789497 0.519138 0.711637 0.003316 -0.002722 326724.000000 1 0 0
1.694265 -5.793806 7.795826 9.859697 -1.286302 0.658884 -0.004281 -0.003465 -1139980.000000 1 0 0
-5.766035 -6.146506 -9.832774 12.950295 0.817326 2.432987 0.015271 -0.004907 155482.000000 1 0 0
-11.725735 -5.776306 5.463426 14.167131 0.457724 1.174894 0.003706 -0.004085 -1437930.000000 1 0 0
10.499065 6.098794 4.582426 12.977838 0.526249 1.209918 0.003726 0.001869 -1536620.000000 1 0 0
1.625565 -3.708006 0.372726 4.065796 -1.157636 1.478994 0.007412 -0.002300 -822952.000000 1 0 0
8.801465 4.250694 7.013826 12.030292 0.449917 0.948363 -0.000098 0.003928 875517.000000 1 0 0
-7.969935 12.164494 3.535926 14.966548 -0.990788 1.332286 0.007541 -0.001293 -22744.300000 1 0 0
-6.101435 13.218394 -7.021674 16.163457 -1.138349 2.020187 0.005918 -0.004720 251989.000000 1 0 0
4.519565 -6.964106 -0.972674 8.358908 -0.995139 1.687424 0.004106 -0.005058 -371227.000000 1 0 0
-1.984935 -8.156806 11.045226 13.873373 1.332089 0.649898 -0.000803 -0.004308 -772979.000000 1 0 0
11.618165 8.895294 -5.800174 15.740077 0.653434 1.948188 0.017026 -0.006063 642251.000000 1 0 0
-3.378435 -2.958106 -1.937174 4.890487 0.719161 1.978073 0.014055 -0.005499 -2408510.000000 1 0 0
-2.105635 5.967294 4.826226 7.958313 -1.231573 0.919223 0.008582 -0.000504 -493874.000000 1 0 0
0.489565 -11.364006 -5.667874 12.708466 -1.527743 2.033079 0.001000 -0.003621 -302191.000000 1 0 0
-8.850335 6.270494 -1.480674 10.947142 -0.616410 1.706469 0.007353 -0.001481 -993327.000000 1 0 0
2.911165 -0.033306 3.947626 4.905073 -0.011440 0.635450 -0.002098 0.001038 -343424.000000 1 0 0
-10.050135 3.952594 -1.042874 10.849691 -0.374706 1.667065 0.005557 -0.004185 -161730.000000 1 0 0
6.521065 5.547994 13.592026 16.063863 0.704947 0.562125 0.012139 -0.000466 -1093320.000000 1 0 0
-8.736135 -1.637906 5.718726 10.569136 0.185335 0.999078 0.002492 -0.004372 -272710.000000 1 0 0
12.985365 -1.759506 -1.477674 13.187080 -0.134679 1.683087 0.009458 -0.005961 -1827450.000000 1 0 0
5.179265 -5.476506 5.492726 9.326679 -0.813286 0.941067 -0.004166 -0.002994 -69913.800000 1 0 0
-9.035135 -1.126206 3.317326 9.690545 0.124008 1.221405 0.000413 -0.002670 417806.000000 1 0 0
2.023565 5.606794 5.605726 8.182610 1.224433 0.816086 0.001828 -0.002768 -1029500.000000 1 0 0
9.214965 3.115794 -7.338474 12.185111 0.326055 2.217112 0.000927 -0.001225 -1092080.000000 1 0 0
2.303765 -2.384006 -1.624874 3.692023 -0.802514 2.026511 0.006324 -0.000667 -353737.000000 1 0 0
-6.253735 0.381394 -3.857674 7.357739 -0.060911 2.122691 0.005755 -0.001976 -2113570.000000 1 0 0
-3.971435 4.148294 5.059226 7.653523 -0.807176 0.848603 0.007553 -0.002043 872620.000000 1 0 0
-6.424835 1.747494 -12.294774 13.981907 -0.265566 2.645259 0.002276 -0.006506 -2337970.000000 1 0 0
-0.190235 3.092794 6.246626 6.972940 -1.509364 0.460483 0.004963 -0.002287 1510690.000000 1 0 0
-8.733235 9.561694 -2.079774 13.115672 -0.830651 1.730040 0.007974 0.000581 83779.200000 1 0 0
-1.244435 -3.766806 -6.112674 7.287128 1.251716 2.565930 0.004103 -0.006747 48977.400000 1 0 0
-3.136135 7.095894 -2.915274 8.287694 -1.154645 1.930246 0.001026 0.002929 555814.000000 1 0 0
7.032165 -0.468106 -4.347874 8.280970 -0.066468 2.123563 0.000581 -0.001743 -243811.000000 1 0 0
-5.180335 -10.841806 6.868026 13.840174 1.125057 1.051536 0.000616 -0.003410 506566.000000 1 0 0
9.775065 8.403194 -1.555274 12.984007 0.710073 1.690868 0.007086 0.000225 -97711.700000 1 0 0
13.666665 4.577594 -4.199474 15.012250 0.323201 1.854316 0.005636 -0.006558 503284.000000 1 0 0
4.693265 1.106294 -6.862474 8.387143 0.231494 2.529093 -0.001186 -0.001685 -695863.000000 1 0 0
9.060565 -4.871906 3.697426 10.931618 -0.493354 1.225758 0.002363 -0.006069 -229399.000000 1 0 0
-8.704135 -3.291206 -0.807774 9.340584 0.361503 1.657385 0.006812 -0.002660 20692.800000 1 0 0
-8.449735 -4.319406 -10.450274 14.116073 0.472558 2.404328 0.016351 -0.004615 -6464.160000 1 0 0
10.460265 -1.235406 10.701826 15.015740 -0.117560 0.777446 0.004782 -0.000238 1188240.000000 1 0 0
2.042165 -11.682506 9.740726 15.347089 -1.397740 0.883182 -0.003870 -0.004835 336026.000000 1 0 0
-6.447635 -10.628906 1.936326 12.581535 1.025528 1.416280 0.009450 -0.000325 -1304800.000000 1 0 0
-3.665435 -1.472806 6.562426 7.659635 0.382065 0.541853 0.008075 -0.003993 -741416.000000 1 0 0
4.599165 -7.580906 4.039726 9.743811 -1.025481 1.143300 -0.006006 -0.001737 363800.000000 1 0 0
11.550365 -9.418806 -5.293774 15.816096 -0.684094 1.912092 0.018801 -0.006763 692553.000000 1 0 0
11.312365 1.070694 11.603626 16.240693 0.094367 0.774918 0.006320 0.003089 -29974.600000 1 0 0
-10.230535 -3.451406 4.399426 11.658946 0.325373 1.183870 0.004709 -0.003618 1038560.000000 1 0 0
2.158065 8.759594 8.920126 12.686858 1.329241 0.791049 -0.001339 -0.000127 -467461.000000 1 0 0
6.625365 8.737494 4.122926 11.714852 0.922024 1.211153 0.000287 0.001859 -907579.000000 1 0 0
-4.210035 3.586294 0.514526 5.554335 -0.705564 1.478028 0.007665 -0.002664 -1533950.000000 1 0 0
4.940265 6.887594 4.169626 9.446213 0.948574 1.113630 0.000701 -0.000217 -1415260.000000 1 0 0
-8.323935 13.073594 1.099726 15.537572 -1.003829 1.499959 0.016506 -0.002454 385827.000000 1 0 0
8.785365 8.172994 -9.090974 15.054111 0.749304 2.219164 0.008534 -0.008695 204856.000000 1 0 0
7.083965 1.899394 6.039726 9.500976 0.261964 0.881887 -0.002083 0.000244 -294346.000000 1 0 0
11.589965 -6.271706 3.215726 13.564751 -0.496010 1.331453 0.009554 -0.005224 -296097.000000 1 0 0
11.478965 4.720294 -2.138074 12.594410 0.390135 1.741386 0.001058 -0.001115 -182684.000000 1 0 0
-3.983335 14.560694 -5.913574 16.212684 -1.303762 1.944160 -0.004770 0.008427 1887310.000000 1 0 0
7.178465 -3.081206 7.040726 10.516464 -0.405447 0.837267 0.000553 -0.005871 19500.600000 1 0 0
-8.049935 -0.491806 0.954926 8.121282 0.061019 1.452941 0.004656 -0.003516 405089.000000 1 0 0
-3.272135 1.058494 10.672526 11.212943 -0.312863 0.311731 0.010235 -0.001455 -322062.000000 1 0 0
7.185965 -1.168806 -1.894574 7.522872 -0.161239 1.825379 0.003663 -0.003002 -1688170.000000 1 0 0
-7.685635 5.362294 3.001026 9.840190 -0.609183 1.260883 0.004991 -0.001925 915814.000000 1 0 0
9.438465 -2.353406 2.830026 10.130754 -0.244359 1.287679 0.000775 -0.006173 -1505660.000000 1 0 0
0.341065 3.486294 1.591926 3.847700 1.473277 1.144244 0.002041 -0.000316 -3135260.000000 1 0 0
-7.645435 -3.088506 3.851026 9.100657 0.383922 1.133867 0.004388 -0.003675 1021000.000000 1 0 0
-2.184035 8.461694 -6.811974 11.080309 -1.318201 2.232906 -0.002179 0.001430 -914507.000000 1 0 0
4.507065 9.656694 7.344826 12.942636 1.134118 0.967341 -0.001534 0.003698 503999.000000 1 0 0
-11.855935 -3.119306 6.855926 14.046245 0.257270 1.060889 0.008624 -0.007576 -2115900.000000 1 0 0
-4.802535 2.336794 -5.644874 7.771072 -0.452850 2.383859 0.008054 -0.006368 45547.900000 1 0 0
-2.740035 3.049194 -1.912974 4.523809 -0.838750 2.007404 0.005769 -0.001895 1592260.000000 1 0 0
2.380765 5.213194 11.392626 12.752935 1.142401 0.466087 0.006941 -0.003465 327820.000000 1 0 0
-0.614235 1.574194 4.587026 4.888372 -1.198775 0.352957 0.005341 -0.001940 -507955.000000 1 0 0
5.092765 1.591494 7.577226 9.267333 0.302886 0.613518 -0.003339 -0.000994 774968.000000 1 0 0
3.418365 -8.110606 1.942926 9.013441 -1.171921 1.353532 -0.000809 -0.002965 1093020.000000 1 0 0
5.123465 6.451494 -4.639174 9.454818 0.899632 2.083652 0.004229 -0.001821 -1992340.000000 1 0 0
-4.072835 2.892094 -8.010274 9.440163 -0.617468 2.584000 0.008467 -0.008662 -592061.000000 1 0 0
-8.598635 -2.235306 -12.913174 15.674284 0.254331 2.538957 0.010138 -0.002484 -673870.000000 1 0 0
-7.901535 8.060794 1.279426 11.359911 -0.795375 1.457930 0.005545 -0.001554 -1125920.000000 1 0 0
7.335265 0.904594 -6.503674 9.844906 0.122702 2.292431 -0.002678 -0.000698 161363.000000 1 0 0
8.964565 8.808294 5.473526 13.707988 0.776606 1.160049 -0.000308 0.004147 773145.000000 1 0 0
9.499165 -1.030806 -1.302574 9.643308 -0.108093 1.706286 0.001925 -0.003166 2181550.000000 1 0 0
5.453265 0.110894 4.330326 6.964346 0.020332 0.899776 -0.003252 0.000415 -534227.000000 1 0 0
-4.188835 -7.235406 -8.029374 11.591734 1.046009 2.335996 0.014740 -0.008533 -393540.000000 1 0 0
-2.063235 7.494494 -0.494674 7.789036 -1.302151 1.634348 0.003897 0.000781 288587.000000 1 0 0
13.520265 -3.329406 -7.230274 15.689467 -0.241449 2.049733 0.019843 -0.006093 1100990.000000 1 0 0
-4.810335 -5.082106 1.616226 7.181874 0.812864 1.343810 0.010991 -0.004425 1780340.000000 1 0 0
-8.955535 1.323794 2.472526 9.384425 -0.146756 1.304177 0.002264 -0.004033 -1263410.000000 1 0 0
-1.095235 11.136594 10.138126 15.099830 -1.472766 0.834691 0.005525 -0.003547 701065.000000 1 0 0
-8.550335 0.323794 7.408226 11.317901 -0.037851 0.857198 -0.000249 -0.002633 -272246.000000 1 0 0
-6.076835 12.903194 -2.101574 14.416551 -1.130653 1.717093 0.002758 0.001295 -12867.600000 1 0 0
-13.093135 -0.807206 3.212926 13.505727 0.061573 1.330600 0.001367 -0.004847 652685.000000 1 0 0
-6.688335 12.790494 8.683926 16.844617 -1.088986 1.029169 0.009071 -0.013291 -980866.000000 1 0 0
-8.030035 0.933494 -14.105874 16.258184 -0.115731 2.621186 0.003108 -0.001495 -242554.000000 1 0 0
7.302865 2.816994 3.668726 8.644468 0.368152 1.132495 -0.000369 0.000047 -713007.000000 1 0 0
-1.653235 0.754794 -1.896074 2.626404 -0.428292 2.377381 0.007972 -0.003221 696384.000000 1 0 0
-6.279735 9.646094 -10.409874 15.519268 -0.993709 2.306044 -0.000528 0.000718 -156468.000000 1 0 0
-10.099835 13.789294 5.247226 17.879728 -0.938628 1.272938 0.004744 -0.004229 450577.000000 1 0 0
-5.704135 8.221194 2.498726 10.313526 -0.964221 1.326085 0.005540 0.000142 -951188.000000 1 0 0
-2.488935 -10.682506 -1.279174 11.042963 1.341888 1.686893 0.008736 -0.002143 1283840.000000 1 0 0
-2.282535 -12.460506 8.752326 15.397318 1.389623 0.966198 0.001516 -0.002737 180600.000000 1 0 0
-14.780535 -6.411706 -1.688574 16.199552 0.409296 1.675222 0.010748 0.000405 302497.000000 1 0 0
-2.786835 -9.298206 3.366026 10.273910 1.279599 1.237004 0.006678 -0.003163 -1150820.000000 1 0 0
4.644265 -2.777106 7.541926 9.282358 -0.538922 0.622367 -0.005595 0.000876 -1423900.000000 1 0 0
-15.052335 -1.232106 -0.344374 15.106604 0.081673 1.593595 0.003702 -0.004717 233564.000000 1 0 0
5.543265 8.789494 -2.797274 10.761400 1.008131 1.833752 0.005513 -0.002001 379356.000000 1 0 0
-5.643135 -5.708706 8.439626 11.647386 0.791174 0.760351 0.003889 0.001188 -2737400.000000 1 0 0
3.450765 3.667894 7.061226 8.673069 0.815890 0.619523 -0.001754 -0.000493 362876.000000 1 0 0
3.349965 2.257794 9.326626 10.163948 0.593045 0.408750 0.006247 -0.004188 -254498.000000 1 0 0
9.856365 -3.202306 5.158126 11.576224 -0.314139 1.108975 0.006999 -0.005887 -494509.000000 1 0 0
6.479265 10.053494 -4.975274 12.954032 0.998312 1.964998 0.009501 -0.002757 660895.000000 1 0 0
-4.568235 12.041294 -8.639374 15.508072 -1.208191 2.161672 -0.002672 0.001169 60142.200000 1 0 0
-3.413635 -7.298806 2.173926 8.345744 1.133323 1.307274 0.009276 -0.005168 780573.000000 1 0 0
-7.526535 -4.007906 1.133626 8.602160 0.489311 1.438628 0.006103 -0.003804 3216250.000000 1 0 0
-1.910335 -3.862406 -10.886274 11.708054 1.111480 2.764695 0.008215 -0.005612 -1208810.000000 1 0 0
-5.161435 8.189294 -4.310674 10.596549 -1.008419 1.989744 0.002591 -0.001447 -1139420.000000 1 0 0
-10.946735 -3.289906 -10.190674 15.313534 0.291950 2.298918 0.021229 -0.001356 1150170.000000 1 0 0
4.739565 -11.287606 -7.708574 14.467054 -1.173261 2.132745 -0.004155 -0.000943 -3256610.000000 1 0 0
-9.395435 -3.989006 7.276726 12.535435 0.401505 0.951463 -0.001790 -0.004240 -649769.000000 1 0 0
-5.721135 -9.512506 -5.216674 12.265107 1.029324 2.010119 0.017141 -0.008272 1558620.000000 1 0 0
4.848265 4.244694 -9.416374 11.410135 0.719118 2.541466 -0.001429 0.002489 272213.000000 1 0 0
-3.296535 -7.156906 -14.069174 16.125449 1.139155 2.631056 -0.004391 0.003010 -193504.000000 1 0 0
0.701565 -0.779606 -8.725274 8.788082 -0.838039 3.021964 0.005014 -0.011130 -413188.000000 1 0 0
-7.720535 2.302794 -2.910174 8.566133 -0.289868 1.917426 0.006104 -0.002555 -509904.000000 1 0 0
-2.308735 7.553094 -12.608674 14.878109 -1.274148 2.581988 -0.000558 -0.004001 -525743.000000 1 0 0
-9.926435 8.921494 7.645326 15.381098 -0.732130 1.050589 0.005067 -0.003511 -123835.000000 1 0 0
-10.564135 -3.180006 -14.325774 18.081515 0.292391 2.485347 0.023256 0.006490 -186424.000000 1 0 0
-3.279135 4.907794 7.999426 9.941327 -0.981768 0.635687 0.008940 -0.002855 43076.900000 1 0 0
8.849965 -2.331306 -3.515674 9.803919 -0.257574 1.937563 -0.000764 -0.002025 -5454010.000000 1 0 0
1.944165 -8.508506 -1.054374 8.791255 -1.346156 1.691020 0.002765 -0.001168 -630337.000000 1 0 0
-13.527535 -2.869306 4.983326 14.699002 0.209011 1.224916 0.011999 -0.009066 379976.000000 1 0 0
7.122265 2.751294 -1.851074 7.856382 0.368636 1.808647 0.000983 -0.001132 1100790.000000 1 0 0
-11.266235 4.571094 8.907426 15.072000 -0.385440 0.938509 -0.003896 -0.001558 -3521600.000000 1 0 0
-1.782435 -2.541206 7.937726 8.523045 0.959123 0.372762 0.003003 -0.003122 181557.000000 1 0 0
2.741565 12.001594 -9.981674 15.848919 1.346216 2.252094 0.000535 -0.005867 908930.000000 1 0 0
3.740865 -4.986606 -7.028874 9.394966 -0.927178 2.416071 -0.002902 -0.005809 -83972.800000 1 0 0
8.312565 -13.759906 -9.751574 18.802312 -1.027357 2.116052 0.002810 0.002269 24368.300000 1 0 0
-6.362235 -5.776106 -0.423674 8.603543 0.737148 1.620060 0.012611 -0.004192 -98512.400000 1 0 0
-1.282535 -4.040706 9.918826 10.786812 1.263450 0.403907 0.001085 -0.002080 1461450.000000 1 0 0
2.884865 3.200794 1.868526 4.696692 0.837265 1.161636 -0.001891 0.000714 -391964.000000 1 0 0
-9.057135 13.397294 7.745026 17.930550 -0.976331 1.124147 0.010379 -0.018590 -135584.000000 1 0 0
3.966465 -11.109506 0.035826 11.796409 -1.227869 1.567759 -0.000178 -0.002962 202787.000000 1 0 0
-12.567735 -1.385106 -9.149774 15.607205 0.109768 2.197222 0.020139 -0.003474 -2619.280000 1 0 0
-4.182635 0.956994 -13.562274 14.224822 -0.224930 2.835184 0.004932 -0.008532 646480.000000 1 0 0
3.941665 -3.185906 4.995526 7.116319 -0.679760 0.792620 -0.001796 0.001551 -258378.000000 1 0 0
1.772365 -1.197506 1.081326 2.396782 -0.594199 1.102734 0.003070 -0.000417 809542.000000 1 0 0
8.082465 -8.996406 7.383926 14.169825 -0.838860 1.022655 0.003836 -0.003035 -857048.000000 1 0 0
-0.063035 2.216994 -6.259774 6.641069 -1.542371 2.801085 0.005064 -0.006589 -968651.000000 1 0 0
-3.851435 -9.763006 -3.396274 11.031071 1.195047 1.883763 0.014962 -0.004042 840000.000000 1 0 0
-9.443235 2.420394 -5.530974 11.208241 -0.250908 2.086876 0.003110 -0.000572 -1262770.000000 1 0 0
8.960465 -7.587306 5.319926 12.890258 -0.702606 1.145370 -0.000521 -0.003312 1350940.000000 1 0 0
-5.525035 -4.249206 4.592326 8.346929 0.655602 0.988215 0.004892 -0.002815 -985535.000000 1 0 0
-0.238735 -12.488906 10.452226 16.287382 1.551683 0.874034 0.006743 -0.000689 -800298.000000 1 0 0
-14.119235 -8.211306 3.194126 16.642740 0.526757 1.377675 -0.005131 -0.003087 -1257030.000000 1 0 0
11.017365 -1.250806 -3.523374 11.634475 -0.113046 1.878467 0.006054 -0.003134 261269.000000 1 0 0
-13.614035 3.075894 2.720026 14.219762 -0.222205 1.378325 -0.001694 -0.001689 -709599.000000 1 0 0
-6.327835 6.128994 0.943026 8.859761 -0.769437 1.464155 0.006160 -0.000377 902111.000000 1 0 0
7.164465 -6.850906 -0.471274 9.924040 -0.763029 1.618302 -0.000436 -0.004284 -529627.000000 1 0 0
-7.021635 7.864294 10.093226 14.595331 -0.841946 0.807180 0.005539 -0.005112 450272.000000 1 0 0
-12.731735 -5.003906 -2.030974 13.829715 0.374480 1.718185 0.002344 -0.000665 -2789290.000000 1 0 0
-9.548635 -5.565106 0.140426 11.052899 0.527689 1.558091 0.005930 -0.001757 -398151.000000 1 0 0
-1.688535 1.794394 2.232726 3.325066 -0.815782 0.834588 0.007792 -0.001016 83215.200000 1 0 0
-7.211335 7.340694 7.583926 12.782999 -0.794287 0.935666 0.005357 -0.002916 -273419.000000 1 0 0
5.705465 7.058194 -0.458074 9.087368 0.890987 1.621225 0.003405 -0.001891 -868462.000000 1 0 0
-0.044935 -4.017106 7.468826 8.480715 1.559611 0.493493 0.001939 -0.003177 -1387110.000000 1 0 0
6.336165 0.690194 13.140926 14.605043 0.108501 0.451594 0.004586 -0.002601 868104.000000 1 0 0
5.680365 6.120094 -7.814674 11.436399 0.822645 2.323091 -0.002293 -0.000890 -226952.000000 1 0 0
10.027565 5.349894 9.051426 14.529340 0.490102 0.898255 0.001263 0.001532 -2470450.000000 1 0 0
-1.113435 -5.011006 -8.518274 9.945397 1.352150 2.599254 0.010494 -0.006490 903255.000000 1 0 0
10.021065 -3.600406 -7.784274 13.190132 -0.344921 2.202052 0.011198 -0.008758 509417.000000 1 0 0
8.374165 -5.495706 1.384026 10.111624 -0.580770 1.433491 0.001427 -0.006745 931625.000000 1 0 0
15.722965 3.165694 -4.981074 16.794175 0.198686 1.871922 0.019229 -0.000203 -756260.000000 1 0 0
-6.789035 3.541894 1.157626 7.744424 -0.480863 1.420755 0.006073 -0.003420 384031.000000 1 0 0
-1.638435 3.718694 0.303626 4.074965 -1.155792 1.496217 0.006470 -0.004282 -523278.000000 1 0 0
-2.573335 10.030894 7.057526 12.531941 -1.319671 0.972588 0.008831 -0.001166 1836640.000000 1 0 0
5.541165 -5.674306 -8.690974 11.765853 -0.797269 2.401878 -0.001718 -0.004596 -711901.000000 1 0 0
-1.145635 -0.927706 6.216426 6.388824 0.680673 0.232837 0.004475 -0.002691 -96870.000000 1 0 0
-5.648735 5.049294 -7.850774 10.910464 -0.729424 2.373970 0.000635 -0.003685 -404608.000000 1 0 0
6.728965 -1.253506 2.658926 7.343033 -0.184174 1.200274 -0.001521 0.000358 -929653.000000 1 0 0
8.868965 7.547294 3.189226 12.074408 0.705062 1.303493 0.002309 0.001945 278260.000000 1 0 0
-5.263035 -4.753906 -7.698774 10.467583 0.734615 2.397182 0.018500 -0.008204 1995790.000000 1 0 0
-2.311335 7.819894 -10.028174 12.925064 -1.283408 2.458890 -0.000587 -0.000266 524018.000000 1 0 0
-2.811435 -2.217706 1.626426 3.932894 0.667884 1.144453 0.004234 -0.000438 191695.000000 1 0 0
6.106965 -2.111406 -9.214274 11.254150 -0.332872 2.530017 -0.001267 -0.002917 914257.000000 1 0 0
1.236165 -7.649806 5.089426 9.270917 -1.410587 0.989669 -0.000731 -0.003803 436118.000000 1 0 0
1.903065 11.830694 1.263026 12.049158 1.411304 1.465781 0.005081 -0.001725 423652.000000 1 0 0
-1.195035 7.058294 2.638926 7.629649 -1.403077 1.217622 0.005389 -0.000632 554585.000000 1 0 0
8.753265 7.884994 -6.624774 13.515931 0.733260 2.083053 0.011704 -0.006868 -373178.000000 1 0 0
3.751965 -11.058606 5.556826 12.932453 -1.243703 1.126657 0.003207 -0.004258 774668.000000 1 0 0
7.763865 -7.146506 12.468426 16.334375 -0.744017 0.702353 0.004643 -0.006711 359893.000000 1 0 0
-8.730835 0.145794 -3.848574 9.542550 -0.016697 1.985924 0.007356 -0.002617 -445321.000000 1 0 0
-3.254935 -5.062106 11.229826 12.740821 0.999358 0.491967 0.005397 -0.002985 274994.000000 1 0 0
-8.165735 0.133794 -11.585374 14.174556 -0.016383 2.527568 0.006514 -0.006799 -1415810.000000 1 0 0
1.417565 -5.068206 5.397826 7.538749 -1.298068 0.772725 0.000367 -0.000549 -483840.000000 1 0 0
6.640565 3.774294 -7.515774 10.715841 0.516837 2.348115 -0.000684 -0.000826 -383900.000000 1 0 0
16.289465 4.276394 -1.121874 16.878768 0.256732 1.637312 0.010579 0.005296 -261309.000000 1 0 0
8.017665 7.461194 0.067826 10.952486 0.749463 1.564604 0.001963 -0.001325 -2690710.000000 1 0 0
5.368765 -10.441606 13.928326 18.216724 -1.095877 0.700391 0.011039 -0.009333 958203.000000 1 0 0
-5.170635 -9.133306 8.919126 13.773292 1.055654 0.866409 -0.002674 -0.005886 500313.000000 1 0 0
-12.536035 -3.109806 2.774026 13.210538 0.243161 1.359236 0.001363 -0.004284 -101946.000000 1 0 0
-2.019035 -1.263206 -5.932374 6.392594 0.559065 2.759824 0.010583 -0.009829 308700.000000 1 0 0
-2.456435 13.067294 -4.326774 13.982461 -1.384981 1.885404 -0.002322 0.005564 401085.000000 1 0 0
4.097965 -0.476006 -4.932474 6.430334 -0.115639 2.445048 -0.001234 -0.003569 -196259.000000 1 0 0
-8.686135 3.942894 -7.448074 12.102445 -0.426117 2.233714 0.007681 -0.002495 597295.000000 1 0 0
-4.566135 7.986894 -11.422174 14.666496 -1.051443 2.463537 -0.001316 -0.000253 -2147920.000000 1 0 0
-10.098235 -6.434906 7.342726 14.046281 0.567346 1.020720 -0.003053 -0.001480 -1969630.000000 1 0 0
8.144565 5.196194 4.076126 10.485665 0.567890 1.171540 -0.000828 0.001925 -1403730.000000 1 0 0
-6.717135 -7.554306 3.967926 10.859645 0.843992 1.196752 0.007749 -0.002027 -889837.000000 1 0 0
-4.148335 11.885694 8.024226 14.928717 -1.234996 1.003323 0.007389 -0.006106 4649.360000 1 0 0
-7.233235 9.927094 -7.939974 14.625665 -0.941109 2.144658 0.005367 -0.004281 -303281.000000 1 0 0
13.129465 5.443594 4.539826 14.920642 0.393037 1.261630 0.002412 0.001520 1327430.000000 1 0 0
5.533765 3.964194 -3.724774 7.759595 0.621625 2.071476 0.000663 -0.001006 488020.000000 1 0 0
-2.896635 -4.183306 5.059826 7.175820 0.965171 0.788202 0.005775 -0.002180 -1002480.000000 1 0 0
12.454565 -2.436906 -5.115174 13.682825 -0.193223 1.953941 0.013729 -0.006303 -2751950.000000 1 0 0
-5.274335 9.796294 7.081226 13.188243 -1.076902 1.003997 0.006251 -0.001660 -604745.000000 1 0 0
1.874665 3.851394 -0.493274 4.311719 1.117805 1.685450 -0.001081 0.000097 441573.000000 1 0 0
0.062765 9.733194 7.786026 12.464397 1.564348 0.896099 0.004253 -0.001191 -1106600.000000 1 0 0
-5.661435 2.100294 5.931326 8.464261 -0.355244 0.794349 0.006233 -0.004125 754377.000000 1 0 0
8.881865 0.835394 10.733026 13.956477 0.093780 0.693465 0.001388 0.001501 -1197880.000000 1 0 0
0.514265 -2.865806 -10.172374 10.580856 -1.393238 2.862821 0.001331 -0.006725 -2650010.000000 1 0 0
1.213765 10.580694 -2.627574 10.969432 1.456581 1.812684 0.002675 0.001875 411916.000000 1 0 0
2.252465 -4.303606 11.640426 12.613253 -1.088612 0.395322 -0.001854 -0.000970 -741341.000000 1 0 0
6.560365 -2.996606 9.518126 11.942058 -0.428473 0.648442 -0.002083 -0.002238 742031.000000 1 0 0
-10.648735 -8.221406 5.594926 14.570185 0.657467 1.176674 -0.000204 -0.002168 -1649920.000000 1 0 0
-3.044935 0.771094 -6.999374 7.671861 -0.248024 2.719769 0.012089 -0.007260 669640.000000 1 0 0
11.015565 2.521294 -5.000174 12.357238 0.225009 1.987376 0.003237 -0.002003 -2847600.000000 1 0 0
-1.991035 -4.048306 0.000926 4.511431 1.113715 1.570591 0.009110 -0.003205 816729.000000 1 0 0
-1.270135 -6.365106 -10.679974 12.497586 1.373837 2.595505 0.002214 -0.002246 653180.000000 1 0 0
0.319665 6.817594 -6.606874 9.499082 1.523942 2.339950 0.001294 0.000391 -2687340.000000 1 0 0
2.033265 3.743694 -6.069674 7.415548 1.073253 2.529603 0.001745 -0.002307 -1328520.000000 1 0 0
1.715265 -14.751606 6.292226 16.128984 -1.455040 1.170035 0.011913 -0.008281 -172304.000000 1 0 0
-1.688735 5.340994 -10.458674 11.864312 -1.264559 2.649876 0.003393 -0.004466 -622143.000000 1 0 0
13.706765 4.387194 -0.768274 14.412255 0.309771 1.624129 0.004000 -0.001244 -1439400.000000 1 0 0
-2.342335 3.229194 -6.263174 7.425737 -0.943251 2.574454 0.005861 -0.005417 -1185700.000000 1 0 0
5.755765 7.836194 14.162826 17.179069 0.937283 0.601614 0.010421 -0.001974 635004.000000 1 0 0
15.806365 0.633494 -5.559174 16.767435 0.040057 1.908738 0.014838 -0.002825 107930.000000 1 0 0
6.056965 -8.256906 10.709026 14.817104 -0.937898 0.763027 0.001103 -0.000036 -229749.000000 1 0 0
0.093265 -5.934106 -6.347474 8.689807 -1.555081 2.389778 0.004603 -0.005702 -693308.000000 1 0 0
8.642765 5.559094 -7.588174 12.774243 0.571586 2.206845 0.002502 -0.001789 -196927.000000 1 0 0
-15.973035 -0.849806 5.311226 16.854351 0.053152 1.250208 0.012617 -0.007752 -3182.670000 1 0 0
-0.473635 4.002694 -12.337674 12.979371 -1.453015 2.825831 0.004254 -0.006211 405488.000000 1 0 0
-11.276735 3.604694 5.844226 13.202786 -0.309392 1.112243 -0.000106 -0.005332 -180582.000000 1 0 0
5.324065 -9.584306 -9.613574 14.581680 -1.063742 2.290672 -0.006273 0.003488 -114608.000000 1 0 0
1.455565 11.072694 -11.830674 16.269236 1.440090 2.385002 -0.003758 -0.001527 -2581390.000000 1 0 0
6.037265 2.346994 1.280026 6.602682 0.370772 1.375696 0.000980 0.000608 -234387.000000 1 0 0
5.715265 4.453394 4.897326 8.745328 0.661935 0.976418 -0.002656 0.001611 271617.000000 1 0 0
0.494365 -1.550906 -6.325074 6.531177 -1.262220 2.889703 0.006182 -0.007589 591557.000000 1 0 0
12.757665 6.947694 -4.528474 15.216291 0.498680 1.872981 0.008190 -0.005343 639541.000000 1 0 0
7.407065 3.131894 12.699126 15.031339 0.400027 0.564524 0.004745 -0.001665 -487824.000000 1 0 0
-2.515835 -0.157206 8.522726 8.887688 0.062406 0.287569 0.005950 -0.001631 789691.000000 1 0 0
2.322465 -15.294206 13.237926 20.360483 -1.420095 0.862978 0.010413 0.003023 312145.000000 1 0 0
18.827665 4.655694 -1.578974 19.458921 0.242416 1.652030 0.003229 0.004013 656045.000000 1 0 0
-0.380235 -13.283806 7.155126 15.093042 1.542180 1.076891 0.003201 -0.004392 -389050.000000 1 0 0
4.470565 1.561694 -0.585674 4.771567 0.336076 1.693849 0.001589 -0.001528 1334590.000000 1 0 0
2.759765 -0.506306 -7.331074 7.849668 -0.181442 2.776062 0.002184 -0.004426 -480573.000000 1 0 0
7.286565 -11.257006 0.897326 13.439472 -0.996328 1.503979 -0.003461 -0.002006 138202.000000 1 0 0
-12.018635 -7.342806 1.320726 14.145979 0.548433 1.477296 -0.001386 0.001669 -136980.000000 1 0 0
0.053365 -7.130406 9.923626 12.219816 -1.563312 0.623066 -0.002065 -0.003347 -3494510.000000 1 0 0
-4.681435 -7.156806 10.583526 13.606864 0.991528 0.679626 0.000874 0.001319 -1330140.000000 1 0 0
11.812365 0.731594 -1.496174 11.929196 0.061856 1.696549 0.001189 -0.004020 1867230.000000 1 0 0
6.611465 -9.600806 -7.441474 13.829768 -0.967738 2.138950 -0.005232 -0.001163 -918185.000000 1 0 0
-10.975435 4.913294 3.497026 12.523172 -0.420909 1.287789 -0.001756 -0.002723 509869.000000 1 0 0
6.016065 -9.033006 2.086826 11.051836 -0.983249 1.380834 -0.004282 -0.002966 3666720.000000 1 0 0
11.645465 -1.361406 5.790826 13.076847 -0.116376 1.112043 0.009910 -0.007959 113266.000000 1 0 0
-6.437735 3.631694 4.167726 8.485492 -0.513624 1.057376 0.005080 -0.003810 -1525280.000000 1 0 0
9.603265 6.295394 -3.218674 11.925373 0.580265 1.844087 0.007216 -0.001565 -62117.700000 1 0 0
-2.370835 6.689494 10.893526 13.001504 -1.230197 0.577433 0.009523 -0.006301 143050.000000 1 0 0
1.862065 9.739094 2.903926 10.331990 1.381881 1.285896 0.003056 -0.001663 336855.000000 1 0 0
2.834365 6.077594 -5.521474 8.686624 1.134419 2.259620 0.000336 -0.000427 -1543020.000000 1 0 0
12.004265 0.079994 -5.599274 13.246155 0.006664 2.007229 0.009684 -0.002756 314317.000000 1 0 0
-2.615435 -12.480906 6.160026 14.161901 1.364230 1.120789 0.005406 -0.004398 -509643.000000 1 0 0
10.742565 1.855594 -2.594774 11.206193 0.171045 1.804465 -0.002643 -0.000560 184374.000000 1 0 0
-8.852135 5.150194 0.867026 10.277963 -0.526931 1.486338 0.003136 -0.002492 250234.000000 1 0 0
1.155365 -10.232206 5.559626 11.702237 -1.458358 1.075729 -0.000323 -0.005084 -82154.900000 1 0 0
9.438665 -5.753706 -1.126974 11.111417 -0.547440 1.672396 0.005123 -0.008407 333629.000000 1 0 0
-7.744735 8.584894 -4.372474 12.361224 -0.836803 1.932347 0.004959 -0.002304 -343511.000000 1 0 0
-7.390135 0.004794 -1.571174 7.555310 -0.000649 1.780281 0.005804 -0.002168 -1571570.000000 1 0 0
4.209565 8.815894 2.738726 10.145986 1.125312 1.297474 0.003142 -0.002867 1509080.000000 1 0 0
-1.271235 -10.530506 -3.739374 11.246801 1.450658 1.909732 0.008376 -0.001731 784488.000000 1 0 0
3.153765 7.884394 -3.660874 9.247264 1.190289 1.977830 0.004783 -0.002287 98139.800000 1 0 0
-4.262335 1.649594 -11.095074 11.999555 -0.369264 2.750843 0.001826 -0.010551 -595257.000000 1 0 0
1.384065 2.790494 10.954826 11.389061 1.110360 0.277028 0.008104 -0.004099 490179.000000 1 0 0
2.087265 5.511794 -7.940474 9.888765 1.208794 2.503074 0.000293 -0.000273 -208100.000000 1 0 0
15.695565 6.025294 3.981126 17.277276 0.366538 1.338281 0.011565 0.002737 243236.000000 1 0 0
-4.485035 9.026894 4.686226 11.115803 -1.109670 1.135607 0.008729 -0.001521 -357982.000000 1 0 0
-0.901335 -8.176906 -12.407374 14.886811 1.461010 2.556114 0.000386 0.001904 -766282.000000 1 0 0
14.311865 -4.334906 -4.994274 15.765902 -0.294105 1.893126 0.024277 -0.004597 783870.000000 1 0 0
-5.987735 -6.150106 -5.668074 10.286100 0.798775 2.154409 0.017983 -0.005001 430688.000000 1 0 0
-8.901235 2.561394 -12.197474 15.315714 -0.280187 2.492120 0.006531 -0.005791 -519182.000000 1 0 0
10.548365 5.324994 13.864826 18.216941 0.467494 0.705796 0.020634 0.001098 592731.000000 1 0 0
-0.477535 10.870394 5.573726 12.225380 -1.526895 1.097397 0.004773 0.001295 324599.000000 1 0 0
0.374165 11.241394 -0.429374 11.255811 1.537524 1.608952 0.004127 0.001074 156468.000000 1 0 0
-1.377435 -0.636906 3.732726 4.029420 0.433106 0.386144 0.006413 -0.000774 381115.000000 1 0 0
-4.937535 6.841294 8.833326 12.215163 -0.945638 0.762452 0.010700 -0.005232 -250312.000000 1 0 0
3.524265 -8.662506 -11.383374 14.732300 -1.184406 2.453851 -0.007386 0.005069 1209580.000000 1 0 0
6.756465 -3.806806 12.141326 14.406713 -0.513097 0.568416 0.004685 -0.001004 443204.000000 1 0 0
-2.277535 -1.821506 -12.516474 12.851738 0.674601 2.912677 0.009009 -0.009608 859827.000000 1 0 0
-16.059635 -4.894706 5.318226 17.611177 0.295839 1.264027 0.019436 -0.009331 1173930.000000 1 0 0
-8.964835 7.430094 5.754226 12.987905 -0.692059 1.111804 -0.000123 -0.001278 -4996630.000000 1 0 0
-12.828035 1.505994 5.977526 14.232264 -0.116864 1.137353 -0.003764 -0.005120 729529.000000 1 0 0
-3.592835 3.589694 10.121126 11.323937 -0.784961 0.465089 0.011621 -0.001361 467518.000000 1 0 0
2.007465 -12.265106 -1.147874 12.481200 -1.408562 1.662895 0.002345 -0.003429 -2963070.000000 1 0 0
10.295565 -5.105506 -3.620574 12.048792 -0.460357 1.876005 0.007259 -0.006909 647271.000000 1 0 0
2.990065 -13.451406 1.023826 13.817708 -1.352066 1.496633 0.001068 -0.007309 398123.000000 1 0 0
10.120665 -1.630606 -5.958674 11.857172 -0.159744 2.097328 0.005040 -0.004127 690511.000000 1 0 0
12.015465 -5.298306 -1.539474 13.221703 -0.415309 1.687496 0.011819 -0.008623 558881.000000 1 0 0
1.479365 0.980394 5.979326 6.237149 0.585260 0.288530 0.002685 -0.002196 -12960.400000 1 0 0
-10.733435 11.692594 6.588026 17.185036 -0.828142 1.177367 0.004413 -0.006716 -1429510.000000 1 0 0
4.838965 -13.934306 2.794826 15.013045 -1.236556 1.383544 0.006321 -0.009980 -4016210.000000 1 0 0
5.354965 -3.473706 -1.716274 6.609681 -0.575453 1.833467 0.002366 -0.003119 -1092230.000000 1 0 0
2.111465 -2.901506 -7.725374 8.518123 -0.941712 2.706744 0.000988 -0.005591 -396879.000000 1 0 0
-2.790835 14.901394 -8.832274 17.545636 -1.385654 2.098312 -0.001652 0.000750 -2210020.000000 1 0 0
-2.263335 6.041594 -8.042674 10.310584 -1.212354 2.465527 0.003211 -0.002709 -552913.000000 1 0 0
2.717665 -3.530506 -11.345274 12.188741 -0.914764 2.767390 -0.004088 -0.002354 -1390810.000000 1 0 0
14.633365 2.815394 -2.604074 15.127558 0.190073 1.743799 0.014421 -0.002019 504037.000000 1 0 0
-3.442335 13.215694 2.185626 13.830444 -1.315985 1.412101 0.002064 0.001772 311717.000000 1 0 0
7.838865 -5.094706 14.122226 16.936384 -0.576325 0.584769 0.009548 -0.006079 -1668840.000000 1 0 0
-11.613435 7.335894 2.906426 14.040460 -0.563383 1.362285 -0.002651 0.000130 1081350.000000 1 0 0
-2.221135 11.959794 4.130026 12.846292 -1.387172 1.243488 0.004494 -0.000165 -194682.000000 1 0 0
1.883765 1.424694 0.637926 2.446481 0.647522 1.306995 -0.002710 -0.000577 -1009540.000000 1 0 0
-6.927535 8.654994 5.347026 12.308142 -0.895806 1.121391 0.002837 -0.001410 -364502.000000 1 0 0
-1.128135 9.173294 1.222326 9.322880 -1.448430 1.439307 0.003319 0.002038 468927.000000 1 0 0
4.690065 12.751094 -8.464574 16.007377 1.218338 2.127973 0.011607 -0.019905 -309578.000000 1 0 0
8.973965 6.776894 7.144626 13.323063 0.646803 1.004796 -0.002783 0.002413 -1250960.000000 1 0 0
7.265265 -13.806906 2.889826 15.867130 -1.086405 1.387648 0.008854 -0.006436 250267.000000 1 0 0
4.111265 -13.479406 -1.220774 14.145218 -1.274756 1.657207 -0.000100 0.001992 -2435760.000000 1 0 0
12.148365 -11.769706 -4.581174 17.524152 -0.769568 1.835290 0.019048 -0.002645 -1190460.000000 1 0 0
2.985265 -0.032806 -2.020474 3.604885 -0.010989 2.165764 0.003860 -0.001910 1057800.000000 1 0 0
-13.502835 -3.118306 -10.740074 17.532815 0.226958 2.230104 0.022214 -0.007516 -14780.600000 1 0 0
-6.664535 13.742594 5.024626 16.078612 -1.119257 1.252969 0.011114 -0.005085 179307.000000 1 0 0
7.423865 -4.262706 -0.678574 8.587485 -0.521225 1.649898 0.001713 -0.004039 -1960340.000000 1 0 0
11.723065 2.174094 -7.120874 13.887540 0.183371 2.109184 0.009046 -0.000655 -673429.000000 1 0 0
-7.548735 -4.517606 9.650926 13.058811 0.539285 0.739159 0.001010 0.000419 544418.000000 1 0 0
1.022165 2.843594 8.506326 9.027094 1.225717 0.341329 0.005445 -0.002259 -921267.000000 1 0 0
1.582765 8.087094 -8.690074 11.975960 1.377524 2.382741 -0.000977 -0.002122 -1242040.000000 1 0 0
-8.570535 -1.908206 -5.648674 10.440443 0.219074 2.142467 0.015520 -0.002616 -1244650.000000 1 0 0
6.673065 -0.476406 7.183626 9.816376 -0.071272 0.749837 -0.001635 -0.001524 556245.000000 1 0 0
-10.926235 6.527194 7.152326 14.599406 -0.538496 1.058815 -0.000073 -0.002095 330490.000000 1 0 0
-5.973335 11.139994 5.006826 13.595900 -1.078605 1.193660 0.002304 -0.000025 521966.000000 1 0 0
6.085465 -1.221506 -6.948674 9.317136 -0.198093 2.412524 -0.002272 -0.000989 -535638.000000 1 0 0
4.441265 -5.756106 11.461326 13.572752 -0.913630 0.565284 -0.001853 -0.002168 -1454570.000000 1 0 0
-8.962935 -7.423206 2.708926 11.948912 0.691708 1.342099 0.004167 -0.000516 -1712870.000000 1 0 0
-1.304835 12.782094 -9.365174 15.899402 -1.469066 2.200650 0.001376 0.001768 406771.000000 1 0 0
-4.529635 9.261894 -2.306774 10.565107 -1.115938 1.790908 -0.000520 0.001379 393290.000000 1 0 0
-3.345235 9.624894 -0.094874 10.190102 -1.236296 1.580107 0.004308 0.002533 -864031.000000 1 0 0
-3.406235 10.677394 -6.436874 12.924493 -1.261988 2.092130 -0.002956 0.003934 -196484.000000 1 0 0
4.950065 -4.864406 0.325526 6.947773 -0.776671 1.523926 0.001191 -0.003008 -239717.000000 1 0 0
-2.269435 2.938594 -10.811374 11.431162 -0.913184 2.810786 0.007081 -0.007779 -2911050.000000 1 0 0
-3.523935 12.056694 -2.216474 12.755185 -1.286437 1.745453 -0.001978 0.004174 -16720.800000 1 0 0
-0.161835 0.376494 0.021626 0.410373 -1.164826 1.518073 0.002181 -0.000731 -2315690.000000 1 0 0
-4.732335 -1.588206 0.070326 4.992228 0.323796 1.556709 0.009030 -0.002858 13484.900000 1 0 0
2.712965 2.585094 -2.457474 4.481302 0.761267 2.151227 -0.004899 -0.001348 1061830.000000 1 0 0
5.973265 -9.760706 8.541326 14.279549 -1.021621 0.929605 -0.002841 -0.000502 -170100.000000 1 0 0
-4.257035 -5.454206 6.553626 9.529991 0.908056 0.812502 0.003995 -0.003000 -22815.700000 1 0 0
-6.253035 5.413594 -12.134674 14.685291 -0.713570 2.543329 -0.001103 -0.007049 1004530.000000 1 0 0
-12.925035 3.063694 7.908326 15.459120 -0.232740 1.033793 -0.003584 -0.003968 594892.000000 1 0 0
4.725765 -7.469606 -4.861474 10.087705 -1.006704 2.073642 -0.002110 -0.003826 -49892.200000 1 0 0
-5.904135 2.453194 -1.046874 6.478651 -0.393800 1.733096 0.005585 -0.002345 -537920.000000 1 0 0
-6.772235 -2.775206 -14.618574 16.348322 0.388919 2.677424 0.010484 0.002981 -276216.000000 1 0 0
2.783165 -6.099906 0.876326 6.761864 -1.142746 1.440832 0.003506 -0.001613 297205.000000 1 0 0
4.786165 -7.918006 13.120226 16.054362 -1.027100 0.614195 0.005856 -0.005767 19561.700000 1 0 0
-10.012735 -1.710506 8.060826 12.967560 0.169200 0.899994 0.003597 -0.003609 -75907.200000 1 0 0
-4.575135 13.229994 -0.085174 13.998995 -1.237854 1.576881 0.000543 0.002735 464621.000000 1 0 0
6.919665 2.184394 -4.408174 8.490308 0.305779 2.116712 -0.000845 0.000464 -2349150.000000 1 0 0
5.014265 4.506394 0.172126 6.743891 0.732105 1.545270 -0.000586 -0.000124 -641076.000000 1 0 0
-5.911935 12.393494 1.974126 13.872521 -1.125702 1.428007 0.003021 0.002562 947656.000000 1 0 0
6.535665 -7.177406 6.560326 11.716141 -0.832162 0.976484 -0.007080 0.000380 -1479360.000000 1 0 0
-0.264535 4.944194 7.642126 9.105884 -1.517343 0.574891 0.007028 -0.002433 -553221.000000 1 0 0
-5.775535 -3.448706 -1.540674 6.901019 0.538302 1.795947 0.012355 -0.004143 -976128.000000 1 0 0
2.370265 -6.505806 -5.195174 8.656414 -1.221412 2.214489 0.001477 -0.002735 -1156720.000000 1 0 0
-14.557635 -4.898106 -3.782174 15.818377 0.324565 1.812235 0.009883 -0.003137 314598.000000 1 0 0
-12.440235 -5.136706 -6.374774 14.892379 0.391587 2.013137 0.019900 -0.010913 -1895660.000000 1 0 0
-14.969835 -3.751006 -1.389974 15.495098 0.245516 1.660621 0.005385 -0.002297 214636.000000 1 0 0
11.847665 2.874794 8.825726 15.050749 0.238046 0.944192 0.011310 -0.003665 -1531650.000000 1 0 0
8.732865 -6.617006 7.739326 13.414353 -0.648419 0.955815 0.001858 -0.004150 -274048.000000 1 0 0
-8.851435 -1.709906 -9.693574 13.237714 0.190828 2.392445 0.010425 -0.005074 16103.900000 1 0 0
-8.912735 5.042994 -3.760374 10.909127 -0.514907 1.922715 0.006325 -0.005384 -789044.000000 1 0 0
-4.137135 -6.271906 4.051926 8.536440 0.987681 1.076216 0.007445 -0.002845 -1199550.000000 1 0 0
-0.172335 -9.204406 3.624926 9.893982 1.552075 1.195684 0.002794 -0.005658 273271.000000 1 0 0
7.843465 -10.470706 3.388926 13.514453 -0.927880 1.317328 -0.002282 -0.003722 -554430.000000 1 0 0
-0.084035 6.507894 9.566126 11.570242 -1.557884 0.597425 0.005754 -0.004411 -42754.400000 1 0 0
-0.016935 3.553394 -9.699074 10.329517 -1.566030 2.790411 0.005143 -0.006014 282256.000000 1 0 0
4.433865 -3.129806 11.014826 12.279301 -0.614666 0.457807 0.000923 -0.002662 -815093.000000 1 0 0
8.599065 -9.120206 1.416126 12.614574 -0.814801 1.458298 -0.002024 -0.003273 -1634380.000000 1 0 0
-0.252735 -0.481606 11.344926 11.357956 1.087525 0.047905 0.010173 -0.002015 -1876470.000000 1 0 0
10.934265 5.837194 11.418626 16.852774 0.490355 0.826368 0.012920 0.002030 -491135.000000 1 0 0
-6.272035 -3.008706 -11.859474 13.749104 0.447278 2.611111 0.009695 -0.005927 305628.000000 1 0 0
-1.662835 2.903394 8.536126 9.168433 -1.050676 0.373559 0.010423 -0.005074 529022.000000 1 0 0
-1.699635 13.584094 -6.871474 15.317752 -1.446324 2.035990 -0.001821 0.005996 866669.000000 1 0 0
7.727065 3.067294 9.889126 12.919390 0.377878 0.699058 0.000261 -0.001526 921299.000000 1 0 0
6.460565 8.448094 -7.870474 13.230780 0.917930 2.207889 0.006887 -0.005470 279775.000000 1 0 0
6.832665 -3.118006 -3.784174 8.409949 -0.428112 2.037521 0.000927 -0.003208 -1714410.000000 1 0 0
2.033765 8.242594 1.022426 8.551135 1.328890 1.450943 0.003462 0.001070 663116.000000 1 0 0
-17.768635 6.239794 6.358526 19.876878 -0.337716 1.245177 0.032468 -0.005330 293780.000000 1 0 0
-14.665635 2.911594 -10.181574 18.089298 -0.195983 2.168627 0.034075 -0.007895 -451856.000000 1 0 0
-18.348735 0.116994 -4.593174 18.915259 -0.006376 1.816077 0.028904 -0.001631 357626.000000 1 0 0
-13.010135 7.949394 0.053026 15.246616 -0.548480 1.567318 0.005798 0.001309 -943760.000000 1 0 0
-12.760035 -4.514406 -12.934974 18.721964 0.340050 2.333527 0.037092 0.007212 77736.500000 1 0 0
-17.385235 -0.570206 -8.610574 19.409109 0.032787 2.030448 0.025522 -0.010312 493419.000000 1 0 0
-16.746535 -2.161806 -2.300874 17.041534 0.128380 1.706226 0.023207 -0.005065 -869170.000000 1 0 0
-15.336435 4.034894 1.599426 15.938782 -0.257262 1.470279 0.004997 0.000041 -374157.000000 1 0 0
-13.289135 5.887794 4.365326 15.176406 -0.417062 1.279036 -0.006840 0.000267 -376887.000000 1 0 0
-10.116735 14.177394 2.703826 17.625479 -0.951013 1.416784 0.030545 -0.009981 -395681.000000 1 0 0
-11.859435 2.557794 -6.491374 13.759595 -0.212422 2.062094 0.003773 0.000660 313904.000000 1 0 0
-16.023935 10.678394 3.532626 19.577386 -0.587820 1.389358 0.029745 -0.006691 -549279.000000 1 0 0
-12.762035 1.131594 -8.639474 15.452850 -0.088437 2.164079 0.015991 -0.003438 622481.000000 1 0 0
-12.286935 14.542494 4.061026 19.466505 -0.869271 1.360637 0.025615 -0.010367 573494.000000 1 0 0
-10.634735 11.177494 -1.187674 15.473995 -0.810276 1.647625 0.016954 -0.003871 -224133.000000 1 0 0
-17.183035 5.626994 8.926826 20.164523 -0.316468 1.112189 0.024108 -0.007382 332309.000000 1 0 0
-11.957635 12.525094 -9.162974 19.591404 -0.808572 2.057487 0.029830 -0.017210 -242088.000000 1 0 0
-17.180735 -0.411706 3.098226 17.462708 0.023959 1.392433 0.017513 -0.007359 942380.000000 1 0 0
-13.268035 14.943894 -0.492574 19.990081 -0.844731 1.595440 0.046798 -0.011839 39303.900000 1 0 0
-16.328435 4.739194 -10.655674 20.065422 -0.282480 2.130632 0.040952 -0.002769 311671.000000 1 0 0
-11.824735 7.579194 -9.007474 16.685417 -0.569995 2.141045 0.008846 -0.001033 -441398.000000 1 0 0
-14.787335 13.692394 -2.124474 20.264756 -0.746971 1.675825 0.047425 -0.015755 630917.000000 1 0 0
-11.809235 10.627994 -5.343874 16.762138 -0.732800 1.895266 0.024852 -0.013019 1467450.000000 1 0 0
-17.561735 2.692594 -1.064774 17.798830 -0.152137 1.630655 0.016124 -0.002611 -582903.000000 1 0 0
-9.474835 15.269994 0.419226 17.975566 -1.015449 1.547472 0.035496 -0.015004 177604.000000 1 0 0
-8.024735 13.088194 -3.658174 15.782250 -1.020780 1.804714 0.008190 -0.004691 -599425.000000 1 0 0
-18.117335 11.455194 2.213526 21.548991 -0.563816 1.467894 0.078500 -0.006849 115312.000000 1 0 0
-8.068635 15.529594 -7.474074 19.029791 -1.091619 1.974423 0.035360 -0.024205 23776.100000 1 0 0
-6.335935 15.270294 -5.467474 17.413191 -1.177495 1.890183 0.014293 -0.002878 -1930270.000000 1 0 0
-17.259035 5.109794 -0.178974 18.000454 -0.287843 1.580739 0.030258 -0.003761 65821.700000 1 0 0
-5.510335 12.363294 -12.357074 18.327905 -1.151523 2.310707 -0.002692 0.000558 -221867.000000 1 0 0
-11.063535 3.707594 -11.468874 16.361025 -0.323356 2.347578 0.007134 -0.007323 124444.000000 1 0 0
-11.847335 11.046794 1.157826 16.239814 -0.750445 1.499440 0.017518 -0.003131 -65263.400000 1 0 0
-12.913135 0.075594 -11.154574 17.063977 -0.005854 2.283248 0.021868 -0.007611 1372280.000000 1 0 0
-13.890535 -2.098406 -13.070274 19.188078 0.149934 2.320151 0.024283 -0.004943 -60863.000000 1 0 0
-18.851835 -2.318406 -3.897274 19.389571 0.122366 1.773173 0.031316 -0.002841 1185430.000000 1 0 0
-18.359135 4.836594 -5.169474 19.676736 -0.257591 1.836637 0.046189 -0.007492 667742.000000 1 0 0
-8.287235 15.501294 -2.439874 17.746024 -1.079841 1.708722 0.030554 -0.010297 -169912.000000 1 0 0
-16.075635 9.158694 -5.347274 19.258792 -0.517861 1.852147 0.034588 -0.005927 -321265.000000 1 0 0
-18.284335 1.714894 2.092626 18.483421 -0.093517 1.457337 0.043739 -0.009796 188252.000000 1 0 0
-15.710935 -2.648506 -8.680174 18.143690 0.167007 2.069643 0.022206 -0.008459 -33862.700000 1 0 0
-9.700335 10.480594 -7.119474 15.957013 -0.824042 2.033273 0.012680 -0.013736 457516.000000 1 0 0
-13.906335 11.827194 -7.575274 19.764955 -0.704778 1.964128 0.032415 -0.030756 337202.000000 1 0 0
-11.089935 6.542794 -3.832674 13.434441 -0.533016 1.860102 0.001732 -0.000708 -854098.000000 1 0 0
-13.094035 5.081794 -12.556974 18.840276 -0.370206 2.300295 0.028110 -0.010898 998754.000000 1 0 0
-17.826435 8.943394 2.708526 20.127151 -0.465001 1.435816 0.046794 -0.012425 1029250.000000 1 0 0
-13.462435 8.821194 -6.576774 17.386908 -0.580054 1.958712 0.015342 -0.003494 -363691.000000 1 0 0
-15.867635 6.916094 -3.858574 17.734227 -0.411034 1.790128 0.018162 0.003189 -1230680.000000 1 0 0
-14.922735 -0.215206 -9.391774 17.633484 0.014420 2.132478 0.030089 -0.008709 491314.000000 1 0 0
-9.861235 5.935594 -6.015374 12.986915 -0.541824 2.052384 0.004354 0.001122 355599.000000 1 0 0
-12.876735 12.296994 -0.921374 17.829058 -0.762373 1.622498 0.037884 -0.010238 -1473460.000000 1 0 0
-10.513635 3.473894 -13.996574 17.846808 -0.319124 2.472302 0.008804 -0.003808 806162.000000 1 0 0
-10.912735 6.331494 -11.814974 17.284942 -0.525728 2.323400 0.002690 -0.007493 -776015.000000 1 0 0
-5.599835 11.478994 -14.815274 19.560618 -1.116929 2.430123 0.004649 -0.013058 -364591.000000 1 0 0
-15.788235 13.354694 3.441426 20.963293 -0.702088 1.405885 0.034798 -0.014396 638106.000000 1 0 0
-15.056335 11.183594 -2.951374 18.986222 -0.638866 1.726877 0.046398 -0.009650 524197.000000 1 0 0
-18.122535 7.848694 -4.643974 20.287799 -0.408703 1.801749 0.038774 -0.001899 -417261.000000 1 0 0
-4.029635 16.275494 -10.672874 19.875610 -1.328088 2.137654 0.005565 -0.001468 -4154.150000 1 0 0
-15.764535 4.362794 -4.685874 17.015051 -0.269990 1.849798 0.021031 0.002187 -44079.900000 1 0 0
-18.814735 -1.718306 -6.318274 19.921532 0.091075 1.893528 0.036939 -0.006315 555957.000000 1 0 0
-10.890435 8.540294 -5.845574 15.023613 -0.665033 1.970443 0.012618 -0.005101 -317354.000000 1 0 0
-11.318435 13.497794 -6.807874 18.885035 -0.872993 1.939590 0.020512 -0.015460 74618.800000 1 0 0
-9.391835 10.406794 -4.492874 14.720524 -0.836617 1.880957 0.007822 -0.005001 -1026300.000000 1 0 0
-11.072335 6.259194 -0.125374 12.719663 -0.514514 1.580653 0.000763 0.000947 -608445.000000 1 0 0
-14.692635 9.266694 -1.381274 17.425644 -0.562690 1.650146 0.035547 -0.005517 540333.000000 1 0 0
-18.426335 3.467594 4.732826 19.337882 -0.186011 1.323541 0.029185 -0.012692 340388.000000 1 0 0
-14.899235 13.262194 0.392026 19.950606 -0.727333 1.551145 0.036458 -0.005256 -577151.000000 1 0 0
-16.955935 2.710294 -9.013374 19.393049 -0.158503 2.054175 0.037428 -0.011092 40672.900000 1 0 0
-9.148435 8.370794 -8.770374 15.188269 -0.741039 2.186391 0.009437 -0.003372 -1444130.000000 1 0 0
-17.589535 4.712894 -2.746874 18.415983 -0.261788 1.720512 0.021550 -0.002190 804998.000000 1 0 0
-13.583435 5.833594 -4.439774 15.435418 -0.405645 1.862553 0.009039 0.002484 -886923.000000 1 0 0
-12.226935 9.663894 3.168226 15.903661 -0.668846 1.370241 -0.000575 0.000847 728082.000000 1 0 0
-17.614935 2.543494 -4.177074 18.281227 -0.143403 1.801322 0.024549 0.001366 1165640.000000 1 0 0
-11.259935 1.361994 -12.662974 16.999767 -0.120374 2.411168 0.018439 -0.000931 487672.000000 1 0 0
-11.252035 12.098094 3.486126 16.885652 -0.821616 1.362846 0.010404 -0.005044 290755.000000 1 0 0
-16.759835 13.030894 -3.815474 21.569750 -0.660875 1.748622 0.064713 -0.019165 1402910.000000 1 0 0
-11.151135 4.146894 -4.642274 12.770875 -0.356033 1.942824 -0.002800 -0.000598 72365.100000 1 0 0
-11.334035 14.991194 -8.925174 20.805167 -0.923437 2.014169 0.036862 -0.020129 209710.000000 1 0 0
-15.425535 7.013394 -0.169874 16.945905 -0.426723 1.580821 0.015322 0.003157 -967800.000000 1 0 0
-12.835435 8.460294 -4.068274 15.902070 -0.582771 1.829506 0.015561 -0.003072 898096.000000 1 0 0
-19.233335 1.972994 -6.146274 20.287695 -0.102224 1.878589 0.047418 -0.003301 401513.000000 1 0 0
-12.639935 9.988494 -8.894074 18.402242 -0.668757 2.075233 0.017855 -0.019087 490681.000000 1 0 0
-16.748835 10.891994 -0.930374 20.000615 -0.576596 1.617330 0.047843 -0.010924 600904.000000 1 0 0
-10.854335 6.442494 -14.399774 19.148781 -0.535657 2.421879 0.016450 -0.010926 -217713.000000 1 0 0
-14.317135 13.056794 -4.622774 19.920599 -0.739389 1.804991 0.057152 -0.012169 263122.000000 1 0 0
-17.940535 7.635394 -0.324374 19.500443 -0.402374 1.587431 0.034051 -0.003818 77734.600000 1 0 0
-12.653935 6.654094 -2.121374 14.453348 -0.484114 1.718102 0.002396 0.000647 429810.000000 1 0 0
-13.767535 8.358194 -10.644074 19.305459 -0.545620 2.154778 0.013510 -0.007623 652064.000000 1 0 0
-14.957435 1.416694 -0.956374 15.054785 -0.094433 1.634365 -0.000120 -0.002042 -498872.000000 1 0 0
-13.339635 2.675194 -2.531274 13.838710 -0.197919 1.754745 0.000461 -0.000462 453259.000000 1 0 0
-11.312535 9.329194 -10.971274 18.313278 -0.689608 2.213159 0.010410 -0.007690 35675.500000 1 0 0
-15.389735 4.397694 -8.148274 17.960457 -0.278337 2.041685 0.027484 -0.003062 486535.000000 1 0 0
-18.325235 10.534194 4.696426 21.652711 -0.521719 1.352161 0.058008 -0.022005 200067.000000 1 0 0
-15.363835 6.232294 -6.354174 17.755688 -0.385365 1.936779 0.026653 0.003928 818854.000000 1 0 0
-7.704135 11.207894 -13.129574 18.903870 -0.968587 2.338583 -0.003516 -0.003628 -1522210.000000 1 0 0
-16.789735 9.197794 -2.873074 19.358439 -0.501170 1.719761 0.043561 -0.005673 847367.000000 1 0 0
-20.817135 -0.705906 -4.805974 21.376361 0.033897 1.797561 0.052467 -0.006326 1901230.000000 1 0 0
-15.506635 4.506694 4.051626 16.648775 -0.282838 1.324969 0.005023 -0.003540 -299539.000000 1 0 0
-7.022935 12.595094 -9.469074 17.251706 -1.062142 2.151817 0.005616 -0.004153 -1011690.000000 1 0 0
-17.094735 1.529094 5.836226 18.128145 -0.089211 1.243015 0.019413 -0.011075 110352.000000 1 0 0
-10.347035 14.082194 -3.123074 17.751702 -0.937120 1.747648 0.031792 -0.021468 426394.000000 1 0 0
-9.933635 8.416794 -12.954974 18.367114 -0.702926 2.353692 -0.005458 -0.006137 312165.000000 1 0 0
-13.782435 11.728094 2.639626 18.288557 -0.705042 1.425958 0.021021 -0.006033 -213976.000000 1 0 0
-16.816535 6.642994 1.880126 18.178562 -0.376212 1.467186 0.017967 -0.001643 1028270.000000 1 0 0
-9.439835 13.255194 -8.501674 18.359987 -0.951955 2.052235 0.023099 -0.018975 -1008740.000000 1 0 0
-5.597635 9.827294 -12.962474 17.202760 -1.053029 2.424183 0.004102 -0.001202 -706628.000000 1 0 0
-15.881635 1.908494 3.140726 16.301314 -0.119596 1.376917 0.000676 -0.006402 -773322.000000 1 0 0
-18.642735 -4.901106 4.502326 19.795034 0.257079 1.341341 0.049315 -0.010357 1236070.000000 1 0 0
-5.284535 14.488794 -9.156974 17.936043 -1.221057 2.106603 -0.000517 -0.001483 -123293.000000 1 0 0
-15.409135 -0.758806 -6.912274 16.905525 0.049204 1.992019 0.017181 -0.003334 712461.000000 1 0 0
-8.961135 10.922194 -9.539274 17.046818 -0.883708 2.164691 0.001595 -0.010460 400556.000000 1 0 0
-16.674935 1.359094 -6.187374 17.837719 -0.081325 1.925028 0.010570 0.000642 -1446720.000000 1 0 0
-11.087935 8.617894 -1.538474 14.127183 -0.660703 1.679914 0.012334 -0.004696 -1105000.000000 1 0 0
-10.625735 10.994994 -12.793774 19.936820 -0.802475 2.267530 -0.000745 -0.003430 -475308.000000 1 0 0
-14.208835 11.610394 -10.270074 21.027759 -0.685096 2.081058 0.029252 -0.022916 804798.000000 1 0 0
-13.229435 5.795994 -7.671974 16.354531 -0.412925 2.059072 0.015875 0.000900 -1684980.000000 1 0 0
-8.876735 15.066294 -5.025174 18.194560 -1.038372 1.850625 0.025917 -0.021209 832193.000000 1 0 0
-8.673435 6.063994 -12.937374 16.714549 -0.610152 2.455960 0.008880 -0.007153 -667898.000000 1 0 0
-16.463835 7.385394 4.355226 18.562594 -0.421675 1.333965 0.023306 0.001813 -30758.600000 1 0 0
-12.616435 5.285794 -10.090274 16.997873 -0.396744 2.206346 0.015963 -0.007159 288956.000000 1 0 0
-12.496635 9.166594 -13.258474 20.395575 -0.632873 2.278468 0.011824 -0.007423 -274173.000000 1 0 0
-10.748135 5.325294 -8.366774 14.624776 -0.460011 2.179855 0.001216 -0.002220 -1314740.000000 1 0 0
-17.772435 -4.397106 -2.740974 18.512346 0.242541 1.719405 0.020802 -0.002954 345397.000000 1 0 0
-8.975035 13.130094 -10.991174 19.332784 -0.971198 2.175508 0.019481 -0.013435 -87277.000000 1 0 0
-15.144035 5.965294 6.131226 17.393058 -0.375240 1.210544 0.005087 -0.005018 473210.000000 1 0 0
-16.392135 -3.153906 -4.642274 17.326279 0.190081 1.842043 0.016456 -0.000903 -18641.600000 1 0 0
-11.068335 -1.301606 -12.484374 16.735048 0.117060 2.412834 0.020229 -0.003421 100080.000000 1 0 0
-15.412635 6.983194 -8.687174 19.020550 -0.425414 2.045107 0.029147 0.000995 169151.000000 1 0 0
-14.882435 9.089194 1.289926 17.486115 -0.548274 1.496961 0.025356 -0.002514 39048.100000 1 0 0
-19.553135 5.118594 7.961626 21.723549 -0.256033 1.195555 0.061627 -0.019858 741773.000000 1 0 0
-16.283535 0.634194 0.913426 16.321461 -0.038927 1.514802 0.008779 -0.005662 -603709.000000 1 0 0
-17.410235 3.815794 7.151026 19.204524 -0.215758 1.189244 0.012261 -0.005764 973528.000000 1 0 0
-15.359335 4.001894 -1.625174 15.955110 -0.254884 1.672832 0.001645 -0.000835 -253064.000000 1 0 0
-10.811335 13.206194 0.345026 17.070664 -0.884783 1.550583 0.033160 -0.014766 -944372.000000 1 0 0
-13.409235 3.349894 0.010426 13.821342 -0.244809 1.570042 0.000134 -0.001773 -566626.000000 1 0 0
-15.110335 0.234594 -4.379174 15.733863 -0.015524 1.852849 0.009916 0.001682 -91902.600000 1 0 0
-18.893335 6.675894 3.527226 20.346179 -0.339653 1.396555 0.043008 -0.006420 1313170.000000 1 0 0
-14.147035 1.397394 -6.505274 15.633615 -0.098457 1.999957 0.015972 0.000178 -529374.000000 1 0 0
-14.531835 11.861194 5.168526 19.457025 -0.684554 1.301931 0.015742 -0.017264 296533.000000 1 0 0
17.696065 5.393994 6.172526 19.502460 0.295867 1.248759 0.022695 -0.004964 236012.000000 1 0 0
18.625565 7.634794 -0.341674 20.132523 0.389020 1.587768 0.015903 0.007338 129499.000000 1 0 0
16.590265 5.143994 8.493626 19.334923 0.300661 1.115989 0.032681 0.002065 352608.000000 1 0 0
11.910465 12.239894 10.983526 20.305467 0.799038 0.999272 0.032456 -0.000505 730677.000000 1 0 0
-2.272135 16.428894 -0.524974 16.593575 -1.433367 1.602439 -0.003494 0.001345 -179046.000000 1 0 0
15.025165 12.648294 3.590026 19.965550 0.699719 1.390002 0.033594 0.005917 263831.000000 1 0 0
13.449165 11.741194 6.725226 19.077849 0.717699 1.210539 0.016940 0.002000 712457.000000 1 0 0
-0.731335 15.868794 8.577726 18.053555 -1.524743 1.075688 0.003079 -0.003536 77999.400000 1 0 0
0.648165 12.975694 9.370726 16.018716 1.520886 0.945933 -0.000517 -0.002777 -2765990.000000 1 0 0
0.689565 15.514794 -3.794174 15.986872 1.526380 1.810413 -0.003189 0.003460 511868.000000 1 0 0
5.432865 10.282394 13.575426 17.875565 1.084714 0.708344 0.012017 -0.005983 647040.000000 1 0 0
-1.423735 16.599994 -2.838174 16.900948 -1.485238 1.739526 -0.005504 0.005626 -1337650.000000 1 0 0
8.619865 10.081794 3.342826 13.679149 0.863411 1.323922 0.003280 0.000016 535519.000000 1 0 0
12.547565 13.755894 -4.906874 19.254698 0.831304 1.828479 0.045355 -0.015055 -70978.200000 1 0 0
2.506365 11.576194 7.829226 14.198130 1.357577 0.986723 0.005037 -0.000738 520924.000000 1 0 0
-0.307135 14.942994 -8.686074 17.286852 -1.550245 2.097246 -0.002904 0.001414 -1960720.000000 1 0 0
2.429165 15.851594 0.297626 16.039403 1.418735 1.552239 0.006516 -0.007217 -62443.500000 1 0 0
1.967665 13.329394 5.360826 14.501134 1.424236 1.192128 0.004013 -0.000748 -240612.000000 1 0 0
17.623065 9.235594 -2.066674 20.003493 0.482712 1.674297 0.007227 0.005291 641883.000000 1 0 0
-7.250635 15.012694 7.279726 18.191951 -1.120868 1.159103 0.015743 -0.011936 -753702.000000 1 0 0
8.538565 15.978394 -0.101674 18.117022 1.080023 1.576408 0.016606 -0.004614 -1203070.000000 1 0 0
15.619465 10.482594 2.270226 18.947463 0.591082 1.450691 0.011058 0.007678 -1496600.000000 1 0 0
14.163165 7.519494 8.763026 18.273714 0.488076 1.070663 0.024051 0.000798 -785406.000000 1 0 0
3.991765 18.409194 -1.655074 18.909571 1.357267 1.658434 0.000765 -0.010595 -667760.000000 1 0 0
-0.368335 17.569794 -4.889974 18.241304 -1.549835 1.842187 0.004030 0.002779 172393.000000 1 0 0
1.344065 13.709794 -0.658374 13.791244 1.473072 1.618553 0.003885 -0.001619 398432.000000 1 0 0
10.130765 14.766894 4.255526 18.406603 0.969497 1.337490 0.015105 -0.001585 1266910.000000 1 0 0
-1.522335 15.314694 -5.194574 16.243181 -1.471718 1.896315 -0.002225 0.003191 -395753.000000 1 0 0
15.127965 8.659094 -6.054274 18.452356 0.519870 1.905091 0.029459 -0.011629 770625.000000 1 0 0
-2.355635 18.533294 1.026626 18.710584 -1.444371 1.515900 -0.000371 -0.004356 -742558.000000 1 0 0
-3.831335 19.237494 3.569126 19.937376 -1.374209 1.390809 0.012088 -0.013929 25488.600000 1 0 0
1.818665 17.759594 -2.824774 18.074569 1.468747 1.727724 0.003285 0.000437 -313148.000000 1 0 0
3.010065 12.045394 3.415726 12.877080 1.325918 1.302327 0.003388 -0.002518 -359678.000000 1 0 0
-2.578335 16.232894 1.971826 16.554236 -1.413278 1.451400 0.001781 -0.003230 -1048210.000000 1 0 0
11.733965 12.860894 -2.589974 17.601036 0.831186 1.718482 0.017441 -0.000654 486649.000000 1 0 0
7.147765 11.690994 4.738026 14.498923 1.022043 1.237897 0.002328 0.000397 -392650.000000 1 0 0
7.154565 15.670594 2.117326 17.356220 1.142501 1.448499 0.008706 -0.004602 -1703860.000000 1 0 0
5.450265 12.387594 10.218826 16.958251 1.156308 0.924057 0.002947 0.005350 679549.000000 1 0 0
-1.358535 14.244494 3.229726 14.669095 -1.475711 1.348805 0.003411 0.000819 -1090320.000000 1 0 0
4.606265 15.959894 1.704526 16.698541 1.289817 1.468542 0.000519 -0.011106 -4249120.000000 1 0 0
7.217665 13.119494 11.916726 19.136984 1.067839 0.898599 0.006583 -0.000750 494533.000000 1 0 0
0.507865 17.291994 -9.434274 19.704733 1.541435 2.070063 0.003276 -0.000527 335502.000000 1 0 0
9.945565 9.524794 15.366126 20.633802 0.763791 0.730701 0.032227 -0.010776 -16682.100000 1 0 0
13.468365 7.485194 -0.236374 15.410413 0.507256 1.586136 -0.001077 0.003928 302779.000000 1 0 0
12.464465 13.590394 -0.141174 18.441302 0.828585 1.578452 0.027232 -0.001751 704362.000000 1 0 0
9.351465 12.432394 3.588826 15.965399 0.925898 1.344071 0.006645 0.005466 267070.000000 1 0 0
-0.568335 12.925494 0.944826 12.972436 -1.526855 1.497898 0.005539 -0.000272 -1140870.000000 1 0 0
16.057065 7.571794 -0.829174 17.772139 0.440634 1.617469 0.006538 0.007933 -513931.000000 1 0 0
-4.285635 18.403794 -2.381774 19.045712 -1.342007 1.696180 0.011333 -0.007063 -99553.600000 1 0 0
11.546365 9.302494 -3.296774 15.189590 0.678185 1.789579 0.015012 -0.000942 153202.000000 1 0 0
14.722765 9.718694 7.875226 19.319213 0.583452 1.150932 0.021712 -0.001680 2161550.000000 1 0 0
4.523565 13.786794 4.760126 15.270793 1.253755 1.253800 0.006849 0.000859 143485.000000 1 0 0
2.176365 15.956494 5.793826 17.114750 1.435239 1.225444 0.004469 -0.002170 298156.000000 1 0 0
6.239765 18.434994 5.516126 20.228972 1.244426 1.294614 0.024037 -0.017707 310818.000000 1 0 0
10.611965 17.147694 -0.782674 20.180926 1.016627 1.609589 0.034030 -0.007491 -1198590.000000 1 0 0
10.031765 13.610994 -4.444874 17.482916 0.935645 1.827859 0.030109 -0.006137 -967154.000000 1 0 0
16.584465 7.938794 2.272426 18.526544 0.446454 1.447829 -0.000584 0.005300 93565.400000 1 0 0
4.022565 14.011794 -0.505674 14.586538 1.291231 1.605470 0.003108 -0.003486 -310402.000000 1 0 0
5.582065 13.110494 -2.413874 14.452380 1.168273 1.738605 0.003875 -0.002536 -265087.000000 1 0 0
-6.179735 16.771694 -3.062374 18.134414 -1.217770 1.740480 0.010556 -0.008695 -390597.000000 1 0 0
18.178465 10.102094 2.576126 20.955794 0.507222 1.447553 0.015590 0.002695 1633460.000000 1 0 0
8.012865 12.992994 9.471426 17.964737 1.018183 1.015467 0.006092 0.004368 524246.000000 1 0 0
-2.595335 15.547294 6.648226 17.107104 -1.405390 1.171659 0.003443 -0.010479 1514160.000000 1 0 0
11.178665 16.105694 6.299726 20.592291 0.964054 1.259885 0.028519 0.003281 53785.600000 1 0 0
13.565665 11.999394 1.492226 18.172491 0.724209 1.488589 0.024572 0.006388 865710.000000 1 0 0
17.626365 7.791594 -5.456874 20.029357 0.416216 1.846728 0.029632 0.004748 1233970.000000 1 0 0
9.548365 9.214994 8.056126 15.523806 0.767633 1.025171 0.003668 0.001280 295412.000000 1 0 0
-2.042435 14.157594 -1.919174 14.432333 -1.427521 1.704169 -0.004490 0.002246 426074.000000 1 0 0
10.946165 11.637394 0.866526 15.999947 0.815996 1.516612 0.015376 0.003717 735278.000000 1 0 0
11.791565 9.788194 -0.620474 15.337363 0.692828 1.611262 0.010477 0.005572 -1309820.000000 1 0 0
-0.390435 16.309494 11.100326 19.732442 -1.546862 0.973339 0.005014 -0.003585 -779098.000000 1 0 0
1.978165 20.077594 -1.710874 20.247222 1.472587 1.655396 0.002261 -0.005925 -753990.000000 1 0 0
9.195965 14.356894 1.767926 17.140937 1.001110 1.467472 0.011345 0.001155 -322873.000000 1 0 0
8.494665 11.741194 -5.149474 15.379598 0.944477 1.912216 0.017601 -0.004513 421376.000000 1 0 0
10.528765 10.096794 10.271826 17.841259 0.764458 0.957294 0.005636 -0.000641 -237003.000000 1 0 0
-5.133435 15.833994 5.830826 17.637065 -1.257285 1.233856 -0.001817 -0.003577 158098.000000 1 0 0
14.423765 8.980394 -2.076274 17.117341 0.556879 1.692392 0.014439 -0.000703 -213587.000000 1 0 0
12.139465 9.498194 6.919626 16.895665 0.663931 1.148835 0.005824 -0.001531 -1120950.000000 1 0 0
3.061665 12.982994 9.882326 16.600972 1.339206 0.933175 -0.000888 -0.000792 -363897.000000 1 0 0
8.480265 12.643694 -2.618174 15.447741 0.979999 1.741104 0.017432 -0.002389 -664505.000000 1 0 0
9.425965 16.982994 2.212726 19.549093 1.064104 1.457365 0.019215 -0.006024 288845.000000 1 0 0
9.508065 14.139294 -7.633374 18.670600 0.978796 1.991984 0.033469 -0.021506 -5298.460000 1 0 0
6.405665 11.341594 7.347926 14.955143 1.056666 1.057179 0.000232 0.000925 -696660.000000 1 0 0
5.377265 16.862794 -5.675674 18.587148 1.262107 1.881107 0.013650 0.000116 -95787.300000 1 0 0
-4.039835 17.073894 -4.674074 18.157232 -1.338460 1.831150 -0.000335 -0.005472 126816.000000 1 0 0
-0.189035 18.691794 -0.443274 18.698005 -1.560683 1.594506 -0.003224 0.000602 -334795.000000 1 0 0
6.481065 15.639394 -2.746574 17.150466 1.177933 1.731635 0.005949 0.000057 1471430.000000 1 0 0
-0.807935 20.665194 1.151526 20.713015 -1.531720 1.515173 -0.001676 -0.006017 104494.000000 1 0 0
-1.336435 18.866194 4.305726 19.397386 -1.500077 1.346957 0.004903 -0.011011 1022850.000000 1 0 0
7.175065 13.767194 -4.412574 16.139640 1.090356 1.847722 0.011619 0.000354 1035160.000000 1 0 0
-1.005135 12.027794 7.677326 14.304526 -1.487422 1.004268 0.005977 0.001262 545856.000000 1 0 0
7.548765 10.885494 10.924826 17.170604 0.964466 0.881166 0.001734 0.001039 430896.000000 1 0 0
1.467465 16.077894 -7.325074 17.728757 1.479776 1.996734 0.001410 -0.002165 214597.000000 1 0 0
8.965565 7.211294 14.830926 18.770734 0.677377 0.659810 0.020849 -0.000448 -280137.000000 1 0 0
11.429765 11.440094 -4.889574 16.894472 0.785850 1.864416 0.029266 -0.008259 276734.000000 1 0 0
-3.278735 17.037494 4.605526 17.950966 -1.380678 1.311333 -0.004330 -0.004995 -365195.000000 1 0 0
3.908865 15.173194 -6.754074 17.062313 1.318662 1.977787 0.011142 -0.010231 -50008.800000 1 0 0
-4.479435 14.035894 9.599026 17.584452 -1.261872 0.993356 0.012538 -0.009957 -22198.900000 1 0 0
6.230065 17.704194 0.613826 18.778417 1.232432 1.538103 0.002948 -0.011916 -638803.000000 1 0 0
9.828965 10.736394 -2.047974 14.699418 0.829494 1.710575 0.014516 0.002729 -2300980.000000 1 0 0
7.419165 18.125794 -2.599574 19.757180 1.182285 1.702755 0.012956 0.002040 299703.000000 1 0 0
3.535365 10.471194 10.442926 15.205243 1.245186 0.813722 0.000481 0.000362 1115380.000000 1 0 0
0.084765 18.520894 2.065726 18.635931 1.566220 1.459722 0.003123 -0.012313 60274.400000 1 0 0
-1.012235 17.119794 -7.367474 18.665252 -1.511738 1.976555 0.005139 0.001526 -487965.000000 1 0 0
10.124465 8.639494 12.899326 18.534785 0.706423 0.801051 0.016573 -0.005542 -67275.700000 1 0 0
3.880265 11.542894 5.693726 13.442967 1.246504 1.133439 0.000550 0.000648 445728.000000 1 0 0
12.912865 13.875194 8.170026 20.640068 0.821307 1.163821 0.024149 -0.011736 -248023.000000 1 0 0
-0.503335 17.267394 6.657526 18.513208 -1.541655 1.202947 0.004741 -0.014045 -478946.000000 1 0 0
12.055465 13.655094 5.705626 19.087954 0.847535 1.267244 0.021738 0.001239 -879690.000000 1 0 0
4.779465 14.501194 -4.468174 15.908880 1.252418 1.855487 0.002619 0.000818 -1033650.000000 1 0 0
3.831065 17.596294 4.611226 18.589513 1.356422 1.320124 0.015249 -0.014132 -607471.000000 1 0 0
7.157965 11.675394 2.014926 13.842370 1.020814 1.424715 0.004748 -0.001690 1298300.000000 1 0 0
6.400465 8.678794 11.749926 15.948297 0.935354 0.742543 0.002174 -0.000824 782121.000000 1 0 0
-5.414335 14.948194 1.699226 15.989087 -1.223289 1.464321 0.006156 0.000441 319843.000000 1 0 0
6.827365 13.716094 6.141326 16.506363 1.108940 1.189571 0.004891 -0.001990 -1337540.000000 1 0 0
5.890465 15.913894 5.090026 17.716036 1.216288 1.279377 0.008279 -0.011583 525542.000000 1 0 0
1.265765 17.938594 4.364426 18.505229 1.500352 1.332705 0.011407 -0.013245 657002.000000 1 0 0
7.325065 17.978094 -6.963974 20.624387 1.183889 1.915223 0.021630 -0.002847 525763.000000 1 0 0
-2.437935 18.840494 -5.921874 19.899154 -1.442113 1.872968 0.002683 0.002264 -893289.000000 1 0 0
13.619065 10.086894 -4.537274 17.544549 0.637487 1.832384 0.026029 -0.005552 -2326660.000000 1 0 0
-1.656635 18.099894 9.698826 20.601403 -1.479523 1.080616 0.007747 -0.009544 -749471.000000 1 0 0
3.422265 11.765694 -1.604574 12.357916 1.287738 1.701006 0.005604 -0.002519 454938.000000 1 0 0
4.370865 13.863794 -10.837474 18.131742 1.265388 2.211435 0.015355 -0.027566 -776666.000000 1 0 0
11.522165 13.514694 2.420226 17.923859 0.864815 1.435354 0.024115 0.004959 1049020.000000 1 0 0
16.124765 6.520394 -7.267074 18.850303 0.384269 1.966562 0.027211 -0.001931 205002.000000 1 0 0
2.505465 15.996094 3.089326 16.483213 1.415429 1.382259 0.003491 -0.007133 18375.900000 1 0 0
13.482765 10.590694 3.687026 17.536872 0.665836 1.358972 0.011362 0.008854 -320340.000000 1 0 0
-4.925835 19.357894 -5.665474 20.762695 -1.321623 1.847169 0.002352 -0.012496 -142291.000000 1 0 0
5.448265 12.030994 0.057026 13.207257 1.145573 1.566479 0.005548 -0.002234 460493.000000 1 0 0
4.552465 15.561794 9.696226 18.892092 1.286197 1.031838 0.010098 0.004213 -177994.000000 1 0 0
7.834265 9.377094 13.854026 18.472672 0.874799 0.722773 0.011691 -0.006841 -873629.000000 1 0 0
-5.079035 13.733694 7.066826 16.258874 -1.216572 1.121153 0.003398 -0.001686 -3365520.000000 1 0 0
-4.616835 17.186094 0.501826 17.802495 -1.308355 1.542604 0.009199 -0.003044 -551972.000000 1 0 0
-0.659635 16.577094 3.572126 16.970422 -1.531025 1.358719 0.005731 -0.007836 -1484630.000000 1 0 0
7.823965 16.832994 -4.787174 19.169797 1.135704 1.823192 0.007246 -0.003256 604505.000000 1 0 0
3.013165 16.497694 -4.648874 17.403019 1.390146 1.841210 -0.000350 0.003931 -271295.000000 1 0 0
9.461765 14.429294 8.037126 19.034834 0.990401 1.134890 0.013355 -0.005825 213102.000000 1 0 0
12.697665 10.812094 9.062326 18.980459 0.705366 1.073040 0.018204 -0.010780 1151390.000000 1 0 0
3.692365 12.420094 12.225826 17.814688 1.281828 0.814437 0.005879 -0.000099 661772.000000 1 0 0
-3.268435 19.226494 6.167826 20.454408 -1.402410 1.264489 0.000395 -0.013440 93826.600000 1 0 0
-2.666735 15.763194 10.320526 19.029004 -1.403208 0.997556 0.006721 -0.011721 -856113.000000 1 0 0
2.077465 14.207394 7.722626 16.303522 1.425601 1.077334 0.004353 -0.004565 -77496.600000 1 0 0
4.426665 17.201894 7.772726 19.388547 1.318925 1.158305 0.020720 -0.015549 -137992.000000 1 0 0
-2.003635 13.401694 9.457726 16.524785 -1.422389 0.961445 0.008770 -0.006729 -1111290.000000 1 0 0
5.853565 17.577294 3.132726 18.789344 1.249329 1.403285 0.004988 -0.018073 454714.000000 1 0 0
7.241665 15.301494 -6.854174 18.263546 1.128764 1.955509 0.014840 -0.005485 136155.000000 1 0 0
11.046365 7.687594 9.564926 16.510878 0.607995 0.952914 0.008814 0.001559 434696.000000 1 0 0
9.096865 16.142494 -2.673274 18.721096 1.057621 1.714081 0.017501 -0.014144 707246.000000 1 0 0
14.781465 11.213194 -6.581774 19.686217 0.648981 1.911695 0.067083 -0.016338 474075.000000 1 0 0
11.014265 6.359494 16.206526 20.601181 0.523626 0.665385 0.034460 -0.004789 141652.000000 1 0 0
8.494565 8.489894 10.247826 15.787776 0.785123 0.864397 0.002286 0.000714 951676.000000 1 0 0
16.506965 9.430994 4.455526 19.526270 0.519075 1.340587 0.024667 0.006173 361363.000000 1 0 0
-3.524835 14.286694 4.537726 15.398865 -1.328906 1.271676 0.005058 -0.001195 -1105600.000000 1 0 0
4.597065 14.785794 12.938626 20.178224 1.269360 0.874713 0.008772 0.011518 -744466.000000 1 0 0
16.099965 10.579294 -4.398074 19.760399 0.581351 1.795246 0.038134 -0.016800 154604.000000 1 0 0
14.561065 14.023194 6.121626 21.122236 0.766583 1.276759 0.034141 0.000567 -225144.000000 1 0 0
6.124965 9.402294 9.276526 14.559267 0.993414 0.879994 -0.001534 0.000975 788345.000000 1 0 0
10.500165 12.130494 8.722026 18.261327 0.857315 1.072849 0.016924 -0.003649 449719.000000 1 0 0
8.025765 11.525094 -0.326274 14.048030 0.962509 1.594024 0.009428 -0.000094 388847.000000 1 0 0
7.257065 13.533594 -8.792474 17.695501 1.078590 2.090792 0.023746 -0.010788 -694635.000000 1 0 0
2.714865 15.356694 -2.237174 15.754475 1.395817 1.713280 0.001215 0.000098 421525.000000 1 0 0
12.126965 13.899894 -7.755574 20.010478 0.853412 1.968797 0.043095 -0.018386 624259.000000 1 0 0
-8.116035 14.668394 9.777926 19.407206 -1.065422 1.042770 0.020598 -0.024587 347426.000000 1 0 0
11.492865 9.630094 2.240626 15.160641 0.697439 1.422461 0.011703 0.006244 -1184040.000000 1 0 0
12.116065 8.554194 4.479326 15.493147 0.614755 1.277492 0.005241 0.004547 425068.000000 1 0 0
14.125765 8.019994 6.094426 17.349339 0.516374 1.211861 0.011311 0.002115 -2463630.000000 1 0 0
16.240465 7.413894 7.173126 19.239861 0.428252 1.188743 0.029098 -0.002140 692321.000000 1 0 0
13.634465 8.363694 2.271426 16.155784 0.550231 1.429734 0.000895 0.009577 -2008920.000000 1 0 0
-4.287335 17.413794 -7.173874 19.315432 -1.329394 1.951320 0.002979 -0.011168 -33084.900000 1 0 0
3.298565 19.671994 -3.878974 20.320293 1.404664 1.762867 0.012591 0.003065 501814.000000 1 0 0
-0.093435 14.693994 6.326126 15.998189 -1.564438 1.164263 0.004599 -0.003891 380596.000000 1 0 0
6.780865 16.232494 8.397226 19.493265 1.175096 1.125444 0.023098 -0.000138 942278.000000 1 0 0
12.775165 15.228094 -2.053274 19.982883 0.872770 1.673730 0.045916 -0.010382 162927.000000 1 0 0
12.633565 15.670194 4.199426 20.562031 0.892276 1.365117 0.035410 -0.000583 -315204.000000 1 0 0
3.000165 17.968294 1.409426 18.271482 1.405353 1.493582 0.007430 -0.014773 -645035.000000 1 0 0
10.346365 14.512994 -1.152274 17.860626 0.951463 1.635356 0.023919 0.001338 -1231930.000000 1 0 0
-6.365535 15.684794 -0.680074 16.940935 -1.185265 1.610951 0.007814 -0.004479 -47641.100000 1 0 0
-3.884735 15.831294 -2.503474 16.492071 -1.330167 1.723184 -0.000343 -0.000735 -854948.000000 1 0 0
-7.022635 17.001994 1.462126 18.453265 -1.179093 1.491479 0.021830 -0.007136 236223.000000 1 0 0
0.065365 19.409994 -6.621074 20.508309 1.567429 1.899534 0.011411 0.000735 965419.000000 1 0 0
4.856765 14.807694 7.160126 17.150025 1.253863 1.140105 0.012358 -0.003655 -536527.000000 1 0 0
8.657765 12.214094 6.907426 16.487981 0.954166 1.138522 0.007553 -0.003033 -2334380.000000 1 0 0
-7.742335 17.421794 -5.496874 19.841327 -1.152605 1.851510 0.038354 -0.021569 305376.000000 1 0 0
-7.894335 17.753594 -1.436874 19.482690 -1.152391 1.644615 0.037674 -0.011439 743511.000000 1 0 0
-13.757635 -9.022006 9.083126 18.792879 0.580429 1.066344 0.030591 -0.013854 -225097.000000 1 0 0
-12.445835 -12.941106 7.546226 19.476052 0.804905 1.172920 0.023032 -0.013489 -631095.000000 1 0 0
-3.796535 -14.946206 12.525726 19.866972 1.322044 0.888625 0.011948 -0.014828 315070.000000 1 0 0
-2.037635 -14.171706 14.933126 20.687858 1.427993 0.764353 0.022141 -0.008025 -2215580.000000 1 0 0
-7.017435 -13.972906 12.627326 20.098156 1.105376 0.891452 0.015153 -0.007396 189609.000000 1 0 0
-9.886935 -11.585906 8.899126 17.640271 0.864356 1.042019 0.012488 -0.011872 300675.000000 1 0 0
-10.611435 -10.758106 11.283026 18.858581 0.792262 0.929423 0.031931 -0.010548 439269.000000 1 0 0
-5.885535 -12.368706 10.755226 17.415491 1.126662 0.905151 0.016387 -0.005049 492057.000000 1 0 0
-12.380735 -10.373806 7.206926 17.687234 0.697427 1.151120 0.009730 -0.007927 -415333.000000 1 0 0
-7.784335 -11.500206 12.278326 18.536664 0.975752 0.846804 0.017128 -0.010145 -555640.000000 1 0 0
-14.743935 -11.543906 7.328326 20.108450 0.664264 1.197765 0.031812 -0.005042 800381.000000 1 0 0
-11.091235 -9.264306 9.205926 17.134525 0.695887 1.003595 0.014064 -0.006144 840140.000000 1 0 0
-5.506735 -12.068006 13.348626 18.818787 1.142709 0.782257 0.024037 -0.009337 -969918.000000 1 0 0
3.867265 -12.472406 14.601126 19.588505 -1.270131 0.729673 0.009244 -0.006388 -675106.000000 1 0 0
6.438665 -12.825706 14.284726 20.248668 -1.105540 0.787717 0.014699 -0.004940 -609857.000000 1 0 0
6.543265 -8.644706 16.081326 19.394698 -0.922887 0.593191 0.007470 -0.009880 -565297.000000 1 0 0
0.705565 -1.742006 14.414126 14.536143 -1.185961 0.129659 0.011993 -0.003880 -2220530.000000 1 0 0
-0.190535 -6.402406 15.565726 16.832081 1.541045 0.390378 0.012986 -0.011631 -482636.000000 1 0 0
-1.517735 -4.744906 18.298926 18.964924 1.261215 0.265800 0.025175 -0.024311 -112059.000000 1 0 0
-5.201335 12.781994 12.991926 18.953190 -1.184333 0.815541 0.012224 -0.007597 -162242.000000 1 0 0
-4.009935 8.972894 11.668326 15.255892 -1.150528 0.700002 0.009650 -0.000933 -129036.000000 1 0 0
-0.539835 -3.959906 14.951426 15.476350 1.435306 0.261195 0.010913 -0.007869 -587714.000000 1 0 0
-4.458535 9.350994 14.246426 17.614774 -1.125882 0.628727 0.014655 -0.009387 571025.000000 1 0 0
-13.502635 -2.672706 16.720526 21.657343 0.195414 0.688738 0.028628 -0.009432 114100.000000 1 0 0
-0.253035 0.718994 17.258326 17.275150 -1.232403 0.044137 0.010163 -0.008853 354697.000000 1 0 0
-3.242735 -7.329606 15.350726 17.317138 1.154267 0.481185 0.018799 -0.010278 218693.000000 1 0 0
-7.473135 5.716694 12.507926 15.651727 -0.653011 0.644933 0.003721 -0.003079 -1358620.000000 1 0 0
-10.055635 10.122094 13.372826 19.555180 -0.788692 0.817769 0.010918 -0.012529 702068.000000 1 0 0
-5.536235 2.207894 11.054326 12.558775 -0.379478 0.494497 0.007790 -0.002025 -1392190.000000 1 0 0
-7.217235 -7.389506 16.828726 19.745868 0.797192 0.550495 0.023097 -0.010571 14300.500000 1 0 0
-4.722035 2.996794 18.416426 19.246900 -0.565502 0.294830 0.019697 -0.015372 131162.000000 1 0 0
0.998365 -8.422006 16.512826 18.563414 -1.452805 0.474468 0.012653 -0.007976 814369.000000 1 0 0
-15.154735 -3.673606 13.720026 20.770183 0.237819 0.849227 0.047587 -0.017173 307023.000000 1 0 0
-14.408235 2.240194 13.121726 19.616203 -0.154245 0.838038 0.008709 -0.003966 -137105.000000 1 0 0
-5.523235 1.000994 15.823426 16.789548 -0.179287 0.340892 0.019187 -0.009488 5026.720000 1 0 0
4.603765 5.702994 15.171126 16.848794 0.891648 0.450044 0.009150 -0.001764 -82413.000000 1 0 0
-1.184035 -11.992806 13.848226 18.357634 1.472386 0.716121 -0.004038 -0.008606 7074.830000 1 0 0
-5.967535 -4.048206 16.694026 18.184883 0.596062 0.407747 0.024048 -0.011100 59998.000000 1 0 0
-13.008235 -1.594706 9.866526 16.404439 0.121983 0.925476 0.012138 -0.004563 -977886.000000 1 0 0
-14.451535 10.432694 10.425326 20.648859 -0.625279 1.041546 -0.000332 0.007515 556084.000000 1 0 0
-3.614935 -3.322706 17.589426 18.261874 0.743301 0.272216 0.022173 -0.018280 -1514790.000000 1 0 0
-8.091035 9.377494 11.834826 17.130830 -0.858910 0.808133 0.006006 -0.009990 -190935.000000 1 0 0
-4.653635 10.663394 16.482126 20.174855 -1.159299 0.614670 0.028631 -0.003806 293011.000000 1 0 0
-12.435635 12.855894 8.307826 19.721537 -0.802013 1.135966 0.006157 -0.011358 261465.000000 1 0 0
-12.705035 3.167894 10.400826 16.722161 -0.244359 0.899529 -0.001362 -0.000558 128674.000000 1 0 0
-10.148335 -3.474706 13.657926 17.366670 0.329881 0.665765 0.014853 -0.002238 -1076000.000000 1 0 0
-4.353835 -6.568206 17.673026 19.350273 0.985430 0.419429 0.028068 -0.013851 -555561.000000 1 0 0
0.747965 -3.734406 17.849526 18.251324 -1.373122 0.210219 0.014703 -0.020819 -926360.000000 1 0 0
-6.088035 1.990294 13.545226 14.983277 -0.315966 0.441708 0.012673 -0.002455 -732965.000000 1 0 0
-10.641235 8.709594 10.296226 17.178626 -0.685906 0.928092 0.005346 -0.009255 209311.000000 1 0 0
4.534865 2.440594 17.268926 18.020469 0.493727 0.289821 0.018086 -0.014130 -560906.000000 1 0 0
0.523965 -5.453206 13.169526 14.263535 -1.475007 0.394210 0.003433 -0.003756 -1202840.000000 1 0 0
-4.034835 5.701094 20.638426 21.788231 -0.954901 0.326321 0.036362 -0.013563 91384.000000 1 0 0
-10.915335 10.863394 8.996026 17.834976 -0.783013 1.042105 0.013490 -0.012165 -73435.100000 1 0 0
0.671165 4.160094 12.988526 13.654986 1.410841 0.313718 0.013636 -0.004277 -1788850.000000 1 0 0
-3.266935 7.153194 13.378226 15.518311 -1.142376 0.531411 0.016258 -0.003103 -1106470.000000 1 0 0
0.788465 8.843994 13.987626 16.567787 1.481879 0.565602 0.011228 -0.009809 501046.000000 1 0 0
-4.194035 -6.667406 13.071726 15.261529 1.009300 0.542318 0.011791 -0.005557 -43979.200000 1 0 0
-5.184735 8.143694 16.395626 19.026765 -1.003859 0.532159 0.024546 -0.006128 -298041.000000 1 0 0
1.516465 -10.712806 15.730926 19.092562 -1.430174 0.602486 0.000649 -0.005644 -230463.000000 1 0 0
-15.254535 -1.148106 14.200526 20.872804 0.075122 0.822575 0.031089 -0.010601 425136.000000 1 0 0
-13.688435 -5.327506 8.305826 16.874310 0.371159 1.056161 0.031057 -0.013233 -527804.000000 1 0 0
-14.182435 -1.867806 12.059326 18.709824 0.130945 0.870368 0.026623 -0.008132 213693.000000 1 0 0
9.422165 1.258694 16.993826 19.471816 0.132802 0.510010 0.031840 -0.007528 -356658.000000 1 0 0
4.990665 -6.736906 16.674626 18.663756 -0.933213 0.465888 0.011274 -0.018839 256730.000000 1 0 0
-6.170935 -2.672706 11.059626 12.943691 0.408722 0.546321 0.006850 -0.002866 175674.000000 1 0 0
0.552865 -6.347206 18.018626 19.111870 -1.483912 0.339871 0.020081 -0.018597 -223764.000000 1 0 0
-8.751235 11.905194 12.110726 19.104645 -0.936914 0.884191 0.013478 -0.013999 364171.000000 1 0 0
-6.628135 -5.841506 14.776426 17.216218 0.722398 0.538877 0.016793 -0.007957 -565259.000000 1 0 0
-4.346735 -9.067006 16.798826 19.578184 1.123763 0.539359 0.028524 -0.015137 -490096.000000 1 0 0
2.392265 -6.191706 16.246026 17.549744 -1.202098 0.387880 0.005696 -0.012846 417833.000000 1 0 0
2.201565 5.205994 15.969126 16.939960 1.170714 0.340195 0.014029 -0.009689 -644274.000000 1 0 0
0.805965 -8.880106 13.989026 16.589115 -1.480284 0.567467 -0.000249 -0.006166 -498217.000000 1 0 0
-9.951035 -2.873206 11.217426 15.267910 0.281090 0.745563 -0.001116 -0.002423 932942.000000 1 0 0
-1.300635 10.008594 12.294226 15.906338 -1.441569 0.687376 0.008978 -0.006213 -123890.000000 1 0 0
-12.405335 -3.729506 11.353926 17.225365 0.292041 0.851122 0.020506 -0.003282 -1368860.000000 1 0 0
-1.764735 6.816394 19.777426 20.993430 -1.317463 0.342026 0.036509 -0.012938 260813.000000 1 0 0
0.174965 -13.219006 15.689626 20.516752 -1.557561 0.700185 -0.001152 -0.011152 -814286.000000 1 0 0
3.950165 -8.808206 15.439326 18.208819 -1.149220 0.558778 0.006721 -0.006266 20844.700000 1 0 0
4.326765 -4.364606 16.166226 17.295015 -0.789752 0.363289 0.009313 -0.009867 -9793.480000 1 0 0
8.176565 1.634494 14.775226 16.965703 0.197299 0.513790 0.013706 -0.002270 1070060.000000 1 0 0
-6.359635 -0.118506 11.799126 13.404417 0.018632 0.494425 0.007914 -0.003289 185285.000000 1 0 0
-3.702035 -10.801006 18.612426 21.835503 1.240596 0.550252 0.038691 -0.009039 622666.000000 1 0 0
3.256965 -1.505506 13.564626 14.031160 -0.432988 0.258595 0.006908 -0.003464 413911.000000 1 0 0
-2.676135 8.980994 16.187426 18.704350 -1.281196 0.524776 0.025842 0.004565 -698633.000000 1 0 0
-3.392735 3.902494 14.809926 15.686747 -0.855160 0.335929 0.015777 -0.005942 -107119.000000 1 0 0
-5.443935 -8.999106 19.304626 21.983834 1.026751 0.498861 0.075540 -0.026701 195387.000000 1 0 0
-5.832635 -3.053506 18.989826 20.098682 0.482287 0.333723 0.034375 -0.019544 -1142080.000000 1 0 0
-6.625335 -8.592906 11.087326 15.513282 0.913975 0.774603 0.007591 -0.006936 -2008840.000000 1 0 0
-11.773735 2.489494 12.613926 17.433576 -0.208375 0.761876 0.005722 -0.008348 -130195.000000 1 0 0
-11.570135 -7.623606 11.661126 18.109922 0.582609 0.871201 0.021922 -0.004122 -1427580.000000 1 0 0
-11.184535 -7.163906 15.574426 20.468955 0.569681 0.706128 0.037035 -0.022017 -245687.000000 1 0 0
0.217365 5.638194 17.593026 18.475688 1.532263 0.310353 0.021184 -0.010958 -342278.000000 1 0 0
-2.245235 -0.144506 13.194426 13.384874 0.064273 0.168893 0.009999 -0.002773 227225.000000 1 0 0
-6.196835 -10.725206 17.545126 21.477017 1.046874 0.614736 0.041788 -0.021464 281739.000000 1 0 0
0.241965 2.608394 19.042026 19.221369 1.478297 0.136711 0.014908 -0.014566 -737394.000000 1 0 0
-0.772235 10.796794 14.805326 18.340250 -1.499393 0.631304 0.017201 -0.012048 223261.000000 1 0 0
-12.906235 -2.339806 14.207626 19.336552 0.179345 0.745491 0.026094 -0.009265 -130226.000000 1 0 0
-13.953935 8.267194 11.819126 20.068646 -0.534859 0.941056 0.016844 -0.005779 388994.000000 1 0 0
-18.087435 -0.658806 6.898826 19.369645 0.036407 1.206634 0.050834 -0.013486 -281796.000000 1 0 0
-2.190335 -8.012606 17.738326 19.586925 1.303954 0.437955 0.019786 -0.009631 -712332.000000 1 0 0
5.752365 2.671294 14.512926 15.838262 0.434749 0.412003 0.013409 -0.006397 -2073200.000000 1 0 0
-13.931335 -6.775306 11.008926 19.004824 0.452657 0.952963 0.018498 -0.010549 755681.000000 1 0 0
3.229865 7.651094 16.056126 18.076793 1.171347 0.477345 0.011940 -0.020390 -451266.000000 1 0 0
1.033965 2.094194 14.567326 14.753363 1.112178 0.158974 0.012800 -0.004843 -2477970.000000 1 0 0
-14.391535 0.608694 9.721326 17.377888 -0.042270 0.977125 0.015503 -0.005605 -2465210.000000 1 0 0
-9.591835 -5.166906 15.574926 19.007329 0.494109 0.610403 0.018027 -0.004811 8283.690000 1 0 0
-2.686935 -0.090406 18.069626 18.268530 0.033634 0.147700 0.015677 -0.014173 573019.000000 1 0 0
6.857965 3.575794 17.709226 19.324458 0.480627 0.411767 0.036402 -0.005029 -419669.000000 1 0 0
-4.272835 -0.921606 14.673426 15.310647 0.212435 0.289522 0.017128 -0.003836 975282.000000 1 0 0
4.600065 -8.981606 17.912726 20.559562 -1.097464 0.513033 0.009383 -0.005648 295.654000 1 0 0
1.890965 6.816994 13.326726 15.088034 1.300210 0.488017 0.012525 -0.005649 -1734830.000000 1 0 0
-3.865235 -0.830906 20.198426 20.581712 0.211747 0.193291 0.026673 -0.016849 381783.000000 1 0 0
-10.644535 1.456494 16.217926 19.453756 -0.135986 0.585084 0.015603 -0.010482 -1169850.000000 1 0 0
-3.957535 6.980294 18.349626 20.027365 -1.055027 0.412235 0.031792 -0.011179 -466314.000000 1 0 0
-12.689235 1.127094 14.649626 19.413876 -0.088590 0.715759 0.017162 -0.010691 845153.000000 1 0 0
-16.095335 -4.801906 8.363226 18.763307 0.289935 1.108815 0.040872 -0.017169 -169216.000000 1 0 0
-2.406435 0.675394 15.622926 15.821596 -0.273622 0.158640 0.015695 -0.005296 67941.200000 1 0 0
-13.670335 -8.829606 12.604226 20.584133 0.573484 0.911795 0.026696 -0.014303 316830.000000 1 0 0
6.173965 -3.205106 14.655226 16.222398 -0.478836 0.443175 0.011172 -0.007373 681462.000000 1 0 0
-15.762935 0.206394 7.607626 17.503963 -0.013093 1.121177 0.021168 -0.009403 299427.000000 1 0 0
-14.204935 5.717994 12.309726 19.647010 -0.382690 0.893685 0.013910 -0.007566 -295801.000000 1 0 0
0.494565 9.280094 16.553626 18.983869 1.517554 0.511556 0.022492 -0.024798 -288143.000000 1 0 0
-10.373735 -5.507306 10.729426 15.908029 0.488053 0.830555 0.012718 -0.004865 170906.000000 1 0 0
-3.322235 -11.054706 15.054626 18.970650 1.278856 0.654135 0.021361 -0.005646 -521776.000000 1 0 0
-3.548635 2.646294 12.624226 13.377846 -0.640757 0.337255 0.011850 -0.001862 -1401360.000000 1 0 0
-12.363135 -7.756506 7.405426 16.366149 0.560316 1.101247 0.016746 -0.007189 358837.000000 1 0 0
-8.207535 -1.957406 13.119626 15.598707 0.234116 0.571536 0.004208 -0.006277 -1012640.000000 1 0 0
-9.935035 6.430294 9.514626 15.184917 -0.574428 0.893634 0.003665 -0.003802 -894834.000000 1 0 0
-17.936835 -3.557706 6.532826 19.418166 0.195805 1.227674 0.048361 -0.017596 247130.000000 1 0 0
-1.352335 -0.127206 20.326726 20.372059 0.093788 0.066724 0.016614 -0.018560 -1452280.000000 1 0 0
-2.785035 2.619294 20.072626 20.433488 -0.754739 0.188216 0.026139 -0.015784 -586525.000000 1 0 0
-3.965335 11.423394 11.140326 16.441553 -1.236686 0.826341 0.012453 -0.009026 -89012.000000 1 0 0
-4.186535 -4.834306 14.981626 16.289466 0.857083 0.403449 0.015124 -0.009191 -168574.000000 1 0 0
-0.101635 -14.356006 13.293926 19.566137 1.563717 0.823803 -0.000785 -0.008588 96875.500000 1 0 0
-12.124935 0.420594 8.354126 14.730322 -0.034674 0.967769 0.000115 -0.002124 -178942.000000 1 0 0
-7.934635 1.974694 15.369426 17.409110 -0.243915 0.488925 0.017517 -0.006501 740520.000000 1 0 0
3.416665 -2.290206 18.460626 18.913312 -0.590517 0.219230 0.018150 -0.014522 -196535.000000 1 0 0
-2.170935 4.916094 12.633026 13.728594 -1.154952 0.402210 0.011341 -0.004704 -155731.000000 1 0 0
-10.357435 -6.173806 13.267726 17.928327 0.537528 0.737663 0.012264 -0.007659 -945115.000000 1 0 0
2.334365 -3.780906 14.256926 14.933334 -1.017675 0.302130 0.002031 -0.003173 -846748.000000 1 0 0
6.768465 1.072794 16.952226 18.284993 0.157191 0.384166 0.021397 -0.012257 -1338210.000000 1 0 0
-1.944135 -5.754906 13.758826 15.040077 1.245011 0.415757 0.006978 -0.006625 -1827150.000000 1 0 0
-12.912535 3.617694 14.719426 19.911875 -0.273166 0.738872 -0.005869 0.000569 111586.000000 1 0 0
-13.221735 -6.381106 13.411026 19.884376 0.449649 0.830576 0.015835 -0.014953 -675619.000000 1 0 0
-9.653935 6.857294 12.004326 16.861933 -0.617612 0.778570 -0.000840 -0.002060 -296715.000000 1 0 0
-1.139335 -2.473206 12.838726 13.124318 1.139104 0.208997 0.006705 -0.000225 261106.000000 1 0 0
0.085465 6.663294 15.192726 16.589928 1.557971 0.413351 0.019207 -0.010749 475154.000000 1 0 0
-16.593235 -0.918906 9.765426 19.275461 0.055322 1.039531 0.047811 -0.006104 231.501000 1 0 0
-1.361535 2.761394 13.746426 14.086991 -1.112715 0.220335 0.013268 -0.002765 -2346530.000000 1 0 0
-11.134035 -3.193406 16.013326 19.763380 0.279317 0.626214 0.017365 -0.012470 -1425980.000000 1 0 0
-5.288135 -1.403406 17.065826 17.921394 0.259408 0.310241 0.028871 -0.006185 75702.200000 1 0 0
-12.068035 6.620894 11.048226 17.650411 -0.501791 0.894451 0.004149 0.000321 -956022.000000 1 0 0
-2.661735 4.725494 18.589126 19.364161 -1.057821 0.283881 0.027438 -0.013232 155297.000000 1 0 0
5.201165 -1.856206 16.579726 17.475266 -0.342793 0.321527 0.013611 -0.007736 519935.000000 1 0 0
-8.045335 -4.279006 12.153026 15.189910 0.488811 0.643381 0.009052 -0.000724 -1044460.000000 1 0 0
-11.839235 -0.810606 16.156026 20.045991 0.068361 0.633521 0.037107 -0.006789 381184.000000 1 0 0
2.003965 2.052194 17.326926 17.562737 0.797288 0.164055 0.010367 -0.014167 -1295170.000000 1 0 0
-8.914035 -7.556806 11.604426 16.469003 0.703182 0.788906 0.009737 -0.007172 -171294.000000 1 0 0
-7.280735 6.909594 14.795226 17.878767 -0.759250 0.596102 0.001790 -0.007297 -925731.000000 1 0 0
-5.842735 3.556494 15.712026 17.136335 -0.546795 0.410594 0.015469 -0.007438 -57768.200000 1 0 0
-9.479235 4.239294 11.587826 15.559731 -0.420539 0.730663 -0.000354 -0.003767 -34047.600000 1 0 0
-10.414935 -0.027706 14.021126 17.466071 0.002660 0.638881 0.014190 -0.006640 -373104.000000 1 0 0
8.127665 -0.779906 16.034826 17.993967 -0.095664 0.470984 0.016618 -0.003104 -53986.500000 1 0 0
-8.687235 -7.440506 14.779226 18.688358 0.708248 0.658640 0.020915 -0.006820 -2386960.000000 1 0 0
-0.107535 4.130794 15.562926 16.102164 -1.544770 0.259527 0.013808 -0.009564 184417.000000 1 0 0
-8.128135 3.103794 9.631026 12.979090 -0.364770 0.734685 -0.001064 0.000479 -793825.000000 1 0 0
-2.179535 -9.723206 13.077126 16.440874 1.350283 0.651124 -0.003733 -0.005814 347444.000000 1 0 0
-6.125635 10.324094 10.552926 15.983572 -1.035293 0.849664 0.014707 -0.011524 -2830830.000000 1 0 0
-8.538135 -2.782406 15.582226 17.984641 0.315028 0.522812 0.020161 -0.010071 532831.000000 1 0 0
4.117265 5.765994 17.717926 19.082019 0.950696 0.380405 0.015872 -0.009228 217814.000000 1 0 0
-6.911935 -0.967506 15.116226 16.649661 0.139073 0.432550 0.015768 -0.002750 -1684160.000000 1 0 0
-1.028835 -9.901706 15.498426 18.420193 1.467263 0.570960 -0.005224 -0.003078 -774162.000000 1 0 0
-4.338335 5.737294 16.094526 17.628711 -0.923362 0.420286 0.020376 -0.009892 403473.000000 1 0 0
3.736165 0.026294 17.375526 17.772690 0.007037 0.211805 0.015554 -0.011291 -718597.000000 1 0 0
1.373565 0.249394 19.183426 19.234155 0.179610 0.072644 0.012582 -0.012775 -585418.000000 1 0 0
-6.377035 6.271994 17.672726 19.807315 -0.777094 0.468532 0.011549 -0.009710 -309416.000000 1 0 0
-12.370035 0.630994 10.972026 16.546942 -0.050966 0.845864 0.011650 -0.004361 -397804.000000 1 0 0
-5.438435 5.223394 13.793026 15.719669 -0.765232 0.500303 0.012714 -0.006488 -1682930.000000 1 0 0
-8.649635 -9.552406 9.903226 16.252340 0.834955 0.915566 0.011031 -0.006680 -433164.000000 1 0 0
6.870265 -3.851006 17.067426 18.797016 -0.510894 0.432344 0.016098 -0.007352 44061.300000 1 0 0
-16.716935 1.648694 9.514426 19.305399 -0.098306 1.055448 0.037407 -0.012428 326831.000000 1 0 0
-4.173835 -9.505506 11.368826 15.395641 1.157047 0.740036 0.004905 -0.007938 -621488.000000 1 0 0
-11.181235 -3.880606 9.127726 14.946388 0.334057 0.913855 0.009061 -0.003347 -400553.000000 1 0 0
3.591165 -5.392206 18.460526 19.564339 -0.983261 0.337515 0.008712 -0.018821 -115275.000000 1 0 0
2.467965 -1.890506 16.069526 16.367484 -0.653674 0.191101 0.010963 -0.009022 472490.000000 1 0 0
-3.325235 -4.169506 20.155526 20.849154 0.897574 0.258670 0.031808 -0.020853 -886551.000000 1 0 0
-6.243635 -3.336206 14.308826 15.964202 0.490739 0.459426 0.011122 -0.004127 343798.000000 1 0 0
-9.670935 5.265594 13.998026 17.810059 -0.498592 0.666546 0.005482 -0.005900 320486.000000 1 0 0
-5.856735 -5.247806 11.714826 14.109499 0.730617 0.591188 0.003884 0.000743 -587320.000000 1 0 0
6.050865 1.726194 19.349126 20.346533 0.277899 0.314410 0.036528 -0.016495 160363.000000 1 0 0
-2.789835 11.865594 13.529226 18.210312 -1.339871 0.733340 0.017895 -0.015951 19244.800000 1 0 0
3.419965 1.419694 15.198826 15.643401 0.393472 0.238977 0.010003 -0.006735 -421594.000000 1 0 0
-5.772935 7.614494 12.830726 15.997963 -0.922099 0.640123 0.006138 -0.008091 -897812.000000 1 0 0
-1.782235 -1.770806 15.276426 15.481644 0.782181 0.163003 0.013835 -0.002038 59348.800000 1 0 0
-7.521335 10.607294 14.096626 19.178113 -0.954008 0.745075 0.027624 -0.015022 398818.000000 1 0 0
-10.310035 2.068894 10.571726 14.911021 -0.198038 0.782735 0.001858 -0.001363 -530513.000000 1 0 0
-13.814735 5.173494 9.145126 17.356419 -0.358324 1.015845 -0.001083 0.000354 -318689.000000 1 0 0
0.348065 -4.891006 20.146726 20.734842 -1.499752 0.238742 0.025134 -0.022736 -130710.000000 1 0 0
-14.406635 -2.981406 7.459026 16.494757 0.204066 1.101559 0.016607 -0.009592 174769.000000 1 0 0
-2.255235 2.395594 17.511726 17.818123 -0.815568 0.185717 0.013450 -0.012094 -512826.000000 1 0 0
-6.314535 -8.482406 14.584426 18.014718 0.930871 0.627353 0.014562 -0.004918 165255.000000 1 0 0
-8.079835 1.986994 11.988326 14.592870 -0.241135 0.606726 0.002787 -0.003657 1518820.000000 1 0 0
-14.581935 -3.595206 10.103626 18.100873 0.241731 0.978600 0.025252 -0.007677 378194.000000 1 0 0
-0.643935 6.983894 12.708826 14.515636 -1.478853 0.504272 0.014666 -0.007785 -937308.000000 1 0 0
-1.855835 -2.334506 19.229126 19.459017 0.899137 0.153866 0.022774 -0.020032 142925.000000 1 0 0
-12.833635 10.511294 7.314826 18.129980 -0.686245 1.155495 0.004485 -0.010068 -570129.000000 1 0 0
-19.453035 2.166394 6.791126 20.717945 -0.110908 1.236833 0.055487 -0.013906 537438.000000 1 0 0
-16.172535 8.243794 6.765826 19.372337 -0.471409 1.214024 0.020212 -0.001405 495171.000000 1 0 0
-12.439235 7.084594 13.601326 19.746446 -0.517718 0.810966 0.009873 -0.006393 158418.000000 1 0 0
-16.073735 8.480494 10.361426 20.919916 -0.485483 1.052628 0.012790 0.004238 -1016570.000000 1 0 0
1.861265 10.935894 15.065026 18.708637 1.402214 0.634709 0.021037 -0.012649 -29755.400000 1 0 0
1.959765 14.428994 12.745326 19.351482 1.435801 0.851809 0.006563 -0.002912 -421452.000000 1 0 0
-3.080135 13.713894 11.764126 18.329015 -1.349863 0.873913 -0.001779 -0.011799 244175.000000 1 0 0
8.968965 4.809994 15.819226 18.810271 0.492259 0.571688 0.025686 0.000347 47299.500000 1 0 0
-0.356835 12.417294 12.796726 17.834593 -1.542067 0.770557 0.006231 -0.012418 -74079.000000 1 0 0
3.373165 13.308494 14.565126 20.015922 1.322564 0.755867 0.007388 -0.004378 130352.000000 1 0 0
-2.689035 -4.013506 -13.665374 14.494192 0.980492 2.801780 -0.002962 -0.004777 -564230.000000 1 0 0
5.446265 -11.564806 16.346226 20.751040 -1.130670 0.663680 0.003028 -0.005270 227640.000000 1 0 0
7.759165 -13.484806 7.354826 17.208664 -1.048661 1.129191 -0.003043 -0.007097 -284795.000000 1 0 0
-0.136735 15.619094 1.291326 15.672980 -1.562042 1.488311 0.000798 -0.003864 -2175560.000000 1 0 0
-13.774235 8.169794 9.179126 18.458912 -0.535346 1.050343 -0.002755 0.003629 423088.000000 1 0 0
-15.537235 -9.630906 4.561826 18.840656 0.554894 1.326239 0.024446 -0.008055 -1444530.000000 1 0 0
9.468365 -11.224206 11.104026 18.410110 -0.870049 0.923354 0.012128 -0.007215 -63206.000000 1 0 0
-5.793335 -10.223906 -16.742274 20.454700 1.055263 2.529600 0.015024 -0.003614 17907.300000 1 0 0
-1.965135 -12.542006 -14.857174 19.542244 1.415376 2.434509 0.016066 0.001878 50165.700000 1 0 0
5.502165 -15.750106 -12.554074 20.879283 -1.234708 2.215885 0.018450 0.000903 301549.000000 1 0 0
2.667565 -11.754406 -16.758774 20.643122 -1.347635 2.518081 0.021617 0.005286 273757.000000 1 0 0
0.588665 -14.012206 -14.527074 20.192185 -1.528810 2.373793 0.035387 0.010188 420727.000000 1 0 0
-6.529135 -6.193806 -14.503274 17.068620 0.759048 2.586220 0.016402 0.003102 -100231.000000 1 0 0
-5.890635 -8.124706 -17.495674 20.169508 0.943470 2.620814 0.002549 0.001368 75400.100000 1 0 0
-2.222835 -16.282706 -13.133374 21.036945 1.435120 2.245032 0.031515 -0.002313 260935.000000 1 0 0
16.368965 -8.107106 -8.960374 20.345920 -0.459859 2.026842 0.052212 -0.010037 -68567.600000 1 0 0
19.357965 -2.735106 -3.809174 19.917866 -0.140362 1.763226 0.053679 -0.014343 122667.000000 1 0 0
15.759565 -11.715606 -8.441374 21.374660 -0.639262 1.976782 0.048562 -0.007756 -140024.000000 1 0 0
18.343565 -2.906206 -6.534074 19.688233 -0.157126 1.909089 0.131783 -0.007235 -152788.000000 1 0 0
8.915465 -9.659906 -15.579774 20.384520 -0.825454 2.440743 0.055061 -0.010096 125940.000000 1 0 0
-4.535435 9.463494 -16.092374 19.211777 -1.123881 2.563727 0.013952 -0.007329 298837.000000 1 0 0
2.529465 -9.673206 -18.541074 21.065150 -1.315031 2.647033 0.022431 0.000131 220080.000000 1 0 0
10.969565 7.867694 -15.073174 20.234439 0.622196 2.411221 0.027751 -0.032700 457505.000000 1 0 0
18.649865 -6.274706 -8.632374 21.487375 -0.324551 1.984214 0.051850 -0.004954 244685.000000 1 0 0
12.118365 5.180394 -13.934574 19.179770 0.403972 2.384047 0.012844 -0.008047 112096.000000 1 0 0
15.871265 6.580494 -10.566174 20.170373 0.393043 2.122156 0.024344 -0.017332 371737.000000 1 0 0
3.420565 -0.354406 -19.288774 19.592924 -0.103242 2.965163 0.034613 -0.013830 234774.000000 1 0 0
10.785765 -1.964906 -14.602474 18.259951 -0.180200 2.497591 0.028096 -0.006746 270450.000000 1 0 0
12.350765 -6.032606 -13.567074 19.313188 -0.454357 2.349669 0.035509 -0.015849 353224.000000 1 0 0
10.179765 6.692094 -12.975574 17.798237 0.581554 2.387710 0.019157 -0.004913 432121.000000 1 0 0
10.386665 5.418994 -16.702074 20.401166 0.480877 2.529909 0.013884 0.003287 308644.000000 1 0 0
11.783265 -10.256706 -15.061974 21.700424 -0.716245 2.337947 0.065374 -0.014045 145697.000000 1 0 0
-1.345735 2.067394 -17.219374 17.395171 -0.993765 2.999303 0.009887 -0.013093 297971.000000 1 0 0
6.649265 -1.236106 -17.002074 18.297847 -0.183803 2.762996 0.023226 0.001255 133174.000000 1 0 0
6.405265 -5.563106 -15.982374 18.094525 -0.715149 2.653590 -0.003510 -0.009405 246132.000000 1 0 0
-2.294735 -4.763806 -20.262574 20.941145 1.121894 2.886327 0.023556 -0.016697 336540.000000 1 0 0
16.014165 -0.140106 -13.403274 20.883507 -0.008749 2.267654 0.024214 -0.002210 56631.300000 1 0 0
-4.499135 -0.090606 -18.524374 19.063128 0.020136 2.903283 0.024447 -0.009129 233201.000000 1 0 0
3.725865 8.514494 -17.856974 20.130827 1.158310 2.661704 0.021309 -0.011467 171984.000000 1 0 0
10.042965 0.210994 -16.604874 19.406893 0.021006 2.597539 0.037740 -0.024444 90427.300000 1 0 0
3.967365 4.408894 -18.418074 19.349516 0.838061 2.830051 0.020781 -0.000093 454293.000000 1 0 0
-2.585435 -11.246506 -17.895774 21.293828 1.344834 2.568855 0.008396 -0.011344 306479.000000 1 0 0
6.721965 -9.005906 -16.339274 19.830861 -0.929606 2.539111 0.040821 -0.006981 262846.000000 1 0 0
9.891565 -12.959006 -11.576774 19.995014 -0.918840 2.188277 0.009070 0.031141 278150.000000 1 0 0
6.110765 6.752794 -17.128074 19.398778 0.835267 2.652897 0.028517 -0.007277 324577.000000 1 0 0
9.135765 1.616094 -19.947074 21.999084 0.175086 2.706244 0.076594 -0.020740 145082.000000 1 0 0
-1.096035 -0.807306 -20.155674 20.201590 0.634850 3.074158 0.027746 -0.016755 318707.000000 1 0 0
-0.930935 6.998594 -19.520974 20.758501 -1.438555 2.794556 0.025246 -0.003978 -17047.900000 1 0 0
8.407465 5.719194 -18.178874 20.829453 0.597349 2.631601 0.032745 -0.007920 169313.000000 1 0 0
12.135365 0.027094 -13.031274 17.806794 0.002233 2.391777 0.005122 -0.000009 20572.000000 1 0 0
-4.437135 -2.463306 -19.896074 20.533139 0.506794 2.891841 0.007763 -0.003116 414023.000000 1 0 0
5.415565 -11.149306 -14.423774 19.017903 -1.118629 2.431699 0.000161 -0.005574 -6007.110000 1 0 0
11.134165 2.848394 -15.717674 19.471216 0.250453 2.510234 0.015300 -0.003828 -285253.000000 1 0 0
-2.673235 -4.174506 -17.216774 17.916194 1.001220 2.861253 -0.007348 0.001004 133826.000000 1 0 0
-6.716935 -4.702406 -17.554574 19.375059 0.610781 2.704627 0.019304 0.001677 131901.000000 1 0 0
3.091165 10.227694 -15.232174 18.605917 1.277291 2.529894 -0.000076 -0.010123 152776.000000 1 0 0
17.233065 -5.918106 -10.869274 21.216588 -0.330797 2.108658 0.071337 -0.016323 -19202.600000 1 0 0
9.726965 -3.066606 -17.611474 20.351460 -0.305405 2.616678 0.033843 -0.014192 -56031.100000 1 0 0
-7.573735 -1.679206 -18.673274 20.220593 0.218185 2.747846 0.018491 0.007651 651952.000000 1 0 0
1.722265 -7.472006 -19.361974 20.825060 -1.344257 2.764513 0.018987 -0.017457 290258.000000 1 0 0
5.844165 10.331894 -13.905474 18.282902 1.056022 2.434991 0.021628 -0.014182 503550.000000 1 0 0
6.085365 -3.937106 -18.151574 19.545130 -0.574249 2.761690 0.033380 -0.022627 676951.000000 1 0 0
4.463865 13.415594 -14.691274 20.389649 1.249583 2.375357 0.028809 -0.019386 196902.000000 1 0 0
9.432565 11.288694 -15.308774 21.231261 0.874736 2.376111 0.056989 -0.023957 106937.000000 1 0 0
16.901065 1.019394 -11.323174 20.369080 0.060242 2.160242 0.035784 -0.006284 208860.000000 1 0 0
15.344565 -2.608306 -12.072674 19.697928 -0.168373 2.230510 0.039426 -0.008126 -30147.700000 1 0 0
-7.943535 0.701194 -17.153774 18.916749 -0.088044 2.706435 -0.020450 -0.008329 467564.000000 1 0 0
-3.442635 4.085894 -19.069574 19.803912 -0.870634 2.868419 0.018974 -0.008698 172742.000000 1 0 0
4.226465 2.113494 -16.753474 17.407146 0.463697 2.866677 0.016219 -0.006643 405091.000000 1 0 0
-5.128035 14.384394 -13.830574 20.603211 -1.228343 2.306734 0.010423 -0.003078 62317.000000 1 0 0
1.190965 9.865394 -17.404674 20.041633 1.450656 2.622815 0.021802 0.004389 364500.000000 1 0 0
1.328265 -5.066206 -20.091574 20.762998 -1.314386 2.886589 0.026601 -0.003522 584526.000000 1 0 0
3.714665 -6.261806 -18.010674 19.426614 -1.035373 2.757432 0.023757 -0.027394 85815.400000 1 0 0
-7.245635 7.300994 -15.911374 18.946650 -0.789204 2.567709 0.009543 0.000802 105350.000000 1 0 0
-11.859835 3.086594 -16.758874 20.761566 -0.254608 2.510201 0.039132 -0.013497 378060.000000 1 0 0
-4.327235 6.658894 -17.235274 18.976841 -0.994531 2.709823 0.009416 0.005501 448787.000000 1 0 0
-8.335435 5.502294 -17.668574 20.296138 -0.583449 2.627092 0.017581 -0.004265 305957.000000 1 0 0
-8.161435 3.960494 -15.141074 17.650684 -0.451794 2.601805 -0.011461 -0.009087 364320.000000 1 0 0
9.373265 14.107294 -12.055574 20.789677 0.984346 2.189381 0.055620 -0.032707 458695.000000 1 0 0
14.121565 9.732894 -11.810174 20.823737 0.603456 2.173837 0.059244 -0.026442 26499.300000 1 0 0
9.245065 15.900994 -9.450574 20.679124 1.044155 2.045427 0.054083 -0.013112 2964.800000 1 0 0
7.818065 14.014094 -14.287274 21.485883 1.061930 2.298238 0.058256 -0.027966 268540.000000 1 0 0
3.944065 15.355594 -12.885774 20.430200 1.319382 2.253279 0.039940 -0.032714 143634.000000 1 0 0
10.914565 11.846594 -11.713874 19.916936 0.826324 2.199549 0.051452 -0.013435 122.684000 1 0 0
15.905265 10.578794 -8.860974 21.057188 0.586926 2.005129 0.054202 -0.047103 386095.000000 1 0 0
12.484665 10.550294 -9.511774 18.911620 0.701619 2.097816 0.034644 -0.034283 -55562.400000 1 0 0
10.178665 11.654794 -7.431674 17.165931 0.852904 2.018539 0.020067 -0.018337 -126365.000000 1 0 0
5.350065 17.009094 -10.423774 20.653995 1.266053 2.099814 0.038908 -0.009894 -179987.000000 1 0 0
11.639265 13.526594 -10.271374 20.589860 0.860254 2.093075 0.076031 -0.039796 21822.200000 1 0 0
8.710965 -19.253506 -1.872374 21.215188 -1.145919 1.659168 0.051353 -0.009105 175968.000000 1 0 0
7.933065 -16.934506 -4.273174 19.182571 -1.132701 1.795444 0.037244 -0.005719 145402.000000 1 0 0
3.846465 -18.656406 5.059126 19.709174 -1.367471 1.311202 0.040060 -0.019742 169952.000000 1 0 0
10.355865 -17.895806 -2.379574 20.812645 -1.046204 1.685380 0.035395 -0.010458 423167.000000 1 0 0
-3.357135 -14.664706 7.792926 16.942658 1.345748 1.092847 0.020989 -0.035672 -13879.800000 1 0 0
-15.298835 -12.783406 -4.587774 20.457701 0.696063 1.796976 0.019852 0.001660 67695.100000 1 0 0
-9.119035 -12.755106 -7.297874 17.294754 0.950119 2.006414 0.019140 -0.014352 191505.000000 1 0 0
-11.458335 -15.535506 6.999126 20.533708 0.935306 1.222964 0.027939 -0.012625 308071.000000 1 0 0
-15.015935 -7.321306 -7.476074 18.302227 0.453654 1.991583 0.056455 -0.030531 -95110.000000 1 0 0
5.522165 -15.742106 5.752926 17.646653 -1.233418 1.238720 0.034058 -0.010576 101435.000000 1 0 0
2.635265 -13.969406 8.837326 16.738795 -1.384342 1.014606 0.006430 -0.007095 334254.000000 1 0 0
3.546065 -17.055306 10.135926 20.154281 -1.365801 1.043826 0.037003 -0.013188 333798.000000 1 0 0
-7.354435 -17.352906 -5.452974 19.620041 1.169929 1.852434 -0.019406 -0.015902 -3082.390000 1 0 0
2.123765 -19.869306 -4.276174 20.434906 -1.464314 1.781613 0.021285 -0.003813 61432.700000 1 0 0
-17.264235 -10.956306 -2.230974 20.568707 0.565490 1.679475 -0.056325 0.003731 -132001.000000 1 0 0
-4.079335 -15.032006 2.868126 15.837561 1.305802 1.388695 0.000211 -0.002266 71243.900000 1 0 0
-10.647735 -10.058406 -14.720574 20.766346 0.756944 2.358687 0.024455 0.000128 290678.000000 1 0 0
0.221465 -20.128106 2.379726 20.269504 -1.559794 1.453121 0.023452 -0.023034 266974.000000 1 0 0
5.270265 -18.744306 0.620126 19.480998 -1.296707 1.538959 0.014169 0.000342 -16412.300000 1 0 0
-7.655035 -18.707206 -3.652774 20.540251 1.182382 1.749582 0.016187 -0.027066 14564.700000 1 0 0
-9.521935 -15.970506 -7.384374 20.006332 1.033161 1.948839 0.033802 -0.011284 42805.300000 1 0 0
-12.005035 -11.087006 -12.528674 20.591509 0.745664 2.224888 0.044255 -0.002131 342845.000000 1 0 0
-13.330335 -15.294006 -3.463474 20.581548 0.853892 1.739881 0.022148 0.003121 181948.000000 1 0 0
-0.394535 -20.730606 -2.989474 20.948763 1.551767 1.713989 0.021026 -0.005544 355479.000000 1 0 0
-11.971735 -16.875006 -0.613774 20.699396 0.953766 1.600452 0.024243 -0.000091 117341.000000 1 0 0
1.001365 -20.271606 4.762526 20.847600 -1.521439 1.340316 0.038133 -0.017234 -76849.600000 1 0 0
-18.062435 -8.667406 2.482526 20.187581 0.447405 1.447511 0.035033 -0.003999 128070.000000 1 0 0
-15.142635 -14.761306 -0.698674 21.158538 0.772647 1.603823 0.028415 -0.002144 -49868.000000 1 0 0
10.206965 -15.739106 -4.895674 19.387347 -0.995469 1.826079 0.024272 0.001227 -63696.500000 1 0 0
-0.109635 -19.071306 -7.163974 20.372758 1.565048 1.930124 0.011707 -0.001146 157825.000000 1 0 0
-9.829335 -16.505206 -2.403174 19.360086 1.033671 1.695248 0.021085 -0.016567 424745.000000 1 0 0
-14.667235 -6.747906 -11.623974 19.894190 0.431194 2.194801 0.046486 -0.010889 1154.860000 1 0 0
-12.215935 -15.223706 2.134226 19.635306 0.894576 1.461888 0.023326 -0.006646 275829.000000 1 0 0
-2.164535 -15.917106 9.792026 18.812848 1.435637 1.023364 0.002764 -0.022364 444665.000000 1 0 0
-12.969035 -14.285706 -6.136574 20.246847 0.833670 1.878728 0.045881 -0.017639 89276.000000 1 0 0
5.379265 -16.962206 -6.988774 19.117947 -1.263697 1.945032 0.017490 -0.013826 -38180.700000 1 0 0
-17.755735 -7.434106 -3.071074 19.492654 0.396512 1.729006 0.012221 -0.001397 -43734.400000 1 0 0
-12.420335 -13.530306 -8.918474 20.417470 0.828144 2.022841 0.044826 -0.033046 98371.900000 1 0 0
-7.835835 -13.989606 9.960326 18.876374 1.060218 1.014952 0.021844 -0.011662 443090.000000 1 0 0
-15.822335 -8.435706 -5.773774 18.837301 0.489816 1.882318 0.030584 -0.000748 229227.000000 1 0 0
-0.706835 -19.650606 -0.164274 19.664001 1.534842 1.579150 0.016906 -0.012685 225837.000000 1 0 0
-14.789835 -11.384006 -2.107774 18.782373 0.656002 1.683254 -0.002084 0.004878 4095.710000 1 0 0
-7.074335 -19.105806 2.273526 20.499926 1.216178 1.459664 0.004810 -0.006437 92548.900000 1 0 0
-2.169935 -20.853406 -5.321274 21.630745 1.467113 1.819353 0.015288 -0.004076 57825.800000 1 0 0
-8.671635 -19.781306 -1.135274 21.628365 1.157651 1.623311 0.003484 -0.005026 3908.850000 1 0 0
-17.764535 -7.390906 5.114926 19.908960 0.394264 1.310967 0.045001 -0.009599 -20561.700000 1 0 0
-2.488435 -15.879206 -10.781874 19.354336 1.415350 2.161659 0.014077 0.000318 191861.000000 1 0 0
-2.891235 -18.329506 -8.314474 20.333729 1.414349 1.992045 0.017973 -0.000289 235429.000000 1 0 0
4.533665 -17.281706 -4.399674 18.400234 -1.314239 1.812245 0.016496 -0.019206 504557.000000 1 0 0
0.892965 -17.395306 -9.538574 19.858964 -1.519508 2.071811 0.027207 0.004800 -510127.000000 1 0 0
-7.330535 -11.446006 -14.860874 20.139349 1.001168 2.400753 0.001680 -0.007544 564467.000000 1 0 0
-5.126935 -19.337706 -2.038674 20.109414 1.311633 1.672350 0.012000 -0.017208 409740.000000 1 0 0
-9.542535 -16.002006 8.321226 20.405073 1.033077 1.150751 0.010800 -0.020379 199308.000000 1 0 0
-8.029035 -14.376906 -9.075074 18.802069 1.061475 2.074490 0.059864 -0.031398 218791.000000 1 0 0
-12.431835 -8.211506 -12.553274 19.482404 0.583737 2.270955 0.036423 -0.010383 247761.000000 1 0 0
-15.663335 -13.054906 3.218126 20.642844 0.694818 1.414262 0.026014 0.006710 174509.000000 1 0 0
-6.138735 -14.270706 -13.131774 20.341598 1.164560 2.272556 -0.003221 0.003432 453666.000000 1 0 0
-14.175935 -11.135906 -6.775874 19.258194 0.665868 1.930336 0.039392 -0.024654 189644.000000 1 0 0
-11.329235 -10.230806 -9.370774 17.911794 0.734495 2.121354 0.016719 -0.011579 113029.000000 1 0 0
-10.153735 -15.219006 3.853826 18.696750 0.982442 1.363185 0.008073 0.014761 452694.000000 1 0 0
5.126665 -18.047606 8.240426 20.491545 -1.294024 1.156946 0.041358 -0.015420 197926.000000 1 0 0
-4.924235 -16.847806 5.302726 18.336182 1.286439 1.277411 0.002257 0.008274 472604.000000 1 0 0
-18.228635 -7.497906 -6.949274 20.899621 0.390232 1.909757 0.031607 -0.015160 -33062.400000 1 0 0
-17.103135 -4.955906 -10.765474 20.808020 0.282042 2.114573 0.061637 -0.005509 -225245.000000 1 0 0
-15.902435 -3.797806 -12.830274 20.782847 0.234428 2.236165 0.058836 -0.018308 243540.000000 1 0 0
-19.749835 -5.506406 -6.192274 21.417768 0.271903 1.864102 0.073359 -0.004601 -130349.000000 1 0 0
5.543265 -13.458106 8.735026 16.974955 -1.180082 1.030275 0.026624 -0.004042 267302.000000 1 0 0
19.789965 -3.667606 2.951626 20.342225 -0.183248 1.425184 0.042463 -0.006421 -2252.720000 1 0 0
18.323265 -2.861506 -0.103474 18.545645 -0.154917 1.576376 0.042675 -0.005548 414060.000000 1 0 0
14.086965 -11.090906 0.438026 17.934398 -0.666959 1.546370 0.032043 -0.006284 -93509.600000 1 0 0
11.404065 -14.430606 5.472326 19.189618 -0.902017 1.281611 0.033613 0.008493 444111.000000 1 0 0
9.872465 -13.236106 9.095126 18.851562 -0.929941 1.067335 0.017060 -0.003878 335247.000000 1 0 0
17.664165 4.790894 -4.532674 18.855251 0.264850 1.813567 0.001209 0.001796 -79187.700000 1 0 0
19.143465 -6.051606 -4.649874 20.608627 -0.306178 1.798383 0.069120 -0.016797 -20498.500000 1 0 0
17.607765 -10.079806 -0.055074 20.288886 -0.519926 1.573511 0.046585 -0.007711 335762.000000 1 0 0
17.285165 -9.127906 8.537826 21.330496 -0.485856 1.158992 0.084627 -0.018300 -87829.100000 1 0 0
19.797165 0.614594 -2.521874 19.966605 0.031035 1.697439 0.037544 -0.000013 80541.200000 1 0 0
7.445365 -13.410506 11.550326 19.201176 -1.063978 0.925366 0.017387 -0.000251 395413.000000 1 0 0
16.203865 -6.435706 -3.332874 17.750819 -0.378065 1.759676 0.042479 -0.009180 433970.000000 1 0 0
14.243065 -6.835906 11.773526 19.703056 -0.447476 0.930356 0.018076 -0.030755 254786.000000 1 0 0
16.796465 0.923394 10.290526 19.719757 0.054920 1.021792 0.069700 -0.014226 312264.000000 1 0 0
16.807465 -10.211506 2.785926 19.862707 -0.545958 1.430073 0.050051 -0.017384 150920.000000 1 0 0
16.390665 -7.274406 -5.992274 18.907094 -0.417698 1.893290 0.049996 -0.007104 302360.000000 1 0 0
18.819565 -5.079706 5.142526 20.159985 -0.263634 1.312860 0.169116 -0.024537 -228536.000000 1 0 0
13.527265 -13.228206 7.856526 20.486516 -0.774221 1.177216 0.048685 -0.027867 250190.000000 1 0 0
15.232565 -13.966806 -1.618674 20.729757 -0.742076 1.648960 0.035343 -0.009878 135352.000000 1 0 0
18.630965 -6.464306 7.719326 21.177537 -0.333969 1.197695 0.099259 -0.025221 26318.500000 1 0 0
19.654665 4.021094 2.810526 20.257692 0.201802 1.431609 0.032030 0.009660 188738.000000 1 0 0
15.430065 -10.508806 8.241926 20.407137 -0.597901 1.155048 0.055915 -0.035093 287897.000000 1 0 0
13.867765 -4.623306 10.716426 18.125442 -0.321797 0.938205 0.021322 -0.011636 -268522.000000 1 0 0
18.745565 -7.915306 2.059126 20.452097 -0.399539 1.469945 0.070108 -0.017981 103977.000000 1 0 0
19.168565 -5.910206 -1.371674 20.105867 -0.299080 1.639072 0.055075 -0.016235 334443.000000 1 0 0
14.794165 -13.503406 -5.844574 20.865482 -0.739816 1.854702 0.061658 -0.015176 555298.000000 1 0 0
13.674265 -9.550006 10.301826 19.603973 -0.609646 1.017497 0.014725 -0.015408 325996.000000 1 0 0
14.367165 2.479894 0.765726 14.599713 0.170924 1.518324 0.002030 -0.001761 -117969.000000 1 0 0
13.028165 2.586194 13.625826 19.028521 0.195960 0.772635 0.030008 -0.007136 -4244.400000 1 0 0
18.058065 -3.772706 9.085826 20.564028 -0.205958 1.113158 0.064047 -0.017153 94098.900000 1 0 0
7.512265 -18.352206 5.402826 20.553056 -1.182266 1.304798 0.039222 -0.020817 258719.000000 1 0 0
12.207265 -3.407406 15.129326 19.736368 -0.272201 0.697312 0.005525 0.006770 257194.000000 1 0 0
11.556365 -13.655206 -7.053774 19.229403 -0.868456 1.946387 0.027785 -0.009310 228414.000000 1 0 0
10.652365 -17.478706 4.420926 20.940932 -1.023459 1.358082 0.019227 -0.018754 479835.000000 1 0 0
18.356465 -0.123506 -4.591174 18.922313 -0.006728 1.815875 0.045155 -0.014385 409016.000000 1 0 0
4.255965 -13.772006 11.737526 18.589000 -1.271076 0.887409 0.010342 0.000886 124346.000000 1 0 0
9.235565 -2.599106 13.186326 16.307367 -0.274328 0.629008 0.012671 -0.020698 287640.000000 1 0 0
9.021865 -9.585506 14.403926 19.512792 -0.815680 0.740430 0.023335 0.001829 301204.000000 1 0 0
20.961965 5.680394 -2.867874 21.906518 0.264630 1.702087 0.039089 0.003014 390854.000000 1 0 0
14.479565 -13.732206 1.971626 20.052895 -0.758913 1.472316 0.024600 -0.001428 223237.000000 1 0 0
11.088465 0.198194 14.373226 18.154420 0.017872 0.657176 0.022609 -0.022891 143159.000000 1 0 0
19.480765 0.210794 7.734326 20.961021 0.010820 1.192878 0.071135 -0.009363 58710.400000 1 0 0
20.147465 1.405694 0.170526 20.197163 0.069657 1.562353 0.061484 -0.004004 303580.000000 1 0 0
18.128665 0.337294 3.014026 18.380604 0.018603 1.406074 0.029460 -0.000563 -51061.700000 1 0 0
10.188765 -8.660906 16.362526 21.131836 -0.704520 0.685177 0.027627 -0.007172 175526.000000 1 0 0
19.658865 2.592794 5.397826 20.550671 0.131132 1.305019 0.064863 -0.002182 204403.000000 1 0 0
15.394565 2.283294 7.158626 17.130440 0.147245 1.139676 0.031024 -0.004153 31961.500000 1 0 0
11.333965 -16.106706 2.038726 19.800029 -0.957605 1.467648 0.010029 0.000679 148243.000000 1 0 0
8.642665 -16.083306 6.989326 19.550424 -1.077703 1.205204 0.023493 -0.007340 373679.000000 1 0 0
6.299265 6.610294 7.093426 11.562587 0.809486 0.910335 -0.000681 0.001105 -1015460.000000 1 0 0
18.440065 2.427594 -6.594374 19.733600 0.130895 1.911521 0.024647 -0.000516 213129.000000 1 0 0
14.339965 4.439694 -7.054474 16.586472 0.300243 2.010106 0.020533 -0.007839 441162.000000 1 0 0
-10.255135 -3.956706 -13.874474 17.700970 0.368229 2.471599 0.018634 0.003018 -47311.700000 1 0 0
7.762965 -13.876606 -10.517674 19.064241 -1.060743 2.155193 -0.004473 0.000331 -56297.600000 1 0 0
2.130965 -16.147206 13.609826 21.225001 -1.439583 0.874713 0.005451 -0.001265 256131.000000 1 0 0
-9.464035 -7.943606 2.091926 12.531760 0.698277 1.403081 0.001839 0.003102 425787.000000 1 0 0
-13.790435 3.003994 -9.823974 17.196237 -0.214481 2.178869 0.026839 -0.004233 376904.000000 1 0 0
-13.098735 -5.381006 -13.126674 19.309108 0.389785 2.318310 0.044476 0.004916 118708.000000 1 0 0
-18.055435 -1.242906 -8.639674 20.054614 0.068730 2.016183 0.061321 -0.024377 546441.000000 1 0 0
-12.148235 15.463794 4.246326 20.118147 -0.904903 1.358127 0.025422 -0.013565 330623.000000 1 0 0
-17.028835 6.564394 8.924326 20.315415 -0.367933 1.115990 0.000363 -0.005791 147358.000000 1 0 0
-13.828735 15.545094 -0.016374 20.805868 -0.843763 1.571583 0.048384 -0.023109 40511.600000 1 0 0
-16.343935 5.672494 -10.478774 20.226372 -0.334062 2.115395 0.056620 -0.013132 -96652.000000 1 0 0
-17.974535 2.687994 -0.209074 18.175614 -0.148444 1.582300 0.038732 -0.005129 -110173.000000 1 0 0
-10.054535 15.368494 -0.326874 18.368210 -0.991453 1.588593 0.037814 -0.016588 91804.100000 1 0 0
-18.892935 11.927394 2.493026 22.481568 -0.563128 1.459676 0.092132 -0.026306 -181221.000000 1 0 0
-8.383835 16.374594 -7.772674 19.970740 -1.097593 1.970563 0.046158 -0.031032 51888.300000 1 0 0
-14.419235 -1.446306 -12.625674 19.220140 0.099970 2.287494 0.014154 -0.027699 24623.400000 1 0 0
-18.901835 5.454694 -4.694274 20.225461 -0.280947 1.805030 0.056922 -0.008887 -50077.800000 1 0 0
-16.698335 9.313994 -6.047674 20.053908 -0.508797 1.877136 0.043047 0.001021 -41254.700000 1 0 0
-19.025135 1.152094 1.899926 19.154446 -0.060483 1.471443 0.053909 -0.011274 348844.000000 1 0 0
-13.253135 11.944094 -6.895374 19.127288 -0.733493 1.939599 0.021803 -0.017707 -145327.000000 1 0 0
-13.212235 4.325294 -13.119274 19.115090 -0.316374 2.327228 0.037823 -0.019929 52501.900000 1 0 0
-14.049135 9.565094 -6.646774 18.249625 -0.597745 1.943585 0.020030 -0.009045 80112.600000 1 0 0
-6.302935 11.591094 -15.444274 20.312706 -1.072746 2.434611 0.004159 -0.017226 188088.000000 1 0 0
-15.253835 13.941994 2.920026 20.870679 -0.740496 1.430425 0.039859 -0.020391 28603.200000 1 0 0
-18.656235 8.627494 -4.749474 21.096120 -0.433155 1.797878 0.058295 -0.010036 -4624.720000 1 0 0
-3.809435 17.071294 -10.203074 20.249533 -1.351245 2.098866 0.003657 0.003851 8103.360000 1 0 0
-19.357835 -2.420506 -6.656474 20.612940 0.124395 1.899617 0.033263 -0.009234 -65531.700000 1 0 0
-10.557035 13.638894 -6.257474 18.347381 -0.912087 1.918836 0.019970 -0.024387 3515.160000 1 0 0
-18.923435 2.927794 4.129526 19.588807 -0.153501 1.358392 0.039537 -0.015371 66822.300000 1 0 0
-15.391035 12.463194 0.243226 19.805916 -0.680670 1.558516 0.040475 -0.009479 15776.500000 1 0 0
-16.647435 1.812594 -9.052074 19.035825 -0.108454 2.066361 -0.015441 -0.006899 125870.000000 1 0 0
-17.279335 12.287394 -4.097874 21.595093 -0.618139 1.761714 0.075100 -0.017260 313405.000000 1 0 0
-10.802535 15.693694 -8.569474 20.890732 -0.967941 1.993475 0.041844 -0.019381 173434.000000 1 0 0
-19.005435 2.370594 -6.978374 20.384406 -0.124092 1.920201 0.038757 -0.008620 235020.000000 1 0 0
-17.042735 10.512694 -0.110474 20.024579 -0.552712 1.576313 0.038121 -0.003543 56064.900000 1 0 0
-11.782335 6.644694 -14.422774 19.773512 -0.513493 2.388239 0.023268 -0.014960 450480.000000 1 0 0
-14.480735 13.931994 -4.954174 20.696279 -0.766087 1.812519 0.059679 0.001362 25170.400000 1 0 0
-18.797635 7.238394 -0.222974 20.144358 -0.367569 1.581865 0.046530 -0.009765 -5397.580000 1 0 0
-14.460335 8.981194 -10.829874 20.175463 -0.555784 2.137418 0.018511 0.002938 643668.000000 1 0 0
-18.455635 11.448794 4.917726 22.268125 -0.555242 1.348119 0.045619 -0.023358 129580.000000 1 0 0
-8.048635 12.092094 -13.084574 19.550072 -0.983525 2.304043 -0.010381 -0.008402 453786.000000 1 0 0
-21.008335 0.191294 -5.052774 21.608269 -0.009105 1.806817 0.046401 -0.004493 59896.500000 1 0 0
-10.398435 13.140694 -3.239674 17.067536 -0.901373 1.761770 0.023735 -0.012911 191027.000000 1 0 0
-18.591535 -4.747206 3.566226 19.516637 0.250000 1.387036 0.035628 -0.014054 -111337.000000 1 0 0
-11.111135 11.305394 -13.549174 20.853042 -0.794064 2.278046 0.003076 -0.002177 324643.000000 1 0 0
-15.114435 11.357594 -10.134174 21.450934 -0.644422 2.062848 0.027055 -0.020253 297636.000000 1 0 0
-12.976335 9.886394 -13.651174 21.271592 -0.651060 2.267582 0.030416 -0.011064 199072.000000 1 0 0
-18.170335 -5.072806 -3.277274 19.147715 0.272249 1.742801 0.005984 -0.002181 -229402.000000 1 0 0
-9.648935 12.594394 -11.392974 19.532551 -0.917052 2.193559 0.020121 -0.014462 1519.240000 1 0 0
-15.406335 7.848194 -8.294574 19.176790 -0.471150 2.018095 0.010085 -0.000379 41462.600000 1 0 0
-14.323635 8.762494 1.985226 16.908251 -0.549015 1.453113 0.021129 0.001313 -53627.700000 1 0 0
-20.019635 5.934294 8.101326 22.397168 -0.288173 1.200693 0.074430 -0.016325 228151.000000 1 0 0
-18.772435 5.734394 3.563426 19.949577 -0.296466 1.391211 0.036920 -0.009655 191661.000000 1 0 0
-14.846835 12.504994 5.792126 20.257150 -0.699987 1.280820 0.030634 -0.020650 -165234.000000 1 0 0
18.065665 6.194394 5.818726 19.964877 0.330320 1.275056 0.016939 -0.002601 71651.200000 1 0 0
18.497665 6.850294 0.178526 19.726175 0.354673 1.561746 0.024523 -0.005857 -73003.200000 1 0 0
16.838565 4.227394 8.467426 19.315937 0.245971 1.117018 0.030826 -0.002276 -11661.000000 1 0 0
12.793065 12.549094 10.816126 20.931575 0.775771 1.027761 0.055745 -0.010721 300294.000000 1 0 0
15.387665 12.509194 4.457026 20.325482 0.682579 1.349717 0.031332 0.004811 200004.000000 1 0 0
5.048865 10.372594 14.439626 18.482006 1.117804 0.674082 0.012784 -0.006016 244232.000000 1 0 0
13.454865 13.576594 -4.689574 19.681193 0.789901 1.811388 0.066828 -0.005363 311299.000000 1 0 0
17.589765 9.328094 -3.011574 20.136602 0.487603 1.720917 -0.002128 -0.000233 -186984.000000 1 0 0
14.681065 7.657094 9.547526 19.113346 0.480748 1.047750 0.037200 0.003977 116322.000000 1 0 0
4.565565 19.111194 -1.371474 19.696777 1.336297 1.640482 -0.001913 -0.006041 379379.000000 1 0 0
-3.569335 19.879794 2.920126 20.407682 -1.393143 1.427214 -0.021354 0.017664 91684.500000 1 0 0
6.385965 13.088994 12.374826 19.111217 1.116885 0.866476 0.006202 0.007189 -372076.000000 1 0 0
-0.023635 17.062394 -10.187474 19.872354 -1.569411 2.109060 0.004405 0.003570 -60110.400000 1 0 0
10.154665 9.103794 16.191626 21.169908 0.730886 0.700001 0.019980 0.002134 121406.000000 1 0 0
-1.197135 12.243494 1.149926 12.355509 -1.473329 1.477592 0.002818 0.000611 454262.000000 1 0 0
-5.050635 18.966594 -2.357974 19.768678 -1.310545 1.690359 0.012411 -0.002694 10198.800000 1 0 0
6.075665 18.369894 6.449626 20.395204 1.251381 1.249041 0.028764 -0.019193 131522.000000 1 0 0
10.879965 17.748194 -1.468174 20.869297 1.020860 1.641205 0.032212 -0.000764 337185.000000 1 0 0
18.321965 10.937894 3.004426 21.548979 0.538198 1.430917 0.004099 0.004983 225379.000000 1 0 0
11.824665 16.799894 6.356526 21.504989 0.957489 1.270730 0.040810 0.013507 -27816.600000 1 0 0
18.405865 7.323094 -5.731574 20.621699 0.378667 1.852444 0.035336 0.006913 549438.000000 1 0 0
0.147765 15.546994 10.922826 19.001026 1.561292 0.958370 0.001062 -0.002232 312266.000000 1 0 0
1.074465 20.132294 -1.998574 20.259763 1.517477 1.669604 -0.007154 -0.004067 299453.000000 1 0 0
14.743065 9.687494 -1.528174 17.707083 0.581342 1.657207 0.017696 0.000031 43734.100000 1 0 0
9.825765 17.541894 1.556826 20.166492 1.060208 1.493521 0.031937 -0.008176 131021.000000 1 0 0
0.144365 17.803894 -0.496574 17.811402 1.562688 1.598679 -0.004858 -0.000402 63634.800000 1 0 0
-0.014635 21.003394 1.550026 21.060516 -1.570100 1.497131 0.004454 -0.006013 175820.000000 1 0 0
5.893365 17.391794 -0.217774 18.364467 1.244081 1.582655 0.001706 -0.014772 -20763.400000 1 0 0
6.694065 18.662294 -2.897674 20.037171 1.226397 1.715920 -0.006958 -0.001845 71886.400000 1 0 0
10.178265 9.532794 12.580626 18.781464 0.752663 0.836799 0.015740 -0.009227 65716.500000 1 0 0
12.218465 14.523294 8.158326 20.658539 0.871374 1.164823 0.025546 -0.008801 193274.000000 1 0 0
0.270765 17.582494 7.109126 18.967263 1.555398 1.186604 0.005072 -0.008255 261283.000000 1 0 0
7.199065 17.843194 -7.895874 20.797858 1.187308 1.960213 0.028605 -0.010486 145846.000000 1 0 0
-0.878135 18.639694 9.770226 21.063395 -1.523720 1.088462 0.016892 -0.004578 -389888.000000 1 0 0
16.259965 7.158594 -7.957674 19.466805 0.414724 1.991915 0.045607 0.001832 -91085.800000 1 0 0
-4.862735 19.936194 -6.416574 21.500475 -1.331553 1.873853 -0.008784 -0.009424 308559.000000 1 0 0
3.818565 16.106394 9.955626 19.316103 1.338011 1.029316 0.007801 0.005563 164249.000000 1 0 0
8.732365 14.918294 7.674726 18.913252 1.041221 1.152958 0.009494 -0.000472 -53442.600000 1 0 0
-2.748335 18.864994 6.875926 20.266220 -1.426130 1.224645 0.008568 -0.019052 150743.000000 1 0 0
4.649665 17.928494 8.342626 20.313780 1.317042 1.147588 0.022203 -0.016983 110970.000000 1 0 0
14.042365 11.795294 -6.449674 19.440042 0.698648 1.908978 -0.011559 -0.020570 8463.460000 1 0 0
11.759365 6.764294 15.778126 20.808354 0.522004 0.710157 0.042766 -0.008308 199700.000000 1 0 0
17.352265 9.458994 4.888126 20.358473 0.499086 1.328325 0.032577 0.000951 162616.000000 1 0 0
4.820465 15.201794 12.114326 20.027189 1.263728 0.921164 -0.001284 0.000555 382487.000000 1 0 0
16.051065 11.505594 -4.193174 20.189058 0.621920 1.780015 0.044871 0.011985 111483.000000 1 0 0
15.179765 14.353894 6.762226 21.958762 0.757442 1.257758 0.040817 0.017942 420037.000000 1 0 0
12.547565 14.536494 -8.321674 20.928480 0.858702 1.979723 0.066207 -0.026794 -33123.400000 1 0 0
-8.357835 15.536794 9.478226 20.027035 -1.077261 1.077795 0.025088 -0.020318 103057.000000 1 0 0
-5.187335 17.114994 -7.117074 19.247966 -1.276510 1.949544 0.003866 0.007157 -72446.200000 1 0 0
2.641965 19.652594 -4.565274 20.348124 1.437164 1.797081 0.009745 -0.004764 87863.200000 1 0 0
7.079465 16.480194 9.264326 20.187703 1.165058 1.094029 0.020970 -0.003466 593179.000000 1 0 0
13.414665 15.490894 -1.401774 20.539863 0.857103 1.639096 0.063213 -0.013721 168361.000000 1 0 0
13.263065 15.042594 3.864126 20.423515 0.848184 1.380449 0.059058 -0.025580 356176.000000 1 0 0
2.280765 18.323394 0.900726 18.486751 1.446960 1.522054 -0.007210 -0.014532 -265215.000000 1 0 0
-6.758635 17.727094 2.016226 19.078631 -1.206549 1.464919 -0.011559 0.014009 247204.000000 1 0 0
0.332665 19.960094 -5.894074 20.814805 1.554131 1.857891 0.011735 0.008194 164112.000000 1 0 0
-7.708735 18.036194 -6.220674 20.577309 -1.166892 1.877909 0.047716 -0.023437 130061.000000 1 0 0
-7.376135 18.547694 -1.494874 20.016467 -1.192287 1.645548 0.028186 -0.007646 -13524.000000 1 0 0
-14.461735 -8.481406 8.744826 18.908940 0.530413 1.090017 0.037344 -0.017295 404555.000000 1 0 0
-12.963035 -13.652406 7.905226 20.418646 0.811294 1.173250 0.023704 -0.012004 77221.600000 1 0 0
-3.130035 -15.545806 12.840026 20.404301 1.372110 0.890169 0.004934 -0.005895 204772.000000 1 0 0
-1.817635 -14.935606 15.453226 21.567993 1.449694 0.772040 0.014382 -0.004881 408880.000000 1 0 0
-6.352535 -14.418506 13.139126 20.515474 1.155802 0.875713 -0.030541 0.002692 146152.000000 1 0 0
-10.286835 -11.583706 11.623026 19.367395 0.844626 0.927128 0.040422 -0.004416 -12883.900000 1 0 0
-7.938935 -11.201106 13.166626 19.022395 0.954213 0.806313 0.022203 0.009108 519489.000000 1 0 0
-15.086035 -12.188006 7.937126 20.955523 0.679539 1.182340 0.031728 0.001813 342024.000000 1 0 0
-4.591435 -12.180306 13.120226 18.481923 1.210312 0.781447 0.022466 -0.023900 229972.000000 1 0 0
3.548965 -12.251906 13.733626 18.743448 -1.288847 0.748492 0.006950 -0.011614 381190.000000 1 0 0
6.689265 -13.434606 14.969426 21.197137 -1.108820 0.786679 0.027008 0.001813 340800.000000 1 0 0
6.887065 -9.186406 16.781926 20.333587 -0.927486 0.600009 0.012921 -0.007586 368533.000000 1 0 0
-5.174835 13.562294 13.533026 19.845844 -1.206286 0.820429 0.001690 -0.001638 403943.000000 1 0 0
-13.708535 -1.882206 17.205426 22.079251 0.136449 0.677316 0.035910 -0.017663 224059.000000 1 0 0
-10.680235 10.542694 12.793526 19.720297 -0.778917 0.864857 0.014481 0.010853 219167.000000 1 0 0
-7.414335 -8.224506 17.236626 20.486975 0.837157 0.571028 0.021897 -0.005107 40907.700000 1 0 0
-4.988135 2.279894 17.852826 18.676263 -0.428712 0.298053 0.024325 -0.019539 593383.000000 1 0 0
-15.792135 -3.677506 14.424426 21.702066 0.228792 0.843762 0.053859 -0.015464 160970.000000 1 0 0
-14.531235 2.688794 12.293426 19.222766 -0.182966 0.876917 0.010181 -0.009276 96947.600000 1 0 0
-13.993935 10.799094 9.677826 20.152195 -0.657244 1.069872 -0.042274 0.013698 -208487.000000 1 0 0
-5.460235 10.969394 16.084326 20.219973 -1.108934 0.651018 0.060238 -0.005605 282498.000000 1 0 0
-12.862535 13.314994 7.594026 20.010075 -0.802681 1.181530 0.005483 -0.023237 15854.100000 1 0 0
-4.128935 -6.545106 18.595726 20.141687 1.008006 0.394352 0.034506 -0.015001 395608.000000 1 0 0
0.568165 -2.910006 18.286126 18.524939 -1.377977 0.160743 0.013587 -0.014958 65625.100000 1 0 0
-4.406935 6.460194 21.071826 22.476144 -0.972139 0.355365 0.036467 -0.006627 393219.000000 1 0 0
1.997365 -10.607706 16.543426 19.753426 -1.384682 0.578111 0.002705 -0.008475 282219.000000 1 0 0
-14.829235 -0.301706 14.128726 20.484583 0.020343 0.809687 0.001418 -0.002549 4674.850000 1 0 0
-14.048035 -6.111806 7.908226 17.240694 0.410365 1.094270 0.029910 -0.010153 -190157.000000 1 0 0
10.222765 0.912294 16.617626 19.531582 0.089006 0.553275 0.035097 0.004687 596266.000000 1 0 0
-7.991635 12.473794 12.063526 19.104723 -1.001005 0.887385 0.023850 -0.008968 53821.500000 1 0 0
-1.764635 7.661794 19.344126 20.880906 -1.344428 0.386053 0.046630 -0.031843 418520.000000 1 0 0
1.111165 -13.371406 15.635626 20.603446 -1.487887 0.709199 -0.008496 -0.005233 613927.000000 1 0 0
-3.663835 -11.554206 18.034626 21.729499 1.263726 0.591759 0.034489 -0.006003 423093.000000 1 0 0
-2.108235 9.687594 16.471426 19.225036 -1.356515 0.541824 0.027142 -0.006127 404878.000000 1 0 0
-5.791435 -9.527806 20.013326 22.909671 1.024628 0.508295 0.103126 -0.026587 166226.000000 1 0 0
-6.782335 -3.034606 19.000626 20.401782 0.420713 0.372771 0.033076 -0.020293 48652.300000 1 0 0
-10.871135 -7.832906 16.171626 21.001369 0.624368 0.691912 0.048529 -0.019014 298538.000000 1 0 0
-0.646635 6.031794 17.627126 18.641788 -1.464000 0.331453 0.034396 -0.023182 -182270.000000 1 0 0
-6.569235 -11.299606 18.203826 22.410159 1.044189 0.622707 0.058057 -0.027693 331330.000000 1 0 0
0.551365 3.475894 18.809626 19.136036 1.413482 0.184965 0.018592 -0.008109 102708.000000 1 0 0
-18.568735 -0.260206 7.614326 20.070964 0.014012 1.181681 0.052166 -0.012260 178680.000000 1 0 0
-1.860935 -8.888306 17.573926 19.781505 1.364409 0.476944 0.013535 -0.007092 280154.000000 1 0 0
5.994365 3.402894 15.068526 16.570231 0.516317 0.429021 0.013245 -0.007432 437824.000000 1 0 0
-13.339135 -6.566006 10.296126 18.084667 0.457417 0.965107 0.006002 -0.010773 38588.700000 1 0 0
3.846065 8.273494 16.424126 18.788157 1.135649 0.507063 0.015170 -0.019881 149539.000000 1 0 0
6.321465 4.357594 17.768826 19.356671 0.603531 0.407867 0.033240 -0.020306 286717.000000 1 0 0
4.203465 -9.844306 17.881726 20.840720 -1.167238 0.539397 -0.011184 -0.009487 378564.000000 1 0 0
-4.674935 -0.678306 19.725426 20.283184 0.144089 0.235055 0.029094 -0.016667 902487.000000 1 0 0
-11.213935 1.950794 16.795826 20.289350 -0.172238 0.595595 0.035796 -0.014821 278129.000000 1 0 0
-16.920135 -4.372506 8.557426 19.458657 0.252888 1.115448 0.048080 -0.021353 428708.000000 1 0 0
-13.225735 -9.569406 12.207526 20.384242 0.626353 0.928706 0.036473 -0.019894 120241.000000 1 0 0
-14.754335 5.886094 13.066326 20.568553 -0.379592 0.882455 0.011402 -0.006020 -2270.480000 1 0 0
1.268765 9.213394 17.100126 19.465629 1.433948 0.498129 0.031268 -0.023722 143518.000000 1 0 0
-3.929435 -10.330806 14.956026 18.597009 1.207334 0.636440 0.025377 -0.011646 531661.000000 1 0 0
-18.707635 -3.006206 6.597926 20.063537 0.159332 1.235709 0.114395 -0.022458 -197380.000000 1 0 0
-1.065835 -0.577006 21.112926 21.147685 0.496190 0.057343 0.018802 -0.015738 458137.000000 1 0 0
-1.925835 2.217194 20.124426 20.337584 -0.855607 0.144909 0.021468 -0.021407 -4147.470000 1 0 0
-8.320635 2.256294 16.190526 18.342763 -0.264801 0.489293 0.017906 0.002776 456906.000000 1 0 0
2.779665 -1.859406 19.018426 19.310216 -0.589569 0.174063 0.016610 -0.008873 119598.000000 1 0 0
-12.114635 4.132194 14.683826 19.479583 -0.328716 0.716961 -0.027930 0.005131 169953.000000 1 0 0
-13.051335 -5.455006 13.285026 19.405833 0.395897 0.816756 -0.000553 -0.010328 17506.000000 1 0 0
-17.522335 -0.943106 9.568826 19.987099 0.053771 1.071566 0.059124 -0.022307 114236.000000 1 0 0
-7.651735 7.769194 14.634026 18.250045 -0.793015 0.640391 0.012200 -0.010465 114968.000000 1 0 0
-9.726435 0.620194 13.928126 16.999438 -0.063677 0.610557 0.019464 -0.008425 216038.000000 1 0 0
7.781665 -1.163406 15.237526 17.149053 -0.148407 0.476655 0.022862 -0.008318 119103.000000 1 0 0
4.171065 6.505094 18.312326 19.875998 1.000632 0.399312 0.024552 -0.003227 152528.000000 1 0 0
1.448565 0.536794 20.085726 20.145046 0.354881 0.076761 0.011891 -0.007639 148646.000000 1 0 0
-7.111335 6.792494 17.368726 19.959502 -0.762470 0.515192 0.006416 -0.010565 592867.000000 1 0 0
7.481465 -3.162206 17.300826 19.112573 -0.399897 0.438931 0.010705 0.011324 496367.000000 1 0 0
-16.395035 2.465594 9.151726 18.937540 -0.149268 1.066424 0.027228 -0.011335 108269.000000 1 0 0
3.926165 -6.100006 18.998526 20.336392 -0.998910 0.364749 0.019579 -0.026029 164235.000000 1 0 0
-4.004735 -3.601306 20.498826 21.194556 0.732407 0.256932 0.035181 -0.020497 384704.000000 1 0 0
-9.757235 5.997394 14.597626 18.554327 -0.551130 0.665269 0.001676 -0.003701 -16773.000000 1 0 0
6.246465 2.487994 19.881926 20.988078 0.379044 0.326109 0.042287 -0.014213 35827.000000 1 0 0
-6.704435 11.040894 13.879426 18.960202 -1.025073 0.749500 0.002819 -0.030875 217796.000000 1 0 0
-14.582335 4.934294 9.651226 18.169698 -0.326281 1.010814 0.006614 0.000586 365244.000000 1 0 0
0.849565 -5.654206 20.408626 21.194429 -1.421658 0.273157 0.029306 -0.019543 206710.000000 1 0 0
-6.469635 -8.465106 13.647326 17.313686 0.918224 0.662854 0.020734 -0.000780 325217.000000 1 0 0
-12.785235 10.107894 6.456126 17.530354 -0.668977 1.193635 -0.010079 -0.016103 149417.000000 1 0 0
-19.380035 2.250994 7.734526 20.987512 -0.115632 1.193369 0.036388 -0.015650 89572.900000 1 0 0
-16.264235 9.032794 6.244726 19.624304 -0.506963 1.246951 0.032400 -0.008655 79751.400000 1 0 0
-13.150635 7.297194 14.193926 20.679840 -0.506592 0.814317 0.017215 -0.007270 358623.000000 1 0 0
-16.632935 9.148494 10.740226 21.810592 -0.502861 1.055915 0.024164 -0.003738 451566.000000 1 0 0
2.566065 10.738094 14.459626 18.192639 1.336227 0.652108 0.021772 -0.045892 363391.000000 1 0 0
1.500465 14.691094 13.534426 20.031483 1.469015 0.828940 0.008991 -0.007916 599626.000000 1 0 0
8.703565 4.826494 16.731326 19.467520 0.506324 0.536607 0.028253 -0.004307 92242.000000 1 0 0
-0.032835 13.025694 13.450426 18.723881 -1.568276 0.769359 0.004518 -0.001556 183453.000000 1 0 0
4.209865 12.948994 14.835726 20.136985 1.256464 0.742560 0.027153 0.001261 72121.400000 1 0 0
-3.334735 -4.496606 -13.163374 14.304347 0.932685 2.739479 -0.006445 -0.004922 112706.000000 1 0 0
5.433065 -12.332106 16.906226 21.619887 -1.155818 0.672967 -0.022772 0.016299 21164.300000 1 0 0
8.582965 -13.872506 7.083626 17.784585 -1.016738 1.161132 0.003110 -0.006761 330455.000000 1 0 0
-0.479635 15.259894 0.481426 15.275018 -1.539376 1.539274 -0.000680 -0.001780 -293824.000000 1 0 0
-14.291035 7.500894 8.745426 18.357003 -0.483343 1.074231 0.004022 0.002411 6397.420000 1 0 0
-15.610535 -10.239206 5.287826 19.403383 0.580523 1.294784 0.003729 -0.003764 36796.200000 1 0 0
8.807265 -10.600406 11.380426 17.873182 -0.877530 0.880544 -0.002627 -0.004615 141804.000000 1 0 0
-26.093775 5.997094 31.110241 41.045065 -0.225906 0.710627 0.048139 -0.014716 -579887.000000 0 0 1
-24.925535 5.281694 30.803401 39.975344 -0.208810 0.691077 0.051035 -0.017599 -408499.000000 0 0 1
-24.026735 5.572194 31.840391 40.275847 -0.227888 0.659077 0.050628 -0.015532 -639779.000000 0 0 1
-22.611335 5.036894 31.600981 39.182455 -0.219181 0.632574 0.064403 -0.020288 -531909.000000 0 0 1
-22.435035 3.720794 32.034751 39.286135 -0.164352 0.617340 0.056787 -0.016523 -255052.000000 0 0 1
-21.218635 3.268394 31.495131 38.116351 -0.152833 0.598309 0.062336 -0.020035 -134043.000000 0 0 1
-20.680335 2.021394 32.234951 38.351720 -0.097435 0.572575 0.049309 -0.025001 -34006.900000 0 0 1
-21.323035 0.772494 31.969161 38.435607 -0.036212 0.588528 0.051973 -0.029497 77666.000000 0 0 1
-21.206135 -0.181006 33.006715 39.232336 0.008535 0.571087 0.038776 -0.021181 -345768.000000 0 0 1
-22.003935 -1.443506 32.754919 39.485968 0.065508 0.592525 0.038170 -0.025967 -456399.000000 0 0 1
-21.309635 -2.380206 31.946601 38.475334 0.111235 0.591126 0.067884 -0.025539 140042.000000 0 0 1
-21.563535 -3.787506 32.150541 38.897154 0.173870 0.597841 0.065233 -0.028991 -1219140.000000 0 0 1
-22.930335 -4.320006 31.702971 39.364211 0.186214 0.634488 0.046463 -0.021968 -595373.000000 0 0 1
-23.965035 -4.101806 32.618021 40.682712 0.169515 0.640552 0.037368 -0.019099 -224270.000000 0 0 1
-23.889335 -4.670806 33.917341 41.748088 0.193083 0.622491 0.036417 -0.018340 -1282450.000000 0 0 1
-25.098435 -4.218006 -33.696664 42.227813 0.166503 2.494721 0.036306 -0.015813 -173659.000000 0 0 1
-25.019235 -4.718806 -32.390714 41.199364 0.186417 2.475423 0.038129 -0.018714 -126755.000000 0 0 1
-26.219465 -4.390406 -31.758634 41.416746 0.165909 2.444647 0.029704 -0.016635 -569867.000000 0 0 1
-26.338905 -5.016406 -30.381634 40.520932 0.188202 2.418520 0.014994 -0.012326 -639280.000000 0 0 1
-26.583295 -6.413506 -30.378424 40.873626 0.236737 2.408679 0.020304 -0.013008 538551.000000 0 0 1
-26.448805 -6.967506 -29.101884 39.937515 0.257582 2.387197 0.004336 -0.009468 -158513.000000 0 0 1
-26.552805 -8.455306 -29.050804 40.255346 0.308281 2.376998 0.013724 -0.005241 -210371.000000 0 0 1
-27.913145 -8.807606 -29.125624 41.291883 0.305649 2.353727 0.026104 -0.005812 -250549.000000 0 0 1
-28.009125 -10.052306 -28.480894 41.191277 0.344576 2.334263 0.026813 -0.011055 560940.000000 0 0 1
-29.499725 -10.403006 -28.219224 42.128149 0.339032 2.304793 0.045464 -0.011151 463043.000000 0 0 1
-29.593555 -11.469306 -27.285794 41.854965 0.369737 2.280901 0.061770 -0.012157 443507.000000 0 0 1
-30.949445 -11.796106 -26.935664 42.691291 0.364144 2.253561 0.062407 -0.012941 444269.000000 0 0 1
-31.052355 -12.614206 -25.615404 42.184309 0.385860 2.223361 0.077951 -0.011694 -15691.200000 0 0 1
-30.628545 -11.807306 -24.529474 40.978230 0.367944 2.212546 0.087269 -0.011676 174422.000000 0 0 1
-30.335735 -12.549806 -23.386774 40.307514 0.392258 2.189781 0.095651 -0.012875 -165969.000000 0 0 1
-29.763655 -11.649706 -22.204174 38.918070 0.373077 2.177955 0.112289 -0.019907 183656.000000 0 0 1
-29.634145 -12.150406 -20.880674 38.233722 0.389109 2.148537 0.118336 -0.018145 212084.000000 0 0 1
-28.701395 -13.243606 -20.777474 37.826798 0.432316 2.152298 0.108034 -0.020002 6339.400000 0 0 1
-28.362815 -13.563806 -19.315474 36.898695 0.446076 2.121718 0.106573 -0.025906 -282926.000000 0 0 1
-27.617125 -12.520706 -18.807174 35.681697 0.425651 2.125959 0.105930 -0.025414 -155852.000000 0 0 1
-27.410355 -12.621906 -17.420374 34.844075 0.431534 2.094340 0.090623 -0.021746 244434.000000 0 0 1
-26.920065 -11.354506 -16.587474 33.597009 0.399145 2.087157 0.093403 -0.026816 371402.000000 0 0 1
-25.654685 -10.785706 -16.901274 32.559905 0.397984 2.116573 0.080134 -0.032738 377134.000000 0 0 1
-25.628735 -9.502706 -16.327174 31.838815 0.355069 2.109248 0.073287 -0.025009 874714.000000 0 0 1
-24.186135 -8.868306 -16.127474 30.392621 0.351447 2.130149 0.082225 -0.027270 1301390.000000 0 0 1
-23.367135 -9.654806 -15.226174 29.513974 0.391816 2.112851 0.078746 -0.031856 100291.000000 0 0 1
-22.268235 -8.839106 -14.903174 28.215398 0.377864 2.127267 0.088922 -0.043806 -250087.000000 0 0 1
-21.311235 -9.402306 -13.816974 27.082852 0.415504 2.106184 0.085205 -0.029019 -4284.800000 0 0 1
-20.617035 -10.494906 -14.428774 27.265266 0.470854 2.128454 0.078417 -0.013749 348660.000000 0 0 1
-19.547435 -10.851006 -13.556974 26.146474 0.506759 2.115893 0.085336 -0.013250 154253.000000 0 0 1
-18.526035 -11.863206 -14.119674 26.140292 0.569564 2.141411 0.083982 -0.010695 -24799.400000 0 0 1
-17.778835 -11.429806 -15.241074 26.057970 0.571360 2.195542 0.095260 -0.018771 452836.000000 0 0 1
-18.475435 -11.412706 -16.469074 27.254761 0.553349 2.219638 0.081626 -0.022518 -682788.000000 0 0 1
-17.471935 -11.101006 -17.536674 27.129980 0.566016 2.273646 0.071800 -0.025335 -183068.000000 0 0 1
-18.119635 -11.057706 -18.793774 28.351367 0.547930 2.295465 0.050364 -0.016159 821226.000000 0 0 1
-17.310135 -10.325706 -19.728974 28.204493 0.537851 2.345491 0.050835 -0.022243 -28002.900000 0 0 1
-17.779535 -10.455306 -21.158374 29.548301 0.531589 2.368939 0.047474 -0.015439 -454636.000000 0 0 1
-19.045435 -9.871606 -21.306374 30.234728 0.478195 2.352795 0.058356 -0.024503 215120.000000 0 0 1
-19.909135 -10.785006 -22.036874 31.596105 0.496457 2.342637 0.054666 -0.013019 -515424.000000 0 0 1
-21.204135 -10.141706 -22.438474 32.495456 0.446129 2.332992 0.056772 -0.019240 -1059990.000000 0 0 1
-21.070135 -9.088806 -23.331474 32.724833 0.407245 2.364506 0.055685 -0.025594 314405.000000 0 0 1
-22.289635 -8.649206 -23.920574 33.820563 0.370151 2.356438 0.053487 -0.029523 261212.000000 0 0 1
-21.961735 -7.778806 -25.192584 34.314632 0.340410 2.395232 0.046551 -0.032144 175393.000000 0 0 1
-21.277135 -8.580306 -26.171214 34.803313 0.383317 2.421849 0.056099 -0.029807 364737.000000 0 0 1
-20.728735 -7.820606 -27.221034 35.097394 0.360771 2.458439 0.049322 -0.035210 -130411.000000 0 0 1
-19.406335 -8.384706 -27.789924 34.916887 0.407836 2.491269 0.076259 -0.037658 -98356.000000 0 0 1
-19.563335 -9.507206 -28.624964 35.951351 0.452361 2.491808 0.077016 -0.036012 589648.000000 0 0 1
-18.338035 -9.800306 -29.293944 35.923039 0.490807 2.524327 0.047500 -0.022649 334645.000000 0 0 1
-18.513035 -10.906506 -30.337524 37.175929 0.532385 2.525345 0.044430 -0.017006 -574728.000000 0 0 1
-19.179035 -10.611106 -31.486714 38.364621 0.505347 2.533471 0.051293 -0.012189 -30470.900000 0 0 1
-19.155035 -11.778806 -32.329284 39.380684 0.551318 2.533856 0.031165 -0.003086 -428221.000000 0 0 1
-19.879135 -11.690606 -33.666184 40.807625 0.531612 2.540994 0.036706 -0.003456 55374.300000 0 0 1
-19.174435 -10.940206 33.701860 40.288491 0.518493 0.579907 0.040568 -0.009377 214258.000000 0 0 1
-19.771435 -10.995406 32.428854 39.540349 0.507534 0.609130 0.053347 -0.018765 -317070.000000 0 0 1
-19.320135 -12.103906 31.451891 38.845768 0.559671 0.627223 0.057684 -0.021126 -325347.000000 0 0 1
-17.943235 -12.017706 31.153881 37.907114 0.590143 0.606149 0.066005 -0.023203 142027.000000 0 0 1
-17.487435 -12.874706 30.125291 37.136258 0.634627 0.624578 0.069104 -0.027304 -96523.900000 0 0 1
-17.387835 -14.365206 30.392351 37.846942 0.690492 0.638429 0.057490 -0.016551 -1283340.000000 0 0 1
-18.582735 -15.090006 30.427191 38.714859 0.682042 0.666597 0.039899 -0.018600 -538388.000000 0 0 1
-18.513335 -16.399706 30.849551 39.539711 0.724932 0.675784 0.037401 -0.025234 -281108.000000 0 0 1
-18.736535 -16.496006 32.393591 40.896464 0.721891 0.656574 0.015351 -0.023513 -407267.000000 0 0 1
-17.636735 -16.077806 33.139205 40.838184 0.739192 0.624123 0.026868 -0.015270 -334307.000000 0 0 1
-18.024235 -15.725706 -33.963854 41.541717 0.717398 2.527999 0.020547 -0.009257 -173818.000000 0 0 1
-16.858535 -15.213906 -33.134424 40.169182 0.734164 2.540772 0.012856 -0.006259 -358087.000000 0 0 1
-16.459135 -13.908806 -33.545874 39.870838 0.701614 2.570598 0.020515 -0.006752 49200.500000 0 0 1
-15.340535 -13.269606 -32.937224 38.681717 0.713140 2.589623 0.022256 -0.003170 402692.000000 0 0 1
-15.570035 -12.929006 -31.452904 37.401476 0.692991 2.569839 0.025481 -0.000554 -273251.000000 0 0 1
-15.797035 -14.071406 -30.648234 37.240637 0.727688 2.537430 0.014466 -0.003246 -186538.000000 0 0 1
-16.103935 -13.725406 -29.322074 36.159474 0.705829 2.516502 0.013453 -0.002554 -149655.000000 0 0 1
-16.165135 -14.890206 -28.335644 35.859986 0.744368 2.481890 0.007995 0.006291 993978.000000 0 0 1
-14.922335 -15.529606 -27.944114 35.280565 0.805337 2.484963 0.032609 -0.018568 485638.000000 0 0 1
-14.378535 -16.450806 -28.843124 36.184211 0.852515 2.493305 0.035075 -0.013941 247432.000000 0 0 1
-13.083235 -17.098706 -28.234174 35.506413 0.917664 2.490109 0.060321 -0.013347 106018.000000 0 0 1
-12.070135 -16.147606 -28.107134 34.589657 0.928905 2.519375 0.042384 -0.020017 -653403.000000 0 0 1
-10.898235 -16.752206 -27.562624 34.045649 0.994031 2.514230 0.066278 -0.027754 678078.000000 0 0 1
-9.670735 -15.848706 -27.861074 33.480503 1.022917 2.553785 0.052590 -0.030933 184026.000000 0 0 1
-9.624935 -14.705606 -27.067174 32.272684 0.991259 2.565692 0.054755 -0.024341 -163290.000000 0 0 1
-8.315235 -14.159706 -27.003914 31.604617 1.039807 2.595248 0.063899 -0.028218 324614.000000 0 0 1
-8.198335 -12.717106 -27.451654 31.345347 0.998177 2.637847 0.059886 -0.031079 -176248.000000 0 0 1
-8.342835 -12.645006 -28.841894 32.578427 0.987581 2.657949 0.074997 -0.027182 93352.400000 0 0 1
-8.195635 -11.292406 -29.257154 32.414008 0.942987 2.696587 0.058502 -0.031976 295512.000000 0 0 1
-7.052735 -11.030806 -30.292524 33.000860 1.001932 2.733631 0.043127 -0.020598 886413.000000 0 0 1
-5.724135 -11.022406 -29.722724 32.213343 1.091814 2.745780 0.046786 -0.022073 1532910.000000 0 0 1
-4.729135 -10.683506 -30.720854 32.867505 1.154065 2.778176 0.048164 -0.020607 484427.000000 0 0 1
-4.580835 -9.195106 -31.121364 32.773058 1.108604 2.822760 0.029655 -0.014515 -1476920.000000 0 0 1
-3.399735 -8.899306 -31.778654 33.175875 1.205883 2.850338 0.034096 -0.019237 -639256.000000 0 0 1
-3.463535 -7.584906 -32.179074 33.241836 1.142438 2.888048 0.034111 -0.017450 434721.000000 0 0 1
-2.074735 -6.976106 -32.544504 33.348393 1.281721 2.921578 0.034991 -0.020193 376795.000000 0 0 1
-1.455435 -7.526206 -33.656314 34.518249 1.379772 2.917650 0.038031 -0.024494 -376012.000000 0 0 1
-0.445135 -6.697306 -34.190989 34.843590 1.504429 2.947746 0.032060 -0.007790 103999.000000 0 0 1
0.231965 -7.255006 32.959713 33.749543 -1.538834 0.216770 0.016480 -0.002874 -292494.000000 0 0 1
-0.420135 -7.112906 31.716421 32.506943 1.511798 0.220988 0.016053 0.006323 -217374.000000 0 0 1
0.235865 -7.748906 30.612831 31.579212 -1.540367 0.248029 0.008356 0.002460 -106059.000000 0 0 1
-0.081835 -7.224806 29.196351 30.077092 1.559470 0.242598 0.009679 0.004126 -17668.400000 0 0 1
0.479165 -5.955506 28.894671 29.505926 -1.490512 0.203903 0.011880 -0.002959 -41750.500000 0 0 1
0.363565 -5.529806 27.580581 28.131822 -1.505144 0.198289 0.020448 -0.003210 -493725.000000 0 0 1
-0.766335 -4.538606 27.252781 27.638747 1.403526 0.167316 0.029569 0.002521 39813.300000 0 0 1
-2.060135 -5.076206 27.267431 27.812315 1.185264 0.198271 0.039873 0.007363 -1035870.000000 0 0 1
-3.016935 -4.208206 26.781201 27.277164 0.948807 0.190985 0.028495 -0.007185 -1073760.000000 0 0 1
-4.434235 -4.652806 27.020421 27.774345 0.809447 0.233531 0.035226 -0.004096 -1079410.000000 0 0 1
-4.922735 -5.717006 26.348301 27.407125 0.859911 0.278871 0.032960 0.002970 290181.000000 0 0 1
-6.183535 -6.104906 26.947891 28.314216 0.779000 0.311926 0.024067 0.001926 1269960.000000 0 0 1
-6.493935 -7.645106 26.862541 28.674291 0.866637 0.357381 0.033046 0.001914 115000.000000 0 0 1
-5.626535 -8.420206 27.647131 29.443533 0.981720 0.351120 0.024096 -0.004040 -417847.000000 0 0 1
-5.948935 -9.781106 27.751081 30.019700 1.024364 0.391261 0.021019 -0.005619 -95981.400000 0 0 1
-5.179335 -10.509906 28.866081 31.153400 1.112921 0.385584 0.023096 -0.006417 -68835.300000 0 0 1
-5.443735 -11.881906 28.969551 31.781266 1.141183 0.423809 0.036894 -0.015038 -41931.300000 0 0 1
-4.825435 -12.317506 30.153971 32.928222 1.197419 0.413429 0.041821 -0.020019 -406317.000000 0 0 1
-4.906635 -13.844206 30.350881 33.718142 1.230191 0.450717 0.061692 -0.027686 -528133.000000 0 0 1
-6.207235 -14.322606 30.471831 34.237397 1.161843 0.473416 0.068944 -0.035138 -900215.000000 0 0 1
-6.331035 -15.728506 30.291511 34.713738 1.188120 0.510278 0.065429 -0.032757 145001.000000 0 0 1
-6.342335 -16.596606 31.562751 36.219882 1.205775 0.512705 0.086072 -0.034800 -911154.000000 0 0 1
-7.623335 -16.679606 32.062801 36.937078 1.142099 0.519559 0.077313 -0.032692 -1302000.000000 0 0 1
-7.721535 -17.104106 33.416188 38.325112 1.146743 0.511699 0.081337 -0.031389 -564482.000000 0 0 1
-9.208735 -17.104606 33.771339 38.959873 1.076920 0.522000 0.080361 -0.023784 125465.000000 0 0 1
-9.994935 -18.202206 33.275145 39.223135 1.068640 0.557926 0.079057 -0.024463 254202.000000 0 0 1
-10.494635 -17.969606 31.946271 38.126217 1.042209 0.577357 0.080363 -0.033633 -258646.000000 0 0 1
-11.277535 -19.255706 31.467271 38.576602 1.040978 0.616843 0.068659 -0.028983 389606.000000 0 0 1
-12.352735 -19.647506 32.314741 39.785137 1.009528 0.622829 0.066044 -0.026489 157881.000000 0 0 1
-12.691835 -20.998406 32.223711 40.501646 1.027134 0.650774 0.049130 -0.021004 -443619.000000 0 0 1
-12.143935 -21.966806 33.275763 41.680837 1.065782 0.646251 0.056597 -0.019822 -39246.700000 0 0 1
-10.714135 -21.896806 33.235946 41.217605 1.115744 0.632836 0.053990 -0.022090 542263.000000 0 0 1
-10.032135 -22.604706 -34.169585 42.180292 1.153104 2.515092 0.060439 -0.034601 2218.670000 0 0 1
-10.370835 -24.097706 -33.974944 42.924940 1.164389 2.484050 0.069045 -0.015865 -585150.000000 0 0 1
-9.971835 -24.918906 33.394602 42.843773 1.190142 0.677008 0.070461 -0.021963 -88546.800000 0 0 1
-10.274135 -26.279166 33.657719 43.920320 1.198106 0.697678 0.083534 -0.028043 -371253.000000 0 0 1
-9.757635 -27.182806 32.473272 43.458369 1.226159 0.726917 0.068957 -0.018432 1852130.000000 0 0 1
-8.322635 -27.386756 32.272111 43.136874 1.275772 0.725553 0.091624 -0.029402 1464100.000000 0 0 1
-7.756235 -28.188156 33.300612 44.313228 1.302282 0.720490 0.069438 -0.025361 211896.000000 0 0 1
-6.193235 -28.095396 33.472006 44.137090 1.353830 0.709996 0.078072 -0.029646 1066250.000000 0 0 1
-5.825235 -26.858416 34.096479 43.793582 1.357217 0.678408 0.074654 -0.021061 15548.600000 0 0 1
-5.667735 -25.849976 33.118757 42.393356 1.354957 0.674170 0.083242 -0.013421 -398262.000000 0 0 1
-5.231935 -24.503106 33.753285 42.036409 1.360434 0.638562 0.087198 -0.020314 1683070.000000 0 0 1
-3.836235 -24.491406 34.188462 42.230281 1.415423 0.627373 0.095863 -0.028716 1463910.000000 0 0 1
-3.420935 -23.304506 -33.629064 41.057481 1.425044 2.530589 0.079888 -0.032199 -123947.000000 0 0 1
34.542910 -15.107606 2.096226 37.760383 -0.412291 1.515254 0.113963 -0.032642 -586594.000000 0 0 1
35.509790 -15.605106 2.965426 38.900620 -0.414054 1.494491 0.103967 -0.033840 -656702.000000 0 0 1
35.040690 -15.922006 4.209326 38.717937 -0.426496 1.461863 0.104051 -0.036502 -353234.000000 0 0 1
36.061080 -15.988906 5.373426 39.811057 -0.417338 1.435410 0.092462 -0.016873 157934.000000 0 0 1
-35.790514 -17.118406 5.352826 40.033155 0.446133 1.436685 0.087602 -0.015077 119961.000000 0 0 1
-35.081049 -17.238306 6.535826 39.630244 0.456732 1.405119 0.077803 -0.009222 215551.000000 0 0 1
-33.869025 -18.212206 6.616826 39.020222 0.493370 1.400399 0.059413 -0.019799 246385.000000 0 0 1
-34.284049 -19.568106 6.658526 40.033021 0.518645 1.403694 0.066437 -0.018653 -102324.000000 0 0 1
-33.233535 -20.427406 6.987226 39.630394 0.551131 1.393560 0.050904 -0.013839 -514873.000000 0 0 1
-33.648055 -21.874406 7.219626 40.777497 0.576441 1.392809 0.058624 -0.012713 -807673.000000 0 0 1
-33.721775 -22.591806 5.983226 41.028610 0.590270 1.424444 0.060762 -0.012179 277754.000000 0 0 1
-33.937755 -23.983906 6.221526 42.020309 0.615210 1.422190 0.059666 -0.009669 -311939.000000 0 0 1
-33.247635 -24.812406 5.141326 41.803038 0.641123 1.447495 0.063609 -0.003276 121378.000000 0 0 1
-33.879935 -24.696106 3.896826 42.106210 0.629879 1.478116 0.057068 -0.001406 400805.000000 0 0 1
-33.105345 -25.469656 2.972126 41.874823 0.655772 1.499760 0.059120 0.003415 406914.000000 0 0 1
-33.553985 -25.248996 1.499026 42.019386 0.645092 1.535114 0.044189 0.005321 -747449.000000 0 0 1
-34.749766 -25.840116 1.111626 43.318513 0.639396 1.545132 0.034765 0.006167 -612379.000000 0 0 1
-35.133248 -25.333706 -0.106674 43.314584 0.624731 1.573259 0.034884 0.003060 -160724.000000 0 0 1
-36.093495 -24.115806 -0.083374 43.408749 0.589028 1.572717 0.046011 -0.010432 485157.000000 0 0 1
35.266720 -24.505006 0.221526 42.945150 -0.607260 1.565638 0.037939 -0.001646 822823.000000 0 0 1
34.635870 -23.408406 0.889626 41.813734 -0.594329 1.549519 0.056720 -0.003975 885144.000000 0 0 1
33.071720 -23.511806 0.832826 40.586171 -0.618027 1.550275 0.050661 -0.005152 936119.000000 0 0 1
32.551000 -23.301406 -0.475874 40.034355 -0.621280 1.582683 0.051541 -0.015971 -462451.000000 0 0 1
31.174760 -23.062106 -0.505374 38.781204 -0.636921 1.583828 0.047059 -0.011924 -12332.900000 0 0 1
30.611720 -22.914006 -1.977174 38.288879 -0.642564 1.622458 0.046093 -0.011173 268596.000000 0 0 1
31.038480 -21.667306 -2.528274 37.937469 -0.609435 1.637489 0.064299 -0.021688 160670.000000 0 0 1
31.008630 -21.690906 -3.947574 38.047521 -0.610398 1.674737 0.064562 -0.033418 -101485.000000 0 0 1
30.943820 -20.334406 -4.701674 37.324440 -0.581378 1.697100 0.071673 -0.033333 -552955.000000 0 0 1
29.922790 -19.612106 -4.136874 36.015577 -0.580179 1.685914 0.069382 -0.034072 -568674.000000 0 0 1
29.911090 -18.212406 -4.478274 35.304673 -0.546927 1.697985 0.072537 -0.035473 -145360.000000 0 0 1
28.858290 -17.520906 -3.588274 33.950828 -0.545650 1.676684 0.083844 -0.030242 -370624.000000 0 0 1
29.117230 -17.216306 -2.254074 33.901255 -0.533980 1.637335 0.082554 -0.027005 -81899.700000 0 0 1
29.742930 -18.170906 -1.431174 34.883692 -0.548419 1.611835 0.075279 -0.010320 -143466.000000 0 0 1
28.874230 -19.420006 -1.005374 34.811903 -0.592080 1.599681 0.059113 -0.010462 66197.800000 0 0 1
27.856500 -19.128406 -0.083174 33.791825 -0.601728 1.573258 0.056258 -0.000020 -25335.200000 0 0 1
27.327270 -20.346606 0.441626 34.072850 -0.640006 1.557835 0.044379 -0.000248 22632.900000 0 0 1
26.055370 -20.143406 1.316426 32.960159 -0.658122 1.530846 0.042454 0.008526 -1262120.000000 0 0 1
25.564370 -21.384206 1.845126 33.380020 -0.696595 1.515492 0.028531 0.012020 575889.000000 0 0 1
24.415670 -21.286706 2.723526 32.506405 -0.717041 1.486914 0.018245 0.007939 1012580.000000 0 0 1
23.135470 -20.720806 2.038126 31.124841 -0.730395 1.505267 0.014661 0.013619 -963433.000000 0 0 1
23.093270 -19.346906 1.808226 30.180649 -0.697352 1.510847 0.030906 -0.002548 -148036.000000 0 0 1
22.990270 -18.487106 2.912526 29.644703 -0.677253 1.472390 0.040617 -0.005432 -317140.000000 0 0 1
22.776470 -16.993406 2.621726 28.537990 -0.640997 1.478799 0.045128 -0.000949 83880.700000 0 0 1
21.471270 -16.723506 2.172426 27.302207 -0.661729 1.491143 0.040889 0.001532 -250191.000000 0 0 1
21.502870 -15.376506 1.749826 26.492872 -0.620782 1.504699 0.047896 -0.013226 755623.000000 0 0 1
20.190770 -14.825406 1.078826 25.072370 -0.633355 1.527755 0.043170 -0.012194 930343.000000 0 0 1
19.037570 -14.855606 1.934326 24.225188 -0.662632 1.490864 0.041819 -0.013662 505411.000000 0 1 0
18.192770 -13.738506 1.790026 22.867611 -0.646797 1.492438 0.056929 -0.018431 -197585.000000 0 1 0
18.729070 -12.325606 2.288226 22.537404 -0.582049 1.469091 0.074926 -0.018054 -826728.000000 0 1 0
19.570670 -11.734606 1.353726 22.859236 -0.540127 1.511542 0.070072 -0.021992 248328.000000 0 1 0
20.273670 -10.638106 1.962026 22.979133 -0.483232 1.485309 0.089734 -0.024453 141413.000000 0 1 0
21.116870 -9.792906 0.974026 23.297466 -0.434228 1.528976 0.092961 -0.027944 -188220.000000 0 1 0
20.355270 -9.344306 -0.084574 22.397773 -0.430363 1.574572 0.089249 -0.023218 412530.000000 0 1 0
21.233670 -8.715506 -0.981674 22.973734 -0.389488 1.613540 0.084851 -0.016916 -35970.800000 0 1 0
20.561470 -8.445406 -2.375674 22.354927 -0.389730 1.677268 0.085361 -0.017304 60784.800000 0 1 0
21.344170 -7.701306 -3.342574 22.935921 -0.346277 1.717053 0.088315 -0.022257 926337.000000 0 1 0
22.499870 -8.380606 -3.836574 24.314563 -0.356554 1.729248 0.089906 -0.024052 -267230.000000 0 1 0
22.215770 -9.569406 -4.746474 24.650415 -0.406729 1.764558 0.079160 -0.024651 -619157.000000 0 1 0
21.689670 -9.128806 -5.999774 24.285266 -0.398378 1.820435 0.077054 -0.029277 1642280.000000 0 1 0
20.249370 -8.937506 -6.053874 22.947012 -0.415656 1.837776 0.067008 -0.015050 924418.000000 0 1 0
19.646270 -8.880306 -7.468374 22.816931 -0.424524 1.904259 0.068946 -0.012978 -276098.000000 0 1 0
19.522570 -10.054506 -8.232974 23.452200 -0.475591 1.929492 0.066963 -0.014348 334035.000000 0 1 0
20.745570 -10.444906 -8.802674 24.838716 -0.466425 1.933061 0.068525 -0.013930 -314045.000000 0 1 0
20.659370 -11.840506 -9.371274 25.589606 -0.520428 1.945734 0.059677 -0.016182 50496.700000 0 0 1
19.779370 -11.883706 -10.507774 25.354669 -0.541017 1.998114 0.076047 -0.021138 510067.000000 0 0 1
19.557770 -13.235606 -10.830274 25.980425 -0.594947 2.000788 0.064131 -0.013431 299496.000000 0 0 1
18.445070 -13.513906 -11.909274 25.781332 -0.632309 2.050971 0.079248 -0.017633 546920.000000 0 0 1
18.280970 -14.908006 -12.268074 26.588496 -0.684117 2.050375 0.068915 -0.018076 725129.000000 0 0 1
17.006970 -15.115606 -12.891074 26.151450 -0.726587 2.086261 0.076670 -0.021100 542138.000000 0 0 1
16.906970 -16.555306 -13.364974 27.176209 -0.774889 2.084940 0.057374 -0.015278 -303775.000000 0 0 1
16.447870 -17.463406 -12.408174 27.008624 -0.815336 2.048133 0.049376 -0.010501 187352.000000 0 0 1
16.326770 -18.785106 -12.919074 28.041863 -0.855298 2.049588 0.044267 -0.007726 -390908.000000 0 0 1
15.468870 -19.805406 -12.113974 27.897821 -0.907722 2.019976 0.048980 -0.007169 960086.000000 0 0 1
14.096670 -19.379906 -12.259474 26.918239 -0.941926 2.043656 0.036330 -0.004192 348137.000000 0 0 1
13.208670 -20.195806 -11.543974 26.750755 -0.991593 2.016994 0.034760 -0.002499 -33319.400000 0 0 1
11.780570 -20.129206 -12.119574 26.284042 -1.041295 2.050031 0.037621 -0.012733 17563.000000 0 0 1
10.823070 -20.639306 -11.202074 25.857422 -1.087827 2.018864 0.041715 -0.016582 135780.000000 0 0 1
9.507670 -20.548006 -11.735874 25.501904 -1.137427 2.049012 0.033914 -0.013253 682244.000000 0 0 1
8.442770 -20.960706 -10.660174 24.985413 -1.187887 2.011588 0.025278 -0.015293 178118.000000 0 1 0
8.381570 -22.357406 -10.406374 26.046054 -1.212122 1.981809 0.048079 -0.013347 -153838.000000 0 0 1
7.488670 -22.713006 -9.390574 25.693262 -1.252312 1.944953 0.052493 -0.022416 -53012.200000 0 0 1
7.550370 -24.243206 -9.333774 27.052920 -1.268875 1.923055 0.050462 -0.019959 -170900.000000 0 0 1
8.791170 -24.690706 -8.880574 27.672735 -1.228740 1.897491 0.055164 -0.015143 -674491.000000 0 0 1
9.058770 -26.019116 -9.383274 29.105009 -1.235763 1.899054 0.045997 -0.012541 856671.000000 0 0 1
10.574870 -26.376666 -9.191074 29.866909 -1.189499 1.883607 0.029546 -0.006269 801611.000000 0 0 1
10.907870 -26.582116 -7.830274 29.780929 -1.181403 1.836853 0.042302 -0.017745 -196287.000000 0 0 1
12.214670 -27.098976 -7.702774 30.706439 -1.147325 1.824357 0.054644 -0.008996 -41915.800000 0 0 1
12.679870 -27.451976 -6.233174 30.874626 -1.138096 1.774080 0.042521 -0.014036 113208.000000 0 0 1
12.257170 -28.696316 -5.656774 31.713024 -1.167120 1.750130 0.045344 -0.014412 -313279.000000 0 0 1
10.881470 -28.903856 -5.505274 31.371123 -1.210736 1.747198 0.053971 -0.019346 -510954.000000 0 0 1
10.555370 -30.056336 -4.560074 32.180638 -1.233065 1.712977 0.063413 -0.023820 46345.400000 0 0 1
10.699270 -31.414806 -5.098674 33.576196 -1.242538 1.723240 0.047560 -0.018112 -4108.530000 0 0 1
9.601270 -31.804016 -5.921174 33.745224 -1.277608 1.747176 0.055058 -0.021512 405773.000000 0 0 1
9.683970 -33.267496 -6.390974 35.232799 -1.287530 1.753199 0.057701 -0.012542 -49437.300000 0 0 1
9.452070 -34.158557 -5.324974 35.839978 -1.300840 1.719925 0.052838 -0.012585 -51884.500000 0 0 1
9.621270 32.965378 -5.723074 34.814344 1.286824 1.735934 0.060506 -0.010973 -67683.000000 0 0 1
9.320470 31.976011 -4.553374 33.616508 1.287171 1.706664 0.057134 -0.008367 571415.000000 0 0 1
7.951870 31.580891 -4.546174 32.882405 1.324130 1.709496 0.053635 -0.008486 -171324.000000 0 0 1
7.680670 30.634331 -3.609674 31.788121 1.325139 1.684596 0.029698 -0.003913 1064520.000000 0 0 1
6.284570 29.896011 -3.821274 30.787488 1.363599 1.695235 0.032728 -0.002336 1260240.000000 0 0 1
5.992970 29.310001 -5.093074 30.346849 1.369108 1.739423 0.039484 -0.006907 -46998.900000 0 0 1
5.643970 30.176121 -6.137774 31.306947 1.385898 1.768126 0.024300 -0.005764 -387693.000000 0 0 1
5.808870 29.494241 -7.547174 30.993758 1.376336 1.816776 0.032338 -0.012501 143232.000000 0 0 1
4.961470 28.389491 -7.897974 29.882392 1.397779 1.838276 0.032734 -0.015237 -79474.500000 0 0 1
5.325270 27.166251 -7.333774 28.638225 1.377226 1.829765 0.029445 -0.010371 -1120760.000000 0 0 1
4.537270 25.949331 -7.653574 27.432312 1.397695 1.853547 0.032594 -0.013245 993224.000000 0 0 1
3.156670 25.854641 -7.162774 27.013558 1.449305 1.839161 0.025118 -0.011449 1811480.000000 0 0 1
2.186770 26.611901 -7.924174 27.852607 1.488808 1.859285 0.035438 -0.018265 270541.000000 0 0 1
1.701570 25.957251 -9.274274 27.616777 1.505337 1.913272 0.041663 -0.016908 -73707.500000 0 0 1
2.787170 25.645881 -10.170374 27.729335 1.462542 1.946334 0.035660 -0.019585 142840.000000 0 0 1
2.516970 24.936201 -11.353174 27.514429 1.470201 1.996132 0.056815 -0.023174 -668179.000000 0 0 1
2.340170 23.441481 -11.256674 26.109234 1.471296 2.016550 0.072160 -0.016265 268887.000000 0 0 1
1.117570 23.079111 -10.623974 25.431538 1.522411 2.001762 0.075734 -0.018519 352539.000000 0 0 1
1.070770 21.700411 -10.676674 24.208381 1.521493 2.027545 0.039057 -0.007805 326503.000000 0 1 0
0.017870 21.013211 -9.717074 23.151174 1.569946 2.003936 0.038247 -0.008557 854577.000000 0 1 0
-1.342930 21.297811 -10.040474 23.584133 -1.507825 2.010565 0.038976 -0.008108 96856.600000 0 1 0
-2.192030 20.440511 -9.300374 22.563608 -1.463965 1.995647 0.026451 -0.008194 -780728.000000 0 1 0
-3.619230 20.916111 -9.391074 23.211523 -1.399457 1.987323 0.027343 -0.010209 -836365.000000 0 1 0
-4.587730 19.980411 -8.996674 22.387591 -1.345097 1.984343 0.023317 -0.016447 -1627.790000 0 1 0
-5.546830 19.748211 -10.023774 22.830576 -1.296974 2.025338 0.030629 -0.002966 -479091.000000 0 1 0
-6.465530 18.566611 -9.675774 21.912159 -1.235695 2.028145 0.028296 -0.009812 -416406.000000 0 1 0
-7.471430 18.897411 -8.746774 22.123301 -1.194289 1.977261 0.051857 -0.016019 -133789.000000 0 1 0
-8.716230 18.879111 -9.438074 22.835734 -1.138267 1.996875 0.057532 -0.024380 -196032.000000 0 1 0
-9.902930 19.094211 -8.498074 23.127347 -1.092352 1.947059 0.068985 -0.033309 -185836.000000 0 1 0
-10.078230 17.977811 -7.675774 21.992951 -1.059857 1.927311 0.052182 -0.031560 735485.000000 0 1 0
-11.187130 18.205811 -6.748574 22.408629 -1.019797 1.876705 0.066212 -0.026864 817651.000000 0 1 0
-11.566630 16.962311 -5.950274 21.375516 -0.972320 1.852892 0.039943 -0.027412 -461231.000000 0 1 0
-12.635630 17.283811 -5.099974 22.009066 -0.939523 1.804643 0.065264 -0.020154 -131295.000000 0 1 0
-13.094230 16.189711 -4.404674 21.283016 -0.890713 1.779260 0.058655 -0.023498 -681613.000000 0 1 0
-14.221130 16.524011 -3.454374 22.072974 -0.860161 1.727940 0.034578 -0.027792 840178.000000 0 1 0
-15.528330 16.675411 -4.074174 23.147295 -0.821003 1.747729 0.059019 -0.036880 1465540.000000 0 1 0
-16.564830 17.007511 -3.143874 23.948548 -0.798583 1.702453 0.065890 -0.031633 -374104.000000 0 1 0
-17.843130 17.259011 -3.905274 25.129702 -0.768759 1.726833 0.071420 -0.038083 -1065490.000000 0 0 1
-17.835430 18.408411 -4.713574 26.061273 -0.801206 1.752662 0.051421 -0.033030 90349.500000 0 0 1
-19.077830 18.555311 -5.374874 27.150551 -0.771514 1.770078 0.043203 -0.031127 -229068.000000 0 0 1
-19.067130 19.372411 -6.694874 27.994055 -0.793340 1.812290 0.037812 -0.013593 -359856.000000 0 0 1
-18.653630 20.692311 -6.491174 28.605331 -0.837166 1.799712 0.035721 -0.017409 152052.000000 0 0 1
-18.908730 21.583711 -7.549474 29.671387 -0.851364 1.828061 0.025610 -0.003276 -55443.900000 0 0 1
-18.666030 23.016211 -7.145774 30.483253 -0.889387 1.807415 0.041364 -0.011095 -145324.000000 0 0 1
-17.351230 23.314711 -6.759274 29.838376 -0.931006 1.799309 0.048732 -0.013328 -144993.000000 0 0 1
-17.400830 24.124991 -5.618274 30.271588 -0.945932 1.757474 0.066868 -0.024928 -560508.000000 0 0 1
-16.022630 24.557001 -5.167274 29.773674 -0.992689 1.745231 0.074049 -0.025270 -1005610.000000 0 0 1
-16.116930 25.337731 -3.995874 30.293944 -1.004266 1.703085 0.071520 -0.024716 480625.000000 0 0 1
-14.830330 25.837321 -3.643674 30.013034 -1.049722 1.692500 0.073988 -0.025363 380144.000000 0 0 1
-14.229230 26.954831 -4.498574 30.810243 -1.085085 1.717329 0.086440 -0.025822 -699604.000000 0 0 1
-14.833130 28.200141 -4.414874 32.167698 -1.086570 1.708476 0.089758 -0.020662 -285026.000000 0 0 1
-14.294530 29.177841 -5.276374 32.916866 -1.115253 1.731785 0.070323 -0.023390 -311086.000000 0 0 1
-14.937630 30.515841 -5.003174 34.342118 -1.115581 1.717003 0.063785 -0.021265 721597.000000 0 0 1
-16.329030 30.599081 -5.341274 35.092309 -1.080597 1.723597 0.082084 -0.023928 704940.000000 0 0 1
-17.010730 31.755261 -4.917674 36.358562 -1.079012 1.706467 0.078758 -0.018144 68149.400000 0 0 1
12.492965 -8.567506 18.933961 24.248118 -0.601123 0.674783 0.062838 -0.015157 20013.100000 0 1 0
13.416365 -9.537306 19.382861 25.429400 -0.617985 0.704057 0.064860 -0.014118 133317.000000 0 0 1
13.384165 -10.702406 18.593861 25.286539 -0.674517 0.744648 0.060881 -0.017917 29307.700000 0 0 1
13.960265 -11.990406 19.267061 26.643545 -0.709636 0.762456 0.090049 -0.023247 639014.000000 0 0 1
15.389365 -12.121706 19.303461 27.502580 -0.667176 0.792765 0.082074 -0.013528 983294.000000 0 0 1
15.861465 -13.258006 20.018261 28.776580 -0.696229 0.801480 0.078585 -0.013541 -132427.000000 0 0 1
15.930665 -14.597006 19.189961 28.898327 -0.741739 0.844573 0.071987 -0.019668 -101677.000000 0 0 1
14.714365 -15.013406 18.570661 28.049677 -0.795457 0.847228 0.080680 -0.023359 653027.000000 0 0 1
14.880665 -16.278206 17.993161 28.463451 -0.830220 0.886472 0.083348 -0.032800 -311212.000000 0 0 1
14.533565 -16.216506 16.491461 27.316074 -0.840073 0.922628 0.073561 -0.032770 1081800.000000 0 0 1
13.124465 -16.159506 16.135661 26.338959 -0.888671 0.911430 0.081270 -0.033086 1340700.000000 0 0 1
12.980465 -16.222106 14.716361 25.460175 -0.895951 0.954502 0.110677 -0.046251 -175367.000000 0 0 1
12.604765 -17.547306 14.055461 25.774872 -0.947874 0.994030 0.071447 -0.025284 70461.800000 0 0 1
13.677665 -18.460406 13.928761 26.867741 -0.933132 1.025795 0.069821 -0.018277 498296.000000 0 0 1
13.162265 -19.618706 13.260161 27.091894 -0.979866 1.059336 0.067571 -0.021188 -192266.000000 0 0 1
14.278865 -20.579606 12.910461 28.179535 -0.964220 1.094883 0.075637 -0.018102 -1416.640000 0 0 1
15.015365 -21.067806 14.049261 29.439691 -0.951587 1.073306 0.083540 -0.017307 297075.000000 0 0 1
15.264965 -22.477606 13.965861 30.550077 -0.974223 1.096012 0.065769 -0.019345 42686.100000 0 0 1
16.213365 -23.027706 15.074161 31.943369 -0.957337 1.079349 0.065440 -0.021610 30269.500000 0 0 1
17.544565 -22.602906 14.885361 32.253327 -0.910732 1.091095 0.048232 -0.011506 -158396.000000 0 0 1
18.256965 -22.986406 16.060861 33.461066 -0.899571 1.070157 0.057859 -0.017270 159325.000000 0 0 1
19.739465 -22.563006 16.195261 34.073776 -0.852046 1.075491 0.033297 -0.005529 599890.000000 0 0 1
20.636765 -23.414906 15.493161 34.844970 -0.848380 1.110034 0.036428 -0.011269 -534730.000000 0 0 1
21.953765 -22.970706 15.565961 35.382486 -0.808031 1.115271 0.030656 0.000081 -329453.000000 0 0 1
23.003765 -23.924906 14.947361 36.400521 -0.805024 1.147645 0.012836 -0.007864 70979.100000 0 0 1
23.345765 -24.914306 15.987761 37.700874 -0.817889 1.132863 0.021016 -0.005053 220894.000000 0 0 1
24.237565 -25.868566 15.453761 38.671191 -0.817938 1.159695 0.019199 -0.013326 40882.000000 0 0 1
24.828265 -26.862756 16.507461 40.131617 -0.824737 1.146880 0.032398 -0.015406 -280492.000000 0 0 1
25.696765 -26.349316 17.470661 40.741063 -0.797935 1.127608 0.027191 -0.000345 -20690.900000 0 0 1
26.189265 -27.259266 18.414861 42.048214 -0.805415 1.117483 0.053165 -0.008780 85256.700000 0 0 1
26.508565 -26.498266 19.760961 42.371662 -0.785204 1.085611 0.043226 -0.009788 187827.000000 0 0 1
25.331565 -26.263416 20.526861 41.866541 -0.803457 1.058371 0.064560 -0.006084 291187.000000 0 0 1
25.570065 -25.781336 21.876661 42.392143 -0.789512 1.028558 0.062076 0.001775 195193.000000 0 0 1
24.255265 -25.466996 22.663761 41.839358 -0.809763 0.998356 0.063240 0.001336 358260.000000 0 0 1
23.789965 -26.743406 23.051961 42.574231 -0.843777 0.998631 0.071750 -0.003194 -663857.000000 0 0 1
22.531565 -26.724016 23.643521 42.200244 -0.870310 0.976085 0.071436 -0.007907 -897150.000000 0 0 1
21.848465 -28.058396 23.503681 42.626894 -0.909192 0.986777 0.082987 -0.011233 -523523.000000 0 0 1
22.592365 -29.080206 24.117351 44.019541 -0.910301 0.990970 0.077429 -0.004247 415189.000000 0 0 1
22.258565 -30.351646 23.581221 44.415539 -0.938033 1.011107 0.091190 -0.006142 684956.000000 0 0 1
23.361865 -31.422776 24.030371 45.941554 -0.931488 1.020354 0.071535 0.005192 768423.000000 0 0 1
23.264165 -31.706536 25.414541 46.823335 -0.937787 0.997059 0.057494 0.010960 1154520.000000 0 0 1
24.498365 -32.160796 26.016141 48.076255 -0.919820 0.999000 0.058382 0.014143 357638.000000 0 0 1
24.278565 -32.554986 27.440931 49.013065 -0.930007 0.976568 0.048883 0.003506 314724.000000 0 0 1
23.614265 -33.789896 27.719171 49.676383 -0.960839 0.978829 0.038634 0.009018 847190.000000 0 0 1
22.240665 -33.965206 27.381691 48.969781 -0.991049 0.977430 0.042173 0.013328 210913.000000 0 0 1
21.639165 33.111426 27.938411 48.427005 0.991947 0.955846 0.068914 -0.005056 72851.200000 0 0 1
21.159865 33.294262 29.280691 49.128471 1.004653 0.932283 0.048926 -0.008934 170999.000000 0 0 1
20.656265 32.080421 29.738401 48.375688 0.998728 0.908742 0.058778 -0.023062 -120873.000000 0 0 1
20.415465 32.105521 31.271281 49.248844 1.004407 0.882833 0.048735 -0.023816 -539514.000000 0 0 1
21.587765 32.173701 32.011251 50.258321 0.979817 0.880281 0.038585 -0.016345 -392706.000000 0 0 1
21.359965 32.791687 33.269264 51.365229 0.993449 0.866234 0.031448 -0.020871 -137409.000000 0 0 1
22.583165 32.655537 34.187951 52.394651 0.965759 0.859906 0.009579 -0.015631 28377.200000 0 0 1
22.904565 31.314301 -33.911254 51.528416 0.939279 2.289099 0.010168 -0.011560 -164453.000000 0 0 1
24.163265 31.197041 -33.292554 51.628605 0.911776 2.271619 -0.002049 -0.002997 -123506.000000 0 0 1
24.491165 29.734221 -33.195724 50.851717 0.881789 2.282064 0.008144 -0.002214 -256022.000000 0 0 1
24.795765 29.131371 33.967115 51.158886 0.865623 0.844703 0.020067 -0.006800 216085.000000 0 0 1
24.543265 27.705141 33.993333 50.254287 0.845841 0.827896 0.028558 -0.020610 -140369.000000 0 0 1
24.808565 27.112231 32.611426 49.132912 0.829738 0.844990 0.067170 -0.027307 26374.700000 0 0 1
26.168665 26.740621 32.529478 49.578491 0.796208 0.855130 0.061955 -0.034390 278885.000000 0 0 1
26.290565 25.827211 31.451881 48.450588 0.776508 0.864325 0.094968 -0.046107 -616612.000000 0 0 1
27.294365 24.703471 31.567851 48.495083 0.735612 0.861962 0.070148 -0.031507 -599416.000000 0 0 1
27.218065 23.742731 32.616746 48.666132 0.717307 0.836299 0.076121 -0.031795 -79100.800000 0 0 1
28.010065 24.139221 33.717383 50.041259 0.711308 0.831468 0.068514 -0.033794 -694681.000000 0 0 1
27.679365 23.543811 -33.280234 49.275067 0.704837 2.312299 0.062900 -0.027979 74480.000000 0 0 1
26.441265 23.899541 -32.664954 48.345917 0.734951 2.312643 0.060641 -0.025231 1834680.000000 0 0 1
25.175265 23.416181 -33.204334 47.797900 0.749212 2.338774 0.061163 -0.021950 1078740.000000 0 0 1
25.031165 21.877811 -33.144834 46.944412 0.718276 2.354693 0.057384 -0.026900 -920857.000000 0 0 1
24.817665 21.304711 -31.871574 45.668418 0.709379 2.343245 0.041052 -0.034958 250171.000000 0 0 1
24.730765 19.918011 -31.907534 45.015870 0.678021 2.358601 0.051178 -0.032602 -173395.000000 0 0 1
24.580865 19.241211 -30.500384 43.643058 0.664147 2.344599 0.050630 -0.032859 -393301.000000 0 0 1
23.311465 19.411111 -29.930644 42.615244 0.694356 2.349484 0.044830 -0.032633 -192701.000000 0 0 1
23.257365 18.848811 -28.649354 41.436314 0.681077 2.334231 0.050520 -0.028552 999311.000000 0 0 1
21.855665 19.071911 -27.931664 40.268917 0.717486 2.337310 0.052468 -0.029940 913345.000000 0 0 1
21.811365 18.454111 -26.612114 39.044775 0.702213 2.320715 0.056282 -0.025041 124284.000000 0 0 1
22.604365 19.025011 -25.567604 39.071866 0.699628 2.284150 0.043793 -0.015223 120810.000000 0 0 1
22.652465 18.136211 -24.287274 37.840824 0.675124 2.267675 0.055215 -0.014016 599521.000000 0 0 1
23.672565 17.110811 -24.344574 38.024051 0.625872 2.265609 0.055346 -0.022432 785461.000000 0 0 1
23.513965 16.153511 -23.330774 36.853323 0.601931 2.256310 0.068212 -0.023048 -207218.000000 0 0 1
24.434065 14.904211 -23.487874 37.024846 0.547723 2.258004 0.090741 -0.029919 -991951.000000 0 0 1
25.727765 15.238411 -23.121674 37.798662 0.534734 2.229012 0.117952 -0.043340 -260654.000000 0 0 1
26.681665 14.156811 -23.300874 38.147834 0.487813 2.227873 0.129653 -0.046078 520431.000000 0 0 1
26.662065 13.103511 -22.149574 37.056326 0.456798 2.211459 0.116977 -0.038200 -421916.000000 0 0 1
25.398165 12.483011 -22.022074 35.858947 0.456819 2.232080 0.100720 -0.028179 34560.900000 0 0 1
25.121665 11.975611 -20.737474 34.706716 0.444838 2.211184 0.084844 -0.033414 757594.000000 0 0 1
23.584465 11.675611 -20.597774 33.418784 0.459684 2.234900 0.083180 -0.025146 487483.000000 0 0 1
22.786565 12.814711 -20.625874 33.299715 0.512298 2.238776 0.101742 -0.024397 -372288.000000 0 0 1
21.573265 12.467311 -21.289174 32.772984 0.524015 2.277848 0.074386 -0.019147 329849.000000 0 0 1
20.494565 13.566711 -21.144774 32.421972 0.584741 2.281245 0.059084 -0.020785 -781628.000000 0 0 1
20.921365 14.808211 -21.634374 33.541508 0.615944 2.271824 0.051124 -0.017921 69982.100000 0 0 1
20.025065 15.899911 -21.443774 33.371332 0.671072 2.268658 0.039525 -0.020466 700309.000000 0 0 1
18.690665 15.790811 -22.281674 33.093257 0.701497 2.309459 0.028597 -0.004024 -589636.000000 0 0 1
17.751765 14.967411 -21.756874 31.819964 0.700504 2.323685 0.015754 -0.009413 -1273210.000000 0 0 1
16.564765 15.170311 -22.481474 31.779654 0.741486 2.356634 0.017540 -0.022289 -1163850.000000 0 0 1
15.516565 14.228711 -21.966774 30.426290 0.742129 2.377437 -0.004245 -0.011720 -1559220.000000 0 0 1
14.312465 14.454511 -22.619674 30.420867 0.790336 2.409172 0.005489 -0.013584 -706931.000000 0 0 1
13.308665 13.558111 -22.139474 29.173605 0.794682 2.432399 0.019803 -0.019848 -494429.000000 0 0 1
12.094265 13.594311 -23.049374 29.365799 0.843725 2.473340 0.021542 -0.015803 -781680.000000 0 0 1
11.614365 14.922511 -22.981374 29.761020 0.909421 2.453088 0.026730 -0.017987 11296.000000 0 0 1
11.030265 15.383611 -24.199474 30.723554 0.948743 2.477785 0.022777 -0.013742 -442541.000000 0 0 1
10.984865 16.975511 -24.255374 31.577815 0.996462 2.446687 0.017671 -0.016210 1140470.000000 0 0 1
12.281965 17.640111 -24.289074 32.434230 0.962590 2.417154 0.011459 -0.011746 1192240.000000 0 0 1
13.212665 17.410811 -25.349474 33.470982 0.921638 2.430052 0.015201 -0.012608 -174846.000000 0 0 1
12.801365 17.315611 -26.823474 34.397733 0.934181 2.465148 0.040032 -0.018456 -498555.000000 0 0 1
13.940165 17.299511 -27.690044 35.501265 0.892521 2.465420 0.029763 -0.022178 248735.000000 0 0 1
13.610965 16.996611 -29.027044 36.286532 0.895565 2.497991 0.043080 -0.028316 -708823.000000 0 0 1
14.648365 17.484311 -30.007954 37.692877 0.873427 2.491648 0.049298 -0.034404 663444.000000 0 0 1
15.936965 16.843911 -29.904694 37.841708 0.813058 2.482025 0.034671 -0.030647 750560.000000 0 0 1
16.505465 16.643611 -31.181124 39.009007 0.789566 2.496978 0.047384 -0.032022 -1041440.000000 0 0 1
17.746265 15.805811 -31.291004 39.292244 0.727628 2.492059 0.049288 -0.029449 -1669330.000000 0 0 1
18.859265 16.573011 -31.016594 39.904456 0.720963 2.461114 0.065991 -0.039466 -1077460.000000 0 0 1
19.992665 15.747511 -31.082564 40.172335 0.667174 2.455505 0.065725 -0.032028 167349.000000 0 0 1
21.319765 16.481811 -31.432264 41.402532 0.658107 2.432859 0.061948 -0.033443 238616.000000 0 0 1
21.271365 16.897011 -32.815144 42.600629 0.671289 2.450103 0.073393 -0.037910 94339.800000 0 0 1
22.562665 17.308511 -33.201244 43.714768 0.654375 2.433336 0.075982 -0.034545 -41717.300000 0 0 1
22.720965 17.492611 33.708982 44.255273 0.656109 0.704873 0.041662 -0.017472 -181289.000000 0 0 1
23.732865 18.409111 33.373063 44.898837 0.659735 0.732814 0.046604 -0.017800 -122477.000000 0 0 1
23.591265 18.723511 31.996021 43.941586 0.670865 0.755179 0.059756 -0.021770 -167371.000000 0 0 1
24.480265 19.965011 31.743131 44.782936 0.684154 0.782969 0.074773 -0.014429 -542121.000000 0 0 1
25.836965 19.701711 31.764791 45.439059 0.651478 0.796709 0.043781 -0.008847 -1129600.000000 0 0 1
26.579565 20.898311 31.674481 46.330178 0.666303 0.818019 0.051257 -0.014135 441945.000000 0 0 1
28.089565 20.643511 31.365991 46.893535 0.633778 0.838100 0.046547 -0.012864 440325.000000 0 0 1
28.708465 20.172511 32.558633 47.866175 0.612514 0.822759 0.039233 -0.017706 -1517920.000000 0 0 1
30.022765 19.859011 32.336701 48.388108 0.584393 0.838905 0.024448 -0.009275 -1072090.000000 0 0 1
30.629265 19.480911 33.737070 49.556510 0.566487 0.821970 0.030163 -0.010323 -77037.200000 0 0 1
30.486965 20.382011 -33.607274 49.742640 0.589304 2.312606 0.036304 -0.018723 -559684.000000 0 0 1
29.626465 19.999711 -32.611854 48.386453 0.593792 2.310389 0.039818 -0.027469 -482834.000000 0 0 1
30.259965 20.218211 -31.233044 47.957737 0.589029 2.280042 0.068374 -0.029116 -551623.000000 0 0 1
31.227765 19.318311 -30.841764 47.953986 0.554003 2.269405 0.082634 -0.036735 -681461.000000 0 0 1
31.702465 19.684211 -29.581324 47.619000 0.555649 2.241080 0.090409 -0.039644 -39555.000000 0 0 1
33.144165 19.200611 -29.309234 48.231010 0.525064 2.223938 0.080017 -0.029652 177624.000000 0 0 1
34.125065 19.783311 -30.171244 49.660884 0.525381 2.223763 0.061591 -0.025607 28722.900000 0 0 1
35.376765 19.640511 -29.513414 50.082998 0.506812 2.200976 0.049791 -0.015164 -66380.600000 0 0 1
-36.271940 20.477711 -30.239784 51.472661 -0.513953 2.198753 0.033893 -0.010733 129578.000000 0 0 1
-35.643440 19.980011 -31.406804 51.536812 -0.510909 2.226107 0.018898 -0.008436 755121.000000 0 0 1
-34.469340 20.724311 -31.796384 51.270289 -0.541330 2.239758 0.023067 -0.007424 413105.000000 0 0 1
-33.708140 20.008111 -32.899744 51.175740 -0.535677 2.269046 0.026216 -0.008099 -644516.000000 0 0 1
-32.967340 18.934811 -32.442824 49.979090 -0.521346 2.277234 0.042008 -0.011678 -203982.000000 0 0 1
-32.379540 18.343411 -33.581834 50.126389 -0.515432 2.304929 0.048539 -0.013390 -358556.000000 0 0 1
-31.564940 17.050911 -33.434624 49.040321 -0.495277 2.320987 0.038908 -0.004862 -61186.700000 0 0 1
-32.338140 15.961511 -33.052554 48.918263 -0.458500 2.312668 0.045088 -0.000834 11793.700000 0 0 1
-31.675640 14.820211 -33.552584 48.464015 -0.437618 2.335495 0.046685 0.003310 257172.000000 0 0 1
-32.529140 13.514211 -33.377064 48.526356 -0.393753 2.329268 0.050059 -0.002062 96628.300000 0 0 1
-31.923140 12.304011 -33.779984 48.078715 -0.367880 2.349838 0.058766 -0.006190 -262833.000000 0 0 1
-32.768040 11.250811 -33.442944 48.153460 -0.330736 2.338532 0.058486 -0.006170 -353066.000000 0 0 1
-32.527740 9.881911 -34.006324 48.084677 -0.294939 2.356351 0.059939 0.001059 -283435.000000 0 0 1
-32.964940 9.656911 33.093152 47.698008 -0.284972 0.804036 0.078839 -0.005731 91050.700000 0 0 1
-32.921140 8.300011 32.728564 47.157720 -0.246971 0.803734 0.057843 -0.018685 617752.000000 0 0 1
-31.583640 7.881511 31.983321 45.635265 -0.244550 0.794213 0.068308 -0.013457 967548.000000 0 0 1
-30.497140 7.840911 32.882527 45.528190 -0.251653 0.763753 0.057863 -0.006061 -170497.000000 0 0 1
-29.330240 7.388211 32.205271 44.181763 -0.246764 0.754043 0.054690 0.000579 186498.000000 0 0 1
20.489665 -4.464306 -31.423234 37.777983 -0.214528 2.553115 0.045434 -0.024270 -233338.000000 0 0 1
21.628865 -4.897206 -32.136394 39.045336 -0.222666 2.537563 0.053475 -0.025094 -393319.000000 0 0 1
22.748565 -4.068906 -32.005584 39.476709 -0.176993 2.516222 0.059572 -0.024445 -330990.000000 0 0 1
22.825865 -2.595406 -32.427234 39.740178 -0.113218 2.525221 0.050693 -0.025515 -311006.000000 0 0 1
23.914565 -1.842806 -31.879434 39.894870 -0.076906 2.496570 0.059223 -0.020567 565413.000000 0 0 1
23.628865 -0.494806 -32.280384 40.007390 -0.020938 2.509615 0.039708 -0.012929 284328.000000 0 0 1
24.584465 0.629794 -31.759944 40.168228 0.025612 2.482704 0.049115 -0.013285 -24299.200000 0 0 1
25.867065 0.636894 -32.344914 41.421059 0.024617 2.466871 0.057263 -0.020631 -206458.000000 0 0 1
26.675565 1.323794 -31.365924 41.196594 0.049585 2.436223 0.056994 -0.014136 294579.000000 0 0 1
28.209765 1.291694 -31.566684 42.354632 0.045757 2.411773 0.057322 -0.019143 215646.000000 0 0 1
28.720865 1.993294 -32.672384 43.547054 0.069291 2.419278 0.056786 -0.010069 -12496.200000 0 0 1
29.195165 1.096694 -33.657094 44.568603 0.037547 2.426717 0.049921 -0.012400 -173898.000000 0 0 1
29.800965 1.795694 33.512799 44.882399 0.060183 0.727739 0.053110 -0.024514 -625813.000000 0 0 1
28.903165 2.516394 32.791994 43.784016 0.086844 0.724322 0.047987 -0.022255 -688225.000000 0 0 1
29.184065 3.857594 32.772663 44.052674 0.131420 0.731845 0.052925 -0.012680 10210.200000 0 0 1
28.341765 4.671394 31.763651 42.825309 0.163355 0.735191 0.060067 -0.010587 9553.490000 0 0 1
28.606565 6.088494 31.912221 43.287356 0.209706 0.741853 0.062620 -0.009027 419367.000000 0 0 1
27.805265 6.915994 31.045441 42.246694 0.243783 0.745335 0.049871 -0.005116 -70272.700000 0 0 1
27.992265 8.416094 31.363761 42.872871 0.292060 0.750200 0.039142 -0.004531 -421062.000000 0 0 1
29.277265 8.885994 31.112281 43.635916 0.294675 0.777033 0.033764 -0.009629 -663497.000000 0 0 1
29.402565 10.329494 31.271571 44.148844 0.337844 0.783679 0.033805 -0.016810 -343150.000000 0 0 1
30.696865 10.932694 30.696321 44.767013 0.342143 0.815244 0.035782 -0.007699 -853496.000000 0 0 1
31.745665 10.637694 31.588161 46.029987 0.323332 0.814473 0.046209 -0.021966 -286014.000000 0 0 1
33.017265 10.853094 31.007781 46.576946 0.317583 0.842321 0.054960 -0.019703 49405.100000 0 0 1
33.501365 12.300694 31.086321 47.328721 0.351888 0.854206 0.066592 -0.019832 -833933.000000 0 0 1
33.990665 12.733294 32.362272 48.629402 0.358430 0.842649 0.072246 -0.013647 40460.000000 0 0 1
34.422365 14.053794 32.390239 49.310606 0.387620 0.854148 0.077402 -0.008221 105403.000000 0 0 1
33.324965 15.168394 32.334791 48.848461 0.427142 0.847391 0.058531 -0.014424 -194722.000000 0 0 1
32.774665 15.239494 31.043491 47.645767 0.435239 0.861173 0.049766 -0.011313 581615.000000 0 0 1
31.616865 16.069094 30.873561 47.021470 0.470221 0.854515 0.025800 -0.005700 563154.000000 0 0 1
30.249065 15.512794 31.285621 46.200030 0.473863 0.826876 0.026802 -0.003684 -382818.000000 0 0 1
29.748465 14.594894 30.295101 44.897386 0.456107 0.830153 0.017006 0.005013 767381.000000 0 0 1
28.411265 14.157594 30.570381 44.070235 0.462294 0.804219 0.004549 0.004727 928525.000000 0 0 1
27.575765 13.567894 29.387881 42.522442 0.457245 0.807766 0.013169 0.003522 235112.000000 0 0 1
27.826265 12.183794 29.202911 42.137345 0.412706 0.805097 0.025599 -0.000710 33048.800000 0 0 1
27.148665 11.627194 28.077611 40.750385 0.404644 0.810668 0.026077 -0.014506 -75863.500000 0 0 1
27.176565 10.064194 27.967111 40.274222 0.354667 0.803187 0.027388 0.002222 -116275.000000 0 0 1
28.285965 9.671994 27.187941 40.408259 0.329473 0.832767 0.034889 -0.003356 -33559.900000 0 0 1
28.195165 8.262794 26.923421 39.851119 0.285075 0.829018 0.054496 -0.006721 -1815.200000 0 0 1
29.471165 7.592094 26.379371 40.274814 0.252129 0.856634 0.040557 -0.013710 -71393.600000 0 0 1
29.930465 8.183894 25.138801 39.934548 0.266906 0.889887 0.052262 -0.013127 595648.000000 0 0 1
30.998065 7.408194 24.564461 40.238962 0.234589 0.914149 0.066914 -0.007737 463591.000000 0 0 1
31.359265 7.826994 23.117761 39.737843 0.244594 0.949909 0.081315 -0.013340 -324192.000000 0 0 1
31.827065 9.175894 22.994461 40.322504 0.280693 0.963969 0.074400 -0.020716 76737.400000 0 0 1
30.948465 10.169094 22.487161 39.583966 0.317468 0.966616 0.078090 -0.022881 -217115.000000 0 0 1
30.436065 10.026694 21.033861 38.331605 0.318238 0.989947 0.075330 -0.010030 131847.000000 0 0 1
31.486965 10.166494 20.079961 38.703894 0.312313 1.025338 0.080308 -0.020908 29378.800000 0 0 1
31.098765 10.001194 18.736161 37.659007 0.311149 1.050057 0.077936 -0.030509 -1419490.000000 0 0 1
32.092765 10.673494 17.739661 38.191159 0.321075 1.087730 0.085598 -0.062623 -152573.000000 0 0 1
33.324665 10.012394 17.647361 39.015518 0.291870 1.101435 0.086916 -0.046159 -168829.000000 0 0 1
34.159465 10.254594 18.763461 40.300040 0.291638 1.086491 0.082444 -0.040790 -1178420.000000 0 0 1
35.607065 9.697094 18.648861 41.348237 0.265888 1.102889 0.082523 -0.034880 137087.000000 0 0 1
35.701865 8.313694 18.467361 41.046121 0.228787 1.104124 0.074680 -0.024801 240134.000000 0 0 1
-36.067740 7.863594 17.512961 40.858559 -0.214664 1.127827 0.087559 -0.018011 -80455.600000 0 0 1
-36.135940 6.350194 17.279461 40.555036 -0.173955 1.130647 0.086498 -0.015514 -295102.000000 0 0 1
35.272065 5.995294 16.915461 39.575181 0.168364 1.129153 0.063406 -0.019387 127984.000000 0 0 1
35.173865 4.955894 16.019761 38.966580 0.139976 1.147119 0.068393 -0.012256 -449690.000000 0 0 1
33.830665 4.227994 16.128561 37.716313 0.124331 1.128929 0.056521 -0.015944 -346050.000000 0 0 1
33.770865 3.455394 17.295461 38.099134 0.101964 1.099592 0.070720 -0.011191 -462240.000000 0 0 1
32.583165 2.764094 17.449161 37.064485 0.084629 1.080623 0.055220 -0.013827 -660795.000000 0 0 1
32.661865 1.812494 18.713961 37.686800 0.055436 1.051159 0.048890 -0.016760 17191.600000 0 0 1
33.458665 0.680394 18.513361 38.245127 0.020333 1.065495 0.060910 -0.018514 43414.600000 0 0 1
33.347365 -0.081406 19.702761 38.733089 -0.002441 1.037145 0.066762 -0.023875 433360.000000 0 0 1
33.932265 -1.512206 19.469361 39.150241 -0.044536 1.050314 0.074106 -0.017029 225257.000000 0 0 1
33.528565 -2.300206 20.562461 39.398863 -0.068497 1.021714 0.070388 -0.009193 309655.000000 0 0 1
34.164465 -3.575006 20.533761 40.020328 -0.104262 1.032023 0.056711 -0.008107 -232756.000000 0 0 1
33.548165 -4.475406 21.556061 40.126953 -0.132619 1.003686 0.049302 -0.000462 -97273.300000 0 0 1
33.985065 -3.973906 22.837361 41.137837 -0.116402 0.982262 0.049364 -0.013203 748913.000000 0 0 1
33.292865 -4.603206 23.927441 41.256839 -0.137393 0.952113 0.055622 -0.014708 273932.000000 0 0 1
33.951065 -4.130306 25.238681 42.505591 -0.121060 0.935056 0.033698 -0.009409 32164.800000 0 0 1
33.238965 -4.523706 26.395111 42.684829 -0.135265 0.904127 0.050889 -0.005692 84768.400000 0 0 1
33.657665 -3.824506 27.548821 43.662373 -0.113144 0.888018 0.052080 -0.008416 -222663.000000 0 0 1
32.733965 -4.193406 28.706131 43.739445 -0.127412 0.854894 0.054131 -0.016180 -150030.000000 0 0 1
32.846865 -5.558206 29.047651 44.199279 -0.167628 0.853702 0.046053 -0.014971 175884.000000 0 0 1
32.110865 -5.815706 30.252901 44.499080 -0.179171 0.823232 0.058181 -0.021255 27041.800000 0 0 1
32.112065 -7.310606 30.738301 45.049671 -0.223844 0.819865 0.053102 -0.017745 -118680.000000 0 0 1
33.319965 -7.642506 31.365081 46.393925 -0.225467 0.828394 0.043845 -0.014175 -468011.000000 0 0 1
33.575765 -9.044406 31.272781 46.766656 -0.263127 0.838340 0.028538 -0.007551 1232710.000000 0 0 1
34.926265 -9.516706 31.972771 48.297720 -0.266022 0.847321 0.016723 0.001127 1165950.000000 0 0 1
34.822365 -9.568406 33.387692 49.182207 -0.268159 0.824591 0.010149 -0.008364 266662.000000 0 0 1
36.076465 -9.839806 33.983379 50.529231 -0.266272 0.833149 -0.004934 -0.009330 -80583.200000 0 0 1
35.933165 -10.094706 -32.910594 49.761457 -0.273871 2.293436 0.017852 -0.012090 -294334.000000 0 0 1
35.430765 -9.004906 -32.141114 48.677291 -0.248885 2.292001 0.017203 -0.018162 593545.000000 0 0 1
36.249465 -7.818206 -32.057044 49.018385 -0.212424 2.283630 0.014256 -0.014718 -156403.000000 0 0 1
35.714365 -6.720906 -31.151944 47.865750 -0.186010 2.279459 0.024674 -0.019555 -469041.000000 0 0 1
35.861265 -6.848506 -29.742824 47.091060 -0.188700 2.254415 0.033156 -0.012027 65598.600000 0 0 1
35.330365 -5.706206 -29.147444 46.155920 -0.160127 2.254282 0.049468 -0.026862 -467677.000000 0 0 1
35.702465 -5.535206 -27.701394 45.526604 -0.153813 2.224923 0.055122 -0.024257 291904.000000 0 0 1
-35.612240 -5.364606 -27.624464 45.388563 0.149515 2.225119 0.051492 -0.015739 -9985.020000 0 0 1
-35.275340 -4.786706 -26.359244 44.295281 0.134872 2.208162 0.065952 -0.015534 971015.000000 0 0 1
-33.726140 -4.638106 -26.113264 42.905328 0.136665 2.225123 0.052762 -0.004353 -55412.200000 0 0 1
-33.471340 -4.133406 -24.797574 41.860905 0.122869 2.204806 0.069656 -0.011148 295761.000000 0 0 1
-32.133940 -4.223406 -24.335074 40.529287 0.130682 2.214837 0.071983 -0.011416 260385.000000 0 0 1
-31.147140 -3.243406 -25.004874 40.073779 0.103758 2.244610 0.050270 -0.007236 -640797.000000 0 0 1
-30.902640 -3.543506 -26.381824 40.786398 0.114168 2.274215 0.052201 -0.009498 -266327.000000 0 0 1
-29.824740 -2.835806 -26.945034 40.293818 0.094797 2.303274 0.045544 -0.009592 215982.000000 0 0 1
-29.258840 -3.577206 -28.177724 40.778184 0.121657 2.333668 0.029297 -0.007515 42851.600000 0 0 1
-30.259040 -3.564606 -29.176724 42.185272 0.117263 2.334544 0.039548 -0.009578 111513.000000 0 0 1
-29.971440 -4.504106 -30.212334 42.794384 0.149164 2.354614 0.034640 -0.009355 46342.300000 0 0 1
-31.182040 -4.954206 -31.147324 44.351095 0.157563 2.349405 0.019122 -0.005937 51666.000000 0 0 1
-32.197940 -5.718906 -30.557064 44.756535 0.175784 2.322302 0.017005 -0.010507 486527.000000 0 0 1
-33.196640 -5.011706 -29.790844 44.884613 0.149839 2.296578 0.035362 -0.013885 408941.000000 0 0 1
-34.205540 -4.123006 -30.613214 46.088904 0.119957 2.297247 0.060345 -0.017506 -714789.000000 0 0 1
-33.705040 -3.011706 -31.355074 46.132860 0.089118 2.318108 0.055957 -0.014643 98400.500000 0 0 1
-33.118140 -1.949706 -30.554874 45.102249 0.058803 2.315097 0.055366 -0.015443 -60514.500000 0 0 1
-32.905340 -0.624706 -31.320384 45.432567 0.018983 2.331432 0.059896 -0.014291 410799.000000 0 0 1
-34.012040 0.180594 -31.781854 46.550379 -0.005310 2.322304 0.069280 -0.009306 288492.000000 0 0 1
-33.564840 1.440894 -32.217594 46.547267 -0.042902 2.335257 0.074500 -0.006280 74652.700000 0 0 1
-34.647040 2.383494 -32.818154 47.782106 -0.068685 2.327914 0.063898 -0.008343 83410.900000 0 0 1
-35.226740 1.783594 -34.005774 48.994868 -0.050589 2.337921 0.055115 -0.020117 491850.000000 0 0 1
36.116865 2.164994 -34.016104 49.660955 0.059872 2.325354 0.044558 -0.016307 574954.000000 0 0 1
35.316065 1.409094 33.310326 48.567353 0.039878 0.815014 0.037877 -0.015232 -68798.900000 0 0 1
35.551665 1.896694 31.977891 47.855029 0.053300 0.838977 0.030066 -0.011511 -12064.400000 0 0 1
36.354065 0.976794 31.318581 47.994017 0.026862 0.859849 0.016894 -0.009800 -610813.000000 0 0 1
-36.198740 1.367794 29.808831 46.912537 -0.037768 0.882253 0.034891 -0.016934 -398354.000000 0 0 1
-35.411640 2.490294 29.575361 46.204847 -0.070209 0.876178 0.047829 -0.021944 -80620.600000 0 0 1
-35.251840 2.711094 28.170941 45.206683 -0.076755 0.898021 0.051408 -0.026611 26707.300000 0 0 1
-34.619540 4.090094 27.976701 44.698292 -0.117599 0.894510 0.052305 -0.027549 -187952.000000 0 0 1
-34.150140 4.290394 26.649201 43.529525 -0.124978 0.911944 0.063056 -0.025558 360097.000000 0 0 1
-33.649340 5.615994 26.433121 43.157009 -0.165373 0.911593 0.068258 -0.023327 24786.800000 0 0 1
-32.768440 5.698994 25.137141 41.690827 -0.172195 0.923613 0.076777 -0.024297 449357.000000 0 0 1
-31.528140 4.983594 25.251631 40.700181 -0.156771 0.901505 0.066536 -0.021708 1475780.000000 0 0 1
-30.526940 5.261894 24.245141 39.337114 -0.170692 0.906706 0.067006 -0.020634 750672.000000 0 0 1
-30.961840 4.780294 22.847961 38.775200 -0.153184 0.940676 0.086517 -0.023075 -329865.000000 0 0 1
-31.011940 3.374994 22.852461 38.669963 -0.108402 0.938546 0.079496 -0.018340 172739.000000 0 0 1
-31.841040 2.905894 21.790561 38.692695 -0.091010 0.972579 0.098759 -0.025414 -31102.900000 0 0 1
-31.641240 1.397994 21.522861 38.293029 -0.044154 0.973926 0.096897 -0.032875 236667.000000 0 0 1
-30.479140 1.092894 20.744761 36.885194 -0.035842 0.973494 0.094302 -0.026369 444476.000000 0 0 1
-30.540440 1.401794 19.382461 36.198941 -0.045867 1.005764 0.105053 -0.021610 -261767.000000 0 0 1
-29.147640 1.256694 18.728661 34.668819 -0.043088 1.000102 0.103426 -0.013579 -157868.000000 0 0 1
-28.733340 -0.094606 18.731761 34.300039 0.003293 0.993077 0.107214 -0.016977 448252.000000 0 0 1
-27.569140 -0.358906 17.928361 32.887877 0.013018 0.994245 0.106921 -0.021536 35335.300000 0 0 1
-27.647940 -0.192206 16.367161 32.129885 0.006952 1.036302 0.127191 -0.010790 -518990.000000 0 0 1
-27.364440 1.123294 15.969861 31.703483 -0.041026 1.042890 0.123339 -0.014877 306761.000000 0 0 1
-27.524940 1.316794 14.585161 31.178249 -0.047804 1.083997 0.127666 -0.012501 -180608.000000 0 0 1
-27.037740 2.693094 14.153861 30.636970 -0.099278 1.090563 0.126537 -0.012362 418435.000000 0 0 1
-25.614940 2.732494 14.111761 29.372326 -0.106274 1.069635 0.114717 -0.017909 397029.000000 0 0 1
-25.145440 3.867094 13.410561 28.759185 -0.152594 1.085687 0.118496 -0.022991 290238.000000 0 0 1
-23.608740 3.847394 13.170061 27.306145 -0.161545 1.067505 0.107018 -0.028542 185235.000000 0 0 1
-22.881740 4.174794 14.337361 27.323303 -0.180466 1.018398 0.088061 -0.020428 696689.000000 0 0 1
-21.500640 4.362894 14.006861 26.028918 -0.200201 1.002583 0.076538 -0.017111 480646.000000 0 0 1
-20.716740 5.047294 15.145761 26.154399 -0.238978 0.953184 0.056597 -0.015779 -439551.000000 0 0 1
-21.160840 6.346194 15.420761 26.941700 -0.291368 0.961397 0.056530 -0.010524 458278.000000 0 0 1
-20.648240 6.841094 16.636161 27.384526 -0.319934 0.917884 0.040524 -0.000866 -335852.000000 0 0 1
-20.669440 8.376494 16.766061 27.901474 -0.385032 0.926167 0.038737 -0.008886 30862.600000 0 0 1
-19.757140 9.130694 15.902461 26.955564 -0.432909 0.939798 0.029381 -0.014259 1144850.000000 0 0 1
-19.861740 10.535694 16.074361 27.638283 -0.487711 0.950105 0.039587 -0.013250 -15295.300000 0 0 1
-19.370640 11.131094 17.426761 28.333990 -0.521562 0.908350 0.038185 -0.008525 -261959.000000 0 0 1
-20.291140 10.856694 18.443261 29.491559 -0.491290 0.895185 0.050641 -0.012808 327590.000000 0 0 1
-19.793540 11.375394 19.641261 30.115826 -0.521611 0.860326 0.054236 -0.005122 -227616.000000 0 0 1
-12.332535 -33.486623 -20.695474 41.252249 1.217928 2.096337 0.099913 -0.045172 -292292.000000 0 0 1
-13.240735 -34.033523 -19.793974 41.537925 1.199765 2.067497 0.124591 -0.043511 377190.000000 0 0 1
-14.417135 -33.211123 -19.696874 41.216494 1.161238 2.069045 0.113255 -0.056008 1025400.000000 0 0 1
-15.641435 -33.857723 -18.956174 41.837023 1.138028 2.041031 0.102691 -0.043634 -770707.000000 0 0 1
-16.211735 33.548294 -19.746774 42.169224 -1.120650 2.058133 0.093691 -0.048958 -156048.000000 0 0 1
-17.016235 32.596494 -19.110374 41.440199 -1.089683 2.050093 0.090880 -0.032015 -780069.000000 0 0 1
-18.299235 33.047594 -18.444474 42.038126 -1.065099 2.025010 0.079213 -0.030444 -1465750.000000 0 0 1
-18.174735 33.808894 -17.290174 42.098841 -1.077544 1.994023 0.085837 -0.027479 111130.000000 0 0 1
-19.470035 34.161994 -16.820574 42.767462 -1.052779 1.975018 0.053073 -0.021283 333772.000000 0 0 1
-19.720535 33.578294 -15.405774 41.877669 -1.039767 1.947520 0.050880 -0.018638 -713923.000000 0 0 1
-19.707035 32.144194 -15.364374 40.714622 -1.020813 1.957748 0.048882 -0.024752 267031.000000 0 0 1
-20.062035 31.763494 -14.009874 40.095902 -1.007460 1.927737 0.044849 -0.016884 12557.100000 0 0 1
-20.260035 30.226594 -13.751374 38.900081 -0.980302 1.932112 0.030939 -0.021048 -186428.000000 0 0 1
-19.010035 29.630194 -13.566074 37.727552 -1.000366 1.938614 0.049380 -0.034551 -253332.000000 0 0 1
-19.178135 28.258194 -13.273374 36.640263 -0.974526 1.941490 0.046032 -0.040137 389992.000000 0 0 1
-17.818535 27.596594 -12.862974 35.277872 -0.997465 1.944020 0.062597 -0.033964 217765.000000 0 0 1
-17.006735 27.388994 -13.973174 35.137382 -1.015127 1.979775 0.082601 -0.038430 -168865.000000 0 0 1
-15.834335 26.653794 -13.652874 33.875535 -1.034745 1.985622 0.101985 -0.051283 417642.000000 0 0 1
-14.514735 27.255094 -14.188674 33.982880 -1.081448 2.001515 0.097573 -0.050684 -74384.100000 0 0 1
-14.440435 27.351894 -15.592874 34.637985 -1.085039 2.037749 0.081022 -0.050742 -213595.000000 0 0 1
-13.300935 28.072494 -15.998674 34.941914 -1.128322 2.046388 0.107125 -0.044515 -128963.000000 0 0 1
-13.283235 28.121294 -17.536774 35.704201 -1.129508 2.084227 0.120704 -0.058459 -58885.000000 0 0 1
-13.011835 26.946994 -18.311274 35.082062 -1.120948 2.119938 0.091156 -0.051311 187498.000000 0 0 1
-13.491535 27.087994 -19.645774 36.079598 -1.108699 2.146604 0.069244 -0.051586 -190928.000000 0 0 1
-13.019235 26.040494 -20.664174 35.701763 -1.107180 2.188052 0.043382 -0.029297 -1265780.000000 0 0 1
-11.766035 26.402394 -21.118774 35.798444 -1.151572 2.201775 0.033563 -0.024281 -708924.000000 0 0 1
-11.078535 25.258894 -21.651974 35.064991 -1.157463 2.236333 0.037220 -0.022995 11549.300000 0 0 1
-9.863035 25.658294 -22.485274 35.513590 -1.203811 2.256407 0.063404 -0.024212 -129701.000000 0 0 1
-10.199235 26.322694 -23.699074 36.858577 -1.201139 2.269170 0.051665 -0.020529 -424050.000000 0 0 1
-9.033035 26.479294 -24.434274 37.145423 -1.242040 2.288691 0.045987 -0.023885 -484440.000000 0 0 1
-9.255035 26.964094 -25.801014 38.450102 -1.240160 2.306388 0.041565 -0.019678 63328.100000 0 0 1
-10.057635 26.081394 -26.599624 38.586722 -1.202743 2.331383 0.025271 -0.012521 -493.508000 0 0 1
-10.315935 26.836094 -27.750434 39.958491 -1.203806 2.338495 0.027381 -0.007372 -58.273600 0 0 1
-11.606635 26.316494 -28.429644 40.441519 -1.155418 2.350377 0.010785 -0.004089 28021.100000 0 0 1
-12.001435 27.120394 -29.499334 41.830143 -1.154176 2.353526 0.018652 -0.000055 -1287640.000000 0 0 1
-13.287135 26.717794 -29.787754 42.162765 -1.109300 2.355329 0.004589 0.003302 -1078390.000000 0 0 1
-13.689435 27.003794 -31.281154 43.532931 -1.101608 2.372530 0.004510 0.003576 -263450.000000 0 0 1
-13.007535 26.412694 -32.367084 43.754480 -1.113189 2.403485 0.018095 0.000511 -98774.100000 0 0 1
-12.909235 25.001494 -32.241274 42.792789 -1.094163 2.424056 0.003401 -0.002571 233940.000000 0 0 1
-12.091735 24.381794 -33.427164 43.105188 -1.110408 2.458270 0.014089 0.002613 30388.100000 0 0 1
-12.721135 24.498694 33.748935 43.600504 -1.091862 0.685584 0.022700 0.005251 -169688.000000 0 0 1
-12.015635 23.865394 32.708242 42.234602 -1.104372 0.684964 0.021449 0.004072 -719901.000000 0 0 1
-12.714535 23.937194 31.344651 41.438338 -1.082531 0.712979 0.029035 0.011098 689178.000000 0 0 1
-13.926035 23.128694 31.238031 41.287838 -1.028826 0.712712 0.026228 0.002899 1036240.000000 0 0 1
-14.396735 23.030294 29.903181 40.396295 -1.012110 0.737361 0.038859 0.008225 74253.500000 0 0 1
-15.557935 22.038994 29.761061 40.168238 -0.956103 0.736372 0.021736 0.007207 62656.600000 0 0 1
-15.128835 20.678094 29.893381 39.371049 -0.939152 0.708601 0.017988 0.001456 667002.000000 0 0 1
-16.249835 19.778694 30.031691 39.460821 -0.883033 0.705865 0.013032 0.005324 534798.000000 0 0 1
-15.862735 18.335494 30.072701 38.628798 -0.857579 0.678516 0.008402 -0.000638 -282211.000000 0 0 1
-15.244035 17.897694 28.885741 37.243712 -0.865298 0.683152 0.023221 -0.011295 190993.000000 0 0 1
-14.664635 16.616994 28.855341 36.384155 -0.847730 0.654957 0.012990 -0.018841 89104.200000 0 0 1
-14.168435 16.237394 27.451111 34.899298 -0.853338 0.665545 0.028183 -0.021491 268099.000000 0 0 1
-13.102835 17.034594 26.978371 34.491944 -0.915126 0.672664 0.003811 -0.021889 151175.000000 0 0 1
-12.285935 16.381694 26.020361 33.111377 -0.927308 0.666737 -0.016892 -0.017572 1064030.000000 0 0 1
-11.186735 17.178594 25.202141 32.486844 -0.993577 0.682871 0.013272 -0.010175 1014140.000000 0 0 1
-11.729335 18.012194 24.122811 32.309851 -0.993586 0.727847 0.015343 -0.006953 159958.000000 0 0 1
-12.401335 19.209694 24.552841 33.550670 -0.997537 0.749817 0.016519 -0.013545 186504.000000 0 0 1
-11.562435 20.245594 25.342211 34.435471 -1.051891 0.743752 0.008888 -0.016159 -75483.800000 0 0 1
-11.264535 19.906594 26.681141 35.143215 -1.055851 0.708695 0.024075 -0.017166 -413062.000000 0 0 1
-12.272635 20.196894 27.597781 36.334139 -1.024771 0.708167 0.044857 -0.013919 -439120.000000 0 0 1
-12.016035 19.617494 29.020151 37.032423 -1.021224 0.670290 0.035059 -0.006933 621826.000000 0 0 1
-10.888935 20.289994 29.620601 37.518433 -1.078248 0.660811 0.032767 -0.010103 486324.000000 0 0 1
-10.922335 20.134894 31.057971 38.591566 -1.073762 0.635481 0.026206 -0.015510 -134428.000000 0 0 1
-9.898035 20.855694 31.934261 39.404671 -1.127677 0.625931 0.019391 -0.008641 135251.000000 0 0 1
-8.583635 20.338594 31.922701 38.812318 -1.171438 0.605023 0.023486 -0.014296 234616.000000 0 0 1
-7.625335 21.227394 32.478273 39.542208 -1.225930 0.607010 0.043024 -0.012675 76679.300000 0 0 1
-6.355935 20.588694 33.008556 39.418993 -1.271368 0.578330 0.036364 -0.008490 -643567.000000 0 0 1
-6.656535 19.726694 34.120168 39.970462 -1.245356 0.547873 0.036020 -0.016475 330895.000000 0 0 1
-5.551935 19.086194 -33.661334 39.092099 -1.287720 2.608182 0.024692 -0.011567 639496.000000 0 0 1
-4.670135 18.061594 33.975031 38.759955 -1.317771 0.502150 0.014310 -0.005424 515238.000000 0 0 1
-5.415535 16.844094 33.678802 38.043570 -1.259725 0.483724 0.014523 -0.008410 312020.000000 0 0 1
-4.907235 16.050094 32.650440 36.711548 -1.274077 0.474814 0.031231 -0.004165 -154709.000000 0 0 1
-5.570835 14.620494 32.522048 36.089842 -1.206750 0.448401 0.041699 -0.004767 -97454.800000 0 0 1
-5.256835 13.746394 33.531968 36.619538 -1.205540 0.413587 0.047053 0.001884 -266173.000000 0 0 1
-5.751635 12.477594 33.304906 36.027606 -1.138868 0.391265 0.057533 -0.005578 -447612.000000 0 0 1
-4.812935 11.304194 33.666389 35.838177 -1.168277 0.349920 0.081120 -0.008872 39743.900000 0 0 1
-4.794035 11.114994 -33.363774 35.491792 -1.163591 2.793550 0.080683 -0.016605 -232663.000000 0 0 1
-3.742735 10.197294 -33.202914 34.934601 -1.219029 2.825414 0.091644 -0.017900 104428.000000 0 0 1
-3.570035 9.523594 -31.770674 33.358952 -1.212146 2.831772 0.083552 -0.016555 -246686.000000 0 0 1
-4.656935 8.738294 -31.374194 32.899618 -1.081150 2.835884 0.091961 -0.020334 -528405.000000 0 0 1
-4.605035 8.252094 -30.068394 31.518434 -1.061798 2.837082 0.090267 -0.012423 -90672.100000 0 0 1
-5.964035 7.879994 -29.455694 31.069308 -0.922921 2.817890 0.090450 -0.022958 72368.400000 0 0 1
-5.786535 6.940094 -28.436844 29.837945 -0.875792 2.833927 0.080713 -0.018455 252940.000000 0 0 1
-7.070735 6.447594 -28.097284 29.682051 -0.739335 2.813345 0.090222 -0.036867 -364879.000000 0 0 1
-6.976835 5.562394 -26.797394 28.243880 -0.673072 2.820167 0.066128 -0.032017 -32102.600000 0 0 1
-7.054935 6.199294 -25.535954 27.208240 -0.720931 2.789165 0.041224 -0.023976 -328160.000000 0 0 1
-5.922435 6.958294 -25.247794 26.850404 -0.865645 2.794346 0.054299 -0.018855 -609335.000000 0 0 1
-6.186435 7.985794 -24.182974 26.208035 -0.911686 2.745904 0.030585 -0.005881 180531.000000 0 0 1
-6.556235 7.354594 -22.962974 24.987446 -0.842726 2.736283 0.019923 -0.001620 -735967.000000 0 1 0
-7.875435 7.639994 -22.633974 25.153305 -0.770225 2.690201 0.027099 0.003885 -593624.000000 0 0 1
-8.034835 7.851494 -21.095674 23.900460 -0.773858 2.652261 0.030580 0.003066 19335.000000 0 1 0
-7.400235 9.018594 -20.621074 23.692345 -0.883648 2.626747 0.012706 0.009180 -101225.000000 0 1 0
-7.097235 8.950994 -19.250174 22.384375 -0.900400 2.606032 0.014284 0.005691 -476797.000000 0 1 0
-8.205035 9.445394 -18.335274 22.197305 -0.855556 2.542794 0.005363 0.009396 -715152.000000 0 1 0
-7.938935 9.396294 -16.966674 20.956742 -0.869270 2.514274 -0.000575 0.002666 -105896.000000 0 1 0
-9.013535 9.884894 -16.190074 21.001748 -0.831473 2.451036 0.002529 0.001591 261605.000000 0 1 0
-9.475135 11.365494 -16.396674 22.086275 -0.875856 2.407430 -0.003654 0.002887 -755170.000000 0 1 0
-8.512335 12.274194 -15.973074 21.869037 -0.964436 2.389699 -0.016478 -0.001012 -348196.000000 0 1 0
-8.748135 13.634294 -16.323474 22.997383 -1.000330 2.360006 0.002970 -0.002387 -323174.000000 0 1 0
-7.639435 14.612294 -15.911774 22.914289 -1.089069 2.338388 0.009365 -0.003511 -664339.000000 0 1 0
-7.283335 14.671094 -14.551474 21.909663 -1.110000 2.297163 0.013915 -0.003901 281945.000000 0 1 0
-8.191335 15.234494 -13.588274 21.996112 -1.077458 2.236685 0.007092 -0.019499 -129860.000000 0 1 0
-7.310135 15.839794 -12.429174 21.420119 -1.138417 2.189841 0.013550 -0.022359 438617.000000 0 1 0
-6.938135 17.163994 -12.614374 22.402295 -1.186652 2.168909 0.027851 -0.024560 -192286.000000 0 1 0
-5.854335 17.283794 -13.509074 22.704578 -1.244207 2.208054 0.025567 -0.015994 -578088.000000 0 1 0
-5.840535 18.756494 -14.020074 24.134630 -1.268925 2.190644 0.053295 -0.007009 55904.400000 0 1 0
-5.185635 19.680894 -13.224074 24.271475 -1.313166 2.146995 0.050396 -0.016321 -282475.000000 0 1 0
-5.537235 20.985694 -13.651374 25.640209 -1.312818 2.132254 0.069649 -0.011711 232195.000000 0 0 1
-4.708135 22.095194 -12.875474 26.002730 -1.360852 2.088814 0.070075 -0.014824 -160999.000000 0 0 1
-5.004435 23.468894 -13.075974 27.327906 -1.360706 2.069724 0.079495 -0.025241 34646.800000 0 0 1
-6.303935 24.006894 -12.867874 27.958053 -1.314005 2.049080 0.081757 -0.024864 426314.000000 0 0 1
-6.882735 23.966694 -11.419374 27.425837 -1.291143 2.000249 0.060137 -0.024440 -146542.000000 0 0 1
-7.087635 22.678394 -10.905474 26.143326 -1.267886 2.001094 0.061902 -0.018934 267074.000000 0 0 1
-7.839635 22.529094 -9.674774 25.741429 -1.235924 1.956104 0.076655 -0.027574 471154.000000 0 0 1
-7.122435 23.092194 -8.396174 25.582694 -1.271619 1.905191 0.071915 -0.029626 200107.000000 0 0 1
-7.044535 24.535494 -8.438074 26.885256 -1.291201 1.890047 0.075734 -0.030483 -144411.000000 0 0 1
-6.296135 24.990294 -7.320574 26.790799 -1.323990 1.847566 0.065124 -0.024121 181563.000000 0 0 1
-6.287435 26.539794 -7.128874 28.190660 -1.338179 1.826453 0.050999 -0.030665 276686.000000 0 0 1
-5.617835 27.444994 -8.042274 29.145599 -1.368891 1.850358 0.053583 -0.035092 28070.300000 0 0 1
-5.881635 27.276494 -9.414074 29.448693 -1.358418 1.896185 0.063730 -0.032028 -146322.000000 0 0 1
-5.328735 28.503294 -10.201674 30.739345 -1.385978 1.909089 0.061229 -0.023656 348600.000000 0 0 1
-6.160935 29.654194 -10.202774 31.959739 -1.365951 1.895722 0.067325 -0.019766 235732.000000 0 0 1
-7.170735 29.612594 -11.233274 32.473244 -1.333218 1.924020 0.083769 -0.019247 140137.000000 0 0 1
-8.238335 30.691994 -10.941274 33.609227 -1.308558 1.902383 0.091957 -0.018153 -381822.000000 0 0 1
-9.200435 30.188694 -10.042974 33.118976 -1.274974 1.878886 0.081483 -0.015195 -451698.000000 0 0 1
-10.264135 31.095294 -9.987474 34.234769 -1.251971 1.866836 0.067919 -0.018544 -314051.000000 0 0 1
-11.449935 30.736094 -9.090174 34.035859 -1.214198 1.841154 0.076113 -0.018908 79186.100000 0 0 1
-12.117435 29.575594 -9.546074 33.356791 -1.181947 1.861035 0.082434 -0.022629 35529.000000 0 0 1
-13.446635 29.459094 -9.094374 33.635663 -1.142591 1.844583 0.097991 -0.023801 847523.000000 0 0 1
-14.429735 28.338094 -9.605474 33.219421 -1.099816 1.864138 0.098558 -0.025873 567136.000000 0 0 1
-14.213335 27.061194 -8.997474 31.863484 -1.087169 1.857066 0.107179 -0.035371 220154.000000 0 0 1
-15.044035 26.109194 -9.654374 31.642059 -1.048063 1.880852 0.106191 -0.037085 -21752.100000 0 0 1
-15.040135 24.703394 -9.039174 30.301320 -1.023910 1.873717 0.101979 -0.031594 -421048.000000 0 0 1
-14.033335 23.841394 -9.456274 29.236410 -1.038792 1.900161 0.109710 -0.031276 -342355.000000 0 0 1
-14.367535 22.528494 -9.103074 28.228090 -1.003081 1.899148 0.099384 -0.026927 -574497.000000 0 0 1
-13.345135 21.473194 -9.439374 26.986894 -1.014733 1.928129 0.103435 -0.027461 -624755.000000 0 0 1
-13.175635 21.235694 -10.841074 27.241162 -1.015477 1.980096 0.100540 -0.021249 191626.000000 0 0 1
-12.720435 19.944994 -11.175574 26.163060 -1.003063 2.012136 0.093119 -0.018640 -180553.000000 0 0 1
-12.954435 19.562294 -12.674374 26.667217 -0.985882 2.066078 0.095652 -0.011788 425174.000000 0 0 1
-14.344535 19.421694 -12.927874 27.387913 -0.934642 2.062387 0.100173 -0.008780 97159.900000 0 0 1
-14.509035 19.054794 -14.281974 27.884979 -0.920015 2.108511 0.100240 -0.002556 961280.000000 0 0 1
-16.019035 18.783294 -14.623674 28.692742 -0.864659 2.105591 0.087383 0.001877 1313280.000000 0 0 1
-16.785235 19.993694 -14.884174 30.050467 -0.872414 2.088983 0.058831 -0.003892 1117320.000000 0 0 1
-18.111835 19.635994 -15.312874 30.791150 -0.825754 2.091296 0.041391 0.000370 580623.000000 0 0 1
-19.011735 20.723094 -15.901574 32.307162 -0.828441 2.085411 0.026602 -0.009709 -166145.000000 0 0 1
-19.341935 21.755694 -14.959174 32.729154 -0.844063 2.045483 0.040308 -0.020264 380188.000000 0 0 1
-19.807235 22.919194 -15.621974 34.083164 -0.858104 2.046933 0.039652 -0.019293 -89530.800000 0 0 1
-20.121635 24.134494 -14.735274 34.705652 -0.875824 2.009293 0.027729 -0.007385 -461652.000000 0 0 1
-21.284535 23.976394 -13.989274 34.979975 -0.844802 1.982228 0.032628 -0.005784 -264909.000000 0 0 1
-21.502535 25.119794 -13.252174 35.622790 -0.862829 1.951974 0.034390 -0.015514 -488518.000000 0 0 1
-25.880885 -0.737306 4.064126 26.208414 0.028481 1.415099 0.139712 -0.041103 -76671.800000 0 0 1
-26.443245 -0.083706 5.164726 26.943026 0.003166 1.377912 0.157703 -0.035535 1080180.000000 0 0 1
-27.806235 -0.514606 5.393926 28.329243 0.018505 1.379225 0.149351 -0.042946 892797.000000 0 0 1
-28.383835 0.305094 6.597326 29.142064 -0.010748 1.342432 0.153742 -0.039506 -459158.000000 0 0 1
-28.997655 1.544394 6.217626 29.696937 -0.053209 1.359866 0.178351 -0.041266 407063.000000 0 0 1
-29.477465 2.260294 7.382026 30.471695 -0.076529 1.326103 0.176935 -0.028682 20073.600000 0 0 1
-28.448445 3.052394 8.250426 29.777520 -0.106887 1.290054 0.198918 -0.033114 548212.000000 0 0 1
-27.388115 2.270694 8.809726 28.859594 -0.082719 1.260583 0.170223 -0.039704 1432150.000000 0 0 1
-26.390335 2.958594 9.621126 28.244807 -0.111643 1.223206 0.165679 -0.038174 809233.000000 0 0 1
-25.466835 1.902494 10.283026 27.530344 -0.074566 1.188000 0.138743 -0.032927 -595699.000000 0 0 1
-24.584435 1.176194 9.462126 26.368726 -0.047807 1.203773 0.149773 -0.031889 202121.000000 0 0 1
-25.124515 0.149694 8.662626 26.576395 -0.005958 1.238778 0.135578 -0.027511 -309642.000000 0 0 1
-24.014335 -0.798406 8.085226 25.351462 0.033235 1.246201 0.127589 -0.029818 520488.000000 0 0 1
-22.998335 -1.067806 9.044226 24.735838 0.046396 1.196484 0.111895 -0.048699 -138476.000000 0 1 0
-21.928435 -1.671006 8.429126 23.552043 0.076056 1.204785 0.124335 -0.034886 -594652.000000 0 1 0
-20.645035 -1.899506 9.265726 22.708573 0.091750 1.150504 0.107152 -0.025635 72042.300000 0 1 0
-19.918135 -0.757206 9.629226 22.136564 0.037998 1.120767 0.086320 -0.021236 650964.000000 0 1 0
-20.407535 -0.168106 10.829526 23.103558 0.008237 1.082934 0.087817 -0.021487 -669130.000000 0 1 0
-19.922935 1.285194 10.918426 22.754936 -0.064419 1.070339 0.055771 -0.017349 -260940.000000 0 1 0
-20.353935 2.354294 10.050426 22.821842 -0.115156 1.114767 0.074127 -0.011291 48273.400000 0 1 0
-21.751635 2.424594 9.959726 24.045965 -0.111009 1.143738 0.111269 -0.025287 -1087420.000000 0 1 0
-22.189735 3.782194 9.403826 24.395108 -0.168825 1.175068 0.106274 -0.033515 -584330.000000 0 1 0
-22.254335 4.784494 10.389626 25.021814 -0.211768 1.142609 0.101264 -0.031420 616587.000000 0 0 1
-22.575435 6.082294 9.871726 25.379038 -0.263172 1.171281 0.090057 -0.025870 -240898.000000 0 0 1
-22.647235 7.088394 11.024226 26.166317 -0.303333 1.135903 0.090322 -0.031191 -122110.000000 0 0 1
-23.751535 6.996594 11.896526 27.470258 -0.286472 1.122901 0.099544 -0.024991 140363.000000 0 0 1
-23.737635 7.948994 12.943426 28.181450 -0.323132 1.093602 0.091278 -0.020608 -421573.000000 0 0 1
-24.626335 7.585994 14.151726 29.398555 -0.298820 1.068574 0.104332 -0.019594 292741.000000 0 0 1
-25.924595 7.386294 13.589226 30.187896 -0.277560 1.103858 0.102858 -0.022250 51231.400000 0 0 1
-26.832365 6.903494 14.547126 31.293017 -0.251821 1.087311 0.114896 -0.020656 1256560.000000 0 0 1
-28.318475 6.718494 13.995426 32.294677 -0.232941 1.122572 0.117852 -0.008310 1320230.000000 0 0 1
-28.504175 5.658994 13.028926 31.847530 -0.195984 1.149325 0.130544 0.005026 563600.000000 0 0 1
-29.742175 5.816994 12.323826 32.715609 -0.193143 1.184570 0.126855 -0.014875 172288.000000 0 0 1
-30.182695 4.701894 11.428226 32.614525 -0.154539 1.212795 0.147649 -0.016411 -97064.900000 0 0 1
-30.767345 3.591694 12.112026 33.260051 -0.116211 1.198064 0.134432 -0.011412 129513.000000 0 0 1
-31.322165 2.670594 11.238426 33.384313 -0.085056 1.227452 0.139176 -0.012378 212195.000000 0 0 1
-32.372315 1.704994 11.926026 34.541336 -0.052620 1.218272 0.108513 -0.002018 440837.000000 0 0 1
-31.877285 0.822994 12.922826 34.406948 -0.025812 1.185766 0.122669 -0.007207 568.934000 0 0 1
-32.982065 0.159794 13.499226 35.638059 -0.004845 1.182311 0.098017 -0.001626 42795.400000 0 0 1
-32.619145 -0.979206 14.432226 35.682722 0.030010 1.154408 0.094301 -0.002827 -167691.000000 0 0 1
-32.375965 -2.210806 13.805226 35.265778 0.068180 1.168576 0.092586 -0.006867 279939.000000 0 0 1
-32.251625 -3.228206 14.787826 35.626794 0.099762 1.142770 0.085500 -0.009195 -325075.000000 0 0 1
-32.161025 -4.697006 14.242826 35.485934 0.145021 1.157789 0.085899 -0.010984 -150376.000000 0 0 1
-33.377955 -5.136506 13.688526 36.439640 0.152691 1.185699 0.073793 -0.013599 138259.000000 0 0 1
-33.331325 -6.491806 13.281626 36.462616 0.192358 1.197965 0.081467 -0.016812 -510699.000000 0 0 1
-34.468471 -6.798206 12.295026 37.221752 0.194730 1.234156 0.081701 -0.013413 1319480.000000 0 0 1
-35.853097 -6.809806 12.720626 38.647541 0.187701 1.235399 0.068723 -0.008928 1347050.000000 0 0 1
36.310090 -5.547306 13.049826 38.980677 -0.151604 1.229428 0.066254 -0.010097 244592.000000 0 0 1
34.763610 -5.511806 12.785526 37.448074 -0.157242 1.222369 0.058369 -0.003497 1028830.000000 0 0 1
33.955100 -6.464206 13.493626 37.105427 -0.188124 1.198606 0.052197 -0.004910 842203.000000 0 0 1
32.599430 -6.287106 13.036426 35.667898 -0.190520 1.196632 0.056959 -0.004133 510237.000000 0 0 1
31.679820 -7.436006 13.387726 35.187162 -0.230550 1.180490 0.060220 -0.011075 -552838.000000 0 0 1
31.236010 -7.393706 14.726026 35.315875 -0.232427 1.140676 0.056365 -0.008255 10062.900000 0 0 1
30.217780 -8.356906 14.884926 34.706096 -0.269812 1.127538 0.048678 -0.005686 -288129.000000 0 0 1
29.649130 -8.460706 16.303426 34.877731 -0.277973 1.084398 0.051901 -0.008271 -315288.000000 0 0 1
30.517980 -8.951406 17.280226 36.195041 -0.285313 1.073081 0.037130 -0.007079 -381439.000000 0 0 1
29.879870 -8.909606 18.526126 36.268513 -0.289787 1.034676 0.039292 -0.007836 -825379.000000 0 0 1
30.782800 -9.355706 19.666526 37.707854 -0.295055 1.022130 0.038941 -0.004122 150214.000000 0 0 1
31.852450 -8.472606 19.988426 38.547384 -0.259976 1.025652 0.044067 -0.007176 230092.000000 0 0 1
33.006980 -8.866806 19.245126 39.223154 -0.262438 1.057952 0.027884 -0.008926 -450072.000000 0 0 1
34.322070 -8.180606 19.682126 40.401892 -0.233983 1.061963 0.020486 -0.004552 127712.000000 0 0 1
34.647250 -8.670406 20.965126 41.414301 -0.245212 1.039990 0.020249 -0.006825 -135412.000000 0 0 1
35.903830 -8.167606 21.378026 42.577163 -0.223679 1.044770 0.007963 0.000116 33442.900000 0 0 1
36.308070 -8.779206 22.717426 43.719925 -0.237244 1.024399 0.012934 -0.003472 -199006.000000 0 0 1
35.731310 -8.209206 23.886526 43.757099 -0.225829 0.993346 0.023382 -0.001654 120298.000000 0 0 1
35.944950 -9.114706 25.017326 44.732358 -0.248340 0.977295 0.013106 -0.001560 -194603.000000 0 0 1
35.403710 -8.518606 26.370826 44.960091 -0.236125 0.944018 0.031364 -0.002163 -789126.000000 0 0 1
36.324940 -7.809006 27.069826 45.970178 -0.211754 0.941153 0.003348 -0.008049 -1243690.000000 0 0 1
35.854090 -7.091906 28.192226 46.158558 -0.195278 0.913765 0.002344 -0.006162 -732652.000000 0 0 1
-35.803178 -6.516506 29.093226 46.591289 0.180038 0.896389 0.000491 0.003323 -176613.000000 0 0 1
-35.271362 -7.659106 29.765026 46.783413 0.213828 0.881194 -0.001733 0.001280 705161.000000 0 0 1
-33.990335 -7.403006 30.399826 46.198451 0.214448 0.852601 -0.005547 0.004271 1247500.000000 0 0 1
-33.788805 -8.229906 31.719226 47.069353 0.238917 0.831345 -0.018699 0.008022 -41545.000000 0 0 1
-33.514085 -9.584206 31.529226 47.001522 0.278541 0.835492 -0.011049 -0.003017 216184.000000 0 0 1
-32.986895 -10.196406 32.691826 47.548475 0.299789 0.812690 -0.013140 -0.004593 -225587.000000 0 0 1
-33.257695 -11.752306 32.857726 48.206028 0.339675 0.820835 0.011680 -0.010912 -1653200.000000 0 0 1
-34.571910 -12.085506 32.947226 49.262523 0.336297 0.838191 -0.003326 -0.008669 -1709100.000000 0 0 1
-34.730963 -13.425606 33.160426 49.860812 0.368867 0.843222 0.014793 -0.018677 651938.000000 0 0 1
-36.251165 -13.794206 33.181626 51.043584 0.363599 0.863127 0.017303 -0.011622 642816.000000 0 0 1
36.207860 -15.191606 33.368226 51.528948 -0.397259 0.866415 0.021440 -0.017081 -587468.000000 0 0 1
34.847860 -15.294406 33.646026 50.797119 -0.413577 0.846831 0.019121 -0.014898 -693988.000000 0 0 1
34.383770 -16.693006 34.162526 51.263810 -0.451973 0.841418 0.016012 -0.006717 -217103.000000 0 0 1
34.971410 -17.072806 -33.046209 51.054208 -0.454158 2.274803 0.027355 -0.012147 152748.000000 0 0 1
34.980170 -18.462406 -32.926509 51.464820 -0.485637 2.265017 0.026040 -0.019298 -349632.000000 0 0 1
35.435110 -19.020106 -31.545909 51.113167 -0.492620 2.235947 0.037520 -0.019887 -152883.000000 0 0 1
34.441270 -18.899306 -30.572009 49.779841 -0.501875 2.232098 0.048604 -0.016548 -221937.000000 0 0 1
34.817930 -19.568106 -29.351909 49.565447 -0.512019 2.204564 0.041404 -0.011043 -536220.000000 0 0 1
33.708420 -19.563406 -28.271709 48.148458 -0.525862 2.198364 0.042535 -0.010708 367828.000000 0 0 1
32.616970 -20.448106 -28.481909 47.887482 -0.559976 2.207773 0.061932 -0.014105 661605.000000 0 0 1
31.650640 -19.887806 -29.387909 47.549312 -0.561008 2.237058 0.042636 -0.008592 -179648.000000 0 0 1
30.263520 -20.608906 -29.396609 46.954960 -0.597848 2.247286 0.030893 -0.003963 185274.000000 0 0 1
29.383940 -19.869106 -30.186309 46.576932 -0.594566 2.275878 0.014957 -0.000216 238147.000000 0 0 1
28.072830 -20.434106 -30.242609 46.046193 -0.629204 2.287348 0.020381 -0.000757 1009890.000000 0 0 1
27.141470 -19.766806 -31.327709 45.921796 -0.629460 2.321559 0.027430 0.008350 508349.000000 0 0 1
27.458570 -20.230806 -32.648009 47.213886 -0.634984 2.334348 0.016279 0.002872 8450.740000 0 0 1
26.590570 -19.681906 -33.630809 47.174857 -0.637189 2.364417 0.049337 0.002017 96583.000000 0 0 1
27.130070 -19.877606 33.371626 47.379588 -0.632323 0.789295 0.057622 -0.004923 443143.000000 0 0 1
28.209910 -18.980306 33.042526 47.411597 -0.592253 0.799690 0.029758 -0.003948 657120.000000 0 0 1
28.545710 -19.005506 31.623026 46.648500 -0.587397 0.825894 0.035869 -0.004911 -20594.200000 0 0 1
27.496870 -18.351006 30.696126 45.111965 -0.588500 0.822429 0.044059 -0.007630 -110606.000000 0 0 1
27.368970 -16.962806 30.969026 44.675249 -0.554839 0.804872 0.052789 -0.012614 997365.000000 0 0 1
26.383670 -16.305906 30.117726 43.232604 -0.553572 0.800088 0.061228 -0.017658 664515.000000 0 0 1
26.132770 -14.856406 30.567726 42.872139 -0.516934 0.777032 0.069417 -0.019655 -545050.000000 0 0 1
27.207270 -14.037606 30.277226 43.058104 -0.476326 0.790948 0.062024 -0.016490 -312762.000000 0 0 1
27.017270 -12.728206 30.745926 42.863178 -0.440273 0.770871 0.081696 -0.018429 248436.000000 0 0 1
28.377540 -11.999206 30.664226 43.469075 -0.400041 0.787772 0.072000 -0.016529 397333.000000 0 0 1
28.851460 -11.504706 29.382726 42.756398 -0.379434 0.813152 0.063369 -0.018413 843273.000000 0 0 1
30.250340 -11.185906 29.447026 43.673045 -0.354185 0.830833 0.050094 -0.014202 858842.000000 0 0 1
30.830500 -10.382806 28.273426 43.101148 -0.324841 0.855318 0.049461 -0.019517 -24083.500000 0 0 1
30.425590 -9.042406 28.256426 42.495967 -0.288884 0.843409 0.059945 -0.018287 59983.500000 0 0 1
31.043400 -8.452506 27.106526 42.070195 -0.265836 0.870667 0.046162 -0.006452 248371.000000 0 0 1
30.885090 -6.949206 26.852726 41.512036 -0.221316 0.867329 0.056889 -0.008666 1124630.000000 0 0 1
29.492540 -6.554506 26.794626 40.382217 -0.218689 0.845275 0.065339 -0.009823 801972.000000 0 0 1
29.341800 -5.186406 26.430926 39.830062 -0.174951 0.845186 0.069354 -0.010666 -996468.000000 0 0 1
27.926510 -4.704906 26.461526 38.758721 -0.166907 0.819311 0.061718 -0.008856 -1069910.000000 0 0 1
27.216570 -5.144906 25.330426 37.534547 -0.186831 0.830026 0.061584 -0.008671 746544.000000 0 0 1
25.839170 -4.699106 25.369926 36.515441 -0.179894 0.802693 0.071912 -0.011181 602826.000000 0 0 1
25.169570 -4.985506 24.035526 35.157773 -0.195546 0.818047 0.060328 -0.000799 -588224.000000 0 0 1
25.594570 -4.239706 22.906926 34.609021 -0.164158 0.847476 0.067073 0.004551 89082.900000 0 0 1
25.051770 -4.791806 21.741026 33.514546 -0.188993 0.864916 0.071795 0.000432 31832.600000 0 0 1
25.340870 -3.949806 20.524026 32.848079 -0.154623 0.895900 0.090541 -0.006726 -86688.300000 0 0 1
24.530570 -2.825706 20.544926 32.122071 -0.114686 0.876833 0.084402 -0.003521 -277009.000000 0 0 1
24.971670 -1.897006 19.597526 31.800093 -0.075821 0.906795 0.093712 -0.013251 -655800.000000 0 0 1
23.947070 -0.910106 19.068926 30.625388 -0.037987 0.898670 0.057212 -0.015223 -123138.000000 0 0 1
22.962470 -1.582906 18.270426 29.386886 -0.068826 0.899859 0.076232 -0.020761 748279.000000 0 0 1
21.884270 -0.772906 17.770026 28.200930 -0.035303 0.889086 0.071595 -0.020565 901179.000000 0 0 1
20.717270 -1.629706 17.220726 26.989157 -0.078502 0.878819 0.062193 -0.020277 -103477.000000 0 0 1
20.932370 -2.154506 15.947826 26.403393 -0.102566 0.922277 0.076226 -0.025389 -14543.600000 0 0 1
19.831970 -2.876506 15.431926 25.292798 -0.144039 0.914570 0.085360 -0.030902 -93530.600000 0 0 1
20.051370 -3.308606 13.989926 24.672299 -0.163533 0.967901 0.091439 -0.036238 -80816.700000 0 1 0
18.985470 -4.128806 13.567126 23.697300 -0.214138 0.961223 0.082852 -0.035213 542804.000000 0 1 0
19.242470 -4.647806 12.282026 23.296414 -0.237000 1.015486 0.091541 -0.032793 126264.000000 0 1 0
18.246170 -5.798406 11.921426 22.553594 -0.307695 1.013867 0.069310 -0.029225 251184.000000 0 1 0
18.616170 -6.999006 12.609726 23.548950 -0.359615 1.005734 0.110463 -0.034533 1416910.000000 0 1 0
17.418470 -7.786106 12.781826 22.965226 -0.420359 0.980541 0.073415 -0.004645 601601.000000 0 1 0
17.623470 -9.321506 12.767226 23.674442 -0.486520 1.001211 0.100287 -0.033843 -656374.000000 0 1 0
18.107570 -9.735706 11.533626 23.573133 -0.493319 1.059544 0.078585 -0.045970 411915.000000 0 1 0
17.765170 -11.110706 11.287126 23.800174 -0.558902 1.076689 0.083513 -0.049772 -70138.200000 0 1 0
18.574870 -11.737306 10.127426 24.194109 -0.563540 1.138903 0.080941 -0.045177 -110233.000000 0 1 0
18.245170 -11.301506 8.863926 23.220238 -0.554580 1.179126 0.097323 -0.035946 234974.000000 0 1 0
19.228670 -11.725106 7.963926 23.888155 -0.547574 1.230906 0.110045 -0.047516 -113016.000000 0 1 0
18.988670 -11.073406 6.585826 22.946961 -0.527944 1.279701 0.108154 -0.039610 -28628.700000 0 1 0
19.414270 -9.703806 6.504226 22.657950 -0.463510 1.279638 0.122876 -0.034653 797239.000000 0 1 0
19.901970 -9.416406 5.182626 22.618946 -0.441929 1.339615 0.109355 -0.033411 -116569.000000 0 1 0
20.344870 -7.992106 5.013826 22.426010 -0.374311 1.345319 0.137366 -0.030154 -419493.000000 0 1 0
20.945870 -7.720906 3.797526 22.644272 -0.353159 1.402297 0.107163 -0.027558 646691.000000 0 1 0
21.572670 -6.451006 3.821926 22.838622 -0.290572 1.402660 0.136310 -0.021509 -283394.000000 0 1 0
22.048970 -6.079206 2.419226 22.999271 -0.269030 1.465414 0.117995 -0.018894 139598.000000 0 1 0
20.959170 -5.620306 1.664626 21.763401 -0.261991 1.494234 0.085950 -0.036000 774921.000000 0 1 0
21.546070 -4.983306 0.579226 22.122431 -0.227290 1.544611 0.095195 -0.026660 250870.000000 0 1 0
-25.678835 -15.440806 0.229626 29.964543 0.541378 1.563133 0.093616 -0.011793 -419076.000000 0 0 1
-24.837235 -14.779806 -0.771274 28.912382 0.536784 1.597476 0.080678 -0.005566 1632980.000000 0 0 1
-23.460035 -15.219106 -0.711774 27.973221 0.575478 1.596244 0.080397 -0.003377 1298370.000000 0 0 1
-22.594135 -14.916006 0.546926 27.079168 0.583493 1.550598 0.081315 -0.014239 -852300.000000 0 0 1
-23.073635 -15.453806 1.740726 27.825221 0.590141 1.508196 0.078713 -0.004847 -540783.000000 0 0 1
-22.314535 -14.980506 2.772726 27.019291 0.591227 1.467995 0.070787 0.007842 -139422.000000 0 0 1
-22.860735 -15.547806 4.135726 27.954458 0.597252 1.422306 0.077855 0.006839 -114886.000000 0 0 1
-22.873335 -16.949606 4.155126 28.770535 0.637729 1.425867 0.100852 -0.006049 252472.000000 0 0 1
-23.231235 -17.539506 5.361126 29.598417 0.646691 1.388662 0.095769 -0.011450 -282863.000000 0 0 1
-23.163735 -19.113506 5.339326 30.502347 0.689888 1.394843 0.077196 -0.011955 35075.300000 0 0 1
-23.694835 -19.723406 6.497526 31.506759 0.694183 1.363079 0.064765 -0.013783 44818.000000 0 0 1
-23.899435 -21.165206 6.249526 32.530072 0.724799 1.377479 0.077451 -0.017945 99869.800000 0 0 1
-24.543135 -21.990806 7.413726 33.777572 0.730604 1.349508 0.066938 -0.011031 322276.000000 0 0 1
-23.661735 -22.226206 8.492726 33.556048 0.754125 1.314923 0.055157 -0.003745 12591.800000 0 0 1
-24.361035 -23.056406 9.410226 34.836910 0.757891 1.297276 0.058366 -0.003329 305642.000000 0 0 1
-23.543335 -23.444806 10.671326 34.897347 0.783301 1.260026 0.034677 -0.006409 165618.000000 0 0 1
-23.436435 -22.345906 11.553426 34.381502 0.761583 1.228091 0.042455 -0.008045 559917.000000 0 0 1
-22.427735 -22.572306 12.566226 34.211436 0.788611 1.194680 0.043616 -0.008587 458594.000000 0 0 1
-22.590335 -21.687006 13.837426 34.236295 0.764999 1.154721 0.036844 -0.002163 -372992.000000 0 0 1
-23.766535 -22.054506 14.497226 35.516461 0.748052 1.150333 0.029307 -0.002050 -589214.000000 0 0 1
-23.965835 -21.323206 15.700426 35.714756 0.727114 1.115636 0.029539 0.010900 -290023.000000 0 0 1
-25.359345 -21.628306 16.303426 37.103662 0.706160 1.115863 0.040019 -0.001411 600379.000000 0 0 1
-26.505965 -21.259906 15.493026 37.344125 0.676008 1.142994 0.043072 -0.002679 911873.000000 0 0 1
-26.810365 -22.277706 14.547126 37.771825 0.693322 1.175446 0.037788 -0.006666 -788456.000000 0 0 1
-27.870595 -23.312606 14.914726 39.277179 0.696580 1.181292 0.032422 -0.013877 -412204.000000 0 0 1
-27.394865 -24.086406 16.031826 39.845365 0.721221 1.156713 0.021044 -0.007286 314204.000000 0 0 1
-28.185055 -25.207736 16.499026 41.255850 0.729693 1.159367 0.037828 -0.009758 -100545.000000 0 0 1
-28.390145 -26.355716 15.496926 41.722642 0.748254 1.190251 0.029732 -0.007731 66574.800000 0 0 1
-29.054165 -26.065456 14.267226 41.558468 0.731229 1.220363 0.040368 -0.018874 105860.000000 0 0 1
-30.399975 -26.496696 14.392926 42.818101 0.716903 1.227980 0.075947 -0.032297 -221943.000000 0 0 1
-31.009015 -27.061026 13.081026 43.185315 0.717516 1.263057 0.102223 -0.030983 59975.500000 0 0 1
-30.488635 -28.312456 12.629326 43.481628 0.748406 1.276097 0.088069 -0.030776 379413.000000 0 0 1
-31.208325 -28.704636 11.456926 43.922396 0.743634 1.306899 0.085405 -0.016763 300125.000000 0 0 1
-30.622425 -29.982286 10.847426 44.207885 0.774836 1.322892 0.070972 -0.010922 141266.000000 0 0 1
-31.050165 -31.138006 11.490926 45.450298 0.786811 1.315198 0.064815 -0.014744 246463.000000 0 0 1
-30.382525 -32.246976 10.842226 45.612709 0.815159 1.330797 0.059259 -0.019877 37162.000000 0 0 1
-30.556895 -33.638246 11.426826 46.859661 0.833361 1.324460 0.045500 -0.018014 446123.000000 0 0 1
-31.893145 -34.148983 11.495826 48.119433 0.819542 1.329561 0.036797 -0.022165 651560.000000 0 0 1
-31.847715 32.865128 11.835626 47.270240 -0.801119 1.317721 0.058265 -0.027167 459755.000000 0 0 1
-33.239295 32.302061 12.298426 47.953364 -0.771099 1.311432 0.073358 -0.027622 794502.000000 0 0 1
-34.273273 32.115951 11.363326 48.324080 -0.752915 1.333425 0.054696 -0.029731 416933.000000 0 0 1
-34.963569 33.262566 10.804526 49.452879 -0.760471 1.350538 0.068457 -0.026317 -289868.000000 0 0 1
36.326350 32.864616 10.421726 50.082921 0.735408 1.361175 0.054975 -0.018847 -342552.000000 0 0 1
36.193930 32.155061 9.175826 49.276204 0.726375 1.383491 0.036074 -0.015155 440706.000000 0 0 1
34.833710 32.131501 8.769926 48.194733 0.745068 1.387808 0.039960 -0.016250 239815.000000 0 0 1
34.775330 31.719051 7.290026 47.629468 0.739468 1.417135 0.044269 -0.019821 36961.000000 0 0 1
34.962420 30.329981 7.113226 46.828159 0.714568 1.418305 0.052912 -0.023441 87530.100000 0 0 1
34.952510 29.983011 5.759926 46.409434 0.709017 1.446364 0.066320 -0.026076 -168823.000000 0 0 1
35.274660 28.531001 5.476026 45.697992 0.680098 1.450677 0.069951 -0.020801 449496.000000 0 0 1
34.272180 27.624211 5.978526 44.423215 0.678404 1.435806 0.076989 -0.018807 667261.000000 0 0 1
34.691480 27.124041 7.247526 44.628903 0.663585 1.407679 0.058187 -0.023241 99876.400000 0 0 1
33.861550 25.932071 7.787726 43.355801 0.653553 1.390192 0.051330 -0.023117 -141247.000000 0 0 1
34.027230 24.768631 7.036426 42.671404 0.629210 1.405142 0.057147 -0.019495 130924.000000 0 0 1
32.916290 23.888951 7.112826 41.288695 0.627799 1.397662 0.049825 -0.012814 -686546.000000 0 0 1
33.104160 22.577411 6.354026 40.570907 0.598551 1.413534 0.050769 -0.014855 -198319.000000 0 0 1
34.042050 21.607511 6.735026 40.879166 0.565566 1.405287 0.063306 -0.012730 687583.000000 0 0 1
35.419980 22.030911 6.707526 42.248395 0.556433 1.411358 0.065351 -0.017505 430207.000000 0 0 1
-36.247915 20.915011 6.600426 42.366433 -0.523335 1.414365 0.065524 -0.020154 -290924.000000 0 0 1
-36.259395 20.182711 5.400126 41.847902 -0.507912 1.441394 0.077848 -0.024983 -27887.500000 0 0 1
-35.998490 18.825711 5.633526 41.012624 -0.481845 1.433000 0.089506 -0.023711 -109877.000000 0 0 1
36.146930 17.714411 4.667726 40.523925 0.455670 1.455356 0.090236 -0.030223 -167103.000000 0 0 1
-36.037055 17.716611 3.382826 40.298774 -0.456923 1.486754 0.104324 -0.030430 -123406.000000 0 0 1
36.028620 16.779311 2.563026 39.826823 0.435851 1.506398 0.099541 -0.025437 -569168.000000 0 0 1
-35.794517 16.217611 1.371726 39.320987 -0.425408 1.535904 0.129046 -0.018054 887219.000000 0 0 1
-34.593468 15.501711 1.662326 37.944359 -0.421282 1.526973 0.124964 -0.036571 915660.000000 0 0 1
-33.595395 16.312311 2.265426 37.414893 -0.452023 1.510210 0.116032 -0.032408 96240.200000 0 0 1
-32.192915 15.643211 2.579926 35.885232 -0.452321 1.498840 0.100059 -0.037975 887043.000000 0 0 1
-32.211855 14.771611 3.685326 35.628440 -0.429963 1.467173 0.107768 -0.031841 1773810.000000 0 0 1
-30.847075 14.262511 3.843526 34.201374 -0.433086 1.458179 0.092147 -0.034300 1328950.000000 0 0 1
-30.573025 13.497911 5.149826 33.814556 -0.415761 1.417905 0.103345 -0.022680 162655.000000 0 0 1
-31.184825 12.190911 5.203326 33.884897 -0.372658 1.416627 0.119544 -0.015743 1015060.000000 0 0 1
-30.553175 11.461111 6.312626 33.237070 -0.358876 1.379708 0.108746 -0.009031 298142.000000 0 0 1
-30.883575 9.966911 6.331026 33.063824 -0.312173 1.378128 0.124862 -0.023468 1751130.000000 0 0 1
-32.314035 9.688311 6.530126 34.361356 -0.291289 1.379591 0.122044 -0.011879 1938850.000000 0 0 1
-32.490285 8.271211 6.446126 34.140652 -0.249280 1.380845 0.133209 -0.021351 324376.000000 0 0 1
-33.978095 7.802911 6.444926 35.453257 -0.225731 1.387993 0.119139 -0.015206 279374.000000 0 0 1
-34.572445 7.607611 7.681626 36.223433 -0.216596 1.357112 0.102526 -0.013147 -320258.000000 0 0 1
-35.794867 6.937411 7.515626 37.227474 -0.191437 1.367515 0.069686 -0.012703 -91599.000000 0 0 1
36.328210 6.478511 8.876326 37.953907 0.176478 1.334739 0.059628 -0.010558 163708.000000 0 0 1
35.683800 7.457611 9.714426 37.726908 0.206026 1.310369 0.066986 -0.010308 118815.000000 0 0 1
-36.102815 8.217011 10.402826 38.459737 -0.223788 1.296898 0.079252 -0.012973 -457989.000000 0 0 1
36.015190 8.993611 11.617826 38.896694 0.244712 1.267483 0.069329 -0.021876 -356544.000000 0 0 1
35.431930 8.271011 12.688326 38.533425 0.229327 1.235254 0.046062 -0.023642 600883.000000 0 0 1
34.985650 9.136211 13.667226 38.655648 0.255437 1.209418 0.062380 -0.030604 -632345.000000 0 0 1
34.170870 8.588911 14.843726 38.232890 0.246251 1.172070 0.060944 -0.030292 -600784.000000 0 0 1
32.901390 8.101211 14.497626 36.855287 0.241424 1.166506 0.044503 -0.026687 -53444.500000 0 0 1
32.346890 7.524211 15.608526 36.695519 0.228546 1.131445 0.044666 -0.026638 -489095.000000 0 0 1
30.863640 7.124611 15.725026 35.363834 0.226868 1.109997 0.034456 -0.012824 -659409.000000 0 0 1
29.971850 8.229011 15.665426 34.805660 0.267955 1.103938 0.034247 -0.014286 436683.000000 0 0 1
28.632230 7.805111 15.865326 33.651640 0.266132 1.079853 0.036534 -0.012074 60596.300000 0 0 1
28.159120 7.299111 17.240126 33.814715 0.253627 1.035796 0.032583 -0.011201 -952127.000000 0 0 1
28.063990 8.253711 18.287826 34.498635 0.286038 1.012074 0.061295 -0.021515 644853.000000 0 0 1
27.301970 7.924611 19.489526 34.467936 0.282495 0.969831 0.062273 -0.009960 428977.000000 0 0 1
27.920290 6.830611 20.408426 35.252002 0.239934 0.953381 0.064791 -0.009739 -3186.120000 0 0 1
27.099270 6.629811 21.536726 35.244225 0.239936 0.913383 0.053127 -0.006344 -108897.000000 0 0 1
27.467670 5.578811 22.376426 35.865031 0.200379 0.897065 0.051516 -0.004396 -604768.000000 0 0 1
26.691470 5.371711 23.739126 36.122513 0.198599 0.853720 0.060249 -0.005560 962664.000000 0 0 1
25.323270 4.989611 23.633926 34.996095 0.194545 0.829384 0.027214 0.001849 393908.000000 0 0 1
24.403570 6.033611 23.327126 34.294219 0.242382 0.822753 0.043369 0.004446 -248164.000000 0 0 1
22.949770 5.528711 23.267226 33.145473 0.236400 0.792632 0.048223 -0.000152 -63143.800000 0 0 1
22.749270 4.715811 22.135326 32.089575 0.204400 0.809586 0.033745 0.000738 1196940.000000 0 0 1
21.362070 4.612711 21.735626 30.822923 0.212665 0.788123 0.034902 -0.003019 -318104.000000 0 0 1
20.593270 3.266911 21.703226 30.096270 0.157329 0.765369 0.047353 -0.006145 48177.900000 0 0 1
19.307770 3.274711 21.161126 28.832394 0.168007 0.746698 0.039142 -0.012487 -123216.000000 0 0 1
18.359870 4.142211 21.736026 28.752349 0.221897 0.713656 0.059839 -0.012449 -1398940.000000 0 0 1
16.945870 3.996311 21.145326 27.390834 0.231596 0.688838 0.085436 -0.014908 -299332.000000 0 0 1
16.340070 2.771811 21.368926 27.042777 0.168033 0.659678 0.069841 -0.019541 -663548.000000 0 0 1
15.224470 2.639911 20.561926 25.720544 0.171692 0.644441 0.083521 -0.024514 -977319.000000 0 0 1
14.189670 1.559911 20.908526 25.316921 0.109493 0.599050 0.086845 -0.025924 -284391.000000 0 0 1
14.651370 0.218911 20.806126 25.448093 0.014940 0.613582 0.062179 -0.032615 165823.000000 0 0 1
14.062570 -0.524789 21.849926 25.989431 -0.037301 0.572178 0.069754 -0.035671 -158276.000000 0 0 1
14.299770 -2.022789 21.893726 26.228045 -0.140524 0.583127 0.040220 -0.023477 -351784.000000 0 0 1
13.761470 -2.655489 20.780426 25.065031 -0.190623 0.593371 0.033341 -0.010568 79281.200000 0 0 1
13.908870 -4.063489 20.825926 25.371003 -0.284240 0.607889 0.034005 0.003119 -126781.000000 0 0 1
13.759670 -4.559489 19.348526 24.176081 -0.319979 0.642973 0.037268 -0.005792 702198.000000 0 1 0
12.389970 -4.491489 18.900026 23.041176 -0.347776 0.608910 0.035982 -0.013097 807370.000000 0 1 0
12.136770 -5.212389 17.707826 22.091566 -0.405651 0.640888 0.040979 -0.011733 939191.000000 0 1 0
10.602770 -5.237989 17.356826 21.002730 -0.458853 0.598098 0.044370 -0.015577 1028270.000000 0 1 0
9.987770 -6.233389 18.159126 21.641732 -0.557953 0.575208 0.042809 -0.009547 609792.000000 0 1 0
8.579870 -6.389289 17.868326 20.825808 -0.640090 0.539453 0.035380 -0.023923 1338370.000000 0 1 0
7.772270 -7.158289 18.987526 21.729598 -0.744299 0.507814 0.032376 -0.025202 -508687.000000 0 1 0
7.772970 -8.565889 18.781526 22.057635 -0.833890 0.552005 0.029592 -0.024770 -383515.000000 0 1 0
8.814570 -9.316889 19.332926 23.200498 -0.813095 0.585750 0.048437 -0.024176 -365649.000000 0 1 0
8.933670 -10.742689 18.697726 23.341396 -0.877079 0.641742 0.054598 -0.029711 104462.000000 0 1 0
9.448670 -10.670189 17.377626 22.474701 -0.846039 0.686911 0.053844 -0.027165 -64851.200000 0 1 0
9.699270 -11.909189 16.762926 22.735442 -0.887315 0.741726 0.047224 -0.029440 77955.000000 0 1 0
10.991670 -11.944789 15.926926 22.741191 -0.826929 0.794900 0.072397 -0.019095 -171504.000000 0 1 0
11.175570 -12.990889 15.017526 22.785580 -0.860375 0.851201 0.082773 -0.026013 209782.000000 0 1 0
10.445370 -12.836189 13.800226 21.548080 -0.887731 0.875727 0.048953 -0.020046 -9611.080000 0 1 0
10.923370 -13.925789 12.823926 21.856365 -0.905641 0.943774 0.055706 -0.029022 1419380.000000 0 1 0
12.304370 -13.859289 12.374126 22.284443 -0.844759 0.982096 0.040965 -0.027899 1141190.000000 0 1 0
12.639570 -12.982289 11.352126 21.381518 -0.798773 1.011097 0.031847 -0.023417 -1655620.000000 0 1 0
14.015170 -13.136089 10.792926 22.033363 -0.753032 1.058885 0.047059 -0.033156 -1163130.000000 0 1 0
14.378470 -14.291989 10.072526 22.637516 -0.782382 1.109680 0.056445 -0.031896 -19629.900000 0 1 0
15.678070 -14.020989 9.566426 23.106417 -0.729660 1.143935 0.066974 -0.035873 -493157.000000 0 1 0
16.388270 -15.338089 9.306326 24.298973 -0.752309 1.177763 0.060342 -0.033656 -503069.000000 0 1 0
16.866570 -15.862289 10.549426 25.443738 -0.754723 1.143274 0.065300 -0.025379 3340.910000 0 0 1
16.052870 -16.806089 11.240126 25.816268 -0.808317 1.120326 0.083802 -0.022099 -40915.800000 0 0 1
16.686870 -17.349589 12.546826 27.145584 -0.804867 1.090316 0.080677 -0.018423 -743068.000000 0 0 1
17.791570 -18.129589 12.310526 28.227133 -0.794808 1.119510 0.114837 -0.022798 -853175.000000 0 0 1
18.142170 -18.797789 13.536026 29.423107 -0.803145 1.092748 0.094040 -0.022305 -592610.000000 0 0 1
19.443070 -19.591689 13.385226 30.676237 -0.789206 1.119271 0.054652 -0.020425 -486121.000000 0 0 1
20.424770 -18.586189 13.173626 30.596766 -0.738303 1.125687 0.047245 -0.014273 -1109900.000000 0 0 1
21.649370 -19.233889 13.001226 31.743812 -0.726384 1.148817 0.033455 -0.015246 -443444.000000 0 0 1
22.474870 -18.653589 11.823826 31.509983 -0.692753 1.186140 0.030770 -0.008095 -719984.000000 0 0 1
22.124470 -18.984189 10.502726 30.987076 -0.709156 1.225007 0.033277 -0.009329 368717.000000 0 0 1
20.894970 -18.485789 9.955126 29.621423 -0.724298 1.228046 0.051707 -0.013194 738625.000000 0 0 1
20.623270 -16.942089 10.024226 28.510327 -0.687716 1.211517 0.082725 -0.026338 -190468.000000 0 0 1
21.561470 -16.312289 9.172626 28.550391 -0.647679 1.243717 0.063799 -0.019362 148007.000000 0 0 1
21.363370 -14.939389 9.111826 27.615291 -0.610256 1.234540 0.078103 -0.036347 -84320.900000 0 0 1
-34.632987 25.157994 8.244426 43.592878 -0.628236 1.380527 0.082632 -0.006129 -78459.600000 0 0 1
-33.883785 24.538294 9.238026 42.843668 -0.626777 1.353468 0.061742 -0.011079 -413799.000000 0 0 1
-32.679505 25.200194 9.471726 42.340447 -0.656889 1.345183 0.064451 -0.009107 -3307.330000 0 0 1
-31.577865 24.296894 10.165226 41.119733 -0.655820 1.320996 0.064692 -0.018504 464057.000000 0 0 1
-30.939305 23.389594 9.280226 39.880275 -0.647319 1.335941 0.060305 -0.019649 79351.100000 0 0 1
-30.254865 22.411894 10.003526 38.957931 -0.637568 1.311110 0.052854 -0.015441 -324781.000000 0 0 1
-29.363155 21.484694 9.185926 37.525567 -0.631679 1.323492 0.044348 -0.026334 -199895.000000 0 0 1
-30.114025 20.587494 8.369226 37.426506 -0.599669 1.345272 0.058609 -0.030448 627964.000000 0 0 1
-29.299415 19.876994 7.429326 36.176588 -0.596088 1.363962 0.057479 -0.031377 266997.000000 0 0 1
-30.217925 19.221294 6.372726 36.375717 -0.566534 1.394696 0.059047 -0.033829 -344296.000000 0 0 1
-30.990945 18.191894 6.835126 36.580085 -0.530811 1.382838 0.065725 -0.031153 -61710.200000 0 0 1
-31.918855 17.791094 5.836626 37.005439 -0.508495 1.412411 0.070664 -0.033313 -194117.000000 0 0 1
-32.761765 16.606294 6.292826 37.265291 -0.469137 1.401118 0.081672 -0.031837 -728736.000000 0 0 1
-33.627445 16.923894 7.324126 38.351872 -0.466265 1.378644 0.083414 -0.030605 -190768.000000 0 0 1
-34.470879 15.840294 7.668026 38.703424 -0.430748 1.371354 0.091623 -0.035658 108158.000000 0 0 1
-35.384020 16.210794 8.887926 39.922600 -0.429602 1.346286 0.086119 -0.026942 -56162.000000 0 0 1
-36.235115 17.250494 8.470726 41.016050 -0.444322 1.362777 0.079676 -0.019816 -388730.000000 0 0 1
36.008950 17.863894 9.655526 41.339960 0.460519 1.335055 0.083338 -0.009940 -438615.000000 0 0 1
35.133540 19.098994 9.373126 41.073016 0.497925 1.340561 0.073464 -0.005723 182284.000000 0 0 1
33.792890 18.653694 9.144926 39.667989 0.504378 1.338167 0.047455 -0.001933 888758.000000 0 0 1
32.913790 19.743494 8.828426 39.383552 0.540313 1.344710 0.040934 -0.000054 556848.000000 0 0 1
31.494610 19.517894 8.246526 37.958712 0.554795 1.351800 0.021084 -0.002638 -41184.300000 0 0 1
30.843660 20.798194 8.189826 38.091593 0.593276 1.354101 0.014514 -0.011691 1319290.000000 0 0 1
29.452200 20.756494 7.744726 36.854374 0.613908 1.359074 -0.001743 -0.012715 1596400.000000 0 0 1
29.229490 20.348894 6.278326 36.164318 0.608155 1.396307 -0.017400 0.005065 -911017.000000 0 0 1
29.631950 19.003694 5.894826 35.692321 0.570252 1.404879 -0.008646 -0.000429 105478.000000 0 0 1
29.305200 18.540494 4.590326 34.980219 0.564095 1.439190 -0.006852 0.003051 592487.000000 0 0 1
27.829240 18.792494 4.122426 33.832215 0.593941 1.448644 0.012257 0.008181 961661.000000 0 0 1
26.727770 18.227194 4.858126 32.713998 0.598514 1.421742 0.010020 0.004402 1104830.000000 0 0 1
25.405870 18.607994 4.557126 31.819539 0.632160 1.427084 0.046136 -0.001531 166797.000000 0 0 1
24.967570 19.988894 5.106326 32.388423 0.675103 1.412477 0.072730 -0.005440 -819626.000000 0 0 1
25.624670 21.084294 4.540026 33.493029 0.688497 1.434826 0.050743 -0.005992 -69403.100000 0 0 1
25.093870 22.308694 4.953026 33.939837 0.726710 1.424338 0.074303 -0.003897 -153497.000000 0 0 1
25.996470 23.571894 4.762326 35.413703 0.736523 1.435911 0.053519 -0.001767 -410896.000000 0 0 1
27.100470 23.559294 5.608526 36.344619 0.715611 1.415862 0.035682 -0.008202 -714192.000000 0 0 1
27.829530 24.741194 5.417226 37.629187 0.726719 1.426331 0.039885 -0.005791 8239.390000 0 0 1
29.301450 24.548394 5.939426 38.684304 0.697361 1.416651 0.030873 -0.011496 442027.000000 0 0 1
30.037240 23.508094 5.272626 38.505413 0.664060 1.433433 0.027317 -0.010660 238828.000000 0 0 1
30.251290 23.497194 3.819526 38.494771 0.660392 1.471411 0.033751 -0.016814 -72667.400000 0 0 1
31.230710 24.616594 3.329626 39.905141 0.667515 1.487261 0.051792 -0.027806 -124845.000000 0 0 1
30.593020 25.824694 3.464226 40.185178 0.701080 1.484483 0.045859 -0.024664 -226750.000000 0 0 1
31.254820 26.799394 2.687726 41.258879 0.708802 1.505607 0.077973 -0.024367 -210977.000000 0 0 1
30.593400 28.216394 2.719226 41.707495 0.745002 1.505553 0.078902 -0.019601 1408170.000000 0 0 1
29.335950 28.464594 2.034226 40.926386 0.770324 1.521071 0.107722 -0.022744 2055050.000000 0 0 1
28.156820 28.012294 2.765826 39.813878 0.782825 1.501271 0.084929 -0.012140 395242.000000 0 0 1
26.852670 28.640694 2.311626 39.328092 0.817608 1.511984 0.046401 -0.000202 -537035.000000 0 0 1
26.722570 30.064594 2.565926 40.305824 0.844182 1.507092 0.051019 -0.013327 600822.000000 0 0 1
25.379170 30.497194 2.311826 39.743246 0.876739 1.512594 0.045520 -0.001317 676674.000000 0 0 1
25.079070 31.895894 2.884326 40.677108 0.904478 1.499829 0.051532 -0.014198 -399432.000000 0 0 1
25.074570 31.945694 4.331226 40.841412 0.905323 1.464547 0.036667 -0.029304 167432.000000 0 0 1
26.328370 31.737894 4.968526 41.535084 0.878291 1.450887 0.048745 -0.033134 -19436.600000 0 0 1
26.293670 31.676394 6.549626 41.685112 0.877986 1.413021 0.055031 -0.039658 -352649.000000 0 0 1
25.791870 30.490294 7.146526 40.570326 0.868685 1.393721 0.055887 -0.044352 106360.000000 0 0 1
26.537970 29.284894 6.910226 40.120070 0.834566 1.397695 0.056220 -0.044184 131849.000000 0 0 1
25.867370 27.969194 7.404726 38.810135 0.824419 1.378826 0.065402 -0.036644 -331531.000000 0 0 1
24.736470 27.640194 6.656126 37.685239 0.840781 1.393241 0.049426 -0.036032 -337465.000000 0 0 1
24.225370 26.382894 6.970926 36.489991 0.828004 1.378578 0.053452 -0.022727 4085.130000 0 0 1
22.815970 26.118794 6.363526 35.259812 0.852790 1.389327 0.062945 -0.009226 280338.000000 0 0 1
22.853070 25.924094 4.927226 34.908437 0.848275 1.429176 0.046779 -0.010714 210364.000000 0 0 1
22.928870 27.137094 4.168526 35.770540 0.869255 1.453996 0.048199 -0.008452 -277858.000000 0 0 1
23.004770 26.985394 2.621726 35.557057 0.864859 1.496996 0.043566 0.003741 640466.000000 0 0 1
24.105170 26.113294 2.250426 35.609377 0.825365 1.507557 0.039960 0.013663 810567.000000 0 0 1
24.100270 25.908694 0.849926 35.394996 0.821544 1.546781 0.058082 0.011727 10194.200000 0 0 1
25.328770 25.183694 0.221826 35.718541 0.782526 1.564586 0.059366 0.006255 -154427.000000 0 0 1
26.481670 26.011694 0.196226 37.120419 0.776445 1.565510 0.043856 0.004205 454817.000000 0 0 1
27.555070 25.604094 -0.633974 37.619854 0.748714 1.587649 0.045194 0.012043 412375.000000 0 0 1
28.457750 24.449194 -0.153874 37.518399 0.709776 1.574898 0.044647 0.002952 -674155.000000 0 0 1
27.815910 23.205994 -0.220574 36.225566 0.695291 1.576885 0.048717 0.001925 407141.000000 0 0 1
28.576350 22.208494 0.471126 36.194570 0.660660 1.557779 0.054531 -0.005649 -61641.100000 0 0 1
27.711030 21.168494 1.181526 34.891292 0.652339 1.536927 0.037435 0.000224 21175.900000 0 0 1
26.977070 20.319394 0.316526 33.774846 0.645552 1.561425 0.047402 -0.012562 824744.000000 0 0 1
25.751770 19.848694 0.875826 32.525242 0.656662 1.543865 0.048857 -0.007735 98016.500000 0 0 1
25.048070 18.881494 -0.090374 31.367575 0.645935 1.573677 0.053740 -0.018979 -192965.000000 0 0 1
23.796070 18.402394 0.391826 30.084124 0.658271 1.557772 0.058259 -0.016061 271055.000000 0 0 1
23.364070 17.389694 -0.445974 29.128681 0.639838 1.586107 0.075981 -0.033515 116261.000000 0 0 1
21.827770 17.157894 -0.306974 27.765790 0.666182 1.581852 0.073163 -0.021436 -136510.000000 0 0 1
21.353870 16.124994 -1.129074 26.782046 0.646778 1.612967 0.078989 -0.022272 1276820.000000 0 0 1
19.966970 15.755494 -0.929474 25.451510 0.668046 1.607324 0.078313 -0.019281 1551910.000000 0 0 1
18.864870 16.742294 -1.449974 25.264404 0.725858 1.628220 0.081534 -0.023766 -319676.000000 0 0 1
18.535370 17.759694 -0.560274 25.676459 0.764030 1.592619 0.078046 -0.024067 18243.800000 0 0 1
17.394570 18.503294 -0.896574 25.411548 0.816274 1.606086 0.063805 -0.030765 -296832.000000 0 0 1
17.523170 19.942694 -0.463874 26.551604 0.849888 1.588268 0.071057 -0.025274 -60445.300000 0 0 1
17.392070 20.192794 0.911926 26.665795 0.859778 1.536591 0.089645 -0.020970 18500.700000 0 0 1
17.598470 21.570894 1.238026 27.866508 0.886469 1.526355 0.090842 -0.020237 -53359.500000 0 0 1
16.487470 22.599894 0.880626 27.988700 0.940520 1.539328 0.079777 -0.025094 -5597.740000 0 0 1
15.241070 22.245494 1.454426 27.004954 0.970120 1.516913 0.074101 -0.024338 -140067.000000 0 0 1
14.256070 23.065494 0.872726 27.129581 1.017197 1.538622 0.054588 -0.021368 -748438.000000 0 0 1
12.863570 22.864894 1.436826 26.274308 1.058338 1.516083 0.047678 -0.022334 -517372.000000 0 0 1
12.764270 23.421994 2.783726 26.819125 1.071824 1.466813 0.046552 -0.007687 544848.000000 0 0 1
11.420270 23.249794 3.239826 26.105017 1.114214 1.446368 0.032729 -0.007937 693512.000000 0 0 1
11.298770 23.835694 4.661826 26.786846 1.128142 1.395871 0.035470 -0.006484 355513.000000 0 0 1
12.042470 23.065994 5.665226 26.629982 1.089635 1.356419 0.037429 -0.017239 1045690.000000 0 0 1
11.240870 22.859194 6.859726 26.380973 1.113775 1.307748 0.040901 -0.009148 105502.000000 0 0 1
11.884470 21.855394 7.837126 26.082933 1.072743 1.265611 0.048938 -0.005047 -174296.000000 0 0 1
13.086270 22.241094 8.437326 27.149681 1.038963 1.254793 0.062712 -0.002599 510.882000 0 0 1
14.229170 21.678194 7.788626 27.075377 0.989948 1.279009 0.070711 -0.009848 559849.000000 0 0 1
15.508070 21.729994 8.694626 28.076491 0.950954 1.255944 0.088154 -0.016076 380314.000000 0 0 1
15.410970 20.745494 9.745426 27.619682 0.931881 1.210188 0.095312 -0.020027 892098.000000 0 0 1
16.705770 20.280894 10.175426 28.176882 0.881759 1.201320 0.098416 -0.027811 830943.000000 0 0 1
17.233370 20.974694 11.459626 29.466079 0.883007 1.171349 0.081917 -0.034083 -366072.000000 0 0 1
16.728570 20.509194 12.661426 29.339117 0.886578 1.124581 0.086714 -0.028227 -264911.000000 0 0 1
16.981270 21.370594 13.735126 30.556824 0.899351 1.104597 0.067113 -0.017260 -620729.000000 0 0 1
18.194770 20.966794 14.588626 31.360550 0.856065 1.086947 0.048253 -0.015726 565004.000000 0 0 1
19.432370 21.462394 14.020126 32.168545 0.834998 1.119832 0.059589 -0.011515 391894.000000 0 0 1
20.454670 21.039094 14.913726 32.915896 0.799482 1.100572 0.050246 -0.007890 -180184.000000 0 0 1
21.873570 21.468594 14.524626 33.916343 0.776055 1.128243 0.053406 -0.008746 -264960.000000 0 0 1
22.345470 20.888394 13.317926 33.361837 0.751709 1.160156 0.066136 -0.012570 748779.000000 0 0 1
23.752070 21.137094 13.157726 34.410221 0.727210 1.178427 0.048567 -0.007467 530627.000000 0 0 1
24.250970 20.711294 11.789626 34.000919 0.706835 1.216698 0.056695 -0.013231 68095.700000 0 0 1
23.823370 21.578694 10.715326 33.882313 0.735998 1.249021 0.074265 -0.021025 658379.000000 0 0 1
24.772970 21.376994 9.679126 34.122740 0.711945 1.283192 0.073977 -0.022517 -170829.000000 0 0 1
24.572870 22.404594 8.509626 34.324998 0.739275 1.320271 0.069845 -0.015600 205272.000000 0 0 1
25.045870 23.715394 8.872526 35.615126 0.758119 1.319022 0.059165 -0.020266 920488.000000 0 0 1
26.470270 23.845894 8.998026 36.745970 0.733288 1.323410 0.041037 -0.014906 455634.000000 0 0 1
26.935970 25.252294 9.552226 38.137512 0.753148 1.317633 0.064236 -0.014864 -857805.000000 0 0 1
28.156990 25.699994 9.090726 39.191160 0.739809 1.336706 0.054114 -0.013016 -715652.000000 0 0 1
28.701090 26.620094 10.044026 40.413666 0.747799 1.319634 0.064394 -0.023134 -271210.000000 0 0 1
30.035370 27.130594 9.519426 41.578985 0.734629 1.339799 0.060522 -0.022601 -455730.000000 0 0 1
29.813020 27.915894 8.361626 41.689687 0.752547 1.368858 0.075689 -0.029821 303102.000000 0 0 1
30.984130 28.024594 7.579826 42.459956 0.735286 1.391317 0.062656 -0.025545 -163369.000000 0 0 1
30.726540 28.951294 6.358226 42.693380 0.755660 1.421313 0.081360 -0.020703 229964.000000 0 0 1
30.490040 30.322994 6.711726 43.522106 0.782651 1.415964 0.088682 -0.028089 76628.700000 0 0 1
30.381340 31.140594 5.556426 43.859278 0.797739 1.443767 0.089261 -0.032559 22430.400000 0 0 1
30.382140 32.622294 5.918126 44.970131 0.820939 1.438812 0.060258 -0.027055 -458643.000000 0 0 1
29.320830 32.988694 6.723126 44.644881 0.844196 1.419630 0.055472 -0.032158 -717870.000000 0 0 1
29.326070 -34.062423 6.935126 45.479259 -0.859979 1.417709 0.051122 -0.023129 -381718.000000 0 0 1
27.955880 -33.512423 7.325026 44.252342 -0.875550 1.404502 0.068009 -0.029005 109673.000000 0 0 1
26.969070 -33.743623 6.297526 43.653427 -0.896522 1.426029 0.057348 -0.028415 460515.000000 0 0 1
25.780370 -33.032623 6.648326 42.426194 -0.908089 1.413444 0.049160 -0.032186 553023.000000 0 0 1
24.606770 -33.127923 5.647526 41.651494 -0.931932 1.434787 0.038150 -0.025209 -29048.100000 0 0 1
24.895570 -32.391123 4.449826 41.094710 -0.915502 1.462301 0.030349 -0.010151 -381922.000000 0 0 1
23.937970 -32.540123 3.463326 40.544798 -0.936546 1.485272 0.033853 -0.019496 -558294.000000 0 0 1
24.414670 -31.937823 2.086126 40.254845 -0.918115 1.518950 0.038029 -0.008895 174880.000000 0 0 1
24.559270 -30.514523 2.247426 39.234485 -0.893112 1.513483 0.048375 -0.004679 -18797.400000 0 0 1
25.227370 -29.971823 1.109126 39.191332 -0.871139 1.542492 0.044132 -0.002565 -415975.000000 0 0 1
25.357670 -28.487123 1.408926 38.164285 -0.843453 1.533871 0.052600 -0.004601 70426.400000 0 0 1
24.228970 -27.632523 1.297726 36.773406 -0.850932 1.535499 0.046074 -0.003901 -321193.000000 0 0 1
23.715270 -27.485923 0.000826 36.302755 -0.858909 1.570774 0.038185 -0.005978 -331069.000000 0 0 1
22.473670 -26.571423 -0.092174 34.801076 -0.868755 1.573445 0.034531 -0.009008 -66758.300000 0 0 1
22.699770 -25.170423 0.000026 33.894391 -0.836964 1.570796 0.035610 -0.008340 -212819.000000 0 0 1
22.860570 -24.685423 1.342826 33.671634 -0.823760 1.530906 0.028750 0.000286 478931.000000 0 0 1
21.511270 -24.500423 2.105526 32.671680 -0.850272 1.506307 0.032187 0.001153 490118.000000 0 0 1
21.665670 -23.666723 3.259526 32.251194 -0.829511 1.469557 0.023590 -0.000785 387403.000000 0 0 1
20.403270 -23.477623 3.915126 31.349967 -0.855345 1.445585 0.028620 0.005025 557010.000000 0 0 1
20.474070 -22.524723 5.171026 30.875398 -0.833053 1.402523 0.029380 0.006442 -44231.800000 0 0 1
20.617170 -21.144423 5.013026 29.954712 -0.798023 1.402652 0.041477 0.002346 56379.800000 0 0 1
19.437670 -20.469423 4.642826 28.607274 -0.811246 1.407780 0.032360 0.003115 -349440.000000 0 0 1
19.470870 -19.003923 5.067726 27.675724 -0.773262 1.386646 0.037397 0.000705 135115.000000 0 0 1
19.175070 -18.831323 6.443726 27.637359 -0.776354 1.335478 0.053180 -0.008197 -405615.000000 0 0 1
17.835470 -18.860523 6.847226 26.846002 -0.813325 1.312891 0.045730 -0.002078 -367260.000000 0 0 1
19.465365 -26.244486 -11.660774 34.693618 -0.932633 1.913577 0.053197 -0.004918 93227.300000 0 0 1
19.443365 -24.924106 -12.173374 33.873980 -0.908306 1.938392 0.064557 -0.006061 377689.000000 0 0 1
18.176865 -24.711906 -12.812474 33.245093 -0.936607 1.966432 0.052556 -0.002309 655825.000000 0 0 1
18.117165 -23.305206 -13.362474 32.402469 -0.909997 1.995873 0.051693 -0.014370 -26899.500000 0 0 1
17.988365 -22.213906 -12.427874 31.168750 -0.890121 1.980926 0.063350 -0.014981 429425.000000 0 0 1
19.193965 -21.838706 -11.730774 31.352008 -0.849764 1.954291 0.051488 -0.017219 201978.000000 0 0 1
19.308965 -22.335406 -10.239774 31.249951 -0.857944 1.904636 0.059717 -0.002901 366502.000000 0 0 1
18.418565 -21.743506 -9.280374 29.969133 -0.867998 1.885636 0.058981 -0.009907 1223410.000000 0 0 1
17.037565 -22.161206 -9.372174 29.482797 -0.915371 1.894296 0.070668 0.001765 743827.000000 0 0 1
16.193265 -21.412206 -8.307374 28.101901 -0.923299 1.870897 0.063283 -0.010283 -706330.000000 0 0 1
16.137565 -20.004006 -8.379774 27.033347 -0.891973 1.885967 0.057069 -0.020858 -51521.400000 0 0 1
15.159365 -19.464706 -7.544674 25.799287 -0.909109 1.867571 0.058773 -0.026932 956062.000000 0 0 1
13.673965 -19.533506 -8.108474 25.184966 -0.960053 1.898592 0.055252 -0.016168 910958.000000 0 0 1
13.080565 -20.739006 -7.581674 25.664944 -1.008092 1.870681 0.050478 -0.016085 500985.000000 0 0 1
11.695765 -20.825906 -7.949774 25.173561 -1.059093 1.892094 0.051309 -0.021255 754045.000000 0 0 1
11.027065 -22.208106 -7.714174 25.967376 -1.109926 1.872421 0.055825 -0.017099 80525.200000 0 0 1
11.147165 -22.519506 -6.374174 25.923301 -1.111156 1.819230 0.065038 -0.024630 508045.000000 0 0 1
10.292065 -23.613306 -6.061774 26.462425 -1.159764 1.801920 0.058051 -0.023815 476806.000000 0 0 1
10.840665 -24.146906 -4.680974 26.879446 -1.148819 1.745836 0.064499 -0.026177 555785.000000 0 0 1
10.122865 -25.292976 -4.220774 27.568496 -1.190097 1.724502 0.071029 -0.022657 601698.000000 0 0 1
10.846265 -25.878156 -3.123374 28.232533 -1.173910 1.681654 0.060962 -0.023940 207207.000000 0 0 1
9.878665 -26.847796 -2.457874 28.712947 -1.218220 1.656503 0.069911 -0.022670 -92064.300000 0 0 1
8.874265 -26.244196 -1.722074 27.757449 -1.244724 1.632876 0.057788 -0.016590 -396164.000000 0 0 1
8.040365 -27.208446 -1.052574 28.391107 -1.283464 1.607879 0.052204 -0.019162 303866.000000 0 0 1
7.382165 -26.607256 0.200726 27.613090 -1.300154 1.563527 0.053563 -0.012204 -394445.000000 0 0 1
6.167165 -25.969476 -0.049474 26.691760 -1.337638 1.572650 0.058363 -0.021598 -581936.000000 0 0 1
5.546765 -25.450656 1.115626 26.071961 -1.356210 1.527993 0.061341 -0.017129 89457.100000 0 0 1
4.072665 -25.008106 1.020326 25.358096 -1.409360 1.530549 0.047498 -0.022980 -55287.300000 0 0 1
3.178765 -26.062386 0.764126 26.266641 -1.449428 1.541701 0.045451 -0.021046 -1561760.000000 0 0 1
1.934065 -25.481986 0.826126 25.568628 -1.495042 1.538481 0.033539 -0.016745 -432541.000000 0 0 1
0.756965 -26.365026 0.227726 26.376874 -1.542093 1.562163 0.030782 -0.012756 908019.000000 0 0 1
0.317165 -27.423716 1.078026 27.446729 -1.559232 1.531509 0.030241 -0.009629 -199873.000000 0 0 1
1.156565 -28.541816 0.964226 28.581509 -1.530297 1.537054 0.020245 -0.017289 -35078.600000 0 0 1
0.555365 -29.795396 1.694726 29.848721 -1.552159 1.513989 0.043908 -0.007877 324676.000000 0 0 1
0.752765 -29.695926 3.114626 29.868304 -1.545453 1.466328 0.045404 -0.007699 -284161.000000 0 0 1
0.131865 -30.718426 3.807526 30.953778 -1.566504 1.447477 0.050304 -0.009109 -270987.000000 0 0 1
0.303965 -30.698416 5.282626 31.151104 -1.560895 1.400392 0.052991 -0.006185 -980900.000000 0 0 1
1.642065 -30.767426 5.599926 31.315972 -1.517477 1.391009 0.044643 0.003100 -1239090.000000 0 0 1
1.906865 -30.710206 6.961026 31.546930 -1.508784 1.348309 0.047635 -0.005618 -247328.000000 0 0 1
3.338465 -30.953536 7.447426 32.011419 -1.463358 1.335996 0.050360 -0.003186 -47356.700000 0 0 1
3.726265 -32.295296 7.076326 33.270792 -1.455923 1.356470 0.051641 -0.005366 243366.000000 0 0 1
4.976165 -32.669106 7.661526 33.922437 -1.419638 1.342976 0.030799 -0.005690 656286.000000 0 0 1
5.212365 34.177638 7.604326 35.399229 1.419454 1.354293 0.038510 0.002141 93292.100000 0 0 1
5.203965 33.613469 6.316126 34.595375 1.417198 1.387195 0.030872 -0.000832 -43485.100000 0 0 1
5.014065 32.205441 6.118626 33.162763 1.416346 1.385230 0.034206 -0.002352 -402120.000000 0 0 1
5.075065 31.818891 4.668426 32.557523 1.412630 1.426910 0.038761 -0.007890 276905.000000 0 0 1
6.376865 31.881801 4.119726 32.773247 1.373386 1.444759 0.045280 -0.006039 256992.000000 0 0 1
7.180365 30.709351 4.381426 31.840520 1.341106 1.432753 0.029772 -0.005354 513552.000000 0 0 1
8.627765 30.776121 3.781526 32.185522 1.297473 1.453033 0.016806 -0.005844 114742.000000 0 0 1
9.541465 31.418131 4.614126 33.157633 1.275955 1.431186 0.016047 -0.014130 -255370.000000 0 0 1
10.727665 31.626171 3.832526 33.615260 1.243773 1.456536 0.020950 -0.018129 217251.000000 0 0 1
11.918565 32.096061 4.671026 34.554707 1.215238 1.435204 0.035971 -0.030730 -178174.000000 0 0 1
12.479365 31.094941 5.518826 33.957139 1.189143 1.407549 0.036377 -0.023218 -230808.000000 0 0 1
13.449365 31.594071 6.406026 34.930043 1.168339 1.386357 0.069001 -0.028726 74979.800000 0 0 1
14.081765 30.550741 7.347526 34.432978 1.138890 1.355757 0.056003 -0.022512 -219875.000000 0 0 1
13.321365 30.250191 8.472026 34.121958 1.155977 1.319885 0.036556 -0.015831 -332893.000000 0 0 1
13.955165 29.249541 9.217926 33.693507 1.125630 1.293682 0.022705 -0.012223 -207735.000000 0 0 1
13.770265 29.189681 10.740926 34.015072 1.130002 1.249529 0.028443 -0.004843 93282.800000 0 0 1
14.466965 30.294571 11.363626 35.442715 1.125275 1.244413 0.039464 -0.012395 263544.000000 0 0 1
14.191065 30.473811 12.748326 35.952180 1.134979 1.208320 0.026434 -0.003199 -140535.000000 0 0 1
15.015765 31.514191 13.554426 37.447828 1.126144 1.200432 0.034206 -0.001474 -236674.000000 0 0 1
16.200865 31.003511 14.082326 37.709383 1.089272 1.188078 0.033840 -0.001872 -526320.000000 0 0 1
16.660565 31.866011 15.085826 38.994861 1.089051 1.173565 0.041946 -0.002575 -783166.000000 0 0 1
17.768765 31.288271 15.937926 39.353556 1.054310 1.153825 0.024620 -0.001666 1189950.000000 0 0 1
18.959365 30.922261 15.123526 39.298406 1.020778 1.175764 0.036664 -0.001995 1375750.000000 0 0 1
19.117265 29.512431 15.126726 38.278861 0.995990 1.164541 0.025168 -0.001404 -716818.000000 0 0 1
20.520465 29.061261 14.785126 38.525917 0.955981 1.176920 0.039977 -0.014154 -736301.000000 0 0 1
21.559665 29.352381 15.677826 39.650670 0.937282 1.164294 0.057544 -0.014069 -722083.000000 0 0 1
22.779165 29.155921 15.044026 39.940966 0.907570 1.184612 0.063388 -0.019619 -1209560.000000 0 0 1
23.999865 29.370661 15.900226 41.127198 0.885693 1.173842 0.097422 -0.032770 -761419.000000 0 0 1
24.329165 28.180731 16.600126 40.763047 0.858616 1.151372 0.084448 -0.019070 -502193.000000 0 0 1
25.327665 28.474661 17.521626 41.944061 0.843823 1.139842 0.097139 -0.034484 -862874.000000 0 0 1
26.162265 27.228371 17.894826 41.786039 0.805364 1.128242 0.074123 -0.024454 -664261.000000 0 0 1
25.621565 26.111971 18.504526 40.996549 0.794877 1.102499 0.062006 -0.010997 -480798.000000 0 0 1
25.416365 26.153361 19.916026 41.552833 0.799688 1.070946 0.092626 -0.018352 221523.000000 0 0 1
24.848765 24.770451 20.447026 40.609324 0.783820 1.043145 0.084233 -0.012633 155552.000000 0 0 1
25.777665 23.732981 20.376126 40.533059 0.744124 1.044073 0.059180 -0.010441 -128263.000000 0 0 1
25.131465 22.518011 20.628126 39.549600 0.730606 1.022099 0.052923 -0.006290 -408019.000000 0 0 1
25.991665 21.304111 20.390826 39.309255 0.686609 1.025433 0.030255 -0.008572 -777163.000000 0 0 1
25.327865 20.092011 20.362226 38.207458 0.670628 1.008727 0.024693 0.015626 423124.000000 0 0 1
26.250765 18.976311 20.269926 38.210900 0.625921 1.011636 0.029404 0.000517 726212.000000 0 0 1
26.984365 18.499411 21.539226 39.170427 0.600969 0.988570 0.041290 0.011242 -117675.000000 0 0 1
26.083665 17.903611 22.475626 38.807868 0.601534 0.953109 0.018729 0.022829 473429.000000 0 0 1
26.679565 17.562111 23.736526 39.795095 0.582161 0.931702 0.038330 0.029205 545187.000000 0 0 1
25.677565 16.797711 24.709326 39.396081 0.579307 0.892840 0.029794 0.030697 607652.000000 0 0 1
25.433465 15.402411 24.380926 38.451592 0.544524 0.883994 0.031984 0.019934 274310.000000 0 0 1
24.239765 14.973311 24.992826 37.899968 0.553345 0.850720 0.025173 0.019563 -341480.000000 0 0 1
23.782865 13.628511 24.444326 36.727184 0.520359 0.842546 0.029188 0.017299 -215401.000000 0 0 1
22.547065 13.177211 24.936126 36.108439 0.528893 0.808492 0.015631 0.009386 -55997.600000 0 0 1
21.983565 12.223711 24.062226 34.809294 0.507468 0.807567 0.018651 0.010398 279848.000000 0 0 1
20.663365 11.528611 24.472526 34.040976 0.508907 0.768558 0.024318 0.007429 127494.000000 0 0 1
19.525065 12.340111 24.610026 33.751442 0.563627 0.753710 0.028617 0.002309 -785809.000000 0 0 1
18.392765 11.524411 24.682526 32.868418 0.559730 0.721297 0.042254 0.004168 -199025.000000 0 0 1
17.160365 12.477011 24.827126 32.657925 0.628672 0.707149 0.045328 -0.013933 23109.000000 0 0 1
16.973965 12.969511 26.144526 33.761812 0.652453 0.685059 0.050046 -0.001369 -317939.000000 0 0 1
15.842065 13.767311 26.239426 33.600853 0.715442 0.674666 0.062269 -0.013064 -541006.000000 0 0 1
15.553765 14.309311 27.607626 34.768621 0.743750 0.653372 0.055795 0.005354 -27917.200000 0 0 1
15.121965 13.290411 28.517626 34.907934 0.721024 0.614714 0.054404 0.010251 43402.600000 0 0 1
15.281465 13.556811 29.908326 36.219031 0.725665 0.599243 0.048040 0.013566 -180168.000000 0 0 1
16.675865 13.184311 30.462526 37.146682 0.668997 0.609280 0.052348 0.003810 -76992.900000 0 0 1
17.616465 14.161111 30.100526 37.641979 0.677088 0.644079 0.062846 -0.014608 -291074.000000 0 0 1
18.927065 13.643111 30.006026 38.009602 0.624566 0.660912 0.061973 0.000441 -250517.000000 0 0 1
19.873765 14.758411 29.518826 38.524515 0.638753 0.697835 0.059933 -0.002194 -611287.000000 0 0 1
19.731565 15.364611 28.245826 37.725755 0.661606 0.724675 0.052976 -0.006459 132476.000000 0 0 1
20.034665 14.551311 27.120426 36.723915 0.628164 0.739961 0.042431 -0.001028 -320357.000000 0 0 1
19.895665 15.354911 25.860626 36.060820 0.657290 0.771108 0.029785 -0.005079 35976.900000 0 0 1
21.003965 16.204711 25.657826 36.906412 0.657124 0.802080 0.028439 0.002659 304333.000000 0 0 1
20.750465 16.849011 24.433126 36.213928 0.682005 0.830254 0.012356 -0.000659 322308.000000 0 0 1
21.918665 17.802911 24.011426 37.066428 0.682152 0.866111 0.019854 0.009553 194205.000000 0 0 1
21.732365 18.526811 22.802626 36.544468 0.705943 0.896984 0.015533 0.002914 -222016.000000 0 0 1
22.822565 19.375111 22.530126 37.468266 0.703881 0.925654 0.028291 0.002594 -88739.100000 0 0 1
22.807365 20.713411 23.352026 38.659260 0.737321 0.922226 0.044033 -0.009922 -141443.000000 0 0 1
21.843065 21.638711 22.917926 38.348202 0.780698 0.930258 0.045642 -0.002343 30228.900000 0 0 1
22.012365 22.850511 23.630726 39.561360 0.804078 0.930643 0.074010 -0.008112 -367106.000000 0 0 1
21.128565 23.961501 23.170026 39.464159 0.848144 0.943305 0.071359 -0.018414 -183029.000000 0 0 1
21.678365 24.770721 22.101326 39.648565 0.851875 0.979508 0.085293 -0.017953 810354.000000 0 0 1
20.610465 25.590581 21.581826 39.312139 0.892776 0.989645 0.075300 -0.022068 280294.000000 0 0 1
20.991265 26.533361 20.432626 39.523975 0.901489 1.027491 0.077810 -0.021875 -348036.000000 0 0 1
21.082465 25.919141 19.172226 38.520727 0.887942 1.049838 0.057854 -0.012145 -200388.000000 0 0 1
21.569765 26.681501 18.149126 38.814276 0.890944 1.084235 0.064124 -0.015736 -291396.000000 0 0 1
21.655365 25.925501 16.747626 37.703705 0.874903 1.110526 0.046969 -0.008639 424284.000000 0 0 1
20.415065 25.519671 16.162326 36.458870 0.896071 1.111516 0.028906 -0.004202 265152.000000 0 0 1
20.745665 25.137761 14.837326 35.811113 0.880830 1.143599 0.029592 -0.001258 173989.000000 0 0 1
19.473365 24.699791 14.040026 34.444360 0.903167 1.150956 0.045744 -0.006587 1023660.000000 0 0 1
18.418765 25.618881 13.799126 34.438261 0.947463 1.158525 0.044848 -0.000659 66430.200000 0 0 1
17.727665 26.181421 14.904026 34.955212 0.975600 1.130315 0.039586 -0.007242 -1413360.000000 0 0 1
16.253665 26.375371 14.527226 34.218154 1.018518 1.132334 0.041002 -0.006905 -905518.000000 0 0 1
15.550465 25.255931 14.179126 32.874406 1.018901 1.124850 0.047781 -0.004288 -487929.000000 0 0 1
15.233965 24.230181 15.150126 32.383663 1.009527 1.083960 0.060865 -0.015114 -88608.200000 0 0 1
14.100865 24.592001 16.151426 32.626208 1.050171 1.052910 0.079885 -0.021127 89499.500000 0 0 1
14.476765 25.715461 16.951826 34.032720 1.058058 1.049386 0.056799 -0.021701 -298.638000 0 0 1
13.451365 26.032531 17.851526 34.311934 1.093867 1.023627 0.054578 -0.011364 -59396.000000 0 0 1
13.792665 27.314591 18.647926 35.833917 1.103192 1.023478 0.050573 -0.022746 -181771.000000 0 0 1
13.888265 28.462411 17.840226 36.349228 1.116834 1.057788 0.045403 -0.010443 48898.700000 0 0 1
14.065165 29.592071 18.594126 37.673081 1.127102 1.054612 0.038949 -0.005865 -272506.000000 0 0 1
13.987065 30.925181 17.820526 38.335048 1.146042 1.087317 0.022470 -0.013851 100633.000000 0 0 1
12.686265 31.407841 17.550726 38.149990 1.186915 1.092750 0.027108 -0.009367 146035.000000 0 0 1
12.872965 32.804581 17.189426 39.208801 1.196847 1.116970 0.023447 -0.004640 102898.000000 0 0 1
11.584265 33.608144 17.414426 39.584905 1.238863 1.115280 0.032689 -0.009021 -297176.000000 0 0 1
11.525665 -33.526516 16.733226 39.202922 -1.239676 1.129805 0.029367 -0.009463 49041.200000 0 0 1
12.440965 -32.475956 17.089526 38.749416 -1.204959 1.114054 0.029092 -0.013640 127362.000000 0 0 1
12.266065 -31.985116 18.607426 38.983847 -1.204601 1.073204 0.036412 -0.021741 -224255.000000 0 0 1
13.067865 -32.874766 19.308026 40.302844 -1.192443 1.071197 0.046091 -0.018616 -125463.000000 0 0 1
12.830465 -32.754456 20.672826 40.802463 -1.197451 1.039494 0.038684 -0.016868 -307809.000000 0 0 1
13.955665 -33.295136 21.575226 42.057307 -1.173891 1.032125 0.054282 -0.012437 474826.000000 0 0 1
15.162765 -32.528286 21.456526 41.813650 -1.134601 1.031950 0.057122 -0.013152 -364674.000000 0 0 1
16.112365 -32.889356 22.356826 42.908574 -1.115265 1.022734 0.057668 -0.005121 -266203.000000 0 0 1
17.510565 -32.232246 22.162226 42.856760 -1.073141 1.027310 0.076666 -0.012347 618122.000000 0 0 1
17.434265 -30.859356 22.355126 41.904715 -1.056541 1.008092 0.077974 -0.016862 -808499.000000 0 0 1
18.691565 -30.354016 22.141026 41.963865 -1.018851 1.014998 0.085865 -0.016141 -1028020.000000 0 0 1
-5.379835 13.306094 18.522361 23.432299 -1.186577 0.659232 0.029731 0.005163 -623260.000000 0 1 0
-4.848335 14.387294 17.822661 23.412557 -1.245761 0.705567 0.026135 -0.006542 277913.000000 0 1 0
-5.949835 15.155794 17.378161 23.813843 -1.196704 0.752840 0.016941 0.001765 268622.000000 0 1 0
-5.521335 16.641594 17.265361 24.607326 -1.250445 0.793107 0.030466 -0.007200 56500.500000 0 1 0
-5.227335 17.272094 18.524361 25.861211 -1.276913 0.772312 0.041585 -0.000032 228413.000000 0 0 1
-5.004035 18.652394 18.429361 26.694447 -1.308690 0.808780 0.050468 -0.001326 -462400.000000 0 0 1
-4.334335 19.238594 19.689961 27.867625 -1.349202 0.786181 0.052100 -0.004572 -383741.000000 0 0 1
-5.204535 19.491494 20.741361 28.934574 -1.309868 0.771542 0.049549 -0.002552 -325847.000000 0 0 1
-4.604135 20.332894 21.663561 30.065504 -1.348114 0.766208 0.053009 0.000390 -68962.000000 0 0 1
-5.580035 20.638994 22.809861 31.263311 -1.306746 0.753052 0.025674 0.005040 59339.300000 0 0 1
-5.719435 19.524294 23.689921 31.226949 -1.285830 0.709578 0.018499 -0.000617 -70755.700000 0 0 1
-6.384535 19.825694 24.912981 32.472713 -1.259250 0.696336 0.010352 -0.004491 379291.000000 0 0 1
-5.438835 20.345094 26.053091 33.500259 -1.309576 0.679800 0.006114 0.002453 -29033.100000 0 0 1
-5.005435 21.634294 25.697431 33.962553 -1.343431 0.712637 0.022695 -0.007249 187006.000000 0 0 1
-3.833835 22.142394 26.304451 34.596359 -1.399352 0.706984 0.025888 0.003469 -64030.600000 0 0 1
-2.447435 21.668994 25.907001 33.863076 -1.458327 0.699675 0.024432 0.007407 -907815.000000 0 0 1
-2.001535 20.499894 26.494011 33.558671 -1.473468 0.660830 0.036890 0.011300 -377801.000000 0 0 1
-0.884735 19.978394 25.834241 32.669971 -1.526541 0.658740 0.032554 0.011875 -152893.000000 0 0 1
-0.218735 18.795094 26.605721 32.575571 -1.559159 0.615061 0.038223 0.016134 -364962.000000 0 0 1
-0.855835 17.558094 26.355741 31.680344 -1.522092 0.588224 0.051811 0.014686 -204140.000000 0 0 1
-0.186235 16.414194 26.843411 31.464729 -1.559451 0.548846 0.049448 0.012358 140190.000000 0 0 1
1.229865 16.191194 26.239751 30.857606 1.494983 0.554147 0.066618 0.006827 -429900.000000 0 0 1
1.308665 15.959794 24.850331 29.562926 1.488982 0.572423 0.058745 -0.002180 -274546.000000 0 0 1
0.679065 14.780694 24.357771 28.499668 1.524886 0.545884 0.071705 -0.008015 -29769.000000 0 0 1
0.858065 14.668194 22.865361 27.179347 1.512365 0.571155 0.087468 -0.026713 10199.000000 0 0 1
2.156665 14.306894 22.463961 26.720179 1.421180 0.572200 0.083462 -0.033363 -405221.000000 0 0 1
2.176865 13.750294 21.165261 25.333330 1.413785 0.581807 0.071674 -0.029885 -210378.000000 0 0 1
3.634765 13.418794 20.834061 25.046630 1.306273 0.588434 0.052366 -0.031059 59348.500000 0 0 1
4.380965 14.533794 20.384761 25.415792 1.278025 0.640075 0.057183 -0.025844 605645.000000 0 0 1
5.790665 14.293294 20.279261 25.477019 1.185874 0.650167 0.043952 -0.021087 512584.000000 0 0 1
6.553865 15.368994 19.563361 25.727110 1.167712 0.706840 0.057217 -0.030309 -552378.000000 0 0 1
6.233065 15.418194 18.161661 24.625550 1.186617 0.741416 0.051057 -0.030771 275448.000000 0 1 0
6.817465 16.545994 17.523361 25.046276 1.179961 0.795904 0.040241 -0.016596 4869.880000 0 0 1
6.566765 16.438694 15.998261 23.859954 1.190747 0.835905 0.038051 -0.006661 376485.000000 0 1 0
7.455765 15.601194 15.239161 23.048161 1.124987 0.848395 0.032797 0.000529 259920.000000 0 1 0
7.529065 14.234194 15.667061 22.466773 1.084264 0.799112 0.036652 -0.011812 363430.000000 0 1 0
8.561765 13.326394 14.886961 21.737484 0.999735 0.816396 0.027278 -0.016358 1364560.000000 0 1 0
9.970765 13.489094 15.068861 22.548667 0.934261 0.838900 0.022431 -0.014015 668515.000000 0 1 0
10.743365 12.653894 14.255061 21.880303 0.866874 0.861234 0.017908 -0.007936 147877.000000 0 1 0
12.212765 13.103494 14.110361 22.802532 0.820568 0.903574 0.032232 -0.014712 -264239.000000 0 1 0
13.006065 13.002994 15.294461 23.919785 0.785280 0.877070 0.038442 -0.017199 1145050.000000 0 1 0
14.308465 13.610994 15.250161 24.951127 0.760422 0.913219 0.043737 -0.012008 688536.000000 0 1 0
15.389265 12.901894 14.453261 24.742374 0.697703 0.946964 0.041960 -0.015903 -1777120.000000 0 1 0
16.643665 13.479194 14.526761 25.879085 0.680730 0.974802 0.056381 -0.022035 -392038.000000 0 0 1
17.494265 12.736394 13.675861 25.598715 0.629293 1.007188 0.059480 -0.026833 -111680.000000 0 0 1
18.943465 13.239994 13.466461 26.748792 0.610002 1.043219 0.062238 -0.029417 251587.000000 0 0 1
19.803165 12.987494 14.563261 27.801599 0.580462 1.019457 0.042983 -0.022201 992590.000000 0 0 1
21.171765 13.323494 14.269961 28.799147 0.561689 1.052387 0.061828 -0.031278 606945.000000 0 0 1
22.070965 13.151794 15.479061 29.994974 0.537390 1.028557 0.056386 -0.020181 -597076.000000 0 0 1
22.265265 11.809694 15.959661 29.831555 0.487678 1.006297 0.060935 -0.016857 -42319.200000 0 0 1
23.188565 11.884094 16.997161 31.110203 0.473596 0.992792 0.039645 -0.014050 -477315.000000 0 0 1
23.818665 10.502694 17.259861 31.233606 0.415297 0.985309 0.061263 -0.007143 24896.200000 0 0 1
22.952165 9.629094 18.011261 30.723392 0.397227 0.944387 0.029385 -0.006896 978479.000000 0 0 1
22.409565 8.478494 17.296961 29.550944 0.361698 0.945513 0.037718 0.006743 -47100.400000 0 0 1
21.397265 7.649694 18.089461 29.044610 0.343348 0.898459 0.051842 0.000468 -225421.000000 0 0 1
21.240165 6.343294 17.603461 28.306604 0.290214 0.899648 0.056306 -0.004602 1257180.000000 0 0 1
20.076165 5.727294 18.224161 27.712350 0.277897 0.853143 0.055304 -0.002270 759485.000000 0 0 1
19.815465 4.350194 17.656761 26.894945 0.216107 0.854616 0.069041 -0.003464 -724856.000000 0 0 1
19.374665 4.375694 16.323061 25.709272 0.222120 0.882905 0.083825 -0.014677 399719.000000 0 0 1
19.168665 3.072594 15.756861 25.003144 0.158940 0.888992 0.070243 -0.016125 73369.700000 0 0 1
18.191765 2.060394 16.437261 24.604249 0.112779 0.839190 0.075714 -0.010371 -155604.000000 0 1 0
18.681865 1.449594 17.613261 25.716539 0.077438 0.816330 0.078208 -0.018542 -524707.000000 0 0 1
17.602765 1.085994 18.391861 25.481312 0.061616 0.764428 0.063568 -0.019499 -962156.000000 0 0 1
17.945565 0.179094 19.610361 26.582732 0.009979 0.741123 0.069098 -0.028999 22317.200000 0 0 1
18.250365 -1.199506 19.305561 26.593596 -0.065631 0.758385 0.067940 -0.028075 -2751.110000 0 0 1
17.193265 -2.028806 19.723361 26.243769 -0.117457 0.720396 0.049884 -0.014462 -275467.000000 0 0 1
17.355565 -3.505806 19.261061 26.162851 -0.199317 0.743360 0.026750 -0.010105 -333150.000000 0 0 1
17.102365 -3.602606 17.895861 25.014626 -0.207614 0.773577 0.030256 -0.022630 199920.000000 0 0 1
17.105265 -4.962506 17.447861 24.932798 -0.282364 0.795685 0.052018 -0.020682 -236282.000000 0 1 0
16.741765 -5.113006 15.972661 23.697161 -0.296407 0.831142 0.041624 -0.019983 -121212.000000 0 1 0
15.437065 -4.656906 15.671061 22.484926 -0.292989 0.799649 0.023893 -0.015162 167716.000000 0 1 0
15.153765 -4.597606 14.269861 21.316742 -0.294570 0.837368 0.025658 -0.019736 232921.000000 0 1 0
15.775465 -3.446406 13.478761 21.033783 -0.215087 0.875237 0.034295 -0.012771 -260091.000000 0 1 0
14.897865 -2.356206 13.614961 20.319086 -0.156858 0.836510 0.023042 -0.009976 202556.000000 0 1 0
15.379365 -1.187106 13.022661 20.187218 -0.077036 0.869650 0.026887 -0.009744 -380224.000000 0 1 0
14.461365 -0.020306 13.370161 19.694992 -0.001404 0.824586 0.025499 -0.002141 -840683.000000 0 1 0
14.789765 1.300694 12.878261 19.653970 0.087720 0.856283 0.032280 -0.001170 -245386.000000 0 1 0
15.948265 1.912794 13.373561 20.901150 0.119367 0.876496 0.056752 -0.013371 -386368.000000 0 1 0
16.147665 3.433194 12.904661 20.953858 0.209493 0.907318 0.055062 -0.012876 165428.000000 0 1 0
15.092065 4.312194 13.288761 20.565909 0.278310 0.868261 0.052025 -0.004605 727023.000000 0 1 0
15.249065 5.451194 12.482361 20.446487 0.343320 0.914118 0.062354 -0.012972 482895.000000 0 1 0
14.071865 6.437494 12.765761 20.060493 0.429051 0.881022 0.049109 -0.015370 266942.000000 0 1 0
14.321365 7.593094 11.974661 20.153140 0.487510 0.934546 0.045250 -0.022139 616531.000000 0 1 0
13.322765 8.565194 12.238661 20.016079 0.571367 0.912915 0.029452 -0.014088 -286987.000000 0 1 0
13.536265 9.327294 13.569161 21.315511 0.603346 0.880733 0.039644 -0.019495 -114133.000000 0 1 0
13.335665 8.608894 14.770461 21.682240 0.573243 0.821363 0.054245 -0.022638 484246.000000 0 1 0
13.693565 9.481394 15.853161 22.994201 0.605606 0.810078 0.056509 -0.025819 -237017.000000 0 1 0
13.388765 9.106494 17.328861 23.716591 0.597286 0.751502 0.061958 -0.022060 729888.000000 0 1 0
11.996265 9.376594 17.608161 23.278278 0.663437 0.712974 0.052917 -0.024455 925863.000000 0 1 0
11.505165 8.833094 18.789261 23.736653 0.654765 0.657420 0.060104 -0.010586 -317432.000000 0 1 0
12.101065 9.271994 20.147761 25.265350 0.653797 0.647745 0.080222 -0.012023 889559.000000 0 0 1
13.482865 8.825594 20.253461 25.882068 0.579587 0.672079 0.087111 -0.018030 1164230.000000 0 0 1
14.004465 9.239894 21.513861 27.282722 0.583221 0.662344 0.078677 0.003372 -466221.000000 0 0 1
15.499065 8.948394 21.629861 28.073932 0.523599 0.691233 0.074875 -0.003740 -139297.000000 0 0 1
16.297165 9.834194 20.853461 28.234302 0.542938 0.739826 0.085504 0.000268 88527.900000 0 0 1
17.153365 9.232594 19.931861 27.870375 0.493768 0.773939 0.065795 -0.011047 -270465.000000 0 0 1
17.979665 10.136594 19.023261 28.069616 0.513362 0.826143 0.068034 -0.011827 -46717.600000 0 0 1
18.859865 10.960594 19.758361 29.431649 0.526451 0.834794 0.050338 -0.009932 -220116.000000 0 0 1
19.776165 11.623694 18.942261 29.749222 0.531373 0.880545 0.043523 -0.008281 -418300.000000 0 0 1
20.688365 12.436394 19.885961 31.274970 0.541250 0.881696 0.033544 -0.002894 -506705.000000 0 0 1
20.179765 13.706894 20.304461 31.739140 0.596656 0.876650 0.025548 -0.005460 338870.000000 0 0 1
20.912465 14.420494 21.311661 33.158238 0.603688 0.872745 0.004220 0.005468 489849.000000 0 0 1
22.297665 15.067694 21.020561 34.147990 0.594266 0.907684 0.003863 0.011904 1036350.000000 0 0 1
23.370365 14.143394 20.781361 34.323090 0.544223 0.920449 0.001492 0.013415 166194.000000 0 0 1
24.613165 14.807594 20.750961 35.435506 0.541605 0.945179 0.017902 0.009671 -187787.000000 0 0 1
25.762865 13.775394 20.744061 35.830193 0.491020 0.953350 0.027013 -0.001218 -267223.000000 0 0 1
26.016965 13.224294 19.455861 35.075560 0.470262 0.982813 0.035601 -0.021205 325865.000000 0 0 1
27.016065 12.216094 19.445761 35.457557 0.424664 0.990318 0.054143 -0.035146 129883.000000 0 0 1
27.305265 11.548494 18.090661 34.730638 0.400125 1.022909 0.068073 -0.038697 -678651.000000 0 0 1
28.077965 12.304294 17.242561 35.172058 0.413014 1.058437 0.077503 -0.047892 -65784.000000 0 0 1
28.297065 11.709694 15.952061 34.529828 0.392357 1.090571 0.082396 -0.049035 9678.830000 0 0 1
27.084065 11.568794 14.978861 33.041638 0.403685 1.100295 0.070010 -0.046102 170623.000000 0 0 1
26.651165 12.737194 14.276961 32.807809 0.445830 1.120570 0.080606 -0.043382 -79095.200000 0 0 1
25.537065 12.382494 13.517161 31.435354 0.451481 1.126305 0.079687 -0.036767 -296724.000000 0 0 1
24.957365 13.485894 12.576861 31.030901 0.495410 1.153488 0.065959 -0.032184 -162896.000000 0 0 1
24.449665 14.618094 13.225661 31.406892 0.538863 1.136131 0.064001 -0.029970 251197.000000 0 0 1
24.348865 15.686894 12.341861 31.484399 0.572326 1.167993 0.046044 -0.014028 -789206.000000 0 0 1
23.460865 16.878294 12.692061 31.565446 0.623643 1.157001 0.048398 -0.011765 359336.000000 0 0 1
22.138965 16.830294 12.157961 30.351418 0.650004 1.158654 0.075364 -0.044812 424220.000000 0 0 1
21.314465 17.763494 12.780561 30.548173 0.694778 1.139142 0.069980 -0.030111 127507.000000 0 0 1
20.155565 18.372894 11.870161 29.744087 0.739162 1.160287 0.085484 -0.020570 1539280.000000 0 0 1
19.083765 17.463594 11.517361 28.316370 0.741096 1.151915 0.102749 -0.025849 647827.000000 0 0 1
18.086265 17.419594 12.516661 28.057477 0.766624 1.108385 0.077254 -0.014756 -1510110.000000 0 0 1
16.759265 16.876794 12.097261 26.684131 0.788892 1.100276 0.084928 -0.010025 -1080270.000000 0 0 1
16.757865 15.523694 11.758561 25.691922 0.747185 1.095417 0.080709 -0.012191 188462.000000 0 0 1
15.538565 15.283694 11.092961 24.455921 0.777129 1.100007 0.073219 -0.008402 51536.700000 0 1 0
15.565165 13.994594 10.233361 23.299028 0.732316 1.116068 0.067958 -0.016949 -103540.000000 0 1 0
15.654765 12.804994 10.996161 23.020753 0.685597 1.072804 0.048684 -0.011294 475381.000000 0 1 0
16.182965 11.813994 10.127861 22.450665 0.630595 1.102781 0.050688 -0.014259 -155858.000000 0 1 0
16.645365 10.574494 10.938961 22.551030 0.565959 1.064346 0.062193 -0.018760 -624742.000000 0 1 0
17.265365 9.559594 10.208861 22.219350 0.505669 1.093411 0.055238 -0.018036 321417.000000 0 1 0
17.652665 8.395494 10.905561 22.383747 0.443933 1.061906 0.049482 -0.013511 941084.000000 0 1 0
19.005165 8.567694 11.710961 23.911258 0.423526 1.058973 0.064983 -0.021042 599736.000000 0 1 0
18.777765 9.251094 12.944061 24.611702 0.457760 1.016987 0.066925 -0.027274 475483.000000 0 1 0
20.006365 9.278994 13.642261 25.931942 0.434272 1.016812 0.082244 -0.023843 -633544.000000 0 0 1
19.746165 9.767294 15.094661 26.705053 0.459352 0.970077 0.072689 -0.010370 369206.000000 0 0 1
18.977365 8.900294 15.982961 26.359261 0.438538 0.919333 0.065094 -0.009253 2481590.000000 0 0 1
17.606165 8.631894 15.542761 25.021272 0.455839 0.900546 0.071397 -0.023112 1030400.000000 0 0 1
16.833865 7.408194 16.086461 24.434291 0.414571 0.852164 0.059638 -0.007549 -609310.000000 0 1 0
16.377465 7.425394 17.391361 25.016340 0.425670 0.802098 0.088137 -0.014502 315093.000000 0 0 1
15.844265 6.157594 17.850761 24.649673 0.370668 0.760954 0.084970 0.009771 100437.000000 0 1 0
14.638865 5.467294 17.180961 23.224407 0.357436 0.738052 0.089672 -0.016417 -609585.000000 0 1 0
14.285165 4.283994 17.758561 23.190193 0.291357 0.698545 0.098624 -0.003444 -184884.000000 0 1 0
13.586565 3.601994 16.771761 21.882895 0.259153 0.697528 0.074453 -0.002582 -417478.000000 0 1 0
13.428065 2.132594 17.130461 21.870381 0.157501 0.670884 0.059442 -0.002536 -18277.800000 0 1 0
14.612265 1.346894 17.190761 22.602094 0.091916 0.706586 0.041611 -0.002206 59998.300000 0 1 0
14.466865 -0.076706 17.013461 22.332799 -0.005302 0.704686 0.039819 0.000685 -130325.000000 0 1 0
13.531665 -0.960906 17.900161 22.459855 -0.070893 0.648510 0.046631 -0.006104 857239.000000 0 1 0
12.133865 -0.761306 17.707961 21.479808 -0.062660 0.601654 0.043599 -0.002564 123463.000000 0 1 0
11.383665 -1.553606 18.568161 21.835250 -0.135639 0.554098 0.034533 -0.012850 -96097.300000 0 1 0
-25.441115 14.318094 28.190201 40.582578 -0.512612 0.802880 0.080963 -0.029229 -506978.000000 0 0 1
-25.238015 13.918494 29.539641 41.270720 -0.503986 0.773095 0.069407 -0.022401 201287.000000 0 0 1
-24.715235 12.647694 29.604571 40.586176 -0.472993 0.753315 0.068703 -0.018252 -63882.000000 0 0 1
-23.343235 12.552894 30.340481 40.286804 -0.493392 0.718016 0.044431 -0.017884 342816.000000 0 0 1
-23.532835 12.940594 31.691571 41.540450 -0.502763 0.702996 0.046444 -0.027292 -235502.000000 0 0 1
-22.382035 12.670094 32.433625 41.393560 -0.515107 0.670449 0.021188 -0.006331 -532714.000000 0 0 1
-22.462435 13.109094 33.946974 42.764546 -0.528274 0.653746 0.013813 0.007392 138550.000000 0 0 1
-23.255535 12.249294 -33.660924 42.707411 -0.484799 2.478635 0.017167 -0.001012 152293.000000 0 0 1
-23.260735 12.647894 -32.275364 41.746019 -0.498028 2.454568 -0.009092 0.007369 101164.000000 0 0 1
-24.153735 11.755194 -31.343724 41.279735 -0.452937 2.433034 -0.006969 -0.007654 -142468.000000 0 0 1
-23.652735 10.547994 -30.818344 40.255216 -0.419483 2.442729 0.003365 -0.007057 -28611.600000 0 0 1
-23.747035 9.407594 -31.639474 40.663015 -0.377190 2.462415 0.008024 -0.011061 -152930.000000 0 0 1
-23.143035 8.177694 -30.915734 39.474769 -0.339660 2.470555 0.016564 -0.005607 -184701.000000 0 0 1
-23.876635 7.635794 -29.862434 38.989281 -0.309523 2.443258 0.022117 -0.004100 -155752.000000 0 0 1
-23.076435 6.811494 -29.059524 37.727632 -0.287021 2.450022 0.031698 -0.006654 -359834.000000 0 0 1
-23.798535 6.095594 -27.901364 37.175431 -0.250743 2.419664 0.036445 -0.011445 59983.800000 0 0 1
-24.432835 4.881594 -28.419804 37.795220 -0.197200 2.421799 0.042492 -0.018303 283037.000000 0 0 1
-24.582235 3.892894 -27.437824 37.044232 -0.157058 2.404874 0.063258 -0.016949 -462739.000000 0 0 1
-25.210955 2.566794 -27.910204 37.698278 -0.101463 2.404398 0.049741 -0.015113 602798.000000 0 0 1
-26.534165 2.493994 -28.434324 38.971691 -0.093716 2.388555 0.047727 -0.013862 533257.000000 0 0 1
-26.860665 3.303894 -29.574434 40.088130 -0.122386 2.400506 0.033316 -0.011639 -622825.000000 0 0 1
-28.250215 2.980094 -30.191154 41.454329 -0.105101 2.386633 0.038414 -0.019296 -72483.100000 0 0 1
-29.284435 3.573694 -29.469304 41.698793 -0.121433 2.355645 0.027535 -0.012459 -648643.000000 0 0 1
-30.571635 3.428794 -30.001584 42.970648 -0.111689 2.343659 0.037583 -0.022515 208064.000000 0 0 1
-31.112805 4.722494 -30.654364 43.931750 -0.150636 2.343079 0.049778 -0.031346 -247273.000000 0 0 1
-30.227985 5.083494 -31.706754 44.100921 -0.166613 2.373100 0.053781 -0.028289 74531.300000 0 0 1
-30.380165 6.296094 -32.375514 44.841601 -0.204351 2.377481 0.060744 -0.029276 -780773.000000 0 0 1
-29.843115 7.562394 -31.661074 44.161351 -0.248181 2.370200 0.045331 -0.021481 213907.000000 0 0 1
-28.426145 7.615694 -31.490764 43.101192 -0.261764 2.390032 0.026045 -0.020482 811845.000000 0 0 1
-27.882515 6.973594 -30.327414 41.782983 -0.245079 2.383039 0.020148 -0.023590 -430351.000000 0 0 1
-28.002325 7.860694 -29.059644 41.114275 -0.273672 2.355763 0.012989 -0.015604 1123140.000000 0 0 1
-29.331075 8.130494 -28.519734 41.710816 -0.270408 2.323684 0.021101 -0.022237 1275080.000000 0 0 1
-29.860085 7.107894 -27.714824 41.355270 -0.233691 2.305226 0.017464 -0.010262 198575.000000 0 0 1
-31.177205 7.573194 -27.006504 41.937127 -0.238293 2.270480 0.002803 -0.002995 412724.000000 0 0 1
-30.967005 8.575094 -26.020174 41.346549 -0.270142 2.251473 -0.005735 0.001125 -150451.000000 0 0 1
-30.896525 8.051894 -24.720574 40.379884 -0.254938 2.229637 0.002974 0.001512 -13987.700000 0 0 1
-30.402335 9.048094 -23.617074 39.546633 -0.289264 2.210796 0.011580 0.000628 370507.000000 0 0 1
-31.370015 10.010694 -23.111274 40.229626 -0.308901 2.182770 0.017565 0.004066 827493.000000 0 0 1
-30.776125 10.979894 -22.212074 39.510811 -0.342690 2.167812 0.016211 0.002640 -313273.000000 0 0 1
-31.785395 11.902794 -21.541974 40.200056 -0.358309 2.136333 0.012547 -0.000613 -393798.000000 0 0 1
-32.336925 11.320694 -20.378774 39.863884 -0.336751 2.107387 0.023818 -0.001993 131706.000000 0 0 1
-32.934205 12.214994 -19.496374 40.174327 -0.355163 2.077496 0.017419 -0.002028 39817.500000 0 0 1
-31.879065 12.999594 -18.619274 39.140026 -0.387194 2.066567 0.022853 -0.005758 769806.000000 0 0 1
-31.130305 12.263394 -17.599274 37.805042 -0.375269 2.055026 0.052904 -0.007133 887790.000000 0 0 1
-31.918865 11.702894 -16.561874 37.816231 -0.351426 2.024121 0.052255 -0.007692 -208373.000000 0 0 1
-32.581845 12.584394 -15.476274 38.202862 -0.368588 1.987893 0.032431 -0.002303 100764.000000 0 0 1
-33.398875 13.572594 -16.109274 39.486819 -0.385993 1.991021 0.021419 -0.003404 58008.300000 0 0 1
-34.090247 14.368494 -15.216574 40.001784 -0.398889 1.961022 0.006434 -0.002603 -264466.000000 0 0 1
-34.800355 15.573794 -15.854074 41.291155 -0.420788 1.964876 -0.001164 -0.001034 -6355.480000 0 0 1
-35.874269 15.309194 -16.726274 42.439402 -0.403348 1.975908 0.008969 -0.008709 160093.000000 0 0 1
-36.346135 16.511194 -17.183974 43.462053 -0.426405 1.977277 0.020379 -0.014101 -574986.000000 0 0 1
35.848850 16.533494 -18.689974 43.678502 0.432129 2.012963 0.027181 -0.017602 114127.000000 0 0 1
34.795710 15.673694 -19.018374 42.639238 0.423227 2.033121 0.056902 -0.021104 -903332.000000 0 0 1
33.540790 16.146494 -18.745774 41.678506 0.448656 2.037305 0.111362 -0.035426 -1214920.000000 0 0 1
32.394070 15.144494 -19.059774 40.521678 0.437318 2.060495 0.126532 -0.042497 -9837.460000 0 0 1
32.032070 14.859094 -20.405874 40.782911 0.434338 2.094803 0.121699 -0.038600 467862.000000 0 0 1
31.133060 13.757694 -20.604574 39.788063 0.416097 2.115142 0.091602 -0.034138 272968.000000 0 0 1
31.602340 12.283694 -20.223074 39.478725 0.370723 2.108602 0.075020 -0.011562 -77318.400000 0 0 1
31.668250 12.135794 -18.797374 38.774950 0.365955 2.076910 0.078244 -0.012352 108846.000000 0 0 1
32.083300 10.817494 -18.520274 38.592186 0.325199 2.071334 0.047602 -0.008492 -180055.000000 0 0 1
32.369010 10.617994 -17.031074 38.086114 0.316970 2.034398 0.042696 0.001023 -251698.000000 0 0 1
31.259810 10.149394 -16.315374 36.693014 0.313941 2.031574 0.054223 -0.004577 12102.900000 0 0 1
31.550930 10.219994 -14.922974 36.367631 0.313255 1.993620 0.024631 -0.001079 -218386.000000 0 0 1
30.796870 11.356094 -14.239374 35.779433 0.353273 1.980106 0.048782 -0.007534 -611764.000000 0 0 1
29.437050 11.063794 -14.075574 34.453871 0.359512 1.991644 0.064643 -0.004171 -200407.000000 0 0 1
28.829940 12.027594 -13.208874 33.916114 0.395238 1.970838 0.081350 -0.009204 -25098.300000 0 0 1
27.290470 12.060594 -13.267674 32.653619 0.416126 1.989214 0.088866 -0.007766 -533715.000000 0 0 1
26.740170 10.911294 -12.702974 31.550888 0.387426 1.985172 0.074715 -0.005033 486.258000 0 0 1
25.409370 10.607594 -13.071874 30.480010 0.395474 2.014035 0.087300 0.005334 -77951.400000 0 0 1
25.241770 9.953594 -14.481174 30.755899 0.375609 2.061041 0.074162 -0.008286 -504192.000000 0 0 1
25.725570 8.614894 -14.679174 30.846385 0.323139 2.066761 0.067947 -0.003272 292957.000000 0 0 1
27.108070 8.505094 -14.918774 32.089778 0.304021 2.054326 0.071430 -0.010782 -291938.000000 0 0 1
27.919410 7.606794 -13.972774 32.134019 0.265999 2.020644 0.069514 -0.013494 -316250.000000 0 0 1
27.644370 6.205894 -14.004274 31.604493 0.220829 2.029861 0.056673 -0.026998 1314220.000000 0 0 1
26.510470 5.796094 -13.173674 30.165301 0.215247 2.022741 0.066621 -0.022179 863812.000000 0 0 1
26.179470 4.260094 -13.135674 29.598293 0.161313 2.030629 0.076397 -0.026204 145792.000000 0 0 1
25.326370 3.913294 -12.024574 28.307759 0.153302 2.009515 0.070498 -0.030197 464554.000000 0 0 1
24.769170 2.657594 -12.298174 27.781642 0.106886 2.029373 0.070836 -0.031406 -310859.000000 0 0 1
24.027770 1.992494 -11.105274 26.544884 0.082735 2.002433 0.060577 -0.028721 278178.000000 0 0 1
24.837770 1.626194 -9.971874 26.814130 0.065379 1.951839 0.068436 -0.021643 1261860.000000 0 0 1
23.971970 1.469294 -8.847474 25.594764 0.061216 1.923755 0.070901 -0.010043 -12056.300000 0 0 1
24.895370 1.219294 -7.629574 26.066770 0.048938 1.867839 0.091898 -0.009892 -50085.800000 0 0 1
25.037970 -0.094206 -7.135574 26.035077 -0.003763 1.848424 0.073455 -0.017100 355911.000000 0 0 1
25.534270 -1.000306 -8.092674 26.804681 -0.039155 1.877495 0.065279 -0.020991 -689508.000000 0 0 1
25.779970 -2.469406 -7.632674 26.999306 -0.095496 1.857403 0.079677 -0.026115 -239450.000000 0 0 1
26.933370 -2.540906 -6.828174 27.901372 -0.094062 1.818033 0.085100 -0.031411 266961.000000 0 0 1
27.095570 -3.853006 -6.177574 28.056692 -0.141254 1.792797 0.098390 -0.041210 -199770.000000 0 0 1
28.375600 -3.876406 -5.319174 29.128934 -0.135770 1.754435 0.112216 -0.040964 -43639.500000 0 0 1
29.582190 -4.004206 -6.063674 30.461578 -0.134541 1.771195 0.093784 -0.030390 190641.000000 0 0 1
30.582790 -4.426806 -5.150874 31.327865 -0.143750 1.735965 0.094531 -0.037044 -612444.000000 0 0 1
31.832490 -4.778006 -5.947674 32.733951 -0.148986 1.753509 0.096229 -0.032586 -653787.000000 0 0 1
31.527610 -5.839606 -6.853374 32.788106 -0.183146 1.781369 0.092051 -0.022072 -58189.900000 0 0 1
32.360440 -5.877706 -7.971574 33.842155 -0.179674 1.808582 0.085752 -0.031221 -1014010.000000 0 0 1
31.726730 -6.737206 -9.070674 33.678665 -0.209243 1.843494 0.073692 -0.024837 801097.000000 0 0 1
30.468040 -6.279306 -9.579574 32.549952 -0.203249 1.869523 0.078998 -0.015458 415075.000000 0 0 1
29.392410 -6.660406 -8.790474 31.393426 -0.222840 1.854601 0.083380 -0.016229 -1873590.000000 0 0 1
28.036050 -6.033806 -8.981774 30.051608 -0.211983 1.874313 0.080448 -0.012834 -1735910.000000 0 0 1
27.393870 -6.267306 -10.163574 29.883130 -0.224914 1.917831 0.063169 -0.007479 -299316.000000 0 0 1
26.141770 -5.636706 -10.189974 28.618179 -0.212369 1.934851 0.070121 -0.012094 -103803.000000 0 0 1
24.964270 -6.482906 -9.674974 27.547195 -0.254075 1.929664 0.086667 -0.006496 -1189970.000000 0 0 1
25.018670 -6.637506 -8.256274 27.169033 -0.259328 1.879565 0.082253 -0.016381 992361.000000 0 0 1
23.790870 -7.215306 -7.782974 26.050735 -0.294464 1.874192 0.076170 -0.020050 156800.000000 0 0 1
22.712770 -6.197806 -7.341874 24.661424 -0.266392 1.873086 0.084943 -0.016620 -504830.000000 0 1 0
22.241870 -5.451706 -8.428574 24.402105 -0.240371 1.923465 0.081790 -0.016438 387072.000000 0 1 0
21.566070 -4.273106 -7.977274 23.387854 -0.195607 1.918868 0.058049 -0.020313 -81113.800000 0 1 0
21.436270 -3.174606 -9.089474 23.499156 -0.147026 1.967955 0.055398 -0.017227 -761202.000000 0 1 0
22.663270 -2.883306 -9.679674 24.811959 -0.126544 1.971560 0.057865 -0.016103 -44916.100000 0 1 0
22.589870 -1.962106 -10.826874 25.127142 -0.086640 2.016268 0.063793 -0.017925 36915.100000 0 0 1
23.820070 -2.037006 -11.782174 26.652668 -0.085309 2.028694 0.067798 -0.019003 490597.000000 0 0 1
24.999470 -1.496206 -11.213674 27.440091 -0.059778 1.991782 0.059214 -0.021335 111286.000000 0 0 1
26.133070 -1.609206 -12.009574 28.805498 -0.061500 2.000850 0.060070 -0.016468 -307200.000000 0 0 1
27.237470 -0.619306 -11.581374 29.603910 -0.022733 1.972743 0.063652 -0.011866 -131749.000000 0 0 1
28.487280 -0.761206 -12.243674 31.016320 -0.026715 1.976591 0.067050 -0.008445 998962.000000 0 0 1
29.440060 0.214594 -11.746374 31.697641 0.007289 1.950425 0.064991 -0.012653 543623.000000 0 0 1
29.386170 1.517094 -12.598174 32.008788 0.051580 1.975324 0.072501 -0.015034 -449543.000000 0 0 1
29.850450 1.298394 -13.893374 32.950888 0.043469 2.006048 0.066077 -0.014028 297721.000000 0 0 1
29.885880 2.504094 -14.614574 33.361985 0.083593 2.024237 0.062878 -0.018486 39616.900000 0 0 1
30.291650 2.279894 -16.105174 34.382533 0.075123 2.058288 0.055873 -0.005423 -530526.000000 0 0 1
29.223110 1.694994 -16.742574 33.722054 0.057937 2.090344 0.059158 -0.009564 -495699.000000 0 0 1
29.420810 1.688294 -18.182374 34.627057 0.057321 2.123619 0.037946 -0.008439 -463542.000000 0 0 1
28.350730 1.049694 -19.040474 34.167314 0.037008 2.161893 0.041604 -0.003895 -634174.000000 0 0 1
28.253750 -0.349706 -18.978874 34.038130 -0.012377 2.162260 0.049376 -0.003904 610380.000000 0 0 1
27.486670 -0.846806 -20.113074 34.070072 -0.030798 2.202282 0.028107 -0.006606 159058.000000 0 0 1
27.401770 -2.401806 -20.168574 34.108606 -0.087428 2.203472 0.035811 -0.007889 179642.000000 0 0 1
26.231570 -2.922506 -19.547174 32.843999 -0.110954 2.208251 0.048595 -0.007134 359834.000000 0 0 1
26.120870 -4.292406 -19.674774 32.982136 -0.162873 2.209965 0.048106 -0.008495 -363778.000000 0 0 1
26.951670 -5.156306 -18.732274 33.224661 -0.189033 2.169784 0.035033 -0.004164 -516781.000000 0 0 1
28.337850 -5.117606 -18.943774 34.468684 -0.178667 2.152674 0.025919 -0.004179 -265594.000000 0 0 1
28.972700 -5.663606 -17.783574 34.463738 -0.193046 2.112981 0.024460 0.005340 289065.000000 0 0 1
30.517420 -5.646106 -17.955674 35.855232 -0.182944 2.095299 0.032930 0.008141 68552.500000 0 0 1
31.034110 -6.449506 -18.985574 36.948127 -0.204903 2.110456 0.013858 0.007060 54427.800000 0 0 1
32.424860 -6.194406 -19.015974 38.096581 -0.188764 2.093416 0.028410 0.011005 -157571.000000 0 0 1
33.238770 -7.294006 -19.690374 39.315762 -0.216019 2.095350 0.019862 0.016201 -465303.000000 0 0 1
33.426830 -8.364906 -18.782174 39.244040 -0.245210 2.069855 0.014622 0.009548 -75277.900000 0 0 1
33.986060 -9.473706 -19.405374 40.266262 -0.271852 2.073648 0.012074 0.015229 -596922.000000 0 0 1
34.677240 -10.374406 -18.368074 40.589720 -0.290696 2.040397 0.025435 0.009108 -773213.000000 0 0 1
33.924110 -10.895406 -17.307174 39.611783 -0.310764 2.022968 0.012448 0.006569 -423412.000000 0 0 1
34.672050 -11.696806 -16.431674 40.111921 -0.325366 1.992862 0.037381 -0.013699 -200591.000000 0 0 1
35.770820 -11.039406 -15.524374 40.526858 -0.299341 1.963907 0.058936 -0.011360 -132695.000000 0 0 1
36.243100 -11.872506 -14.493174 40.799152 -0.316563 1.933959 0.054783 -0.017498 102956.000000 0 0 1
-35.907582 -13.149806 -14.688174 40.963573 0.351044 1.937528 0.059121 -0.018376 138626.000000 0 0 1
-34.434833 -13.033106 -15.239174 39.847861 0.361823 1.963225 0.077472 -0.025027 471688.000000 0 0 1
-34.395975 -12.572806 -16.592174 40.205209 0.350444 1.996199 0.071182 -0.012419 796914.000000 0 0 1
-33.010295 -12.648506 -16.984374 39.219042 0.365913 2.018686 0.099720 -0.018319 879908.000000 0 0 1
-32.634675 -11.792106 -18.208474 39.187043 0.346738 2.054042 0.102712 -0.013328 150283.000000 0 0 1
-32.722155 -10.416206 -17.866274 38.709696 0.308181 2.050533 0.099642 -0.012668 1189700.000000 0 0 1
-33.959535 -9.897506 -18.431874 39.886648 0.283594 2.051165 0.075504 -0.008211 883124.000000 0 0 1
-34.310951 -8.459306 -18.153374 39.728406 0.241727 2.045345 0.085194 -0.005946 652883.000000 0 0 1
-35.582341 -8.118806 -18.738374 41.026147 0.224329 2.045126 0.066725 -0.004322 853294.000000 0 0 1
-36.059535 -6.817806 -18.349874 41.030360 0.186865 2.034459 0.056049 -0.002944 -141107.000000 0 0 1
24.379565 27.153294 -27.095974 45.451692 0.839171 2.209492 0.015136 0.023764 128924.000000 0 0 1
25.104965 26.615594 -25.969304 44.867068 0.814597 2.188059 0.034950 0.006676 415936.000000 0 0 1
26.215765 25.885694 -26.473934 45.367440 0.779063 2.193883 0.029623 0.002958 -5494.720000 0 0 1
26.751565 24.847794 -25.379334 44.465376 0.748520 2.178235 0.041929 -0.006087 -449435.000000 0 0 1
27.399965 25.409094 -24.255674 44.550172 0.747717 2.146539 0.043207 0.002528 282142.000000 0 0 1
27.469065 24.485594 -23.214174 43.508524 0.728037 2.133594 0.052282 -0.001085 -92830.600000 0 0 1
28.159865 25.030094 -21.945074 43.601259 0.726625 2.098225 0.059545 -0.001014 158866.000000 0 0 1
27.427565 26.019294 -21.244574 43.365964 0.759055 2.082760 0.052083 0.003737 179661.000000 0 0 1
28.226765 26.530094 -20.187674 43.682242 0.754423 2.051213 0.037618 0.007870 -105407.000000 0 0 1
27.663265 27.719294 -19.459074 43.729521 0.786410 2.031956 0.051338 0.012589 -1175210.000000 0 0 1
26.681065 27.374194 -18.534174 42.482247 0.798220 2.022257 0.057781 0.010852 -541131.000000 0 0 1
25.881765 28.490794 -18.277674 42.610614 0.833346 2.014123 0.071277 0.006788 -343661.000000 0 0 1
24.686265 28.216094 -17.371774 41.319948 0.852023 2.004706 0.072219 0.000804 42135.700000 0 0 1
23.695665 27.342694 -17.913474 40.373258 0.856734 2.030516 0.066327 0.001294 315764.000000 0 0 1
22.469665 27.486094 -17.225874 39.460130 0.885480 2.022544 0.056810 0.000688 372875.000000 0 0 1
21.350465 26.500894 -17.645274 38.333998 0.892619 2.049133 0.049023 -0.005305 10118.700000 0 0 1
20.851765 26.717494 -18.950074 38.829446 0.908088 2.080632 0.047769 -0.004664 -384226.000000 0 0 1
19.963365 25.688094 -19.304674 37.829678 0.910148 2.106336 0.039134 -0.000003 -14930.100000 0 0 1
19.298565 25.997394 -20.659474 38.407199 0.932224 2.138748 0.021607 0.005404 680182.000000 0 0 1
18.270065 27.003594 -20.517774 38.522310 0.975963 2.132490 0.003860 0.006162 -228455.000000 0 0 1
17.325865 26.845794 -21.530174 38.528309 0.997672 2.163752 -0.005251 0.002562 -861784.000000 0 0 1
16.118865 27.745994 -21.378274 38.557600 1.044507 2.158499 -0.003189 0.005671 -569428.000000 0 0 1
15.643365 27.691894 -20.045974 37.595171 1.056580 2.133182 -0.000154 0.009579 -249646.000000 0 0 1
14.601365 28.593694 -19.740274 37.689224 1.098665 2.122060 -0.004835 0.006344 25189.100000 0 0 1
14.200265 28.553494 -18.247174 36.741106 1.109294 2.090522 -0.002994 0.009394 -426805.000000 0 0 1
13.468865 27.396494 -18.001374 35.440480 1.113869 2.103579 -0.001562 0.006567 -555903.000000 0 0 1
12.982265 27.422594 -16.696074 34.630864 1.128642 2.073864 0.019657 0.002579 -190698.000000 0 0 1
11.965565 26.316394 -16.383174 33.228537 1.144056 2.086383 0.024813 -0.001919 -40704.800000 0 0 1
12.624565 25.059894 -16.289174 32.445571 1.104133 2.096759 0.017914 -0.001334 292737.000000 0 0 1
11.693665 23.979594 -16.087974 31.154223 1.117077 2.113436 0.037458 -0.004813 360666.000000 0 0 1
12.447765 22.703394 -16.282174 30.585946 1.069276 2.132161 0.028166 -0.002712 75384.700000 0 0 1
13.023865 22.613794 -17.578774 31.464551 1.048267 2.163596 0.025152 0.001476 -428319.000000 0 0 1
13.993765 21.588794 -17.587074 31.164188 0.995691 2.170425 0.026316 0.005920 -388099.000000 0 0 1
13.548865 20.148694 -17.914174 30.173817 0.978805 2.206445 0.045881 0.002118 -88716.400000 0 0 1
12.898365 19.582594 -16.747874 28.815570 0.988354 2.191010 0.052780 -0.008450 111231.000000 0 0 1
12.469365 18.237494 -16.914374 27.824221 0.971079 2.224211 0.038078 -0.013751 159711.000000 0 0 1
13.585365 17.151894 -16.936674 27.669487 0.900914 2.229518 0.047244 -0.016082 77190.400000 0 0 1
14.117765 16.812394 -15.647474 26.959438 0.872299 2.190026 0.045364 -0.015698 -435900.000000 0 0 1
15.026865 15.789094 -15.765774 26.900962 0.810128 2.196993 0.049173 -0.014145 -1888200.000000 0 0 1
15.578865 15.361694 -14.445774 26.217609 0.778379 2.154353 0.082457 -0.007394 -1808800.000000 0 0 1
16.441265 16.275394 -13.816374 26.946165 0.780328 2.109169 0.049277 0.003386 791499.000000 0 0 1
17.755865 16.465994 -14.374474 28.160703 0.747725 2.106498 0.032692 0.011831 187346.000000 0 0 1
18.562865 15.135194 -14.488374 27.992267 0.684030 2.114822 0.025532 0.003724 -1868530.000000 0 0 1
18.813365 14.373994 -13.313074 27.162333 0.652421 2.083035 0.052481 -0.009644 121817.000000 0 0 1
19.703665 14.891394 -12.358174 27.617249 0.647182 2.034742 0.056009 -0.002258 7565.160000 0 0 1
20.706265 13.815694 -11.825074 27.558214 0.588388 2.014286 0.076702 -0.012415 136346.000000 0 0 1
20.035965 12.876594 -11.035174 26.249221 0.571208 2.004683 0.124493 -0.023653 790807.000000 0 0 1
20.954265 11.882894 -10.570674 26.306340 0.515867 1.984311 0.145103 -0.008620 216192.000000 0 0 1
20.717165 10.596294 -11.404474 25.914173 0.472785 2.026491 0.100011 -0.008512 -321851.000000 0 0 1
21.274765 10.610494 -12.701974 26.954375 0.462636 2.061492 0.080388 0.005510 249565.000000 0 0 1
21.024465 9.479094 -13.552374 26.749732 0.423569 2.102075 0.080221 0.001312 -129241.000000 0 0 1
21.858565 8.201894 -13.248274 26.843708 0.358968 2.086944 0.070248 0.016816 -203106.000000 0 0 1
21.528965 7.801594 -11.925574 25.818220 0.347658 2.050939 0.072947 -0.001517 437689.000000 0 0 1
22.287665 6.741394 -11.324874 25.892840 0.293723 2.023474 0.074171 0.018680 -726078.000000 0 0 1
22.165065 5.320694 -11.907874 25.717646 0.235591 2.052200 0.068239 0.001035 -507587.000000 0 0 1
20.921265 4.701194 -11.755274 24.453773 0.221037 2.072265 0.055740 -0.017258 80445.900000 0 1 0
19.931565 5.127994 -12.683874 24.175282 0.251819 2.123115 0.018498 -0.025966 -673708.000000 0 1 0
19.027165 3.986194 -13.061074 23.420384 0.206513 2.162384 0.026107 -0.037106 -697794.000000 0 1 0
19.733565 3.089794 -13.826874 24.292856 0.155315 2.176298 0.042028 -0.040257 162482.000000 0 1 0
19.062565 1.882694 -13.885274 23.658545 0.098445 2.198025 0.049366 -0.035779 -97576.400000 0 1 0
20.060065 0.805294 -14.443874 24.732169 0.040123 2.194458 0.071571 -0.030808 20063.500000 0 1 0
21.131365 0.477494 -13.560874 25.112942 0.022593 2.141228 0.080533 -0.026908 430410.000000 0 0 1
22.309965 0.253594 -14.321474 26.512326 0.011366 2.141449 0.060628 -0.033348 -948.922000 0 0 1
22.473265 -1.112906 -15.100874 27.098387 -0.049481 2.161880 0.058437 -0.020201 -847046.000000 0 0 1
21.452865 -1.363906 -16.033574 26.817180 -0.063491 2.211656 0.049794 -0.018532 186891.000000 0 0 1
21.910365 -2.345506 -16.979374 27.818422 -0.106644 2.227317 0.051168 -0.014869 514305.000000 0 0 1
20.711265 -2.914106 -17.796674 27.462158 -0.139784 2.275809 0.033243 -0.017128 155433.000000 0 0 1
19.864065 -3.808406 -17.136074 26.509056 -0.189425 2.273684 0.047297 -0.013607 143173.000000 0 0 1
19.063965 -4.561606 -18.037874 26.638466 -0.234863 2.314660 0.042360 -0.012830 32103.500000 0 0 1
18.291965 -5.638606 -17.310474 25.807796 -0.299014 2.306010 0.052529 -0.014618 211919.000000 0 0 1
19.280465 -6.597206 -16.892374 26.469071 -0.329683 2.262945 0.051947 -0.007433 1326990.000000 0 0 1
18.685765 -7.673006 -16.160374 25.868717 -0.389640 2.245553 0.065019 -0.008131 360308.000000 0 0 1
19.779565 -8.665106 -15.663574 26.677009 -0.412900 2.198338 0.084487 -0.005153 378679.000000 0 0 1
20.376465 -9.500806 -16.649774 27.976429 -0.436296 2.208231 0.074670 -0.004995 450074.000000 0 0 1
21.287465 -10.374806 -16.003274 28.581419 -0.453490 2.165084 0.066372 -0.006879 -331653.000000 0 0 1
21.887265 -11.442506 -16.902974 29.928144 -0.481715 2.170969 0.057880 -0.009283 30672.100000 0 0 1
22.934565 -10.956606 -17.752474 31.003093 -0.445676 2.180474 0.054169 -0.005270 306133.000000 0 0 1
23.369965 -12.042206 -18.628574 32.221014 -0.475801 2.187256 0.053001 -0.008850 -241459.000000 0 0 1
22.575365 -12.321806 -19.933174 32.539290 -0.499619 2.230127 0.051830 -0.009109 209399.000000 0 0 1
21.242865 -12.768206 -19.780874 31.710714 -0.541198 2.244381 0.055020 -0.007311 123491.000000 0 0 1
21.144465 -14.162106 -19.639674 32.146080 -0.590154 2.228057 0.046374 -0.001561 -1018720.000000 0 0 1
19.680465 -14.557606 -19.557274 31.332596 -0.636875 2.244882 0.049917 -0.006002 -885611.000000 0 0 1
19.108665 -14.400006 -20.798874 31.703224 -0.645792 2.286368 0.036704 -0.006614 -528640.000000 0 0 1
17.710465 -14.334806 -20.621774 30.731170 -0.680445 2.306404 0.055942 -0.009064 -1422.060000 0 0 1
16.956065 -13.519906 -21.710974 30.686518 -0.673123 2.356763 0.057056 -0.008151 43872.900000 0 0 1
17.039865 -14.114306 -22.994874 31.911359 -0.691767 2.375443 0.030354 -0.003113 239234.000000 0 0 1
16.457965 -13.228306 -23.938674 31.920413 -0.677031 2.418781 0.046872 -0.008481 72446.700000 0 0 1
16.497065 -13.956906 -25.324434 33.290769 -0.702181 2.435194 0.048067 -0.010533 -603221.000000 0 0 1
15.539065 -14.975706 -25.401794 33.331448 -0.766938 2.437342 0.053541 -0.018791 -98090.900000 0 0 1
15.632965 -15.857406 -26.556934 34.657144 -0.792525 2.443821 0.058131 -0.014647 -89713.900000 0 0 1
16.650265 -17.002006 -26.329704 35.490179 -0.795850 2.406677 0.038852 -0.016045 -611919.000000 0 0 1
17.995865 -16.729806 -26.492424 36.132895 -0.748955 2.393803 0.032571 -0.008077 -888211.000000 0 0 1
18.725765 -17.909806 -26.724174 37.223607 -0.763130 2.371629 0.036616 -0.010311 -984230.000000 0 0 1
20.213765 -17.735506 -26.800674 37.966045 -0.720186 2.354506 0.014857 -0.001409 -984872.000000 0 0 1
20.801465 -17.329606 -25.558524 37.232437 -0.694598 2.327404 0.016083 -0.004329 -877549.000000 0 0 1
22.148765 -17.030006 -25.735124 37.985333 -0.655483 2.315157 0.015966 0.001350 -600580.000000 0 0 1
22.704865 -16.427906 -24.419374 37.171129 -0.626351 2.287555 0.020519 -0.003756 15740.100000 0 0 1
22.429465 -15.057106 -24.207674 36.274079 -0.591210 2.301447 0.028099 -0.007109 -706788.000000 0 0 1
21.087265 -14.754306 -23.925474 35.139587 -0.610510 2.319746 0.040037 -0.005936 -182526.000000 0 0 1
20.829965 -13.389106 -23.289574 33.993527 -0.571284 2.325562 0.043603 -0.001075 -70771.500000 0 0 1
20.999665 -12.347206 -24.263374 34.382419 -0.531528 2.354195 0.048511 -0.004168 269612.000000 0 0 1
20.379665 -11.223906 -23.668974 33.189262 -0.503412 2.364780 0.060133 -0.005665 137455.000000 0 0 1
20.515065 -10.007906 -24.630974 33.581408 -0.453866 2.394210 0.070251 -0.010051 -210890.000000 0 0 1
19.960565 -8.911406 -24.011974 32.471714 -0.419898 2.403084 0.069101 -0.006949 -8457.590000 0 0 1
20.058665 -7.837606 -24.952674 32.960795 -0.372493 2.429569 0.055686 -0.005014 -94226.600000 0 0 1
19.775465 -6.489906 -24.277174 31.977634 -0.317105 2.432868 0.054408 -0.013666 119263.000000 0 0 1
18.478265 -6.429106 -23.692674 30.726576 -0.334828 2.451333 0.061513 -0.011865 186096.000000 0 0 1
18.292665 -5.393506 -22.666574 29.622374 -0.286721 2.442124 0.047416 -0.019255 79915.000000 0 0 1
19.008765 -5.727606 -21.323274 29.134526 -0.292662 2.391888 0.045450 -0.015942 -68399.400000 0 0 1
18.419565 -6.778506 -20.580174 28.438918 -0.352625 2.379891 0.048889 -0.012912 211062.000000 0 0 1
18.463065 -8.098906 -21.060374 29.155041 -0.413379 2.378002 0.056014 -0.010522 -203735.000000 0 0 1
17.894365 -9.125006 -20.064774 28.391357 -0.471566 2.355649 0.055186 -0.013170 -289952.000000 0 0 1
16.555765 -8.978706 -19.686374 27.244519 -0.496936 2.378325 0.062390 -0.014133 -662569.000000 0 0 1
16.140165 -10.227106 -19.235974 27.113121 -0.564791 2.359544 0.070542 -0.004282 -552094.000000 0 0 1
14.724165 -10.347506 -18.659674 25.924030 -0.612574 2.374286 0.068194 -0.004832 -358791.000000 0 0 1
14.436865 -9.798406 -17.376874 24.624938 -0.596292 2.354153 0.088448 -0.011514 89598.300000 0 1 0
14.403665 -8.352206 -17.403974 24.085747 -0.525484 2.378329 0.095905 -0.033765 326319.000000 0 1 0
13.110565 -7.655706 -16.827774 22.664305 -0.528523 2.407560 0.089747 -0.032509 198573.000000 0 1 0
11.967065 -7.698406 -17.610674 22.640935 -0.571650 2.461993 0.080031 -0.032957 -768615.000000 0 1 0
11.115365 -6.658206 -17.258874 21.581283 -0.539691 2.497617 0.064951 -0.034157 -633165.000000 0 1 0
9.644565 -6.820406 -17.630074 21.221571 -0.615526 2.551272 0.063449 -0.031634 -359897.000000 0 1 0
9.318565 -6.470606 -18.974074 22.107010 -0.606943 2.602711 0.056815 -0.041085 -761142.000000 0 1 0
7.927165 -6.361706 -19.022474 21.567702 -0.676276 2.650862 0.056302 -0.049461 -626265.000000 0 1 0
7.560765 -5.839406 -20.437174 22.559741 -0.657640 2.704328 0.065491 -0.055660 -26793.900000 0 1 0
7.419765 -6.856306 -21.379674 23.646401 -0.745950 2.700160 0.060854 -0.042528 167433.000000 0 1 0
6.799765 -6.376606 -22.599374 24.446464 -0.753294 2.750370 0.067506 -0.043880 78646.800000 0 1 0
6.722165 -7.399206 -23.769074 25.785745 -0.833306 2.743472 0.064157 -0.036627 -163666.000000 0 0 1
6.044065 -8.605706 -23.500474 25.746090 -0.958507 2.720832 0.064414 -0.038026 15338.800000 0 0 1
5.997865 -9.435606 -24.660274 27.076450 -1.004566 2.715928 0.061361 -0.020887 -184986.000000 0 0 1
5.440265 -10.888406 -24.426974 27.291591 -1.107438 2.679310 0.063301 -0.025394 428305.000000 0 0 1
6.195865 -11.783006 -23.614574 27.108598 -1.086698 2.628255 0.060247 -0.030828 142236.000000 0 0 1
5.363865 -12.924606 -23.440974 27.300105 -1.177416 2.603408 0.079390 -0.036920 -159958.000000 0 0 1
5.985365 -14.128406 -22.629174 27.340738 -1.170078 2.545744 0.098814 -0.027553 -351690.000000 0 0 1
6.895865 -14.958106 -23.356974 28.580520 -1.138823 2.527391 0.083303 -0.019903 385377.000000 0 0 1
8.162965 -14.380006 -23.696874 28.895681 -1.054495 2.532353 0.088593 -0.017507 404740.000000 0 0 1
9.124165 -14.207806 -22.491274 28.124181 -0.999928 2.497613 0.080533 -0.004353 -591680.000000 0 0 1
9.674565 -15.352706 -21.843874 28.398197 -1.008500 2.448384 0.069772 0.007423 -44041.900000 0 0 1
8.693965 -15.973906 -21.097474 27.854158 -1.072370 2.430159 0.062646 0.003291 -640397.000000 0 0 1
9.095665 -15.927406 -19.588274 26.834937 -1.051921 2.389051 0.062384 -0.002478 541445.000000 0 0 1
10.157365 -16.804006 -19.197874 27.460973 -1.027103 2.344930 0.070430 -0.003207 -23677.900000 0 0 1
10.547165 -16.672406 -17.855074 26.608560 -1.006742 2.306390 0.043688 -0.003111 276007.000000 0 0 1
9.496265 -17.356206 -16.886074 26.010698 -1.070152 2.277325 0.047937 -0.002591 84876.800000 0 0 1
9.343765 -18.778906 -16.950874 26.968229 -1.109097 2.250484 0.041127 -0.008464 47344.300000 0 0 1
8.710565 -19.219006 -18.160074 27.839404 -1.145262 2.281432 0.067029 -0.010586 686632.000000 0 0 1
7.140565 -19.109706 -18.240374 27.365668 -1.213200 2.300357 0.071910 -0.011233 753502.000000 0 0 1
6.697765 -17.787706 -18.246174 26.347399 -1.210677 2.335777 0.074516 -0.010437 -20530.700000 0 0 1
5.277665 -17.663706 -18.240474 25.934054 -1.280454 2.350882 0.076115 -0.005692 597942.000000 0 0 1
4.768865 -16.257406 -17.920274 24.661337 -1.285465 2.384236 0.063962 0.004775 62637.400000 0 1 0
5.106565 -15.831406 -16.616374 23.512004 -1.258774 2.355646 0.040141 0.002627 -163972.000000 0 1 0
4.599065 -14.578906 -16.413674 22.429993 -1.265217 2.391717 0.023283 0.013434 48843.300000 0 1 0
10.852165 29.982094 -17.967974 36.599775 1.223511 2.083955 0.015937 -0.016140 -662979.000000 0 0 1
9.963665 29.590794 -18.966974 36.532667 1.246005 2.116686 0.038828 -0.015322 -559414.000000 0 0 1
8.968065 28.792494 -18.391974 35.322777 1.268848 2.118447 0.040711 -0.019096 -27969.300000 0 0 1
7.827165 28.380894 -19.344074 35.226876 1.301696 2.152117 0.065145 -0.020813 351299.000000 0 0 1
6.842465 29.340494 -19.690274 35.991537 1.341682 2.149669 0.070645 -0.029504 -473316.000000 0 0 1
6.032365 28.850494 -20.687274 36.009772 1.364675 2.182778 0.077647 -0.035223 -711164.000000 0 0 1
5.087165 29.871894 -21.274274 37.024370 1.402115 2.182914 0.065694 -0.033481 -591671.000000 0 0 1
3.925465 29.965094 -20.489074 36.511892 1.440537 2.166585 0.068638 -0.035307 -644723.000000 0 0 1
2.992265 30.845794 -21.068774 37.474123 1.474092 2.167866 0.060071 -0.036986 -691734.000000 0 0 1
1.579465 30.496594 -20.582874 36.826507 1.519051 2.163873 0.069140 -0.028166 -261669.000000 0 0 1
1.095665 29.157494 -20.925074 35.905691 1.533237 2.192940 0.076048 -0.044445 -111433.000000 0 0 1
0.569665 29.039094 -22.177574 36.543649 1.551182 2.222924 0.093135 -0.051691 -280035.000000 0 0 1
-0.152835 27.686194 -22.610474 35.746080 -1.565276 2.255612 0.094865 -0.043802 819052.000000 0 0 1
-1.369235 27.471494 -21.891174 35.153681 -1.520995 2.243020 0.107305 -0.043433 436462.000000 0 0 1
-1.955635 26.207794 -22.160074 34.376472 -1.496314 2.271334 0.114715 -0.055754 411072.000000 0 0 1
-3.148235 25.852794 -21.206074 33.585352 -1.449618 2.254164 0.094066 -0.053476 -186869.000000 0 0 1
-4.130135 26.830194 -21.207174 34.447954 -1.418059 2.233981 0.080613 -0.045159 37277.800000 0 0 1
-5.222335 26.314294 -20.433974 33.723317 -1.374882 2.221731 0.071222 -0.047209 292834.000000 0 0 1
-6.315435 27.278794 -19.958074 34.385201 -1.343290 2.190048 0.070942 -0.052091 -278251.000000 0 0 1
-7.426735 26.577594 -19.490874 33.784894 -1.298311 2.185738 0.073030 -0.038035 -628481.000000 0 0 1
-8.319635 27.425894 -18.797974 34.274769 -1.276269 2.151305 0.079264 -0.048888 603247.000000 0 0 1
-9.556435 26.713794 -18.159774 33.685748 -1.227248 2.140157 0.088857 -0.037666 501359.000000 0 0 1
-9.259735 25.864794 -17.076374 32.347068 -1.227008 2.126935 0.092731 -0.043885 228835.000000 0 0 1
-10.483335 25.253894 -16.634574 32.005757 -1.177326 2.117339 0.060107 -0.038356 571734.000000 0 0 1
-10.515035 24.624694 -15.225474 30.801892 -1.167223 2.087829 0.063716 -0.023577 18706.900000 0 0 1
-9.799135 23.396894 -15.175074 29.558764 -1.174170 2.109923 0.064413 -0.022204 -144225.000000 0 0 1
-9.926535 22.820394 -13.911374 28.510223 -1.160499 2.080528 0.083668 -0.028559 312028.000000 0 0 1
-9.207935 21.402994 -13.838974 27.099657 -1.164515 2.106760 0.088427 -0.013268 278024.000000 0 0 1
-9.942835 20.363694 -14.458974 26.881256 -1.116582 2.138720 0.066318 -0.004275 -201395.000000 0 0 1
-10.289235 20.339594 -15.858474 27.767942 -1.102462 2.178650 0.078703 0.002262 347962.000000 0 0 1
-9.105635 20.236094 -16.869774 27.874744 -1.147967 2.220812 0.068369 0.001649 176214.000000 0 0 1
-8.572435 18.934494 -16.940674 26.813954 -1.145665 2.254651 0.060586 -0.000355 -398742.000000 0 0 1
-7.652635 18.828894 -17.998074 27.148126 -1.184759 2.295560 0.059100 -0.002933 136313.000000 0 0 1
-7.005635 17.399694 -18.089774 26.058937 -1.188025 2.338086 0.041034 -0.002758 147184.000000 0 0 1
-7.937835 16.395694 -18.393274 25.887073 -1.119916 2.361033 0.042927 -0.008611 -327633.000000 0 0 1
-7.576635 15.631094 -19.516474 26.127174 -1.119451 2.414304 0.044252 -0.017065 1156350.000000 0 0 1
-6.352735 14.597794 -19.539874 25.204355 -1.160331 2.457920 0.037117 -0.012273 385374.000000 0 0 1
-6.591535 13.369794 -18.874074 24.050580 -1.112751 2.473115 0.016696 -0.009183 269465.000000 0 1 0
-5.386635 12.745594 -18.452374 23.064174 -1.170937 2.498166 0.025980 -0.006228 349795.000000 0 1 0
-4.570235 13.475194 -17.392974 22.471836 -1.243812 2.455915 0.033991 0.004341 -835692.000000 0 1 0
-3.886535 14.675594 -17.653874 23.283846 -1.311910 2.431348 0.024677 -0.002605 -283544.000000 0 1 0
-3.393935 15.253294 -16.475574 22.707406 -1.351858 2.382643 0.022467 0.009482 374245.000000 0 1 0
-2.486335 16.517294 -16.677574 23.603905 -1.421389 2.355421 0.030129 -0.001975 144460.000000 0 1 0
-3.230035 17.598994 -17.124374 24.766951 -1.389281 2.334250 0.033989 -0.000330 -404601.000000 0 1 0
-2.507435 18.783294 -17.064374 25.500828 -1.438088 2.303887 0.048262 -0.008555 -174247.000000 0 0 1
-3.356935 19.959094 -17.547874 26.787354 -1.404165 2.285086 0.064402 -0.008497 175866.000000 0 0 1
-3.812435 19.887694 -18.873674 27.681593 -1.381396 2.321035 0.060980 -0.013724 -307852.000000 0 0 1
-4.167835 21.214494 -19.351274 29.015468 -1.376805 2.300877 0.079847 -0.015200 -200992.000000 0 0 1
-3.091035 22.304694 -19.544874 29.817041 -1.433091 2.285632 0.087348 -0.033246 -572120.000000 0 0 1
-2.067435 22.032394 -20.483674 30.154296 -1.477234 2.317598 0.103504 -0.032259 -175464.000000 0 0 1
-0.972935 22.889894 -20.339974 30.636716 -1.528317 2.296830 0.099767 -0.040804 87453.700000 0 0 1
0.145165 22.488094 -19.360074 29.674027 1.564341 2.281576 0.111110 -0.040598 -287876.000000 0 0 1
-0.395835 22.425694 -18.054674 28.793049 -1.553147 2.248556 0.102037 -0.032865 -181830.000000 0 0 1
0.547465 21.845594 -17.176274 27.794857 1.545741 2.236949 0.105537 -0.034330 152198.000000 0 0 1
0.225065 22.129694 -15.702274 27.135501 1.560626 2.187883 0.106242 -0.029120 -235583.000000 0 0 1
-0.751535 21.238094 -15.254574 26.159577 -1.535425 2.193379 0.077100 -0.015049 -393436.000000 0 0 1
-0.750835 21.205094 -13.841974 25.334166 -1.535403 2.148827 0.085591 -0.020246 215864.000000 0 0 1
-1.558735 20.063394 -13.147974 24.038274 -1.493262 2.149525 0.043513 -0.011430 -147318.000000 0 1 0
-0.992835 18.769494 -13.181274 22.957038 -1.517949 2.182388 0.040335 -0.009528 -64800.900000 0 1 0
-1.836535 17.730494 -12.696174 21.884609 -1.467584 2.189699 0.018643 -0.007752 185636.000000 0 1 0
-1.185635 16.313694 -12.885674 20.822654 -1.498247 2.238048 0.000213 -0.001310 -858786.000000 0 1 0
-0.036535 16.116594 -12.122574 20.166872 -1.568529 2.215690 0.007296 -0.001001 -307233.000000 0 1 0
0.242765 14.770594 -11.952474 19.002395 1.554362 2.251060 0.008260 -0.002353 48835.600000 0 1 0
0.884965 14.102394 -13.156074 19.306552 1.508126 2.320512 0.002548 -0.005202 -188067.000000 0 1 0
-0.070635 13.905994 -14.241874 19.905090 -1.565717 2.368120 0.008749 -0.012665 649000.000000 0 1 0
0.402665 12.960094 -15.157774 19.947037 1.539737 2.433957 0.010030 -0.012522 -115949.000000 0 1 0
-0.344635 12.980994 -16.533374 21.023259 -1.544253 2.475808 0.017471 -0.003769 -5439.050000 0 1 0
0.068165 13.953994 -17.445674 22.339877 1.565911 2.466935 0.025057 -0.011467 -169656.000000 0 1 0
-0.277035 13.782894 -18.798174 23.311290 -1.550699 2.508832 0.040499 -0.012011 -516734.000000 0 1 0
-0.954035 14.943194 -19.433874 24.533338 -1.507039 2.485106 0.048916 -0.010177 -786556.000000 0 1 0
-0.098935 16.002094 -19.565374 25.276088 -1.564614 2.456036 0.045205 -0.013954 -915490.000000 0 0 1
-0.748235 17.076594 -20.116374 26.397697 -1.527008 2.437270 0.079698 -0.022328 -157018.000000 0 0 1
0.129365 18.344794 -20.444874 27.468911 1.563745 2.410270 0.090485 -0.030039 185828.000000 0 0 1
0.934765 18.063994 -21.574874 28.154162 1.519095 2.443877 0.087438 -0.040794 -12743.000000 0 0 1
1.748365 19.171594 -21.904774 29.162063 1.479852 2.420583 0.091832 -0.034856 26900.100000 0 0 1
2.331065 19.195694 -23.310474 30.286741 1.449951 2.449104 0.099740 -0.044233 774485.000000 0 0 1
3.499065 18.349694 -23.424274 29.960830 1.382371 2.468392 0.084055 -0.041610 709575.000000 0 0 1
3.942465 18.408394 -24.820374 31.152254 1.359817 2.492684 0.086355 -0.048557 276559.000000 0 0 1
4.852865 17.221794 -25.238304 30.937234 1.296132 2.524891 0.061183 -0.037104 -1122810.000000 0 0 1
6.016965 17.180094 -24.474774 30.502033 1.233918 2.502099 0.052399 -0.029735 -564746.000000 0 0 1
6.843265 16.048394 -24.672974 30.218154 1.167728 2.526110 0.046456 -0.036047 210615.000000 0 0 1
7.485365 15.972394 -26.074514 31.480602 1.132547 2.546814 0.035733 -0.039610 -1894120.000000 0 0 1
8.511265 16.906094 -26.336944 32.432888 1.104398 2.518443 0.019503 -0.030380 92437.300000 0 0 1
8.749265 17.067494 -27.742314 33.726621 1.097098 2.536702 0.025412 -0.029456 -10973.700000 0 0 1
9.344465 15.809294 -28.448124 33.860723 1.036966 2.568358 0.016318 -0.032730 -166351.000000 0 0 1
10.660665 15.527894 -27.970334 33.720985 0.969155 2.548943 0.027801 -0.027457 184673.000000 0 0 1
11.062465 14.204494 -28.198734 33.456156 0.909116 2.573366 0.022584 -0.009879 -177932.000000 0 0 1
10.597965 13.167794 -27.134924 31.968918 0.893111 2.584490 0.024084 -0.011341 -103506.000000 0 0 1
9.249365 12.806594 -27.386124 31.615809 0.945303 2.618375 0.040114 -0.017013 -237437.000000 0 0 1
8.782365 12.257394 -26.202784 30.231763 0.949085 2.619405 0.050180 -0.015874 -6484.860000 0 0 1
7.293165 11.824394 -26.286714 29.732102 1.018123 2.655401 0.052891 -0.021047 555777.000000 0 0 1
6.410365 12.936494 -26.211784 29.924960 1.110735 2.638130 0.053775 -0.020409 -1080770.000000 0 0 1
5.111665 12.536294 -25.962454 29.280314 1.183627 2.660925 0.074072 -0.032047 -428061.000000 0 0 1
4.037265 13.647294 -25.919404 29.569640 1.283171 2.639453 0.084274 -0.029144 -190178.000000 0 0 1
3.537665 14.064494 -27.188064 30.814215 1.324377 2.651570 0.070293 -0.023719 -249756.000000 0 0 1
4.471865 14.711194 -27.984494 31.930372 1.275695 2.639178 0.069796 -0.020734 -653692.000000 0 0 1
4.168765 14.533494 -29.469494 33.121777 1.291458 2.667553 0.067518 -0.019202 -366400.000000 0 0 1
4.596965 13.300894 -29.926324 33.070088 1.238035 2.702026 0.062577 -0.021228 -154279.000000 0 0 1
4.455365 13.165294 -31.289254 34.237299 1.244477 2.723571 0.060318 -0.014398 -259856.000000 0 0 1
5.579065 12.278794 -31.978014 34.705736 1.144318 2.742475 0.055595 -0.000154 -288102.000000 0 0 1
6.913665 12.631794 -31.878584 34.980067 1.070011 2.717313 0.045641 0.003468 -407701.000000 0 0 1
7.513065 12.662294 -30.582604 33.942237 1.035287 2.692909 0.035914 -0.005844 -762585.000000 0 0 1
7.581265 11.256894 -29.934514 32.867436 0.978093 2.715930 0.037283 -0.002629 -1190200.000000 0 0 1
8.553565 10.408394 -30.401964 33.253233 0.882906 2.724464 0.032054 0.007752 -645589.000000 0 0 1
8.460465 9.127194 -29.814174 32.307431 0.823289 2.746153 0.049287 -0.001107 -522720.000000 0 0 1
9.419665 8.044594 -30.232504 32.671851 0.706824 2.752722 0.053689 -0.003613 -757811.000000 0 0 1
10.718465 8.238794 -29.761104 32.687712 0.655333 2.715210 0.047846 -0.001414 -496984.000000 0 0 1
11.497865 7.073594 -29.920144 32.824558 0.551528 2.717754 0.039436 -0.010299 453417.000000 0 0 1
12.517665 6.895294 -28.688814 32.051288 0.503492 2.679431 0.039319 0.012571 1337890.000000 0 0 1
13.365365 5.746494 -28.526994 32.022563 0.406059 2.669988 0.056250 -0.003970 352715.000000 0 0 1
14.273765 5.438294 -29.534074 33.250217 0.364020 2.664289 0.048878 -0.006219 -442283.000000 0 0 1
15.158765 4.184094 -29.246864 33.206533 0.269312 2.648253 0.039828 -0.020826 489621.000000 0 0 1
15.997065 4.396194 -28.101734 32.633419 0.268192 2.608292 0.044569 -0.018012 678659.000000 0 0 1
16.949665 3.378894 -27.806914 32.740380 0.196769 2.585484 0.047963 -0.026776 429496.000000 0 0 1
17.866565 3.659294 -26.596174 32.248427 0.202019 2.540517 0.050149 -0.025317 468054.000000 0 0 1
18.858865 4.691694 -26.755944 33.068857 0.243829 2.513412 0.068173 -0.026317 530107.000000 0 0 1
19.625865 4.728394 -25.562414 32.572523 0.236421 2.473145 0.070670 -0.022301 -114018.000000 0 0 1
20.609065 5.920594 -25.596614 33.391221 0.279748 2.444275 0.063927 -0.016294 -530574.000000 0 0 1
20.037965 7.180094 -25.665664 33.343666 0.344072 2.449216 0.067486 -0.010021 316076.000000 0 0 1
20.986365 8.126294 -26.169154 34.515051 0.369439 2.431337 0.070168 -0.019969 -109222.000000 0 0 1
21.124765 8.036594 -27.714864 35.762497 0.363527 2.457464 0.087580 -0.014322 -17954.800000 0 0 1
19.961265 8.288194 -28.489544 35.760318 0.393553 2.492579 0.076899 -0.008294 161285.000000 0 0 1
19.078665 7.200194 -28.539194 35.075972 0.360869 2.521181 0.073840 -0.012683 -1007300.000000 0 0 1
17.691365 7.559594 -29.072804 34.862010 0.403821 2.557004 0.065512 -0.001098 -529407.000000 0 0 1
17.557965 7.889094 -30.454234 36.027493 0.422286 2.577933 0.054336 -0.001978 -933120.000000 0 0 1
16.416865 8.565494 -30.746754 35.892116 0.480896 2.599525 0.049084 0.001934 -1049870.000000 0 0 1
15.857565 8.410294 -32.218054 36.880868 0.487643 2.633288 0.038740 0.008293 74825.000000 0 0 1
15.253465 7.170694 -32.493864 36.605167 0.439445 2.663090 0.037918 0.007508 -11211.600000 0 0 1
13.971465 7.390694 -33.041154 36.627067 0.486566 2.695400 0.033179 0.010516 100907.000000 0 0 1
13.173865 6.137894 -33.468294 36.487685 0.436009 2.731914 0.032733 -0.000501 51466.200000 0 0 1
12.666465 5.392294 -32.422374 35.223948 0.402475 2.740062 0.040458 -0.004447 -205382.000000 0 0 1
12.179965 4.110494 -32.796124 35.225466 0.325478 2.768034 0.041695 -0.014201 110536.000000 0 0 1
12.007765 3.102794 -31.620974 33.966156 0.252868 2.767817 0.049513 -0.017539 983709.000000 0 0 1
13.234465 2.352494 -31.409984 34.165368 0.175918 2.737225 0.051405 -0.024061 926469.000000 0 0 1
13.102265 1.248894 -30.504394 33.222690 0.095032 2.734257 0.057421 -0.020107 212790.000000 0 0 1
12.376465 -0.111206 -30.934874 33.318999 -0.008985 2.761002 0.058608 -0.018875 575150.000000 0 0 1
13.055965 -1.073406 -31.752874 34.349023 -0.082031 2.750304 0.067685 -0.017374 1019820.000000 0 0 1
14.213165 -1.786406 -31.217954 34.347721 -0.125031 2.711387 0.073294 -0.015644 1207880.000000 0 0 1
14.652265 -3.111906 -31.899094 35.240956 -0.209274 2.702578 0.088237 -0.016475 658753.000000 0 0 1
13.587665 -4.085906 -31.931884 34.942302 -0.292105 2.723453 0.088797 -0.017989 523985.000000 0 0 1
13.872465 -5.128106 -32.790094 35.971280 -0.354082 2.717866 0.091889 -0.023949 310694.000000 0 0 1
12.871165 -6.342706 -32.680134 35.691567 -0.457858 2.727859 0.084751 -0.020214 397725.000000 0 0 1
12.828565 -6.881606 -31.449824 34.655735 -0.492364 2.708072 0.088662 -0.020820 28431.800000 0 0 1
12.271365 -8.181006 -31.433994 34.721913 -0.588008 2.702898 0.097729 -0.026140 -56350.200000 0 0 1
12.349165 -8.916306 -30.086584 33.722469 -0.625350 2.672950 0.088720 -0.028096 1027290.000000 0 0 1
13.715665 -9.034806 -29.603874 33.854638 -0.582482 2.635078 0.069443 -0.024468 1321830.000000 0 0 1
13.734865 -9.584206 -28.321884 32.903383 -0.609249 2.607555 0.068520 -0.020600 -80881.400000 0 0 1
13.968565 -11.125506 -28.309814 33.471529 -0.672583 2.578837 0.075489 -0.019404 -615930.000000 0 0 1
12.915765 -11.910906 -28.748394 33.692088 -0.744945 2.593017 0.073840 -0.017454 -513907.000000 0 0 1
13.361265 -13.190406 -29.012234 34.557487 -0.778963 2.567224 0.076881 -0.020069 43979.500000 0 0 1
-10.527235 -3.254306 -18.034674 21.134395 0.299814 2.593141 0.033480 0.019571 103974.000000 0 1 0
-11.025335 -2.635206 -19.211574 22.306656 0.234612 2.608518 0.028446 0.014494 -80068.600000 0 1 0
-11.932235 -3.516906 -19.829274 23.408267 0.286624 2.581311 0.033293 0.017398 -568148.000000 0 1 0
-12.809535 -2.985806 -20.937774 24.726294 0.229004 2.580702 0.035646 0.000408 -259097.000000 0 1 0
-13.708735 -2.023506 -20.421274 24.678988 0.146549 2.545394 0.042318 0.001430 -525756.000000 0 1 0
-14.666235 -1.659406 -21.368474 25.970440 0.112666 2.537116 0.043783 -0.008073 75229.700000 0 0 1
-15.304135 -0.325306 -20.965174 25.958831 0.021253 2.510921 0.045330 -0.002282 -234543.000000 0 0 1
-14.426635 0.706594 -21.227974 25.675941 -0.048939 2.544129 0.039440 -0.008231 -48057.400000 0 0 1
-15.076535 1.936494 -20.816374 25.775441 -0.127745 2.510876 0.033881 -0.000587 211823.000000 0 0 1
-14.490035 3.211094 -21.379674 26.026193 -0.218083 2.534776 0.041514 -0.015991 -255276.000000 0 0 1
-13.213035 3.618694 -20.963274 25.042726 -0.267318 2.562757 0.036154 -0.016248 -163469.000000 0 0 1
-12.884335 4.810994 -21.671674 25.667357 -0.357366 2.576107 0.035810 -0.020901 -234872.000000 0 0 1
-11.680335 5.400794 -20.907574 24.550467 -0.433104 2.589857 0.016536 -0.016634 41034.200000 0 1 0
-12.118735 6.037294 -19.680274 23.887776 -0.462189 2.538991 0.035330 -0.021238 62723.800000 0 1 0
-11.029835 6.304594 -18.869174 22.747547 -0.519271 2.549015 0.025898 -0.017266 -587752.000000 0 1 0
-11.458935 6.920194 -17.502774 22.035049 -0.543291 2.488676 0.041498 -0.016171 93643.200000 0 1 0
-11.924635 8.242994 -17.539674 22.754868 -0.604834 2.450908 0.027589 -0.016649 -462607.000000 0 1 0
-13.005835 8.380394 -16.691374 22.759278 -0.572398 2.394088 0.034165 -0.006812 -712394.000000 0 1 0
-13.645935 9.780094 -16.791574 23.744868 -0.621849 2.356279 0.032065 0.001898 -220152.000000 0 1 0
-12.995535 10.756994 -15.972574 23.231874 -0.691431 2.328876 0.008816 0.001661 273761.000000 0 1 0
-13.452335 12.028594 -16.237474 24.275666 -0.729581 2.303496 0.014770 -0.000926 -645218.000000 0 1 0
-12.694335 13.121394 -15.554174 23.984358 -0.801939 2.276426 0.029433 0.002518 -545102.000000 0 1 0
-12.793835 13.055394 -14.142074 23.111118 -0.795516 2.229278 0.047250 -0.006258 -109427.000000 0 1 0
-12.142135 14.168294 -13.586274 23.081569 -0.862256 2.200147 0.048744 -0.013593 -1151410.000000 0 1 0
-12.489235 14.381894 -12.114874 22.574101 -0.855717 2.137284 0.044255 -0.022157 2035780.000000 0 1 0
-13.856635 14.840794 -11.844474 23.506320 -0.819679 2.098887 0.040707 -0.022045 1975490.000000 0 1 0
-14.969535 14.122294 -12.338774 23.995239 -0.756283 2.110891 0.035686 -0.011707 -818869.000000 0 1 0
-16.329535 14.630694 -11.810374 24.903732 -0.730581 2.064898 0.018311 -0.006993 449436.000000 0 1 0
-17.403135 13.779494 -12.285974 25.371021 -0.669710 2.076305 0.022207 -0.008431 1028880.000000 0 0 1
-18.521135 14.023394 -11.409374 25.881689 -0.648065 2.027317 0.077998 -0.017201 342211.000000 0 0 1
-19.921135 13.657594 -11.938474 26.942692 -0.600985 2.029857 0.079145 -0.023482 -166988.000000 0 0 1
-20.130335 12.256894 -11.950974 26.425132 -0.546921 2.040092 0.080735 -0.026362 378832.000000 0 0 1
-21.351435 12.021694 -12.634974 27.568959 -0.512799 2.046883 0.108456 -0.018817 -67253.000000 0 0 1
-22.119735 10.756494 -12.250374 27.478292 -0.452615 2.032887 0.094157 -0.015735 -221807.000000 0 0 1
-21.452435 9.514194 -12.509474 26.593492 -0.417437 2.060536 0.085477 -0.009030 224673.000000 0 0 1
-21.996935 8.462594 -11.788074 26.352217 -0.367262 2.034571 0.085456 -0.008213 -393351.000000 0 0 1
-21.078635 7.251894 -11.826374 25.234143 -0.331355 2.058576 0.092910 -0.005431 -251830.000000 0 0 1
-20.840035 6.542094 -12.971774 25.404192 -0.304178 2.106697 0.092845 -0.006649 405008.000000 0 0 1
-19.790935 5.599694 -12.782374 24.216250 -0.275735 2.126855 0.087601 -0.013826 98105.700000 0 1 0
-19.674735 4.388394 -13.761074 24.407383 -0.219455 2.169785 0.089647 -0.019965 -738490.000000 0 1 0
-20.650035 3.433694 -13.578074 24.951519 -0.164773 2.146206 0.090063 -0.020200 -352949.000000 0 1 0
-20.269435 2.140194 -14.044874 24.752554 -0.105197 2.174155 0.087013 -0.028976 -35099.400000 0 1 0
-21.299935 1.009394 -13.710274 25.351089 -0.047354 2.142203 0.092030 -0.029074 -181559.000000 0 0 1
-22.509035 1.070194 -14.395074 26.739861 -0.047509 2.139260 0.075507 -0.020901 -319670.000000 0 0 1
-22.883235 -0.273606 -14.651974 27.173474 0.011956 2.140285 0.070911 -0.029134 299281.000000 0 0 1
-24.258835 -0.516006 -15.349474 28.711735 0.021268 2.134838 0.077026 -0.031182 891902.000000 0 0 1
-25.411975 -0.058806 -14.664074 29.339513 0.002314 2.094171 0.101117 -0.035363 -95560.200000 0 0 1
-26.634325 -0.338306 -15.265374 30.700707 0.012701 2.091202 0.097789 -0.021919 -414962.000000 0 0 1
-27.817005 0.237094 -14.493074 31.367040 -0.008523 2.051099 0.094044 -0.022503 -345284.000000 0 0 1
-28.125605 -0.578106 -13.349374 31.138235 0.020552 2.013864 0.099492 -0.023637 51523.700000 0 0 1
-29.388865 -0.235506 -12.813574 32.061637 0.008013 1.981936 0.122227 -0.030555 229952.000000 0 0 1
-29.615955 -0.793506 -11.355174 31.728133 0.026787 1.936803 0.109777 -0.031028 -257039.000000 0 0 1
-29.894205 -2.163506 -11.186874 31.992037 0.072246 1.928022 0.113872 -0.017037 507462.000000 0 0 1
-28.910455 -3.110906 -11.634474 31.318575 0.107192 1.951407 0.119310 -0.023785 -134732.000000 0 0 1
-29.088285 -4.570206 -11.267274 31.527236 0.155841 1.936260 0.107137 -0.026066 283998.000000 0 0 1
-30.261555 -5.168406 -11.866074 32.913187 0.169159 1.939629 0.099430 -0.020653 1049490.000000 0 0 1
-30.663215 -6.402706 -11.209374 33.269768 0.205850 1.914444 0.095319 -0.019241 170801.000000 0 0 1
-29.876405 -7.676706 -11.641274 32.970452 0.251508 1.931660 0.098170 -0.020531 684653.000000 0 0 1
-28.491755 -7.716906 -11.285574 31.602135 0.264501 1.935973 0.073100 -0.020568 373416.000000 0 0 1
-27.891985 -8.823906 -11.881874 31.575356 0.306398 1.956598 0.085373 -0.022491 -425384.000000 0 0 1
-26.411975 -8.898506 -11.460774 30.135116 0.324968 1.960931 0.082947 -0.026752 -616373.000000 0 0 1
-25.743995 -7.751006 -11.947574 29.420672 0.292447 1.988973 0.079032 -0.025660 1170960.000000 0 0 1
-24.327435 -7.735206 -11.652774 28.061445 0.307853 1.999024 0.086586 -0.032973 922285.000000 0 0 1
-23.925135 -7.292106 -10.200374 27.011748 0.295844 1.958029 0.077947 -0.034518 -622030.000000 0 0 1
-24.253235 -5.977206 -9.773074 26.822740 0.241635 1.943739 0.073788 -0.018729 127423.000000 0 0 1
-25.628295 -5.731806 -9.652374 27.979125 0.220031 1.923019 0.080516 -0.022714 -739551.000000 0 0 1
-26.114485 -4.471606 -8.958774 27.968218 0.169586 1.896863 0.088572 -0.025422 -492970.000000 0 0 1
-26.007615 -4.449306 -7.562074 27.447720 0.169437 1.849915 0.089825 -0.026576 431033.000000 0 0 1
-26.125375 -3.114206 -7.102074 27.252027 0.118643 1.834447 0.109136 -0.027325 -108326.000000 0 0 1
-25.955015 -3.011006 -5.583674 26.719027 0.115492 1.781326 0.108689 -0.024319 -933366.000000 0 0 1
-24.684135 -3.268106 -5.109374 25.418355 0.131631 1.773186 0.091761 -0.015535 -671824.000000 0 0 1
-24.562335 -2.854006 -3.770574 25.013414 0.115676 1.722115 0.078473 -0.011112 195436.000000 0 0 1
-23.152535 -3.256806 -3.267274 23.607663 0.139750 1.709641 0.067708 -0.008764 171344.000000 0 1 0
-22.921535 -4.628206 -3.016674 23.577901 0.199236 1.699093 0.070039 -0.001214 223077.000000 0 1 0
-21.536435 -4.753406 -2.788574 22.230364 0.217232 1.696568 0.060881 -0.001974 -212994.000000 0 1 0
-21.166635 -6.202706 -2.492374 22.197116 0.285061 1.683317 0.065427 -0.004893 -297689.000000 0 1 0
-21.821835 -6.757806 -1.380274 22.885926 0.300315 1.631144 0.071954 -0.004789 631906.000000 0 1 0
-22.523335 -7.954506 -1.769774 23.952180 0.339494 1.644752 0.088684 -0.007015 62449.900000 0 1 0
-22.915835 -8.823506 -0.581674 24.562739 0.367543 1.594480 0.092360 -0.008481 -80510.800000 0 1 0
-21.816135 -9.425506 0.082226 23.765326 0.407821 1.567336 0.075131 -0.004316 209631.000000 0 1 0
-22.152835 -10.419506 1.065326 24.504064 0.439645 1.527307 0.055649 0.000311 714182.000000 0 1 0
-20.861535 -11.059906 1.712526 23.673993 0.487482 1.498395 0.048812 -0.000716 618964.000000 0 1 0
-20.186235 -11.922206 0.842226 23.459166 0.533487 1.534887 0.052372 0.008287 968324.000000 0 1 0
-18.922235 -12.232206 1.476126 22.580009 0.573873 1.505377 0.021552 0.002516 600872.000000 0 1 0
-18.282135 -13.539406 0.905026 22.767764 0.637446 1.531036 0.021507 0.004818 -394012.000000 0 1 0
-19.003735 -14.696506 1.245226 24.055765 0.658277 1.519009 0.032966 0.003124 135916.000000 0 1 0
-18.645835 -15.929906 0.624826 24.532010 0.707009 1.545324 0.038447 -0.003986 -568490.000000 0 1 0
-17.531935 -16.668406 1.369126 24.229714 0.760154 1.514260 0.037239 -0.002738 -899688.000000 0 1 0
-16.263235 -16.109306 1.128026 22.918879 0.780643 1.521558 0.034382 0.002359 366678.000000 0 1 0
-15.158935 -16.723706 1.790126 22.642443 0.834438 1.491653 0.041830 -0.004606 575841.000000 0 1 0
-15.162435 -16.651406 3.315826 22.763205 0.832167 1.424610 0.057736 -0.011026 -748682.000000 0 1 0
-14.884235 -15.324006 3.772026 21.693174 0.799955 1.396027 0.036593 -0.004691 33207.800000 0 1 0
-14.060435 -15.241406 4.905526 21.308695 0.825680 1.338500 0.018995 -0.006228 -158515.000000 0 1 0
-14.705535 -15.597306 6.296126 22.342111 0.814818 1.285121 0.053979 -0.014117 -581694.000000 0 1 0
-15.541835 -14.567806 6.818126 22.366414 0.753060 1.261028 0.047027 -0.012461 643551.000000 0 1 0
-16.128435 -14.866406 8.099526 23.382446 0.744703 1.217073 0.061937 -0.017010 358278.000000 0 1 0
-16.943235 -16.191606 8.330626 24.872488 0.762718 1.229262 0.052419 -0.014387 -628256.000000 0 1 0
-16.189735 -17.368606 8.245426 25.134898 0.820513 1.236561 0.050807 -0.015013 -426331.000000 0 0 1
-16.870235 -18.472906 8.716126 26.491960 0.830713 1.235541 0.053310 -0.015758 -308576.000000 0 0 1
-16.555835 -18.896606 10.161326 27.100368 0.851328 1.186452 0.061866 -0.017460 -96655.800000 0 0 1
-15.231435 -19.329406 10.363826 26.702649 0.903420 1.172206 0.047190 -0.017043 -89911.200000 0 0 1
-14.913035 -19.608006 11.697526 27.270949 0.920572 1.127480 0.042673 -0.014518 -59471.900000 0 0 1
-13.580935 -20.380406 11.867826 27.214850 0.982998 1.119559 0.035264 -0.004777 -12846.900000 0 0 1
-12.486635 -19.559306 11.520826 25.907759 1.002620 1.109972 0.026580 -0.013998 -90440.800000 0 0 1
-11.287835 -20.340006 11.585126 25.987425 1.064155 1.108731 0.026992 -0.009830 130131.000000 0 0 1
-10.062635 -19.629206 12.166626 25.191053 1.097091 1.066748 0.032070 -0.011815 -218166.000000 0 0 1
-9.635335 -18.583806 11.322626 23.799147 1.092474 1.074971 0.027824 -0.022500 -482780.000000 0 1 0
-8.525235 -17.907606 11.850426 23.103995 1.126477 1.032217 0.030327 -0.019567 -86072.400000 0 1 0
-7.634135 -17.274206 10.751326 21.731757 1.154667 1.053274 0.015666 -0.018956 356995.000000 0 1 0
-6.723235 -18.225106 10.156926 21.920756 1.217385 1.089027 0.020279 -0.012761 299718.000000 0 1 0
-5.839535 -17.508906 9.293026 20.664518 1.248880 1.104356 0.016370 -0.011289 319674.000000 0 1 0
-4.734835 -18.379806 8.636626 20.852512 1.318668 1.143758 0.012645 -0.005804 558140.000000 0 1 0
-3.485335 -18.403806 9.296226 20.910941 1.383632 1.110110 0.018549 -0.006686 -195916.000000 0 1 0
-2.463835 -18.953706 8.503726 20.919532 1.441529 1.152180 0.029673 -0.008957 112306.000000 0 1 0
-1.110135 -19.092706 9.242926 21.241363 1.512717 1.120605 0.032246 -0.009191 19329.500000 0 1 0
-0.231735 -19.676906 8.324426 21.366572 1.559020 1.170599 0.048568 -0.003475 -918765.000000 0 1 0
1.070065 -19.816306 8.828126 21.720194 -1.516850 1.152233 0.053439 -0.011053 -24343.100000 0 1 0
2.026265 -20.416206 7.765326 21.936899 -1.471872 1.208968 0.055227 -0.012455 -7352.480000 0 1 0
1.824165 -21.800806 7.353326 23.079734 -1.487317 1.246539 0.052559 -0.012945 -200148.000000 0 1 0
2.152765 -22.710706 8.402326 24.310690 -1.476288 1.217894 0.048989 -0.011673 -8527.530000 0 1 0
1.756865 -24.142306 8.071826 25.516503 -1.498153 1.248930 0.041154 -0.014249 88097.100000 0 0 1
1.953265 -25.061376 9.148626 26.750424 -1.493014 1.221753 0.044086 -0.011729 -318460.000000 0 0 1
1.608365 -26.353116 8.809426 27.833066 -1.509841 1.248749 0.045791 -0.009350 -610179.000000 0 0 1
1.758865 -27.490106 9.886626 29.266789 -1.506902 1.226207 0.046151 -0.009609 674063.000000 0 0 1
0.883365 -27.369076 11.024226 29.519150 -1.538532 1.188060 0.037778 -0.014438 515208.000000 0 0 1
-0.514135 -27.530806 10.801726 29.578488 1.552124 1.196961 0.023009 -0.009988 170248.000000 0 0 1
-1.321035 -27.586616 12.089826 30.148473 1.522946 1.158178 0.018403 -0.014344 -209799.000000 0 0 1
-1.022935 -28.717416 12.882026 31.490999 1.535191 1.149362 0.016185 -0.014664 -188835.000000 0 0 1
-1.229135 -28.532396 14.273626 31.927180 1.527744 1.107311 0.011842 -0.018396 -180170.000000 0 0 1
-0.829935 -29.793626 15.092726 33.408672 1.542947 1.102058 0.001038 -0.012776 204496.000000 0 0 1
-0.716735 -29.436416 16.448926 33.728082 1.546453 1.061352 0.003412 -0.009651 -252133.000000 0 0 1
-0.338535 -30.475406 17.270926 35.030699 1.559688 1.055236 0.001443 -0.008100 -116766.000000 0 0 1
-0.689335 -30.280866 18.766226 35.631128 1.548036 1.016105 0.006591 -0.007954 -91069.100000 0 0 1
-2.078935 -30.354236 18.948526 35.843385 1.502414 1.013790 -0.006052 -0.003005 -433507.000000 0 0 1
-2.400735 -30.007986 20.276726 36.295846 1.490963 0.978037 0.019376 -0.010021 -288390.000000 0 0 1
-3.893135 -30.199536 20.583126 36.753688 1.442590 0.976376 0.046260 -0.018361 -583833.000000 0 0 1
-4.708135 -29.325326 19.841426 35.718672 1.411606 0.981842 0.037338 -0.028848 462261.000000 0 0 1
-5.869535 -28.877926 20.581226 35.944025 1.370275 0.961134 0.047183 -0.034085 647560.000000 0 0 1
-5.730435 -27.811516 21.677226 35.724228 1.367595 0.918776 0.069095 -0.040315 -417960.000000 0 0 1
-4.914435 -28.240076 22.764726 36.604458 1.398498 0.899615 0.069071 -0.037755 290630.000000 0 0 1
-4.819235 -27.265496 23.767526 36.490103 1.395851 0.861445 0.076873 -0.039173 -93413.700000 0 0 1
-3.831735 -27.712216 24.902326 37.453638 1.433399 0.843458 0.083225 -0.036089 184899.000000 0 0 1
-4.188435 -28.830446 25.712726 38.857199 1.426527 0.847681 0.079521 -0.033815 84154.300000 0 0 1
-3.748735 -30.085376 25.189626 39.417003 1.446832 0.877528 0.058751 -0.028018 -44942.900000 0 0 1
-4.028635 -31.293406 26.106926 40.952152 1.442763 0.879550 0.060003 -0.020759 -417367.000000 0 0 1
-3.466935 -31.156716 27.343626 41.598492 1.459978 0.853536 0.067337 -0.024150 -130434.000000 0 0 1
-3.748435 -32.176206 28.284026 43.004013 1.454822 0.853026 0.058914 -0.028824 -292387.000000 0 0 1
-3.202435 -31.840426 29.678726 43.645104 1.470556 0.823032 0.095190 -0.026924 975649.000000 0 0 1
-1.764935 -31.792026 29.797526 43.608950 1.515338 0.818538 0.083528 -0.024009 1078860.000000 0 0 1
-1.433635 -31.408516 31.110026 44.231029 1.525183 0.790693 0.077398 -0.031879 -79738.200000 0 0 1
-28.751765 3.244594 -10.049774 30.629877 -0.112373 1.905092 0.116000 -0.029152 78926.200000 0 0 1
-29.514535 3.055194 -11.226274 31.724931 -0.103148 1.932494 0.104554 -0.045420 509024.000000 0 0 1
-30.394355 4.161594 -11.525874 32.771657 -0.136074 1.930186 0.083451 -0.037858 694070.000000 0 0 1
-31.371115 3.842794 -12.705474 34.063808 -0.121887 1.953026 0.093221 -0.034958 114392.000000 0 0 1
-32.312885 2.819094 -12.490474 34.757471 -0.087023 1.938379 0.100763 -0.040302 3846.300000 0 0 1
-33.065785 2.594694 -13.649474 35.866234 -0.078310 1.961205 0.116213 -0.036699 200440.000000 0 0 1
-34.287996 1.636494 -13.543374 36.902138 -0.047692 1.946587 0.080845 -0.028538 328654.000000 0 0 1
-33.920715 0.295694 -13.251774 36.418565 -0.008717 1.943220 0.094528 -0.023100 -3969.570000 0 0 1
-35.002207 -0.574206 -12.937074 37.320934 0.016403 1.924787 0.077542 -0.016809 -194152.000000 0 0 1
-34.590759 -1.981406 -12.509074 36.836443 0.057219 1.917271 0.079955 -0.010681 -57833.500000 0 0 1
-34.059895 -2.813806 -13.523974 36.754481 0.082426 1.947604 0.068759 -0.001859 287893.000000 0 0 1
-33.636905 -4.068306 -12.979174 36.282936 0.120363 1.936623 0.075113 -0.008392 122883.000000 0 0 1
-34.005625 -5.281306 -13.886874 37.109568 0.154076 1.954344 0.080565 -0.002786 106750.000000 0 0 1
-34.046163 -6.573006 -13.279474 37.130716 0.190715 1.936537 0.077179 -0.011370 15203.000000 0 0 1
-34.511385 -7.564706 -14.129874 38.051463 0.215782 1.951244 0.082080 -0.008118 -773285.000000 0 0 1
-34.262195 -8.967906 -13.555574 37.921959 0.256000 1.936343 0.083062 -0.008173 185930.000000 0 0 1
-32.935205 -9.478106 -13.413374 36.803272 0.280209 1.943851 0.083519 -0.009558 468568.000000 0 0 1
-32.286555 -9.658206 -14.634474 36.740583 0.290668 1.980480 0.081908 -0.017268 -1382220.000000 0 0 1
-31.003155 -10.430506 -14.465074 35.766318 0.324538 1.987155 0.087882 -0.021709 -1112350.000000 0 0 1
-31.220805 -11.797706 -14.185974 36.265223 0.361293 1.972702 0.084428 -0.023329 245762.000000 0 0 1
-30.118295 -12.657306 -13.871874 35.492929 0.397843 1.972335 0.094632 -0.023479 78086.900000 0 0 1
-30.286915 -14.093006 -14.358774 36.360479 0.435518 1.976756 0.102581 -0.030090 -149582.000000 0 0 1
-30.192885 -14.236706 -15.776974 36.921634 0.440609 2.012311 0.099631 -0.032386 -9186.790000 0 0 1
-30.360905 -15.525606 -16.287174 37.790225 0.472701 2.016385 0.105876 -0.037285 365669.000000 0 0 1
-29.192745 -16.539206 -16.015574 37.178762 0.515462 2.016144 0.091098 -0.033038 128318.000000 0 0 1
-27.948605 -16.155406 -16.493274 36.251204 0.524116 2.043137 0.092349 -0.035123 -720188.000000 0 0 1
-26.884695 -17.000806 -16.137874 35.668547 0.563874 2.040296 0.080226 -0.030680 1315220.000000 0 0 1
-25.454355 -16.532206 -16.629274 34.608826 0.576013 2.072012 0.072588 -0.037708 1122230.000000 0 0 1
-25.343675 -16.612906 -17.999374 35.245823 0.580235 2.106773 0.080106 -0.032596 -180643.000000 0 0 1
-24.099535 -16.182206 -18.518874 34.432544 0.591323 2.138658 0.070241 -0.021889 -195187.000000 0 0 1
-24.072735 -15.568806 -19.945474 34.924293 0.574080 2.178649 0.077500 -0.020034 -89515.500000 0 0 1
-24.469835 -16.516606 -20.975674 36.215329 0.593735 2.188535 0.070965 -0.020575 1989590.000000 0 0 1
-25.920445 -16.384406 -21.169074 37.261883 0.563691 2.175011 0.072438 -0.024169 1164610.000000 0 0 1
-26.526045 -17.548806 -21.866874 38.597304 0.584465 2.173096 0.077840 -0.025364 -567464.000000 0 0 1
-26.132775 -17.806806 -23.218274 39.231270 0.598132 2.204125 0.083479 -0.015581 -117077.000000 0 0 1
-26.679025 -18.961806 -23.789474 40.463064 0.617897 2.199295 0.076127 -0.011447 -807151.000000 0 0 1
-26.166635 -19.352606 -25.190924 41.155787 0.636806 2.229493 0.073952 -0.017779 -384812.000000 0 0 1
-24.792535 -19.561006 -25.265324 40.443039 0.667990 2.245561 0.064311 -0.011286 -725058.000000 0 0 1
-24.350435 -20.814406 -24.795674 40.509365 0.707266 2.229506 0.050405 -0.005494 455591.000000 0 0 1
-22.784935 -20.955906 -24.830174 39.684264 0.743607 2.246816 0.037232 0.001696 1069990.000000 0 0 1
-22.291635 -21.054206 -26.172854 40.313954 0.756858 2.277362 0.035339 -0.000722 843640.000000 0 0 1
-20.909435 -21.483106 -26.202994 39.816143 0.798930 2.289088 0.030882 0.005614 1044720.000000 0 0 1
-20.408735 -21.381506 -27.667944 40.487040 0.808671 2.323176 0.029222 0.006100 -122144.000000 0 0 1
-21.001635 -22.398106 -28.476224 41.876475 0.817564 2.318566 0.065251 0.004062 -141343.000000 0 0 1
-21.249935 -22.030706 -29.812854 42.728422 0.803436 2.343019 0.058204 -0.002163 -177739.000000 0 0 1
-20.078935 -22.167406 -30.804924 42.936009 0.834793 2.370947 0.049729 -0.012527 11531.300000 0 0 1
-19.965235 -23.466006 -31.322264 43.935729 0.865829 2.364437 0.049044 -0.018398 8611.430000 0 0 1
-19.664535 -23.533506 -32.712104 44.839733 0.874723 2.388437 0.044612 -0.018945 201067.000000 0 0 1
-19.129335 -24.908406 -33.212584 45.710348 0.915882 2.384139 0.049498 -0.017936 181378.000000 0 0 1
-18.378335 -24.845506 34.000795 45.946888 0.933917 0.737723 0.051815 -0.026388 -166291.000000 0 0 1
-19.177535 -24.619006 32.847191 45.307961 0.909009 0.759797 0.060973 -0.024480 -643865.000000 0 0 1
-18.390735 -24.461306 31.522451 43.934492 0.926125 0.770608 0.060687 -0.022147 -226714.000000 0 0 1
-17.702635 -23.249206 31.373601 42.874372 0.920020 0.749901 0.041567 -0.022770 -122753.000000 0 0 1
-16.985135 -23.162806 30.158421 41.647819 0.938073 0.761025 0.045250 -0.027735 -1877.410000 0 0 1
-16.257635 -21.778806 30.093001 40.548932 0.929546 0.734538 0.029261 -0.021547 9833.570000 0 0 1
-17.025235 -20.635506 29.786331 40.036337 0.880969 0.731786 0.031058 -0.024147 477568.000000 0 0 1
-16.151235 -19.509306 29.476971 38.863444 0.879289 0.709826 0.033686 -0.019366 529122.000000 0 0 1
-15.622835 -18.727706 30.676261 39.189705 0.875541 0.671703 0.040985 -0.022910 -206694.000000 0 0 1
-15.003635 -17.540906 30.317231 38.104160 0.863204 0.650731 0.044109 -0.018814 -188829.000000 0 0 1
-14.566135 -16.894006 31.529761 38.622605 0.859258 0.615725 0.046405 -0.023810 73781.600000 0 0 1
-14.066035 -15.428606 31.263511 37.593914 0.831563 0.588794 0.062390 -0.029529 -395745.000000 0 0 1
-12.882435 -15.470506 30.509431 36.552963 0.876426 0.583274 0.071238 -0.032707 -374365.000000 0 0 1
-12.258535 -14.227406 30.592971 35.897363 0.859598 0.550555 0.064820 -0.033627 -767117.000000 0 0 1
-10.771035 -14.174906 30.292201 35.136315 0.921011 0.531330 0.083133 -0.034213 -403221.000000 0 0 1
-10.296535 -12.830006 30.389341 34.556328 0.894511 0.496165 0.092422 -0.035608 -311306.000000 0 0 1
-8.916435 -12.752006 30.663801 34.385829 0.960595 0.469583 0.069120 -0.032004 -262506.000000 0 0 1
-8.517435 -11.277706 30.460141 33.579065 0.923947 0.434414 0.047784 -0.024896 -384825.000000 0 0 1
-9.075635 -10.413106 31.436781 34.337606 0.853919 0.413996 0.053041 -0.026606 86648.600000 0 0 1
-8.866935 -9.046806 31.105551 33.586047 0.795439 0.386736 0.042463 -0.020361 -423705.000000 0 0 1
-9.706435 -8.199706 32.055181 34.481658 0.701450 0.377389 0.022422 -0.023082 241829.000000 0 0 1
-11.060335 -8.181606 31.582301 34.448679 0.636893 0.410822 0.053670 -0.032676 371738.000000 0 0 1
-12.072735 -7.673906 32.408418 35.425208 0.566214 0.415683 0.049598 -0.036299 -248047.000000 0 0 1
-11.968535 -6.318806 33.063949 35.726711 0.485758 0.388526 0.038378 -0.026228 -749305.000000 0 0 1
-12.117135 -5.235006 32.163081 34.766278 0.407813 0.389437 0.041207 -0.027414 259898.000000 0 0 1
-12.661035 -4.079506 32.760500 35.358091 0.311706 0.385701 0.044478 -0.031918 -232780.000000 0 0 1
-12.261435 -2.802606 31.999531 34.382662 0.224711 0.374507 0.044936 -0.020442 116019.000000 0 0 1
-10.907535 -2.430106 32.182761 34.067725 0.219211 0.334209 0.058058 -0.028808 190520.000000 0 0 1
-10.443335 -1.663306 31.095131 32.844133 0.157943 0.327814 0.050603 -0.020798 82782.200000 0 0 1
-8.901135 -1.501206 31.042941 32.328750 0.167081 0.282982 0.067150 -0.020728 333789.000000 0 0 1
-8.465335 -0.726206 32.151251 33.254958 0.085576 0.258358 0.061670 -0.030511 -1235030.000000 0 0 1
-7.116735 -0.460206 32.029491 32.813839 0.064575 0.219083 0.067516 -0.033405 -1186800.000000 0 0 1
-6.543335 0.015294 33.348700 33.984574 -0.002337 0.193749 0.087325 -0.050867 -92622.200000 0 0 1
-7.082235 1.241494 33.852999 34.608163 -0.173534 0.209285 0.084198 -0.037798 -14033.700000 0 0 1
-6.662635 2.363894 33.100778 33.847308 -0.340943 0.210416 0.090912 -0.037428 235281.000000 0 0 1
-7.471535 3.640394 33.504321 34.519789 -0.453384 0.243156 0.099431 -0.034734 429455.000000 0 0 1
-8.638235 3.809294 32.703255 34.038695 -0.415328 0.281042 0.073504 -0.026794 254601.000000 0 0 1
-9.358535 4.940294 33.112926 34.762833 -0.485711 0.309329 0.045011 -0.008435 1904.300000 0 0 1
-10.356435 5.476094 32.087131 34.158855 -0.486392 0.350065 0.028359 0.002704 375499.000000 0 0 1
-11.388835 6.339794 32.551085 35.063823 -0.507948 0.380879 0.025590 0.000072 -34805.700000 0 0 1
-12.376735 6.521794 31.597651 34.556171 -0.484966 0.416810 -0.001417 0.005728 -403369.000000 0 0 1
-13.285935 7.712794 31.866151 35.375908 -0.525975 0.449218 0.017766 -0.008030 208812.000000 0 0 1
-14.118335 7.588894 33.037917 36.720875 -0.493211 0.451705 0.023671 -0.008939 1090130.000000 0 0 1
-15.021635 8.729494 33.140942 37.418921 -0.526427 0.482854 0.029004 -0.003479 668652.000000 0 0 1
-15.745135 8.895594 -33.895074 38.417664 -0.514267 2.651477 0.031754 0.000503 4966.470000 0 0 1
-14.980035 9.354994 -32.833914 37.282479 -0.558238 2.648091 0.014995 -0.000389 -280013.000000 0 0 1
-15.836935 9.699894 -31.744684 36.778002 -0.549549 2.612258 0.029473 -0.000909 -904739.000000 0 0 1
-14.972135 10.140494 -30.582294 35.528455 -0.595322 2.607603 0.038676 -0.013014 27341.400000 0 0 1
-14.214535 11.306194 -30.759354 35.721435 -0.671928 2.608205 0.039358 -0.015575 -91955.800000 0 0 1
-13.135035 11.230294 -31.653774 36.063972 -0.707383 2.641862 0.051070 -0.025043 -636904.000000 0 0 1
-12.144235 12.415994 -31.846434 36.274436 -0.796463 2.642319 0.055169 -0.017409 173092.000000 0 0 1
-12.744635 13.521194 -32.449744 37.392971 -0.814955 2.621561 0.048914 -0.024000 -399702.000000 0 0 1
-11.926635 14.636394 -32.646224 37.712658 -0.887059 2.617257 0.042625 -0.026936 -549544.000000 0 0 1
-12.166735 15.693394 -31.542594 37.272608 -0.911313 2.579736 0.050828 -0.027416 1381710.000000 0 0 1
-13.493935 16.298794 -31.528544 37.970858 -0.879267 2.550505 0.046879 -0.021313 1324580.000000 0 0 1
-13.565935 17.207894 -30.445254 37.510794 -0.903196 2.517750 0.022859 -0.021699 349004.000000 0 0 1
-15.001535 17.816394 -30.412904 38.306849 -0.870961 2.488040 0.013904 -0.025580 223175.000000 0 0 1
-15.254435 18.505994 -31.606134 39.675147 -0.881415 2.492484 0.018597 -0.025521 1235100.000000 0 0 1
-16.557535 19.174294 -31.689834 40.571555 -0.858501 2.467198 0.004659 -0.016744 1551030.000000 0 0 1
-16.829335 20.343494 -30.704874 40.495352 -0.879654 2.431394 -0.030202 -0.016870 -447041.000000 0 0 1
-16.139535 21.553394 -31.138124 41.165716 -0.928053 2.428602 -0.023689 -0.006995 231809.000000 0 0 1
-16.420535 22.765694 -30.559244 41.494315 -0.945928 2.398631 -0.030419 -0.011880 -581458.000000 0 0 1
-17.804235 23.358894 -30.837104 42.585863 -0.919530 2.380548 -0.029548 -0.009257 559395.000000 0 0 1
-18.917435 22.645094 -30.240584 42.251184 -0.874847 2.368470 -0.018727 -0.019531 456238.000000 0 0 1
-19.868335 22.334094 -31.212004 43.217493 -0.843759 2.377785 0.015323 -0.014196 -746834.000000 0 0 1
-21.116235 21.552094 -30.648684 43.008487 -0.795613 2.364021 0.030794 -0.028455 839262.000000 0 0 1
-22.158235 22.311094 -30.040754 43.488150 -0.788836 2.333364 0.074772 -0.032709 669599.000000 0 0 1
-22.810435 23.329994 -30.841884 44.897955 -0.796658 2.328056 0.086434 -0.021964 -381965.000000 0 0 1
-24.127935 22.886894 -31.525004 45.823499 -0.759007 2.329479 0.093278 -0.032988 -95540.900000 0 0 1
-23.961435 21.845994 -32.471394 45.888879 -0.739250 2.356905 0.088879 -0.023736 625590.000000 0 0 1
-25.216925 21.603794 -33.112174 46.893851 -0.708381 2.354785 0.106880 -0.021665 496747.000000 0 0 1
-25.014535 20.781994 34.002991 47.051266 -0.693239 0.763125 0.106041 -0.007101 -16720.100000 0 0 1
-24.795435 19.373894 34.174775 46.455104 -0.663265 0.744168 0.095746 -0.015025 246029.000000 0 0 1
-24.334835 18.841794 32.917699 45.064091 -0.658855 0.751795 0.088589 -0.027662 22748.200000 0 0 1
-24.081035 17.338394 32.985168 44.368204 -0.624024 0.732595 0.053415 -0.002256 421621.000000 0 0 1
-25.259005 16.572994 33.270598 44.940118 -0.580667 0.737233 0.057184 -0.006931 795940.000000 0 0 1
-25.494605 15.497294 32.356938 44.012640 -0.546183 0.744873 0.066965 -0.014581 -772375.000000 0 0 1
-26.319835 14.354294 32.864537 44.484349 -0.499289 0.739525 0.054583 -0.012724 -437668.000000 0 0 1
-27.699655 14.697894 32.958475 45.492418 -0.487840 0.760513 0.059544 -0.007617 -47881.800000 0 0 1
-28.602085 13.644994 32.997538 45.750439 -0.445130 0.765190 0.056860 -0.002654 -426515.000000 0 0 1
-28.494105 12.528294 34.107929 46.176001 -0.414239 0.739730 0.034430 0.000129 186479.000000 0 0 1
-27.433535 11.530594 33.920812 45.123996 -0.397892 0.720123 0.034760 -0.005606 781346.000000 0 0 1
-27.827065 10.256094 -34.044814 45.150663 -0.353117 2.424968 0.038560 -0.001955 -509356.000000 0 0 1
-26.650995 9.278294 -33.911144 44.117207 -0.335017 2.447540 0.032677 -0.013312 -22138.400000 0 0 1
-25.912645 8.966994 33.337319 43.165368 -0.333149 0.688317 0.031493 0.000296 600149.000000 0 0 1
-24.919535 9.921494 32.975254 42.506313 -0.378903 0.682857 0.028314 -0.003961 101663.000000 0 0 1
-23.668335 9.408194 32.185171 41.043751 -0.378350 0.669443 0.033366 -0.007356 265275.000000 0 0 1
-23.899335 9.244894 30.815711 40.078103 -0.369098 0.693691 0.042467 -0.009748 -258722.000000 0 0 1
-22.740635 8.988894 30.070511 38.757868 -0.376430 0.682726 0.054217 -0.015678 -191797.000000 0 0 1
-22.891835 8.972394 28.572481 37.695181 -0.373545 0.710574 0.082332 -0.030475 -121066.000000 0 0 1
-23.019535 10.298594 28.074691 37.737890 -0.420677 0.731850 0.076709 -0.028495 138510.000000 0 0 1
-23.080335 10.142594 26.672381 36.701363 -0.414044 0.757231 0.075840 -0.034846 -1085200.000000 0 0 1
-23.334835 11.469294 25.923391 36.716229 -0.456832 0.786895 0.063436 -0.034184 1333070.000000 0 0 1
-24.638435 12.092394 26.122851 37.890393 -0.456256 0.810092 0.075426 -0.033283 1702410.000000 0 0 1
-25.734235 11.330494 25.587661 38.017882 -0.414749 0.832481 0.071826 -0.030443 -36033.900000 0 0 1
-27.145385 11.899694 25.833231 39.317051 -0.413140 0.853899 0.063179 -0.030147 23383.600000 0 0 1
-27.293115 13.145494 25.206211 39.409025 -0.448853 0.876812 0.076942 -0.035133 198372.000000 0 0 1
-28.529835 13.767494 25.526431 40.682848 -0.449602 0.892523 0.062340 -0.034732 293715.000000 0 0 1
-28.704645 15.132294 24.797481 40.839418 -0.485148 0.918271 0.074952 -0.037173 -239457.000000 0 0 1
-27.799815 16.079394 25.285311 40.874486 -0.524385 0.903826 0.089366 -0.036503 26341.800000 0 0 1
-27.832705 17.188994 24.452521 40.841729 -0.553248 0.928902 0.086852 -0.029262 -216870.000000 0 0 1
-22.843235 -8.951206 31.516861 39.940582 0.373464 0.661464 0.057585 -0.014274 223052.000000 0 0 1
-21.967035 -8.566306 30.417971 38.486169 0.371823 0.659398 0.065010 -0.020770 411301.000000 0 0 1
-22.426635 -9.083006 29.166171 37.896181 0.384818 0.692529 0.060372 -0.017628 551426.000000 0 0 1
-21.297835 -9.116006 28.043211 36.374731 0.404430 0.690460 0.054475 -0.029624 640654.000000 0 0 1
-20.836735 -7.784106 27.789261 35.595012 0.357522 0.675001 0.057719 -0.027748 1045040.000000 0 0 1
-19.716235 -7.260606 28.578361 35.470679 0.352844 0.633957 0.065441 -0.031254 1212130.000000 0 0 1
-18.296335 -7.579006 27.978621 34.278280 0.392718 0.615958 0.076244 -0.028049 405415.000000 0 0 1
-17.772735 -8.947006 28.172671 34.490846 0.466373 0.614926 0.079618 -0.022500 406486.000000 0 0 1
-17.370735 -9.305506 29.493341 35.471003 0.491798 0.589034 0.076072 -0.025700 -471815.000000 0 0 1
-15.967235 -8.827606 29.900641 35.027526 0.505034 0.547876 0.079059 -0.028893 302239.000000 0 0 1
-14.883235 -9.460506 29.191911 34.105419 0.566220 0.543446 0.077472 -0.026418 532919.000000 0 0 1
-13.633535 -8.914206 29.615291 33.799436 0.579073 0.502862 0.072496 -0.030263 671483.000000 0 0 1
-12.386535 -9.653206 29.062511 33.033925 0.662010 0.495402 0.068710 -0.025900 154562.000000 0 0 1
-12.098135 -9.446806 27.723561 31.689160 0.662953 0.505651 0.088575 -0.025715 -300728.000000 0 0 1
-10.946135 -10.157706 27.344711 31.156542 0.748056 0.499848 0.082965 -0.018703 -184636.000000 0 0 1
-10.616935 -9.902106 25.834111 29.633973 0.750575 0.511986 0.073220 -0.012298 -308694.000000 0 0 1
-11.393335 -10.504906 24.832811 29.271653 0.744850 0.557922 0.066331 -0.011720 -255503.000000 0 0 1
-10.902435 -10.347606 23.539621 27.929372 0.759295 0.568282 0.036157 -0.010818 -79059.900000 0 0 1
-11.984435 -10.828306 22.547461 27.735662 0.734762 0.621611 0.031845 -0.016072 -482982.000000 0 0 1
-11.852335 -12.237606 22.257261 28.028959 0.801390 0.653302 0.041436 -0.016430 358556.000000 0 0 1
-13.071135 -12.857306 21.910061 28.569489 0.777151 0.696793 0.031889 -0.014730 203581.000000 0 0 1
-14.241035 -12.860206 22.935061 29.903328 0.734491 0.696685 0.038698 -0.014261 -303204.000000 0 0 1
-15.489635 -13.278906 22.418061 30.312170 0.708704 0.738361 0.034776 -0.010951 296803.000000 0 0 1
-16.464635 -13.240606 23.457891 31.570089 0.677287 0.733192 0.036414 -0.010692 -200602.000000 0 0 1
-17.781935 -13.867306 22.995861 32.207283 0.662335 0.775608 0.046580 -0.017169 -858254.000000 0 0 1
-17.802835 -15.287806 23.092061 32.922656 0.709540 0.793432 0.038027 -0.017110 709846.000000 0 0 1
-19.087835 -15.899406 22.855761 33.756813 0.694518 0.827021 0.051049 -0.013516 690961.000000 0 0 1
-19.955535 -15.904406 24.161341 35.141769 0.672904 0.812702 0.049381 -0.019534 -361516.000000 0 0 1
-19.517135 -16.776206 25.186611 36.010069 0.710020 0.796193 0.041041 -0.022407 395182.000000 0 0 1
-20.398635 -16.645006 26.294981 37.210034 0.684413 0.786025 0.044647 -0.024102 46576.400000 0 0 1
-20.060435 -17.604006 27.447891 38.284577 0.720272 0.771388 0.041752 -0.027923 -90125.900000 0 0 1
-20.224535 -18.997906 27.151681 38.822237 0.754135 0.796260 0.048929 -0.026105 161411.000000 0 0 1
-19.991135 -19.788106 28.299981 39.901173 0.780294 0.782360 0.037822 -0.027341 -629305.000000 0 0 1
-19.919635 -21.276706 27.963521 40.391195 0.818328 0.806101 0.046842 -0.019636 -347473.000000 0 0 1
-21.194335 -21.810806 27.718661 41.148941 0.799732 0.831703 0.051814 -0.021069 -119996.000000 0 0 1
-21.074635 -23.225706 27.484481 41.700964 0.833917 0.851195 0.061143 -0.011326 -1151710.000000 0 0 1
-22.361035 -23.816106 27.041991 42.408633 0.816898 0.879349 0.071788 -0.012241 -960406.000000 0 0 1
-23.294035 -23.925906 28.109911 43.648920 0.798779 0.871081 0.065123 -0.009604 805289.000000 0 0 1
-24.455235 -24.696006 27.738481 44.467681 0.790297 0.897214 0.049518 -0.005491 455863.000000 0 0 1
-25.056135 -25.502886 28.845721 45.937814 0.794234 0.891906 0.029794 -0.008334 -447568.000000 0 0 1
-25.865035 -24.762706 29.733831 46.543447 0.763628 0.877806 0.028170 0.004097 40830.800000 0 0 1
-26.569585 -25.578326 30.621011 47.935790 0.766392 0.877869 0.025350 0.008414 -658487.000000 0 0 1
-27.748565 -24.867506 31.251411 48.631538 0.730697 0.872888 0.002914 0.014241 -256933.000000 0 0 1
-28.746785 -24.509706 30.291571 48.421924 0.706006 0.894927 0.011864 0.011579 386889.000000 0 0 1
-29.809115 -23.820806 30.921021 49.113376 0.674199 0.889778 0.018349 0.001158 -458642.000000 0 0 1
-31.126845 -23.668406 30.178851 49.394707 0.650115 0.913507 0.018273 0.000486 -534373.000000 0 0 1
-31.924285 -24.820106 30.247341 50.498508 0.660850 0.928576 0.014282 0.002831 217675.000000 0 0 1
-33.024065 -24.816006 29.329681 50.662148 0.644430 0.953384 0.017063 -0.001064 234279.000000 0 0 1
-34.061995 -25.880626 29.732501 52.096526 0.649750 0.963415 0.007038 -0.000515 -267169.000000 0 0 1
-33.596455 -27.192656 29.806391 52.503175 0.680441 0.967079 0.014862 -0.004186 -246311.000000 0 0 1
-34.605358 -28.007846 30.324361 53.865919 0.680416 0.972833 0.016446 -0.003915 -164653.000000 0 0 1
-34.049776 -29.382096 30.719091 54.464277 0.711945 0.971547 0.020821 -0.008929 -69390.800000 0 0 1
-33.376735 -29.302576 31.934301 54.703264 0.720489 0.947428 0.027483 -0.003621 -120182.000000 0 0 1
-32.816245 -30.534956 32.368540 55.290252 0.749404 0.945387 0.035467 -0.016873 301474.000000 0 0 1
-31.955195 -30.530586 33.679323 55.565709 0.762603 0.919627 0.029378 -0.015917 229218.000000 0 0 1
-32.719435 -30.407256 -33.592014 55.889052 0.748787 2.215608 0.016758 -0.001414 -101286.000000 0 0 1
-31.848775 -30.518406 -32.502414 54.791647 0.764070 2.205824 0.025148 -0.003485 106223.000000 0 0 1
-32.500835 -29.896206 -31.208184 54.074377 0.743680 2.186012 0.028125 -0.007249 143354.000000 0 0 1
-32.550975 -28.467636 -31.231624 53.342166 0.718578 2.196288 0.015763 -0.010595 -14338.000000 0 0 1
-31.302435 -27.843356 -30.986634 52.108219 0.726981 2.207638 0.031376 -0.005569 97302.300000 0 0 1
-31.425305 -26.355506 -30.906204 51.355194 0.697880 2.216565 0.005262 0.006114 529356.000000 0 0 1
-32.300565 -25.969786 -29.795644 51.044458 0.677178 2.194098 0.008381 -0.011145 434930.000000 0 0 1
-32.264735 -24.568706 -29.557534 50.182490 0.650803 2.200618 0.026472 -0.011345 319170.000000 0 0 1
-30.980945 -24.035506 -28.835934 48.672740 0.659820 2.204887 0.033113 -0.019043 319376.000000 0 0 1
-30.999505 -22.597406 -28.682914 47.899078 0.629899 2.212823 0.034009 -0.014520 29362.800000 0 0 1
-29.807275 -22.111006 -28.090774 46.545267 0.638232 2.218699 0.057826 -0.013134 245979.000000 0 0 1
-29.469535 -20.608006 -28.489444 45.878011 0.610255 2.240792 0.069668 -0.019873 123215.000000 0 0 1
-28.898295 -20.408406 -29.787874 46.248589 0.614885 2.270619 0.081460 -0.014076 372427.000000 0 0 1
-28.602565 -19.010806 -29.824914 45.486734 0.586608 2.285884 0.078724 -0.023541 -269424.000000 0 0 1
-28.042745 -18.485106 -31.214624 45.852453 0.582799 2.319599 0.087081 -0.021827 -511355.000000 0 0 1
-28.871175 -18.344306 -32.297624 47.044605 0.566032 2.327505 0.078177 -0.029485 -225891.000000 0 0 1
-29.870725 -17.351106 -32.008584 47.094273 0.526237 2.318110 0.074046 -0.024714 -330413.000000 0 0 1
-30.552495 -16.688506 -33.227494 48.125124 0.499940 2.332893 0.078260 -0.029888 72179.300000 0 0 1
-31.551605 -17.457906 -33.876234 49.476070 0.505383 2.324987 0.066696 -0.026656 -530068.000000 0 0 1
-32.811235 -17.062206 -33.477454 49.884226 0.479528 2.306492 0.054584 -0.020807 -951012.000000 0 0 1
-33.964985 -17.569806 34.051315 51.203617 0.477385 0.843279 0.044171 -0.021290 71513.100000 0 0 1
-33.987265 -18.992406 33.929494 51.643550 0.509582 0.853972 0.030029 -0.015877 561693.000000 0 0 1
-35.125862 -19.369806 33.135617 52.028691 0.503948 0.880362 0.030909 -0.014173 333797.000000 0 0 1
-35.579212 -20.810406 33.430753 53.071354 0.529245 0.889345 0.026549 -0.018071 210798.000000 0 0 1
-34.575904 -21.793506 33.167267 52.635708 0.562408 0.889077 0.033167 -0.012462 -101306.000000 0 0 1
-34.960170 -23.063506 33.646014 53.723302 0.583170 0.894020 0.031297 -0.010655 -1446520.000000 0 0 1
-33.815485 -24.095006 33.564150 53.391091 0.619095 0.890984 0.027356 -0.005028 612603.000000 0 0 1
-32.799405 -23.945406 -33.858714 52.873396 0.630614 2.265781 0.016177 -0.011425 664849.000000 0 0 1
-32.096645 -22.659406 -33.898304 51.891602 0.614724 2.282668 0.030898 -0.012956 -1988420.000000 0 0 1
-30.888875 -22.609506 -32.981294 50.527994 0.631857 2.281983 0.022164 -0.006218 -728154.000000 0 0 1
-29.921585 -23.561906 -33.412594 50.664249 0.667045 2.290937 0.024066 -0.002606 318934.000000 0 0 1
-28.594845 -23.369006 -32.950684 49.492658 0.685168 2.299320 0.038848 -0.011063 450954.000000 0 0 1
-28.371105 -23.753606 -31.468504 48.573863 0.697043 2.275553 0.047054 0.000233 -882448.000000 0 0 1
-28.288765 -25.175626 -31.330854 49.149657 0.727236 2.261991 0.037161 -0.002936 15409.500000 0 0 1
-27.651645 -25.439786 -30.090774 48.137832 0.743761 2.246051 0.038264 -0.007213 -186767.000000 0 0 1
-27.069805 -26.853826 -29.988264 48.509776 0.781393 2.237234 0.037406 -0.007131 -131368.000000 0 0 1
-28.059565 -27.870326 -30.041904 49.664981 0.782015 2.220425 0.025976 -0.001863 57114.500000 0 0 1
-27.609105 -29.134776 -29.612844 49.880040 0.812279 2.206422 0.020738 -0.005553 -506519.000000 0 0 1
-28.377895 -30.376336 -29.980274 51.252742 0.819399 2.195614 0.018742 0.004652 -481009.000000 0 0 1
-28.021015 -30.850756 -31.258274 52.096316 0.833427 2.214309 0.032181 -0.005079 383538.000000 0 0 1
-28.681295 -32.062516 -31.558414 53.353118 0.841004 2.203715 0.050683 0.001427 -277618.000000 0 0 1
-28.250425 -32.561416 -32.972194 54.272442 0.856170 2.223745 0.041948 -0.006922 1358190.000000 0 0 1
-26.812085 -32.738996 -33.049514 53.693577 0.884598 2.233843 0.028466 -0.003690 1019320.000000 0 0 1
-26.395395 -33.167306 34.099538 54.401890 0.898606 0.893347 0.038007 -0.007360 652920.000000 0 0 1
-24.844035 -33.115646 33.841820 53.470936 0.927154 0.885502 0.027436 -0.006457 926547.000000 0 0 1
-24.446735 -33.898566 32.714634 53.075446 0.946001 0.906659 0.030594 0.000094 55927.400000 0 0 1
-23.682835 33.373745 33.077503 52.619433 -0.953640 0.891022 0.023857 0.005151 -335467.000000 0 0 1
-23.547535 32.311661 31.957371 51.184015 -0.941026 0.896481 0.021597 -0.010051 46711.700000 0 0 1
-24.752635 31.642461 31.591611 51.107418 -0.906966 0.904420 0.034274 -0.027914 159961.000000 0 0 1
-24.486535 30.697971 30.549411 49.751607 -0.897484 0.909629 0.028757 -0.017438 -373286.000000 0 0 1
-25.692355 29.961611 29.956111 49.549610 -0.861959 0.921573 0.035393 -0.014682 -282274.000000 0 0 1
-26.330725 29.020481 30.800481 49.841399 -0.833954 0.904638 0.038430 -0.017709 593930.000000 0 0 1
-27.667085 28.792251 30.347991 50.154381 -0.805324 0.920915 0.043638 -0.019123 544129.000000 0 0 1
-28.172755 27.503261 31.002911 50.113012 -0.773374 0.903760 0.044630 -0.033927 -24248.100000 0 0 1
-27.379825 26.395111 30.541761 48.776592 -0.767088 0.894183 0.039950 -0.021118 311330.000000 0 0 1
-27.842755 25.111721 30.923921 48.601507 -0.733871 0.881136 0.058897 -0.020965 774821.000000 0 0 1
-28.944635 24.470911 29.976121 48.323754 -0.701840 0.901648 0.071190 -0.020747 727213.000000 0 0 1
-28.451315 24.201001 28.680031 47.092568 -0.704849 0.915980 0.082929 -0.024285 -284194.000000 0 0 1
-29.307145 23.427271 27.857591 46.731052 -0.674357 0.932129 0.087099 -0.013610 67782.000000 0 0 1
-28.596435 22.934711 26.585281 45.282825 -0.675967 0.943332 0.105651 -0.017787 15291.100000 0 0 1
-27.613155 21.964111 26.876751 44.353898 -0.671943 0.919822 0.098124 -0.023508 -70424.200000 0 0 1
-27.029045 21.407911 25.707501 43.008645 -0.669864 0.930131 0.081616 -0.003584 356586.000000 0 0 1
-25.630605 20.790011 26.043531 42.040671 -0.681497 0.902711 0.079226 -0.016158 281832.000000 0 0 1
-25.607015 19.592211 26.801761 41.927418 -0.653102 0.877284 0.104969 -0.032495 -1129430.000000 0 0 1
-24.337635 19.211511 27.113221 41.188948 -0.668228 0.852285 0.085090 -0.022709 -1332130.000000 0 0 1
-24.323135 18.076211 28.134181 41.350894 -0.639115 0.822520 0.107411 -0.030758 -392544.000000 0 0 1
-23.008135 17.703111 28.437231 40.638043 -0.655820 0.795723 0.083063 -0.019526 -25963.100000 0 0 1
-23.052635 16.514011 29.302751 40.777295 -0.621622 0.769003 0.079115 -0.021064 561836.000000 0 0 1
-21.652535 15.799111 29.443161 39.816378 -0.630360 0.738508 0.067766 -0.025283 -81059.000000 0 0 1
-20.719335 16.414411 30.216991 40.147108 -0.669983 0.718708 0.086402 -0.012287 -1613030.000000 0 0 1
-19.588535 15.623711 30.114151 39.174905 -0.673273 0.693974 0.061698 -0.014057 -934497.000000 0 0 1
-18.456435 16.189811 30.985441 39.532867 -0.720069 0.670052 0.044074 -0.011423 -694496.000000 0 0 1
-18.714235 15.976611 32.345851 40.641466 -0.706646 0.650332 0.019850 -0.000701 243391.000000 0 0 1
-17.900435 16.743411 33.217719 41.281767 -0.752013 0.635696 0.017922 -0.003196 -781977.000000 0 0 1
-18.076635 16.476411 -33.659344 41.607551 -0.739119 2.513198 0.000280 -0.009570 -51137.900000 0 0 1
-19.182835 17.087311 -33.031914 41.845725 -0.727687 2.480584 0.011205 -0.006200 511662.000000 0 0 1
-20.441335 16.477811 -33.337904 42.435625 -0.678451 2.474480 0.015770 0.001669 -345434.000000 0 0 1
-21.637035 17.033211 -32.592594 42.668123 -0.666902 2.440074 0.025407 -0.010537 -440114.000000 0 0 1
-21.650435 16.740111 -31.197864 41.500354 -0.658184 2.421507 0.021883 -0.016902 49865.000000 0 0 1
-22.546135 17.593811 -30.498814 41.809664 -0.662642 2.388340 0.027527 -0.025330 -138136.000000 0 0 1
-22.619335 17.410511 -28.970204 40.669804 -0.656002 2.363605 0.024771 -0.023625 24800.900000 0 0 1
-23.181335 16.182211 -28.561374 40.186942 -0.609430 2.361307 0.011024 -0.018863 1112060.000000 0 0 1
-24.631035 16.164211 -28.524874 41.007780 -0.580759 2.340046 0.030803 -0.016758 1176240.000000 0 0 1
-25.275595 14.950411 -27.847074 40.470113 -0.534143 2.329650 0.033230 -0.013828 -240710.000000 0 0 1
-25.144115 13.678911 -28.476824 40.376585 -0.498241 2.353615 0.001157 -0.004013 -104400.000000 0 0 1
-26.031535 12.751911 -27.895164 40.229246 -0.455506 2.337000 -0.010712 -0.005386 -231445.000000 0 0 1
-25.567385 11.293711 -27.975104 39.545487 -0.415950 2.356632 0.008337 -0.007159 164942.000000 0 0 1
-24.587935 10.954111 -27.009454 38.132266 -0.419112 2.357897 0.005176 -0.003237 473534.000000 0 0 1
-23.530235 10.147511 -27.564854 37.635955 -0.407156 2.392647 0.001502 -0.000803 313109.000000 0 0 1
-22.619935 9.569911 -26.474304 36.112788 -0.400238 2.393666 0.028089 -0.007727 -154492.000000 0 0 1
-23.093835 8.505011 -25.671014 35.562078 -0.352867 2.377290 0.034804 -0.011824 -156487.000000 0 0 1
-22.044735 8.136911 -24.824574 34.182439 -0.353596 2.383629 0.063935 -0.005821 -17292.700000 0 0 1
-22.522235 7.024211 -23.809274 33.518236 -0.302319 2.360775 0.072153 -0.002096 231693.000000 0 0 1
-22.872535 5.825111 -24.492774 34.014420 -0.249376 2.374700 0.070541 -0.017149 184641.000000 0 0 1
-23.366935 5.032511 -23.447274 33.483048 -0.212129 2.346576 0.073917 -0.013911 -460087.000000 0 0 1
34.928640 24.903594 -10.479674 44.159058 0.619388 1.810399 0.015666 0.004838 366721.000000 0 0 1
36.109820 24.383294 -9.878874 44.677245 0.593924 1.793755 0.015733 -0.001272 401397.000000 0 0 1
-36.134505 23.240594 -10.569174 44.244040 -0.571558 1.812012 0.031213 -0.002584 -177630.000000 0 0 1
-35.070894 22.451394 -9.801974 42.779801 -0.569435 1.801976 0.055824 -0.011688 -321244.000000 0 0 1
-35.545239 21.934994 -8.614674 42.647633 -0.552899 1.774192 0.038932 -0.007686 358975.000000 0 0 1
-34.432543 21.394494 -7.907174 41.301910 -0.555967 1.763434 0.068831 -0.004882 331486.000000 0 0 1
-34.844393 20.543494 -6.745374 41.008133 -0.532721 1.736036 0.069745 0.011125 -156056.000000 0 0 1
-35.322046 19.305694 -7.161474 40.885737 -0.500200 1.746863 0.063690 0.004785 334902.000000 0 0 1
-35.706686 18.407794 -6.083074 40.630261 -0.475993 1.721079 0.065539 -0.008365 -224937.000000 0 0 1
36.256980 17.164094 -6.533774 40.643141 0.442143 1.732257 0.064846 -0.001940 -104671.000000 0 0 1
35.036100 17.488094 -7.163174 39.807948 0.462963 1.751725 0.055117 -0.002771 25923.200000 0 0 1
34.317890 16.334694 -7.589774 38.757508 0.444249 1.767897 0.063603 0.002050 136611.000000 0 0 1
33.312970 16.750194 -8.687974 38.285817 0.465895 1.799715 0.034554 -0.005854 -275663.000000 0 0 1
32.775870 15.679094 -9.365974 37.520835 0.446197 1.823085 0.053807 -0.012890 -237992.000000 0 0 1
32.048060 16.106494 -10.495074 37.371698 0.465704 1.855455 0.057000 -0.010747 -446225.000000 0 0 1
31.462450 14.829894 -11.214974 36.545685 0.440468 1.882705 0.050013 -0.011465 600374.000000 0 0 1
30.255010 14.273594 -10.662374 35.111071 0.440815 1.879344 0.043909 0.000322 999366.000000 0 0 1
30.300120 13.833594 -9.315074 34.586647 0.428290 1.843489 0.036106 0.004732 -445302.000000 0 0 1
29.184510 12.728094 -9.092274 33.112073 0.411256 1.848961 0.054745 0.016433 389616.000000 0 0 1
29.392600 11.528694 -9.779374 33.052562 0.373791 1.871166 0.052170 0.012318 285380.000000 0 0 1
28.410630 10.547194 -9.485474 31.755021 0.355471 1.874135 0.068354 0.006738 -308552.000000 0 0 1
28.775840 9.172494 -10.140374 31.859234 0.308575 1.894718 0.074483 0.000483 -840810.000000 0 0 1
29.867490 8.600094 -9.522774 32.507103 0.280358 1.868101 0.057379 -0.004644 -397912.000000 0 0 1
29.901910 7.244994 -9.712274 32.263639 0.237711 1.876567 0.066175 -0.013869 371800.000000 0 0 1
31.088500 6.680694 -8.849274 33.006607 0.211674 1.842223 0.075049 -0.019344 442594.000000 0 0 1
32.381870 6.960094 -9.326574 34.409495 0.211717 1.845276 0.082880 -0.024588 -341493.000000 0 0 1
33.326640 6.634194 -8.341974 34.989512 0.196497 1.811528 0.093175 -0.019283 130851.000000 0 0 1
34.777710 6.958294 -8.814774 36.545960 0.197472 1.814395 0.097698 -0.023802 319593.000000 0 0 1
35.188340 6.219294 -9.933374 37.088688 0.174936 1.841934 0.095496 -0.026252 959161.000000 0 0 1
-36.119165 6.351094 -10.167074 38.056535 -0.174058 1.841238 0.098403 -0.031608 207217.000000 0 0 1
-35.621647 5.682194 -11.464774 37.850101 -0.158183 1.878530 0.100068 -0.037284 1275630.000000 0 0 1
-34.196486 5.562594 -11.752074 36.584879 -0.161253 1.897822 0.099643 -0.041229 1876290.000000 0 0 1
-33.617125 6.725794 -12.388074 36.452871 -0.197463 1.917541 0.089609 -0.037820 -16845.000000 0 0 1
-32.897655 7.647694 -11.354974 35.632547 -0.228412 1.895121 0.079703 -0.027849 450308.000000 0 0 1
-33.878605 8.352494 -10.503974 36.439779 -0.241721 1.863201 0.089575 -0.029684 1056020.000000 0 0 1
-34.445821 9.490494 -11.115074 37.418297 -0.268849 1.872397 0.093933 -0.031110 491659.000000 0 0 1
-35.510148 10.211794 -10.208774 38.333672 -0.280018 1.840363 0.076034 -0.020859 761685.000000 0 0 1
-34.816728 10.793294 -9.114574 37.573597 -0.300608 1.815820 0.079217 -0.012238 349455.000000 0 0 1
-35.595787 11.786994 -8.498474 38.447592 -0.319770 1.793678 0.067547 -0.011145 245361.000000 0 0 1
-34.668080 12.604994 -7.522474 37.647700 -0.348731 1.771963 0.071935 -0.008922 926592.000000 0 0 1
-33.610225 13.262794 -8.207474 37.052821 -0.375848 1.794156 0.067101 -0.010948 646593.000000 0 0 1
-32.862995 14.210394 -7.365074 36.553469 -0.408133 1.773673 0.067936 -0.007467 1054640.000000 0 0 1
-31.940045 15.275194 -8.066674 36.312109 -0.446093 1.794814 0.052348 -0.010609 857929.000000 0 0 1
-32.773365 16.221694 -8.777174 37.606856 -0.459612 1.806362 0.048213 -0.009646 349170.000000 0 0 1
-32.100485 17.383794 -9.139174 37.631927 -0.496327 1.816106 0.043494 -0.003072 37306.100000 0 0 1
-32.955175 18.312294 -10.067774 39.022349 -0.507188 1.831748 0.021269 -0.009227 400862.000000 0 0 1
-32.723785 18.009594 -11.439674 39.064789 -0.503113 1.867990 0.011172 -0.004188 -449340.000000 0 0 1
-33.657165 18.606194 -12.238274 40.358030 -0.505002 1.878890 0.003766 -0.011540 -1102380.000000 0 0 1
-33.139945 18.601694 -13.678074 40.390205 -0.511483 1.916276 -0.001414 0.002557 -149409.000000 0 0 1
-32.246775 19.676494 -13.862974 40.239296 -0.547875 1.922517 0.006382 0.003383 255351.000000 0 0 1
-31.780225 19.729894 -15.212574 40.381603 -0.555590 1.957050 -0.006079 0.003913 -363961.000000 0 0 1
-31.196535 21.107294 -15.569974 40.757401 -0.594842 1.962773 0.016126 -0.001095 -145956.000000 0 0 1
-29.947885 21.299294 -14.932474 39.667550 -0.618211 1.956748 0.011765 0.002549 262431.000000 0 0 1
-29.471225 22.601394 -14.724774 39.952410 -0.654228 1.948253 0.002343 0.000405 -286309.000000 0 0 1
-28.515585 23.120594 -15.800774 39.967048 -0.681295 1.977240 0.000434 0.007369 -566815.000000 0 0 1
-29.145675 23.723094 -16.944274 41.223343 -0.683189 1.994386 0.014836 0.008902 21185.200000 0 0 1
-28.270845 24.331794 -17.848374 41.350228 -0.710655 2.017105 0.003939 0.009091 -538724.000000 0 0 1
-27.594525 25.683694 -17.500574 41.561762 -0.749548 2.005425 0.014156 0.006476 285948.000000 0 0 1
-28.485675 26.799594 -17.437774 42.822049 -0.754910 1.990199 0.024144 0.003894 436277.000000 0 0 1
-27.698135 27.985394 -17.317774 43.014814 -0.790557 1.985152 0.024409 0.003458 -58585.200000 0 0 1
-28.350995 29.254994 -16.829974 44.078131 -0.801090 1.962563 0.028100 -0.000094 -608663.000000 0 0 1
-28.584905 29.300594 -15.396774 43.734223 -0.797761 1.930560 0.036539 0.000497 375643.000000 0 0 1
-27.452625 29.412094 -14.562274 42.787588 -0.819843 1.918073 0.031544 0.004264 -176358.000000 0 0 1
-27.848285 30.150094 -13.306874 43.146588 -0.825065 1.884318 0.051821 -0.001444 -152182.000000 0 0 1
-27.427005 31.468694 -13.312274 43.814791 -0.853915 1.879507 0.072513 -0.001865 -15153.400000 0 0 1
-27.770665 32.284494 -12.202374 44.298943 -0.860418 1.849860 0.073187 -0.003643 41902.500000 0 0 1
-27.215665 33.753894 -12.330274 45.078303 -0.892227 1.847858 0.046568 -0.005425 203822.000000 0 0 1
-27.827205 -33.942623 -13.424474 45.898492 0.884080 1.867617 0.035147 -0.013294 -99278.900000 0 0 1
-27.319635 -32.667423 -13.673774 44.726895 0.874312 1.881488 0.038149 -0.017506 -245506.000000 0 0 1
-27.547665 -32.051323 -15.101674 44.880082 0.860821 1.913983 0.023470 -0.014371 -503.080000 0 0 1
-26.898585 -32.828823 -16.064774 45.379979 0.884362 1.932647 0.013604 -0.007614 -69122.900000 0 0 1
-27.173655 -32.208723 -17.305074 45.555186 0.869986 1.960453 0.009111 0.003636 173140.000000 0 0 1
-26.521095 -32.855323 -18.612274 46.143878 0.891675 1.985975 0.011551 0.006794 -271051.000000 0 0 1
-26.936135 -34.132123 -19.036174 47.465073 0.902692 1.983466 0.006261 0.012140 13630.800000 0 0 1
-26.330055 33.182094 -18.356674 46.165903 -0.900030 1.979722 -0.001782 0.005458 -572937.000000 0 0 1
-26.296825 31.829894 -19.116574 45.498446 -0.880302 2.004417 0.007939 -0.001333 -99846.000000 0 0 1
-27.501545 31.133494 -19.340274 45.822218 -0.847261 2.006526 0.016131 -0.000712 90248.500000 0 0 1
-28.362445 31.682494 -20.312874 47.125593 -0.840635 2.016438 0.009300 0.006796 635138.000000 0 0 1
-29.893955 31.324994 -20.274574 47.811736 -0.808770 2.008709 0.019105 -0.008447 813904.000000 0 0 1
-30.191915 30.080494 -20.782974 47.416451 -0.783550 2.024511 0.014918 -0.017056 -636296.000000 0 0 1
-31.572895 29.957294 -20.816774 48.245469 -0.759147 2.016925 0.032312 -0.016066 -894071.000000 0 0 1
-31.879395 28.563494 -21.486874 47.894204 -0.730593 2.036030 0.026768 -0.015056 -1089190.000000 0 0 1
-33.232035 28.268994 -21.377674 48.585071 -0.704874 2.026401 0.039379 -0.017731 -506440.000000 0 0 1
-33.430595 27.037994 -21.994274 48.294988 -0.680072 2.043635 0.037847 -0.013511 -841232.000000 0 0 1
-34.858260 26.533794 -22.054074 49.046128 -0.650625 2.037181 0.056445 -0.007551 -384352.000000 0 0 1
-35.683313 27.283694 -22.961974 50.447508 -0.652784 2.043355 0.050943 -0.007091 -205403.000000 0 0 1
35.995370 26.463094 -23.394474 50.430778 0.633949 2.053181 0.065154 -0.008199 314547.000000 0 0 1
35.141400 27.080094 -24.586474 50.722225 0.656558 2.076848 0.076152 -0.015702 849068.000000 0 0 1
35.942510 27.054794 -25.772894 51.846580 0.645242 2.091049 0.070659 -0.016389 516241.000000 0 0 1
35.101000 27.325194 -26.906454 51.987533 0.661476 2.114788 0.089654 -0.010051 442348.000000 0 0 1
35.834830 27.551894 -28.266544 53.312657 0.655461 2.129637 0.082072 -0.010379 197727.000000 0 0 1
36.348200 26.342494 -28.873184 53.373957 0.627129 2.142375 0.075472 -0.001829 415382.000000 0 0 1
-35.672935 26.602594 -30.117174 53.733607 -0.640767 2.165774 0.037545 0.003014 -992164.000000 0 0 1
-35.219056 25.288994 -30.867304 53.223168 -0.622737 2.189476 0.023332 0.003993 828832.000000 0 0 1
-34.090011 24.561794 -30.345014 51.828857 -0.624351 2.196274 0.031911 0.001972 34655.400000 0 0 1
-32.931985 25.359094 -30.279574 51.424234 -0.656207 2.200393 0.008862 0.009048 -1645360.000000 0 0 1
-32.009445 24.611994 -29.329224 49.905493 -0.655486 2.199004 -0.007490 0.007225 -769949.000000 0 0 1
-31.555785 23.307894 -29.677334 49.191154 -0.636181 2.218437 0.010302 -0.003446 240362.000000 0 0 1
-32.163205 22.289094 -28.901304 48.647311 -0.606012 2.206941 0.002559 0.000029 -13844.700000 0 0 1
-31.730965 20.906594 -29.451634 48.076383 -0.582586 2.230143 0.013483 -0.005384 778116.000000 0 0 1
-30.350435 20.522094 -29.290054 46.906423 -0.594554 2.245205 0.043400 -0.009896 802176.000000 0 0 1
-30.122035 19.194294 -29.708214 46.457894 -0.567337 2.264599 0.037518 -0.011062 -592790.000000 0 0 1
-28.638475 18.852894 -29.852044 45.461395 -0.582192 2.287159 0.059745 -0.017979 -690835.000000 0 0 1
-28.134805 19.518194 -31.015184 46.200312 -0.606511 2.306784 0.072672 -0.017971 942825.000000 0 0 1
-26.900875 18.864494 -31.456114 45.486408 -0.611571 2.334429 0.076192 -0.025439 882427.000000 0 0 1
-26.882885 17.469394 -32.154774 45.407034 -0.576258 2.357664 0.067350 -0.022681 -369543.000000 0 0 1
-27.131825 16.389794 -31.275864 44.530225 -0.543414 2.349492 0.032573 -0.014271 147769.000000 0 0 1
-26.995345 15.162094 -31.955874 44.495119 -0.511748 2.371992 0.016465 -0.000921 -121640.000000 0 0 1
-27.375295 13.910994 -31.152344 43.742326 -0.470153 2.363393 0.013371 0.003165 -792750.000000 0 0 1
-28.754895 13.897794 -30.994884 44.504781 -0.450214 2.341220 0.027021 -0.003136 -266251.000000 0 0 1
-29.481925 12.628794 -30.863414 44.510905 -0.404711 2.336979 0.026344 -0.000095 480990.000000 0 0 1
-29.318475 11.595194 -29.724034 43.330586 -0.376613 2.326750 0.006867 -0.011898 -481321.000000 0 0 1
-29.598665 12.189194 -28.508004 42.864481 -0.390651 2.298388 -0.006912 -0.005962 231345.000000 0 0 1
-29.750725 11.267094 -27.421134 41.999662 -0.362025 2.282189 0.008174 -0.008517 -148324.000000 0 0 1
-29.685255 11.945094 -26.053034 41.263304 -0.382566 2.254134 -0.006110 -0.002128 -258978.000000 0 0 1
-28.396745 12.410494 -25.765514 40.302075 -0.412024 2.264397 -0.004737 -0.006014 -504371.000000 0 0 1
-28.354415 13.103894 -24.555374 39.732245 -0.432909 2.237020 -0.010718 -0.001848 -163928.000000 0 0 1
-26.943465 13.414694 -24.022974 38.509838 -0.461953 2.244409 0.009730 0.001601 -308610.000000 0 0 1
-26.319305 14.482094 -24.768774 38.934933 -0.503032 2.260305 0.010195 -0.005723 376017.000000 0 0 1
-25.009335 14.719894 -24.268774 37.830087 -0.531977 2.267275 0.018363 -0.011513 235257.000000 0 0 1
-24.921535 15.633194 -23.037274 37.365702 -0.560249 2.235131 0.022197 -0.007900 -768940.000000 0 0 1
-25.350415 16.987994 -23.258174 38.368974 -0.590394 2.222034 0.036000 -0.009081 253343.000000 0 0 1
-25.567625 17.617994 -22.010274 38.059812 -0.603356 2.187449 0.028621 -0.010245 492935.000000 0 0 1
-27.049355 17.531094 -21.525274 38.760086 -0.575049 2.159576 0.017260 0.000853 224339.000000 0 0 1
-27.555505 16.249694 -21.218974 38.387541 -0.532817 2.156465 0.026776 0.003791 -272866.000000 0 0 1
-28.758505 16.294794 -20.520974 38.906070 -0.515504 2.126392 0.036897 0.006116 -622678.000000 0 0 1
-29.732605 15.074294 -20.728074 39.254493 -0.469228 2.127091 0.004478 0.002912 271281.000000 0 0 1
-30.275795 14.887094 -22.002074 40.278289 -0.456998 2.148679 -0.000843 0.009294 600648.000000 0 0 1
-30.953045 15.974594 -22.674274 41.562018 -0.476438 2.147845 -0.015261 0.011223 -356365.000000 0 0 1
-31.326825 15.675394 -24.097474 42.517952 -0.463954 2.173364 -0.018359 -0.000748 -201403.000000 0 0 1
-32.422865 14.787294 -24.238874 43.097903 -0.427895 2.168099 -0.006112 -0.001027 65526.100000 0 0 1
-32.929185 15.105994 -25.522934 44.316390 -0.430100 2.184532 0.007003 -0.010435 810882.000000 0 0 1
-34.124496 14.174894 -26.064804 45.219275 -0.393701 2.185124 0.011181 -0.005470 850455.000000 0 0 1
-33.956505 12.724394 -26.150824 44.708165 -0.358531 2.195581 0.012579 -0.008328 -32140.400000 0 0 1
-33.728155 12.100794 -24.947774 43.662445 -0.344470 2.178981 0.010178 -0.010816 -237234.000000 0 0 1
-33.798675 10.610194 -25.322734 43.545006 -0.304181 2.191405 0.017453 -0.019331 -69280.600000 0 0 1
-35.122711 10.194394 -25.558394 44.617956 -0.282489 2.180748 0.026665 -0.010123 -63666.000000 0 0 1
-35.067064 8.994494 -26.326534 44.762554 -0.251081 2.199550 0.018461 -0.000192 12226.700000 0 0 1
36.331580 8.331694 -26.778134 45.896288 0.225426 2.193765 0.041211 0.004128 16741.300000 0 0 1
35.595110 7.703594 -25.752434 44.604316 0.213136 2.186279 0.032917 0.012289 340883.000000 0 0 1
34.504190 6.957194 -26.297234 43.937298 0.198966 2.212445 0.050456 0.008898 -204437.000000 0 0 1
33.671690 6.282994 -25.253524 42.555836 0.184474 2.206099 0.051216 0.006904 -520611.000000 0 0 1
34.310690 5.223994 -24.627474 42.556151 0.151095 2.187937 0.045924 0.003021 825485.000000 0 0 1
33.317860 4.301694 -24.080174 41.333269 0.128400 2.192703 0.050209 0.005749 675187.000000 0 0 1
33.955340 3.271394 -23.147274 41.224548 0.096048 2.166985 0.037168 0.001973 -18942.300000 0 0 1
34.929360 2.534094 -23.844474 42.367921 0.072422 2.168560 0.040785 0.000138 377750.000000 0 0 1
35.841200 1.789594 -23.049974 42.650856 0.049890 2.141749 0.051084 0.000881 810914.000000 0 0 1
-35.766135 1.000194 -23.824174 42.986138 -0.027958 2.158233 0.063396 -0.001666 648622.000000 0 0 1
-36.244075 -0.183606 -24.389974 43.686812 0.005066 2.163121 0.074975 -0.008340 168752.000000 0 0 1
-35.170357 -1.095606 -24.427574 42.835275 0.031141 2.177628 0.081756 -0.016096 204540.000000 0 0 1
-22.799635 29.163494 27.277461 45.982525 -0.907260 0.935751 0.008683 -0.016040 -1097370.000000 0 0 1
-23.977335 29.755794 26.804991 46.677912 -0.892526 0.959103 0.000633 -0.009862 321594.000000 0 0 1
-24.380935 29.200794 25.534001 45.815953 -0.875110 0.979646 -0.004960 0.003688 -182538.000000 0 0 1
-24.783235 27.656294 25.449191 45.019337 -0.840131 0.970006 0.013293 -0.002124 -504192.000000 0 0 1
-26.002735 27.289494 26.061711 45.826537 -0.809539 0.965868 0.026123 -0.004603 96353.500000 0 0 1
-25.982165 26.912794 27.431181 46.387941 -0.802990 0.938073 0.035109 -0.005838 -909373.000000 0 0 1
-25.214765 25.631594 27.812851 45.456767 -0.793596 0.912395 0.032565 -0.007387 919727.000000 0 0 1
-23.839835 25.787894 28.189121 45.033096 -0.824631 0.894429 0.017938 -0.003915 421185.000000 0 0 1
-23.624835 26.452494 29.420761 46.080890 -0.841804 0.878302 0.014492 -0.007348 602470.000000 0 0 1
-22.261835 26.144894 30.180421 45.716546 -0.865444 0.849759 0.018206 0.001843 252044.000000 0 0 1
-21.111235 26.701294 29.599181 45.108257 -0.901786 0.855050 0.031362 -0.003532 244958.000000 0 0 1
-19.921635 26.200494 30.217201 44.681279 -0.920702 0.828091 0.040384 -0.009554 385766.000000 0 0 1
-19.466135 24.806294 29.768841 43.364347 -0.905439 0.814157 0.036360 0.004957 -918011.000000 0 0 1
-19.009335 24.853794 28.439141 42.282983 -0.917861 0.833092 0.033373 0.004261 -168633.000000 0 0 1
-19.599435 23.938494 27.552411 41.428550 -0.884732 0.843224 0.039072 0.008077 -222255.000000 0 0 1
-19.397835 22.429894 27.840651 40.675275 -0.857761 0.816932 0.022459 0.022804 309199.000000 0 0 1
-20.330935 21.866894 28.760051 41.456586 -0.821781 0.804129 0.015930 0.019373 250858.000000 0 0 1
-20.039635 20.492694 29.016251 40.785786 -0.796575 0.779265 0.037327 0.011587 234794.000000 0 0 1
-20.495135 20.012794 30.442041 41.800483 -0.773491 0.755002 0.043558 0.003440 182107.000000 0 0 1
-19.622835 20.493794 31.433001 42.344832 -0.807105 0.734285 0.026199 -0.007377 -67429.500000 0 0 1
-20.009735 19.880794 32.641902 43.140807 -0.782166 0.712643 0.020669 0.002090 -364649.000000 0 0 1
-19.231335 20.415894 33.817670 43.935041 -0.815267 0.692394 0.021198 0.003008 -629041.000000 0 0 1
-19.370135 21.821994 34.085140 44.868679 -0.844851 0.707999 -0.002430 0.005510 105693.000000 0 0 1
-18.582735 22.645394 33.220767 44.291662 -0.883622 0.722665 0.014110 0.013741 -442333.000000 0 0 1
-17.096835 22.805294 33.547619 44.020745 -0.927495 0.704267 0.015422 0.016099 -305676.000000 0 0 1
-16.381235 21.604094 33.513701 43.107423 -0.922038 0.680201 0.022232 -0.002833 -621611.000000 0 0 1
-15.030635 21.762594 33.876772 42.978671 -0.966364 0.662880 0.012113 -0.004469 -359709.000000 0 0 1
-14.154335 20.540894 33.477335 41.749317 -0.967436 0.640386 0.012577 -0.014258 -515465.000000 0 0 1
-12.833735 20.516694 33.910085 41.659733 -1.011818 0.619830 -0.000719 -0.017292 -540681.000000 0 0 1
-12.622835 20.147194 -33.164914 40.806334 -1.011097 2.519635 0.015640 -0.017880 -367915.000000 0 0 1
-11.139835 20.056394 -32.786504 40.016368 -1.063797 2.531033 0.015856 -0.020302 -48372.000000 0 0 1
-10.395635 21.247094 -32.665704 40.330589 -1.115767 2.514861 0.019919 -0.016068 -1366160.000000 0 0 1
-9.128535 20.932294 -32.256714 39.521977 -1.159563 2.525550 0.030387 -0.018579 -1400820.000000 0 0 1
-8.165035 22.106094 -32.149024 39.861095 -1.216982 2.509049 0.033828 -0.022837 -261018.000000 0 0 1
-8.445335 23.108394 -31.176724 39.715358 -1.220410 2.473499 0.031179 -0.018474 -5040.930000 0 0 1
-7.870635 22.868294 -29.896544 38.453987 -1.239323 2.461418 0.034863 -0.015877 29918.000000 0 0 1
-7.641835 24.148594 -29.090604 38.572211 -1.264316 2.425209 0.033774 -0.014691 222669.000000 0 0 1
-6.682135 24.974594 -29.727084 39.396456 -1.309363 2.425783 0.033451 -0.015117 99247.700000 0 0 1
-6.239935 26.088094 -28.948244 39.465507 -1.336020 2.394264 0.048428 -0.013648 979678.000000 0 0 1
-4.828035 26.670094 -29.354524 39.953622 -1.391708 2.396043 0.049465 -0.017661 97021.100000 0 0 1
-3.712935 25.938494 -28.996554 39.081856 -1.428618 2.406762 0.054852 -0.017451 198888.000000 0 0 1
-2.472435 26.282794 -29.624284 39.679924 -1.477002 2.413705 0.060760 -0.017843 897819.000000 0 0 1
-1.761635 27.626694 -29.287144 40.299806 -1.507117 2.384348 0.070307 -0.035585 -647792.000000 0 0 1
-1.074135 27.494394 -28.074444 39.309920 -1.531749 2.366251 0.081059 -0.047074 245185.000000 0 0 1
-0.254235 28.623394 -27.783714 39.891077 -1.561914 2.341290 0.086122 -0.045202 -1044550.000000 0 0 1
0.242265 28.654494 -26.362144 38.937146 1.562342 2.314534 0.084752 -0.050216 86339.000000 0 0 1
1.215065 27.691094 -25.959984 37.976227 1.526945 2.323460 0.113110 -0.055947 941338.000000 0 0 1
2.467365 27.852594 -26.646824 38.625226 1.482440 2.332121 0.111200 -0.057086 -258069.000000 0 0 1
3.678065 28.319594 -25.804074 38.488671 1.441642 2.305589 0.104246 -0.059698 -24187.400000 0 0 1
4.063965 27.265294 -24.910374 37.154256 1.422833 2.305622 0.116959 -0.050845 478747.000000 0 0 1
5.348765 27.505994 -24.342174 37.117791 1.378735 2.286050 0.095295 -0.037652 469538.000000 0 0 1
5.911365 26.309394 -23.468774 35.747892 1.349780 2.286976 0.098230 -0.035108 266706.000000 0 0 1
7.165565 26.627094 -22.907074 35.848033 1.307916 2.264000 0.083889 -0.037350 -691679.000000 0 0 1
7.854265 25.536394 -22.450474 34.897287 1.272408 2.269636 0.074119 -0.031397 1034270.000000 0 0 1
9.414265 25.760394 -22.323374 35.363248 1.220420 2.253972 0.051325 -0.009489 754124.000000 0 0 1
9.777165 26.568394 -21.195874 35.365768 1.218177 2.213464 0.044874 0.000302 190202.000000 0 0 1
11.151065 26.458694 -20.870474 35.496273 1.171935 2.199334 0.051104 -0.005485 353083.000000 0 0 1
11.846865 25.206794 -20.296574 34.462756 1.131446 2.200546 0.029376 0.005358 -311692.000000 0 0 1
12.091065 24.261194 -21.304574 34.477300 1.108453 2.236904 0.025833 0.000284 -63051.500000 0 0 1
12.617065 23.053994 -20.840274 33.540930 1.070041 2.241246 0.007747 0.010836 -433539.000000 0 0 1
12.767665 22.036994 -21.961974 33.629907 1.045681 2.282400 0.004680 0.004352 -30370.000000 0 0 1
11.552865 21.755194 -22.660174 33.469996 1.082627 2.314515 0.015739 -0.007551 437118.000000 0 0 1
11.624965 20.660594 -23.532974 33.403604 1.058283 2.352520 0.011107 -0.007368 -143614.000000 0 0 1
10.780765 20.888794 -24.818474 34.183669 1.094350 2.383332 0.037729 -0.008237 1514560.000000 0 0 1
9.400165 20.483394 -24.576274 33.345551 1.140552 2.399444 0.041996 -0.008170 1199760.000000 0 0 1
8.597165 20.628894 -25.728374 34.079491 1.175931 2.426377 0.040625 -0.009913 -1463840.000000 0 0 1
7.133965 20.330194 -25.561244 33.430337 1.233316 2.441236 0.048818 -0.021628 -762260.000000 0 0 1
6.286565 21.450194 -25.284814 33.748385 1.285703 2.417673 0.078561 -0.026572 114191.000000 0 0 1
6.472465 22.003194 -24.025974 33.215670 1.284706 2.379413 0.083078 -0.027715 -727314.000000 0 0 1
5.140965 22.182594 -23.270074 32.557539 1.343060 2.367044 0.098967 -0.033903 853861.000000 0 0 1
4.290165 23.255594 -23.775274 33.533443 1.388369 2.358878 0.101838 -0.035153 270768.000000 0 0 1
2.949665 23.238994 -23.362174 33.083871 1.444544 2.354842 0.128074 -0.040401 252813.000000 0 0 1
2.149665 24.417694 -24.068174 34.352901 1.482986 2.347056 0.113528 -0.041148 587505.000000 0 0 1
0.765665 24.137094 -24.228774 34.208464 1.539085 2.357839 0.109259 -0.052530 264569.000000 0 0 1
0.168565 25.001994 -25.165364 35.474267 1.564054 2.359440 0.095549 -0.039216 504336.000000 0 0 1
-1.341235 24.806994 -25.517354 35.613497 -1.516782 2.369580 0.101364 -0.035662 601484.000000 0 0 1
-1.629335 23.653294 -26.194964 35.331419 -1.502021 2.405961 0.123099 -0.045663 -1631480.000000 0 0 1
-2.878835 23.771194 -26.711274 35.872684 -1.450277 2.410751 0.111178 -0.033961 -1253770.000000 0 0 1
-3.446435 22.438694 -27.369734 35.559460 -1.418394 2.449151 0.097095 -0.035125 90658.400000 0 0 1
-2.624235 21.948094 -28.439244 36.019384 -1.451796 2.480878 0.112751 -0.040407 210980.000000 0 0 1
-3.064935 20.671294 -28.861184 35.632347 -1.423599 2.514900 0.083193 -0.033638 855481.000000 0 0 1
-4.387635 20.579594 -29.748474 36.438204 -1.360738 2.525961 0.060874 -0.023995 746329.000000 0 0 1
-4.244235 21.040794 -31.078984 37.770779 -1.371753 2.537172 0.065706 -0.021767 3303.980000 0 0 1
-4.086135 22.441294 -31.349254 38.769626 -1.390688 2.512571 0.079680 -0.024948 -191388.000000 0 0 1
-3.787635 22.656894 -32.798874 40.043066 -1.405154 2.530619 0.067175 -0.019130 -286065.000000 0 0 1
-2.574135 22.070394 -33.188684 39.940170 -1.454688 2.551627 0.062362 -0.017281 44460.400000 0 0 1
-2.255235 22.222394 33.862165 40.565590 -1.469658 0.583116 0.057315 -0.000806 131706.000000 0 0 1
-0.935535 21.526194 33.424219 39.767205 -1.527363 0.572596 0.057744 0.008679 230560.000000 0 0 1
-1.030835 20.158794 33.063524 38.738046 -1.519705 0.548101 0.049470 0.007329 595016.000000 0 0 1
0.220865 19.631394 32.619997 38.072360 1.559546 0.541785 0.053194 0.011567 307180.000000 0 0 1
-0.015435 18.160194 32.120931 36.899148 -1.569946 0.514567 0.049512 0.017910 581203.000000 0 0 1
-0.969135 18.100594 31.044821 35.949293 -1.517306 0.528484 0.032440 0.017674 522701.000000 0 0 1
-1.343535 16.718694 30.929541 35.184604 -1.490607 0.496900 0.041203 0.015611 -425284.000000 0 0 1
-2.265735 16.355494 29.768511 34.041152 -1.433142 0.506421 0.040550 0.015349 644679.000000 0 0 1
-3.625835 16.791694 29.903811 34.486890 -1.358131 0.521432 0.018590 0.008028 585974.000000 0 0 1
-3.811235 18.104894 29.349701 34.694634 -1.363317 0.562464 0.016951 0.007982 -327807.000000 0 0 1
-5.239635 18.619494 29.626231 35.381533 -1.296484 0.578404 0.004918 -0.002527 -5991.240000 0 0 1
-6.203135 17.855594 28.920961 34.550298 -1.236435 0.578894 -0.009936 -0.000010 247298.000000 0 0 1
-7.483935 18.438194 29.289121 35.409447 -1.185220 0.596769 0.004316 -0.013292 884347.000000 0 0 1
-8.579935 17.921794 28.271181 34.555255 -1.124298 0.612620 0.005072 -0.012588 413264.000000 0 0 1
-9.129935 16.633594 28.427931 34.178640 -1.068809 0.588552 0.005785 -0.013225 96675.200000 0 0 1
-9.843935 16.371494 29.639441 35.262237 -1.029432 0.572511 -0.001225 -0.019547 -740246.000000 0 0 1
-10.458135 14.970494 29.665381 34.835659 -0.961022 0.551803 0.003877 -0.021884 -384747.000000 0 0 1
-9.649935 13.819394 29.525051 33.997435 -0.961219 0.518730 0.014734 -0.007481 314329.000000 0 0 1
-8.703535 13.592294 30.633911 34.625691 -1.001250 0.484911 0.018484 -0.010828 538869.000000 0 0 1
-9.194835 13.102494 32.092471 35.862893 -0.958889 0.462666 0.042285 -0.027094 -402669.000000 0 0 1
-9.493935 11.716094 32.084201 35.451342 -0.889787 0.439368 0.044710 -0.023585 261932.000000 0 0 1
-9.898535 11.397994 33.398531 36.651837 -0.855691 0.424517 0.036427 -0.015094 -196041.000000 0 0 1
-10.270935 9.897694 33.537769 36.445006 -0.766894 0.402130 0.033887 -0.013082 -149090.000000 0 0 1
-9.131435 9.054894 33.613323 35.989300 -0.781189 0.365400 0.048697 -0.014216 36033.000000 0 0 1
-9.101235 8.158194 -33.721634 35.868331 -0.730813 2.793868 0.079757 -0.023023 -25138.600000 0 0 1
-8.643635 8.708794 -32.362494 34.610497 -0.789153 2.779192 0.073183 -0.020475 59785.000000 0 0 1
-9.432635 9.830494 -31.966944 34.749082 -0.806049 2.738714 0.065846 -0.027287 220649.000000 0 0 1
-8.768335 10.567994 -30.966544 33.874667 -0.878202 2.724204 0.065861 -0.020705 863457.000000 0 0 1
-7.749335 11.651794 -31.516034 34.482994 -0.983895 2.723731 0.057339 -0.013067 924534.000000 0 0 1
-8.467135 12.801794 -31.876094 35.378859 -0.986447 2.692849 0.054051 -0.014082 -126437.000000 0 0 1
-7.535935 13.704094 -32.351564 35.933497 -1.068027 2.691295 0.039659 -0.008828 -249783.000000 0 0 1
-8.103235 15.150294 -32.504794 36.766227 -1.079654 2.655348 0.041332 -0.016748 -183102.000000 0 0 1
-8.797635 15.278494 -33.701564 38.034539 -1.048347 2.659611 0.060468 -0.019025 -334372.000000 0 0 1
-8.942335 16.706094 -33.897784 38.834504 -1.079329 2.631866 0.054227 -0.027717 -765339.000000 0 0 1
-9.358035 16.995894 33.101419 38.368440 -1.067488 0.530162 0.036320 -0.025285 875899.000000 0 0 1
-10.592435 16.409294 32.658913 38.053505 -0.997581 0.538972 0.013526 -0.018524 1118880.000000 0 0 1
-11.807635 17.039494 33.132362 39.083475 -0.964813 0.559099 0.019193 -0.027238 295989.000000 0 0 1
-12.980035 16.447894 32.323241 38.520208 -0.902700 0.575125 0.018759 -0.028651 -348203.000000 0 0 1
-13.028435 15.087894 32.495244 38.122507 -0.858515 0.550257 0.015742 -0.028919 -391792.000000 0 0 1
-14.325135 14.668894 32.788111 38.670999 -0.797254 0.558835 0.015145 -0.019612 -613420.000000 0 0 1
-14.402235 13.132094 32.975915 38.305186 -0.739301 0.533813 0.018253 -0.015049 -95596.300000 0 0 1
-14.411735 12.417794 31.763841 37.024875 -0.711216 0.539617 0.009041 -0.023830 132429.000000 0 0 1
-13.145735 11.814894 31.586521 36.195447 -0.732131 0.510162 0.011791 -0.016830 -108415.000000 0 0 1
-12.807135 11.387994 30.149791 34.680240 -0.726811 0.516880 0.025546 -0.006886 -69472.900000 0 0 1
-13.675735 10.378894 29.702041 34.306828 -0.649190 0.524097 0.013368 -0.001534 250733.000000 0 0 1
-13.195735 9.896094 28.457881 32.892417 -0.643467 0.525286 -0.012063 -0.001066 225791.000000 0 0 1
-14.076035 8.720794 27.898691 32.442626 -0.554670 0.535645 0.012982 -0.002795 357560.000000 0 0 1
-14.132135 7.551994 28.640751 32.818326 -0.490775 0.510079 -0.008649 -0.000172 -69822.300000 0 0 1
-14.986435 6.612394 28.061871 32.492855 -0.415533 0.528366 0.013050 0.005212 -365191.000000 0 0 1
-14.428735 5.179394 28.258181 32.148707 -0.344638 0.497070 0.014518 0.003208 -435036.000000 0 0 1
-13.397135 4.878294 27.389581 30.878312 -0.349207 0.479953 0.003225 -0.005707 -955462.000000 0 0 1
-13.837535 4.417094 26.078541 29.850937 -0.308987 0.508192 -0.001249 0.003320 -122198.000000 0 0 1
-12.859535 4.131894 24.872081 28.303015 -0.310891 0.497500 -0.007682 0.011072 -85066.900000 0 0 1
-12.031035 2.991394 25.092001 27.987547 -0.243698 0.458897 -0.008003 0.001962 228156.000000 0 0 1
-11.464135 2.564094 23.848961 26.585220 -0.220041 0.457689 0.002161 -0.003122 -161096.000000 0 0 1
-10.482135 1.376994 23.902891 26.136555 -0.130618 0.416430 0.012389 -0.004957 -94479.500000 0 0 1
-9.188335 1.770894 24.280361 26.021098 -0.190398 0.367849 0.027004 -0.010917 -392121.000000 0 0 1
-8.289735 0.716494 24.394201 25.774215 -0.086217 0.328716 0.034678 -0.017213 -415310.000000 0 0 1
-6.814435 1.069394 24.204721 25.168406 -0.155661 0.277620 0.037716 -0.019128 -659510.000000 0 0 1
-6.547535 1.248194 22.835561 23.788465 -0.188375 0.283999 0.038761 -0.019601 1032660.000000 0 1 0
-5.185335 1.631594 22.532161 23.178613 -0.304847 0.236730 0.036725 -0.024672 1112560.000000 0 1 0
-4.524335 2.957394 23.072161 23.696844 -0.578946 0.230122 0.041091 -0.021270 -277757.000000 0 1 0
-4.208135 2.993694 24.468731 25.007787 -0.618340 0.208007 0.046279 -0.019666 15961.000000 0 0 1
-3.806735 4.258394 24.934401 25.580257 -0.841341 0.225189 0.042755 -0.020661 -29643.300000 0 0 1
3.861065 -23.661106 12.306726 26.948308 -1.409040 1.096538 0.067163 -0.014431 -46956.300000 0 0 1
3.599565 -24.706306 13.204026 28.243667 -1.426120 1.084331 0.055875 -0.021504 69623.700000 0 0 1
2.260165 -25.160486 13.048626 28.432817 -1.481207 1.094008 0.033704 -0.016434 354065.000000 0 0 1
2.045965 -26.510956 13.851626 29.981400 -1.493775 1.090539 0.025832 -0.015878 -182166.000000 0 0 1
2.117565 -26.339336 15.262026 30.515146 -1.490573 1.047029 0.042082 -0.021548 23372.400000 0 0 1
2.321365 -27.536256 15.982126 31.922758 -1.486693 1.046447 0.035540 -0.021537 -474805.000000 0 0 1
2.016365 -27.472206 17.481626 32.625069 -1.497531 1.005301 0.030782 -0.017433 -550645.000000 0 0 1
3.040965 -27.083466 18.348026 32.854401 -1.458983 0.978262 0.053921 -0.023706 -319572.000000 0 0 1
2.997665 -27.454196 19.705826 33.926958 -1.462039 0.951047 0.051574 -0.024317 474190.000000 0 0 1
3.783265 -26.371436 20.605526 33.680164 -1.428308 0.912462 0.061075 -0.024152 679085.000000 0 0 1
2.913965 -25.339166 20.992526 33.034084 -1.456301 0.882165 0.067375 -0.022169 505037.000000 0 0 1
3.680765 -24.483606 21.796926 32.986376 -1.421578 0.848931 0.089158 -0.026166 533765.000000 0 0 1
2.795565 -23.281606 22.325426 32.377045 -1.451292 0.809936 0.098840 -0.029490 357222.000000 0 0 1
2.346065 -22.390906 21.271726 30.973263 -1.466400 0.813751 0.092004 -0.027535 330078.000000 0 0 1
3.322365 -21.582106 20.611526 30.027661 -1.418055 0.814245 0.086459 -0.019791 122196.000000 0 0 1
2.693165 -20.351306 19.920126 28.604899 -1.439227 0.800443 0.071337 -0.021254 6198.140000 0 0 1
2.092265 -19.414506 20.772126 28.509329 -1.463443 0.754509 0.061070 -0.021058 -227839.000000 0 0 1
1.484665 -18.487706 19.964326 27.250208 -1.490663 0.748618 0.043850 -0.020826 -109310.000000 0 0 1
1.130765 -17.132806 20.744426 26.928477 -1.504892 0.691402 0.040603 -0.016580 710550.000000 0 0 1
2.251765 -16.241206 20.828226 26.507777 -1.433029 0.666904 0.017425 -0.000463 608395.000000 0 0 1
1.752965 -14.902006 21.088826 25.882065 -1.453702 0.618404 0.019548 -0.000138 569613.000000 0 0 1
2.728265 -13.715506 20.777326 25.045076 -1.374441 0.592410 -0.004771 0.002125 -375984.000000 0 0 1
2.909865 -13.362406 19.380426 23.719657 -1.356379 0.614500 -0.013486 -0.006188 -148211.000000 0 1 0
1.790465 -12.810106 18.713526 22.748641 -1.431926 0.604790 0.000880 -0.002425 -4537.540000 0 1 0
1.159065 -11.527306 19.299326 22.509692 -1.470584 0.540642 -0.008054 -0.004669 -480422.000000 0 1 0
1.877665 -10.313606 19.119726 21.805046 -1.390712 0.501529 -0.000241 -0.001041 -339107.000000 0 1 0
1.616665 -9.248406 19.973826 22.070350 -1.397740 0.439400 0.006439 -0.014227 21572.000000 0 1 0
0.168665 -8.713106 20.142026 21.946478 -1.551441 0.408345 0.015832 -0.018775 292736.000000 0 1 0
-0.047135 -7.709706 21.160926 22.521692 1.564683 0.349396 0.031859 -0.025612 -863670.000000 0 1 0
-1.435335 -7.603106 21.239126 22.604599 1.384209 0.349357 0.028170 -0.018750 -596372.000000 0 1 0
-1.840435 -7.024606 22.552226 23.692514 1.314557 0.311511 0.044714 -0.012042 -323766.000000 0 1 0
-1.754635 -7.940606 23.600826 24.962591 1.353321 0.331830 0.044011 -0.002715 47556.100000 0 1 0
-1.940935 -7.253406 24.815426 25.926521 1.309333 0.293820 0.044756 -0.004880 -60655.400000 0 0 1
-2.019735 -8.285906 25.966726 27.331419 1.331703 0.317340 0.043063 -0.003553 -93607.900000 0 0 1
-0.785735 -8.840706 26.339926 27.795093 1.482152 0.325013 0.042967 -0.004819 -262063.000000 0 0 1
-0.956435 -10.030306 27.086726 28.900044 1.475729 0.356123 0.042882 -0.001696 74808.400000 0 0 1
0.407565 -10.709106 27.263226 29.293934 -1.532757 0.374534 0.026941 -0.002591 -164740.000000 0 0 1
1.320965 -10.232606 28.211426 30.038904 -1.442413 0.350611 0.017269 -0.002844 -57866.700000 0 0 1
2.301665 -11.263006 28.381226 30.621022 -1.369216 0.384851 0.020915 -0.005350 647014.000000 0 0 1
3.338165 -10.902606 29.498526 31.625515 -1.273679 0.368845 0.025356 -0.005555 629105.000000 0 0 1
2.692165 -11.025106 30.765426 32.791953 -1.331298 0.353403 0.024697 -0.005009 310963.000000 0 0 1
3.227965 -10.053706 31.621326 33.337742 -1.260121 0.322284 0.024851 -0.006218 -157554.000000 0 0 1
2.636665 -10.051406 33.045526 34.640866 -1.314258 0.304669 0.030862 -0.010198 -247830.000000 0 0 1
2.898665 -11.285406 33.745826 35.700748 -1.319380 0.332463 0.029165 -0.016083 -16390.200000 0 0 1
2.443765 -11.302106 -33.357209 35.304575 -1.357852 2.807905 0.035194 -0.020645 -202779.000000 0 0 1
3.407465 -10.624406 -32.345509 34.215797 -1.260440 2.809427 0.025891 -0.014077 87019.700000 0 0 1
3.285865 -9.213706 -32.505009 33.945028 -1.228229 2.849273 0.027523 -0.019264 42421.900000 0 0 1
3.948365 -8.588406 -31.463209 32.852456 -1.139879 2.849740 0.040932 -0.017136 -382820.000000 0 0 1
3.154065 -7.356106 -31.019909 32.035842 -1.165738 2.889080 0.028086 -0.018595 -56464.200000 0 0 1
3.142165 -6.324806 -31.953509 32.724656 -1.109712 2.924071 0.039334 -0.015307 -73441.500000 0 0 1
2.373365 -5.220506 -31.514009 32.031536 -1.144104 2.961590 0.031122 -0.012049 137712.000000 0 0 1
2.420665 -3.917606 -32.452409 32.777525 -1.017323 3.000630 0.037886 -0.011334 180170.000000 0 0 1
1.968965 -4.189806 -33.769809 34.085647 -1.131483 3.005355 0.032171 -0.010839 20790.300000 0 0 1
2.406765 -3.082206 33.876126 34.101091 -0.907837 0.114928 0.048510 -0.011117 179622.000000 0 0 1
2.004865 -3.219106 32.402426 32.623601 -1.013779 0.116510 0.039710 -0.014728 48941.000000 0 0 1
0.625765 -3.012006 32.240326 32.386763 -1.365954 0.095130 0.041467 -0.016278 -619305.000000 0 0 1
0.166365 -3.680106 31.075626 31.293216 -1.525621 0.117994 0.028331 -0.005379 914558.000000 0 0 1
-1.391235 -3.794206 30.957226 31.219888 1.219345 0.129808 0.028627 -0.010138 877748.000000 0 0 1
-2.051535 -2.621106 30.446826 30.628226 0.906695 0.108890 0.043746 -0.014985 -317288.000000 0 0 1
-3.433035 -2.867106 30.517926 30.843960 0.695811 0.145527 0.032133 -0.012837 50190.600000 0 0 1
-4.359435 -1.728006 30.014326 30.378454 0.377384 0.154986 0.046901 -0.012881 -134537.000000 0 0 1
-4.296835 -1.604606 28.608126 28.973478 0.357402 0.158975 0.049223 -0.016241 678210.000000 0 0 1
-5.371735 -0.833506 27.974326 28.497600 0.153938 0.191930 0.045167 -0.023801 1086940.000000 0 0 1
-5.519635 0.655894 28.316826 28.857221 -0.118275 0.193831 0.052954 -0.022800 421263.000000 0 0 1
-6.569835 0.880594 29.262326 30.003698 -0.133242 0.222764 0.052199 -0.018117 -31663.200000 0 0 1
-6.978235 2.236694 29.293026 30.195694 -0.310178 0.245129 0.057803 -0.025972 935799.000000 0 0 1
-8.443135 2.556494 29.749926 31.030313 -0.294014 0.288269 0.046840 -0.019451 775982.000000 0 0 1
-9.503635 2.101294 28.958426 30.550368 -0.217603 0.324246 0.033764 -0.012103 1135840.000000 0 0 1
-10.804035 2.672694 29.293926 31.336952 -0.242511 0.363088 0.014596 -0.004593 944274.000000 0 0 1
-11.922935 2.069694 28.474626 30.939366 -0.171877 0.401856 0.011620 -0.004100 -541131.000000 0 0 1
-12.029135 0.659994 28.772126 31.192482 -0.054811 0.396532 0.015947 -0.002878 -65161.300000 0 0 1
-12.407135 -0.018606 27.587426 30.249024 0.001500 0.422637 0.011974 0.002468 -842236.000000 0 0 1
-12.290435 -1.585106 27.685826 30.332694 0.128263 0.420858 0.020727 -0.002247 942008.000000 0 0 1
-10.990935 -2.166206 27.984626 30.143530 0.194596 0.380769 0.042658 -0.009851 1260780.000000 0 0 1
-9.895235 -1.891106 27.140526 28.949959 0.188836 0.355427 0.041994 -0.007232 -341392.000000 0 0 1
-9.965635 -2.530206 25.745826 27.722976 0.248639 0.379953 0.038828 -0.003239 -157613.000000 0 0 1
-11.053335 -2.076706 24.912026 27.333093 0.185716 0.424066 0.029400 -0.002724 614293.000000 0 0 1
-11.078135 -2.656506 23.622926 26.226413 0.235353 0.449348 0.038761 -0.003841 696209.000000 0 0 1
-9.923835 -2.221906 22.593826 24.777013 0.220263 0.422939 0.040236 -0.009468 1990290.000000 0 1 0
-8.563135 -2.353306 23.041226 24.693389 0.268197 0.367877 0.043581 -0.010485 323569.000000 0 1 0
-7.706035 -2.235006 21.947926 23.368562 0.282288 0.350482 0.038880 -0.014296 723314.000000 0 1 0
-6.176135 -2.130906 22.367226 23.301893 0.332234 0.284191 0.043464 -0.014628 1308600.000000 0 1 0
-5.424835 -3.338806 22.409926 23.297666 0.551715 0.276943 0.040643 -0.015167 -4639.160000 0 1 0
-5.798635 -4.205706 23.449326 24.519034 0.627500 0.296475 0.038748 -0.009083 -137053.000000 0 1 0
-5.444335 -5.696206 23.205726 24.507005 0.808003 0.327337 0.041283 -0.003846 606158.000000 0 1 0
-6.432835 -6.244206 22.301226 24.035727 0.770520 0.382226 0.043075 -0.011506 534565.000000 0 1 0
-6.089235 -6.212106 20.918226 22.654828 0.795386 0.394093 0.043538 -0.015927 -364656.000000 0 1 0
-7.267235 -6.233606 19.932626 22.112895 0.708987 0.447798 0.045402 -0.014263 508214.000000 0 1 0
-8.154435 -5.093606 20.079526 22.262682 0.558342 0.446564 0.039762 -0.014993 808698.000000 0 1 0
-9.220335 -4.971806 19.120926 21.802368 0.494531 0.501190 0.037700 -0.010088 946445.000000 0 1 0
-9.846935 -3.539906 19.127026 21.802206 0.345107 0.500594 0.032298 -0.016062 298468.000000 0 1 0
-8.950135 -2.536806 18.665426 20.855178 0.276194 0.462361 0.029784 -0.019970 -79838.900000 0 1 0
-9.533435 -1.252806 18.670026 21.000614 0.130663 0.475590 0.025093 -0.014874 62380.500000 0 1 0
-8.574535 -0.163906 18.026926 19.962955 0.019113 0.444051 0.021710 -0.016500 441710.000000 0 1 0
-7.383535 0.069594 18.770626 20.170717 -0.009425 0.374781 0.027637 -0.015930 198812.000000 0 1 0
-7.641635 0.782394 19.974326 21.400477 -0.102030 0.367137 0.034006 -0.014008 -491124.000000 0 1 0
-7.591735 2.356294 19.843426 21.376345 -0.300949 0.381011 0.029333 -0.018338 -709806.000000 0 1 0
-8.628535 2.816794 19.055726 21.107028 -0.315544 0.444527 0.019682 -0.020159 -453174.000000 0 1 0
-8.621135 4.204094 18.996226 21.280390 -0.453719 0.467576 0.019777 -0.011223 19557.000000 0 1 0
-9.545135 4.676294 17.875426 20.796831 -0.455546 0.536454 0.018442 -0.004462 190488.000000 0 1 0
-10.912335 4.890594 18.213426 21.788205 -0.421332 0.580970 0.015016 0.003386 246874.000000 0 1 0
-11.680135 5.355094 17.128226 21.412116 -0.429882 0.643615 0.008603 0.013260 -41174.500000 0 1 0
-11.750235 6.884894 16.996126 21.779304 -0.530015 0.675524 0.010670 0.011684 -974107.000000 0 1 0
-10.512735 7.378794 16.568526 20.963784 -0.611994 0.659432 0.006264 0.002354 -106871.000000 0 1 0
-10.578135 8.727094 16.157626 21.192640 -0.689807 0.703756 -0.005381 -0.002783 -1347.760000 0 1 0
-9.313635 9.532094 16.527726 21.231353 -0.796990 0.678590 0.000305 0.005183 -73533.300000 0 1 0
-9.129135 9.662294 17.963126 22.346698 -0.813763 0.637077 0.022543 0.016106 -57955.500000 0 1 0
-8.248135 10.746494 18.261126 22.737361 -0.916177 0.638261 0.029932 0.011088 78265.800000 0 1 0
-8.669735 12.239694 17.879726 23.337931 -0.954502 0.698009 0.020629 0.012741 -300214.000000 0 1 0
-8.369635 12.652194 16.529726 22.435700 -0.986368 0.742530 0.008425 -0.000528 -276521.000000 0 1 0
-9.300735 13.560194 16.032926 22.966002 -0.969606 0.798034 0.025543 -0.014282 -170338.000000 0 1 0
-8.837935 14.089494 14.660326 22.170884 -1.010565 0.848323 0.040211 -0.019780 -5541.300000 0 1 0
-7.785235 15.001094 14.655826 22.370426 -1.092082 0.856425 0.026074 -0.005556 -469740.000000 0 1 0
-7.472635 15.293894 13.294026 21.598023 -1.116308 0.907750 0.019063 -0.022479 244485.000000 0 1 0
-6.423835 16.471894 13.262526 22.101664 -1.198951 0.927209 -0.001120 -0.013039 425643.000000 0 1 0
-5.156835 16.120694 13.764226 21.815674 -1.261194 0.888041 -0.006328 -0.009629 -399622.000000 0 1 0
-4.318835 17.279994 13.749226 22.500927 -1.325881 0.913408 -0.006291 -0.009859 -274315.000000 0 1 0
-2.821435 16.989594 13.834326 22.090617 -1.406230 0.894058 0.007288 -0.012932 -182583.000000 0 1 0
-2.289935 16.458894 15.095826 22.450455 -1.432553 0.833341 0.017002 -0.012160 -24621.600000 0 1 0
-2.633635 15.135394 15.317526 21.694303 -1.398516 0.786874 0.020696 -0.010524 -407362.000000 0 1 0
-1.733835 14.385094 16.350626 21.846741 -1.450845 0.725114 0.016731 -0.006761 99329.300000 0 1 0
-0.500235 13.955894 15.792426 21.081222 -1.534968 0.724059 0.015405 -0.021474 -411866.000000 0 1 0
0.361565 13.387894 16.722626 21.424580 1.543796 0.675276 0.026721 0.000466 -67310.900000 0 1 0
1.365665 14.399994 17.329026 22.572550 1.476241 0.695547 0.027261 -0.012950 -364774.000000 0 1 0
0.786365 15.426794 18.167426 23.846587 1.519866 0.704638 0.034604 -0.018843 -608735.000000 0 1 0
1.741065 16.266994 18.699726 24.846049 1.464172 0.718759 0.049981 -0.019790 -454183.000000 0 1 0
1.104765 17.627694 19.158426 26.057655 1.508206 0.744787 0.055101 -0.020864 787678.000000 0 0 1
0.444965 18.437194 18.163526 25.885165 1.546667 0.793021 0.038036 -0.012984 1187610.000000 0 0 1
-0.872135 18.025794 17.713426 25.287454 -1.522451 0.794723 0.036864 -0.008969 899010.000000 0 0 1
-1.604635 19.110894 16.892126 25.556702 -1.487028 0.848690 0.037048 -0.010766 -177185.000000 0 0 1
-2.146035 20.227394 17.582526 26.886765 -1.465096 0.858006 0.035709 -0.008015 -120637.000000 0 0 1
-2.809535 21.047194 16.672326 26.997117 -1.438093 0.905160 0.030181 -0.011775 -550224.000000 0 0 1
-3.242035 22.373694 17.339326 28.491142 -1.426894 0.916518 0.027365 -0.005321 -497255.000000 0 0 1
-4.419935 22.238694 18.085926 29.003380 -1.374603 0.897483 0.037942 -0.007403 -143460.000000 0 0 1
-4.858135 23.488594 18.624826 30.367740 -1.366843 0.910552 0.043057 -0.002891 820897.000000 0 0 1
-6.037435 23.261994 19.676126 31.059957 -1.316858 0.884743 0.037020 -0.001906 941820.000000 0 0 1
-7.242235 22.773394 19.107526 30.596977 -1.262897 0.896317 0.018316 -0.003811 12993.100000 0 0 1
-8.109035 22.388294 20.175826 31.209872 -1.223295 0.867865 0.001696 -0.009488 -367240.000000 0 0 1
-9.581635 22.576094 19.822626 31.534493 -1.169421 0.891043 -0.004230 -0.009437 -541004.000000 0 0 1
-9.964035 23.920194 19.816126 32.621105 -1.176102 0.917933 0.000104 -0.007549 -320748.000000 0 0 1
-11.189835 24.066694 19.156426 32.732046 -1.135579 0.945608 -0.007220 -0.008558 -216926.000000 0 0 1
-11.857235 25.449994 19.184226 34.004863 -1.134796 0.971379 -0.000594 -0.006899 46227.700000 0 0 1
-12.478335 25.756294 20.427426 35.162128 -1.119644 0.950901 -0.002936 -0.003247 281962.000000 0 0 1
-13.090135 27.040194 20.545326 36.395524 -1.119950 0.970967 0.011302 -0.001912 -738462.000000 0 0 1
-13.828935 27.214394 21.828226 37.527778 -1.100652 0.950034 0.030893 -0.012855 -336076.000000 0 0 1
-15.222335 26.965194 21.706026 37.815245 -1.056875 0.959411 0.021469 -0.007438 286414.000000 0 0 1
-15.856935 26.948194 22.996126 38.813263 -1.038933 0.936661 0.012413 0.002634 105943.000000 0 0 1
-17.309535 26.469694 22.833726 39.008252 -0.991658 0.945477 0.023868 0.007710 -121972.000000 0 0 1
-17.365635 25.047194 22.682226 37.992244 -0.964570 0.931012 0.034186 0.002974 463596.000000 0 0 1
-18.738335 24.643594 22.657326 38.363868 -0.920689 0.939006 0.045644 0.017807 619143.000000 0 0 1
27.888465 24.349894 24.082121 44.165964 0.717763 0.994092 0.106480 -0.021670 74640.500000 0 0 1
27.575865 23.322094 24.998721 43.923620 0.702017 0.965336 0.085078 -0.026701 -56050.100000 0 0 1
26.789765 22.278094 24.549381 42.622495 0.693708 0.957003 0.074533 -0.006071 -418341.000000 0 0 1
26.403365 21.290494 25.700241 42.554967 0.678604 0.922373 0.071848 -0.006535 311395.000000 0 0 1
25.277065 21.783694 26.435601 42.571121 0.711303 0.900810 0.077803 -0.009219 382795.000000 0 0 1
25.097265 21.083594 27.688031 42.907082 0.698704 0.869378 0.071302 -0.010920 275735.000000 0 0 1
23.671165 21.281294 28.275961 42.576372 0.732284 0.844476 0.083033 -0.018917 269357.000000 0 0 1
23.406665 22.670994 28.602201 43.358181 0.769434 0.850413 0.108510 -0.034808 465338.000000 0 0 1
22.317565 22.825894 29.526991 43.484921 0.796658 0.824374 0.118721 -0.028479 373982.000000 0 0 1
22.032265 24.257294 30.037241 44.453041 0.833429 0.828873 0.111649 -0.028758 -503064.000000 0 0 1
21.433265 25.142094 29.126821 44.044085 0.864861 0.848232 0.116785 -0.040643 -142313.000000 0 0 1
21.027665 26.298394 29.802811 44.966385 0.896312 0.846271 0.091806 -0.036543 -277303.000000 0 0 1
19.669265 26.258494 30.544021 44.825503 0.927895 0.821125 0.088724 -0.030304 -83671.000000 0 0 1
18.580065 26.117494 29.567801 43.607306 0.952458 0.825694 0.085660 -0.033519 1134410.000000 0 0 1
17.317465 26.511794 30.083021 43.677889 0.992176 0.811037 0.072823 -0.029792 416783.000000 0 0 1
16.553765 25.464594 30.925031 43.345475 0.994372 0.776380 0.043006 -0.020657 -659297.000000 0 0 1
17.215865 25.150894 32.170141 44.315589 0.970547 0.758407 0.059659 -0.023544 259862.000000 0 0 1
16.353765 24.565094 33.120654 44.360649 0.983441 0.727826 0.045503 -0.016729 -12886.500000 0 0 1
17.143665 24.129994 -34.025964 45.099091 0.953077 2.425644 0.065634 -0.024763 31770.700000 0 0 1
17.547965 25.295194 -33.349164 45.386613 0.964293 2.396138 0.074394 -0.029537 156870.000000 0 0 1
18.053165 24.924494 -32.053174 44.435944 0.943938 2.376523 0.048548 -0.017565 -383880.000000 0 0 1
18.194065 26.269994 -31.313744 44.740218 0.965068 2.346056 0.039561 -0.011434 468451.000000 0 0 1
17.032965 26.928194 -30.749754 44.280886 1.006799 2.338417 0.058049 -0.025650 970009.000000 0 0 1
17.357465 28.264694 -30.421654 45.007238 1.020071 2.313020 0.057718 -0.023040 18779.900000 0 0 1
16.810865 28.626294 -29.024714 44.096529 1.039803 2.289233 0.071297 -0.022865 -134282.000000 0 0 1
17.346365 27.815994 -28.005144 43.115124 1.013196 2.277780 0.047182 -0.019774 19448.400000 0 0 1
16.869665 28.186594 -26.724004 42.346688 1.031481 2.253737 0.042331 -0.013447 -535877.000000 0 0 1
17.498265 27.301694 -25.634074 41.336152 1.000829 2.239714 0.026556 -0.008833 -59927.600000 0 0 1
18.906665 27.354594 -25.738504 42.050046 0.966021 2.229500 0.030625 -0.006410 -235641.000000 0 0 1
19.494665 26.836194 -24.541674 41.261568 0.942550 2.207792 0.028977 -0.003431 893833.000000 0 0 1
21.049065 26.642794 -24.610874 41.935625 0.902154 2.197987 0.027110 0.000853 863368.000000 0 0 1
21.671965 26.347294 -23.358074 41.345538 0.882456 2.171166 0.032612 0.003117 -457008.000000 0 0 1
22.980965 25.944394 -23.645874 41.956688 0.845895 2.169507 0.040062 0.010788 -660687.000000 0 0 1
23.810365 25.603794 -22.421774 41.535812 0.821676 2.141017 0.058319 -0.000744 -320642.000000 0 0 1
23.302165 24.568494 -21.622674 40.176383 0.811845 2.139089 0.047988 0.004879 174152.000000 0 0 1
23.930965 24.627394 -20.336874 39.909748 0.799739 2.105483 0.047512 -0.000678 80557.300000 0 0 1
23.477165 23.581094 -19.268074 38.451319 0.787607 2.095669 0.042321 -0.003756 -232483.000000 0 0 1
23.951465 22.282894 -19.660974 38.167445 0.749324 2.111949 0.052492 -0.002608 331402.000000 0 0 1
23.747065 21.340294 -18.609374 36.954567 0.732069 2.098527 0.066321 -0.007454 -977980.000000 0 0 1
23.739265 19.852694 -19.061974 36.346127 0.696475 2.122873 0.067295 -0.016082 303616.000000 0 0 1
22.748965 19.434494 -19.987874 35.982357 0.706986 2.159750 0.046062 -0.014879 -297745.000000 0 0 1
21.415265 19.667494 -19.675174 35.107497 0.742881 2.165697 0.045307 -0.018949 -1555800.000000 0 0 1
20.423965 19.584094 -20.812974 35.126271 0.764409 2.204978 0.035698 -0.011031 -325870.000000 0 0 1
20.685565 20.443494 -21.917474 36.417093 0.779513 2.216607 0.037025 -0.005532 56858.600000 0 0 1
20.533165 21.827994 -21.549574 36.911465 0.815955 2.194220 0.025932 0.001542 -167571.000000 0 0 1
20.114165 22.731294 -22.722374 37.915664 0.846405 2.213407 0.033685 -0.002638 807242.000000 0 0 1
18.717365 22.709394 -23.033474 37.371075 0.881465 2.234889 0.031925 -0.003191 128215.000000 0 0 1
18.544065 23.102194 -24.379974 38.366350 0.894413 2.259390 0.028912 -0.004917 -381094.000000 0 0 1
17.100665 23.177894 -24.883674 38.063693 0.935149 2.283310 0.025510 -0.002932 -50776.300000 0 0 1
16.401365 24.220794 -24.151474 37.933432 0.975564 2.260982 0.019873 -0.009511 -127905.000000 0 0 1
15.025765 24.161294 -24.425774 37.498802 1.014434 2.280191 0.025456 -0.007204 -184598.000000 0 0 1
14.251565 25.354694 -23.828974 37.600367 1.058720 2.257179 0.019296 -0.003459 -78192.200000 0 0 1
14.547665 26.569794 -24.464974 38.937430 1.069854 2.250182 0.020915 -0.009491 290607.000000 0 0 1
13.642965 27.589894 -24.021574 39.043165 1.111565 2.233508 0.036894 -0.007221 393671.000000 0 0 1
13.757865 28.852194 -24.913074 40.526401 1.125848 2.232849 0.034344 -0.010914 -67011.700000 0 0 1
13.548965 28.673394 -26.267284 41.178977 1.129367 2.262540 0.051373 -0.023032 -222338.000000 0 0 1
13.114865 29.798694 -26.941604 42.258867 1.156193 2.262094 0.071687 -0.027178 259968.000000 0 0 1
14.048065 31.065694 -26.796334 43.364374 1.146110 2.236909 0.075938 -0.027359 639424.000000 0 0 1
15.286665 30.993594 -27.470074 44.146233 1.112587 2.242412 0.061959 -0.012886 220213.000000 0 0 1
16.069165 32.206894 -27.550624 45.327022 1.108001 2.224107 0.066432 -0.019492 -668139.000000 0 0 1
17.514565 31.942594 -27.843054 45.851117 1.069249 2.223390 0.061396 -0.008218 -1586470.000000 0 0 1
18.226265 31.394894 -26.815614 45.132175 1.044802 2.207014 0.028695 -0.006809 155674.000000 0 0 1
19.533165 31.018894 -27.280944 45.694269 1.008811 2.210593 0.024253 -0.005650 242331.000000 0 0 1
20.304365 30.376494 -26.049294 44.872757 0.981578 2.190157 0.012430 0.001329 -734895.000000 0 0 1
20.673465 31.230094 -24.936974 44.995150 0.986051 2.158216 0.025264 -0.000307 277199.000000 0 0 1
21.625665 32.227894 -25.257084 46.305796 0.979784 2.147712 0.031881 -0.007074 65929.600000 0 0 1
23.100765 31.825094 -25.534764 46.888230 0.942921 2.146694 0.019484 0.003953 -133032.000000 0 0 1
23.180365 31.044394 -26.735134 47.072827 0.929421 2.174812 0.015944 0.006606 -803909.000000 0 0 1
24.364965 31.245594 -27.422994 48.186712 0.908501 2.176206 0.008984 0.019032 -1292460.000000 0 0 1
24.327465 30.741094 -28.935404 48.724716 0.901342 2.206638 -0.003361 0.016394 -320769.000000 0 0 1
23.471865 31.421894 -29.864834 49.296776 0.929224 2.221589 0.018183 -0.000054 -734064.000000 0 0 1
22.204265 30.912194 -29.830484 48.357531 0.947893 2.235561 0.010255 -0.006461 -1684020.000000 0 0 1
21.087565 31.596094 -30.598194 48.777536 0.982279 2.248879 0.007093 -0.010108 -972113.000000 0 0 1
20.714765 32.925894 -30.278604 49.295129 1.009231 2.232208 0.026899 -0.008750 636082.000000 0 0 1
19.849965 33.544394 -31.280224 49.976993 1.036464 2.247072 0.047105 -0.019462 1711430.000000 0 0 1
18.310765 33.123194 -31.191434 49.044221 1.065800 2.260082 0.062648 -0.021290 886356.000000 0 0 1
18.111265 31.756294 -31.613404 48.331019 1.052486 2.283791 0.067656 -0.030028 -163834.000000 0 0 1
18.286165 31.393394 -32.973564 49.063071 1.043355 2.307790 0.082674 -0.037269 -204080.000000 0 0 1
17.456065 32.120194 -34.106980 49.997071 1.072988 2.321536 0.103905 -0.040316 -90629.600000 0 0 1
17.919965 33.462994 34.177702 51.078493 1.079141 0.837771 0.090629 -0.031919 194748.000000 0 0 1
17.574765 34.030294 32.953435 50.525856 1.094080 0.860301 0.084829 -0.029652 880259.000000 0 0 1
16.064965 -34.007423 32.660849 49.812840 -1.129475 0.855725 0.094025 -0.030555 417324.000000 0 0 1
15.147965 33.284694 32.602035 48.992085 1.143707 0.842693 0.104718 -0.029895 631314.000000 0 0 1
13.788765 33.654094 32.792000 48.969821 1.181939 0.837077 0.088098 -0.030464 436903.000000 0 0 1
13.148465 -33.947523 31.636101 48.230274 -1.201271 0.855371 0.077450 -0.026155 -1221920.000000 0 0 1
13.603965 -32.626223 31.456001 47.318266 -1.175752 0.843604 0.089771 -0.024278 109732.000000 0 0 1
12.869965 -32.097423 30.406011 46.047868 -1.189458 0.849561 0.079854 -0.025481 -196959.000000 0 0 1
13.509065 -30.778223 30.024981 45.069872 -1.157198 0.841711 0.071836 -0.024173 -86486.700000 0 0 1
13.111165 -29.724523 30.878281 44.820957 -1.155377 0.810791 0.072650 -0.025416 270429.000000 0 0 1
13.710265 -28.477123 30.538251 43.948865 -1.122100 0.802573 0.075074 -0.032714 -179201.000000 0 0 1
13.332865 -27.313623 31.504331 43.775817 -1.116682 0.767463 0.071870 -0.034280 1367040.000000 0 0 1
11.928465 -26.917123 31.435121 43.069556 -1.153649 0.752666 0.060971 -0.035625 1526490.000000 0 0 1
11.584865 -25.917723 30.450931 41.631679 -1.150452 0.750370 0.038036 -0.029243 -133313.000000 0 0 1
11.823065 -24.452623 30.967451 41.191003 -1.120428 0.720007 0.044741 -0.032925 789591.000000 0 0 1
10.805665 -24.167323 31.976041 41.512518 -1.150341 0.691525 0.044379 -0.035777 862403.000000 0 0 1
10.958065 -22.903523 32.573137 41.299635 -1.124541 0.662100 0.038645 -0.032599 -155513.000000 0 0 1
10.051165 -22.734023 33.794574 41.951579 -1.154515 0.634174 0.043801 -0.031628 -342386.000000 0 0 1
10.407365 -23.609323 -33.508224 42.290832 -1.155606 2.485412 0.042593 -0.027680 418830.000000 0 0 1
11.703165 -23.533023 -32.931484 42.133714 -1.109305 2.468014 0.046630 -0.033208 380922.000000 0 0 1
12.162565 -22.221023 -32.225234 40.989847 -1.069994 2.475393 0.050037 -0.033804 -202844.000000 0 0 1
12.446365 -21.074623 -33.027184 41.107744 -1.037328 2.503830 0.038059 -0.027760 185084.000000 0 0 1
13.501565 -20.273923 -32.536524 40.644183 -0.983285 2.498960 0.043388 -0.025400 -50498.600000 0 0 1
13.734165 -19.080923 -33.488364 40.916738 -0.946915 2.529507 0.035252 -0.022007 -407133.000000 0 0 1
14.464065 -19.514023 33.772749 41.600539 -0.932942 0.623509 0.046594 -0.016121 448911.000000 0 0 1
14.435265 -18.583723 32.682517 40.272554 -0.910382 0.624025 0.020422 -0.011226 -322810.000000 0 0 1
15.345665 -17.350923 32.716244 40.086115 -0.846651 0.616081 0.043395 -0.014458 -1096690.000000 0 0 1
14.945965 -16.378323 33.698554 40.338863 -0.831093 0.581960 0.050705 -0.013761 518179.000000 0 0 1
15.687965 -15.145623 33.712544 40.150190 -0.767811 0.574138 0.061650 -0.020291 1635410.000000 0 0 1
17.280665 -15.211223 33.886321 40.966883 -0.721793 0.596755 0.060647 -0.015344 1488790.000000 0 0 1
18.021965 -15.858323 32.863999 40.697913 -0.721623 0.630877 0.069550 -0.020343 -513039.000000 0 0 1
19.326565 -16.045723 33.342173 41.745441 -0.692911 0.645661 0.090981 -0.016840 -548410.000000 0 0 1
20.174465 -16.843523 32.360048 41.687960 -0.695658 0.682110 0.121397 -0.026844 -533942.000000 0 0 1
20.389665 -16.041923 31.205091 40.581270 -0.666620 0.693594 0.092279 -0.014341 633055.000000 0 0 1
21.280965 -16.643523 30.246601 40.555434 -0.663721 0.729048 0.089115 -0.017897 155326.000000 0 0 1
21.415365 -15.742423 29.059091 39.381119 -0.633896 0.740852 0.077499 -0.008523 -696734.000000 0 0 1
22.439765 -14.826623 29.210761 39.706931 -0.583881 0.744157 0.069812 -0.014273 -259617.000000 0 0 1
22.598065 -14.162023 28.028091 38.688620 -0.559815 0.760556 0.059829 -0.014225 -51931.000000 0 0 1
23.392765 -12.880123 28.277971 38.894250 -0.503306 0.756784 0.043084 -0.009837 284428.000000 0 0 1
22.630765 -11.950823 29.048641 38.714303 -0.485857 0.722230 0.053217 -0.009256 323626.000000 0 0 1
23.262965 -10.715623 28.922631 38.633000 -0.431659 0.724772 0.050096 -0.013919 -18209.700000 0 0 1
22.314165 -9.520823 28.858861 37.701484 -0.403286 0.699045 0.053912 -0.016208 318681.000000 0 0 1
21.410865 -9.266423 29.942471 37.958442 -0.408451 0.661906 0.064149 -0.022448 -122833.000000 0 0 1
20.543565 -8.210623 29.736431 37.063563 -0.380221 0.639643 0.068088 -0.025072 444507.000000 0 0 1
19.289965 -8.080023 30.684141 37.133624 -0.396669 0.598260 0.056930 -0.016333 603884.000000 0 0 1
19.540365 -7.722123 31.998371 38.279927 -0.376351 0.581017 0.067354 -0.024996 -157806.000000 0 0 1
19.996865 -8.772523 32.801394 39.405117 -0.413413 0.587346 0.070754 -0.031225 -261415.000000 0 0 1
20.073765 -8.460423 -34.127731 40.487489 -0.398874 2.573485 0.086059 -0.039565 746108.000000 0 0 1
18.793865 -8.156823 -33.543444 39.305289 -0.409482 2.593285 0.070535 -0.037944 676001.000000 0 0 1
18.951265 -7.745323 -32.219394 38.173679 -0.387981 2.575534 0.067206 -0.039669 -318559.000000 0 0 1
17.614865 -7.479523 -31.536674 36.888867 -0.401544 2.596174 0.064453 -0.031729 -287131.000000 0 0 1
17.763065 -6.609223 -30.412614 35.834835 -0.356205 2.584297 0.051843 -0.020854 625376.000000 0 0 1
16.506565 -6.203123 -29.848634 34.668233 -0.359470 2.607988 0.046998 -0.011671 722543.000000 0 0 1
16.660265 -4.983423 -28.905924 33.733535 -0.290650 2.600002 0.031196 -0.002453 -142759.000000 0 0 1
17.280865 -5.120223 -27.629324 32.988248 -0.288054 2.563581 0.032148 -0.006333 -1849.660000 0 0 1
16.777565 -6.021423 -26.674644 32.082407 -0.344579 2.552493 0.036797 -0.007870 226888.000000 0 0 1
15.376065 -5.849123 -26.004764 30.771470 -0.363500 2.577536 0.047515 -0.011767 553708.000000 0 0 1
15.366565 -4.695023 -25.227304 29.909721 -0.296527 2.574467 0.029890 -0.005986 -111717.000000 0 0 1
14.259965 -4.700623 -24.343874 28.601864 -0.318421 2.588928 0.044808 -0.018257 315098.000000 0 0 1
14.108765 -3.412523 -23.530674 27.647697 -0.237315 2.588854 0.042209 -0.023042 76055.300000 0 0 1
14.125165 -2.211523 -24.324874 28.215432 -0.155305 2.610220 0.033852 -0.028451 99350.400000 0 0 1
13.817365 -1.085523 -23.536774 27.314422 -0.078401 2.609402 0.036831 -0.025784 -99877.900000 0 0 1
14.064965 0.262477 -24.235474 28.022318 0.018660 2.615674 0.023100 -0.028178 -222878.000000 0 0 1
13.183765 0.682477 -25.280934 28.520222 0.051720 2.660352 0.031479 -0.030653 198448.000000 0 0 1
13.654165 1.871477 -25.868174 29.310426 0.136214 2.652073 0.026502 -0.015096 -134392.000000 0 0 1
12.667265 2.424477 -26.903414 29.835069 0.189110 2.694570 0.038577 -0.016511 318398.000000 0 0 1
11.476865 3.019477 -26.360284 28.908480 0.257263 2.718572 0.052101 -0.021798 345168.000000 0 0 1
10.695765 3.414477 -27.445664 29.653372 0.309010 2.753281 0.059299 -0.023510 -795652.000000 0 0 1
9.500465 4.285477 -27.097574 29.032786 0.423752 2.774414 0.058027 -0.022374 -570095.000000 0 0 1
9.785465 5.529477 -26.459114 28.747437 0.514340 2.739896 0.061894 -0.028817 -499014.000000 0 0 1
8.642365 6.263477 -26.182274 28.274247 0.627138 2.754502 0.068487 -0.028242 -493458.000000 0 0 1
8.148665 4.784794 -31.691894 33.070699 0.530945 2.851815 0.038842 -0.019105 -31255.100000 0 0 1
8.411965 3.832094 -30.681124 32.043368 0.427462 2.848959 0.035945 -0.011749 243305.000000 0 0 1
7.775965 2.586194 -30.851704 31.921492 0.321080 2.881970 0.037135 -0.008510 -218450.000000 0 0 1
7.744265 1.622994 -29.583494 30.623371 0.206584 2.880246 0.045680 -0.011638 80685.100000 0 0 1
8.998165 1.034594 -29.258694 30.628557 0.114476 2.841385 0.064417 -0.020350 570893.000000 0 0 1
8.812365 0.142094 -28.186644 29.532437 0.016123 2.838540 0.059842 -0.024436 -20431.700000 0 0 1
10.104865 -0.195706 -27.411434 29.215292 -0.019365 2.788351 0.066397 -0.029799 -398990.000000 0 0 1
10.827965 -1.165206 -28.061574 30.100738 -0.107198 2.771394 0.048447 -0.018892 157639.000000 0 0 1
12.011465 -1.542406 -27.337144 29.899394 -0.127712 2.724583 0.045185 -0.021559 621153.000000 0 0 1
12.612965 -2.798006 -27.909924 30.755155 -0.218301 2.708061 0.045154 -0.016230 659039.000000 0 0 1
11.685465 -3.833506 -27.482574 30.108765 -0.316995 2.720827 0.055485 -0.010224 1059760.000000 0 0 1
12.141365 -5.089406 -27.912454 30.861301 -0.396930 2.700881 0.062608 -0.013295 32720.500000 0 0 1
11.288065 -6.111706 -27.148234 30.029984 -0.496240 2.699919 0.049247 -0.022748 149487.000000 0 0 1
11.397565 -5.980906 -25.720654 28.761567 -0.483253 2.677597 0.061428 -0.015509 103024.000000 0 0 1
10.610065 -6.991106 -25.143684 28.171863 -0.582615 2.673677 0.062236 -0.020525 -50131.400000 0 0 1
10.525965 -6.760406 -23.632674 26.739527 -0.570915 2.654742 0.058678 -0.020635 -65012.700000 0 0 1
11.746265 -7.032306 -22.979274 26.748366 -0.539452 2.604287 0.054169 -0.021460 -83390.400000 0 0 1
11.612765 -6.764106 -21.615574 25.452750 -0.527431 2.585347 0.065196 -0.038786 271559.000000 0 0 1
12.921265 -6.864306 -20.780374 25.414597 -0.488327 2.528122 0.070201 -0.032468 478967.000000 0 0 1
13.730065 -5.708506 -20.934674 25.678051 -0.394024 2.524000 0.049802 -0.026983 -648666.000000 0 0 1
14.947465 -5.852906 -20.268074 25.854942 -0.373214 2.471743 0.054465 -0.023372 -309376.000000 0 0 1
15.392965 -4.461006 -19.761974 25.443654 -0.282080 2.460199 0.046410 -0.021958 -305088.000000 0 0 1
15.908965 -3.665906 -20.799774 26.441721 -0.226477 2.476123 0.032475 -0.020888 87515.500000 0 0 1
16.182065 -2.364806 -20.401674 26.147272 -0.145110 2.465878 0.029208 -0.001990 -647343.000000 0 0 1
17.236565 -1.622406 -21.183974 27.358584 -0.093849 2.456417 0.023885 -0.012932 1463590.000000 0 0 1
18.607465 -2.161506 -21.027774 28.161625 -0.115645 2.413856 0.035087 -0.020417 1618180.000000 0 0 1
19.531265 -1.207106 -21.456374 29.039686 -0.061725 2.402179 0.035135 -0.015571 -537140.000000 0 0 1
20.850765 -1.825106 -21.916874 30.305689 -0.087309 2.379211 0.030658 -0.020059 -888928.000000 0 0 1
21.832565 -1.987806 -20.869174 30.267717 -0.090797 2.331576 0.033276 -0.015555 860213.000000 0 0 1
22.990965 -2.722306 -21.270974 31.439620 -0.117859 2.313885 0.030895 -0.012098 257360.000000 0 0 1
23.944565 -1.912306 -22.142174 32.669174 -0.079695 2.315521 0.044374 -0.019309 -2092190.000000 0 0 1
23.684365 -1.837906 -23.509774 33.422096 -0.077445 2.350994 0.043279 -0.021551 238994.000000 0 0 1
24.628965 -1.072006 -24.259474 34.586951 -0.043499 2.348164 0.039551 -0.014472 -65060.200000 0 0 1
25.915765 -1.804206 -24.627274 35.796433 -0.069506 2.329500 0.052279 -0.020729 -1340310.000000 0 0 1
26.779765 -2.126106 -23.484474 35.681881 -0.079226 2.289172 0.061305 -0.017324 897575.000000 0 0 1
27.889665 -2.949706 -23.866474 36.825843 -0.105372 2.275871 0.053919 -0.011774 709683.000000 0 0 1
28.973765 -2.318906 -24.801974 38.209871 -0.079864 2.277195 0.057887 -0.012146 -1112900.000000 0 0 1
28.500865 -1.861806 -26.039504 38.649985 -0.065232 2.310036 0.064242 -0.017141 -289607.000000 0 0 1
29.291265 -0.794406 -26.537684 39.532998 -0.027114 2.306730 0.060421 -0.019402 -536095.000000 0 0 1
28.841865 -0.311206 -27.944774 40.160433 -0.010790 2.340369 0.053110 -0.023009 -151222.000000 0 0 1
27.509965 0.120294 -28.074424 39.306309 0.004373 2.366344 0.057117 -0.013773 -1972.860000 0 0 1
27.232865 1.404994 -27.462364 38.701219 0.051546 2.359726 0.048385 -0.000762 -1069590.000000 0 0 1
25.803365 1.825194 -27.730504 37.922629 0.070617 2.390933 0.058657 -0.017138 -501463.000000 0 0 1
24.746765 1.317694 -26.945294 36.608572 0.053197 2.397995 0.066477 -0.022657 -375818.000000 0 0 1
23.499365 1.642394 -27.490514 36.202844 0.069778 2.433105 0.061755 -0.022208 -1120860.000000 0 0 1
22.489665 1.274794 -26.438494 34.733328 0.056623 2.435935 0.061375 -0.024087 -915170.000000 0 0 1
22.494865 2.067094 -25.291884 33.911225 0.091634 2.412571 0.066763 -0.027190 804970.000000 0 0 1
21.484265 1.575794 -24.382274 32.535397 0.073215 2.417963 0.058778 -0.029246 372383.000000 0 0 1
21.429165 2.124494 -22.936874 31.461449 0.098817 2.387725 0.059898 -0.022493 -247989.000000 0 0 1
21.276865 3.521794 -22.806074 31.388294 0.164035 2.384126 0.062753 -0.023816 358648.000000 0 0 1
21.367965 3.927094 -21.419174 30.508900 0.181756 2.349087 0.051975 -0.020206 -217256.000000 0 0 1
20.875965 5.343794 -21.178874 30.214346 0.250597 2.347531 0.050951 -0.010538 -94671.000000 0 0 1
21.712565 6.280394 -21.828374 31.422233 0.281567 2.338770 0.063188 -0.010930 176354.000000 0 0 1
21.396465 7.651794 -21.510474 31.289921 0.343447 2.328778 0.059053 -0.014799 -361994.000000 0 0 1
21.776565 8.073694 -20.071874 30.696635 0.355041 2.283496 0.062340 -0.014492 -749707.000000 0 0 1
23.138365 8.154394 -19.777174 31.512135 0.338828 2.249269 0.082356 -0.017257 -349932.000000 0 0 1
23.445265 8.310194 -18.361474 30.917365 0.340634 2.206680 0.081562 -0.024189 30198.700000 0 0 1
23.186065 9.732394 -17.687474 30.743451 0.397417 2.183798 0.082547 -0.030519 745196.000000 0 0 1
21.798465 10.021594 -17.444274 29.663245 0.430923 2.199476 0.064683 -0.028077 490549.000000 0 0 1
21.647465 11.373894 -17.194474 29.893613 0.483772 2.183631 0.037937 -0.019719 663303.000000 0 0 1
20.132965 11.832594 -17.090574 28.938456 0.531343 2.202578 0.030924 -0.022036 1415870.000000 0 0 1
19.290665 11.546094 -18.210474 28.932048 0.539340 2.251606 0.021660 -0.019728 357776.000000 0 0 1
18.961365 10.196594 -18.438974 28.346069 0.493394 2.279032 0.022053 -0.011592 -1005430.000000 0 0 1
18.162265 9.991994 -19.717074 28.608929 0.502959 2.331171 0.015701 -0.004722 32045.400000 0 0 1
18.957865 10.284694 -20.849974 29.998283 0.497069 2.339270 0.023730 -0.010284 801769.000000 0 0 1
18.225265 9.851394 -22.014674 30.230053 0.495547 2.386544 0.013426 -0.006027 374725.000000 0 0 1
19.042965 10.175394 -23.309074 31.772410 0.490740 2.394439 0.029940 -0.006259 3026.760000 0 0 1
19.134365 11.533594 -23.737474 32.597781 0.542453 2.386478 0.035951 -0.009515 231537.000000 0 0 1
20.099965 11.793094 -24.741374 33.988545 0.530599 2.386098 0.046241 -0.012655 42866.500000 0 0 1
20.245765 13.326894 -25.096534 34.890301 0.582157 2.373588 0.063440 -0.023483 98923.000000 0 0 1
21.040865 13.634294 -26.243214 36.294879 0.574962 2.379012 0.063846 -0.025475 299096.000000 0 0 1
21.112965 15.057094 -26.472434 37.057565 0.619509 2.366505 0.072229 -0.024602 -116687.000000 0 0 1
19.882965 15.697994 -27.141814 37.127313 0.668318 2.390652 0.061328 -0.025676 -161309.000000 0 0 1
18.720665 15.658194 -26.361664 35.924638 0.696553 2.394702 0.051673 -0.022624 -1075020.000000 0 0 1
17.604165 15.998394 -27.117184 36.072107 0.737647 2.421507 0.047808 -0.026272 -304586.000000 0 0 1
16.279765 15.643794 -26.395364 34.734338 0.765479 2.433988 0.041818 -0.019847 -241960.000000 0 0 1
16.108665 14.204194 -26.405924 34.037053 0.722653 2.458777 0.037596 -0.012946 -468570.000000 0 0 1
14.815665 13.890594 -26.007474 32.997594 0.753184 2.478614 0.012898 -0.005855 -616277.000000 0 0 1
14.666865 12.337794 -25.893374 32.214979 0.699364 2.504398 0.007952 -0.004119 -205837.000000 0 0 1
13.316365 11.952794 -25.848574 31.437933 0.731489 2.536079 0.017502 -0.011498 -210999.000000 0 0 1
13.185365 10.542094 -25.696024 30.745328 0.674454 2.560330 0.026054 -0.013525 -755416.000000 0 0 1
11.803765 9.944694 -25.507554 29.813774 0.700125 2.597433 0.044877 -0.016311 -869899.000000 0 0 1
11.219965 10.230894 -24.284374 28.640698 0.739322 2.582803 0.058925 -0.028873 -271564.000000 0 0 1
10.092665 9.417894 -24.084174 27.759792 0.750827 2.621136 0.072801 -0.028986 -529532.000000 0 0 1
9.140965 9.855194 -22.978374 26.621190 0.822979 2.612293 0.079310 -0.027734 -434155.000000 0 0 1
8.635665 11.129394 -23.273674 27.204816 0.910904 2.597309 0.074253 -0.035857 -251976.000000 0 0 1
7.932865 11.746794 -22.221774 26.357631 0.976826 2.573794 0.067153 -0.029095 263035.000000 0 0 1
8.776665 12.622594 -21.218174 26.202492 0.963222 2.514568 0.061079 -0.030191 159320.000000 0 0 1
9.638665 11.872594 -20.395274 25.491754 0.888877 2.498214 0.073929 -0.034953 -613837.000000 0 0 1
10.512265 12.724694 -19.686574 25.690207 0.880324 2.443869 0.078457 -0.031868 -285136.000000 0 0 1
11.630665 11.904994 -18.963774 25.231448 0.797054 2.421270 0.070931 -0.032242 908827.000000 0 0 1
12.652965 11.290594 -19.811174 26.077915 0.728560 2.433635 0.043313 -0.029073 1001500.000000 0 0 1
12.148865 10.430294 -20.858374 26.295583 0.709431 2.486887 0.054223 -0.032263 -958292.000000 0 0 1
13.271265 9.755294 -21.690374 27.235355 0.633877 2.492124 0.041898 -0.022650 158300.000000 0 0 1
14.036065 8.822694 -20.946474 26.713401 0.561165 2.472071 0.052123 -0.025298 43774.700000 0 0 1
14.951865 8.178394 -21.793374 27.665782 0.500523 2.477924 0.044203 -0.022003 -463454.000000 0 0 1
15.489565 6.956794 -21.050674 27.045415 0.422128 2.462822 0.065400 -0.023757 -65039.000000 0 0 1
16.369765 7.139394 -19.960674 26.783738 0.411262 2.411711 0.041053 -0.018268 143258.000000 0 0 1
16.629065 5.947294 -19.273574 26.141284 0.343469 2.399839 0.037662 -0.023892 147049.000000 0 0 1
17.453965 6.158494 -17.945174 25.779783 0.339205 2.340740 0.045167 -0.019311 1066940.000000 0 0 1
18.800865 6.567894 -18.294974 27.042851 0.336087 2.313820 0.042018 -0.026179 1816370.000000 0 0 1
19.702365 6.830794 -17.166574 27.009890 0.333731 2.259538 0.053820 -0.042182 941235.000000 0 0 1
20.414965 5.635994 -16.496874 26.845522 0.269362 2.232563 0.066795 -0.045472 -246876.000000 0 0 1
21.558465 5.082794 -17.120574 27.994932 0.231540 2.228827 0.066034 -0.041607 346917.000000 0 0 1
22.104265 4.079694 -16.262874 27.743891 0.182512 2.197130 0.087896 -0.050120 483875.000000 0 0 1
23.516365 3.584794 -16.703474 29.066754 0.151274 2.182984 0.052603 -0.018316 363068.000000 0 0 1
24.267465 2.809994 -15.796974 29.092100 0.115279 2.144800 0.046942 -0.017468 696163.000000 0 0 1
25.471065 2.337994 -16.413274 30.391395 0.091534 2.141309 0.057946 -0.019251 464343.000000 0 0 1
26.233465 1.283394 -15.608474 30.552679 0.048883 2.106994 0.073583 -0.028472 143041.000000 0 0 1
25.571565 0.009094 -15.597874 29.953275 0.000356 2.118514 0.070460 -0.027406 498382.000000 0 0 1
26.593465 -0.922906 -15.843974 30.969269 -0.034690 2.107846 0.064909 -0.012611 103568.000000 0 0 1
26.005765 -2.323906 -16.054474 30.650391 -0.089124 2.122094 0.052022 -0.012401 4914.410000 0 0 1
25.407865 -2.884106 -14.881374 29.586026 -0.113029 2.097847 0.054981 -0.014109 453256.000000 0 0 1
25.200365 -4.234906 -15.190274 29.727718 -0.166494 2.107121 0.046043 -0.005429 -910190.000000 0 0 1
24.651865 -5.199606 -14.073474 28.858500 -0.207875 2.080217 0.049032 -0.008921 353066.000000 0 0 1
23.324365 -4.947006 -13.632074 27.465110 -0.208999 2.090176 0.054563 -0.004183 838952.000000 0 0 1
22.370865 -5.453306 -14.611574 27.270721 -0.239105 2.136248 0.055015 -0.000841 -33661.300000 0 0 1
20.895565 -5.265406 -14.182974 25.797400 -0.246848 2.152901 0.067275 -0.007827 -60284.400000 0 0 1
20.452965 -6.195306 -13.180074 25.108165 -0.294120 2.123431 0.067009 -0.007211 379432.000000 0 0 1
20.648565 -5.848406 -11.798074 24.490031 -0.276006 2.073447 0.075452 -0.009778 -423133.000000 0 1 0
20.481065 -7.039206 -10.885774 24.238905 -0.331045 2.036558 0.076691 -0.009477 -672692.000000 0 1 0
19.239065 -7.645606 -10.730674 23.318325 -0.378263 2.048997 0.084197 -0.012019 -234385.000000 0 1 0
19.013965 -8.642706 -11.687074 23.933552 -0.426627 2.080952 0.080607 -0.018003 -862518.000000 0 1 0
17.623265 -9.247506 -11.559474 23.015587 -0.483238 2.096990 0.100331 -0.025661 -829092.000000 0 1 0
16.644965 -8.331206 -11.875474 22.079192 -0.464067 2.138691 0.088759 -0.020302 6661.710000 0 1 0
15.339065 -8.887906 -12.112874 21.470992 -0.525157 2.170201 0.086080 -0.022494 997311.000000 0 1 0
14.306465 -7.751106 -12.355774 20.430852 -0.496518 2.220262 0.063628 -0.022148 -466879.000000 0 1 0
14.490065 -7.027706 -13.538774 21.039226 -0.451577 2.269860 0.058551 -0.019884 -98637.700000 0 1 0
15.598765 -6.190706 -13.658474 21.637935 -0.377807 2.253932 0.055656 -0.011446 -404408.000000 0 1 0
15.291465 -5.074506 -14.674974 21.792989 -0.320417 2.309568 0.037742 -0.011691 -5114.430000 0 1 0
14.254365 -4.228706 -14.231174 20.581428 -0.288390 2.334300 0.043731 -0.014917 74575.200000 0 1 0
13.839065 -3.213406 -15.106974 20.738041 -0.228155 2.386878 0.033389 -0.022536 -95455.100000 0 1 0
14.856265 -2.051506 -15.372974 21.476629 -0.137222 2.368566 0.036848 -0.023491 -783486.000000 0 1 0
15.825465 -2.400906 -16.366074 22.892314 -0.150563 2.367300 0.027970 -0.014672 415142.000000 0 1 0
16.956265 -1.541606 -16.233174 23.524612 -0.090667 2.332355 0.036172 -0.012004 225646.000000 0 1 0
18.009765 -2.077906 -15.253174 23.692375 -0.114869 2.270252 0.050801 -0.013760 -1336410.000000 0 1 0
17.628165 -2.015806 -13.878474 22.526156 -0.113857 2.234584 0.044353 -0.009054 244429.000000 0 1 0
18.640765 -2.509206 -12.997474 22.862820 -0.133804 2.175476 0.050763 -0.005461 89350.500000 0 1 0
18.196365 -2.646006 -11.547674 21.713079 -0.144402 2.131557 0.050521 -0.001942 -543926.000000 0 1 0
18.089165 -1.424706 -10.802174 21.117164 -0.078598 2.107767 0.053408 -0.004346 556024.000000 0 1 0
17.909365 -1.787506 -9.458174 20.332181 -0.099479 2.054637 0.069143 -0.008058 -729975.000000 0 1 0
18.065365 -0.594506 -8.475674 19.963664 -0.032897 2.009267 0.073503 -0.007782 1214100.000000 0 1 0
19.415465 -0.108806 -8.197074 21.075202 -0.005604 1.970281 0.081612 -0.003033 1806910.000000 0 1 0
20.084965 0.556494 -9.250674 22.119911 0.027700 2.002265 0.064142 0.003249 -340111.000000 0 1 0
19.374665 1.849194 -9.792374 21.787330 0.095156 2.036949 0.043824 -0.003310 -550704.000000 0 1 0
19.161765 2.874894 -8.854374 21.303478 0.148922 1.999432 0.031836 0.000171 447841.000000 0 1 0
18.457365 3.914794 -9.512574 21.130286 0.209002 2.037771 0.023404 -0.010834 -593161.000000 0 1 0
18.748965 5.379994 -9.037574 21.497575 0.279441 2.004682 0.050003 0.000530 -182763.000000 0 1 0
18.361165 6.383094 -9.987074 21.854471 0.334572 2.045394 0.071343 0.002218 296607.000000 0 1 0
18.974165 7.596794 -9.667674 22.609602 0.380830 2.012623 0.103956 0.005532 -86247.900000 0 1 0
-25.907665 -29.167976 5.739026 39.432403 0.844526 1.424737 0.052499 -0.008059 -501353.000000 0 0 1
-25.963625 -28.014516 6.464326 38.739005 0.823375 1.403143 0.068255 -0.002933 -1095840.000000 0 0 1
-24.864135 -27.199116 6.350626 37.394486 0.830217 1.400141 0.046806 -0.007901 -1483880.000000 0 0 1
-24.873635 -25.900926 7.211526 36.627337 0.805628 1.372612 0.049728 -0.006410 392140.000000 0 0 1
-25.978275 -24.990506 6.917526 36.704882 0.766021 1.381199 0.071647 -0.009663 1047050.000000 0 0 1
-27.233985 -25.469616 7.381826 38.011612 0.751933 1.375355 0.051815 -0.006229 -399710.000000 0 0 1
-27.535995 -25.348476 8.958426 38.484149 0.744058 1.335859 0.047726 -0.009928 -364460.000000 0 0 1
-26.770405 -26.229936 9.764526 38.729964 0.775201 1.315928 0.048873 -0.011930 -114939.000000 0 0 1
-27.199375 -26.252386 11.106326 39.399801 0.767683 1.285035 0.032702 -0.012716 -394242.000000 0 0 1
-26.367635 -27.216606 11.936426 39.730016 0.801241 1.265644 0.006344 -0.005340 -182437.000000 0 0 1
-25.060515 -26.787146 12.197026 38.656799 0.818688 1.249791 0.013726 0.005195 -598737.000000 0 0 1
-25.001635 -26.038516 13.390226 38.501744 0.805710 1.215592 0.032789 0.002817 -668633.000000 0 0 1
-23.585535 -25.711116 13.877526 37.548964 0.828490 1.192234 0.032265 -0.000158 -502004.000000 0 0 1
-22.928835 -26.834876 14.341426 38.098800 0.863729 1.184859 0.024689 -0.003149 -447873.000000 0 0 1
-21.842535 -26.503746 15.178326 37.548988 0.881514 1.154662 0.029022 -0.005400 -245072.000000 0 0 1
-21.423535 -27.723556 16.009126 38.520846 0.912890 1.142198 0.022044 -0.001660 -1109170.000000 0 0 1
-22.384235 -28.251216 16.821026 39.776025 0.900751 1.134160 0.011678 0.010644 -467495.000000 0 0 1
-21.954535 -29.435776 17.490826 40.674262 0.929960 1.126279 0.028229 0.012467 -406587.000000 0 0 1
-23.053235 -29.976176 18.401426 42.055146 0.915213 1.117919 0.044734 -0.002713 -521002.000000 0 0 1
-24.091235 -30.618296 17.684826 42.785754 0.904141 1.144683 -0.002528 0.004254 105938.000000 0 0 1
-24.640935 -31.644136 18.477326 44.158110 0.909186 1.139074 0.016373 0.000622 -139590.000000 0 0 1
-25.540745 -32.613156 17.692326 45.044046 0.906419 1.167146 0.014670 -0.001211 482426.000000 0 0 1
-24.760435 -33.385276 16.772926 44.821723 0.932656 1.187247 0.020280 -0.008303 531040.000000 0 0 1
-25.687505 -34.159652 16.076026 45.663644 0.926027 1.211033 0.030096 -0.011999 -440802.000000 0 0 1
-25.123345 33.547830 14.814126 44.453320 -0.928012 1.231046 0.036092 -0.019098 747511.000000 0 0 1
-23.976935 32.679201 14.951326 43.201455 -0.937805 1.217403 0.023383 -0.016321 1356620.000000 0 0 1
-22.751835 33.394313 14.809826 43.036695 -0.972725 1.219494 0.029278 -0.014628 84200.800000 0 0 1
-21.439635 32.578858 14.906226 41.752072 -0.988759 1.205723 0.048554 -0.024959 196949.000000 0 0 1
-21.147735 31.821811 13.765326 40.612049 -0.984249 1.224999 0.040649 -0.018301 2055.690000 0 0 1
-19.958735 31.095051 13.974326 39.503608 -1.000163 1.209221 0.035250 -0.021069 -29112.900000 0 0 1
-19.730235 30.099211 12.856626 38.216979 -0.990560 1.227693 0.027178 -0.022060 81002.300000 0 0 1
-19.596435 30.784901 11.588726 38.288758 -1.003927 1.263307 0.019122 -0.013331 38993.100000 0 0 1
-19.892335 29.815781 10.578826 37.371076 -0.982442 1.283797 0.026737 -0.013850 209672.000000 0 0 1
-19.518235 30.378601 9.147526 37.249136 -0.999712 1.322682 0.015523 -0.004391 663283.000000 0 0 1
-18.132235 30.408711 8.800426 36.481710 -1.033113 1.327165 0.015896 -0.012721 187741.000000 0 0 1
-17.899635 31.014361 7.589426 36.604466 -1.047355 1.361945 0.024092 -0.019963 217643.000000 0 0 1
-17.304335 30.080361 6.477526 35.301933 -1.048759 1.386262 0.023248 -0.015514 82595.100000 0 0 1
-18.210535 29.052461 6.147826 34.834822 -1.010892 1.393382 0.017656 -0.013757 896.119000 0 0 1
-18.153035 27.841371 6.919326 33.949252 -0.993005 1.365544 0.009239 -0.015140 -255099.000000 0 0 1
-19.090635 26.722431 6.418526 33.462488 -0.950468 1.377788 0.017111 -0.009528 -276520.000000 0 0 1
-18.721735 26.102551 5.214526 32.542861 -0.948595 1.409867 0.030930 -0.020865 673100.000000 0 0 1
-19.869035 25.676831 4.469326 32.772749 -0.912229 1.433997 0.038089 -0.023248 -242262.000000 0 0 1
-19.520535 25.009331 3.155826 31.882239 -0.908041 1.471650 0.054783 -0.030613 -1245390.000000 0 0 1
-19.044935 25.833131 2.100626 32.163222 -0.935519 1.505438 0.060284 -0.029992 598852.000000 0 0 1
-17.723635 26.342441 2.067026 31.817040 -0.978548 1.505785 0.064149 -0.028350 164281.000000 0 0 1
-16.472935 25.456611 2.329926 30.410938 -0.996464 1.494106 0.067403 -0.037879 -470027.000000 0 0 1
-16.310935 24.367931 1.465226 29.359658 -0.980931 1.520869 0.085049 -0.045110 286161.000000 0 0 1
-15.746535 24.709111 0.183726 29.300636 -1.003418 1.564526 0.086941 -0.038377 -237620.000000 0 0 1
-15.557335 23.468761 -0.759974 28.167197 -0.985409 1.597780 0.082097 -0.039600 -304826.000000 0 0 1
-16.663035 22.619811 -0.974374 28.111599 -0.935890 1.605464 0.080785 -0.044576 -3300.870000 0 0 1
-16.443135 21.504211 -1.853374 27.133794 -0.917987 1.639155 0.069653 -0.036001 369637.000000 0 0 1
-15.432535 20.409911 -1.340874 25.622754 -0.923384 1.623152 0.075911 -0.038841 532436.000000 0 0 1
-16.101135 19.501311 -0.425674 25.292862 -0.880613 1.587627 0.078659 -0.042058 378260.000000 0 0 1
-15.302935 18.513611 0.229826 24.020542 -0.880058 1.561228 0.109204 -0.055351 -356372.000000 0 1 0
-16.110035 17.499311 1.059526 23.809278 -0.826711 1.526281 0.092273 -0.046777 -403024.000000 0 1 0
-16.858835 16.644311 0.272826 23.692358 -0.778995 1.559281 0.077051 -0.037231 -173500.000000 0 1 0
-17.252235 15.583111 1.047626 23.271667 -0.734609 1.525764 0.076148 -0.054037 -203724.000000 0 1 0
-17.946835 14.526911 0.105226 23.089632 -0.680471 1.566239 0.085318 -0.040891 -215791.000000 0 1 0
-19.253535 14.851811 -0.314974 24.318185 -0.657045 1.583749 0.113314 -0.048593 665705.000000 0 1 0
-19.998835 13.651611 -0.614174 24.221831 -0.598966 1.596155 0.108666 -0.039085 -298979.000000 0 1 0
-21.067735 13.779011 -1.681174 25.229684 -0.579206 1.637480 0.113751 -0.037690 -504940.000000 0 0 1
-21.971735 12.671011 -1.861774 25.431828 -0.523108 1.644068 0.108304 -0.037506 2509390.000000 0 0 1
-23.136235 12.590811 -0.946074 26.357332 -0.498382 1.606698 0.110213 -0.030719 1651080.000000 0 0 1
-24.246135 13.705311 -1.114674 27.873879 -0.514482 1.610797 0.077463 -0.024980 -296417.000000 0 0 1
-23.803735 14.985211 -0.679874 28.136037 -0.561852 1.594962 0.057883 -0.029629 791390.000000 0 0 1
-24.862135 15.809011 -0.148874 29.463074 -0.566376 1.575849 0.055061 -0.029001 156196.000000 0 0 1
-24.342935 16.890611 0.753226 29.638465 -0.606594 1.545380 0.039448 -0.034221 -99336.900000 0 0 1
-23.956835 16.412511 2.014926 29.109455 -0.600647 1.501522 0.035402 -0.036923 346656.000000 0 0 1
-23.281935 17.353911 2.865626 29.179077 -0.640538 1.472430 0.026911 -0.035614 -147347.000000 0 0 1
-24.092135 18.516911 3.451126 30.581322 -0.655291 1.457705 0.037361 -0.037164 72286.600000 0 0 1
-25.048705 18.239011 4.511926 31.312244 -0.629364 1.426198 0.048075 -0.040302 1807920.000000 0 0 1
-26.334455 18.877411 4.365726 32.694338 -0.621934 1.436865 0.031318 -0.039566 624734.000000 0 0 1
-27.380465 18.176511 3.495426 33.049863 -0.586050 1.464836 0.064891 -0.036900 -1273760.000000 0 0 1
-28.541795 18.916611 3.404026 34.410168 -0.585299 1.471709 0.063681 -0.029926 -462890.000000 0 0 1
-29.348875 18.438911 2.347426 34.739895 -0.560945 1.503173 0.069561 -0.022721 -321459.000000 0 0 1
-30.610015 19.219711 1.992026 36.198598 -0.560675 1.515738 0.069350 -0.027558 -145278.000000 0 0 1
-31.768845 19.016011 2.785126 37.129841 -0.539370 1.495715 0.120158 -0.029949 410098.000000 0 0 1
-32.744055 20.002311 2.491226 38.450901 -0.548373 1.505961 0.104782 -0.024779 -38080.800000 0 0 1
-33.202315 20.729611 3.800826 39.326286 -0.558126 1.473997 0.093272 -0.031606 -250227.000000 0 0 1
-32.197415 21.466311 4.478226 38.955495 -0.588032 1.455584 0.080402 -0.026784 199121.000000 0 0 1
-32.653325 22.053311 5.664626 39.807991 -0.594009 1.428013 0.087485 -0.025811 -84259.300000 0 0 1
-31.647355 23.130411 6.155726 39.679516 -0.631151 1.415031 0.068754 -0.026247 83233.500000 0 0 1
-31.586955 24.250051 5.307426 40.174239 -0.654748 1.438299 0.073355 -0.017192 477426.000000 0 0 1
-30.711675 25.295381 5.713926 40.195923 -0.688991 1.428161 0.057938 -0.019584 31617.300000 0 0 1
-31.336505 26.696451 5.471826 41.528519 -0.705612 1.438651 0.053372 -0.014557 -537087.000000 0 0 1
-32.242675 27.069611 6.442126 42.589376 -0.698401 1.418952 0.075551 -0.015121 -506808.000000 0 0 1
-32.831635 28.281731 6.137726 43.765789 -0.711085 1.430092 0.080718 -0.021408 -182105.000000 0 0 1
-33.823375 28.728501 7.252626 44.966077 -0.704127 1.408798 0.075308 -0.018058 -380673.000000 0 0 1
-33.191915 28.977661 8.506826 44.875095 -0.717715 1.380075 0.086681 -0.022839 886885.000000 0 0 1
-34.078894 29.545911 9.544126 46.102302 -0.714273 1.362268 0.085261 -0.023065 1547720.000000 0 0 1
-35.389372 28.738241 9.941426 46.659684 -0.682051 1.356088 0.065573 -0.013838 640072.000000 0 0 1
-35.049125 27.556621 10.548826 45.815786 -0.666287 1.338468 0.074192 -0.021964 374876.000000 0 0 1
-36.086045 26.942791 11.314626 46.434227 -0.641338 1.324648 0.071433 -0.016501 125940.000000 0 0 1
-35.515195 25.682211 11.975526 45.434769 -0.626083 1.304069 0.080745 -0.015806 32633.500000 0 0 1
-34.425232 26.002381 12.820826 45.006600 -0.646903 1.281930 0.083103 -0.029016 133312.000000 0 0 1
-34.021175 24.856621 13.544926 44.257847 -0.630983 1.259760 0.087939 -0.028617 -58973.200000 0 0 1
-32.898935 25.280231 14.519626 43.957361 -0.655187 1.234163 0.094888 -0.034342 54129.600000 0 0 1
-33.385485 26.202061 15.514026 45.186542 -0.665425 1.220333 0.087770 -0.041184 168309.000000 0 0 1
-32.367485 26.592791 16.425626 44.995909 -0.687767 1.197113 0.093883 -0.034967 2766.050000 0 0 1
-32.610935 27.959341 17.074526 46.224856 -0.708752 1.192455 0.097888 -0.038191 -45344.100000 0 0 1
-32.451755 29.032931 16.181026 46.452697 -0.729851 1.215004 0.105592 -0.037526 222541.000000 0 0 1
-32.749705 30.248981 16.888326 47.673468 -0.745724 1.208684 0.085003 -0.026870 -116344.000000 0 0 1
-32.515265 31.482091 16.019126 48.010175 -0.769256 1.230612 0.064503 -0.031269 -294837.000000 0 0 1
-31.150145 31.567661 15.716526 47.051652 -0.792055 1.230223 0.052213 -0.023876 -737969.000000 0 0 1
-30.678585 32.787594 15.409226 47.472583 -0.818616 1.240216 0.045241 -0.017088 -321801.000000 0 0 1
-29.133015 32.789604 15.235426 46.432843 -0.844381 1.236486 0.056079 -0.016780 281484.000000 0 0 1
-28.613375 32.049551 14.122126 45.225362 -0.841981 1.253224 0.056517 -0.016239 62375.300000 0 0 1
-28.468645 30.653181 14.339426 44.223301 -0.822331 1.240577 0.066353 -0.019921 -794427.000000 0 0 1
-29.617865 29.779371 13.884226 44.235739 -0.788117 1.251531 0.093576 -0.025184 -543874.000000 0 0 1
-29.600675 29.525781 12.458326 43.625470 -0.784131 1.281190 0.105756 -0.035066 503612.000000 0 0 1
-30.635495 28.609681 12.046726 43.613886 -0.751218 1.290945 0.102273 -0.039826 552766.000000 0 0 1
-30.626985 28.388471 10.557126 43.074011 -0.747485 1.323181 0.102901 -0.029311 -226367.000000 0 0 1
-29.591535 27.585121 10.055726 41.685915 -0.750321 1.327167 0.082215 -0.021858 -311506.000000 0 0 1
-29.334345 27.782471 8.715526 41.331948 -0.758235 1.358335 0.068220 -0.019542 332787.000000 0 0 1
-28.040105 27.169681 8.102526 39.875932 -0.769634 1.366178 0.068534 -0.021006 133493.000000 0 0 1
-27.888035 27.562351 6.742326 39.785483 -0.779525 1.400508 0.058150 -0.021293 -207786.000000 0 0 1
-26.899835 26.780221 6.123226 38.448345 -0.783170 1.410857 0.031496 -0.011521 -563522.000000 0 0 1
-26.649575 27.063071 4.615526 38.261113 -0.793096 1.449870 0.039203 -0.003850 -169223.000000 0 0 1
-26.017485 28.318451 4.419926 38.708913 -0.827720 1.456363 0.032303 -0.012606 300894.000000 0 0 1
-25.835225 28.610261 3.043926 38.668739 -0.836323 1.491997 0.027663 -0.007584 -320575.000000 0 0 1
-24.821535 29.754821 2.799426 38.849643 -0.875546 1.498676 0.022406 -0.005041 -42570.200000 0 0 1
-23.528835 29.206711 2.951326 37.621116 -0.892652 1.492267 0.015347 0.000117 18603.000000 0 0 1
-22.508435 30.240341 2.985626 37.815629 -0.930942 1.491762 0.017083 -0.001652 1341260.000000 0 0 1
-21.135635 29.516691 3.240326 36.447906 -0.949375 1.481776 0.016101 -0.007834 1368530.000000 0 0 1
-19.994135 30.212941 2.748026 36.333715 -0.986189 1.495091 0.021928 -0.000296 245011.000000 0 0 1
-18.684035 29.776111 3.038926 35.283778 -1.010413 1.484561 0.033136 -0.008084 407605.000000 0 0 1
-17.667235 30.777951 2.472126 35.574216 -1.049697 1.501248 0.042620 -0.007159 -212902.000000 0 0 1
-17.626935 32.025941 3.105326 36.688047 -1.067649 1.486054 0.051717 -0.012314 175465.000000 0 0 1
-16.720535 32.956335 2.501526 37.039896 -1.101283 1.503209 0.063348 -0.009735 126917.000000 0 0 1
-16.545035 -34.122481 3.320726 38.067166 1.119324 1.483452 0.068975 -0.017040 -80564.700000 0 0 1
-17.528335 -33.136316 3.104326 37.615088 1.084237 1.488174 0.075464 -0.021532 -194425.000000 0 0 1
-17.405035 -32.121056 4.075126 36.760089 1.074226 1.459711 0.063787 -0.022149 185200.000000 0 0 1
-18.498935 -31.012686 4.157726 36.349471 1.032957 1.456163 0.062587 -0.017117 173653.000000 0 0 1
-18.627235 -30.116746 3.040726 35.542064 1.016884 1.485139 0.074180 -0.030633 680283.000000 0 0 1
-19.833235 -29.368056 3.278326 35.589147 0.976818 1.478550 0.073262 -0.033957 475829.000000 0 0 1
-20.151035 -28.370376 2.189826 34.867432 0.953201 1.507951 0.072820 -0.035183 202870.000000 0 0 1
-19.212535 -27.291316 2.161826 33.445642 0.957404 1.506114 0.081705 -0.028350 -7860.950000 0 0 1
-19.434035 -26.385746 1.125726 32.789581 0.935968 1.536458 0.078413 -0.030518 116952.000000 0 0 1
-18.534235 -25.121816 1.181026 31.241293 0.935166 1.532984 0.071838 -0.029687 -454804.000000 0 0 1
-17.183135 -25.342156 0.986126 30.634253 0.974957 1.538600 0.082429 -0.031189 -1293840.000000 0 0 1
-16.461235 -24.108906 1.038726 29.211138 0.971717 1.535230 0.069684 -0.024980 102665.000000 0 0 1
-14.950135 -24.338806 0.829026 28.575712 1.019964 1.541781 0.062818 -0.033164 -213399.000000 0 0 1
-14.629235 -24.626706 -0.530374 28.649092 1.034771 1.589310 0.066281 -0.025069 17648.700000 0 0 1
-14.465935 -23.417206 -1.298274 27.555659 1.017429 1.617928 0.057339 -0.028127 -522837.000000 0 0 1
-14.735735 -23.555706 -2.813374 27.927196 1.011787 1.671707 0.052928 -0.009820 11475.600000 0 0 1
-13.634435 -24.087506 -3.494774 27.898373 1.055724 1.696394 0.053869 -0.012581 -285276.000000 0 0 1
-13.968135 -24.183306 -4.839874 28.343703 1.047015 1.742394 0.055760 -0.002919 362563.000000 0 0 1
-12.819935 -24.644406 -5.774974 28.373365 1.091122 1.775764 0.060062 -0.006668 234291.000000 0 0 1
-12.566735 -26.010866 -5.751674 29.454537 1.120732 1.767332 0.046337 -0.001790 -646036.000000 0 0 1
-11.497035 -26.315586 -6.580974 29.461859 1.158897 1.796070 0.042598 0.001553 -242570.000000 0 0 1
23.173565 12.961894 27.940561 38.544776 0.509985 0.759928 0.024268 0.010263 93710.500000 0 0 1
24.056065 11.984994 28.528261 39.194336 0.462215 0.755590 0.030599 0.000326 450596.000000 0 0 1
23.417765 11.158694 29.503621 39.285771 0.444676 0.721221 0.035988 -0.000312 -139062.000000 0 0 1
23.433765 11.598894 30.987511 40.545055 0.459612 0.700882 0.048098 -0.007428 -102341.000000 0 0 1
22.463965 12.548394 31.292681 40.513255 0.509423 0.688176 0.040952 -0.003443 -172899.000000 0 0 1
22.703865 12.977594 32.586454 41.782298 0.519277 0.676273 0.048114 -0.003849 -571579.000000 0 0 1
21.513265 13.771294 33.087260 41.799951 0.569406 0.657435 0.038867 -0.005657 86126.500000 0 0 1
20.478365 12.911994 33.610903 41.421924 0.562558 0.624205 0.054357 0.003428 362529.000000 0 0 1
19.720265 13.488494 -33.806304 41.396793 0.599901 2.526363 0.070654 0.004743 -813330.000000 0 0 1
18.568365 12.692894 -33.239154 40.133964 0.599618 2.546694 0.065676 0.008634 -610374.000000 0 0 1
17.459865 12.614194 -34.106084 40.338440 0.625647 2.578294 0.055942 0.016759 -547973.000000 0 0 1
16.437165 11.907594 -33.506404 39.174613 0.626935 2.596944 0.054228 0.012629 -1187140.000000 0 0 1
15.187265 11.797094 34.086605 39.137209 0.660418 0.513661 0.047599 0.016833 -422144.000000 0 0 1
15.376165 10.919894 33.006777 38.014706 0.617528 0.519105 0.035462 0.024997 297227.000000 0 0 1
14.091465 10.526894 32.542896 36.992228 0.641604 0.495518 0.049737 0.019322 508784.000000 0 0 1
14.209065 9.431294 31.451021 35.777277 0.585982 0.496872 0.047738 0.018798 75473.800000 0 0 1
14.558965 8.209894 32.009891 36.110926 0.513457 0.481217 0.039128 0.011246 -388211.000000 0 0 1
15.346165 7.514694 31.113001 35.496398 0.455357 0.502229 0.043763 0.000119 -245813.000000 0 0 1
15.814865 6.144994 31.629581 35.892914 0.370604 0.492358 0.066161 -0.009359 6697.530000 0 0 1
14.746765 5.236094 31.817651 35.457675 0.341182 0.457087 0.056401 -0.010747 -142217.000000 0 0 1
15.187265 4.004494 32.304031 35.919903 0.257807 0.452550 0.054649 -0.015443 32721.800000 0 0 1
14.100765 2.909394 32.294951 35.359016 0.203473 0.419374 0.046754 -0.014485 6673.560000 0 0 1
14.575165 1.691494 32.777675 35.912012 0.115536 0.420900 0.056028 -0.018196 299046.000000 0 0 1
13.477365 0.766194 32.868051 35.532172 0.056789 0.389702 0.060183 -0.022956 464158.000000 0 0 1
13.848465 -0.675806 33.362088 36.128460 -0.048761 0.393873 0.053044 -0.017728 -90303.200000 0 0 1
14.294865 -1.543006 32.359947 35.410312 -0.107525 0.418113 0.061755 -0.019231 42836.800000 0 0 1
14.710965 -2.834406 32.895553 36.146421 -0.190341 0.427358 0.079892 -0.024964 -294848.000000 0 0 1
14.873865 -3.929906 31.853181 35.373736 -0.258313 0.449935 0.086637 -0.031747 -461799.000000 0 0 1
15.310165 -5.206906 32.416091 36.225902 -0.327823 0.462742 0.093867 -0.033456 1332690.000000 0 0 1
16.656065 -5.233006 32.945279 37.285390 -0.304415 0.487306 0.087724 -0.030944 609724.000000 0 0 1
17.911065 -4.877306 32.153631 37.127488 -0.265861 0.523583 0.079007 -0.034145 -793476.000000 0 0 1
17.993765 -3.468506 32.088301 36.952201 -0.190426 0.518884 0.068236 -0.032948 -340172.000000 0 0 1
19.062065 -3.029206 31.317691 36.787718 -0.157595 0.552322 0.077196 -0.034717 -602556.000000 0 0 1
19.030365 -1.531906 31.353721 36.709091 -0.080325 0.546953 0.074270 -0.036381 -221204.000000 0 0 1
19.547265 -0.896206 32.519694 37.952988 -0.045816 0.541684 0.048704 -0.031137 43736.600000 0 0 1
19.512565 0.546194 32.489161 37.902297 0.027985 0.541024 0.037960 -0.020720 74014.900000 0 0 1
20.594265 1.295094 31.649531 37.782189 0.062803 0.577768 0.059368 -0.025665 -376917.000000 0 0 1
20.535165 1.231594 30.219081 36.556842 0.059903 0.597699 0.070071 -0.029565 222235.000000 0 0 1
21.395565 2.194694 29.575121 36.568766 0.102220 0.628767 0.063796 -0.024037 409405.000000 0 0 1
20.889765 3.677194 29.560651 36.383185 0.174243 0.622401 0.053465 -0.014468 -45496.700000 0 0 1
20.657865 4.233294 30.826701 37.349078 0.202126 0.599944 0.059969 -0.014190 287659.000000 0 0 1
19.836965 5.373994 30.810461 37.036057 0.264558 0.588265 0.057636 -0.012002 -68148.500000 0 0 1
19.797865 6.024394 32.191601 38.269413 0.295393 0.571328 0.063187 -0.006678 -148545.000000 0 0 1
18.907465 5.340194 33.050374 38.449150 0.275268 0.536336 0.069546 -0.014459 153579.000000 0 0 1
18.869965 5.929994 -34.118161 39.437156 0.304484 2.616200 0.066585 -0.005349 -138572.000000 0 0 1
17.743965 5.296894 -33.286124 38.090306 0.290097 2.633911 0.062324 -0.007842 -144721.000000 0 0 1
17.845165 3.902594 -33.108484 37.813382 0.215302 2.637423 0.055294 -0.017960 -788775.000000 0 0 1
16.590665 3.433894 -32.755474 36.877674 0.204096 2.664252 0.051410 -0.026323 -469459.000000 0 0 1
16.497165 1.937494 -33.173294 37.099565 0.116908 2.677369 0.054092 -0.036340 81980.200000 0 0 1
17.390565 1.149094 -32.390254 36.781527 0.065980 2.647949 0.042330 -0.021023 197111.000000 0 0 1
17.320565 -0.158506 -32.734314 37.034611 -0.009151 2.654900 0.042109 -0.016290 -23631.500000 0 0 1
18.488165 -0.960006 -32.083994 37.042091 -0.051879 2.618242 0.033024 -0.016382 117883.000000 0 0 1
18.410365 -1.138806 -30.678274 35.796577 -0.061778 2.600249 0.036365 -0.016118 257368.000000 0 0 1
18.659465 -0.003606 -29.862844 35.213138 -0.000193 2.583109 0.038986 -0.014393 -540896.000000 0 0 1
18.264065 -0.267606 -28.379014 33.749313 -0.014651 2.569698 0.027576 -0.009902 -736356.000000 0 0 1
16.877165 -0.329306 -28.243904 32.903879 -0.019509 2.602892 0.033630 -0.016996 -506415.000000 0 0 1
16.356965 -0.815006 -27.001204 31.579733 -0.049785 2.596380 0.031338 -0.016886 162360.000000 0 0 1
17.058665 -2.013406 -26.224754 31.349475 -0.117485 2.561714 0.036002 -0.015059 -1198090.000000 0 0 1
18.157965 -1.613806 -25.465334 31.317715 -0.088643 2.520303 0.043914 -0.014442 -274505.000000 0 0 1
19.028465 -2.684106 -25.111194 31.620546 -0.140133 2.488390 0.037284 -0.013177 321455.000000 0 0 1
19.849465 -3.379606 -26.182794 33.029709 -0.168645 2.486029 0.054308 -0.020888 -670386.000000 0 0 1
20.938965 -2.591406 -26.647444 33.988849 -0.123134 2.471889 0.071095 -0.014301 -71823.400000 0 0 1
21.210965 -2.833506 -28.013704 35.251970 -0.132801 2.489261 0.081015 -0.018180 690108.000000 0 0 1
22.591765 -2.216806 -28.425494 36.377339 -0.097811 2.467713 0.061331 -0.017551 1546630.000000 0 0 1
23.777365 -2.882306 -27.931704 36.794712 -0.120632 2.432761 0.053294 -0.022068 269720.000000 0 0 1
24.919965 -2.283006 -28.476814 37.909704 -0.091359 2.420636 0.044295 -0.025772 57953.700000 0 0 1
26.200565 -3.144606 -28.300804 38.694879 -0.119449 2.391145 0.069142 -0.022060 55669.600000 0 0 1
26.258765 -4.242206 -29.172574 39.478578 -0.160170 2.402302 0.082649 -0.033218 -371103.000000 0 0 1
27.463565 -4.939706 -29.139774 40.345688 -0.177961 2.377850 0.081309 -0.030382 -475817.000000 0 0 1
27.505465 -6.150306 -28.169794 39.848640 -0.219984 2.355930 0.069557 -0.021297 -105122.000000 0 0 1
27.666965 -5.914806 -26.792224 38.964973 -0.210615 2.328972 0.058207 -0.006337 206407.000000 0 0 1
27.516065 -7.144906 -26.069734 38.572199 -0.254052 2.312939 0.037430 -0.002074 -43572.800000 0 0 1
27.416765 -7.002406 -24.531674 37.450176 -0.250060 2.285043 0.020462 -0.002633 165622.000000 0 0 1
28.674265 -6.690706 -23.970074 37.967663 -0.229233 2.254062 0.013827 0.005017 287174.000000 0 0 1
28.488965 -6.259106 -22.641174 36.924521 -0.216267 2.230869 0.015436 0.005960 516715.000000 0 0 1
29.839765 -5.810506 -21.977974 37.512729 -0.192317 2.196762 0.019716 0.010489 447687.000000 0 0 1
30.340165 -4.619006 -22.568674 38.094696 -0.151081 2.204876 0.044778 -0.003435 831241.000000 0 0 1
31.618265 -4.277906 -21.982874 38.746121 -0.134482 2.174089 0.039722 0.000176 948031.000000 0 0 1
32.299065 -3.020506 -22.542874 39.503597 -0.093246 2.178098 0.049748 -0.008886 -324077.000000 0 0 1
31.544765 -1.847806 -22.403474 38.735026 -0.058510 2.187535 0.028844 -0.007934 258654.000000 0 0 1
32.349065 -0.743906 -22.752874 39.556398 -0.022992 2.183646 0.054201 -0.010008 224195.000000 0 0 1
31.561465 0.532194 -22.429574 38.723314 0.016861 2.188576 0.046452 -0.006921 -157817.000000 0 0 1
30.523465 0.741394 -23.342974 38.433397 0.024285 2.223532 0.051346 -0.001716 -201910.000000 0 0 1
29.555365 1.640394 -22.891574 37.419709 0.055446 2.229070 0.046926 -0.000495 -119531.000000 0 0 1
28.230165 1.614594 -23.667174 36.873896 0.057132 2.267693 0.033558 -0.003609 -331400.000000 0 0 1
27.209965 2.492194 -23.293474 35.905141 0.091336 2.276738 0.039559 -0.006536 -101089.000000 0 0 1
26.292865 2.706994 -24.349974 35.938333 0.102594 2.315221 0.066689 -0.016488 -274875.000000 0 0 1
25.107565 3.556794 -23.912174 34.854449 0.140726 2.326853 0.070997 -0.016378 -377954.000000 0 0 1
25.542965 4.862194 -23.573474 35.096904 0.188103 2.307255 0.059677 -0.014145 289885.000000 0 0 1
24.435465 5.735094 -23.448774 34.348628 0.230531 2.322207 0.075878 -0.015645 -40361.600000 0 0 1
24.803465 7.120294 -22.926674 34.518731 0.279551 2.297194 0.085324 -0.011641 -270380.000000 0 0 1
25.471065 7.854094 -23.922074 35.815186 0.299103 2.302222 0.074335 -0.008386 94506.900000 0 0 1
25.766665 9.166894 -23.520074 36.071413 0.341802 2.281071 0.088751 -0.009705 -159584.000000 0 0 1
26.680865 9.936594 -24.526774 37.578811 0.356510 2.281907 0.106517 -0.009711 -119139.000000 0 0 1
26.185065 10.381594 -25.772694 38.179403 0.377460 2.311818 0.103335 -0.016385 1443620.000000 0 0 1
24.961565 11.202494 -25.715604 37.548207 0.421847 2.325220 0.098256 -0.022411 1431110.000000 0 0 1
24.523565 11.730594 -27.091154 38.378935 0.446170 2.354470 0.080280 -0.015584 -272042.000000 0 0 1
23.899265 10.823894 -27.988204 38.362365 0.425260 2.388496 0.070646 -0.008254 458283.000000 0 0 1
24.705365 9.791994 -28.633754 39.065714 0.377357 2.393465 0.072157 -0.007026 717037.000000 0 0 1
25.719665 10.300294 -29.718774 40.630072 0.380923 2.391239 0.079925 -0.003465 -442691.000000 0 0 1
26.799365 11.092594 -29.344754 41.259740 0.392442 2.362029 0.083414 -0.005157 342993.000000 0 0 1
27.604465 11.601394 -30.427234 42.689757 0.397859 2.364211 0.081212 -0.001800 1106940.000000 0 0 1
28.663465 10.570494 -31.034024 43.548136 0.353306 2.364047 0.067026 -0.004039 -153999.000000 0 0 1
28.110865 9.503894 -31.781754 43.481313 0.326022 2.390479 0.070698 -0.000280 -33445.500000 0 0 1
28.984065 8.432394 -32.058104 44.032980 0.283117 2.386266 0.055706 0.003755 -352065.000000 0 0 1
28.283765 7.406694 -32.930144 44.036630 0.256120 2.415523 0.051843 0.002397 -195294.000000 0 0 1
27.152365 6.865494 -32.301854 42.752727 0.247660 2.427291 0.055984 0.000728 -237247.000000 0 0 1
26.595965 5.822194 -33.142324 42.891222 0.215513 2.453890 0.047292 0.000941 -744712.000000 0 0 1
25.413365 5.074894 -32.546304 41.603552 0.197101 2.469140 0.054747 -0.001406 240080.000000 0 0 1
24.154565 5.750994 -32.447604 40.857850 0.233740 2.488418 0.057899 0.005260 582859.000000 0 0 1
24.088665 6.881294 -31.633824 40.352383 0.278254 2.471782 0.078761 -0.000684 -1203560.000000 0 0 1
22.656465 7.425494 -31.577384 39.567468 0.316711 2.494872 0.076937 -0.004397 -213502.000000 0 0 1
22.269165 8.091694 -32.714024 40.393051 0.348526 2.514765 0.077549 0.001920 -787426.000000 0 0 1
20.980865 8.580394 -32.519354 39.639982 0.388209 2.532850 0.073974 -0.000100 -564069.000000 0 0 1
20.512665 9.517694 -33.651394 40.543461 0.434428 2.549918 0.070027 0.011848 -72076.800000 0 0 1
19.975665 8.901594 33.585202 40.077816 0.419207 0.577189 0.065633 0.010114 70630.400000 0 0 1
19.719365 9.903394 32.676429 39.429425 0.465419 0.593958 0.058024 0.015862 273050.000000 0 0 1
18.718565 9.562594 31.511451 37.878746 0.472299 0.588268 0.051703 0.014870 182103.000000 0 0 1
19.114265 8.550594 30.594201 37.073885 0.420640 0.600200 0.045642 0.009080 662011.000000 0 0 1
20.237765 8.762894 29.711461 37.001707 0.408625 0.638526 0.057519 0.007972 444653.000000 0 0 1
19.902365 9.756394 28.519561 36.120032 0.455787 0.660676 0.056989 0.005551 347504.000000 0 0 1
18.872565 9.329094 27.608021 34.718994 0.459094 0.651484 0.040117 0.014877 1341020.000000 0 0 1
17.591165 9.900694 27.950091 34.477245 0.512634 0.625480 0.045656 0.000253 -533461.000000 0 0 1
16.405965 9.216694 27.409141 33.247017 0.511849 0.601639 0.057417 0.002132 -1332480.000000 0 0 1
16.344865 9.337394 26.022691 32.117316 0.519029 0.626237 0.061497 0.003829 -158154.000000 0 0 1
15.136065 8.856294 25.478661 30.930512 0.529401 0.602822 0.070193 0.001563 69580.100000 0 0 1
14.966065 7.326094 25.265321 30.265347 0.455223 0.583038 0.072229 0.001289 -109280.000000 0 0 1
14.857365 6.511494 26.433201 31.013787 0.413054 0.550420 0.057023 -0.002791 161083.000000 0 0 1
14.378965 5.179394 26.148491 30.287363 0.345738 0.528932 0.072439 -0.012116 82534.900000 0 0 1
14.561765 4.269794 27.418581 31.337752 0.285225 0.505489 0.080331 -0.020056 499363.000000 0 0 1
15.853665 3.666694 27.503701 31.956798 0.227287 0.534246 0.066691 -0.012586 470255.000000 0 0 1
16.154265 3.476294 28.855941 33.252222 0.211961 0.520059 0.056859 -0.017533 -100434.000000 0 0 1
17.130265 2.293994 29.053601 33.805623 0.133123 0.536641 0.068833 -0.018361 -187540.000000 0 0 1
16.715065 0.990394 28.732731 33.255738 0.059182 0.527649 0.067630 -0.026018 -300170.000000 0 0 1
15.894565 0.462894 29.749421 33.732470 0.029115 0.490871 0.060110 -0.021077 -82961.000000 0 0 1
15.646165 -1.044706 29.446821 33.361792 -0.066672 0.489323 0.060612 -0.020579 -771514.000000 0 0 1
14.772165 -1.329606 28.382911 32.024590 -0.089766 0.481535 0.057034 -0.023100 -94641.900000 0 0 1
15.286265 -1.374306 27.074961 31.122534 -0.089664 0.515701 0.067350 -0.028446 -749487.000000 0 0 1
16.435565 -2.463306 26.810211 31.543353 -0.148769 0.554910 0.072555 -0.028550 489717.000000 0 0 1
17.636665 -2.250806 27.515681 32.760201 -0.126935 0.573676 0.071848 -0.033440 -3661.830000 0 0 1
18.343165 -1.052406 27.128221 32.764610 -0.057310 0.595313 0.067969 -0.033735 -2565370.000000 0 0 1
19.723565 -0.926406 27.676591 33.998102 -0.046935 0.619683 0.083133 -0.029672 -1008130.000000 0 0 1
20.624165 -1.750106 26.939631 33.972971 -0.084654 0.655124 0.057104 -0.028815 -261381.000000 0 0 1
21.962065 -1.491706 27.322071 35.086366 -0.067818 0.678191 0.052585 -0.025579 512594.000000 0 0 1
23.038265 -2.266106 26.503561 35.189993 -0.098047 0.717950 0.050890 -0.017224 -13741.600000 0 0 1
23.267165 -2.058306 25.133351 34.311557 -0.088234 0.748803 0.052634 -0.000274 319658.000000 0 0 1
22.283165 -2.689106 24.315391 33.090920 -0.120098 0.745416 0.063379 0.006398 126657.000000 0 0 1
22.198565 -1.988806 22.957561 31.996582 -0.089353 0.770589 0.058606 -0.018983 104427.000000 0 0 1
21.634065 -0.649906 22.980661 31.568432 -0.030032 0.755450 0.050509 -0.013374 313184.000000 0 0 1
21.506265 -0.309906 21.588561 30.474275 -0.014409 0.783540 0.038266 -0.006934 -41816.500000 0 0 1
-30.702845 -27.443723 -10.311274 42.451679 0.729407 1.816145 0.015900 0.010827 185479.000000 0 0 1
-30.482315 -26.324423 -9.513974 41.384327 0.712335 1.802764 0.031360 0.018749 -396553.000000 0 0 1
-31.222515 -26.433123 -8.341674 41.750916 0.702520 1.771946 0.028954 0.012308 -701779.000000 0 0 1
-31.174615 -25.254123 -7.407674 40.798297 0.680861 1.753377 0.060270 0.007362 -333571.000000 0 0 1
-29.927235 -24.752523 -6.994174 39.461948 0.691042 1.748976 0.054934 0.003744 -782092.000000 0 0 1
-29.354945 -25.479223 -5.956374 39.324064 0.714835 1.722851 0.065396 0.004017 355286.000000 0 0 1
-28.151405 -24.674123 -5.348574 37.814299 0.719667 1.712715 0.061154 0.002354 359167.000000 0 0 1
-28.467405 -23.625523 -4.491274 37.265669 0.692717 1.691610 0.066396 -0.004043 -194910.000000 0 0 1
-28.701595 -22.439223 -5.256774 36.809428 0.663551 1.714097 0.069255 -0.007298 90241.600000 0 0 1
-29.057815 -21.223523 -4.371974 36.247879 0.630832 1.691704 0.071868 -0.016865 -245055.000000 0 0 1
-27.862915 -20.560723 -4.056874 34.864647 0.635728 1.687421 0.083965 -0.022535 32404.700000 0 0 1
-28.057355 -19.478423 -3.153374 34.301136 0.606847 1.662858 0.091582 -0.019815 -613581.000000 0 0 1
-26.888075 -18.522523 -2.997774 32.787789 0.603220 1.662354 0.084562 -0.022388 -468175.000000 0 0 1
-26.801195 -17.582523 -4.074374 32.311758 0.580606 1.697229 0.080913 -0.026129 37965.600000 0 0 1
-25.932235 -16.500723 -3.844174 30.976320 0.566685 1.695218 0.075857 -0.023707 -191041.000000 0 0 1
-25.983555 -15.417623 -4.972874 30.619891 0.535523 1.733926 0.084000 -0.027090 42411.100000 0 0 1
-27.210835 -14.713223 -4.863774 31.313971 0.495684 1.726751 0.084680 -0.013251 209402.000000 0 0 1
-27.406125 -13.817123 -5.946174 31.262847 0.466972 1.762162 0.086888 -0.021895 -276929.000000 0 0 1
-28.723405 -13.036423 -5.906874 32.091642 0.426060 1.755914 0.073686 -0.018214 602034.000000 0 0 1
-29.883885 -13.734023 -6.410174 33.507616 0.430792 1.763288 0.070128 -0.011051 899222.000000 0 0 1
-30.976625 -12.858423 -6.651874 34.192657 0.393456 1.766586 0.060770 -0.006987 359115.000000 0 0 1
-32.163095 -13.619723 -7.329874 35.688775 0.400564 1.777652 0.052369 -0.010650 140398.000000 0 0 1
-32.661565 -14.702323 -6.504474 36.403906 0.422972 1.750436 0.054249 -0.008857 413013.000000 0 0 1
-33.218245 -15.640423 -7.417174 37.457832 0.440047 1.770128 0.060095 -0.013570 -501336.000000 0 0 1
-33.996915 -16.816323 -6.820874 38.537038 0.459353 1.748729 0.059121 -0.019021 188450.000000 0 0 1
-35.399337 -16.739923 -6.654574 39.719283 0.441724 1.739130 0.067406 -0.024569 405879.000000 0 0 1
-35.884480 -15.983123 -5.571774 39.676200 0.419026 1.711693 0.051804 -0.019115 -466144.000000 0 0 1
35.307020 -15.968123 -5.426174 39.128122 -0.424736 1.709922 0.077173 -0.027186 -736144.000000 0 0 1
34.716440 -15.136023 -6.408274 38.410888 -0.411142 1.738415 0.074952 -0.028742 1878800.000000 0 0 1
33.259190 -15.071723 -6.306174 37.055342 -0.425478 1.741811 0.090464 -0.029810 1868100.000000 0 0 1
32.484510 -14.496523 -5.076174 35.932716 -0.419739 1.712539 0.108262 -0.034034 -598438.000000 0 0 1
32.544600 -15.210323 -3.863174 36.130721 -0.437203 1.677923 0.104666 -0.039375 508794.000000 0 0 1
31.920930 -14.447623 -2.827574 35.152165 -0.425019 1.651321 0.120491 -0.041619 -701667.000000 0 0 1
31.840410 -15.287323 -1.537374 35.353606 -0.447620 1.614296 0.125810 -0.039475 -278305.000000 0 0 1
33.022410 -15.661723 -0.866674 36.558450 -0.442857 1.594505 0.132031 -0.034376 -15808.600000 0 0 1
33.995390 -16.438323 -1.529174 37.792107 -0.450398 1.611270 0.109485 -0.036995 -646625.000000 0 0 1
33.620340 -17.892223 -1.916574 38.133085 -0.489062 1.621078 0.112159 -0.040374 -808503.000000 0 0 1
33.848980 -18.807923 -0.856974 38.732748 -0.507165 1.592923 0.107054 -0.043450 215275.000000 0 0 1
33.739970 -20.169523 -1.207874 39.327524 -0.538795 1.601514 0.094806 -0.035222 -605446.000000 0 0 1
34.822690 -20.823823 -2.042074 40.625379 -0.538945 1.621083 0.079484 -0.033985 -522272.000000 0 0 1
34.987220 -20.214223 -3.310174 40.542294 -0.523906 1.652535 0.048455 -0.037026 243011.000000 0 0 1
36.057910 -20.761923 -4.072874 41.806921 -0.522431 1.668372 0.044702 -0.029218 183745.000000 0 0 1
36.188000 -20.006523 -5.460074 41.709048 -0.505028 1.702082 0.079056 -0.031516 -34435.200000 0 0 1
34.982610 -20.286523 -6.148474 40.903909 -0.525511 1.721683 0.055066 -0.036928 423852.000000 0 0 1
34.788970 -19.214623 -7.057574 40.364384 -0.504622 1.746546 0.073408 -0.028490 303288.000000 0 0 1
33.584600 -19.310923 -8.047374 39.567630 -0.521829 1.775608 0.084719 -0.036248 356033.000000 0 0 1
33.772780 -20.368323 -8.914174 40.434289 -0.542695 1.793083 0.092866 -0.036657 405314.000000 0 0 1
32.605190 -20.437223 -9.699174 39.684411 -0.559899 1.817705 0.086006 -0.042417 -112587.000000 0 0 1
32.488590 -21.761023 -10.415174 40.466362 -0.590172 1.831105 0.085221 -0.027445 -108213.000000 0 0 1
32.297790 -22.994323 -9.677974 40.811142 -0.618699 1.810218 0.073266 -0.033059 102960.000000 0 0 1
32.083300 -24.090723 -10.574074 41.491109 -0.644064 1.828491 0.066235 -0.028640 -42257.500000 0 0 1
31.440210 -25.362623 -9.911474 41.593109 -0.678809 1.811407 0.063150 -0.024244 1209430.000000 0 0 1
30.126210 -25.010523 -9.412474 40.270454 -0.692881 1.806710 0.072209 -0.030884 462828.000000 0 0 1
29.453690 -26.116223 -8.927674 40.364345 -0.725411 1.793818 0.048811 -0.020566 -126847.000000 0 0 1
28.092610 -25.695223 -8.297574 38.965227 -0.740856 1.785388 0.048277 -0.025208 499274.000000 0 0 1
27.303670 -25.179623 -9.390774 38.310448 -0.744949 1.818443 0.048597 -0.018740 -157082.000000 0 0 1
26.040670 -24.709523 -8.992574 37.007343 -0.759175 1.816248 0.045913 -0.021132 -57921.900000 0 0 1
25.187970 -24.122623 -10.136474 36.319181 -0.763797 1.853647 0.075543 -0.020798 -194228.000000 0 0 1
24.516970 -25.078123 -10.954374 36.742242 -0.796712 1.873541 0.057471 -0.015692 260062.000000 0 0 1
23.955170 -24.456723 -12.092474 36.307153 -0.795758 1.910344 0.066080 -0.007550 -30836.100000 0 0 1
23.145070 -25.516323 -12.889574 36.782035 -0.834089 1.928828 0.068788 -0.017671 173613.000000 0 0 1
23.929470 -26.537223 -13.506674 38.200445 -0.837025 1.932185 0.067224 -0.016867 300166.000000 0 0 1
23.067270 -27.614823 -13.862974 38.559816 -0.874886 1.938548 0.067533 -0.002471 184689.000000 0 0 1
23.660070 -28.938323 -14.501374 40.093831 -0.885413 1.940872 0.047375 -0.009249 -264533.000000 0 0 1
24.064570 -28.785623 -15.818074 40.717651 -0.874491 1.969780 0.055816 -0.011018 213473.000000 0 0 1
24.674770 -29.989023 -16.220174 42.086575 -0.882311 1.966438 0.054079 -0.012781 -266010.000000 0 0 1
24.586070 -30.012623 -17.729974 42.656586 -0.884463 1.999448 0.067072 -0.025098 -790003.000000 0 0 1
23.272970 -29.907123 -18.164374 42.023941 -0.909506 2.017770 0.066749 -0.025524 -588983.000000 0 0 1
23.166970 -30.207123 -19.541874 42.790929 -0.916543 2.045059 0.060616 -0.019524 576545.000000 0 0 1
21.679070 -30.129823 -20.042674 42.184086 -0.947088 2.065901 0.045770 -0.013805 682157.000000 0 0 1
21.542370 -30.364923 -21.408074 42.946570 -0.953757 2.092643 0.040210 -0.013197 466205.000000 0 0 1
20.153770 -30.397223 -21.758074 42.468570 -0.985327 2.108696 0.053443 -0.018305 204422.000000 0 0 1
19.933870 -30.536723 -23.273774 43.261058 -0.992467 2.138840 0.048777 -0.012825 -533784.000000 0 0 1
20.369270 -29.440723 -23.983374 43.091363 -0.965545 2.161048 0.048665 -0.012419 312885.000000 0 0 1
20.485470 -29.730923 -25.367154 44.125670 -0.967471 2.183259 0.055699 -0.016573 -469753.000000 0 0 1
21.088570 -28.597523 -26.258474 44.182050 -0.935391 2.207222 0.046384 -0.018340 57706.700000 0 0 1
20.232070 -27.495923 -26.450084 43.185291 -0.936432 2.229989 0.065584 -0.018619 -712713.000000 0 0 1
19.123870 -27.787123 -27.224344 43.347566 -0.968015 2.249838 0.074506 -0.017824 -886329.000000 0 0 1
18.312870 -26.559323 -27.653384 42.490805 -0.967147 2.279445 0.062385 -0.029159 -282330.000000 0 0 1
17.530870 -25.955223 -26.631754 41.112715 -0.976753 2.275455 0.051153 -0.016994 -2766.070000 0 0 1
17.100570 -24.683423 -27.041704 40.409833 -0.964922 2.303909 0.043153 -0.003908 270024.000000 0 0 1
15.902470 -24.145723 -26.174624 39.000198 -0.988396 2.306543 0.051263 -0.011998 -343721.000000 0 0 1
14.698170 -24.774123 -26.465114 39.117715 -1.035327 2.313865 0.073676 -0.019506 -753707.000000 0 0 1
13.514370 -24.384723 -25.807444 37.990487 -1.064723 2.317623 0.056628 -0.018426 334191.000000 0 0 1
13.457870 -24.590623 -24.285974 37.089372 -1.070047 2.284709 0.045956 -0.008355 -376503.000000 0 0 1
14.400470 -23.789123 -23.560474 36.447110 -1.026461 2.273691 0.026564 -0.014195 192570.000000 0 0 1
14.437570 -24.219223 -22.220574 35.899416 -1.033234 2.238224 0.044140 -0.019944 385292.000000 0 0 1
15.615670 -23.556223 -21.448474 35.479316 -0.985399 2.219978 0.024325 -0.021413 377790.000000 0 0 1
15.318670 -22.210723 -20.987274 34.182503 -0.967019 2.231886 0.020520 -0.022978 115054.000000 0 0 1
16.504570 -21.555023 -20.593674 34.075200 -0.917326 2.219758 0.013812 -0.024718 -18170.600000 0 0 1
16.238570 -20.025023 -20.215674 32.762268 -0.889436 2.235774 0.025155 -0.017500 188163.000000 0 0 1
15.643670 -19.849323 -18.948374 31.587354 -0.903341 2.214138 0.030924 -0.012722 810215.000000 0 0 1
14.207770 -19.784023 -18.979374 30.878551 -0.947997 2.232733 0.020269 -0.016117 852968.000000 0 0 1
13.523270 -19.858623 -17.534274 29.743815 -0.972952 2.201248 0.030506 -0.009053 122832.000000 0 0 1
13.541870 -18.659423 -16.785474 28.518563 -0.943004 2.200098 0.046156 -0.010935 133768.000000 0 0 1
13.087570 -18.808123 -15.438874 27.629492 -0.962863 2.163713 0.033063 -0.004135 -110152.000000 0 0 1
13.064470 -17.458923 -14.761174 26.332235 -0.928386 2.165875 0.038372 -0.005770 -447995.000000 0 0 1
12.021470 -16.582823 -15.066974 25.426747 -0.943531 2.205034 0.036313 -0.014805 -280297.000000 0 0 1
12.280370 -15.274223 -14.569374 24.420811 -0.893625 2.210050 0.036145 -0.021913 -48274.600000 0 1 0
11.008070 -14.453323 -14.278474 23.107379 -0.919894 2.236889 0.042868 -0.019753 -36096.300000 0 1 0
10.223470 -14.090723 -15.394074 23.238875 -0.943130 2.294851 0.060211 -0.008003 307840.000000 0 1 0
8.960970 -13.543723 -15.025174 22.124359 -0.986287 2.317364 0.056748 -0.015989 499534.000000 0 1 0
8.203870 -12.849623 -16.189374 22.237629 -1.002582 2.386221 0.049334 -0.013963 9440.670000 0 1 0
8.774670 -11.648923 -16.674474 22.152434 -0.925212 2.422973 0.046667 -0.008978 -475614.000000 0 1 0
9.867070 -11.808523 -17.519474 23.318067 -0.874728 2.420866 0.065409 -0.010411 -320016.000000 0 1 0
9.906470 -10.701323 -18.577374 23.617267 -0.823950 2.476082 0.063274 -0.010357 14819.400000 0 1 0
8.985970 -10.978923 -19.599974 24.195937 -0.884891 2.515038 0.066718 -0.009905 19358.200000 0 1 0
9.064870 -9.943223 -20.562574 24.573543 -0.831575 2.562166 0.050375 -0.013246 -17489.800000 0 1 0
8.870470 -10.359223 -22.032574 25.912025 -0.862664 2.587320 0.066285 -0.003376 91971.800000 0 0 1
10.039770 -10.654223 -22.770274 27.070183 -0.815082 2.570215 0.065083 -0.010941 -274699.000000 0 0 1
9.789970 -10.645223 -24.182274 28.177059 -0.827226 2.602599 0.063113 -0.005028 636412.000000 0 0 1
10.953970 -11.309823 -24.999274 29.544293 -0.801380 2.579539 0.079643 -0.006282 294169.000000 0 0 1
11.056170 -12.714023 -24.758974 29.948156 -0.855030 2.544063 0.070307 -0.010896 83844.000000 0 0 1
12.192470 -13.306323 -25.378904 31.141665 -0.829053 2.523439 0.056259 -0.018051 179178.000000 0 0 1
12.271270 -14.822923 -25.003174 31.550940 -0.879298 2.485645 0.051602 -0.017833 206036.000000 0 0 1
11.370670 -15.711323 -25.681494 32.181935 -0.944325 2.494782 0.062197 -0.019948 67760.900000 0 0 1
11.589070 -17.032723 -25.211144 32.557979 -0.973346 2.456477 0.060552 -0.023868 86285.100000 0 0 1
10.431170 -17.967523 -25.578354 32.952896 -1.044796 2.459428 0.066596 -0.022379 23698.600000 0 0 1
10.289770 -18.321423 -26.937894 34.164368 -1.059072 2.479129 0.079048 -0.032552 -31765.500000 0 0 1
9.170770 -19.187123 -27.193644 34.521631 -1.124932 2.477908 0.075187 -0.029224 372232.000000 0 0 1
9.255470 -20.267423 -28.340274 36.050011 -1.142412 2.475331 0.066177 -0.029594 -123016.000000 0 0 1
10.160870 -21.343823 -28.121334 36.737059 -1.126486 2.442577 0.065327 -0.023622 58428.100000 0 0 1
10.011370 -22.187723 -29.214084 38.026113 -1.146935 2.446921 0.062415 -0.017497 -131841.000000 0 0 1
10.623270 -23.533123 -28.967684 38.804490 -1.146764 2.413588 0.046937 -0.015835 -160179.000000 0 0 1
10.410970 -24.513123 -29.985154 40.104750 -1.169171 2.415344 0.052558 -0.015915 -49243.400000 0 0 1
10.895170 -25.836123 -29.760234 40.888648 -1.171722 2.385957 0.069658 -0.012798 -24850.100000 0 0 1
10.329670 -26.499323 -28.533644 40.287530 -1.199106 2.357813 0.064872 -0.013885 80327.900000 0 0 1
11.086970 -26.169623 -27.361644 39.451611 -1.170063 2.337201 0.067724 -0.011503 -71645.800000 0 0 1
10.529270 -26.547523 -26.077384 38.673847 -1.193207 2.310799 0.045914 -0.005439 446701.000000 0 0 1
9.413570 -25.668523 -25.456894 37.356952 -1.219290 2.320538 0.039945 -0.005365 686327.000000 0 0 1
10.000770 -24.430223 -25.129234 36.446256 -1.182247 2.331577 0.043044 -0.004579 -143147.000000 0 0 1
8.967970 -23.558423 -24.783374 35.350239 -1.207065 2.347708 0.049444 -0.007371 -97429.500000 0 0 1
9.462270 -22.149423 -24.421174 34.300514 -1.167062 2.363106 0.060819 -0.007926 428167.000000 0 0 1
10.236770 -21.912923 -23.229874 33.534977 -1.133767 2.336030 0.046405 -0.016755 64007.300000 0 0 1
11.429770 -21.222923 -23.503274 33.666838 -1.076780 2.343556 0.055214 -0.019818 220088.000000 0 0 1
12.318170 -20.877823 -22.249774 32.904001 -1.037753 2.313392 0.039719 -0.008934 -39193.700000 0 0 1
11.647270 -20.201523 -21.241874 31.543266 -1.047795 2.309622 0.030191 -0.003579 -300693.000000 0 0 1
11.176170 -18.869323 -21.448574 30.675714 -1.036063 2.345079 0.044412 -0.012776 289180.000000 0 0 1
12.289170 -17.781023 -21.281574 30.333049 -0.966042 2.348432 0.046813 -0.009938 648114.000000 0 0 1
13.432570 -17.980623 -22.119074 31.511747 -0.929181 2.348901 0.047417 -0.016958 -5237.940000 0 0 1
14.340770 -16.945023 -21.847374 31.146416 -0.868447 2.348214 0.050127 -0.008876 -525454.000000 0 0 1
15.608070 -16.903223 -22.675074 32.303092 -0.825214 2.348924 0.026351 -0.008428 -518077.000000 0 0 1
16.592470 -17.865223 -22.345374 33.072526 -0.822318 2.312639 0.027963 -0.003452 231376.000000 0 0 1
17.824070 -17.447123 -22.897874 33.858709 -0.774711 2.313493 0.021379 -0.004584 -476842.000000 0 0 1
19.088570 -17.631223 -22.091674 34.106826 -0.745731 2.275384 0.018499 -0.011519 -496722.000000 0 0 1
19.383670 -18.982023 -21.924074 34.881354 -0.774930 2.250462 0.019176 -0.016150 -223952.000000 0 0 1
20.741470 -19.136423 -21.596774 35.536346 -0.745171 2.224005 0.013448 -0.023853 -18676.400000 0 0 1
21.133170 -20.674623 -21.455074 36.529045 -0.774431 2.198568 0.032221 -0.032370 -101814.000000 0 0 1
20.679770 -21.273123 -20.238374 35.913652 -0.799541 2.169447 0.040438 -0.025986 338390.000000 0 0 1
21.126170 -22.616323 -20.187674 36.950714 -0.819451 2.148785 0.050348 -0.026839 -275170.000000 0 0 1
-16.153235 12.630094 28.703181 35.274905 -0.663602 0.620307 0.046690 -0.027314 -2570.590000 0 0 1
-17.255335 13.507794 28.540271 35.982693 -0.664176 0.654805 0.065734 -0.027893 -34209.000000 0 0 1
-17.541735 13.585894 27.143591 35.058003 -0.658991 0.685270 0.064104 -0.025883 617866.000000 0 0 1
-18.983335 14.048394 26.726441 35.665488 -0.637095 0.723695 0.085362 -0.023416 589963.000000 0 0 1
-19.095635 15.460794 26.878581 36.416172 -0.680598 0.740554 0.060526 -0.011912 -453315.000000 0 0 1
-20.043335 16.050194 26.060461 36.585402 -0.675213 0.778000 0.076307 -0.016024 -1070270.000000 0 0 1
-20.087435 17.583594 26.066171 37.311300 -0.719030 0.797339 0.077148 -0.000273 -303924.000000 0 0 1
-19.062135 18.370794 25.528751 36.777278 -0.766931 0.803565 0.052778 0.008435 556523.000000 0 0 1
-17.856835 18.349894 26.327741 36.725129 -0.799015 0.771470 0.026893 0.024010 476959.000000 0 0 1
-16.694635 19.243294 25.872041 36.309472 -0.856198 0.777681 0.021207 0.018422 129723.000000 0 0 1
-16.925335 20.643394 25.979661 37.249960 -0.884044 0.798975 0.030684 0.014055 -47785.900000 0 0 1
-15.702235 21.263094 25.675171 36.849610 -0.934713 0.799932 0.049091 -0.002271 -76.770300 0 0 1
-15.787435 22.784794 25.443751 37.626778 -0.964856 0.828185 0.038871 -0.000628 72457.500000 0 0 1
-16.005235 23.447294 26.653571 38.940416 -0.971841 0.816919 0.029821 0.004076 -32633.600000 0 0 1
-15.886435 24.819694 26.333441 39.520199 -1.001431 0.841522 0.024772 -0.002683 -9965.880000 0 0 1
-15.488035 25.779294 27.478181 40.736982 -1.029793 0.830473 0.015820 0.002320 557706.000000 0 0 1
-14.088335 26.011894 27.607791 40.463440 -1.074416 0.819906 0.021188 -0.002224 139333.000000 0 0 1
-13.672435 27.023694 28.512021 41.595082 -1.102406 0.815553 0.028542 0.003449 -289596.000000 0 0 1
-12.163935 27.203094 28.638481 41.329557 -1.150313 0.805252 0.045449 -0.007561 -381855.000000 0 0 1
-11.532035 27.699794 27.516691 40.711604 -1.176299 0.828621 0.049686 -0.007511 -1009140.000000 0 0 1
-10.149435 27.534494 27.588481 40.277583 -1.217641 0.816249 0.044278 -0.002149 -423519.000000 0 0 1
-9.406035 28.249094 26.415281 39.802662 -1.249375 0.845100 0.044443 -0.008693 444511.000000 0 0 1
-8.003335 28.003794 26.386821 39.300511 -1.292422 0.834684 0.052805 -0.010107 751771.000000 0 0 1
-7.375635 28.563894 25.208041 38.803883 -1.318101 0.863703 0.054630 -0.011634 488281.000000 0 0 1
-5.840535 28.321694 25.205651 38.360853 -1.367426 0.853875 0.062335 -0.014459 -254940.000000 0 0 1
-5.063835 28.989894 26.188831 39.394305 -1.397865 0.843587 0.065848 -0.010265 -286136.000000 0 0 1
-3.694735 28.746294 26.068541 38.981654 -1.442968 0.838285 0.042087 -0.004877 38559.100000 0 0 1
-2.960335 29.578094 24.926591 38.793842 -1.471043 0.872988 0.038030 -0.002357 -574906.000000 0 0 1
-3.234635 29.209694 23.596281 37.688905 -1.460507 0.894280 0.041445 0.004727 -23566.400000 0 0 1
-2.581935 30.146094 22.730561 37.843517 -1.485357 0.926487 0.037614 -0.001122 20024.600000 0 0 1
-2.979835 29.941794 21.226861 36.823499 -1.471602 0.956420 0.031993 0.006736 1112620.000000 0 0 1
-4.374735 29.935094 20.877361 36.757480 -1.425683 0.966752 0.027335 0.006067 641833.000000 0 0 1
-5.002135 28.686394 21.107661 35.964759 -1.398159 0.943574 0.035957 0.004403 -1050660.000000 0 0 1
-6.456635 28.647794 20.705461 35.931885 -1.349120 0.956673 0.039718 -0.000499 -954096.000000 0 0 1
-6.776835 28.810794 19.322861 35.346291 -1.339777 0.992411 0.025109 -0.003318 63939.200000 0 0 1
-7.761635 27.933294 18.824661 34.567033 -1.299770 0.994903 0.012317 -0.003870 -427047.000000 0 0 1
-7.146935 26.486194 18.536661 33.108986 -1.307237 0.976570 0.004855 -0.008284 884173.000000 0 0 1
-6.151235 26.376094 17.511561 32.251989 -1.341679 0.996838 0.003641 -0.007494 1188190.000000 0 0 1
-4.858035 26.973094 17.745961 32.650688 -1.392600 0.996184 0.021862 -0.003187 388525.000000 0 0 1
-4.032835 26.999894 16.447661 31.871360 -1.422528 1.028547 0.013481 -0.009207 -183066.000000 0 0 1
-3.564535 25.720994 16.049361 30.526340 -1.433089 1.017194 0.024697 -0.009279 65984.800000 0 0 1
-2.877935 25.928394 14.805061 29.995899 -1.460253 1.054607 0.031501 -0.020803 -199729.000000 0 0 1
-2.300035 24.627094 14.148061 28.494763 -1.477672 1.051218 0.020757 -0.017066 -291382.000000 0 0 1
-1.119535 24.294594 14.807161 28.473368 -1.524747 1.023904 0.028816 -0.014038 -721122.000000 0 0 1
-0.508735 23.148294 14.304461 27.216170 -1.548823 1.017392 0.026074 -0.027945 -136673.000000 0 0 1
0.712665 22.740994 15.165561 27.343279 1.539468 0.982871 0.021360 -0.022689 -360513.000000 0 0 1
1.696065 23.724294 15.171061 28.211342 1.499427 1.003013 0.029810 -0.026327 -1056980.000000 0 0 1
2.883665 23.188194 15.658761 28.128360 1.447072 0.980401 0.026276 -0.020253 -214665.000000 0 0 1
4.132865 24.089094 15.373961 28.874274 1.400885 1.009310 0.032633 -0.024090 445731.000000 0 0 1
5.338465 23.470494 15.793961 28.789104 1.347147 0.990097 0.041609 -0.023550 -480190.000000 0 0 1
6.254065 24.478894 16.108561 29.963566 1.320659 1.003202 0.057246 -0.023818 31854.500000 0 0 1
7.716765 23.915994 16.266761 29.935443 1.258681 0.996321 0.070317 -0.024205 658641.000000 0 0 1
8.313265 23.415294 15.105761 29.078693 1.229642 1.024556 0.062020 -0.012491 -133792.000000 0 0 1
8.987565 24.417494 14.378961 29.727846 1.218107 1.065934 0.067810 -0.014918 -200311.000000 0 0 1
9.593165 23.943894 13.003261 28.886392 1.189728 1.103861 0.061681 -0.010494 -599454.000000 0 0 1
10.682165 23.112594 13.085661 28.627524 1.137860 1.096064 0.065170 -0.016537 -976792.000000 0 0 1
11.094565 22.602494 11.819561 27.814818 1.114491 1.131903 0.059537 -0.009158 -527246.000000 0 0 1
12.466765 22.005394 12.080661 28.028556 1.055349 1.125182 0.070634 -0.015898 -599650.000000 0 0 1
12.367565 20.951694 12.993361 27.581834 1.037548 1.080277 0.061291 -0.002648 -182027.000000 0 0 1
13.523365 20.152594 13.025161 27.543842 0.979766 1.078230 0.064385 -0.004099 -372891.000000 0 0 1
13.707465 19.406894 14.450861 27.809162 0.955842 1.024362 0.060128 -0.007052 535765.000000 0 0 1
14.893365 18.580494 14.445661 27.851825 0.895105 1.025512 0.062796 -0.010939 874124.000000 0 0 1
15.183065 18.009694 15.714661 28.316516 0.870351 0.982476 0.044905 -0.011432 -560497.000000 0 0 1
16.568865 17.367094 15.772961 28.721586 0.808915 0.989429 0.036406 -0.012853 -437345.000000 0 0 1
16.774565 16.773094 17.032161 29.203034 0.785354 0.948094 0.039796 -0.014267 851709.000000 0 0 1
17.911365 15.867994 16.951761 29.325286 0.724980 0.954448 0.033778 -0.017189 841142.000000 0 0 1
18.609265 15.585994 18.282161 30.388573 0.697215 0.925277 0.035748 -0.012377 -240242.000000 0 0 1
19.136265 16.723194 19.026161 31.746758 0.718207 0.928157 0.029030 0.000371 373267.000000 0 0 1
18.207765 17.609494 19.602061 32.029014 0.768696 0.912197 0.018901 0.006864 -405542.000000 0 0 1
18.913365 18.534994 20.607361 33.554801 0.775295 0.909500 0.006287 0.005766 371797.000000 0 0 1
18.032465 19.351694 21.377861 34.009863 0.820672 0.891072 0.018066 -0.003916 512799.000000 0 0 1
18.853765 20.182694 22.179661 35.422351 0.819428 0.894192 0.013616 0.001265 189575.000000 0 0 1
18.075965 21.322194 22.833961 36.093853 0.867608 0.885855 0.023956 -0.001276 -90033.200000 0 0 1
17.151065 20.978794 23.814351 36.074813 0.885450 0.849794 0.024292 -0.004065 -89106.800000 0 0 1
16.428465 22.064194 24.358761 36.743331 0.930776 0.846052 0.027816 -0.016739 306642.000000 0 0 1
15.634965 21.629094 25.638251 37.007969 0.944887 0.805464 0.053644 -0.014746 430953.000000 0 0 1
14.711865 20.550894 25.449191 35.866970 0.949495 0.781946 0.058538 -0.020783 -398072.000000 0 0 1
14.040065 20.371994 26.636551 36.354469 0.967366 0.748530 0.071271 -0.018127 -343112.000000 0 0 1
13.020365 19.234294 26.481751 35.224581 0.975719 0.720012 0.087931 -0.019729 66520.800000 0 0 1
13.617165 17.925294 26.368851 34.670732 0.921140 0.706635 0.060366 -0.028017 308027.000000 0 0 1
14.387165 17.654394 25.194751 33.962385 0.887015 0.734982 0.062904 -0.028645 230049.000000 0 0 1
13.549265 17.336794 23.913411 32.496126 0.907418 0.743824 0.083067 -0.030558 -213949.000000 0 0 1
13.061565 18.459794 23.167361 32.374297 0.955009 0.773300 0.078997 -0.023103 113322.000000 0 0 1
13.992665 19.216494 22.378261 32.647433 0.941421 0.815571 0.066381 -0.021662 490679.000000 0 0 1
14.628165 18.371594 21.175861 31.621445 0.898353 0.837035 0.063471 -0.019411 -507166.000000 0 0 1
13.708265 17.986294 20.215061 30.332688 0.919564 0.841366 0.069579 -0.017673 -443869.000000 0 0 1
14.228565 17.170794 19.150461 29.394360 0.878829 0.861235 0.064020 -0.021369 -131681.000000 0 0 1
13.117765 16.457894 18.351061 27.923099 0.897857 0.853699 0.047902 -0.012985 -83422.500000 0 0 1
12.469865 17.261294 17.414061 27.508168 0.945183 0.885309 0.060029 -0.014939 -254859.000000 0 0 1
11.392865 16.586294 16.819961 26.226201 0.968927 0.874550 0.045553 -0.005469 24140.300000 0 0 1
10.802165 17.158094 15.489161 25.514722 1.008920 0.918431 0.047895 -0.003689 10479.900000 0 0 1
9.968165 18.266894 15.645661 26.035177 1.071264 0.926116 0.056523 -0.010319 -33340.600000 0 0 1
9.647765 18.876794 14.377461 25.614919 1.098315 0.974850 0.043272 -0.004143 -394264.000000 0 0 1
8.660965 20.032994 14.481961 26.192754 1.162729 0.984956 0.054390 -0.004910 -398078.000000 0 0 1
7.333865 19.656694 14.711561 25.624231 1.213695 0.959259 0.027701 -0.003579 -433439.000000 0 0 1
6.456865 20.765794 14.896961 26.359604 1.269336 0.970189 0.034368 -0.010305 524776.000000 0 0 1
5.212665 20.240394 15.684861 26.131595 1.318736 0.927013 0.029496 -0.011876 306660.000000 0 0 1
4.163165 19.656994 14.931361 25.033475 1.362090 0.931718 0.022531 -0.012052 -582318.000000 0 0 1
3.100165 19.321694 15.745261 25.116770 1.411702 0.893251 0.018468 -0.012939 -226070.000000 0 0 1
1.894265 18.638194 15.056161 24.034527 1.469511 0.893820 0.016844 -0.013814 170607.000000 0 1 0
1.314165 19.585094 14.164961 24.206385 1.503797 0.945701 0.012700 -0.021069 -14894.300000 0 1 0
0.380865 18.905994 13.313161 23.126217 1.550654 0.957368 0.009814 -0.025753 -36194.500000 0 1 0
-0.393135 19.867994 12.383961 23.414829 -1.551012 1.013500 0.013946 -0.027302 207907.000000 0 1 0
-1.485335 20.544794 13.023261 24.370066 -1.498624 1.007004 0.015498 -0.018447 206965.000000 0 1 0
-2.581235 20.426994 12.137461 23.900686 -1.445099 1.038134 0.008147 -0.035576 676346.000000 0 1 0
-3.940335 21.120394 12.526761 24.870002 -1.386351 1.042932 0.005704 -0.027422 982043.000000 0 1 0
-4.542335 20.550294 13.694761 25.109637 -1.353259 0.993932 0.011332 -0.026185 545891.000000 0 0 1
-5.629935 21.378294 14.131761 26.238031 -1.313295 1.002024 0.008108 -0.014154 523382.000000 0 0 1
-6.519135 20.851694 15.305861 26.675113 -1.267781 0.959673 0.015947 -0.009465 -781587.000000 0 0 1
-7.357635 19.754394 15.054961 25.904106 -1.214258 0.950618 0.015696 -0.009981 290447.000000 0 0 1
-8.119335 19.339394 16.197061 26.500576 -1.173309 0.913225 0.012912 0.006146 -299159.000000 0 0 1
-9.181235 20.336894 16.753861 27.902978 -1.146731 0.926754 0.011520 0.010757 -334698.000000 0 0 1
-10.281435 20.412794 15.841361 27.808970 -1.104212 0.964717 0.007762 -0.002629 2109.160000 0 0 1
-11.333335 19.577294 16.296361 27.879855 -1.046034 0.946507 0.000052 -0.000804 -409648.000000 0 0 1
-12.505335 19.545294 15.285661 27.785848 -1.001616 0.988284 0.006455 -0.006785 -198024.000000 0 0 1
-13.241935 20.729394 15.104461 28.865228 -1.002335 1.020106 -0.011917 0.002004 427365.000000 0 0 1
-14.151035 20.608394 13.987961 28.646479 -0.969077 1.060660 -0.006782 -0.011079 -212393.000000 0 0 1
-15.120835 21.772894 13.917361 29.939798 -0.963785 1.087337 -0.009215 -0.011902 -414976.000000 0 0 1
-16.162035 21.708794 14.882061 30.886224 -0.930829 1.068049 -0.010650 -0.015946 -245646.000000 0 0 1
-16.968735 22.822294 14.759261 32.041081 -0.931458 1.092085 0.016699 -0.023218 1032640.000000 0 0 1
-18.386235 22.693294 15.489461 33.059986 -0.889863 1.083175 0.075823 -0.023606 730475.000000 0 0 1
-19.236235 21.677694 14.986961 32.627660 -0.845001 1.093552 0.076742 -0.027013 773835.000000 0 0 1
-20.447735 21.455894 15.727561 33.553263 -0.809452 1.082939 0.085064 -0.016780 1170230.000000 0 0 1
-21.540135 22.571794 15.561361 34.865732 -0.808781 1.108145 0.088358 -0.023983 -496314.000000 0 0 1
-22.145035 22.596194 14.268061 34.706889 -0.795482 1.147134 0.101657 -0.019994 64754.200000 0 0 1
-22.959935 23.710794 14.058661 35.874870 -0.801485 1.168122 0.110381 -0.025693 -421600.000000 0 0 1
-22.238235 24.919394 13.555861 36.045481 -0.842192 1.185238 0.098676 -0.031713 -287215.000000 0 0 1
-21.222335 25.441494 14.405561 36.127238 -0.875569 1.160648 0.080971 -0.036141 319319.000000 0 0 1
-20.600035 26.520194 13.724161 36.277193 -0.910383 1.182822 0.050031 -0.030129 -66997.800000 0 0 1
-19.121735 26.855294 14.047461 35.835440 -0.952043 1.167993 0.044504 -0.024517 -164998.000000 0 0 1
-18.276935 26.124994 13.213261 34.513069 -0.960342 1.177919 0.047545 -0.024376 -80902.700000 0 0 1
-16.941335 26.569594 13.417261 34.248723 -1.003173 1.168253 -0.000754 -0.016017 189365.000000 0 0 1
-15.904635 26.011094 12.392661 32.910674 -1.021996 1.184722 0.010135 -0.022556 -419111.000000 0 0 1
-14.647135 26.571894 12.575061 32.844121 -1.067012 1.177894 -0.008039 -0.015594 -356675.000000 0 0 1
-13.674235 25.895494 11.778361 31.564079 -1.084958 1.188387 -0.004292 -0.012886 178347.000000 0 0 1
-12.215135 26.219494 12.175661 31.383405 -1.134815 1.172374 -0.018040 -0.006503 -680445.000000 0 0 1
-11.300335 25.628194 11.256361 30.186215 -1.155507 1.188667 -0.020597 -0.004245 722360.000000 0 0 1
-9.982135 26.178494 11.438361 30.262066 -1.206505 1.183186 -0.003601 -0.004790 615188.000000 0 0 1
-9.727135 27.643394 11.064261 31.323988 -1.232448 1.209786 0.006940 -0.015969 -1127650.000000 0 0 1
-8.436835 27.997694 11.474261 31.411936 -1.278110 1.196859 0.015419 -0.019055 -150624.000000 0 0 1
-8.099035 29.351494 11.107661 32.411182 -1.301563 1.220995 0.024074 -0.018505 210505.000000 0 0 1
-6.791135 29.860194 11.769461 32.806568 -1.347169 1.203864 0.013432 -0.022510 990928.000000 0 0 1
-5.629135 29.153294 11.318661 31.775994 -1.380056 1.206597 0.032528 -0.021399 752483.000000 0 0 1
-4.380335 29.578894 11.841661 32.160896 -1.423775 1.193723 0.029690 -0.032053 1108520.000000 0 0 1
-3.147435 29.130794 10.959961 31.283066 -1.463169 1.212854 0.045251 -0.033677 448474.000000 0 0 1
-3.087035 29.822394 9.733561 31.522169 -1.467650 1.256881 0.058278 -0.034718 326755.000000 0 0 1
-2.082935 29.251694 8.895861 30.645335 -1.499709 1.276272 0.061104 -0.036278 291633.000000 0 0 1
-1.934335 30.215894 7.694461 31.240144 -1.506866 1.321935 0.058372 -0.031815 -119177.000000 0 0 1
-3.068835 30.294194 6.865061 31.213538 -1.469840 1.349045 0.053655 -0.028795 -59423.100000 0 0 1
-2.863435 31.045894 5.674861 31.689917 -1.478824 1.390750 0.057789 -0.021933 -28527.600000 0 0 1
11.117665 -33.993623 -26.631264 44.591402 -1.254710 2.210838 0.094176 -0.018529 -101105.000000 0 0 1
11.333165 -33.789723 -25.275054 43.692269 -1.247184 2.187659 0.066944 -0.010790 666440.000000 0 0 1
12.704465 -33.436123 -25.078934 43.684445 -1.207682 2.182292 0.072057 -0.014107 558689.000000 0 0 1
13.203865 -33.337123 -23.638374 42.947393 -1.193682 2.153643 0.057724 -0.014070 -635249.000000 0 0 1
12.813965 -32.150123 -23.017374 41.564740 -1.191526 2.157683 0.052758 -0.009476 421466.000000 0 0 1
13.324165 -32.083223 -21.660874 40.939712 -1.177170 2.128326 0.033609 -0.005198 617500.000000 0 0 1
14.850665 -31.743323 -21.568974 41.150959 -1.133210 2.122504 0.021952 -0.005127 179391.000000 0 0 1
15.657365 -32.882123 -21.741274 42.415446 -1.126397 2.108982 0.043463 -0.004129 -608520.000000 0 0 1
17.013765 -32.547123 -21.674474 42.644651 -1.089121 2.103957 0.035287 -0.012711 -331830.000000 0 0 1
17.922865 -33.774523 -21.949374 44.087669 -1.082921 2.091923 0.020803 -0.006924 21867.500000 0 0 1
19.314765 -33.628623 -21.822374 44.498994 -1.049447 2.083347 0.035454 0.002496 510943.000000 0 0 1
20.094165 33.589394 -21.967474 44.884215 1.031680 2.082227 0.028779 0.006045 -2219.260000 0 0 1
21.544265 33.671794 -21.501874 45.390259 1.001603 2.064296 0.062730 0.009678 -308342.000000 0 0 1
22.419665 -33.943323 -22.278674 46.380275 -0.987073 2.071848 0.049150 0.006005 -69408.300000 0 0 1
23.743765 -34.118523 -21.854474 46.962304 -0.962814 2.054840 0.042456 0.012086 -197955.000000 0 0 1
24.793165 -33.380223 -22.707774 47.377034 -0.931951 2.070652 0.052033 0.007909 17684.500000 0 0 1
24.874965 -31.951423 -22.620674 46.382671 -0.909288 2.080246 0.055123 -0.001107 252424.000000 0 0 1
23.841365 -31.317423 -23.400774 45.790697 -0.920114 2.107188 0.035970 0.000031 293095.000000 0 0 1
23.843665 -29.748423 -23.379074 44.722144 -0.895135 2.120885 0.039565 -0.019050 -165219.000000 0 0 1
24.873665 -29.195223 -24.171574 45.335695 -0.865156 2.133138 0.042225 -0.015472 -139679.000000 0 0 1
24.649665 -27.792323 -24.112874 44.288259 -0.845253 2.146533 0.042760 -0.015289 256388.000000 0 0 1
25.254365 -27.043023 -25.309704 44.829557 -0.819587 2.170716 0.035836 -0.016967 -391019.000000 0 0 1
24.378265 -26.980423 -26.373894 44.920210 -0.836021 2.198302 0.025524 -0.013580 -968147.000000 0 0 1
24.913865 -26.424723 -27.558454 45.589857 -0.814819 2.219917 0.019833 -0.015164 -1065870.000000 0 0 1
23.906865 -26.182423 -28.699434 45.614855 -0.830797 2.251279 0.020254 -0.015053 822760.000000 0 0 1
22.958065 -25.083923 -28.591484 44.426894 -0.829619 2.269940 0.024373 -0.011705 -90033.900000 0 0 1
22.014565 -25.319823 -27.621284 43.458829 -0.855113 2.259548 0.021258 -0.006187 -1770690.000000 0 0 1
21.140865 -24.108423 -27.260754 42.086826 -0.850887 2.275393 0.023495 -0.007196 -67228.800000 0 0 1
20.434965 -23.579123 -28.376654 42.175791 -0.856712 2.308808 0.027370 -0.006804 -20363.500000 0 0 1
19.998565 -22.319123 -27.987724 41.004860 -0.840180 2.322038 0.018091 -0.003525 -487430.000000 0 0 1
19.203265 -21.682623 -29.123614 41.074157 -0.845965 2.358946 0.038052 -0.005505 250249.000000 0 0 1
17.866265 -22.156023 -29.194294 40.772535 -0.892175 2.368893 0.042340 -0.015689 198184.000000 0 0 1
17.089965 -21.594623 -30.214754 40.881854 -0.901322 2.402492 0.030262 -0.020406 -46231.600000 0 0 1
15.743165 -22.352323 -30.305574 40.815455 -0.957178 2.407595 0.044447 -0.027084 -217924.000000 0 0 1
15.751665 -23.567723 -31.003164 42.008912 -0.981624 2.400919 0.044675 -0.019806 -152196.000000 0 0 1
14.911465 -24.486923 -30.382164 41.773641 -1.023817 2.385183 0.055011 -0.030710 -100013.000000 0 0 1
15.101565 -25.894323 -30.987074 43.113478 -1.042822 2.372774 0.073716 -0.032856 777656.000000 0 0 1
14.087965 -26.807323 -30.524604 42.998311 -1.086937 2.360156 0.091991 -0.030377 586498.000000 0 0 1
14.428665 -28.096723 -30.938424 44.213101 -1.096379 2.345854 0.143087 -0.026873 278332.000000 0 0 1
13.642665 -29.084123 -30.047264 43.986891 -1.132193 2.322790 0.142495 -0.025963 -18932.900000 0 0 1
14.070665 -29.285923 -28.681454 43.339067 -1.122904 2.294003 0.148559 -0.029355 -61503.800000 0 0 1
13.792465 -28.155823 -27.804174 41.905305 -1.115292 2.296284 0.127667 -0.025585 -127206.000000 0 0 1
14.826065 -28.024123 -26.666684 41.427958 -1.084182 2.270104 0.103980 -0.020175 -106668.000000 0 0 1
14.807365 -29.146323 -25.721044 41.597335 -1.100741 2.237417 0.090458 -0.022160 -426665.000000 0 0 1
15.635465 -29.016323 -24.615574 41.138075 -1.076553 2.212255 0.085478 -0.023716 -1246110.000000 0 0 1
15.291165 -27.975223 -23.476174 39.592469 -1.070570 2.205508 0.068970 -0.020916 852182.000000 0 0 1
14.187065 -28.340223 -22.620774 38.937649 -1.106670 2.190690 0.057069 -0.022197 1201530.000000 0 0 1
12.904565 -28.426923 -23.267274 38.935637 -1.144658 2.211280 0.056281 -0.013656 -388142.000000 0 0 1
11.748065 -28.163623 -22.311574 37.802289 -1.175605 2.202125 0.026616 -0.005665 -427540.000000 0 0 1
11.708465 -26.844523 -21.808874 36.514977 -1.159512 2.210875 0.018901 -0.005294 -249650.000000 0 0 1
10.592365 -26.560523 -21.023174 35.491315 -1.191324 2.204765 0.028369 -0.005849 -884022.000000 0 0 1
10.199365 -25.078923 -20.968674 34.244193 -1.184535 2.229798 0.030454 -0.004810 214258.000000 0 0 1
10.999565 -24.395323 -20.009874 33.414327 -1.147204 2.212850 0.025015 -0.006908 430929.000000 0 0 1
10.584465 -23.053223 -20.036374 32.325505 -1.140375 2.239325 0.027654 -0.009156 -39688.000000 0 0 1
10.858965 -22.229423 -18.783774 31.062752 -1.116395 2.220191 0.014248 -0.005099 31997.000000 0 0 1
10.004565 -22.636123 -17.733374 30.445984 -1.154637 2.192540 0.030719 -0.013136 399106.000000 0 0 1
10.494865 -22.089223 -16.526474 29.516103 -1.127256 2.165078 0.031817 -0.009339 -31102.200000 0 0 1
9.679165 -22.530123 -15.300474 28.903238 -1.165028 2.128653 0.031645 -0.007835 81463.800000 0 0 1
10.102165 -23.804523 -14.819974 29.805045 -1.169451 2.091200 0.026560 -0.006861 380683.000000 0 0 1
9.409265 -24.196723 -13.650574 29.331789 -1.199926 2.054866 0.027783 -0.008087 -50329.400000 0 0 1
9.614065 -25.730323 -13.443674 30.581238 -1.213212 2.025955 0.034617 -0.010494 503282.000000 0 0 1
10.863265 -26.056123 -12.831674 31.009417 -1.175791 1.997420 0.026869 -0.006682 279200.000000 0 0 1
11.042065 -27.461923 -12.794774 32.245785 -1.188493 1.978812 0.027023 -0.008064 -953659.000000 0 0 1
12.407565 -27.921323 -12.239874 32.914472 -1.152629 1.951818 0.028689 -0.007767 414951.000000 0 0 1
13.602165 -27.612723 -12.942574 33.391490 -1.113082 1.968824 0.031487 -0.006272 375561.000000 0 0 1
13.751965 -28.103623 -14.277674 34.391600 -1.115721 1.998904 0.023592 -0.011624 -1462070.000000 0 0 1
14.949865 -27.386523 -14.851074 34.555383 -1.071119 2.015041 0.012221 -0.003790 -555977.000000 0 0 1
16.124465 -28.117423 -14.551174 35.529207 -1.050114 1.992763 0.043946 -0.008621 123382.000000 0 0 1
17.246665 -27.651023 -15.298574 36.001012 -1.013114 2.009701 0.062448 -0.007018 532092.000000 0 0 1
18.523565 -28.499023 -15.103474 37.194512 -0.994441 1.988943 0.061694 -0.015313 282440.000000 0 0 1
18.479765 -29.804023 -15.700574 38.422513 -1.015770 1.991748 0.052564 -0.007349 352750.000000 0 0 1
19.837865 -30.195623 -15.898774 39.472618 -0.989531 1.985348 0.063773 -0.007408 710788.000000 0 0 1
20.055265 -31.234823 -17.013974 40.832623 -1.000009 2.000582 0.053093 -0.013566 12517.600000 0 0 1
19.633765 -32.542723 -16.626974 41.484573 -1.027937 1.983185 0.031524 0.002379 91498.600000 0 0 1
19.925765 -33.445823 -17.691574 42.762729 -1.033499 1.997327 0.030909 -0.003313 -44755.400000 0 0 1
19.884565 33.494294 -17.258774 42.604329 1.035044 1.987878 0.019759 0.001493 283131.000000 0 0 1
20.862165 33.157194 -16.273474 42.419988 1.009190 1.964517 0.054957 0.001141 337058.000000 0 0 1
20.682965 31.770294 -15.929674 41.120446 0.993707 1.968596 0.045435 -0.001757 -79078.400000 0 0 1
21.676565 31.258594 -14.867174 40.841229 0.964474 1.943381 0.069695 -0.012070 -105092.000000 0 0 1
23.044965 31.171494 -15.242374 41.654080 0.934181 1.945426 0.067512 -0.002290 481816.000000 0 0 1
23.985565 30.884894 -14.235674 41.615362 0.910480 1.919923 0.060217 -0.001271 169731.000000 0 0 1
23.840665 29.574294 -13.465874 40.303175 0.892330 1.911462 0.058779 -0.002134 -1102230.000000 0 0 1
24.024065 28.344294 -14.242274 39.791922 0.867709 1.936834 0.059998 0.005362 261278.000000 0 0 1
23.730865 27.121394 -13.508374 38.486362 0.851974 1.929426 0.050795 0.001478 1293720.000000 0 0 1
22.210465 26.853194 -13.123374 37.237369 0.879744 1.930957 0.055974 -0.009438 1090970.000000 0 0 1
21.339565 26.559194 -14.187674 36.906068 0.893942 1.965383 0.058754 -0.014624 348271.000000 0 0 1
19.940765 26.620894 -13.930874 36.060717 0.927894 1.967432 0.060205 -0.017367 688706.000000 0 0 1
19.297865 28.047594 -14.155874 36.870908 0.968142 1.964846 0.052271 -0.020254 -125757.000000 0 0 1
19.219265 28.441694 -15.533974 37.677771 0.976537 1.995757 0.045900 -0.018110 -511340.000000 0 0 1
18.180965 27.910894 -16.288574 37.079416 0.993442 2.025603 0.026390 -0.001647 -795200.000000 0 0 1
18.010865 28.743894 -17.548774 38.191126 1.011049 2.048227 0.020781 0.005617 -206541.000000 0 0 1
17.380265 29.995694 -17.561174 38.861421 1.045643 2.039682 0.014261 0.002983 -50594.600000 0 0 1
17.623165 30.671894 -18.796674 40.058157 1.049285 2.059220 0.002200 0.010286 -152892.000000 0 0 1
16.624865 31.832694 -19.059674 40.656828 1.089502 2.058721 -0.012859 0.005419 176055.000000 0 0 1
16.805865 32.951094 -18.210174 41.228899 1.099161 2.028272 0.001896 -0.002323 479733.000000 0 0 1
15.829565 33.988594 -18.513974 41.815868 1.134937 2.029460 0.000692 -0.005684 268769.000000 0 0 1
15.888365 -33.107023 -17.765474 40.793715 -1.123350 2.021385 0.009451 -0.002325 -441191.000000 0 0 1
14.937465 -32.146823 -18.132174 39.816100 -1.135815 2.043616 -0.002340 -0.003530 -213913.000000 0 0 1
14.777465 -31.104123 -17.179874 38.483607 -1.127269 2.033558 0.001027 -0.006883 751166.000000 0 0 1
13.427465 -30.350623 -17.488874 37.514235 -1.154271 2.055779 -0.009087 -0.012989 422950.000000 0 0 1
12.244265 -31.104923 -17.373074 37.673093 -1.195781 2.050091 -0.001725 -0.010438 -545178.000000 0 0 1
11.227265 -30.171323 -17.704974 36.739983 -1.214556 2.073617 -0.010822 -0.006585 -716357.000000 0 0 1
9.891065 -30.852823 -17.927074 37.028500 -1.260560 2.076179 0.018984 -0.014809 -2230050.000000 0 0 1
9.357765 -31.351623 -16.746874 36.755269 -1.280737 2.043878 0.032702 -0.018401 250075.000000 0 0 1
8.340565 -32.340423 -16.981674 37.467923 -1.318397 2.041184 0.060559 -0.011993 1323310.000000 0 0 1
6.932465 -31.884023 -17.526274 37.038092 -1.356701 2.063711 0.066062 -0.008767 346800.000000 0 0 1
7.144965 -31.233723 -18.819774 37.158847 -1.345908 2.101880 0.046193 -0.006621 -438241.000000 0 0 1
6.885465 -32.143123 -19.863274 38.407547 -1.359773 2.114339 0.036447 -0.010029 -811513.000000 0 0 1
7.032165 -31.466923 -21.243374 38.612168 -1.350931 2.153368 0.021123 0.005411 540622.000000 0 0 1
8.312265 -30.956523 -21.664374 38.687791 -1.308470 2.165158 0.026038 -0.002714 654901.000000 0 0 1
9.376165 -31.848523 -21.893974 39.769171 -1.284486 2.153791 0.022209 -0.007871 -311900.000000 0 0 1
9.177765 -33.116223 -22.834874 41.259509 -1.300444 2.157291 0.033566 -0.013067 -773331.000000 0 0 1
8.397465 -34.174423 -22.324174 41.674661 -1.329846 2.136106 0.039815 -0.018719 -101268.000000 0 0 1
8.261765 33.263494 -23.291174 41.439058 1.327349 2.167669 0.054132 -0.030930 494341.000000 0 0 1
7.052865 32.259294 -23.032474 40.260400 1.355553 2.179845 0.061918 -0.039162 1768830.000000 0 0 1
5.708465 32.755794 -23.166674 40.524355 1.398256 2.179340 0.059741 -0.036490 851358.000000 0 0 1
5.225965 33.609494 -22.162174 40.596437 1.416541 2.148276 0.046647 -0.027250 -831973.000000 0 0 1
3.974365 -34.044823 -22.642974 41.079798 -1.454583 2.154592 0.045979 -0.021776 -259102.000000 0 0 1
2.895065 33.479294 -22.792274 40.604584 1.484538 2.166779 0.048464 -0.027616 -859968.000000 0 0 1
1.740065 34.169594 -23.089974 41.276335 1.519916 2.164458 0.043034 -0.019277 67096.600000 0 0 1
0.396965 33.533394 -22.559874 40.417743 1.558959 2.162972 0.036797 -0.025122 683417.000000 0 0 1
0.254665 33.555194 -21.160374 39.670862 1.563207 2.133409 0.028193 -0.020824 121931.000000 0 0 1
-1.078335 33.413394 -20.680474 39.310300 -1.538535 2.124784 0.033269 -0.026788 585909.000000 0 0 1
-1.383535 33.758294 -19.181774 38.851988 -1.529836 2.087152 0.043904 -0.022955 228674.000000 0 0 1
-0.644835 32.866394 -18.351174 37.648124 -1.551179 2.079951 0.055842 -0.031239 -89802.100000 0 0 1
-1.047935 32.913194 -17.028174 37.072027 -1.538968 2.048033 0.042426 -0.027739 -172450.000000 0 0 1
-0.273535 31.939794 -16.155874 35.794378 -1.562232 2.039077 0.032009 -0.025417 461265.000000 0 0 1
0.875365 32.503494 -15.532774 36.034850 1.543871 2.016451 0.036537 -0.022139 437817.000000 0 0 1
1.747865 31.473194 -15.001374 34.909285 1.515318 2.014984 0.048680 -0.015371 927601.000000 0 0 1
2.842365 32.061494 -14.049774 35.120002 1.482374 1.982368 0.062049 -0.022378 304303.000000 0 0 1
3.805865 32.864894 -14.750374 36.223740 1.455507 1.990185 0.056312 -0.024508 31415.400000 0 0 1
4.703265 33.373494 -13.793474 36.416627 1.430790 1.959262 0.057168 -0.031280 -101477.000000 0 0 1
6.085565 33.753794 -14.390574 37.194641 1.392420 1.968063 0.063526 -0.045669 380293.000000 0 0 1
6.901165 32.578094 -14.387374 36.276091 1.362048 1.978615 0.049549 -0.034155 -686698.000000 0 0 1
8.150365 32.838794 -14.952774 36.991894 1.327519 1.986920 0.037491 -0.018017 -344888.000000 0 0 1
8.996565 31.593194 -15.202574 36.196496 1.293377 2.004243 0.024061 -0.018535 209733.000000 0 0 1
9.651465 31.139094 -13.993974 35.477108 1.270239 1.976266 0.025160 -0.026272 486217.000000 0 0 1
10.537165 30.010794 -14.150374 34.812536 1.233131 1.989387 0.022467 -0.022350 964773.000000 0 0 1
9.731765 28.666694 -14.095174 33.394019 1.243524 2.006542 0.027025 -0.022329 336870.000000 0 0 1
9.132865 28.141994 -15.293474 33.305726 1.256991 2.047873 0.030363 -0.027316 57354.900000 0 0 1
8.618165 26.891094 -14.868374 31.913511 1.260654 2.055443 0.027520 -0.016161 -96009.700000 0 0 1
7.822765 26.157394 -15.996474 31.643199 1.280197 2.100788 0.027689 -0.008175 316419.000000 0 0 1
8.666765 25.352094 -16.785574 31.616403 1.241395 2.130474 0.036237 -0.007401 -222542.000000 0 0 1
7.914565 24.535194 -17.638674 31.236819 1.258755 2.170837 0.040330 -0.006147 398395.000000 0 0 1
8.833165 23.712794 -18.616574 31.414936 1.214214 2.205082 0.041667 0.000818 322525.000000 0 0 1
8.078265 22.782694 -19.343874 30.959569 1.230048 2.245686 0.072367 -0.012313 286927.000000 0 0 1
8.951065 21.850094 -19.994674 30.940833 1.181992 2.273421 0.052193 -0.004930 697512.000000 0 0 1
8.095965 20.877794 -20.903174 30.632819 1.200870 2.321808 0.054522 -0.017652 791878.000000 0 0 1
7.288765 19.958394 -20.147374 29.281056 1.220647 2.329620 0.066014 -0.023212 421229.000000 0 0 1
6.549365 19.085294 -21.018574 29.136284 1.240225 2.376601 0.066441 -0.022346 214249.000000 0 0 1
25.009965 -12.724306 -9.270674 29.552524 -0.470639 1.889885 0.054642 -0.001849 -231720.000000 0 0 1
25.520465 -11.933306 -8.225074 29.348761 -0.437391 1.854854 0.070627 -0.015818 -163824.000000 0 0 1
24.611765 -11.604406 -7.237774 28.156466 -0.440587 1.830770 0.068431 -0.015705 -974947.000000 0 0 1
25.231065 -11.141906 -5.881774 28.201843 -0.415842 1.780899 0.058138 -0.019162 -385073.000000 0 0 1
25.497965 -9.771606 -5.647774 27.884186 -0.365967 1.774751 0.083335 -0.032649 447397.000000 0 0 1
26.520365 -9.112306 -6.357574 28.753828 -0.330959 1.793742 0.069001 -0.024205 -1257990.000000 0 0 1
26.708765 -7.713206 -5.760074 28.390669 -0.281140 1.775101 0.101778 -0.030547 -239997.000000 0 0 1
27.398765 -7.510406 -4.527674 28.768009 -0.267543 1.728839 0.109214 -0.036259 765087.000000 0 0 1
28.709165 -8.065006 -4.458274 30.151893 -0.273863 1.719201 0.101684 -0.038143 -179269.000000 0 0 1
29.250365 -7.849606 -3.018474 30.435363 -0.262182 1.670136 0.110595 -0.037783 -389478.000000 0 0 1
29.692465 -6.555506 -2.798574 30.536030 -0.217294 1.662573 0.114063 -0.036576 63105.300000 0 0 1
30.219265 -6.493306 -1.517574 30.946244 -0.211655 1.619855 0.119365 -0.030339 -271650.000000 0 0 1
30.578365 -5.053706 -1.042674 31.010700 -0.163790 1.604426 0.108755 -0.033775 630730.000000 0 0 1
29.401465 -4.309506 -0.662674 29.723006 -0.145538 1.593093 0.118037 -0.029546 515273.000000 0 0 1
29.637165 -2.950706 -0.266474 29.784882 -0.099234 1.579743 0.100123 -0.021970 -94851.800000 0 0 1
30.340165 -2.858006 1.095826 30.494174 -0.093922 1.534853 0.095805 -0.023504 -295849.000000 0 0 1
29.449165 -3.142306 2.132626 29.693021 -0.106301 1.498912 0.118354 -0.030411 54670.700000 0 0 1
30.043265 -2.988206 3.374826 30.379542 -0.099137 1.459478 0.089231 -0.025090 -459417.000000 0 0 1
29.577665 -3.976106 4.434226 30.171344 -0.133628 1.423294 0.092982 -0.025567 -422330.000000 0 0 1
30.029965 -5.299606 4.394226 30.808989 -0.174679 1.427680 0.083710 -0.025408 83994.400000 0 0 1
29.973865 -5.865506 5.671926 31.064569 -0.193245 1.387181 0.085405 -0.023307 -99555.900000 0 0 1
30.826565 -7.134606 5.731026 32.156249 -0.227439 1.391615 0.065901 -0.026171 756436.000000 0 0 1
32.252965 -7.006006 5.634026 33.482534 -0.213898 1.401724 0.071287 -0.032392 757052.000000 0 0 1
32.800065 -8.323006 5.641626 34.306626 -0.248505 1.405599 0.079243 -0.025000 -345200.000000 0 0 1
34.328465 -8.297206 5.708626 35.775348 -0.237152 1.410543 0.097762 -0.024605 -179109.000000 0 0 1
34.984665 -7.719706 4.561826 36.115521 -0.217179 1.444146 0.102547 -0.026442 -130336.000000 0 0 1
36.351365 -7.531406 4.810726 37.433766 -0.204293 1.441927 0.103717 -0.023394 -14140.200000 0 0 1
-35.584740 -7.125306 3.528026 36.462182 0.197621 1.473886 0.085231 -0.018973 -86505.400000 0 0 1
-35.535640 -8.060006 2.476026 36.522269 0.223041 1.502949 0.097988 -0.026730 332534.000000 0 0 1
-34.363440 -7.969206 1.686626 35.315705 0.227881 1.523020 0.088987 -0.026756 -88104.500000 0 0 1
-34.140640 -9.190806 0.797526 35.365100 0.262970 1.548243 0.082638 -0.020710 -360450.000000 0 0 1
-33.770340 -10.387706 1.455026 35.361808 0.298413 1.529638 0.079684 -0.016289 414714.000000 0 0 1
-33.375740 -11.431606 0.560726 35.283652 0.329989 1.554904 0.082987 -0.016654 -259543.000000 0 0 1
-33.004340 -12.738106 1.354426 35.403112 0.368338 1.532530 0.057968 -0.017885 181031.000000 0 0 1
-31.844040 -12.741106 2.146726 34.365493 0.380601 1.508288 0.055235 -0.015628 -23241.900000 0 0 1
-30.767040 -13.469506 1.596926 33.624226 0.412654 1.523285 0.072130 -0.010145 617934.000000 0 0 1
-29.553440 -13.672106 2.590726 32.665642 0.433302 1.491403 0.070079 -0.009795 250581.000000 0 0 1
-28.812540 -12.512406 2.777826 31.534729 0.409696 1.482594 0.078110 -0.008612 -1139480.000000 0 0 1
-27.607240 -12.921206 3.290926 30.658563 0.437752 1.463248 0.085311 -0.004485 -1469960.000000 0 0 1
-26.689840 -11.762306 3.711026 29.401890 0.415096 1.444242 0.081476 -0.002524 165798.000000 0 0 1
-25.555140 -12.306606 4.403926 28.703873 0.448796 1.416762 0.080945 0.001778 556634.000000 0 0 1
-24.698340 -11.303206 4.885326 27.597770 0.429198 1.392840 0.077408 0.000248 5205.750000 0 0 1
-23.347140 -11.786606 5.452826 26.716032 0.467513 1.365249 0.077838 0.007487 122355.000000 0 0 1
-23.336340 -12.418906 6.728226 27.277886 0.489051 1.321569 0.068884 0.003458 387141.000000 0 0 1
-22.021240 -12.909106 7.010626 26.471285 0.530219 1.302759 0.063056 0.009545 734696.000000 0 0 1
-21.469240 -12.560106 8.417526 26.259080 0.529338 1.244479 0.063962 0.006225 -321740.000000 0 0 1
-21.261340 -11.192206 8.721126 25.561067 0.484553 1.222616 0.065080 0.005900 431844.000000 0 0 1
-22.405740 -10.330606 8.820426 26.201881 0.432021 1.227457 0.077145 -0.001766 -72955.600000 0 0 1
-23.030240 -10.275106 10.263426 27.226966 0.419654 1.184286 0.072197 -0.000030 -305072.000000 0 0 1
-23.943640 -11.311806 10.503326 28.488151 0.441353 1.193196 0.052040 -0.002865 1324600.000000 0 0 1
-25.344540 -10.981306 10.314126 29.484166 0.408864 1.213418 0.055635 -0.005981 1479740.000000 0 0 1
-26.092440 -10.459106 11.607726 30.412952 0.381237 1.179193 0.052904 -0.013314 -427195.000000 0 0 1
-26.119240 -11.392506 12.668726 31.184941 0.411296 1.152455 0.073482 -0.012821 687263.000000 0 0 1
-27.109740 -10.956106 13.611426 32.252833 0.384069 1.135121 0.064010 -0.017625 230165.000000 0 0 1
-27.052140 -11.787006 14.919626 33.065799 0.410911 1.102675 0.059977 -0.017704 -203107.000000 0 0 1
-27.309740 -13.142506 14.645426 33.660599 0.448526 1.120657 0.050327 -0.011030 448347.000000 0 0 1
-26.933340 -13.990106 15.759126 34.197631 0.479074 1.091872 0.044562 -0.010515 -340876.000000 0 0 1
-26.716840 -15.425706 15.274126 34.424423 0.523619 1.111073 0.047332 -0.001695 -141815.000000 0 0 1
-27.843140 -16.293306 15.423226 35.757352 0.529453 1.124830 0.050557 -0.003663 356735.000000 0 0 1
-27.443540 -17.659306 15.378226 36.076154 0.571776 1.130430 0.040459 -0.001729 15010.200000 0 0 1
-28.475940 -18.623506 16.027726 37.611198 0.579188 1.130572 0.030448 0.002986 151035.000000 0 0 1
-28.630940 -18.325006 17.388926 38.182606 0.569343 1.097958 0.054790 0.000603 -356105.000000 0 0 1
-29.223740 -19.343406 18.140226 39.462161 0.584700 1.093154 0.052003 0.001805 -197911.000000 0 0 1
-28.384840 -20.629606 18.366026 39.605438 0.628476 1.088602 0.035280 0.006655 393345.000000 0 0 1
-27.245940 -20.468106 19.215326 39.121777 0.644291 1.057367 0.039267 0.005901 383577.000000 0 0 1
-26.601540 -21.672406 19.500526 39.466513 0.683643 1.053993 0.035950 0.011652 414276.000000 0 0 1
-25.198740 -21.547306 20.182826 38.815067 0.707444 1.023976 0.039344 0.010090 1196370.000000 0 0 1
-24.097540 -21.226206 19.329426 37.481596 0.722131 1.028967 0.046450 0.007106 1178280.000000 0 0 1
-22.834140 -21.010806 19.989226 36.910989 0.743836 0.998514 0.056771 0.006325 744171.000000 0 0 1
-21.741240 -20.732106 18.949526 35.518816 0.761643 1.008055 0.058241 -0.003898 -344377.000000 0 0 1
-21.451640 -21.781406 18.047126 35.500723 0.793026 1.037518 0.044521 0.000020 343461.000000 0 0 1
-20.113740 -21.703106 17.583226 34.420302 0.823388 1.034636 0.046104 0.005727 234139.000000 0 0 1
-19.780140 -22.514806 16.345326 34.137079 0.849965 1.071493 0.040774 0.015544 -583704.000000 0 0 1
-19.848140 -23.963006 16.460326 35.201089 0.879046 1.084213 0.034261 0.009050 -209142.000000 0 0 1
-18.762940 -24.703006 16.951926 35.350449 0.921217 1.070667 0.051119 -0.001298 461938.000000 0 0 1
-17.423640 -24.716406 16.135526 34.275927 0.956761 1.080651 0.052725 -0.007432 633140.000000 0 0 1
-16.688040 -23.523406 16.105226 33.033614 0.953774 1.061526 0.053715 -0.005657 820421.000000 0 0 1
-15.391140 -23.680906 15.456326 32.195816 0.994464 1.070059 0.043682 -0.006144 1136770.000000 0 0 1
-14.596140 -22.348206 15.445826 30.839312 0.992228 1.046217 0.039953 0.001552 -637531.000000 0 0 1
-15.007440 -21.239306 14.675626 29.861437 0.955663 1.057034 0.041207 -0.000263 -557274.000000 0 0 1
-16.143040 -20.562706 15.114526 30.197211 0.905229 1.046589 0.053651 0.001358 -421166.000000 0 0 1
-15.783840 -19.388706 16.069826 29.720210 0.887532 0.999523 0.049984 -0.005191 -40207.500000 0 0 1
-14.993640 -18.382706 15.418426 28.292420 0.886592 0.994447 0.040117 -0.004197 235882.000000 0 0 1
-14.927040 -17.139806 16.104026 27.855505 0.854294 0.954365 0.020881 -0.001330 -502556.000000 0 0 1
-14.343440 -16.008406 15.325226 26.398218 0.840199 0.951404 0.022040 -0.002123 -351794.000000 0 0 1
-15.177340 -15.341006 14.422226 25.955707 0.790761 0.981655 0.037303 -0.017832 -107043.000000 0 0 1
-15.407740 -15.989106 13.209826 25.836979 0.803913 1.034128 0.053285 -0.023337 93558.100000 0 0 1
-16.497840 -15.296806 12.342326 25.661334 0.747641 1.069036 0.057028 -0.013254 -651004.000000 0 0 1
-17.818740 -15.518906 12.680526 26.816780 0.716521 1.078265 0.047543 -0.010749 -503124.000000 0 0 1
-18.658940 -14.495506 12.078126 26.535955 0.660475 1.098244 0.071301 -0.012630 -633574.000000 0 0 1
-20.129240 -14.823406 12.239926 27.834071 0.634748 1.115480 0.052739 -0.009575 -830854.000000 0 0 1
-20.675140 -15.916606 11.493326 28.511337 0.656080 1.155879 0.056571 -0.013691 125971.000000 0 0 1
-20.759240 -15.796706 10.122626 27.981236 0.650471 1.200636 0.063690 -0.008718 -579285.000000 0 0 1
-21.522540 -16.934606 9.457126 28.973054 0.666659 1.238292 0.058212 0.000261 -78435.300000 0 0 1
-20.848540 -18.168506 9.431726 29.218380 0.716817 1.242109 0.059980 0.004294 -327993.000000 0 0 1
-21.636840 -19.151106 8.838526 30.216507 0.724531 1.273949 0.060265 -0.002551 -381662.000000 0 0 1
-21.090040 -20.569306 8.965126 30.793825 0.772899 1.275384 0.063927 0.002156 527823.000000 0 0 1
-19.911840 -20.718606 8.131226 29.864006 0.805252 1.295040 0.075008 -0.001641 341366.000000 0 0 1
-19.516440 -22.059606 8.230326 30.581955 0.846491 1.298313 0.070851 -0.002999 -620423.000000 0 0 1
-18.274840 -22.298406 7.398426 29.764500 0.884243 1.319597 0.065101 -0.009943 -714508.000000 0 0 1
-17.102040 -21.818306 8.000526 28.853539 0.905988 1.289834 0.051186 -0.012028 -330318.000000 0 0 1
-15.942340 -22.281506 7.331426 28.361480 0.949746 1.309328 0.054058 -0.007799 1352970.000000 0 0 1
-14.599040 -21.777706 8.056526 27.428235 0.980237 1.272669 0.011142 -0.008585 1266070.000000 0 0 1
-13.436240 -22.410506 7.538326 27.195399 1.030707 1.289927 0.020710 -0.000333 -503047.000000 0 0 1
-12.323840 -21.933906 8.223026 26.468688 1.058891 1.254899 0.025696 -0.007326 -477199.000000 0 0 1
-11.006740 -22.383006 7.575926 26.068026 1.113774 1.275920 0.028392 -0.006734 -157518.000000 0 0 1
-10.900740 -23.779806 7.461526 27.202568 1.140976 1.292940 0.022524 -0.000856 -785668.000000 0 0 1
-9.649740 -24.238206 7.054926 27.025546 1.191911 1.306690 0.031685 -0.004941 -227053.000000 0 0 1
-9.625340 -25.795436 7.102626 28.434117 1.213656 1.318330 0.026267 -0.006293 -12529.300000 0 0 1
-10.464140 -26.424286 6.125426 29.073390 1.193739 1.358517 0.035914 -0.006803 -167077.000000 0 0 1
-10.551940 -27.828456 6.250326 30.411067 1.208368 1.363793 0.048544 -0.007813 -499850.000000 0 0 1
-9.409140 -28.537616 5.549126 30.556837 1.252310 1.388183 0.048908 -0.012602 -272248.000000 0 0 1
-8.144540 -28.102276 6.013926 29.870366 1.288707 1.368077 0.037196 -0.012921 69833.500000 0 0 1
-6.973840 -28.843506 5.650126 30.207718 1.333567 1.382646 0.046256 -0.007834 1016050.000000 0 0 1
-6.808840 -30.208516 6.272026 31.595143 1.349106 1.370956 0.050364 -0.018180 -514122.000000 0 0 1
-6.751840 -30.142906 7.654826 31.824181 1.350439 1.327879 0.045370 -0.017884 10685.300000 0 0 1
-6.568840 -31.434726 8.148426 33.131383 1.364793 1.322304 0.066608 -0.020283 11305.400000 0 0 1
-6.781840 -31.456286 9.649326 33.594654 1.358451 1.279465 0.054724 -0.022757 444299.000000 0 0 1
-5.659840 -30.908236 10.369926 33.089095 1.389685 1.252031 0.036955 -0.018602 612180.000000 0 0 1
-5.859840 -31.183466 11.723626 33.825873 1.385048 1.216866 0.027031 -0.016657 41095.800000 0 0 1
-5.154840 -30.338816 12.834426 33.342745 1.402495 1.175671 0.024648 -0.014723 140260.000000 0 0 1
-5.548840 -29.003016 12.730726 32.156430 1.381761 1.163749 0.035619 -0.014246 170383.000000 0 0 1
-4.805840 -28.145896 13.586126 31.620728 1.401680 1.126681 0.021612 -0.020680 55442.600000 0 0 1
-5.611840 -27.690476 14.860426 31.923150 1.370841 1.086590 0.031095 -0.020738 369923.000000 0 0 1
-6.114840 -28.675776 15.747126 33.281578 1.360702 1.077935 0.030311 -0.022130 -113053.000000 0 0 1
-5.094840 -29.303986 16.465326 33.996882 1.398655 1.065212 0.017770 -0.015339 -235826.000000 0 0 1
-5.480840 -30.699196 16.938726 35.488036 1.394124 1.073208 0.017915 -0.012124 -34120.200000 0 0 1
-5.541840 -31.613846 15.906026 35.821068 1.397262 1.110693 0.014054 -0.008126 482898.000000 0 0 1
-6.377840 -32.658716 16.442826 37.116508 1.377936 1.111848 0.013861 -0.009361 200784.000000 0 0 1
-6.196840 -34.003596 15.767426 37.990224 1.390534 1.142811 0.011560 -0.009443 -192613.000000 0 0 1
-6.391840 -34.134774 14.378326 37.586895 1.385687 1.178257 0.016003 -0.017825 144674.000000 0 0 1
-5.617840 33.197757 13.890926 36.422644 -1.403161 1.179506 0.015185 -0.015851 -404957.000000 0 0 1
-4.409840 33.613675 13.071926 36.334571 -1.440349 1.202780 0.030862 -0.025021 -186367.000000 0 0 1
-4.763840 33.944194 11.685426 36.213970 -1.431364 1.242240 0.027195 -0.024737 -452023.000000 0 0 1
-3.574840 34.188103 11.034426 36.102138 -1.466611 1.260181 0.040017 -0.028940 -1183530.000000 0 0 1
-3.767840 -33.873406 9.572926 35.401203 1.460019 1.296975 0.042603 -0.028194 -663547.000000 0 0 1
-3.967840 33.597574 8.542926 34.893012 -1.453242 1.323450 0.056028 -0.032740 498047.000000 0 0 1
-4.897840 32.512075 8.712626 34.013728 -1.421274 1.311759 0.052182 -0.032057 1144580.000000 0 0 1
-6.366840 32.791121 9.198726 34.646945 -1.379019 1.302075 0.053325 -0.027326 156690.000000 0 0 1
-7.186840 33.375924 8.240226 35.121280 -1.358705 1.333967 0.061775 -0.021465 -665220.000000 0 0 1
-8.552140 33.363252 8.624126 35.505229 -1.319865 1.325445 0.054507 -0.022121 252243.000000 0 0 1
-9.396240 33.698893 7.361626 35.750500 -1.298873 1.363396 0.063285 -0.026994 -136543.000000 0 0 1
-9.260740 -33.425786 6.852726 35.355401 1.300522 1.375738 0.066646 -0.026199 -361255.000000 0 0 1
-9.767840 -33.466296 5.599126 35.309403 1.286814 1.411551 0.061581 -0.020243 -410383.000000 0 0 1
-9.952840 -32.091296 4.920526 33.957649 1.270062 1.425383 0.051953 -0.019826 8260.190000 0 0 1
-11.010840 -31.326336 5.418926 33.644356 1.232796 1.409027 0.066350 -0.023255 -1062640.000000 0 0 1
-12.198640 -31.318446 4.721926 33.940367 1.199371 1.431219 0.074777 -0.019423 -549178.000000 0 0 1
-13.322940 -30.560336 5.472826 33.784416 1.159683 1.408087 0.068437 -0.017249 -32986.200000 0 0 1
-13.920940 -31.241156 6.544826 34.822941 1.151611 1.381726 0.071334 -0.016702 -13584.700000 0 0 1
-14.914140 -30.463116 7.181026 34.669874 1.115519 1.362160 0.067325 -0.013454 282345.000000 0 0 1
33.451810 -12.820106 -12.861874 38.063191 -0.365976 1.915490 0.041079 -0.016019 89907.800000 0 0 1
32.355270 -12.667006 -11.963174 36.748252 -0.373155 1.902383 0.064726 -0.016042 341586.000000 0 0 1
31.956930 -13.841806 -11.156974 36.569373 -0.408745 1.880830 0.071756 -0.016630 194872.000000 0 0 1
32.951820 -14.353506 -10.062774 37.324322 -0.410807 1.843778 0.074457 -0.018973 432581.000000 0 0 1
34.192630 -14.745006 -10.617074 38.720452 -0.407139 1.848552 0.073140 -0.022342 -58914.200000 0 0 1
35.095700 -15.311406 -9.687174 39.496691 -0.411383 1.818590 0.071495 -0.024324 1404420.000000 0 0 1
-36.203975 -15.653306 -10.318574 40.770416 0.408092 1.826669 0.061038 -0.026362 1048520.000000 0 0 1
-35.389943 -14.559506 -10.636474 39.718533 0.390297 1.841901 0.055286 -0.023826 686148.000000 0 0 1
-34.036537 -15.006706 -10.857774 38.750205 0.415261 1.854798 0.060607 -0.027901 952947.000000 0 0 1
-33.172775 -13.813906 -11.374674 37.691382 0.394583 1.877360 0.076179 -0.032558 -77093.500000 0 0 1
-33.021125 -12.796206 -10.446074 36.922325 0.369698 1.857634 0.077142 -0.025580 257055.000000 0 0 1
-32.406665 -11.620506 -10.916474 36.116444 0.344301 1.877857 0.074885 -0.019319 -118860.000000 0 0 1
-32.951165 -10.345606 -10.196774 36.010902 0.304222 1.857882 0.072707 -0.018692 -50364.200000 0 0 1
-32.468795 -10.178306 -8.871974 35.164364 0.303777 1.825853 0.073854 -0.012800 517803.000000 0 0 1
-33.107335 -9.029006 -8.275074 35.300077 0.266245 1.807419 0.075455 -0.020396 -127212.000000 0 0 1
-32.706765 -8.676006 -6.850974 34.524505 0.259295 1.770560 0.065071 -0.019328 -391194.000000 0 0 1
-31.433525 -8.092206 -6.665274 33.135724 0.251967 1.773329 0.074380 -0.021122 245926.000000 0 0 1
-31.256465 -7.625706 -5.300174 32.606899 0.239297 1.734068 0.070539 -0.016617 130806.000000 0 0 1
-30.666415 -8.678706 -4.311074 32.161069 0.275792 1.705247 0.066230 -0.010808 -856685.000000 0 0 1
-31.633135 -9.605606 -4.011774 33.301911 0.294808 1.691556 0.061619 -0.013031 -192934.000000 0 0 1
-31.274945 -10.390106 -2.916674 33.084490 0.320747 1.659069 0.070079 -0.009694 -182644.000000 0 0 1
-31.790515 -11.830706 -2.982774 34.051423 0.356266 1.658505 0.071811 -0.016995 -686628.000000 0 0 1
-33.151225 -11.993006 -2.737074 35.359971 0.347119 1.648280 0.072062 -0.020360 -418746.000000 0 0 1
-33.465565 -13.333606 -2.704774 36.125406 0.379150 1.645738 0.077167 -0.018443 -1007850.000000 0 0 1
-34.955806 -13.538906 -2.524574 37.571051 0.369523 1.638042 0.052565 -0.016937 -838323.000000 0 0 1
-35.429583 -12.961506 -1.301574 37.748512 0.350715 1.605283 0.066631 -0.013516 -79336.800000 0 0 1
35.894230 -13.045206 -1.263174 38.212154 -0.348593 1.603859 0.106793 -0.026687 -96480.600000 0 0 1
35.164430 -12.032606 -0.284774 37.167214 -0.329692 1.578458 0.101970 -0.033033 79612.000000 0 0 1
35.395030 -12.138006 1.087626 37.434239 -0.330362 1.541738 0.108825 -0.027246 14454.100000 0 0 1
35.583950 -10.884506 1.763326 37.253178 -0.296845 1.523445 0.098196 -0.029264 -379786.000000 0 0 1
35.882910 -11.058706 3.304226 37.693449 -0.298952 1.483023 0.115167 -0.034026 349479.000000 0 0 1
34.855050 -11.669806 4.081026 36.982613 -0.323079 1.460221 0.123631 -0.039348 591289.000000 0 0 1
35.408210 -11.968206 5.398826 37.764091 -0.325951 1.427343 0.108407 -0.035284 -255535.000000 0 0 1
34.316630 -12.335806 6.397226 37.023340 -0.345087 1.397136 0.114262 -0.034206 171100.000000 0 0 1
33.519650 -11.197706 6.794326 35.987754 -0.322408 1.380861 0.112989 -0.033723 361404.000000 0 0 1
33.089870 -11.348706 8.118726 35.911646 -0.330395 1.342750 0.094013 -0.018662 -357397.000000 0 0 1
32.156850 -10.252706 8.610126 34.832675 -0.308645 1.321022 0.076022 -0.025516 491173.000000 0 0 1
30.852130 -10.170306 8.012626 33.458799 -0.318429 1.328969 0.076872 -0.023691 1117330.000000 0 0 1
29.928040 -9.391306 8.785826 32.574145 -0.304065 1.297696 0.071058 -0.011520 922797.000000 0 0 1
28.446550 -9.637206 8.337026 31.170305 -0.326647 1.300033 0.069467 -0.015044 394419.000000 0 0 1
28.119050 -9.011406 7.137326 30.378081 -0.310132 1.333629 0.092531 -0.025829 -89327.100000 0 0 1
27.190470 -9.743806 6.391026 29.582235 -0.344097 1.353037 0.080900 -0.035691 -277254.000000 0 0 1
26.400970 -8.852106 5.409826 28.366128 -0.323515 1.378907 0.086948 -0.038065 -13833.500000 0 0 1
25.854770 -7.691306 6.062326 27.647371 -0.289144 1.349727 0.107055 -0.036227 459198.000000 0 0 1
24.897570 -6.967106 5.322226 26.396129 -0.272852 1.367775 0.138433 -0.045815 -146870.000000 0 0 1
25.520970 -5.862006 4.409426 26.554210 -0.225777 1.403970 0.131617 -0.037770 -124786.000000 0 0 1
25.974970 -6.348506 3.165626 26.926265 -0.239709 1.452957 0.114156 -0.040461 700910.000000 0 0 1
26.765570 -5.359906 2.466126 27.408139 -0.197640 1.480697 0.128351 -0.029238 390345.000000 0 0 1
27.158270 -5.679206 0.997526 27.763646 -0.206145 1.534859 0.117149 -0.034317 -87575.300000 0 0 1
26.042770 -5.494006 0.161226 26.616460 -0.207912 1.564739 0.128248 -0.042062 314035.000000 0 0 1
26.507370 -5.628106 -1.172674 27.123632 -0.209215 1.614044 0.120414 -0.041043 -391608.000000 0 0 1
25.369870 -5.795706 -2.176474 26.114317 -0.224594 1.654237 0.113973 -0.038701 422153.000000 0 0 1
24.456870 -4.654806 -2.183174 24.991437 -0.188078 1.658265 0.117616 -0.033664 929993.000000 0 1 0
23.462770 -4.799806 -3.205974 24.162325 -0.201787 1.703874 0.080503 -0.032823 -222210.000000 0 1 0
22.463170 -3.675006 -3.177474 22.982515 -0.162165 1.709497 0.074954 -0.026481 -587160.000000 0 1 0
23.130870 -2.402106 -3.239374 23.479795 -0.103478 1.709202 0.084707 -0.026604 530547.000000 0 1 0
23.632870 -2.007506 -4.488474 24.138952 -0.084742 1.757828 0.090361 -0.026206 74208.600000 0 1 0
22.581970 -1.236006 -5.355774 23.241286 -0.054680 1.803328 0.079847 -0.016208 109418.000000 0 1 0
22.112070 -0.078206 -4.739174 22.614365 -0.003537 1.781926 0.055956 -0.004048 327843.000000 0 1 0
21.492570 0.723994 -5.762674 22.263493 0.033673 1.832617 0.074220 0.000737 -227174.000000 0 1 0
21.332770 2.204494 -5.375374 22.109760 0.102973 1.816380 0.080918 0.006798 82937.600000 0 1 0
22.539070 2.944094 -5.182374 23.313823 0.129886 1.794956 0.090829 0.001608 593265.000000 0 1 0
22.989770 2.954394 -3.855274 23.497257 0.127809 1.735615 0.092237 0.002536 -59484.500000 0 1 0
24.208970 3.845394 -3.568974 24.770927 0.157526 1.715379 0.085424 -0.007960 -72275.800000 0 1 0
23.834870 5.231394 -3.511374 24.653564 0.216059 1.713711 0.076260 0.004643 -158751.000000 0 1 0
24.905770 6.023294 -3.207474 25.823735 0.237287 1.695324 0.076736 -0.001984 -908813.000000 0 0 1
24.526270 7.518594 -3.284574 25.862242 0.297458 1.698143 0.067943 0.001706 61404.100000 0 0 1
23.681770 7.771994 -2.160074 25.017914 0.317110 1.657245 0.073122 -0.006740 492132.000000 0 0 1
22.836670 8.868594 -2.394974 24.615063 0.370422 1.668248 0.070687 -0.001843 7365.160000 0 1 0
21.675970 8.963494 -1.347274 23.494830 0.392109 1.628171 0.049423 -0.003383 126454.000000 0 1 0
22.035470 9.644494 -0.150274 24.054121 0.412562 1.577044 0.030561 -0.007600 988873.000000 0 1 0
20.860870 9.986694 0.573626 23.135232 0.446486 1.545999 0.004714 -0.007869 392750.000000 0 1 0
21.362470 10.578594 1.945726 23.917517 0.459796 1.489355 0.022859 -0.010393 -477906.000000 0 1 0
22.091270 11.785994 1.896626 25.110377 0.490098 1.495193 0.029067 -0.017524 134513.000000 0 0 1
21.508370 12.978394 1.457926 25.162953 0.542924 1.512824 0.037503 -0.008894 139020.000000 0 0 1
20.509070 13.715894 2.488026 24.797942 0.589459 1.470295 0.040099 -0.001302 -202903.000000 0 1 0
19.178670 13.297494 2.379926 23.458660 0.606248 1.469170 0.044307 0.000943 497994.000000 0 1 0
18.279770 14.117994 3.200626 23.317627 0.657639 1.433100 0.054710 0.001027 440259.000000 0 1 0
18.412470 13.920394 4.721126 23.560251 0.647350 1.369045 0.058338 0.001743 -765489.000000 0 1 0
17.939470 12.745694 5.226426 22.618417 0.617727 1.337620 0.032313 0.005654 216733.000000 0 1 0
18.254870 12.772694 6.565626 23.226911 0.610516 1.284216 0.048932 -0.011023 -205804.000000 0 1 0
18.205670 11.374594 7.218026 22.647907 0.558443 1.246432 0.012160 -0.006716 -341603.000000 0 1 0
19.293770 10.598294 6.806926 23.041433 0.502315 1.270900 0.012992 -0.009111 181782.000000 0 1 0
19.241570 9.302694 7.367426 22.606571 0.450335 1.238835 0.007865 -0.004075 85659.400000 0 1 0
20.165970 8.323994 6.586126 22.788862 0.391470 1.277608 0.005204 -0.008707 408848.000000 0 1 0
19.676870 7.981794 5.246526 21.872683 0.385362 1.328568 -0.015290 -0.011557 805027.000000 0 1 0
20.672870 7.256094 4.582826 22.383492 0.337562 1.364597 0.001500 -0.009281 -80447.000000 0 1 0
20.227270 6.932194 3.167326 21.615497 0.330170 1.423736 0.001673 -0.007152 -212437.000000 0 1 0
21.208070 6.084994 2.610726 22.217679 0.279413 1.453018 0.000703 -0.009017 653932.000000 0 1 0
21.055470 6.100694 1.185526 21.953513 0.282021 1.516768 0.010349 0.003360 -20107.400000 0 1 0
22.252270 5.392194 0.463526 22.900963 0.237738 1.550554 0.052350 0.002766 382609.000000 0 1 0
22.183970 3.988094 0.635026 22.548540 0.177874 1.542630 0.046659 0.001690 122183.000000 0 1 0
23.309270 3.367094 0.091326 23.551384 0.143461 1.566919 0.062319 -0.005678 -456764.000000 0 1 0
23.286670 1.854094 0.078026 23.360495 0.079453 1.567456 0.088150 -0.011389 429344.000000 0 1 0
22.354170 1.306494 -0.921674 22.411276 0.058379 1.611933 0.070664 -0.010685 1296220.000000 0 1 0
22.552070 0.008794 -1.436974 22.597805 0.000390 1.634428 0.086383 -0.013213 -1012270.000000 0 1 0
22.182070 -1.170106 -0.463774 22.217751 -0.052701 1.591672 0.089268 -0.011369 -72300.900000 0 1 0
23.105070 -1.370206 0.588326 23.153139 -0.059234 1.545383 0.091559 -0.012368 231605.000000 0 1 0
24.334170 -1.947806 0.196126 24.412788 -0.079874 1.562762 0.098147 -0.017217 -104627.000000 0 1 0
25.378070 -1.744306 1.339826 25.473205 -0.068625 1.518175 0.106099 -0.017746 -54195.500000 0 0 1
25.417270 -0.467006 1.834526 25.487667 -0.018372 1.498757 0.094490 -0.014505 480030.000000 0 0 1
26.310570 -0.349206 2.932026 26.475740 -0.013272 1.459825 0.098623 -0.014009 -404891.000000 0 0 1
26.186870 0.990694 3.774926 26.476096 0.037814 1.427730 0.092168 -0.006206 -138063.000000 0 0 1
26.622570 2.223394 3.254026 26.912699 0.083322 1.449589 0.101447 -0.003527 732208.000000 0 0 1
27.960660 2.225094 2.739626 28.182531 0.079412 1.473432 0.111594 -0.007914 207322.000000 0 0 1
28.205870 3.394394 1.767926 28.464338 0.119768 1.508646 0.123425 -0.017663 -74967.200000 0 0 1
27.491270 3.229194 0.541926 27.685579 0.116927 1.551221 0.124130 -0.009467 298230.000000 0 0 1
27.630270 4.291594 -0.380474 27.964162 0.154091 1.584403 0.111466 -0.012517 -303781.000000 0 0 1
28.894040 4.278094 -1.260974 29.236239 0.146994 1.613940 0.109732 -0.014705 -311818.000000 0 0 1
30.082580 4.550094 -0.541874 30.429567 0.150116 1.588605 0.109410 -0.015033 -508624.000000 0 0 1
31.167690 4.182494 -1.368074 31.476813 0.133396 1.614273 0.091667 -0.013330 -1000770.000000 0 0 1
32.396060 4.474694 -0.530974 32.707942 0.137256 1.587031 0.056199 -0.016996 -1001950.000000 0 0 1
32.654500 3.582994 0.541926 32.854952 0.109287 1.554301 0.055898 -0.022078 228231.000000 0 0 1
32.247540 4.177994 1.738326 32.563495 0.128842 1.517388 0.062352 -0.004916 -211371.000000 0 0 1
32.410820 3.189494 2.905726 32.696748 0.098092 1.481810 0.059277 -0.005064 -190353.000000 0 0 1
31.318220 2.291194 3.045226 31.549229 0.073028 1.474123 0.073387 -0.010466 314372.000000 0 0 1
31.396190 1.418494 4.145426 31.700432 0.045150 1.439652 0.068736 -0.015579 -406182.000000 0 0 1
32.477000 0.310594 4.098326 32.736039 0.009563 1.445274 0.071227 -0.013204 688048.000000 0 0 1
33.802920 0.812694 4.290626 34.083828 0.024037 1.444577 0.065279 -0.020161 339080.000000 0 0 1
34.797930 -0.074206 3.894326 35.015242 -0.002132 1.459348 0.049813 -0.020395 -850592.000000 0 0 1
36.215730 0.431394 4.188226 36.459654 0.011911 1.455669 0.065406 -0.029509 -52121.100000 0 0 1
-36.015253 1.621694 3.506826 36.221902 -0.044998 1.473829 0.061516 -0.028716 449568.000000 0 0 1
-35.838456 1.469894 2.109426 35.930561 -0.040991 1.512054 0.074425 -0.024908 -895802.000000 0 0 1
-35.618353 2.850594 1.330526 35.757003 -0.079861 1.533578 0.066927 -0.021892 218200.000000 0 0 1
-34.403122 3.565494 1.468526 34.618552 -0.103270 1.528363 0.093408 -0.034191 103448.000000 0 0 1
-33.312595 2.950594 0.836026 33.453460 -0.088342 1.545803 0.115739 -0.035742 -1268640.000000 0 0 1
-32.004105 3.565394 1.322926 32.229256 -0.110947 1.529737 0.134782 -0.042970 -781488.000000 0 0 1
-31.635695 3.128894 2.590026 31.895383 -0.098583 1.489503 0.140811 -0.048193 71615.700000 0 0 1
-30.829845 4.055294 3.279426 31.267865 -0.130787 1.465721 0.157017 -0.038770 -771283.000000 0 0 1
-31.218635 4.221094 4.757626 31.859941 -0.134396 1.420906 0.153834 -0.042280 -639215.000000 0 0 1
-32.411185 4.940094 4.973326 33.160571 -0.151255 1.420251 0.128150 -0.023447 -96810.900000 0 0 1
-33.602665 4.213994 4.892826 34.217490 -0.124755 1.427313 0.124795 -0.021282 -889738.000000 0 0 1
-33.881655 3.261094 6.047626 34.571304 -0.095954 1.394960 0.099483 -0.013690 -1387740.000000 0 0 1
-34.116369 3.991194 7.235826 35.102898 -0.116458 1.363176 0.093308 -0.010277 370341.000000 0 0 1
-34.027835 3.265794 8.414626 35.204615 -0.095681 1.329439 0.085615 -0.012208 -343306.000000 0 0 1
-35.015083 2.096594 8.586226 36.113363 -0.059805 1.330740 0.061918 -0.012563 -633826.000000 0 0 1
-34.856813 0.959794 7.725326 35.715533 -0.027528 1.352772 0.061719 -0.019284 979397.000000 0 0 1
-35.971160 0.030894 7.803526 36.807884 -0.000859 1.357168 0.068424 -0.015427 647888.000000 0 0 1
-35.890390 -0.840406 9.073026 37.028992 0.023412 1.323251 0.063755 -0.006304 -902192.000000 0 0 1
-34.743107 -1.576006 9.315526 36.004810 0.045331 1.309089 0.072134 -0.023917 -389913.000000 0 0 1
-34.833457 -2.361606 10.489626 36.455167 0.067693 1.278930 0.075516 -0.011331 -341051.000000 0 0 1
-33.546325 -3.115206 10.824626 35.386904 0.092597 1.259919 0.062203 -0.014814 -403341.000000 0 0 1
-33.212495 -4.191206 10.001926 34.938154 0.125530 1.280459 0.079860 -0.020119 -379326.000000 0 0 1
-31.934745 -4.690906 10.226026 33.858591 0.145847 1.263984 0.097251 -0.021681 -422822.000000 0 0 1
-31.512355 -5.712906 9.097726 33.293159 0.179343 1.294015 0.080409 -0.025222 -105443.000000 0 0 1
-32.267045 -6.862806 9.127726 34.228288 0.209565 1.300858 0.075498 -0.024799 -167291.000000 0 0 1
-31.904775 -7.618506 8.012326 33.766162 0.234400 1.331223 0.075599 -0.022829 -118482.000000 0 0 1
-32.848085 -8.815506 7.999326 34.938504 0.262194 1.339793 0.075252 -0.022180 526992.000000 0 0 1
-34.215924 -8.386006 7.979526 36.121011 0.240353 1.348048 0.087450 -0.032515 53078.800000 0 0 1
-35.062389 -9.475806 7.915426 37.172786 0.263950 1.356217 0.102698 -0.030755 -248678.000000 0 0 1
7.292465 -24.146806 11.154926 27.580440 -1.277501 1.154418 0.079954 -0.017975 -149777.000000 0 0 1
6.941565 -24.592006 9.895626 27.402108 -1.295685 1.201321 0.065591 -0.017115 66292.800000 0 0 1
5.888765 -25.556036 9.959526 28.053176 -1.344324 1.207858 0.064554 -0.013845 537750.000000 0 0 1
5.576065 -26.274316 8.658426 28.220569 -1.361674 1.258954 0.051208 -0.008376 -50634.700000 0 0 1
5.205165 -25.439756 7.601926 27.056685 -1.368974 1.285999 0.056828 -0.008681 -321013.000000 0 0 1
5.011565 -26.290706 6.505326 27.543353 -1.382435 1.332358 0.046296 -0.006189 -458709.000000 0 0 1
4.306465 -25.677486 5.264526 26.563023 -1.404629 1.371285 0.049296 -0.008977 1993970.000000 0 0 1
2.847265 -25.629496 5.333426 26.332934 -1.460157 1.366847 0.039679 -0.012561 1301890.000000 0 0 1
2.193165 -26.855316 5.067326 27.417071 -1.489311 1.384904 0.041255 -0.009924 109841.000000 0 0 1
0.645965 -26.768166 4.934726 27.226890 -1.546669 1.388544 0.050018 -0.016063 213882.000000 0 0 1
0.077365 -26.475236 6.143326 27.178752 -1.567874 1.342792 0.050539 -0.011469 -916096.000000 0 0 1
-1.316235 -26.545606 6.265526 27.306749 1.521253 1.339284 0.042347 -0.014353 81194.000000 0 0 1
-2.057935 -27.861516 6.524326 28.689127 1.497067 1.341374 0.041072 -0.010147 -230527.000000 0 0 1
-1.978235 -28.463866 7.838626 29.589680 1.501408 1.302685 0.041080 -0.012790 -102402.000000 0 0 1
-2.548735 -29.755796 7.900726 30.892150 1.485350 1.312171 0.039173 -0.010375 47524.000000 0 0 1
-2.234635 -30.429366 9.262926 31.886388 1.497491 1.276049 0.033301 -0.010368 1310640.000000 0 0 1
-0.863335 -30.865996 9.440926 32.289103 1.542833 1.274074 0.032686 -0.009698 921947.000000 0 0 1
-0.655935 -31.152866 10.798126 32.977733 1.549744 1.237207 0.027649 -0.006716 110232.000000 0 0 1
0.824865 -31.299746 11.204026 33.254845 -1.544449 1.227159 0.035938 -0.012804 138146.000000 0 0 1
1.404265 -32.562876 10.854026 34.352915 -1.527698 1.249332 0.047380 -0.013693 311659.000000 0 0 1
2.783265 -32.626656 11.225726 34.615924 -1.485696 1.240531 0.061726 -0.009051 828911.000000 0 0 1
3.102165 -33.424576 12.525526 35.828962 -1.478251 1.213661 0.064177 -0.009707 -267607.000000 0 0 1
2.441665 -32.872986 13.578426 35.650647 -1.496657 1.180054 0.040827 -0.014268 -44748.700000 0 0 1
3.155965 -33.258956 14.757526 36.522635 -1.476189 1.154840 0.044875 -0.011305 22927.500000 0 0 1
2.756565 -32.442756 16.020926 36.287755 -1.486033 1.113530 0.045888 -0.016591 6779.910000 0 0 1
3.244665 -31.092196 16.022826 35.128101 -1.466816 1.097160 0.049678 -0.021076 1123710.000000 0 0 1
4.644265 -30.956646 16.380826 35.330081 -1.421882 1.088685 0.046054 -0.012710 1032600.000000 0 0 1
5.241865 -29.707686 15.742526 34.027208 -1.396146 1.089820 0.059815 -0.017705 -85533.000000 0 0 1
5.545165 -29.716256 14.334126 33.455521 -1.386314 1.128016 0.051633 -0.015057 631027.000000 0 0 1
4.351565 -29.374776 13.611526 32.666301 -1.423726 1.141002 0.046940 -0.000741 358750.000000 0 0 1
4.652065 -29.125836 12.112326 31.885177 -1.412411 1.181137 0.040392 0.002706 366274.000000 0 0 1
5.158365 -30.286596 11.381726 32.763247 -1.402097 1.216007 0.045953 -0.005122 669706.000000 0 0 1
6.578565 -30.438236 11.461226 33.183180 -1.357942 1.218139 0.045788 -0.003750 312759.000000 0 0 1
7.072265 -31.778986 10.855526 34.318557 -1.351820 1.248952 0.035444 -0.002001 -162164.000000 0 0 1
6.721765 -32.887736 11.617926 35.521283 -1.369188 1.237596 0.029151 -0.004915 242131.000000 0 0 1
7.217665 -34.050667 10.950226 36.489041 -1.361920 1.266003 0.049360 -0.003765 -52182.800000 0 0 1
6.968265 33.035995 11.650926 35.716631 1.362914 1.238511 0.048296 -0.004433 -446976.000000 0 0 1
5.629865 32.779310 11.953626 35.342152 1.400705 1.225765 0.045731 -0.008961 -567553.000000 0 0 1
5.430965 31.442621 12.393826 34.230698 1.399758 1.200311 0.057778 -0.012957 337466.000000 0 0 1
4.148365 31.234331 13.244726 34.179162 1.438755 1.172869 0.048419 -0.014714 202336.000000 0 0 1
4.235365 31.567941 14.611526 35.042401 1.437426 1.140690 0.053550 -0.010632 -898588.000000 0 0 1
3.087065 31.416391 15.356826 35.104867 1.472848 1.118029 0.058400 -0.011068 -735100.000000 0 0 1
3.302165 31.638341 16.896726 36.019276 1.466801 1.082522 0.060710 -0.009394 -120753.000000 0 0 1
3.449665 32.999443 17.245526 37.393470 1.466638 1.091459 0.053474 -0.006744 400797.000000 0 0 1
3.991465 33.038335 18.597326 38.122485 1.450566 1.061193 0.046654 -0.004465 261770.000000 0 0 1
4.414765 -33.971316 19.119626 39.231372 -1.441565 1.061738 0.041270 -0.008008 1010250.000000 0 0 1
3.245465 -33.290956 19.619726 38.778273 -1.473616 1.040318 0.036930 -0.013472 832171.000000 0 0 1
3.676365 -32.245496 20.488426 38.380507 -1.457275 1.007680 0.041164 -0.018555 -130021.000000 0 0 1
2.506165 -31.453426 21.031226 37.919802 -1.491286 0.982885 0.031351 -0.017649 -656996.000000 0 0 1
1.709665 -32.208636 21.876326 38.972976 -1.517765 0.974816 0.034757 -0.007832 -297240.000000 0 0 1
0.636265 -31.399786 22.348226 38.546007 -1.550536 0.952337 0.034410 -0.007634 865005.000000 0 0 1
-0.603035 -32.224616 22.913826 39.545328 1.552085 0.952765 0.028856 0.001542 -544763.000000 0 0 1
-1.318735 -32.777496 21.875626 39.429004 1.530585 0.982661 0.024443 -0.002843 -701125.000000 0 0 1
-2.083935 -33.886126 22.224626 40.577658 1.509375 0.991176 0.033835 -0.001683 142409.000000 0 0 1
-3.369335 -33.535666 23.052626 40.834017 1.470662 0.970915 0.049698 -0.003230 27821.800000 0 0 1
-4.435835 -33.043986 22.225726 40.069497 1.437354 0.982819 0.038249 -0.003712 -197219.000000 0 0 1
-5.510535 -32.637686 22.997526 40.304724 1.403534 0.963571 0.037860 -0.000981 -260853.000000 0 0 1
-6.806735 -32.114456 22.346926 39.712153 1.361935 0.973121 0.041466 -0.000398 437895.000000 0 0 1
-7.560435 -33.086846 21.655226 40.259762 1.346150 1.002867 0.023717 0.007958 132209.000000 0 0 1
-8.790735 -32.662726 21.130026 39.882436 1.307889 1.012422 0.040688 -0.005762 -68551.400000 0 0 1
-9.863135 -33.679526 20.743926 40.766437 1.285910 1.036950 0.055236 -0.005207 52851.000000 0 0 1
-10.402235 34.093984 21.883026 41.826703 -1.274663 1.020215 0.071540 -0.016825 -350720.000000 0 0 1
-11.800035 33.972580 21.718726 42.012856 -1.236493 1.027507 0.067639 -0.018203 -162723.000000 0 0 1
-12.486935 33.687146 23.033626 42.676636 -1.215824 1.000687 0.069811 -0.022841 -586842.000000 0 0 1
-12.523235 -33.666986 23.994126 43.197401 1.214681 0.981889 0.079971 -0.025492 -11760.800000 0 0 1
-11.338635 -33.105186 24.549426 42.745670 1.240816 0.959031 0.068873 -0.021181 95730.200000 0 0 1
-11.622435 -31.748996 25.279426 42.215272 1.219875 0.928767 0.070483 -0.024061 115547.000000 0 0 1
-12.319535 -32.050916 26.473326 43.357458 1.203833 0.914000 0.075255 -0.033235 -53839.600000 0 0 1
-13.229235 -31.012626 26.748626 43.038177 1.167592 0.900129 0.086406 -0.034472 23883.500000 0 0 1
-14.023935 -31.094116 28.099526 44.193871 1.147098 0.881721 0.062985 -0.030792 -108083.000000 0 0 1
-13.259435 -30.895656 29.255826 44.567450 1.165400 0.854707 0.059416 -0.016374 -29585.600000 0 0 1
-14.096135 -30.230626 30.198226 44.994718 1.134481 0.835037 0.059997 -0.023804 15781.000000 0 0 1
-13.427635 -29.685896 31.463926 45.293846 1.146012 0.802846 0.042328 -0.018390 -356374.000000 0 0 1
-14.286435 -28.967316 32.336526 45.704032 1.112610 0.784813 0.037075 -0.019911 282335.000000 0 0 1
-13.668535 -28.465526 33.513726 46.046551 1.123131 0.755655 0.030835 -0.013112 -365782.000000 0 0 1
-13.010635 -29.470276 -33.958709 46.807775 1.155047 2.382547 0.032109 -0.005406 -389490.000000 0 0 1
-11.723735 -29.883416 34.076526 46.815320 1.196932 0.755553 0.037905 -0.004686 -468964.000000 0 0 1
-11.356235 -30.878996 -33.459509 46.925635 1.218383 2.364610 0.041768 0.000907 -229351.000000 0 0 1
-9.925935 -31.380366 -33.647909 47.068391 1.264444 2.367238 0.036727 0.001007 -82922.300000 0 0 1
-8.871735 -30.549666 -33.218009 45.993760 1.288167 2.377815 0.054166 -0.009134 481421.000000 0 0 1
-7.608835 -31.217476 -33.151809 46.167821 1.331721 2.371824 0.069730 -0.015001 1309230.000000 0 0 1
-6.528435 -30.522816 -32.229109 44.866226 1.360084 2.372207 0.082207 -0.015204 609683.000000 0 0 1
-6.929535 -30.515646 -30.895209 43.974278 1.347502 2.349805 0.078257 -0.025131 -380573.000000 0 0 1
-6.009235 -29.715666 -30.240109 42.820508 1.371263 2.354922 0.075908 -0.023896 -100194.000000 0 0 1
-6.171935 -29.678516 -28.701709 41.745601 1.365759 2.328890 0.068354 -0.016030 -64959.700000 0 0 1
-5.768735 -30.847666 -27.999709 42.057586 1.385924 2.299291 0.065372 -0.013461 157531.000000 0 0 1
-6.656435 -31.141256 -26.923109 41.700597 1.360215 2.272643 0.069880 -0.016294 186317.000000 0 0 1
-6.363635 -32.483636 -26.174409 42.199315 1.377343 2.239866 0.067211 -0.022802 -16765.100000 0 0 1
-5.450335 -32.311696 -25.132309 41.296306 1.403689 2.225072 0.047157 -0.020935 -279451.000000 0 0 1
-5.095235 -33.549396 -24.528009 41.870594 1.420075 2.196669 0.055532 -0.029493 -89178.200000 0 0 1
-4.186635 -33.412926 -23.297809 40.948010 1.446146 2.176038 0.059546 -0.035523 235164.000000 0 0 1
-4.847535 -32.889636 -22.108109 39.924870 1.424462 2.157649 0.067905 -0.032300 350556.000000 0 0 1
-4.901635 -31.452796 -22.128609 38.768283 1.416199 2.178266 0.046779 -0.016686 -192185.000000 0 0 1
-5.386435 -30.819186 -20.810809 37.575600 1.397769 2.157764 0.067079 -0.024423 230238.000000 0 0 1
-6.804135 -30.905046 -20.661409 37.793015 1.354091 2.149213 0.081246 -0.032072 922244.000000 0 0 1
-7.538435 -29.683186 -20.383409 36.788625 1.322091 2.158040 0.081175 -0.030518 385018.000000 0 0 1
-7.631935 -28.780566 -21.585509 36.776374 1.311586 2.198070 0.084485 -0.044328 -150715.000000 0 0 1
-6.392235 -28.193266 -22.008609 36.333178 1.347837 2.221497 0.073293 -0.024697 305309.000000 0 0 1
-6.497635 -27.707446 -23.349109 36.811720 1.340450 2.257879 0.107136 -0.039657 -256005.000000 0 0 1
-5.197735 -27.983336 -24.149909 37.326957 1.387145 2.274417 0.108017 -0.033131 1373090.000000 0 0 1
-3.982035 -27.267506 -23.843909 36.440438 1.425785 2.284087 0.101029 -0.028394 799847.000000 0 0 1
-3.413135 -27.377506 -22.579309 35.651123 1.446767 2.256659 0.058499 -0.027677 -588994.000000 0 0 1
-1.887035 -27.068406 -22.605909 35.316946 1.501195 2.265408 0.068492 -0.021680 553397.000000 0 0 1
-1.317535 -25.752276 -22.828209 34.438972 1.519679 2.295428 0.075441 -0.025876 223077.000000 0 0 1
-1.845435 -24.774006 -21.937309 33.142157 1.496443 2.294168 0.088732 -0.031588 -662266.000000 0 0 1
-2.144335 -23.435606 -22.648009 32.661264 1.479551 2.337023 0.090567 -0.026690 664914.000000 0 0 1
-3.101935 -23.459606 -23.739009 33.518886 1.439334 2.357781 0.074162 -0.033970 490450.000000 0 0 1
-4.445935 -23.552506 -23.315509 33.438000 1.384225 2.342386 0.083331 -0.038901 -364215.000000 0 0 1
-5.441935 -23.555106 -24.494409 34.415604 1.343750 2.362746 0.064306 -0.032168 14301.800000 0 0 1
-5.431735 -22.317706 -25.109009 34.030077 1.332056 2.400672 0.082856 -0.031635 20113.400000 0 0 1
-6.191235 -22.361206 -26.302909 35.074178 1.300689 2.418741 0.085332 -0.034834 -124460.000000 0 0 1
-6.193935 -21.051106 -27.136409 34.898404 1.284638 2.461609 0.104086 -0.027633 -195603.000000 0 0 1
-6.215035 -21.259406 -28.545609 36.130885 1.286379 2.481705 0.102235 -0.030234 -163388.000000 0 0 1
-4.980135 -21.572706 -29.127609 36.586897 1.343917 2.491655 0.088967 -0.034907 -392683.000000 0 0 1
-5.221835 -22.035706 -30.553509 38.030999 1.338117 2.503754 0.104230 -0.043719 -32247.600000 0 0 1
-5.720235 -21.064806 -31.432309 38.267966 1.305637 2.534612 0.108996 -0.041717 -343740.000000 0 0 1
-6.539335 -21.638406 -32.404909 39.510273 1.277314 2.532494 0.107595 -0.039952 -347963.000000 0 0 1
-6.610835 -20.864906 -33.732309 40.210896 1.263963 2.566027 0.083312 -0.028463 -551213.000000 0 0 1
-5.427435 -20.933706 33.985026 40.282243 1.317114 0.566708 0.095118 -0.029550 -958355.000000 0 0 1
-5.564035 -20.362506 32.688926 38.912158 1.304059 0.573385 0.098607 -0.026403 373563.000000 0 0 1
-4.327435 -20.647306 31.799226 38.160565 1.364198 0.585745 0.070373 -0.020343 -1283510.000000 0 0 1
-4.262635 -22.114006 31.574126 38.783048 1.380375 0.619581 0.090734 -0.019856 987544.000000 0 0 1
-3.113635 -22.559106 30.777526 38.286605 1.433642 0.637020 0.080787 -0.007983 1777130.000000 0 0 1
-1.724635 -22.200006 31.416426 38.507226 1.493266 0.616585 0.060765 -0.012996 -387355.000000 0 0 1
-1.362235 -20.859606 31.113726 37.483901 1.505584 0.591589 0.044738 -0.010999 245634.000000 0 0 1
-0.410735 -20.176106 31.981126 37.815822 1.550442 0.562907 0.052177 -0.015474 486549.000000 0 0 1
-0.948135 -19.760406 33.421926 38.838097 1.522852 0.534458 0.042178 -0.016250 -132699.000000 0 0 1
-1.938935 -18.770206 33.300626 38.275473 1.467863 0.515543 0.038767 -0.018398 -616537.000000 0 0 1
-2.566135 -18.721706 -33.884709 38.797691 1.434578 2.632874 0.053194 -0.021609 262658.000000 0 0 1
-3.607835 -17.527906 -33.847709 38.287222 1.367798 2.655248 0.060356 -0.031014 598396.000000 0 0 1
-2.993835 -16.237206 -33.940509 37.743451 1.388463 2.688831 0.053200 -0.030139 -404635.000000 0 0 1
-3.896535 -15.193806 -33.763109 37.228783 1.319751 2.706685 0.056885 -0.034083 -341414.000000 0 0 1
-3.363835 -13.761206 -34.029809 36.860739 1.331054 2.747120 0.052894 -0.039557 -260190.000000 0 0 1
-2.372035 -13.281406 -33.130709 35.772422 1.394062 2.754876 0.060044 -0.038604 -9035.770000 0 0 1
-2.147735 -11.872306 -33.170809 35.296841 1.391829 2.792745 0.055146 -0.033705 266939.000000 0 0 1
-1.450535 -11.399206 33.933626 35.826484 1.444228 0.326515 0.046288 -0.032339 -32106.800000 0 0 1
-2.336835 -11.463606 32.812426 34.835763 1.369703 0.342501 0.045051 -0.025931 328905.000000 0 0 1
-1.740635 -10.956206 31.618726 33.508389 1.413241 0.337437 0.027921 -0.014522 24520.400000 0 0 1
-0.862135 -11.988006 30.836926 33.096398 1.499003 0.371647 0.032908 -0.017869 316130.000000 0 0 1
-1.542535 -13.054706 30.212326 32.948284 1.453182 0.410398 0.044753 -0.022955 -418083.000000 0 0 1
-0.598335 -13.932206 29.699126 32.810097 1.527876 0.438987 0.045925 -0.023924 -220306.000000 0 0 1
-0.705635 -15.326706 30.329926 33.989855 1.524789 0.468331 0.050021 -0.015954 -341136.000000 0 0 1
-1.693835 -16.114106 29.742426 33.869535 1.466066 0.498822 0.053097 -0.018119 -201269.000000 0 0 1
-1.837735 -17.303506 30.379626 35.010146 1.464987 0.520164 0.059236 -0.015081 -242415.000000 0 0 1
-2.641235 -18.333306 29.567126 34.889844 1.427713 0.559648 0.055702 -0.009016 297638.000000 0 0 1
-3.969535 -17.948306 29.196326 34.501078 1.353135 0.561901 0.058717 -0.011080 229163.000000 0 0 1
-4.654035 -18.875106 28.440926 34.450195 1.329048 0.599591 0.065567 -0.017298 -282995.000000 0 0 1
-4.197335 -19.085006 26.981526 33.314529 1.354314 0.626810 0.061150 -0.017747 -303039.000000 0 0 1
-5.009735 -19.886606 26.106626 33.198351 1.324016 0.665864 0.071076 -0.016338 -169013.000000 0 0 1
-4.574335 -21.213106 26.060426 33.912627 1.358411 0.694369 0.072136 -0.014596 -165134.000000 0 0 1
-29.069065 33.995994 -0.660774 44.734492 -0.863364 1.585568 0.047954 -0.014090 44285.900000 0 0 1
-28.472395 -33.198723 -0.317574 43.737094 0.861886 1.578057 0.048267 0.008055 -60523.400000 0 0 1
-29.123435 -32.615823 0.810426 43.733548 0.841905 1.552264 0.022494 0.010394 85337.300000 0 0 1
-28.526755 -31.228023 1.227726 42.313976 0.830573 1.541778 0.038707 0.000026 1613790.000000 0 0 1
-27.093905 -31.230723 1.488426 41.372131 0.856207 1.534812 0.044405 -0.013451 961927.000000 0 0 1
-26.761865 -29.924723 1.888426 40.190206 0.841136 1.523792 0.050108 -0.017554 -350504.000000 0 0 1
-25.284875 -29.715823 2.203826 39.079559 0.865786 1.514373 0.058965 -0.024193 -482998.000000 0 0 1
-24.817135 -30.619023 3.194926 39.542665 0.889677 1.489911 0.044100 -0.017475 -1460140.000000 0 0 1
-23.444035 -30.609623 3.182026 38.687170 0.917194 1.488453 0.054547 -0.012429 -1438800.000000 0 0 1
-22.935635 -31.251423 4.462326 39.020600 0.937675 1.456187 0.055565 -0.020084 -231999.000000 0 0 1
-23.274635 -30.539423 5.691326 38.816958 0.919585 1.423646 0.038603 -0.015045 -76780.000000 0 0 1
-22.549035 -31.119123 6.773826 39.022347 0.943748 1.396324 0.023974 -0.006654 112465.000000 0 0 1
-23.119935 -30.586123 8.115826 39.190675 0.923532 1.362201 0.026059 0.007479 -18136.000000 0 0 1
-22.868835 -29.214323 8.390026 38.037519 0.906634 1.348395 0.043815 -0.007865 -197737.000000 0 0 1
-23.343135 -28.878223 9.654726 38.367532 0.890997 1.316424 0.031400 -0.002623 -268135.000000 0 0 1
-22.688535 -27.641223 10.235126 37.196299 0.883487 1.292035 0.029311 -0.001078 -508994.000000 0 0 1
-21.466135 -27.934923 10.830026 36.857080 0.915602 1.272556 0.042921 -0.009781 -919029.000000 0 0 1
-20.892535 -26.827123 11.477426 35.887657 0.909126 1.245262 0.045742 -0.006199 137914.000000 0 0 1
-19.512835 -27.097723 12.114726 35.521880 0.946713 1.222763 0.044957 -0.006061 55386.000000 0 0 1
-19.381035 -28.134923 13.080326 36.582692 0.967586 1.205148 0.048322 0.000916 -123232.000000 0 0 1
-18.054235 -28.170823 13.589126 36.113918 1.000856 1.185013 0.065827 -0.010623 434468.000000 0 0 1
-18.007835 -29.182923 14.709526 37.313474 1.017922 1.165583 0.086055 -0.025722 -69363.000000 0 0 1
-18.034835 -30.559523 14.306426 38.259817 1.037648 1.187555 0.088322 -0.024814 -42709.400000 0 0 1
-18.059635 -31.404023 15.466526 39.390056 1.048906 1.167285 0.098357 -0.025324 78665.500000 0 0 1
-17.601135 -32.827423 15.118226 40.199508 1.078632 1.185234 0.094536 -0.036102 75177.600000 0 0 1
-17.714935 -33.790723 16.148026 41.429346 1.087934 1.170412 0.102587 -0.030661 106480.000000 0 0 1
-17.168335 33.408394 15.708826 40.714122 -1.096096 1.174686 0.081856 -0.028890 -223868.000000 0 0 1
-17.207735 32.207694 16.696026 40.152198 -1.080107 1.141954 0.071801 -0.025980 -650027.000000 0 0 1
-18.491635 31.867594 17.110026 40.623110 -1.045015 1.136040 0.084943 -0.029154 -475427.000000 0 0 1
-18.523735 30.867494 18.064026 40.277040 -1.030300 1.105716 0.056133 -0.019216 -222118.000000 0 0 1
-19.238735 31.109394 19.393626 41.400918 -1.016941 1.083278 0.052383 -0.027432 -227605.000000 0 0 1
-18.663635 32.028694 20.318326 42.272957 -1.043183 1.069405 0.058839 -0.024179 255653.000000 0 0 1
-19.545735 32.307894 21.417026 43.411113 -1.026721 1.054855 0.050124 -0.017801 318489.000000 0 0 1
-18.993735 33.444794 22.293526 44.455793 -1.054304 1.045492 0.043744 -0.005503 846105.000000 0 0 1
-17.788335 33.063294 22.994926 44.026956 -1.077206 1.021260 0.036818 -0.018408 565779.000000 0 0 1
-17.456735 33.798594 24.161426 45.065031 -1.094042 1.004932 0.036594 -0.023135 -308745.000000 0 0 1
-18.074935 33.277994 25.447526 45.625703 -1.073228 0.979129 0.019986 -0.026720 295360.000000 0 0 1
-19.492135 33.420794 25.364626 46.262912 -1.042796 0.990501 -0.003492 -0.027325 492642.000000 0 0 1
-20.176035 32.298394 25.952226 46.084452 -1.012430 0.972610 -0.014013 -0.016997 96393.400000 0 0 1
-21.681035 32.307194 25.596626 46.572624 -0.979738 0.988903 0.026561 -0.018620 -52532.900000 0 0 1
-21.945435 31.869894 24.304226 45.694504 -0.967766 1.009971 0.012579 -0.003389 850057.000000 0 0 1
-23.299835 32.224994 23.972926 46.433110 -0.944777 1.028284 -0.002083 -0.002189 692422.000000 0 0 1
-23.739835 31.790394 22.576026 45.649599 -0.929371 1.053479 -0.005416 -0.000681 85767.800000 0 0 1
-23.186235 32.617694 21.546626 45.450771 -0.952827 1.076894 -0.005860 -0.003293 556996.000000 0 0 1
-23.759035 32.181294 20.270026 44.844190 -0.934834 1.101779 -0.008205 0.003094 102268.000000 0 0 1
-23.270835 33.042894 19.101926 44.701769 -0.957216 1.129271 0.004758 0.004554 432493.000000 0 0 1
-21.848735 33.186294 19.118726 44.093344 -0.988562 1.122316 0.034505 0.003570 460054.000000 0 0 1
-21.420435 34.141794 18.187726 44.218667 -1.010476 1.146902 0.045734 -0.001275 327192.000000 0 0 1
-20.156535 -33.480823 18.631026 43.293956 1.028884 1.125929 0.069771 -0.014693 283828.000000 0 0 1
-20.448135 -32.446723 19.555226 43.050238 1.008462 1.099275 0.059278 -0.020123 1137880.000000 0 0 1
-19.256035 -31.827123 20.063626 42.264758 1.026694 1.076159 0.074221 -0.027682 747186.000000 0 0 1
-19.733835 -30.811823 21.158426 42.266674 1.001155 1.046512 0.055850 -0.015545 880250.000000 0 0 1
-20.628735 -29.807723 20.582326 41.685456 0.965419 1.054396 0.061149 -0.014631 1037980.000000 0 0 1
-20.727035 -28.688323 21.480226 41.400846 0.945135 1.025308 0.080615 -0.011390 -219173.000000 0 0 1
-21.354635 -27.428823 20.854326 40.537189 0.909274 1.030431 0.067359 -0.007040 78361.000000 0 0 1
-20.416735 -26.616723 20.142426 39.128128 0.916463 1.030044 0.061400 0.006680 665034.000000 0 0 1
-20.849735 -25.258423 20.091726 38.423650 0.880725 1.020547 0.050681 0.017672 455020.000000 0 0 1
-22.056335 -24.819023 19.168826 38.339402 0.844267 1.047224 0.030893 0.010570 840886.000000 0 0 1
-23.319635 -25.261623 19.649026 39.598475 0.825351 1.051572 0.027104 0.007235 426919.000000 0 0 1
-24.351735 -24.980223 18.703526 39.583336 0.798137 1.078660 0.020482 0.012522 684639.000000 0 0 1
-25.782905 -25.323023 19.270326 40.955576 0.776400 1.080919 0.015557 -0.000124 575964.000000 0 0 1
-25.942085 -26.689723 19.607526 42.068851 0.799602 1.085939 0.007992 0.003963 -35309.100000 0 0 1
-25.776395 -27.606923 18.543526 42.076444 0.819675 1.114406 -0.006770 0.000488 -1422420.000000 0 0 1
-26.769315 -28.721823 18.520026 43.411182 0.820570 1.130045 -0.001348 -0.004186 -638961.000000 0 0 1
-28.074765 -28.182423 18.478726 43.862339 0.787312 1.135930 0.020772 -0.014116 100232.000000 0 0 1
-29.033115 -29.106723 17.954926 44.860924 0.786664 1.159023 0.021295 -0.007442 830907.000000 0 0 1
-30.541005 -28.779323 18.154326 45.722883 0.755709 1.162495 0.031254 -0.009115 551635.000000 0 0 1
-30.915345 -27.522623 17.532426 44.951522 0.727406 1.170133 0.049637 -0.009121 -237719.000000 0 0 1
-32.249705 -27.283623 17.914026 45.884114 0.702174 1.169710 0.056240 0.005633 -282150.000000 0 0 1
-32.780465 -25.923523 17.371726 45.258865 0.669120 1.176856 0.071796 -0.017855 -437499.000000 0 0 1
-33.142225 -25.997023 16.050726 45.076359 0.665161 1.206728 0.090948 -0.028582 173976.000000 0 0 1
-33.792725 -24.802023 15.584426 44.720946 0.633147 1.214846 0.090685 -0.027346 255622.000000 0 0 1
-32.856655 -23.619223 15.132826 43.202198 0.623270 1.212927 0.084841 -0.029729 83770.600000 0 0 1
-32.163825 -22.975623 16.147026 42.697979 0.620280 1.182979 0.076011 -0.020904 -317914.000000 0 0 1
-31.738855 -21.706623 15.812426 41.576018 0.599848 1.180648 0.070897 -0.017996 -230748.000000 0 0 1
-32.777715 -20.562423 15.927726 41.843570 0.560273 1.180298 0.076520 -0.023274 -151405.000000 0 0 1
-33.179845 -20.431623 17.241626 42.610175 0.551945 1.154215 0.076087 -0.020489 -87025.400000 0 0 1
-34.131553 -19.414823 17.376226 42.939860 0.517180 1.154185 0.088955 -0.021801 -278387.000000 0 0 1
-34.575224 -19.096023 18.811026 43.748817 0.504610 1.126328 0.059458 -0.012109 15991.300000 0 0 1
-35.447240 -20.086523 19.366426 45.111348 0.515544 1.127076 0.053952 -0.006624 278165.000000 0 0 1
-35.716775 -19.785223 20.716626 45.785606 0.505869 1.101263 0.042179 0.004213 -1088760.000000 0 0 1
35.643920 -19.926023 21.382126 46.094802 -0.509750 1.088434 0.035196 0.005967 -310590.000000 0 0 1
35.048000 -21.248523 21.623926 46.340654 -0.545016 1.085320 0.041141 -0.003298 22457.500000 0 0 1
35.807350 -22.153723 22.388726 47.688665 -0.554050 1.082098 0.027749 0.011090 -288477.000000 0 0 1
35.091340 -23.455723 22.965026 48.051696 -0.589215 1.072507 0.020997 0.016491 687396.000000 0 0 1
34.039170 -23.259823 23.929826 47.668869 -0.599447 1.044885 0.023321 0.004579 703057.000000 0 0 1
33.739550 -24.552123 24.488126 48.382148 -0.629073 1.040093 0.031836 -0.005761 -424338.000000 0 0 1
33.002150 -24.619723 25.822126 48.600976 -0.640939 1.010652 0.036401 -0.006347 1579390.000000 0 0 1
31.572560 -24.341023 25.703626 47.434042 -0.656778 0.998122 0.039671 -0.001775 1914110.000000 0 0 1
30.853380 -24.385323 26.969326 47.685633 -0.668836 0.969678 0.038918 -0.007670 1041630.000000 0 0 1
29.343370 -24.774723 26.853626 46.860831 -0.701178 0.960573 0.041735 -0.013855 371991.000000 0 0 1
28.549080 -23.824523 26.212226 45.494380 -0.695433 0.956769 0.055057 -0.014884 -246203.000000 0 0 1
27.306870 -24.428023 25.889626 44.862748 -0.729809 0.955641 0.056531 -0.011377 418144.000000 0 0 1
26.206470 -23.464223 25.352726 43.360230 -0.730246 0.946286 0.051673 -0.011088 -3718.430000 0 0 1
26.318270 -22.928923 23.992326 42.355856 -0.716683 0.968609 0.052352 -0.010182 77700.300000 0 0 1
27.487170 -22.180223 23.670426 42.518183 -0.678952 0.980373 0.055558 -0.004476 292154.000000 0 0 1
27.395270 -21.639723 22.211726 41.378004 -0.668556 1.004156 0.048210 -0.002497 349511.000000 0 0 1
26.439870 -20.574723 22.171626 40.174207 -0.661288 0.986171 0.049570 -0.003546 214288.000000 0 0 1
26.273170 -20.083223 20.844926 39.091255 -0.652654 1.008373 0.032526 -0.000790 -251156.000000 0 0 1
25.293970 -18.912423 20.689226 37.755910 -0.642031 0.990857 0.036974 -0.002591 -553767.000000 0 0 1
25.668670 -17.725523 21.347126 37.799134 -0.604356 0.970664 0.036541 -0.009840 51219.900000 0 0 1
25.695070 -17.769523 22.766126 38.656035 -0.605035 0.941048 0.038506 -0.008276 -221363.000000 0 0 1
25.771670 -16.379323 23.413726 38.479394 -0.566154 0.916660 0.045537 -0.002596 578696.000000 0 0 1
24.596270 -15.532323 23.305226 37.274161 -0.563253 0.895360 0.021455 0.004181 674519.000000 0 0 1
24.728970 -14.224423 23.802126 37.153699 -0.521994 0.875466 0.024993 0.001347 287519.000000 0 0 1
23.282870 -13.684823 23.694826 35.927861 -0.531374 0.850628 0.012258 0.001016 552549.000000 0 0 1
22.384970 -14.186423 24.705626 36.231332 -0.564865 0.820459 0.033852 0.008006 -278169.000000 0 0 1
21.162270 -13.564523 24.463126 35.075383 -0.570006 0.798971 0.029352 0.004554 -209741.000000 0 0 1
19.863470 -14.267723 24.946126 34.934719 -0.622896 0.775490 0.046451 0.008509 362195.000000 0 0 1
19.509770 -15.284223 24.021226 34.514604 -0.664545 0.801023 0.053081 0.001401 1207480.000000 0 0 1
18.115670 -15.679423 24.125626 34.000995 -0.713434 0.781928 0.056094 0.003730 1318270.000000 0 0 1
17.725670 -16.795523 23.117226 33.625810 -0.758460 0.812777 0.058905 -0.010060 -29461.200000 0 0 1
18.414670 -17.994323 23.369426 34.771048 -0.773854 0.833763 0.045763 -0.009231 132879.000000 0 0 1
18.034170 -18.888923 22.387326 34.397893 -0.808544 0.862114 0.057431 -0.014202 93565.900000 0 0 1
18.484270 -20.318623 22.859026 35.735833 -0.832637 0.876732 0.045384 -0.015094 400094.000000 0 0 1
17.674470 -20.792723 23.970926 36.322576 -0.866284 0.850050 0.045036 -0.019358 504519.000000 0 0 1
18.009970 -22.084723 24.454926 37.551797 -0.886679 0.861590 0.053237 -0.023989 -136501.000000 0 0 1
17.444470 -23.261323 23.556726 37.420823 -0.927337 0.889876 0.042900 -0.019385 203743.000000 0 0 1
18.125070 -23.485523 22.312026 37.120270 -0.913517 0.925952 0.050822 -0.012236 296626.000000 0 0 1
19.283070 -24.295123 22.525826 38.334092 -0.899908 0.942684 0.062987 -0.019798 613682.000000 0 0 1
20.249070 -24.423823 21.271726 38.197307 -0.878579 0.980159 0.069945 -0.017157 313974.000000 0 0 1
19.731270 -25.288523 20.248326 37.931875 -0.908217 1.007699 0.072114 -0.022844 228592.000000 0 0 1
20.512670 -25.473523 19.072326 37.860581 -0.892860 1.042860 0.073155 -0.010683 -210084.000000 0 0 1
19.682170 -26.082723 17.966126 37.289113 -0.924354 1.068082 0.069919 -0.014995 49512.300000 0 0 1
19.234070 -27.403323 18.374826 38.190651 -0.958804 1.068848 0.082139 -0.030052 -149241.000000 0 0 1
18.334570 -27.963823 17.469626 37.726909 -0.990457 1.089358 0.080303 -0.027951 -413686.000000 0 0 1
17.482270 -29.072723 18.115026 38.457862 -1.029400 1.080332 0.082443 -0.024974 -685618.000000 0 0 1
16.485570 -28.494323 18.886926 37.952819 -1.046294 1.049918 0.066395 -0.027615 -709324.000000 0 0 1
15.838370 -29.591123 19.541126 38.837406 -1.079355 1.043554 0.070359 -0.031637 -393369.000000 0 0 1
14.496170 -29.180823 20.156326 38.313664 -1.109736 1.016803 0.057876 -0.020349 -400321.000000 0 0 1
13.619070 -28.731623 19.139626 37.112134 -1.128156 1.028944 0.061302 -0.014982 -724517.000000 0 0 1
12.397470 -28.379223 19.738726 36.724581 -1.158931 1.003350 0.033606 -0.011733 59369.500000 0 0 1
11.388970 -27.870423 18.650926 35.416468 -1.182864 1.016180 0.040745 -0.015613 23154.600000 0 0 1
11.140170 -28.866623 17.695026 35.644064 -1.202488 1.051307 0.041316 -0.024029 -84408.900000 0 0 1
10.482570 -28.274523 16.594626 34.419683 -1.215763 1.067716 0.050914 -0.023580 -26458.600000 0 0 1
10.399470 -29.211523 15.421226 34.630569 -1.228781 1.109279 0.050658 -0.014015 -382340.000000 0 0 1
9.302370 -30.064123 15.492926 35.077291 -1.270722 1.113326 0.051101 -0.014373 -379021.000000 0 0 1
9.478070 -31.109823 14.566026 35.634590 -1.275065 1.149700 0.045116 -0.013803 -243656.000000 0 0 1
8.248570 -32.006723 14.540726 36.109583 -1.318571 1.156350 0.037322 -0.013867 -355233.000000 0 0 1
8.072970 -32.823823 15.676626 37.260338 -1.329634 1.136544 0.038725 -0.013516 -17175.700000 0 0 1
7.091970 -33.786223 15.326526 37.771779 -1.363893 1.152979 0.036018 -0.005208 58758.700000 0 0 1
7.153770 33.423194 16.314726 37.874220 1.359942 1.125461 0.043577 -0.011994 -319427.000000 0 0 1
8.275070 32.603594 16.262926 37.362466 1.322236 1.120453 0.038884 -0.011530 -636464.000000 0 0 1
8.067870 31.455994 17.081626 36.692670 1.319727 1.086560 0.041384 -0.012176 629199.000000 0 0 1
9.352270 30.563794 17.233026 36.312362 1.273852 1.076312 0.040728 -0.011564 446379.000000 0 0 1
9.688670 29.825094 16.049026 35.227514 1.256700 1.097770 0.049504 -0.008034 -581087.000000 0 0 1
10.777170 29.002994 16.299826 34.971493 1.215020 1.085931 0.048064 -0.008109 -534875.000000 0 0 1
11.637570 28.517294 15.139726 34.320262 1.183337 1.113938 0.047458 -0.008204 -127968.000000 0 0 1
10.930870 27.691894 14.219726 32.992810 1.194840 1.125202 0.056911 -0.016776 -603743.000000 0 0 1
11.725470 27.188994 13.242426 32.435935 1.163637 1.150245 0.060507 -0.012692 -655442.000000 0 0 1
-9.553435 -9.286706 19.356461 23.498588 0.771242 0.602840 0.035180 -0.008849 -40522.300000 0 1 0
-9.951435 -9.550106 18.033261 22.703174 0.764822 0.652932 0.042208 -0.011418 71154.100000 0 1 0
-9.690135 -10.833906 17.562661 22.797354 0.841069 0.691357 0.030064 -0.015617 -45620.300000 0 1 0
-10.166435 -11.006606 16.051061 21.957649 0.825059 0.751009 0.045507 -0.019700 -292282.000000 0 1 0
-11.527335 -10.792306 15.814661 22.348531 0.752478 0.784647 0.043281 -0.021555 -209542.000000 0 1 0
-12.087135 -11.229906 14.571361 22.012138 0.748651 0.847353 0.066017 -0.021953 226150.000000 0 1 0
-11.988435 -12.766706 14.164461 22.524283 0.816827 0.890719 0.045041 -0.020027 -511740.000000 0 1 0
-10.779235 -13.062106 13.481561 21.646317 0.880860 0.898466 0.059117 -0.030028 327467.000000 0 1 0
-10.325035 -14.432906 13.622861 22.371801 0.949822 0.916085 0.045162 -0.028512 83311.100000 0 1 0
-9.802835 -14.869106 15.009661 23.291111 0.987928 0.870509 0.048155 -0.032423 -606548.000000 0 1 0
-10.777135 -14.938806 16.003461 24.401339 0.945840 0.855497 0.043242 -0.013448 -486728.000000 0 1 0
-10.220235 -15.224006 17.294261 25.205457 0.979577 0.814638 0.043768 -0.010422 6132.480000 0 0 1
-11.188135 -15.040406 18.518861 26.350264 0.931229 0.791476 0.031200 -0.006806 187571.000000 0 0 1
-11.725535 -13.744406 18.748161 26.036329 0.864498 0.766883 0.032053 -0.013343 582948.000000 0 0 1
-12.789735 -13.303206 17.893461 25.704642 0.805074 0.800820 0.033901 -0.019122 -578020.000000 0 0 1
-14.158735 -13.461006 18.530861 26.926962 0.760142 0.811805 0.013627 -0.013289 -881714.000000 0 0 1
-14.527035 -14.805706 18.661761 27.901703 0.794898 0.838150 0.013883 -0.010839 -226500.000000 0 0 1
-15.339535 -14.981206 19.794761 29.181680 0.773581 0.825311 0.021223 -0.007593 -208547.000000 0 0 1
-15.816535 -16.407706 20.064861 30.364030 0.803742 0.848899 0.041496 -0.009930 962896.000000 0 0 1
-16.939135 -16.812806 19.203861 30.633202 0.781655 0.893232 0.052194 -0.002658 985573.000000 0 0 1
-17.307635 -18.114206 19.584061 31.799594 0.808165 0.907321 0.030881 -0.006599 -579480.000000 0 0 1
-18.604335 -18.650106 18.989661 32.473913 0.786627 0.946204 0.049884 -0.006136 -550863.000000 0 0 1
-18.650335 -18.654906 17.574461 31.697038 0.785521 0.983093 0.054893 -0.005609 -92602.700000 0 0 1
-19.157235 -17.479906 17.006361 31.012306 0.739648 0.990377 0.054069 -0.014285 -421448.000000 0 0 1
-18.826235 -17.314306 15.557361 29.937332 0.743588 1.024338 0.055231 -0.012667 -88402.800000 0 0 1
-19.444735 -18.352906 14.813461 30.567394 0.756520 1.064872 0.056465 -0.015495 412865.000000 0 0 1
-18.927135 -18.332206 13.471261 29.593600 0.769432 1.098190 0.050788 -0.022294 218273.000000 0 0 1
-19.389135 -19.532206 12.631261 30.281916 0.789074 1.140520 0.059908 -0.014588 300518.000000 0 0 1
-18.717035 -20.734706 13.098861 30.851834 0.836496 1.132306 0.055532 -0.004615 410785.000000 0 0 1
-18.638935 -21.757306 12.145061 31.117404 0.862440 1.169841 0.049348 -0.005472 -566836.000000 0 0 1
-17.994935 -22.990606 12.765561 31.864482 0.906688 1.158602 0.037084 -0.000862 -166238.000000 0 0 1
-17.935735 -24.109406 11.853661 32.302684 0.931191 1.195062 0.047703 -0.009700 -122825.000000 0 0 1
-17.013235 -23.994006 10.802761 31.334680 0.954014 1.218819 0.046931 -0.008765 -490285.000000 0 0 1
-16.841235 -25.199136 9.903161 31.885675 0.981646 1.254990 0.046254 -0.010601 257998.000000 0 0 1
-18.114635 -25.456256 9.338161 32.609236 0.952328 1.280365 0.044592 -0.001601 3468.140000 0 0 1
-18.052835 -26.488416 8.399361 33.137446 0.972569 1.314530 0.059639 -0.004248 822473.000000 0 0 1
-19.232635 -26.468546 7.348961 33.533348 0.942426 1.349849 0.050191 -0.007324 768367.000000 0 0 1
-19.111735 -25.389756 6.507461 32.438329 0.925548 1.368816 0.055561 -0.013390 439819.000000 0 0 1
-20.128435 -25.389296 5.480761 32.860448 0.900466 1.403224 0.066190 -0.016398 573872.000000 0 0 1
-20.221635 -24.076506 4.695461 31.790566 0.872201 1.422554 0.072130 -0.021807 477632.000000 0 0 1
-21.224635 -24.110206 3.659061 32.329181 0.848963 1.457372 0.083452 -0.027826 505063.000000 0 0 1
-21.253735 -22.818906 3.055161 31.333014 0.820897 1.473135 0.077043 -0.023705 44164.700000 0 0 1
-22.069435 -22.702806 1.758361 31.710712 0.799544 1.515318 0.072626 -0.023546 -210921.000000 0 0 1
-21.597635 -23.525406 0.764761 31.945069 0.828095 1.546854 0.078286 -0.030108 -90981.900000 0 0 1
-22.096835 -23.223506 -0.509139 32.060265 0.810253 1.586678 0.070658 -0.025734 -246489.000000 0 0 1
-21.285335 -24.011006 -1.562639 32.125314 0.845500 1.619457 0.073954 -0.028966 -258724.000000 0 0 1
-19.928035 -23.594806 -1.621139 30.926842 0.869449 1.623239 0.072861 -0.025767 57296.000000 0 0 1
-19.287135 -24.035406 -2.801939 30.944228 0.894565 1.661469 0.062057 -0.020999 108729.000000 0 0 1
-18.991935 -25.557066 -2.996939 31.981853 0.931714 1.664641 0.075634 -0.018930 19657.900000 0 0 1
-20.114635 -26.379096 -3.322639 33.339094 0.919329 1.670624 0.081884 -0.022767 284544.000000 0 0 1
-19.613835 -27.674206 -3.587839 34.109190 0.954228 1.676178 0.083801 -0.016476 281459.000000 0 0 1
-20.678535 -28.549516 -4.278639 35.510329 0.943944 1.691580 0.079398 -0.021137 207410.000000 0 0 1
-21.041135 -28.151976 -5.594939 35.588854 0.928953 1.728662 0.065696 -0.008524 -306133.000000 0 0 1
-21.925335 -29.114746 -6.093439 36.952927 0.925336 1.736450 0.069926 -0.023282 -171489.000000 0 0 1
-22.471035 -28.718236 -7.487739 37.225673 0.906839 1.773322 0.055483 0.004047 363358.000000 0 0 1
-21.330135 -28.548926 -8.342139 36.600644 0.929126 1.800741 0.062405 0.006348 581568.000000 0 0 1
-21.624035 -28.518546 -9.733839 37.089810 0.922039 1.836346 0.048526 0.003536 -30846.400000 0 0 1
-22.571435 -27.391206 -10.286239 36.953411 0.881568 1.852879 0.045245 0.011934 246395.000000 0 0 1
-22.025735 -26.097326 -10.532239 35.736977 0.869805 1.869954 0.034258 0.011697 26752.400000 0 0 1
-21.762135 -25.362816 -9.357439 34.704822 0.861657 1.843804 0.025327 0.010368 -21424.700000 0 0 1
-21.549435 -23.834606 -9.604039 33.536610 0.835708 1.861237 0.021203 0.009252 642810.000000 0 0 1
-22.709935 -23.119306 -10.045139 33.928577 0.794330 1.871369 0.021028 0.012982 704454.000000 0 0 1
-22.284835 -21.784906 -10.367639 32.843325 0.774055 1.891959 0.022304 0.009911 1140680.000000 0 0 1
-23.586835 -20.928106 -10.614339 33.271439 0.725742 1.895494 0.037569 0.006621 277051.000000 0 0 1
-24.003735 -20.962206 -11.966139 34.040886 0.717860 1.929993 0.033112 0.008534 128243.000000 0 0 1
-25.283455 -20.397106 -12.144739 34.681259 0.678836 1.928561 0.038178 -0.000137 -164600.000000 0 0 1
-25.385745 -18.826906 -12.001739 33.807251 0.638125 1.933716 0.047857 -0.009206 -1100840.000000 0 0 1
-24.793935 -18.152706 -13.109039 33.408186 0.631974 1.974025 0.060597 -0.002703 469851.000000 0 0 1
-24.597135 -16.777506 -12.876039 32.439115 0.598606 1.978965 0.059798 -0.014314 -115036.000000 0 0 1
-23.689235 -16.219106 -11.743139 31.018391 0.600357 1.959065 0.060348 -0.008320 -293869.000000 0 0 1
-24.287035 -16.363006 -10.474139 31.101698 0.592880 1.914281 0.061243 -0.007763 836199.000000 0 0 1
-23.332735 -16.190106 -9.416139 29.919889 0.606606 1.890949 0.060292 -0.008993 498443.000000 0 0 1
-23.936835 -16.757506 -8.104239 30.322678 0.610774 1.841352 0.051504 -0.011138 202696.000000 0 0 1
-24.139535 -18.147506 -8.084039 31.263411 0.644636 1.832346 0.049055 -0.004701 192922.000000 0 0 1
-25.059005 -18.426206 -7.054039 31.894173 0.634035 1.793810 0.055251 0.000426 81499.200000 0 0 1
-24.988935 -19.956606 -6.814639 32.697895 0.673898 1.780748 0.062407 0.004454 -359609.000000 0 0 1
-25.412545 -20.756706 -7.859439 33.740319 0.684895 1.805895 0.049726 -0.009373 43530.600000 0 0 1
-25.443645 -22.119806 -7.482439 34.534791 0.715629 1.789192 0.049746 0.001508 26995.000000 0 0 1
-25.622145 -23.161706 -8.601739 35.594225 0.735005 1.814874 0.037855 0.013388 -3792.150000 0 0 1
-25.956795 -24.433706 -8.043439 36.543921 0.755182 1.792717 0.050781 0.010312 -182393.000000 0 0 1
-25.891905 -25.489476 -8.980839 37.426724 0.777566 1.813119 0.044536 0.018371 125026.000000 0 0 1
-26.555155 -26.804256 -8.554639 38.688839 0.790066 1.793753 0.061921 -0.000028 -57009.200000 0 0 1
-25.846525 -27.313366 -7.462539 38.337349 0.812984 1.766702 0.077811 -0.014050 177611.000000 0 0 1
-26.337955 -28.550886 -6.919739 39.455339 0.825693 1.747090 0.081901 -0.011375 101202.000000 0 0 1
-25.749905 -28.761306 -5.497439 38.993489 0.840586 1.712251 0.108002 -0.020064 -103492.000000 0 0 1
-26.436365 -27.939496 -4.581239 38.736089 0.813034 1.689342 0.078432 -0.022323 28983.100000 0 0 1
-26.269715 -28.329306 -3.225639 38.769218 0.823102 1.654094 0.072446 -0.020099 -89691.200000 0 0 1
-26.775465 -29.686336 -2.657139 40.065752 0.836907 1.637164 0.065924 -0.013805 -397131.000000 0 0 1
-26.119655 -30.791796 -3.239239 40.507577 0.867309 1.650848 0.095360 -0.030731 -116261.000000 0 0 1
-26.137335 -31.951146 -2.383939 41.348751 0.885151 1.628483 0.082371 -0.030699 127886.000000 0 0 1
-25.182535 -31.809966 -1.148539 40.587599 0.901164 1.599098 0.088559 -0.038131 -358612.000000 0 0 1
-23.827935 -31.737126 -1.467339 39.713584 0.926789 1.607753 0.091972 -0.049017 -1005540.000000 0 0 1
-22.947535 -31.832816 -0.404939 39.243873 0.946196 1.581115 0.073195 -0.039436 81341.500000 0 0 1
-21.911935 -30.711556 -0.367339 37.728869 0.951084 1.580533 0.078756 -0.029092 -96532.500000 0 0 1
-22.555635 -29.516336 0.026361 37.147968 0.918285 1.570087 0.073899 -0.037226 28474.600000 0 0 1
-22.645935 -28.550966 -1.037639 36.456450 0.900230 1.599263 0.089369 -0.041373 -449252.000000 0 0 1
-23.456935 -27.308446 -0.742739 36.007370 0.861122 1.591425 0.064202 -0.023823 -1091010.000000 0 0 1
-24.774935 -27.684356 -0.435139 37.153874 0.840802 1.582508 0.073845 -0.025786 -420005.000000 0 0 1
-25.649315 -26.601416 -0.200739 36.953525 0.803618 1.576229 0.077832 -0.023408 198949.000000 0 0 1
-25.230195 -25.590696 0.902961 35.948044 0.792492 1.545675 0.078487 -0.021012 -728740.000000 0 0 1
-25.272435 -26.229776 2.186061 36.489396 0.803984 1.510851 0.060943 -0.019039 -109674.000000 0 0 1
-24.690235 -25.497176 3.261761 35.642009 0.801475 1.479154 0.076654 -0.019915 425603.000000 0 0 1
-25.505345 -24.282706 3.893061 35.430614 0.760846 1.460696 0.095265 -0.019060 263424.000000 0 0 1
-25.620085 -23.163506 3.039161 34.672371 0.735084 1.483030 0.093614 -0.022178 -193154.000000 0 0 1
-26.570635 -22.288906 3.555161 34.863063 0.697988 1.468644 0.089066 -0.016450 -325234.000000 0 0 1
-26.683915 -21.027606 2.569961 34.070460 0.667397 1.495294 0.081745 -0.015680 864635.000000 0 0 1
-25.520175 -20.162506 2.538961 32.622881 0.668651 1.492890 0.080267 -0.016176 703291.000000 0 0 1
-25.442245 -19.406906 1.330461 32.026645 0.651632 1.529242 0.071435 -0.012169 337642.000000 0 0 1
-24.105635 -18.633706 1.340661 30.497443 0.658061 1.526822 0.080387 -0.009401 911292.000000 0 0 1
-22.886735 -19.328106 1.013561 29.973416 0.701299 1.536975 0.075926 -0.011955 537895.000000 0 0 1
-21.777735 -18.551506 1.330361 28.639099 0.705571 1.524327 0.064319 -0.013848 -742237.000000 0 0 1
-20.438735 -19.254006 1.465461 28.117721 0.755560 1.518654 0.055603 -0.022276 -534952.000000 0 0 1
-19.993535 -19.780806 0.267161 28.126378 0.780050 1.561298 0.037799 -0.013896 142883.000000 0 0 1
-18.721035 -20.403806 0.426461 27.694302 0.828382 1.555397 0.048841 -0.012779 382493.000000 0 0 1
-18.353835 -20.932206 -1.003139 27.857258 0.850935 1.606814 0.048210 -0.012752 -126663.000000 0 0 1
-17.891435 -19.987406 -1.965139 26.897242 0.840675 1.643922 0.048726 -0.012079 22068.100000 0 0 1
-17.822635 -20.590806 -3.227839 27.423468 0.857336 1.688773 0.054840 -0.009247 -67452.900000 0 0 1
-17.153235 -19.609306 -4.187439 26.387365 0.852108 1.730161 0.057190 -0.000694 -948681.000000 0 0 1
-15.784835 -19.506506 -4.060839 25.419584 0.890465 1.731236 0.077070 -0.010081 -1210310.000000 0 0 1
-15.353735 -18.741906 -5.108939 24.760806 0.884446 1.778621 0.086511 -0.004400 258564.000000 0 1 0
-13.847535 -18.342106 -5.180639 23.558992 0.924129 1.792509 0.094920 -0.018512 514381.000000 0 1 0
-12.966335 -19.447206 -5.288539 23.964314 0.982739 1.793312 0.073987 -0.021446 272914.000000 0 1 0
-11.684535 -19.008506 -5.750339 23.041660 1.019638 1.823025 0.065069 -0.034176 556654.000000 0 1 0
-10.676935 -20.167106 -5.784239 23.540742 1.083888 1.819050 0.067084 -0.037183 273.187000 0 1 0
-10.996535 -21.073506 -6.805839 24.725208 1.089847 1.849656 0.058125 -0.029254 360233.000000 0 1 0
-9.861535 -21.888006 -7.178239 25.057171 1.147489 1.861341 0.055449 -0.023982 630993.000000 0 0 1
-10.161635 -23.110506 -8.104739 26.514923 1.156543 1.881435 0.052404 -0.007040 -495361.000000 0 0 1
-10.654135 -22.733806 -9.341039 26.787899 1.132544 1.926984 0.043187 -0.008937 -37688.800000 0 0 1
-10.668735 -23.851506 -10.207139 28.051773 1.150192 1.943213 0.055072 -0.002038 -182141.000000 0 0 1
-11.352735 -23.526906 -11.542039 28.559037 1.121212 1.986842 0.069370 -0.006603 -47460.500000 0 0 1
-10.635035 -22.683806 -12.435039 27.969434 1.132387 2.031517 0.047079 -0.001380 447788.000000 0 0 1
-11.514235 -22.322606 -13.505139 28.517804 1.094580 2.064135 0.045414 -0.010690 221175.000000 0 0 1
-10.999935 -21.047606 -14.258139 27.700087 1.089216 2.111492 0.021516 -0.000423 -32705.700000 0 0 1
-11.059235 -19.860506 -13.393839 26.384490 1.062713 2.103240 0.020823 0.003192 -294265.000000 0 0 1
-10.712135 -18.634706 -14.067739 25.688585 1.049076 2.150321 0.004313 0.016507 -113070.000000 0 0 1
-10.146335 -17.611906 -13.034139 24.145727 1.048131 2.141009 0.023657 0.008140 -51339.700000 0 1 0
-11.142135 -16.985806 -12.213039 23.702808 0.990238 2.112104 0.023692 -0.010463 274131.000000 0 1 0
-10.655135 -15.866206 -11.466139 22.287682 0.979413 2.111175 0.036454 -0.019264 158582.000000 0 1 0
-10.434335 -14.570506 -12.273139 21.721071 0.949329 2.171270 0.042126 -0.010555 431473.000000 0 1 0
-11.649435 -14.029806 -12.784939 22.271046 0.877830 2.182253 0.047836 -0.002655 278580.000000 0 1 0
-11.474135 -13.792306 -14.172139 22.863355 0.876891 2.239364 0.037262 -0.004853 -26960.700000 0 1 0
-12.767135 -13.311306 -14.880539 23.698545 0.806262 2.249660 0.041429 -0.003101 -64244.200000 0 1 0
-12.849435 -11.920006 -14.726939 22.892734 0.747893 2.269600 0.042156 0.000267 -550170.000000 0 1 0
-13.997335 -11.347706 -15.275039 23.622503 0.681234 2.273956 0.048560 -0.010518 -206823.000000 0 1 0
-14.438435 -9.974106 -14.602139 22.829228 0.604526 2.264806 0.063362 -0.014753 -184956.000000 0 1 0
-13.431635 -9.018306 -14.641339 21.819887 0.591288 2.306365 0.057208 -0.005490 -215847.000000 0 1 0
-13.276935 -8.282206 -15.880139 22.294635 0.557739 2.363545 0.051321 -0.004102 93763.400000 0 1 0
-12.055335 -7.319806 -15.851739 21.217641 0.545685 2.414488 0.038620 0.002091 -165716.000000 0 1 0
-10.838235 -7.986706 -15.893339 20.829139 0.635065 2.438790 0.033924 0.007238 -724638.000000 0 1 0
-9.769935 -7.123006 -15.566539 19.710555 0.629973 2.481208 0.021882 0.012868 238804.000000 0 1 0
11.204165 21.911694 16.413361 29.581313 1.098124 0.982607 0.089231 -0.017629 -75216.900000 0 0 1
12.155965 22.043494 17.451861 30.630876 1.066838 0.964598 0.096650 -0.031792 -82727.900000 0 0 1
12.738565 20.782694 17.723061 30.137987 1.020916 0.942133 0.076610 -0.015989 -697855.000000 0 0 1
13.926465 20.881394 18.652261 31.271167 0.982610 0.931703 0.077101 -0.027769 -575248.000000 0 0 1
15.094665 21.389394 18.047961 31.797547 0.956250 0.967221 0.057075 -0.022819 -418186.000000 0 0 1
16.225765 20.998094 18.797761 32.520012 0.912909 0.954476 0.041136 -0.022107 -716381.000000 0 0 1
17.460365 21.569994 18.138961 33.153444 0.890305 0.991875 0.037896 -0.016670 -1536130.000000 0 0 1
17.669665 22.896194 18.424861 34.291810 0.913533 1.003568 0.043919 -0.013060 680607.000000 0 0 1
18.949165 23.443594 18.055561 35.137960 0.891022 1.031132 0.030819 -0.008951 581612.000000 0 0 1
20.218665 22.988594 18.781361 35.916700 0.849419 1.020530 0.024818 -0.010505 -696985.000000 0 0 1
20.586865 21.731694 18.291061 35.080599 0.812444 1.022304 0.029616 -0.005459 238432.000000 0 0 1
21.823765 21.255994 18.812261 35.804960 0.772219 1.017600 0.047746 -0.008696 329006.000000 0 0 1
21.979665 19.723194 18.604561 34.903291 0.731343 1.008617 0.042651 -0.003495 3322.940000 0 0 1
21.992465 19.348694 17.274061 34.006376 0.721535 1.037975 0.014454 0.000092 51848.300000 0 0 1
21.596665 18.030194 16.931261 32.835521 0.695639 1.029044 0.025695 0.006309 -201606.000000 0 0 1
22.464365 16.863294 17.426361 33.055959 0.643929 1.015521 0.033777 -0.005802 479833.000000 0 0 1
23.717465 16.701494 16.759461 33.501307 0.613529 1.046894 0.039693 -0.019523 606425.000000 0 0 1
24.394465 15.432194 17.053261 33.526948 0.564053 1.037188 0.020058 -0.005171 -145172.000000 0 0 1
25.851965 15.566594 16.586261 34.434677 0.541994 1.068233 0.111718 -0.033130 -701773.000000 0 0 1
26.602565 16.326494 17.543561 35.805410 0.550446 1.058741 0.082650 -0.025727 1278040.000000 0 0 1
27.789465 15.785494 18.180461 36.769081 0.516587 1.053595 0.080735 -0.033018 1801670.000000 0 0 1
28.979165 15.394894 17.204761 37.051296 0.488326 1.087896 0.079481 -0.050339 -290500.000000 0 0 1
29.675065 16.464594 16.595161 37.776867 0.506543 1.115983 0.120248 -0.032603 819797.000000 0 0 1
30.800565 15.894094 15.864061 38.117784 0.476391 1.141550 0.118557 -0.029841 867554.000000 0 0 1
30.524665 15.162194 14.502061 37.039939 0.461020 1.168508 0.073741 -0.026349 -255885.000000 0 0 1
30.053865 16.037494 13.480361 36.635449 0.490184 1.193983 0.088993 -0.001066 282040.000000 0 0 1
29.229765 15.445694 12.469461 35.333215 0.486127 1.210116 0.070979 -0.007931 1256000.000000 0 0 1
27.815765 16.151994 12.334261 34.449059 0.526091 1.204625 0.063696 -0.013539 184843.000000 0 0 1
27.871865 17.525094 11.890261 35.004972 0.561308 1.224227 0.030791 0.002751 164178.000000 0 0 1
28.422565 18.498994 12.745661 36.228536 0.576977 1.211289 0.060571 -0.004164 -366761.000000 0 0 1
27.753165 18.690294 14.134861 36.322989 0.592682 1.171095 0.052831 -0.006182 208789.000000 0 0 1
26.496365 19.352694 14.121861 35.721297 0.630832 1.164364 0.045041 0.002100 485782.000000 0 0 1
25.684765 19.304794 15.277561 35.577887 0.644527 1.126955 0.034068 -0.006708 -131518.000000 0 0 1
26.270965 19.914394 16.559361 36.891179 0.648626 1.105295 0.054602 -0.021173 -394323.000000 0 0 1
26.297665 21.365094 16.630961 37.744182 0.682276 1.114504 0.038387 -0.014444 1627930.000000 0 0 1
24.967565 21.974294 16.701261 37.218020 0.721719 1.105440 0.028777 -0.004211 1218970.000000 0 0 1
25.046065 23.544894 16.495161 38.128175 0.754514 1.123395 0.037574 0.002565 -45964.700000 0 0 1
25.104165 23.891594 15.119961 37.810588 0.760655 1.159403 0.065850 -0.013767 39425.300000 0 0 1
24.822165 25.265894 14.892661 38.422605 0.794257 1.172768 0.069750 -0.019416 -315778.000000 0 0 1
24.587065 25.643494 13.416161 37.975069 0.806427 1.209712 0.066619 -0.014914 -348682.000000 0 0 1
23.510765 24.993494 12.817861 36.629610 0.815958 1.213298 0.061858 -0.009457 -389564.000000 0 0 1
23.291965 25.724094 11.623261 36.597060 0.834977 1.247598 0.055022 -0.020031 -308319.000000 0 0 1
22.642665 24.867294 10.560861 35.250593 0.832188 1.266529 0.066505 -0.022119 93431.700000 0 0 1
21.247465 24.675294 10.798261 34.306374 0.859903 1.250593 0.062607 -0.015930 185531.000000 0 0 1
20.885465 23.319694 11.068261 33.204174 0.840409 1.230953 0.065867 -0.019127 76092.800000 0 0 1
20.611765 22.317194 9.866861 31.941461 0.825104 1.256755 0.091453 -0.031860 1249320.000000 0 0 1
19.418065 22.714394 9.099661 31.237938 0.863476 1.275209 0.101001 -0.032085 1308640.000000 0 0 1
19.728365 23.489094 7.984261 31.696913 0.872198 1.316159 0.089432 -0.026065 282594.000000 0 0 1
18.508465 23.708594 7.030161 30.888248 0.907957 1.341184 0.081677 -0.023305 -469269.000000 0 0 1
18.077265 22.554594 6.420261 29.609406 0.895148 1.352228 0.092948 -0.017621 132094.000000 0 0 1
17.377465 22.648294 5.196861 29.016010 0.916331 1.390721 0.095515 -0.017081 -189487.000000 0 0 1
15.979165 23.278494 5.232561 28.715878 0.969233 1.387554 0.074372 -0.014100 -810222.000000 0 0 1
16.018765 24.663894 5.141061 29.855301 0.994785 1.397734 0.077379 -0.020637 559556.000000 0 0 1
14.777165 25.248894 5.556661 29.778309 1.041286 1.383095 0.065661 -0.018851 412994.000000 0 0 1
14.646365 26.778094 5.302261 30.978965 1.070295 1.398793 0.052684 -0.018595 -245148.000000 0 0 1
14.170665 27.102594 4.018861 30.846549 1.089034 1.440139 0.052785 -0.015550 144247.000000 0 0 1
14.272765 28.506994 3.777961 32.103481 1.106608 1.452842 0.052933 -0.018136 -365378.000000 0 0 1
13.626665 29.077494 2.497561 32.209074 1.132556 1.493176 0.060816 -0.017193 -394802.000000 0 0 1
14.199865 28.653394 1.283161 32.004681 1.110696 1.530693 0.090218 -0.020238 -95748.500000 0 0 1
13.974865 27.287994 0.896261 30.671399 1.097496 1.541571 0.068422 -0.016037 -41231.100000 0 0 1
15.117165 26.700494 0.033961 30.682995 1.055619 1.569689 0.064299 -0.021644 99149.500000 0 0 1
15.112765 27.205694 -1.267039 31.147244 1.063740 1.611487 0.053193 -0.007300 171434.000000 0 0 1
16.163465 26.614894 -2.032839 31.204849 1.025020 1.635987 0.049912 -0.005233 193521.000000 0 0 1
16.257065 27.210094 -3.461239 31.885130 1.032243 1.679564 0.054285 -0.020354 483283.000000 0 0 1
15.208365 26.811294 -4.377439 31.133612 1.054816 1.711865 0.078990 -0.026374 426073.000000 0 0 1
15.400765 27.484894 -5.624639 32.003742 1.060053 1.747463 0.086397 -0.024029 -192073.000000 0 0 1
14.228265 27.301194 -6.571539 31.479895 1.090365 1.781097 0.103891 -0.038645 -109901.000000 0 0 1
14.195265 26.036194 -7.293239 30.538177 1.071636 1.811951 0.059917 -0.022884 696159.000000 0 0 1
12.876965 25.920294 -7.876439 29.995268 1.109719 1.836501 0.048920 -0.035800 1076480.000000 0 0 1
12.521265 24.451294 -8.320039 28.703151 1.097524 1.864882 0.051429 -0.016340 -32582.800000 0 0 1
13.048965 23.987294 -9.568639 28.934833 1.072575 1.907837 0.050107 -0.018702 179578.000000 0 0 1
12.842765 22.616594 -9.783939 27.787989 1.054354 1.930602 0.049202 -0.008108 -265546.000000 0 0 1
13.036465 22.087394 -11.245539 28.004723 1.037598 1.984014 0.059960 -0.011374 -79274.800000 0 0 1
12.335665 20.878094 -11.413739 26.801807 1.037138 2.010705 0.065328 -0.015368 -315902.000000 0 0 1
12.329165 20.228094 -12.669839 26.864640 1.023416 2.061921 0.058822 -0.015216 150502.000000 0 0 1
13.620565 19.546294 -13.239239 27.255363 0.962197 2.078015 0.041782 -0.005444 -4531.700000 0 0 1
14.634665 20.480594 -13.345439 28.490856 0.950364 2.058288 0.031193 0.000046 -924990.000000 0 0 1
15.816865 19.928794 -13.870739 28.978050 0.899928 2.069928 0.029579 0.005364 322925.000000 0 0 1
17.078065 20.841194 -13.786839 30.267021 0.884315 2.043738 0.034203 0.005864 124289.000000 0 0 1
17.134565 22.082794 -14.490439 31.483581 0.910909 2.049077 0.030986 -0.001365 -26528.400000 0 0 1
16.290065 23.172594 -14.088739 31.635863 0.958068 2.032351 0.026817 -0.001875 274660.000000 0 0 1
16.701665 24.604194 -14.643839 33.147458 0.974431 2.028377 0.035204 -0.001463 58097.300000 0 0 1
16.894065 24.872894 -15.996839 34.058319 0.974156 2.059735 0.025372 -0.002681 292572.000000 0 0 1
15.673365 24.861694 -16.753139 33.829363 1.008307 2.088890 0.013270 -0.001148 120638.000000 0 0 1
15.801365 24.798694 -18.300439 34.634728 1.003482 2.127492 0.006089 0.006787 56715.600000 0 0 1
16.188065 23.538094 -18.803839 34.200579 0.968347 2.152934 0.011358 0.009361 -229457.000000 0 0 1
16.236065 23.492894 -20.228639 34.996052 0.966065 2.187104 0.007127 0.008271 -317590.000000 0 0 1
16.651765 22.183294 -20.914439 34.738934 0.926883 2.216857 0.011151 0.009720 -357205.000000 0 0 1
15.644365 21.181794 -20.842939 33.583368 0.934647 2.240346 0.013725 0.012541 -28476.400000 0 0 1
16.007465 20.024094 -21.510639 33.465069 0.896415 2.268917 0.016067 0.006461 -198173.000000 0 0 1
14.931065 18.912994 -21.531739 32.314916 0.902515 2.300045 0.013811 0.004180 -526625.000000 0 0 1
14.528965 18.283094 -20.341039 30.969665 0.899316 2.287370 0.022777 -0.001846 -234811.000000 0 0 1
13.832065 17.137494 -20.702939 30.226336 0.891727 2.325305 0.018008 -0.006646 486279.000000 0 0 1
12.270565 17.245594 -20.884839 29.734723 0.952381 2.349521 0.031668 -0.011219 91576.900000 0 0 1
11.536365 17.213894 -19.704339 28.594874 0.980367 2.331024 0.033118 -0.014840 823330.000000 0 0 1
10.153365 17.346394 -20.126239 28.443869 1.041233 2.356860 0.036678 -0.012368 1290440.000000 0 0 1
9.042465 16.912694 -19.144439 27.098245 1.079810 2.355312 0.057643 -0.020230 -93618.600000 0 0 1
8.802565 15.505294 -19.140139 26.158061 1.054455 2.391625 0.070452 -0.029790 -154733.000000 0 0 1
7.493265 15.190494 -18.727839 25.251377 1.112534 2.406332 0.070304 -0.024892 155959.000000 0 0 1
7.047865 15.294694 -17.217739 24.084239 1.138994 2.367272 0.080080 -0.033797 -173176.000000 0 1 0
6.967165 16.688094 -16.802139 24.684929 1.175301 2.319465 0.097913 -0.030861 -351486.000000 0 1 0
6.493265 16.694694 -15.483739 23.677446 1.199859 2.283583 0.077185 -0.042109 -175940.000000 0 1 0
6.365365 18.152494 -15.078839 24.441814 1.233533 2.235630 0.079587 -0.036179 -338626.000000 0 1 0
7.608365 18.795294 -15.086639 25.273641 1.186158 2.210468 0.074771 -0.029595 -386352.000000 0 0 1
7.784165 19.577994 -16.278339 26.624713 1.192363 2.228624 0.085582 -0.022331 -128595.000000 0 0 1
8.948165 20.587194 -16.113739 27.632495 1.160783 2.193391 0.062863 -0.010027 69959.200000 0 0 1
8.873365 21.767194 -15.345339 28.071814 1.183714 2.149150 0.059174 -0.015071 -251586.000000 0 0 1
8.606065 21.547794 -13.986139 27.092136 1.190812 2.113255 0.056344 -0.021472 -129213.000000 0 0 1
8.398765 22.806994 -13.187039 27.651332 1.217953 2.067926 0.051874 -0.020403 -1316210.000000 0 0 1
7.201565 23.371794 -13.559039 27.963383 1.271897 2.077029 0.047966 -0.019524 -831396.000000 0 0 1
6.688065 24.384394 -12.690239 28.290829 1.303103 2.035954 0.031468 -0.018889 194228.000000 0 0 1
6.156165 23.912994 -11.302939 27.156694 1.318828 2.000072 0.023274 -0.011094 -1228640.000000 0 0 1
7.139865 23.489594 -10.446239 26.680753 1.275712 1.973087 0.025684 -0.008285 -724237.000000 0 0 1
6.601365 22.996394 -9.216639 25.639005 1.291252 1.938504 0.038525 -0.014022 179684.000000 0 0 1
7.590665 22.934094 -8.023639 25.455247 1.251168 1.891470 0.028478 -0.014092 68672.000000 0 0 1
7.903965 24.244494 -7.502039 26.580984 1.255651 1.856918 0.035814 -0.009365 610963.000000 0 0 1
8.825665 24.142794 -6.401139 26.490402 1.220326 1.814852 0.043298 -0.010558 218718.000000 0 0 1
9.022865 25.465994 -5.679939 27.607800 1.230287 1.778013 0.039584 -0.007812 -186548.000000 0 0 1
9.603465 26.416894 -6.527839 28.856394 1.222115 1.798990 0.045074 -0.021766 138054.000000 0 0 1
9.917165 27.588794 -5.739639 29.873653 1.225716 1.764129 0.044670 -0.008721 100964.000000 0 0 1
10.117265 28.848494 -6.640539 31.284043 1.233495 1.784690 0.042091 -0.009751 -128234.000000 0 0 1
11.346265 28.942094 -7.303539 31.933120 1.197177 1.801552 0.051323 -0.018578 -642420.000000 0 0 1
11.430465 30.074994 -8.114639 33.181442 1.207592 1.817856 0.044480 -0.015253 711336.000000 0 0 1
12.855965 30.360494 -8.685239 34.094996 1.170244 1.828371 0.070490 -0.031564 489700.000000 0 0 1
13.904765 30.590194 -7.796939 34.494850 1.144165 1.798799 0.062778 -0.025783 -339079.000000 0 0 1
15.072465 30.965094 -8.528539 35.478898 1.117799 1.813557 0.065559 -0.026400 373263.000000 0 0 1
16.258565 31.229794 -7.571239 36.013394 1.090796 1.782611 0.062802 -0.026481 -322085.000000 0 0 1
16.889465 30.082494 -7.179339 35.238521 1.059214 1.775968 0.059235 -0.022435 -416372.000000 0 0 1
18.017965 30.402094 -6.377939 35.911174 1.035795 1.749347 0.049815 -0.013220 349147.000000 0 0 1
19.017965 29.219894 -6.221239 35.414530 0.993819 1.747382 0.048248 -0.007888 -230753.000000 0 0 1
18.823365 28.257794 -5.143639 34.340631 0.983165 1.721145 0.054599 -0.013969 -315346.000000 0 0 1
19.819065 27.289694 -4.935439 34.086379 0.942671 1.716099 0.045999 -0.010068 -498925.000000 0 0 1
20.078765 26.217894 -6.056839 33.574097 0.917233 1.752192 0.042579 0.001733 -67700.600000 0 0 1
20.577765 26.708494 -7.277239 34.492698 0.914330 1.783373 0.033365 0.004099 412346.000000 0 0 1
20.116065 25.833694 -8.325739 33.783927 0.909194 1.819802 0.026890 0.002385 -818117.000000 0 0 1
20.611565 26.351594 -9.679039 34.827100 0.907019 1.852421 0.029454 -0.000268 1343930.000000 0 0 1
22.044965 26.198094 -9.868039 35.632833 0.871274 1.851401 0.041884 -0.001093 1282700.000000 0 0 1
22.557765 24.889494 -9.947339 35.032687 0.834502 1.858702 0.047837 0.000607 68575.300000 0 0 1
24.097265 24.881794 -9.604739 35.944858 0.801414 1.841290 0.034504 0.003675 335358.000000 0 0 1
24.859965 25.386294 -10.615239 37.083218 0.795873 1.861112 0.036728 0.004252 -621749.000000 0 0 1
26.211765 25.333594 -10.206739 37.855318 0.768363 1.843800 0.024812 0.009497 37376.800000 0 0 1
27.228565 25.339794 -11.364139 38.892718 0.749484 1.867314 0.023624 0.013175 -124211.000000 0 0 1
27.214265 26.476094 -12.164539 39.869484 0.771650 1.880849 0.028579 0.009218 -337314.000000 0 0 1
28.147165 26.276394 -13.174639 40.697455 0.751037 1.900456 0.030943 0.005661 -116822.000000 0 0 1
27.880565 27.193294 -14.379139 41.515789 0.772920 1.924478 0.040605 0.005267 255577.000000 0 0 1
28.365365 28.516394 -14.146839 42.636975 0.788053 1.909005 0.028868 0.010055 131063.000000 0 0 1
27.988265 29.318794 -15.268939 43.313683 0.808612 1.931059 0.039504 0.012432 -43072.900000 0 0 1
28.259965 30.842194 -15.224639 44.515796 0.829061 1.919846 0.025099 0.007551 -19464.600000 0 0 1
29.631165 31.151394 -15.129939 45.577739 0.810404 1.909176 0.010008 0.002011 -97567.200000 0 0 1
29.907765 32.493194 -15.412039 46.774063 0.826807 1.906570 0.004927 -0.006413 -256830.000000 0 0 1
15.889265 -32.075323 -27.953974 45.417175 -1.110857 2.233808 0.091756 -0.029209 80663.400000 0 0 1
16.971465 -32.893223 -27.544604 46.137837 -1.094465 2.210561 0.073769 -0.019496 331357.000000 0 0 1
17.486365 -32.679123 -26.223834 45.402506 -1.079470 2.186564 0.074779 -0.016943 191496.000000 0 0 1
18.683765 -33.578123 -25.784364 46.275337 -1.063032 2.161800 0.030750 -0.014107 813317.000000 0 0 1
19.970465 -33.313323 -26.346244 46.933160 -1.030764 2.166821 0.052827 -0.012444 759619.000000 0 0 1
20.178965 -33.477223 -27.780014 47.954606 -1.028345 2.188664 0.063585 -0.011889 -1283430.000000 0 0 1
21.618065 -33.143223 -28.117764 48.542998 -0.992833 2.188585 0.066114 -0.007318 -627921.000000 0 0 1
21.860865 -31.776723 -28.006224 47.665565 -0.968202 2.198832 0.061313 -0.019435 1013850.000000 0 0 1
23.260765 -31.557223 -27.718314 48.012774 -0.935604 2.186228 0.026813 -0.009900 989998.000000 0 0 1
23.847365 -30.296323 -28.422094 47.899681 -0.903948 2.206032 0.011419 0.001153 -74879.300000 0 0 1
23.976065 -30.504823 -29.796634 48.920704 -0.904665 2.225697 0.013686 -0.007034 -38335.000000 0 0 1
24.482065 -29.282923 -30.339124 48.757805 -0.874455 2.242399 0.021268 -0.016102 173129.000000 0 0 1
24.821065 -29.452023 -31.841144 49.973647 -0.870519 2.261602 0.026799 -0.014529 998738.000000 0 0 1
25.946365 -30.319223 -32.146724 51.243351 -0.862960 2.248922 0.038381 -0.018609 619027.000000 0 0 1
26.115865 -30.593623 -33.530224 52.366822 -0.864194 2.265679 0.031723 -0.016183 -436111.000000 0 0 1
27.406965 -31.354223 -33.798114 53.633399 -0.852472 2.252567 0.022908 -0.019165 -1095330.000000 0 0 1
28.546265 -30.597123 -33.624684 53.681399 -0.820060 2.247690 0.029977 -0.020892 -1434860.000000 0 0 1
29.635665 -31.370523 -34.038784 54.963817 -0.813828 2.238640 0.030079 -0.012560 -571062.000000 0 0 1
30.930465 -30.564123 -34.075182 55.244704 -0.779441 2.235473 0.040553 -0.016801 -488513.000000 0 0 1
30.922165 -29.660423 33.268983 54.247085 -0.764574 0.910582 0.046894 -0.016817 651214.000000 0 0 1
32.215465 -29.041923 33.214783 54.630498 -0.733638 0.917270 0.057432 -0.019932 618873.000000 0 0 1
32.359765 -28.198823 31.923091 53.492165 -0.716797 0.931313 0.052762 -0.017992 -506318.000000 0 0 1
33.560865 -27.469723 31.802471 53.780243 -0.685923 0.938075 0.033208 -0.017006 96418.700000 0 0 1
33.621565 -26.635223 30.641121 52.713595 -0.669971 0.950501 0.050554 -0.015170 -380543.000000 0 0 1
34.250165 -27.289723 29.381211 52.735741 -0.672772 0.979858 0.044319 -0.013728 -631240.000000 0 0 1
33.524465 -28.173323 28.612121 52.309458 -0.698883 0.992046 0.041413 -0.019652 396463.000000 0 0 1
32.425665 -27.607123 27.886611 50.904225 -0.705305 0.991034 0.044424 -0.014607 310986.000000 0 0 1
31.759365 -28.593823 26.869811 50.480201 -0.732996 1.009500 0.039026 -0.011654 253244.000000 0 0 1
30.568165 -27.979123 26.376191 49.121762 -0.741206 1.003972 0.032172 -0.002711 438161.000000 0 0 1
29.957865 -28.859823 25.457111 48.769125 -0.766732 1.021611 0.036846 -0.000162 -158445.000000 0 0 1
28.576665 -28.462423 24.925861 47.413436 -0.783395 1.017243 0.039085 0.003076 -353644.000000 0 0 1
27.526465 -28.391923 25.837841 47.237714 -0.800874 0.992050 0.049297 0.000131 21755.600000 0 0 1
26.325065 -28.060323 25.165831 45.975100 -0.817294 0.991566 0.058853 0.001864 658716.000000 0 0 1
25.019465 -27.781723 25.965421 45.519236 -0.837665 0.963770 0.065401 -0.003462 175218.000000 0 0 1
25.006565 -26.692923 26.841791 45.368736 -0.818005 0.937709 0.058047 -0.008747 -538333.000000 0 0 1
23.798165 -26.742623 27.518311 45.152829 -0.843591 0.915432 0.059961 -0.015525 -572176.000000 0 0 1
23.802865 -25.706223 28.635011 45.247654 -0.823824 0.885567 0.063918 -0.007374 -269392.000000 0 0 1
22.619465 -25.660223 29.394831 45.101478 -0.848297 0.860908 0.073709 -0.006292 -78356.300000 0 0 1
22.635865 -24.565923 30.328291 45.118424 -0.826265 0.833629 0.075527 -0.005749 -16208.200000 0 0 1
21.965365 -23.185323 29.995451 43.815107 -0.812411 0.816753 0.078159 -0.016203 -184148.000000 0 0 1
22.611765 -22.559823 28.908221 43.080422 -0.784248 0.835200 0.082406 -0.016784 235335.000000 0 0 1
22.283865 -21.140223 28.657961 42.009028 -0.759068 0.820048 0.084479 -0.012041 275181.000000 0 0 1
23.207365 -20.112823 29.379051 42.499836 -0.714085 0.807545 0.090732 -0.011179 405928.000000 0 0 1
22.841065 -20.165223 30.761681 43.297015 -0.723259 0.780616 0.090880 -0.007543 266046.000000 0 0 1
23.676565 -19.296423 31.491911 43.871086 -0.683821 0.770118 0.083609 -0.010338 -128555.000000 0 0 1
23.164065 -18.992023 32.902363 44.495352 -0.686753 0.738534 0.099259 -0.013827 -229490.000000 0 0 1
23.257165 -20.111923 33.757604 45.661373 -0.713002 0.738761 0.069259 -0.010103 490851.000000 0 0 1
22.403565 -19.976423 -33.515474 44.991824 -0.728190 2.411217 0.070958 -0.012041 247209.000000 0 0 1
22.415165 -21.208923 -32.637634 44.916291 -0.757754 2.384204 0.042885 -0.003443 389368.000000 0 0 1
23.578465 -21.435623 -31.841904 45.048161 -0.737830 2.355819 0.032536 0.003091 306561.000000 0 0 1
23.307765 -22.471823 -30.968934 44.803009 -0.767140 2.333978 0.014821 0.002439 645449.000000 0 0 1
24.507265 -22.666323 -29.969284 44.861188 -0.746393 2.302374 0.014032 -0.001941 881055.000000 0 0 1
25.613165 -23.379623 -30.512424 46.191439 -0.739841 2.292367 0.034375 -0.001035 -495385.000000 0 0 1
26.549765 -23.577223 -29.480714 46.150709 -0.726167 2.263724 0.036649 -0.010318 -617682.000000 0 0 1
27.748465 -24.440523 -29.884904 47.543916 -0.722099 2.250516 0.036198 -0.003983 87746.700000 0 0 1
28.665765 -23.746423 -30.764104 48.291291 -0.691814 2.261465 0.040038 -0.001853 355736.000000 0 0 1
28.241665 -23.637123 -32.093114 48.849495 -0.696874 2.287602 0.043718 -0.004002 -437703.000000 0 0 1
28.755565 -24.788623 -32.958514 50.275461 -0.711446 2.285719 0.042389 -0.018895 17402.400000 0 0 1
28.028965 -25.968323 -32.652264 50.260790 -0.747255 2.277929 0.056917 -0.022063 128229.000000 0 0 1
28.514565 -27.160223 -33.276254 51.556447 -0.761077 2.272387 0.049461 -0.020842 196242.000000 0 0 1
28.087065 -27.424323 33.651959 51.705233 -0.773460 0.862103 0.053703 -0.008927 543062.000000 0 0 1
28.927265 -26.649423 32.787161 51.205238 -0.744436 0.875896 0.030356 -0.013325 352179.000000 0 0 1
28.398365 -26.775923 31.489981 50.150136 -0.756001 0.891926 0.032250 -0.009632 190928.000000 0 0 1
29.334765 -26.214923 30.331731 49.676600 -0.729294 0.913999 0.036067 -0.016421 403300.000000 0 0 1
29.591865 -24.788023 30.240291 49.036719 -0.697288 0.906270 0.036091 -0.015399 270590.000000 0 0 1
29.854065 -24.114423 31.448121 49.616075 -0.679445 0.884302 0.030902 -0.008434 -2423660.000000 0 0 1
30.356065 -22.659123 31.329111 49.157296 -0.641222 0.879776 0.021839 -0.003881 781405.000000 0 0 1
31.654365 -22.406523 30.787461 49.516854 -0.615975 0.899812 0.015710 -0.005303 131629.000000 0 0 1
32.661165 -23.180023 31.360691 50.868046 -0.617214 0.906493 0.018223 -0.006131 -2302900.000000 0 0 1
34.087065 -22.732523 31.032681 51.397694 -0.588161 0.922567 0.017266 -0.015402 -355243.000000 0 0 1
34.450965 -22.898823 29.682431 50.914358 -0.586625 0.948396 0.013988 -0.012149 459833.000000 0 0 1
35.777765 -22.410623 29.476501 51.489306 -0.559594 0.961271 0.007368 -0.012556 455098.000000 0 0 1
36.244865 -22.671023 28.040471 51.126642 -0.558956 0.990285 0.020593 -0.011657 -229058.000000 0 0 1
-36.117440 -24.026323 27.806011 51.525799 0.587006 1.000772 0.023773 -0.007222 181591.000000 0 0 1
-35.760140 -24.140623 26.460141 50.613204 0.593798 1.020674 0.019780 0.005476 -255363.000000 0 0 1
-35.475640 -25.573523 26.054091 50.905224 0.624599 1.033499 0.011194 -0.001497 -222271.000000 0 0 1
36.069965 -26.357923 26.084401 51.731794 -0.631063 1.042313 0.023548 -0.000065 143045.000000 0 0 1
36.216865 -27.683823 25.692691 52.327524 -0.652648 1.057562 0.027795 0.001153 295326.000000 0 0 1
-35.574040 -28.662623 26.519901 52.823891 0.678217 1.044836 0.028491 -0.012267 -205283.000000 0 0 1
-35.460540 -29.963723 25.811551 53.117896 0.701577 1.063370 0.033711 -0.006051 228197.000000 0 0 1
-34.569940 -30.881623 26.442101 53.366096 0.729106 1.052403 0.037604 -0.015320 888255.000000 0 0 1
-33.053540 -30.485223 26.371481 52.128115 0.744999 1.040374 0.040721 -0.007838 -130996.000000 0 0 1
-32.584740 -30.325523 25.050931 51.077900 0.749502 1.058195 0.032847 0.000004 -285126.000000 0 0 1
-31.298840 -29.778223 24.993241 49.910140 0.760507 1.046314 0.012829 -0.000837 -522668.000000 0 0 1
-30.831940 -29.540223 23.553191 48.764600 0.764006 1.066721 0.007869 0.005144 -363575.000000 0 0 1
-30.497040 -30.821723 22.967061 49.066628 0.790693 1.083681 0.012055 0.007482 103635.000000 0 0 1
-30.022540 -30.551723 21.713561 48.023322 0.794134 1.101626 0.010843 0.003919 -958569.000000 0 0 1
-29.998040 -31.825723 20.851861 48.451617 0.814952 1.125900 0.017304 0.004647 16569.700000 0 0 1
-29.094140 -32.832623 21.244461 48.741946 0.845694 1.119807 0.007787 -0.000859 -753549.000000 0 0 1
-27.749440 -32.541723 21.041261 47.662668 0.864717 1.113569 0.014253 0.002402 -1112320.000000 0 0 1
-26.916940 -33.803923 21.332661 48.190345 0.898336 1.112217 0.002921 0.011549 -659923.000000 0 0 1
-26.867340 33.614694 20.304661 47.582359 -0.896498 1.129926 0.000299 0.006122 544906.000000 0 0 1
-28.051840 32.825594 20.085561 47.622003 -0.863654 1.135399 0.011854 -0.000564 615217.000000 0 0 1
-28.262340 31.735994 21.189661 47.486155 -0.843229 1.108250 0.021891 -0.002053 5590.560000 0 0 1
-27.257940 30.754894 21.164361 46.225415 -0.845604 1.095220 0.016961 0.001014 -83436.600000 0 0 1
-27.571840 29.705494 22.061661 46.144768 -0.822632 1.072310 0.024620 -0.001504 -93820.900000 0 0 1
-26.636740 28.507294 21.817061 44.700849 -0.819306 1.060921 0.032016 -0.003937 391552.000000 0 0 1
-25.264940 28.859594 21.913661 44.174675 -0.851715 1.051731 0.022839 0.002508 242221.000000 0 0 1
-24.407040 27.949594 21.237161 42.753952 -0.852957 1.050970 0.017746 -0.006842 1793390.000000 0 0 1
-22.846140 28.279994 21.253261 42.111819 -0.891284 1.041778 0.008339 0.002722 1439660.000000 0 0 1
-22.305840 28.239694 22.540361 42.462910 -0.902259 1.011223 0.012889 0.002374 243388.000000 0 0 1
-20.997440 28.766694 22.591261 42.175588 -0.940270 1.005522 0.031228 -0.001413 115441.000000 0 0 1
-20.287440 28.645994 23.991811 42.517999 -0.954580 0.971242 0.014964 0.000132 -588988.000000 0 0 1
-20.135740 27.332794 24.556931 41.899553 -0.935869 0.944571 0.021756 -0.004085 450883.000000 0 0 1
-19.794340 27.362794 25.961901 42.597637 -0.944535 0.915407 0.017600 -0.007192 388592.000000 0 0 1
-18.445240 28.050594 26.372881 42.691821 -0.989118 0.904918 0.023918 -0.009536 -187651.000000 0 0 1
-18.353440 29.471694 26.205911 43.499187 -1.013818 0.924234 0.002897 -0.006370 -474106.000000 0 0 1
-17.162140 30.039494 26.666711 43.680931 -1.051733 0.914119 0.017257 -0.009545 -542916.000000 0 0 1
-16.895840 30.140494 28.267251 44.642539 -1.059875 0.885127 0.007588 -0.001360 -353133.000000 0 0 1
-16.723340 28.924094 28.838951 44.135682 -1.046575 0.858708 0.015846 0.004098 177554.000000 0 0 1
-16.813740 29.119394 30.257431 45.234424 -1.047155 0.838065 0.015519 0.001882 -231355.000000 0 0 1
-16.708040 27.836294 31.077871 44.942763 -1.030211 0.807234 0.008860 0.008170 738606.000000 0 0 1
-15.348740 27.408394 31.324691 44.362599 -1.060307 0.786813 0.013054 0.012010 986086.000000 0 0 1
-15.133540 26.360394 32.286611 44.343203 -1.049638 0.755240 0.023239 0.009138 -163175.000000 0 0 1
-15.660040 26.550994 33.777195 45.728449 -1.037903 0.739735 0.016624 0.014742 -516014.000000 0 0 1
-17.051140 26.543894 33.830925 46.258526 -0.999800 0.750505 0.007498 0.009038 -728176.000000 0 0 1
-17.577940 27.020394 -33.337444 46.373169 -0.994039 2.373008 0.012686 0.003754 601407.000000 0 0 1
-18.843140 26.284394 -32.826404 46.081516 -0.948821 2.363645 0.003868 0.004235 312622.000000 0 0 1
-19.920440 26.219294 -33.744484 47.148335 -0.921076 2.368435 0.012314 0.001905 -795840.000000 0 0 1
-21.052340 25.757194 -33.096274 46.925445 -0.885572 2.353635 0.033831 -0.004733 -721944.000000 0 0 1
-22.245540 25.785794 -34.098448 48.192067 -0.858972 2.356826 0.054172 -0.023526 -753550.000000 0 0 1
-22.225940 24.967394 33.179416 47.098162 -0.843423 0.789115 0.051430 -0.019879 -54614.200000 0 0 1
-22.153240 23.545594 33.315051 46.422555 -0.815857 0.770377 0.039975 -0.011640 -396161.000000 0 0 1
-22.414740 22.885794 31.951961 45.244977 -0.795796 0.786681 0.034900 -0.009908 -37474.500000 0 0 1
-23.766840 22.932694 31.556591 45.679203 -0.767538 0.808159 0.054771 -0.015503 -241581.000000 0 0 1
-23.910840 22.538294 30.226591 44.646946 -0.755857 0.827099 0.079247 -0.011536 -48971.200000 0 0 1
-25.341440 22.134694 29.850111 44.979578 -0.717956 0.845126 0.090901 -0.024077 -64686.500000 0 0 1
-25.774140 20.917994 30.419771 45.024785 -0.681767 0.828987 0.104552 -0.025367 -246101.000000 0 0 1
-26.932940 20.439994 29.792881 45.064314 -0.649187 0.848487 0.110688 -0.032433 -361111.000000 0 0 1
-27.382440 19.031394 30.263411 45.031834 -0.607377 0.833830 0.131840 -0.033905 -424589.000000 0 0 1
-27.967440 19.141694 31.574791 46.320078 -0.600198 0.820760 0.130465 -0.031180 191356.000000 0 0 1
-28.336440 17.894894 32.140271 46.434665 -0.563271 0.806317 0.099965 -0.024532 222168.000000 0 0 1
-29.289440 16.879194 31.419281 46.151379 -0.522803 0.821959 0.084312 -0.023964 1678620.000000 0 0 1
-30.728040 17.073394 31.615081 47.278183 -0.507155 0.838333 0.072233 -0.022935 1313690.000000 0 0 1
-31.468440 15.950794 31.237191 47.121680 -0.469138 0.846104 0.070961 -0.012194 -230669.000000 0 0 1
-32.965340 16.266694 31.148071 48.182168 -0.458393 0.867855 0.081728 -0.011925 84512.600000 0 0 1
-33.584040 16.742594 32.397938 49.576493 -0.462470 0.858605 0.070970 -0.006396 65425.500000 0 0 1
-34.955940 16.473494 32.436611 50.452230 -0.440396 0.872495 0.074887 -0.011768 -510922.000000 0 0 1
-35.494040 16.937194 33.807020 51.861451 -0.445229 0.860746 0.065422 0.001232 -607360.000000 0 0 1
35.845065 16.820294 34.007597 52.194900 0.438746 0.861170 0.053245 -0.006249 -217933.000000 0 0 1
35.427065 17.429194 -33.169224 51.565988 0.457206 2.269517 0.043276 -0.012183 982687.000000 0 0 1
33.867265 17.592394 -33.063914 50.494617 0.479087 2.284715 0.049228 -0.012649 602328.000000 0 0 1
33.222665 16.355394 -32.979044 49.586910 0.457466 2.298391 0.062544 -0.007288 -225832.000000 0 0 1
31.919965 16.606794 -32.496844 48.484168 0.479727 2.305351 0.062340 -0.008892 -63040.500000 0 0 1
30.942765 15.397594 -32.487684 47.434061 0.461738 2.325266 0.070192 -0.015033 -140066.000000 0 0 1
30.431965 15.185994 -33.791194 47.943338 0.462859 2.352959 0.062215 -0.019538 -468307.000000 0 0 1
29.818365 13.982594 -33.978524 47.320058 0.438480 2.371804 0.058602 -0.020103 -1008670.000000 0 0 1
30.754265 12.789994 -34.175296 47.721689 0.394118 2.369049 0.063290 -0.016661 -104660.000000 0 0 1
31.430965 12.415194 -32.979294 47.219449 0.376188 2.343992 0.073461 -0.007705 154516.000000 0 0 1
32.323065 11.371794 -33.336354 47.805969 0.338292 2.342457 0.078774 -0.010232 -81306.500000 0 0 1
17.705065 -20.967706 9.729126 29.116489 -0.869564 1.230098 0.039089 -0.008780 42146.300000 0 0 1
17.373365 -22.180706 10.356326 30.017845 -0.906343 1.218552 0.038839 -0.008050 -611360.000000 0 0 1
18.505765 -22.827606 10.799426 31.307995 -0.889580 1.218620 0.033137 -0.005962 -855747.000000 0 0 1
18.226365 -24.037306 11.698026 32.354849 -0.922034 1.200862 0.034793 0.002122 585867.000000 0 0 1
17.446465 -25.113336 11.071226 32.521237 -0.963630 1.223421 0.039923 -0.003685 482664.000000 0 0 1
16.070365 -25.060606 11.368426 31.867408 -1.000590 1.206019 0.045333 -0.003273 -389007.000000 0 0 1
15.224465 -26.116466 10.711126 32.071519 -1.043012 1.230277 0.051654 0.005135 -297224.000000 0 0 1
15.102165 -25.813686 9.335326 31.330019 -1.041446 1.268234 0.047389 -0.003547 -107533.000000 0 0 1
14.072565 -26.600136 8.791926 31.351273 -1.084187 1.286551 0.049206 0.007870 -132122.000000 0 0 1
13.850465 -26.193106 7.363426 30.530873 -1.084388 1.327215 0.049042 -0.001944 -40182.300000 0 0 1
12.985065 -25.064026 7.274026 29.150108 -1.092793 1.318594 0.048847 -0.012326 127097.000000 0 0 1
12.849865 -24.481306 5.972826 28.286535 -1.087440 1.358040 0.049623 0.002509 -186477.000000 0 0 1
12.149165 -23.161106 6.144326 26.866183 -1.087702 1.340053 0.053495 0.000809 -388072.000000 0 0 1
11.770265 -22.428306 4.968626 25.811922 -1.087510 1.377094 0.060670 0.000102 -7473.640000 0 0 1
11.022865 -21.275306 5.295126 24.539368 -1.092769 1.353305 0.060931 -0.004932 -21267.000000 0 1 0
10.271965 -20.695506 4.049826 23.456733 -1.110083 1.397276 0.052045 -0.012853 -7159.090000 0 1 0
11.079165 -20.260806 2.956026 23.280598 -1.070392 1.443479 0.044206 -0.007578 -663375.000000 0 1 0
10.326465 -19.688106 1.921126 22.314751 -1.087739 1.484597 0.033049 -0.000181 -399242.000000 0 1 0
11.045565 -19.195406 0.664526 22.156483 -1.048641 1.540799 0.034867 0.000559 29441.200000 0 1 0
11.825065 -18.039806 0.869026 21.587542 -0.990565 1.530530 0.029303 -0.001701 -570886.000000 0 1 0
12.622065 -17.691206 -0.192074 21.733205 -0.951090 1.579634 0.041009 -0.007657 -1049230.000000 0 1 0
13.694465 -16.685106 0.201526 21.586379 -0.883525 1.561460 0.033349 -0.001128 -784287.000000 0 1 0
14.748265 -17.468106 0.710026 22.872477 -0.869623 1.539749 0.042046 -0.008905 -235309.000000 0 1 0
15.932665 -16.696206 0.800626 23.092295 -0.808795 1.536119 0.042755 -0.018203 943230.000000 0 1 0
17.217865 -17.364606 1.417526 24.494771 -0.789641 1.512893 0.042520 -0.008646 673746.000000 0 1 0
17.672365 -18.513206 0.718726 25.604059 -0.808631 1.542722 0.045023 -0.011115 -395104.000000 0 0 1
18.850465 -18.937506 1.341326 26.753847 -0.787702 1.520639 0.043843 -0.001204 -203735.000000 0 0 1
19.252765 -20.204006 0.586126 27.914411 -0.809502 1.549798 0.028798 -0.001363 623181.000000 0 0 1
18.365065 -21.322006 0.913926 28.155618 -0.859767 1.538331 0.031943 0.000485 658577.000000 0 0 1
18.614365 -22.359606 -0.009274 29.093756 -0.876550 1.571115 0.038994 -0.004697 336457.000000 0 0 1
17.604665 -23.578906 0.128926 29.426275 -0.929457 1.566415 0.039931 0.003025 234653.000000 0 0 1
17.748865 -24.356106 1.329326 30.166359 -0.941052 1.526716 0.029793 0.004822 321868.000000 0 0 1
16.660865 -25.244716 1.619626 30.290317 -0.987441 1.517301 0.029449 0.005515 225339.000000 0 0 1
16.732065 -25.941136 3.023826 31.016900 -0.997943 1.473152 0.039328 0.005900 456299.000000 0 0 1
17.752765 -26.938136 3.088026 32.409254 -0.988106 1.475369 0.026346 0.008916 -164805.000000 0 0 1
18.867465 -26.506376 3.811626 32.758170 -0.952189 1.454176 0.034670 0.010508 2521.520000 0 0 1
20.000565 -27.618736 3.842226 34.315884 -0.944035 1.458595 0.049329 0.010479 639249.000000 0 0 1
20.478265 -28.002706 2.529226 34.783730 -0.939374 1.498019 0.042279 0.002580 74280.600000 0 0 1
21.461965 -29.043006 2.555226 36.202781 -0.934391 1.500157 0.057082 -0.002719 84604.300000 0 0 1
20.968865 -30.453576 2.897026 37.087820 -0.967795 1.492604 0.059553 -0.006133 -175552.000000 0 0 1
20.628765 -30.697826 4.259626 37.229651 -0.979114 1.456130 0.062053 -0.007228 -206144.000000 0 0 1
20.036765 -31.961126 4.466126 37.985942 -1.010824 1.452951 0.057571 -0.022124 -236051.000000 0 0 1
19.774265 -32.174076 5.958126 38.232081 -1.019709 1.414318 0.074587 -0.025337 -272503.000000 0 0 1
20.837065 -32.790446 6.631226 39.412813 -1.004710 1.401742 0.060794 -0.029677 -42234.700000 0 0 1
20.375265 -33.326866 7.874326 39.847665 -1.022054 1.371876 0.062026 -0.029567 350591.000000 0 0 1
21.313965 34.019255 8.552326 41.045548 1.011100 1.360897 0.058898 -0.032044 743839.000000 0 0 1
22.431865 -33.745216 9.167026 41.544705 -0.984127 1.348311 0.060652 -0.026324 423599.000000 0 0 1
23.397665 33.729453 9.653626 42.170122 0.964320 1.339827 0.079394 -0.037334 271301.000000 0 0 1
24.471765 -33.941176 10.460726 43.131166 -0.946112 1.325820 0.081098 -0.029273 -561983.000000 0 0 1
25.196665 -32.979036 9.777626 42.639075 -0.918382 1.339426 0.070481 -0.023230 -34068.800000 0 0 1
26.065765 -32.275956 10.659826 42.834488 -0.891444 1.319292 0.068140 -0.018802 175070.000000 0 0 1
26.804865 -31.138166 9.937126 42.270943 -0.860045 1.333494 0.070900 -0.018143 -49775.600000 0 0 1
25.919865 -30.084186 9.589626 40.851666 -0.859619 1.333843 0.054395 -0.013367 134899.000000 0 0 1
26.503765 -29.258026 8.622826 40.408350 -0.834751 1.355751 0.058634 -0.010172 -45192.200000 0 0 1
25.944065 -27.805146 8.522426 38.972457 -0.820010 1.350337 0.054331 -0.004124 125943.000000 0 0 1
26.491465 -26.995946 9.550026 39.010022 -0.794830 1.323473 0.060743 -0.017798 139721.000000 0 0 1
26.116765 -25.664976 9.345226 37.790338 -0.776674 1.320912 0.050161 -0.011412 -152665.000000 0 0 1
26.833665 -24.757106 10.346326 37.947415 -0.745169 1.294651 0.043840 -0.022492 -622716.000000 0 0 1
28.180965 -24.645406 10.006626 38.751715 -0.718570 1.309613 0.054522 -0.017959 -989994.000000 0 0 1
28.804265 -23.821006 11.029426 38.971454 -0.690986 1.283862 0.040279 -0.023701 -471146.000000 0 0 1
30.258365 -23.575706 10.665626 39.813793 -0.661896 1.299596 0.055548 -0.024418 -524118.000000 0 0 1
30.365465 -22.891206 9.395126 39.170616 -0.645965 1.328584 0.057923 -0.025825 129028.000000 0 0 1
31.705365 -22.641506 8.982126 39.981828 -0.620141 1.344207 0.063622 -0.024610 402993.000000 0 0 1
31.625765 -21.837806 7.618626 39.180636 -0.604326 1.375101 0.071750 -0.008339 -197745.000000 0 0 1
31.327565 -20.432206 7.726526 38.191499 -0.577928 1.367080 0.074966 -0.005577 -59547.000000 0 0 1
31.523565 -19.807306 6.470426 37.787973 -0.560993 1.398719 0.070007 -0.004725 -179616.000000 0 0 1
31.140265 -18.334806 6.322526 36.685904 -0.532130 1.397589 0.084633 -0.006198 93818.700000 0 0 1
31.860865 -17.566706 7.284026 37.104729 -0.503884 1.373203 0.093123 -0.004433 167233.000000 0 0 1
31.613465 -16.198206 7.219426 36.247940 -0.473505 1.370288 0.099556 -0.008715 -99513.200000 0 0 1
32.065865 -15.479106 8.525226 36.612865 -0.449735 1.335791 0.099212 -0.024313 112166.000000 0 0 1
33.473065 -15.455306 8.649326 37.869822 -0.432560 1.340366 0.097967 -0.021067 -135672.000000 0 0 1
33.880665 -14.808106 9.828326 38.259318 -0.412047 1.310996 0.092266 -0.027972 -153737.000000 0 0 1
35.408165 -14.745706 9.923626 39.618838 -0.394606 1.317623 0.076581 -0.030457 -236803.000000 0 0 1
36.074365 -13.929706 9.006226 39.705272 -0.368500 1.341978 0.083812 -0.024009 -71867.100000 0 0 1
-35.264040 -14.193706 8.968626 39.057011 0.382658 1.339100 0.077369 -0.027092 8002.180000 0 0 1
-34.416240 -13.274606 8.101926 37.766837 0.368125 1.354591 0.073253 -0.029274 -723763.000000 0 0 1
-34.670540 -13.262006 6.714826 37.722885 0.365343 1.391839 0.090166 -0.030506 -179584.000000 0 0 1
-33.724040 -12.588806 5.900926 36.477526 0.357270 1.408314 0.066353 -0.023801 -508924.000000 0 0 1
-32.605240 -13.508806 5.425726 35.707535 0.392785 1.418256 0.038008 -0.016681 -829912.000000 0 0 1
-31.880640 -13.970406 6.492326 35.407595 0.413006 1.386393 0.048997 -0.017534 -936310.000000 0 0 1
-30.778540 -14.719506 6.100326 34.658280 0.446088 1.393861 0.048128 -0.007693 53466.300000 0 0 1
-30.108540 -15.523606 7.285726 34.649507 0.476040 1.358946 0.039834 -0.013109 641201.000000 0 0 1
-31.055040 -16.490806 7.740426 36.003839 0.488154 1.354116 0.059083 -0.023510 276068.000000 0 0 1
-30.701640 -16.969006 9.029026 36.222386 0.504919 1.318874 0.042344 -0.020335 -537163.000000 0 0 1
-31.794740 -17.784106 9.678926 37.694318 0.509987 1.311113 0.032346 -0.025611 -174234.000000 0 0 1
-33.031040 -17.036106 9.772726 38.428957 0.476176 1.313666 0.044347 -0.020988 1350350.000000 0 0 1
-34.094940 -17.621506 10.533726 39.798767 0.477026 1.302930 0.068614 -0.031886 476320.000000 0 0 1
-34.643340 -19.058606 10.273726 40.852674 0.502949 1.316585 0.070236 -0.026686 -1404240.000000 0 0 1
-33.863240 -20.167706 10.467026 40.780070 0.537151 1.311221 0.064765 -0.019758 -945483.000000 0 0 1
-33.635140 -20.440206 11.866926 41.108985 0.546065 1.277959 0.072725 -0.031942 563385.000000 0 0 1
-34.848340 -21.008506 12.733326 42.636859 0.542516 1.267523 0.077907 -0.052465 707290.000000 0 0 1
-34.998540 -22.429706 12.719926 43.471670 0.569934 1.273849 0.097566 -0.053010 249655.000000 0 0 1
-36.128240 -22.821006 11.957626 44.373786 0.563379 1.297949 0.091818 -0.036604 41874.400000 0 0 1
36.241765 -24.334806 12.027026 45.280213 -0.591312 1.301956 0.089462 -0.029150 -42151.500000 0 0 1
35.948665 -24.690006 13.352626 45.609161 -0.601821 1.273682 0.128858 -0.030395 131628.000000 0 0 1
35.153865 -25.858866 13.371226 45.642796 -0.634215 1.273482 0.097598 -0.024258 -186415.000000 0 0 1
33.946365 -25.827766 14.333926 44.998785 -0.650403 1.246607 0.098097 -0.021658 -74711.900000 0 0 1
32.974665 -24.971606 13.754626 43.590129 -0.648155 1.249766 0.091428 -0.025181 -393938.000000 0 0 1
32.063865 -24.475706 14.710526 42.936595 -0.651986 1.221102 0.055299 -0.012175 -609822.000000 0 0 1
32.168265 -22.974706 15.079126 42.308562 -0.620195 1.206375 0.066368 -0.017178 -579892.000000 0 0 1
33.279065 -22.535306 15.774126 43.175910 -0.595233 1.196792 0.077743 -0.023174 -347172.000000 0 0 1
34.369465 -22.102706 14.943826 43.509857 -0.571503 1.220199 0.080145 -0.033123 1518140.000000 0 0 1
35.575765 -21.520206 15.846926 44.495835 -0.544023 1.206658 0.079206 -0.034988 974418.000000 0 0 1
35.351065 -20.211806 16.381726 43.892777 -0.519385 1.188317 0.076473 -0.026197 -62110.900000 0 0 1
34.376865 -20.138706 17.387526 43.470247 -0.529929 1.159294 0.063572 -0.028175 -241150.000000 0 0 1
34.341765 -18.755706 18.019426 43.079381 -0.499881 1.139241 0.066870 -0.016079 -418805.000000 0 0 1
34.056865 -17.767106 17.037126 42.021468 -0.480848 1.153338 0.054699 -0.021037 152245.000000 0 0 1
33.908965 -16.436006 17.522526 41.557179 -0.451341 1.135534 0.056921 -0.016784 -485224.000000 0 0 1
35.175265 -15.721506 17.984526 42.519504 -0.420313 1.134075 0.048607 -0.018232 -574728.000000 0 0 1
35.591865 -16.188106 19.251526 43.582759 -0.426860 1.113278 0.043925 -0.003845 190527.000000 0 0 1
-36.002840 -15.413606 19.650426 43.816926 0.404512 1.105747 0.052458 -0.013988 81369.100000 0 0 1
-35.717540 -15.583806 21.176226 44.351215 0.411409 1.073027 0.040950 -0.000603 -403367.000000 0 0 1
-35.111340 -16.812806 21.438126 44.441759 0.446579 1.067419 0.050871 0.004374 37578.300000 0 0 1
-34.625040 -16.885006 22.761526 44.744653 0.453721 1.037124 0.048844 0.005200 -243207.000000 0 0 1
-33.488040 -17.861806 23.010726 44.384530 0.489993 1.025770 0.049304 0.010523 -749473.000000 0 0 1
-33.949540 -19.223106 23.054926 45.316981 0.515215 1.037066 0.038577 0.009898 609357.000000 0 0 1
-32.990640 -20.201606 23.472126 45.248513 0.549446 1.025422 0.025388 0.012791 234851.000000 0 0 1
-31.815640 -20.637506 22.560326 44.126069 0.575432 1.034135 0.028865 0.018884 474919.000000 0 0 1
-30.767540 -19.670906 22.500026 42.893324 0.568845 1.018601 0.042607 0.022703 95460.700000 0 0 1
-29.528340 -20.288606 22.266526 42.182326 0.602008 1.014713 0.042806 0.011810 419807.000000 0 0 1
-28.300740 -19.311906 22.401926 40.935656 0.598803 0.991725 0.051746 0.014939 405258.000000 0 0 1
-27.975040 -19.032606 23.754126 41.341281 0.597411 0.958698 0.048737 0.015072 631561.000000 0 0 1
-26.862540 -18.136806 23.842426 40.236813 0.593867 0.936572 0.057118 0.003254 276720.000000 0 0 1
-26.368740 -17.746206 25.259926 40.599288 0.592376 0.899276 0.046194 -0.010026 -691278.000000 0 0 1
-25.466440 -16.649206 25.286026 39.561582 0.579021 0.877396 0.053984 -0.022486 193763.000000 0 0 1
-25.086940 -16.393106 26.611726 40.078329 0.578798 0.844650 0.054269 -0.027053 209533.000000 0 0 1
-23.966640 -17.314706 27.193726 40.170856 0.625635 0.827183 0.041930 -0.021836 -799854.000000 0 0 1
-24.369640 -18.629406 27.523526 41.212603 0.652686 0.839490 0.048432 -0.017690 -852286.000000 0 0 1
-23.440440 -19.412306 28.171726 41.472136 0.691674 0.823998 0.049466 -0.025481 -1392000.000000 0 0 1
-24.113140 -20.666306 28.722426 42.819593 0.708576 0.835539 0.051059 -0.018246 307611.000000 0 0 1
-24.995440 -20.393206 29.848726 43.949987 0.684347 0.824189 0.049778 -0.020196 519222.000000 0 0 1
-25.601440 -21.551306 30.348026 45.176269 0.699715 0.834202 0.047609 -0.014803 -1450490.000000 0 0 1
-26.839040 -21.251606 31.151726 46.286012 0.669731 0.832503 0.047152 -0.016433 -1241130.000000 0 0 1
-26.426240 -20.622406 32.358226 46.590607 0.662660 0.803040 0.063068 -0.026570 743189.000000 0 0 1
-27.434140 -20.553706 33.373826 47.842441 0.642990 0.798785 0.064650 -0.022862 936655.000000 0 0 1
-28.747340 -19.742806 33.106026 48.085309 0.601791 0.811398 0.047842 -0.024664 550810.000000 0 0 1
-29.599440 -20.176806 32.053426 48.069247 0.598312 0.840866 0.047762 -0.020955 -306389.000000 0 0 1
-30.909740 -19.777106 32.288026 48.878038 0.569195 0.849201 0.056959 -0.022481 -346320.000000 0 0 1
-32.028740 -20.365206 31.403726 49.262317 0.566358 0.879574 0.050657 0.005643 -92802.100000 0 0 1
-32.107040 -19.798006 30.118726 48.269667 0.552554 0.896986 0.044484 -0.012296 681135.000000 0 0 1
-33.295640 -20.263006 29.461626 48.858740 0.546703 0.923545 0.041297 -0.010897 556136.000000 0 0 1
-33.605940 -19.607006 28.121726 48.006514 0.528153 0.944942 0.028841 -0.005600 -676176.000000 0 0 1
-34.761840 -20.063806 27.514226 48.661838 0.523470 0.969858 0.011740 -0.002459 -552210.000000 0 0 1
-35.260640 -19.074906 26.588626 48.105300 0.495883 0.985175 0.020339 0.004028 -211328.000000 0 0 1
36.198265 -19.582306 25.891226 48.622389 -0.495887 1.009250 0.005260 0.006928 -1001510.000000 0 0 1
35.087665 -19.629206 26.708426 48.267898 -0.510057 0.984431 0.006342 0.002486 -462341.000000 0 0 1
34.006865 -20.194306 25.975726 47.318233 -0.535871 0.989679 0.028819 0.002172 311881.000000 0 0 1
32.774565 -20.656006 26.783126 47.097543 -0.562362 0.965904 0.028602 -0.003342 48668.400000 0 0 1
32.089765 -19.626906 27.473826 46.580893 -0.548924 0.939974 0.025873 -0.009173 312174.000000 0 0 1
30.923265 -20.225506 28.032226 46.380223 -0.579220 0.921783 0.025248 -0.007079 94410.300000 0 0 1
-30.610025 -6.394706 33.853609 46.086145 0.205947 0.745760 0.002060 -0.001690 -468742.000000 0 0 1
-31.517095 -5.746006 33.037276 46.019621 0.180333 0.770022 -0.000563 0.001225 -130173.000000 0 0 1
-30.943465 -4.622306 32.402581 45.042103 0.148283 0.767881 0.018562 -0.001731 -22340.800000 0 0 1
-31.445735 -4.444906 30.882521 44.298099 0.140421 0.799379 0.013170 -0.001715 295345.000000 0 0 1
-31.026545 -5.445006 29.958411 43.471842 0.173726 0.810488 0.006001 0.002953 -1055390.000000 0 0 1
-29.755535 -5.303006 29.462711 42.208591 0.176367 0.798159 0.025028 -0.004252 -773599.000000 0 0 1
-29.288605 -6.298206 28.357231 41.250726 0.211814 0.812844 0.035719 -0.007424 -178746.000000 0 0 1
-30.039335 -6.002306 27.217441 40.977780 0.197218 0.844373 0.037826 -0.001650 -218664.000000 0 0 1
-29.620565 -6.778606 26.141051 40.083438 0.224974 0.860358 0.050403 -0.003568 -119778.000000 0 0 1
-30.400295 -6.451206 24.867481 39.801855 0.209107 0.895944 0.040465 -0.004712 -131733.000000 0 0 1
-30.040455 -5.246506 24.223971 38.945546 0.172904 0.899507 0.064067 -0.008563 -284310.000000 0 0 1
-30.712415 -5.128306 23.020461 38.723296 0.165452 0.934170 0.074378 -0.008297 -385310.000000 0 0 1
-30.383825 -3.854906 22.215661 37.836130 0.126199 0.943257 0.088578 -0.013431 -445847.000000 0 0 1
-29.110025 -3.993406 21.672661 36.510891 0.136332 0.935278 0.095177 -0.011863 -681368.000000 0 0 1
-28.705615 -2.740106 21.138261 35.753974 0.095167 0.938233 0.094245 -0.017332 -1377500.000000 0 0 1
-27.259205 -2.654106 20.801861 34.392238 0.097060 0.921229 0.086283 -0.016498 -1297520.000000 0 0 1
-26.909765 -3.430906 19.680161 33.514405 0.126813 0.943182 0.098145 -0.014087 -262383.000000 0 0 1
-25.565215 -3.200306 19.338761 32.215057 0.124534 0.926918 0.077065 -0.010458 -285004.000000 0 0 1
-25.287965 -3.706706 17.885761 31.194893 0.145543 0.960201 0.075895 -0.018923 99412.400000 0 0 1
-26.096755 -3.070406 16.873261 31.227792 0.117116 0.999969 0.084639 -0.015331 499311.000000 0 0 1
-25.806115 -3.631906 15.557061 30.350758 0.139820 1.032614 0.083376 -0.016062 -117619.000000 0 0 1
-26.989905 -3.906406 14.606761 30.936588 0.143738 1.079066 0.098950 -0.017839 -169096.000000 0 0 1
-27.458895 -2.812606 13.900961 30.905314 0.102074 1.104264 0.110123 -0.018181 -720995.000000 0 0 1
-28.713925 -3.053706 13.379761 31.825032 0.105951 1.136892 0.107988 -0.017902 -605535.000000 0 0 1
-29.277055 -1.899406 12.453861 31.872439 0.064786 1.169360 0.115262 -0.010929 -35376.300000 0 0 1
-28.525815 -1.850106 11.265061 30.725342 0.064767 1.195404 0.128340 -0.016541 264394.000000 0 0 1
-28.923355 -0.727806 10.469161 30.768385 0.025158 1.223606 0.129325 -0.016598 25313.400000 0 0 1
-30.314655 -0.755106 9.817061 31.873550 0.024904 1.257706 0.117397 -0.018390 -210543.000000 0 0 1
-30.278545 -1.547106 8.667261 31.532607 0.051051 1.292345 0.111241 -0.026112 1074440.000000 0 0 1
-31.524025 -1.494206 7.914461 32.536680 0.047364 1.325084 0.095649 -0.022278 943985.000000 0 0 1
-31.464085 -2.116006 6.527661 32.203672 0.067150 1.366683 0.094981 -0.027788 -63801.600000 0 0 1
-30.954315 -1.227006 5.509661 31.464767 0.039619 1.394783 0.105670 -0.038146 948262.000000 0 0 1
-31.981065 -0.346906 4.987161 32.369440 0.010847 1.416110 0.102500 -0.032316 642595.000000 0 0 1
-31.626805 0.092294 3.522261 31.822471 -0.002918 1.459884 0.110402 -0.035412 64828.200000 0 0 1
-31.742545 -0.942306 2.599661 31.862758 0.029677 1.489116 0.102849 -0.044795 172206.000000 0 0 1
-31.127465 -0.509306 1.456961 31.165706 0.016361 1.524030 0.093197 -0.046826 -567355.000000 0 0 1
-31.782405 -0.958706 0.137261 31.797158 0.030156 1.566480 0.079909 -0.037654 976265.000000 0 0 1
-33.143065 -0.482606 0.026861 33.146590 0.014560 1.569986 0.083064 -0.032833 1576510.000000 0 0 1
-33.951345 -1.082106 -1.001539 33.983347 0.031861 1.600272 0.083826 -0.034184 359061.000000 0 0 1
-35.452615 -0.817606 -0.779639 35.470611 0.023058 1.592778 0.079122 -0.031393 35333.800000 0 0 1
-36.180665 -1.676806 0.096661 36.219630 0.046312 1.568128 0.077207 -0.030468 256199.000000 0 0 1
35.150760 -1.496006 -0.016739 35.182584 -0.042534 1.571272 0.075749 -0.023838 -163559.000000 0 0 1
34.340520 -2.676406 0.571461 34.449398 -0.077780 1.554207 0.083794 -0.031649 -344980.000000 0 0 1
34.484250 -2.778506 1.975661 34.652371 -0.080400 1.513752 0.077965 -0.027169 486235.000000 0 0 1
33.941260 -4.037206 2.413961 34.265658 -0.118391 1.500290 0.073927 -0.017359 -1708.290000 0 0 1
33.990150 -4.221206 3.949561 34.478223 -0.123557 1.455992 0.070562 -0.016890 -183650.000000 0 0 1
33.355280 -3.205206 4.661861 33.831656 -0.095799 1.432561 0.065178 -0.019688 230999.000000 0 0 1
33.642570 -3.259706 6.031861 34.334116 -0.096591 1.394199 0.059911 -0.020543 -404268.000000 0 0 1
32.913490 -2.145406 6.824761 33.682012 -0.065091 1.366760 0.050163 -0.014989 -695906.000000 0 0 1
31.546970 -2.367706 6.928961 32.385611 -0.074913 1.355178 0.057528 -0.009991 -468204.000000 0 0 1
30.881690 -1.314306 7.597261 31.829617 -0.042534 1.329785 0.075851 -0.014418 -948381.000000 0 0 1
29.396330 -1.496606 7.842461 30.461258 -0.050867 1.310407 0.069671 -0.010942 -1458320.000000 0 0 1
28.528010 -1.212906 6.807661 29.354092 -0.042491 1.336750 0.086868 -0.007819 1270290.000000 0 0 1
27.145070 -1.569206 7.096161 28.101116 -0.057744 1.315510 0.089214 -0.005087 1278760.000000 0 0 1
26.768270 -3.072506 7.029561 27.845920 -0.114282 1.315590 0.109194 -0.010388 -1031480.000000 0 0 1
27.290270 -3.960506 7.990961 28.710623 -0.144119 1.288744 0.085228 -0.005322 274196.000000 0 0 1
26.693470 -5.224506 7.930361 28.332445 -0.193279 1.287102 0.107030 -0.014956 -387352.000000 0 0 1
26.983270 -6.146706 9.106661 29.134346 -0.223975 1.252894 0.087002 -0.021528 -134523.000000 0 0 1
26.308470 -5.782806 10.313361 28.843402 -0.216367 1.205138 0.083551 -0.016761 511759.000000 0 0 1
26.506970 -6.697006 11.323061 29.591909 -0.247472 1.178144 0.080174 -0.009524 319590.000000 0 0 1
25.259270 -6.676906 12.245661 28.854254 -0.258424 1.132500 0.083091 -0.023931 455932.000000 0 0 1
24.031170 -7.154706 11.768961 27.698292 -0.289369 1.131947 0.099001 -0.034492 -349288.000000 0 0 1
22.950970 -6.767906 12.564661 27.026326 -0.286758 1.087270 0.110377 -0.037742 521153.000000 0 0 1
21.745570 -7.762106 12.535161 26.272616 -0.342854 1.073423 0.107247 -0.040611 223983.000000 0 0 1
22.125970 -8.923006 13.193861 27.262732 -0.383333 1.065631 0.083995 -0.034806 157925.000000 0 0 1
21.170670 -9.952606 13.111061 26.817001 -0.439453 1.059958 0.113344 -0.050270 -428835.000000 0 0 1
21.520670 -11.059806 14.105561 28.007595 -0.474718 1.042997 0.093936 -0.037785 -124809.000000 0 0 1
21.610470 -10.631806 15.454461 28.616221 -0.457207 1.000289 0.073126 -0.033806 290489.000000 0 0 1
22.079570 -11.675306 16.287661 29.817916 -0.486408 0.992931 0.070235 -0.027658 -317117.000000 0 0 1
22.046170 -11.464206 17.804761 30.569121 -0.479526 0.949066 0.077085 -0.019983 -102105.000000 0 0 1
20.736170 -11.415606 18.313561 29.928103 -0.503240 0.912312 0.077295 -0.023162 -217422.000000 0 0 1
20.685470 -11.800406 19.704761 30.909802 -0.518422 0.879557 0.100477 -0.011322 240211.000000 0 0 1
21.228570 -10.811906 20.782961 31.614569 -0.471067 0.853452 0.074064 -0.002911 104474.000000 0 0 1
20.322970 -9.771906 21.204561 30.953944 -0.448195 0.816143 0.069964 0.000847 338326.000000 0 0 1
20.446770 -8.572806 20.369861 30.108050 -0.397011 0.827717 0.065361 0.003859 -1028620.000000 0 0 1
21.467270 -7.508406 20.916961 30.898853 -0.336462 0.827186 0.048740 0.006856 821229.000000 0 0 1
22.825570 -7.915106 20.978961 31.996443 -0.333790 0.855733 0.055949 0.007314 116969.000000 0 0 1
23.369070 -8.084906 19.700361 31.616188 -0.333077 0.898084 0.066261 -0.011184 -1005030.000000 0 0 1
24.729870 -8.845506 19.766261 32.871181 -0.343505 0.925638 0.052893 -0.003496 306577.000000 0 0 1
24.505470 -10.143106 20.255861 33.372153 -0.392442 0.918555 0.039789 0.003603 -268269.000000 0 0 1
25.616070 -10.984106 20.104161 34.365839 -0.405083 0.945911 0.048529 -0.004828 -114116.000000 0 0 1
25.332570 -12.426706 20.601461 34.936833 -0.456053 0.940137 0.038483 -0.005202 -111381.000000 0 0 1
24.465670 -13.110006 19.740461 34.060638 -0.491917 0.952598 0.045786 -0.007466 -46622.800000 0 0 1
24.589270 -14.513106 19.824261 34.760089 -0.533198 0.963905 0.034481 -0.008535 202043.000000 0 0 1
23.650370 -15.248406 18.809261 33.847337 -0.572671 0.981581 0.054213 -0.009708 -127510.000000 0 0 1
24.051570 -15.137306 17.461361 33.354388 -0.561735 1.019831 0.037944 -0.012773 419232.000000 0 0 1
23.152570 -15.693906 16.496361 32.472606 -0.595703 1.037925 0.042361 -0.014639 -109784.000000 0 0 1
22.810770 -17.196906 16.566661 33.023008 -0.645989 1.045268 0.040622 -0.019061 -637749.000000 0 0 1
23.926270 -17.974806 16.282761 34.068877 -0.644306 1.072492 0.035781 -0.008797 -462489.000000 0 0 1
23.733370 -19.335306 16.448761 34.751815 -0.683633 1.077739 0.036281 -0.000266 -26065.400000 0 0 1
25.057370 -20.141506 16.327961 36.057653 -0.677063 1.100860 0.023715 0.003936 133536.000000 0 0 1
25.516170 -20.242306 15.002061 35.859277 -0.670650 1.139158 0.023418 -0.006775 -329117.000000 0 0 1
26.416970 -21.278106 14.857761 37.031975 -0.678068 1.157954 0.018105 -0.012067 -587181.000000 0 0 1
26.843670 -21.466506 13.375461 36.882197 -0.674549 1.199683 0.019217 -0.028737 -108580.000000 0 0 1
25.750270 -21.765906 12.530061 35.969897 -0.701741 1.214988 0.015226 -0.016999 390746.000000 0 0 1
26.049770 -21.297506 11.233261 35.473376 -0.685363 1.248582 0.034544 -0.023162 -34019.800000 0 0 1
24.795870 -21.208406 10.342961 34.228767 -0.707575 1.263826 0.026716 -0.013185 58984.500000 0 0 1
24.333770 -22.429706 9.781261 34.509378 -0.744704 1.283419 0.025922 -0.012605 1289170.000000 0 0 1
22.885470 -22.421806 9.678061 33.468597 -0.775165 1.277438 0.014956 0.002099 1436170.000000 0 0 1
22.326870 -23.399606 8.623461 33.472299 -0.808854 1.310228 0.020388 -0.000623 -198612.000000 0 0 1
22.451370 -24.741106 9.043461 34.611711 -0.833879 1.306445 0.018935 0.010909 118601.000000 0 0 1
21.999570 -25.662086 8.022761 34.740300 -0.862092 1.337757 0.028906 0.015334 -48906.900000 0 0 1
20.521270 -26.060286 8.129361 34.151831 -0.903753 1.330453 0.032442 0.031730 -99669.600000 0 0 1
19.650370 -25.015706 7.719061 32.733874 -0.904946 1.332742 0.038559 0.021602 1314820.000000 0 0 1
18.277970 -25.539646 7.663761 32.327866 -0.949631 1.331454 0.043705 0.006458 1626280.000000 0 0 1
17.165770 -24.500406 7.464661 30.832689 -0.959646 1.326264 0.040056 0.000782 -429824.000000 0 0 1
16.992470 -24.020406 6.120761 30.053081 -0.955109 1.365696 0.039805 -0.002243 -28743.800000 0 0 1
16.451770 -22.750906 6.311561 28.776731 -0.944718 1.349670 0.047293 -0.000497 -56068.700000 0 0 1
15.930570 -22.060106 4.996961 27.665881 -0.945363 1.389181 0.048624 0.000327 15750.800000 0 0 1
15.385270 -20.801806 5.237861 26.398047 -0.933977 1.371052 0.064225 -0.003849 9583.630000 0 0 1
14.786870 -20.224306 4.082361 25.383848 -0.939473 1.409270 0.043061 -0.007324 484544.000000 0 0 1
14.151170 -18.807306 4.221361 23.912136 -0.925742 1.393330 0.057246 -0.005854 -182728.000000 0 1 0
15.149970 -17.877106 4.435561 23.849250 -0.867784 1.383724 0.052069 -0.007393 -39848.000000 0 1 0
14.622270 -16.575206 4.744161 22.606532 -0.847916 1.359367 0.047606 -0.007295 -277589.000000 0 1 0
15.722170 -15.519606 4.641761 22.574117 -0.778915 1.363696 0.050010 -0.010251 -580603.000000 0 1 0
16.496370 -15.573006 5.817161 23.419823 -0.756613 1.319782 0.073021 -0.018797 622155.000000 0 1 0
17.529970 -14.557806 5.693361 23.487101 -0.693036 1.325954 0.072320 -0.025351 2535280.000000 0 1 0
19.066870 -15.025206 5.524861 24.896314 -0.667398 1.347018 0.098435 -0.030558 1692380.000000 0 1 0
19.923470 -13.908106 5.601361 24.935022 -0.609434 1.344224 0.101988 -0.034346 -711373.000000 0 1 0
21.183770 -14.294006 5.132561 26.065569 -0.593586 1.372591 0.095204 -0.033486 -560439.000000 0 0 1
22.072270 -13.036306 5.099861 26.136927 -0.533493 1.374416 0.097286 -0.034244 -604987.000000 0 0 1
22.238070 -12.412506 6.366461 26.251360 -0.509090 1.325834 0.122838 -0.044510 123828.000000 0 0 1
23.209770 -11.402206 6.348361 26.627155 -0.456637 1.330061 0.115112 -0.045461 -260635.000000 0 0 1
23.316370 -10.714306 7.722461 26.797124 -0.430741 1.278468 0.124745 -0.043156 -402602.000000 0 0 1
23.991070 -11.497606 8.627961 27.967983 -0.446906 1.257187 0.101695 -0.030294 126637.000000 0 0 1
23.914170 -10.868006 9.943661 28.086963 -0.426556 1.208918 0.112799 -0.040980 84166.300000 0 0 1
24.394770 -11.814206 11.084561 29.283916 -0.451003 1.182599 0.083617 -0.032235 -677991.000000 0 0 1
23.407270 -12.709306 11.381061 28.964725 -0.497425 1.166982 0.087909 -0.036821 -328253.000000 0 0 1
23.867270 -13.734706 12.189061 30.114148 -0.522181 1.154078 0.073722 -0.032195 299418.000000 0 0 1
22.786070 -14.847006 12.509761 29.935476 -0.577487 1.139674 0.058949 -0.033675 943600.000000 0 0 1
21.823670 -14.422106 13.492961 29.433479 -0.583963 1.094577 0.067456 -0.038033 151372.000000 0 0 1
20.614870 -15.134906 13.384061 28.864708 -0.633295 1.088649 0.062631 -0.027586 -377850.000000 0 0 1
19.451570 -14.393506 14.030061 27.971042 -0.637049 1.045358 0.056011 -0.029625 -1021950.000000 0 0 1
19.321570 -14.208006 15.420361 28.512770 -0.634055 0.999381 0.061051 -0.030647 -213006.000000 0 0 1
18.593270 -13.108806 15.863461 27.734453 -0.614094 0.961883 0.064884 -0.044301 -78922.800000 0 0 1
17.056670 -13.281206 15.848261 26.804623 -0.661588 0.938187 0.070133 -0.041153 -173825.000000 0 0 1
16.482870 -13.239806 14.518161 25.646724 -0.676717 0.969051 0.075272 -0.052722 2214240.000000 0 0 1
15.010870 -13.102906 14.597061 24.699930 -0.717636 0.938528 0.090068 -0.049543 2191180.000000 0 1 0
14.606770 -11.621106 14.291761 23.508770 -0.672051 0.917341 0.073082 -0.049724 -415570.000000 0 1 0
14.902470 -10.756006 15.327461 23.931284 -0.625181 0.875676 0.057178 -0.034979 198524.000000 0 1 0
14.507170 -9.439206 15.071861 22.950329 -0.576838 0.854340 0.042684 -0.033364 -822092.000000 0 1 0
15.124770 -8.454806 16.084461 23.642172 -0.509730 0.822585 0.049908 -0.027041 443041.000000 0 1 0
16.534070 -8.275306 16.030861 24.471303 -0.464048 0.856497 0.052313 -0.038234 163956.000000 0 1 0
17.278170 -9.209106 16.769861 25.779275 -0.489691 0.862531 0.079017 -0.029605 -270317.000000 0 0 1
18.773170 -9.057506 16.400161 26.522361 -0.449526 0.904152 0.073494 -0.030584 114558.000000 0 0 1
19.310070 -7.767206 16.723761 26.700046 -0.382433 0.893925 0.063520 -0.026245 -273169.000000 0 0 1
20.566970 -7.570306 16.163461 27.231733 -0.352691 0.935331 0.066774 -0.021051 -775173.000000 0 0 1
21.269970 -6.282706 16.406761 27.587422 -0.287212 0.933880 0.064626 -0.016001 -338694.000000 0 0 1
21.720770 -6.135106 17.739961 28.707797 -0.275282 0.904665 0.071173 -0.010243 392592.000000 0 0 1
22.438770 -4.917406 17.946561 29.150615 -0.215737 0.907586 0.083149 -0.018075 103954.000000 0 0 1
-5.032835 -33.103023 -6.239074 34.059736 1.419916 1.755017 0.036011 -0.022605 81425.500000 0 0 1
-5.805035 -31.928723 -6.533874 33.103373 1.390948 1.769479 0.032613 -0.022764 391552.000000 0 0 1
-5.511735 -30.941123 -5.584774 31.920558 1.394509 1.746660 0.027742 -0.023439 -489582.000000 0 0 1
-6.238935 -29.616923 -5.949674 30.846152 1.363177 1.764895 0.030898 -0.022970 1045370.000000 0 0 1
-7.604635 -29.428423 -5.581274 30.903288 1.317917 1.752397 0.026509 -0.022802 666837.000000 0 0 1
-8.575835 -30.228823 -6.229274 32.033273 1.294362 1.766506 0.028420 -0.020382 -175982.000000 0 0 1
-10.030435 -29.774923 -5.934974 31.974671 1.245861 1.757494 0.056405 -0.006771 -40634.900000 0 0 1
-10.923135 -30.613623 -6.581974 33.163703 1.228071 1.770592 0.042289 -0.013839 586301.000000 0 0 1
-12.308935 -30.303523 -6.277274 33.304918 1.184967 1.760409 0.044247 -0.002669 1138010.000000 0 0 1
-13.307135 -30.766923 -7.319574 34.311217 1.162578 1.785777 0.049062 -0.006912 -280157.000000 0 0 1
-13.279635 -30.050123 -8.558674 33.950104 1.154685 1.825642 0.066124 -0.013001 163154.000000 0 0 1
-14.290835 -30.592923 -9.398774 35.049849 1.133790 1.842273 0.062051 -0.014827 188268.000000 0 0 1
-14.547335 -29.796323 -10.707774 34.843970 1.116612 1.883157 0.079968 -0.011008 33178.500000 0 0 1
-15.217835 -28.503923 -10.580874 34.000163 1.080409 1.887253 0.080962 -0.015200 561199.000000 0 0 1
-14.296335 -27.525123 -10.155674 32.636718 1.091756 1.887224 0.066076 -0.010313 -164324.000000 0 0 1
-14.920635 -26.192523 -9.763974 31.686098 1.052990 1.884041 0.060823 0.000539 53888.100000 0 0 1
-15.435335 -25.337623 -10.826874 31.582684 1.023649 1.920703 0.065302 -0.008663 462077.000000 0 0 1
-15.732435 -24.019623 -10.376674 30.530758 0.990926 1.917581 0.048729 0.002312 -200807.000000 0 0 1
-16.290635 -23.081123 -11.477074 30.493381 0.956189 1.956681 0.068048 0.003698 1659710.000000 0 0 1
-17.662335 -23.514923 -11.796574 31.687046 0.926584 1.952265 0.077609 -0.002565 1537320.000000 0 0 1
-18.062835 -23.057223 -13.067874 32.072900 0.906265 1.990449 0.078188 -0.012838 -970115.000000 0 0 1
-19.462535 -23.502323 -13.405774 33.329630 0.879148 1.984734 0.066711 -0.001024 -963871.000000 0 0 1
-19.648335 -24.864623 -13.776374 34.555681 0.902052 1.980864 0.090619 -0.002571 51663.500000 0 0 1
-19.554435 -25.840323 -12.729474 34.815769 0.922995 1.945099 0.101546 -0.006810 -1158600.000000 0 0 1
-19.553735 -27.310623 -13.249674 36.107791 0.949429 1.946522 0.096168 -0.009962 12495.000000 0 0 1
-18.630935 -27.724323 -14.254474 36.317212 0.979106 1.974144 0.110529 -0.018369 1269480.000000 0 0 1
-17.246335 -27.497823 -13.868274 35.297243 1.010624 1.974579 0.113441 -0.024077 1104340.000000 0 0 1
-16.347835 -28.764423 -14.262274 36.028547 1.053985 1.977801 0.098777 -0.023765 285393.000000 0 0 1
-16.362235 -29.159223 -15.617974 36.903986 1.059445 2.007777 0.112550 -0.033338 -299558.000000 0 0 1
-15.598235 -30.284823 -15.941774 37.611376 1.095180 2.008494 0.107858 -0.026368 -155947.000000 0 0 1
-16.277035 -31.679423 -15.805474 38.965892 1.096166 1.988457 0.104992 -0.025626 -142245.000000 0 0 1
-16.451435 -32.057223 -14.450274 38.821717 1.096653 1.952198 0.104798 -0.022285 122029.000000 0 0 1
-16.901435 -33.394923 -14.207774 40.034239 1.102274 1.933593 0.077436 -0.020285 -1027440.000000 0 0 1
-17.359835 -33.653423 -12.748074 39.955352 1.094556 1.895532 0.082638 -0.017675 261609.000000 0 0 1
-18.562935 -33.017423 -12.303074 39.825851 1.058622 1.884856 0.086836 -0.019827 456215.000000 0 0 1
-18.781535 -31.630523 -12.379674 38.813560 1.034964 1.895420 0.096895 -0.023005 -788284.000000 0 0 1
-18.071135 -30.773723 -11.378274 37.457350 1.039822 1.879439 0.090183 -0.021465 -590367.000000 0 0 1
-18.567335 -30.902523 -10.049374 37.425951 1.029763 1.842646 0.092028 -0.022692 96115.700000 0 0 1
-18.195135 -29.859923 -9.244774 36.168271 1.023530 1.829269 0.088527 -0.014082 -238419.000000 0 0 1
-18.605235 -30.108123 -7.767374 36.235148 1.017285 1.786833 0.095608 -0.017487 -11776.900000 0 0 1
-17.689335 -31.051223 -7.237274 36.461887 1.052968 1.770612 0.090641 -0.020445 256539.000000 0 0 1
-18.013235 -31.499123 -5.914174 36.764778 1.051322 1.732364 0.093051 -0.023297 -321252.000000 0 0 1
-17.117835 -32.633023 -5.392974 37.242700 1.087698 1.716113 0.089290 -0.021541 834713.000000 0 0 1
-15.790835 -32.336723 -4.947074 36.324753 1.116532 1.707411 0.096013 -0.010226 743797.000000 0 0 1
-15.879735 -31.905523 -3.595174 35.819739 1.108981 1.671334 0.085847 -0.017142 101737.000000 0 0 1
-14.583335 -31.221723 -3.086074 34.597594 1.133822 1.660114 0.082085 -0.013287 603216.000000 0 0 1
-13.392635 -31.997023 -3.050974 34.820693 1.174394 1.658528 0.058219 -0.010656 -193336.000000 0 0 1
-12.345335 -31.188923 -2.553774 33.640422 1.193895 1.646783 0.059019 -0.006328 297647.000000 0 0 1
-10.973935 -31.909223 -2.661274 33.848311 1.239556 1.649501 0.059071 -0.016160 -172013.000000 0 0 1
-10.857635 -32.997423 -1.779474 34.783397 1.252910 1.621977 0.065665 -0.009877 552006.000000 0 0 1
-9.524235 -33.516123 -1.628374 34.881129 1.293926 1.617497 0.061432 -0.016795 1252500.000000 0 0 1
-8.565335 -32.712823 -0.673274 33.822287 1.314711 1.590704 0.055685 -0.016833 -51691.200000 0 0 1
-9.047335 -32.703323 0.654026 33.938023 1.300898 1.551524 0.063506 -0.015301 22942.900000 0 0 1
-8.072135 -32.451223 1.659426 33.481263 1.326998 1.521213 0.049047 -0.015809 608555.000000 0 0 1
-7.060435 -33.586623 1.979626 34.377754 1.363598 1.513180 0.053665 -0.019759 191389.000000 0 0 1
-7.707735 33.756894 2.731426 34.733237 -1.346314 1.492075 0.070631 -0.025158 -207823.000000 0 0 1
-6.862435 32.779894 3.263826 33.649175 -1.364428 1.473648 0.062806 -0.022167 -235383.000000 0 0 1
-6.164135 33.241194 4.614326 34.121335 -1.387442 1.435148 0.057572 -0.022966 -325747.000000 0 0 1
-5.115235 34.106994 4.377426 34.765133 -1.421930 1.444547 0.051819 -0.016932 -805933.000000 0 0 1
-4.823435 -33.632623 5.535226 34.424666 1.428352 1.409303 0.056188 -0.022103 375364.000000 0 0 1
-3.640335 -32.601023 5.424126 33.249059 1.459594 1.406928 0.049615 -0.015642 378312.000000 0 0 1
-3.819135 -31.466523 4.581826 32.026880 1.450016 1.427242 0.048964 -0.012552 24754.200000 0 0 1
-3.673535 -31.766823 3.207426 32.138972 1.455667 1.470831 0.042047 -0.013775 -217549.000000 0 0 1
-4.063535 -30.548423 2.358426 30.907615 1.438553 1.494416 0.043105 -0.011294 -65973.000000 0 0 1
-3.284435 -29.432523 2.645126 29.733107 1.459664 1.481716 0.045823 -0.009164 -247651.000000 0 0 1
-3.745535 -28.322723 1.909226 28.633038 1.439314 1.504068 0.053912 -0.012580 328738.000000 0 0 1
-2.990935 -27.071223 2.394726 27.341023 1.460759 1.483097 0.053926 -0.009504 341911.000000 0 0 1
-3.390835 -25.855323 1.712026 26.132863 1.440394 1.505237 0.057825 -0.016330 -209662.000000 0 0 1
-2.878835 -24.687023 2.348026 24.964976 1.454707 1.476604 0.035984 -0.012987 469453.000000 0 1 0
-3.862235 -24.014823 3.386426 24.558023 1.411335 1.432461 0.029174 -0.012250 401313.000000 0 1 0
-4.078835 -24.882523 4.498426 25.612745 1.408318 1.394248 0.046139 -0.011083 137779.000000 0 0 1
-4.963035 -24.271423 5.429726 25.361696 1.369096 1.355035 0.033283 -0.006699 -60275.600000 0 0 1
-5.674435 -25.193523 6.391926 26.603939 1.349259 1.328160 0.036898 -0.008257 -391842.000000 0 0 1
-4.891735 -25.743923 7.400926 27.229623 1.383020 1.295537 0.037950 -0.013173 51114.700000 0 0 1
-5.715435 -26.570523 8.237926 28.399337 1.358920 1.276492 0.038204 -0.010091 691575.000000 0 0 1
-4.892635 -27.215023 9.403826 29.206632 1.392919 1.242981 0.032493 -0.007929 168553.000000 0 0 1
-4.427235 -26.147323 10.247326 28.430452 1.403068 1.202062 0.030425 -0.015792 -212007.000000 0 0 1
-5.398835 -25.576623 11.114226 28.404878 1.362765 1.168776 0.032917 -0.021280 91621.700000 0 0 1
-4.884135 -24.581723 12.234426 27.889014 1.374661 1.116664 0.021782 -0.022352 112822.000000 0 0 1
-4.194935 -25.151623 13.317326 28.767218 1.405532 1.089494 0.020916 -0.022086 -341770.000000 0 0 1
-3.426235 -24.165623 13.962526 28.118830 1.429954 1.051172 0.021465 -0.025085 228040.000000 0 0 1
-2.419135 -24.725923 15.037426 29.040449 1.473269 1.026508 0.033379 -0.022458 410430.000000 0 0 1
-3.003635 -25.272223 16.191526 30.164095 1.452500 1.004179 0.023469 -0.021127 -36867.400000 0 0 1
-1.942235 -25.843923 16.923826 30.953135 1.495785 0.992311 0.022045 -0.019809 174964.000000 0 0 1
-2.433135 -26.581623 18.139126 32.272755 1.479516 0.973926 0.025433 -0.020601 -195382.000000 0 0 1
-2.942235 -25.581023 19.041426 32.025325 1.456283 0.934061 0.043329 -0.018049 -173548.000000 0 0 1
-2.610935 -25.782423 20.383626 32.970328 1.469872 0.904293 0.045095 -0.023498 47019.900000 0 0 1
-3.040435 -24.607823 21.293226 32.683187 1.447864 0.861231 0.058268 -0.025443 31207.100000 0 0 1
-3.010235 -24.930523 22.637426 33.808957 1.450633 0.837168 0.073910 -0.027381 -187058.000000 0 0 1
-3.176135 -23.902023 23.596226 33.736871 1.438689 0.796211 0.072568 -0.023013 76580.400000 0 0 1
-2.253135 -22.654623 23.567826 32.768140 1.471666 0.768103 0.071195 -0.023551 -46737.400000 0 0 1
-2.586735 -21.812123 22.509626 31.450647 1.452756 0.773152 0.075836 -0.018451 -229852.000000 0 0 1
-1.520035 -20.961823 22.165426 30.545289 1.498409 0.758806 0.064596 -0.017305 -59422.100000 0 0 1
-1.997535 -19.770923 21.224726 29.075222 1.470104 0.752484 0.062199 -0.003346 15236.600000 0 0 1
-2.765235 -18.777423 21.924426 28.998597 1.424583 0.713537 0.071722 -0.019621 1063520.000000 0 0 1
-4.158535 -19.039723 22.181926 29.526976 1.355760 0.720853 0.072103 -0.021084 971316.000000 0 0 1
-5.135935 -18.981023 20.956126 28.737020 1.306542 0.753589 0.055112 -0.020581 -396347.000000 0 0 1
-5.003635 -20.000423 20.014426 28.733788 1.325652 0.800223 0.065985 -0.028014 -365997.000000 0 0 1
-5.512735 -21.265223 20.297726 29.909826 1.317143 0.824900 0.059199 -0.017553 -280286.000000 0 0 1
-5.326535 -22.223423 19.137826 29.807867 1.335553 0.873641 0.043499 -0.016930 163341.000000 0 0 1
-5.993235 -23.505323 19.178226 30.922863 1.321142 0.901804 0.041062 -0.018949 -19305.000000 0 0 1
-5.751935 -24.216923 17.989126 30.710793 1.337600 0.944980 0.043345 -0.023715 -137563.000000 0 0 1
-6.364835 -25.609823 18.027526 31.958815 1.327201 0.971470 0.031407 -0.033148 189008.000000 0 0 1
-7.773035 -25.514523 17.996426 32.175804 1.275078 0.977236 0.057956 -0.033935 -457328.000000 0 0 1
-8.447035 -26.749223 17.769426 33.205811 1.264920 1.006135 0.070901 -0.042148 -45215.500000 0 0 1
-9.955435 -26.610023 17.957226 33.610504 1.212794 1.007147 0.075165 -0.043040 -1575690.000000 0 0 1
-10.657435 -26.137323 16.820626 32.858394 1.183629 1.033387 0.085077 -0.041544 66886.000000 0 0 1
-12.037635 -26.454623 16.850426 33.595961 1.143768 1.045394 0.075092 -0.026808 760505.000000 0 0 1
-12.887135 -25.755823 17.988026 33.955998 1.106862 1.012496 0.070480 -0.010464 -1005940.000000 0 0 1
-13.114035 -24.383523 17.807226 32.918558 1.077350 0.999233 0.056092 -0.015308 -52829.400000 0 0 1
-13.116035 -23.630223 19.008326 33.041403 1.064082 0.957840 0.043221 0.002819 490949.000000 0 0 1
-11.689235 -23.065023 19.305226 32.269572 1.101728 0.929483 0.034428 0.001509 660016.000000 0 0 1
-10.798635 -23.952623 19.956026 32.993661 1.147250 0.921226 0.059492 -0.000972 -43504.700000 0 0 1
-9.495635 -23.391123 19.933926 32.166336 1.185171 0.902418 0.057862 -0.020098 364160.000000 0 0 1
-8.562435 -24.122723 20.940026 33.071223 1.229716 0.885142 0.059250 -0.021849 -18700.200000 0 0 1
-8.669935 -23.714423 22.274126 33.670140 1.220294 0.847927 0.056697 -0.017762 204365.000000 0 0 1
-7.655835 -24.405423 22.986726 34.389331 1.266824 0.838706 0.061297 -0.018517 260933.000000 0 0 1
-7.668135 -24.129823 24.552426 35.268546 1.263102 0.800767 0.064473 -0.018843 279085.000000 0 0 1
-6.693235 -24.952223 25.191326 36.083456 1.308724 0.797999 0.071816 -0.017808 206579.000000 0 0 1
-6.588035 -24.433623 26.524326 36.659842 1.307429 0.761901 0.074202 -0.014107 144991.000000 0 0 1
-5.354835 -24.893423 27.352326 37.369861 1.358915 0.749638 0.083113 -0.017343 561110.000000 0 0 1
-4.133135 -24.428623 26.804226 36.500781 1.403191 0.746093 0.082845 -0.009878 111761.000000 0 0 1
-3.024435 -24.521323 27.674226 37.098589 1.448077 0.728815 0.076869 -0.009570 392242.000000 0 0 1
-1.741435 -23.869323 27.111326 36.163534 1.497968 0.723208 0.069338 -0.009014 -622387.000000 0 0 1
-1.806535 -22.453323 27.033926 35.188755 1.490512 0.694686 0.074812 -0.008656 -134595.000000 0 0 1
-0.557135 -21.887623 26.687326 34.519441 1.545347 0.687066 0.074558 -0.013816 435007.000000 0 0 1
0.319365 -21.684923 27.989526 35.408353 -1.556070 0.659207 0.072319 -0.012705 -419544.000000 0 0 1
0.914065 -22.789323 28.492626 36.496829 -1.530708 0.675031 0.078350 -0.013880 -491735.000000 0 0 1
1.847765 -22.538823 29.498626 37.169635 -1.488998 0.654058 0.065629 -0.020760 -120420.000000 0 0 1
2.500665 -23.837323 29.987526 38.389100 -1.466273 0.674296 0.062057 -0.025288 -447656.000000 0 0 1
3.411565 -24.513023 29.139226 38.231160 -1.432511 0.704114 0.049640 -0.026479 264885.000000 0 0 1
3.960265 -25.667523 29.792426 39.523336 -1.417713 0.716981 0.028832 -0.015591 -410382.000000 0 0 1
5.222665 -25.373923 30.664526 40.142563 -1.367803 0.701476 0.022998 -0.021229 330074.000000 0 0 1
6.410265 -25.020223 29.972726 39.565988 -1.319988 0.711264 0.037261 -0.025779 78312.000000 0 0 1
6.986165 -25.908323 29.088726 39.575266 -1.307411 0.745096 0.039530 -0.022770 -583789.000000 0 0 1
8.306565 -25.324923 28.500226 39.020682 -1.253854 0.751907 0.045168 -0.025869 246753.000000 0 0 1
8.051665 -24.343523 27.486026 37.588802 -1.251371 0.750674 0.053950 -0.026360 -146941.000000 0 0 1
9.219865 -23.935123 26.816826 37.108465 -1.203111 0.763152 0.031414 -0.022727 -264658.000000 0 0 1
9.160465 -22.710523 25.909526 35.650884 -1.187399 0.757208 0.045844 -0.019556 -566309.000000 0 0 1
8.395865 -22.960223 24.795326 34.820548 -1.220230 0.778327 0.056944 -0.021578 -268066.000000 0 0 1
8.101865 -21.773223 24.094326 33.470136 -1.214569 0.767174 0.049141 -0.015803 76662.200000 0 0 1
7.346865 -21.963323 22.769526 32.477920 -1.247991 0.793889 0.059296 -0.013199 230768.000000 0 0 1
8.228465 -22.521023 21.802126 32.407358 -1.220497 0.832874 0.052862 -0.005276 151110.000000 0 0 1
7.539465 -22.969023 20.635126 31.784084 -1.253632 0.864227 0.063402 -0.020172 -133547.000000 0 0 1
8.322965 -23.823323 19.625826 31.968665 -1.234690 0.909794 0.071360 -0.026851 127262.000000 0 0 1
9.457265 -23.121823 19.129726 31.464345 -1.182539 0.917281 0.057303 -0.022451 3512.300000 0 0 1
10.017365 -23.854723 18.037026 31.539336 -1.173226 0.961989 0.067812 -0.032307 305499.000000 0 0 1
11.262065 -23.153923 17.444426 31.100583 -1.118088 0.975320 0.054593 -0.034739 382363.000000 0 0 1
10.876965 -22.016423 16.698026 29.696049 -1.111929 0.973634 0.055654 -0.030631 782439.000000 0 0 1
12.076365 -21.405123 16.199226 29.435231 -1.057131 0.988031 0.059370 -0.035112 783852.000000 0 0 1
-12.159335 22.630194 11.355926 28.087936 -1.077751 1.154584 0.002754 -0.013748 -789444.000000 0 0 1
-13.102935 21.882794 10.656426 27.642413 -1.031276 1.175036 0.003369 -0.018789 -278879.000000 0 0 1
-12.557235 20.720594 10.044126 26.228069 -1.025957 1.177805 0.020243 -0.025059 -444338.000000 0 0 1
-13.581235 19.878994 9.260626 25.795029 -0.971438 1.203591 0.039600 -0.026282 -509200.000000 0 0 1
-13.794235 20.599994 8.035626 26.061695 -0.980750 1.257358 0.045542 -0.023637 -214743.000000 0 0 1
-14.538735 19.925594 7.067526 25.658411 -0.940446 1.291742 0.048877 -0.028342 722639.000000 0 0 1
-16.107935 19.938294 7.197426 26.623375 -0.891263 1.297048 0.048925 -0.024151 677589.000000 0 0 1
-16.569635 19.154794 8.281026 26.646469 -0.857636 1.254789 0.043999 -0.020692 -76674.400000 0 0 1
-17.970035 19.143894 8.411726 27.571144 -0.817016 1.260762 0.055536 -0.014561 -236434.000000 0 0 1
-18.392435 18.165694 9.497426 27.540429 -0.779196 1.218713 0.048883 -0.018481 -196013.000000 0 0 1
-18.584535 16.829394 8.982326 26.632605 -0.735878 1.226783 0.043731 -0.020170 241421.000000 0 0 1
-19.070735 15.908994 9.955726 26.756411 -0.695255 1.189539 0.053810 -0.025394 -851760.000000 0 0 1
-18.102035 15.181994 10.838626 25.993315 -0.697891 1.140679 0.052019 -0.021748 -214684.000000 0 0 1
-17.142135 14.295394 10.225226 24.551300 -0.695092 1.141222 0.030365 -0.006732 817268.000000 0 1 0
-16.565635 13.360494 11.159026 24.030125 -0.678703 1.087866 0.025856 -0.007498 368345.000000 0 1 0
-17.599035 12.350694 11.739326 24.496478 -0.611921 1.071025 0.035237 -0.008192 211355.000000 0 1 0
-18.269335 11.449394 10.847326 24.135487 -0.559821 1.104664 0.029474 -0.009731 -209173.000000 0 1 0
-19.218835 10.757094 11.567126 24.877241 -0.510272 1.087198 0.045795 -0.014003 97453.100000 0 1 0
-20.252735 9.890194 10.707026 24.952548 -0.454275 1.127305 0.057265 -0.015590 394055.000000 0 1 0
-19.650635 8.827294 9.966526 23.736053 -0.422198 1.137472 0.040191 -0.013638 336727.000000 0 1 0
-18.965335 9.263094 8.811626 22.872114 -0.454343 1.175311 0.046308 -0.009304 -234887.000000 0 1 0
-19.845435 9.587794 7.532926 23.291888 -0.450055 1.241461 0.060401 -0.015249 144409.000000 0 1 0
-20.377335 8.378894 7.015726 23.122761 -0.390113 1.262525 0.041469 -0.021276 392186.000000 0 1 0
-21.265835 8.652294 5.965926 23.721092 -0.386409 1.316563 0.048854 -0.017726 -152056.000000 0 1 0
-21.632135 7.372794 5.181426 23.434047 -0.328479 1.347847 0.079059 -0.018771 -441033.000000 0 1 0
-22.474135 6.463494 5.834026 24.101854 -0.280039 1.326311 0.099955 -0.021888 191575.000000 0 1 0
-22.251335 5.127094 5.363726 23.455886 -0.226465 1.340082 0.112131 -0.026208 252580.000000 0 1 0
-23.406535 4.096094 5.642026 24.422865 -0.173244 1.337676 0.144841 -0.029981 578378.000000 0 1 0
-24.435935 4.066794 4.660726 25.206668 -0.164915 1.384826 0.156127 -0.034554 199013.000000 0 0 1
-25.381675 3.069394 4.919626 26.035617 -0.120345 1.380696 0.162561 -0.035241 71563.100000 0 0 1
-26.568115 3.163894 3.903526 27.039092 -0.118528 1.425924 0.168039 -0.037959 63059.200000 0 0 1
-26.314525 2.534794 2.676226 26.571444 -0.096030 1.469907 0.173162 -0.036197 423999.000000 0 0 1
-27.435455 2.556794 1.818426 27.614273 -0.092925 1.504898 0.166511 -0.029626 -117166.000000 0 0 1
-27.034025 2.648294 0.319726 27.165313 -0.097650 1.559026 0.174766 -0.030340 -152908.000000 0 0 1
-26.596745 3.954194 -0.052974 26.889130 -0.147591 1.572766 0.175857 -0.041060 499708.000000 0 0 1
-26.400545 4.102394 -1.454174 26.756925 -0.154158 1.625171 0.194144 -0.037197 -12367.900000 0 0 1
-27.629385 4.756494 -2.168974 28.119595 -0.170482 1.648007 0.167608 -0.038457 848626.000000 0 0 1
-28.726385 3.822394 -2.116774 29.056783 -0.132285 1.643710 0.139593 -0.033849 -711308.000000 0 0 1
-29.930135 4.415994 -2.289874 30.340691 -0.146487 1.646340 0.110379 -0.019862 -1070950.000000 0 0 1
-31.085745 3.392494 -2.559674 31.374903 -0.108703 1.652471 0.100641 -0.015843 -13655.100000 0 0 1
-31.117805 2.844594 -3.855274 31.484483 -0.091160 1.693554 0.093734 -0.018482 12671.100000 0 0 1
-32.109415 1.880794 -3.985274 32.410405 -0.058508 1.694071 0.095642 -0.021428 -444055.000000 0 0 1
-32.129035 1.320794 -5.403274 32.606974 -0.041086 1.737273 0.090929 -0.022741 -963380.000000 0 0 1
-30.973005 0.639594 -5.741674 31.507189 -0.020647 1.754054 0.104072 -0.032286 -379915.000000 0 0 1
-30.936145 -0.019306 -7.034174 31.725779 0.000624 1.794372 0.115857 -0.029409 -253384.000000 0 0 1
-31.308205 0.813194 -8.340074 32.410212 -0.025968 1.831053 0.113508 -0.029918 -783267.000000 0 0 1
-32.681615 0.992294 -8.482574 33.779087 -0.030353 1.824633 0.113112 -0.026425 -378300.000000 0 0 1
-33.026025 1.719994 -9.652574 34.450674 -0.052033 1.854784 0.112980 -0.025517 -849561.000000 0 0 1
-34.505354 2.012094 -9.511474 35.848796 -0.058247 1.839334 0.108331 -0.024857 -801165.000000 0 0 1
-34.927797 2.954894 -8.535574 36.076841 -0.084399 1.809655 0.084976 -0.024688 362281.000000 0 0 1
-36.314725 2.775994 -8.297874 37.353984 -0.076294 1.794807 0.081268 -0.021188 224935.000000 0 0 1
35.901090 3.794394 -7.162674 36.804749 0.105299 1.766659 0.097156 -0.017551 -329836.000000 0 0 1
34.576230 3.651094 -6.745774 35.416827 0.105206 1.762435 0.110464 -0.020892 -167081.000000 0 0 1
34.212400 4.514894 -5.681474 34.973586 0.131208 1.733970 0.106172 -0.021491 712390.000000 0 0 1
32.817260 4.206894 -5.029474 33.465894 0.127496 1.721654 0.107480 -0.026304 637589.000000 0 0 1
32.813930 2.957994 -4.332174 33.230580 0.089901 1.701536 0.102220 -0.026363 643468.000000 0 0 1
31.658130 2.143294 -4.657174 32.070549 0.067598 1.716528 0.116208 -0.029824 906284.000000 0 0 1
31.532930 0.823194 -3.803674 31.772177 0.026100 1.690801 0.129510 -0.022077 152451.000000 0 0 1
32.464160 -0.124806 -4.314474 32.749838 -0.003844 1.702921 0.094303 -0.024830 434144.000000 0 0 1
32.264620 -1.371206 -3.663174 32.500842 -0.042473 1.683746 0.100913 -0.019719 -768522.000000 0 0 1
33.581390 -2.063406 -3.438274 33.819951 -0.061368 1.672636 0.086715 -0.023277 -899213.000000 0 0 1
33.455630 -3.390906 -3.008774 33.761370 -0.101010 1.660034 0.074310 -0.023986 -140487.000000 0 0 1
34.679560 -4.084406 -3.048874 35.052102 -0.117236 1.657888 0.089285 -0.027659 -135131.000000 0 0 1
34.659980 -5.540106 -2.574474 35.194245 -0.158501 1.644012 0.079906 -0.027441 -176916.000000 0 0 1
34.296040 -5.774906 -1.229174 34.800557 -0.166819 1.606124 0.086696 -0.027045 133329.000000 0 0 1
34.342460 -7.183906 -0.839674 35.095842 -0.206211 1.594724 0.091119 -0.028970 -116067.000000 0 0 1
33.816640 -7.485306 0.612026 34.640576 -0.217837 1.553128 0.090644 -0.017352 -1359450.000000 0 0 1
32.480420 -7.146306 0.620626 33.263081 -0.216568 1.552137 0.087347 -0.021854 -809436.000000 0 0 1
31.817240 -7.435306 1.868126 32.727823 -0.229568 1.513685 0.090796 -0.028706 -287086.000000 0 0 1
31.569720 -8.931506 2.279926 32.887947 -0.275709 1.501417 0.100286 -0.031109 -499528.000000 0 0 1
30.508400 -9.664606 1.712326 32.048387 -0.306784 1.517341 0.101480 -0.041643 587295.000000 0 0 1
29.234950 -9.275706 2.260926 30.754395 -0.307235 1.497214 0.103776 -0.042591 467648.000000 0 0 1
28.128180 -10.315206 1.777626 30.012629 -0.351493 1.511532 0.106517 -0.044258 1678240.000000 0 0 1
26.738370 -10.181906 2.223326 28.697645 -0.363844 1.493244 0.106393 -0.050170 2306440.000000 0 0 1
25.979170 -9.068306 1.684226 27.567881 -0.335838 1.509664 0.114306 -0.049002 -167012.000000 0 0 1
25.348370 -9.451906 0.306826 27.054991 -0.356911 1.559455 0.108631 -0.039240 -1118250.000000 0 0 1
26.243270 -9.714406 -0.746574 27.993504 -0.354527 1.597469 0.104665 -0.039521 66729.000000 0 0 1
25.722070 -10.076106 -2.028974 27.699630 -0.373357 1.644111 0.100321 -0.037119 -532496.000000 0 0 1
24.907770 -11.367306 -2.045674 27.455371 -0.428143 1.645374 0.087240 -0.029677 -1435430.000000 0 0 1
23.629770 -11.273206 -1.586974 26.229176 -0.445141 1.631337 0.075973 -0.019526 -1085950.000000 0 0 1
23.011970 -12.588006 -1.600774 26.278720 -0.500552 1.631749 0.057236 -0.002973 443717.000000 0 0 1
21.473370 -12.593306 -1.395574 24.932802 -0.530405 1.626799 0.056753 -0.008496 430277.000000 0 1 0
20.725570 -12.136306 -2.521574 24.149482 -0.529743 1.675402 0.060170 -0.006301 -91013.700000 0 1 0
19.353370 -12.242606 -2.274574 23.013214 -0.564033 1.669796 0.062775 -0.011899 27967.300000 0 1 0
18.437070 -11.776306 -3.478774 22.151948 -0.568412 1.728491 0.054303 -0.003861 310398.000000 0 1 0
18.558570 -12.582506 -4.604574 22.889781 -0.595800 1.773341 0.062537 -0.006099 246192.000000 0 1 0
17.907070 -11.976906 -5.680074 22.279423 -0.589503 1.828589 0.067149 -0.008913 -209434.000000 0 1 0
18.070970 -12.790006 -7.008774 23.222126 -0.615919 1.877392 0.062297 -0.014938 -265183.000000 0 1 0
17.122270 -13.832806 -7.099574 23.128394 -0.679530 1.882797 0.064608 -0.018179 420237.000000 0 1 0
17.101370 -14.385606 -8.384374 23.868394 -0.699361 1.929729 0.065664 -0.021952 -305845.000000 0 1 0
16.043770 -15.494706 -8.515674 23.874781 -0.767991 1.935509 0.056520 -0.024801 53229.700000 0 1 0
14.684270 -15.046206 -8.533074 22.689853 -0.797571 1.956352 0.068265 -0.023053 1108750.000000 0 1 0
13.784770 -15.992906 -9.129974 23.003247 -0.859417 1.978933 0.062442 -0.025917 -75404.100000 0 1 0
13.867170 -15.815606 -10.698274 23.598408 -0.850946 2.041313 0.068940 -0.030487 -62767.400000 0 1 0
13.013270 -14.771006 -11.336674 22.716690 -0.848578 2.093294 0.053863 -0.026125 1097660.000000 0 1 0
13.230370 -13.459806 -10.871574 21.780730 -0.793994 2.093399 0.052221 -0.021039 -229436.000000 0 1 0
13.343670 -12.436506 -12.063974 21.869149 -0.750224 2.155130 0.068728 -0.019394 -306455.000000 0 1 0
14.530870 -12.608406 -12.802674 23.109014 -0.714679 2.157972 0.078789 -0.018659 -10035.600000 0 1 0
14.404970 -12.050906 -14.086974 23.477017 -0.696651 2.214338 0.094578 -0.018443 -397020.000000 0 1 0
15.704370 -11.614006 -14.797674 24.504765 -0.636773 2.219143 0.097962 -0.025337 334643.000000 0 1 0
16.559470 -12.700906 -15.170574 25.800685 -0.654285 2.199369 0.095754 -0.020045 152422.000000 0 0 1
17.604570 -12.298406 -16.033474 26.800074 -0.609780 2.212127 0.089623 -0.013927 130231.000000 0 0 1
18.631770 -13.454406 -16.254074 28.148869 -0.625419 2.186377 0.085876 -0.013710 -400466.000000 0 0 1
19.472170 -13.525106 -15.150674 28.136041 -0.607084 2.139428 0.066213 -0.022014 -597256.000000 0 0 1
20.397270 -14.572206 -15.269474 29.352251 -0.620338 2.117899 0.049375 -0.019965 -63106.400000 0 0 1
21.460370 -14.501706 -14.130274 29.504433 -0.594260 2.070221 0.027368 -0.013662 247241.000000 0 0 1
22.448170 -13.512806 -14.388074 29.892021 -0.541856 2.072973 0.044888 -0.006205 40272.400000 0 0 1
23.325670 -13.307306 -13.295574 29.965706 -0.518446 2.030512 0.030169 -0.003383 346585.000000 0 0 1
24.137770 -11.980506 -13.424174 30.106028 -0.460714 2.032972 0.038647 -0.008754 -722084.000000 0 0 1
23.348070 -10.832106 -13.409774 29.022214 -0.434386 2.051104 0.040432 0.002299 -168708.000000 0 0 1
24.101270 -9.654906 -13.584774 29.302466 -0.381021 2.052856 0.055703 -0.002141 134822.000000 0 0 1
24.964870 -9.300106 -12.314374 29.349284 -0.356601 2.003779 0.062949 -0.006568 81032.600000 0 0 1
26.140370 -10.045906 -12.164274 30.532093 -0.366904 1.980578 0.048953 -0.004694 -359536.000000 0 0 1
26.988370 -9.602806 -11.126674 30.730910 -0.341844 1.941282 0.057738 -0.004879 -697667.000000 0 0 1
28.318750 -10.331006 -11.238874 32.171316 -0.349809 1.927668 0.062052 -0.003995 -509440.000000 0 0 1
28.990840 -9.888006 -12.429774 33.056629 -0.328700 1.956288 0.046508 -0.002793 157436.000000 0 0 1
30.263570 -10.485706 -12.580374 34.410747 -0.333535 1.945068 0.041081 -0.004916 -97308.200000 0 0 1
30.974130 -10.161006 -13.894174 35.435728 -0.316986 1.973704 0.019987 0.003990 -361441.000000 0 0 1
30.340630 -10.651106 -15.032974 35.496340 -0.337611 2.008110 0.012526 0.001254 69951.100000 0 0 1
31.009550 -10.210706 -16.199974 36.445711 -0.318095 2.031408 -0.000202 0.004851 -314237.000000 0 0 1
30.591660 -10.916206 -17.500174 36.895383 -0.342752 2.064986 -0.011524 0.007643 755547.000000 0 0 1
29.280250 -10.599106 -18.002974 35.969169 -0.347315 2.094986 -0.002251 0.002580 857303.000000 0 0 1
29.332400 -9.431906 -18.823574 36.106474 -0.311111 2.119211 0.000950 0.015422 -1117030.000000 0 0 1
28.008520 -9.040506 -19.405274 35.252980 -0.312220 2.153709 -0.028733 0.010706 -1047240.000000 0 0 1
27.556870 -9.807206 -20.524574 35.732625 -0.341912 2.182659 -0.012222 0.019701 -35042.800000 0 0 1
26.277470 -9.363706 -20.883974 34.847163 -0.342311 2.213425 0.016940 0.018706 -93895.800000 0 0 1
25.729570 -9.775906 -22.290774 35.418324 -0.363102 2.251522 0.028491 0.015922 135297.000000 0 0 1
25.478670 -11.175106 -22.426574 35.735092 -0.413339 2.249235 0.030268 0.010041 -177737.000000 0 0 1
24.633670 -11.367306 -23.524974 35.909020 -0.432338 2.285147 0.036998 -0.000189 -1036970.000000 0 0 1
24.615970 -12.864306 -24.049174 36.739612 -0.481564 2.284429 0.027050 0.008161 837841.000000 0 0 1
25.866870 -13.333406 -24.614974 38.115241 -0.475941 2.272872 0.023601 0.010369 1118030.000000 0 0 1
26.945270 -13.318606 -23.664174 38.254751 -0.459064 2.237749 0.012005 0.017657 -58392.400000 0 0 1
28.244950 -13.975906 -24.236974 39.755931 -0.459488 2.226408 -0.004164 0.021129 316900.000000 0 0 1
28.741520 -13.319606 -25.342654 40.567684 -0.433964 2.245544 0.009717 0.008734 -213061.000000 0 0 1
30.045690 -13.807706 -25.581314 41.806696 -0.430773 2.229251 0.003063 0.007640 14813.700000 0 0 1
30.771250 -13.328306 -26.849924 42.958491 -0.408746 2.245954 0.017648 0.008056 4938.700000 0 0 1
30.431220 -13.880106 -28.123784 43.699699 -0.427927 2.269949 0.027041 -0.002377 500780.000000 0 0 1
31.418340 -13.488706 -29.094824 44.895056 -0.405529 2.275835 0.022251 -0.006195 595088.000000 0 0 1
31.389180 -14.359306 -30.361694 45.970673 -0.429041 2.292225 0.027216 -0.010610 146303.000000 0 0 1
31.825470 -15.707806 -30.022564 46.486020 -0.458483 2.272920 0.034357 -0.002998 55995.400000 0 0 1
32.047170 -16.592306 -31.099954 47.639614 -0.477744 2.282094 0.029612 -0.006031 96473.700000 0 0 1
30.798950 -17.033106 -31.906054 47.504719 -0.505176 2.307216 0.015180 -0.000015 297706.000000 0 0 1
30.196450 -16.049306 -32.738394 47.341401 -0.488526 2.334413 0.009432 -0.001569 589940.000000 0 0 1
29.071790 -16.621106 -33.431864 47.319337 -0.519371 2.355359 0.006642 -0.002149 607731.000000 0 0 1
28.456300 -15.751806 33.852789 46.945625 -0.505560 0.765398 0.036760 0.000110 -250811.000000 0 0 1
27.646870 -14.676506 -34.174513 46.342708 -0.488027 2.400054 0.041383 -0.006936 164710.000000 0 0 1
28.384980 -13.498106 -33.867104 46.204834 -0.443886 2.393485 0.033503 -0.013712 -288781.000000 0 0 1
27.518070 -12.319806 -33.438784 45.024150 -0.420939 2.407868 0.050413 -0.017369 -120386.000000 0 0 1
27.042370 -11.503806 33.996593 44.937687 -0.402209 0.712810 0.071682 -0.023672 428357.000000 0 0 1
26.119570 -10.545206 -33.813604 44.009012 -0.383716 2.447030 0.051416 -0.028717 575603.000000 0 0 1
20.954365 -29.647023 9.559126 37.542087 -0.955525 1.313337 0.045376 0.003890 133169.000000 0 0 1
21.367765 -29.271123 8.231326 37.163621 -0.940222 1.347455 0.045207 -0.000688 207675.000000 0 0 1
22.532365 -30.010023 7.900226 38.350000 -0.926766 1.363307 0.056062 -0.005026 88834.000000 0 0 1
22.947965 -29.652623 6.473426 38.049867 -0.912178 1.399835 0.049325 -0.007089 -70099.100000 0 0 1
23.283265 -28.305823 6.270826 37.184046 -0.882449 1.401344 0.049264 0.003592 78360.100000 0 0 1
23.933165 -28.112323 5.031126 37.261392 -0.865524 1.435360 0.048103 0.001421 -24169.000000 0 0 1
24.014365 -26.628123 4.668226 36.159909 -0.836964 1.441336 0.051752 -0.004244 452459.000000 0 0 1
24.989265 -25.948523 5.468526 36.437535 -0.804228 1.420148 0.045893 -0.001934 314174.000000 0 0 1
24.940765 -24.588023 5.179326 35.403927 -0.778276 1.423977 0.039182 0.002608 -119184.000000 0 0 1
25.659365 -23.619423 6.071026 35.399682 -0.744026 1.398445 0.035235 -0.001279 1742360.000000 0 0 1
27.127865 -23.539423 5.968426 36.409444 -0.714693 1.406128 0.044748 -0.000803 2167910.000000 0 0 1
27.791765 -22.527823 6.733726 36.403682 -0.681167 1.384751 0.047514 -0.009722 132093.000000 0 0 1
27.325665 -21.071623 6.638726 35.139407 -0.656887 1.380729 0.038413 -0.006433 -563524.000000 0 0 1
27.542765 -20.416123 5.407226 34.708213 -0.637879 1.414368 0.051081 0.001104 130383.000000 0 0 1
27.124365 -19.096523 5.560026 33.635134 -0.613429 1.404730 0.052918 -0.006487 -248726.000000 0 0 1
26.911065 -18.395523 4.210126 32.868311 -0.599612 1.442353 0.046297 0.000889 653225.000000 0 0 1
28.156065 -17.974523 3.602826 33.598033 -0.568170 1.463356 0.090734 -0.003990 971464.000000 0 0 1
28.111065 -17.394223 2.360426 33.141554 -0.554105 1.499513 0.083566 -0.001831 613946.000000 0 0 1
29.492365 -16.649123 2.200526 33.938698 -0.513925 1.505913 0.097907 -0.026309 915942.000000 0 0 1
29.493265 -15.375823 2.838426 33.381511 -0.480568 1.485664 0.107363 -0.029306 498989.000000 0 0 1
30.782565 -14.871223 3.192526 34.335285 -0.450041 1.477681 0.124794 -0.031945 529920.000000 0 0 1
30.623765 -13.566923 4.016026 33.734327 -0.417034 1.451465 0.124366 -0.035340 118875.000000 0 0 1
30.169565 -13.832623 5.301826 33.610318 -0.429897 1.412391 0.101856 -0.019824 22410.200000 0 0 1
29.910865 -12.640323 6.047326 33.030406 -0.399836 1.386674 0.083283 -0.025896 -123302.000000 0 0 1
29.440165 -12.951823 7.492926 33.024490 -0.414454 1.341913 0.076374 -0.022374 330306.000000 0 0 1
28.015465 -13.142423 7.525626 31.846893 -0.438634 1.332233 0.057473 -0.014670 710798.000000 0 0 1
27.454965 -13.246723 8.826926 31.735869 -0.449541 1.288942 0.059002 -0.011331 121711.000000 0 0 1
27.890465 -14.454023 9.725926 32.884502 -0.478135 1.270545 0.058272 -0.013763 -706695.000000 0 0 1
29.037265 -14.267923 10.493826 34.012597 -0.456717 1.257152 0.047883 -0.007338 -252166.000000 0 0 1
29.321965 -15.438523 11.244526 34.993785 -0.484636 1.243663 0.047938 -0.012719 -145675.000000 0 0 1
29.940065 -15.177923 12.639426 35.868258 -0.469187 1.210678 0.045430 -0.009317 9499.850000 0 0 1
31.311565 -14.866823 12.543726 36.861655 -0.443288 1.223569 0.055015 -0.009309 307498.000000 0 0 1
32.029665 -15.045923 13.776126 37.974477 -0.439156 1.199554 0.049314 -0.008079 808811.000000 0 0 1
33.583065 -14.954323 13.765526 39.254856 -0.418933 1.212509 0.057815 -0.016225 541065.000000 0 0 1
34.032065 -13.590323 13.509326 39.056116 -0.379936 1.217604 0.056376 -0.017606 -289436.000000 0 0 1
35.419465 -13.618023 13.405526 40.245461 -0.367055 1.231213 0.071821 -0.020987 -710875.000000 0 0 1
36.235865 -12.325023 13.330226 40.529483 -0.327858 1.235656 0.081263 -0.025653 241238.000000 0 0 1
-35.315240 -12.402123 12.512226 39.465614 0.337729 1.248188 0.092489 -0.025934 679017.000000 0 0 1
-34.656940 -11.145823 12.512626 38.495438 0.311158 1.239740 0.094865 -0.032025 375481.000000 0 0 1
-33.407240 -10.980523 11.577726 37.022417 0.317563 1.252739 0.090178 -0.029393 976430.000000 0 0 1
-32.221640 -11.677423 11.952726 36.296887 0.347687 1.235229 0.078587 -0.024847 538018.000000 0 0 1
-32.237940 -12.999623 11.372026 36.573187 0.383296 1.254616 0.068164 -0.020599 -85139.400000 0 0 1
-31.059540 -13.955423 11.762526 36.025073 0.422282 1.238188 0.048425 -0.016877 1284110.000000 0 0 1
-29.786740 -13.573923 11.202126 34.597528 0.427587 1.241070 0.046266 -0.016743 45251.900000 0 0 1
-28.798540 -14.420123 11.664226 34.254198 0.464227 1.223327 0.053397 -0.016883 -285311.000000 0 0 1
-27.446640 -14.222723 10.921126 32.785285 0.478098 1.231196 0.053162 -0.016599 141528.000000 0 0 1
-27.517140 -14.508723 9.529026 32.534573 0.485218 1.273549 0.047003 -0.009806 820181.000000 0 0 1
-26.193040 -14.714023 9.005126 31.363516 0.511822 1.279576 0.044992 -0.007233 790407.000000 0 0 1
-26.031440 -14.541723 7.470526 30.739329 0.509438 1.325310 0.062333 -0.002553 -210218.000000 0 0 1
-26.522540 -15.613423 6.753226 31.509208 0.532058 1.354795 0.062233 0.002109 202254.000000 0 0 1
-26.334640 -15.419923 5.389826 30.989313 0.529718 1.395982 0.073660 0.000370 -486333.000000 0 0 1
-26.869740 -16.662523 4.638426 31.955244 0.555084 1.425128 0.069115 0.000539 383324.000000 0 0 1
-28.279140 -16.597523 4.433426 33.088409 0.530744 1.436405 0.048648 -0.008697 340473.000000 0 0 1
-28.704940 -17.741123 3.747926 33.952438 0.553587 1.460183 0.056003 -0.007028 -110969.000000 0 0 1
-30.214840 -17.997023 3.917126 35.386061 0.537204 1.459872 0.062491 -0.012369 -299456.000000 0 0 1
-31.015440 -17.135323 3.154126 35.574223 0.504743 1.482017 0.069092 -0.013799 -388797.000000 0 0 1
-32.348840 -17.340323 3.580926 36.877599 0.492063 1.473540 0.069711 -0.011052 -311000.000000 0 0 1
-33.337740 -16.393023 2.928626 37.265440 0.457006 1.492127 0.062289 -0.021730 -316530.000000 0 0 1
-33.699640 -16.898423 1.662526 37.735745 0.464801 1.526725 0.061688 -0.015425 174658.000000 0 0 1
-34.747640 -16.153023 1.040426 38.332769 0.435148 1.543651 0.087409 -0.021788 214407.000000 0 0 1
-35.309240 -16.836523 -0.239974 39.118647 0.444941 1.576931 0.081251 -0.017434 -214331.000000 0 0 1
-34.417640 -16.698323 -1.334674 38.277792 0.451711 1.605671 0.082076 -0.017236 423611.000000 0 0 1
-34.657340 -17.627823 -2.412174 38.957541 0.470529 1.632754 0.068883 -0.010366 -426699.000000 0 0 1
-33.356340 -18.085323 -3.057274 38.066669 0.496824 1.651197 0.060975 -0.009956 -417290.000000 0 0 1
-33.614240 -19.146723 -3.955874 38.886542 0.517768 1.672701 0.062213 -0.012958 693027.000000 0 0 1
-32.418940 -19.633223 -4.562874 38.174219 0.544534 1.690610 0.067435 -0.011500 170324.000000 0 0 1
-32.819740 -20.651223 -5.704674 39.193771 0.561637 1.716866 0.073261 -0.014547 -111897.000000 0 0 1
-33.522540 -21.794923 -5.223374 40.324472 0.576486 1.700695 0.065390 -0.014839 192872.000000 0 0 1
-33.639740 -22.724623 -6.250674 41.074464 0.594113 1.723569 0.059533 -0.013078 -368311.000000 0 0 1
-34.357040 -23.937823 -5.753274 42.267313 0.608533 1.707337 0.036202 -0.007324 -213067.000000 0 0 1
-33.573540 -24.752123 -4.883774 41.996446 0.635292 1.687350 0.048662 -0.006534 -342775.000000 0 0 1
-34.180540 -25.985323 -4.645074 43.187071 0.650021 1.678562 0.028910 0.007237 -30711.200000 0 0 1
-33.268440 -27.060823 -3.996774 43.070309 0.682863 1.663727 0.035422 0.005260 -432064.000000 0 0 1
-32.267940 -27.519723 -4.919574 42.693763 0.706146 1.686282 0.040575 0.001284 205330.000000 0 0 1
-31.721840 -28.774423 -4.669274 43.081837 0.736716 1.679391 0.038229 0.000679 246288.000000 0 0 1
-30.660440 -28.683323 -3.521174 42.133055 0.752094 1.654467 0.052405 -0.004972 -293428.000000 0 0 1
-31.303840 -28.507923 -2.266374 42.400101 0.738687 1.624274 0.038341 -0.002298 -266656.000000 0 0 1
-30.343840 -28.387423 -1.264874 41.571557 0.752099 1.601227 0.040251 -0.004313 -235546.000000 0 0 1
-30.955940 -28.300523 0.138526 41.942926 0.740616 1.567494 0.037770 0.006470 124186.000000 0 0 1
-31.414640 -29.577323 0.605326 43.151641 0.755283 1.556768 0.037981 0.009143 -55944.700000 0 0 1
-32.168940 -29.414523 1.798826 43.626720 0.740701 1.529552 0.038252 0.016847 -20770.100000 0 0 1
-32.551640 -30.712523 2.527126 44.824711 0.756336 1.514388 0.034820 0.009922 844048.000000 0 0 1
-33.727940 -30.572223 3.384026 45.647414 0.736360 1.496594 0.022189 0.012186 1137980.000000 0 0 1
-34.090740 -31.747523 4.093726 46.763687 0.749823 1.483143 0.032880 0.007418 20778.600000 0 0 1
-35.158240 -32.547523 3.336226 48.026800 0.746858 1.501274 0.024782 0.006592 -542197.000000 0 0 1
-35.800540 -33.578323 4.027226 49.248361 0.753379 1.488931 0.041958 -0.006097 -309225.000000 0 0 1
35.992165 -34.121023 3.124026 49.693457 -0.758717 1.507889 0.042792 -0.007011 -329609.000000 0 0 1
34.784265 33.630494 3.847626 48.536166 0.768535 1.491440 0.046187 -0.010276 285799.000000 0 0 1
33.903665 -34.044723 4.740326 48.280144 -0.787474 1.472454 0.041544 -0.014883 981259.000000 0 0 1
33.227765 -32.868523 4.305726 46.935737 -0.779963 1.478931 0.042876 -0.011992 -158739.000000 0 0 1
32.091765 -33.096923 3.297426 46.218619 -0.800816 1.499392 0.050180 -0.006695 -906495.000000 0 0 1
32.526865 -33.595023 2.066926 46.806994 -0.801551 1.526623 0.057954 -0.006498 -85562.300000 0 0 1
31.574965 -33.383523 1.022526 45.961762 -0.813233 1.548547 0.055607 0.004157 -882603.000000 0 0 1
31.950865 -34.141223 -0.314674 46.760880 -0.818527 1.577526 0.061311 0.000497 633587.000000 0 0 1
33.041265 -33.637323 -1.086374 47.163279 -0.794337 1.593833 0.033129 0.014147 682858.000000 0 0 1
34.291465 -33.582923 -0.385074 47.998600 -0.774960 1.578819 0.019936 0.009537 -393451.000000 0 0 1
35.530265 -33.272023 -1.235874 48.692449 -0.752588 1.596180 0.015358 0.016708 -175910.000000 0 0 1
35.991565 34.100694 -2.010874 49.621504 0.758428 1.611332 0.006858 0.001254 -100520.000000 0 0 1
-35.926640 -33.816623 -3.051974 49.432803 0.755153 1.632575 0.000280 0.003079 -633009.000000 0 0 1
-35.283940 33.472494 -3.858774 48.787851 -0.759058 1.649972 -0.005299 0.005424 124786.000000 0 0 1
-34.134240 32.812094 -3.318474 47.463587 -0.765651 1.640770 0.004924 -0.000347 287521.000000 0 0 1
-33.693140 31.886394 -4.273474 46.585753 -0.757855 1.662659 0.023884 -0.010882 576990.000000 0 0 1
-32.366240 31.134694 -3.870774 45.076885 -0.766006 1.656773 0.045922 -0.019793 -208993.000000 0 0 1
-31.224340 31.922894 -4.072074 44.839852 -0.796460 1.661735 0.045113 -0.016573 -841930.000000 0 0 1
-30.025240 31.236094 -3.893474 43.501353 -0.805161 1.660419 0.075865 -0.021384 -30152.700000 0 0 1
-29.549440 30.954894 -2.437674 42.863937 -0.808623 1.627697 0.063833 -0.021608 -54372.400000 0 0 1
-30.536340 30.221794 -1.700874 42.996719 -0.780221 1.610365 0.051896 -0.010456 112454.000000 0 0 1
-30.094340 30.105694 -0.364974 42.569418 -0.785587 1.579370 0.049932 -0.008218 138382.000000 0 0 1
-31.229040 29.588894 0.588326 43.024432 -0.758437 1.557122 0.045976 -0.009968 415396.000000 0 0 1
-31.607040 28.234194 0.332726 42.382607 -0.729094 1.562946 0.045639 -0.014706 298570.000000 0 0 1
-32.580340 28.134494 -0.711474 43.052695 -0.712304 1.587323 0.046931 -0.011182 -179712.000000 0 0 1
-32.844640 26.737494 -1.247974 42.370053 -0.683255 1.600255 0.054005 -0.012412 73368.000000 0 0 1
-33.462240 25.896594 -0.292474 42.313599 -0.658626 1.577708 0.051522 -0.009005 -26376.400000 0 0 1
-33.809340 24.640694 -0.788574 41.843245 -0.629803 1.589643 0.079644 -0.003708 -187372.000000 0 0 1
-33.787440 23.502894 0.222926 41.158557 -0.607774 1.565380 0.084554 -0.012191 39424.900000 0 0 1
-32.488340 23.112494 0.606726 39.875403 -0.618342 1.555580 0.088406 -0.020706 27640.700000 0 0 1
-32.054840 23.712594 1.796426 39.912743 -0.636909 1.525772 0.075137 -0.020506 142486.000000 0 0 1
-30.540740 23.411794 2.114326 38.539840 -0.654026 1.515908 0.057194 -0.023689 1177960.000000 0 0 1
-29.581040 24.274394 1.474126 38.294349 -0.687180 1.532292 0.061390 -0.018806 507663.000000 0 0 1
-29.429040 25.541994 2.055926 39.021644 -0.714805 1.518085 0.032701 -0.012465 -493177.000000 0 0 1
-28.829340 26.585094 1.096826 39.231379 -0.744921 1.542835 0.033209 -0.008846 1398960.000000 0 0 1
-27.469340 26.298394 0.653126 38.034152 -0.763624 1.553623 0.032777 -0.010912 1171890.000000 0 0 1
-26.997440 27.238994 -0.323974 38.352699 -0.789852 1.579244 0.044236 -0.015215 832891.000000 0 0 1
-25.715540 26.724294 -1.088274 37.103386 -0.804632 1.600131 0.043730 -0.015321 543207.000000 0 0 1
-25.937140 25.569594 -1.793874 36.465838 -0.778262 1.620009 0.054305 -0.025889 256561.000000 0 0 1
-24.815340 25.160194 -2.601774 35.434527 -0.792298 1.644287 0.043815 -0.015334 193543.000000 0 0 1
-23.917940 24.097594 -2.016774 34.012193 -0.789140 1.630127 0.029100 -0.012496 -603839.000000 0 0 1
-24.500640 22.818794 -1.917574 33.535888 -0.749871 1.628007 0.023912 -0.011674 34745.400000 0 0 1
-23.701440 21.883094 -1.162374 32.279702 -0.745530 1.606814 0.019051 -0.026588 -683967.000000 0 0 1
-24.289740 20.445094 -1.049074 31.766238 -0.699666 1.603827 0.021929 -0.023767 -600107.000000 0 0 1
-25.027440 20.244894 0.147726 32.190842 -0.680149 1.566207 0.015680 -0.021461 182107.000000 0 0 1
-26.283040 20.861794 0.329326 33.557728 -0.670910 1.560982 0.014570 -0.021135 -986092.000000 0 0 1
-27.377640 20.455594 -0.610074 34.180970 -0.641684 1.588646 0.028646 -0.029638 -1805140.000000 0 0 1
-27.751240 19.139594 -0.351074 33.713182 -0.603769 1.581210 0.043357 -0.032570 372252.000000 0 0 1
-28.456740 18.549494 -1.457674 33.999921 -0.577674 1.613682 0.067673 -0.026959 101020.000000 0 0 1
-28.751340 17.051294 -1.386274 33.456060 -0.535302 1.612244 0.053451 -0.024010 139013.000000 0 0 1
-29.632840 16.697694 -0.313274 34.014943 -0.513138 1.580006 0.065778 -0.031368 568538.000000 0 0 1
-29.950140 15.287994 -0.209974 33.627039 -0.471971 1.577041 0.068026 -0.031291 -922488.000000 0 0 1
-28.890940 14.340394 0.261226 32.255256 -0.460734 1.562698 0.068236 -0.030051 -1255670.000000 0 0 1
-28.615140 14.621394 1.627826 32.175476 -0.472383 1.520183 0.066250 -0.029883 1182660.000000 0 0 1
-27.282440 14.335294 2.114226 30.891781 -0.483792 1.502303 0.063864 -0.032271 781551.000000 0 0 1
-26.825640 12.853794 2.126326 29.822077 -0.446838 1.499435 0.075174 -0.028942 -587480.000000 0 0 1
-26.590040 12.318894 0.818526 29.316469 -0.433851 1.542872 0.069513 -0.031285 383895.000000 0 0 1
-26.210840 10.991594 1.020626 28.440551 -0.397078 1.534902 0.095801 -0.025217 -326253.000000 0 0 1
-26.160640 10.277894 -0.305474 28.108851 -0.374350 1.581664 0.096497 -0.020800 -572518.000000 0 0 1
-27.424540 9.930094 -0.799174 29.177917 -0.347403 1.598189 0.086890 -0.015963 3313.040000 0 0 1
-27.355340 9.237294 -2.033774 28.944403 -0.325656 1.641119 0.101624 -0.021262 201946.000000 0 0 1
-28.738540 8.704294 -2.501874 30.131840 -0.294096 1.653923 0.098588 -0.022665 145744.000000 0 0 1
-28.729840 7.984294 -3.755774 30.054260 -0.271069 1.696090 0.118331 -0.024328 1420890.000000 0 0 1
-30.067640 7.743394 -4.278274 31.342093 -0.252055 1.707726 0.116124 -0.018328 1058430.000000 0 0 1
-10.922135 18.136994 -20.026674 29.142945 -1.028759 2.328407 0.076460 -0.001407 238966.000000 0 0 1
-11.446335 17.101494 -20.839274 29.287455 -0.980961 2.362488 0.072273 -0.007514 153765.000000 0 0 1
-10.755835 17.045494 -22.079674 29.895633 -1.007889 2.401726 0.065289 -0.012030 122665.000000 0 0 1
-11.168735 15.787594 -22.830974 29.920597 -0.955096 2.438818 0.070146 -0.006907 -81400.600000 0 0 1
-10.523035 14.574794 -22.402574 28.723409 -0.945456 2.465368 0.063857 -0.008893 -9354.500000 0 0 1
-10.707235 13.559994 -23.310274 29.015292 -0.902417 2.503744 0.058961 -0.012267 85982.700000 0 0 1
-9.775735 12.356794 -22.955674 27.842743 -0.901492 2.540072 0.034731 -0.004375 -596874.000000 0 0 1
-8.428435 12.650694 -23.109174 27.660667 -0.983087 2.559752 0.044711 -0.011146 -1173750.000000 0 0 1
-7.732335 11.589194 -22.522674 26.483377 -0.982423 2.587628 0.029497 -0.004664 100252.000000 0 0 1
-6.193035 11.765994 -22.441974 26.085139 -1.086291 2.606724 0.039964 -0.004600 214260.000000 0 0 1
-5.526335 11.372994 -23.648274 26.816529 -1.118478 2.650577 0.035291 -0.009829 -824844.000000 0 0 1
-4.165635 11.298494 -23.383774 26.302269 -1.217570 2.666041 0.041227 -0.010257 -919999.000000 0 0 1
-3.231835 11.084194 -24.541374 27.121636 -1.287090 2.701855 0.058845 -0.021025 -321924.000000 0 0 1
-3.363135 9.838994 -25.138854 27.204383 -1.241430 2.749401 0.052360 -0.018658 -99493.100000 0 0 1
-2.775835 9.826294 -26.434204 28.337757 -1.295480 2.772975 0.053507 -0.018385 -33401.400000 0 0 1
-2.515935 8.353194 -26.935084 28.312621 -1.278244 2.828370 0.048562 -0.004856 294556.000000 0 0 1
-1.416835 7.646494 -26.375714 27.498265 -1.387582 2.854875 0.038655 -0.008131 359923.000000 0 0 1
-1.886235 6.770194 -25.372304 26.327689 -1.299078 2.871371 0.042089 -0.019327 407060.000000 0 0 1
-0.722935 5.922894 -24.751574 25.460631 -1.449339 2.905037 -0.023253 -0.007586 323951.000000 0 0 1
-0.109035 6.650394 -23.729674 24.644209 -1.554402 2.868311 0.008088 -0.010012 -253414.000000 0 1 0
0.871265 5.887194 -23.075174 23.830271 1.423870 2.889183 0.000977 -0.005601 -318323.000000 0 1 0
1.399365 6.481094 -21.770774 22.758062 1.358146 2.845960 0.022939 -0.004136 336681.000000 0 1 0
2.304065 7.578394 -21.927274 23.314075 1.275646 2.794944 0.027212 -0.004768 199833.000000 0 1 0
2.356165 8.311294 -20.694174 22.424940 1.294555 2.746133 0.037450 -0.001025 192389.000000 0 1 0
3.055265 9.710994 -20.774474 23.134753 1.265982 2.685947 0.040192 -0.004853 50689.600000 0 1 0
3.030565 10.241394 -19.463774 22.201553 1.283093 2.639724 0.036069 -0.017789 -63770.400000 0 1 0
3.599665 11.507494 -19.372974 22.818679 1.267629 2.584879 0.053693 -0.020668 -22252.700000 0 1 0
4.843865 11.596894 -18.457074 22.329678 1.175137 2.543785 0.048550 -0.028017 784381.000000 0 1 0
5.938365 10.843694 -19.011874 22.678210 1.069772 2.565013 0.057159 -0.019784 153492.000000 0 1 0
6.928865 10.473594 -18.079674 22.013176 0.986341 2.534502 0.056704 -0.020931 473893.000000 0 1 0
8.085865 9.641194 -18.710074 22.547742 0.872912 2.549542 0.078247 -0.019094 145421.000000 0 1 0
7.739165 8.252194 -18.935974 22.058207 0.817469 2.603046 0.077993 -0.017641 84090.200000 0 1 0
7.036565 8.191294 -20.164174 22.873663 0.861083 2.649922 0.066932 -0.006171 -91645.800000 0 1 0
6.852365 6.723394 -20.519274 22.653907 0.775898 2.703994 0.061734 -0.002797 332865.000000 0 1 0
8.027565 5.930794 -20.707174 22.987021 0.636297 2.692451 0.068482 0.002318 375347.000000 0 1 0
7.713365 4.597894 -21.085574 22.918072 0.537543 2.738982 0.061401 0.005412 -19187.100000 0 1 0
7.312265 4.302794 -22.553374 24.096430 0.531873 2.781781 0.076555 -0.005620 88570.100000 0 1 0
6.106365 4.867194 -23.038274 24.325693 0.672951 2.814797 0.075038 -0.014876 -45196.900000 0 1 0
5.915265 4.551094 -24.395174 25.511317 0.655790 2.844696 0.081766 -0.019741 -363254.000000 0 0 1
4.719165 5.307094 -24.972974 25.963150 0.843970 2.864527 0.057818 -0.013088 -245200.000000 0 0 1
4.902365 6.690094 -25.289664 26.614989 0.938408 2.824686 0.079803 -0.018849 7307.370000 0 0 1
4.697565 7.511194 -24.146174 25.720087 1.011903 2.789944 0.070724 -0.024165 -904689.000000 0 0 1
4.725865 9.064594 -24.398574 26.453564 1.090212 2.744831 0.085763 -0.029834 453428.000000 0 0 1
3.703065 9.595294 -25.233164 27.248760 1.202482 2.754551 0.079417 -0.029973 613638.000000 0 0 1
2.367565 9.457894 -24.749474 26.600631 1.325510 2.766324 0.065012 -0.016151 429019.000000 0 0 1
1.291265 10.094394 -25.699744 27.641291 1.443568 2.764554 0.048397 -0.004685 313733.000000 0 0 1
1.262365 11.510394 -25.687974 28.177202 1.461561 2.718097 0.067676 -0.029094 -140525.000000 0 0 1
0.464865 11.972294 -26.732904 29.295052 1.531987 2.720248 0.074284 -0.024546 -250475.000000 0 0 1
0.423765 13.491694 -26.704374 29.922048 1.539397 2.673576 0.072616 -0.036355 -109030.000000 0 0 1
-0.354735 14.014994 -25.649364 29.230733 -1.545491 2.641377 0.076585 -0.034945 -156071.000000 0 0 1
-0.342635 15.434394 -25.649994 29.937603 -1.548600 2.599793 0.072559 -0.053280 -305250.000000 0 0 1
-0.835635 15.913894 -24.316474 29.073032 -1.518335 2.561465 0.084416 -0.039059 -530348.000000 0 0 1
-2.117535 15.386394 -24.126474 28.693411 -1.434032 2.569624 0.071227 -0.033138 -568926.000000 0 0 1
-2.487035 15.411094 -22.735674 27.578942 -1.410796 2.539912 0.068638 -0.041634 -589447.000000 0 0 1
-3.786635 14.696494 -22.385374 27.044972 -1.318625 2.545809 0.061178 -0.028519 492412.000000 0 0 1
-5.000735 15.284694 -22.889274 27.974061 -1.254600 2.529125 0.067263 -0.027486 581535.000000 0 0 1
-5.348635 14.818494 -24.238274 28.908296 -1.224406 2.565236 0.063587 -0.023564 -429386.000000 0 0 1
-6.828935 14.939294 -24.607074 29.585891 -1.142044 2.552989 0.045285 -0.020608 -279793.000000 0 0 1
-7.310835 16.215894 -24.836174 30.548962 -1.147241 2.520075 0.051565 -0.021793 -1201360.000000 0 0 1
-8.643335 16.203194 -25.174814 31.161226 -1.080761 2.511358 0.064581 -0.015033 -1418730.000000 0 0 1
-9.225035 17.530794 -25.641684 32.402561 -1.086394 2.483806 0.070797 -0.023182 -70306.400000 0 0 1
-9.807535 18.367994 -24.650174 32.267662 -1.080361 2.440175 0.070922 -0.021946 -327478.000000 0 0 1
-10.863335 19.129794 -25.128524 33.397661 -1.054333 2.422500 0.071591 -0.018424 -276685.000000 0 0 1
-11.310735 20.244094 -24.167274 33.493480 -1.061285 2.376837 0.054319 -0.011834 701914.000000 0 0 1
-10.330535 21.324594 -24.012974 33.735459 -1.119672 2.362857 0.062372 -0.012825 1009720.000000 0 0 1
-10.716535 22.605794 -24.612974 35.095078 -1.128114 2.348048 0.047759 -0.016076 -72717.700000 0 0 1
-10.621035 22.818394 -26.125354 36.276984 -1.135161 2.374834 0.035058 -0.018195 82739.000000 0 0 1
-11.522935 22.015794 -26.881154 36.606962 -1.088609 2.395458 0.032345 -0.018519 109673.000000 0 0 1
-11.556735 22.400194 -28.304304 37.900665 -1.094493 2.414037 0.048458 -0.013000 -460980.000000 0 0 1
-12.251135 21.408094 -29.207784 38.229458 -1.051019 2.440306 0.035245 -0.011674 -292692.000000 0 0 1
-11.505435 20.317294 -29.688384 37.769930 -1.055534 2.475161 0.054030 -0.021988 -414270.000000 0 0 1
-11.116135 19.357194 -28.764584 36.409761 -1.049516 2.481644 0.056502 -0.020361 -460536.000000 0 0 1
-9.885035 18.594494 -29.267304 36.056126 -1.082181 2.517879 0.044923 -0.021847 -403932.000000 0 0 1
-8.671435 19.368394 -29.222104 36.114537 -1.149848 2.513502 0.044638 -0.021436 997699.000000 0 0 1
-7.518435 18.711794 -29.770214 35.957249 -1.188737 2.546209 0.051334 -0.019881 804037.000000 0 0 1
-7.030835 17.328594 -29.207174 34.681001 -1.185355 2.572085 0.065984 -0.030827 -470827.000000 0 0 1
-7.969035 16.291294 -29.542344 34.664995 -1.115859 2.591018 0.063729 -0.028336 259451.000000 0 0 1
-7.732035 15.035194 -28.872814 33.458643 -1.095804 2.611856 0.045928 -0.021213 -675653.000000 0 0 1
-8.975135 14.165394 -28.826904 33.349690 -1.006040 2.614718 0.056105 -0.016555 -519473.000000 0 0 1
-9.909235 14.630494 -27.865544 32.995952 -0.975468 2.576453 0.070751 -0.019496 -46353.800000 0 0 1
-11.056335 13.789894 -28.002714 33.114282 -0.894976 2.578557 0.087777 -0.017914 375722.000000 0 0 1
-12.159435 14.052994 -26.946204 32.732803 -0.857512 2.537851 0.065518 -0.007678 5129.780000 0 0 1
-12.799135 15.266094 -27.134224 33.662109 -0.873074 2.508288 0.054032 -0.016743 -864678.000000 0 0 1
-13.725735 15.533294 -26.145494 33.365639 -0.847098 2.471244 0.047040 -0.014873 115956.000000 0 0 1
-14.687035 16.731194 -26.476904 34.592894 -0.850369 2.442437 0.022912 -0.010739 306575.000000 0 0 1
-14.087435 17.975394 -26.250434 34.794481 -0.906070 2.425601 0.030354 -0.008556 363513.000000 0 0 1
-14.955835 19.065994 -26.669934 36.034352 -0.905625 2.404053 -0.001994 -0.005283 -324594.000000 0 0 1
-14.495535 20.493894 -26.458394 36.471452 -0.955181 2.382491 0.002319 -0.009972 -324773.000000 0 0 1
-15.473135 21.426094 -26.909394 37.717514 -0.945350 2.365200 -0.040232 -0.000633 314183.000000 0 0 1
-15.021735 22.791694 -26.942094 38.353491 -0.988059 2.349655 -0.032472 -0.005197 -64775.900000 0 0 1
-14.595135 23.485994 -25.629314 37.702408 -1.014761 2.318258 -0.046312 -0.006180 92292.900000 0 0 1
-14.292935 24.851094 -25.800674 38.568635 -1.048854 2.303598 -0.022544 -0.014589 -166997.000000 0 0 1
-13.667935 25.469694 -24.726074 38.038092 -1.078272 2.278426 0.004946 -0.016756 -263982.000000 0 0 1
-13.200535 26.912594 -25.143244 39.124475 -1.114780 2.268745 0.023058 -0.021769 31045.400000 0 0 1
-14.247835 27.841694 -25.332784 40.248114 -1.097797 2.251597 0.033025 -0.020578 39684.500000 0 0 1
-14.879735 28.343994 -24.141074 40.094637 -1.087373 2.216928 0.043465 -0.028171 -219889.000000 0 0 1
-16.071635 29.243194 -24.522574 41.410367 -1.068271 2.204563 0.036809 -0.028281 -676911.000000 0 0 1
-17.190635 28.462294 -24.782274 41.470245 -1.027456 2.211290 0.020839 -0.023852 -1550160.000000 0 0 1
-18.261535 29.301994 -25.047974 42.655498 -1.013479 2.198411 0.031641 -0.021796 -1176350.000000 0 0 1
-19.546435 28.523894 -25.245924 42.813927 -0.970028 2.201442 0.048384 -0.003299 -772301.000000 0 0 1
-20.006435 27.899594 -24.060174 41.922986 -0.948694 2.182073 0.060734 -0.018809 -188434.000000 0 0 1
-21.086235 27.013794 -24.249274 41.980968 -0.908014 2.186613 0.062479 -0.032579 -217277.000000 0 0 1
-21.786335 26.754494 -22.901874 41.411872 -0.887393 2.156789 0.056294 -0.026699 22967.600000 0 0 1
-22.644135 27.813994 -22.501674 42.340293 -0.887500 2.131106 0.047204 -0.018422 54309.800000 0 0 1
-23.015135 27.713394 -21.125574 41.761448 -0.877750 2.101179 0.022258 -0.010690 484173.000000 0 0 1
-24.380535 28.421494 -20.804574 42.837158 -0.861780 2.077922 0.007218 0.001498 883714.000000 0 0 1
-25.528835 27.711494 -21.278774 43.271637 -0.826372 2.084893 -0.006329 -0.000414 548467.000000 0 0 1
-26.673555 28.566394 -21.062974 44.397818 -0.819651 2.065095 0.008296 0.002154 129597.000000 0 0 1
-27.922565 27.832494 -21.554974 44.932552 -0.783783 2.071130 0.005866 -0.003468 -568894.000000 0 0 1
-27.986885 27.600594 -22.962874 45.523094 -0.778449 2.099509 0.003622 -0.001905 200088.000000 0 0 1
-29.228435 26.941394 -23.186774 46.019198 -0.744704 2.098846 0.011453 -0.004216 131502.000000 0 0 1
-29.447675 26.558994 -24.616674 46.674687 -0.733866 2.126345 0.009561 0.002189 5594.440000 0 0 1
-29.060035 25.237694 -24.936974 45.861525 -0.715118 2.145689 0.009222 0.011176 -216156.000000 0 0 1
-29.223545 25.122194 -26.365644 46.693548 -0.710073 2.170809 0.024822 0.003917 -67131.100000 0 0 1
-29.158665 23.692794 -27.022374 46.279422 -0.682345 2.194316 0.023172 0.002652 60407.700000 0 0 1
-27.918305 23.015694 -26.877914 45.073010 -0.689440 2.209705 0.029430 -0.018249 158943.000000 0 0 1
-28.011645 21.746194 -27.549944 44.905998 -0.660139 2.231285 0.047904 -0.025302 -104877.000000 0 0 1
-26.845965 20.754594 -27.351164 43.583772 -0.658121 2.249204 0.054362 -0.018551 -90927.100000 0 0 1
-26.859955 20.092794 -26.096304 42.499349 -0.642257 2.231966 0.044711 -0.017689 48051.300000 0 0 1
-26.208695 18.859294 -26.099184 41.517901 -0.623747 2.250580 0.026020 -0.022924 -85860.900000 0 0 1
-27.163345 17.641294 -25.874844 41.455640 -0.575990 2.244849 0.023554 -0.005455 -482730.000000 0 0 1
-28.032345 17.428994 -26.915094 42.591132 -0.556256 2.254852 0.024429 -0.006282 -316654.000000 0 0 1
-28.722665 16.212594 -26.680554 42.422773 -0.513872 2.250960 0.008745 -0.005472 -222037.000000 0 0 1
-29.501495 15.757294 -27.947984 43.585781 -0.490568 2.266881 0.000736 -0.008708 367975.000000 0 0 1
-30.746095 16.428394 -28.129194 44.793594 -0.490729 2.249743 0.000382 -0.009082 255865.000000 0 0 1
-31.439645 15.829994 -29.207244 45.739514 -0.466447 2.263417 0.018511 -0.004573 589975.000000 0 0 1
-32.784135 16.557394 -29.535764 47.130756 -0.467674 2.248078 0.031221 -0.007953 697592.000000 0 0 1
-33.779985 16.514994 -28.518914 47.192805 -0.454727 2.219691 0.023263 -0.007620 -279003.000000 0 0 1
-35.028047 16.842894 -29.023664 48.507940 -0.448203 2.212209 0.037382 -0.008677 -567846.000000 0 0 1
-36.245685 16.560694 -28.129734 48.777948 -0.428578 2.185467 0.042187 -0.005185 -148573.000000 0 0 1
36.229040 17.432094 -27.065094 48.465869 0.448465 2.163296 0.049511 -0.021187 -21307.400000 0 0 1
35.064340 17.055294 -26.362754 47.067884 0.452709 2.165304 0.077712 -0.021745 -39541.900000 0 0 1
34.537540 18.172794 -25.434604 46.583378 0.484368 2.148381 0.093098 -0.022536 -16140.500000 0 0 1
33.892910 19.242294 -26.123284 46.919305 0.516360 2.161289 0.095533 -0.031941 73218.800000 0 0 1
33.504570 20.202494 -25.170934 46.521746 0.542606 2.142490 0.109472 -0.031322 -453015.000000 0 0 1
32.694380 21.283694 -25.981664 46.871792 0.577070 2.158334 0.113385 -0.038618 762037.000000 0 0 1
31.372530 20.895294 -26.373864 46.004669 0.587567 2.181308 0.102141 -0.032999 350820.000000 0 0 1
30.408460 21.154494 -25.362604 44.893749 0.607819 2.171166 0.099593 -0.023988 438203.000000 0 0 1
28.961160 21.042994 -25.960514 44.221088 0.628352 2.198221 0.056172 -0.022164 829887.000000 0 0 1
28.375090 19.756694 -26.024124 43.275024 0.608218 2.216006 0.073591 -0.039552 -610015.000000 0 0 1
27.105070 19.744694 -26.593904 42.799222 0.629566 2.241279 0.069401 -0.035969 -736645.000000 0 0 1
26.566270 18.315294 -26.817964 41.957357 0.603589 2.264217 0.087771 -0.035847 -82870.800000 0 0 1
27.243070 17.401094 -27.725654 42.587496 0.568415 2.279734 0.091079 -0.036738 482249.000000 0 0 1
28.502770 16.951394 -27.238374 42.914877 0.536534 2.258426 0.094406 -0.036427 91441.400000 0 0 1
29.221050 15.896094 -28.137114 43.568942 0.498221 2.272876 0.086174 -0.026662 -304727.000000 0 0 1
28.629980 14.664194 -28.446814 42.941070 0.473358 2.294897 0.097403 -0.022559 -291098.000000 0 0 1
27.954930 13.965094 -27.429024 41.579481 0.463294 2.291185 0.113955 -0.028328 -223881.000000 0 0 1
28.773030 13.227994 -26.319944 41.177743 0.430921 2.264226 0.115198 -0.021427 641207.000000 0 0 1
29.635470 14.153294 -25.589464 41.634090 0.445551 2.232710 0.111267 -0.027310 863116.000000 0 0 1
30.558470 13.645194 -24.642574 41.560412 0.419962 2.205494 0.102831 -0.020270 168006.000000 0 0 1
-14.339135 -31.547423 -23.680274 41.971492 1.144185 2.170259 0.090480 -0.007217 209613.000000 0 0 1
-13.640835 -30.558823 -24.441674 41.440433 1.150957 2.201611 0.082099 -0.022854 156731.000000 0 0 1
-14.096235 -30.483723 -25.777714 42.337357 1.137663 2.225425 0.056985 -0.013533 -21698.300000 0 0 1
-13.528035 -29.245723 -26.476104 41.704966 1.137543 2.258602 0.065401 -0.015486 -170810.000000 0 0 1
-13.958435 -27.992823 -26.010084 40.681206 1.108235 2.264467 0.069833 -0.004370 128410.000000 0 0 1
-13.285935 -26.916323 -26.697994 40.171973 1.112281 2.297745 0.065291 -0.008136 -4912.210000 0 0 1
-13.693435 -25.499923 -26.191804 39.035456 1.077989 2.306319 0.030626 0.001728 21409.300000 0 0 1
-13.173935 -25.167423 -24.873874 37.757931 1.088564 2.289982 0.036921 -0.019531 167532.000000 0 0 1
-13.716835 -23.963523 -24.416874 36.858998 1.050915 2.294868 0.036991 -0.014339 -504169.000000 0 0 1
-13.266035 -23.424023 -23.066874 35.450716 1.055492 2.279269 0.037455 -0.019665 -591850.000000 0 0 1
-11.980135 -22.862223 -23.093074 34.633726 1.088122 2.300676 0.047650 -0.030528 -591728.000000 0 0 1
-11.546735 -22.375723 -21.874674 33.354182 1.094400 2.286078 0.026539 -0.023946 1544630.000000 0 0 1
-9.961535 -22.218223 -21.869274 32.728379 1.149316 2.302590 0.027451 -0.028862 1433700.000000 0 0 1
-9.508335 -21.126223 -22.646574 32.397424 1.147882 2.344828 0.032942 -0.025583 -1406690.000000 0 0 1
-8.139435 -21.175323 -22.735574 32.117768 1.203825 2.357291 0.053484 -0.025327 -1253190.000000 0 0 1
-7.623235 -19.985323 -23.649674 31.887834 1.206390 2.406326 0.056871 -0.015023 -176323.000000 0 0 1
-7.404135 -18.906823 -22.805274 30.534730 1.197542 2.414129 0.039720 -0.013582 -222057.000000 0 0 1
-7.486635 -17.590423 -23.406074 30.221135 1.168410 2.456710 0.021768 -0.020562 -4550.540000 0 0 1
-6.354535 -17.051223 -24.303074 30.360562 1.214067 2.498895 0.047455 -0.028598 -205622.000000 0 0 1
-6.332235 -17.638423 -25.616634 31.739929 1.226124 2.509985 0.074882 -0.034705 -36701.200000 0 0 1
-5.375935 -16.993823 -26.435504 31.883014 1.264411 2.548365 0.057280 -0.031669 -214551.000000 0 0 1
-5.331635 -17.345823 -27.928764 33.306453 1.272589 2.565393 0.065074 -0.022648 659305.000000 0 0 1
-6.588435 -17.267523 -28.626904 34.074543 1.206295 2.568312 0.081947 -0.019793 710745.000000 0 0 1
-6.454635 -18.067023 -29.758614 35.406987 1.227668 2.568952 0.079097 -0.027391 212280.000000 0 0 1
-7.492835 -17.765523 -30.887384 36.411357 1.171671 2.583544 0.089630 -0.030586 199184.000000 0 0 1
-7.274335 -16.683123 -31.758544 36.603930 1.159621 2.621205 0.077452 -0.031057 -198285.000000 0 0 1
-7.328935 -15.381423 -31.221794 35.568271 1.126141 2.642044 0.058809 -0.026638 12860.900000 0 0 1
-7.807435 -14.265123 -32.212934 36.084940 1.070021 2.674092 0.041867 -0.028450 -762144.000000 0 0 1
-6.958135 -14.001823 -33.258104 36.750077 1.109596 2.702130 0.058024 -0.033238 -357745.000000 0 0 1
-7.611335 -13.212323 34.142166 37.392318 1.048152 0.420023 0.058193 -0.030614 -187689.000000 0 0 1
-7.822935 -11.728023 -33.952734 36.763202 0.982543 2.748039 0.030494 -0.027056 1039010.000000 0 0 1
-6.592835 -10.949523 -33.942754 36.269382 1.028826 2.781464 0.024847 -0.027250 788492.000000 0 0 1
-6.240835 -10.427123 33.242273 35.393808 1.031466 0.350470 0.020054 -0.028320 -552342.000000 0 0 1
-5.114535 -9.421923 33.370054 35.049845 1.073472 0.310849 0.040486 -0.023391 -335384.000000 0 0 1
-4.884635 -8.725723 32.193191 33.710525 1.060462 0.301173 0.036032 -0.021951 -128593.000000 0 0 1
-3.725635 -7.925823 32.256501 33.424256 1.131384 0.265114 0.032746 -0.027437 -614330.000000 0 0 1
-3.713935 -6.911123 31.050281 32.026191 1.077690 0.247501 0.029436 -0.019789 616399.000000 0 0 1
-4.787835 -5.959223 31.100451 32.026142 0.893966 0.241017 0.038504 -0.018109 795608.000000 0 0 1
-6.028735 -6.398823 30.557021 31.796574 0.815169 0.280142 0.029434 -0.015882 353252.000000 0 0 1
-7.133535 -5.326823 30.413841 31.690127 0.641405 0.284771 0.028119 -0.012555 1294470.000000 0 0 1
-8.334735 -5.818823 29.762511 31.450495 0.609477 0.329115 0.047312 -0.010328 252384.000000 0 0 1
-9.405735 -4.918123 29.764631 31.600460 0.481788 0.342539 0.043845 -0.012067 126175.000000 0 0 1
-10.624335 -5.628023 29.117911 31.502443 0.487147 0.391582 0.052465 -0.012890 -40143.400000 0 0 1
-10.377435 -5.748223 27.746681 30.176341 0.505844 0.404029 0.051097 -0.004702 988223.000000 0 0 1
-11.519235 -6.310323 27.069391 30.087621 0.501158 0.451748 0.061182 -0.009624 694608.000000 0 0 1
-11.329135 -6.114523 25.545971 28.606527 0.494914 0.466802 0.053010 -0.009353 479520.000000 0 0 1
-10.160235 -6.771223 25.042781 27.860739 0.587848 0.453645 0.049718 -0.004169 314856.000000 0 0 1
-9.700935 -6.309823 23.801451 26.465659 0.576681 0.452554 0.043548 -0.005732 -25412.500000 0 0 1
-10.568635 -6.566123 22.540261 25.746328 0.555923 0.504379 0.044731 -0.009452 415000.000000 0 0 1
-11.594035 -5.603623 22.314961 25.763924 0.450214 0.523385 0.048143 -0.013596 468150.000000 0 0 1
-12.535935 -5.897323 21.278361 25.390880 0.439716 0.577131 0.050580 -0.016755 -133786.000000 0 0 1
-13.649235 -4.906723 21.126761 25.626502 0.345101 0.601636 0.040536 -0.012194 -530921.000000 0 0 1
-13.177735 -3.655323 20.771361 24.868928 0.270583 0.582239 0.031969 -0.009336 875408.000000 0 1 0
-14.336135 -2.821523 20.555761 25.219538 0.194328 0.617941 0.029582 -0.011849 986136.000000 0 0 1
-13.855435 -1.452523 20.044661 24.410477 0.104453 0.607373 0.018615 -0.008602 287173.000000 0 1 0
-13.170435 -0.641523 21.038761 24.829446 0.048671 0.559857 0.019983 -0.005683 168645.000000 0 1 0
-13.167235 0.749477 20.821461 24.646928 -0.056858 0.564625 0.010647 -0.012174 -466333.000000 0 1 0
-12.716835 1.324477 19.439761 23.267498 -0.103777 0.581772 0.030267 -0.017473 -323773.000000 0 1 0
-13.374235 0.938477 18.265961 22.658249 -0.070056 0.633179 0.033242 -0.014837 1484250.000000 0 1 0
-14.758135 1.447477 18.229261 23.499015 -0.097767 0.682900 0.028977 -0.013465 1733150.000000 0 1 0
-15.711735 0.660477 17.299061 23.378460 -0.042012 0.737789 0.049053 -0.014530 -64131.600000 0 1 0
-15.877735 -0.702523 17.708361 23.794581 0.044217 0.731433 0.026196 -0.018477 33481.200000 0 1 0
-16.934435 -1.276523 16.985861 24.019244 0.075238 0.785299 0.032666 -0.006495 -186076.000000 0 1 0
-16.959635 -2.799523 17.277061 24.371365 0.163595 0.782847 0.034071 -0.005067 -217007.000000 0 1 0
-17.598135 -3.108523 18.469661 25.699916 0.174836 0.768914 0.030491 -0.002490 8413.260000 0 0 1
-17.261535 -4.427323 18.844861 25.936280 0.251073 0.757461 0.027916 -0.007171 115146.000000 0 0 1
-18.143435 -4.948923 20.051861 27.490966 0.266289 0.753355 0.017262 -0.002056 106290.000000 0 0 1
-17.957435 -4.197623 21.257061 28.141645 0.229631 0.714594 0.013800 -0.004990 -282144.000000 0 0 1
-18.916235 -4.409723 22.240361 29.528009 0.229028 0.717890 0.021301 -0.010376 -838599.000000 0 0 1
-18.961535 -5.828323 22.903661 30.299949 0.298210 0.713772 0.031860 -0.009155 332099.000000 0 0 1
-17.773435 -6.279823 23.569651 30.180452 0.339635 0.674599 0.038878 -0.011124 1063200.000000 0 0 1
-16.781935 -6.820623 22.665361 29.015046 0.386034 0.674276 0.024300 -0.011132 -341394.000000 0 0 1
-15.568835 -7.364823 23.382931 29.041190 0.441855 0.634844 0.025412 -0.011166 -536327.000000 0 0 1
-15.851635 -8.590223 24.058331 30.064424 0.496614 0.643124 0.032842 -0.015394 -498840.000000 0 0 1
-14.774235 -8.972823 24.821481 30.247240 0.545791 0.608302 0.058289 -0.009031 -406598.000000 0 0 1
-15.215735 -9.788023 26.081541 31.742256 0.571639 0.606468 0.059755 -0.013195 206939.000000 0 0 1
-15.348635 -11.178323 25.812151 32.043762 0.629464 0.634230 0.050357 -0.019391 -52232.600000 0 0 1
-14.893635 -11.794723 26.982061 32.999508 0.669801 0.613478 0.055236 -0.025955 -81448.400000 0 0 1
-14.885535 -13.304823 26.950751 33.540133 0.729384 0.637582 0.040238 -0.029713 -29140.700000 0 0 1
-16.143935 -13.881223 27.244321 34.576987 0.710180 0.663353 0.047028 -0.032263 44467.400000 0 0 1
-16.301535 -15.207723 26.776631 34.842544 0.750698 0.694297 0.049130 -0.028695 101955.000000 0 0 1
-15.349435 -16.299023 27.374671 35.364332 0.815393 0.685542 0.047692 -0.023212 267033.000000 0 0 1
-13.988435 -16.214323 27.016981 34.474598 0.858963 0.670231 0.054134 -0.032147 -60089.600000 0 0 1
-13.296635 -17.268123 27.645241 35.202954 0.914611 0.667599 0.058682 -0.021724 31627.500000 0 0 1
-11.774735 -17.325223 27.365351 34.462592 0.973873 0.653337 0.057295 -0.024667 215524.000000 0 0 1
-11.092935 -18.332223 28.098921 35.336568 1.026631 0.651492 0.071423 -0.026030 432729.000000 0 0 1
-9.803135 -18.577623 27.556171 34.649273 1.085247 0.651313 0.065786 -0.018811 -106769.000000 0 0 1
-8.795035 -19.341123 28.386741 35.457563 1.144014 0.642528 0.090254 -0.024320 -107134.000000 0 0 1
-9.094635 -20.702923 28.648351 36.497280 1.156882 0.668189 0.090388 -0.014318 172826.000000 0 0 1
-7.930535 -21.189123 29.274871 36.998519 1.212662 0.657955 0.084906 -0.015413 281585.000000 0 0 1
-8.232035 -22.497823 30.094721 38.465708 1.220024 0.672322 0.092174 -0.018795 210008.000000 0 0 1
-8.482535 -23.571523 29.225081 38.492538 1.225361 0.708652 0.093973 -0.018994 47437.900000 0 0 1
-8.938235 -24.663723 29.949631 39.814215 1.223114 0.719349 0.086809 -0.019419 -488464.000000 0 0 1
-9.117735 -26.007723 29.150281 40.115754 1.233607 0.757357 0.083058 -0.018120 -66389.600000 0 0 1
-10.143335 -26.004923 28.165251 39.653810 1.198893 0.780902 0.075856 -0.016122 207465.000000 0 0 1
-10.326535 -27.309223 27.685231 40.235594 1.209281 0.811959 0.075532 -0.014829 186388.000000 0 0 1
-11.656735 -27.470623 26.872771 40.157944 1.169489 0.837696 0.076249 -0.019350 311345.000000 0 0 1
-11.814835 -26.858423 25.634171 38.962495 1.156379 0.852744 0.081231 -0.019167 113308.000000 0 0 1
-11.927135 -25.469223 25.660131 38.070727 1.132832 0.831170 0.061669 -0.001337 -429546.000000 0 0 1
-12.073535 -24.851323 24.208351 36.734219 1.118548 0.851290 0.068480 -0.022294 -540304.000000 0 0 1
-13.263535 -25.319623 23.666111 37.109157 1.088256 0.879232 0.056668 -0.013428 -387993.000000 0 0 1
-13.456635 -24.576723 22.467761 35.915132 1.069847 0.894923 0.058765 -0.012822 266405.000000 0 0 1
-14.861335 -24.759223 21.828661 36.199018 1.030205 0.923517 0.054238 -0.011080 -278639.000000 0 0 1
-15.063235 -26.007623 21.253461 36.810422 1.045822 0.955285 0.071630 -0.012040 320794.000000 0 0 1
-16.251435 -26.156323 20.473161 36.978544 1.014848 0.984056 0.066068 -0.006968 313537.000000 0 0 1
-16.469635 -27.599023 20.002361 37.855640 1.032772 1.014099 0.077691 -0.019603 68585.500000 0 0 1
-15.652535 -28.058423 18.941561 37.296913 1.061942 1.038099 0.077854 -0.021232 81522.900000 0 0 1
-15.855335 -29.417823 18.680461 38.285240 1.076461 1.061081 0.098589 -0.017486 123067.000000 0 0 1
-14.793635 -29.807723 17.637361 37.662030 1.110111 1.083424 0.097778 -0.030840 -18440.900000 0 0 1
-15.082335 -29.384323 16.316861 36.839588 1.096583 1.111947 0.091456 -0.036663 -390893.000000 0 0 1
-14.028635 -29.634223 15.429561 36.236186 1.128660 1.130945 0.098267 -0.037602 -161580.000000 0 0 1
-14.229135 -28.960223 14.040361 35.189410 1.114106 1.160377 0.067227 -0.030919 -266715.000000 0 0 1
-14.051435 -27.565123 14.106761 34.004111 1.099376 1.143013 0.065766 -0.031182 -109214.000000 0 0 1
-14.309435 -26.863223 12.892161 33.054509 1.081350 1.170135 0.055286 -0.023438 571231.000000 0 0 1
-13.215435 -27.004923 11.762361 32.284157 1.115688 1.197874 0.049770 -0.019757 675374.000000 0 0 1
-13.698235 -26.535123 10.537061 31.666766 1.094249 1.231580 0.033899 -0.010670 -10506.100000 0 0 1
-12.781635 -26.938723 9.547061 31.308328 1.127780 1.260924 0.034968 -0.013244 103641.000000 0 0 1
-13.111035 -26.306123 8.185961 30.511004 1.108428 1.299173 0.032930 -0.004112 -252613.000000 0 0 1
-14.085035 -26.929023 7.367061 31.270339 1.088885 1.332968 0.051531 -0.007008 -179018.000000 0 0 1
-14.548135 -26.011723 6.429061 30.489192 1.060848 1.358338 0.043241 -0.008456 507102.000000 0 0 1
-15.635535 -26.623823 5.472161 31.356698 1.039785 1.395385 0.052956 -0.014666 581802.000000 0 0 1
-15.036535 -27.619123 4.658761 31.790210 1.072244 1.423720 0.050385 -0.013361 -163783.000000 0 0 1
-15.809135 -27.852623 3.539361 32.221491 1.054541 1.460729 0.073856 -0.013666 93064.700000 0 0 1
-15.185635 -29.058023 2.679161 32.896051 1.089235 1.489263 0.075351 -0.015271 88969.700000 0 0 1
-13.915735 -28.664523 2.217461 31.940879 1.118841 1.501317 0.053485 -0.010196 -586135.000000 0 0 1
-13.380835 -29.765923 1.531061 32.671105 1.148329 1.523916 0.061365 -0.012922 1493940.000000 0 0 1
-11.883835 -29.531123 0.992461 31.848042 1.188208 1.539629 0.058131 -0.014650 1546970.000000 0 0 1
-11.680235 -28.781823 -0.194939 31.062184 1.185283 1.577072 0.060232 -0.011500 -64285.500000 0 0 1
-12.149735 -27.432223 -0.153939 30.002777 1.153862 1.575927 0.048585 -0.011201 -115533.000000 0 0 1
-11.873835 -26.712423 -1.518139 29.271937 1.152521 1.622683 0.049984 -0.005482 -350480.000000 0 0 1
-10.515935 -26.527123 -1.767539 28.590162 1.193378 1.632659 0.042285 -0.010366 -916664.000000 0 0 1
-10.232135 -25.629023 -2.831239 27.740933 1.190945 1.673034 0.056848 -0.019649 995948.000000 0 0 1
-8.854835 -26.099523 -3.432639 27.773661 1.243711 1.694706 0.039144 -0.016427 586464.000000 0 0 1
-8.312535 -25.299223 -4.441139 26.997642 1.253340 1.736048 0.037841 -0.020505 -354242.000000 0 0 1
-7.221835 -26.020523 -4.992639 27.461773 1.300067 1.753616 0.034192 -0.010760 141751.000000 0 0 1
-6.416535 -25.191423 -5.996539 26.678422 1.321389 1.797504 0.032152 -0.012684 -84469.100000 0 0 1
-7.122635 -24.884723 -7.183039 26.862193 1.292024 1.841493 0.038618 -0.011700 125556.000000 0 0 1
-6.447335 -23.809623 -7.860339 25.889211 1.306351 1.879280 0.043954 -0.010904 -140773.000000 0 0 1
-6.686735 -23.597523 -9.409339 26.269587 1.294669 1.937118 0.039862 -0.013245 -124980.000000 0 0 1
-5.970235 -24.532423 -10.232039 27.242946 1.332076 1.955824 0.039587 -0.016039 213546.000000 0 0 1
-6.162035 -24.409823 -11.598739 27.718963 1.323522 2.002524 0.035074 -0.010128 29875.800000 0 0 1
-7.361935 -25.225923 -12.156539 28.953873 1.286842 2.004086 0.034905 -0.014608 298008.000000 0 0 1
-7.558935 -25.159623 -13.538939 29.554137 1.278937 2.046660 0.042946 -0.014168 937879.000000 0 0 1
-8.804235 -25.821023 -13.878539 30.608065 1.242187 2.041403 0.045720 -0.015737 434173.000000 0 0 1
-8.949435 -25.967123 -15.404639 31.491059 1.238900 2.081940 0.053218 -0.018938 603932.000000 0 0 1
-7.963835 -26.699823 -16.175339 32.217151 1.280925 2.096790 0.045922 -0.023881 1079660.000000 0 0 1
-6.624835 -26.221023 -16.235239 31.543834 1.323322 2.111440 0.055587 -0.019289 366232.000000 0 0 1
-5.611635 -27.231823 -16.805939 32.488494 1.367572 2.114476 0.049910 -0.018535 -99605.800000 0 0 1
-5.621135 -27.145823 -18.207739 33.166469 1.366610 2.151940 0.073367 -0.020974 510264.000000 0 0 1
-4.491935 -27.744823 -18.850339 33.842104 1.410287 2.161576 0.062759 -0.023921 412006.000000 0 0 1
-25.370585 14.698094 -5.642974 29.858729 -0.525087 1.760929 0.069697 -0.026232 -331583.000000 0 0 1
-25.419805 13.427894 -5.038674 29.186693 -0.485988 1.744302 0.063132 -0.022654 494324.000000 0 0 1
-24.159735 12.781194 -4.924374 27.772310 -0.486600 1.749051 0.084146 -0.027130 -247695.000000 0 0 1
-24.266835 11.328394 -4.412074 27.141816 -0.436758 1.734077 0.088849 -0.032627 17922.900000 0 0 1
-24.841535 10.337594 -5.273874 27.418634 -0.394344 1.764349 0.089524 -0.023770 -130364.000000 0 0 1
-26.197675 10.435094 -5.581674 28.746556 -0.379058 1.766206 0.074354 -0.021854 -801183.000000 0 0 1
-26.480325 9.803994 -6.953474 29.080521 -0.354588 1.812247 0.092516 -0.019136 -237351.000000 0 0 1
-26.133565 10.613294 -8.026474 29.326260 -0.385769 1.848030 0.120583 -0.016170 -16456.100000 0 0 1
-26.243875 9.892994 -9.211374 29.520531 -0.360491 1.888128 0.116628 -0.013532 -271642.000000 0 0 1
-26.793455 10.736594 -10.350474 30.664246 -0.381124 1.915101 0.101114 -0.015378 -650485.000000 0 0 1
-25.897045 11.645494 -10.878774 30.407601 -0.422591 1.936670 0.117037 -0.016125 -131721.000000 0 0 1
-26.456045 12.495094 -11.888574 31.581449 -0.441240 1.956749 0.107860 -0.023301 -146739.000000 0 0 1
-25.492775 13.551794 -12.454574 31.442791 -0.488602 1.978065 0.090595 -0.019052 -186333.000000 0 0 1
-25.406295 14.702094 -11.583174 31.556320 -0.524595 1.946647 0.093384 -0.019265 -201395.000000 0 0 1
-24.500735 15.571594 -12.171674 31.478726 -0.566154 1.967807 0.086962 -0.024001 -327385.000000 0 0 1
-24.351935 16.875594 -11.446274 31.761921 -0.606004 1.939469 0.092574 -0.027712 -143784.000000 0 0 1
-23.425635 16.816294 -10.387674 30.650480 -0.622611 1.916552 0.087667 -0.020560 -66288.500000 0 0 1
-23.266635 18.156194 -9.921774 31.135595 -0.662646 1.895115 0.041627 -0.007086 90737.900000 0 0 1
-22.039535 18.195294 -8.969374 29.954290 -0.690142 1.874897 0.036221 -0.006219 -219948.000000 0 0 1
-22.177035 17.620894 -7.698174 29.352660 -0.671413 1.836165 0.050928 -0.015037 -269271.000000 0 0 1
-22.793935 18.485594 -6.817674 30.129078 -0.681405 1.799056 0.040946 -0.011452 -419989.000000 0 0 1
-23.127735 17.814594 -5.475774 29.702458 -0.656348 1.756211 0.037471 -0.007812 307844.000000 0 0 1
-21.979535 17.551694 -4.669474 28.512557 -0.673854 1.735306 0.028262 -0.020375 392531.000000 0 0 1
-22.381935 17.218194 -3.344974 28.436000 -0.655733 1.688701 0.031023 -0.019412 -50643.100000 0 0 1
-21.202935 17.204194 -2.355674 27.406166 -0.681657 1.656857 0.022362 -0.026147 -309298.000000 0 0 1
-20.748835 18.483994 -1.986174 27.858878 -0.727734 1.642151 0.021703 -0.029899 254580.000000 0 0 1
-19.905435 18.340994 -0.846674 27.080164 -0.744517 1.602067 0.058055 -0.035722 220971.000000 0 0 1
-19.400035 19.660394 -0.217574 27.621365 -0.792064 1.578673 0.054905 -0.044321 112188.000000 0 0 1
-20.496135 20.343094 0.363526 28.880187 -0.781651 1.558209 0.051781 -0.031177 471773.000000 0 0 1
-20.146235 21.682294 0.595026 29.603154 -0.822104 1.550695 0.062515 -0.030519 405775.000000 0 0 1
-21.128235 22.329494 1.631326 30.784247 -0.813033 1.517779 0.042380 -0.029963 392672.000000 0 0 1
-20.904235 21.770094 2.921526 30.322588 -0.805685 1.474298 0.060175 -0.031492 -123537.000000 0 0 1
-22.116335 21.804594 3.591726 31.264566 -0.778300 1.455660 0.036244 -0.025696 -434450.000000 0 0 1
-21.847135 21.478094 5.071326 31.053570 -0.776880 1.406753 0.050790 -0.022482 -159779.000000 0 0 1
-20.962935 22.404894 5.652326 31.198922 -0.818635 1.388620 0.052462 -0.020895 -165234.000000 0 0 1
-20.538835 21.994894 6.946726 30.884885 -0.819618 1.343932 0.057223 -0.019688 275810.000000 0 0 1
-21.512635 21.898794 8.199526 31.773934 -0.794293 1.309784 0.038568 -0.026441 -204762.000000 0 0 1
-22.494635 20.874394 8.202526 31.765238 -0.748056 1.309614 0.056081 -0.025196 497980.000000 0 0 1
-22.802935 20.378694 9.461526 32.012271 -0.729316 1.270755 0.075514 -0.023951 12531.800000 0 0 1
-23.482035 21.329294 10.523126 33.422761 -0.737395 1.250499 0.086622 -0.026255 11000.300000 0 0 1
-24.802135 21.741094 10.177226 34.516619 -0.719725 1.271498 0.095059 -0.028186 876521.000000 0 0 1
-25.415615 22.395494 11.291826 35.707380 -0.722314 1.249041 0.101529 -0.022649 -105814.000000 0 0 1
-26.384835 23.517394 10.909726 36.989856 -0.728000 1.271405 0.086618 -0.029265 -264729.000000 0 0 1
-27.072425 24.010394 12.036426 38.135165 -0.725527 1.249681 0.085236 -0.023579 86654.700000 0 0 1
-27.454615 25.330294 11.868026 39.194767 -0.745175 1.263171 0.080714 -0.025158 -164358.000000 0 0 1
-27.688245 26.087094 13.196926 40.265795 -0.755632 1.236880 0.090554 -0.026117 -387549.000000 0 0 1
-26.587505 26.114994 14.042626 39.825666 -0.776433 1.210446 0.068020 -0.020879 -363628.000000 0 0 1
-26.970345 26.747694 15.246526 40.930370 -0.781253 1.189096 0.067335 -0.018411 -373075.000000 0 0 1
-25.859105 26.831694 16.259326 40.657088 -0.803854 1.159374 0.064656 -0.020872 -519251.000000 0 0 1
-25.498495 25.596394 16.847226 39.864491 -0.787314 1.134471 0.075959 -0.013259 94812.400000 0 0 1
-24.433535 25.753894 17.761526 39.695497 -0.811701 1.106891 0.069714 -0.011882 -249903.000000 0 0 1
-24.039335 24.379694 18.356626 38.848743 -0.792427 1.078654 0.081797 -0.001028 -448060.000000 0 0 1
-22.915235 24.370694 19.187926 38.564430 -0.816168 1.050018 0.073232 -0.007969 77624.800000 0 0 1
-22.557135 23.074094 19.600426 37.754667 -0.796727 1.024937 0.077880 -0.006575 500089.000000 0 0 1
-21.074235 22.927094 20.115426 37.072974 -0.827482 0.997279 0.067941 -0.011860 -163812.000000 0 0 1
-20.219435 22.901394 19.048926 36.002236 -0.847514 1.013252 0.060597 -0.014165 -262583.000000 0 0 1
-18.862535 22.679494 19.407726 35.310261 -0.877023 0.988870 0.043598 -0.016648 264835.000000 0 0 1
-18.376635 21.193494 19.302926 34.050960 -0.856465 0.968079 0.039018 -0.005402 -465860.000000 0 0 1
-18.788335 20.368394 20.391926 34.404995 -0.825728 0.936386 0.056424 0.001589 15069.200000 0 0 1
-18.079435 20.617594 21.560926 34.883014 -0.850895 0.904483 0.064514 -0.000613 -13935.100000 0 0 1
-18.971335 20.268894 22.814426 35.933795 -0.818453 0.882915 0.051460 0.006343 1148950.000000 0 0 1
-20.077935 21.193394 23.005826 37.169227 -0.812419 0.903393 0.041854 0.008609 902080.000000 0 0 1
-20.569935 21.139594 24.336326 38.239527 -0.799055 0.880951 0.048240 0.009044 524455.000000 0 0 1
-21.701835 22.178594 24.695926 39.657893 -0.796263 0.898577 0.043690 0.003221 172421.000000 0 0 1
-21.322935 23.583394 24.836726 40.344851 -0.835693 0.907636 0.047036 0.001872 646354.000000 0 0 1
-22.416635 24.510094 25.022226 41.585599 -0.829980 0.925163 0.048110 0.001783 539877.000000 0 0 1
-23.368135 24.736394 23.821826 41.538396 -0.813834 0.960037 0.044628 -0.006068 560603.000000 0 0 1
-24.355735 23.702494 23.621526 41.388242 -0.771806 0.963401 0.054422 -0.007838 686473.000000 0 0 1
-25.183885 23.987794 22.501626 41.424214 -0.761078 0.996553 0.049026 -0.005123 221821.000000 0 0 1
-26.184995 22.944594 21.983326 41.174932 -0.719537 1.007589 0.059676 -0.002787 103728.000000 0 0 1
-27.399075 22.862594 22.698026 42.291937 -0.695385 1.004277 0.071228 -0.018430 -190785.000000 0 0 1
-28.275925 21.941594 22.106626 42.067379 -0.659923 1.017488 0.070298 -0.020329 -90312.100000 0 0 1
-29.752685 22.258394 22.407726 43.390835 -0.642293 1.028136 0.077945 -0.019788 -451309.000000 0 0 1
-30.263715 23.364994 21.635726 43.930855 -0.657462 1.055842 0.076859 -0.023629 1049060.000000 0 0 1
-31.668025 23.634594 21.792026 45.125938 -0.641144 1.066815 0.086698 -0.027717 1374580.000000 0 0 1
-32.665135 22.717994 20.989926 44.985501 -0.607687 1.085361 0.082514 -0.035749 -743289.000000 0 0 1
-32.747375 21.405394 21.564826 44.672399 -0.578938 1.067024 0.074857 -0.028892 426830.000000 0 0 1
-33.417055 20.402694 20.761126 44.316970 -0.548139 1.083239 0.071862 -0.018475 909787.000000 0 0 1
-34.956850 20.663294 20.583126 45.526016 -0.533856 1.101658 0.087611 -0.025920 213643.000000 0 0 1
-35.487585 19.976094 19.479326 45.142632 -0.512696 1.124635 0.082321 -0.022502 -1130280.000000 0 0 1
35.869270 20.109894 19.367726 45.454605 0.510979 1.130631 0.109311 -0.033842 -988711.000000 0 0 1
35.317940 19.279694 18.200026 44.162251 0.499682 1.146020 0.108021 -0.024372 -159209.000000 0 0 1
35.535480 17.881494 18.267126 43.774490 0.466205 1.140323 0.112019 -0.038378 494238.000000 0 0 1
34.910680 17.183394 17.174626 42.532251 0.457396 1.155127 0.119210 -0.043303 90158.000000 0 0 1
35.292320 15.687294 17.101726 42.238703 0.418267 1.153946 0.121228 -0.048122 -169086.000000 0 0 1
34.387470 14.823494 16.450526 40.900536 0.407003 1.156869 0.130188 -0.061583 198681.000000 0 0 1
34.983000 13.553094 16.236426 40.879312 0.369614 1.162355 0.119018 -0.058749 -99264.900000 0 0 1
34.026310 12.531994 15.569126 39.461859 0.352886 1.165233 0.105779 -0.057010 -193109.000000 0 0 1
33.806720 12.994894 14.234026 38.914895 0.366976 1.196333 0.104259 -0.044966 94911.300000 0 0 1
33.012690 12.128294 13.493426 37.669692 0.352076 1.204453 0.110476 -0.033856 -390393.000000 0 0 1
32.869990 12.537494 12.022126 37.177365 0.364393 1.241505 0.110472 -0.031787 99117.500000 0 0 1
34.156520 12.410194 11.432826 38.097116 0.348503 1.266002 0.099995 -0.026694 612048.000000 0 0 1
34.204760 12.725794 10.067526 37.858506 0.356180 1.301633 0.101618 -0.014369 -1934050.000000 0 0 1
35.570700 12.922494 9.553926 39.032589 0.348465 1.323516 0.075912 -0.006550 -1703690.000000 0 0 1
36.267410 11.697494 9.398626 39.249083 0.312000 1.328986 0.103441 -0.020169 618735.000000 0 0 1
-35.066260 11.846494 9.101126 38.115777 -0.325794 1.329691 0.119030 -0.013632 567063.000000 0 0 1
-34.690072 11.630794 7.595626 37.368035 -0.323499 1.366105 0.128739 -0.025572 -220363.000000 0 0 1
-35.175165 12.687094 6.772126 38.001530 -0.346160 1.391633 0.113377 -0.025591 120789.000000 0 0 1
-34.981257 12.335594 5.454226 37.491383 -0.339020 1.424799 0.115654 -0.038154 -460489.000000 0 0 1
-35.888239 13.092194 4.527626 38.469087 -0.349802 1.452828 0.117141 -0.036057 887522.000000 0 0 1
35.430790 12.750194 4.705926 37.948044 0.345433 1.446467 0.114233 -0.039159 1097840.000000 0 0 1
34.530230 13.830394 4.647926 37.486261 0.380963 1.446486 0.115590 -0.036793 94461.400000 0 0 1
34.360250 14.672394 5.934126 37.830143 0.403577 1.413283 0.090636 -0.013627 -723971.000000 0 0 1
33.574250 15.855194 5.763926 37.574463 0.441196 1.416788 0.064627 -0.017250 534815.000000 0 0 1
32.886810 16.374294 6.902226 37.380482 0.461965 1.385083 0.043450 -0.010638 573998.000000 0 0 1
31.643570 15.580994 7.392226 36.037867 0.457542 1.364206 0.076193 -0.003954 -348027.000000 0 0 1
31.952190 14.457494 8.108026 35.995856 0.424908 1.343598 0.095435 -0.006210 378641.000000 0 0 1
30.845100 13.549794 8.224426 34.679364 0.413908 1.331359 0.093720 -0.014210 -18790.400000 0 0 1
30.926850 12.239294 7.397526 34.073358 0.376837 1.351948 0.109977 -0.009788 -224816.000000 0 0 1
30.728740 12.388094 6.018126 33.673998 0.383213 1.391114 0.102626 -0.021165 227052.000000 0 0 1
30.750950 11.147994 5.378826 33.148611 0.347789 1.407812 0.117881 -0.029202 -249284.000000 0 0 1
30.217530 11.107294 3.962526 32.437211 0.352248 1.448331 0.101331 -0.036974 138826.000000 0 0 1
28.807130 11.207794 3.816526 31.145324 0.371043 1.447948 0.074149 -0.034951 504672.000000 0 0 1
28.550850 11.677994 2.461326 30.944865 0.388262 1.491173 0.094874 -0.040651 1193500.000000 0 0 1
27.016070 11.582994 2.055926 29.466262 0.405038 1.500967 0.104739 -0.020785 1196950.000000 0 0 1
26.597970 10.271894 1.751326 28.566255 0.368546 1.509450 0.083249 -0.021952 164932.000000 0 0 1
25.192870 10.127194 1.861926 27.215942 0.382218 1.502330 0.068003 -0.017383 -135015.000000 0 0 1
24.814670 8.633794 1.619126 26.323598 0.334830 1.509249 0.064098 -0.022666 -322561.000000 0 0 1
25.184970 7.624194 2.499026 26.432105 0.293958 1.476110 0.073846 -0.020496 -142698.000000 0 0 1
26.562070 7.371294 2.506526 27.679635 0.270700 1.480117 0.103494 -0.025345 -648934.000000 0 0 1
27.044370 6.697094 3.793726 28.118345 0.242750 1.435464 0.100698 -0.030043 -589327.000000 0 0 1
28.434190 6.511494 3.834526 29.421188 0.225121 1.440092 0.123076 -0.028016 3916.250000 0 0 1
28.751690 5.909894 5.080726 29.789264 0.202726 1.399403 0.112085 -0.019827 303620.000000 0 0 1
30.275100 5.894194 5.410226 31.314433 0.192283 1.397154 0.106287 -0.021000 338195.000000 0 0 1
30.733920 7.241794 5.655426 32.078049 0.231408 1.393568 0.120175 -0.025430 -715729.000000 0 0 1
32.103900 7.107894 5.859626 33.399367 0.217888 1.394442 0.094340 -0.011060 -775945.000000 0 0 1
32.669980 8.155894 6.809126 34.354190 0.244644 1.371271 0.084854 -0.010147 -479252.000000 0 0 1
32.135530 8.159594 8.098426 34.129983 0.248657 1.331229 0.084515 -0.018592 -221353.000000 0 0 1
32.888630 8.787694 9.110326 35.240368 0.261096 1.309307 0.095206 -0.019755 -596906.000000 0 0 1
32.472990 8.560294 10.569626 35.206401 0.257749 1.265874 0.079399 -0.017156 1064380.000000 0 0 1
31.131980 9.090194 10.814726 34.187572 0.284091 1.248933 0.085515 -0.020796 1526190.000000 0 0 1
30.619310 8.924794 12.098526 34.111118 0.283618 1.208225 0.077253 -0.022402 -175531.000000 0 0 1
29.216570 9.549594 12.271426 33.096685 0.315909 1.190953 0.069345 -0.025072 -325770.000000 0 0 1
29.091270 10.982194 12.429026 33.487180 0.360968 1.190541 0.087753 -0.038982 184943.000000 0 0 1
29.133990 11.713694 11.206726 33.340526 0.382283 1.227992 0.087435 -0.035133 -322394.000000 0 0 1
27.882310 11.773794 10.293726 31.968832 0.399554 1.242963 0.067867 -0.027816 -213166.000000 0 0 1
28.032890 12.687994 9.268726 32.136231 0.425023 1.278220 0.047887 -0.005836 391915.000000 0 0 1
26.877470 12.769294 8.436626 30.929434 0.443524 1.294525 0.052447 -0.013390 299022.000000 0 0 1
26.983670 14.064794 7.578426 31.358721 0.480490 1.326711 0.053013 -0.011078 -31142.600000 0 0 1
26.965170 15.267194 8.347926 32.091984 0.515182 1.307645 0.051125 -0.000960 308734.000000 0 0 1
27.467170 16.395494 7.658526 32.892410 0.538146 1.335804 0.060069 0.005103 -846908.000000 0 0 1
27.136270 17.677994 8.427726 33.465133 0.577396 1.316219 0.059014 -0.011710 208048.000000 0 0 1
25.817570 18.179994 8.412126 32.677560 0.613520 1.310437 0.070012 -0.013184 612235.000000 0 0 1
24.774670 17.364094 8.984526 31.559748 0.611317 1.282121 0.098262 -0.013466 648338.000000 0 0 1
23.449370 18.222094 9.099226 31.059838 0.660610 1.273477 0.102251 -0.019775 407818.000000 0 0 1
22.917370 18.401694 7.821426 30.413860 0.676542 1.310707 0.114661 -0.027957 78138.500000 0 0 1
21.730070 19.174994 7.919826 30.043301 0.723016 1.304030 0.169828 -0.038249 564750.000000 0 0 1
21.061070 19.641694 6.580726 29.541001 0.750541 1.346146 0.141577 -0.028789 597442.000000 0 0 1
21.804870 20.784894 6.121626 30.739851 0.761454 1.370313 0.088821 -0.011559 421401.000000 0 0 1
21.186070 21.309694 4.963426 30.456332 0.788307 1.407098 0.104994 -0.014782 105354.000000 0 0 1
18.613265 16.868594 33.417958 41.806255 0.736267 0.644579 0.077169 -0.020266 -178479.000000 0 0 1
17.878165 17.690994 32.551340 41.136234 0.780136 0.657855 0.069510 -0.019262 99969.800000 0 0 1
17.119265 16.854494 31.700401 39.775101 0.777605 0.648499 0.076560 -0.025291 96500.600000 0 0 1
16.465565 17.630294 30.521561 38.903827 0.819545 0.668844 0.073009 -0.025098 -644022.000000 0 0 1
17.384865 17.961594 29.575851 38.724454 0.801713 0.701692 0.064570 -0.013732 -685886.000000 0 0 1
16.804265 18.135494 28.304141 37.581962 0.823480 0.717988 0.071758 -0.023272 -151517.000000 0 0 1
17.887565 18.385794 27.245601 37.420919 0.799133 0.755272 0.045231 -0.016918 -247876.000000 0 0 1
18.351865 19.734494 27.337391 38.387161 0.821685 0.778241 0.045013 -0.020202 512259.000000 0 0 1
19.263365 19.957894 26.231251 38.176868 0.803104 0.813309 0.041145 -0.010369 -124277.000000 0 0 1
19.919265 21.302694 26.418051 39.350925 0.818946 0.834774 0.063031 -0.012567 -271807.000000 0 0 1
19.090465 22.434594 26.288921 39.482455 0.865758 0.842180 0.045356 -0.019731 347520.000000 0 0 1
19.850365 23.499694 26.833811 40.820657 0.869383 0.853488 0.067217 -0.024726 -157986.000000 0 0 1
19.170965 24.795594 26.684741 41.163367 0.912637 0.865494 0.076249 -0.030078 -313409.000000 0 0 1
19.092865 25.298294 25.421571 40.630006 0.924288 0.894787 0.074051 -0.028542 241212.000000 0 0 1
17.951665 26.128294 25.396681 40.619471 0.968809 0.895365 0.059530 -0.033809 -132523.000000 0 0 1
17.916865 26.856294 24.032361 40.247098 0.982467 0.930890 0.041183 -0.028535 -464979.000000 0 0 1
18.791565 27.933594 23.955111 41.318953 0.978613 0.952361 0.078755 -0.034513 -458770.000000 0 0 1
18.627665 28.661194 22.731361 41.050806 0.994473 0.983951 0.085789 -0.029771 -1170910.000000 0 0 1
19.705365 29.638394 22.432861 42.071000 0.984046 1.008401 0.094002 -0.031392 -1564370.000000 0 0 1
20.880065 28.964694 22.092461 41.988182 0.946194 1.016719 0.099754 -0.041424 -1031310.000000 0 0 1
21.934665 29.851194 21.940861 43.053742 0.937094 1.036058 0.116886 -0.047811 -670892.000000 0 0 1
22.343865 30.173694 20.490761 42.773489 0.933398 1.071221 0.135535 -0.047908 -523640.000000 0 0 1
21.726165 31.187494 19.755161 42.836344 0.962335 1.091474 0.096959 -0.036185 -208475.000000 0 0 1
22.243765 31.175794 18.467761 42.517918 0.951071 1.121477 0.098468 -0.018424 -211680.000000 0 0 1
21.958165 32.472594 17.609761 42.973643 0.976219 1.148583 0.094180 -0.025830 -66718.300000 0 0 1
22.872265 33.561194 17.831161 44.355885 0.972588 1.157094 0.105641 -0.028229 383502.000000 0 0 1
23.045965 -34.007823 16.702661 44.346673 -0.975217 1.184632 0.103063 -0.025945 -128560.000000 0 0 1
24.049065 33.946394 15.638661 44.444155 0.954427 1.211226 0.087847 -0.027622 -366441.000000 0 0 1
23.532065 32.857294 14.854361 43.058238 0.949287 1.218576 0.096702 -0.040078 -112712.000000 0 0 1
22.772365 33.294594 13.786261 42.628295 0.970913 1.241469 0.071130 -0.035559 -313481.000000 0 0 1
22.138065 32.182194 12.942761 41.149758 0.968239 1.250837 0.061654 -0.028846 250217.000000 0 0 1
23.087865 31.482394 12.124961 40.880378 0.938031 1.269670 0.083464 -0.046201 263754.000000 0 0 1
22.470165 30.418494 11.443561 39.511367 0.934566 1.276959 0.078270 -0.049806 -789974.000000 0 0 1
23.476565 29.537794 10.667261 39.209958 0.899236 1.295268 0.077255 -0.049748 834489.000000 0 0 1
24.507965 28.794894 11.336361 39.475300 0.865651 1.279519 0.083672 -0.044511 1227320.000000 0 0 1
25.500865 29.650694 11.956761 40.895255 0.860501 1.274087 0.082913 -0.042286 -317924.000000 0 0 1
26.927165 29.090294 12.120061 41.451336 0.823994 1.274069 0.090627 -0.041387 170979.000000 0 0 1
27.021465 28.094694 13.165561 41.143692 0.804868 1.245078 0.093338 -0.027339 -295824.000000 0 0 1
28.358165 27.979494 13.569561 42.085277 0.778677 1.242501 0.080697 -0.016919 -226660.000000 0 0 1
28.700665 26.877694 14.581161 41.937439 0.752610 1.215692 0.070963 -0.026213 380158.000000 0 0 1
30.013465 26.913094 15.128461 43.058019 0.730989 1.211783 0.060775 -0.036171 324371.000000 0 0 1
30.251265 25.837594 15.963861 42.866830 0.706869 1.189196 0.067478 -0.033765 321302.000000 0 0 1
31.455765 26.060294 16.922861 44.215238 0.691864 1.178038 0.067625 -0.035152 -565603.000000 0 0 1
32.682965 26.065994 16.302661 44.870803 0.673240 1.198963 0.076461 -0.033740 -644258.000000 0 0 1
33.718365 26.375494 17.263261 46.158585 0.663811 1.187479 0.066522 -0.032031 1083300.000000 0 0 1
35.104565 26.539094 16.561761 47.020696 0.647331 1.210851 0.072458 -0.045444 330114.000000 0 0 1
35.216065 27.666394 15.747661 47.471985 0.665910 1.232664 0.072149 -0.034580 -1001990.000000 0 0 1
-36.196540 27.947994 15.402861 48.254824 -0.657507 1.245913 0.088572 -0.038464 -638539.000000 0 0 1
-36.140140 29.185994 14.431461 48.643592 -0.679345 1.269585 0.069321 -0.034205 73470.000000 0 0 1
36.025665 30.392994 14.925861 49.440509 0.700795 1.264116 0.069846 -0.036853 16641.200000 0 0 1
36.216765 31.486694 14.077161 50.012322 0.715647 1.285467 0.054554 -0.027457 -404381.000000 0 0 1
35.177265 32.586494 14.291661 50.035698 0.747184 1.281133 0.048585 -0.032923 -1119110.000000 0 0 1
35.155965 33.664994 13.389061 50.483072 0.763737 1.302365 0.022653 -0.035360 75361.400000 0 0 1
34.361665 -33.674123 13.882861 50.073989 -0.775293 1.289869 0.020968 -0.027160 505782.000000 0 0 1
32.851565 -33.888823 13.550061 49.104804 -0.800939 1.291227 0.054116 -0.027177 -275967.000000 0 0 1
32.236165 33.492294 14.256461 48.622533 0.804507 1.273217 0.048355 -0.034720 369227.000000 0 0 1
31.036065 33.067894 13.572361 47.338482 0.817083 1.280007 0.064023 -0.031705 213076.000000 0 0 1
30.438965 31.768694 14.168761 46.222660 0.806771 1.259248 0.089285 -0.048739 109435.000000 0 0 1
29.635465 31.855094 15.383161 46.148125 0.821480 1.230949 0.094880 -0.040392 677085.000000 0 0 1
29.214565 30.658694 15.945461 45.251564 0.809513 1.210690 0.090488 -0.046612 -269891.000000 0 0 1
28.287265 30.868894 17.148861 45.245346 0.829011 1.182060 0.097255 -0.044497 -186794.000000 0 0 1
28.183465 29.774594 18.059261 44.799230 0.812844 1.155878 0.098405 -0.042824 -39349.600000 0 0 1
28.936765 30.002494 19.249061 45.913095 0.803478 1.138177 0.094155 -0.038589 98927.100000 0 0 1
28.917665 28.905094 20.282561 45.641188 0.785181 1.110301 0.099636 -0.038216 1249960.000000 0 0 1
27.682065 28.951094 21.067861 45.258340 0.807802 1.086594 0.116747 -0.044458 1318760.000000 0 0 1
27.841465 28.136894 22.227061 45.396852 0.790676 1.059146 0.107835 -0.039786 120799.000000 0 0 1
26.624065 28.186994 23.191361 45.179494 0.813905 1.031752 0.107779 -0.037875 24308.600000 0 0 1
25.491765 27.552894 22.648361 43.839939 0.824235 1.027904 0.138808 -0.038447 -273327.000000 0 0 1
24.361365 27.493594 23.476711 43.595066 0.845729 1.002119 0.140242 -0.043179 -36229.700000 0 0 1
24.197865 26.334894 24.469061 43.333569 0.827663 0.970766 0.106981 -0.045038 7001.440000 0 0 1
25.134065 26.333794 25.553551 44.476667 0.808704 0.958756 0.108426 -0.044762 303664.000000 0 0 1
24.733665 25.346394 26.459651 44.207544 0.797633 0.929128 0.116485 -0.037940 163282.000000 0 0 1
25.810765 25.100494 27.578381 45.351929 0.771448 0.917135 0.107553 -0.035907 689124.000000 0 0 1
26.305665 26.199494 28.379951 46.731393 0.783376 0.918139 0.116860 -0.039856 503929.000000 0 0 1
26.880565 27.301194 27.705121 47.281008 0.793161 0.944723 0.091344 -0.032015 -749673.000000 0 0 1
27.273365 28.590394 28.507571 48.722979 0.808970 0.945799 0.054757 -0.019661 -701796.000000 0 0 1
28.401965 28.360994 29.287401 49.686713 0.784676 0.940429 0.049606 -0.021439 -569393.000000 0 0 1
28.754465 29.520194 30.019551 50.984650 0.798537 0.941228 0.054344 -0.019763 -485557.000000 0 0 1
30.251365 29.664994 30.303951 52.091135 0.775612 0.949919 0.038766 -0.015951 -386644.000000 0 0 1
30.849365 29.783394 29.006291 51.769670 0.767819 0.976054 0.022607 -0.016385 -676368.000000 0 0 1
32.233165 29.957494 29.163821 52.791636 0.748823 0.985517 0.039849 -0.021231 -454425.000000 0 0 1
32.894965 30.237894 27.844171 52.647002 0.743336 1.013511 0.028952 -0.013024 -709993.000000 0 0 1
32.721165 31.565994 27.417111 53.092227 0.767431 1.028148 0.035572 -0.013398 287993.000000 0 0 1
33.197765 31.870294 26.104401 52.907910 0.765000 1.054810 0.044659 -0.013631 -247101.000000 0 0 1
33.010765 33.362194 25.788421 53.551743 0.790693 1.068362 0.043643 -0.015249 -321853.000000 0 0 1
33.769665 -34.095623 26.470821 54.805165 -0.790201 1.066720 0.044291 -0.014503 321696.000000 0 0 1
33.060165 -32.874223 26.472301 53.614101 -0.782578 1.054392 0.053635 -0.012947 -131601.000000 0 0 1
33.810465 -31.786623 27.273951 53.827552 -0.754555 1.039454 0.050573 -0.012216 -56307.700000 0 0 1
33.841765 -31.902023 28.680921 54.640639 -0.755902 1.018198 0.055301 -0.021848 722739.000000 0 0 1
34.878265 -31.054623 29.161801 55.057185 -0.727470 1.012592 0.051982 -0.022031 -85253.800000 0 0 1
34.731765 -30.694523 30.643451 55.565010 -0.723770 0.986649 0.052884 -0.018051 -245622.000000 0 0 1
34.763465 -31.691923 31.611901 56.676175 -0.739211 0.979108 0.056847 -0.013658 597485.000000 0 0 1
33.539965 -32.418723 31.659121 56.375552 -0.768401 0.974508 0.053288 -0.018626 3219.400000 0 0 1
33.559465 -33.444923 32.769156 57.607449 -0.783689 0.965707 0.059784 -0.018785 -510525.000000 0 0 1
33.465165 -32.723123 33.972230 57.834527 -0.774188 0.942949 0.046668 -0.018324 232379.000000 0 0 1
33.650965 -33.496823 -33.227274 57.952363 -0.783103 2.181391 0.048387 -0.017439 -153117.000000 0 0 1
32.783965 33.659894 -32.992964 57.413521 0.798580 2.182979 0.039238 -0.015089 -660440.000000 0 0 1
33.071965 32.553194 -33.810524 57.416172 0.777493 2.200453 0.053816 -0.016535 -104475.000000 0 0 1
32.361565 31.396394 -33.446204 56.139584 0.770261 2.209019 0.060722 -0.017147 11756.100000 0 0 1
32.461365 30.338894 33.822292 55.840273 0.751614 0.920155 0.049735 -0.010595 970880.000000 0 0 1
33.800065 29.826294 33.662882 56.260482 0.723024 0.929369 0.050402 -0.018038 879600.000000 0 0 1
33.865565 28.984894 32.524126 55.179881 0.707898 0.940456 0.042991 -0.014110 1262740.000000 0 0 1
35.359165 28.499894 32.249941 55.700747 0.678396 0.953312 0.047131 -0.012859 1264590.000000 0 0 1
35.782565 27.447594 33.093720 55.937078 0.654334 0.937725 0.053867 -0.008482 -329869.000000 0 0 1
-35.788940 26.848894 32.593058 55.353580 -0.643630 0.941203 0.032453 -0.001458 -547919.000000 0 0 1
-35.323240 25.560494 33.310710 54.869605 -0.626401 0.918405 0.034734 -0.001348 -406172.000000 0 0 1
-36.148740 24.486994 33.063996 54.768350 -0.595394 0.922654 0.036831 -0.006586 -276051.000000 0 0 1
-36.165040 23.522394 34.033004 54.949600 -0.576669 0.902883 0.029843 -0.013498 -82648.500000 0 0 1
35.945265 22.259594 33.487077 53.934552 0.554464 0.900927 0.033857 -0.019669 -255089.000000 0 0 1
-35.955140 21.665494 32.500854 53.089276 -0.542307 0.911966 0.036062 -0.013448 -73363.100000 0 0 1
36.202265 20.551194 31.878391 52.432694 0.516313 0.917274 0.022957 -0.008769 -807495.000000 0 0 1
-35.580940 19.740594 31.047941 51.182702 -0.506527 0.919007 0.029205 -0.010364 -517211.000000 0 0 1
-35.282140 20.477794 29.847151 50.547225 -0.525884 0.939142 0.033983 -0.008701 278601.000000 0 0 1
-34.214640 19.806894 29.150851 49.119515 -0.524761 0.935436 0.072445 -0.018053 370058.000000 0 0 1
-34.557240 18.763094 28.037811 48.294673 -0.497420 0.951384 0.080426 -0.014537 -519507.000000 0 0 1
-35.253140 17.666594 28.524941 48.667902 -0.464555 0.944542 0.076718 -0.012652 -119874.000000 0 0 1
-35.658440 16.829794 27.523931 48.086725 -0.440975 0.961390 0.076118 -0.014263 46668.000000 0 0 1
-36.234040 15.490894 28.081171 48.388280 -0.404006 0.951662 0.060356 -0.015288 -286989.000000 0 0 1
-35.223940 14.678794 28.611541 47.695003 -0.394843 0.927438 0.069113 -0.019072 -150118.000000 0 0 1
-35.624140 13.400494 29.064501 47.889434 -0.359790 0.918631 0.076074 -0.026700 -638603.000000 0 0 1
-34.470440 12.479994 29.427991 47.010299 -0.347368 0.894396 0.069933 -0.019576 -584360.000000 0 0 1
-33.926940 12.825294 30.692161 47.513516 -0.361422 0.868507 0.077985 -0.016525 518232.000000 0 0 1
-32.915840 11.932094 31.172041 46.877751 -0.347770 0.843350 0.071107 -0.011251 1547550.000000 0 0 1
-31.425740 12.430194 30.961841 45.833639 -0.376657 0.829118 0.071148 -0.009350 464503.000000 0 0 1
-30.979240 12.525194 29.591171 44.634418 -0.384216 0.846021 0.057187 -0.011101 1256930.000000 0 0 1
-29.592840 12.886194 29.419641 43.672709 -0.410688 0.831675 0.057691 -0.020202 1938200.000000 0 0 1
-28.411240 11.921694 29.862891 42.908247 -0.397298 0.801025 0.057007 -0.017868 330930.000000 0 0 1
-28.237040 10.844194 28.979561 41.889640 -0.366674 0.806807 0.056301 -0.025793 483039.000000 0 0 1
-27.238540 9.914994 29.436691 41.313000 -0.349097 0.777701 0.054824 -0.018694 25910.400000 0 0 1
-27.075740 8.713694 28.499481 40.264682 -0.311359 0.784412 0.042750 -0.016288 186024.000000 0 0 1
-27.861740 7.543694 28.710361 40.712022 -0.264415 0.788083 0.048416 -0.013508 1955590.000000 0 0 1
-29.292940 7.701694 28.389931 41.513620 -0.257101 0.817742 0.055640 -0.021643 1563120.000000 0 0 1
-30.001840 6.324494 28.208531 41.663304 -0.207762 0.827037 0.060105 -0.018723 -66063.600000 0 0 1
-30.350840 5.771394 29.453601 42.684858 -0.187912 0.809273 0.063123 -0.010901 -191230.000000 0 0 1
-30.828440 4.493394 29.270831 42.747689 -0.144736 0.816557 0.068647 -0.017546 -558061.000000 0 0 1
-31.457140 3.999894 30.556911 44.037208 -0.126475 0.803921 0.052727 -0.012903 -451787.000000 0 0 1
-32.721640 4.591094 30.645021 45.065522 -0.139398 0.823020 0.052936 -0.019968 -417321.000000 0 0 1
-33.482940 4.192294 31.790001 46.360401 -0.124559 0.815211 0.054084 -0.025400 1074120.000000 0 0 1
-34.964840 4.706594 31.821781 47.511239 -0.133805 0.836892 0.046929 -0.019959 679321.000000 0 0 1
-35.140140 6.077394 31.912581 47.855794 -0.171253 0.840824 0.047847 -0.011589 27463.700000 0 0 1
36.197165 6.374794 31.823131 48.616709 0.174325 0.857180 0.053254 -0.000491 411909.000000 0 0 1
35.826465 7.840394 32.253781 48.839674 0.215447 0.849443 0.050647 -0.003920 -144508.000000 0 0 1
35.903665 8.126694 33.624230 49.856847 0.222596 0.830624 0.052065 -0.005498 54221.500000 0 0 1
35.889465 9.593794 33.794204 50.220940 0.261208 0.832660 0.064120 -0.012009 -69466.900000 0 0 1
36.087065 9.967494 -33.188914 50.031302 0.269488 2.296100 0.062899 -0.014625 -199787.000000 0 0 1
35.058465 9.555694 -32.305844 48.621752 0.266101 2.297530 0.096633 -0.010379 22281.200000 0 0 1
35.363065 9.812494 -30.956984 48.012147 0.270669 2.271524 0.103768 0.002920 564556.000000 0 0 1
34.191665 9.477194 -29.940944 46.425717 0.270390 2.271717 0.095757 0.002517 697382.000000 0 0 1
33.999465 8.083294 -29.773974 45.910704 0.233414 2.276434 0.077412 0.003920 1598500.000000 0 0 1
32.712865 7.885594 -29.094844 44.483975 0.236542 2.283725 0.077774 -0.002355 1098780.000000 0 0 1
34.866040 6.147794 -20.752174 41.037651 0.174532 2.100974 0.025962 -0.003639 -178176.000000 0 0 1
34.321610 6.828194 -19.586174 40.102560 0.196383 2.081054 0.018204 -0.016525 905388.000000 0 0 1
35.052390 8.048394 -19.288474 40.810438 0.225698 2.063076 0.019880 -0.007995 -487461.000000 0 0 1
-36.300805 7.957094 -18.622974 41.567764 -0.215786 2.035340 0.032831 -0.020310 539092.000000 0 0 1
-35.181972 7.517194 -19.441974 40.893395 -0.210501 2.066250 0.038629 -0.022551 898236.000000 0 0 1
-34.651198 8.556994 -20.306074 41.064149 -0.242103 2.088052 0.040805 -0.009790 -278462.000000 0 0 1
-33.428095 7.981294 -21.071674 40.313199 -0.234372 2.120810 0.036504 -0.002409 -75739.200000 0 0 1
-33.721625 6.859994 -21.888374 40.783679 -0.200692 2.137311 0.020572 0.004766 410336.000000 0 0 1
-34.542268 7.209794 -23.020974 42.132110 -0.205770 2.148856 0.018494 0.005982 346148.000000 0 0 1
-34.698417 5.984394 -23.936074 42.576153 -0.170789 2.167833 0.034912 0.007737 263632.000000 0 0 1
-33.456005 5.670794 -24.534374 41.873592 -0.167904 2.196805 0.036620 -0.000257 136203.000000 0 0 1
-33.460265 4.352594 -25.073974 42.038537 -0.129356 2.209870 0.044130 0.007646 -319473.000000 0 0 1
-32.254865 4.100494 -25.973764 41.615223 -0.126450 2.244828 0.046935 0.001319 196055.000000 0 0 1
-31.010845 4.056294 -25.277834 40.213119 -0.130064 2.250544 0.040779 -0.000626 816195.000000 0 0 1
-29.905655 3.787094 -26.157654 39.911316 -0.125964 2.285501 0.034989 0.000276 1376160.000000 0 0 1
-28.490725 4.129994 -25.563754 38.500439 -0.143956 2.296933 0.028086 -0.009448 603186.000000 0 0 1
-28.188005 5.475194 -25.496414 38.400632 -0.191849 2.296896 0.020720 -0.003095 1037720.000000 0 0 1
-26.863325 5.695994 -24.941274 37.096492 -0.208941 2.308155 0.042049 -0.007778 1146290.000000 0 0 1
-26.448035 7.140394 -25.196004 37.219920 -0.263692 2.314406 0.036466 -0.008978 -196034.000000 0 0 1
-27.177125 8.008694 -24.375774 37.375308 -0.286574 2.281265 0.037692 -0.012780 -138272.000000 0 0 1
-26.879065 9.361594 -24.635974 37.643788 -0.335147 2.284251 0.020872 -0.011453 228386.000000 0 0 1
-25.555385 9.905094 -24.016574 36.441521 -0.369765 2.290344 0.050103 -0.012142 123881.000000 0 0 1
-25.579625 10.368694 -22.666474 35.715488 -0.385110 2.258339 0.043679 -0.007282 -21225.200000 0 0 1
-24.279835 10.691094 -22.226974 34.609945 -0.414782 2.268179 0.078416 -0.016136 -180106.000000 0 0 1
-24.229735 11.134594 -20.770074 33.800225 -0.430761 2.232542 0.098594 -0.027391 -1034370.000000 0 0 1
-24.391535 12.539894 -20.458674 34.216272 -0.474871 2.211703 0.083183 -0.029698 1056690.000000 0 0 1
-25.714645 13.099494 -20.436474 35.362257 -0.471153 2.186971 0.064718 -0.020012 753632.000000 0 0 1
-26.853275 12.366294 -19.682874 35.516745 -0.431562 2.158181 0.068286 -0.008524 -681490.000000 0 0 1
-26.643965 12.458894 -18.301874 34.642222 -0.437399 2.127407 0.080678 -0.016173 30948.100000 0 0 1
-27.551125 11.635794 -17.629174 34.716624 -0.399611 2.103428 0.078678 -0.014148 -611239.000000 0 0 1
-27.058425 11.001994 -16.248274 33.424671 -0.386184 2.078436 0.103009 -0.020924 263268.000000 0 0 1
-26.119005 9.955894 -16.328374 32.371871 -0.364173 2.099483 0.116336 -0.016743 1153940.000000 0 0 1
-24.754235 10.236994 -16.670774 31.551274 -0.392128 2.127477 0.105798 -0.009866 441607.000000 0 0 1
-23.874935 8.965694 -16.579474 30.418336 -0.359233 2.147244 0.081515 -0.008233 1355710.000000 0 0 1
-22.439435 9.112094 -16.543474 29.329934 -0.385732 2.170076 0.078452 -0.005446 1762090.000000 0 0 1
-21.610335 8.144794 -15.899374 28.038088 -0.360430 2.173733 0.073760 0.000872 172499.000000 0 0 1
-20.132335 8.527794 -15.767974 26.956691 -0.400673 2.195599 0.079075 -0.006564 -221709.000000 0 0 1
-19.524835 8.741394 -17.035974 27.346948 -0.420945 2.243314 0.076357 -0.011371 -335435.000000 0 0 1
-18.143535 8.870894 -16.839374 26.295345 -0.454751 2.265807 0.070318 -0.017689 -670675.000000 0 0 1
-17.317035 9.223994 -18.085274 26.684057 -0.489429 2.315502 0.057466 -0.006371 -296678.000000 0 0 1
-17.120335 8.177494 -19.003574 26.853549 -0.445607 2.356998 0.072957 -0.014526 401603.000000 0 0 1
-16.152135 7.144494 -18.761674 25.766949 -0.416453 2.386385 0.066838 -0.016452 -241248.000000 0 0 1
-15.830235 6.416494 -20.105374 26.381694 -0.385094 2.437340 0.047778 -0.021400 93564.000000 0 0 1
-16.793135 5.640294 -20.832874 27.346498 -0.324031 2.436901 0.049722 -0.017978 1012090.000000 0 0 1
-17.824035 6.478294 -21.468574 28.645492 -0.348614 2.418038 0.050966 -0.016024 820479.000000 0 0 1
-18.931235 5.750794 -22.255974 29.779048 -0.294914 2.414891 0.063113 -0.019218 18106.700000 0 0 1
-19.872535 5.085594 -21.441174 29.673302 -0.250534 2.378316 0.077752 -0.024202 451090.000000 0 0 1
-20.345035 3.821094 -21.911374 30.143482 -0.185652 2.384597 0.071407 -0.010514 -195947.000000 0 0 1
-21.387235 3.162194 -20.978074 30.124623 -0.146791 2.341132 0.080572 -0.017619 -138538.000000 0 0 1
-21.964235 1.985194 -21.505074 30.803195 -0.090138 2.343599 0.081279 -0.007625 431929.000000 0 0 1
-22.800135 1.472694 -20.470074 30.676358 -0.064502 2.301363 0.081660 -0.013556 -412001.000000 0 0 1
-23.465535 0.098094 -20.674974 31.274519 -0.004180 2.293054 0.085572 -0.006061 118950.000000 0 0 1
-22.522835 -0.988106 -20.701674 30.607414 0.043843 2.313608 0.075994 -0.013047 509884.000000 0 0 1
-23.098935 -2.271706 -20.977774 31.285595 0.098032 2.305713 0.076126 -0.015972 -237376.000000 0 0 1
-23.708835 -2.399306 -22.438574 32.731562 0.100855 2.326132 0.074837 -0.021009 350443.000000 0 0 1
-22.809935 -2.401206 -23.560774 32.881135 0.104884 2.369631 0.056564 -0.017960 612787.000000 0 0 1
-21.839935 -3.475006 -23.510274 32.276794 0.157790 2.386774 0.054020 -0.027662 111210.000000 0 0 1
-20.826835 -3.444306 -24.644774 32.449733 0.163895 2.433303 0.049282 -0.022250 -485833.000000 0 0 1
-21.404635 -3.603606 -25.939754 33.823294 0.166792 2.444824 0.049223 -0.024001 -124066.000000 0 0 1
-20.492035 -3.724506 -27.005914 34.104470 0.179791 2.484643 0.049048 -0.031131 -388198.000000 0 0 1
-21.192135 -3.817906 -28.370854 35.617248 0.178245 2.492360 0.053726 -0.034406 379599.000000 0 0 1
-21.975635 -5.050706 -28.376874 36.244795 0.225909 2.470146 0.062772 -0.030137 626657.000000 0 0 1
-22.689435 -5.158806 -29.601564 37.652043 0.223565 2.475412 0.027936 -0.025446 -318599.000000 0 0 1
-22.224735 -6.403406 -30.368014 38.172749 0.280523 2.490697 0.042752 -0.016797 -348549.000000 0 0 1
-21.026135 -6.052406 -31.009584 37.951605 0.280275 2.527128 0.040200 -0.017479 -467437.000000 0 0 1
-20.395135 -7.212706 -31.435624 38.159968 0.339921 2.538853 0.048609 -0.011722 -599396.000000 0 0 1
-19.033335 -6.963306 -32.083194 37.948476 0.350723 2.578187 0.055572 -0.019137 -641633.000000 0 0 1
-19.148135 -6.565106 -33.449884 39.097908 0.330299 2.597392 0.054344 -0.026459 438113.000000 0 0 1
-19.411535 -7.654006 34.052254 39.936794 0.375585 0.549753 0.049706 -0.023329 -479914.000000 0 0 1
-19.303135 -7.251506 32.551356 38.532923 0.359353 0.564666 0.057187 -0.024568 369066.000000 0 0 1
-18.037935 -6.940806 31.952311 37.342899 0.367325 0.543998 0.069399 -0.030185 495739.000000 0 0 1
-17.628935 -5.625306 32.236171 37.169802 0.308882 0.521109 0.065475 -0.032631 76428.500000 0 0 1
-16.252435 -5.425606 31.537191 35.891131 0.322201 0.497684 0.063278 -0.030781 48666.800000 0 0 1
-16.369835 -5.413006 30.151211 34.732804 0.319351 0.519454 0.060699 -0.032405 -176576.000000 0 0 1
-15.246535 -5.015606 29.413531 33.507745 0.317816 0.499519 0.054244 -0.023929 -247653.000000 0 0 1
-15.535335 -4.934806 27.919091 32.329161 0.307570 0.528452 0.053638 -0.017130 -215368.000000 0 0 1
-16.307235 -3.863606 27.500531 32.204543 0.232636 0.547299 0.032745 -0.017888 -358995.000000 0 0 1
-16.738035 -3.968706 26.137181 31.290010 0.232808 0.582081 0.034408 -0.016311 -101069.000000 0 0 1
-15.748835 -3.515206 25.050221 29.797585 0.219605 0.572259 0.027247 -0.009883 19086.100000 0 0 1
-15.588635 -2.094506 25.080121 29.604138 0.133561 0.560136 0.026421 -0.011105 -167550.000000 0 0 1
-14.558335 -1.736906 24.178241 28.276303 0.118745 0.545109 0.020049 -0.009527 -56400.200000 0 0 1
-14.367835 -0.227706 24.378471 28.298346 0.015847 0.532618 0.018220 -0.000705 -292793.000000 0 0 1
-15.399835 0.399094 23.683811 28.253091 -0.025910 0.576688 0.011812 -0.007860 -268066.000000 0 0 1
-15.451935 1.706994 24.140611 28.713155 -0.110025 0.572128 -0.003633 -0.002520 54681.600000 0 0 1
-16.272935 2.659194 23.198061 28.461022 -0.161980 0.617926 0.004814 -0.002467 275449.000000 0 0 1
-15.440735 3.123494 22.152761 27.183034 -0.199596 0.618157 0.001863 0.006573 488844.000000 0 0 1
-16.117535 4.099494 21.409261 27.109727 -0.249068 0.660434 0.008830 0.004979 -184227.000000 0 0 1
-15.160435 4.842494 20.483261 25.939401 -0.309174 0.660545 0.010731 0.009245 -165149.000000 0 0 1
-14.297935 5.726794 21.156161 26.168880 -0.380966 0.629287 -0.000380 0.010960 218354.000000 0 0 1
-13.095535 5.830994 20.401261 24.934013 -0.418910 0.612506 -0.007299 0.012692 -103201.000000 0 1 0
-12.208835 6.988994 20.822661 25.129364 -0.519919 0.594161 -0.007439 0.019531 -117589.000000 0 0 1
-12.762535 8.249494 20.597161 25.596475 -0.573829 0.635648 -0.001581 0.018434 233353.000000 0 0 1
-11.675635 9.114094 20.383761 25.196922 -0.662804 0.628384 0.002698 0.020049 268436.000000 0 0 1
-12.174235 10.581494 20.432161 26.031774 -0.715519 0.668273 -0.006069 0.022830 -40051.100000 0 0 1
-12.649635 11.054194 19.210761 25.519832 -0.718192 0.718525 0.001554 0.019869 171495.000000 0 0 1
-13.080735 12.396294 19.313361 26.415519 -0.758540 0.750809 -0.012494 0.020187 -330166.000000 0 0 1
-13.384135 13.173194 18.004661 26.016071 -0.777455 0.806458 -0.004796 0.012099 223341.000000 0 0 1
-12.336835 13.914494 17.363161 25.441895 -0.845424 0.819669 -0.002335 0.007115 162344.000000 0 0 1
-12.157235 15.283394 17.802461 26.425520 -0.898834 0.831613 0.014078 0.001203 -646464.000000 0 0 1
-13.140835 16.295594 17.263961 27.134338 -0.892163 0.881181 0.015631 0.002323 -511943.000000 0 0 1
-13.157335 16.667394 15.855361 26.501131 -0.902549 0.929431 0.014570 -0.013504 -42914.400000 0 0 1
-13.496735 15.562594 14.973161 25.466679 -0.856370 0.942273 0.024698 -0.013359 -444076.000000 0 0 1
-14.108435 16.140494 13.703061 25.442826 -0.852475 1.002042 0.025820 -0.020811 -1061730.000000 0 0 1
-15.308835 16.759994 13.960561 26.648735 -0.830619 1.019404 0.026229 -0.014770 -1024800.000000 0 0 1
-15.655935 17.420094 12.795161 26.688652 -0.838684 1.070799 0.024474 -0.022912 -549007.000000 0 0 1
-16.804635 18.418994 12.894761 28.070090 -0.831198 1.093502 0.038153 -0.021631 -381182.000000 0 0 1
-18.074035 17.770894 12.967461 28.471573 -0.776941 1.097915 0.052542 -0.020141 190004.000000 0 0 1
-19.060135 18.790194 13.063061 29.782608 -0.778266 1.116741 0.067208 -0.022298 -536440.000000 0 0 1
-20.467735 18.219594 13.157461 30.397378 -0.727353 1.123146 0.071838 -0.014579 -455448.000000 0 0 1
-20.896535 17.464794 12.033261 29.773874 -0.696177 1.154741 0.067143 -0.019028 -1145380.000000 0 0 1
-22.240935 17.200294 12.156261 30.631422 -0.658286 1.162707 0.086911 -0.012248 -925262.000000 0 0 1
-22.888835 16.448594 10.986661 30.251640 -0.623120 1.199122 0.074912 -0.015262 -253015.000000 0 0 1
-22.376835 15.144194 10.848561 29.116330 -0.594971 1.188994 0.066073 -0.015817 62213.100000 0 0 1
-22.782835 14.486694 9.703961 28.689523 -0.566371 1.225750 0.058604 -0.021762 -318257.000000 0 0 1
-22.139135 13.082194 9.482561 27.408102 -0.533707 1.217517 0.076532 -0.022007 -251776.000000 0 0 1
-22.645135 12.004194 10.266261 27.609762 -0.487437 1.189812 0.085518 -0.020983 1648690.000000 0 0 1
-24.001135 11.489194 10.064861 28.449209 -0.446458 1.209183 0.092607 -0.015682 1239590.000000 0 0 1
-24.365335 10.928294 8.668661 28.075663 -0.421621 1.256907 0.090951 -0.011642 -480561.000000 0 0 1
-24.721635 11.970694 7.786161 28.549625 -0.450944 1.294573 0.090864 -0.014091 312018.000000 0 0 1
-25.925105 11.628894 7.121161 29.292545 -0.421653 1.325231 0.110016 -0.016178 130518.000000 0 0 1
-26.675405 12.808094 6.375161 30.269906 -0.447639 1.358597 0.100429 -0.013950 130122.000000 0 0 1
-26.044855 13.163794 5.129761 29.629958 -0.467980 1.396792 0.087070 -0.020183 796863.000000 0 0 1
-24.696635 13.584794 5.031861 28.631976 -0.502894 1.394136 0.078193 -0.017767 -273992.000000 0 0 1
-24.462535 15.027894 5.653861 29.261226 -0.550884 1.376353 0.076033 -0.024379 581620.000000 0 0 1
-23.089835 15.479794 5.502061 28.337911 -0.590594 1.375396 0.062542 -0.030742 1556450.000000 0 0 1
-22.837135 16.541094 6.402261 28.915938 -0.626854 1.347537 0.053613 -0.028375 595810.000000 0 0 1
-21.324635 16.960094 6.504261 28.012323 -0.671886 1.336465 0.049383 -0.026422 682581.000000 0 0 1
-20.937435 17.578694 5.297161 27.846842 -0.698415 1.379405 0.046278 -0.033687 572187.000000 0 0 1
-19.560935 17.950494 5.256761 27.064441 -0.742492 1.375323 0.054591 -0.034094 280528.000000 0 0 1
-19.276635 18.898694 4.073761 27.301004 -0.775498 1.421020 0.066860 -0.034031 -688588.000000 0 0 1
-17.891935 19.063794 3.932561 26.438885 -0.817097 1.421501 0.058874 -0.041685 77807.500000 0 0 1
-17.463135 20.148094 3.055061 26.837291 -0.856664 1.456713 0.061410 -0.034101 78438.600000 0 0 1
-17.649735 21.587094 3.573561 28.112028 -0.885412 1.443333 0.054827 -0.038454 11422.500000 0 0 1
-16.679035 21.980994 4.542861 27.964118 -0.921691 1.407620 0.068803 -0.040742 337783.000000 0 0 1
-16.921735 23.318394 4.914661 29.227496 -0.943041 1.401842 0.054986 -0.041597 -338131.000000 0 0 1
-16.180635 23.846594 6.149561 29.466763 -0.974625 1.360556 0.047308 -0.027427 -238068.000000 0 0 1
-16.481535 23.129994 7.360761 29.339707 -0.951690 1.317207 0.051915 -0.017777 205076.000000 0 0 1
-15.663135 23.399794 8.496861 29.412256 -0.980924 1.277731 0.041353 -0.025018 17181.400000 0 0 1
-16.174935 22.687894 9.797261 29.535663 -0.951443 1.232681 0.028051 -0.017533 88729.500000 0 0 1
-17.271235 23.401094 10.326861 30.863422 -0.934986 1.229617 0.036001 -0.024145 -269377.000000 0 0 1
-18.216835 22.576594 10.938061 31.003175 -0.891868 1.210230 0.040370 -0.024445 282075.000000 0 0 1
-19.460035 23.354594 11.469161 32.491102 -0.876112 1.210027 0.059700 -0.029689 564285.000000 0 0 1
-20.456935 23.878494 10.602461 33.182538 -0.862420 1.245574 0.068380 -0.017774 570298.000000 0 0 1
-20.046335 25.145594 10.018161 33.682636 -0.897759 1.268799 0.030810 -0.024928 -175063.000000 0 0 1
-21.183835 26.073794 9.547461 34.924943 -0.888506 1.293901 0.032282 -0.020798 -234091.000000 0 0 1
-21.929335 26.547694 10.647861 36.042374 -0.880380 1.270895 0.049190 -0.027905 -334254.000000 0 0 1
-23.082435 27.210794 10.233461 37.120747 -0.867300 1.291499 0.049733 -0.018838 -781528.000000 0 0 1
-24.023935 27.487394 11.412361 38.248507 -0.852534 1.267808 0.049267 -0.036166 -604726.000000 0 0 1
-23.635435 28.495394 12.326261 39.019969 -0.878356 1.249395 0.048468 -0.028536 -361541.000000 0 0 1
-24.676235 28.931494 13.105061 40.220524 -0.864610 1.238907 0.055034 -0.033317 -722491.000000 0 0 1
9.257565 -32.889323 28.138731 44.262832 -1.296419 0.881856 0.052961 -0.021161 -332225.000000 0 0 1
10.621265 -32.639723 27.938911 44.257718 -1.256194 0.887597 0.049541 -0.026797 19331.800000 0 0 1
10.693865 -32.406423 26.535921 43.228349 -1.252056 0.909862 0.057044 -0.023767 300579.000000 0 0 1
12.129265 -32.476023 25.934591 43.294505 -1.213356 0.928511 0.020619 -0.012823 428820.000000 0 0 1
12.702365 -33.778823 25.969781 44.461090 -1.211110 0.947024 0.023859 -0.017190 -197309.000000 0 0 1
14.055865 -33.751923 25.618341 44.643690 -1.176193 0.959609 0.032111 -0.010288 -234786.000000 0 0 1
14.763465 33.279194 25.458301 44.425102 1.153257 0.960560 0.050453 -0.004598 45254.200000 0 0 1
14.610065 32.711094 24.155891 43.208526 1.150741 0.977552 0.023536 -0.009424 415740.000000 0 0 1
15.481165 31.595194 24.041611 42.613634 1.115193 0.971361 0.021994 -0.004697 -224120.000000 0 0 1
15.461765 31.015094 22.634861 41.392501 1.108330 0.992217 0.026066 -0.018898 451681.000000 0 0 1
14.272665 30.250394 22.358061 40.232800 1.129948 0.981571 0.029256 -0.014354 536616.000000 0 0 1
14.461865 28.853594 22.379461 39.274873 1.106177 0.964514 0.026843 -0.012290 -165178.000000 0 0 1
14.220765 28.218694 23.817951 39.570439 1.103995 0.924902 0.031082 -0.017932 619645.000000 0 0 1
15.230065 28.532794 24.828471 40.774111 1.080496 0.916089 0.031555 -0.017883 973611.000000 0 0 1
14.752565 28.072394 26.110131 41.078418 1.086943 0.881989 0.021300 -0.018255 -170911.000000 0 0 1
15.722265 28.434994 27.265631 42.416425 1.065714 0.872638 0.028377 -0.024513 154661.000000 0 0 1
15.784865 29.823194 27.489851 43.523290 1.083999 0.887165 0.035427 -0.025518 -148454.000000 0 0 1
16.714665 30.164094 28.474341 44.721814 1.064792 0.880586 0.054557 -0.030600 -220531.000000 0 0 1
16.722865 31.594394 29.032801 46.051748 1.083986 0.888678 0.060722 -0.033652 -174153.000000 0 0 1
17.150765 32.643494 28.245121 46.449255 1.087039 0.917149 0.055556 -0.017879 19667.600000 0 0 1
16.731165 33.914894 28.752171 47.506202 1.112501 0.920742 0.064864 -0.004531 -131200.000000 0 0 1
17.423965 -33.425623 27.955121 46.929262 -1.090273 0.932676 0.043257 -0.001122 -679582.000000 0 0 1
17.291365 -33.435723 26.576051 46.078470 -1.093521 0.956044 0.053266 0.002269 -220588.000000 0 0 1
17.504365 -32.190623 25.997561 44.927856 -1.072747 0.953722 0.057082 -0.004358 -31591.200000 0 0 1
18.954665 -31.620323 25.948051 45.082430 -1.030785 0.957496 0.071532 0.001060 175152.000000 0 0 1
19.271665 -31.068123 27.247141 45.596404 -1.015581 0.930327 0.052680 -0.000729 302810.000000 0 0 1
20.466265 -30.286923 27.223941 45.577502 -0.976534 0.930652 0.063365 -0.002253 311437.000000 0 0 1
20.645165 -29.363723 28.461641 45.809563 -0.958004 0.900391 0.059098 -0.004945 36652.400000 0 0 1
19.717865 -28.287123 28.546251 44.764316 -0.962045 0.879286 0.070627 -0.014330 185960.000000 0 0 1
19.978465 -27.519523 29.634071 45.106999 -0.942850 0.854000 0.081335 -0.009500 168194.000000 0 0 1
18.646865 -27.064823 30.291271 44.696435 -0.967511 0.826151 0.073001 -0.017172 246830.000000 0 0 1
17.929865 -26.114423 29.544331 43.316402 -0.969128 0.820222 0.075639 -0.016326 -164820.000000 0 0 1
16.725165 -25.805523 30.216381 43.112479 -0.995741 0.794175 0.067818 -0.015674 -6950.290000 0 0 1
15.675065 -25.214623 29.221331 41.657785 -1.014598 0.793350 0.044457 -0.010660 -559790.000000 0 0 1
15.380565 -26.161823 28.196161 41.424948 -1.039321 0.822138 0.043379 -0.013726 203906.000000 0 0 1
14.785665 -25.554423 27.027321 40.026498 -1.046264 0.829512 0.040992 -0.030918 -187850.000000 0 0 1
13.314865 -25.051223 27.064301 39.208747 -1.082263 0.808945 0.019860 -0.022362 537742.000000 0 0 1
12.272665 -25.992323 27.351191 39.677536 -1.129664 0.810223 0.013179 -0.015916 501904.000000 0 0 1
12.088165 -27.017023 26.443121 39.689822 -1.150084 0.841635 0.016392 -0.019109 -983616.000000 0 0 1
11.153965 -28.151623 26.884161 40.492999 -1.193561 0.844746 0.031548 -0.016362 1598840.000000 0 0 1
9.726765 -27.824523 26.828891 39.857289 -1.234500 0.832372 0.039075 -0.025872 1579690.000000 0 0 1
8.958965 -29.020723 26.849311 40.538265 -1.271369 0.846885 0.033907 -0.020683 -380616.000000 0 0 1
7.459165 -28.777523 26.985481 40.149735 -1.317177 0.833727 0.030108 -0.019752 -674290.000000 0 0 1
6.606465 -28.463023 25.944571 39.075694 -1.342728 0.844698 0.042140 -0.028113 -259080.000000 0 0 1
6.839065 -27.270323 25.220291 37.769120 -1.325076 0.839616 0.058091 -0.029755 -445073.000000 0 0 1
5.655265 -26.890623 24.264051 36.658312 -1.363511 0.847449 0.064704 -0.027511 34054.300000 0 0 1
5.303265 -27.712223 23.168961 36.508803 -1.381713 0.883289 0.052600 -0.022781 39230.700000 0 0 1
4.591065 -28.898723 23.498951 37.528853 -1.413246 0.894182 0.052540 -0.021171 217851.000000 0 0 1
3.075265 -28.790323 23.861741 37.519631 -1.464384 0.881518 0.049639 -0.022572 -291842.000000 0 0 1
2.326765 -28.331923 22.777061 36.426724 -1.488855 0.895300 0.052416 -0.020852 944110.000000 0 0 1
0.963965 -27.956323 23.097261 36.276283 -1.536329 0.880580 0.047256 -0.025170 1275920.000000 0 0 1
0.809165 -26.496523 23.643431 35.520872 -1.540267 0.842471 0.059584 -0.025308 -327172.000000 0 0 1
1.427865 -26.341223 24.893441 36.270956 -1.516643 0.814381 0.055630 -0.024222 -22245.900000 0 0 1
1.300865 -25.027723 25.324871 35.629037 -1.518866 0.780171 0.067397 -0.020840 -702714.000000 0 0 1
2.496965 -24.525923 26.119351 35.916240 -1.469337 0.756519 0.073234 -0.016665 -435638.000000 0 0 1
3.627465 -24.294823 25.267861 35.240059 -1.422581 0.771277 0.081859 -0.025909 159491.000000 0 0 1
4.731365 -23.777323 25.960141 35.520077 -1.374376 0.751218 0.084250 -0.023513 -42875.300000 0 0 1
4.702565 -22.220823 26.303211 34.752526 -1.362245 0.712283 0.085385 -0.018824 -674686.000000 0 0 1
4.658065 -21.403923 25.168451 33.365798 -1.356511 0.716180 0.083539 -0.026372 474040.000000 0 0 1
3.800765 -20.249523 25.259631 32.596595 -1.385259 0.684214 0.087174 -0.027305 296445.000000 0 0 1
3.745765 -19.429123 23.929121 31.050353 -1.380342 0.690927 0.089421 -0.030901 -98350.400000 0 0 1
4.943065 -18.727623 23.740031 30.638976 -1.312737 0.684348 0.087716 -0.023881 -320753.000000 0 0 1
4.997065 -18.180823 22.433761 29.305062 -1.302566 0.698939 0.085158 -0.025075 468712.000000 0 0 1
6.414165 -17.618823 22.158361 29.026840 -1.221658 0.702275 0.064308 -0.018175 313021.000000 0 0 1
7.486365 -18.537223 22.014261 29.737216 -1.186970 0.737290 0.050510 -0.021669 379489.000000 0 0 1
8.690065 -17.869423 21.608461 29.355734 -1.118161 0.743521 0.031062 -0.015532 778672.000000 0 0 1
9.795965 -17.967223 22.709361 30.569546 -1.071636 0.733441 0.030228 -0.012947 -16740.700000 0 0 1
9.700065 -17.086923 23.835881 30.890184 -1.054474 0.689392 0.043022 -0.007928 -387302.000000 0 0 1
10.774365 -17.411423 24.646831 32.042330 -1.016661 0.693214 0.048004 -0.003313 -397340.000000 0 0 1
10.781065 -16.511623 25.912071 32.562256 -0.992359 0.650518 0.059688 -0.012174 -293793.000000 0 0 1
11.207165 -15.228623 25.612291 31.835530 -0.936363 0.635931 0.071566 -0.012294 67406.300000 0 0 1
11.134965 -14.379923 26.747391 32.344900 -0.911898 0.597147 0.061279 -0.009639 -84757.100000 0 0 1
11.412065 -12.890823 26.503831 31.604772 -0.846170 0.576084 0.072156 -0.007004 -97004.600000 0 0 1
10.281765 -12.211323 26.019651 30.526273 -0.870973 0.550297 0.063860 -0.004917 23938.500000 0 0 1
10.591765 -10.878223 25.961601 30.075338 -0.798740 0.529185 0.067349 -0.000489 91139.400000 0 0 1
9.631565 -10.018123 25.105981 28.695647 -0.805068 0.505556 0.059059 -0.002870 972513.000000 0 0 1
8.262765 -9.923523 25.587561 28.661348 -0.876465 0.467373 0.039022 0.003669 716996.000000 0 0 1
7.526665 -9.281923 24.598241 27.347363 -0.889447 0.452232 0.033164 0.002479 -964068.000000 0 0 1
6.035565 -9.308323 24.880721 27.241939 -0.995543 0.419423 0.018021 -0.003028 -1397170.000000 0 0 1
5.625065 -8.416723 25.941601 27.846890 -0.981650 0.372062 0.020836 0.002588 -4615.600000 0 0 1
4.340165 -8.654423 26.462491 28.177997 -1.105952 0.350739 0.017422 0.003487 632210.000000 0 0 1
3.080265 -8.499623 25.556741 27.108645 -1.223118 0.340007 0.010589 -0.000794 -175506.000000 0 0 1
2.886865 -7.200023 25.008261 26.183725 -1.189469 0.300775 0.014017 -0.008923 -330244.000000 0 0 1
1.801365 -7.148123 24.112531 25.214178 -1.323931 0.296693 0.043595 -0.017197 25323.200000 0 0 1
1.792265 -5.801723 23.332861 24.110052 -1.271177 0.254597 0.036601 -0.024540 1760.770000 0 1 0
1.460165 -4.645523 24.046681 24.534789 -1.266257 0.199804 0.033267 -0.024279 92100.600000 0 1 0
1.980365 -3.466523 23.383511 23.721872 -1.051760 0.169102 0.041600 -0.031794 -440546.000000 0 1 0
1.072165 -2.767523 22.335461 22.531790 -1.201191 0.132107 0.031184 -0.034486 708770.000000 0 1 0
-0.016435 -1.959523 22.818961 22.902947 1.562409 0.085665 0.032423 -0.032531 875144.000000 0 1 0
-1.168135 -2.686523 23.257261 23.441036 1.160643 0.125301 0.031852 -0.028649 -293016.000000 0 1 0
-2.216735 -1.748523 23.803351 23.970206 0.667864 0.118059 0.030126 -0.033815 -186294.000000 0 1 0
-1.728835 -1.063523 24.996761 25.079036 0.551497 0.081023 0.030731 -0.028045 801087.000000 0 0 1
-2.405135 0.239477 25.036591 25.152991 -0.099242 0.096242 0.027304 -0.029247 328668.000000 0 0 1
-1.858335 1.153477 26.189451 26.280626 -0.555504 0.083322 0.059434 -0.028271 -100251.000000 0 0 1
-2.074135 0.743477 27.539301 27.627304 -0.344184 0.079838 0.072145 -0.018295 377688.000000 0 0 1
-1.388235 -0.495523 27.852121 27.891099 0.342848 0.052874 0.068038 -0.024642 -167930.000000 0 0 1
-0.011035 -0.324523 28.571051 28.572897 1.536804 0.011365 0.067207 -0.023334 902723.000000 0 0 1
1.084065 0.246477 27.840231 27.862420 0.223563 0.039911 0.053014 -0.021730 384607.000000 0 0 1
1.630065 -0.545523 26.844651 26.899629 -0.322947 0.063945 0.047346 -0.022653 -703535.000000 0 0 1
2.778965 -1.511523 27.158391 27.342011 -0.498160 0.115959 0.052819 -0.020616 -285395.000000 0 0 1
2.336165 -2.779523 27.701591 27.938532 -0.871849 0.130329 0.036596 -0.018166 360720.000000 0 0 1
3.419865 -3.673423 27.975671 28.422310 -0.821129 0.177514 0.036945 -0.004574 484819.000000 0 0 1
4.081565 -4.358523 26.707681 27.367063 -0.818201 0.219961 0.038045 -0.009667 473250.000000 0 0 1
5.232465 -3.659123 26.255501 27.020718 -0.610264 0.238555 0.036328 -0.006769 -112818.000000 0 0 1
5.684265 -4.168223 25.015611 25.989724 -0.632722 0.274653 0.033316 -0.003288 -883505.000000 0 0 1
6.951165 -3.562923 24.410501 25.629781 -0.473649 0.309693 0.038130 -0.005464 -770429.000000 0 0 1
8.078165 -3.808223 25.197621 26.733489 -0.440525 0.340616 0.048106 -0.001763 -293995.000000 0 0 1
8.737865 -5.069623 25.182421 27.133111 -0.525726 0.381501 0.048849 -0.007520 -24830.800000 0 0 1
9.534065 -5.452823 23.882441 26.286930 -0.519524 0.431046 0.047109 -0.017828 -235329.000000 0 0 1
8.706565 -5.896723 22.843461 25.147551 -0.595310 0.431410 0.042114 -0.018198 -169874.000000 0 0 1
9.294365 -5.738723 21.545861 24.156620 -0.553145 0.469215 0.045574 -0.012465 -165006.000000 0 1 0
9.319965 -4.274923 21.065561 23.428499 -0.430052 0.452990 0.049418 -0.027311 866201.000000 0 1 0
8.012165 -3.688123 21.018461 22.794139 -0.431399 0.397325 0.042612 -0.026069 315962.000000 0 1 0
8.101265 -2.471523 20.266261 21.964978 -0.296110 0.395867 0.037797 -0.031653 302826.000000 0 1 0
6.717865 -1.788523 20.111161 21.278800 -0.260198 0.332814 0.038193 -0.027894 165882.000000 0 1 0
6.201465 -1.243523 21.311961 22.230704 -0.197896 0.288498 0.046470 -0.024544 -65595.300000 0 1 0
4.936665 -0.665523 21.044461 21.625978 -0.134004 0.232427 0.027615 -0.019697 -236308.000000 0 1 0
4.175065 -0.476523 22.362261 22.753658 -0.113644 0.185747 0.021875 -0.030891 511979.000000 0 1 0
2.950865 0.270477 22.159361 22.356611 0.091405 0.132935 0.022889 -0.026768 336577.000000 0 1 0
2.402165 0.627477 23.359361 23.490932 0.255504 0.105888 0.034337 -0.029126 -1005820.000000 0 1 0
0.990865 1.145477 23.186361 23.235776 0.857645 0.065229 0.035802 -0.037216 -890094.000000 0 1 0
0.901765 2.470477 22.696761 22.848619 1.220807 0.115357 0.032222 -0.029301 -353376.000000 0 1 0
-0.436635 2.822477 22.508961 22.689433 -1.417314 0.126211 0.021181 -0.032752 -473535.000000 0 1 0
-0.786535 4.289477 22.123961 22.549677 -1.389447 0.194621 0.025173 -0.019423 -287923.000000 0 1 0
-0.622635 5.176477 23.183061 23.762111 -1.451090 0.221216 0.038792 -0.012112 155479.000000 0 1 0
-1.503235 6.295477 23.025861 23.918257 -1.336405 0.274024 0.034648 -0.009645 182197.000000 0 1 0
-1.181135 7.545477 23.898901 25.089575 -1.415521 0.309312 0.043746 -0.001993 -34724.100000 0 0 1
-0.123235 8.342477 23.430991 24.872142 -1.556025 0.342084 0.041494 -0.001881 -158869.000000 0 1 0
-0.121235 9.582477 24.033451 25.873642 -1.558145 0.379425 0.066933 -0.000742 -668029.000000 0 0 1
0.503465 10.721477 23.226261 25.586378 1.523872 0.432886 0.080297 -0.014530 652829.000000 0 0 1
1.925465 10.742477 23.105061 25.552927 1.393441 0.441284 0.072907 -0.021814 378495.000000 0 0 1
2.472665 11.316477 24.320491 26.938133 1.355676 0.444496 0.092667 -0.018115 -271175.000000 0 0 1
3.908965 11.908477 24.166781 27.223614 1.253627 0.478441 0.075362 -0.032840 220196.000000 0 0 1
4.989365 11.038477 23.981861 26.867665 1.146282 0.467735 0.045893 -0.019353 -151445.000000 0 0 1
5.054665 10.347477 22.712361 25.465099 1.116397 0.469264 0.056241 -0.023122 -489633.000000 0 0 1
6.494265 10.092477 22.190961 25.228403 0.999021 0.495771 0.040884 -0.017780 195192.000000 0 0 1
7.159365 11.278477 21.871061 25.628185 1.005194 0.548325 0.037523 -0.025829 -233136.000000 0 0 1
8.439965 10.959477 21.374661 25.460151 0.914551 0.574371 0.045711 -0.016229 117063.000000 0 0 1
9.230265 12.138477 20.715561 25.723042 0.920664 0.634563 0.046066 -0.038039 -276125.000000 0 0 1
8.656765 12.503477 19.500361 24.729347 0.965224 0.662346 0.038970 -0.037830 784833.000000 0 1 0
9.487665 13.452477 18.755561 24.955079 0.956540 0.720353 0.057562 -0.036413 1524410.000000 0 1 0
10.932265 13.085477 18.207961 24.945420 0.874810 0.752603 0.043706 -0.031374 1039640.000000 0 1 0
11.918365 13.004477 19.224461 26.091066 0.828950 0.742439 0.049069 -0.036219 -668894.000000 0 0 1
13.150365 12.818477 18.615861 26.149488 0.772619 0.778594 0.052073 -0.031199 -701784.000000 0 0 1
14.299765 12.503477 19.580561 27.280370 0.718481 0.770227 0.059625 -0.023787 -76485.700000 0 0 1
14.740365 13.510477 20.453061 28.603130 0.741891 0.774081 0.057020 -0.024594 479838.000000 0 0 1
16.038065 13.186477 20.963761 29.505626 0.688131 0.780587 0.053134 -0.020596 884455.000000 0 0 1
16.831065 14.417477 21.497461 30.875382 0.708313 0.800615 0.049540 -0.012991 51988.700000 0 0 1
16.387765 14.872477 22.713661 31.712140 0.736963 0.772390 0.049647 -0.019889 -333572.000000 0 0 1
17.178065 15.917477 23.110461 32.902058 0.747327 0.792030 0.033426 -0.013883 -532507.000000 0 0 1
-21.044135 12.823094 -24.406374 34.683691 -0.547261 2.351366 0.020231 -0.000776 -94263.100000 0 0 1
-21.066935 12.545494 -25.762914 35.565895 -0.537109 2.380918 0.020103 -0.022029 182543.000000 0 0 1
-21.826635 13.490094 -26.525564 36.905151 -0.553591 2.372799 0.011565 -0.020167 44983.600000 0 0 1
-21.652335 13.396694 -28.066434 37.894851 -0.554069 2.404818 0.010413 -0.008933 -658347.000000 0 0 1
-20.366735 13.799194 -28.413734 37.584065 -0.595490 2.427984 0.019145 -0.009427 -751556.000000 0 0 1
-20.205135 14.130694 -29.808624 38.684339 -0.610297 2.450516 0.012042 -0.004462 -349256.000000 0 0 1
-18.801135 14.667994 -30.075864 38.382161 -0.662529 2.471219 0.005174 -0.011240 -1282800.000000 0 0 1
-17.934935 13.687294 -30.518154 37.952097 -0.651873 2.504995 0.002386 -0.015245 -34152.200000 0 0 1
-16.567935 14.124494 -30.583094 37.540957 -0.705955 2.522938 0.021158 -0.008327 832230.000000 0 0 1
-15.862335 13.677494 -29.298034 36.014751 -0.711570 2.520943 0.045028 -0.007039 -987623.000000 0 0 1
-16.439535 14.122694 -28.111074 35.495652 -0.709736 2.484806 0.044151 -0.008990 -228777.000000 0 0 1
-17.022135 13.066794 -27.346094 34.760654 -0.654693 2.476236 0.041727 -0.001755 -311197.000000 0 0 1
-17.772935 13.558394 -26.129394 34.386807 -0.651686 2.433905 0.037723 -0.007405 -608156.000000 0 0 1
-16.929635 14.145694 -25.166774 33.467592 -0.696050 2.421849 0.094145 -0.016276 64627.800000 0 0 1
-17.648235 14.767294 -24.117074 33.334163 -0.696756 2.379647 0.079856 -0.016079 181187.000000 0 0 1
-16.775335 15.365094 -22.937474 32.305196 -0.741549 2.360329 0.074247 -0.006521 611785.000000 0 0 1
-15.956435 16.501894 -23.197174 32.634785 -0.802201 2.361447 0.059289 -0.013209 367991.000000 0 0 1
-15.318935 17.055294 -22.042174 31.802677 -0.838981 2.336566 0.062655 -0.006565 -16352.100000 0 0 1
-15.033135 18.605294 -22.221374 32.648761 -0.891194 2.319404 0.060952 -0.010392 349107.000000 0 0 1
-16.175235 19.453794 -22.242074 33.686766 -0.877159 2.291963 0.031508 -0.011989 411128.000000 0 0 1
-16.963035 19.403194 -23.416574 34.821896 -0.852397 2.308333 0.017654 -0.010189 -414014.000000 0 0 1
-18.222335 20.264694 -23.424574 35.936360 -0.838415 2.280798 0.000951 -0.016437 -347840.000000 0 0 1
-18.023935 21.667594 -23.560874 36.735019 -0.876941 2.267084 -0.005072 -0.016320 296085.000000 0 0 1
-19.259235 22.308294 -23.819574 37.893934 -0.858619 2.250529 0.027907 -0.031732 121572.000000 0 0 1
-18.957235 23.736594 -24.110374 38.782893 -0.896879 2.241676 0.020864 -0.033184 105953.000000 0 0 1
-18.433835 24.401394 -22.961974 38.242470 -0.923821 2.214837 0.015806 -0.025505 -197962.000000 0 0 1
-17.615435 25.474094 -23.294574 38.753970 -0.965795 2.215659 0.002410 -0.012891 -312662.000000 0 0 1
-16.533135 25.837994 -22.209474 37.870928 -1.001570 2.197468 0.007880 -0.022908 661800.000000 0 0 1
-15.419535 24.928494 -22.128674 36.726967 -1.016848 2.217449 0.020534 -0.034557 293182.000000 0 0 1
-15.774335 23.628194 -21.684874 35.740103 -0.982143 2.222747 0.021496 -0.011949 -1371050.000000 0 0 1
-14.616035 22.647694 -21.553274 34.512174 -0.997686 2.245303 0.057601 -0.014602 -211254.000000 0 0 1
-13.737035 22.952294 -20.478574 33.688068 -1.031478 2.224194 0.079641 -0.023157 -207840.000000 0 0 1
-12.794535 21.935994 -20.293274 32.506998 -1.042772 2.244998 0.072426 -0.015528 -436346.000000 0 0 1
-11.966135 22.270694 -19.042174 31.650854 -1.077753 2.216339 0.068257 -0.017929 152898.000000 0 0 1
-12.612535 22.066694 -17.730174 30.989903 -1.051548 2.179894 0.082285 -0.014860 529129.000000 0 0 1
-13.632735 23.011294 -17.414974 31.916335 -1.035957 2.147954 0.077284 -0.027768 228378.000000 0 0 1
-14.394635 22.724894 -16.128574 31.364904 -1.006158 2.110898 0.091007 -0.028639 141356.000000 0 0 1
-13.619235 23.172894 -15.043074 30.801958 -1.039453 2.081029 0.103900 -0.043248 108121.000000 0 0 1
-14.390835 23.249294 -13.856874 30.653528 -1.016538 2.039857 0.109624 -0.041005 -248933.000000 0 0 1
-13.613335 23.632294 -12.628074 30.054558 -1.048175 2.004431 0.123380 -0.043790 -433219.000000 0 0 1
-13.042435 24.913894 -12.747874 30.875808 -1.088526 1.996406 0.115723 -0.041917 709665.000000 0 0 1
-12.038735 25.154994 -11.741974 30.258533 -1.124429 1.969317 0.093046 -0.035222 229027.000000 0 0 1
-11.518135 26.600194 -11.723174 31.267724 -1.162161 1.955116 0.108238 -0.038323 -377324.000000 0 0 1
-10.775535 26.884194 -12.858274 31.689229 -1.189589 1.988608 0.107640 -0.040582 -2973.430000 0 0 1
-10.429335 28.273094 -12.956674 32.802656 -1.217403 1.976852 0.086262 -0.021132 -854800.000000 0 0 1
-9.943835 28.807894 -14.303574 33.665514 -1.238424 2.009618 0.124664 -0.034267 500669.000000 0 0 1
-8.566135 28.656594 -14.610574 33.287353 -1.280327 2.025196 0.104740 -0.034317 445433.000000 0 0 1
-7.915235 27.377094 -14.507374 31.978432 -1.289352 2.041666 0.107061 -0.040118 -565252.000000 0 0 1
-6.467035 27.323494 -15.015674 31.841267 -1.338389 2.061877 0.116544 -0.038551 -481067.000000 0 0 1
-5.569235 27.929094 -14.202974 31.824128 -1.373972 2.033418 0.104127 -0.040530 -501718.000000 0 0 1
-4.271235 27.995594 -14.801874 31.954533 -1.419396 2.052418 0.113357 -0.046395 798880.000000 0 0 1
-3.190835 28.844594 -14.111174 32.269447 -1.460623 2.023382 0.081151 -0.031088 -177541.000000 0 0 1
-3.401035 30.211094 -14.376774 33.629880 -1.458693 2.012522 0.067796 -0.022889 443115.000000 0 0 1
-4.451335 30.797594 -13.588474 33.955158 -1.427255 1.982519 0.070788 -0.016116 349786.000000 0 0 1
-4.698935 32.266994 -13.832174 35.419880 -1.426186 1.971993 0.060876 -0.022190 -295537.000000 0 0 1
-3.610635 33.126794 -13.500174 35.953801 -1.462230 1.955718 0.039767 -0.024598 147988.000000 0 0 1
-3.754135 -33.950723 -13.946774 36.895225 1.460668 1.958442 0.039714 -0.022725 53036.600000 0 0 1
-2.814935 -33.014123 -13.192374 35.663636 1.485737 1.949710 0.042463 -0.024212 -220568.000000 0 0 1
-3.181035 -32.848323 -11.848274 35.064411 1.474257 1.915481 0.041215 -0.026530 -217817.000000 0 0 1
-2.355735 -32.001223 -11.116674 33.958920 1.497315 1.904301 0.028795 -0.031842 -462398.000000 0 0 1
-2.715235 -31.953123 -9.627774 33.482363 1.486024 1.862462 0.026354 -0.032916 -322692.000000 0 0 1
-1.737335 -31.322523 -8.823574 32.587947 1.515387 1.844981 0.027969 -0.026454 -78336.300000 0 0 1
-2.130535 -31.235823 -7.454374 32.183591 1.502694 1.804539 0.019605 -0.040847 192123.000000 0 0 1
-0.997435 -30.647323 -6.552074 31.355749 1.538262 1.781307 0.030279 -0.032631 541332.000000 0 0 1
-1.290135 -30.674223 -5.115774 31.124646 1.528762 1.735910 0.027140 -0.025204 1115650.000000 0 0 1
-0.026535 -30.358423 -4.463174 30.684760 1.569922 1.716767 0.023612 -0.021935 1181740.000000 0 0 1
0.012565 -30.506923 -2.902574 30.644697 -1.570384 1.665656 0.028284 -0.020026 -776801.000000 0 0 1
0.078765 -31.819223 -2.329974 31.904513 -1.568321 1.643891 0.030690 -0.017528 -246958.000000 0 0 1
1.263565 -32.545823 -2.502574 32.666345 -1.531992 1.647482 0.031197 -0.019453 -534896.000000 0 0 1
2.555265 -31.998523 -1.923274 32.157952 -1.491110 1.630639 0.046317 -0.021054 -1447580.000000 0 0 1
2.639965 -32.294223 -0.528274 32.406255 -1.489230 1.587099 0.041891 -0.014731 897820.000000 0 0 1
3.935065 -32.000823 0.048326 32.241895 -1.448443 1.569297 0.048650 -0.016017 960044.000000 0 0 1
4.256865 -30.546523 0.306326 30.843230 -1.432331 1.560864 0.041345 -0.021916 -497674.000000 0 0 1
4.561865 -29.951123 -0.951274 30.311472 -1.419648 1.602185 0.047756 -0.031723 -16168.300000 0 0 1
4.537765 -28.540923 -0.836374 28.911505 -1.413125 1.599729 0.059366 -0.021055 -635821.000000 0 0 1
3.951865 -27.873123 -2.070074 28.227884 -1.429955 1.644197 0.054530 -0.016697 449537.000000 0 0 1
2.568265 -28.126223 -2.326374 28.338886 -1.479737 1.652980 0.041563 -0.017834 281061.000000 0 0 1
1.936865 -27.247223 -3.232874 27.506619 -1.499831 1.688599 0.039196 -0.014855 -68471.900000 0 0 1
2.373965 -27.031623 -4.740974 27.546709 -1.483199 1.743764 0.042826 -0.023449 -275568.000000 0 0 1
2.061165 -28.115423 -5.546374 28.731302 -1.497616 1.765059 0.037378 -0.023491 -136244.000000 0 0 1
2.699365 -28.032323 -6.801474 28.971672 -1.474798 1.807771 0.047475 -0.026576 -127986.000000 0 0 1
2.060165 -28.895923 -7.939974 30.037674 -1.499621 1.838309 0.037495 -0.024514 -362765.000000 0 0 1
0.831465 -28.307823 -8.268274 29.502348 -1.541433 1.854859 0.032089 -0.024767 -653342.000000 0 0 1
0.639365 -28.219023 -9.651874 29.830869 -1.548143 1.900279 0.050792 -0.021198 645532.000000 0 0 1
-0.771035 -27.620523 -9.963574 29.372787 1.542888 1.916874 0.048344 -0.029556 -294711.000000 0 0 1
-0.941235 -26.305823 -9.456774 27.969856 1.535031 1.915700 0.042470 -0.017592 -313088.000000 0 0 1
-2.261835 -25.848423 -9.631074 27.676967 1.483515 1.926214 0.048031 -0.018768 553566.000000 0 0 1
-3.340835 -26.484723 -8.688174 28.072872 1.445317 1.885449 0.043365 -0.019825 -597610.000000 0 0 1
-3.253835 -26.361423 -7.308474 27.548609 1.447986 1.839305 0.041873 -0.021535 340864.000000 0 0 1
-2.265135 -27.264623 -6.733074 28.174897 1.487907 1.812106 0.035372 -0.024745 926339.000000 0 0 1
-1.698635 -27.000523 -5.304874 27.569101 1.507968 1.764425 0.038310 -0.014933 470098.000000 0 0 1
-2.668635 -27.205323 -4.286374 27.669916 1.473017 1.726334 0.036549 -0.020635 153271.000000 0 0 1
-2.070135 -26.962623 -3.040674 27.212391 1.494169 1.682769 0.036522 -0.013126 -263637.000000 0 0 1
-3.045235 -26.999723 -1.884574 27.236192 1.458483 1.640045 0.027556 -0.013244 178424.000000 0 0 1
-4.123735 -26.063123 -1.995374 26.462674 1.413876 1.646271 0.023889 -0.009871 260683.000000 0 0 1
-4.976335 -26.090023 -0.848474 26.573918 1.382323 1.602731 0.034666 -0.014101 533856.000000 0 0 1
-6.152335 -25.080423 -1.157974 25.849947 1.330242 1.615607 0.037670 -0.014635 425188.000000 0 0 1
-5.760135 -23.698523 -1.086274 24.412684 1.332361 1.615307 0.027168 -0.016942 131310.000000 0 1 0
-6.562735 -23.069823 -0.084574 23.985275 1.293645 1.574322 0.039733 -0.016693 22803.800000 0 1 0
-6.076335 -21.764023 0.398426 22.599852 1.298537 1.553166 0.022377 -0.017270 -504929.000000 0 1 0
-5.084035 -21.828823 1.367926 22.454758 1.341971 1.509839 0.020038 -0.016378 -523124.000000 0 1 0
-4.624635 -20.500923 1.526026 21.071399 1.348928 1.498311 0.006202 -0.009002 -177617.000000 0 1 0
-3.609735 -20.182223 2.633826 20.670979 1.393811 1.443032 0.010623 -0.009683 -333860.000000 0 1 0
-4.094535 -20.228923 3.924826 21.009018 1.371085 1.382876 0.011478 0.002884 -225972.000000 0 1 0
-3.047635 -19.919323 4.830726 20.722052 1.418975 1.335511 0.028987 -0.010706 320634.000000 0 1 0
-2.131835 -21.109123 5.287426 21.865422 1.470146 1.326559 0.026522 -0.016642 829355.000000 0 1 0
-1.114435 -21.312623 4.269426 21.764602 1.518554 1.373352 0.037715 -0.022654 332981.000000 0 1 0
-0.429535 -22.528023 4.607126 22.998303 1.551732 1.369107 0.048500 -0.021632 -764258.000000 0 1 0
0.523065 -23.010623 3.442826 23.272633 -1.548069 1.422317 0.046784 -0.023068 393150.000000 0 1 0
1.685065 -22.228023 3.323226 22.538152 -1.495133 1.422808 0.031462 -0.027547 48372.200000 0 1 0
2.660265 -22.567823 4.306426 23.128531 -1.453459 1.383508 0.042989 -0.026700 -1234550.000000 0 1 0
3.875465 -21.682123 4.488426 22.478427 -1.393924 1.369768 0.045225 -0.027485 -117980.000000 0 1 0
4.821065 -21.787923 3.420526 22.575568 -1.353033 1.418696 0.034363 -0.014528 536055.000000 0 1 0
5.971065 -20.953523 3.708126 22.100994 -1.293188 1.402218 0.052132 -0.014125 884907.000000 0 1 0
6.765365 -20.654023 2.438726 21.870213 -1.254254 1.459055 0.061691 -0.011137 -453203.000000 0 1 0
7.360865 -21.764723 1.858226 23.050781 -1.244671 1.490094 0.054383 -0.006196 -501899.000000 0 1 0
7.153865 -21.820423 0.442026 22.967456 -1.253987 1.551549 0.055217 -0.010586 -542291.000000 0 1 0
8.166765 -22.557323 -0.383374 23.993246 -1.223432 1.586775 0.055585 -0.007247 262276.000000 0 1 0
9.473265 -21.980723 -0.376874 23.938191 -1.163871 1.586541 0.046769 -0.003888 101668.000000 0 1 0
10.413665 -22.660823 -1.171974 24.966595 -1.140033 1.617755 0.049970 -0.009440 116304.000000 0 1 0
11.572665 -21.836723 -1.749274 24.775573 -1.083466 1.641460 0.055774 -0.014339 156079.000000 0 1 0
11.266865 -20.907223 -2.804574 23.914846 -1.076517 1.688340 0.057693 -0.008805 -42131.500000 0 1 0
12.510065 -20.725923 -3.452974 24.453806 -1.027738 1.712474 0.056909 -0.011617 319233.000000 0 1 0
12.679065 -19.469723 -4.302674 23.629257 -0.993564 1.753909 0.054290 -0.026854 -99962.400000 0 1 0
12.914465 -18.287423 -3.571174 22.670830 -0.955926 1.728978 0.066517 -0.022109 140648.000000 0 1 0
12.971065 -17.139823 -4.397674 21.939954 -0.922971 1.772605 0.069758 -0.026724 -1426110.000000 0 1 0
13.577265 -16.030323 -3.636374 21.319864 -0.868062 1.742197 0.085221 -0.020711 1652350.000000 0 1 0
15.003165 -16.135623 -3.311774 22.280510 -0.821750 1.719989 0.076314 -0.012549 1942630.000000 0 1 0
15.883765 -16.087023 -4.419574 23.035167 -0.791756 1.763855 0.071921 -0.016567 -845509.000000 0 1 0
17.315365 -15.655723 -4.055074 23.693188 -0.735104 1.742792 0.070879 -0.011278 -31055.300000 0 1 0
18.048665 -16.641623 -3.337674 24.775754 -0.744860 1.705922 0.075366 -0.013768 636701.000000 0 1 0
19.387365 -16.195423 -3.138774 25.456110 -0.695933 1.694412 0.047078 -0.002826 222320.000000 0 0 1
20.236665 -17.099023 -2.212074 26.585569 -0.701557 1.654098 0.057046 -0.015177 -809072.000000 0 0 1
21.569265 -16.735323 -2.292374 27.396336 -0.659864 1.654569 0.039449 -0.007569 -820863.000000 0 0 1
22.338965 -17.675423 -1.535974 28.527340 -0.669375 1.624665 0.029386 -0.003854 -597897.000000 0 0 1
23.846865 -17.578423 -1.655474 29.671780 -0.635218 1.626618 0.042366 -0.006921 -771894.000000 0 0 1
24.227265 -16.322723 -1.214374 29.238098 -0.592879 1.612342 0.045610 -0.016485 474581.000000 0 0 1
25.550365 -16.339323 -0.666374 30.335436 -0.568955 1.592765 0.061257 -0.020068 693166.000000 0 0 1
26.121065 -15.017623 -0.099674 30.130532 -0.521777 1.574104 0.063254 -0.015625 -19612.800000 0 0 1
25.450465 -14.572923 1.059726 29.346537 -0.520028 1.534678 0.056945 -0.013422 -97635.500000 0 0 1
26.157265 -13.603323 1.735926 29.534155 -0.479566 1.511986 0.058250 -0.023720 -73644.900000 0 0 1
25.298865 -12.921923 2.845626 28.550065 -0.472227 1.470959 0.055615 -0.025361 -9999.910000 0 0 1
24.893965 -13.709723 3.965926 28.694852 -0.503400 1.432142 0.058530 -0.021267 117027.000000 0 0 1
25.939765 -14.247823 4.758926 29.975310 -0.502279 1.411360 0.083999 -0.023219 215028.000000 0 0 1
25.363365 -15.036923 5.996026 30.089228 -0.535153 1.370178 0.058406 -0.015697 204492.000000 0 0 1
24.769565 -16.262423 5.563026 30.148715 -0.580965 1.385213 0.065274 -0.014413 181074.000000 0 0 1
23.808465 -16.528023 6.585526 29.721839 -0.606828 1.347370 0.056393 -0.008677 -50412.400000 0 0 1
23.208465 -17.933923 6.539426 30.050333 -0.657892 1.351425 0.047809 -0.008417 17050.100000 0 0 1
24.179665 -18.920323 6.827526 31.452344 -0.663972 1.351979 0.052424 -0.009344 -61999.400000 0 0 1
23.619965 -20.215423 6.819426 31.828771 -0.707887 1.354869 0.032527 -0.000806 -784.959000 0 0 1
1.793465 23.108094 -3.117674 23.386329 1.493340 1.704506 0.008439 -0.002525 268305.000000 0 1 0
2.484765 24.322794 -2.837774 24.613519 1.468992 1.686347 0.014894 0.002041 268004.000000 0 1 0
3.293465 24.821494 -3.888174 25.339127 1.438881 1.724850 0.031316 0.002043 388094.000000 0 0 1
4.402365 25.842394 -3.514374 26.449214 1.402062 1.704063 0.017500 0.008580 160417.000000 0 0 1
5.444965 25.308994 -2.737774 26.032445 1.358887 1.676159 0.009125 0.005083 -243367.000000 0 0 1
6.103465 26.373094 -2.011274 27.144752 1.343372 1.644959 0.006845 0.002857 246818.000000 0 0 1
7.273565 25.731494 -1.211874 26.767203 1.295312 1.616086 -0.004604 -0.006330 259915.000000 0 0 1
8.408265 25.439294 -2.012774 26.868343 1.251577 1.645779 0.009544 -0.012489 19802.100000 0 0 1
9.330565 24.588994 -1.322974 26.333027 1.208120 1.621058 0.012469 -0.011068 -547764.000000 0 0 1
10.336665 24.197294 -2.352774 26.417630 1.167078 1.659975 0.041402 -0.012674 -1772280.000000 0 0 1
11.272465 25.225294 -2.594174 27.750921 1.150547 1.664414 0.041504 -0.010058 63400.000000 0 0 1
12.153965 25.182694 -3.715674 28.208033 1.121140 1.702904 0.065161 -0.013140 530720.000000 0 0 1
13.115865 23.951694 -3.681674 27.554750 1.069800 1.704810 0.052182 -0.013793 -840686.000000 0 0 1
12.532965 22.685294 -3.938874 26.214738 1.066058 1.721622 0.041688 -0.015861 -220041.000000 0 0 1
12.387565 22.314494 -5.302174 26.067248 1.064019 1.775629 0.062745 -0.026323 -46659.500000 0 0 1
11.454865 21.078894 -5.346874 24.578908 1.073013 1.790089 0.057355 -0.028587 444243.000000 0 1 0
10.099165 21.363594 -5.044974 24.162947 1.129204 1.781134 0.046799 -0.021787 96906.400000 0 1 0
9.265165 20.210294 -5.067174 22.802971 1.140948 1.794883 0.025125 -0.015495 420702.000000 0 1 0
7.788765 20.667594 -4.874474 22.618019 1.210397 1.788013 0.019084 -0.006133 212347.000000 0 1 0
7.551665 21.257494 -3.619074 22.847459 1.229455 1.729868 0.010221 0.002251 -1195430.000000 0 1 0
6.272665 21.742594 -3.610574 22.915561 1.289926 1.729016 0.009658 0.011720 -1105930.000000 0 1 0
5.900965 22.255594 -2.227374 23.132099 1.311615 1.667235 0.006135 0.005777 -38379.400000 0 1 0
5.302965 21.343894 -1.337774 22.033449 1.327274 1.631549 -0.003596 -0.003686 -12158.600000 0 1 0
4.900565 22.067894 -0.174074 22.606144 1.352275 1.578497 0.011511 0.002357 161909.000000 0 1 0
4.316365 21.100994 0.920626 21.557609 1.369023 1.528078 0.002344 -0.006301 38262.300000 0 1 0
3.849465 21.809894 2.025726 22.239456 1.396095 1.479583 0.015771 -0.006832 234861.000000 0 1 0
3.326365 20.894694 3.015226 21.371582 1.412924 1.429238 0.015404 -0.008737 211399.000000 0 1 0
2.290165 21.369694 4.071626 21.874341 1.464035 1.383567 0.009568 -0.015101 -944685.000000 0 1 0
0.997965 21.491994 3.631526 21.819480 1.524395 1.403583 0.006101 -0.016435 -950422.000000 0 1 0
0.151265 21.942494 4.707126 22.442213 1.563903 1.359483 0.010243 -0.019548 -199506.000000 0 1 0
-1.248535 22.282694 4.243726 22.717537 -1.514823 1.382888 0.002829 -0.009273 -778891.000000 0 1 0
-2.152635 22.709794 5.236826 23.404976 -1.476290 1.345138 0.015754 -0.015379 -232825.000000 0 1 0
-3.412035 22.754894 4.597926 23.464187 -1.421958 1.373565 0.028765 -0.020933 306367.000000 0 1 0
-4.696335 23.031494 5.416826 24.121510 -1.369645 1.344301 0.038393 -0.028519 214655.000000 0 1 0
-4.830135 24.315594 5.902526 25.483683 -1.374705 1.337054 0.054516 -0.024612 441867.000000 0 0 1
-6.005935 24.503194 6.712026 26.106111 -1.330427 1.310770 0.057870 -0.027322 806007.000000 0 0 1
-6.492735 25.955994 7.032526 27.664519 -1.325682 1.313768 0.063306 -0.027618 -12831.400000 0 0 1
-5.460735 26.680994 7.670726 28.293729 -1.368917 1.296250 0.053260 -0.028716 69385.400000 0 0 1
-5.862835 27.957894 8.208926 29.722098 -1.364089 1.290969 0.063639 -0.031485 74794.400000 0 0 1
-6.365135 29.077294 7.221726 30.629353 -1.355292 1.332777 0.060586 -0.031947 832328.000000 0 0 1
-7.627035 28.837194 6.587126 30.547433 -1.312231 1.353453 0.061369 -0.033689 -31919.100000 0 0 1
-7.844535 29.867894 5.621326 31.388328 -1.313956 1.390735 0.073465 -0.029077 -1352920.000000 0 0 1
-9.299635 30.170194 5.433226 32.035039 -1.271798 1.400370 0.095725 -0.030803 -1235600.000000 0 0 1
-9.970935 30.739994 6.495626 32.963008 -1.257140 1.372440 0.076646 -0.023099 -437862.000000 0 0 1
-10.496435 29.737194 7.377426 32.386760 -1.231475 1.340987 0.062894 -0.021102 -781976.000000 0 0 1
-11.370035 30.289394 8.486526 33.447664 -1.211692 1.314266 0.047837 -0.019438 7632.340000 0 0 1
-10.676735 31.029994 9.469326 34.154375 -1.239407 1.289865 0.048686 -0.020439 537912.000000 0 0 1
-11.667335 31.494294 10.389326 35.156157 -1.216013 1.270797 0.046205 -0.013041 536719.000000 0 0 1
-10.920435 32.022394 11.602226 35.767321 -1.242139 1.240439 0.037671 -0.012074 -26892.200000 0 0 1
-10.405435 33.342694 11.413326 36.746052 -1.268298 1.254972 0.040324 -0.011225 492733.000000 0 0 1
-9.356635 33.551994 12.375226 36.965242 -1.298836 1.229425 0.034680 -0.016565 538406.000000 0 0 1
-8.997135 -33.365823 12.504626 36.750405 1.307410 1.223605 0.036340 -0.017257 189915.000000 0 0 1
-9.967635 -32.582223 13.193226 36.537874 1.273915 1.201367 0.042579 -0.014544 88776.400000 0 0 1
-9.567235 -31.215723 13.281126 35.246868 1.273398 1.184454 0.044334 -0.016475 -129761.000000 0 0 1
-10.476235 -30.348523 14.128326 35.076972 1.238406 1.156244 0.048997 -0.015489 -497543.000000 0 0 1
-10.519235 -30.526423 15.542126 35.833986 1.238945 1.122173 0.053770 -0.029971 -262739.000000 0 0 1
-9.374435 -30.257123 16.294426 35.621368 1.270350 1.095689 0.057366 -0.027207 -327462.000000 0 0 1
-9.732535 -30.577023 17.732526 36.662230 1.262640 1.065950 0.056933 -0.036443 -205157.000000 0 0 1
-10.686235 -29.700923 18.222126 36.447035 1.225422 1.047242 0.090515 -0.039792 198460.000000 0 0 1
-11.369435 -30.209423 19.421726 37.670635 1.210839 1.029127 0.091559 -0.041035 409922.000000 0 0 1
-11.484235 -29.271723 20.637026 37.611279 1.196918 0.989997 0.109606 -0.051892 499556.000000 0 0 1
-10.237435 -29.238323 21.323926 37.608436 1.233999 0.967939 0.090871 -0.044071 537116.000000 0 0 1
-10.392435 -28.390723 22.435026 37.647925 1.219895 0.932390 0.074833 -0.040426 193183.000000 0 0 1
-9.192735 -28.368523 23.409726 37.911671 1.257427 0.905260 0.079457 -0.039094 85165.400000 0 0 1
-9.011435 -29.636723 24.079026 39.234434 1.275616 0.910030 0.086854 -0.025019 359420.000000 0 0 1
-7.980435 -29.575823 25.069626 39.584123 1.307243 0.884954 0.085146 -0.026375 298191.000000 0 0 1
-7.886835 -30.717323 26.089326 41.065911 1.319470 0.882395 0.087964 -0.026278 -298217.000000 0 0 1
-7.536335 -31.943123 25.582626 41.612861 1.339103 0.908693 0.101145 -0.020354 222300.000000 0 0 1
-7.566235 -32.965123 26.569226 43.010127 1.345182 0.904926 0.091508 -0.014327 -277733.000000 0 0 1
-7.557135 34.020294 25.973526 43.463947 -1.352209 0.930307 0.073400 -0.012275 -540627.000000 0 0 1
-6.307235 33.582194 25.529226 42.653093 -1.385144 0.929129 0.072848 -0.005292 -375986.000000 0 0 1
-6.239535 32.326094 24.831826 41.237455 -1.380123 0.924584 0.068699 -0.003501 -241028.000000 0 0 1
-7.101235 32.107594 23.553426 40.448597 -1.353130 0.949235 0.060142 -0.001495 -463311.000000 0 0 1
-8.157735 31.267894 23.885826 40.184108 -1.315587 0.934265 0.056220 -0.004280 -953346.000000 0 0 1
-9.080135 31.329194 22.843026 39.821741 -1.288696 0.959863 0.045237 0.001857 -218164.000000 0 0 1
-10.087735 30.167494 22.851926 39.166958 -1.248094 0.947827 0.047824 -0.013802 -24069.100000 0 0 1
-9.486235 29.032994 22.280726 37.806536 -1.254992 0.940560 0.040763 -0.009155 -348016.000000 0 0 1
-10.164135 27.828194 22.446426 37.169343 -1.220604 0.922416 0.026668 -0.011420 -1071420.000000 0 0 1
-9.495735 26.541094 21.953626 35.728985 -1.227212 0.909109 0.024898 -0.016391 -704623.000000 0 0 1
-8.388935 26.301794 22.777526 35.790701 -1.262047 0.880962 0.027828 -0.017823 -262886.000000 0 0 1
-7.847135 25.011394 22.611726 34.618456 -1.266780 0.859033 0.038940 -0.020909 268959.000000 0 0 1
-6.469035 24.755494 23.287826 34.597771 -1.315195 0.832401 0.042943 -0.019253 185095.000000 0 0 1
-5.410335 25.422794 22.655826 34.480090 -1.361110 0.853871 0.033734 -0.011606 -575932.000000 0 0 1
-4.200235 24.954494 23.172226 34.312108 -1.404044 0.829375 0.057282 -0.009307 -856082.000000 0 0 1
-2.902035 25.416894 22.538326 34.094229 -1.457111 0.848566 0.049400 -0.005604 -408424.000000 0 0 1
-2.600035 24.708594 21.338626 32.750752 -1.465954 0.861176 0.046179 -0.005224 463516.000000 0 0 1
-1.539735 25.227394 20.530126 32.561914 -1.509838 0.888605 0.050862 -0.002351 415937.000000 0 0 1
-1.030535 24.279994 19.397626 31.094179 -1.528378 0.897157 0.043278 -0.008065 18785.200000 0 0 1
-0.017435 23.387594 19.874126 30.691379 -1.570051 0.866435 0.036761 -0.007545 185034.000000 0 0 1
0.187565 22.488194 18.788126 29.304397 1.562456 0.874818 0.040615 -0.006304 -111207.000000 0 0 1
1.291865 21.442294 19.122526 28.759553 1.510621 0.843422 0.039865 -0.006757 264017.000000 0 0 1
2.593065 21.971494 19.199626 29.293278 1.453320 0.856048 0.025552 -0.008101 -854360.000000 0 0 1
3.513465 21.001594 19.503426 28.875509 1.405036 0.829247 0.027494 -0.010983 -497370.000000 0 0 1
4.965765 21.489294 19.388726 29.366158 1.343702 0.849657 0.027640 -0.017522 -246154.000000 0 0 1
5.933565 20.476594 19.341626 28.785353 1.288748 0.833990 0.043216 -0.019316 145524.000000 0 0 1
7.154965 21.047694 18.866626 29.157306 1.243111 0.867070 0.057513 -0.018570 241360.000000 0 0 1
8.285365 20.055394 18.537926 28.539810 1.179028 0.863809 0.057447 -0.010977 -147228.000000 0 0 1
8.910165 19.519194 19.656826 29.099498 1.142565 0.829148 0.072678 -0.017591 189479.000000 0 0 1
9.935365 18.564694 19.354626 28.600015 1.079406 0.827478 0.059324 -0.017177 403706.000000 0 0 1
10.487365 17.913094 20.648726 29.278552 1.041138 0.788019 0.067337 -0.025391 -674201.000000 0 0 1
9.577465 17.035294 21.193726 28.828858 1.058625 0.744899 0.073684 -0.030552 -506569.000000 0 0 1
10.019165 16.337994 22.396526 29.477416 1.020696 0.707813 0.079074 -0.038608 150434.000000 0 0 1
9.095265 15.126794 22.805126 28.837779 1.029445 0.658669 0.061020 -0.039456 486665.000000 0 0 1
7.817465 15.499894 23.312526 29.066017 1.103670 0.640069 0.059192 -0.026443 231067.000000 0 0 1
6.957165 14.409694 23.621526 28.530999 1.120994 0.595399 0.048568 -0.021674 188524.000000 0 0 1
7.313365 13.458894 24.808826 29.156560 1.073046 0.553132 0.056164 -0.020543 -511870.000000 0 0 1
7.344765 14.109094 26.071426 30.540651 1.090829 0.547818 0.055484 -0.028400 98141.400000 0 0 1
7.746065 13.224794 27.108926 31.141460 1.040941 0.514560 0.061073 -0.024338 -288364.000000 0 0 1
8.829265 13.883694 28.057326 32.525781 1.004365 0.530374 0.031915 -0.015539 531084.000000 0 0 1
10.105565 13.909494 27.429326 32.372278 0.942491 0.559898 0.063127 -0.015974 149130.000000 0 0 1
10.410965 15.183394 26.861826 32.565032 0.969745 0.600829 0.058553 -0.020511 527447.000000 0 0 1
11.682865 14.949394 25.937526 32.136100 0.907442 0.631547 0.069305 -0.023981 912557.000000 0 0 1
11.364565 14.219494 24.762526 30.733207 0.896529 0.633897 0.071255 -0.032540 1096070.000000 0 0 1
12.607165 13.734094 24.168726 30.523651 0.828154 0.657041 0.086068 -0.032968 523514.000000 0 0 1
12.349565 12.757494 23.036626 29.085246 0.801644 0.656656 0.066788 -0.031837 86890.000000 0 0 1
11.975865 11.429994 23.545226 28.782699 0.762080 0.612812 0.067028 -0.023608 -507818.000000 0 0 1
10.680865 11.390594 24.038626 28.664997 0.817543 0.576078 0.070977 -0.022784 -1471420.000000 0 0 1
10.316465 10.052194 24.729626 28.618708 0.772424 0.527423 0.059839 -0.010159 -38706.600000 0 0 1
10.200965 9.064194 23.773626 27.411760 0.726460 0.521087 0.063726 -0.009709 75297.000000 0 0 1
10.010665 7.852294 24.486126 27.594244 0.665152 0.479201 0.059891 -0.011052 -108480.000000 0 0 1
10.394065 6.665994 23.688926 26.713990 0.570254 0.480506 0.071227 -0.009161 687335.000000 0 0 1
11.809365 6.442894 23.575926 27.143991 0.499440 0.518526 0.075323 -0.009772 935619.000000 0 0 1
12.107865 5.351294 22.685526 26.265373 0.416155 0.528222 0.085537 -0.019548 -87716.900000 0 0 1
11.929965 3.879394 23.174026 26.351646 0.314395 0.496165 0.083640 -0.021771 81498.900000 0 0 1
12.933265 3.283194 24.010526 27.469147 0.248605 0.507236 0.083520 -0.019348 254537.000000 0 0 1
12.623765 1.962194 24.387626 27.531181 0.154203 0.482542 0.074543 -0.018692 238699.000000 0 0 1
13.797965 1.349794 25.258326 28.812997 0.097515 0.501984 0.049710 -0.016192 991987.000000 0 0 1
14.860365 0.894694 24.438026 28.615521 0.060134 0.547146 0.060702 -0.025439 37538.500000 0 0 1
16.125265 1.507594 24.577826 29.434105 0.093222 0.582642 0.062616 -0.026628 -515701.000000 0 0 1
17.123165 0.818894 23.687426 29.239827 0.047787 0.626460 0.056992 -0.032698 -779738.000000 0 0 1
17.271265 -0.520306 24.129926 29.678622 -0.030116 0.621440 0.057942 -0.036432 52408.400000 0 0 1
18.086765 -1.255006 23.236126 29.472422 -0.069277 0.662589 0.051652 -0.018645 -96482.800000 0 0 1
18.240465 -2.802306 23.398926 29.800624 -0.152439 0.667806 0.051121 -0.013540 -161053.000000 0 0 1
17.163965 -3.585206 22.970826 28.898343 -0.205919 0.651980 0.050138 -0.004124 39837.100000 0 0 1
17.601765 -4.922606 23.259826 29.581644 -0.272699 0.666011 0.056350 0.001006 495159.000000 0 0 1
16.781965 -6.150706 22.712826 28.902214 -0.351304 0.666726 0.060994 -0.000932 100592.000000 0 0 1
16.759465 -6.220706 21.323126 27.825394 -0.355414 0.697705 0.049634 -0.003458 -133111.000000 0 0 1
16.020865 -7.283706 20.779126 27.230361 -0.426705 0.702721 0.063937 -0.005183 -355041.000000 0 0 1
16.487465 -8.725106 20.959626 28.058330 -0.486731 0.727255 0.069710 -0.002756 -116959.000000 0 0 1
16.327565 -9.253806 22.245126 29.104431 -0.515619 0.700809 0.060115 0.001354 440587.000000 0 0 1
17.168465 -10.423606 22.413726 30.096227 -0.545651 0.730658 0.052942 0.001285 396423.000000 0 0 1
16.925865 -11.254306 23.684626 31.210668 -0.586791 0.709231 0.061331 0.000158 -446845.000000 0 0 1
15.641365 -11.796506 23.622226 30.689076 -0.646175 0.692382 0.077232 -0.002992 -329920.000000 0 0 1
15.489065 -12.755006 24.647126 31.781789 -0.688898 0.683272 0.073548 0.001430 121607.000000 0 0 1
14.289365 -13.673506 24.318126 31.345207 -0.763378 0.682788 0.084504 -0.002808 -261337.000000 0 0 1
14.373865 -14.443006 23.076426 30.785221 -0.787798 0.723347 0.085668 -0.010312 1022730.000000 0 0 1
13.243165 -15.347106 22.942126 30.614641 -0.858855 0.723665 0.081659 -0.012795 652658.000000 0 0 1
13.450565 -16.316406 21.759526 30.341717 -0.881378 0.771094 0.072033 -0.019598 -91036.600000 0 0 1
14.482065 -17.236806 22.042026 31.506961 -0.872029 0.795970 0.081865 -0.027161 152726.000000 0 0 1
14.558065 -18.225706 21.055526 31.423698 -0.896809 0.836517 0.070183 -0.021840 -107236.000000 0 0 1
-24.726135 -32.415023 26.425901 48.584399 0.919154 0.995698 -0.002117 -0.012381 -425630.000000 0 0 1
-24.288735 -33.722223 26.469651 49.272441 0.946603 1.003670 0.015018 -0.007188 127682.000000 0 0 1
-25.127685 33.770894 27.142881 50.086024 -0.931105 0.998070 0.019435 -0.017755 -224958.000000 0 0 1
-25.324595 33.782094 28.644901 51.020539 -0.927522 0.974673 0.009433 -0.010110 137576.000000 0 0 1
-26.263525 -33.641723 29.079131 51.644305 0.907945 0.972706 0.044960 -0.017373 454179.000000 0 0 1
-26.412455 -33.657323 30.473081 52.526583 0.905426 0.951889 0.022749 -0.016358 193626.000000 0 0 1
-27.708445 -32.933023 30.978401 53.028326 0.871341 0.946920 0.012945 -0.019129 57404.600000 0 0 1
-27.635555 -31.522923 30.797861 52.018525 0.851015 0.937189 0.002210 -0.010047 205904.000000 0 0 1
-28.710175 -30.839123 31.416241 52.557644 0.821134 0.930107 0.005734 0.003630 -73343.800000 0 0 1
-28.816945 -29.363223 31.006041 51.516889 0.794787 0.924966 -0.003181 0.003693 65494.600000 0 0 1
-29.548215 -29.232123 29.775041 51.128927 0.780021 0.949177 0.003418 0.002038 375959.000000 0 0 1
-30.112615 -27.958123 29.574441 50.626810 0.748314 0.946945 0.009728 0.010980 121543.000000 0 0 1
-30.815315 -27.839323 28.167741 50.180008 0.734704 0.974800 0.005062 0.001392 100237.000000 0 0 1
-29.960675 -27.507023 27.075861 48.860830 0.742728 0.983464 0.008204 0.005976 174797.000000 0 0 1
-29.506885 -26.186823 27.036351 47.826460 0.725856 0.969998 -0.001317 0.005485 -90215.100000 0 0 1
-28.510145 -25.874723 25.885701 46.393957 0.736977 0.978878 0.022840 0.009600 -19955.900000 0 0 1
-29.009395 -26.041423 24.574941 46.082844 0.731537 1.008326 0.004131 0.007927 852057.000000 0 0 1
-27.917035 -25.964423 23.624191 44.851026 0.749175 1.016052 0.025777 0.011698 839717.000000 0 0 1
-28.409035 -26.117323 22.139861 44.490014 0.743393 1.049924 0.006907 0.015816 574641.000000 0 0 1
-29.270155 -25.100623 21.581361 44.187537 0.708861 1.060537 0.011717 0.005130 614395.000000 0 0 1
-29.825175 -25.541423 20.342661 44.223628 0.708181 1.092806 0.007632 0.011971 -85330.000000 0 0 1
-30.387655 -24.356823 19.529961 43.567004 0.675677 1.105963 0.024998 0.004302 428556.000000 0 0 1
-31.663865 -23.977323 20.077361 44.504077 0.648122 1.102759 0.043621 -0.002166 652300.000000 0 0 1
-32.195145 -22.866423 19.356961 43.978320 0.617568 1.115033 0.064548 -0.009778 -642214.000000 0 0 1
-33.685585 -22.600323 19.505661 45.010711 0.590941 1.122583 0.057810 0.001661 -1067520.000000 0 0 1
-34.424306 -23.614623 18.882261 45.817280 0.601259 1.146016 0.052941 -0.016557 -220648.000000 0 0 1
-35.795508 -23.293123 18.887861 46.697316 0.576887 1.154392 0.040711 -0.011501 -212136.000000 0 0 1
35.970400 -24.276323 18.234161 47.071161 -0.593679 1.173014 0.046957 -0.009928 -133481.000000 0 0 1
35.785050 -25.535823 18.831361 47.825393 -0.619788 1.166086 0.031763 -0.004397 -255788.000000 0 0 1
35.009900 -26.302223 17.958261 47.328630 -0.644320 1.181608 0.048098 0.001186 -168046.000000 0 0 1
34.669970 -27.715623 18.464361 48.073852 -0.674383 1.176582 0.044236 0.014203 161373.000000 0 0 1
33.583910 -27.721523 19.377261 47.663824 -0.690062 1.152132 0.035126 0.009145 -58551.300000 0 0 1
33.925170 -27.248923 20.648761 48.164222 -0.676693 1.127726 0.032186 0.007273 -71741.900000 0 0 1
32.720420 -27.313323 21.652561 47.806662 -0.695573 1.100759 0.026911 0.001282 282237.000000 0 0 1
31.685280 -26.433023 21.321161 46.446244 -0.695271 1.093870 0.027093 0.000804 -633773.000000 0 0 1
30.902400 -26.090623 22.423861 46.244010 -0.701170 1.064544 0.030450 0.001754 177146.000000 0 0 1
29.791430 -25.049923 21.952061 44.686921 -0.699154 1.057282 0.040303 0.001653 269038.000000 0 0 1
30.135860 -23.730223 21.500261 43.972205 -0.667036 1.059909 0.029149 0.006018 -57010.200000 0 0 1
31.034200 -23.006523 22.332361 44.622371 -0.637928 1.046649 0.040831 -0.001739 8105.110000 0 0 1
31.739900 -21.856623 21.582961 44.169644 -0.603045 1.060268 0.038173 0.002817 79069.700000 0 0 1
30.822010 -20.849923 21.251861 42.852738 -0.594753 1.051893 0.039709 -0.005524 55538.200000 0 0 1
31.548620 -19.852623 20.609061 42.593139 -0.561665 1.065738 0.040580 -0.008161 56633.700000 0 0 1
30.779650 -18.496023 20.710961 41.453994 -0.541094 1.047644 0.031274 -0.003710 226342.000000 0 0 1
30.652840 -18.050323 22.065461 41.860427 -0.532190 1.015589 0.028917 -0.001354 -487502.000000 0 0 1
29.724340 -18.612923 22.903961 41.887572 -0.559451 0.992264 0.044415 -0.001076 -873980.000000 0 0 1
29.879400 -17.998723 24.368471 42.550616 -0.542167 0.961008 0.036390 0.000489 55179.700000 0 0 1
29.543270 -16.641623 24.454601 41.806410 -0.512994 0.945980 0.039321 -0.006243 121728.000000 0 0 1
29.928500 -16.166323 25.731221 42.651622 -0.495261 0.923179 0.035407 -0.004572 -2178.170000 0 0 1
29.437790 -14.716423 26.035031 41.964025 -0.463580 0.901527 0.043248 -0.015107 226256.000000 0 0 1
28.031860 -14.666023 26.276141 41.125576 -0.482028 0.877697 0.050479 -0.014641 582571.000000 0 0 1
27.563370 -13.359523 26.717021 40.644993 -0.451320 0.853531 0.040002 -0.018723 92941.200000 0 0 1
27.929960 -12.073623 25.922101 39.972620 -0.408023 0.865189 0.050829 -0.020508 -652444.000000 0 0 1
27.385370 -11.865723 24.619511 38.689459 -0.408869 0.881057 0.043905 -0.010063 71738.700000 0 0 1
28.165980 -11.022723 23.777301 38.473145 -0.373026 0.904570 0.044114 -0.004459 286223.000000 0 0 1
29.185070 -11.853423 22.930461 38.962520 -0.385794 0.941562 0.048915 -0.014576 148999.000000 0 0 1
28.586370 -12.700823 21.963261 38.221411 -0.418101 0.958641 0.048196 -0.012666 75251.100000 0 0 1
28.774690 -14.073223 22.277461 39.016966 -0.454876 0.963111 0.045497 -0.015017 -111658.000000 0 0 1
28.367400 -15.011223 21.123561 38.422012 -0.486712 0.988698 0.044820 -0.011323 -290521.000000 0 0 1
28.974460 -14.836023 19.903761 38.154772 -0.473232 1.022003 0.038053 -0.008179 -235948.000000 0 0 1
28.505230 -15.896223 19.075061 37.803386 -0.508705 1.041894 0.039173 -0.011791 188726.000000 0 0 1
28.838490 -15.589123 17.576961 37.197161 -0.495572 1.078631 0.037159 -0.009638 -222228.000000 0 0 1
28.718210 -16.656123 16.628161 37.130281 -0.525572 1.106456 0.037269 -0.016226 701268.000000 0 0 1
27.373870 -17.027923 16.261961 36.107206 -0.556475 1.103605 0.045509 -0.012121 870860.000000 0 0 1
26.578370 -16.010623 15.344861 34.615236 -0.542177 1.111522 0.041173 -0.007666 -280097.000000 0 0 1
26.832770 -16.213023 13.955461 34.316389 -0.543520 1.151990 0.048102 -0.017764 228387.000000 0 0 1
26.139570 -17.343223 13.484061 34.145050 -0.585797 1.164832 0.037037 -0.018925 -303565.000000 0 0 1
26.463970 -17.648123 11.980261 33.990066 -0.588146 1.210594 0.026699 -0.016922 -297083.000000 0 0 1
25.738470 -16.853123 11.060861 32.693107 -0.579731 1.225661 0.034168 -0.016233 41601.000000 0 0 1
25.498570 -17.461923 9.760961 32.409446 -0.600465 1.264870 0.036526 -0.022391 -176703.000000 0 0 1
26.758070 -17.832623 8.953361 33.379027 -0.587845 1.299238 0.047825 -0.012630 439277.000000 0 0 1
27.580070 -18.810623 9.586461 34.733270 -0.598568 1.291164 0.045202 -0.007338 -67149.300000 0 0 1
28.957420 -18.788623 9.253761 35.737608 -0.575557 1.308876 0.057800 -0.007350 346442.000000 0 0 1
29.748860 -19.594623 10.337661 37.091928 -0.582445 1.288352 0.070357 -0.024742 -149390.000000 0 0 1
29.762490 -18.953323 11.581161 37.137011 -0.567053 1.253657 0.063614 -0.031911 222437.000000 0 0 1
30.305580 -19.803423 12.601661 38.332827 -0.578802 1.235824 0.044077 -0.029349 -18321.600000 0 0 1
30.083120 -19.322423 14.071861 38.423527 -0.570944 1.195842 0.055173 -0.024862 -34901.600000 0 0 1
29.912440 -20.348623 15.016561 39.170367 -0.597363 1.177359 0.050264 -0.017751 -46080.800000 0 0 1
29.806270 -19.740123 16.272161 39.279376 -0.584960 1.143659 0.055651 -0.018651 -222381.000000 0 0 1
29.583870 -20.666123 17.453661 40.086460 -0.609759 1.120313 0.032797 -0.009626 -67606.900000 0 0 1
28.298300 -21.232823 17.531561 39.483949 -0.643707 1.110719 0.009881 -0.002351 -141865.000000 0 0 1
28.204890 -22.157223 18.570661 40.389699 -0.665887 1.093041 0.029872 -0.005687 830913.000000 0 0 1
26.867970 -22.975823 18.352061 39.831827 -0.707469 1.091969 0.025373 0.003588 1070300.000000 0 0 1
25.688570 -22.276623 18.726661 38.818016 -0.714384 1.067379 0.039728 -0.000879 -592865.000000 0 0 1
24.596970 -23.122823 18.646761 38.566535 -0.754516 1.066152 0.052438 -0.001649 -1208350.000000 0 0 1
23.469670 -22.523223 19.460761 37.905702 -0.764823 1.031655 0.050452 -0.005707 -1066320.000000 0 0 1
22.920470 -21.381323 18.830161 36.566158 -0.750670 1.029834 0.045780 -0.006430 -69525.600000 0 0 1
21.777370 -20.817423 19.422461 35.844818 -0.762865 0.998161 0.057607 -0.009413 -10351.400000 0 0 1
21.944070 -20.307423 20.901161 36.480024 -0.746682 0.960698 0.041253 -0.011045 -639728.000000 0 0 1
22.087570 -21.373423 21.830061 37.699278 -0.768968 0.953224 0.056140 -0.014892 -6925.550000 0 0 1
22.584370 -20.841223 23.049161 38.414505 -0.745279 0.927280 0.051143 -0.012489 33742.000000 0 0 1
22.824970 -21.920723 24.166441 39.818516 -0.765192 0.918624 0.058314 -0.014836 -566330.000000 0 0 1
21.703170 -22.486223 24.762631 39.872870 -0.803117 0.900728 0.063497 -0.016054 -493240.000000 0 0 1
22.012670 -23.381223 25.840381 41.218498 -0.815537 0.893213 0.068435 -0.014831 117292.000000 0 0 1
20.761670 -23.987623 26.543801 41.364555 -0.857363 0.874078 0.074816 -0.018549 105137.000000 0 0 1
20.008770 -24.867223 25.757931 41.014640 -0.893242 0.891793 0.066066 -0.010895 -169844.000000 0 0 1
18.971070 -25.459223 26.492031 41.350952 -0.930403 0.875435 0.064139 -0.013382 -432607.000000 0 0 1
18.319170 -26.557923 25.713211 41.256327 -0.966961 0.897898 0.070777 -0.010189 -601037.000000 0 0 1
17.594570 -26.130423 24.606611 39.973156 -0.978190 0.907677 0.064720 -0.019262 -19808.300000 0 0 1
17.244370 -27.171823 23.705321 39.970221 -1.005294 0.935924 0.060272 -0.021149 -699626.000000 0 0 1
16.191170 -26.714723 22.722761 38.628413 -1.025921 0.941916 0.052965 -0.021827 -576105.000000 0 0 1
14.962070 -26.368623 23.331661 38.256166 -1.054678 0.914887 0.034304 -0.018405 -43156.800000 0 0 1
14.255270 -25.606023 22.363261 36.864571 -1.062812 0.918978 0.013477 -0.020423 -138241.000000 0 0 1
12.862870 -25.007523 22.626061 36.093882 -1.095727 0.893271 0.012313 -0.018686 274666.000000 0 0 1
11.850170 -26.001523 22.661561 36.469879 -1.143172 0.900297 0.014723 -0.017780 -350595.000000 0 0 1
10.613770 -25.474923 23.064761 35.966749 -1.176031 0.874631 0.021101 -0.017831 -398893.000000 0 0 1
9.524070 -26.534323 22.940561 36.346218 -1.226185 0.887738 0.032312 -0.016421 -624739.000000 0 0 1
9.393670 -27.076823 21.613561 35.896259 -1.236862 0.924653 0.034428 -0.020435 -392674.000000 0 0 1
8.045070 -27.409123 21.472161 35.735653 -1.285297 0.926218 0.040012 -0.018575 -475860.000000 0 0 1
7.786770 -28.115423 20.135661 35.447929 -1.300611 0.966680 0.046507 -0.016899 -74959.300000 0 0 1
8.063670 -29.478523 20.229261 36.650090 -1.303784 0.986087 0.054319 -0.023059 95076.400000 0 0 1
7.783770 -30.073423 18.981861 36.404793 -1.317529 1.022293 0.047629 -0.021529 -2896.540000 0 0 1
8.332470 -31.493723 18.835861 37.630763 -1.312147 1.046569 0.040339 -0.011308 -79996.600000 0 0 1
7.749870 -32.381023 19.737861 38.706257 -1.335881 1.035682 0.039173 -0.014916 376688.000000 0 0 1
8.593670 -33.538523 19.859261 39.913331 -1.319960 1.050013 0.037522 -0.011434 123653.000000 0 0 1
8.258570 33.770994 20.891761 40.560445 1.330957 1.029699 0.050450 -0.018117 252505.000000 0 0 1
7.227870 32.931294 20.337661 39.374264 1.354739 1.028013 0.041881 -0.019786 329134.000000 0 0 1
6.915770 31.958594 21.288161 39.017501 1.357685 0.993685 0.044893 -0.027475 75515.800000 0 0 1
6.074270 30.743294 20.868761 37.650392 1.375728 0.983302 0.031085 -0.019067 -855300.000000 0 0 1
4.701070 30.841094 20.934961 37.570543 1.419532 0.979765 0.054452 -0.020443 -1181890.000000 0 0 1
4.153070 29.554194 20.744161 36.345819 1.431187 0.963385 0.057325 -0.013217 44290.500000 0 0 1
2.764370 29.412694 21.394961 36.475919 1.477086 0.944003 0.058587 -0.009458 -132022.000000 0 0 1
2.744970 28.917294 22.737261 36.888044 1.476155 0.906652 0.042801 -0.015965 332424.000000 0 0 1
1.394270 28.837994 23.184461 37.028274 1.522486 0.894218 0.049298 -0.006556 427624.000000 0 0 1
1.236570 28.339294 24.626161 37.564511 1.527190 0.855859 0.048886 -0.010513 -237416.000000 0 0 1
1.374570 29.369494 25.600401 38.985089 1.524028 0.854399 0.050982 -0.012966 93373.500000 0 0 1
1.102870 28.993194 26.937961 39.591355 1.532776 0.822488 0.049634 -0.011409 -205990.000000 0 0 1
2.244270 28.251794 27.658991 39.600763 1.491525 0.797573 0.032248 -0.011885 -293824.000000 0 0 1
2.555370 27.054994 27.032531 38.330932 1.476625 0.788034 0.028882 -0.013159 -4379.110000 0 0 1
3.420170 26.296094 27.838891 38.447184 1.441459 0.761095 0.003968 0.000503 -320713.000000 0 0 1
3.977770 25.017094 27.170871 37.147461 1.413114 0.750376 -0.004851 0.014961 -619428.000000 0 0 1
3.017170 24.080794 26.808361 36.161805 1.446152 0.735725 0.005584 0.015398 -196727.000000 0 0 1
3.673670 22.845194 26.462051 35.151655 1.411354 0.718496 -0.000706 0.019442 311001.000000 0 0 1
2.646470 21.755594 26.119021 34.095644 1.449746 0.698121 0.009769 0.018994 -89618.400000 0 0 1
3.045370 20.443794 26.442481 33.562297 1.422921 0.663466 0.022668 0.020083 -139805.000000 0 0 1
3.576870 19.738294 25.361941 32.336084 1.391527 0.669192 0.034144 0.008406 -335720.000000 0 0 1
3.911670 18.277794 25.776751 31.840537 1.359965 0.627398 0.034493 -0.005186 356317.000000 0 0 1
5.075270 18.000694 26.588241 32.507198 1.295982 0.613012 0.033957 -0.003020 427970.000000 0 0 1
6.140770 17.547494 25.797021 31.797954 1.234165 0.624459 0.054500 -0.005509 -691091.000000 0 0 1
7.408370 17.227694 26.633521 32.573330 1.164676 0.613482 0.033665 -0.006284 18191.300000 0 0 1
8.035470 18.245594 27.372381 33.863221 1.155949 0.629500 0.045243 0.003168 196580.000000 0 0 1
8.449470 19.423294 26.733511 34.107748 1.160472 0.670042 0.038137 -0.011230 -506704.000000 0 0 1
8.861270 20.604994 27.551711 35.527238 1.164652 0.683275 0.030258 -0.004823 122490.000000 0 0 1
9.956870 20.454994 28.443651 36.422346 1.117789 0.674628 0.040709 -0.019062 164548.000000 0 0 1
10.166970 21.589394 29.273641 37.767913 1.130679 0.683934 0.064841 -0.021266 -172124.000000 0 0 1
11.352370 21.478994 30.211451 38.767967 1.084583 0.677266 0.090710 -0.021372 74228.700000 0 0 1
12.675770 21.501994 29.693191 38.790417 1.038121 0.699013 0.079038 -0.022847 384928.000000 0 0 1
13.559170 21.067794 30.765281 39.676259 0.998935 0.683436 0.074308 -0.010054 1091570.000000 0 0 1
15.044170 21.027694 30.269241 39.808516 0.949779 0.706912 0.047414 -0.020412 642037.000000 0 0 1
15.556870 22.297294 29.898071 40.411387 0.961614 0.737960 0.034963 -0.033097 -451063.000000 0 0 1
16.897870 22.154894 29.516301 40.590508 0.919207 0.756602 0.070958 -0.020343 -209607.000000 0 0 1
-8.919135 16.775994 4.259926 19.471310 -1.082142 1.350233 0.028943 -0.023033 -117685.000000 0 1 0
-8.601435 18.104894 4.670626 20.581220 -1.127275 1.341866 0.034060 -0.023258 426971.000000 0 1 0
-7.259835 18.253994 5.119726 20.300864 -1.192264 1.315851 0.024280 -0.019820 239288.000000 0 1 0
-7.000535 19.660594 5.734526 21.643272 -1.228725 1.302637 0.026406 -0.020007 -140265.000000 0 1 0
-7.133335 20.830294 4.915826 22.559941 -1.240863 1.351133 0.035276 -0.021560 887751.000000 0 1 0
-8.463935 21.171194 4.457826 23.232087 -1.190475 1.377717 0.037920 -0.023275 984861.000000 0 1 0
-8.430035 22.307594 3.348026 24.081186 -1.209486 1.431314 0.062572 -0.024727 -120744.000000 0 1 0
-7.752735 22.033294 2.174026 23.458417 -1.232461 1.477987 0.041062 -0.021880 -232220.000000 0 1 0
-8.236235 20.896194 1.380126 22.503138 -1.195343 1.509427 0.054897 -0.026353 -1111490.000000 0 1 0
-7.666835 20.803394 -0.053774 22.171253 -1.217703 1.573222 0.033757 -0.014319 703702.000000 0 1 0
-6.341735 20.289594 -0.203974 21.258571 -1.267856 1.580391 0.013055 -0.011963 326378.000000 0 1 0
-5.365535 21.179094 0.295626 21.850180 -1.322676 1.557266 0.019893 -0.016497 -1233040.000000 0 1 0
-3.977635 21.063594 -0.326674 21.438360 -1.384155 1.586035 0.010996 -0.010482 -481539.000000 0 1 0
-3.985935 21.524594 -1.662374 21.953571 -1.387690 1.646591 0.011360 -0.008277 586759.000000 0 1 0
-2.683935 21.361094 -2.239974 21.645261 -1.445805 1.674468 0.003583 -0.003596 382112.000000 0 1 0
-2.609535 21.693194 -3.712474 22.162734 -1.451079 1.739100 0.004392 -0.005587 -651523.000000 0 1 0
-1.375435 22.066794 -4.237074 22.511952 -1.508546 1.760140 0.017140 0.001405 -381281.000000 0 1 0
-1.487535 22.418894 -5.589474 23.153008 -1.504542 1.814620 0.018769 -0.008302 -215268.000000 0 1 0
-0.203635 23.016594 -6.154874 23.826194 -1.561949 1.832083 0.017940 -0.008251 -27677.600000 0 1 0
0.932865 22.183994 -6.279874 23.074588 1.528770 1.846429 0.021890 0.006986 -287824.000000 0 1 0
1.942065 22.749494 -7.052474 23.896620 1.485635 1.870382 0.028174 0.004101 -193756.000000 0 1 0
3.102365 21.721994 -7.170074 23.084186 1.428934 1.886626 0.027888 0.006517 -39126.700000 0 1 0
2.906265 20.742594 -8.181574 22.486434 1.431592 1.943189 0.023725 -0.001462 9544.700000 0 1 0
3.942665 19.776594 -8.192274 21.766295 1.374016 1.956676 0.024747 -0.004346 238693.000000 0 1 0
3.636265 18.668694 -9.161774 21.111150 1.378426 2.019700 0.021158 -0.008582 -341277.000000 0 1 0
3.920865 18.986394 -10.506874 22.051093 1.367150 2.067441 0.027549 -0.016967 -337001.000000 0 1 0
2.852965 18.734494 -11.359774 22.094459 1.419673 2.110808 0.029138 -0.017800 -534418.000000 0 1 0
3.215065 19.053394 -12.829174 23.193882 1.403631 2.156910 0.033892 -0.021069 169544.000000 0 1 0
3.451865 20.433794 -13.045274 24.487435 1.403447 2.132623 0.050269 -0.026078 -54407.400000 0 1 0
3.655765 20.689194 -14.408174 25.475534 1.395902 2.171919 0.068514 -0.028157 -346857.000000 0 0 1
4.175865 22.120494 -14.646174 26.856368 1.384214 2.147605 0.069992 -0.023478 261578.000000 0 0 1
3.198765 23.154994 -14.650174 27.586472 1.433519 2.130652 0.094654 -0.030925 230702.000000 0 0 1
3.774265 24.355794 -15.198374 28.955834 1.417055 2.123372 0.077806 -0.022080 374610.000000 0 0 1
2.632465 25.264994 -15.704674 29.864470 1.466977 2.124528 0.089192 -0.024115 78736.500000 0 0 1
1.829165 25.760094 -14.683174 29.707303 1.499908 2.087781 0.104595 -0.034276 -547012.000000 0 0 1
2.008065 27.178694 -14.451174 30.847206 1.497047 2.058361 0.072588 -0.027168 -947536.000000 0 0 1
1.209665 27.644194 -13.220674 30.666773 1.527066 2.016516 0.074639 -0.031609 103337.000000 0 0 1
-0.192535 27.588594 -13.358374 30.653119 -1.563818 2.021714 0.077176 -0.035589 345631.000000 0 0 1
-0.933235 26.356294 -13.620074 29.682176 -1.535403 2.047512 0.064031 -0.034222 -643476.000000 0 0 1
-0.977735 25.216894 -12.579074 28.197177 -1.532043 2.033212 0.080390 -0.033500 -71231.000000 0 0 1
-1.780135 25.614494 -11.453874 28.115163 -1.501411 1.990392 0.067745 -0.036748 256683.000000 0 0 1
-2.307235 24.459194 -10.827574 26.847939 -1.476745 1.985908 0.078203 -0.026758 -43433.000000 0 0 1
-3.239435 24.679994 -9.640974 26.693527 -1.440285 1.940322 0.048458 -0.022473 -132953.000000 0 0 1
-2.632835 25.023694 -8.379974 26.520577 -1.465968 1.892286 0.055609 -0.022026 38513.400000 0 0 1
-2.197535 26.374494 -8.266174 27.726751 -1.487668 1.873529 0.055795 -0.031923 -99476.200000 0 0 1
-2.108035 26.738894 -6.741074 27.656000 -1.492121 1.817024 0.043841 -0.025163 -135607.000000 0 0 1
-0.981335 26.165094 -6.140174 26.893807 -1.533308 1.801140 0.037405 -0.017812 -296239.000000 0 0 1
-0.765935 26.574494 -4.808274 27.016844 -1.541982 1.749723 0.031951 -0.018870 -57651.000000 0 0 1
-1.572835 25.782994 -3.733374 26.099323 -1.509869 1.714334 0.026419 -0.012139 -1029310.000000 0 0 1
-2.876835 26.185594 -3.581674 26.585520 -1.461372 1.705930 0.022027 -0.013231 -1472230.000000 0 0 1
-3.484135 25.494894 -2.574474 25.860331 -1.434978 1.670515 0.013272 -0.009680 -185863.000000 0 0 1
-4.605235 24.526594 -3.059274 25.142019 -1.385192 1.692778 0.028055 -0.013879 -389656.000000 0 0 1
-5.708135 25.278394 -3.516774 26.152394 -1.348710 1.705677 0.028485 -0.012823 -85933.200000 0 0 1
-6.751735 24.375294 -3.930174 25.596624 -1.300580 1.724949 0.009072 -0.019226 46901.300000 0 0 1
-8.066435 25.088494 -4.187474 26.683981 -1.259716 1.728376 0.035372 -0.010633 -908276.000000 0 0 1
-8.671735 25.548594 -3.016574 27.148284 -1.243577 1.682141 0.049016 -0.014727 -322492.000000 0 0 1
-9.945335 26.078594 -3.387574 28.115448 -1.206461 1.691578 0.068021 -0.014762 847126.000000 0 0 1
-10.837935 26.342294 -2.086574 28.561006 -1.180478 1.643918 0.067504 -0.015685 301619.000000 0 0 1
-11.402135 25.233094 -1.446174 27.727407 -1.146387 1.622977 0.070210 -0.016006 -239000.000000 0 0 1
-10.474235 24.316394 -0.932574 26.492759 -1.164067 1.606005 0.078550 -0.023179 -351229.000000 0 0 1
-11.076935 22.978994 -0.439274 25.513244 -1.121615 1.588015 0.077509 -0.026595 127861.000000 0 0 1
-11.927035 23.090194 0.704726 25.998228 -1.094004 1.543686 0.094815 -0.033449 61329.400000 0 0 1
-12.530735 21.848594 0.880226 25.202285 -1.050071 1.535863 0.091020 -0.036987 -560658.000000 0 0 1
-13.488635 21.758694 2.065726 25.683677 -1.015859 1.490280 0.091087 -0.043915 642.856000 0 0 1
-12.890135 21.685694 3.392026 25.454484 -1.034499 1.437140 0.095269 -0.048958 111104.000000 0 0 1
-12.588035 22.945394 3.920526 26.463565 -1.069022 1.422101 0.086322 -0.043353 -33682.700000 0 0 1
-12.370735 22.863894 5.457826 26.562767 -1.074843 1.363853 0.075671 -0.042335 -350241.000000 0 0 1
-11.094235 22.487794 5.886326 25.757169 -1.112487 1.340227 0.064041 -0.034151 -509638.000000 0 0 1
-11.114535 22.283994 7.310526 25.952901 -1.108135 1.285247 0.042504 -0.030578 -713776.000000 0 0 1
-9.805635 21.836094 7.943426 25.220299 -1.148727 1.250380 0.035112 -0.026697 -726246.000000 0 0 1
-8.923435 22.932894 8.139426 25.919019 -1.199712 1.251358 0.032908 -0.027446 616600.000000 0 0 1
-7.886835 22.666394 9.112826 25.671213 -1.235946 1.207901 0.030739 -0.026397 203229.000000 0 0 1
-8.361535 22.628394 10.593426 26.347299 -1.216843 1.157021 0.024328 -0.029564 -616104.000000 0 0 1
-9.153435 21.531794 10.900226 25.811208 -1.168830 1.134809 0.029658 -0.028283 -386581.000000 0 0 1
-8.901235 20.982594 12.181726 25.843678 -1.169587 1.079962 0.020456 -0.018590 -302673.000000 0 0 1
-9.819135 19.789794 12.545226 25.405394 -1.110216 1.054340 0.020753 -0.016396 -64274.100000 0 0 1
-9.656435 18.575394 11.804926 24.034314 -1.091394 1.057364 0.026542 -0.033371 -217233.000000 0 1 0
-10.570535 17.655494 12.311826 23.979861 -1.031325 1.031627 0.036105 -0.032625 -263521.000000 0 1 0
-10.622435 16.380594 11.472926 22.644823 -0.995493 1.039505 0.040876 -0.041065 -171047.000000 0 1 0
-11.283935 15.289594 12.087326 22.521153 -0.935010 1.004263 0.030801 -0.031827 -45762.200000 0 1 0
-11.530835 14.210594 11.218626 21.465291 -0.889127 1.020851 0.029188 -0.020955 13271.100000 0 1 0
-12.000435 13.040394 12.042726 21.426376 -0.826905 0.973932 0.023303 -0.018554 294729.000000 0 1 0
-13.182435 13.181294 12.828526 22.629498 -0.785355 0.968066 0.042696 -0.011449 394341.000000 0 1 0
-13.545435 11.906194 13.324126 22.422502 -0.721081 0.934488 0.023424 -0.000123 -126600.000000 0 1 0
-14.534235 11.963094 14.489326 23.755003 -0.688667 0.914801 0.028519 -0.002401 -32707.300000 0 1 0
-15.733135 12.652794 14.224326 24.697291 -0.677305 0.957034 0.044623 -0.011926 -245669.000000 0 1 0
-16.421235 13.032194 15.415426 26.021729 -0.670838 0.936754 0.036006 -0.002312 89424.300000 0 0 1
-17.545135 14.061794 15.081026 27.074031 -0.675633 0.979992 0.046166 -0.009070 155475.000000 0 0 1
-18.655835 13.395694 14.513726 27.168604 -0.622733 1.007224 0.058092 -0.013546 -76354.600000 0 0 1
-19.696935 14.339694 14.310626 28.255798 -0.629283 1.039714 0.079681 -0.020288 -303939.000000 0 0 1
-20.880335 13.839894 13.495226 28.454388 -0.585334 1.076655 0.063916 -0.021626 -149777.000000 0 0 1
-21.744235 12.976894 14.250426 29.056603 -0.538061 1.058205 0.059834 -0.013964 74206.500000 0 0 1
-22.906735 12.727794 13.512926 29.484139 -0.507160 1.094702 0.056752 -0.010941 -424395.000000 0 0 1
-23.755035 11.582994 14.088026 29.948955 -0.453680 1.081051 0.071150 -0.018237 -127599.000000 0 0 1
-24.288535 12.024794 15.318226 31.131602 -0.459705 1.056356 0.066329 -0.008558 -9327.310000 0 0 1
-25.223655 11.102094 15.809526 31.771534 -0.414629 1.049966 0.068343 -0.017897 -64165.500000 0 0 1
-25.997965 11.539394 17.109426 33.193136 -0.417734 1.029263 0.061074 -0.011337 280644.000000 0 0 1
-27.021235 12.498694 16.814326 34.191901 -0.433242 1.056683 0.063873 -0.002899 534975.000000 0 0 1
-27.631385 12.900094 18.048626 35.435276 -0.436789 1.036378 0.049685 0.005251 -704499.000000 0 0 1
-28.705265 13.914694 17.878226 36.568319 -0.451368 1.059969 0.029572 0.006139 -852056.000000 0 0 1
-28.274525 15.172094 17.438326 36.520356 -0.492497 1.072994 0.035745 0.010952 1005930.000000 0 0 1
-29.402445 16.103394 17.307526 37.727623 -0.501067 1.094209 0.034023 0.004112 996934.000000 0 0 1
-28.933455 17.538694 17.115526 37.916907 -0.544946 1.102468 0.049704 0.004345 79114.600000 0 0 1
-28.279965 18.232794 18.164926 38.238145 -0.572658 1.075779 0.049286 0.012155 4573.900000 0 0 1
-29.132425 18.496394 19.248626 39.513598 -0.565692 1.061985 0.047109 -0.004793 -878904.000000 0 0 1
-28.424305 18.735794 20.632726 39.808046 -0.582779 1.025928 0.062233 -0.009619 411444.000000 0 0 1
-27.915935 17.556594 21.324226 39.271568 -0.561406 0.996798 0.057476 -0.011672 869279.000000 0 0 1
-26.856135 16.916194 20.543526 37.808016 -0.562102 0.996357 0.070976 0.003949 28880.600000 0 0 1
-26.461875 15.691094 21.417926 37.485582 -0.535234 0.962629 0.060869 -0.007903 38310.500000 0 0 1
-27.541905 14.773294 21.473526 37.919904 -0.492337 0.968803 0.033933 -0.012136 527232.000000 0 0 1
-27.096135 13.462594 21.823626 37.305665 -0.461121 0.945922 0.036653 -0.014101 275952.000000 0 0 1
-28.301845 12.493194 22.070326 38.002285 -0.415702 0.951131 0.039653 -0.022499 70966.900000 0 0 1
-29.119125 12.424394 20.958026 37.967458 -0.403288 0.986036 0.044541 -0.019320 -278581.000000 0 0 1
-30.151325 11.471194 21.127626 38.562511 -0.363544 0.990968 0.062498 -0.023254 -93422.100000 0 0 1
-31.081555 11.320194 19.911626 38.609361 -0.349277 1.028948 0.072286 -0.018351 -48257.300000 0 0 1
-30.422195 10.899794 18.687926 37.330337 -0.344036 1.046493 0.081039 -0.016798 488601.000000 0 0 1
-29.920885 9.567194 18.663226 36.539110 -0.309476 1.034712 0.099580 -0.018263 -78327.100000 0 0 1
-29.143215 9.217794 17.371526 35.157711 -0.306337 1.053994 0.108566 -0.023712 49460.100000 0 0 1
-29.930145 8.994494 16.181426 35.193083 -0.291930 1.093038 0.108653 -0.021234 550483.000000 0 0 1
-30.465765 10.147794 15.559826 35.682612 -0.321530 1.119578 0.098598 -0.014518 -317775.000000 0 0 1
-29.468855 11.014294 14.788126 34.762290 -0.357684 1.131385 0.085872 -0.007877 -230992.000000 0 0 1
-28.989765 10.619594 13.533126 33.709461 -0.351141 1.157682 0.093336 -0.020077 29266.800000 0 0 1
-27.911235 11.431494 13.161826 32.908202 -0.388726 1.159328 0.081536 -0.016789 -210360.000000 0 0 1
-27.489235 11.320994 11.622026 31.920126 -0.390666 1.198133 0.094558 -0.011883 -104253.000000 0 0 1
-26.798465 10.172694 11.174726 30.765499 -0.362797 1.199072 0.109614 -0.010314 365230.000000 0 0 1
-27.623195 9.047094 11.113826 31.119254 -0.316508 1.205596 0.108151 -0.014550 47798.900000 0 0 1
-26.925685 7.798594 10.396226 29.898029 -0.281920 1.215655 0.123560 -0.017662 47720.700000 0 0 1
-26.564255 8.047994 9.082226 29.204738 -0.294173 1.254567 0.112656 -0.010663 411176.000000 0 0 1
-26.185345 6.862694 8.381826 28.337676 -0.256317 1.270520 0.147487 -0.030872 -225651.000000 0 0 1
-25.509725 7.144294 7.029026 27.407923 -0.273066 1.311439 0.133608 -0.016045 -227481.000000 0 0 1
-26.398445 7.615294 6.023426 28.127429 -0.280850 1.354977 0.129662 -0.020976 215542.000000 0 0 1
-25.749465 8.107194 4.865326 27.430511 -0.305023 1.392484 0.130730 -0.016953 -711292.000000 0 0 1
-26.694355 8.546294 3.784426 28.283381 -0.309842 1.436590 0.115600 -0.018702 -656681.000000 0 0 1
-27.455485 7.543794 3.064026 28.637401 -0.268147 1.463597 0.147370 -0.028112 481767.000000 0 0 1
-26.870255 6.358794 2.497926 27.725160 -0.232373 1.480578 0.164236 -0.026700 -226650.000000 0 0 1
-25.899215 6.601294 1.293326 26.758534 -0.249570 1.522444 0.174098 -0.026924 803672.000000 0 0 1
-24.777735 7.448894 1.585926 25.921754 -0.292033 1.509577 0.149739 -0.021336 315627.000000 0 0 1
-23.838235 7.539894 0.561126 25.008525 -0.306338 1.548357 0.158172 -0.013396 -704553.000000 0 0 1
-22.725235 8.446494 1.139226 24.270917 -0.355856 1.523841 0.141965 -0.013117 -491565.000000 0 1 0
-23.116135 9.738794 1.593726 25.134434 -0.398731 1.507346 0.124338 -0.016710 336659.000000 0 0 1
-21.991135 10.430294 2.076626 24.427719 -0.442873 1.485683 0.123749 -0.019701 82711.700000 0 1 0
-22.341635 11.874294 2.490926 25.423458 -0.488519 1.472661 0.114525 -0.024192 -143179.000000 0 0 1
-21.090735 12.444094 2.782226 24.645798 -0.533054 1.457667 0.092718 -0.029265 572152.000000 0 1 0
-21.199335 13.809694 3.333126 25.519193 -0.577374 1.439810 0.063651 -0.031501 -320848.000000 0 0 1
-19.930135 14.190294 4.121226 24.810466 -0.618736 1.403914 0.031397 -0.029488 -32331.100000 0 1 0
-19.668935 13.413894 5.273726 24.384662 -0.598532 1.352802 0.045718 -0.031554 836348.000000 0 1 0
-18.678135 14.104794 6.077626 24.181718 -0.646789 1.316741 0.046495 -0.032671 103777.000000 0 1 0
-18.048435 13.304094 7.234126 23.560083 -0.635215 1.258704 0.031504 -0.028752 -10469.900000 0 1 0
-17.070035 12.372994 6.801826 22.152696 -0.627201 1.258712 0.039801 -0.017547 447838.000000 0 1 0
-16.391235 11.784994 7.897526 21.677859 -0.623352 1.197901 0.021605 -0.015181 -235993.000000 0 1 0
10.892565 -32.928023 -14.296174 37.513774 -1.251328 1.961773 0.017106 -0.013088 -205829.000000 0 0 1
12.003465 -32.725223 -13.445974 37.360643 -1.219238 1.938954 0.001572 -0.010708 86232.500000 0 0 1
12.811665 -31.668123 -13.894174 36.878949 -1.186365 1.957082 0.002503 -0.012798 52024.700000 0 0 1
14.203765 -31.513823 -13.240274 37.015846 -1.147348 1.936592 0.025421 -0.010750 42902.200000 0 0 1
15.121165 -32.503223 -13.641974 38.356389 -1.135357 1.934420 0.023586 -0.010004 296640.000000 0 0 1
16.454865 -31.980523 -13.550074 38.433331 -1.095594 1.931102 0.038160 -0.012219 1394790.000000 0 0 1
17.535865 -33.049023 -14.023674 39.955074 -1.082968 1.929420 0.054868 -0.012135 684530.000000 0 0 1
17.567265 -34.203323 -13.212874 40.657793 -1.096318 1.901784 0.051180 -0.011570 -519036.000000 0 0 1
18.537865 33.284094 -13.596874 40.451926 1.062626 1.913595 0.052059 -0.008549 -424333.000000 0 0 1
18.452765 32.061494 -12.639174 39.092104 1.048554 1.900030 0.048754 -0.018227 839962.000000 0 0 1
19.452165 32.133194 -11.585774 39.308510 1.026445 1.869979 0.054102 -0.018030 519242.000000 0 0 1
19.214265 31.033494 -10.717474 38.041161 1.016418 1.856397 0.045457 -0.019937 785428.000000 0 0 1
20.335365 30.735094 -9.627874 38.090274 0.986286 1.826333 0.052314 -0.013376 1410150.000000 0 0 1
21.567465 30.266394 -10.204874 38.540233 0.951672 1.838777 0.054123 -0.013069 631757.000000 0 0 1
22.485665 29.891094 -9.181174 38.514628 0.925855 1.811495 0.041936 -0.006609 194116.000000 0 0 1
23.707065 29.110494 -9.692974 38.773696 0.887347 1.823465 0.019903 -0.000913 -263179.000000 0 0 1
24.633465 29.747794 -10.502574 40.025528 0.879168 1.836302 0.028436 -0.001805 -1116400.000000 0 0 1
25.801565 29.028894 -10.513974 40.236066 0.844190 1.835173 0.023418 0.012034 -81445.000000 0 0 1
27.012165 29.628094 -11.344974 41.667606 0.831550 1.846551 0.029758 0.008378 630430.000000 0 0 1
27.496565 30.813294 -10.782774 42.682412 0.842218 1.826192 0.013386 0.001785 257594.000000 0 0 1
28.661165 31.315994 -11.414074 43.959469 0.829633 1.833456 0.004761 0.008964 138834.000000 0 0 1
29.044065 32.760794 -11.052274 45.155067 0.845462 1.818071 0.000395 0.010071 -1448980.000000 0 0 1
28.216365 33.760494 -11.568274 45.494605 0.874616 1.827897 0.021120 0.012293 -328545.000000 0 0 1
28.569165 -33.320723 -11.268574 45.314992 -0.862022 1.822105 0.046275 0.007712 -275403.000000 0 0 1
27.554465 -32.288823 -11.855374 44.072287 -0.864346 1.843149 0.042241 -0.000756 -260939.000000 0 0 1
26.392065 -32.453123 -11.079074 43.272303 -0.888036 1.829711 0.037617 -0.006179 -744695.000000 0 0 1
25.297165 -31.655323 -11.473674 42.114739 -0.896577 1.846723 0.042279 -0.013687 147454.000000 0 0 1
25.315765 -30.148223 -11.117074 40.907122 -0.872307 1.846022 0.036550 -0.010787 -562195.000000 0 0 1
26.071665 -29.376023 -12.012174 41.072798 -0.844922 1.867595 0.023889 -0.004156 -188136.000000 0 0 1
26.318865 -28.083223 -11.412174 40.144586 -0.817819 1.859048 0.020675 -0.000012 -117418.000000 0 0 1
27.111065 -27.186823 -12.404674 40.348595 -0.786793 1.883295 0.029224 -0.014223 801344.000000 0 0 1
28.397065 -27.726123 -12.772774 41.692625 -0.773444 1.882159 0.024991 0.000446 575404.000000 0 0 1
28.416565 -28.646123 -13.877374 42.669463 -0.789421 1.902051 0.029678 -0.005538 -374600.000000 0 0 1
29.716465 -29.423223 -14.174374 44.155489 -0.780440 1.897593 0.026082 0.005320 -82523.700000 0 0 1
30.007665 -30.483823 -13.293774 44.793391 -0.793270 1.872115 0.021362 -0.008412 388820.000000 0 0 1
31.170665 -31.180223 -13.743774 46.181251 -0.785551 1.872979 0.019694 -0.010097 50599.700000 0 0 1
31.966465 -32.042923 -12.788074 47.033378 -0.786593 1.846157 0.017133 -0.011493 -387702.000000 0 0 1
32.970965 -32.811023 -13.389474 48.403778 -0.782967 1.851072 0.013462 -0.004417 300436.000000 0 0 1
33.857565 -33.444523 -12.404374 49.180680 -0.779261 1.825771 0.007808 0.000087 481466.000000 0 0 1
33.399665 33.736094 -11.470674 48.838898 0.790409 1.807879 -0.009970 0.014201 -350731.000000 0 0 1
32.605265 34.135194 -10.377574 48.332274 0.808318 1.787194 -0.012207 0.013286 -256255.000000 0 0 1
32.096465 33.015094 -9.749774 47.066310 0.799506 1.779457 -0.012744 0.018121 -1299320.000000 0 0 1
31.386665 33.244094 -8.422474 46.489037 0.814129 1.752974 -0.022849 0.015298 -346932.000000 0 0 1
30.252265 34.044394 -8.571674 46.343218 0.844309 1.756828 -0.004456 0.009489 -572547.000000 0 0 1
29.501865 34.139794 -7.346474 45.714945 0.858145 1.732198 0.006881 0.011450 548220.000000 0 0 1
28.483665 -33.117723 -7.391474 44.302784 -0.860483 1.738420 0.019217 0.000858 -472144.000000 0 0 1
29.070665 -31.885023 -7.465774 43.789223 -0.831536 1.742127 0.011776 -0.010391 259462.000000 0 0 1
28.200865 -30.815123 -7.929774 42.517548 -0.829667 1.758401 0.012534 -0.006381 683946.000000 0 0 1
27.287165 -30.048723 -6.934174 41.177638 -0.833526 1.739999 0.032494 -0.008663 461851.000000 0 0 1
26.389665 -29.222923 -7.646374 40.110606 -0.836301 1.762602 0.029196 -0.015056 71734.600000 0 0 1
25.408365 -28.595723 -6.832674 38.858536 -0.844350 1.747550 0.042535 -0.021396 215498.000000 0 0 1
24.370365 -27.871523 -7.722674 37.820314 -0.852316 1.776436 0.065403 -0.026492 -483746.000000 0 0 1
23.549665 -28.742623 -8.458774 38.108739 -0.884380 1.794625 0.087031 -0.031156 100086.000000 0 0 1
22.628765 -27.917323 -9.161374 37.085964 -0.889647 1.820411 0.096584 -0.029370 359218.000000 0 0 1
21.426565 -28.701823 -9.784574 37.129910 -0.929524 1.837468 0.088821 -0.022116 238656.000000 0 0 1
21.671865 -29.273023 -11.122574 38.082690 -0.933509 1.867180 0.088521 -0.016715 281339.000000 0 0 1
20.643865 -30.154223 -11.601974 38.341259 -0.970474 1.878213 0.079292 -0.017023 566956.000000 0 0 1
20.442665 -31.508423 -10.849474 39.094685 -0.995265 1.852006 0.080513 -0.025022 290135.000000 0 0 1
21.471165 -32.441523 -11.135074 40.465457 -0.986141 1.849568 0.076600 -0.022123 -153164.000000 0 0 1
21.241665 -33.662623 -10.435074 41.149378 -1.007882 1.827186 0.059371 -0.020747 576224.000000 0 0 1
22.498565 33.832094 -10.595774 41.988884 0.983944 1.825901 0.052009 -0.014889 -22430.000000 0 0 1
23.533965 34.175594 -9.739874 42.622574 0.967749 1.801348 0.056112 -0.014251 -1118640.000000 0 0 1
24.552965 33.242494 -9.967774 42.511974 0.934630 1.807469 0.047923 -0.009750 -616619.000000 0 0 1
25.805265 33.459394 -9.116174 43.226697 0.913839 1.783284 0.037180 -0.008042 -698249.000000 0 0 1
25.782265 33.156594 -7.725274 42.705558 0.909870 1.752694 0.035736 -0.009217 20725.200000 0 0 1
26.085965 31.818694 -7.469374 41.817441 0.884079 1.750379 0.031702 -0.000873 -249580.000000 0 0 1
25.896265 31.490294 -6.003574 41.210411 0.882571 1.716998 0.032051 -0.001274 -404197.000000 0 0 1
26.894765 32.006994 -5.155174 42.123056 0.871974 1.693488 0.033366 0.003243 107043.000000 0 0 1
27.765865 30.971994 -4.663574 41.856380 0.839928 1.682447 0.033062 0.004812 369605.000000 0 0 1
27.170965 30.085194 -3.524074 40.691514 0.836252 1.657510 0.047148 0.010034 -419914.000000 0 0 1
26.822665 30.753894 -2.303374 40.872519 0.853571 1.627181 0.065536 -0.001466 36133.900000 0 0 1
26.588665 29.843994 -1.248274 39.989739 0.843020 1.602016 0.063372 0.007607 -233040.000000 0 0 1
25.350565 28.946894 -1.307874 38.500446 0.851535 1.604773 0.041716 0.014454 -135301.000000 0 0 1
24.131865 29.584994 -0.938674 38.190311 0.886568 1.595378 0.028542 0.004932 354838.000000 0 0 1
22.976465 28.789294 -1.226974 36.854400 0.897221 1.604095 0.033634 0.009910 -107205.000000 0 0 1
21.739065 29.516094 -0.771274 36.665809 0.935981 1.591833 0.027124 -0.000150 -760287.000000 0 0 1
21.654265 29.462494 0.597026 36.569142 0.936979 1.554470 0.038151 -0.008790 496813.000000 0 0 1
20.510965 30.176894 1.092526 36.503948 0.973831 1.540863 0.038963 -0.012591 516844.000000 0 0 1
19.724965 29.463394 2.237326 35.527052 0.980853 1.507779 0.052094 -0.017814 121704.000000 0 0 1
19.169365 28.212394 1.755126 34.153831 0.973985 1.519385 0.064811 -0.013216 452386.000000 0 0 1
18.621265 27.442794 2.843426 33.285785 0.974613 1.485267 0.089396 -0.020102 -136609.000000 0 0 1
18.167065 26.072194 2.347026 31.863930 0.962222 1.497072 0.077592 -0.008326 704129.000000 0 0 1
19.257465 25.257594 1.821326 31.813727 0.919379 1.513515 0.085080 -0.013346 940415.000000 0 0 1
19.993165 24.679894 2.907726 31.894806 0.889928 1.479503 0.086440 -0.011299 -899894.000000 0 0 1
21.097465 23.812294 2.348426 31.900524 0.845775 1.497113 0.081120 -0.007522 -708435.000000 0 0 1
20.766665 22.668694 1.498026 30.779345 0.829160 1.522107 0.081076 -0.007334 1140580.000000 0 0 1
22.015765 21.986494 1.243726 31.139150 0.784733 1.530845 0.050039 -0.004437 949794.000000 0 0 1
21.874665 20.896094 0.143526 30.251748 0.762523 1.566052 0.062313 -0.009401 -241491.000000 0 0 1
21.594865 21.399594 -1.137174 30.423247 0.780856 1.608183 0.051824 -0.009229 308462.000000 0 0 1
21.872165 20.483594 -2.124974 30.041383 0.752626 1.641590 0.072511 -0.015622 31980.700000 0 0 1
21.577165 21.018694 -3.515274 30.326831 0.772288 1.686970 0.063781 -0.008533 67382.000000 0 0 1
22.526165 22.030894 -3.811374 31.738225 0.774283 1.691175 0.060015 -0.007004 437544.000000 0 0 1
22.263865 22.698694 -5.015974 32.188047 0.795069 1.727267 0.049825 -0.006504 -435610.000000 0 0 1
23.236465 23.856594 -5.292674 33.720657 0.798566 1.728404 0.041706 0.006281 -324607.000000 0 0 1
23.100065 25.068494 -4.531274 34.388585 0.826241 1.702947 0.025977 0.013418 76301.900000 0 0 1
23.450165 24.986194 -3.161674 34.412444 0.817100 1.662802 0.046610 0.008526 -192055.000000 0 0 1
22.285065 24.744994 -2.172574 33.371528 0.837656 1.635945 0.042194 0.002367 -1661650.000000 0 0 1
21.395665 25.800394 -2.048574 33.580224 0.878457 1.631840 0.039724 0.003293 511961.000000 0 0 1
20.308565 25.629494 -1.127274 32.719711 0.900713 1.605256 0.057539 0.003994 878372.000000 0 0 1
19.319165 24.466494 -1.563874 31.213541 0.902418 1.620920 0.076189 -0.014956 -1213530.000000 0 0 1
18.618865 24.633994 -2.762674 31.002066 0.923581 1.660027 0.057913 -0.006555 18834.600000 0 0 1
18.086865 23.481794 -3.328574 29.826309 0.914460 1.682628 0.071110 -0.015439 -82643.400000 0 0 1
17.372265 23.808994 -4.643974 29.836726 0.940446 1.727078 0.063820 -0.021217 -321802.000000 0 0 1
16.857565 22.780794 -5.394374 28.848593 0.933732 1.758893 0.065615 -0.022795 -6536.810000 0 0 1
16.450665 23.241394 -6.725674 29.257844 0.954843 1.802747 0.058587 -0.020471 156322.000000 0 0 1
15.547065 22.141994 -7.372174 28.041541 0.958627 1.836825 0.072486 -0.025052 -311328.000000 0 0 1
16.234665 20.919194 -7.543774 27.533353 0.910821 1.848332 0.058410 -0.016535 786379.000000 0 0 1
15.469565 20.014594 -8.383074 26.648965 0.912791 1.890804 0.071747 -0.017956 101148.000000 0 0 1
16.193265 18.697594 -8.710574 26.223957 0.857051 1.909390 0.062168 -0.012914 83904.700000 0 0 1
17.368565 18.944094 -9.465274 27.388631 0.828759 1.923665 0.059192 -0.012106 471167.000000 0 0 1
18.096565 17.743594 -9.722474 27.144931 0.775550 1.937102 0.067111 -0.011448 1053340.000000 0 0 1
19.539565 17.994194 -10.323374 28.498379 0.744249 1.941471 0.048932 -0.007088 611947.000000 0 0 1
19.567365 18.321494 -11.708074 29.251288 0.752528 1.982595 0.047064 -0.008252 277000.000000 0 0 1
20.857765 18.735294 -12.130474 30.548420 0.731842 1.979140 0.046481 0.000051 254340.000000 0 0 1
20.919465 19.058894 -13.661174 31.424403 0.738892 2.020536 0.046932 -0.006925 -6918.780000 0 0 1
20.842365 17.907594 -14.535074 31.086242 0.709806 2.057339 0.036978 -0.002455 89760.100000 0 0 1
21.124865 18.334594 -15.831974 32.141385 0.714803 2.085840 0.034080 -0.011104 43420.900000 0 0 1
21.262765 17.197194 -16.876474 32.135090 0.680080 2.123714 0.031389 -0.013825 375741.000000 0 0 1
22.378465 16.311694 -16.706274 32.341407 0.629861 2.113625 0.045592 -0.015456 283549.000000 0 0 1
22.430165 15.300894 -17.738474 32.432747 0.598650 2.149490 0.063972 -0.025324 -693798.000000 0 0 1
23.164265 15.617194 -19.035974 33.806038 0.593195 2.168921 0.074863 -0.028079 615337.000000 0 0 1
24.589565 15.556294 -18.790174 34.636911 0.564073 2.144195 0.094581 -0.030285 1118760.000000 0 0 1
25.353665 15.974494 -19.919074 35.982805 0.562234 2.157444 0.112934 -0.034100 6089.600000 0 0 1
26.816365 16.226894 -19.512374 36.921027 0.544170 2.127617 0.109775 -0.038761 -116443.000000 0 0 1
26.849965 17.294594 -18.602474 36.960460 0.572230 2.098218 0.093163 -0.039718 1091070.000000 0 0 1
28.192165 17.743094 -18.304074 38.008613 0.561730 2.073250 0.082821 -0.046549 784304.000000 0 0 1
28.150165 19.005594 -17.384774 38.155926 0.593853 2.043870 0.072787 -0.035180 -56352.100000 0 0 1
27.488265 18.877394 -16.150174 37.051165 0.601774 2.021822 0.069086 -0.029491 523107.000000 0 0 1
26.187765 19.482394 -16.215574 36.445953 0.639618 2.031882 0.090200 -0.023936 -46591.400000 0 0 1
25.338565 19.128994 -15.023574 35.123625 0.646653 2.012781 0.078791 -0.017727 -529541.000000 0 0 1
25.893465 19.460094 -13.744574 35.186362 0.644489 1.972104 0.075313 -0.021459 -10629.300000 0 0 1
25.051565 19.190294 -12.666574 34.004270 0.653683 1.952497 0.066116 -0.019528 -246204.000000 0 0 1
25.697465 19.648994 -11.332274 34.276276 0.652797 1.907752 0.068689 -0.022770 -101682.000000 0 0 1
25.545165 21.029294 -11.047874 34.883264 0.688740 1.893055 0.064478 -0.017388 265481.000000 0 0 1
26.182965 21.535394 -9.851674 35.304055 0.688309 1.853603 0.063095 -0.013114 235126.000000 0 0 1
25.348265 21.352494 -8.563574 34.231539 0.700045 1.823648 0.060894 -0.011265 -374076.000000 0 0 1
25.280965 20.036294 -8.023474 33.240884 0.670178 1.814577 0.077529 -0.019790 -8997.330000 0 0 1
24.362965 19.873394 -6.990674 32.208312 0.684254 1.789583 0.069268 -0.020700 301705.000000 0 0 1
22.871165 19.647594 -7.403674 31.047262 0.709728 1.811581 0.067482 -0.022043 114353.000000 0 0 1
22.178965 20.850294 -7.646274 31.386410 0.754530 1.816890 0.058697 -0.009533 -563360.000000 0 0 1
20.844365 20.564794 -7.935374 30.337575 0.778647 1.835444 0.057513 -0.011009 -709342.000000 0 0 1
20.123065 21.896294 -8.178974 30.842844 0.827573 1.839189 0.030902 -0.005449 -921487.000000 0 0 1
20.467965 22.568094 -9.408074 31.886804 0.834159 1.870300 0.041776 -0.007992 425377.000000 0 0 1
19.665065 22.245794 -10.572074 31.517596 0.846897 1.912862 0.035234 0.008020 296350.000000 0 0 1
18.155165 22.539894 -10.439074 30.767370 0.892730 1.916959 0.044173 -0.003942 -558786.000000 0 0 1
17.962865 23.922594 -10.288074 31.635414 0.926736 1.902027 0.053368 -0.014501 -297001.000000 0 0 1
16.616465 24.289694 -10.194174 31.145101 0.970825 1.904254 0.051336 -0.013209 -302997.000000 0 0 1
16.469165 25.758194 -9.768474 32.095810 1.001926 1.880056 0.063026 -0.019894 -168045.000000 0 0 1
17.048665 26.637694 -10.692974 33.385077 1.001469 1.896834 0.075276 -0.016159 41235.300000 0 0 1
17.025965 27.919594 -10.093474 34.223755 1.023187 1.870174 0.082638 -0.030036 -186431.000000 0 0 1
20.552865 28.845994 33.198111 48.545094 0.951728 0.817754 0.036093 0.000154 736416.000000 0 0 1
19.178265 29.219594 33.158471 48.177533 0.989970 0.811714 0.065897 -0.021349 376599.000000 0 0 1
18.291665 28.153794 33.448568 47.392276 0.994628 0.787271 0.058245 -0.017362 572287.000000 0 0 1
16.791865 28.549294 33.588380 47.172112 1.039120 0.778398 0.089728 -0.032502 601569.000000 0 0 1
16.158965 28.850194 32.337791 46.251255 1.060233 0.796551 0.070572 -0.029761 -583724.000000 0 0 1
14.865465 29.319394 32.545044 46.257851 1.101550 0.790406 0.114585 -0.036344 -266565.000000 0 0 1
13.931265 29.368194 31.315021 45.135369 1.127866 0.804041 0.102153 -0.032972 351015.000000 0 0 1
13.349865 28.088294 31.047551 43.944528 1.127118 0.786232 0.089466 -0.036123 -544330.000000 0 0 1
11.990365 28.081394 30.744721 43.330952 1.167245 0.781962 0.095875 -0.015722 -665119.000000 0 0 1
11.529565 26.608394 30.674301 42.211968 1.161912 0.757330 0.072576 -0.014669 -45731.800000 0 0 1
11.890765 25.873894 29.485631 40.990866 1.140016 0.767971 0.066845 -0.005207 575353.000000 0 0 1
13.229565 25.398394 29.367921 41.019198 1.090583 0.772805 0.050024 -0.010510 44331.800000 0 0 1
13.701865 24.632794 28.162371 39.845135 1.063171 0.785838 0.048102 -0.007015 -425444.000000 0 0 1
13.634865 25.354294 26.925131 39.417159 1.077389 0.818823 0.023995 -0.007302 142947.000000 0 0 1
13.359665 24.561494 25.772551 38.025939 1.072627 0.826081 0.038608 -0.011653 644659.000000 0 0 1
11.987765 23.794094 25.658951 36.989825 1.104103 0.804216 0.050762 -0.004134 398072.000000 0 0 1
12.004465 23.134694 24.402821 35.704606 1.092148 0.818299 0.058853 -0.008889 351648.000000 0 0 1
10.980265 22.142994 24.265301 34.636444 1.110450 0.794598 0.072777 -0.015263 381247.000000 0 0 1
10.787265 21.761194 22.781961 33.300636 1.110586 0.817386 0.083533 -0.014901 -135042.000000 0 0 1
10.353665 22.808094 21.948761 33.303988 1.144665 0.851251 0.085030 -0.025674 90640.700000 0 0 1
10.303965 22.487094 20.553061 32.160059 1.141130 0.877486 0.087580 -0.016642 -519613.000000 0 0 1
10.084065 23.581094 19.518961 32.229586 1.166697 0.920248 0.072433 -0.024045 230788.000000 0 0 1
8.746465 23.992694 19.287761 32.002621 1.221221 0.923924 0.070714 -0.020310 106811.000000 0 0 1
8.243865 24.897394 20.282061 33.154238 1.251045 0.912527 0.065346 -0.016528 -454329.000000 0 0 1
6.889065 25.455794 19.851361 33.008078 1.306499 0.925533 0.055772 -0.012156 -360011.000000 0 0 1
7.088265 26.442094 18.856861 33.241676 1.308887 0.967615 0.053411 -0.020910 372423.000000 0 0 1
5.863265 27.121694 18.575161 33.391627 1.357889 0.980891 0.047118 -0.017207 328458.000000 0 0 1
5.856265 28.113694 17.394761 33.574593 1.365427 1.026176 0.050262 -0.014462 5951.410000 0 0 1
6.130165 27.496894 16.144861 32.470211 1.351443 1.050404 0.056094 -0.012116 53998.400000 0 0 1
6.723465 28.475094 15.286461 33.010784 1.338926 1.089335 0.049820 -0.010857 154148.000000 0 0 1
7.342365 27.950194 13.995261 32.109048 1.313906 1.119795 0.053635 -0.013765 649286.000000 0 0 1
6.405565 27.844894 12.887661 31.344237 1.344686 1.147064 0.055882 -0.019309 331589.000000 0 0 1
6.500965 26.623794 12.198261 29.998108 1.331304 1.152029 0.040669 -0.020593 -71437.100000 0 0 1
5.910465 26.637294 10.797361 29.343858 1.352447 1.193982 0.043584 -0.019071 128965.000000 0 0 1
6.716465 27.393094 9.828761 29.867993 1.330351 1.235474 0.031508 -0.015583 764526.000000 0 0 1
6.946765 28.774694 10.097061 31.276048 1.333910 1.242071 0.028319 -0.007510 -223899.000000 0 0 1
7.112365 29.664894 8.787061 31.745930 1.335481 1.290341 0.014351 0.002898 426802.000000 0 0 1
5.946365 29.736594 7.950061 31.350083 1.373432 1.314407 0.033739 -0.007287 390754.000000 0 0 1
5.719165 28.576394 7.124161 30.001213 1.373270 1.331044 0.022301 0.000646 -1712330.000000 0 0 1
4.288465 28.289494 6.887961 29.430093 1.420350 1.334560 0.040586 -0.004257 -1903210.000000 0 0 1
3.688365 29.220694 6.072661 30.072083 1.445236 1.367461 0.048905 -0.003144 -153654.000000 0 0 1
2.359965 28.788994 5.774961 29.457185 1.489005 1.373472 0.030099 -0.006008 -25847.500000 0 0 1
1.573765 29.822294 5.037761 30.285722 1.518074 1.403678 0.037848 -0.005550 -767388.000000 0 0 1
1.995965 29.865494 3.679261 30.157396 1.504064 1.448490 0.020296 -0.002691 69358.200000 0 0 1
1.210565 30.591194 2.716861 30.735451 1.531245 1.482286 0.023337 -0.007416 279728.000000 0 0 1
-0.073435 29.836894 2.321461 29.927158 -1.568335 1.493148 0.034877 -0.009631 -370416.000000 0 0 1
0.215465 28.673294 1.566561 28.716864 1.563282 1.516217 0.022570 -0.001197 127909.000000 0 0 1
-0.894535 27.945694 1.012461 27.978332 -1.538797 1.534601 0.032469 -0.009092 353771.000000 0 0 1
-0.959135 28.022394 -0.504739 28.043346 -1.536582 1.588796 0.021560 -0.010580 -64880.600000 0 0 1
-1.512735 29.211994 -0.941539 29.266285 -1.519058 1.602973 0.024839 -0.015301 -262171.000000 0 0 1
-1.356735 29.329594 -2.353139 29.455102 -1.524571 1.650771 0.029072 -0.014533 -751769.000000 0 0 1
-2.164435 30.426394 -2.985239 30.649011 -1.499779 1.668352 0.034667 -0.021481 -1655860.000000 0 0 1
-3.485135 30.292094 -3.257939 30.665474 -1.456249 1.677238 0.041352 -0.022657 -1487960.000000 0 0 1
-3.675235 29.500294 -4.453139 30.060025 -1.446852 1.719485 0.022020 -0.023734 -1972970.000000 0 0 1
-5.076235 29.207494 -4.857839 30.040713 -1.398716 1.733218 0.038720 -0.023148 -1572500.000000 0 0 1
-5.625335 30.370194 -5.398039 31.354934 -1.387646 1.743817 0.055176 -0.024889 -289008.000000 0 0 1
-6.597435 30.029494 -6.354639 31.395510 -1.354534 1.774610 0.056551 -0.026717 -340934.000000 0 0 1
-7.222235 31.194194 -7.154739 32.808973 -1.343280 1.790635 0.060179 -0.016731 -428774.000000 0 0 1
-8.060735 31.951694 -6.340139 33.557168 -1.323674 1.760874 0.048880 -0.016923 -326935.000000 0 0 1
-8.460935 33.184594 -6.888439 34.932152 -1.321149 1.769292 0.037004 -0.023667 -530837.000000 0 0 1
-9.648735 33.786894 -6.189139 35.678533 -1.292624 1.745148 0.037167 -0.023981 5086.500000 0 0 1
-10.934935 33.267194 -6.527939 35.621524 -1.253221 1.755096 0.045724 -0.018091 -455094.000000 0 0 1
-11.892035 33.980494 -5.832839 36.470762 -1.234151 1.731418 0.055467 -0.021723 -156374.000000 0 0 1
-13.337635 33.512494 -6.144739 36.588763 -1.192024 1.739537 0.068953 -0.021954 187136.000000 0 0 1
-13.743635 33.718894 -7.467439 37.170068 -1.183760 1.773072 0.062437 -0.019455 149241.000000 0 0 1
-15.046035 33.207994 -7.710139 37.263927 -1.145380 1.779208 0.078833 -0.018267 -72751.000000 0 0 1
-15.624635 33.629194 -9.114139 38.185330 -1.135855 1.811804 0.089276 -0.021703 182178.000000 0 0 1
-17.010435 33.411094 -9.305339 38.629592 -1.099875 1.814075 0.109747 -0.025057 -15846.500000 0 0 1
-17.725935 -33.852923 -8.898039 39.235243 1.088435 1.799574 0.105674 -0.025747 -149849.000000 0 0 1
-19.248535 -34.183023 -9.118939 40.275802 1.057950 1.799189 0.103997 -0.026302 653505.000000 0 0 1
-19.840935 33.328494 -8.184939 39.641448 -1.033829 1.778767 0.092806 -0.032845 300443.000000 0 0 1
-20.330435 33.950994 -7.004039 40.187724 -1.031247 1.745974 0.084100 -0.024159 -246378.000000 0 0 1
-20.628335 32.940794 -5.859939 39.306017 -1.011317 1.720439 0.077040 -0.024471 -391112.000000 0 0 1
-20.427335 33.493094 -4.577439 39.497042 -1.023131 1.686951 0.077303 -0.029176 578118.000000 0 0 1
-21.541135 33.428294 -3.680839 39.937700 -0.998369 1.663092 0.085347 -0.022462 385600.000000 0 0 1
-22.606135 -33.852923 -3.750839 40.879415 0.982027 1.662679 0.082284 -0.031159 29162.600000 0 0 1
-23.211435 -33.899723 -5.007539 41.388856 0.970407 1.692081 0.089211 -0.035913 -82322.100000 0 0 1
-24.214635 -32.905323 -5.163639 41.179753 0.936388 1.696520 0.095740 -0.045792 142642.000000 0 0 1
-24.491535 -32.791023 -6.740639 41.479184 0.929284 1.734027 0.121378 -0.034694 -315735.000000 0 0 1
-23.539335 -31.975023 -7.353939 40.380476 0.936200 1.753935 0.124266 -0.022205 -265955.000000 0 0 1
-23.490435 -32.112923 -8.736139 40.735249 0.939244 1.786937 0.100765 -0.024702 457516.000000 0 0 1
-24.733735 -31.549523 -9.522839 41.204545 0.905909 1.804016 0.090899 -0.016104 -239029.000000 0 0 1
-25.915275 -32.246623 -9.274339 42.396457 0.893829 1.791332 0.091278 -0.017664 697362.000000 0 0 1
-27.134795 -31.851923 -9.956739 43.011380 0.865198 1.804406 0.058988 -0.010210 1511010.000000 0 0 1
-27.653985 -30.357223 -9.831139 42.225054 0.831963 1.805780 0.043044 0.000197 -489188.000000 0 0 1
-26.892425 -29.345523 -10.482239 41.161142 0.828991 1.828296 0.050126 0.001430 -39836.500000 0 0 1
-27.205845 -29.281323 -11.852939 41.689880 0.822124 1.859085 0.030629 0.000873 -251559.000000 0 0 1
-26.137665 -28.602223 -12.706539 40.776474 0.830391 1.887688 0.059622 0.006698 328567.000000 0 0 1
-24.887635 -29.316823 -12.704539 40.500319 0.866930 1.889873 0.059939 -0.003591 638474.000000 0 0 1
-23.911435 -28.577523 -13.429639 39.607913 0.874062 1.916719 0.053785 -0.003098 -283247.000000 0 0 1
-22.662335 -29.416323 -13.690239 39.576813 0.914367 1.924011 0.074571 -0.013734 -597666.000000 0 0 1
-22.839635 -30.642123 -14.428939 40.850740 0.930267 1.931798 0.084910 -0.011921 33936.900000 0 0 1
-23.329635 -31.761723 -13.667339 41.711810 0.937276 1.904623 0.066942 -0.009827 522.011000 0 0 1
-23.273035 -33.083823 -14.428939 42.946104 0.957754 1.913440 0.060080 -0.006028 11921.100000 0 0 1
-23.639735 -34.173423 -13.651539 43.738135 0.965623 1.888220 0.046206 -0.011023 -22852.200000 0 0 1
-23.747535 33.050594 -14.435739 43.181914 -0.947748 1.911659 0.033165 -0.012826 -194044.000000 0 0 1
-24.116735 31.828194 -13.525639 42.161520 -0.922375 1.897376 0.022751 -0.008364 -592422.000000 0 0 1
-23.324235 31.393994 -12.455739 41.045684 -0.931821 1.879119 0.014970 -0.008484 -159566.000000 0 0 1
-23.323035 32.336694 -11.412539 41.471337 -0.945947 1.849585 0.063537 -0.010445 111987.000000 0 0 1
-22.530935 31.971694 -10.146939 40.407829 -0.956913 1.824626 0.064606 -0.013427 443640.000000 0 0 1
-23.322435 31.041094 -9.366239 39.940104 -0.926438 1.807508 0.063056 -0.007809 670123.000000 0 0 1
-22.642435 30.585194 -8.226539 38.933403 -0.933528 1.783699 0.053922 -0.012199 -325645.000000 0 0 1
-23.490735 29.656794 -7.351439 38.540676 -0.900900 1.762717 0.052474 -0.015593 -311440.000000 0 0 1
-23.654735 28.427094 -8.035639 37.844651 -0.876775 1.784757 0.049261 -0.001551 100477.000000 0 0 1
-24.178335 27.348394 -7.343039 37.235021 -0.846843 1.769305 0.044043 -0.007857 -269590.000000 0 0 1
-23.142735 26.756994 -6.361939 35.944362 -0.857702 1.748728 0.043483 -0.004190 -30868.900000 0 0 1
-22.973635 27.368894 -5.119139 36.097782 -0.872484 1.713089 0.052501 -0.007997 56090.600000 0 0 1
-21.895435 26.869894 -4.377139 34.936523 -0.887055 1.696415 0.046563 -0.004326 -863977.000000 0 0 1
-20.590635 27.622994 -4.399139 34.732643 -0.930235 1.697795 0.040015 -0.010034 -655155.000000 0 0 1
-19.833035 27.406794 -5.574539 34.286398 -0.944371 1.734109 0.038556 -0.012734 878535.000000 0 0 1
-18.514235 27.991994 -5.504539 34.009242 -0.986441 1.733366 0.056603 -0.016303 1387840.000000 0 0 1
-17.698335 27.771094 -6.882139 33.642660 -1.003406 1.776816 0.078797 -0.025967 137713.000000 0 0 1
-18.119935 28.341494 -8.084439 34.596683 -1.001949 1.806654 0.078416 -0.029904 -7651.070000 0 0 1
-18.123735 29.727294 -8.016239 35.727326 -1.023299 1.797096 0.088429 -0.028248 -61928.500000 0 0 1
-18.252335 30.346294 -9.433139 36.647365 -1.029298 1.831130 0.079202 -0.023798 -326586.000000 0 0 1
-17.009735 30.299194 -10.069139 36.176785 -1.059249 1.852853 0.082042 -0.031537 -133016.000000 0 0 1
-17.069535 31.060594 -11.251539 37.185032 -1.068294 1.878197 0.078202 -0.028149 1120020.000000 0 0 1
-15.662835 31.307194 -11.992539 37.003861 -1.106913 1.900845 0.089632 -0.031174 1363160.000000 0 0 1
-15.697435 31.940494 -13.251139 37.976273 -1.114005 1.927228 0.093558 -0.025235 -116575.000000 0 0 1
-16.033835 30.982194 -14.245939 37.681918 -1.093233 1.958494 0.089193 -0.033578 -254208.000000 0 0 1
-15.766535 31.522894 -15.617339 38.550976 -1.107020 1.987894 0.136465 -0.030948 -207051.000000 0 0 1
-14.398035 31.714694 -15.842439 38.263665 -1.144632 1.997677 0.135954 -0.037593 -669353.000000 0 0 1
-14.118635 31.876794 -17.153739 38.855072 -1.153852 2.028044 0.086874 -0.044841 -213034.000000 0 0 1
-12.604035 32.097894 -17.393939 38.622346 -1.196621 2.037964 0.127962 -0.048940 -313386.000000 0 0 1
-11.857735 30.933794 -17.218039 37.335858 -1.204746 2.050105 0.141635 -0.057250 -797771.000000 0 0 1
-10.509635 31.009194 -17.550439 37.148895 -1.244026 2.062848 0.133064 -0.051641 -428273.000000 0 0 1
-10.121335 31.074194 -19.069939 37.837937 -1.255918 2.099008 0.143426 -0.055597 -481987.000000 0 0 1
-10.307135 29.815594 -19.672839 37.178317 -1.237961 2.128393 0.127395 -0.060942 86917.800000 0 0 1
-9.912635 29.808894 -21.056739 37.818206 -1.249760 2.161311 0.103042 -0.057759 -97638.200000 0 0 1
-11.041635 29.618794 -22.127039 38.584926 -1.213963 2.181523 0.097671 -0.052269 313388.000000 0 0 1
-12.003335 30.626894 -22.273239 39.726362 -1.197274 2.165987 0.110541 -0.054808 -768695.000000 0 0 1
-13.164735 30.330994 -21.585139 39.486677 -1.161297 2.149147 0.100515 -0.061312 -684733.000000 0 0 1
-14.182335 31.533794 -21.589639 40.763112 -1.148150 2.128968 0.114558 -0.061484 450261.000000 0 0 1
-14.996735 31.619694 -22.753739 41.742541 -1.127932 2.147301 0.082054 -0.050863 98629.400000 0 0 1
-15.588035 32.905594 -22.911639 43.019857 -1.128393 2.132446 0.082834 -0.045334 4653.170000 0 0 1
-15.798435 33.282394 -24.395639 44.186598 -1.127610 2.155683 0.083221 -0.037897 -38944.300000 0 0 1
-14.672635 33.394294 -25.250239 44.362593 -1.156813 2.176303 0.081656 -0.034270 -62793.200000 0 0 1
-15.002935 33.434794 -26.639539 45.306054 -1.149005 2.199369 0.080599 -0.020582 13465.300000 0 0 1
-15.725735 -33.734323 -27.189039 46.092810 1.134582 2.201701 0.064700 -0.004215 -288745.000000 0 0 1
-17.026735 -33.515623 -26.739539 46.132523 1.100750 2.189064 0.059017 -0.006977 -779729.000000 0 0 1
-17.538535 -32.434623 -27.440239 45.962721 1.075094 2.210566 0.046247 0.009633 336784.000000 0 0 1
-19.076035 -32.282823 -27.264839 46.362131 1.037092 2.199484 0.057277 -0.008827 954976.000000 0 0 1
-19.966135 -33.280823 -27.809739 47.745590 1.030429 2.192544 0.050964 -0.005250 332757.000000 0 0 1
-21.313135 -32.865523 -27.683139 47.966119 0.995480 2.186018 0.049913 -0.003329 743216.000000 0 0 1
-22.438635 -33.931123 -27.772439 49.255678 0.986519 2.169827 0.035527 0.005887 193382.000000 0 0 1
-22.514035 33.738494 -26.581339 48.494694 -0.982348 2.150922 0.068977 -0.001205 -364806.000000 0 0 1
-23.620035 32.871894 -26.576239 48.422762 -0.947730 2.151770 0.050729 -0.002189 46681.400000 0 0 1
-23.411135 31.533794 -27.393739 47.884009 -0.932168 2.179842 0.068685 -0.010521 253699.000000 0 0 1
-22.477635 30.548694 -26.952839 46.528725 -0.936447 2.188633 0.075002 -0.038012 -74345.400000 0 0 1
-23.013335 29.617594 -26.063939 45.674329 -0.910228 2.178090 0.058137 -0.028469 -105427.000000 0 0 1
31.130050 10.120194 -26.824594 42.320883 0.314317 2.257302 0.086566 -0.003459 35445.800000 0 0 1
30.962380 8.725694 -26.608954 41.747372 0.274692 2.261890 0.064352 0.004290 -470785.000000 0 0 1
29.617700 8.392094 -26.462944 40.594615 0.276110 2.280861 0.069690 0.000442 -562316.000000 0 0 1
29.395480 6.971194 -25.944294 39.822081 0.232850 2.280363 0.055858 0.006883 -65884.300000 0 0 1
29.663990 6.772594 -24.603874 39.130179 0.224463 2.250766 0.042615 0.007550 74875.400000 0 0 1
29.291030 5.461194 -24.197474 38.383679 0.184329 2.252878 0.040704 0.002019 149041.000000 0 0 1
29.295820 5.304594 -22.674774 37.423644 0.179129 2.221686 0.042588 0.004456 1122450.000000 0 0 1
30.636210 5.051194 -22.205474 38.172961 0.163406 2.191622 0.038284 0.005309 944130.000000 0 0 1
30.512130 4.700194 -20.798674 37.224544 0.152842 2.163657 0.031560 -0.000287 155882.000000 0 0 1
31.801350 4.433694 -19.985974 37.820928 0.138525 2.127555 0.029045 0.000201 -35302.200000 0 0 1
32.479510 3.193494 -20.174174 38.368141 0.098008 2.124458 0.030674 0.002338 -32059.600000 0 0 1
33.482350 2.914194 -19.255174 38.733990 0.086818 2.091065 0.042263 -0.002042 -283228.000000 0 0 1
33.952540 1.447894 -19.368374 39.115281 0.042619 2.088817 0.058019 -0.007444 14048.900000 0 0 1
33.013740 0.558794 -18.766674 37.979038 0.016924 2.087633 0.077379 -0.002765 376991.000000 0 0 1
33.382530 -0.822506 -18.948674 38.394297 -0.024634 2.086938 0.072612 0.005344 195036.000000 0 0 1
32.229390 -1.861006 -18.624974 37.270451 -0.057678 2.094078 0.052143 0.006315 735455.000000 0 0 1
32.076950 -2.085106 -17.228474 36.470518 -0.064912 2.062802 0.057645 0.005281 91338.900000 0 0 1
30.753020 -1.736906 -16.857274 35.113142 -0.056419 2.071547 0.057704 -0.002751 175526.000000 0 0 1
30.456830 -2.084806 -15.356374 34.172842 -0.068345 2.036860 0.067106 0.000846 -62854.700000 0 0 1
30.171050 -3.451406 -15.119174 33.923353 -0.113900 2.032737 0.060702 -0.000985 1112560.000000 0 0 1
29.323490 -3.623506 -13.910474 32.657283 -0.122947 2.010812 0.070669 -0.007199 684340.000000 0 0 1
29.091060 -5.125306 -13.509774 32.481880 -0.174392 1.999748 0.060401 -0.003800 -231383.000000 0 0 1
28.329640 -5.831906 -14.435974 32.326103 -0.203023 2.033728 0.042678 -0.002624 377190.000000 0 0 1
28.089200 -7.175406 -13.994774 32.192286 -0.250102 2.020529 0.038795 -0.000519 -263177.000000 0 0 1
27.526570 -8.124006 -15.060674 32.411964 -0.286986 2.054051 0.018372 0.006514 713606.000000 0 0 1
26.167970 -7.867206 -15.470674 31.400594 -0.292046 2.085972 0.037347 0.001969 977590.000000 0 0 1
25.852270 -8.523706 -16.712674 31.942243 -0.318484 2.121416 0.036636 0.002612 229093.000000 0 0 1
24.438670 -8.088606 -17.196774 30.958087 -0.319627 2.159743 0.029917 -0.003667 3826.970000 0 0 1
24.355270 -6.786806 -17.739274 30.885623 -0.271764 2.182611 0.022188 0.000493 1100.880000 0 0 1
23.105170 -6.280906 -18.175974 30.061016 -0.265426 2.220105 0.057983 -0.014294 60840.100000 0 0 1
22.587370 -6.790106 -19.518974 30.615113 -0.292021 2.262123 0.035873 -0.002882 -26752.100000 0 0 1
23.261070 -6.153806 -20.611974 31.682805 -0.258629 2.279135 0.034266 -0.005788 451568.000000 0 0 1
22.842570 -6.731606 -21.822174 32.300229 -0.286583 2.312580 0.049605 -0.004872 -89274.200000 0 0 1
23.297570 -5.853606 -22.985674 33.247296 -0.246159 2.334159 0.046902 -0.007302 -116096.000000 0 0 1
23.199470 -6.385006 -24.273474 34.178725 -0.268573 2.360568 0.055563 -0.011855 93894.200000 0 0 1
23.523270 -5.375606 -25.194824 34.885821 -0.224665 2.377786 0.054135 -0.018565 -138506.000000 0 0 1
23.467870 -5.863806 -26.653334 35.993407 -0.244852 2.404619 0.068050 -0.024216 573738.000000 0 0 1
22.192270 -6.437706 -26.965534 35.511701 -0.282338 2.433098 0.069057 -0.021556 342908.000000 0 0 1
21.936670 -6.673706 -28.318884 36.437824 -0.295329 2.460974 0.062715 -0.023927 624077.000000 0 0 1
20.679370 -7.542306 -28.683924 36.156468 -0.349733 2.487052 0.069588 -0.029865 675636.000000 0 0 1
20.882070 -8.993606 -28.524024 36.476920 -0.406677 2.468624 0.061823 -0.021315 56124.400000 0 0 1
19.762870 -9.638806 -29.063774 36.444212 -0.453778 2.493914 0.064716 -0.030104 -291295.000000 0 0 1
19.735070 -11.195206 -28.795604 36.660502 -0.516009 2.474246 0.071880 -0.035157 -259107.000000 0 0 1
19.147570 -11.598306 -27.565814 35.510903 -0.544624 2.459513 0.071144 -0.023817 50907.000000 0 0 1
19.234870 -12.959906 -27.216104 35.758295 -0.592905 2.435824 0.068771 -0.021342 -551155.000000 0 0 1
18.905770 -14.037206 -28.225874 36.758281 -0.638673 2.446318 0.057943 -0.019743 -512840.000000 0 0 1
17.670270 -13.905306 -28.870734 36.593924 -0.666722 2.479893 0.063884 -0.017222 -319318.000000 0 0 1
17.561070 -14.781906 -29.945394 37.730923 -0.699681 2.487592 0.060626 -0.013800 -231506.000000 0 0 1
16.232370 -14.894006 -30.734914 37.814761 -0.742427 2.519697 0.066350 -0.020609 -525782.000000 0 0 1
15.367470 -15.790906 -30.140674 37.335935 -0.798987 2.510330 0.053212 -0.024094 -753505.000000 0 0 1
14.431770 -16.301806 -31.023494 37.900950 -0.846170 2.529663 0.055237 -0.026927 -1169080.000000 0 0 1
13.367170 -17.047106 -30.264894 37.218932 -0.905807 2.520355 0.064449 -0.029212 -826344.000000 0 0 1
13.738370 -18.294606 -29.750654 37.530479 -0.926686 2.486032 0.052571 -0.025509 -661457.000000 0 0 1
12.762570 -18.892206 -28.968984 36.864626 -0.976671 2.474818 0.055543 -0.020013 -630723.000000 0 0 1
13.202770 -20.211306 -28.279394 37.182444 -0.992149 2.434968 0.061135 -0.025675 82385.300000 0 0 1
14.173470 -19.919206 -27.274134 36.627045 -0.952362 2.410799 0.046122 -0.024668 77884.500000 0 0 1
14.322970 -20.925106 -26.269654 36.511673 -0.970558 2.373859 0.031468 -0.019414 -140039.000000 0 0 1
15.258970 -20.609206 -25.097254 35.881021 -0.933470 2.345435 0.035186 -0.008287 -532050.000000 0 0 1
16.622170 -20.575806 -25.397174 36.669835 -0.891287 2.335870 0.041387 -0.010647 -469453.000000 0 0 1
17.348170 -20.588006 -24.198174 36.199125 -0.870594 2.302951 0.035254 -0.007281 14934.000000 0 0 1
18.859170 -20.924806 -24.333474 37.224102 -0.837273 2.283263 0.010387 -0.000847 99950.600000 0 0 1
19.181770 -22.271106 -24.597574 38.327315 -0.859787 2.267609 0.019760 -0.009005 225357.000000 0 0 1
18.881170 -23.227606 -23.560374 38.093457 -0.888253 2.237614 0.025874 -0.016940 -672725.000000 0 0 1
19.323270 -24.676106 -23.872474 39.397893 -0.906460 2.221734 0.030455 -0.024161 433729.000000 0 0 1
20.748870 -24.809106 -23.746874 40.123825 -0.874286 2.204136 0.035433 -0.022631 757597.000000 0 0 1
21.099170 -26.128846 -23.398274 40.931294 -0.891496 2.179309 0.041613 -0.034491 -40291.300000 0 0 1
21.129670 -26.349206 -21.841574 40.221859 -0.894892 2.144835 0.061149 -0.035569 -1538910.000000 0 0 1
19.848970 -26.392106 -21.365274 39.331918 -0.925965 2.145045 0.057124 -0.029550 -840522.000000 0 0 1
19.882070 -26.553216 -19.978074 38.723293 -0.928087 2.112876 0.052939 -0.026732 -285181.000000 0 0 1
18.565370 -27.122636 -19.469174 38.201559 -0.970551 2.105567 0.050366 -0.025816 -1470740.000000 0 0 1
18.598170 -28.522776 -19.706074 39.341709 -0.992984 2.095429 0.056151 -0.022512 224775.000000 0 0 1
17.482570 -29.285216 -19.292774 39.185141 -1.032603 2.085583 0.038220 -0.005788 267583.000000 0 0 1
16.043170 -28.821996 -19.642274 38.391532 -1.062878 2.107878 0.024788 -0.010653 -774221.000000 0 0 1
15.471370 -27.879616 -18.797874 37.013462 -1.064172 2.103502 0.026942 -0.008574 -472285.000000 0 0 1
14.377870 -27.314156 -19.477574 36.498797 -1.086261 2.133707 0.018927 -0.001093 -415235.000000 0 0 1
13.537270 -26.329156 -18.714174 35.024312 -1.095889 2.134499 0.017896 -0.007829 -707031.000000 0 0 1
12.834770 -26.863736 -17.640774 34.606192 -1.125088 2.105699 0.008344 -0.007878 -212063.000000 0 0 1
12.153570 -25.896786 -16.842074 33.196510 -1.132002 2.102897 0.014102 -0.010465 1290580.000000 0 0 1
10.599270 -25.830166 -17.154374 32.769110 -1.181404 2.121741 0.026005 -0.009263 841195.000000 0 0 1
9.836670 -26.913846 -16.665074 33.148754 -1.220392 2.097557 0.038782 -0.008623 -115052.000000 0 0 1
8.462770 -26.597096 -16.766674 32.559873 -1.262742 2.111744 0.039727 0.002496 598738.000000 0 0 1
7.630570 -27.507566 -17.748474 33.613987 -1.300201 2.127050 0.048333 -0.000621 327296.000000 0 0 1
7.957770 -27.162126 -19.094174 34.142271 -1.285799 2.164281 0.040922 -0.004887 19785.600000 0 0 1
7.239470 -28.003826 -19.966774 35.146782 -1.317818 2.174988 0.029887 -0.001394 19385.200000 0 0 1
7.170470 -27.395226 -21.416574 35.504700 -1.314798 2.218308 0.035743 -0.004776 144786.000000 0 0 1
6.175870 -26.343256 -21.515674 34.569246 -1.340517 2.242593 0.055670 -0.014215 533108.000000 0 0 1
6.111670 -25.653746 -22.735574 34.819155 -1.336919 2.282285 0.048183 -0.004938 -192224.000000 0 0 1
4.761770 -24.950906 -22.959774 34.239939 -1.382218 2.305753 0.036611 -0.001545 -109242.000000 0 0 1
3.692770 -25.828726 -23.203074 34.916218 -1.428787 2.297669 0.026550 0.000762 320951.000000 0 0 1
2.550070 -25.168766 -23.779874 34.719621 -1.469822 2.325279 0.040673 -0.007646 487202.000000 0 0 1
1.556670 -26.110996 -24.357774 35.742251 -1.511249 2.320585 0.031100 -0.012170 -73250.200000 0 0 1
2.214170 -26.699986 -25.466444 36.963923 -1.488058 2.330841 0.024087 -0.003284 314815.000000 0 0 1
1.220470 -27.458586 -26.097984 37.902088 -1.526378 2.330302 0.027485 -0.018265 48259.000000 0 0 1
1.715570 -28.537786 -27.083624 39.381101 -1.510753 2.329156 0.010771 -0.004745 -428963.000000 0 0 1
2.156170 -28.042816 -28.314274 39.909231 -1.494059 2.359538 0.010389 -0.008420 -129359.000000 0 0 1
2.373670 -29.079056 -29.292604 41.343470 -1.489349 2.358193 0.014574 -0.014467 -351451.000000 0 0 1
3.809670 -29.584676 -29.425384 41.900118 -1.442729 2.349384 0.014007 -0.009283 -536567.000000 0 0 1
4.273470 -30.403026 -28.383014 41.811506 -1.431151 2.316968 0.002696 -0.014802 287913.000000 0 0 1
5.421070 -31.190426 -28.726814 42.748807 -1.398710 2.307690 0.010892 -0.008840 559982.000000 0 0 1
5.869170 -32.082236 -27.564704 42.702810 -1.389856 2.272475 0.028127 -0.018226 -369640.000000 0 0 1
5.043870 -33.186726 -27.318954 43.279610 -1.419966 2.253921 0.026380 -0.029283 131168.000000 0 0 1
5.767670 34.184456 -26.690654 43.751960 1.403649 2.226913 0.056485 -0.040725 -159654.000000 0 0 1
4.756170 33.154540 -26.233724 42.544717 1.428314 2.235232 0.058486 -0.046571 -106030.000000 0 0 1
3.863570 32.789471 -27.264114 42.818319 1.453508 2.261059 0.059136 -0.055347 -43574.700000 0 0 1
2.776470 32.035771 -26.793834 41.855811 1.484345 2.265485 0.052226 -0.043135 -524903.000000 0 0 1
1.553870 32.127951 -27.704804 42.452042 1.522469 2.281826 0.059116 -0.026952 -904527.000000 0 0 1
1.484270 31.445441 -28.937634 42.759858 1.523630 2.314132 0.070782 -0.038427 682577.000000 0 0 1
0.338170 31.902001 -29.693194 43.583687 1.560196 2.320322 0.070486 -0.045703 644779.000000 0 0 1
-0.098630 30.983571 -30.856884 43.728008 -1.567613 2.354143 0.064128 -0.036282 -89836.300000 0 0 1
0.899070 30.884661 -31.845364 44.371137 1.541694 2.371297 0.072834 -0.041562 6402.030000 0 0 1
0.596870 29.888091 -32.781974 44.365663 1.550829 2.402239 0.077885 -0.032465 -184302.000000 0 0 1
1.720570 29.501451 -33.785294 44.885878 1.512541 2.422940 0.066950 -0.021381 135802.000000 0 0 1
1.871070 30.454801 33.606937 45.391872 1.509436 0.737171 0.056511 -0.024993 290275.000000 0 0 1
2.912970 30.097901 32.684593 44.526977 1.474314 0.746544 0.037505 -0.023310 281104.000000 0 0 1
2.547570 29.097571 31.577241 43.014892 1.483466 0.746456 0.039455 -0.013170 -87343.200000 0 0 1
2.410170 27.779491 31.964371 42.417332 1.484252 0.717322 0.038979 -0.006425 -567425.000000 0 0 1
3.565270 27.020251 31.769081 41.857850 1.439606 0.709058 0.035363 -0.002709 -808446.000000 0 0 1
3.376170 25.501371 31.953831 41.021528 1.439170 0.677802 0.041880 -0.004283 130656.000000 0 0 1
2.659870 24.797211 30.915411 39.720766 1.463940 0.678813 0.037447 0.002445 306193.000000 0 0 1
2.627570 23.379581 31.099801 38.996238 1.458879 0.647643 0.029740 0.009545 -217643.000000 0 0 1
1.939470 22.509111 30.056991 37.601121 1.484845 0.644560 0.017717 0.018034 260472.000000 0 0 1
0.529070 22.497211 30.173401 37.640916 1.547284 0.640810 0.005497 0.007261 -100095.000000 0 0 1
-0.132930 21.864511 29.085571 36.387429 -1.564717 0.644617 0.026207 0.013929 176632.000000 0 0 1
-1.533830 21.351611 29.473121 36.426759 -1.499083 0.628167 0.039690 0.010898 -70587.400000 0 0 1
-2.338330 22.385211 30.042441 37.538164 -1.466715 0.642972 0.052663 0.002558 122818.000000 0 0 1
-3.666530 21.903711 30.223471 37.505656 -1.404941 0.633708 0.039513 -0.000360 -177662.000000 0 0 1
-4.619830 23.030911 30.515471 38.509215 -1.372831 0.656030 0.021972 -0.008396 -512730.000000 0 0 1
-4.465130 23.571951 31.844171 39.870108 -1.383589 0.645668 0.033943 -0.010264 173017.000000 0 0 1
-5.226330 24.770961 31.992471 40.797466 -1.362860 0.669426 0.025339 -0.013176 300264.000000 0 0 1
-5.209730 25.241481 33.475252 42.247676 -1.367259 0.656133 0.040555 -0.008753 725520.000000 0 0 1
-6.420430 25.915931 33.866350 43.125249 -1.327945 0.667612 0.036196 -0.008840 575530.000000 0 0 1
-6.475230 26.215411 -33.157544 42.762122 -1.328642 2.458137 0.039657 -0.007573 372009.000000 0 0 1
-7.910830 26.624271 -32.707034 42.909009 -1.281976 2.437566 0.042890 -0.004392 161297.000000 0 0 1
-8.426130 27.805421 -33.267824 44.168871 -1.276554 2.423704 0.043001 -0.004213 -288012.000000 0 0 1
-9.718430 28.220461 -32.906824 44.426359 -1.239141 2.404915 0.040192 -0.003259 44438.200000 0 0 1
-9.941130 28.583901 -31.404264 43.612994 -1.236094 2.374695 0.031330 0.001595 -496964.000000 0 0 1
-9.238230 29.747721 -31.028714 43.966497 -1.269687 2.354257 0.034550 -0.001530 76778.100000 0 0 1
-9.241830 29.873211 -29.610744 43.065256 -1.270767 2.328945 0.045625 -0.005829 -139066.000000 0 0 1
-8.741330 31.225501 -29.056574 43.539950 -1.297841 2.301447 0.041866 -0.019258 249109.000000 0 0 1
-7.360430 31.362921 -29.360164 43.587016 -1.340282 2.309864 0.039821 -0.019043 113848.000000 0 0 1
-6.814630 32.531201 -28.739374 43.939388 -1.364302 2.283747 0.048783 -0.014524 363970.000000 0 0 1
-5.257730 32.483918 -28.637444 43.622836 -1.410332 2.286937 0.052774 -0.018174 138126.000000 0 0 1
-4.640130 33.672605 -28.232044 44.186236 -1.433857 2.263907 0.061953 -0.027019 -175542.000000 0 0 1
-4.490230 -33.740956 -29.257354 44.884374 1.438494 2.280802 0.065463 -0.026122 -549132.000000 0 0 1
-3.566030 -33.986206 -30.462594 45.779345 1.466253 2.298856 0.070712 -0.038515 -414765.000000 0 0 1
-4.025430 33.586613 -31.508774 46.228427 -1.451513 2.320728 0.068307 -0.033236 -228985.000000 0 0 1
-4.918830 34.171643 -32.409674 47.352751 -1.427834 2.324619 0.077987 -0.033862 -121943.000000 0 0 1
-4.207130 -33.439836 -33.513124 47.529486 1.445642 2.353363 0.045525 -0.032018 -71702.400000 0 0 1
-3.967030 -32.085076 -33.216834 46.352427 1.447780 2.369733 0.049713 -0.030220 -702788.000000 0 0 1
-2.903130 -31.599086 -33.939664 46.463224 1.479180 2.389796 0.048271 -0.031007 -555564.000000 0 0 1
32.569420 19.501394 12.537161 39.978142 0.539510 1.251814 0.094376 -0.010880 322038.000000 0 0 1
33.490990 18.534094 13.046661 40.439762 0.505454 1.242301 0.096560 -0.018878 445638.000000 0 0 1
33.263470 17.243294 12.494561 39.495616 0.478247 1.248914 0.096141 -0.015127 116598.000000 0 0 1
34.272820 16.219394 13.061861 40.103704 0.442014 1.239042 0.107793 -0.020909 904113.000000 0 0 1
35.680450 16.429494 12.832061 41.324140 0.431520 1.255054 0.094073 -0.008678 796625.000000 0 0 1
-36.284175 15.405194 13.364661 41.623017 -0.401507 1.243918 0.102020 -0.015635 -881891.000000 0 0 1
-35.411769 14.761694 12.341661 40.301583 -0.394954 1.259563 0.099299 -0.022523 -691210.000000 0 0 1
-34.672368 13.658794 12.876161 39.427545 -0.375270 1.238116 0.074279 -0.015324 98559.300000 0 0 1
-35.371016 12.419094 13.031561 39.688339 -0.337663 1.236243 0.077813 -0.019256 -41516.200000 0 0 1
-34.832319 11.615494 14.215661 39.373788 -0.321873 1.201409 0.085355 -0.030530 -70472.700000 0 0 1
-34.948321 12.230394 15.512661 40.144867 -0.336636 1.174053 0.087641 -0.023888 120981.000000 0 0 1
-34.186710 11.487194 16.440161 39.635410 -0.324161 1.143090 0.075147 -0.025304 -98703.500000 0 0 1
-33.963215 12.307394 17.766961 40.257134 -0.347656 1.113708 0.066293 -0.020307 501226.000000 0 0 1
-35.131052 12.454394 18.595361 41.654414 -0.340689 1.108036 0.080684 -0.026724 605275.000000 0 0 1
-34.879384 13.280594 19.705661 42.204961 -0.363809 1.085010 0.074748 -0.030135 -440843.000000 0 0 1
-36.086485 13.503894 20.635861 43.708447 -0.358077 1.079096 0.097420 -0.033916 -111308.000000 0 0 1
36.165000 12.270794 21.097861 43.630257 0.327111 1.066079 0.082452 -0.022928 -450594.000000 0 0 1
35.141200 12.336394 22.021161 43.266870 0.337612 1.036819 0.084085 -0.034037 -404521.000000 0 0 1
34.792770 10.868594 22.403061 42.785048 0.302776 1.019703 0.075184 -0.032065 60383.400000 0 0 1
35.701140 10.320394 23.343961 43.886472 0.281406 1.009934 0.074901 -0.027164 211873.000000 0 0 1
35.437370 10.783194 24.625591 44.480380 0.295387 0.984082 0.073929 -0.021735 485943.000000 0 0 1
-35.965612 10.955194 25.464571 45.409095 -0.295673 0.975467 0.066051 -0.020535 1106930.000000 0 0 1
-35.078406 11.995094 25.083211 44.760969 -0.329486 0.975950 0.064251 -0.026887 263842.000000 0 0 1
-33.908795 11.627994 24.402631 43.364791 -0.330353 0.973113 0.062681 -0.031783 39389.100000 0 0 1
-32.763445 12.652094 24.131931 42.613014 -0.368523 0.968781 0.059881 -0.035202 560277.000000 0 0 1
-32.070095 13.035594 25.331941 42.896678 -0.386073 0.939076 0.046282 -0.035789 479770.000000 0 0 1
-32.885685 13.768394 26.244441 44.269715 -0.396501 0.936227 0.051963 -0.028332 -621125.000000 0 0 1
-31.987425 14.474394 27.213641 44.421681 -0.424933 0.911424 0.058461 -0.027452 -489917.000000 0 0 1
-31.489825 15.678294 26.684311 44.152808 -0.461954 0.921831 0.087365 -0.034516 -80529.400000 0 0 1
-31.030445 16.621194 27.640931 44.756829 -0.491753 0.905134 0.098399 -0.036847 -220543.000000 0 0 1
-30.657655 17.985694 27.018151 44.647033 -0.530555 0.920842 0.105569 -0.027436 -43936.700000 0 0 1
-31.634255 18.867494 26.474221 45.360697 -0.537787 0.947595 0.069748 -0.040586 307000.000000 0 0 1
-31.005345 20.059494 26.016241 45.172553 -0.574241 0.957055 0.087940 -0.047817 -277123.000000 0 0 1
-32.000965 21.028494 25.398221 45.949200 -0.581365 0.985141 0.109981 -0.028999 -547825.000000 0 0 1
-32.710225 21.783394 26.343501 47.312315 -0.587507 0.980268 0.095919 -0.030381 -206122.000000 0 0 1
-33.665575 22.529294 25.658201 47.950843 -0.589760 1.006177 0.087450 -0.020410 -604867.000000 0 0 1
-33.403005 24.072894 25.515901 48.438891 -0.624471 1.016006 0.088544 -0.025079 -417172.000000 0 0 1
-34.431089 24.572394 24.739601 49.003575 -0.619841 1.041585 0.082955 -0.024308 -363298.000000 0 0 1
-34.168576 25.882894 24.402941 49.324632 -0.648288 1.053259 0.081644 -0.014580 160715.000000 0 0 1
-35.109489 26.395294 23.298161 49.721143 -0.644652 1.083118 0.080003 -0.012971 34533.100000 0 0 1
-34.671489 26.027894 21.993261 48.613444 -0.643949 1.101329 0.079214 -0.031859 10671.200000 0 0 1
-35.497682 26.548894 20.992761 49.047174 -0.642159 1.128505 0.076374 -0.033470 58570.700000 0 0 1
-35.015506 26.103494 19.558761 47.854187 -0.640604 1.149750 0.098814 -0.056649 124438.000000 0 0 1
-35.125398 24.748094 19.364961 47.130282 -0.613783 1.147376 0.104555 -0.047984 120498.000000 0 0 1
-34.390466 24.291294 18.244461 45.887160 -0.614967 1.161903 0.113936 -0.038464 -162078.000000 0 0 1
-35.113970 23.151294 17.530861 45.566483 -0.582898 1.175879 0.093910 -0.036454 616481.000000 0 0 1
36.286290 23.457394 17.077661 46.460635 0.573878 1.194399 0.093999 -0.044359 267710.000000 0 0 1
35.998100 22.837394 15.874661 45.490819 0.565334 1.214331 0.077863 -0.029748 396238.000000 0 0 1
34.481520 22.821394 15.515061 44.164560 0.584657 1.211836 0.084852 -0.031217 636287.000000 0 0 1
33.702680 21.960194 16.324861 43.412231 0.577489 1.185274 0.097330 -0.036516 -86714.400000 0 0 1
32.451920 21.687894 15.729861 42.082304 0.589138 1.187707 0.103949 -0.032845 -1320090.000000 0 0 1
31.670510 20.592094 16.431761 41.195367 0.576514 1.160508 0.099836 -0.030935 -114199.000000 0 0 1
30.959990 21.072294 17.563061 41.364521 0.597607 1.132285 0.090491 -0.025296 626272.000000 0 0 1
29.788850 21.832994 17.190761 40.737912 0.632483 1.135163 0.077056 -0.021436 42729.100000 0 0 1
29.105470 22.617994 18.386861 41.191973 0.660624 1.108092 0.062691 -0.010007 307294.000000 0 0 1
29.942670 23.598794 18.952161 42.575239 0.667463 1.109460 0.033602 -0.013500 -100742.000000 0 0 1
29.222370 24.346794 19.899761 42.926842 0.694634 1.088772 0.034690 -0.008126 -228790.000000 0 0 1
30.193630 25.032994 20.804861 44.397616 0.692224 1.083087 0.030236 -0.016865 -437798.000000 0 0 1
30.934700 26.020794 20.146861 45.165621 0.699335 1.108431 0.053485 -0.028569 -890992.000000 0 0 1
31.867590 26.446294 21.027661 46.444723 0.692697 1.100954 0.057038 -0.030011 -926768.000000 0 0 1
32.949010 27.511194 20.568261 47.597861 0.695699 1.123948 0.055259 -0.033939 414739.000000 0 0 1
33.915630 27.668994 21.579261 48.800693 0.684312 1.112756 0.054357 -0.024596 78595.700000 0 0 1
33.505050 28.517694 22.705061 49.511282 0.705159 1.094396 0.042309 -0.011776 -941638.000000 0 0 1
34.523430 28.665194 23.790091 50.789063 0.692952 1.083306 0.034526 -0.015551 -310247.000000 0 0 1
35.728120 29.306594 23.394321 51.794490 0.686977 1.102153 0.055396 -0.018823 67184.000000 0 0 1
-36.263235 29.658494 24.550811 52.890366 -0.685541 1.088084 0.067306 -0.002668 949602.000000 0 0 1
-35.026283 30.626394 24.305361 52.493495 -0.718481 1.089401 0.068660 -0.000643 1365350.000000 0 0 1
-33.868915 30.064194 23.712241 51.119757 -0.725957 1.088453 0.061000 -0.007077 189047.000000 0 0 1
-32.728355 30.897994 23.763761 50.897422 -0.756639 1.085020 0.065864 -0.008996 342043.000000 0 0 1
-31.417495 30.156494 23.429271 49.451025 -0.764922 1.077210 0.077740 -0.007601 -117435.000000 0 0 1
-31.355745 29.740594 22.082661 48.531738 -0.758968 1.098407 0.056259 -0.006045 42866.700000 0 0 1
-31.820785 28.474094 21.665261 47.882355 -0.729950 1.101265 0.063492 -0.004325 -298585.000000 0 0 1
-31.156825 27.306594 22.384661 47.090030 -0.719636 1.075424 0.064435 -0.006271 638378.000000 0 0 1
-29.742815 27.145194 22.108261 45.937695 -0.739768 1.068698 0.038270 -0.007527 1296420.000000 0 0 1
-29.185455 26.081294 22.937961 45.367111 -0.729290 1.040710 0.044762 -0.005004 32187.500000 0 0 1
-28.946855 26.317394 24.471411 46.145158 -0.737854 1.011826 0.061138 -0.004780 989239.000000 0 0 1
-30.200465 26.645294 25.144461 47.479298 -0.722939 1.012682 0.059263 -0.002804 1230790.000000 0 0 1
-29.904685 27.067194 26.464671 48.242119 -0.735634 0.990131 0.076337 -0.015333 -406716.000000 0 0 1
-31.163615 27.340094 27.269801 49.621505 -0.720136 0.988963 0.075687 -0.018687 -379163.000000 0 0 1
-31.728335 26.156394 27.751871 49.608573 -0.689435 0.977114 0.061908 -0.016115 -273469.000000 0 0 1
-32.817675 26.384294 28.620661 50.914370 -0.677155 0.973833 0.052419 -0.010080 138413.000000 0 0 1
-33.489825 25.113894 29.119041 50.992104 -0.643435 0.963012 0.051680 -0.009481 -183084.000000 0 0 1
-32.723075 24.522494 30.141891 50.800453 -0.643113 0.935596 0.052775 -0.008890 -145131.000000 0 0 1
-33.310395 23.329194 30.596571 50.891884 -0.610966 0.925785 0.041062 -0.021847 -195352.000000 0 0 1
-32.554195 22.525294 31.698681 50.714602 -0.605291 0.895613 0.054517 -0.030881 -106659.000000 0 0 1
-31.327445 22.108294 31.094951 49.366806 -0.614552 0.889403 0.067455 -0.022756 330103.000000 0 0 1
-30.477255 21.284794 31.878161 48.970631 -0.609640 0.861941 0.061154 -0.022533 649164.000000 0 0 1
-29.743155 21.791294 33.186957 49.607357 -0.632304 0.837944 0.056336 -0.021581 -308167.000000 0 0 1
-30.660965 22.238794 34.163472 51.007858 -0.627513 0.836899 0.068582 -0.025120 -43421.700000 0 0 1
-30.327785 22.014994 -32.886254 49.859204 -0.627899 2.291059 0.058051 -0.014042 202011.000000 0 0 1
-28.969165 22.522294 -32.303514 48.887455 -0.660844 2.292645 0.064058 -0.020328 344772.000000 0 0 1
-29.011675 23.879894 -31.983594 49.344472 -0.688676 2.275975 0.048951 -0.018688 100603.000000 0 0 1
-28.180875 24.111994 -30.870334 48.254818 -0.707745 2.264951 0.090187 -0.019721 -180584.000000 0 0 1
-28.523095 25.488294 -30.204974 48.739722 -0.729269 2.239182 0.062537 -0.014034 -187007.000000 0 0 1
-28.304335 26.674894 -30.953844 49.707402 -0.755769 2.243012 0.060513 -0.011227 -23151.400000 0 0 1
-29.455555 27.055594 -31.662994 51.011568 -0.742955 2.240434 0.036738 -0.004567 -262370.000000 0 0 1
-29.370615 28.471994 -32.248174 52.088695 -0.769864 2.238394 0.049095 -0.002570 -90952.000000 0 0 1
-29.436045 29.427494 -31.219954 52.030219 -0.785253 2.214341 0.035523 -0.008594 630.266000 0 0 1
-29.153825 30.749994 -31.684564 52.909538 -0.812037 2.212853 0.059626 -0.025607 -72964.200000 0 0 1
-29.417315 31.823794 -30.612254 53.058858 -0.824673 2.185785 0.051853 -0.014572 105495.000000 0 0 1
-28.398935 31.866594 -29.629154 51.960236 -0.842874 2.177579 0.037201 -0.008972 -37351.500000 0 0 1
-28.655605 32.981794 -28.813304 52.336879 -0.855471 2.153802 0.020759 -0.004551 -373270.000000 0 0 1
-27.665665 33.362694 -27.714664 51.444737 -0.878479 2.139722 0.019224 -0.008218 285926.000000 0 0 1
-26.394275 33.910494 -28.080694 51.333271 -0.909396 2.149605 0.017711 -0.012895 647881.000000 0 0 1
-26.309415 -33.105823 -28.273614 50.868243 0.899291 2.160146 0.025159 0.002876 -484051.000000 0 0 1
-26.657985 -32.165623 -27.073074 49.781792 0.878756 2.145796 0.019581 0.001135 -16720.000000 0 0 1
-28.036195 -31.970623 -26.830794 50.279623 0.850871 2.133685 0.005446 -0.005840 -140542.000000 0 0 1
-28.261095 -31.194423 -25.670204 49.302545 0.834695 2.118428 -0.001091 -0.001957 -362927.000000 0 0 1
-29.725905 -30.797723 -25.499854 49.823406 0.803105 2.108081 -0.014342 -0.000953 -393883.000000 0 0 1
-30.164535 -29.883723 -26.438074 50.019075 0.780722 2.127699 0.000084 -0.011170 -269624.000000 0 0 1
-31.566325 -29.827423 -26.371014 50.808842 0.757082 2.116505 0.000897 -0.015383 -101332.000000 0 0 1
-32.262735 -28.802523 -27.348864 51.170595 0.728795 2.134670 0.014936 -0.022869 840852.000000 0 0 1
-33.694985 -28.839523 -27.243734 52.050852 0.707909 2.121640 0.017910 -0.028312 515019.000000 0 0 1
-34.194446 -27.908723 -28.119364 52.334077 0.684527 2.138035 0.024273 -0.024351 -372754.000000 0 0 1
-35.689850 -28.131823 -28.405294 53.591283 0.667523 2.129439 0.027240 -0.033581 160381.000000 0 0 1
36.173340 -27.651823 -27.400054 53.140350 -0.652670 2.112524 0.020081 -0.027054 363997.000000 0 0 1
34.811750 -28.044923 -27.528454 52.499442 -0.678156 2.122756 0.031429 -0.033199 1340990.000000 0 0 1
33.699520 -27.440923 -26.571584 50.938305 -0.683389 2.119571 0.040635 -0.025329 702790.000000 0 0 1
33.644340 -28.019323 -25.298084 50.566957 -0.694429 2.094729 0.036910 -0.022464 204234.000000 0 0 1
32.493110 -27.606723 -24.593474 49.221665 -0.704272 2.093988 0.050553 -0.016303 -24915.500000 0 0 1
32.363160 -28.284023 -23.228374 48.856089 -0.718239 2.066266 0.039267 -0.009486 -38237.400000 0 0 1
31.827050 -29.595623 -23.224674 49.277251 -0.749085 2.061568 0.056721 -0.008953 -47274.900000 0 0 1
31.540740 -30.202423 -21.976874 48.887500 -0.763726 2.037046 0.063192 -0.021405 717722.000000 0 0 1
32.768330 -30.467523 -21.017874 49.434648 -0.749030 2.009940 0.050951 -0.011493 -688297.000000 0 0 1
33.848310 -31.227223 -21.516974 50.831365 -0.745142 2.007882 0.045002 -0.010129 299420.000000 0 0 1
34.986160 -31.094023 -20.671774 51.168270 -0.726566 1.986677 0.044272 -0.008232 618183.000000 0 0 1
35.814520 -29.815023 -20.922574 51.081988 -0.694237 1.992799 0.032074 -0.006071 -822799.000000 0 0 1
35.011410 -28.714723 -20.488174 49.700095 -0.686909 1.995703 0.029917 -0.010022 -198611.000000 0 0 1
35.571480 -27.483923 -20.823074 49.540858 -0.657834 2.004596 0.018340 -0.009790 -175383.000000 0 0 1
34.716850 -26.250223 -20.459974 48.093081 -0.647409 2.010227 0.025368 -0.009910 298802.000000 0 0 1
33.452180 -26.179423 -21.107674 47.433579 -0.664036 2.031964 0.038993 -0.008131 -54979.500000 0 0 1
32.611310 -25.404623 -20.308974 46.058081 -0.661812 2.027445 0.057956 -0.013323 470310.000000 0 0 1
31.198400 -25.142223 -20.971274 45.224616 -0.678317 2.052979 0.058112 -0.014417 1033820.000000 0 0 1
30.496570 -26.346323 -21.265574 45.567468 -0.712515 2.056333 0.066245 -0.014430 52816.100000 0 0 1
29.193140 -26.159723 -21.779574 44.843287 -0.730651 2.077939 0.067905 -0.018488 344356.000000 0 0 1
28.518780 -27.482123 -22.235574 45.420355 -0.766889 2.082371 0.067433 -0.020640 120047.000000 0 0 1
27.860550 -28.253423 -21.221074 44.997779 -0.792399 2.061904 0.067076 -0.021683 258164.000000 0 0 1
27.379970 -29.519223 -21.699674 45.737546 -0.822978 2.065123 0.064168 -0.021281 -56259.600000 0 0 1
26.701270 -30.380623 -20.613174 45.396509 -0.849767 2.042124 0.067797 -0.012249 -183228.000000 0 0 1
27.546370 -30.980423 -19.605174 45.857954 -0.844006 2.012544 0.079136 -0.018781 79673.800000 0 0 1
28.130290 -32.190323 -19.969874 47.183959 -0.852604 2.007809 0.077343 -0.008014 72242.000000 0 0 1
29.254290 -32.739523 -19.060974 47.864502 -0.841558 1.980380 0.067219 -0.010388 -230951.000000 0 0 1
28.910910 -33.163823 -17.705974 47.425535 -0.853804 1.953406 0.066301 -0.011009 -235193.000000 0 0 1
28.469960 -32.113023 -16.924774 46.132774 -0.845459 1.946440 0.052617 -0.013755 -531488.000000 0 0 1
27.791580 -32.648723 -15.682374 45.653564 -0.865588 1.921446 0.048149 -0.004677 321374.000000 0 0 1
26.412170 -32.938623 -15.939074 45.128812 -0.894922 1.931776 0.050754 -0.005084 502466.000000 0 0 1
25.857770 -33.781923 -14.937174 45.088377 -0.917492 1.908463 0.042973 -0.001446 -753891.000000 0 0 1
24.343470 -33.771123 -14.976574 44.242412 -0.946222 1.916131 0.047686 0.002408 -734223.000000 0 0 1
23.837270 -32.553023 -14.520974 42.880922 -0.938746 1.916262 0.046590 0.004520 -87746.000000 0 0 1
22.441270 -32.598023 -14.309774 42.083386 -0.967882 1.917749 0.069227 -0.003482 62172.000000 0 0 1
-0.435735 -6.991606 -28.981214 29.815821 1.508554 2.904427 0.055257 -0.019334 -244043.000000 0 0 1
-0.147435 -8.350506 -28.820724 30.006446 1.553142 2.859534 0.056840 -0.017103 -119989.000000 0 0 1
-0.424835 -9.097606 -29.985444 31.338056 1.524133 2.846716 0.046857 -0.024128 -120395.000000 0 0 1
-0.323435 -10.634606 -29.782124 31.625533 1.540392 2.798478 0.061149 -0.017898 -269989.000000 0 0 1
0.994065 -11.051706 -29.589984 31.602144 -1.481091 2.782820 0.032065 -0.021087 -542162.000000 0 0 1
1.156765 -12.406306 -29.286444 31.826881 -1.477825 2.739335 0.036149 -0.021013 -50514.100000 0 0 1
2.566765 -12.712906 -28.744594 31.535027 -1.371572 2.717745 0.030745 -0.015136 -325825.000000 0 0 1
3.533665 -12.687706 -29.790724 32.572257 -1.299169 2.725324 0.035241 -0.014333 461360.000000 0 0 1
4.879965 -12.872106 -29.342034 32.410803 -1.208426 2.702921 0.054072 -0.024355 987175.000000 0 0 1
5.376765 -14.230906 -28.753274 32.529664 -1.209553 2.654953 0.070401 -0.034557 -1009220.000000 0 0 1
4.909965 -14.509406 -27.478804 31.459741 -1.244494 2.633059 0.068477 -0.021782 -134513.000000 0 0 1
5.785365 -15.417106 -26.843294 31.491587 -1.211801 2.591346 0.080480 -0.027046 -71071.900000 0 0 1
5.720165 -16.913506 -27.267614 32.593094 -1.244671 2.561856 0.079468 -0.024291 125263.000000 0 0 1
6.049865 -17.285506 -28.631614 33.987629 -1.234125 2.572542 0.078998 -0.025360 37915.100000 0 0 1
5.569265 -18.593606 -28.848224 34.770087 -1.279775 2.549340 0.065878 -0.024154 -76445.000000 0 0 1
5.677065 -19.041406 -30.350124 36.275808 -1.281044 2.561933 0.066374 -0.029386 1043890.000000 0 0 1
7.047865 -19.304906 -30.719434 36.959916 -1.220750 2.551979 0.066219 -0.029725 1185790.000000 0 0 1
6.971065 -19.938306 -31.978624 38.324459 -1.234450 2.557873 0.052863 -0.027666 113925.000000 0 0 1
8.359765 -19.968306 -32.653274 39.177228 -1.174315 2.556165 0.060930 -0.027955 116510.000000 0 0 1
8.748365 -18.667606 -33.048164 38.951182 -1.132551 2.583848 0.058805 -0.031261 247892.000000 0 0 1
10.032365 -18.632706 -33.648214 39.749571 -1.076881 2.580182 0.048981 -0.030147 67610.900000 0 0 1
10.301165 -17.251306 34.147997 39.620794 -1.032494 0.531850 0.047142 -0.022706 106546.000000 0 0 1
9.272665 -17.089306 33.198126 38.472618 -1.073652 0.529811 0.056713 -0.017093 223170.000000 0 0 1
9.065965 -15.675006 32.876094 37.533120 -1.046433 0.503452 0.057649 -0.013062 365174.000000 0 0 1
8.117865 -15.372706 31.660641 36.119469 -1.084946 0.502143 0.057560 -0.022362 219335.000000 0 0 1
8.672765 -15.796106 30.452971 35.385269 -1.068687 0.534327 0.061162 -0.018678 221819.000000 0 0 1
7.742165 -15.617106 29.378641 34.160499 -1.110555 0.535492 0.064143 -0.012437 141759.000000 0 0 1
8.027465 -16.514006 28.118651 33.582900 -1.118330 0.578487 0.056645 -0.017385 -483059.000000 0 0 1
7.641765 -17.896806 28.350031 34.386284 -1.167241 0.601553 0.061403 -0.022871 342538.000000 0 0 1
7.682165 -18.633106 27.164401 33.824740 -1.179744 0.638329 0.054315 -0.022736 -55292.300000 0 0 1
7.221465 -20.069206 27.533501 34.828384 -1.225393 0.659093 0.055246 -0.021384 -108931.000000 0 0 1
8.080265 -20.637206 28.522091 36.120557 -1.197605 0.660581 0.061754 -0.020405 807042.000000 0 0 1
7.405765 -21.733206 29.151391 37.107698 -1.242378 0.667149 0.041611 -0.016623 -29081.500000 0 0 1
7.890365 -21.915706 30.601121 38.457570 -1.225212 0.650615 0.041695 -0.019914 -309005.000000 0 0 1
7.311665 -21.197306 31.671801 38.805789 -1.238642 0.616059 0.061447 -0.025121 81908.700000 0 0 1
7.377365 -19.797806 31.435221 37.875477 -1.214100 0.591756 0.051360 -0.025379 -447763.000000 0 0 1
6.694465 -18.990606 32.469711 38.206559 -1.231883 0.555102 0.055708 -0.020614 -1079340.000000 0 0 1
5.321165 -19.035006 32.632411 38.151285 -1.298208 0.544585 0.059874 -0.024278 -1026150.000000 0 0 1
4.875565 -18.157606 33.627931 38.526712 -1.308470 0.509790 0.067491 -0.018621 -73548.400000 0 0 1
3.373765 -18.233306 33.927792 38.664336 -1.387833 0.500181 0.057505 -0.019614 -11106.200000 0 0 1
2.949665 -19.340206 -33.690854 38.959180 -1.419448 2.615495 0.046380 -0.020547 84230.700000 0 0 1
2.222865 -18.987806 -32.534344 37.735414 -1.454259 2.610334 0.051182 -0.027703 47803.700000 0 0 1
1.772665 -20.212506 -31.686124 37.625765 -1.483319 2.572034 0.051061 -0.018536 107461.000000 0 0 1
0.641965 -20.974306 -32.175204 38.413245 -1.540199 2.563684 0.043960 -0.020609 847358.000000 0 0 1
-0.119135 -21.629106 -31.166834 37.936842 1.565288 2.534912 0.052116 -0.023467 642164.000000 0 0 1
-0.925535 -20.625406 -30.218184 36.597850 1.525953 2.542206 0.054288 -0.025986 -486557.000000 0 0 1
-1.837635 -19.836006 -30.939534 36.798082 1.478419 2.569541 0.063598 -0.028684 -363426.000000 0 0 1
-2.471035 -18.877406 -30.175514 35.679464 1.440637 2.578745 0.079593 -0.017129 -13578.900000 0 0 1
-1.757935 -17.529006 -30.314014 35.061315 1.470843 2.615150 0.054413 -0.013552 -158584.000000 0 0 1
-2.379035 -16.604706 -29.494244 33.930613 1.428490 2.624483 0.061788 -0.016342 -475957.000000 0 0 1
-2.089135 -15.288006 -29.964284 33.703797 1.434986 2.666057 0.074171 -0.022012 -285708.000000 0 0 1
-3.085735 -14.194506 -29.595904 32.968520 1.356737 2.685322 0.062414 -0.012804 -70416.300000 0 0 1
-3.156735 -13.932106 -28.205684 31.616913 1.347979 2.672785 0.054558 -0.021697 -80068.800000 0 0 1
-4.181935 -13.028106 -27.834044 31.015386 1.260193 2.684698 0.047223 -0.022561 44629.000000 0 0 1
-4.194535 -12.848406 -26.283694 29.555173 1.255241 2.666629 0.036660 -0.021428 103981.000000 0 0 1
-4.880535 -13.915806 -25.581374 29.527546 1.233481 2.618656 0.042473 -0.021770 425407.000000 0 0 1
-4.832535 -13.738606 -24.131474 28.185648 1.232565 2.598591 0.024782 -0.016067 -318679.000000 0 0 1
-5.875135 -12.781606 -23.489774 27.379849 1.139942 2.602008 0.029888 -0.021043 -1267440.000000 0 0 1
-7.128135 -13.215306 -23.837974 28.172746 1.076139 2.579489 0.030084 -0.019117 -1366580.000000 0 0 1
-8.069335 -12.198306 -23.508174 27.686587 0.986370 2.585041 0.020104 -0.018782 229135.000000 0 0 1
-9.517035 -12.484906 -23.970574 28.653713 0.919480 2.561772 0.043528 -0.024890 132795.000000 0 0 1
-10.048535 -13.594606 -23.234074 28.733405 0.934272 2.512579 0.025179 -0.027591 -479928.000000 0 0 1
-10.631635 -14.557106 -24.050274 30.055893 0.939997 2.498400 0.026868 -0.021955 -556151.000000 0 0 1
-11.520535 -15.473206 -23.244374 30.206684 0.930794 2.448871 0.013942 -0.025815 -643291.000000 0 0 1
-10.843235 -16.455306 -22.481974 29.896355 0.988155 2.421883 0.012233 -0.017406 -678499.000000 0 0 1
-11.558535 -17.507406 -21.897274 30.324901 0.987278 2.377613 0.017385 -0.010670 -132137.000000 0 0 1
-12.183335 -18.562806 -22.853574 31.863730 0.989984 2.370613 0.008832 -0.001570 134853.000000 0 0 1
-13.254035 -18.053806 -23.580274 32.521358 0.937523 2.381933 0.015982 -0.000940 -327244.000000 0 0 1
-14.058935 -18.897106 -24.405874 33.917562 0.931164 2.373971 0.013919 0.002408 108065.000000 0 0 1
-15.043335 -18.118706 -25.258054 34.533444 0.877871 2.391181 0.025799 -0.005623 -516605.000000 0 0 1
-16.070935 -17.576406 -24.481774 34.154974 0.830111 2.369977 0.020438 0.002638 -422880.000000 0 0 1
-17.001035 -16.944206 -25.335804 34.900491 0.783724 2.383202 0.009176 0.004899 278367.000000 0 0 1
-17.829035 -15.781906 -24.763074 34.353354 0.724567 2.375802 0.013718 -0.001142 361060.000000 0 0 1
-18.789735 -16.055606 -23.752974 34.278863 0.707094 2.336346 0.022809 0.000998 89654.400000 0 0 1
-19.569735 -14.926506 -23.456874 34.000001 0.651601 2.332158 0.037676 -0.005048 188999.000000 0 0 1
-20.285435 -15.175206 -22.103974 33.620997 0.642274 2.288220 0.040819 -0.014375 9141.820000 0 0 1
-19.422935 -14.767206 -21.059874 32.231027 0.650059 2.282868 0.043677 -0.005967 220391.000000 0 0 1
-19.936835 -14.768706 -19.737474 31.704258 0.637571 2.242793 0.046016 -0.016268 -329326.000000 0 0 1
-20.528235 -13.490606 -19.191674 31.172508 0.581401 2.234020 0.057453 -0.016036 -932300.000000 0 0 1
-21.707635 -13.099006 -19.790074 32.162905 0.542937 2.233572 0.066581 -0.025298 -790312.000000 0 0 1
-22.103035 -11.905606 -19.124074 31.559750 0.494081 2.221774 0.077450 -0.028532 430947.000000 0 0 1
-23.605535 -11.572206 -19.375374 32.657960 0.455803 2.205926 0.074760 -0.024790 393349.000000 0 0 1
-23.830135 -10.804606 -20.492074 33.234620 0.425679 2.235198 0.072578 -0.023545 -22176.600000 0 0 1
-25.189715 -10.420206 -20.510974 34.114550 0.392234 2.215846 0.088283 -0.027264 152275.000000 0 0 1
-25.676425 -9.500606 -21.647974 34.902366 0.354391 2.239850 0.097356 -0.022808 -79907.400000 0 0 1
-25.754825 -10.099606 -22.922674 35.927177 0.373716 2.262736 0.069364 -0.019994 145758.000000 0 0 1
-26.681925 -9.461406 -23.763274 36.961284 0.340767 2.269105 0.072613 -0.019616 -528541.000000 0 0 1
-26.763365 -10.084806 -25.094534 38.048872 0.360360 2.290995 0.054313 -0.011004 -111246.000000 0 0 1
-25.731405 -9.715706 -25.973844 37.830421 0.361032 2.327579 0.040518 -0.012562 -494135.000000 0 0 1
-24.725435 -10.676306 -25.981224 37.421313 0.407612 2.338229 0.042912 -0.007028 -329522.000000 0 0 1
-23.700235 -10.611406 -27.169564 37.583085 0.420968 2.378816 0.047609 -0.008599 421882.000000 0 0 1
-24.223835 -10.900806 -28.471344 38.938916 0.422857 2.390846 0.046548 -0.002318 -221341.000000 0 0 1
-23.256535 -10.692106 -29.465114 39.030508 0.430929 2.426336 0.039023 0.001409 294667.000000 0 0 1
-23.818935 -11.077606 -30.897054 40.554691 0.435320 2.436978 0.042623 0.000139 223476.000000 0 0 1
-24.750635 -10.212706 -31.445684 41.300416 0.391342 2.436249 0.041548 0.001787 -340627.000000 0 0 1
-24.085635 -9.309006 -32.265264 41.325811 0.368811 2.466667 0.040475 -0.004515 -341416.000000 0 0 1
-25.022635 -8.237706 -32.899114 42.146694 0.318035 2.466399 0.043425 -0.009970 -154678.000000 0 0 1
-25.954075 -8.700206 -33.877924 43.554809 0.323443 2.461990 0.058293 -0.012557 1070860.000000 0 0 1
-27.149145 -9.330806 -33.454024 44.083010 0.331040 2.432399 0.055680 -0.014195 294105.000000 0 0 1
-28.186545 -8.520706 -32.582124 43.916723 0.293563 2.406706 0.033798 -0.005277 -414166.000000 0 0 1
-29.484125 -9.074906 -32.590414 44.875413 0.298588 2.383636 0.021239 -0.006855 303662.000000 0 0 1
-30.299475 -8.442106 -31.571544 44.565567 0.271731 2.358066 0.016821 -0.004688 420914.000000 0 0 1
-31.757795 -8.935006 -31.702744 45.754299 0.274259 2.336287 0.011282 -0.007546 -78559.000000 0 0 1
-31.882165 -10.312806 -31.352764 45.889239 0.312844 2.322969 0.016133 -0.010303 1068930.000000 0 0 1
-33.246325 -10.784006 -31.431084 47.005595 0.313659 2.303211 0.006536 -0.010227 858570.000000 0 0 1
-33.326455 -12.324706 -31.360924 47.392600 0.354219 2.293915 0.023839 -0.017205 -434846.000000 0 0 1
-34.647385 -12.795606 -31.407554 48.483021 0.353772 2.275496 0.020696 -0.018544 -235673.000000 0 0 1
-34.525357 -14.163106 -31.434034 48.792339 0.389288 2.270827 0.025686 -0.020917 49386.100000 0 0 1
-35.740825 -14.924606 -30.909794 49.553666 0.395568 2.244346 0.020075 -0.024166 -271089.000000 0 0 1
-35.790022 -14.829906 -29.482114 48.683127 0.392823 2.221306 0.037745 -0.021991 232851.000000 0 0 1
36.004070 -15.752706 -28.883384 48.771822 -0.412432 2.204601 0.047239 -0.019185 406746.000000 0 0 1
36.143590 -15.787106 -27.343584 47.992326 -0.411813 2.176997 0.057771 -0.019434 -342502.000000 0 0 1
-35.277699 -16.205406 -27.047174 47.314701 0.430616 2.179305 0.056934 -0.026876 -318431.000000 0 0 1
-35.162911 -16.186206 -25.642724 46.432455 0.431403 2.155867 0.071189 -0.027609 771666.000000 0 0 1
-33.750815 -15.597206 -25.241434 44.939074 0.432894 2.167213 0.083306 -0.025350 774316.000000 0 0 1
-32.715495 -16.478506 -25.631524 44.708163 0.466596 2.181333 0.080490 -0.024785 120858.000000 0 0 1
-31.519915 -16.189906 -24.923574 43.322081 0.474500 2.183778 0.081783 -0.012426 380501.000000 0 0 1
-30.241915 -16.983606 -25.246024 42.899628 0.511699 2.199987 0.080622 -0.015673 81449.800000 0 0 1
-29.995855 -18.119606 -24.449074 42.729717 0.543407 2.179957 0.078426 -0.020070 -72458.400000 0 0 1
-30.720365 -19.305006 -24.755874 43.923541 0.561048 2.169549 0.070609 -0.025001 8118.260000 0 0 1
-30.447475 -20.505506 -23.810974 43.754852 0.592699 2.146220 0.063391 -0.021492 363858.000000 0 0 1
-29.182165 -21.130906 -23.986474 43.283541 0.626720 2.158163 0.073397 -0.018038 307959.000000 0 0 1
-29.284735 -22.340106 -23.233074 43.548270 0.651680 2.133532 0.053484 -0.017767 -13275.200000 0 0 1
-28.030975 -23.250006 -23.378674 43.276562 0.692436 2.141490 0.055577 -0.015824 786341.000000 0 0 1
-26.802485 -22.715606 -22.883274 41.928704 0.703052 2.148100 0.051393 -0.010907 293296.000000 0 0 1
-26.510375 -22.551406 -21.492174 40.905739 0.704879 2.123990 0.036726 -0.019664 -302843.000000 0 0 1
-26.652225 -23.696006 -20.510774 41.140414 0.726750 2.092728 0.037851 -0.008530 -204038.000000 0 0 1
-26.499025 -23.195506 -19.212874 40.116884 0.719019 2.070223 0.032093 -0.010317 138273.000000 0 0 1
-26.580955 -24.236406 -18.206074 40.316395 0.739294 2.039332 0.021144 0.014792 -109780.000000 0 0 1
-26.595645 -23.630506 -16.796174 39.342606 0.726431 2.011881 0.013445 0.015850 -301107.000000 0 0 1
-27.799565 -22.942206 -16.590374 39.678725 0.689962 2.002168 0.011775 0.002259 -250501.000000 0 0 1
-27.568665 -21.877306 -15.663574 38.522661 0.670800 1.989533 0.013056 -0.001102 279877.000000 0 0 1
-28.840745 -21.279106 -15.000074 38.853458 0.635656 1.967162 0.032848 -0.002377 -3029.810000 0 0 1
-29.699335 -20.674206 -15.917474 39.532763 0.608115 1.985196 0.050324 -0.012050 -1084640.000000 0 0 1
-30.810565 -20.191906 -15.247374 39.868364 0.580132 1.963235 0.065271 -0.012874 -882388.000000 0 0 1
-31.772575 -19.535706 -16.251574 40.684813 0.551275 1.981714 0.080631 -0.036512 -562073.000000 0 0 1
-32.569935 -20.491506 -16.874474 42.017263 0.561581 1.984068 0.054954 -0.024550 -474974.000000 0 0 1
-33.271405 -19.947206 -17.961674 42.749260 0.540074 2.004422 0.062821 -0.029709 86772.100000 0 0 1
-33.868645 -20.951006 -18.986374 44.119295 0.553981 2.015668 0.051529 -0.024207 109851.000000 0 0 1
-34.959073 -21.739706 -18.619174 45.182134 0.556339 1.995545 0.053068 -0.021018 -257301.000000 0 0 1
-34.619454 -22.731306 -17.646074 45.017806 0.581004 1.973579 0.042366 -0.019212 -304084.000000 0 0 1
-35.606642 -23.912406 -17.499174 46.323399 0.591391 1.958173 0.043971 -0.008717 -51749.500000 0 0 1
35.809570 -23.489506 -17.166974 46.138782 -0.580551 1.952037 0.050073 -0.013821 -196115.000000 0 0 1
34.963920 -24.596406 -17.088974 46.037940 -0.613057 1.951090 0.058321 -0.020423 -514785.000000 0 0 1
33.620670 -24.315706 -16.417674 44.622226 -0.626152 1.947574 0.054230 -0.021419 196770.000000 0 0 1
32.517880 -24.111706 -17.330374 44.035539 -0.638033 1.975291 0.061901 -0.023363 709335.000000 0 0 1
31.335340 -24.369706 -16.571374 43.016236 -0.660999 1.966259 0.066938 -0.016552 -166348.000000 0 0 1
30.065940 -24.495306 -17.409374 42.509611 -0.683652 1.992746 0.056918 -0.031919 -462734.000000 0 0 1
29.686660 -23.264906 -17.986574 41.786008 -0.664712 2.015782 0.037887 -0.030953 -1064190.000000 0 0 1
28.492600 -23.389206 -18.626474 41.301680 -0.687348 2.038666 0.055374 -0.033468 -1424070.000000 0 0 1
34.918000 29.766294 -18.255374 49.381754 0.705922 1.949459 0.036563 -0.004661 -279865.000000 0 0 1
34.089640 29.755894 -19.361774 49.217832 0.717624 1.975112 0.042668 -0.012061 -189961.000000 0 0 1
34.687300 29.043694 -20.420574 49.636123 0.697075 1.994792 0.054852 -0.009248 192313.000000 0 0 1
33.833920 28.981494 -21.741174 49.571562 0.708302 2.024816 0.049627 -0.012027 -672212.000000 0 0 1
32.595640 28.335794 -21.650074 48.312717 0.715600 2.035462 0.051945 -0.007669 -259288.000000 0 0 1
31.878440 28.520194 -22.843274 48.491767 0.729854 2.061306 0.055379 0.002212 -150683.000000 0 0 1
30.825100 29.653394 -22.748574 48.445930 0.766027 2.059596 0.055831 0.004364 -423784.000000 0 0 1
31.301110 31.017094 -22.747474 49.590998 0.780841 2.047330 0.056076 -0.004792 -576211.000000 0 0 1
30.224060 31.867594 -22.820674 49.495661 0.811861 2.049990 0.067879 -0.001806 -905408.000000 0 0 1
30.620450 33.371594 -22.622074 50.626410 0.828364 2.034030 0.069307 -0.001092 42598.300000 0 0 1
30.859480 33.807394 -21.305374 50.489269 0.830953 2.006423 0.074764 -0.008198 -623437.000000 0 0 1
32.063440 33.351594 -20.792974 50.722192 0.805088 1.993183 0.059213 -0.008775 -1089140.000000 0 0 1
32.243420 33.389994 -19.290874 50.265969 0.802866 1.964678 0.055537 -0.013898 -240605.000000 0 0 1
32.582710 -33.719123 -18.900574 50.555355 -0.802536 1.953963 0.066325 -0.011839 156772.000000 0 0 1
32.707660 -33.626923 -17.508074 50.070886 -0.799255 1.928011 0.038369 -0.021542 -492406.000000 0 0 1
32.714550 -32.212223 -16.933374 48.934734 -0.777662 1.924143 0.039922 0.002764 -9146.880000 0 0 1
33.891290 -31.475823 -17.146474 49.328983 -0.748463 1.925801 0.053048 -0.011522 558420.000000 0 0 1
35.004170 -31.777123 -16.266974 49.996919 -0.737113 1.902188 0.051535 -0.010429 362007.000000 0 0 1
36.294690 -31.077923 -16.735974 50.628398 -0.708121 1.907698 0.036975 -0.013424 -180761.000000 0 0 1
-35.725817 -31.872523 -17.702774 51.044882 0.728457 1.924962 0.038034 -0.012865 -284920.000000 0 0 1
-34.575087 -31.132823 -18.071474 49.912599 0.733059 1.941276 0.017304 -0.006700 -234331.000000 0 0 1
-33.544745 -32.007323 -18.779774 50.023980 0.761949 1.955641 -0.001526 -0.002197 -1178830.000000 0 0 1
-32.861685 -32.933723 -17.963174 49.871797 0.786493 1.939265 0.021610 -0.009874 543247.000000 0 0 1
-31.862055 -33.718023 -18.622274 49.988846 0.813691 1.952529 0.004829 0.000368 853761.000000 0 0 1
-30.537675 -33.028423 -19.049774 48.849977 0.824562 1.971390 -0.004025 -0.002460 -688280.000000 0 0 1
-30.832165 -32.149023 -20.149174 48.889379 0.806304 1.995596 -0.015099 0.002994 686833.000000 0 0 1
-29.694325 -31.630723 -20.885874 48.150549 0.816964 2.019460 -0.003833 -0.003229 608303.000000 0 0 1
-28.922245 -32.687023 -21.708274 48.746148 0.846430 2.032343 -0.001099 0.006311 40764.100000 0 0 1
-29.538725 -32.985223 -22.970074 49.881716 0.840465 2.049344 -0.004014 0.013319 -216107.000000 0 0 1
-28.942215 -34.098123 -23.481174 50.514348 0.867004 2.054252 -0.001246 0.007108 -148202.000000 0 0 1
-29.720125 33.702194 -24.690774 51.271415 -0.848102 2.073242 -0.009475 0.000129 -318161.000000 0 0 1
-30.757065 32.819894 -24.295874 51.121737 -0.817833 2.066050 -0.013731 0.000388 -1803.880000 0 0 1
-31.301895 32.052894 -25.359164 51.480908 -0.797251 2.085864 -0.008767 0.002298 452653.000000 0 0 1
-32.244685 32.731594 -26.378544 52.980228 -0.792892 2.091965 0.001848 -0.005771 -435619.000000 0 0 1
-31.526445 33.692694 -27.074894 53.499199 -0.818601 2.101430 -0.004803 -0.008497 -477260.000000 0 0 1
-32.388635 -33.877423 -27.782224 54.484452 0.807861 2.105878 -0.002202 -0.013349 149114.000000 0 0 1
-31.660665 -33.026623 -28.859594 54.092807 0.806511 2.133553 0.010430 -0.009537 128388.000000 0 0 1
-31.452425 -33.591523 -30.113724 54.995290 0.818273 2.150253 0.017584 -0.005008 -174485.000000 0 0 1
-32.643725 -33.690923 -30.863714 56.153895 0.801183 2.152714 0.022423 -0.004533 -46573.000000 0 0 1
-32.540045 33.791794 -32.131094 56.860769 -0.804267 2.171331 0.046211 -0.007107 199691.000000 0 0 1
-31.680175 -34.136923 -33.155344 57.168522 0.822708 2.189474 0.044779 -0.021418 -73659.000000 0 0 1
-31.683465 33.479294 34.133719 57.356917 -0.812950 0.933393 0.036735 -0.033552 -435785.000000 0 0 1
-30.712105 33.991794 33.077094 56.504598 -0.836042 0.945438 0.042293 -0.032808 247934.000000 0 0 1
-29.398775 33.457394 33.090585 55.485782 -0.849879 0.931813 0.051605 -0.028392 23501.000000 0 0 1
-29.291625 32.130694 32.570174 54.324921 -0.831587 0.927865 0.055179 -0.036901 -869990.000000 0 0 1
-27.922185 31.469894 32.681863 53.273885 -0.845061 0.910351 0.043736 -0.028293 -582471.000000 0 0 1
-27.575215 31.325294 34.032698 53.850637 -0.848980 0.886687 0.044313 -0.031155 1192390.000000 0 0 1
-26.177425 31.058394 -34.095552 53.031953 -0.870471 2.269107 0.048170 -0.028261 1386880.000000 0 0 1
-25.534095 29.636094 34.016598 51.840303 -0.859613 0.855050 0.059977 -0.035728 14830.100000 0 0 1
-25.857545 28.716194 -33.352274 51.045143 -0.837732 2.282847 0.067697 -0.028192 164364.000000 0 0 1
-25.642255 27.389594 -33.723834 50.448113 -0.818335 2.302967 0.068568 -0.022086 -222609.000000 0 0 1
-25.344885 26.424594 -32.606774 49.028809 -0.806251 2.298362 0.082630 -0.031121 1179540.000000 0 0 1
-24.161335 26.541594 -31.709564 47.892826 -0.832309 2.294406 0.079933 -0.027754 1408350.000000 0 0 1
-24.247635 27.564594 -30.700514 47.856830 -0.849330 2.267258 0.066789 -0.028345 739841.000000 0 0 1
-22.919435 27.680994 -29.873724 46.733043 -0.879223 2.264309 0.098509 -0.026557 1181400.000000 0 0 1
-21.692535 27.800894 -30.616964 46.699617 -0.908195 2.285793 0.093703 -0.022801 853595.000000 0 0 1
-20.506035 27.953494 -29.856634 45.752747 -0.937889 2.281761 0.054885 -0.019741 472579.000000 0 0 1
-20.284735 29.254294 -29.075064 45.963502 -0.964518 2.255661 0.039098 -0.008079 -754074.000000 0 0 1
-19.980935 30.396394 -29.849984 47.055287 -0.989275 2.257976 0.033606 0.005254 -64486.800000 0 0 1
-19.722935 31.567694 -29.133974 47.268403 -1.012354 2.234898 0.039637 -0.003482 -36219.800000 0 0 1
-19.419635 32.825194 -30.038244 48.548035 -1.036571 2.237925 0.037437 0.005236 335607.000000 0 0 1
-18.183135 32.678494 -30.720494 48.396891 -1.063034 2.258496 0.041585 0.006634 -152385.000000 0 0 1
-17.905935 33.852994 -31.398064 49.522582 -1.084272 2.257531 0.036453 0.007913 -234544.000000 0 0 1
-16.410835 34.060994 -31.677044 49.324456 -1.121809 2.268184 0.032119 0.012093 -140010.000000 0 0 1
-15.715235 -33.930123 -30.473144 48.237272 1.137049 2.254585 0.043284 0.007008 1640760.000000 0 0 1
-14.262735 -33.891723 -30.623674 47.852732 1.172461 2.265238 0.045506 0.008917 2135070.000000 0 0 1
-13.483935 33.164694 -30.526334 47.048597 -1.184635 2.276836 0.052400 0.005671 -72627.100000 0 0 1
-13.494935 32.591694 -29.220404 45.805718 -1.178228 2.262591 0.061921 -0.006383 -221752.000000 0 0 1
-13.068635 31.253494 -29.353664 44.824186 -1.174742 2.284797 0.047265 -0.003842 -197500.000000 0 0 1
-12.859035 30.550594 -27.990304 43.383760 -1.172395 2.272054 0.039846 -0.019847 278735.000000 0 0 1
-11.595535 30.894694 -27.438974 42.916615 -1.211741 2.264456 0.051134 -0.017498 31964.600000 0 0 1
-11.473235 30.404294 -26.096004 41.678023 -1.209962 2.247381 0.041471 -0.026850 -98372.300000 0 0 1
-10.184035 30.847094 -25.394034 41.232447 -1.251917 2.234292 0.054683 -0.027097 470861.000000 0 0 1
-9.011535 30.293594 -25.989024 40.918687 -1.281659 2.258984 0.057274 -0.016000 -192586.000000 0 0 1
-7.852235 30.757694 -25.361154 40.631040 -1.320842 2.244880 0.072032 -0.020028 855485.000000 0 0 1
-6.482535 30.059594 -25.724624 40.091878 -1.358393 2.267433 0.057221 -0.023191 956887.000000 0 0 1
-6.430035 28.768194 -25.228264 38.799737 -1.350899 2.278667 0.057892 -0.030745 223609.000000 0 0 1
-5.141135 28.223994 -25.463984 38.359348 -1.390617 2.296721 0.064207 -0.036441 182459.000000 0 0 1
-4.972435 26.922994 -24.584974 36.796653 -1.388163 2.302490 0.063916 -0.031882 -379284.000000 0 0 1
-5.544235 25.769294 -25.106244 36.402177 -1.358878 2.331858 0.077408 -0.029546 -71706.600000 0 0 1
-5.503435 24.671394 -24.204874 34.997734 -1.351320 2.334516 0.073425 -0.038798 -305987.000000 0 0 1
-6.429135 23.440094 -24.399074 34.439608 -1.303100 2.358110 0.069826 -0.035451 -30204.900000 0 0 1
-6.157935 22.713194 -25.570944 34.751727 -1.306044 2.397670 0.070649 -0.035277 198791.000000 0 0 1
-6.932135 21.516694 -25.501484 34.078560 -1.259122 2.416314 0.070515 -0.038306 30130.000000 0 0 1
-6.756235 20.555594 -26.667594 34.341516 -1.253239 2.459953 0.059690 -0.032878 -301880.000000 0 0 1
-5.550535 19.845494 -26.756464 33.772184 -1.298077 2.485306 0.065009 -0.033187 -507529.000000 0 0 1
-5.439935 18.629294 -25.969324 32.419890 -1.286686 2.499811 0.073550 -0.036615 -322227.000000 0 0 1
-4.166035 17.839194 -26.281034 32.035690 -1.341375 2.532849 0.067162 -0.040602 -123525.000000 0 0 1
-4.107535 17.403394 -27.609814 32.894555 -1.339019 2.566870 0.069134 -0.033589 -304140.000000 0 0 1
-2.920135 16.702094 -27.850084 32.605434 -1.397709 2.594719 0.073259 -0.034617 -491234.000000 0 0 1
-2.568235 16.532594 -29.321214 33.758792 -1.416684 2.623066 0.074112 -0.022144 -180418.000000 0 0 1
-2.191235 17.763794 -29.907964 34.854558 -1.448062 2.602313 0.079889 -0.024638 89779.900000 0 0 1
-1.939135 17.661394 -31.313364 36.002942 -1.461439 2.625481 0.077280 -0.023430 -353612.000000 0 0 1
-1.258435 18.880494 -31.904734 37.094053 -1.504242 2.606269 0.082423 -0.015751 612982.000000 0 0 1
0.013365 19.033094 -31.216714 36.561483 1.570094 2.594065 0.091115 -0.015928 798468.000000 0 0 1
0.780565 20.098594 -31.721934 37.561201 1.531979 2.576502 0.092969 -0.006087 425289.000000 0 0 1
0.301365 21.420194 -31.043034 37.717177 1.556728 2.537552 0.089283 -0.014574 234536.000000 0 0 1
1.075265 21.624994 -29.873944 36.895109 1.521114 2.514436 0.101592 -0.039321 108047.000000 0 0 1
0.499765 22.628094 -29.054404 36.829862 1.548714 2.479783 0.093437 -0.037388 118598.000000 0 0 1
1.462265 22.911194 -27.897174 36.129120 1.507060 2.453017 0.097958 -0.035466 606286.000000 0 0 1
2.674565 23.514294 -28.320924 36.907317 1.457541 2.445498 0.088538 -0.040054 1027030.000000 0 0 1
3.811965 23.248394 -27.417784 36.149049 1.408276 2.431751 0.090128 -0.037210 1792700.000000 0 0 1
4.711865 24.525494 -27.280644 36.985606 1.380988 2.400308 0.088834 -0.033306 210911.000000 0 0 1
5.377365 24.901794 -28.469324 38.203636 1.358119 2.411630 0.079568 -0.038481 -121604.000000 0 0 1
5.718665 26.255494 -28.388044 39.088810 1.356337 2.383640 0.083198 -0.047348 -629076.000000 0 0 1
6.697565 26.694894 -29.461674 40.317055 1.324977 2.390216 0.089206 -0.041103 378740.000000 0 0 1
8.033965 26.184694 -29.298524 40.107185 1.273095 2.389858 0.090742 -0.045471 981094.000000 0 0 1
8.914065 26.960294 -30.132884 41.404211 1.251475 2.385866 0.095415 -0.046912 1295320.000000 0 0 1
10.456265 26.775594 -29.837264 41.431005 1.198494 2.374840 0.104373 -0.047464 1018940.000000 0 0 1
11.191065 27.713994 -30.585684 42.764348 1.187014 2.367727 0.113434 -0.041657 -175655.000000 0 0 1
12.497265 27.938694 -30.095494 42.924247 1.150181 2.347778 0.110269 -0.046657 115301.000000 0 0 1
13.301765 28.923694 -30.971664 44.415774 1.139747 2.342437 0.106602 -0.043118 -303732.000000 0 0 1
12.922065 30.261394 -30.899564 45.138839 1.167220 2.324776 0.113076 -0.036623 27992.700000 0 0 1
13.583965 31.123094 -31.821284 46.537782 1.159260 2.323717 0.138979 -0.043255 45670.400000 0 0 1
13.033565 32.568094 -31.866964 47.392593 1.190122 2.308248 0.140140 -0.046047 55106.600000 0 0 1
11.864665 32.759894 -32.627724 47.734152 1.223321 2.323384 0.122065 -0.047757 223291.000000 0 0 1
11.250665 34.024194 -32.401204 48.312123 1.251448 2.305900 0.101899 -0.033142 459607.000000 0 0 1
9.932865 -34.055123 -33.163874 48.561876 -1.286999 2.322549 0.080623 -0.033658 89410.300000 0 0 1
10.023165 -33.494523 33.968159 48.746105 -1.280030 0.799816 0.077279 -0.024946 -854198.000000 0 0 1
8.797765 -33.147223 33.436328 47.897047 -1.311363 0.798073 0.082497 -0.026759 -767213.000000 0 0 1
8.855465 -32.339023 32.110931 46.425678 -1.303516 0.807007 0.081611 -0.029200 -72391.600000 0 0 1
8.931165 -30.965223 32.417514 45.711115 -1.289992 0.782459 0.054086 -0.032661 -125012.000000 0 0 1
9.257265 -30.221523 31.284491 44.471978 -1.273557 0.790535 0.081960 -0.032182 -389330.000000 0 0 1
8.673565 -28.772123 31.231671 43.341471 -1.278003 0.766135 0.065720 -0.044736 1740210.000000 0 0 1
7.221365 -28.681723 31.185161 42.980271 -1.324147 0.758935 0.032233 -0.032119 1460690.000000 0 0 1
6.524865 -28.860923 32.419089 43.892187 -1.348455 0.739794 0.027143 -0.023295 -394329.000000 0 0 1
4.983865 -28.778723 32.298421 43.545859 -1.399318 0.735179 0.026372 -0.014069 -251044.000000 0 0 1
4.412165 -29.996123 31.883121 43.997364 -1.424752 0.760256 0.023115 -0.023977 -402752.000000 0 0 1
4.627765 -30.460423 30.562591 43.397299 -1.420022 0.789429 0.042020 -0.029151 -728048.000000 0 0 1
4.159865 -29.554223 29.416561 41.905736 -1.430961 0.792637 0.018505 -0.023539 -344470.000000 0 0 1
2.773765 -29.445323 29.230431 41.582917 -1.476873 0.791269 0.033330 -0.025894 -166563.000000 0 0 1
2.541765 -28.635723 28.062451 40.174201 -1.482266 0.797470 0.049475 -0.023750 137864.000000 0 0 1
1.275665 -29.067823 27.247351 39.862060 -1.526939 0.818193 0.045501 -0.020993 332272.000000 0 0 1
1.352465 -30.299023 26.651861 40.375509 -1.526189 0.849845 0.045818 -0.025077 79629.800000 0 0 1
1.041665 -31.364123 27.549771 41.758630 -1.537597 0.850326 0.067335 -0.032489 -651518.000000 0 0 1
1.226765 -32.773623 26.930221 42.436449 -1.533382 0.883304 0.082228 -0.037782 796822.000000 0 0 1
2.588465 -33.161323 26.658251 42.626704 -1.492898 0.895167 0.072318 -0.030577 896113.000000 0 0 1
3.127765 -32.631623 25.500151 41.531476 -1.475238 0.909683 0.066645 -0.037549 -132565.000000 0 0 1
4.667065 -32.440923 25.606471 41.591903 -1.427913 0.907573 0.078547 -0.028505 111085.000000 0 0 1
5.294365 -31.816923 24.528041 40.521250 -1.405906 0.920637 0.075728 -0.036090 423694.000000 0 0 1
6.699065 -31.969023 24.780881 40.999854 -1.364236 0.921766 0.063941 -0.037382 321607.000000 0 0 1
7.557165 -31.584523 23.570711 40.128186 -1.335944 0.942972 0.057174 -0.025774 -31109.800000 0 0 1
8.934365 -31.470723 23.902431 40.516114 -1.294180 0.939801 0.041023 -0.011130 429127.000000 0 0 1
9.653165 -31.022323 22.757561 39.667048 -1.269125 0.959763 0.032675 -0.013926 320320.000000 0 0 1
10.663365 -29.855723 22.959961 39.143727 -1.227754 0.943997 0.020507 -0.001840 238336.000000 0 0 1
11.778365 -30.205223 23.764051 40.197208 -1.198988 0.938267 0.023793 -0.005091 446205.000000 0 0 1
12.808965 -29.224623 23.572081 39.671037 -1.157720 0.934540 0.024171 -0.001868 394617.000000 0 0 1
14.152265 -29.495923 24.273961 40.737222 -1.123436 0.932452 0.044360 -0.003979 -178860.000000 0 0 1
14.035565 -29.517723 25.718491 41.590069 -1.126943 0.904116 0.040108 -0.005277 -65301.300000 0 0 1
15.271965 -29.327123 26.357251 42.284959 -1.090690 0.897809 0.047222 -0.016602 -450418.000000 0 0 1
-10.859835 -13.824206 26.082661 31.453934 0.904918 0.593061 0.065072 -0.025943 1668000.000000 0 0 1
-9.437435 -13.803306 25.749551 30.702375 0.971088 0.575936 0.054508 -0.020494 1308280.000000 0 0 1
-8.655035 -14.350806 26.816181 31.622190 1.028097 0.558562 0.069407 -0.027591 175224.000000 0 0 1
-7.135935 -14.169006 26.589751 30.962836 1.104249 0.537945 0.078526 -0.016968 -59769.700000 0 0 1
-6.660335 -15.014206 25.546351 30.371081 1.153276 0.571407 0.072252 -0.025709 -128432.000000 0 0 1
-6.983135 -14.746906 24.199351 29.186367 1.128546 0.593243 0.064506 -0.018697 -581823.000000 0 0 1
-6.334235 -15.839806 23.317161 28.891383 1.190382 0.631636 0.059277 -0.022407 -147618.000000 0 0 1
-6.818735 -17.158806 23.356661 29.773368 1.192542 0.668936 0.066673 -0.015944 -412594.000000 0 0 1
-6.879935 -17.783406 24.651021 31.164979 1.201657 0.658380 0.073664 -0.015536 -22950.400000 0 0 1
-7.549735 -19.194806 24.496091 32.023391 1.196060 0.699842 0.071460 -0.013011 132890.000000 0 0 1
-8.954335 -19.106806 24.357421 32.226296 1.132545 0.713884 0.046746 -0.004700 -246392.000000 0 0 1
-9.512235 -20.400306 24.220131 33.064632 1.134488 0.748796 0.044246 -0.008752 916741.000000 0 0 1
-11.079835 -20.453606 24.138481 33.522814 1.074343 0.766906 0.031910 -0.007531 1006880.000000 0 0 1
-11.701535 -20.182906 25.404731 34.491680 1.045381 0.742846 0.037452 -0.013696 -1339510.000000 0 0 1
-13.060435 -20.288906 25.374011 35.015070 0.998846 0.760256 0.046190 -0.014237 -1405150.000000 0 0 1
-13.765835 -20.469706 26.731661 36.374288 0.978768 0.745269 0.048633 -0.012413 -641957.000000 0 0 1
-13.529435 -21.640206 27.439531 37.473618 1.012054 0.749197 0.046054 -0.010762 306421.000000 0 0 1
-12.340235 -21.598406 28.233961 37.628834 1.051710 0.722238 0.058394 -0.015635 234469.000000 0 0 1
-12.054135 -22.963106 28.823721 38.773875 1.087400 0.732687 0.055612 -0.009893 -79986.400000 0 0 1
-13.027135 -23.545206 29.691581 40.070850 1.065437 0.736272 0.042080 -0.008462 29358.500000 0 0 1
-12.588135 -24.783606 30.198941 41.044663 1.100831 0.744011 0.041161 -0.003411 -219863.000000 0 0 1
-13.576035 -25.614086 31.091121 42.509387 1.083420 0.750432 0.037348 -0.016994 388685.000000 0 0 1
-13.621035 -25.089426 32.427387 43.203557 1.073421 0.721869 0.046539 -0.016348 -177859.000000 0 0 1
-14.969435 -25.152316 32.821854 43.977234 1.033950 0.728254 0.042406 -0.016732 -324937.000000 0 0 1
-15.283835 -24.754706 -34.148492 44.861014 1.017673 2.435968 0.044242 -0.018806 -390607.000000 0 0 1
-15.152235 -23.403606 -33.782994 43.801937 0.996229 2.451626 0.057244 -0.020242 -457244.000000 0 0 1
-16.040835 -22.514206 34.050936 43.859596 0.951746 0.681923 0.041963 -0.025517 -768445.000000 0 0 1
-15.879735 -21.040206 -34.050454 43.061464 0.924273 2.482814 0.028343 -0.016571 -303869.000000 0 0 1
-16.104435 -20.780306 -32.684844 41.946072 0.911495 2.464202 0.022862 -0.010272 187623.000000 0 0 1
-16.206735 -19.377306 -32.370724 41.060955 0.874264 2.478931 0.011180 -0.011658 -449695.000000 0 0 1
-16.208035 -18.907206 -30.901834 39.687608 0.862113 2.463271 0.009105 0.000644 -139749.000000 0 0 1
-17.436935 -19.080706 -30.232444 39.775881 0.830381 2.434217 0.009960 -0.002233 -145832.000000 0 0 1
-17.364235 -19.259306 -28.794594 38.750048 0.837097 2.408466 -0.003217 0.008140 35955.900000 0 0 1
-16.581235 -20.505806 -28.264334 38.656151 0.890826 2.390836 -0.004845 0.016501 834972.000000 0 0 1
-15.165035 -20.360206 -28.165784 37.918698 0.930608 2.408030 0.000164 0.013812 230969.000000 0 0 1
-14.485835 -21.515006 -27.779464 38.005704 0.978222 2.390478 0.010986 0.007362 649214.000000 0 0 1
-12.938235 -21.319506 -27.818194 37.360021 1.025338 2.410729 0.057399 -0.003347 32379.900000 0 0 1
-12.488835 -20.366206 -26.906234 35.981923 1.020718 2.415495 0.055984 -0.011171 -106559.000000 0 0 1
-11.083535 -20.283106 -26.807404 35.396131 1.070689 2.430048 0.039052 -0.025110 250004.000000 0 0 1
-10.432635 -21.315606 -25.825504 35.073517 1.115635 2.398419 0.056116 -0.032873 -549331.000000 0 0 1
-10.478835 -22.670206 -26.250574 36.233091 1.137819 2.381093 0.063502 -0.033174 171371.000000 0 0 1
-10.028335 -23.670906 -25.335844 36.094104 1.170064 2.348912 0.088061 -0.033823 -338616.000000 0 0 1
-9.926335 -25.092226 -25.961394 37.445239 1.194094 2.336877 0.080670 -0.033020 -54708.700000 0 0 1
-8.870635 -25.410806 -26.879114 38.037929 1.234933 2.355534 0.091529 -0.034253 381436.000000 0 0 1
-8.985035 -26.659286 -27.570954 39.390429 1.245721 2.346110 0.077180 -0.027164 -159338.000000 0 0 1
-8.742135 -27.962286 -26.715804 39.649068 1.267784 2.310145 0.082335 -0.021074 39209.200000 0 0 1
-9.761735 -28.313516 -25.760824 39.504009 1.238786 2.281156 0.079139 -0.021962 293321.000000 0 0 1
-9.609135 -29.495106 -25.009074 39.846588 1.255852 2.249307 0.095691 -0.022607 -249990.000000 0 0 1
-10.655135 -29.554136 -23.869274 39.455305 1.224772 2.220524 0.092483 -0.031121 -112954.000000 0 0 1
-10.570835 -28.593636 -22.876474 38.113930 1.216687 2.214564 0.081206 -0.037090 -106860.000000 0 0 1
-11.205435 -27.344246 -23.202074 37.571343 1.181878 2.236417 0.078060 -0.032766 -86987.800000 0 0 1
-11.134435 -26.259326 -22.134274 36.103379 1.169757 2.230750 0.073721 -0.036207 -117315.000000 0 0 1
-11.786235 -26.546896 -20.918674 35.794468 1.152962 2.194950 0.066132 -0.038044 76397.100000 0 0 1
-11.675235 -25.459186 -19.964174 34.395487 1.140825 2.190053 0.057608 -0.031146 -203283.000000 0 0 1
-12.467835 -25.696176 -18.624174 34.096924 1.119057 2.148633 0.066093 -0.032003 318269.000000 0 0 1
-13.868035 -25.817846 -18.767074 34.800670 1.077873 2.140370 0.076230 -0.033294 -203956.000000 0 0 1
-14.439835 -26.215206 -17.575474 34.707970 1.067324 2.101780 0.084224 -0.035727 518147.000000 0 0 1
-16.000235 -26.314766 -17.601874 35.472531 1.024491 2.090026 0.099987 -0.035795 217135.000000 0 0 1
-16.733635 -25.082076 -17.464374 34.844361 0.982456 2.095794 0.089423 -0.022925 781928.000000 0 0 1
-18.026235 -25.216896 -16.849874 35.281090 0.950175 2.068705 0.096933 -0.016663 1397760.000000 0 0 1
-19.171935 -25.774226 -17.794474 36.722162 0.931248 2.076668 0.088216 -0.017461 -420659.000000 0 0 1
-19.034135 -27.119056 -18.260574 37.831073 0.958814 2.074517 0.104422 -0.016224 -52139.700000 0 0 1
-19.119935 -28.194696 -17.299974 38.207354 0.974893 2.040690 0.107531 -0.027065 -284542.000000 0 0 1
-20.522135 -28.701316 -16.864774 39.106831 0.950058 2.016673 0.092757 -0.015331 394724.000000 0 0 1
-21.223035 -29.440006 -17.861174 40.449385 0.946187 2.028142 0.087117 -0.017858 297115.000000 0 0 1
-22.489335 -29.883016 -17.379574 41.240932 0.925647 2.005802 0.081943 -0.005879 473873.000000 0 0 1
-23.139435 -30.883906 -18.382674 42.745431 0.927782 2.015345 0.054338 -0.014006 -169385.000000 0 0 1
-22.527635 -32.133026 -18.369974 43.329917 0.959350 2.008605 0.059024 -0.017603 2852.320000 0 0 1
-22.931435 -32.840946 -19.509474 44.553317 0.961241 2.024047 0.034195 0.008106 -152380.000000 0 0 1
-22.357335 34.129581 -19.659374 45.289841 -0.990864 2.019812 0.028302 -0.000344 -192798.000000 0 0 1
-22.843935 33.092727 -18.839774 44.406205 -0.966610 2.008941 0.023194 0.004270 -371302.000000 0 0 1
-22.047635 31.938431 -18.767474 43.108928 -0.966599 2.021223 0.012707 -0.006176 -611863.000000 0 0 1
-22.740335 30.655281 -18.324674 42.339848 -0.932559 2.018392 0.012497 -0.007783 -255228.000000 0 0 1
-23.274835 30.687001 -17.007374 42.102978 -0.921903 1.986624 -0.001660 -0.013047 180768.000000 0 0 1
-24.077035 29.558861 -16.688574 41.616564 -0.887249 1.983413 0.006052 -0.007697 58746.300000 0 0 1
-23.260935 28.268731 -16.364974 40.099933 -0.882277 1.991173 0.004419 -0.016801 332493.000000 0 0 1
-22.538635 27.793041 -17.522074 39.843020 -0.889417 2.026148 0.002600 -0.015032 236137.000000 0 0 1
-22.042035 26.513751 -17.214374 38.537838 -0.877233 2.033856 0.000326 -0.011951 -28424.400000 0 0 1
-21.563435 25.807521 -18.478174 38.372552 -0.874752 2.073215 0.025300 -0.010892 -432172.000000 0 0 1
-20.999835 24.480971 -18.261774 37.064854 -0.861790 2.085984 0.030441 -0.017776 254723.000000 0 0 1
-20.218035 23.962181 -19.300774 36.816775 -0.869943 2.122617 0.030168 -0.010399 817444.000000 0 0 1
-18.791035 24.615401 -19.480874 36.585863 -0.918784 2.132312 0.031324 -0.019226 -25537.300000 0 0 1
-17.928635 24.257181 -18.415874 35.341069 -0.934304 2.118924 0.040936 -0.019951 -272255.000000 0 0 1
-16.785535 25.057461 -18.315474 35.285792 -0.980571 2.116548 0.065390 -0.032520 -367456.000000 0 0 1
-16.789335 26.335821 -17.474174 35.788322 -1.003252 2.080897 0.052686 -0.042083 -627862.000000 0 0 1
-17.836635 27.203141 -17.806074 37.083860 -0.990436 2.071630 0.037494 -0.035888 -221266.000000 0 0 1
-17.869435 28.348661 -16.981974 37.567948 -1.008363 2.039840 0.049504 -0.042623 122152.000000 0 0 1
-19.028435 29.283931 -17.437574 39.034586 -0.994568 2.033893 0.033025 -0.034529 95465.400000 0 0 1
-18.846135 29.829581 -18.713974 39.939874 -1.007327 2.058449 0.038665 -0.034981 71230.300000 0 0 1
-19.308235 29.038301 -19.742674 40.072485 -0.984002 2.085956 0.030344 -0.024749 -470153.000000 0 0 1
-19.269035 29.814491 -21.154374 41.324413 -0.997028 2.108203 0.049369 -0.031212 136263.000000 0 0 1
-20.265335 30.832941 -21.236474 42.571609 -0.989333 2.093058 0.056978 -0.025043 251700.000000 0 0 1
-20.640135 30.805331 -22.580674 43.415094 -0.980477 2.117777 0.060889 -0.027111 -493874.000000 0 0 1
-21.336635 32.118041 -22.928574 44.861342 -0.984421 2.107259 0.058978 -0.023709 -517679.000000 0 0 1
-20.589135 33.304794 -22.742274 45.280601 -1.017099 2.096997 0.036815 -0.018917 17030.800000 0 0 1
-20.663935 -34.205873 -23.858174 46.543017 1.027364 2.109012 0.048356 -0.006916 -389968.000000 0 0 1
-19.363535 -33.393446 -23.942574 45.423734 1.045317 2.125974 0.062815 -0.007364 -141498.000000 0 0 1
-19.184235 -32.482246 -22.868574 44.114656 1.037312 2.115763 0.066052 -0.014560 110472.000000 0 0 1
-18.437435 -33.003996 -21.788474 43.634166 1.061342 2.093638 0.073879 -0.027449 -309346.000000 0 0 1
-18.143835 -31.889586 -20.701374 42.127086 1.053515 2.084496 0.087047 -0.032711 -82995.400000 0 0 1
-17.188235 -30.876756 -20.957274 41.085482 1.062845 2.106085 0.091805 -0.035927 80624.500000 0 0 1
-16.995235 -30.044766 -19.877574 39.832700 1.056007 2.093271 0.098107 -0.032798 -311838.000000 0 0 1
-15.755535 -29.156316 -20.005574 38.711118 1.075368 2.113895 0.108048 -0.038755 -799280.000000 0 0 1
-14.579435 -29.855906 -19.848574 38.702726 1.116531 2.109294 0.109135 -0.036566 -610859.000000 0 0 1
-13.445235 -29.060276 -20.215174 37.867232 1.137458 2.133936 0.091209 -0.041707 -418193.000000 0 0 1
-12.187235 -29.929576 -20.372874 38.201600 1.184101 2.133292 0.102679 -0.039460 -164944.000000 0 0 1
-11.659835 -30.405036 -19.114874 37.759719 1.204609 2.101597 0.101622 -0.036143 237962.000000 0 0 1
-10.906635 -29.422736 -18.399174 36.375565 1.215812 2.101119 0.087291 -0.030830 -493989.000000 0 0 1
-10.042435 -30.115436 -17.319874 36.163076 1.248928 2.070241 0.089096 -0.013566 -275679.000000 0 0 1
-10.730335 -30.622786 -16.195274 36.265439 1.233762 2.033731 0.102574 -0.025040 -346326.000000 0 0 1
-11.123035 -31.910666 -16.422274 37.572645 1.235398 2.023147 0.105086 -0.027997 -297459.000000 0 0 1
-12.276435 -32.460126 -15.577774 38.039949 1.209223 1.992714 0.112699 -0.029432 -481799.000000 0 0 1
-11.988235 -32.811736 -14.235374 37.722324 1.220500 1.957754 0.100702 -0.022194 -655581.000000 0 0 1
-13.006635 -33.392616 -13.485374 38.289616 1.199369 1.930711 0.102250 -0.015857 -337596.000000 0 0 1
-12.509335 -33.839506 -12.061574 38.040468 1.216710 1.893437 0.079922 -0.012168 54672.800000 0 0 1
-12.195335 -32.815226 -11.216674 36.761108 1.214978 1.880864 0.058401 -0.009578 89173.800000 0 0 1
-11.853935 -33.233056 -9.869874 36.638317 1.228173 1.843552 0.062718 -0.016162 -282861.000000 0 0 1
-10.608235 -32.571776 -9.267874 35.487304 1.255942 1.835020 0.053877 -0.018657 156427.000000 0 0 1
-9.384335 -32.983476 -9.870874 35.684865 1.293605 1.851063 0.042187 -0.013412 274273.000000 0 0 1
-8.295935 -32.274476 -9.283674 34.592643 1.319200 1.842498 0.023837 -0.016511 -146273.000000 0 0 1
-6.913435 -32.694566 -9.741874 34.808539 1.362411 1.854455 0.035904 -0.021541 -623215.000000 0 0 1
-6.541435 -33.967146 -9.355674 35.834146 1.380544 1.834940 0.037565 -0.017070 71085.400000 0 0 1
-5.458635 33.843605 -10.058974 35.726310 -1.410884 1.856212 0.043123 -0.020103 392409.000000 0 0 1
-4.747135 32.645163 -9.353774 34.288993 -1.426392 1.847091 0.048017 -0.028190 19813.200000 0 0 1
-4.013435 33.093162 -8.245874 34.340347 -1.450109 1.813288 0.053438 -0.033709 -505646.000000 0 0 1
-3.351035 32.046191 -7.634974 33.113148 -1.466606 1.803462 0.049844 -0.033791 -260788.000000 0 0 1
-2.777635 32.463198 -6.292974 33.183972 -1.485442 1.761591 0.049595 -0.030899 -1232960.000000 0 0 1
-1.880135 33.500949 -6.414174 34.161237 -1.514733 1.759679 0.036013 -0.026759 -559844.000000 0 0 1
-1.470535 34.027707 -5.149474 34.446544 -1.527607 1.720851 0.037345 -0.025975 -199414.000000 0 0 1
-0.364235 33.249929 -4.456274 33.549200 -1.559842 1.704018 0.035013 -0.026364 -539394.000000 0 0 1
0.979265 33.455655 -4.878474 33.823650 1.541534 1.715534 0.033905 -0.019473 72033.600000 0 0 1
1.798565 32.734563 -4.009974 33.028265 1.515908 1.692507 0.033009 -0.015918 481961.000000 0 0 1
3.344965 32.896573 -4.129274 33.323028 1.469463 1.695032 0.034245 -0.009202 653371.000000 0 0 1
3.959065 34.119998 -3.839574 34.562852 1.455279 1.682116 0.036570 -0.010001 -1241890.000000 0 0 1
5.310965 34.036450 -4.093674 34.690696 1.416007 1.689077 0.054578 -0.011000 -787534.000000 0 0 1
6.114765 -33.140726 -3.697074 33.902307 -1.388339 1.680064 0.052240 -0.011965 -57354.300000 0 0 1
5.885565 -32.112776 -4.641274 32.975926 -1.389530 1.712013 0.052057 -0.016327 -105016.000000 0 0 1
6.102865 -30.870396 -4.003174 31.721471 -1.375620 1.697331 0.051178 -0.022959 150403.000000 0 0 1
5.823765 -29.631146 -4.894174 30.592058 -1.376728 1.731469 0.052361 -0.021965 1027710.000000 0 0 1
6.868665 -29.559986 -5.934774 30.922369 -1.342484 1.763920 0.062158 -0.021835 1063260.000000 0 0 1
6.667565 -28.490606 -6.853574 30.052330 -1.340907 1.800876 0.063949 -0.019336 187181.000000 0 0 1
7.131265 -27.106196 -6.305174 28.729010 -1.313540 1.792068 0.062259 -0.018102 244321.000000 0 0 1
6.345265 -26.684706 -5.219174 27.920883 -1.337345 1.758830 0.056719 -0.022615 -328743.000000 0 0 1
6.633065 -25.372816 -4.924574 26.683868 -1.315095 1.756413 0.053968 -0.019691 238955.000000 0 0 1
5.847565 -24.962606 -3.644174 25.896056 -1.340692 1.711988 0.051761 -0.022885 1006310.000000 0 0 1
4.504165 -24.555006 -3.948574 25.275029 -1.389381 1.727663 0.043643 -0.022549 231464.000000 0 0 1
3.852565 -24.172506 -2.763074 24.633045 -1.412748 1.683202 0.036407 -0.015771 321458.000000 0 1 0
2.509865 -23.445406 -3.069874 23.778365 -1.464151 1.700261 0.043028 -0.018037 392265.000000 0 1 0
1.535865 -24.241806 -3.687674 24.568740 -1.507525 1.721462 0.040148 -0.015387 -748929.000000 0 1 0
0.617665 -23.454406 -4.391574 23.869994 -1.544468 1.755829 0.032727 -0.013354 -5390.930000 0 1 0
-15.112335 23.354394 18.044961 33.157669 -0.996471 0.995341 -0.014171 -0.007849 -51544.400000 0 0 1
-15.552035 22.780094 19.280661 33.653267 -0.971774 0.960731 0.007022 -0.011490 220570.000000 0 0 1
-15.205935 23.653994 20.312761 34.689194 -0.999465 0.945220 0.003722 -0.007953 -727226.000000 0 0 1
-15.179435 23.024394 21.766561 35.132907 -0.987928 0.902628 0.020631 -0.013870 -846851.000000 0 0 1
-14.226435 22.109694 22.210261 34.416940 -0.999041 0.869342 0.012765 -0.012443 1099820.000000 0 0 1
-12.825035 22.502394 22.249361 34.144887 -1.052772 0.861083 0.002552 -0.018490 1513740.000000 0 0 1
-12.344635 23.774494 23.071861 35.354312 -1.091877 0.859799 0.021366 -0.007072 -508096.000000 0 0 1
-12.276735 23.400494 24.402291 35.969058 -1.087635 0.825180 0.012309 -0.001280 4869.670000 0 0 1
-11.951435 24.434494 25.250861 37.114516 -1.115889 0.822556 0.041736 -0.004587 -203568.000000 0 0 1
-11.495935 24.074194 26.636691 37.699293 -1.125293 0.786176 0.040715 -0.008321 848746.000000 0 0 1
-10.092335 23.751794 26.662311 37.106358 -1.169003 0.769099 0.020281 -0.007857 542881.000000 0 0 1
-9.819335 22.947694 27.769681 37.338602 -1.166471 0.732170 0.013993 0.004777 253357.000000 0 0 1
-8.315635 22.463694 27.848781 36.733118 -1.216257 0.710343 0.019493 -0.007129 1192480.000000 0 0 1
-7.386835 23.467594 28.178781 37.407713 -1.265847 0.717749 0.026777 -0.003527 -240037.000000 0 0 1
-7.060835 24.339794 27.159111 37.146982 -1.288452 0.750826 0.026225 -0.007871 -925432.000000 0 0 1
-6.018735 25.407894 27.564491 37.968242 -1.338199 0.758326 0.030787 -0.010455 126932.000000 0 0 1
-4.754835 24.807994 27.753841 37.527599 -1.381427 0.738383 0.028624 -0.009439 -574600.000000 0 0 1
-3.798235 25.776094 28.082701 38.307593 -1.424494 0.747950 0.034329 -0.007977 662853.000000 0 0 1
-2.303535 25.331894 27.949291 37.791189 -1.480112 0.738363 0.044882 -0.010121 589822.000000 0 0 1
-1.785635 25.119094 26.680941 36.688281 -1.499829 0.756514 0.040034 -0.012449 -1286840.000000 0 0 1
-0.428935 24.879094 26.696381 36.494521 -1.553557 0.750251 0.046455 -0.003623 -749376.000000 0 0 1
0.171265 24.725994 25.277321 35.360247 1.563870 0.774385 0.037460 -0.008400 -153396.000000 0 0 1
-0.191735 23.563594 24.601441 34.066268 -1.562660 0.763870 0.046601 -0.007143 -114646.000000 0 0 1
0.452065 23.526094 23.373011 33.165933 1.551583 0.788755 0.054936 -0.008478 -250945.000000 0 0 1
0.078765 22.278794 22.600461 31.735338 1.567261 0.778234 0.027100 -0.000140 228930.000000 0 0 1
0.763965 21.133594 23.122761 31.334877 1.534663 0.740807 0.053301 -0.006177 133624.000000 0 0 1
0.341065 19.983794 22.448461 30.056642 1.553731 0.727451 0.058142 -0.009682 310592.000000 0 0 1
1.254065 18.760994 22.795361 29.549553 1.504051 0.689714 0.066175 -0.005085 475891.000000 0 0 1
2.535065 18.746694 22.177461 29.149698 1.436384 0.706232 0.061958 -0.009851 -59726.200000 0 0 1
3.132765 17.502194 22.424661 28.618288 1.393679 0.670392 0.066715 -0.018355 -614010.000000 0 0 1
4.586165 17.410994 21.965761 28.401941 1.313240 0.686626 0.057041 -0.013848 -332739.000000 0 0 1
5.461565 18.179494 22.747661 29.627332 1.278950 0.695407 0.034330 -0.012275 -610522.000000 0 0 1
6.597465 18.668094 22.076861 29.654883 1.231088 0.731071 0.048658 -0.015492 110523.000000 0 0 1
7.607465 19.274794 23.086061 31.021886 1.194881 0.731481 0.060489 -0.021481 -316949.000000 0 0 1
7.123465 20.403194 23.784441 32.136174 1.234893 0.737556 0.040591 -0.011275 84056.500000 0 0 1
7.076665 21.635394 23.048761 32.394673 1.254678 0.779168 0.045797 -0.012483 -411767.000000 0 0 1
5.760265 22.371194 23.328961 32.831256 1.318785 0.780486 0.017199 -0.001947 -252454.000000 0 0 1
5.676865 23.655894 22.723561 33.289463 1.335273 0.819475 0.011903 -0.003689 176063.000000 0 0 1
4.438065 24.238294 23.083761 33.764646 1.389701 0.818021 -0.000533 0.000977 -336559.000000 0 0 1
4.162965 25.683994 22.508761 34.404101 1.410110 0.857610 0.013942 -0.004190 -94826.100000 0 0 1
3.911965 25.836094 21.075261 33.570431 1.420523 0.892083 0.021831 -0.005553 283138.000000 0 0 1
2.926965 24.976194 20.491161 32.438635 1.454138 0.887065 0.030651 -0.007041 -133909.000000 0 0 1
2.515965 25.466794 19.055061 31.905846 1.472322 0.930756 0.035711 -0.014913 -410737.000000 0 0 1
1.790865 26.674594 19.134461 32.876568 1.503759 0.949599 0.043988 -0.014679 271218.000000 0 0 1
1.286965 27.030894 17.826961 32.405648 1.523221 0.988290 0.045917 -0.010596 -1623.260000 0 0 1
0.249765 28.169594 17.803561 33.324993 1.561930 1.007187 0.041292 -0.002348 -188227.000000 0 0 1
0.675965 29.514994 18.081561 34.619859 1.547898 1.021264 0.049362 0.005463 -734136.000000 0 0 1
-0.346235 30.399694 18.349661 35.510158 -1.559407 1.027753 0.035847 0.003588 -815157.000000 0 0 1
0.121265 31.738394 18.933161 36.956798 1.566976 1.032929 0.033599 0.010688 -98048.100000 0 0 1
0.585065 31.574694 20.256661 37.518474 1.552269 1.000464 0.043626 0.007744 -121224.000000 0 0 1
0.938165 32.805594 20.817761 38.864718 1.542206 1.005523 0.034651 -0.000324 -360738.000000 0 0 1
1.352965 32.707094 22.293861 39.605565 1.529454 0.972909 0.044166 -0.011065 -55858.700000 0 0 1
0.335565 32.397294 23.242161 39.873491 1.560439 0.948506 0.045117 -0.002640 83137.100000 0 0 1
0.698465 32.622994 24.619321 40.876137 1.549389 0.924429 0.061110 -0.012525 -364807.000000 0 0 1
-0.377735 32.100194 25.588251 41.052694 -1.559029 0.897837 0.056241 -0.012565 -399922.000000 0 0 1
-1.456435 33.016694 25.612251 41.811609 -1.526713 0.911497 0.056615 -0.009626 -613612.000000 0 0 1
-2.168535 32.940094 26.804481 42.523318 -1.505058 0.888795 0.059341 -0.007813 -502111.000000 0 0 1
-1.529835 33.386994 28.110071 43.671591 -1.525007 0.871513 0.068962 -0.022639 -1617860.000000 0 0 1
-0.651135 32.544694 28.697391 43.394946 -1.550792 0.848236 0.072261 -0.021693 -748365.000000 0 0 1
-0.163835 33.226994 29.839801 44.659531 -1.565866 0.839061 0.068575 -0.031243 -999259.000000 0 0 1
1.028765 32.548594 30.552521 44.653397 1.539200 0.817270 0.060302 -0.024478 635803.000000 0 0 1
2.384665 32.552294 30.140181 44.427120 1.497671 0.825188 0.058137 -0.023784 565394.000000 0 0 1
2.455065 32.197094 28.737091 43.226156 1.494692 0.843560 0.061782 -0.023107 -1439150.000000 0 0 1
3.888165 32.005394 28.205191 42.836852 1.449904 0.852062 0.051120 -0.024713 212805.000000 0 0 1
4.433265 30.703794 28.608561 42.199841 1.427399 0.825852 0.048967 -0.023044 123663.000000 0 0 1
5.840165 30.727594 28.460431 42.288162 1.382974 0.832523 0.051694 -0.031564 -188708.000000 0 0 1
6.481865 29.474194 29.105471 41.926974 1.354326 0.803496 0.061519 -0.011963 -54606.500000 0 0 1
6.673765 29.738994 30.468651 43.096236 1.350042 0.785562 0.061359 -0.025602 178333.000000 0 0 1
7.233765 28.596694 31.171761 42.915929 1.323036 0.757807 0.056159 -0.015755 147603.000000 0 0 1
7.129965 28.542794 32.719483 44.001046 1.326007 0.732347 0.080206 -0.025286 -1243330.000000 0 0 1
5.856865 28.422794 33.239291 44.124920 1.367579 0.717731 0.068969 -0.026168 -1156390.000000 0 0 1
5.828465 28.241194 -33.832034 44.453825 1.367272 2.435742 0.091703 -0.027955 -76826.400000 0 0 1
5.900065 26.760294 -33.384604 43.190923 1.353790 2.454281 0.088792 -0.023204 -334401.000000 0 0 1
7.177265 26.180294 -33.463594 43.089825 1.303223 2.460048 0.074692 -0.022594 -305810.000000 0 0 1
7.230565 24.870094 -32.953764 41.913639 1.287863 2.475481 0.077154 -0.031234 -378202.000000 0 0 1
8.621165 24.240294 -33.070014 41.899190 1.229093 2.480425 0.075293 -0.027988 -441523.000000 0 0 1
8.932765 23.959894 33.998480 42.541362 1.213937 0.644856 0.053071 -0.011512 662432.000000 0 0 1
10.234965 23.369194 33.855039 42.391478 1.157993 0.645784 0.063685 -0.027105 721263.000000 0 0 1
10.453265 21.871994 34.171637 41.896965 1.124961 0.617011 0.054002 -0.025381 -501004.000000 0 0 1
9.779065 21.146294 33.134673 40.505585 1.137639 0.612823 0.045014 -0.019719 407566.000000 0 0 1
9.903465 19.736394 33.321608 39.974160 1.105720 0.585241 0.035007 -0.017819 475604.000000 0 0 1
8.608465 19.274994 34.063599 40.074429 1.150763 0.554795 0.045559 -0.018001 137154.000000 0 0 1
8.442265 19.805394 -33.051514 39.445253 1.167858 2.564236 0.057529 -0.014378 -588237.000000 0 0 1
7.189965 20.387194 -32.824284 39.303522 1.231744 2.559199 0.068085 -0.021277 -384282.000000 0 0 1
7.056965 20.803594 -31.327034 38.261904 1.243758 2.530031 0.077770 -0.033909 -247425.000000 0 0 1
7.722665 21.974194 -31.004874 38.778950 1.232837 2.497306 0.096121 -0.031065 -140862.000000 0 0 1
7.527365 22.331294 -29.646804 37.871901 1.245680 2.469978 0.078174 -0.025791 472893.000000 0 0 1
8.806965 22.992694 -28.997304 38.040376 1.205002 2.437620 0.074455 -0.034160 720380.000000 0 0 1
9.804865 22.012294 -28.787064 37.541597 1.151752 2.444644 0.066231 -0.027921 -278208.000000 0 0 1
11.089465 22.523294 -29.139934 38.463109 1.113283 2.430436 0.082669 -0.037934 933481.000000 0 0 1
12.140765 21.330194 -29.189524 38.136644 1.053345 2.442448 0.067646 -0.051723 126073.000000 0 0 1
12.016965 20.329694 -30.165734 38.310252 1.036944 2.477386 0.055362 -0.038276 893321.000000 0 0 1
10.753765 19.600794 -30.306874 37.660870 1.068998 2.506019 0.057210 -0.027863 1056880.000000 0 0 1
10.677465 18.494294 -31.394574 37.969283 1.047207 2.544265 0.060726 -0.025462 -514301.000000 0 0 1
11.244865 17.253194 -31.058034 37.265549 0.993188 2.556073 0.056303 -0.023859 213408.000000 0 0 1
10.885765 16.262294 -32.019624 37.526236 0.980913 2.593001 0.048307 -0.016309 23652.400000 0 0 1
11.988965 16.095794 -33.108884 38.717025 0.930599 2.596637 0.046798 -0.004156 187230.000000 0 0 1
12.168365 17.315994 -33.854134 39.925119 0.958245 2.582885 0.050954 -0.016166 822363.000000 0 0 1
13.214265 17.270994 33.558676 39.988608 0.917693 0.574975 0.049445 -0.016864 908552.000000 0 0 1
12.695765 16.624194 32.246251 38.436532 0.918590 0.575449 0.061896 -0.021163 -183252.000000 0 0 1
13.092465 17.404894 31.117751 37.982330 0.925870 0.610661 0.056213 -0.024923 243336.000000 0 0 1
12.464065 17.076394 29.851931 36.579966 0.940284 0.616213 0.064539 -0.023003 60832.000000 0 0 1
10.981965 17.433894 29.667001 36.120287 1.008667 0.607042 0.042947 -0.020921 226070.000000 0 0 1
10.097065 16.527494 30.373961 36.023413 1.022382 0.567639 0.035886 -0.013663 -222875.000000 0 0 1
8.821365 17.100294 30.445291 36.016000 1.094541 0.563620 0.030674 -0.009851 -286802.000000 0 0 1
7.885765 16.284894 31.368061 36.212406 1.119838 0.523201 0.039344 -0.003903 -340495.000000 0 0 1
8.170065 16.268694 32.742998 37.463640 1.105394 0.507434 0.044114 -0.003478 -298681.000000 0 0 1
7.460065 15.338094 33.480135 37.574315 1.118108 0.471170 0.053719 -0.002481 -570754.000000 0 0 1
7.589565 15.511794 -33.425554 37.622930 1.115764 2.664722 0.054380 -0.007210 -23938.400000 0 0 1
6.653665 16.471394 -32.915154 37.403013 1.186887 2.646687 0.053419 -0.010241 394222.000000 0 0 1
6.777665 16.517294 -31.521634 36.226663 1.181410 2.626247 0.063491 -0.019113 -571269.000000 0 0 1
5.677765 17.317394 -30.826424 35.810579 1.253975 2.607673 0.059311 -0.028543 -1341720.000000 0 0 1
5.722765 17.367394 -29.403634 34.625859 1.252489 2.585230 0.059520 -0.039179 -129815.000000 0 0 1
5.082965 18.489794 -28.836134 34.629924 1.302517 2.554752 0.069399 -0.045777 56875.800000 0 0 1
3.543365 18.505594 -28.967064 34.555799 1.381611 2.564898 0.094004 -0.044099 -1008410.000000 0 0 1
2.904865 17.503994 -28.185034 33.305017 1.406341 2.579741 0.097642 -0.046199 501419.000000 0 0 1
1.503865 17.378594 -28.388924 33.319786 1.484476 2.590617 0.095128 -0.040855 1080470.000000 0 0 1
0.527365 18.566194 -27.972824 33.577679 1.542399 2.555445 0.090634 -0.044381 -242740.000000 0 0 1
0.410965 18.803494 -26.604974 32.581665 1.548944 2.526228 0.104968 -0.053618 76799.100000 0 0 1
-0.438935 19.921694 -26.443914 33.111133 -1.548767 2.495830 0.119146 -0.050340 2630.200000 0 0 1
-0.936535 20.304494 -25.056374 32.264089 -1.524704 2.460051 0.089438 -0.049484 -359467.000000 0 0 1
-1.869035 19.634994 -24.290374 31.289751 -1.475893 2.459578 0.084354 -0.047003 -355232.000000 0 0 1
-2.200635 20.283194 -23.091074 30.813121 -1.462724 2.417938 0.094856 -0.041238 424722.000000 0 0 1
-3.315835 19.489294 -22.317174 29.814151 -1.402274 2.416658 0.078602 -0.041478 -516796.000000 0 0 1
-4.575235 19.488894 -22.877374 30.399408 -1.340211 2.422737 0.075336 -0.026740 -990884.000000 0 0 1
-5.319835 18.493994 -22.178774 29.363693 -1.290706 2.426928 0.063188 -0.031481 -380981.000000 0 0 1
-6.836735 18.618494 -22.360474 29.889464 -1.218880 2.415999 0.088392 -0.016752 -72296.900000 0 0 1
-7.456835 19.577694 -21.497574 30.017264 -1.206877 2.369101 0.047859 -0.001725 29335.400000 0 0 1
-7.481835 20.901294 -21.891974 31.178526 -1.227048 2.349208 0.050816 -0.010965 -230602.000000 0 0 1
-8.095535 21.885394 -20.848474 31.291644 -1.216499 2.299983 0.059210 -0.022569 -231391.000000 0 0 1
-7.420635 21.954294 -19.649674 30.383655 -1.244848 2.274071 0.057918 -0.023864 -262506.000000 0 0 1
-7.600635 23.181394 -18.991674 30.916506 -1.253965 2.232281 0.079431 -0.026480 -203888.000000 0 0 1
-6.966335 23.274794 -17.586674 29.992281 -1.279974 2.197371 0.098153 -0.035018 126381.000000 0 0 1
-5.595335 23.612794 -17.578174 29.964379 -1.338126 2.197695 0.103015 -0.038605 -391648.000000 0 0 1
-5.100835 23.861394 -16.298074 29.343003 -1.360197 2.159680 0.106912 -0.033694 -461522.000000 0 0 1
-3.586535 24.026994 -16.274974 29.240972 -1.422619 2.161061 0.103815 -0.036555 -499412.000000 0 0 1
-3.184735 25.257194 -16.713674 30.453493 -1.445366 2.151756 0.094604 -0.039618 -273426.000000 0 0 1
-2.058335 25.253194 -17.579474 30.838262 -1.489468 2.177368 0.086498 -0.037641 204807.000000 0 0 1
-1.285535 26.579994 -17.483774 31.840713 -1.522469 2.152085 0.077116 -0.055485 4609.360000 0 0 1
-2.017535 27.561294 -18.164674 33.070391 -1.497725 2.152290 0.080992 -0.054960 -136288.000000 0 0 1
-1.284135 28.731794 -18.361074 34.121753 -1.526132 2.138983 0.080350 -0.047524 -862803.000000 0 0 1
-1.914035 29.747194 -19.331674 35.528477 -1.506542 2.146134 0.118794 -0.041893 -69893.700000 0 0 1
-2.867635 30.637594 -18.834874 36.078220 -1.477470 2.120057 0.084615 -0.039033 -252520.000000 0 0 1
-4.133535 30.110394 -18.467274 35.563494 -1.434370 2.116800 0.059500 -0.037177 -303305.000000 0 0 1
-4.844435 31.238594 -17.654074 36.207521 -1.416943 2.080112 0.078706 -0.025077 -156618.000000 0 0 1
-5.346235 32.251994 -18.503174 37.565154 -1.406526 2.085828 0.111612 -0.030874 -152916.000000 0 0 1
-5.758135 33.292494 -17.705174 38.144717 -1.399535 2.053480 0.101439 -0.043320 -561242.000000 0 0 1
-6.565035 -34.089823 -18.457674 39.317954 1.380545 2.059460 0.099370 -0.031338 316644.000000 0 0 1
-7.889635 33.884894 -18.771874 39.532463 -1.342036 2.065587 0.114763 -0.038078 838707.000000 0 0 1
-8.762235 -33.436823 -19.127674 39.505263 1.314506 2.076223 0.137283 -0.041748 527168.000000 0 0 1
29.144465 -20.599606 -26.137124 44.236782 -0.615282 2.202903 0.057956 -0.006150 250387.000000 0 0 1
28.759165 -21.844906 -25.487264 44.202829 -0.649605 2.185355 0.060409 -0.013171 -121886.000000 0 0 1
27.406665 -22.131906 -25.782904 43.654378 -0.679320 2.202616 0.037890 -0.015936 253282.000000 0 0 1
26.900365 -23.585006 -25.421874 43.887969 -0.719823 2.188598 0.036001 -0.014076 426004.000000 0 0 1
27.475365 -24.662306 -26.196164 45.269902 -0.731496 2.187889 0.043550 -0.003467 696316.000000 0 0 1
28.854465 -24.951906 -25.909574 46.113813 -0.712995 2.167431 0.053405 -0.009273 641102.000000 0 0 1
29.319965 -26.281796 -26.499014 47.461467 -0.730811 2.163164 0.056002 -0.011118 -63191.400000 0 0 1
28.694365 -27.394076 -25.856204 47.353408 -0.762219 2.148410 0.065647 -0.020807 -161969.000000 0 0 1
28.773265 -28.688446 -26.414984 48.463172 -0.783922 2.147248 0.056254 -0.012526 227546.000000 0 0 1
27.731865 -29.059636 -27.529794 48.697108 -0.808774 2.171626 0.066229 -0.013714 -216627.000000 0 0 1
27.753665 -28.475016 -28.829564 49.114521 -0.798226 2.198128 0.038048 -0.010643 -89893.000000 0 0 1
28.856565 -28.734206 -29.673584 50.387275 -0.783274 2.200506 0.024739 -0.012827 -190842.000000 0 0 1
29.154465 -30.237326 -30.084274 51.665678 -0.803629 2.192336 0.029861 -0.011132 34432.200000 0 0 1
29.774665 -31.185436 -29.180014 52.062802 -0.808537 2.165758 0.036764 -0.010061 1129440.000000 0 0 1
31.049665 -30.901426 -28.583074 52.306519 -0.783005 2.148920 0.040818 -0.012084 1368330.000000 0 0 1
32.395165 -30.729646 -29.368684 53.444153 -0.759020 2.152587 0.032303 -0.013661 380463.000000 0 0 1
32.380365 -29.496216 -30.100454 53.146516 -0.738821 2.172888 0.046039 -0.028025 -1016960.000000 0 0 1
33.502965 -29.241816 -30.819734 54.105346 -0.717590 2.176845 0.043597 -0.024093 -1334450.000000 0 0 1
33.262665 -27.937446 -31.652704 53.747553 -0.698604 2.200511 0.039459 -0.015240 126287.000000 0 0 1
33.171765 -26.786906 -30.851294 52.628003 -0.679310 2.197175 0.029059 -0.011304 540090.000000 0 0 1
31.837865 -26.532346 -30.366224 51.378231 -0.694753 2.203135 0.049316 -0.014393 682504.000000 0 0 1
31.718265 -25.099906 -29.722534 50.194448 -0.669438 2.204518 0.047167 -0.013512 486762.000000 0 0 1
32.656865 -24.843606 -28.658754 50.049973 -0.650344 2.180473 0.050783 -0.007709 516043.000000 0 0 1
32.272065 -23.688206 -28.064944 48.890268 -0.633193 2.182227 0.048137 -0.007943 -540431.000000 0 0 1
33.206465 -23.288506 -26.978044 48.711792 -0.611614 2.157753 0.037640 -0.012065 -654367.000000 0 0 1
33.076165 -24.145806 -25.799004 48.400839 -0.630582 2.132972 0.048497 -0.025479 490295.000000 0 0 1
32.184565 -23.674706 -24.773574 47.011359 -0.634216 2.125828 0.055226 -0.011784 203815.000000 0 0 1
32.738865 -22.501406 -23.907674 46.365110 -0.602151 2.112550 0.063026 -0.013918 25957.700000 0 0 1
32.835865 -21.225406 -24.531674 46.157501 -0.573847 2.131140 0.059031 -0.014918 -74696.100000 0 0 1
33.039665 -20.102506 -23.630574 45.322558 -0.546599 2.119271 0.049717 -0.017797 -8072.520000 0 0 1
33.071365 -18.760806 -24.380674 45.167469 -0.516015 2.140977 0.042182 -0.019423 -465633.000000 0 0 1
31.977465 -18.510906 -25.200724 44.724584 -0.524740 2.169370 0.054716 -0.017142 -379071.000000 0 0 1
31.954865 -17.237306 -25.779664 44.528970 -0.494689 2.188226 0.055531 -0.014393 -405194.000000 0 0 1
30.889165 -17.173806 -26.861424 44.391623 -0.507424 2.220689 0.036323 -0.000723 -80507.900000 0 0 1
29.551565 -17.255306 -26.418084 43.231421 -0.528501 2.228227 0.024295 -0.002007 159612.000000 0 0 1
28.592465 -16.941406 -27.396994 43.071285 -0.534896 2.260210 0.004214 -0.002025 948458.000000 0 0 1
27.123565 -16.662506 -26.918744 41.688675 -0.550881 2.272747 -0.013320 0.002914 818599.000000 0 0 1
26.331565 -17.616106 -26.279144 41.161534 -0.589624 2.263265 0.007508 0.007670 -38645.400000 0 0 1
26.784665 -17.933406 -24.966574 40.771990 -0.589989 2.229821 0.011397 0.009134 -416040.000000 0 0 1
25.886065 -18.901206 -24.162474 40.139371 -0.630688 2.216755 0.016301 0.006174 -186920.000000 0 0 1
25.861165 -18.382206 -22.807474 39.075391 -0.617940 2.194048 0.022558 0.009438 -247620.000000 0 0 1
25.100765 -19.112606 -21.901374 38.405863 -0.650780 2.177620 0.038160 -0.003762 -284305.000000 0 0 1
25.076065 -18.490506 -20.470374 37.279271 -0.635373 2.152094 0.037719 -0.010917 -169116.000000 0 0 1
24.279865 -17.339106 -20.253874 36.060724 -0.620150 2.167187 0.033910 -0.017284 -131009.000000 0 0 1
24.568465 -16.167006 -21.013574 36.146256 -0.582006 2.191181 0.028370 -0.010134 754616.000000 0 0 1
25.942765 -15.448506 -20.684374 36.599545 -0.537092 2.171416 0.025461 -0.013591 945826.000000 0 0 1
25.943665 -14.732906 -19.486474 35.635024 -0.516467 2.149375 0.029557 -0.022539 1266990.000000 0 0 1
27.163465 -13.934006 -19.383874 36.162756 -0.473969 2.136509 0.019523 -0.011025 1007350.000000 0 0 1
27.137265 -12.909606 -18.207874 35.137099 -0.444032 2.115536 0.024421 -0.005211 -242713.000000 0 0 1
27.395265 -13.424006 -16.914474 34.882716 -0.455625 2.077040 0.021065 -0.010221 257942.000000 0 0 1
26.960265 -12.488106 -15.918974 33.707898 -0.433780 2.062652 0.009814 0.001326 111294.000000 0 0 1
27.497165 -12.743206 -14.499174 33.596271 -0.433972 2.017030 0.018099 -0.003535 -56734.600000 0 0 1
26.924065 -13.967006 -13.961274 33.390114 -0.478539 2.002178 0.044084 -0.017236 397683.000000 0 0 1
27.438965 -14.236706 -12.678674 33.411515 -0.478614 1.960020 0.052375 -0.019194 -142526.000000 0 0 1
26.847765 -15.481006 -11.920574 33.204881 -0.523052 1.937993 0.060056 -0.029745 -81064.900000 0 0 1
25.521065 -15.237206 -11.538174 31.884583 -0.538243 1.941073 0.041696 -0.025898 232986.000000 0 0 1
24.776465 -16.399606 -11.107874 31.720737 -0.584697 1.928556 0.025862 -0.023614 701633.000000 0 0 1
23.311065 -16.155106 -10.664774 30.300670 -0.606028 1.930466 0.048455 -0.032765 -3855.220000 0 0 1
23.269465 -15.703906 -9.310074 29.576310 -0.593662 1.891023 0.029523 -0.016360 985772.000000 0 0 1
21.910765 -15.633906 -8.855774 28.335938 -0.619746 1.888650 0.041897 -0.022278 333973.000000 0 0 1
21.664065 -15.371606 -7.346374 27.560609 -0.617103 1.840612 0.040563 -0.019118 -529182.000000 0 0 1
21.929865 -14.027506 -6.979374 26.951838 -0.569067 1.832739 0.049571 -0.012832 390583.000000 0 0 1
21.824165 -13.784706 -5.578374 26.408910 -0.563350 1.783630 0.048047 -0.014775 -375380.000000 0 0 1
22.817965 -14.567206 -4.698974 27.476233 -0.568184 1.742661 0.047604 -0.009986 -1249820.000000 0 0 1
24.130265 -14.226206 -4.962374 28.447843 -0.532707 1.746131 0.057643 -0.010155 -800287.000000 0 0 1
25.001365 -15.092206 -4.295374 29.517675 -0.543103 1.716834 0.060350 -0.015233 -549770.000000 0 0 1
26.484765 -14.735106 -4.405774 30.626409 -0.507714 1.715153 0.078135 -0.019039 -481617.000000 0 0 1
26.909365 -13.608306 -3.696474 30.380320 -0.468204 1.692772 0.082651 -0.022267 676022.000000 0 0 1
28.276465 -13.312906 -3.976474 31.505623 -0.440026 1.697349 0.096915 -0.035772 197444.000000 0 0 1
28.903165 -12.072506 -3.451174 31.512679 -0.395661 1.680533 0.114141 -0.035857 -726448.000000 0 0 1
29.315065 -12.115606 -2.083174 31.788371 -0.391910 1.636376 0.126114 -0.043401 896884.000000 0 0 1
30.139865 -11.080306 -1.501874 32.147166 -0.352293 1.617532 0.131642 -0.039273 900200.000000 0 0 1
31.576865 -10.813506 -2.050174 33.439999 -0.329933 1.632144 0.123796 -0.036888 21798.100000 0 0 1
31.602665 -10.374906 -3.402274 33.435648 -0.317207 1.672729 0.131179 -0.033904 905833.000000 0 0 1
32.860965 -10.678306 -4.026974 34.786287 -0.314190 1.686820 0.115887 -0.029344 589202.000000 0 0 1
32.730965 -10.406106 -5.532874 34.788156 -0.307823 1.730519 0.118772 -0.026784 263439.000000 0 0 1
31.878265 -11.425506 -6.140274 34.416114 -0.344148 1.750169 0.099809 -0.031108 781129.000000 0 0 1
31.535565 -11.126506 -7.450474 34.260773 -0.339188 1.790012 0.092945 -0.023867 32053.500000 0 0 1
30.171165 -11.737306 -7.862274 33.314845 -0.371009 1.809043 0.094135 -0.028016 105625.000000 0 0 1
30.154265 -13.148206 -7.892174 33.829594 -0.411177 1.806258 0.093203 -0.021673 132540.000000 0 0 1
28.821565 -13.605806 -7.882474 32.831904 -0.441055 1.813251 0.086136 -0.022211 -4019.600000 0 0 1
28.734265 -15.175806 -7.856574 33.431853 -0.485908 1.808018 0.091689 -0.034431 -48992.400000 0 0 1
29.221965 -15.717206 -9.063574 34.396252 -0.493472 1.837450 0.092647 -0.032318 321296.000000 0 0 1
29.352065 -17.139906 -8.961274 35.151451 -0.528529 1.828575 0.086303 -0.028701 -166224.000000 0 0 1
29.885265 -17.753806 -10.302274 36.255531 -0.536045 1.858924 0.072546 -0.031674 427053.000000 0 0 1
31.176365 -17.321906 -10.748674 37.249807 -0.507140 1.863515 0.086421 -0.029643 726371.000000 0 0 1
31.490565 -17.867806 -11.999174 38.143077 -0.516105 1.890814 0.071650 -0.027894 -241375.000000 0 0 1
30.792465 -17.341806 -13.277874 37.752034 -0.512908 1.930197 0.057387 -0.026915 -227202.000000 0 0 1
31.287965 -16.149406 -13.769574 37.806629 -0.476487 1.943581 0.040498 -0.023012 -126867.000000 0 0 1
30.421565 -15.689506 -14.730874 37.264337 -0.476157 1.977199 0.029632 -0.027398 -643834.000000 0 0 1
31.139465 -14.580606 -15.566674 37.743631 -0.437915 1.995918 0.026284 -0.010620 1026050.000000 0 0 1
32.271365 -14.966806 -16.348174 39.149828 -0.434254 2.001576 0.008349 -0.021065 -291082.000000 0 0 1
33.489465 -15.073606 -15.735674 39.954590 -0.422937 1.975601 0.029676 -0.020387 -1137880.000000 0 0 1
34.619765 -15.539206 -16.687874 41.454555 -0.421900 1.985106 0.042255 -0.020325 -828827.000000 0 0 1
35.864565 -15.810006 -16.162074 42.396178 -0.415198 1.961907 0.062271 -0.025742 -621142.000000 0 0 1
-36.065740 -16.411506 -17.181074 43.188708 0.427041 1.979929 0.069987 -0.027469 1125890.000000 0 0 1
-34.505340 -16.457606 -16.914774 41.804078 0.445045 1.987360 0.080117 -0.028538 1349310.000000 0 0 1
-33.837840 -17.105806 -15.792874 41.073385 0.468056 1.965467 0.078656 -0.036929 540721.000000 0 0 1
-34.339240 -16.888406 -14.483474 40.916656 0.457075 1.932614 0.081910 -0.036625 -699524.000000 0 0 1
-33.428540 -17.536806 -13.455574 40.075670 0.483138 1.913202 0.086486 -0.030030 -639640.000000 0 0 1
-32.140340 -17.002006 -13.363274 38.738183 0.486572 1.922997 0.082758 -0.030925 -369048.000000 0 0 1
-31.417240 -17.747506 -12.404974 38.156262 0.514208 1.901924 0.078002 -0.019473 -1548060.000000 0 0 1
-29.950140 -17.505106 -12.467374 36.862923 0.528926 1.915809 0.095466 -0.020249 -1414830.000000 0 0 1
-29.382940 -16.264306 -11.969474 35.653235 0.505548 1.913165 0.098795 -0.026897 826157.000000 0 0 1
-28.092840 -16.585106 -11.425274 34.566028 0.533307 1.907666 0.088628 -0.015362 262385.000000 0 0 1
-28.111840 -16.522606 -9.908874 34.080168 0.531360 1.865809 0.088672 -0.014724 -73283.400000 0 0 1
-28.668540 -17.643206 -9.261074 34.913256 0.551681 1.839269 0.091871 -0.011458 -63126.600000 0 0 1
-29.201540 -17.278006 -8.034474 34.868499 0.534280 1.803308 0.091218 -0.013998 -228297.000000 0 0 1
-29.952040 -18.395606 -7.252374 35.890389 0.550773 1.774267 0.085711 -0.015043 1509560.000000 0 0 1
-31.248640 -18.902606 -7.707874 37.325559 0.544022 1.778797 0.061909 -0.011923 1314500.000000 0 0 1
-31.294140 -19.590306 -8.938474 37.986835 0.559322 1.808328 0.062078 -0.008355 -352442.000000 0 0 1
-32.661140 -20.209806 -9.272274 39.511535 0.554108 1.807678 0.054146 -0.009381 357539.000000 0 0 1
-33.629240 -19.384906 -9.946074 40.070248 0.522908 1.821634 0.073914 -0.008098 116412.000000 0 0 1
-34.823940 -20.092806 -10.023274 41.435416 0.523323 1.815121 0.079205 -0.020870 -477877.000000 0 0 1
-36.024940 -19.334806 -10.622074 42.242864 0.492580 1.824977 0.072018 -0.030043 -573.785000 0 0 1
-36.055540 -19.280506 -12.011674 42.614789 0.491055 1.856535 0.071743 -0.028005 -201232.000000 0 0 1
35.359165 -18.984706 -12.395874 42.004134 -0.492738 1.870368 0.074352 -0.032266 -461579.000000 0 0 1
35.058365 -18.869506 -13.880274 42.164075 -0.493763 1.906249 0.066970 -0.035415 -129254.000000 0 0 1
35.114265 -20.109906 -14.641074 43.032325 -0.520103 1.917962 0.062838 -0.035271 547930.000000 0 0 1
34.265065 -20.054406 -15.812674 42.735401 -0.529520 1.949820 0.056627 -0.032630 689533.000000 0 0 1
32.937465 -20.826806 -15.723074 42.021988 -0.563841 1.954290 0.067793 -0.035777 -93008.400000 0 0 1
31.895365 -20.212106 -14.957174 40.614783 -0.564831 1.947943 0.077815 -0.030983 1489320.000000 0 0 1
30.637965 -20.941506 -15.124274 40.074621 -0.599576 1.957786 0.095988 -0.032049 1588780.000000 0 0 1
29.781065 -20.539806 -16.392974 39.718070 -0.603775 1.996249 0.098111 -0.037810 -333510.000000 0 0 1
29.162565 -19.261306 -16.269574 38.550644 -0.583708 2.006481 0.059562 -0.031305 30332.100000 0 0 1
28.382265 -18.984306 -17.366974 38.308858 -0.589533 2.041306 0.056204 -0.038252 -583304.000000 0 0 1
27.628765 -17.667306 -17.305674 37.080570 -0.568925 2.056357 0.052267 -0.029290 -579664.000000 0 0 1
26.519565 -17.695406 -16.467174 35.882900 -0.588412 2.047569 0.057526 -0.041288 -445945.000000 0 0 1
26.045465 -16.409306 -16.212274 34.791801 -0.562205 2.055538 0.038528 -0.027519 -817000.000000 0 0 1
24.706765 -16.367606 -15.429574 33.412490 -0.585095 2.050809 0.025913 -0.025537 697415.000000 0 0 1
23.579765 -16.914806 -16.110274 33.191217 -0.622272 2.077591 0.026208 -0.029485 458862.000000 0 0 1
23.135265 -16.334006 -17.316674 33.194991 -0.614756 2.119598 0.022859 -0.018602 -1085390.000000 0 0 1
22.152065 -17.254806 -18.087674 33.400692 -0.661758 2.143059 0.026067 -0.015194 262712.000000 0 0 1
20.907765 -17.332406 -17.407174 32.257660 -0.692172 2.140793 0.029239 -0.009555 132163.000000 0 0 1
19.973865 -18.178206 -18.065674 32.492630 -0.738367 2.160353 0.034160 -0.023290 2080420.000000 0 0 1
18.438765 -18.094906 -17.611474 31.266239 -0.775986 2.169140 0.040386 -0.007897 1611940.000000 0 0 1
17.820865 -16.890406 -17.858774 30.361239 -0.758599 2.199640 0.045390 -0.001979 -1324070.000000 0 0 1
16.539765 -16.915606 -17.377074 29.354118 -0.796632 2.204311 0.048138 -0.006946 -973672.000000 0 0 1
15.737565 -15.612306 -17.410274 28.187456 -0.781403 2.236561 0.051627 -0.003774 -78071.500000 0 0 1
15.179065 -15.149706 -18.615574 28.398190 -0.784430 2.285667 0.052462 0.002396 829001.000000 0 0 1
14.008865 -14.342706 -18.352174 27.180210 -0.797173 2.312037 0.057551 0.002105 652331.000000 0 0 1
13.275965 -13.907106 -19.645574 27.488314 -0.808612 2.366975 0.057465 0.000456 -41292.200000 0 0 1
13.753265 -12.736206 -20.299274 27.630124 -0.747022 2.395990 0.071888 -0.004437 109008.000000 0 0 1
12.888165 -12.299606 -21.330574 27.791698 -0.762036 2.445753 0.067480 -0.003468 49307.000000 0 0 1
13.231265 -10.900606 -21.890374 27.804281 -0.689117 2.477218 0.072007 -0.003569 239850.000000 0 0 1
14.517065 -10.857506 -22.496174 28.891321 -0.642164 2.463305 0.065259 -0.001851 206823.000000 0 0 1
14.825065 -9.555106 -22.891474 28.898134 -0.572516 2.485110 0.076411 -0.005793 797550.000000 0 0 1
16.094065 -9.465606 -23.819374 30.265148 -0.531655 2.476765 0.057279 -0.002033 795404.000000 0 0 1
15.773565 -9.923806 -25.103284 31.264391 -0.561572 2.503000 0.071218 -0.009497 32464.900000 0 0 1
16.925365 -9.981106 -25.903784 32.513020 -0.532821 2.492645 0.060881 -0.010743 -326752.000000 0 0 1
22.163065 5.393294 -7.230674 23.928470 0.238706 1.877774 0.094594 0.020261 -190407.000000 0 1 0
21.989765 6.815094 -7.382174 24.176264 0.300534 1.881100 0.073497 0.020381 750355.000000 0 1 0
21.672865 7.474194 -6.166174 23.740226 0.332092 1.833544 0.069305 0.021010 -395857.000000 0 1 0
21.313865 8.933894 -6.349874 23.966981 0.396913 1.838941 0.058143 0.023064 -380257.000000 0 1 0
20.070265 9.123494 -7.022474 23.138038 0.426654 1.879164 0.019958 0.004579 819849.000000 0 1 0
19.771565 10.514994 -7.132874 23.502292 0.488782 1.879157 0.039138 0.005314 64960.500000 0 1 0
19.323965 11.243794 -5.830274 23.104774 0.526973 1.825895 0.056984 0.004174 -962596.000000 0 1 0
20.386665 11.508994 -4.990774 23.937018 0.513934 1.780833 0.060246 0.010530 -333159.000000 0 1 0
19.956165 12.346594 -3.948274 23.796549 0.554046 1.737485 0.074017 -0.006828 -367016.000000 0 1 0
20.933265 12.557894 -2.793374 24.570413 0.540347 1.684731 0.066942 -0.018279 -1851980.000000 0 1 0
22.083765 13.153394 -3.242674 25.907901 0.537188 1.696287 0.065457 -0.025779 -254275.000000 0 0 1
22.985765 13.545394 -2.198174 26.770413 0.532511 1.653001 0.064261 -0.027587 80011.600000 0 0 1
23.822065 12.431994 -1.563074 26.916323 0.480989 1.628901 0.061197 -0.025137 -805060.000000 0 0 1
24.975765 11.989794 -2.287274 27.798841 0.447566 1.653169 0.060402 -0.014811 661580.000000 0 0 1
25.679865 11.040794 -1.527874 27.994445 0.406047 1.625401 0.064600 -0.017368 -1178700.000000 0 0 1
27.033865 10.654194 -2.070074 29.131201 0.375415 1.641917 0.080033 -0.016490 -718187.000000 0 0 1
27.973765 11.693094 -1.767974 30.370803 0.395929 1.629042 0.070212 -0.033106 48186.500000 0 0 1
29.289665 11.324994 -2.112774 31.473858 0.368949 1.637975 0.070177 -0.026344 263841.000000 0 0 1
30.258765 12.522594 -1.762874 32.795059 0.392389 1.624577 0.061150 -0.021117 -83155.400000 0 0 1
30.290765 12.634294 -0.388574 32.822352 0.395161 1.582635 0.089939 -0.026307 171812.000000 0 0 1
31.201265 13.584494 0.084126 34.030346 0.410632 1.568324 0.089170 -0.025945 252425.000000 0 0 1
32.661465 13.075994 0.362926 35.183584 0.380807 1.560481 0.107532 -0.024749 169911.000000 0 0 1
33.660265 14.031694 0.493626 36.471160 0.394958 1.557261 0.113287 -0.036734 -74342.600000 0 0 1
34.359365 14.217994 -0.735174 37.192173 0.392348 1.590565 0.106896 -0.019423 -661076.000000 0 0 1
34.059665 15.471094 -1.655574 37.445379 0.426370 1.615024 0.081718 -0.004793 -228627.000000 0 0 1
32.743865 15.358794 -2.139274 36.230232 0.438590 1.629877 0.074978 0.002096 -176455.000000 0 0 1
32.384465 16.383094 -3.014074 36.417632 0.468351 1.653655 0.058929 0.011290 -12351.800000 0 0 1
31.021665 16.147294 -3.670374 35.164619 0.479926 1.675364 0.060959 -0.002043 -677943.000000 0 0 1
31.295865 15.299594 -4.771774 35.160753 0.454704 1.706929 0.038651 -0.003100 882576.000000 0 0 1
30.177765 15.182394 -5.656174 34.251932 0.466123 1.736691 0.041852 -0.015209 270938.000000 0 0 1
29.010265 14.307794 -5.166274 32.756660 0.458191 1.729174 0.039727 -0.014289 -649899.000000 0 0 1
27.976265 14.187194 -6.112574 31.957963 0.469324 1.763251 0.061048 -0.024927 -200564.000000 0 0 1
26.911865 13.486094 -5.547074 30.608711 0.464544 1.753029 0.048912 -0.009811 -1035530.000000 0 0 1
25.745665 13.365194 -6.487274 29.724609 0.478830 1.790813 0.043187 -0.009166 -939091.000000 0 0 1
26.034665 12.353394 -7.508774 29.779049 0.443039 1.825697 0.037008 0.005312 729127.000000 0 0 1
25.015365 12.140894 -8.488374 29.072706 0.451849 1.867083 0.048709 0.012385 -17401.300000 0 0 1
24.696665 13.303194 -9.443074 29.598511 0.494098 1.895511 0.070118 0.007412 -210164.000000 0 0 1
23.718765 14.128794 -8.837674 28.988051 0.537237 1.880601 0.081045 -0.011516 10940.700000 0 0 1
23.514665 15.315294 -9.584574 29.654034 0.577294 1.899919 0.077148 -0.016600 -779595.000000 0 0 1
22.462665 16.227894 -8.920774 29.111785 0.625627 1.882238 0.080780 -0.012730 204748.000000 0 0 1
21.116065 15.799394 -8.851374 27.818264 0.642359 1.894611 0.082115 -0.016038 422922.000000 0 0 1
20.964165 14.750494 -7.882074 26.817911 0.613141 1.869112 0.093658 -0.021212 -1595620.000000 0 0 1
19.539965 14.217594 -7.827274 25.401110 0.629021 1.884041 0.112622 -0.023741 -302493.000000 0 0 1
18.527065 15.015094 -7.230174 24.919482 0.681075 1.865171 0.121790 -0.043688 647171.000000 0 1 0
17.267865 14.458294 -7.556974 23.755615 0.697072 1.894535 0.115593 -0.052155 156997.000000 0 1 0
16.033065 14.761694 -6.684074 22.795693 0.744136 1.868386 0.098502 -0.037355 198326.000000 0 1 0
16.041365 14.146494 -5.453674 22.072408 0.722711 1.820463 0.060520 -0.031798 466532.000000 0 1 0
16.257165 15.020794 -4.341974 22.555983 0.745890 1.764503 0.091466 -0.014847 -273569.000000 0 1 0
16.012165 14.273094 -3.025074 21.662449 0.728038 1.710900 0.062225 0.005051 58262.800000 0 1 0
16.978165 13.253894 -2.672374 21.704040 0.662826 1.694238 0.055801 -0.007349 925250.000000 0 1 0
16.711465 12.541094 -1.476074 20.945903 0.643788 1.641326 0.042202 -0.004769 -125342.000000 0 1 0
16.813065 13.313294 -0.158174 21.446397 0.669747 1.578172 0.055023 -0.005761 149434.000000 0 1 0
15.780265 14.297394 -0.103074 21.294197 0.736137 1.575637 0.053315 -0.009995 614841.000000 0 1 0
16.034365 15.295494 0.857226 22.176289 0.761819 1.532132 0.065427 0.001515 -986767.000000 0 1 0
14.934865 16.282294 1.151126 22.124384 0.828534 1.518743 0.074459 0.007270 -696584.000000 0 1 0
14.676265 17.190494 0.087426 22.603395 0.864133 1.566928 0.075871 0.000970 642991.000000 0 1 0
13.510665 17.902194 0.543826 22.434847 0.924298 1.546554 0.061751 -0.013326 382203.000000 0 1 0
13.359265 19.377594 0.031026 23.536398 0.967208 1.569478 0.055978 -0.007758 -86478.800000 0 1 0
12.812865 19.511594 -1.309474 23.379190 0.989740 1.626836 0.055788 -0.014558 468271.000000 0 1 0
12.204465 20.797294 -1.434574 24.156456 1.040117 1.630218 0.050679 -0.018418 1915420.000000 0 1 0
10.623965 20.855294 -1.153774 23.433802 1.099646 1.620052 0.036599 -0.015468 1700910.000000 0 1 0
10.152865 20.653994 0.175726 23.015190 1.113916 1.563161 0.024748 -0.016043 739339.000000 0 1 0
8.776965 20.235894 0.120226 22.057673 1.161552 1.565346 0.018685 -0.021348 1029220.000000 0 1 0
8.117565 20.200994 1.560926 21.826852 1.188705 1.499221 0.013011 -0.016715 -39837.800000 0 1 0
8.088965 21.534294 2.053826 23.094920 1.211472 1.481749 0.009734 -0.004143 98797.900000 0 1 0
7.481665 21.649494 3.308426 23.143499 1.238063 1.427352 0.017953 -0.008524 -68254.400000 0 1 0
7.063065 23.094494 3.722826 24.435670 1.273997 1.417849 0.019057 -0.003920 -200431.000000 0 1 0
7.881265 23.692294 4.679726 25.403522 1.249660 1.385523 0.023244 -0.011910 -78955.400000 0 0 1
7.328065 24.844794 5.306426 26.440924 1.283976 1.368734 0.021744 -0.009285 99096.600000 0 0 1
7.897465 25.045194 6.778426 27.121555 1.265337 1.318191 0.013968 -0.009130 336061.000000 0 0 1
7.370165 24.104994 7.720926 26.362525 1.274070 1.273564 0.029318 -0.019632 292622.000000 0 0 1
7.962165 24.295694 9.000026 27.104931 1.254107 1.232327 0.034417 -0.027555 -30744.000000 0 0 1
7.484865 23.275494 10.117126 26.459933 1.259663 1.178451 0.042878 -0.025319 193435.000000 0 0 1
6.171565 23.585994 10.547026 26.563642 1.314872 1.162499 0.035085 -0.026582 405773.000000 0 0 1
5.546665 22.503694 11.285926 25.778942 1.329135 1.117650 0.031048 -0.025972 264156.000000 0 0 1
4.168165 22.857194 11.874626 26.092751 1.390421 1.098320 0.030455 -0.032400 45345.100000 0 0 1
3.167065 23.175894 10.945726 25.825593 1.434984 1.133124 0.019538 -0.030691 467229.000000 0 0 1
1.936965 23.574294 11.582426 26.337269 1.488816 1.115450 0.019053 -0.026946 749474.000000 0 0 1
0.774265 23.663594 10.578726 25.932115 1.538088 1.150601 0.030006 -0.026603 -374746.000000 0 0 1
0.917765 24.845494 9.755326 26.707812 1.533874 1.196883 0.030843 -0.024557 614638.000000 0 0 1
-0.156935 25.053594 8.818826 26.560852 -1.564532 1.232348 0.027532 -0.018522 1268650.000000 0 0 1
-1.435735 25.772294 9.380726 27.463985 -1.515145 1.222215 0.025140 -0.026438 267128.000000 0 0 1
-2.337235 24.932794 10.058626 26.986716 -1.477328 1.188852 0.023902 -0.026018 -249384.000000 0 0 1
-3.605435 25.523394 9.858526 27.597705 -1.430465 1.205504 0.034967 -0.023082 -908856.000000 0 0 1
-4.812435 24.658994 10.264626 27.140156 -1.378059 1.182937 0.033195 -0.027461 -241227.000000 0 0 1
-5.060935 24.675494 11.677226 27.764197 -1.368502 1.136705 0.018939 -0.017927 585575.000000 0 0 1
-5.767535 25.913394 12.062326 29.159358 -1.351796 1.144316 0.021129 -0.014588 -239478.000000 0 0 1
-6.293635 25.891794 13.497426 29.869304 -1.332346 1.101921 0.010490 -0.009514 -806151.000000 0 0 1
-7.249335 24.901294 13.632926 29.299897 -1.287503 1.086835 0.007835 -0.018384 -498860.000000 0 0 1
-7.663235 24.779794 14.953226 29.939311 -1.270872 1.047831 0.000387 0.001176 450621.000000 0 0 1
-8.860335 23.809094 15.224226 29.616812 -1.214535 1.030908 -0.002179 -0.007284 529586.000000 0 0 1
-10.161935 24.319394 15.034226 30.343464 -1.174995 1.052422 -0.004199 -0.003444 -543888.000000 0 0 1
-11.130535 23.381194 15.375926 30.116244 -1.126494 1.034969 -0.005939 -0.005037 -1042210.000000 0 0 1
-12.499935 24.004794 15.216626 31.048739 -1.090705 1.058605 -0.006380 -0.009299 -1041390.000000 0 0 1
-12.883935 25.062594 16.104526 32.457436 -1.095956 1.051610 -0.005888 -0.011064 47032.800000 0 0 1
-13.888035 25.820294 15.455826 33.142837 -1.077311 1.085648 -0.010142 0.000220 -619345.000000 0 0 1
-14.507435 26.954494 16.262626 34.662421 -1.077043 1.082444 0.002742 -0.000699 232676.000000 0 0 1
-15.491835 26.394194 17.164726 35.089575 -1.040034 1.059660 0.003087 -0.007495 417737.000000 0 0 1
-16.042335 27.312594 18.096926 36.480584 -1.039723 1.051730 0.019203 -0.008667 301806.000000 0 0 1
-17.346935 26.773494 18.764726 37.011499 -0.995889 1.039099 0.020488 -0.015171 1149000.000000 0 0 1
-18.458935 26.926894 17.848726 37.207082 -0.969854 1.070469 0.024960 -0.017483 1421960.000000 0 0 1
-19.711835 26.408094 18.369126 37.727558 -0.929583 1.062272 0.035441 -0.007312 1272630.000000 0 0 1
-20.919935 26.711994 17.443726 38.150464 -0.906404 1.095913 0.047478 -0.018851 -218984.000000 0 0 1
-21.435935 28.051094 17.653926 39.471816 -0.918285 1.107104 0.039077 -0.020512 293770.000000 0 0 1
-22.129535 28.461694 16.503226 39.650231 -0.909914 1.141512 0.048299 -0.023476 -638747.000000 0 0 1
-22.976135 29.698894 16.774026 41.125358 -0.912339 1.150670 0.035670 -0.027357 -560729.000000 0 0 1
-24.175835 29.398894 17.440626 41.868143 -0.882582 1.141137 0.031583 -0.022883 811761.000000 0 0 1
-25.192095 30.411494 17.181926 43.066451 -0.878992 1.160411 0.026177 -0.022112 1043730.000000 0 0 1
-26.587645 30.254394 17.828526 44.046425 -0.849817 1.154073 0.029229 -0.017654 343606.000000 0 0 1
-27.480495 29.266194 17.264926 43.700863 -0.816856 1.164652 0.048947 -0.020836 -261731.000000 0 0 1
-28.727825 29.427794 17.869726 44.839827 -0.797434 1.160890 0.061386 -0.022601 -410296.000000 0 0 1
-28.965635 28.277094 18.863626 44.659136 -0.773370 1.134715 0.052757 -0.020866 -466498.000000 0 0 1
-29.269975 27.051394 18.265926 43.842370 -0.746027 1.141064 0.059716 -0.019040 141724.000000 0 0 1
-29.221585 25.976194 19.147826 43.535077 -0.726670 1.115392 0.070838 -0.018978 -40457.500000 0 0 1
-29.287175 24.576394 18.422026 42.439472 -0.698162 1.121782 0.070818 -0.016676 -170895.000000 0 0 1
-30.519695 24.353394 17.778026 42.902189 -0.673494 1.143529 0.074234 -0.024662 -31605.000000 0 0 1
-30.554955 23.337394 16.851626 41.978763 -0.652265 1.157716 0.075914 -0.015355 -325802.000000 0 0 1
-30.672485 21.855494 17.245926 41.423253 -0.619095 1.141386 0.060258 -0.005124 -261745.000000 0 0 1
-32.000915 21.515394 17.545326 42.365189 -0.591918 1.143793 0.059794 -0.002606 -263434.000000 0 0 1
-32.228465 20.153494 17.430226 41.816863 -0.558838 1.140849 0.056284 -0.006704 -11687.100000 0 0 1
-33.533735 19.687094 16.752126 42.340605 -0.530868 1.164019 0.062036 -0.017768 961.351000 0 0 1
-33.578655 20.065994 15.404126 42.041138 -0.538640 1.195653 0.050582 -0.021198 386019.000000 0 0 1
-34.763299 19.557894 14.792426 42.541909 -0.512467 1.215664 0.069251 -0.027096 464506.000000 0 0 1
-34.857257 20.056694 13.305626 42.359639 -0.522131 1.251276 0.074672 -0.020510 58820.000000 0 0 1
-35.331327 21.390694 13.196426 43.359084 -0.544404 1.261538 0.063954 -0.025073 -51153.600000 0 0 1
-35.708229 21.770594 11.865726 43.472196 -0.547507 1.294338 0.056920 -0.012930 -586666.000000 0 0 1
-34.760509 21.721294 10.685426 42.359013 -0.558516 1.315783 0.061158 -0.013975 -609419.000000 0 0 1
-34.767319 20.486094 10.009326 41.576834 -0.532466 1.327665 0.078174 -0.018016 572539.000000 0 0 1
-33.565695 20.371894 9.224626 40.333159 -0.545497 1.340043 0.077398 -0.014030 282433.000000 0 0 1
-32.721935 19.183994 9.659426 39.141476 -0.530265 1.321438 0.061467 -0.017563 -490311.000000 0 0 1
-32.217615 19.418494 10.974226 39.185281 -0.542424 1.286940 0.047874 -0.016025 31917.900000 0 0 1
-31.425925 18.350694 11.403126 38.136177 -0.528523 1.267141 0.047379 -0.008356 -174538.000000 0 0 1
-31.017755 18.475694 12.902526 38.339635 -0.537214 1.227564 0.043003 -0.008390 -780185.000000 0 0 1
-29.966895 19.333194 13.084026 37.986563 -0.572959 1.219156 0.052984 -0.000249 -830502.000000 0 0 1
-30.376695 20.673894 13.349926 39.094425 -0.597576 1.222306 0.068163 -0.000667 362517.000000 0 0 1
-29.216725 21.689394 13.583826 38.840278 -0.638595 1.213508 0.061518 -0.009551 498912.000000 0 0 1
-28.420565 21.530594 14.728826 38.577627 -0.648329 1.179056 0.060312 -0.000230 308984.000000 0 0 1
-27.425585 22.535494 14.910126 38.500949 -0.687831 1.173131 0.086581 -0.005878 363225.000000 0 0 1
-26.673325 22.479894 16.307426 38.506416 -0.700291 1.133492 0.073708 -0.004631 33790.900000 0 0 1
-25.970725 21.245594 16.362926 37.330941 -0.685656 1.117067 0.097561 0.005151 114010.000000 0 0 1
-25.669545 20.936194 17.693226 37.553961 -0.684184 1.080212 0.091262 0.008335 159238.000000 0 0 1
-24.695335 19.717794 17.807126 36.273196 -0.673790 1.057654 0.087186 0.008163 261129.000000 0 0 1
-24.116635 19.533394 19.085726 36.433920 -0.680782 1.019438 0.081413 0.007896 -224903.000000 0 0 1
-23.359635 18.395194 19.162226 35.372965 -0.667059 0.998315 0.073967 0.005241 -374813.000000 0 0 1
-22.639935 18.292294 20.525426 35.615556 -0.679579 0.956596 0.061821 0.003158 289685.000000 0 0 1
-23.510035 17.855694 21.579326 36.567949 -0.649549 0.939594 0.070788 0.002219 163649.000000 0 0 1
-22.903135 17.909194 22.797026 36.945869 -0.663640 0.905822 0.085840 -0.000361 -279982.000000 0 0 1
-23.730335 17.156594 23.866026 37.776510 -0.625984 0.886963 0.097608 -0.009307 123845.000000 0 0 1
-23.580335 15.770194 23.760526 37.003970 -0.589468 0.873552 0.101088 -0.026502 648002.000000 0 0 1
-24.656835 15.188994 24.507626 37.937960 -0.552112 0.868474 0.085829 -0.035805 322598.000000 0 0 1
20.970965 24.584394 33.884321 46.822228 0.864552 0.761676 0.053522 -0.011980 -42666.900000 0 0 1
21.802365 23.674794 33.218425 46.252597 0.826548 0.769590 0.069244 -0.023925 -185945.000000 0 0 1
21.656665 22.335594 33.695858 45.861757 0.800830 0.745533 0.073730 -0.027381 144784.000000 0 0 1
20.640065 21.391994 32.948477 44.376028 0.803286 0.734026 0.064981 -0.032111 241921.000000 0 0 1
20.946265 20.947694 31.662701 43.359872 0.785432 0.752137 0.073379 -0.029266 -49370.700000 0 0 1
19.954865 20.046994 31.189941 42.105712 0.787701 0.736605 0.076324 -0.028607 -3087.910000 0 0 1
20.332465 19.357094 29.859831 40.984335 0.760828 0.754569 0.069817 -0.018265 241476.000000 0 0 1
21.389265 18.377994 29.864361 41.074705 0.709820 0.756745 0.078973 -0.020788 98753.600000 0 0 1
21.648665 18.083894 28.550181 40.134832 0.695919 0.779370 0.052198 -0.019049 -124738.000000 0 0 1
22.843665 17.130894 28.334511 40.226174 0.643449 0.789247 0.060356 -0.009740 762178.000000 0 0 1
24.128465 17.701094 28.612201 41.402531 0.632934 0.807823 0.056107 -0.007059 243530.000000 0 0 1
25.126465 16.757494 28.853951 41.769646 0.588182 0.808219 0.047725 0.011097 80498.300000 0 0 1
26.538765 17.327594 29.153501 43.063653 0.578423 0.827136 0.034404 -0.003454 23654.400000 0 0 1
27.141965 17.661794 27.939761 42.769796 0.576881 0.858915 0.034870 0.015716 499263.000000 0 0 1
28.350365 18.425394 28.081751 43.952509 0.576317 0.877714 0.022496 0.018693 1073330.000000 0 0 1
29.397965 18.336894 26.926921 43.880988 0.557698 0.910140 0.025362 0.030453 318213.000000 0 0 1
29.123365 19.238694 25.864651 43.442812 0.583786 0.933067 0.043418 0.029079 205877.000000 0 0 1
30.199965 19.199294 24.957201 43.629264 0.566284 0.961819 0.037778 0.035900 -105707.000000 0 0 1
30.314165 20.495394 24.078201 43.803761 0.594505 0.988811 0.047425 0.019197 58391.800000 0 0 1
29.271265 20.623694 23.123061 42.624167 0.613787 0.997401 0.042104 0.018927 287695.000000 0 0 1
29.685065 21.200094 21.919661 42.557239 0.620171 1.029715 0.038633 0.005191 197193.000000 0 0 1
30.564965 20.329894 20.955661 42.268917 0.586943 1.052075 0.063547 -0.003049 402547.000000 0 0 1
29.769465 19.299294 20.341661 40.895806 0.575173 1.050195 0.074935 -0.017708 459589.000000 0 0 1
30.434865 18.626394 19.302461 40.568566 0.549202 1.074925 0.075111 -0.016919 96358.700000 0 0 1
31.574165 17.640194 19.686861 41.178596 0.509491 1.072323 0.098085 -0.024323 328518.000000 0 0 1
31.112065 16.295794 19.945661 40.389886 0.482488 1.054310 0.105937 -0.028216 -12441.000000 0 0 1
32.160965 15.436994 20.265761 41.028399 0.447513 1.054176 0.101079 -0.033063 -741109.000000 0 0 1
31.622765 13.988294 20.345161 40.119785 0.416473 1.038967 0.110115 -0.033486 668617.000000 0 0 1
30.851965 13.543294 21.480761 39.958574 0.413649 1.003237 0.087945 -0.035470 849651.000000 0 0 1
29.737765 14.307994 21.933461 39.624867 0.448445 0.984202 0.076375 -0.019608 -75001.800000 0 0 1
29.007365 13.581794 23.109561 39.496128 0.437901 0.945781 0.054484 -0.015678 -19859.000000 0 0 1
28.362365 12.380294 22.819861 38.450507 0.411574 0.935412 0.063071 -0.013934 -197784.000000 0 0 1
27.823965 11.843894 23.999991 38.606352 0.402440 0.899937 0.050547 -0.001190 -108690.000000 0 0 1
26.955465 10.585194 23.849281 37.515752 0.374190 0.881863 0.059581 -0.004755 125315.000000 0 0 1
25.822565 10.731194 23.016761 36.217878 0.393860 0.882130 0.043700 0.009955 -18785.200000 0 0 1
25.475365 9.565694 22.425461 35.261849 0.359198 0.881532 0.042154 0.003651 -1118550.000000 0 0 1
24.236365 9.581594 21.560761 33.824174 0.376482 0.879630 0.051975 0.000032 -142745.000000 0 0 1
23.047265 9.539694 22.400661 33.525688 0.392447 0.839058 0.035116 0.002163 677996.000000 0 0 1
22.111765 8.842194 21.603161 32.152933 0.380408 0.834042 0.025192 0.009654 -564403.000000 0 0 1
20.642565 8.846494 22.043761 31.469085 0.404879 0.794713 0.012068 0.005942 -299883.000000 0 0 1
20.349465 7.846094 22.921461 31.639458 0.368003 0.760548 0.025112 0.014721 -350038.000000 0 0 1
19.097565 8.003794 23.510741 31.329421 0.396863 0.722074 0.036153 0.010641 -520374.000000 0 0 1
18.902565 7.042494 24.714331 31.901439 0.356637 0.684542 0.050173 0.006203 -164309.000000 0 0 1
18.815265 5.652994 24.496901 31.401731 0.291867 0.675950 0.044241 -0.003197 184786.000000 0 0 1
18.701965 5.023294 25.723661 32.197884 0.262404 0.645292 0.053746 -0.018486 -11021.000000 0 0 1
19.035865 3.537794 25.713661 32.188080 0.183752 0.645404 0.053023 -0.021594 -1228580.000000 0 0 1
20.356665 3.300494 25.451611 32.757771 0.160735 0.680967 0.055855 -0.013488 -1376280.000000 0 0 1
20.710565 1.939394 25.439641 32.861286 0.093370 0.685421 0.050515 -0.022731 -443865.000000 0 0 1
22.218265 1.782194 25.255001 33.684456 0.080042 0.723109 0.048183 -0.019858 -611015.000000 0 0 1
22.981565 2.359994 26.240441 34.961159 0.102332 0.721887 0.053116 -0.023784 -479616.000000 0 0 1
24.324665 2.580794 25.876681 35.608320 0.105702 0.757286 0.066082 -0.019138 99213.200000 0 0 1
25.152465 3.064794 27.063041 37.073544 0.121251 0.752500 0.053719 -0.015943 -900371.000000 0 0 1
25.095665 2.099794 28.092031 37.727493 0.083477 0.730855 0.057864 -0.018314 375362.000000 0 0 1
25.959465 2.309194 29.216481 39.151360 0.088720 0.728394 0.058797 -0.006700 600696.000000 0 0 1
27.491465 2.358594 29.003721 40.031980 0.085584 0.760468 0.044908 -0.005585 -596205.000000 0 0 1
27.894965 3.579294 28.352621 39.935091 0.127616 0.781344 0.041455 0.006901 607403.000000 0 0 1
29.306765 3.657394 28.104051 40.768869 0.124155 0.810204 0.040429 0.010714 932850.000000 0 0 1
29.851465 2.751594 26.942521 40.306087 0.091916 0.838676 0.054340 0.000174 -599480.000000 0 0 1
29.213965 2.994994 25.749351 39.057071 0.102162 0.850942 0.041618 0.009984 -207522.000000 0 0 1
29.548965 1.984594 24.862711 38.668260 0.067062 0.872420 0.056703 0.018460 -320044.000000 0 0 1
29.137265 2.200894 23.393121 37.430766 0.075392 0.895703 0.050071 0.005928 180933.000000 0 0 1
29.765765 3.288094 22.699061 37.577383 0.110020 0.922208 0.059895 0.005333 -143942.000000 0 0 1
31.165765 3.240094 22.524961 38.589856 0.103591 0.947516 0.047481 0.004806 -206645.000000 0 0 1
31.699465 4.511094 21.994561 38.845421 0.141359 0.968899 0.054436 -0.009325 -953948.000000 0 0 1
31.376765 4.799794 20.665561 37.876177 0.151796 0.993681 0.051656 -0.012259 154312.000000 0 0 1
32.156965 5.836294 20.064661 38.350011 0.179540 1.020197 0.066130 -0.021474 452283.000000 0 0 1
33.706365 5.657494 19.939561 39.569083 0.166296 1.042668 0.053455 -0.026520 119640.000000 0 0 1
34.444965 5.719294 21.143461 40.819258 0.164540 1.026311 0.061609 -0.030200 16247.400000 0 0 1
34.653065 7.019794 21.643461 41.455420 0.199869 1.021497 0.075283 -0.034156 -830244.000000 0 0 1
35.390665 6.884194 22.972361 42.750680 0.192121 1.003497 0.076172 -0.025653 -124582.000000 0 0 1
34.585165 6.296294 23.978431 42.552815 0.180080 0.972182 0.071809 -0.009562 104386.000000 0 0 1
35.362765 5.698394 24.957351 43.656227 0.159768 0.962245 0.079503 -0.019864 -206737.000000 0 0 1
34.562765 4.682794 25.833971 43.404001 0.134667 0.933284 0.072247 -0.012417 167206.000000 0 0 1
34.251465 3.559494 25.009731 42.559599 0.103551 0.942657 0.077578 -0.018568 63546.600000 0 0 1
33.827065 2.521794 25.831851 42.637006 0.074412 0.919956 0.063596 -0.005493 -132226.000000 0 0 1
33.831965 1.117794 25.207771 42.205249 0.033028 0.930708 0.063050 -0.011386 224971.000000 0 0 1
32.722565 0.816194 24.362771 40.804130 0.024938 0.930957 0.080180 -0.008409 253013.000000 0 0 1
32.878065 -0.479606 23.780841 40.579867 -0.014586 0.944651 0.071963 -0.005596 -198295.000000 0 0 1
31.595965 -1.002906 23.124361 39.166911 -0.031731 0.939235 0.069191 -0.004347 -270891.000000 0 0 1
30.594665 -1.405506 24.012431 38.917937 -0.045907 0.905869 0.069644 0.001360 -84068.400000 0 0 1
29.658865 -2.291906 23.380421 37.835766 -0.077122 0.904670 0.078773 -0.006959 179436.000000 0 0 1
28.177765 -2.127606 23.713211 36.889423 -0.075364 0.872624 0.042510 0.001699 -264350.000000 0 0 1
27.638165 -0.887106 23.323461 36.175115 -0.032086 0.870116 0.050489 0.002459 -559493.000000 0 0 1
26.272865 -0.996606 23.031461 34.952895 -0.037915 0.851403 0.048589 0.005604 -275692.000000 0 0 1
25.562765 0.367794 22.909861 34.328588 0.014387 0.840125 0.045371 0.002023 -103671.000000 0 0 1
25.724265 1.100194 21.719961 33.685382 0.042743 0.870049 0.039552 -0.000150 184276.000000 0 0 1
25.023665 2.357994 21.825761 33.288253 0.093953 0.855741 0.040904 0.002753 228808.000000 0 0 1
25.064965 3.247794 20.552561 32.576194 0.128857 0.888074 0.038042 0.003774 -322903.000000 0 0 1
24.410865 2.596994 19.494061 31.347298 0.105988 0.899663 0.046384 -0.003560 142139.000000 0 0 1
24.053865 3.595894 18.546861 30.586025 0.148394 0.919292 0.038985 0.000217 63453.000000 0 0 1
23.577565 2.996794 17.236061 29.359226 0.126426 0.943356 0.044852 -0.003132 -150520.000000 0 0 1
24.678165 2.584094 16.472261 29.782961 0.104332 0.984744 0.035048 -0.010741 91265.400000 0 0 1
24.435865 2.688694 15.071461 28.835560 0.109590 1.020817 0.028864 -0.012093 -208020.000000 0 0 1
23.670165 1.499194 14.468661 27.782484 0.063252 1.023028 0.049311 0.007402 53646.300000 0 0 1
22.255365 1.605394 14.558661 26.642694 0.072010 0.992688 0.049663 0.006379 424839.000000 0 0 1
21.784865 0.370994 14.055461 25.928246 0.017028 0.997873 0.062967 0.004090 -429273.000000 0 0 1
20.244165 0.291794 14.050461 24.644001 0.014413 0.964124 0.063162 -0.019539 338089.000000 0 1 0
19.404565 0.974294 13.061861 23.411506 0.050167 0.978913 0.064856 -0.011127 1151500.000000 0 1 0
19.669365 0.694494 11.654161 22.873253 0.035294 1.036181 0.080056 -0.009903 -968007.000000 0 1 0
19.612765 -0.779206 11.122661 22.560614 -0.039709 1.055248 0.088083 -0.007787 -483602.000000 0 1 0
20.643565 -1.660306 11.439961 23.659799 -0.080255 1.066126 0.098749 -0.019034 -520224.000000 0 1 0
21.799465 -1.467406 10.692161 24.324725 -0.067212 1.115688 0.097337 -0.011494 -140709.000000 0 1 0
22.987565 -2.462906 11.018961 25.610770 -0.106734 1.126030 0.107403 -0.022715 518900.000000 0 0 1
23.538565 -2.179006 12.282961 26.639880 -0.092309 1.091591 0.099808 -0.032457 162603.000000 0 0 1
24.576365 -3.102806 12.565061 27.775995 -0.125587 1.101374 0.088435 -0.027326 338894.000000 0 0 1
25.117265 -2.977106 14.055461 28.936070 -0.117978 1.063585 0.080862 -0.028249 181582.000000 0 0 1
25.801165 -1.764106 14.358161 29.579874 -0.068267 1.063972 0.065331 -0.022315 171509.000000 0 0 1
25.785365 -1.518706 15.737061 30.246431 -0.058830 1.023600 0.065360 -0.028903 614080.000000 0 0 1
27.021165 -0.621106 16.155861 31.488743 -0.022982 1.032041 0.076734 -0.023284 -296778.000000 0 0 1
28.231265 -1.270306 16.079161 32.513957 -0.044966 1.053501 0.084146 -0.025153 -1060190.000000 0 0 1
29.214465 -0.299606 16.345861 33.477782 -0.010255 1.060702 0.067378 -0.019025 336318.000000 0 0 1
30.699765 -0.794606 16.338661 34.785899 -0.025877 1.081854 0.064136 -0.012706 522192.000000 0 0 1
31.207065 -0.917006 15.022161 34.646603 -0.029376 1.122332 0.059600 -0.010107 102042.000000 0 0 1
32.506265 -1.460306 15.080061 35.863602 -0.044894 1.136818 0.055824 -0.013979 -29234.200000 0 0 1
33.048265 -2.110106 13.789461 35.871849 -0.063763 1.176229 0.051365 -0.014780 -18782.400000 0 0 1
32.916265 -1.327206 12.636961 35.283633 -0.040299 1.204507 0.063239 -0.015305 515514.000000 0 0 1
33.499065 -1.876906 11.426361 35.443925 -0.055970 1.242555 0.054157 -0.017916 148633.000000 0 0 1
33.013465 -1.124206 10.167861 34.562090 -0.034040 1.272187 0.055252 -0.007886 -352844.000000 0 0 1
33.685965 0.114694 10.066461 35.158086 0.003405 1.280413 0.057663 -0.004410 18534.300000 0 0 1
32.812765 1.046694 9.590161 34.201525 0.031888 1.286584 0.050747 -0.004738 -713894.000000 0 0 1
33.493465 2.386494 9.299061 34.842217 0.071132 1.300631 0.055248 -0.012596 -169440.000000 0 0 1
34.286865 2.398194 8.148961 35.323448 0.069831 1.338004 0.064183 -0.014825 88064.600000 0 0 1
34.351465 3.654494 7.561261 35.363132 0.105987 1.355315 0.061403 -0.012635 -100208.000000 0 0 1
34.815565 3.644694 6.070661 35.528302 0.104306 1.399085 0.057498 -0.014249 -30328.400000 0 0 1
34.877965 4.925694 5.486361 35.648773 0.140299 1.416282 0.041515 0.000181 273711.000000 0 0 1
35.325365 4.959594 4.129361 35.910034 0.139486 1.455550 0.066289 -0.018418 -436865.000000 0 0 1
35.741165 6.318094 3.745961 36.488099 0.174966 1.467953 0.092489 -0.024839 -31429.200000 0 0 1
34.644665 7.209894 3.743261 35.584370 0.205181 1.465407 0.086173 -0.025612 229822.000000 0 0 1
35.118765 8.484194 3.379561 36.286783 0.237044 1.477526 0.095042 -0.028949 -795739.000000 0 0 1
34.031165 9.560794 3.352761 35.507322 0.273882 1.476231 0.120210 -0.031929 829691.000000 0 0 1
33.040865 9.522094 2.263461 34.460009 0.280588 1.505065 0.131336 -0.040098 1388570.000000 0 0 1
32.116665 8.427694 2.336261 33.286097 0.256623 1.500551 0.122535 -0.030134 -391685.000000 0 0 1
30.973265 8.529094 1.310261 32.152843 0.268710 1.530034 0.135685 -0.040594 423031.000000 0 0 1
31.489865 8.216294 0.005261 32.544110 0.255228 1.570635 0.143609 -0.039098 955249.000000 0 0 1
30.333165 7.855394 -0.733439 31.342400 0.253403 1.594199 0.140866 -0.037080 51571.300000 0 0 1
30.615365 7.624094 -2.159039 31.624181 0.244064 1.639121 0.110961 -0.023567 -531992.000000 0 0 1
29.609665 7.005394 -2.947239 30.569494 0.232320 1.667357 0.118277 -0.023087 763928.000000 0 0 1
30.044365 6.785594 -4.296839 31.099372 0.222126 1.709405 0.106364 -0.022429 -79843.300000 0 0 1
28.965565 6.012894 -5.116139 30.022220 0.204681 1.742044 0.104957 -0.010214 -63195.400000 0 0 1
28.792565 4.692294 -4.780039 29.561430 0.161549 1.733208 0.109258 -0.014178 163464.000000 0 0 1
27.716065 4.182994 -5.491939 28.562897 0.149793 1.764276 0.088406 -0.011960 -736209.000000 0 0 1
27.534165 2.658494 -5.470239 28.197896 0.096254 1.766029 0.108053 -0.013137 -372480.000000 0 0 1
27.084665 2.127994 -4.240939 27.497145 0.078407 1.725646 0.108414 -0.022365 376453.000000 0 0 1
27.096265 0.742994 -4.134139 27.419896 0.027414 1.722145 0.110061 -0.023046 -109300.000000 0 0 1
27.314665 0.200194 -2.672439 27.445818 0.007329 1.668322 0.102928 -0.021921 -219698.000000 0 0 1
28.527065 0.599994 -2.097539 28.610367 0.021029 1.644176 0.109039 -0.023127 -170487.000000 0 0 1
28.498165 0.335694 -0.700039 28.508738 0.011779 1.595354 0.112947 -0.017180 -586996.000000 0 0 1
29.813465 0.829794 -0.146539 29.825370 0.027826 1.575710 0.125344 -0.018513 -929257.000000 0 0 1
30.971265 0.185994 -0.593339 30.977506 0.006005 1.589951 0.102967 -0.018950 -123605.000000 0 0 1
32.061065 0.585894 0.212761 32.067123 0.018272 1.564161 0.078890 -0.019468 -275234.000000 0 0 1
-3.489035 -21.401406 -8.714074 23.369396 1.409190 1.952912 0.032413 0.011420 127924.000000 0 1 0
-3.701735 -21.960206 -7.465274 23.487951 1.403801 1.894241 0.029792 0.000517 -44032.900000 0 1 0
-2.765035 -22.989406 -7.134974 24.229447 1.451097 1.869703 0.029573 -0.004139 237756.000000 0 1 0
-3.001935 -23.634406 -5.744774 24.507126 1.444457 1.807410 0.024009 -0.004427 -294261.000000 0 1 0
-2.840635 -22.788506 -4.625774 23.426118 1.446784 1.769565 0.020603 -0.006339 9166.070000 0 1 0
-3.339835 -23.323106 -3.405574 23.805876 1.428565 1.714345 0.017063 -0.014017 18669.300000 0 1 0
-2.835135 -22.456306 -2.188074 22.740083 1.445210 1.667166 0.018043 -0.022518 -192493.000000 0 1 0
-1.460235 -22.464606 -1.940574 22.595501 1.505886 1.656785 0.027631 -0.025893 -1019020.000000 0 1 0
-1.243935 -22.569806 -0.591174 22.611789 1.515737 1.596944 0.031833 -0.018494 1966010.000000 0 1 0
0.326465 -22.622106 -0.249374 22.625836 -1.556366 1.581818 0.039052 -0.020445 1962500.000000 0 1 0
0.986865 -21.389806 -0.566674 21.420057 -1.524692 1.597255 0.024644 -0.022997 -517099.000000 0 1 0
2.197465 -21.196006 0.117126 21.309933 -1.467492 1.565300 0.030960 -0.021601 130909.000000 0 1 0
3.056765 -20.065406 -0.535374 20.303964 -1.419619 1.597167 0.035878 -0.023014 212796.000000 0 1 0
3.634365 -20.449506 -1.762474 20.844597 -1.394909 1.655450 0.028399 -0.019695 -1075580.000000 0 1 0
4.646365 -19.552206 -2.051674 20.201160 -1.337485 1.672534 0.035554 -0.015231 -624220.000000 0 1 0
5.538365 -20.114506 -3.141974 21.098314 -1.302112 1.720273 0.035208 -0.011842 -855686.000000 0 1 0
6.363365 -21.210306 -2.764274 22.316154 -1.279328 1.694984 0.041800 -0.013773 188221.000000 0 1 0
7.269365 -21.656706 -3.762374 23.151934 -1.246950 1.734028 0.042238 -0.016023 373133.000000 0 1 0
8.420865 -20.799506 -4.299274 22.847630 -1.186108 1.760096 0.056351 -0.019507 -834156.000000 0 1 0
8.069365 -19.745006 -5.162774 21.946165 -1.182831 1.808269 0.038238 -0.012849 -864890.000000 0 1 0
9.089165 -19.354306 -6.006274 22.209850 -1.131747 1.844639 0.044728 -0.007536 -942548.000000 0 1 0
8.786865 -18.129806 -6.876574 21.288169 -1.119493 1.899719 0.022259 -0.007605 -147740.000000 0 1 0
9.821565 -17.915706 -7.818174 21.876003 -1.069329 1.936264 0.028576 -0.000446 414141.000000 0 1 0
9.634765 -16.629706 -8.446374 20.993262 -1.045684 1.984865 0.023240 -0.002482 -105616.000000 0 1 0
10.388665 -16.659406 -9.765874 21.927892 -1.013210 2.032376 0.031560 -0.003502 -756331.000000 0 1 0
9.813065 -17.291106 -10.897074 22.672115 -1.054601 2.072178 0.034672 -0.001188 -216612.000000 0 1 0
9.154965 -16.370306 -11.714374 22.113952 -1.060885 2.129076 0.014538 -0.012412 44730.600000 0 1 0
8.571765 -16.871606 -13.073574 23.000969 -1.100723 2.175347 0.022703 -0.011561 -375351.000000 0 1 0
7.416865 -17.636206 -12.937874 23.096195 -1.172703 2.165391 0.019208 -0.005793 -426514.000000 0 1 0
7.164365 -18.410006 -14.125274 24.285383 -1.199673 2.191536 0.033408 0.001342 826955.000000 0 1 0
5.781165 -19.164906 -14.097274 24.483640 -1.277823 2.184358 0.033570 0.011869 827698.000000 0 1 0
5.832965 -20.235706 -13.221874 24.866146 -1.290153 2.131429 0.039236 -0.002816 331775.000000 0 1 0
4.582065 -20.871806 -12.985774 25.005158 -1.354691 2.116856 0.067050 -0.009092 430202.000000 0 0 1
4.898765 -22.344906 -12.634074 26.132596 -1.354977 2.075400 0.050783 -0.007046 91079.800000 0 0 1
5.622665 -22.998006 -13.651974 27.329454 -1.331015 2.093856 0.062416 -0.012708 -115952.000000 0 0 1
5.483365 -24.404406 -13.645374 28.492781 -1.349779 2.070205 0.060231 -0.014682 645175.000000 0 0 1
4.076865 -24.876006 -14.157074 28.911231 -1.408353 2.082512 0.063629 -0.015482 1175540.000000 0 0 1
2.958665 -24.649406 -13.312374 28.170308 -1.451338 2.062998 0.067777 -0.017956 880168.000000 0 0 1
1.648665 -24.807506 -13.882474 28.475490 -1.504436 2.080048 0.072678 -0.022535 1228120.000000 0 0 1
0.894265 -26.066806 -13.364674 29.306870 -1.536503 2.044320 0.068429 -0.016908 -407314.000000 0 0 1
1.309965 -27.228306 -14.039474 30.662738 -1.522723 2.046391 0.068888 -0.012701 145148.000000 0 0 1
0.992865 -28.460156 -13.337174 31.445930 -1.535924 2.008798 0.069142 -0.007685 1181540.000000 0 0 1
-0.493935 -28.985826 -13.465474 31.964685 1.553757 2.005632 0.067647 -0.016889 1711300.000000 0 0 1
-1.546035 -28.212816 -12.893774 31.058053 1.516052 1.998905 0.054935 -0.019432 509164.000000 0 0 1
-2.865035 -28.593806 -13.221074 31.632436 1.470932 2.001994 0.054350 -0.022674 367815.000000 0 0 1
-3.991935 -27.747876 -12.529774 30.706277 1.427912 1.991116 0.035941 -0.018372 400375.000000 0 0 1
-4.354835 -28.058446 -11.207974 30.526377 1.416819 1.946747 0.032182 -0.029902 -110972.000000 0 0 1
-4.993835 -29.299266 -11.067074 31.715383 1.401976 1.927246 0.020348 -0.027844 -967246.000000 0 0 1
-5.555635 -29.447276 -9.638774 31.478773 1.384324 1.881994 0.026714 -0.026882 798898.000000 0 0 1
-6.879835 -28.949036 -9.330674 31.183975 1.337471 1.874665 0.024046 -0.021476 724095.000000 0 0 1
-7.074635 -27.577596 -9.286274 29.946772 1.319676 1.886087 0.031907 -0.019117 -557571.000000 0 0 1
-8.557435 -27.180366 -9.009074 29.885873 1.265782 1.877009 0.032258 -0.015599 530778.000000 0 0 1
-9.509235 -27.292776 -10.063374 30.603802 1.235533 1.905858 0.044893 -0.020587 202810.000000 0 0 1
-9.741635 -28.643006 -10.459374 32.011245 1.242964 1.903649 0.049083 -0.027037 -1097240.000000 0 0 1
-11.016135 -28.853966 -11.294874 32.885875 1.206087 1.921391 0.054637 -0.025167 -539490.000000 0 0 1
-10.995035 -28.260086 -12.567674 32.824834 1.199751 1.963698 0.063913 -0.024517 153617.000000 0 0 1
-11.763935 -28.987136 -13.528374 34.083151 1.185272 1.978958 0.069791 -0.026281 -47913.400000 0 0 1
-12.148535 -28.108216 -14.731474 33.980510 1.162838 2.019200 0.072510 -0.029006 -401980.000000 0 0 1
-13.262635 -27.282486 -14.566074 33.651182 1.118312 2.018453 0.064776 -0.034442 -336407.000000 0 0 1
-13.048335 -26.149856 -13.706474 32.279118 1.107963 2.009342 0.065144 -0.023079 -236150.000000 0 0 1
-14.009635 -24.957506 -13.890974 31.813616 1.059289 2.022652 0.084148 -0.017129 -253292.000000 0 0 1
-13.798335 -24.337106 -15.148274 31.814447 1.055020 2.067061 0.072382 -0.019153 322775.000000 0 0 1
-14.604635 -23.182406 -15.380274 31.420887 1.008618 2.082303 0.078721 -0.017153 -142356.000000 0 0 1
-14.274835 -22.492606 -16.744274 31.465203 1.005291 2.131937 0.068591 -0.016174 626809.000000 0 0 1
-13.077135 -21.701206 -16.770374 30.384194 1.028468 2.155490 0.040479 -0.006885 776952.000000 0 0 1
-13.239235 -20.746806 -17.833974 30.393387 1.002808 2.197862 0.019727 0.000875 -304290.000000 0 0 1
-13.427035 -19.241906 -17.493574 29.267070 0.961547 2.211453 0.020347 0.000872 -915229.000000 0 0 1
-12.266035 -18.510306 -17.356374 28.183875 0.985573 2.234231 0.004394 0.011972 -776535.000000 0 0 1
-12.446535 -17.117006 -17.272874 27.317766 0.942084 2.255308 0.019100 0.012909 -391431.000000 0 0 1
-11.188535 -16.326106 -17.606274 26.489733 0.969994 2.297815 0.005951 0.004564 -470483.000000 0 0 1
-10.383035 -15.987006 -16.544274 25.240935 0.994796 2.285580 0.008682 0.005710 -1347820.000000 0 0 1
-9.156235 -15.524306 -16.961674 24.749528 1.037911 2.325858 0.010419 0.008256 -1057110.000000 0 1 0
-8.485535 -14.800206 -15.728474 23.204209 1.050211 2.315601 0.012567 0.010862 -174671.000000 0 1 0
-8.053235 -15.590606 -14.596474 22.824957 1.094001 2.264639 0.024311 0.007927 870448.000000 0 1 0
-6.890635 -16.421906 -14.814874 23.165499 1.173508 2.264674 0.028019 0.005560 369502.000000 0 1 0
-6.600835 -17.232306 -13.464374 22.843222 1.204987 2.201144 0.028338 0.002664 -808565.000000 0 1 0
-5.984435 -16.492106 -12.440674 21.507520 1.222705 2.187604 0.034588 -0.005327 239533.000000 0 1 0
-5.553535 -17.267706 -11.305774 21.373721 1.259630 2.128167 0.024310 -0.010061 525756.000000 0 1 0
-4.522735 -18.454106 -11.533474 22.226790 1.330453 2.116360 0.037613 -0.003252 -334108.000000 0 1 0
-3.247035 -18.013506 -11.870374 21.815944 1.392456 2.146130 0.036036 0.003200 -1550170.000000 0 1 0
-2.332135 -19.018906 -11.771674 22.488441 1.448783 2.121696 0.034258 0.007306 260335.000000 0 1 0
-0.847635 -18.658306 -12.089674 22.248845 1.525398 2.145260 0.040536 0.013076 -55688.200000 0 1 0
-0.678335 -18.270206 -13.405074 22.670611 1.533685 2.203463 0.051447 0.004434 -21575.400000 0 1 0
0.612065 -17.690106 -13.557374 22.296118 -1.536211 2.224411 0.058396 0.001019 650918.000000 0 1 0
1.767465 -18.688006 -13.871474 23.340593 -1.476499 2.207200 0.060295 -0.005792 -514743.000000 0 1 0
1.710965 -19.413306 -15.088574 24.646885 -1.482890 2.229623 0.077931 -0.008076 -446470.000000 0 1 0
0.802765 -20.452506 -15.091174 25.430159 -1.531566 2.206118 0.083183 -0.018630 -921119.000000 0 0 1
0.919265 -21.375706 -16.299174 26.896634 -1.527818 2.221810 0.094932 -0.018393 589515.000000 0 0 1
2.112465 -22.149706 -16.468074 27.681573 -1.475712 2.207951 0.095819 -0.015135 752807.000000 0 0 1
3.310765 -21.520206 -16.896174 27.560137 -1.418149 2.230732 0.089313 -0.013921 935951.000000 0 0 1
4.572265 -22.462206 -16.813474 28.427966 -1.369986 2.203641 0.086916 -0.023022 745207.000000 0 0 1
4.614565 -23.251306 -17.993974 29.760722 -1.374877 2.220087 0.072333 -0.023081 701991.000000 0 0 1
5.955765 -23.744806 -18.108874 30.450259 -1.325042 2.207693 0.075009 -0.020635 682661.000000 0 0 1
6.393165 -23.687206 -19.557374 31.375901 -1.307178 2.243784 0.068926 -0.018473 -110147.000000 0 0 1
6.472165 -22.337406 -19.964474 30.650104 -1.288774 2.280181 0.091554 -0.029277 164896.000000 0 0 1
7.028165 -22.121306 -21.284074 31.492207 -1.263172 2.312917 0.088391 -0.018389 146047.000000 0 0 1
7.233565 -20.716706 -21.782674 30.919108 -1.234865 2.352522 0.082759 -0.020021 315759.000000 0 0 1
6.067665 -19.993006 -22.147174 30.447236 -1.276141 2.385315 0.107860 -0.025725 79676.900000 0 0 1
6.417365 -18.641906 -22.419774 29.855477 -1.239259 2.420286 0.115365 -0.021995 427432.000000 0 0 1
5.216465 -17.713906 -22.781774 29.325811 -1.284408 2.460445 0.118273 -0.022012 546817.000000 0 0 1
4.403565 -18.212006 -23.884374 30.356743 -1.333555 2.476387 0.112286 -0.025180 683975.000000 0 0 1
3.234365 -17.527306 -24.281474 30.120716 -1.388316 2.508394 0.113428 -0.018959 912517.000000 0 0 1
1.993865 -17.463306 -23.354774 29.229917 -1.457114 2.496431 0.112008 -0.010692 79870.600000 0 0 1
2.240365 -16.476206 -22.360374 27.865228 -1.435649 2.502181 0.126218 -0.021866 -557482.000000 0 0 1
1.080465 -16.209906 -21.644974 27.063506 -1.504240 2.497733 0.099294 -0.012963 -278146.000000 0 0 1
1.225465 -15.214706 -20.512074 25.568227 -1.490425 2.501849 0.094994 -0.016900 57311.400000 0 0 1
1.702565 -13.944006 -20.977374 25.246470 -1.449298 2.551525 0.084524 -0.013567 -33146.000000 0 0 1
1.863565 -12.985306 -19.974074 23.896750 -1.428256 2.560474 0.081058 -0.017498 -399481.000000 0 1 0
3.046765 -12.031006 -20.111174 23.632334 -1.322768 2.588688 0.063244 -0.016802 -266945.000000 0 1 0
4.219965 -12.613006 -19.538874 23.636066 -1.247931 2.543933 0.063142 -0.023678 422412.000000 0 1 0
5.365965 -11.756006 -19.719274 23.576408 -1.142596 2.561476 0.061433 -0.016570 859733.000000 0 1 0
5.747165 -10.802506 -18.568274 22.237465 -1.081861 2.558928 0.058733 -0.011753 -367557.000000 0 1 0
4.867365 -9.706106 -18.444874 21.403577 -1.105970 2.609537 0.030833 -0.001866 -186176.000000 0 1 0
5.119065 -8.571906 -19.287974 21.718848 -1.032445 2.663938 0.042107 -0.009871 -620011.000000 0 1 0
4.557065 -8.629206 -20.699374 22.884364 -1.084924 2.701050 0.050664 -0.021741 -872598.000000 0 1 0
3.171665 -8.744606 -20.740674 22.731105 -1.222853 2.719994 0.044601 -0.017855 -1067130.000000 0 1 0
2.735065 -8.952506 -22.071274 23.974342 -1.274294 2.740463 0.042899 -0.024065 -445919.000000 0 1 0
1.212765 -8.930606 -22.111874 23.878055 -1.435823 2.754560 0.026881 -0.021059 -500406.000000 0 1 0
0.773065 -7.580606 -21.897674 23.185585 -1.469168 2.806720 0.029187 -0.022072 100866.000000 0 1 0
-0.652435 -7.539206 -21.949474 23.217336 1.484472 2.809590 0.025497 -0.016363 471542.000000 0 1 0
-1.124835 -6.545006 -22.986474 23.926562 1.400597 2.860343 0.033240 -0.010136 -215497.000000 0 1 0
-0.842935 -6.904306 -24.352074 25.325945 1.449309 2.863375 0.036627 -0.010407 -422226.000000 0 0 1
-1.398335 -6.067306 -25.369144 26.122041 1.344281 2.900919 0.043804 -0.019807 -20411.900000 0 0 1
-0.926635 -4.599906 -25.560684 25.987812 1.372010 2.960039 0.053072 -0.022804 -40765.100000 0 0 1
-1.287935 -4.087506 -26.829844 27.169965 1.265553 2.983198 0.038378 -0.017286 -223423.000000 0 0 1
-0.833635 -2.785506 -27.092304 27.247879 1.280004 3.034681 0.028304 -0.012265 -665246.000000 0 0 1
-1.236735 -1.600006 -26.162354 26.240394 0.912764 3.064449 0.034133 -0.023358 -370544.000000 0 0 1
-2.563435 -1.167706 -26.123314 26.274746 0.427438 3.034178 0.026127 -0.014874 -622078.000000 0 0 1
-3.112435 -0.687106 -27.345984 27.531113 0.217277 3.025559 0.037243 -0.013377 445003.000000 0 0 1
-4.674635 -0.828206 -27.231694 27.642418 0.175351 2.968992 0.040524 -0.015158 598268.000000 0 0 1
-5.271835 0.092994 -26.363264 26.885360 -0.017638 2.944197 0.044214 -0.020692 -566634.000000 0 0 1
-6.655935 -0.130306 -26.349044 27.177023 0.019575 2.894117 0.053763 -0.029162 -44367.000000 0 0 1
-7.533135 0.990894 -25.683794 26.784086 -0.130787 2.853966 0.050261 -0.023226 -229204.000000 0 0 1
-7.916435 2.138894 -26.472314 27.713322 -0.263883 2.841198 0.066941 -0.026392 155741.000000 0 0 1
-8.857035 2.095794 -27.510774 28.977269 -0.232351 2.822089 0.076051 -0.032192 155131.000000 0 0 1
-10.274835 1.543894 -27.184004 29.101992 -0.149144 2.776510 0.058849 -0.027219 23493.400000 0 0 1
-11.315935 2.212294 -27.895484 30.184477 -0.193067 2.749644 0.058799 -0.041843 -370450.000000 0 0 1
-12.541935 1.622794 -27.621654 30.379094 -0.128675 2.712233 0.024679 -0.029587 -1207750.000000 0 0 1
-13.635835 2.086494 -28.541434 31.700204 -0.151838 2.691381 0.012356 -0.023038 -1200990.000000 0 0 1
-14.872035 1.492994 -28.186084 31.903946 -0.100054 2.654008 0.018075 -0.021505 153302.000000 0 0 1
-15.973135 2.055394 -28.884564 33.070889 -0.127975 2.632965 0.017452 -0.022550 40811.000000 0 0 1
-16.533035 3.411794 -28.305974 32.957696 -0.203506 2.603832 0.011057 -0.007878 -734064.000000 0 0 1
-15.684135 4.554394 -28.337844 32.707308 -0.282610 2.618758 0.013401 -0.012043 -189706.000000 0 0 1
-15.437535 5.062894 -29.674664 33.830993 -0.316907 2.640679 0.001924 -0.018808 -191036.000000 0 0 1
-16.641635 5.662194 -30.449384 35.159201 -0.327956 2.618029 0.012124 -0.008595 264087.000000 0 0 1
-17.345535 6.722894 -29.850934 35.173046 -0.369759 2.584296 0.006771 0.000493 113713.000000 0 0 1
-18.352635 7.320294 -30.632334 36.451966 -0.379531 2.568721 0.000790 0.003082 -323040.000000 0 0 1
-19.170835 8.307494 -29.810844 36.403596 -0.408914 2.530285 0.006774 -0.002924 -586863.000000 0 0 1
-18.510635 9.508894 -29.586604 36.172224 -0.474547 2.528612 -0.003990 0.003690 1689.390000 0 0 1
-19.319635 10.420394 -28.912254 36.300845 -0.494644 2.492218 0.018949 0.000312 -199355.000000 0 0 1
-9.182835 24.838494 30.826931 40.639573 -1.216679 0.709720 0.026279 0.000681 -9411.850000 0 0 1
-10.020035 26.031394 30.969031 41.678717 -1.203356 0.733192 0.032323 -0.002508 456356.000000 0 0 1
-9.623735 26.861194 32.050771 42.911443 -1.226767 0.727401 0.048084 -0.005757 505.217000 0 0 1
-8.260835 27.592394 32.003381 43.055755 -1.279901 0.732805 0.040643 -0.012454 -84192.800000 0 0 1
-8.018935 28.449694 30.932461 42.784408 -1.296060 0.762684 0.053386 -0.004069 361389.000000 0 0 1
-6.627835 28.553594 30.652011 42.412047 -1.342716 0.763067 0.053990 -0.004242 426239.000000 0 0 1
-6.219335 29.495194 29.530791 42.198510 -1.362981 0.795670 0.067343 -0.012585 -205625.000000 0 0 1
-6.400935 30.833894 29.928691 43.444534 -1.366109 0.810834 0.067498 -0.012583 236938.000000 0 0 1
-6.178935 31.804394 28.951361 43.449741 -1.378907 0.841536 0.071245 -0.006589 -85452.700000 0 0 1
-6.534435 33.204294 29.542091 44.921700 -1.376484 0.853121 0.069233 -0.013480 193359.000000 0 0 1
-5.728135 33.551494 30.693761 45.832535 -1.401700 0.837000 0.076675 -0.022995 227250.000000 0 0 1
-6.303035 -33.854023 31.530831 46.690647 1.386721 0.829406 0.078115 -0.025294 705258.000000 0 0 1
-7.474135 33.965994 32.440487 47.559822 -1.354201 0.820168 0.049722 -0.024316 491150.000000 0 0 1
-7.246035 33.075494 33.496663 47.628980 -1.355128 0.790791 0.048974 -0.021100 -285975.000000 0 0 1
-6.958435 31.777194 33.053733 46.376278 -1.355223 0.777415 0.055729 -0.011171 -156221.000000 0 0 1
-6.807935 30.745494 34.205969 46.493889 -1.352884 0.744084 0.046077 -0.007399 89488.600000 0 0 1
-5.576735 30.810094 -33.519284 45.868336 -1.391732 2.390248 0.042534 -0.012791 -96179.100000 0 0 1
-5.709935 30.357894 -32.184104 44.609658 -1.384881 2.376705 0.050935 -0.013494 208873.000000 0 0 1
-4.303035 30.184494 -31.494324 43.835057 -1.429193 2.372401 0.053518 -0.017623 1038690.000000 0 0 1
-3.687735 28.954694 -31.864834 43.212745 -1.444116 2.400001 0.058744 -0.013454 -101600.000000 0 0 1
-3.057735 28.957894 -33.112734 44.094926 -1.465594 2.420284 0.060823 -0.020909 -990679.000000 0 0 1
-2.552435 27.565294 -33.528894 43.480422 -1.478464 2.451405 0.057692 -0.020147 -19938.800000 0 0 1
-1.381335 27.187094 -32.778234 42.608201 -1.520031 2.448532 0.068898 -0.017441 901278.000000 0 0 1
-0.802535 25.917394 -33.086744 42.036746 -1.539841 2.476875 0.070824 -0.014609 302706.000000 0 0 1
-0.250435 25.679594 33.948139 42.567363 -1.561044 0.647630 0.054194 -0.009758 -231078.000000 0 0 1
-1.316535 25.341194 33.052037 41.669492 -1.518891 0.654758 0.065974 -0.008112 603764.000000 0 0 1
-0.945435 25.234094 31.661791 40.498424 -1.533347 0.673244 0.069198 -0.002740 175377.000000 0 0 1
-0.456735 26.534494 30.935811 40.759200 -1.553585 0.709036 0.047253 -0.005151 -646797.000000 0 0 1
-1.523035 27.373494 30.685671 41.148976 -1.515215 0.729179 0.051755 -0.009939 -676084.000000 0 0 1
-1.236535 28.630994 30.074561 41.542052 -1.527634 0.761278 0.043410 -0.009752 -525700.000000 0 0 1
-2.213435 29.775694 30.280131 42.525023 -1.496596 0.778376 0.059501 -0.005788 -278620.000000 0 0 1
-2.151835 30.336894 31.539071 43.814045 -1.499984 0.767226 0.071911 -0.012924 816197.000000 0 0 1
-3.218335 31.310294 31.708211 44.677767 -1.468368 0.781711 0.060696 -0.011554 866401.000000 0 0 1
-2.901435 31.991594 33.002535 46.054834 -1.480350 0.771892 0.074076 -0.017768 284298.000000 0 0 1
-1.752935 32.823694 32.920127 46.520989 -1.517442 0.784643 0.091070 -0.025540 -220484.000000 0 0 1
-1.128835 32.958394 34.165023 47.484511 -1.536559 0.767717 0.068768 -0.031320 -1656420.000000 0 0 1
0.251465 33.452294 33.957464 47.667899 1.563279 0.777918 0.069007 -0.033728 -1612050.000000 0 0 1
0.394765 -33.686323 33.354601 47.407316 -1.559078 0.790381 0.074218 -0.032287 -633069.000000 0 0 1
1.744465 -33.448123 33.124067 47.106517 -1.518689 0.790945 0.046432 -0.030845 -527443.000000 0 0 1
1.935365 -31.945723 32.919067 45.912306 -1.510287 0.771309 0.050334 -0.033201 -148397.000000 0 0 1
1.688665 -31.212923 34.126699 46.278827 -1.516748 0.741561 0.050467 -0.027199 167833.000000 0 0 1
2.158365 -29.864523 34.032528 45.329475 -1.498650 0.721552 0.038100 -0.028866 -482171.000000 0 0 1
1.689665 -28.916223 -33.248204 44.095873 -1.512430 2.424924 0.054801 -0.020851 -507538.000000 0 0 1
0.308565 -28.749223 -33.264294 43.967332 -1.560064 2.428846 0.048811 -0.026802 -621670.000000 0 0 1
-0.149735 -27.712023 -32.415014 42.646357 1.565393 2.434246 0.049084 -0.024984 -729119.000000 0 0 1
-1.644835 -27.478923 -32.513724 42.602100 1.511010 2.439040 0.076505 -0.021563 -795072.000000 0 0 1
-2.106435 -27.004923 -31.299714 41.392935 1.492952 2.428222 0.078760 -0.019949 -316214.000000 0 0 1
-3.343235 -26.370123 -31.505954 41.221181 1.444688 2.440774 0.090943 -0.031446 -255134.000000 0 0 1
-3.868535 -25.581723 -30.287244 39.833494 1.420711 2.434642 0.086643 -0.031174 -224901.000000 0 0 1
-4.445635 -26.428623 -29.280004 39.693254 1.404144 2.400390 0.088993 -0.031211 68584.000000 0 0 1
-4.776535 -25.773823 -28.041074 38.384985 1.387550 2.389882 0.086883 -0.025662 -321270.000000 0 0 1
-3.590935 -25.655323 -27.079164 37.474946 1.431731 2.378344 0.086274 -0.028840 -84316.400000 0 0 1
-2.739935 -24.627023 -27.578344 37.075094 1.459995 2.409610 0.080814 -0.028520 57567.400000 0 0 1
-1.586135 -24.485323 -26.781234 36.321913 1.506108 2.399906 0.073044 -0.024283 75897.500000 0 0 1
-0.547835 -23.356123 -27.188604 35.847298 1.547345 2.431737 0.067884 -0.017515 1057440.000000 0 0 1
0.201565 -23.600823 -28.375914 36.908427 -1.562256 2.447789 0.047999 -0.019960 515674.000000 0 0 1
1.049765 -24.754723 -28.497924 37.762812 -1.528415 2.425926 0.052314 -0.013495 704725.000000 0 0 1
2.053165 -24.897523 -29.723514 38.827689 -1.488518 2.442651 0.017027 -0.010789 651718.000000 0 0 1
3.075365 -23.964823 -29.879404 38.425895 -1.443166 2.461612 0.039197 -0.011691 -99155.700000 0 0 1
3.714065 -23.943023 -31.149884 39.463628 -1.416902 2.480516 0.038268 -0.005020 -1056880.000000 0 0 1
4.839765 -22.921123 -31.063554 38.906884 -1.362704 2.495442 0.043965 -0.017721 -220322.000000 0 0 1
6.024565 -23.173523 -30.292664 38.612861 -1.316451 2.472722 0.032297 -0.013583 832923.000000 0 0 1
6.796365 -24.319223 -30.560384 39.642808 -1.298284 2.451039 0.040755 -0.006768 -142270.000000 0 0 1
7.493965 -24.394523 -31.958784 40.897630 -1.272748 2.467756 0.047898 -0.013268 129534.000000 0 0 1
6.522265 -24.990623 -32.861494 41.796519 -1.315503 2.475473 0.015069 -0.017545 572445.000000 0 0 1
6.734865 -24.812423 34.199436 42.785701 -1.305751 0.644635 0.028368 -0.021584 -147356.000000 0 0 1
6.252465 -23.415523 33.727493 41.532203 -1.309862 0.623088 0.040740 -0.016255 138662.000000 0 0 1
4.858665 -23.245123 33.928280 41.413411 -1.364744 0.610680 0.039537 -0.016106 187653.000000 0 0 1
4.293965 -22.216023 33.133735 40.122740 -1.379868 0.599160 0.059105 -0.021893 583974.000000 0 0 1
2.773365 -21.941923 33.341809 40.010196 -1.445067 0.585686 0.036795 -0.018461 861446.000000 0 0 1
1.810365 -22.928523 33.007171 40.230187 -1.492003 0.608585 0.052196 -0.020022 163511.000000 0 0 1
1.513765 -23.808223 34.072288 41.593795 -1.507300 0.610838 0.048813 -0.012730 -56750.400000 0 0 1
0.220965 -24.612723 33.790134 41.804404 -1.561819 0.629552 0.056998 -0.011199 195745.000000 0 0 1
0.371065 -25.540123 32.679584 41.477594 -1.556269 0.663429 0.055402 -0.008251 957157.000000 0 0 1
-0.900635 -26.096523 32.251191 41.496735 1.536298 0.680595 0.057231 -0.016896 1180790.000000 0 0 1
-0.785435 -27.036423 31.031001 41.164404 1.541753 0.716923 0.058718 -0.022757 -129616.000000 0 0 1
-2.042335 -27.139823 30.422421 40.819908 1.495686 0.729836 0.074328 -0.027713 -282859.000000 0 0 1
-2.112335 -28.173423 29.436491 40.800867 1.495960 0.764877 0.076512 -0.029799 -62985.700000 0 0 1
-3.469135 -28.231823 28.707871 40.413026 1.448529 0.780784 0.087456 -0.019858 39409.000000 0 0 1
-4.545635 -28.662823 29.510691 41.389626 1.413516 0.777033 0.101271 -0.019045 -527255.000000 0 0 1
-5.660735 -29.000323 28.751141 41.227307 1.378025 0.799060 0.103554 -0.020967 -279198.000000 0 0 1
-6.840835 -29.386223 29.689111 42.329546 1.342079 0.793464 0.089536 -0.019262 -371502.000000 0 0 1
-8.041535 -29.764423 29.086811 42.386670 1.306924 0.814509 0.091768 -0.019655 64837.800000 0 0 1
-9.152935 -29.942423 29.948541 43.327129 1.274133 0.807622 0.077578 -0.018701 208894.000000 0 0 1
-9.150735 -31.256323 30.789841 44.818613 1.285991 0.813461 0.045864 -0.007902 -450767.000000 0 0 1
-9.120035 -32.410723 29.976691 45.080285 1.296500 0.843353 0.063009 -0.012884 1293890.000000 0 0 1
-10.475035 -32.781123 29.608091 45.397880 1.261506 0.860325 0.067939 -0.015921 1045640.000000 0 0 1
-10.531835 -34.196023 28.936761 46.017646 1.272031 0.890763 0.078362 -0.016446 -275218.000000 0 0 1
-10.449635 33.203394 29.922621 45.902326 -1.265894 0.860741 0.065141 -0.011147 262581.000000 0 0 1
-10.246735 31.919494 29.321391 44.537553 -1.260170 0.852169 0.062424 -0.025073 -181241.000000 0 0 1
-10.698435 30.749994 30.228581 44.427309 -1.235979 0.822481 0.052736 -0.001262 271902.000000 0 0 1
-12.098335 30.763594 30.440931 44.937943 -1.196107 0.826575 0.045132 0.005976 92569.500000 0 0 1
-12.622335 29.623294 31.149231 44.801088 -1.167999 0.801989 0.037747 0.002315 198316.000000 0 0 1
-12.397235 29.538694 32.727777 45.796651 -1.173428 0.774698 0.044099 -0.011097 -112926.000000 0 0 1
-13.267035 30.434194 33.398387 47.092533 -1.159708 0.782423 0.035619 -0.000568 229164.000000 0 0 1
-13.396035 30.105694 -33.680054 47.118495 -1.152136 2.367127 0.037268 -0.002773 962468.000000 0 0 1
-14.887535 30.215794 -33.167094 47.272497 -1.113000 2.348458 0.034614 0.001038 1006860.000000 0 0 1
-14.981135 29.976694 -31.796244 46.195646 -1.107341 2.329933 0.025450 -0.000466 -311989.000000 0 0 1
-16.322835 30.033394 -31.362714 46.390295 -1.072965 2.313201 0.033696 0.004385 94286.600000 0 0 1
-16.468335 29.737994 -29.876604 45.256666 -1.065055 2.291827 0.044416 -0.009380 -319845.000000 0 0 1
-16.464435 28.408994 -29.543424 44.169701 -1.045549 2.303473 0.023094 -0.016112 20300.800000 0 0 1
-16.404835 28.250694 -28.153534 43.125883 -1.044698 2.282100 0.014493 -0.018700 -204398.000000 0 0 1
-16.721935 26.884594 -27.580824 41.989360 -1.014365 2.287433 -0.002362 -0.021793 -491915.000000 0 0 1
-17.950135 26.359394 -27.963584 42.414467 -0.972952 2.290675 0.007935 -0.017485 -652307.000000 0 0 1
-18.345635 25.191494 -27.282164 41.418476 -0.941363 2.289880 -0.001202 -0.015438 206911.000000 0 0 1
-19.771735 24.709594 -27.644734 42.020434 -0.895955 2.288807 0.008920 -0.020298 119425.000000 0 0 1
-20.819235 25.280594 -26.880614 42.368814 -0.881874 2.258085 0.027182 -0.023112 -304059.000000 0 0 1
-22.002335 24.655894 -27.291844 42.858612 -0.842209 2.261121 0.070058 -0.032024 179392.000000 0 0 1
-23.239935 24.766394 -26.349944 42.985909 -0.817184 2.230636 0.103805 -0.043562 139470.000000 0 0 1
-23.970935 25.995294 -26.388194 44.121399 -0.825891 2.211902 0.070788 -0.022465 -577885.000000 0 0 1
-25.252275 25.961994 -25.870604 44.508321 -0.799255 2.191064 0.063690 -0.022868 -598107.000000 0 0 1
-25.396155 25.662294 -24.348574 43.547343 -0.790611 2.164131 0.051504 -0.004121 -1162340.000000 0 0 1
-25.300605 24.288794 -24.070674 42.537789 -0.764997 2.172279 0.031581 -0.008054 -390312.000000 0 0 1
-26.530985 23.619194 -23.937574 42.834180 -0.727402 2.163786 0.020952 -0.004372 -347305.000000 0 0 1
-27.245875 23.931694 -22.548474 42.702428 -0.720730 2.127084 0.016406 -0.005426 -390522.000000 0 0 1
-26.586065 23.500494 -21.352274 41.412699 -0.723871 2.112501 0.000191 -0.001513 892478.000000 0 0 1
-25.448635 24.275694 -20.920174 40.921828 -0.761814 2.107403 0.007913 0.006332 844643.000000 0 0 1
-24.598735 23.728994 -19.720074 39.459400 -0.767403 2.094113 0.003557 0.004153 197141.000000 0 0 1
-25.199405 23.756094 -18.413874 39.222860 -0.755925 2.059484 -0.005270 0.009806 -422406.000000 0 0 1
-24.239635 23.472594 -17.444774 37.984769 -0.769323 2.047955 0.010290 0.003854 -726881.000000 0 0 1
-24.661835 23.484594 -16.022074 37.635610 -0.760952 2.010549 0.007772 0.001939 -318706.000000 0 0 1
-25.136325 24.730694 -15.507674 38.521812 -0.777264 1.985118 0.018454 -0.008774 -22621.300000 0 0 1
-25.203585 24.687194 -14.097774 37.992440 -0.775048 1.950955 -0.010500 -0.004595 -1961.980000 0 0 1
-25.589665 26.055494 -13.517474 38.941518 -0.794418 1.925297 0.001629 -0.003680 -77600.100000 0 0 1
-24.468935 26.862594 -13.318274 38.700183 -0.831996 1.922119 0.012321 -0.010520 -402708.000000 0 0 1
-24.619235 27.692194 -12.147974 38.994071 -0.844074 1.887603 0.023573 -0.009782 -56739.200000 0 0 1
-23.271235 28.232094 -11.615974 38.386617 -0.881423 1.878221 0.025242 -0.013195 -565052.000000 0 0 1
-22.606835 27.222894 -10.979874 37.050136 -0.877771 1.871667 0.033035 -0.017598 -393393.000000 0 0 1
-21.495835 27.817794 -10.331274 36.641995 -0.912902 1.856624 0.034897 -0.019159 -408464.000000 0 0 1
-20.548635 26.757394 -9.766274 35.122424 -0.915899 1.852574 0.067069 -0.023592 -185025.000000 0 0 1
-19.922235 26.023594 -10.823774 34.514880 -0.917420 1.889775 0.052474 -0.023904 115096.000000 0 0 1
-18.977035 25.123694 -10.265374 33.116548 -0.923884 1.885965 0.057278 -0.014317 -151411.000000 0 0 1
-18.461035 24.132194 -11.382974 32.446027 -0.917767 1.929251 0.057244 -0.023343 -245626.000000 0 0 1
-18.024635 22.907394 -10.748574 31.067153 -0.904127 1.924078 0.035297 -0.018532 300372.000000 0 0 1
-17.463335 22.021794 -11.693274 30.441093 -0.900337 1.965059 0.064041 -0.017861 314917.000000 0 0 1
-16.939035 20.636894 -11.030874 28.887583 -0.883493 1.962599 0.047294 -0.004674 423083.000000 0 0 1
-18.017135 19.750494 -10.716674 28.801845 -0.831261 1.952048 0.038463 -0.003089 544050.000000 0 0 1
-17.623735 18.421794 -10.502674 27.572898 -0.807535 1.961572 0.060481 -0.016609 -275965.000000 0 0 1
-18.846135 17.481194 -10.594574 27.803128 -0.747842 1.961736 0.051732 -0.009752 216697.000000 0 0 1
-19.375435 16.983494 -11.859874 28.363765 -0.719706 2.002187 0.030108 -0.004272 629780.000000 0 0 1
-20.393135 17.820694 -12.418074 29.793718 -0.718183 2.000720 0.035351 0.004855 179315.000000 0 0 1
-21.127335 17.073594 -13.588174 30.372856 -0.679677 2.034629 0.056595 -0.003832 277431.000000 0 0 1
-20.239235 16.879694 -14.673674 30.164009 -0.695137 2.078833 0.068060 -0.007165 431476.000000 0 0 1
-21.007035 16.774694 -15.838974 31.201907 -0.673842 2.103226 0.054112 -0.002715 -146248.000000 0 0 1
-20.140135 16.394694 -17.006474 31.042410 -0.683238 2.150584 0.087115 -0.012123 -150900.000000 0 0 1
-19.363635 17.453594 -17.523474 31.410992 -0.733566 2.162622 0.059819 -0.013031 777958.000000 0 0 1
-18.390035 17.181494 -18.535274 31.256255 -0.751436 2.205588 0.055451 -0.005329 -156414.000000 0 0 1
-17.776835 18.370594 -19.180574 31.959177 -0.801823 2.214496 0.038858 0.003184 -525527.000000 0 0 1
-17.007735 19.123094 -18.281674 31.451159 -0.843879 2.191087 0.049691 0.004301 188036.000000 0 0 1
-16.757635 20.404494 -18.809274 32.418367 -0.883219 2.189776 0.060695 -0.005471 -126374.000000 0 0 1
33.554760 30.603194 2.394326 45.477578 0.739426 1.518123 0.072635 -0.024547 246479.000000 0 0 1
34.798600 30.526294 1.711926 46.322001 0.720090 1.533831 0.082455 -0.026669 197235.000000 0 0 1
34.879390 31.415794 0.632526 46.945969 0.733201 1.557322 0.065003 -0.013542 -31496.900000 0 0 1
36.194820 31.305494 -0.173874 47.855294 0.713090 1.574430 0.027051 -0.010468 104628.000000 0 0 1
-35.461368 31.904294 0.537426 47.704103 -0.732645 1.559530 0.007875 -0.012258 -591004.000000 0 0 1
-34.302637 31.909094 -0.237074 46.849945 -0.749264 1.575857 0.024703 -0.002983 -367050.000000 0 0 1
-33.242735 32.909894 0.284926 46.778432 -0.780367 1.564705 0.024939 -0.005936 61997.800000 0 0 1
-32.595405 32.513594 1.494826 46.063312 -0.784142 1.538339 0.035967 -0.008069 95984.600000 0 0 1
-32.156185 33.766394 2.086526 46.674867 -0.809819 1.526078 0.016612 0.000853 -96433.200000 0 0 1
-31.498795 33.513294 3.453126 46.122002 -0.816375 1.495857 0.035069 0.003951 -298349.000000 0 0 1
-31.164765 -33.625523 3.953126 46.016797 0.823360 1.484784 0.024604 0.017172 -219387.000000 0 0 1
-30.563805 -33.758623 5.196826 45.834461 0.835026 1.457169 0.042671 -0.005117 -707842.000000 0 0 1
-30.508665 -32.461423 5.993326 44.949334 0.816399 1.437063 0.042856 0.000015 959939.000000 0 0 1
-31.678125 -31.937623 6.690026 45.478257 0.789477 1.423157 0.045458 0.002701 743018.000000 0 0 1
-32.205225 -32.785023 7.688926 46.595642 0.794319 1.405024 0.038766 -0.013136 -209582.000000 0 0 1
-33.366185 -32.093623 8.528426 47.074803 0.765960 1.388623 0.050656 -0.005541 1295400.000000 0 0 1
-34.638140 -31.819723 7.950626 47.702285 0.743014 1.403343 0.035994 -0.006228 534265.000000 0 0 1
-35.340305 -32.985923 7.491226 48.919595 0.750954 1.417058 0.037140 -0.017499 72169.300000 0 0 1
35.837030 -32.816523 7.265826 49.132567 -0.741430 1.422370 0.034455 -0.011263 896817.000000 0 0 1
35.138350 -32.694323 8.518026 48.746068 -0.749384 1.395152 0.025351 -0.010435 -453188.000000 0 0 1
33.828420 -32.270623 8.320826 47.486748 -0.761835 1.394663 0.028332 -0.005762 -554391.000000 0 0 1
32.905130 -32.894123 9.421326 47.471384 -0.785231 1.371007 0.038002 -0.018835 1314420.000000 0 0 1
31.522730 -32.459723 9.278826 46.188881 -0.800042 1.368531 0.038212 -0.024051 1365360.000000 0 0 1
30.708730 -32.496923 10.430926 45.911658 -0.813682 1.341599 0.043771 -0.022171 62586.600000 0 0 1
30.744670 -31.304623 11.334926 45.317708 -0.794422 1.317991 0.050784 -0.017238 -524210.000000 0 0 1
30.166020 -30.112323 10.903426 43.995744 -0.784507 1.320358 0.051236 -0.014121 60127.800000 0 0 1
30.723030 -29.507623 9.757926 43.701505 -0.765222 1.345612 0.056101 -0.019329 111070.000000 0 0 1
30.027560 -28.131623 9.471126 42.222563 -0.752811 1.344557 0.052424 -0.013205 166580.000000 0 0 1
30.490010 -27.625723 8.257726 41.964405 -0.736152 1.372724 0.059038 -0.015448 163542.000000 0 0 1
29.897710 -26.325823 8.106326 40.652608 -0.721953 1.370046 0.060926 -0.017489 143274.000000 0 0 1
29.985710 -25.713323 6.688126 40.063060 -0.708843 1.403071 0.055390 -0.013700 669114.000000 0 0 1
31.353600 -25.556123 6.320926 40.940417 -0.683877 1.415783 0.052616 -0.016516 103260.000000 0 0 1
31.421690 -25.005223 5.011026 40.468434 -0.672172 1.446652 0.044037 -0.010594 187717.000000 0 0 1
32.839120 -24.569423 4.561826 41.265901 -0.642332 1.460023 0.057638 -0.012281 477214.000000 0 0 1
33.599800 -25.757423 4.269926 42.551424 -0.654037 1.470280 0.046844 -0.009367 10049.900000 0 0 1
34.963040 -25.444923 4.038426 43.430026 -0.629119 1.477675 0.043312 -0.010487 685150.000000 0 0 1
35.902640 -26.703423 3.944926 44.918090 -0.639504 1.482858 0.031237 -0.004168 224061.000000 0 0 1
36.028080 -27.273723 5.192226 45.484478 -0.647974 1.456393 0.015929 0.003652 -177008.000000 0 0 1
-36.259145 -28.621923 5.108626 46.476211 0.668226 1.460655 0.021908 0.001981 -426298.000000 0 0 1
35.888760 -29.422023 6.342926 46.838993 -0.686705 1.434959 0.030117 0.001902 -119533.000000 0 0 1
34.634000 -29.963223 6.065326 46.196286 -0.713218 1.439121 0.018645 0.003239 -1187360.000000 0 0 1
33.619030 -29.125123 6.493626 44.951965 -0.713898 1.425832 0.027646 0.008029 -878844.000000 0 0 1
32.207430 -29.543123 6.048826 44.121457 -0.742279 1.433268 0.048469 -0.004961 -716147.000000 0 0 1
32.090490 -29.558223 4.625926 43.873537 -0.744346 1.465162 0.041742 -0.003896 -235857.000000 0 0 1
30.850410 -29.208623 4.078026 42.679289 -0.758069 1.475100 0.044334 -0.005309 -403784.000000 0 0 1
29.582280 -30.007723 4.368726 42.363433 -0.792538 1.467488 0.036080 -0.012682 -452933.000000 0 0 1
29.527160 -31.133723 3.554926 43.055771 -0.811876 1.488137 0.042919 -0.003927 -490617.000000 0 0 1
28.343600 -31.886223 3.683726 42.821265 -0.844149 1.484664 0.051377 -0.009189 -61241.300000 0 0 1
28.206140 -33.254223 3.009526 43.709117 -0.867350 1.501888 0.058697 -0.010996 -284623.000000 0 0 1
27.995210 -33.058523 1.598826 43.349210 -0.868141 1.533905 0.056854 -0.004879 148824.000000 0 0 1
27.826120 34.143694 0.897126 44.055528 0.886993 1.550431 0.063673 -0.002246 -341785.000000 0 0 1
27.672570 -34.123323 -0.609574 43.937955 -0.889410 1.584670 0.053570 -0.002408 -166044.000000 0 0 1
28.765800 -33.646123 -1.353474 44.287298 -0.863435 1.601362 0.053855 -0.004524 -218349.000000 0 0 1
28.371930 -33.638023 -2.686474 44.087415 -0.870118 1.631769 0.054628 -0.001034 27003.200000 0 0 1
29.456870 -33.172423 -3.682674 44.516052 -0.844655 1.653618 0.045894 0.003656 66805.300000 0 0 1
29.649720 -31.743823 -3.619074 43.587543 -0.819494 1.653922 0.034623 0.007144 85740.400000 0 0 1
30.530320 -31.361523 -4.656774 44.015124 -0.798827 1.676794 0.013595 0.013337 -224044.000000 0 0 1
30.981750 -29.880623 -4.533974 43.281374 -0.767308 1.675745 0.017900 0.010788 -121584.000000 0 0 1
30.037240 -28.911923 -5.015674 41.991571 -0.766311 1.690527 0.019292 0.005457 516314.000000 0 0 1
30.538450 -27.552523 -5.042874 41.438738 -0.734042 1.692793 0.028095 -0.004090 730343.000000 0 0 1
31.741990 -27.201623 -6.001874 42.231561 -0.708521 1.713397 0.034877 -0.002274 595073.000000 0 0 1
32.929110 -27.941723 -5.715074 43.562923 -0.703647 1.702367 0.028508 0.011360 179976.000000 0 0 1
34.057740 -27.342023 -6.329574 44.131388 -0.676454 1.714718 0.027460 -0.009508 -74685.200000 0 0 1
34.310700 -27.909023 -7.803874 44.911448 -0.682871 1.745444 0.027625 -0.003125 -460595.000000 0 0 1
33.232160 -27.837823 -8.779274 44.231171 -0.697296 1.770609 0.035467 -0.004858 693429.000000 0 0 1
32.898840 -29.016323 -9.503474 44.884259 -0.722773 1.784144 0.017884 0.003837 146770.000000 0 0 1
32.509430 -30.270923 -8.708674 45.266244 -0.749757 1.764391 0.003121 0.007310 -444056.000000 0 0 1
33.602800 -30.855523 -8.045274 46.324269 -0.742803 1.745354 0.001962 0.005557 -628590.000000 0 0 1
33.276590 -31.992523 -7.291274 46.733453 -0.765727 1.727455 -0.005144 0.006457 303420.000000 0 0 1
34.535980 -32.651123 -6.654274 47.990719 -0.757352 1.709902 -0.011337 0.008085 150013.000000 0 0 1
34.345610 -33.991023 -6.054274 48.699741 -0.780209 1.695437 -0.012150 0.004917 -242074.000000 0 0 1
33.573560 -33.966723 -4.880374 48.007710 -0.791219 1.672630 0.004209 0.006698 -177480.000000 0 0 1
33.514060 32.999294 -4.262474 47.226203 0.777659 1.661176 -0.001403 0.007418 -113333.000000 0 0 1
32.906710 32.058394 -5.136574 46.227443 0.772341 1.682142 0.006544 -0.003182 74655.500000 0 0 1
32.900110 30.775494 -4.609174 45.285679 0.752044 1.672753 0.003444 0.009175 518877.000000 0 0 1
31.672940 29.986294 -5.183574 43.922914 0.758051 1.689087 0.019957 -0.000972 554229.000000 0 0 1
31.724550 29.708094 -6.582874 43.958527 0.752586 1.721114 0.003269 0.010984 239621.000000 0 0 1
30.443390 29.236294 -6.986774 42.782892 0.765175 1.734839 -0.000924 0.007573 456330.000000 0 0 1
30.296740 29.104494 -8.490174 42.860787 0.765330 1.770202 -0.004596 0.012875 -8723.610000 0 0 1
30.891660 27.879994 -8.984774 42.571291 0.734199 1.783448 -0.008378 0.008866 158383.000000 0 0 1
31.044610 27.835894 -10.423374 42.979664 0.730957 1.815758 -0.012722 0.013726 172992.000000 0 0 1
32.202820 28.685794 -10.984174 44.503353 0.727701 1.820190 -0.005401 0.017150 -1157280.000000 0 0 1
33.494750 28.246194 -10.711374 45.105202 0.700593 1.810562 -0.003078 0.009400 -547135.000000 0 0 1
34.491710 29.054294 -11.265074 46.483673 0.700039 1.815578 -0.002718 0.011170 -265704.000000 0 0 1
34.739540 30.436494 -10.495474 47.364235 0.719472 1.794242 -0.003932 0.007449 -898418.000000 0 0 1
35.254560 30.231594 -9.173774 47.339110 0.708845 1.765819 -0.014199 0.016209 319521.000000 0 0 1
35.173880 31.459194 -8.500474 47.949356 0.729707 1.749019 -0.014527 0.011262 -1165270.000000 0 0 1
35.966040 31.489594 -7.215674 48.344767 0.719134 1.720611 -0.002081 0.011606 360081.000000 0 0 1
-35.346723 31.613194 -7.314674 47.982177 -0.729698 1.723839 0.006914 0.002772 552457.000000 0 0 1
-34.559716 30.534194 -7.855674 46.780579 -0.723635 1.739522 0.022491 -0.002091 170503.000000 0 0 1
-33.166375 31.004894 -8.364674 46.165784 -0.751728 1.752990 0.075519 -0.013075 443824.000000 0 0 1
-32.329685 31.621294 -7.343374 45.815280 -0.774322 1.731773 0.073079 -0.015854 1480890.000000 0 0 1
-30.988335 31.938294 -7.776774 45.175322 -0.800493 1.743805 0.095839 -0.027885 988152.000000 0 0 1
-30.890725 33.104294 -8.813274 46.128136 -0.819974 1.763039 0.069422 -0.021527 -673823.000000 0 0 1
-31.063195 -34.041123 -8.166674 46.801867 0.831107 1.746189 0.048252 -0.011814 15002.100000 0 0 1
-29.924105 -33.568223 -7.474374 45.586664 0.842730 1.735500 0.085694 -0.018633 -82175.900000 0 0 1
-30.094595 -32.235223 -6.691974 44.604673 0.819728 1.721393 0.059826 -0.023955 236805.000000 0 0 1
-31.013125 -32.203823 -5.576274 45.055466 0.804231 1.694879 0.043725 -0.023283 231396.000000 0 0 1
-30.677885 -32.943223 -4.421774 45.232076 0.820990 1.668710 0.055186 -0.021051 -164238.000000 0 0 1
-31.862155 -33.066523 -3.446474 46.048562 0.803945 1.645711 0.039413 -0.013660 -265547.000000 0 0 1
-32.199015 -31.820523 -2.841874 45.358555 0.779486 1.633491 0.031500 -0.006164 -199366.000000 0 0 1
-33.031305 -31.792223 -1.714774 45.877588 0.766286 1.608182 0.034383 -0.001778 59047.300000 0 0 1
-33.716625 -30.404323 -1.472874 45.424697 0.733787 1.603227 0.040140 0.011205 -270277.000000 0 0 1
-34.530123 -30.382023 -0.346974 45.994751 0.721582 1.578340 0.022505 0.015156 -645224.000000 0 0 1
-35.216315 -29.152923 -0.282674 45.718286 0.691478 1.576979 0.033157 0.015155 -111606.000000 0 0 1
-36.233605 -29.037723 0.884526 46.441855 0.675596 1.551749 0.032675 0.015541 274809.000000 0 0 1
35.348470 -29.910223 0.667026 46.309618 -0.702257 1.556392 0.016510 0.014203 751429.000000 0 0 1
34.386740 -29.971823 1.715526 45.647575 -0.716907 1.533205 0.024204 0.008764 627876.000000 0 0 1
33.533210 -28.670223 1.853926 44.157614 -0.707378 1.528800 0.016873 0.023123 -758142.000000 0 0 1
32.463600 -28.623023 0.892926 43.289261 -0.722610 1.550168 0.019964 0.010962 462840.000000 0 0 1
31.713840 -27.450723 1.174826 41.960577 -0.713467 1.542794 0.024344 0.009417 -266227.000000 0 0 1
30.382970 -27.144723 0.436526 40.744956 -0.729167 1.560082 0.021333 -0.011496 174975.000000 0 0 1
29.305740 -27.893723 0.969526 40.470065 -0.760717 1.546837 0.023575 0.003792 -116202.000000 0 0 1
29.198340 -29.290923 0.670026 41.363633 -0.786981 1.554597 0.026622 0.006552 -760571.000000 0 0 1
28.929650 -29.691923 -0.797674 41.462890 -0.798401 1.590036 0.023018 0.003262 536475.000000 0 0 1
27.576370 -29.402023 -1.167374 40.327384 -0.817428 1.599748 0.030176 0.002490 489250.000000 0 0 1
27.405970 -29.517323 -2.572374 40.360583 -0.822472 1.634574 0.033470 0.003591 353290.000000 0 0 1
26.061370 -30.166523 -3.013974 39.978721 -0.858278 1.646257 0.056035 -0.009026 793673.000000 0 0 1
24.923670 -29.342723 -2.821774 38.602424 -0.866651 1.643960 0.060320 -0.017623 139596.000000 0 0 1
23.722670 -29.969223 -3.241774 38.359204 -0.901218 1.655408 0.042656 -0.017738 217726.000000 0 0 1
22.528970 -29.016623 -3.354674 36.888653 -0.910602 1.661863 0.042373 -0.018004 -160942.000000 0 0 1
22.632770 -28.207123 -4.502974 36.443941 -0.894607 1.694672 0.056682 -0.022230 87149.300000 0 0 1
22.138870 -26.878623 -4.223274 35.077428 -0.881794 1.691488 0.058006 -0.025506 75955.000000 0 0 1
21.772270 -26.202323 -5.557674 34.517839 -0.877479 1.732509 0.060439 -0.030962 -70766.500000 0 0 1
20.402770 -26.409123 -5.834374 33.878529 -0.913009 1.743874 0.068432 -0.026656 -291439.000000 0 0 1
19.992370 -25.810423 -7.029674 33.395945 -0.911746 1.782877 0.074019 -0.021118 307563.000000 0 0 1
18.455570 -25.989423 -7.249574 32.689670 -0.953312 1.794425 0.071977 -0.017821 632797.000000 0 0 1
17.747270 -25.031923 -6.441574 31.353734 -0.954065 1.777718 0.068432 -0.020266 372126.000000 0 0 1
16.360670 -25.361423 -6.519274 30.876759 -0.997873 1.783536 0.056240 -0.018156 578339.000000 0 0 1
15.437170 -24.542523 -5.569574 29.523919 -1.009328 1.760580 0.049763 -0.016295 103351.000000 0 0 1
15.538270 -24.902423 -4.204174 29.652042 -1.012941 1.713059 0.040822 -0.011640 -139419.000000 0 0 1
14.759370 -24.047123 -3.427574 28.422727 -1.020314 1.691683 0.040382 -0.016617 -196179.000000 0 0 1
14.628570 -24.584623 -1.977474 28.675933 -1.034040 1.639810 0.040739 -0.009676 -511587.000000 0 0 1
13.835670 -25.729623 -1.957774 29.279210 -1.077420 1.637712 0.042733 -0.007234 -595844.000000 0 0 1
14.528470 -26.954023 -1.996374 30.685197 -1.076430 1.635902 0.044344 -0.010901 -736800.000000 0 0 1
13.702770 -28.200723 -2.210874 31.431428 -1.118491 1.641194 0.041761 -0.009723 147113.000000 0 0 1
12.841170 -28.521623 -1.063074 31.297105 -1.147755 1.604770 0.053790 -0.019170 344479.000000 0 0 1
12.104770 -29.710323 -1.242874 32.105661 -1.183904 1.609518 0.051473 -0.020499 -224087.000000 0 0 1
12.783270 -31.024723 -0.831474 33.565411 -1.179958 1.595571 0.050212 -0.022284 -162754.000000 0 0 1
13.888970 -31.368623 -1.655074 34.345790 -1.153974 1.619004 0.047875 -0.019353 -177805.000000 0 0 1
14.264870 -32.689423 -1.280074 35.689263 -1.159330 1.606671 0.044142 -0.020323 -923735.000000 0 0 1
15.711870 -33.030323 -1.634974 36.613362 -1.126793 1.615466 0.045633 -0.015940 199033.000000 0 0 1
16.681170 -32.227623 -0.928374 36.300730 -1.093164 1.596374 0.043162 -0.009795 700803.000000 0 0 1
17.824270 -31.840923 -1.696374 36.529805 -1.060467 1.617251 0.056340 -0.018606 91760.600000 0 0 1
18.657070 -30.788323 -1.021074 36.014576 -1.025992 1.599152 0.052190 -0.018589 -268661.000000 0 0 1
18.012270 -29.518623 -0.988174 34.594327 -1.022910 1.599365 0.058206 -0.014493 154713.000000 0 0 1
18.841970 -28.565223 -0.393474 34.222020 -0.987694 1.582294 0.036881 -0.011379 -112805.000000 0 0 1
18.641970 -27.200223 -1.054874 32.992241 -0.969963 1.602775 0.032169 -0.008630 32553.400000 0 0 1
19.038070 -27.193923 -2.405374 33.282779 -0.960013 1.643130 0.045217 -0.020596 598671.000000 0 0 1
18.253870 -26.159223 -3.034974 32.042469 -0.961549 1.665656 0.055188 -0.011641 281486.000000 0 0 1
32.845910 -29.312323 13.944226 46.179081 -0.728611 1.264049 0.059900 -0.025080 37183.900000 0 0 1
33.256650 -30.303023 14.862626 47.383284 -0.738961 1.251743 0.065868 -0.017396 453003.000000 0 0 1
32.421710 -30.421723 16.022826 47.258644 -0.753584 1.224894 0.060939 -0.014807 137983.000000 0 0 1
33.310630 -31.128023 17.055526 48.676923 -0.751540 1.212817 0.054560 -0.008847 -170308.000000 0 0 1
32.735280 -31.503423 18.293626 48.976739 -0.766224 1.187999 0.038743 -0.012687 431061.000000 0 0 1
33.741900 -31.753423 19.292626 50.189651 -0.755047 1.176244 0.033595 -0.010201 385608.000000 0 0 1
34.391660 -33.165223 19.098626 51.453628 -0.767246 1.190515 0.031541 -0.008632 101067.000000 0 0 1
35.449100 -33.153023 18.122126 51.809006 -0.751941 1.213452 0.032268 -0.007556 252894.000000 0 0 1
36.177220 34.073894 18.186326 52.920354 0.755467 1.219991 0.035838 -0.009405 -490453.000000 0 0 1
-35.389204 34.091694 17.179426 52.055471 -0.766726 1.234470 0.031241 -0.013346 -781261.000000 0 0 1
-34.314323 -33.564723 17.618126 51.131808 0.774355 1.219023 0.035733 -0.013482 -400873.000000 0 0 1
-33.346925 -33.407123 16.608626 50.038983 0.786300 1.232465 0.048391 -0.006948 -665293.000000 0 0 1
-32.266315 -32.416223 17.036326 48.807408 0.787716 1.214237 0.033225 -0.008094 -754850.000000 0 0 1
-31.169935 -32.381323 16.180326 47.769425 0.804457 1.225243 0.033128 -0.012566 -256300.000000 0 0 1
-31.267035 -31.182723 15.368226 46.756520 0.784048 1.235884 0.048043 -0.006193 -359461.000000 0 0 1
-30.003295 -31.042023 14.490226 45.538683 0.802412 1.246970 0.039210 -0.009621 380690.000000 0 0 1
-28.812105 -30.808123 15.246526 44.852363 0.818865 1.223957 0.026674 -0.016328 -497189.000000 0 0 1
-27.809685 -30.694223 14.294826 43.816161 0.834663 1.238467 0.021758 -0.006527 -1151310.000000 0 0 1
-26.455185 -30.224123 14.775426 42.798221 0.851796 1.218308 0.020810 -0.004795 -879249.000000 0 0 1
-25.633555 -30.035623 13.670126 41.786244 0.864309 1.237516 0.025064 -0.001300 -917848.000000 0 0 1
-24.356735 -29.749523 14.208826 40.989943 0.884740 1.216808 0.010505 0.001788 52412.200000 0 0 1
-23.193435 -29.912923 13.183026 40.081300 0.911258 1.235650 0.022577 0.000419 246804.000000 0 0 1
-22.918635 -31.255223 12.936226 40.859501 0.938086 1.248651 0.027945 -0.007988 1140770.000000 0 0 1
-21.513135 -31.377523 12.611026 40.079944 0.969785 1.250712 0.045215 -0.017476 1281110.000000 0 0 1
-20.969835 -32.777723 12.360326 40.827574 1.001654 1.263225 0.041976 -0.013073 -33524.200000 0 0 1
-21.384535 -33.225823 11.067226 41.033367 0.998925 1.297702 0.033312 -0.008240 -31666.700000 0 0 1
-21.570935 33.774894 11.119326 41.589519 -1.002429 1.300145 0.039017 -0.001656 -16853.200000 0 0 1
-22.679435 33.360594 10.122726 41.590330 -0.973738 1.324936 0.025301 -0.000745 -83172.100000 0 0 1
-22.456035 33.734794 8.802326 41.470360 -0.983488 1.356914 0.018791 0.004910 40863.400000 0 0 1
-23.417935 33.152794 7.928926 41.356684 -0.955812 1.377881 0.019618 -0.005934 -255700.000000 0 0 1
-23.138835 33.543294 6.432026 41.254445 -0.966935 1.414247 0.017476 -0.002733 -89759.400000 0 0 1
-22.298835 32.681594 5.640926 39.964292 -0.972045 1.429174 0.011484 -0.003151 250556.000000 0 0 1
-20.919035 32.582694 5.907626 39.168074 -1.000045 1.419391 0.012692 -0.002478 -505235.000000 0 0 1
-20.065135 33.763894 5.437426 39.650672 -1.034595 1.433230 0.032929 -0.003825 -770280.000000 0 0 1
-20.137235 -33.496323 6.248926 39.579806 1.029511 1.412251 0.039790 -0.010441 50129.600000 0 0 1
-19.548735 -33.683023 7.527226 39.665580 1.044933 1.379871 0.044794 -0.008211 -449569.000000 0 0 1
-19.652835 -32.461723 8.432926 38.873020 1.026404 1.352123 0.050321 -0.010902 -552699.000000 0 0 1
-18.778435 -31.403923 8.158026 37.488524 1.031875 1.351427 0.064193 -0.021613 -505067.000000 0 0 1
-18.784435 -30.324823 9.109026 36.816087 1.016205 1.320780 0.066938 -0.017539 277195.000000 0 0 1
-17.913035 -30.544923 10.351326 36.891993 1.040400 1.286393 0.057975 -0.014146 -709259.000000 0 0 1
-16.532235 -30.567423 10.212726 36.221291 1.075009 1.284967 0.067931 -0.019978 -1065340.000000 0 0 1
-16.005135 -30.913323 11.495426 36.659825 1.093056 1.251846 0.080119 -0.025495 721240.000000 0 0 1
-14.579335 -31.550823 11.360026 36.565854 1.137934 1.254895 0.077621 -0.034050 472078.000000 0 0 1
-13.559435 -30.725823 10.881626 35.303602 1.155197 1.257465 0.064575 -0.028546 -94183.300000 0 0 1
-12.498635 -31.575723 10.393126 35.514212 1.193889 1.273803 0.058594 -0.020068 850781.000000 0 0 1
-11.378535 -30.742123 9.711326 34.188581 1.216303 1.282779 0.060209 -0.019096 327374.000000 0 0 1
-10.576535 -29.915223 10.508926 33.424859 1.230962 1.250967 0.044218 -0.019623 71253.000000 0 0 1
-9.552335 -29.227623 9.774326 32.265129 1.254914 1.263023 0.042806 -0.015137 341843.000000 0 0 1
-8.657035 -28.386723 10.707326 31.549915 1.274788 1.224541 0.040937 -0.010093 -89291.100000 0 0 1
-9.297335 -27.378023 11.436826 31.093369 1.243424 1.194131 0.038579 -0.021055 -554516.000000 0 0 1
-8.650535 -27.190123 12.643826 31.208988 1.262773 1.153671 0.039403 -0.020476 -179861.000000 0 0 1
-9.211835 -25.946823 13.339126 30.594572 1.229650 1.119651 0.042961 -0.026065 433201.000000 0 0 1
-8.784935 -24.658723 12.771726 29.126358 1.228555 1.116874 0.033357 -0.018607 334233.000000 0 0 1
-9.663335 -24.309423 11.723626 28.666558 1.192435 1.149476 0.029811 -0.013372 301506.000000 0 0 1
-9.185535 -22.945223 11.107126 27.096597 1.190010 1.148443 0.016069 -0.010926 -693648.000000 0 0 1
-8.077535 -23.037223 10.290626 26.492588 1.233561 1.171865 0.012598 -0.016106 -769807.000000 0 0 1
-7.637735 -21.746223 9.924626 25.094450 1.233034 1.164194 0.014448 -0.007540 -467971.000000 0 0 1
-6.338735 -21.797723 9.131426 24.468413 1.287803 1.188349 0.016958 -0.012644 68153.200000 0 1 0
-5.263135 -22.456623 9.799826 25.060669 1.340582 1.169031 0.033809 -0.009352 -475657.000000 0 0 1
-4.112935 -22.447123 9.034926 24.544235 1.389579 1.193823 0.031221 -0.004688 -515719.000000 0 1 0
-2.897735 -23.268623 9.476826 25.291025 1.446900 1.186711 0.035840 -0.010168 -59137.400000 0 0 1
-2.090235 -22.519623 10.353026 24.873433 1.478243 1.141503 0.030339 -0.011313 -81297.700000 0 1 0
-0.916035 -23.259423 10.707326 25.621997 1.531433 1.139668 0.034933 -0.017589 763804.000000 0 0 1
-0.067835 -22.557123 11.793626 25.454234 1.567789 1.089051 0.034320 -0.018208 224098.000000 0 0 1
-0.751135 -22.573823 13.083026 26.101864 1.537534 1.045777 0.040023 -0.013663 746018.000000 0 0 1
0.171865 -22.421123 14.192726 26.536198 -1.563131 1.006473 0.046648 -0.014746 349830.000000 0 0 1
0.953265 -21.104423 14.310826 25.516762 -1.525658 0.975396 0.046372 -0.011835 171045.000000 0 0 1
1.978765 -20.925123 13.335626 24.892071 -1.476513 1.005415 0.042965 -0.017625 -123694.000000 0 1 0
2.135065 -19.597523 13.017726 23.623772 -1.462279 0.987182 0.032595 -0.011617 424668.000000 0 1 0
3.615665 -19.242623 12.642726 23.306439 -1.385063 0.997438 0.035307 -0.015232 954207.000000 0 1 0
3.964665 -19.787923 11.329626 23.143917 -1.373057 1.059246 0.046301 -0.011516 -297935.000000 0 1 0
5.245565 -20.381623 11.369726 23.920644 -1.318896 1.075480 0.049736 0.001916 237976.000000 0 1 0
5.499265 -21.051823 9.988326 23.941342 -1.315281 1.140434 0.051409 -0.014524 -79342.900000 0 1 0
5.701165 -20.212223 8.840126 22.785633 -1.295874 1.172369 0.046351 -0.010898 -257676.000000 0 1 0
6.111865 -20.939023 7.694926 23.130272 -1.286798 1.231655 0.041195 -0.015704 835612.000000 0 1 0
7.624065 -21.415423 7.563526 23.957330 -1.228779 1.249593 0.042720 -0.007515 1037610.000000 0 1 0
8.531265 -20.380223 7.179126 23.230924 -1.174355 1.256620 0.051586 -0.015242 -51683.700000 0 1 0
8.844565 -19.366223 8.155326 22.798822 -1.142384 1.204984 0.056108 -0.007567 -414797.000000 0 1 0
9.750065 -19.763623 9.313026 23.924820 -1.112496 1.170966 0.049584 -0.005367 -18169.300000 0 1 0
9.021065 -20.384423 10.400926 24.598447 -1.154158 1.134232 0.064567 -0.002158 -15653.900000 0 1 0
9.551265 -20.009323 11.710026 25.074377 -1.125440 1.084888 0.059226 -0.002056 -46593.500000 0 0 1
8.746865 -20.347823 12.971526 25.667139 -1.164810 1.040980 0.073613 -0.004658 -230602.000000 0 0 1
8.622065 -21.724923 13.208026 26.847053 -1.192987 1.056442 0.060136 -0.013347 423072.000000 0 0 1
7.728765 -22.027323 14.331526 27.392142 -1.233345 1.020197 0.075360 -0.003567 674316.000000 0 0 1
7.896865 -23.396723 14.972226 28.877927 -1.245282 1.025740 0.079012 -0.025924 15708.200000 0 0 1
7.591665 -24.462123 14.146326 29.259996 -1.269877 1.066182 0.077114 -0.020863 -304361.000000 0 0 1
7.599965 -25.649223 14.853026 30.598276 -1.282734 1.063952 0.081953 -0.023806 150488.000000 0 0 1
7.804265 -26.818023 13.881326 31.189808 -1.287609 1.109555 0.082847 -0.031240 10746.200000 0 0 1
9.048165 -26.850423 13.220626 31.266587 -1.245764 1.134224 0.072215 -0.024699 -247999.000000 0 0 1
9.064265 -27.753223 12.145626 31.621488 -1.255116 1.176570 0.064781 -0.022218 -280688.000000 0 0 1
10.441665 -27.893523 11.452526 31.909832 -1.212604 1.203704 0.063594 -0.024039 45267.000000 0 0 1
11.330665 -28.575523 12.316826 33.115687 -1.193297 1.189705 0.052694 -0.018021 -661774.000000 0 0 1
12.437265 -29.042523 11.623726 33.663997 -1.166182 1.218252 0.074357 -0.014685 -324212.000000 0 0 1
13.453365 -29.778023 12.558126 35.006146 -1.146456 1.203878 0.051606 -0.012638 -246020.000000 0 0 1
13.968265 -29.000823 13.665826 34.970201 -1.121936 1.169312 0.049929 -0.007523 53749.300000 0 0 1
14.835265 -29.720923 14.488326 36.239895 -1.107827 1.159509 0.042580 -0.007348 1255380.000000 0 0 1
16.320665 -29.936623 13.955426 36.841816 -1.071666 1.182304 0.051724 -0.004371 485665.000000 0 0 1
17.125665 -28.792723 14.073426 36.336904 -1.034215 1.173091 0.052320 -0.013123 -1022240.000000 0 0 1
18.335065 -29.026723 13.463726 36.878140 -1.007421 1.197070 0.049478 -0.004137 -1163120.000000 0 0 1
19.243465 -27.768823 13.442926 36.361116 -0.964792 1.192104 0.030915 -0.000438 -8172.930000 0 0 1
20.425965 -28.049023 12.702426 36.950228 -0.941378 1.219866 0.032621 -0.002781 135041.000000 0 0 1
21.080065 -26.801023 12.362126 36.269631 -0.904317 1.222987 0.031659 -0.000676 415316.000000 0 0 1
22.474565 -27.152023 11.772726 37.160941 -0.879374 1.248439 0.036785 -0.001835 -90127.600000 0 0 1
23.412965 -27.612823 12.683326 38.360158 -0.867522 1.233817 0.042465 -0.005745 -445545.000000 0 0 1
24.445165 -28.348523 12.081826 39.334150 -0.859200 1.258590 0.029045 -0.013019 -149559.000000 0 0 1
25.574365 -28.767423 13.095626 40.658433 -0.844089 1.242861 0.038760 -0.011415 946084.000000 0 0 1
26.577865 -27.812523 13.474426 40.761250 -0.808094 1.233889 0.023442 -0.008119 366325.000000 0 0 1
27.586665 -27.588423 12.525726 40.976078 -0.785430 1.260140 0.012245 -0.006131 -601914.000000 0 0 1
28.859865 -27.041923 13.220426 41.700564 -0.752889 1.248198 0.040987 -0.021355 -233461.000000 0 0 1
28.889065 -25.716123 13.665026 41.019873 -0.727356 1.231173 0.040349 -0.017639 151501.000000 0 0 1
28.057265 -25.359423 14.778326 40.604302 -0.734935 1.198281 0.043373 -0.012547 116662.000000 0 0 1
28.831065 -25.329223 16.144626 41.634707 -0.720831 1.172587 0.028499 -0.008346 -40452.900000 0 0 1
29.233365 -26.633823 16.590326 42.885768 -0.738901 1.173584 0.029370 -0.004993 350901.000000 0 0 1
30.015865 -26.424223 17.780826 43.764706 -0.721848 1.152415 0.040640 0.008262 171331.000000 0 0 1
30.498165 -27.710023 18.535826 45.183629 -0.737535 1.148087 0.033845 0.020090 -583409.000000 0 0 1
29.478165 -28.543423 18.978426 45.209179 -0.769289 1.137581 0.024525 0.018036 -115925.000000 0 0 1
29.973565 -29.512723 19.964626 46.561805 -0.777651 1.127658 0.049095 0.014196 -55996.200000 0 0 1
28.805565 -30.300223 20.565826 46.592030 -0.810681 1.113636 0.055296 0.003106 -1368050.000000 0 0 1
27.935165 -29.384523 21.232326 45.767186 -0.810678 1.088381 0.055788 0.005010 896240.000000 0 0 1
26.721265 -29.974023 21.732126 45.659099 -0.842708 1.074736 0.064584 -0.002591 527262.000000 0 0 1
25.720965 -30.494023 20.722826 44.954299 -0.870102 1.091702 0.089797 -0.011535 -1466250.000000 0 0 1
26.179265 -31.626323 19.993326 45.665209 -0.879351 1.117619 0.081245 -0.007061 -173820.000000 0 0 1
25.383165 -31.927423 18.869026 44.941134 -0.899095 1.137504 0.096611 -0.006937 -246717.000000 0 0 1
25.718665 -31.008723 17.653626 43.984556 -0.878383 1.157795 0.081586 0.001109 1603440.000000 0 0 1
27.031965 -31.371323 17.101026 44.803260 -0.859562 1.179171 0.064232 -0.013245 1509950.000000 0 0 1
27.527565 -30.296723 16.303626 44.062075 -0.833251 1.191771 0.059947 -0.021977 362535.000000 0 0 1
28.693065 -30.731723 15.349026 44.758501 -0.819691 1.220762 0.057365 -0.027538 61567.900000 0 0 1
28.334165 -31.763023 14.444926 44.948531 -0.842392 1.243625 0.079824 -0.026504 278165.000000 0 0 1
28.425265 -33.123623 14.943326 46.135378 -0.861586 1.240946 0.060571 -0.031230 -264882.000000 0 0 1
27.541465 -34.105623 14.127826 46.057804 -0.891478 1.259029 0.089373 -0.039302 -339453.000000 0 0 1
27.981165 34.071194 12.794426 45.907397 0.883228 1.288355 0.092581 -0.037924 146743.000000 0 0 1
27.486465 32.882194 12.258026 44.575818 0.874541 1.292214 0.097174 -0.038342 -613598.000000 0 0 1
27.943865 32.602494 10.792226 44.274759 0.862190 1.324560 0.100670 -0.034183 -392621.000000 0 0 1
29.313365 32.309894 10.781426 44.938199 0.833986 1.328516 0.068087 -0.037603 -223729.000000 0 0 1
29.702165 31.401494 9.753226 44.310245 0.813202 1.348867 0.065853 -0.036496 -674480.000000 0 0 1
31.169065 31.073694 9.969026 45.127226 0.783866 1.348050 0.046704 -0.035412 -745779.000000 0 0 1
31.368665 30.291694 11.111026 45.000386 0.767934 1.321307 0.044464 -0.024518 -75330.100000 0 0 1
32.752665 30.074394 11.226326 45.861057 0.742795 1.323493 0.050732 -0.024503 -140509.000000 0 0 1
33.077465 29.103794 12.366626 45.761151 0.721580 1.297151 0.045068 -0.013931 -39878.800000 0 0 1
32.863165 27.751094 11.958326 44.644287 0.701260 1.299627 0.044860 -0.019777 217979.000000 0 0 1
33.243365 26.925494 13.025326 44.718705 0.680779 1.275240 0.047920 -0.021268 -76353.600000 0 0 1
33.073165 25.424894 12.691226 43.604204 0.655392 1.275467 0.052442 -0.017941 145354.000000 0 0 1
33.972665 24.961694 11.683226 43.746152 0.633675 1.300446 0.049256 -0.013952 29631.700000 0 0 1
33.772865 23.607894 11.384826 42.749892 0.610068 1.301231 0.059778 -0.015070 1228130.000000 0 0 1
32.424565 23.147794 10.597026 41.224625 0.619992 1.310822 0.062618 -0.006394 1728040.000000 0 0 1
31.348965 23.169594 11.525026 40.649894 0.636480 1.283334 0.057375 -0.010697 -601364.000000 0 0 1
30.287365 22.395994 11.066526 39.260323 0.636715 1.285048 0.052355 -0.005938 -178586.000000 0 0 1
29.173465 22.227394 12.146826 38.635391 0.651077 1.250976 0.041342 0.000042 432528.000000 0 0 1
28.390265 23.398794 12.435826 38.835041 0.689314 1.244833 0.049044 -0.000012 -301741.000000 0 0 1
27.458365 23.004794 13.379226 38.238541 0.697372 1.213344 0.067228 -0.002041 -663808.000000 0 0 1
24.029065 9.582394 26.181811 36.806324 0.379457 0.779393 0.022900 0.003768 -271549.000000 0 0 1
23.899665 8.255394 26.577231 36.683712 0.332588 0.760492 0.031058 -0.004748 -476245.000000 0 0 1
22.569265 7.869494 26.530271 35.709326 0.335500 0.733328 0.034213 -0.003944 -873578.000000 0 0 1
22.338565 6.462894 27.134041 35.735650 0.281626 0.708561 0.043425 -0.002254 -124240.000000 0 0 1
22.576165 6.261694 28.494571 36.889465 0.270558 0.688136 0.050969 -0.002087 2563730.000000 0 0 1
24.021265 6.151594 28.842731 38.036383 0.250702 0.710105 0.049498 -0.008228 2271610.000000 0 0 1
24.202265 6.180094 30.381241 39.331450 0.250009 0.688120 0.051504 -0.006740 -235340.000000 0 0 1
24.003365 7.378094 31.043441 39.928599 0.298211 0.680157 0.049388 -0.006162 128226.000000 0 0 1
24.087665 7.211694 32.434000 41.038866 0.290900 0.659459 0.047101 -0.001011 -80030.600000 0 0 1
24.073165 8.556194 33.199244 41.891712 0.341499 0.655897 0.065945 -0.002231 -64677.700000 0 0 1
25.200265 9.373594 32.922505 42.506575 0.356106 0.684829 0.054762 -0.001081 46321.700000 0 0 1
25.655565 9.934094 34.166360 43.866096 0.369432 0.677921 0.071180 0.000740 283925.000000 0 0 1
26.895365 10.879494 34.072169 44.750830 0.384390 0.705365 0.049743 -0.003711 79629.000000 0 0 1
26.688265 12.155894 33.481541 44.508907 0.427399 0.719336 0.031518 -0.006846 206100.000000 0 0 1
26.393265 13.171294 -33.963964 44.984867 0.462879 2.426464 0.040178 -0.015710 -430521.000000 0 0 1
25.858365 14.484694 33.839936 44.984471 0.510606 0.719314 0.037632 -0.014539 -496512.000000 0 0 1
26.872765 15.204394 33.205340 45.342184 0.514887 0.749062 0.021135 -0.016279 14619.500000 0 0 1
26.404365 16.523094 33.034721 45.403699 0.559154 0.756012 0.035125 -0.020439 -28783.400000 0 0 1
27.158965 17.470694 34.014217 46.902041 0.571633 0.759445 0.037492 -0.021839 2109.330000 0 0 1
26.728465 17.468294 -33.063404 45.964560 0.578864 2.373625 0.047918 -0.031378 -6334.120000 0 0 1
27.504665 16.628694 -32.242804 45.526019 0.543778 2.357781 0.049395 -0.029618 -536747.000000 0 0 1
26.805765 16.350494 -30.898374 44.052210 0.547712 2.348161 0.061685 -0.025802 382596.000000 0 0 1
25.577365 15.642994 -31.107004 43.203594 0.548902 2.374613 0.057276 -0.021568 928716.000000 0 0 1
24.841165 15.469494 -29.863754 41.811870 0.556970 2.366335 0.074031 -0.022640 355850.000000 0 0 1
24.001065 14.198094 -29.714974 40.750664 0.534191 2.387934 0.058715 -0.015278 -466455.000000 0 0 1
23.085165 14.076094 -30.769814 40.961478 0.547555 2.420658 0.062366 -0.021519 -148258.000000 0 0 1
22.662465 12.763894 -31.052964 40.506677 0.512934 2.444347 0.063817 0.004080 315298.000000 0 0 1
21.589265 12.136194 -30.094334 38.975024 0.512116 2.453005 0.065483 0.010908 65655.600000 0 0 1
20.308765 12.734794 -30.048284 38.438526 0.560079 2.468220 0.075387 0.009444 276997.000000 0 0 1
19.457565 11.869194 -29.313434 37.131550 0.547743 2.480706 0.080688 0.015484 762699.000000 0 0 1
18.073065 12.499794 -28.900284 36.305742 0.605083 2.491496 0.054818 0.014867 906744.000000 0 0 1
17.191065 12.692194 -30.018094 36.847123 0.635972 2.522949 0.046537 0.012040 1431290.000000 0 0 1
15.845065 12.884494 -29.510174 35.887694 0.682711 2.536224 0.039390 0.002231 613490.000000 0 0 1
14.759465 13.068694 -30.576634 36.380807 0.724715 2.568929 0.046422 -0.003704 -93545.000000 0 0 1
14.243465 11.831794 -31.050174 36.152191 0.693172 2.603863 0.044328 0.008147 -164112.000000 0 0 1
13.054265 11.331994 -30.493874 35.052878 0.714891 2.625875 0.037256 0.005207 -390546.000000 0 0 1
12.067965 10.880994 -31.570504 35.506739 0.733722 2.666261 0.036275 0.013671 -110586.000000 0 0 1
11.832665 11.889194 -32.492484 36.566739 0.787781 2.665037 0.033732 0.013259 603902.000000 0 0 1
10.661665 11.537694 -33.256964 36.780635 0.824840 2.700294 0.028750 0.021371 837374.000000 0 0 1
10.358865 12.502794 33.977676 37.657780 0.878903 0.445779 0.042416 0.017033 62692.500000 0 0 1
11.286865 12.426494 32.924773 36.957432 0.833420 0.471509 0.039296 0.018432 343505.000000 0 0 1
10.749365 13.183994 31.816131 36.078148 0.886775 0.490989 0.046825 0.006175 63075.600000 0 0 1
11.501365 12.942094 30.485691 35.059329 0.844271 0.516515 0.054927 0.005173 -286247.000000 0 0 1
11.579765 11.614694 30.060521 34.243642 0.786904 0.499458 0.046539 0.007854 64427.300000 0 0 1
11.806065 11.535894 28.687671 33.097470 0.773824 0.522121 0.056809 0.002832 -225255.000000 0 0 1
12.399265 10.193494 28.203891 32.451634 0.688075 0.517405 0.059409 0.008281 -297414.000000 0 0 1
11.614065 9.036494 28.430891 32.013439 0.661222 0.477618 0.049177 -0.004563 118246.000000 0 0 1
12.210665 7.715994 28.098451 31.593668 0.563550 0.474832 0.044255 0.001125 -126619.000000 0 0 1
11.308165 6.501194 28.399831 31.252048 0.521768 0.430553 0.036209 -0.003605 -752183.000000 0 0 1
10.154065 6.502194 27.643061 30.158289 0.569564 0.411307 0.037758 -0.010770 -914583.000000 0 0 1
9.345665 5.329494 27.745181 29.758025 0.518268 0.369911 0.034519 -0.011793 -257319.000000 0 0 1
9.921065 4.106394 26.968801 29.027681 0.392437 0.378901 0.036985 -0.006247 -257271.000000 0 0 1
10.854865 3.440694 27.774661 30.018299 0.306954 0.389082 0.034985 -0.009837 -85902.100000 0 0 1
10.903865 2.029594 27.563281 29.711075 0.184029 0.382564 0.030948 -0.007767 -250132.000000 0 0 1
11.558065 1.286694 28.756191 31.018752 0.110868 0.384307 0.016565 -0.005092 817021.000000 0 0 1
10.662565 1.165094 29.905781 31.771111 0.108838 0.344369 0.020176 -0.011047 582318.000000 0 0 1
10.817265 -0.096906 30.439971 32.305022 -0.008958 0.341458 0.027144 -0.012707 236191.000000 0 0 1
9.781265 -0.423906 31.548191 33.032427 -0.043312 0.300909 0.046481 -0.007992 67912.500000 0 0 1
10.003465 0.373894 32.650260 34.150382 0.037359 0.297497 0.036346 -0.015520 142655.000000 0 0 1
8.812765 0.718494 33.330107 34.482997 0.081349 0.259313 0.051815 -0.022011 -7247.130000 0 0 1
9.124765 2.022894 34.146116 35.402128 0.218164 0.267171 0.052396 -0.021808 61861.000000 0 0 1
9.128165 3.302394 33.444704 34.824954 0.347131 0.282484 0.033116 -0.016645 -305320.000000 0 0 1
10.250565 3.525994 32.652967 34.405276 0.331302 0.320530 0.023443 -0.011887 -695594.000000 0 0 1
10.165765 4.860294 31.821051 33.757141 0.445978 0.340324 0.017775 -0.012207 39168.100000 0 0 1
10.130365 6.003294 32.667866 34.725399 0.534963 0.345965 0.019247 -0.008421 122504.000000 0 0 1
10.288665 7.215594 31.942571 34.325636 0.611608 0.374817 0.018625 -0.001666 -196073.000000 0 0 1
10.213265 8.411694 32.892275 35.453761 0.688969 0.382455 0.028677 0.000845 166927.000000 0 0 1
8.922865 8.771694 33.345319 35.615592 0.776855 0.358978 0.028663 -0.000932 -26449.700000 0 0 1
8.460065 8.051794 -33.930364 35.884170 0.760677 2.810084 0.035056 -0.003584 735869.000000 0 0 1
7.084465 8.606494 -33.374964 35.187350 0.882096 2.819242 0.030141 0.003095 990470.000000 0 0 1
6.579765 7.721394 -32.392354 33.943745 0.865057 2.838089 0.028849 0.002718 -34591.200000 0 0 1
5.209365 7.970394 -32.143764 33.524412 0.991902 2.853602 0.038318 -0.000067 209883.000000 0 0 1
4.690465 7.118694 -30.990154 32.141342 0.988194 2.873144 0.039980 -0.000445 -448450.000000 0 0 1
5.271465 7.565794 -29.772734 31.168017 0.962255 2.841244 0.047679 -0.002009 99718.000000 0 0 1
4.807565 6.996994 -28.536154 29.772180 0.968787 2.852433 0.038183 -0.004156 -434191.000000 0 0 1
3.420865 7.454594 -28.086104 29.259230 1.140571 2.857462 0.035697 -0.007654 -490092.000000 0 0 1
2.410165 6.947094 -28.911884 29.832332 1.236858 2.892538 0.027085 -0.003125 -1212590.000000 0 0 1
1.185765 7.547094 -28.688894 29.688673 1.414955 2.881338 0.038290 0.004644 -704933.000000 0 0 1
0.033465 6.932594 -29.485424 30.289473 1.565969 2.910665 0.035822 -0.002289 -250762.000000 0 0 1
0.086465 7.394994 -30.800564 31.675987 1.559105 2.905944 0.047219 -0.004507 104829.000000 0 0 1
-0.050935 6.376294 -31.777744 32.411182 -1.562808 2.943563 0.056712 -0.012791 -388106.000000 0 0 1
0.058665 6.961094 -33.189534 33.911730 1.562369 2.934845 0.070681 -0.014596 -81913.900000 0 0 1
1.366965 7.379294 -33.528464 34.358121 1.387629 2.921388 0.054004 -0.007998 -84811.800000 0 0 1
2.162865 6.370694 -34.106543 34.763774 1.243504 2.946834 0.058192 -0.013904 -395732.000000 0 0 1
1.801665 5.935494 32.867714 33.447911 1.276094 0.186530 0.062310 -0.020608 445332.000000 0 0 1
0.619265 5.132894 32.648481 33.055309 1.450730 0.157053 0.071745 -0.024021 322816.000000 0 0 1
0.285265 5.010194 31.252451 31.652790 1.513921 0.159214 0.087053 -0.021898 -19347.600000 0 0 1
1.143165 4.113194 30.299601 30.598873 1.299712 0.139975 0.078865 -0.020911 49552.700000 0 0 1
0.748765 4.263494 28.966631 29.288287 1.396947 0.148341 0.072161 -0.018071 110602.000000 0 0 1
1.510665 3.404894 28.126721 28.372308 1.153215 0.131669 0.057243 -0.014168 197037.000000 0 0 1
1.511965 3.875294 26.663961 26.986492 1.198806 0.154761 0.052396 -0.011462 219968.000000 0 0 1
2.219765 5.103194 26.555971 27.132813 1.160507 0.206571 0.058028 -0.009560 95737.800000 0 0 1
2.042565 5.719194 25.251081 25.971106 1.227773 0.236022 0.048050 -0.004488 -725552.000000 0 0 1
2.722665 7.123394 25.127711 26.259427 1.205716 0.294655 0.051999 0.000742 1144440.000000 0 0 1
4.152165 7.200694 24.954301 26.302236 1.047735 0.321533 0.043812 -0.000315 785610.000000 0 0 1
4.574965 6.619494 23.757351 25.083057 0.966045 0.326573 0.038735 -0.001754 -835357.000000 0 0 1
6.100665 6.529094 23.548651 25.187024 0.819307 0.362673 0.041308 -0.008924 592879.000000 0 0 1
6.949765 5.616494 24.293311 25.884536 0.679694 0.352461 0.046792 -0.006319 622358.000000 0 0 1
6.693865 4.187494 24.187991 25.444093 0.559010 0.315527 0.051249 -0.014383 -582979.000000 0 0 1
6.776965 3.480794 22.757061 23.998479 0.474485 0.323052 0.044514 -0.013587 766388.000000 0 1 0
5.781965 3.875994 21.769261 22.855091 0.590555 0.309485 0.027466 -0.017592 1013760.000000 0 1 0
4.483465 3.279494 21.956661 22.648433 0.631532 0.247793 0.030068 -0.020616 350415.000000 0 1 0
3.470165 3.853094 20.977161 21.608556 0.837640 0.242335 0.013479 -0.020200 -350787.000000 0 1 0
3.123465 5.184894 21.271061 22.115542 1.028602 0.277238 0.014157 -0.011794 -20967.000000 0 1 0
2.077865 5.549194 20.387861 21.231485 1.212513 0.282845 0.020023 -0.016177 -213708.000000 0 1 0
1.665465 7.004594 20.480861 21.709532 1.337363 0.338047 0.026854 -0.008197 277969.000000 0 1 0
2.478665 7.911894 19.714961 21.387415 1.267198 0.398093 0.029823 -0.015096 53277.300000 0 1 0
2.001565 9.191494 19.947561 22.054365 1.356381 0.440656 0.047170 -0.020354 -476791.000000 0 1 0
2.892065 10.290894 19.500161 22.237869 1.296831 0.501443 0.056271 -0.028093 -1366160.000000 0 1 0
3.000165 10.545294 18.087161 21.150641 1.293617 0.544939 0.037707 -0.023243 61625.900000 0 1 0
4.072765 11.414294 17.801561 21.535299 1.228065 0.597717 0.035711 -0.025314 646832.000000 0 1 0
5.534865 10.916594 18.012061 21.777077 1.101553 0.596848 0.042268 -0.025516 -214886.000000 0 1 0
5.781965 9.855194 17.138261 20.597960 1.040219 0.588027 0.027589 -0.020307 -110137.000000 0 1 0
7.103065 9.397794 17.348461 20.970006 0.923579 0.596514 0.026021 -0.014950 -53511.200000 0 1 0
7.279265 7.991794 17.811961 20.835605 0.832023 0.545475 0.034042 -0.012352 -345584.000000 0 1 0
6.911565 7.953994 19.176061 21.880518 0.855407 0.502463 0.034328 -0.012564 -69785.400000 0 1 0
6.988665 6.640594 19.785461 22.009166 0.759865 0.453396 0.039472 -0.014372 -578667.000000 0 1 0
8.350665 6.045394 20.058561 22.552744 0.626614 0.474751 0.055662 -0.012135 -496397.000000 0 1 0
9.270365 5.969994 18.948761 21.923413 0.572136 0.527007 0.056922 -0.010466 334872.000000 0 1 0
10.457265 5.256294 19.269661 22.545573 0.465762 0.545827 0.065685 -0.011538 137105.000000 0 1 0
10.436465 3.717294 19.373961 22.317895 0.342173 0.519453 0.070469 -0.012084 -482297.000000 0 1 0
9.648465 3.163494 20.400261 22.787523 0.316830 0.461831 0.073005 -0.018784 86705.100000 0 1 0
9.861365 1.758094 20.394661 22.721787 0.176427 0.456543 0.068704 -0.022500 102063.000000 0 1 0
8.928865 0.940994 21.297161 23.112317 0.105000 0.398965 0.066469 -0.030293 -212061.000000 0 1 0
9.317565 1.121694 22.601761 24.472736 0.119808 0.393563 0.070750 -0.028265 185752.000000 0 1 0
8.683465 0.133494 23.411011 24.969899 0.015372 0.355222 0.062757 -0.034024 -371720.000000 0 1 0
9.145465 0.202194 24.853511 26.483531 0.022105 0.352677 0.057497 -0.025680 -734141.000000 0 0 1
10.442465 -0.257606 25.070201 27.159279 -0.024664 0.394782 0.049033 -0.026384 -492170.000000 0 0 1
10.606065 -1.709206 25.049111 27.255604 -0.159780 0.405147 0.050548 -0.027099 -1275750.000000 0 0 1
12.012765 -2.221106 25.219791 28.022807 -0.182831 0.451087 0.046134 -0.025415 -850550.000000 0 0 1
12.129665 -3.602206 24.896811 27.927690 -0.288679 0.470208 0.050461 -0.012703 525116.000000 0 0 1
13.447565 -4.104206 25.150751 28.813917 -0.296221 0.509747 0.049201 -0.008124 447683.000000 0 0 1
13.516665 -5.644306 25.291831 29.227301 -0.395570 0.524949 0.057528 -0.009582 -164775.000000 0 0 1
13.170365 -6.305506 24.099211 28.177826 -0.446516 0.544755 0.054256 -0.012479 269419.000000 0 0 1
13.083465 -7.684406 24.319131 28.664391 -0.531057 0.557824 0.068464 -0.012593 -23358.400000 0 0 1
12.698465 -8.422606 23.032361 27.616679 -0.585653 0.584475 0.068089 -0.017045 157311.000000 0 0 1
12.178165 -9.710906 23.304361 28.030388 -0.673155 0.589181 0.067718 -0.009324 -403964.000000 0 0 1
12.266765 -10.571206 22.236361 27.507811 -0.711291 0.629426 0.071157 -0.014155 195028.000000 0 0 1
11.548465 -11.893806 22.625961 28.049310 -0.800129 0.632335 0.070165 -0.009282 1140580.000000 0 0 1
10.113265 -11.863706 22.480861 27.357171 -0.864879 0.606314 0.065293 -0.010034 727826.000000 0 0 1
9.577865 -13.168206 22.546661 27.811672 -0.941951 0.625466 0.066006 -0.009096 22000.200000 0 0 1
8.040565 -13.182306 22.657861 27.419018 -1.023092 0.598191 0.047193 -0.006722 188187.000000 0 0 1
7.325065 -12.592206 21.572761 26.030833 -1.043931 0.593946 0.048483 -0.013720 192703.000000 0 0 1
5.969865 -12.346806 21.921761 25.858201 -1.120424 0.559033 0.027832 -0.013757 378586.000000 0 0 1
5.344365 -11.154306 21.196661 24.541378 -1.123984 0.528209 0.020733 -0.011591 159180.000000 0 1 0
5.813665 -9.887306 21.734561 24.575367 -1.039252 0.485580 0.014785 -0.002717 277888.000000 0 1 0
5.138765 -8.794306 21.089261 23.420155 -1.041980 0.449936 0.010846 -0.006967 401855.000000 0 1 0
5.634865 -7.414006 21.675661 23.591386 -0.920907 0.405778 0.018961 -0.012507 441995.000000 0 1 0
4.742265 -6.389106 21.215461 22.658454 -0.932279 0.358810 0.014097 -0.017952 263277.000000 0 1 0
5.228565 -5.079506 21.480961 22.684157 -0.770939 0.327160 0.035921 -0.035964 -46059.500000 0 1 0
-8.171435 -15.046406 -21.020574 27.111459 1.073280 2.458048 0.006644 0.003536 103797.000000 0 0 1
-7.532135 -14.694906 -19.804274 25.785318 1.097145 2.446578 -0.006942 0.002850 -61693.700000 0 0 1
-7.139735 -13.317006 -19.849574 24.946424 1.078659 2.490939 0.010619 -0.018472 85700.700000 0 1 0
-6.379535 -13.006806 -18.524374 23.516546 1.114796 2.477890 -0.001667 -0.012507 999064.000000 0 1 0
-5.196135 -13.828106 -18.301074 23.519049 1.211354 2.462493 0.004996 -0.000039 782486.000000 0 1 0
-4.671935 -13.478506 -17.056074 22.235260 1.237135 2.445063 0.027729 -0.005918 -412618.000000 0 1 0
-3.694135 -14.530006 -16.558274 22.337058 1.321829 2.405789 0.030778 0.005379 -199747.000000 0 1 0
-2.531935 -14.573006 -17.370374 22.814756 1.398772 2.436213 0.025549 0.000000 -228580.000000 0 1 0
-1.534435 -15.255406 -16.648974 22.633388 1.470550 2.397339 0.040181 -0.000374 -17193.100000 0 1 0
-0.221635 -15.666306 -17.336874 23.367702 1.556650 2.406720 0.046866 0.004300 77248.600000 0 1 0
-0.245735 -16.691306 -18.313574 24.779973 1.556075 2.402451 0.079335 -0.009955 -463178.000000 0 1 0
-0.589135 -18.001806 -17.873074 25.374375 1.538082 2.352339 0.076391 -0.004575 -120111.000000 0 0 1
-0.957735 -18.693006 -19.217774 26.826639 1.519606 2.369381 0.078528 -0.011467 820294.000000 0 0 1
-2.230635 -18.313406 -19.778274 27.046935 1.449590 2.390960 0.070397 -0.013640 474026.000000 0 0 1
-2.268635 -18.569906 -21.198174 28.272791 1.449231 2.418515 0.064895 -0.019556 1262100.000000 0 0 1
-3.605435 -18.078406 -21.945074 28.660325 1.373946 2.442918 0.052082 -0.011020 1396770.000000 0 0 1
-3.853535 -16.666206 -22.159674 27.993987 1.343571 2.484198 0.045790 -0.007765 -274921.000000 0 0 1
-4.048235 -15.840106 -21.010274 26.621961 1.320583 2.480315 0.009251 -0.001589 -48449.700000 0 0 1
-2.899635 -14.858406 -20.696874 25.642557 1.378067 2.510071 0.024480 -0.002433 87158.500000 0 0 1
-3.076335 -13.661106 -21.407674 25.580816 1.349302 2.562326 0.014376 -0.017682 94808.600000 0 0 1
-2.078535 -12.708806 -21.052374 24.678665 1.408681 2.592617 0.023828 -0.011377 200409.000000 0 1 0
-1.682235 -11.837806 -22.265774 25.273074 1.429634 2.648784 0.025246 -0.012018 -417686.000000 0 0 1
-2.576335 -10.839706 -22.594374 25.192111 1.337450 2.683467 0.012083 -0.012664 -439502.000000 0 0 1
-2.433635 -10.352206 -23.892074 26.151902 1.339905 2.722819 0.018129 -0.012701 -196446.000000 0 0 1
-3.442835 -9.226806 -24.110374 26.044140 1.213663 2.753812 0.014298 -0.005518 -232010.000000 0 0 1
-4.812935 -9.549706 -24.137974 26.400815 1.103964 2.724545 0.036853 -0.016998 34611.500000 0 0 1
-5.535035 -8.343906 -24.191674 26.181949 0.985085 2.749164 0.021325 -0.012009 -503444.000000 0 0 1
-7.027435 -8.463506 -23.790074 26.210368 0.877838 2.708468 0.010344 -0.021857 259357.000000 0 0 1
-7.893335 -8.876506 -24.823174 27.518849 0.843958 2.695275 0.032125 -0.022355 22742.800000 0 0 1
-8.369335 -7.848306 -25.637834 28.088080 0.753282 2.720800 0.036954 -0.025437 -428342.000000 0 0 1
-9.267135 -8.340706 -26.796844 29.555338 0.732832 2.706111 0.031203 -0.025979 433397.000000 0 0 1
-9.967935 -7.222906 -27.395564 30.034098 0.627055 2.719293 0.040911 -0.031594 48482.300000 0 0 1
-10.604735 -7.602906 -28.552854 31.393153 0.622002 2.712936 0.044461 -0.030532 -210073.000000 0 0 1
-11.489435 -6.559506 -29.312874 32.160206 0.518760 2.717626 0.049149 -0.039044 360722.000000 0 0 1
-10.775735 -5.538606 -30.006084 32.359816 0.474776 2.757833 0.023582 -0.029705 -31357.100000 0 0 1
-11.579435 -5.022306 -31.029874 33.498656 0.409239 2.755273 0.065227 -0.035101 -252585.000000 0 0 1
-10.897235 -3.982706 -31.924864 33.967759 0.350397 2.793010 0.050062 -0.029390 -893745.000000 0 0 1
-9.819135 -4.479906 -32.618994 34.358169 0.428033 2.822056 0.036664 -0.025048 -746083.000000 0 0 1
-9.340835 -3.439606 -33.454944 34.904375 0.352825 2.852399 0.042807 -0.025756 692349.000000 0 0 1
-8.077635 -3.898006 34.142474 35.300867 0.449605 0.256889 0.036531 -0.020840 780597.000000 0 0 1
-6.799235 -3.821706 -33.690964 34.582020 0.512069 2.914094 0.028444 -0.019230 -26367.000000 0 0 1
-5.865635 -4.407406 33.810706 34.597612 0.644393 0.213688 0.024055 -0.016813 -137730.000000 0 0 1
-4.417135 -4.060006 34.135493 34.658717 0.743295 0.173980 0.035454 -0.022951 -415729.000000 0 0 1
-4.186535 -2.689306 33.873146 34.236669 0.570993 0.145855 0.057256 -0.032972 -1368690.000000 0 0 1
-2.875535 -2.376406 34.129062 34.332330 0.690646 0.108871 0.048682 -0.032371 -1046520.000000 0 0 1
-2.657035 -0.853906 -33.956434 34.070932 0.310950 3.059587 0.067218 -0.040053 47769.500000 0 0 1
-3.030735 -0.597606 -32.624674 32.770594 0.194684 3.047188 0.050841 -0.034675 100393.000000 0 0 1
-3.330135 0.719694 -32.301104 32.480287 -0.212842 3.036504 0.074716 -0.034781 -689696.000000 0 0 1
-3.778535 0.871894 -30.842184 31.085010 -0.226780 3.016518 0.099998 -0.036433 789060.000000 0 0 1
-4.911235 0.088394 -30.420734 30.814755 -0.017996 2.981505 0.073479 -0.034625 1400820.000000 0 0 1
-6.203235 0.569194 -30.860594 31.483017 -0.091501 2.942416 0.073728 -0.035480 673153.000000 0 0 1
-7.272235 -0.546106 -30.868914 31.718661 0.074954 2.909599 0.057726 -0.041723 -16108.200000 0 0 1
-7.734835 -0.897206 -29.554424 30.562994 0.115479 2.883977 0.043056 -0.025572 21719.600000 0 0 1
-8.752635 -1.865406 -29.704714 31.023514 0.209983 2.848969 0.043542 -0.022156 -32269.400000 0 0 1
-9.043735 -2.597206 -28.401684 29.919731 0.279657 2.821679 0.040004 -0.024102 -325260.000000 0 0 1
-9.636535 -1.855106 -27.411864 29.115537 0.190181 2.797808 0.039585 -0.024038 -159783.000000 0 0 1
-9.872035 -2.634106 -26.268564 28.185689 0.260750 2.770640 0.028897 -0.016852 282059.000000 0 0 1
-10.920135 -1.977506 -25.326154 27.650931 0.179147 2.728601 0.028906 -0.011670 548181.000000 0 0 1
-10.355335 -0.857306 -24.625774 26.728200 0.082600 2.742311 0.024161 -0.011810 481925.000000 0 0 1
-11.352935 -0.222706 -23.831474 26.398445 0.019614 2.696941 0.032499 -0.017228 401540.000000 0 0 1
-10.774835 1.009094 -23.136474 25.542353 -0.093380 2.704080 0.026874 -0.022273 192887.000000 0 0 1
-10.582835 2.093294 -23.997274 26.310596 -0.195280 2.719116 0.026001 -0.023694 -331954.000000 0 0 1
-9.937535 3.154294 -23.402574 25.620005 -0.307354 2.722477 0.033918 -0.023902 -805151.000000 0 0 1
-9.995435 4.503994 -24.182174 26.551313 -0.423357 2.715945 0.045985 -0.031304 -146759.000000 0 0 1
-11.241035 5.122094 -24.418074 27.364924 -0.427551 2.673239 0.032098 -0.031036 -236158.000000 0 0 1
-11.989035 4.472094 -25.448414 28.484353 -0.357030 2.675692 0.023532 -0.036855 232846.000000 0 0 1
-13.350535 5.192294 -25.670294 29.396610 -0.370919 2.632608 0.011166 -0.019138 632511.000000 0 0 1
-13.132335 6.399094 -26.369134 30.145279 -0.453418 2.635685 0.017122 -0.016949 -1387890.000000 0 0 1
-14.387335 6.857994 -26.588284 30.999425 -0.444809 2.601581 0.018572 -0.023716 -1409530.000000 0 0 1
-14.625635 8.399894 -26.952064 31.794358 -0.521328 2.582430 0.037819 -0.015336 -453226.000000 0 0 1
-14.562835 9.149394 -25.764034 30.976976 -0.560947 2.552987 0.058551 -0.014636 39498.200000 0 0 1
-14.941635 10.467694 -25.990884 31.754545 -0.611110 2.529580 0.051665 -0.011952 -302948.000000 0 0 1
-14.541335 11.453294 -24.842274 30.980106 -0.667157 2.501229 0.047872 -0.003172 31629.600000 0 0 1
-15.252335 11.165394 -23.643874 30.270985 -0.631910 2.467180 0.060003 -0.000931 238821.000000 0 0 1
-14.829835 11.995994 -22.528674 29.518961 -0.680150 2.439037 0.044504 0.001384 107464.000000 0 0 1
-15.519635 11.799794 -21.133574 28.752777 -0.650069 2.396478 0.049077 -0.002326 1488060.000000 0 0 1
-16.919535 12.195194 -21.137374 29.694814 -0.624534 2.362883 0.043953 -0.005111 1350680.000000 0 0 1
-17.340635 12.712994 -19.885374 29.287300 -0.632619 2.317163 0.038256 0.002334 -169686.000000 0 0 1
-18.798735 13.191294 -19.884374 30.377475 -0.611874 2.284418 0.055123 -0.005808 -228100.000000 0 0 1
-19.051435 14.472694 -20.421474 31.455566 -0.649658 2.277350 0.063231 -0.011997 801801.000000 0 0 1
-20.468835 14.616294 -20.564774 32.488755 -0.620110 2.256194 0.044472 -0.016044 654304.000000 0 0 1
-20.856335 15.972094 -21.227374 33.774190 -0.653546 2.250431 0.032034 -0.018124 -126413.000000 0 0 1
-20.828235 15.908694 -22.638874 34.632651 -0.652277 2.283241 0.035879 -0.017193 420133.000000 0 0 1
-21.278735 17.173794 -23.153074 35.829996 -0.679047 2.273381 0.012610 -0.003015 34786.200000 0 0 1
-21.304835 17.205094 -24.721974 36.892916 -0.679338 2.305141 0.018090 -0.011909 781126.000000 0 0 1
-19.998835 17.415594 -25.283564 36.640346 -0.716464 2.332350 0.019007 -0.011997 869016.000000 0 0 1
-19.944935 16.747194 -26.507084 37.160388 -0.698467 2.365014 0.012586 -0.016061 -477828.000000 0 0 1
-18.837035 17.211794 -27.466904 37.490139 -0.740344 2.392994 -0.009783 -0.007045 -265877.000000 0 0 1
-18.892435 18.501894 -28.073574 38.566433 -0.774955 2.386091 -0.025865 -0.020187 196127.000000 0 0 1
-18.309135 19.460894 -27.228324 38.148820 -0.815883 2.365619 -0.038471 -0.024833 -1895130.000000 0 0 1
-18.894335 20.957594 -27.423824 39.348224 -0.837125 2.341935 0.013239 -0.022532 477281.000000 0 0 1
-20.042035 21.338894 -26.685094 39.612193 -0.816727 2.309944 0.042370 -0.017838 388628.000000 0 0 1
-21.180735 20.520894 -26.863594 39.892146 -0.769577 2.309602 0.075078 -0.035513 -811404.000000 0 0 1
-22.409135 20.906394 -26.009984 40.196591 -0.750719 2.274531 0.069542 -0.018730 161052.000000 0 0 1
-22.239835 20.688994 -24.629774 39.105888 -0.749288 2.252121 0.039696 -0.013396 436919.000000 0 0 1
-23.354935 21.299494 -23.965374 39.666870 -0.739401 2.219515 0.025357 -0.019519 211913.000000 0 0 1
-23.483535 20.987894 -22.416374 38.658271 -0.729339 2.189353 0.017046 -0.000873 -222897.000000 0 0 1
-22.529135 21.558494 -21.545874 37.901916 -0.763386 2.175434 0.018410 0.000941 -441033.000000 0 0 1
-21.376335 20.814894 -21.329174 36.676166 -0.772092 2.191434 0.019856 0.001232 -627189.000000 0 0 1
-21.478535 19.968794 -20.086674 35.546514 -0.748989 2.171328 0.043225 -0.012838 -1040470.000000 0 0 1
-22.459735 18.998494 -20.211574 35.691598 -0.702104 2.172786 0.061348 -0.020834 -126512.000000 0 0 1
-22.911835 18.426994 -18.963274 34.987313 -0.677331 2.143617 0.040800 -0.012792 28271.200000 0 0 1
-23.980435 19.251694 -18.206574 35.737492 -0.676451 2.105345 0.012043 -0.003945 -880092.000000 0 0 1
-25.109685 19.458694 -19.005574 37.018224 -0.659277 2.109952 0.005717 0.000915 -433128.000000 0 0 1
-25.968825 20.365394 -18.375274 37.772739 -0.665048 2.078840 0.000080 0.001703 -798929.000000 0 0 1
-27.460555 20.354894 -18.796274 39.009021 -0.637872 2.073555 -0.013867 0.018706 652746.000000 0 0 1
-28.240715 19.197994 -18.400474 38.790184 -0.597039 2.065032 -0.005188 0.010421 552621.000000 0 0 1
-28.229375 18.899594 -16.999674 37.987908 -0.589962 2.034767 -0.004302 0.001986 -1271570.000000 0 0 1
-29.058455 17.672394 -16.534374 37.816568 -0.546403 2.023308 -0.000881 -0.004949 -375538.000000 0 0 1
-28.652605 16.411694 -16.986874 37.133130 -0.520166 2.045932 0.023228 -0.012391 61678.000000 0 0 1
-29.489075 15.407594 -16.464374 37.122434 -0.481473 2.030314 0.030721 -0.007382 107841.000000 0 0 1
-28.818545 14.597194 -15.309674 35.748745 -0.468851 2.013360 0.061573 -0.016910 -53315.900000 0 0 1
-28.626425 15.395294 -14.121274 35.438647 -0.493428 1.980646 0.076299 -0.017711 448272.000000 0 0 1
-29.760195 15.588594 -13.276174 36.123819 -0.482511 1.947136 0.045400 -0.010175 452244.000000 0 0 1
-29.308155 16.167494 -11.921174 35.531257 -0.504100 1.912945 0.059820 -0.010773 141246.000000 0 0 1
-28.598945 17.388394 -11.928174 35.532200 -0.546287 1.913145 0.052663 -0.006162 43005.200000 0 0 1
-29.376125 18.555594 -12.109274 36.795398 -0.563371 1.906144 0.017787 0.003115 -256997.000000 0 0 1
-28.489075 19.737394 -12.522074 36.850976 -0.605881 1.917504 0.044254 -0.008220 113097.000000 0 0 1
-27.735825 20.150894 -11.371374 36.119838 -0.628310 1.891067 0.030269 -0.013539 389047.000000 0 0 1
-26.832255 21.209994 -11.733774 36.159580 -0.668901 1.901279 0.021514 -0.010638 672958.000000 0 0 1
-26.026605 21.690694 -10.496274 35.468890 -0.694780 1.871224 0.026160 0.000579 16038.700000 0 0 1
-26.735985 22.710094 -9.873274 36.442322 -0.704158 1.845154 0.043790 -0.006777 -119652.000000 0 0 1
-26.287825 24.000394 -10.147374 37.014022 -0.739943 1.848501 0.035315 -0.007316 82499.700000 0 0 1
-26.755265 24.934494 -8.985374 37.660459 -0.750188 1.811709 0.061489 0.004638 600781.000000 0 0 1
-26.152035 24.663294 -7.708374 36.764467 -0.756109 1.782033 0.040751 0.001842 527783.000000 0 0 1
-27.144975 25.013894 -6.741874 37.523292 -0.744563 1.751449 0.069896 -0.008923 434685.000000 0 0 1
-27.001375 24.346194 -5.354974 36.748975 -0.733734 1.717035 0.076961 -0.009841 -176453.000000 0 0 1
-27.030465 22.935794 -5.535474 35.879495 -0.703632 1.725695 0.078944 -0.007782 30700.900000 0 0 1
-26.973795 22.312294 -4.267174 35.265179 -0.691098 1.692096 0.079227 -0.011132 -107551.000000 0 0 1
-27.340645 20.801694 -4.411574 34.636445 -0.650399 1.698511 0.073968 -0.007829 319372.000000 0 0 1
-26.455035 19.953394 -5.156474 33.534997 -0.646208 1.725173 0.055182 -0.015373 267359.000000 0 0 1
-26.286995 20.272494 -6.532274 33.832687 -0.656931 1.765092 0.048066 -0.010685 -354382.000000 0 0 1
-27.284985 19.530094 -7.451474 34.371783 -0.621239 1.789322 0.053189 -0.010324 8129.470000 0 0 1
-27.067515 18.107994 -7.441774 33.405536 -0.589612 1.795452 0.047740 -0.008512 616881.000000 0 0 1
-27.805955 17.463894 -8.502274 33.918246 -0.560799 1.824168 0.037373 -0.006027 45931.400000 0 0 1
-27.374975 16.019994 -8.772274 32.908696 -0.529470 1.840623 0.064691 -0.009969 -389118.000000 0 0 1
-28.169655 15.093294 -8.103874 32.969831 -0.491876 1.819138 0.047855 -0.008537 5197.550000 0 0 1
-27.783875 13.772394 -8.412274 32.130809 -0.460200 1.835697 0.065550 -0.017005 -237959.000000 0 0 1
-28.493835 12.727294 -7.582374 32.115028 -0.420080 1.809147 0.054498 -0.020635 -1028300.000000 0 0 1
-29.847125 12.586994 -7.871674 33.335365 -0.399085 1.809184 0.061234 -0.019942 -645256.000000 0 0 1
-30.488365 11.604294 -7.057974 33.376864 -0.363683 1.783868 0.070503 -0.026680 -274431.000000 0 0 1
-30.830895 10.293494 -7.795374 33.425559 -0.322233 1.806180 0.059073 -0.024211 -533527.000000 0 0 1
-29.799705 9.425494 -8.176074 32.306510 -0.306338 1.826657 0.062105 -0.016876 55090.700000 0 0 1
-30.333715 8.167694 -8.625374 32.576718 -0.263023 1.838763 0.053416 -0.017530 -36869.900000 0 0 1
-29.169885 7.236694 -9.035974 31.383129 -0.243178 1.862855 0.095926 -0.020012 -29233.200000 0 0 1
-28.648945 7.615794 -10.286774 31.378019 -0.259823 1.904806 0.099797 -0.025657 -81223.700000 0 0 1
-27.609125 6.725194 -10.604474 30.330626 -0.238933 1.927972 0.106972 -0.029386 -351537.000000 0 0 1
-26.988485 7.073394 -12.001674 30.371885 -0.256324 1.977035 0.089814 -0.021552 -33044.600000 0 0 1
-26.271995 8.284594 -12.047074 30.066330 -0.305469 1.983059 0.115786 -0.027207 318980.000000 0 0 1
-25.637945 8.507094 -13.281874 30.101214 -0.320385 2.027777 0.103415 -0.012291 -105288.000000 0 0 1
-31.240385 25.593094 33.429560 52.426173 -0.686358 0.879352 0.014829 0.018821 12301.400000 0 0 1
-31.111915 26.992894 33.225299 52.919638 -0.714627 0.892016 0.002300 0.004981 125519.000000 0 0 1
-32.069275 27.453594 32.302741 53.156423 -0.708008 0.917645 0.018688 -0.009017 -304347.000000 0 0 1
-31.889815 28.909794 31.910331 53.581767 -0.736424 0.932853 0.033431 -0.015234 886285.000000 0 0 1
-33.102205 29.517094 31.392531 54.336966 -0.728208 0.954842 0.067260 -0.015863 864848.000000 0 0 1
-32.961995 30.931294 31.077151 54.854602 -0.753626 0.968499 0.075278 -0.020059 -30620.800000 0 0 1
-32.316295 31.407594 29.728201 53.986534 -0.771139 0.987642 0.080828 -0.026329 12771.500000 0 0 1
-30.916695 31.277594 29.801301 53.124829 -0.791201 0.975242 0.072117 -0.022183 -243268.000000 0 0 1
-30.377125 32.187194 28.818171 52.813561 -0.814321 0.993622 0.052733 -0.003733 659425.000000 0 0 1
-28.978905 31.813994 28.219381 51.461059 -0.832000 0.990390 0.065367 -0.010866 266642.000000 0 0 1
-28.921855 30.654794 27.471931 50.308022 -0.814478 0.993125 0.088738 -0.011215 967155.000000 0 0 1
-27.661105 30.465994 26.784831 49.099294 -0.833615 0.993782 0.057727 0.001485 793567.000000 0 0 1
-27.733415 31.164394 25.383161 48.833049 -0.843585 1.024186 0.034677 -0.001555 -117934.000000 0 0 1
-27.794345 32.576594 25.500891 49.840300 -0.864448 1.033690 0.022431 -0.000920 475198.000000 0 0 1
-28.703335 33.262494 24.599421 50.352820 -0.858841 1.060379 0.024700 0.001646 485413.000000 0 0 1
-28.976505 -33.763023 25.159771 51.113537 0.861543 1.056143 0.036451 0.005266 -15576.100000 0 0 1
-29.728825 -33.758223 26.357651 52.135847 0.848781 1.040769 0.049425 -0.016444 139110.000000 0 0 1
-29.716515 -32.489423 27.006431 51.652505 0.829945 1.020607 0.023994 -0.015880 -70117.100000 0 0 1
-30.296305 -32.573123 28.432891 52.794922 0.821597 1.002077 0.043927 -0.024913 -425628.000000 0 0 1
-31.686215 -32.695023 28.528201 53.729313 0.801066 1.011061 0.046179 -0.028471 -426596.000000 0 0 1
-32.040485 -33.002823 29.828161 54.822425 0.800192 0.995496 0.053994 -0.030150 7362.030000 0 0 1
-33.561615 -33.046623 30.101771 55.897925 0.777667 1.002125 0.069442 -0.037922 117930.000000 0 0 1
-33.860395 -33.629723 31.339821 57.093512 0.781980 0.989724 0.059849 -0.039250 582207.000000 0 0 1
-35.275234 -33.702623 31.547921 58.098884 0.762603 0.996786 0.051701 -0.039610 529464.000000 0 0 1
-35.632268 34.172994 33.000669 59.384310 -0.764496 0.981575 0.060060 -0.027643 -238325.000000 0 0 1
-35.227641 32.848894 33.161633 58.478462 -0.750470 0.967847 0.038184 -0.015800 -30368.400000 0 0 1
-35.985234 32.171194 34.141337 59.123208 -0.729496 0.955181 0.038175 -0.010000 186057.000000 0 0 1
-35.404386 30.784494 -33.888354 57.875523 -0.715713 2.196341 0.024870 -0.002581 600863.000000 0 0 1
-34.306648 30.845894 -32.973144 56.706644 -0.732330 2.191329 0.023133 -0.002366 -61331.300000 0 0 1
-33.760995 29.568694 -32.804364 55.589916 -0.719297 2.201996 0.017582 0.001444 28559.000000 0 0 1
-32.995415 29.452594 -31.468154 54.280728 -0.728727 2.189193 0.010177 0.001269 138826.000000 0 0 1
-33.741695 29.614694 -30.238174 54.128359 -0.720351 2.163539 0.020811 -0.002620 -99740.500000 0 0 1
-34.172117 30.903594 -29.855354 54.900891 -0.735214 2.145760 0.006870 0.007605 319017.000000 0 0 1
-35.227238 30.981094 -28.720444 55.005912 -0.721353 2.120147 0.013132 0.010473 366979.000000 0 0 1
-34.716754 30.593994 -27.476714 53.816496 -0.722357 2.106636 -0.010933 -0.001894 -457170.000000 0 0 1
-35.767727 30.646594 -26.569764 54.078613 -0.708442 2.084398 0.019439 -0.002774 -378501.000000 0 0 1
-35.428950 30.301994 -25.079224 52.937594 -0.707557 2.064341 0.025971 -0.015268 -52120.100000 0 0 1
-34.771961 31.403294 -24.440974 52.845221 -0.734537 2.051610 0.023609 -0.008833 88121.700000 0 0 1
-34.514794 31.213194 -23.092774 51.950079 -0.735209 2.031433 0.019032 -0.017489 74935.700000 0 0 1
-35.807286 31.270194 -22.246074 52.486899 -0.717861 2.008478 0.016354 -0.010153 -159413.000000 0 0 1
36.144780 32.416194 -22.086474 53.339170 0.731068 1.997724 0.026470 -0.014992 -163578.000000 0 0 1
-36.047125 33.513694 -21.327574 53.641666 -0.748994 1.979689 0.034466 -0.019688 -37081.600000 0 0 1
-36.013879 33.350494 -19.782774 52.920819 -0.747020 1.953919 0.036007 -0.016719 -206829.000000 0 0 1
-34.913988 32.545294 -19.502174 51.560814 -0.750300 1.958687 0.041138 -0.016662 -349742.000000 0 0 1
-34.759438 32.413594 -18.084174 50.851715 -0.750490 1.934380 0.055384 -0.004968 -602263.000000 0 0 1
-33.637885 31.448094 -17.805474 49.371296 -0.751766 1.939755 0.059262 -0.008303 -561372.000000 0 0 1
-33.412985 31.291594 -16.386674 48.622161 -0.752624 1.914547 0.060017 0.000114 -334788.000000 0 0 1
-32.352325 30.403094 -16.233674 47.271061 -0.754347 1.921349 0.052441 0.002449 -289713.000000 0 0 1
-32.030455 30.293394 -14.727374 46.481559 -0.757534 1.893196 0.075373 -0.004716 550483.000000 0 0 1
-33.075965 29.511894 -14.135374 46.527198 -0.728514 1.879484 0.063563 0.003390 823192.000000 0 0 1
-32.808265 29.473794 -12.716774 45.899925 -0.731911 1.851523 0.080149 0.005922 5777.940000 0 0 1
-33.734455 28.469994 -12.029474 45.752183 -0.700968 1.836851 0.072427 0.001184 -165676.000000 0 0 1
-33.335495 28.125294 -10.699474 44.908419 -0.700828 1.811361 0.079095 0.004441 484752.000000 0 0 1
-34.225096 27.197294 -10.090174 44.864926 -0.671476 1.797638 0.082501 -0.003426 530447.000000 0 0 1
-33.449195 26.450294 -8.956974 43.574007 -0.669081 1.777830 0.076886 0.002126 357739.000000 0 0 1
-32.896835 27.358594 -8.031274 43.533846 -0.693743 1.756343 0.085784 -0.008693 259068.000000 0 0 1
-31.889365 26.686394 -7.290274 42.216624 -0.696806 1.744354 0.087113 -0.018873 -246115.000000 0 0 1
-31.376555 27.586194 -6.174774 42.232856 -0.721202 1.717530 0.092776 -0.019110 -261757.000000 0 0 1
-30.346125 26.859094 -5.542874 40.902588 -0.724517 1.706729 0.108523 -0.020634 255246.000000 0 0 1
-30.253785 27.317594 -4.227974 40.980705 -0.734441 1.674150 0.106950 -0.029291 185896.000000 0 0 1
-29.355505 26.421294 -3.288074 39.631325 -0.732840 1.653858 0.098089 -0.026146 -25805.600000 0 0 1
-29.916785 25.168694 -3.011774 39.211580 -0.699416 1.647680 0.080752 -0.018112 270655.000000 0 0 1
-29.189265 24.314594 -2.084674 38.046794 -0.694540 1.625616 0.063630 -0.008891 32285.400000 0 0 1
-29.997845 23.086494 -1.718774 37.892098 -0.655931 1.616172 0.067512 -0.014440 -240956.000000 0 0 1
-30.353565 22.315194 -2.818674 37.778985 -0.633946 1.645475 0.058316 -0.006856 158746.000000 0 0 1
-31.291425 21.328494 -2.416074 37.945953 -0.598276 1.634511 0.069783 -0.008222 120609.000000 0 0 1
-31.773105 20.512194 -3.622374 37.992130 -0.573264 1.666287 0.081945 -0.005516 326534.000000 0 0 1
-30.781685 19.567694 -4.047374 36.698611 -0.566252 1.681308 0.067293 -0.008931 591766.000000 0 0 1
-31.336965 18.539894 -4.892674 36.737873 -0.534242 1.704371 0.071510 0.000334 -440902.000000 0 0 1
-30.362805 17.499894 -5.355774 35.451806 -0.522855 1.722449 0.061574 0.000696 -592627.000000 0 0 1
-29.881625 16.554094 -4.436674 34.447549 -0.505901 1.699950 0.061948 -0.011283 125137.000000 0 0 1
-29.221125 15.569894 -5.191774 33.514926 -0.489565 1.726332 0.061616 -0.017652 -258109.000000 0 0 1
-28.838535 14.374194 -4.335474 32.512688 -0.462396 1.704542 0.064141 -0.023155 450747.000000 0 0 1
-30.066535 13.842294 -3.816974 33.319288 -0.431460 1.685606 0.065929 -0.017958 926290.000000 0 0 1
-29.836005 12.638594 -3.128474 32.553166 -0.400686 1.667048 0.060664 -0.027398 164281.000000 0 0 1
-31.070345 11.771394 -2.716374 33.336328 -0.362153 1.652371 0.079768 -0.029286 36616.700000 0 0 1
-31.740645 11.189894 -3.820974 33.871553 -0.338937 1.683845 0.075917 -0.019125 531637.000000 0 0 1
-32.737065 10.271694 -3.386774 34.477433 -0.304035 1.669187 0.087057 -0.016461 12220.100000 0 0 1
-33.730185 9.830894 -4.501974 35.420893 -0.283601 1.698240 0.064759 -0.016919 13794.200000 0 0 1
-33.244265 9.051394 -5.553274 34.899108 -0.265826 1.730599 0.063209 -0.018676 1255770.000000 0 0 1
-34.393146 8.655194 -6.354574 36.030286 -0.246535 1.748091 0.067969 -0.013283 1052300.000000 0 0 1
-33.931535 7.678994 -7.429074 35.573968 -0.222560 1.781179 0.077251 -0.019521 -314231.000000 0 0 1
-33.505835 6.481494 -6.826174 34.802980 -0.191084 1.768214 0.061112 -0.012461 279697.000000 0 0 1
-33.031635 5.629194 -7.821574 34.408629 -0.168797 1.800115 0.072597 -0.013629 -178774.000000 0 0 1
-31.904425 4.638594 -7.418574 33.082384 -0.144379 1.796965 0.088910 -0.023444 -144836.000000 0 0 1
-30.743505 5.211194 -6.907674 31.937997 -0.167910 1.788803 0.091740 -0.025313 -375590.000000 0 0 1
-29.925415 4.292194 -6.250774 30.871113 -0.142458 1.774686 0.081636 -0.023511 100743.000000 0 0 1
-28.484095 4.793994 -5.929874 29.487107 -0.166742 1.773278 0.120793 -0.022643 23167.000000 0 0 1
-27.741905 5.065694 -7.048874 29.068216 -0.180611 1.815732 0.117269 -0.020236 311326.000000 0 0 1
-26.343225 4.880494 -6.802774 27.641680 -0.183189 1.819457 0.147877 -0.031422 861597.000000 0 0 1
-25.466045 5.216494 -8.036674 27.208811 -0.202046 1.870639 0.143014 -0.027655 -79114.000000 0 0 1
-25.695675 4.263794 -9.040474 27.571323 -0.164436 1.904870 0.130741 -0.037292 894492.000000 0 0 1
-24.554135 4.208694 -9.913974 26.812414 -0.169755 1.949540 0.125606 -0.032297 179655.000000 0 0 1
-24.833535 3.409194 -11.241474 27.471764 -0.136429 1.992375 0.115781 -0.046164 -36250.200000 0 0 1
-25.661015 4.198694 -12.108874 28.683472 -0.162184 2.006618 0.103055 -0.024018 357351.000000 0 0 1
-25.902505 3.437694 -13.304274 29.321685 -0.131946 2.041748 0.102699 -0.026652 -30300.600000 0 0 1
-26.840165 4.024394 -14.346674 30.698816 -0.148831 2.057072 0.087249 -0.015426 -40980.300000 0 0 1
-26.159335 5.005994 -15.150074 30.641402 -0.189080 2.087977 0.074239 -0.009583 1068730.000000 0 0 1
-27.064485 5.821894 -15.964474 31.956928 -0.211883 2.093890 0.109672 -0.022758 500778.000000 0 0 1
-27.877405 5.149894 -17.067874 33.090534 -0.182674 2.112730 0.074558 -0.008914 -864217.000000 0 0 1
-29.080715 4.631594 -16.624374 33.815817 -0.157940 2.084740 0.085837 -0.023414 -1026860.000000 0 0 1
-29.758325 4.004594 -17.680474 34.845285 -0.133767 2.102960 0.083826 -0.015248 778302.000000 0 0 1
-31.180875 3.509294 -17.192974 35.779330 -0.112075 2.072053 0.088059 -0.015873 555107.000000 0 0 1
-31.301325 2.328894 -16.421774 35.424164 -0.074266 2.052823 0.089716 -0.029271 172675.000000 0 0 1
-31.038995 1.127694 -17.084774 35.448278 -0.036316 2.073691 0.092755 -0.028432 -395798.000000 0 0 1
-31.209815 -0.083906 -16.187974 35.158358 0.002688 2.049276 0.099379 -0.023548 -444308.000000 0 0 1
-30.782115 -1.262206 -16.788174 35.085247 0.040982 2.069738 0.106930 -0.008903 309634.000000 0 0 1
-31.051435 -2.399406 -16.041874 35.032706 0.077119 2.046441 0.108076 -0.013304 -110342.000000 0 0 1
-30.790115 -3.598706 -16.950874 35.331488 0.116351 2.071185 0.106134 -0.014417 -14845.700000 0 0 1
-31.732435 -3.668006 -18.002374 36.667250 0.115081 2.083995 0.107172 -0.012935 258701.000000 0 0 1
-31.734035 -4.933206 -18.640474 37.132907 0.154220 2.096698 0.095056 -0.012936 -333014.000000 0 0 1
-32.808625 -5.136606 -19.703174 38.613543 0.155302 2.106290 0.088515 -0.011504 -431524.000000 0 0 1
-32.745445 -6.412006 -20.321974 39.068666 0.193367 2.117835 0.098824 -0.011014 84000.700000 0 0 1
-33.636715 -6.581706 -21.398574 40.406020 0.193229 2.128912 0.101398 -0.005327 -297829.000000 0 0 1
-33.232495 -7.739206 -22.316874 40.771766 0.228803 2.150004 0.098325 -0.007537 47271.600000 0 0 1
-32.054575 -7.399106 -23.030574 40.157813 0.226855 2.181570 0.086439 -0.009860 62747.200000 0 0 1
-31.814695 -8.404306 -24.023174 40.742117 0.258265 2.201409 0.071989 -0.009174 -530322.000000 0 0 1
-30.385675 -8.276206 -24.541174 39.925607 0.265921 2.232767 0.065166 -0.010766 -684623.000000 0 0 1
-30.124125 -6.981006 -25.089724 39.820744 0.227722 2.252435 0.064795 -0.012900 -10778.100000 0 0 1
-29.877825 -6.929906 -26.463654 40.509666 0.227912 2.282689 0.039182 -0.009815 411078.000000 0 0 1
-31.173685 -7.037606 -27.342674 42.058868 0.222033 2.278519 0.038799 -0.015603 447577.000000 0 0 1
-31.863575 -8.281306 -27.281804 42.757038 0.254273 2.262780 0.041268 -0.017863 155758.000000 0 0 1
-32.996985 -8.373906 -28.137684 44.166193 0.248531 2.261509 0.027935 -0.014987 285122.000000 0 0 1
-34.129456 -9.241806 -27.610974 44.861973 0.264445 2.233772 0.046282 -0.017114 -683025.000000 0 0 1
-33.739315 -10.639306 -27.568324 44.850292 0.305469 2.232769 0.042244 -0.012507 -456766.000000 0 0 1
-34.737928 -11.617906 -27.463424 45.781427 0.322750 2.214149 0.038811 -0.006980 -512323.000000 0 0 1
-35.840214 -11.676106 -28.534564 47.276567 0.314939 2.218763 0.023041 -0.006846 -389433.000000 0 0 1
35.874740 -10.723406 -28.296974 46.933007 -0.290459 2.217956 0.021630 -0.004314 -961124.000000 0 0 1
34.936100 -10.714906 -29.288484 46.831139 -0.297592 2.246448 0.027783 -0.012758 -585953.000000 0 0 1
33.915020 -9.539006 -29.114174 45.704008 -0.274179 2.261417 0.039210 -0.010331 113758.000000 0 0 1
33.014680 -9.946106 -28.096694 44.478290 -0.292615 2.254534 0.032317 -0.005626 -184769.000000 0 0 1
32.076880 -8.931406 -27.778094 43.362642 -0.271559 2.266075 0.020234 -0.002305 814681.000000 0 0 1
30.942150 -9.335506 -26.769004 41.966032 -0.293023 2.262530 0.013836 0.002547 895710.000000 0 0 1
31.495120 -9.637506 -25.481964 41.643182 -0.296952 2.229272 -0.003105 0.018837 908441.000000 0 0 1
30.401650 -10.071706 -24.642674 40.409911 -0.319909 2.226627 -0.007471 0.023652 769353.000000 0 0 1
30.757830 -10.231506 -23.156774 39.836716 -0.321133 2.191112 -0.018764 0.025919 -30692.300000 0 0 1
31.451060 -11.432306 -22.907674 40.554017 -0.348646 2.171070 -0.022343 0.022968 18433.600000 0 0 1
31.536270 -11.586606 -21.526874 39.902281 -0.352096 2.140627 -0.018823 0.019699 52776.000000 0 0 1
32.382180 -12.764606 -20.952674 40.627026 -0.375484 2.112659 -0.002163 0.012072 149471.000000 0 0 1
33.740010 -12.736806 -21.328774 41.899058 -0.360959 2.104879 0.004085 0.015899 -68553.200000 0 0 1
34.558450 -13.554606 -20.514874 42.413133 -0.373784 2.075664 0.028310 0.012995 130746.000000 0 0 1
36.056940 -13.458106 -20.887874 43.789574 -0.357232 2.068041 0.042789 0.001223 -331460.000000 0 0 1
-36.033141 -12.177906 -20.826674 43.364029 0.325912 2.071765 0.053176 0.002455 279728.000000 0 0 1
-36.285155 -11.200806 -21.846574 43.810311 0.299409 2.092852 0.054661 0.010467 -736251.000000 0 0 1
-35.758020 -11.393806 -23.290774 44.169163 0.308466 2.126226 0.045052 0.005753 137562.000000 0 0 1
36.275860 -12.363806 -24.111474 45.278746 -0.328480 2.132362 0.046883 0.008520 923050.000000 0 0 1
35.017020 -11.855806 -24.604574 44.408748 -0.326459 2.158015 0.058957 0.010182 366618.000000 0 0 1
34.477130 -12.869406 -25.608074 44.833777 -0.357256 2.178737 0.042033 -0.006047 -286599.000000 0 0 1
34.376020 -14.220606 -25.181284 44.922527 -0.392242 2.165845 0.048784 -0.009717 427399.000000 0 0 1
33.633410 -14.546606 -24.007774 43.808483 -0.408210 2.150787 0.034777 -0.005205 -248998.000000 0 0 1
-29.218095 8.788994 -19.294374 36.100088 -0.292197 2.134676 0.055824 -0.003016 -465249.000000 0 0 1
-28.082135 8.016594 -19.385374 35.052316 -0.278073 2.156806 0.056901 -0.001375 -628644.000000 0 0 1
-27.321695 8.270094 -20.564374 35.181856 -0.293926 2.195080 0.069739 -0.018358 -33490.500000 0 0 1
-26.139015 7.300194 -20.745574 34.160208 -0.272344 2.223457 0.074403 -0.016232 -100860.000000 0 0 1
-25.081345 7.648994 -19.859774 32.893641 -0.296008 2.219002 0.074457 -0.011476 78342.200000 0 0 1
-24.016835 6.714794 -20.044374 31.994902 -0.272626 2.247834 0.081870 -0.016260 57553.900000 0 0 1
-22.661135 7.222694 -19.549374 30.787536 -0.308547 2.258775 0.073813 -0.015863 -335578.000000 0 0 1
-22.165235 8.251494 -20.317574 31.179939 -0.356377 2.280519 0.069386 -0.016170 52352.500000 0 0 1
-20.880235 8.683194 -19.888874 30.115600 -0.394101 2.292171 0.060581 -0.006329 117430.000000 0 0 1
-20.183635 9.620994 -20.851374 30.573231 -0.444812 2.321309 0.051007 -0.004909 -335586.000000 0 0 1
-19.739635 8.997794 -22.046874 30.930214 -0.427686 2.364270 0.054437 -0.014644 -90623.600000 0 0 1
-18.932135 9.936394 -22.710274 31.191573 -0.483324 2.386328 0.058252 -0.010880 -376695.000000 0 0 1
-18.056035 9.271194 -23.752574 31.243563 -0.474364 2.434477 0.060168 -0.014662 -397074.000000 0 0 1
-18.815335 8.591694 -24.689774 32.208989 -0.428356 2.444247 0.059120 -0.016427 -102185.000000 0 0 1
-17.939335 8.083094 -25.654514 32.331258 -0.423336 2.487318 0.048482 -0.012267 -438785.000000 0 0 1
-18.602835 6.955694 -26.458654 33.083342 -0.357810 2.497688 0.032156 -0.009608 -87208.300000 0 0 1
-18.781835 5.797194 -25.744584 32.390560 -0.299382 2.489503 0.059349 -0.014499 186930.000000 0 0 1
-19.443735 4.818794 -26.542164 33.253061 -0.242938 2.495076 0.055969 -0.014667 -472748.000000 0 0 1
-19.703735 3.475894 -25.792654 32.643223 -0.174611 2.481831 0.062110 -0.012192 482044.000000 0 0 1
-18.632135 2.527994 -25.597034 31.760909 -0.134856 2.508039 0.058049 -0.011358 910451.000000 0 0 1
-17.580035 3.011094 -24.740674 30.499595 -0.169633 2.516964 0.047120 -0.011473 -22631.500000 0 0 1
-16.791635 1.858494 -24.090874 29.424195 -0.110231 2.530016 0.049521 -0.012710 -59021.100000 0 0 1
-17.384335 1.153294 -23.004474 28.857426 -0.066244 2.493401 0.045550 -0.009144 12496.300000 0 0 1
-18.603835 0.463194 -23.223574 29.759900 -0.024893 2.466045 0.045439 -0.004721 411518.000000 0 0 1
-19.210735 -0.378506 -22.025074 29.228402 0.019700 2.424243 0.070049 -0.010768 261974.000000 0 0 1
-18.419835 -1.479206 -21.670474 28.479604 0.080133 2.435514 0.073651 -0.008987 -251714.000000 0 0 1
-19.155235 -2.261406 -20.830374 28.389108 0.117513 2.394614 0.068791 -0.007538 -457699.000000 0 0 1
-18.639335 -3.727606 -20.636174 28.056578 0.197382 2.397230 0.057816 -0.018441 11905.300000 0 0 1
-18.955835 -4.531206 -21.774774 29.223215 0.234637 2.411510 0.066307 -0.021941 385941.000000 0 0 1
-18.933635 -5.911206 -21.422574 29.195061 0.302618 2.394657 0.067012 -0.021057 -151716.000000 0 0 1
-19.087635 -6.814806 -22.682974 30.418690 0.342921 2.412369 0.044696 -0.029793 224390.000000 0 0 1
-17.986635 -6.549106 -23.575074 30.367647 0.349189 2.459606 0.041969 -0.012238 791649.000000 0 0 1
-17.997435 -7.513706 -24.603774 31.396005 0.395490 2.471331 0.055008 -0.020764 -70295.200000 0 0 1
-16.573535 -7.578506 -25.189904 31.090949 0.428879 2.515291 0.056046 -0.024313 -297811.000000 0 0 1
-16.347735 -8.569206 -26.188534 32.039336 0.482806 2.527657 0.067583 -0.050001 -664979.000000 0 0 1
-15.084735 -8.555706 -26.750744 31.880271 0.515935 2.566423 0.069637 -0.048331 -750213.000000 0 0 1
-13.977235 -9.438806 -26.161704 31.126981 0.593955 2.568971 0.060661 -0.045915 -339403.000000 0 0 1
-13.466135 -8.946006 -24.928874 29.712230 0.586386 2.566259 0.062894 -0.037444 260285.000000 0 0 1
-12.704135 -9.945806 -24.243874 29.121805 0.664214 2.554399 0.033876 -0.030105 -187361.000000 0 0 1
-11.984535 -9.393906 -23.010974 27.593106 0.664807 2.557004 0.061560 -0.025513 -581883.000000 0 0 1
-12.672735 -9.065806 -21.872874 26.855347 0.620973 2.522611 0.060094 -0.018038 -460399.000000 0 0 1
-11.786835 -8.563506 -20.889174 25.468033 0.628311 2.532577 0.053352 -0.011015 -760938.000000 0 0 1
-12.385235 -8.335506 -19.493674 24.553575 0.592388 2.488032 0.046821 -0.003689 24131.200000 0 1 0
-13.241435 -7.224506 -19.382074 24.560006 0.499458 2.480256 0.041321 0.003229 1043690.000000 0 1 0
-14.563535 -7.307906 -19.962274 25.768090 0.465082 2.457021 0.042915 -0.007113 693715.000000 0 0 1
-15.397835 -6.024206 -19.626674 25.663023 0.372930 2.441503 0.051095 -0.002432 778.932000 0 0 1
-15.503035 -5.833606 -18.237074 24.636679 0.359899 2.404225 0.053103 -0.000203 82991.600000 0 1 0
-15.099135 -4.576006 -17.766474 23.760710 0.294266 2.415425 0.049077 -0.007022 -638995.000000 0 1 0
-15.060635 -4.448606 -16.245074 22.594585 0.287213 2.373131 0.067990 -0.002823 779557.000000 0 1 0
-16.306835 -4.395506 -15.508274 22.929019 0.263292 2.313606 0.084755 -0.010463 699966.000000 0 1 0
-17.063835 -3.239406 -15.751174 23.447126 0.187608 2.307398 0.063099 -0.017193 -722582.000000 0 1 0
-18.210335 -3.029006 -14.800074 23.660798 0.164825 2.246582 0.071717 -0.025877 -561053.000000 0 1 0
-17.707735 -2.611606 -13.555174 22.452775 0.146428 2.218955 0.077345 -0.032266 460653.000000 0 1 0
-18.633935 -1.830906 -12.832274 22.698965 0.097942 2.171623 0.069491 -0.030153 -76538.200000 0 1 0
-17.966835 -0.610406 -12.084074 21.661131 0.033961 2.162612 0.057260 -0.026444 44692.500000 0 1 0
-17.748535 0.504594 -12.968074 21.987180 -0.028422 2.201609 0.078160 -0.025877 247966.000000 0 1 0
-16.748135 1.366294 -12.511374 20.949971 -0.081399 2.210805 0.068124 -0.017849 -1185930.000000 0 1 0
-16.278935 2.355494 -13.605474 21.346218 -0.143698 2.261879 0.069958 -0.010710 75609.400000 0 1 0
-15.557635 1.805094 -14.697974 21.478567 -0.115510 2.324452 0.068690 -0.017368 566933.000000 0 1 0
-14.319335 1.176594 -14.366274 20.317912 -0.081984 2.356149 0.064776 -0.013691 -254092.000000 0 1 0
-13.766135 0.224294 -15.476074 20.713900 -0.016292 2.414537 0.057925 -0.007639 69390.700000 0 1 0
-13.362635 0.864794 -16.644574 21.362344 -0.064627 2.464113 0.055113 -0.015227 65862.400000 0 1 0
-12.752635 -0.109806 -17.469674 21.629408 0.008610 2.511006 0.027362 -0.005750 -35736.700000 0 1 0
-12.138335 0.588894 -18.664274 22.271980 -0.048477 2.564433 0.028790 -0.009332 -25335.300000 0 1 0
-10.950835 1.338894 -18.496774 21.537040 -0.121660 2.603788 0.008135 -0.007289 -230771.000000 0 1 0
-10.544335 1.889494 -19.722074 22.443560 -0.177313 2.644014 0.005363 -0.002887 307104.000000 0 1 0
-9.129235 2.505194 -19.602774 21.768961 -0.267822 2.691696 0.000829 -0.003166 -1348120.000000 0 1 0
-8.046735 1.607194 -19.592274 21.241239 -0.197138 2.744967 0.000250 -0.001800 423530.000000 0 1 0
-6.768035 2.262794 -19.481374 20.747300 -0.322652 2.790460 0.012877 0.001703 923215.000000 0 1 0
-6.460435 3.401694 -20.465074 21.728507 -0.484655 2.798901 0.020909 0.004925 -1882370.000000 0 1 0
-6.235235 2.943894 -21.807874 22.871992 -0.441111 2.835357 0.017919 0.007082 89586.600000 0 1 0
-6.073135 3.998194 -22.761474 23.894627 -0.582216 2.832392 0.012135 0.009003 -397506.000000 0 1 0
-5.341235 3.531194 -24.020774 24.859519 -0.584152 2.881090 0.022909 -0.005330 57533.500000 0 1 0
-4.005235 3.147094 -23.730574 24.271099 -0.665988 2.930152 0.044330 -0.013555 -332859.000000 0 1 0
-3.601335 2.396394 -24.863274 25.236773 -0.587138 2.969334 0.051089 -0.015197 -74638.800000 0 0 1
-2.152535 1.891994 -24.694374 24.860112 -0.721069 3.026057 0.047734 -0.021262 -941687.000000 0 1 0
-1.172935 2.931094 -24.793074 24.993271 -1.190143 3.014938 0.032125 -0.019272 441698.000000 0 1 0
0.134565 2.388294 -24.911574 25.026158 1.514512 3.045863 0.031189 -0.020357 303064.000000 0 0 1
0.753465 1.501094 -23.781174 23.840412 1.105595 3.071083 0.035650 -0.019390 -1577120.000000 0 1 0
0.196665 0.241994 -23.646174 23.648230 0.888368 3.128406 0.042964 -0.021755 -270522.000000 0 1 0
0.900165 -0.576206 -22.732374 22.757485 -0.569393 3.094611 0.039493 -0.021776 -389300.000000 0 1 0
0.412465 -2.058106 -22.741974 22.838636 -1.373007 3.049556 0.048552 -0.026377 576919.000000 0 1 0
-0.802635 -2.274306 -22.016174 22.147880 1.231528 3.032482 0.039535 -0.023267 -118713.000000 0 1 0
-1.972635 -2.411506 -22.749274 22.961623 0.885170 3.005488 0.048362 -0.024052 -565124.000000 0 1 0
-2.927635 -1.247106 -22.840574 23.061183 0.402698 3.003162 0.056029 -0.021398 -881299.000000 0 1 0
-3.607435 -1.038606 -21.621774 21.945236 0.280326 2.969686 0.038221 -0.014271 343810.000000 0 1 0
-4.584435 0.013294 -21.566174 22.048063 -0.002900 2.932134 0.023540 -0.015609 1437310.000000 0 1 0
-5.975535 -0.245706 -22.251174 23.040880 0.041096 2.879022 0.033321 -0.010640 456805.000000 0 1 0
-6.551735 -1.460006 -21.817774 22.827004 0.219260 2.843124 0.035829 0.003097 -472351.000000 0 1 0
-7.952735 -1.360306 -21.804374 23.249240 0.169409 2.787188 0.022905 0.005428 -202011.000000 0 1 0
-8.585635 -2.705606 -21.463074 23.274385 0.305281 2.744465 0.017224 0.004388 -342236.000000 0 1 0
-8.647935 -3.534706 -22.589674 24.445333 0.388013 2.749442 0.041716 0.004090 -216976.000000 0 1 0
-9.180135 -4.805006 -22.286474 24.577426 0.482202 2.706394 0.029163 0.011475 -649851.000000 0 1 0
-9.977535 -5.438706 -23.410974 26.023152 0.499070 2.689697 0.032539 0.001218 -667630.000000 0 0 1
-11.280935 -4.953706 -23.376974 26.425019 0.413771 2.656546 0.038683 -0.002953 -886950.000000 0 0 1
-12.141535 -5.619206 -24.263374 27.707466 0.433454 2.637676 0.045958 -0.025309 648497.000000 0 0 1
-13.662335 -5.421206 -23.955974 28.105828 0.377744 2.591257 0.063295 -0.030037 599124.000000 0 0 1
-14.095035 -4.115606 -24.309774 28.400235 0.284092 2.598222 0.063381 -0.029394 -471226.000000 0 0 1
-15.497135 -4.024506 -24.306374 29.105973 0.254081 2.559109 0.061986 -0.030621 164925.000000 0 0 1
-16.075335 -2.631206 -24.742274 29.622960 0.162241 2.559365 0.057871 -0.026736 -179846.000000 0 0 1
-15.835635 -2.395306 -26.123154 30.641867 0.150123 2.591606 0.057480 -0.032231 -79858.600000 0 0 1
-16.279535 -1.141306 -26.562074 31.174824 0.069992 2.590659 0.042321 -0.031146 -974270.000000 0 0 1
-17.759335 -1.021306 -26.877354 32.230874 0.057445 2.556935 0.050934 -0.022880 -933588.000000 0 0 1
-18.220535 -1.610106 -28.077224 33.509862 0.088139 2.564183 0.055588 -0.032411 -450.840000 0 0 1
-17.890035 -0.922506 -29.309824 34.350694 0.051520 2.592987 0.036907 -0.028821 -366265.000000 0 0 1
-17.952535 -1.813606 -30.471534 35.413233 0.100681 2.606961 0.031825 -0.030278 999051.000000 0 0 1
-19.313035 -2.031906 -30.898734 36.494571 0.104823 2.580486 0.035633 -0.032105 700612.000000 0 0 1
-19.394835 -2.796306 -32.062554 37.576407 0.143191 2.593007 0.038850 -0.036749 -644325.000000 0 0 1
-20.835135 -3.270606 -32.349344 38.617092 0.155705 2.563845 0.027153 -0.031483 371674.000000 0 0 1
-21.799135 -2.239406 -32.620434 39.297709 0.102370 2.550056 0.021726 -0.032425 422687.000000 0 0 1
-22.331635 -1.742206 -31.423304 38.589652 0.077857 2.522307 0.013486 -0.020015 -1316080.000000 0 0 1
-23.433235 -0.737606 -31.676114 39.408588 0.031467 2.504430 0.019383 -0.020555 -694235.000000 0 0 1
-22.938435 0.422394 -32.284134 39.605751 -0.018412 2.523763 0.029755 -0.025267 387541.000000 0 0 1
-23.933235 1.237794 -32.886454 40.692146 -0.051673 2.511846 0.025242 -0.022828 141170.000000 0 0 1
-23.328535 2.593394 -33.350814 40.782632 -0.110714 2.528322 0.035146 -0.021242 -551765.000000 0 0 1
-22.896535 3.518294 -32.342974 39.783133 -0.152468 2.520052 0.033735 -0.020921 636240.000000 0 0 1
-23.861135 4.092394 -31.425654 39.669550 -0.169856 2.485179 0.030064 -0.019946 -822245.000000 0 0 1
-24.888235 4.939894 -32.107124 40.923028 -0.195937 2.472804 0.024598 -0.019890 -1578680.000000 0 0 1
-25.943695 4.172094 -32.590334 41.864204 -0.159448 2.463033 0.033113 -0.024737 -420016.000000 0 0 1
-26.752305 4.944894 -33.479464 43.139452 -0.182777 2.459215 0.043613 -0.028639 -560812.000000 0 0 1
-27.985635 4.200594 -33.951524 44.198945 -0.148986 2.446747 0.042639 -0.031836 -898504.000000 0 0 1
-27.850245 3.067994 33.617607 43.762910 -0.109718 0.694809 0.046178 -0.033485 974948.000000 0 0 1
-29.160925 2.658294 33.168882 44.244783 -0.090908 0.723237 0.048043 -0.033905 903061.000000 0 0 1
-29.263665 1.171994 32.837622 44.000513 -0.040028 0.728309 0.044123 -0.014140 -299020.000000 0 0 1
-29.239335 0.371094 34.034214 44.870973 -0.012691 0.709802 0.034188 -0.011153 138758.000000 0 0 1
-29.526365 -1.004806 33.828308 44.912920 0.034018 0.717886 0.028755 -0.002972 -825825.000000 0 0 1
-29.329025 -1.984006 -33.389674 44.485934 0.067544 2.419716 -0.000485 -0.002189 815294.000000 0 0 1
-28.023865 -2.116806 -32.779924 43.178019 0.075393 2.432850 0.011198 -0.014019 1366170.000000 0 0 1
-27.399965 -0.881706 -32.296974 42.363074 0.032168 2.437787 0.014838 -0.013814 -358874.000000 0 0 1
-27.645545 -0.614006 -30.783284 41.379509 0.022206 2.409722 0.024883 -0.010554 -252361.000000 0 0 1
-26.853385 -1.470406 -29.993524 40.284959 0.054702 2.410633 0.020628 -0.015703 245978.000000 0 0 1
-26.687025 -0.966106 -28.723584 39.219574 0.036186 2.392605 0.021475 -0.016811 108245.000000 0 0 1
-25.426835 -1.546706 -28.001264 37.854815 0.060755 2.403423 0.026411 -0.014719 217618.000000 0 0 1
-25.542225 -2.888806 -27.595504 37.712893 0.112621 2.391647 0.007848 -0.007305 -372617.000000 0 0 1
-24.662635 -3.306306 -26.607434 36.429834 0.133267 2.389667 0.035829 -0.012267 -591033.000000 0 0 1
-25.070485 -4.610106 -25.928274 36.360112 0.181854 2.364702 0.041427 -0.021235 572029.000000 0 0 1
-26.202455 -4.442706 -25.064174 36.531071 0.167956 2.326919 0.046421 -0.012478 249597.000000 0 0 1
-26.621095 -5.617606 -24.494374 36.608941 0.207970 2.303769 0.044679 -0.014714 436760.000000 0 0 1
-27.664665 -5.357706 -23.344174 36.592201 0.191298 2.262636 0.062878 -0.015686 475261.000000 0 0 1
-27.877145 -6.491206 -22.537474 36.430876 0.228774 2.237803 0.075506 -0.022194 -128458.000000 0 0 1
-28.953755 -6.306306 -21.653074 36.700750 0.214457 2.201843 0.094098 -0.017215 -139074.000000 0 0 1
-29.340655 -7.585606 -20.898874 36.812748 0.252996 2.174515 0.101629 -0.026176 68244.500000 0 0 1
-28.364025 -8.062506 -19.972474 35.614908 0.276946 2.166136 0.101430 -0.029916 343571.000000 0 0 1
-28.839615 -9.109606 -19.183974 35.815265 0.305953 2.136058 0.121883 -0.020992 127842.000000 0 0 1
-29.559265 -8.550106 -17.891874 35.594573 0.281568 2.097466 0.118135 -0.024915 221629.000000 0 0 1
-28.654565 -8.051306 -16.933774 34.244129 0.273915 2.088058 0.104442 -0.026958 61215.300000 0 0 1
-29.313615 -7.382806 -15.903374 34.157154 0.246725 2.055102 0.100355 -0.026030 -124271.000000 0 0 1
-28.371475 -6.569206 -14.954574 32.737354 0.227533 2.045196 0.101667 -0.022581 179752.000000 0 0 1
-27.835895 -5.424306 -15.588774 32.361552 0.192455 2.073397 0.101089 -0.021601 244388.000000 0 0 1
-27.040125 -4.639906 -14.733974 31.141405 0.169938 2.063638 0.100228 -0.030607 -77924.700000 0 0 1
-13.963635 21.316094 -5.278174 26.023414 -0.990862 1.775037 0.070250 -0.022434 1225.550000 0 0 1
-14.231635 20.627394 -6.466474 25.881347 -0.966855 1.823322 0.096877 -0.024759 327332.000000 0 0 1
-15.013935 19.430594 -6.237974 25.335322 -0.912928 1.819571 0.057980 -0.035245 251776.000000 0 0 1
-15.284035 18.596494 -7.528674 25.221266 -0.882857 1.873922 0.081919 -0.039770 -226851.000000 0 0 1
-14.099835 18.075694 -8.124874 24.321793 -0.908343 1.911401 0.084407 -0.035193 211195.000000 0 1 0
-14.275235 17.129194 -9.166574 24.108457 -0.876027 1.960833 0.065626 -0.040010 -433733.000000 0 1 0
-14.699835 15.706294 -8.702174 23.205617 -0.818487 1.955196 0.063860 -0.047849 795140.000000 0 1 0
-16.072635 15.745894 -8.248074 23.964421 -0.775130 1.922162 0.060965 -0.039574 914133.000000 0 1 0
-16.256235 14.741394 -7.258974 23.114207 -0.736567 1.890250 0.066461 -0.032871 1261340.000000 0 1 0
-17.735935 14.989494 -6.709074 24.171471 -0.701671 1.852051 0.078934 -0.040696 2143490.000000 0 1 0
-18.747635 14.748894 -7.731174 25.075381 -0.666583 1.884220 0.080155 -0.034461 1049830.000000 0 0 1
-20.045335 15.161494 -7.296374 26.171042 -0.647559 1.853336 0.077731 -0.036398 656984.000000 0 0 1
-21.229535 14.705094 -8.174174 27.087821 -0.605791 1.877340 0.084367 -0.019909 14945.400000 0 0 1
-21.483735 13.329994 -7.955974 26.505417 -0.555334 1.875661 0.104759 -0.028551 456917.000000 0 0 1
-22.527935 12.829394 -8.806674 27.379896 -0.517682 1.898265 0.124928 -0.030615 379202.000000 0 0 1
-22.855835 11.423394 -8.322374 26.872757 -0.463489 1.885669 0.101873 -0.024561 902674.000000 0 0 1
-21.752635 10.441994 -8.350374 25.533138 -0.447547 1.903967 0.106875 -0.020529 1165090.000000 0 0 1
-22.161535 9.193394 -7.832274 25.238793 -0.393230 1.886333 0.111683 -0.027760 187054.000000 0 0 1
-20.947935 8.299494 -7.463374 23.736039 -0.377223 1.890655 0.092482 -0.011071 -81478.500000 0 1 0
-20.592035 7.409694 -8.466274 23.465150 -0.345408 1.939924 0.070183 -0.010206 -86548.600000 0 1 0
-19.635935 6.513194 -7.991074 22.177667 -0.320278 1.939408 0.065449 -0.007072 -541342.000000 0 1 0
-19.543835 5.270694 -8.901574 22.112886 -0.263419 1.985099 0.058107 -0.014951 -835748.000000 0 1 0
-20.670035 4.461694 -8.989574 22.977587 -0.212592 1.972767 0.080367 -0.012640 -125744.000000 0 1 0
-20.693935 3.473394 -10.039974 23.261653 -0.166296 2.017074 0.083914 -0.005380 143759.000000 0 1 0
-21.617335 2.231694 -9.718874 23.806431 -0.102872 1.991328 0.094103 -0.012354 204803.000000 0 1 0
-21.029335 1.260394 -8.791474 22.827868 -0.059863 1.966134 0.075645 -0.016858 852305.000000 0 1 0
-21.906235 0.147594 -8.469174 23.486844 -0.006737 1.939699 0.083784 -0.014593 33101.700000 0 1 0
-21.895135 -1.209806 -9.232974 23.793032 0.055198 1.969315 0.069980 -0.031737 228303.000000 0 1 0
-20.603235 -1.811006 -9.151674 22.616945 0.087674 1.987379 0.053965 -0.018401 838185.000000 0 1 0
-20.513935 -3.141406 -9.610674 22.870396 0.151955 2.004488 0.039149 -0.012703 -5843.690000 0 1 0
-21.466135 -4.226706 -8.979774 23.649447 0.194414 1.960272 0.036263 -0.015889 143168.000000 0 1 0
-21.291735 -4.383806 -7.564874 23.017017 0.203055 1.905685 0.045638 -0.011041 731506.000000 0 1 0
-22.389235 -5.036106 -6.903374 23.964490 0.221252 1.863004 0.065534 -0.008389 12342.900000 0 1 0
-22.455835 -6.551006 -7.029374 24.425240 0.283851 1.862716 0.069008 -0.020810 -252834.000000 0 1 0
-21.330235 -7.231006 -6.491474 23.439403 0.326844 1.851412 0.064277 -0.020342 612622.000000 0 1 0
-21.504335 -8.638306 -6.405574 24.043464 0.381972 1.840469 0.067077 -0.015978 -1296080.000000 0 1 0
-20.430735 -9.380506 -5.698374 23.192247 0.430426 1.819040 0.064988 -0.023261 -888651.000000 0 1 0
-19.428935 -9.805406 -6.609674 22.744611 0.467385 1.865654 0.070059 -0.009121 19860.500000 0 1 0
-18.457235 -10.524106 -5.913474 22.054377 0.518211 1.842249 0.066575 -0.006855 -728645.000000 0 1 0
-17.665635 -11.583606 -6.677574 22.155013 0.580382 1.876959 0.049792 -0.000036 1093090.000000 0 1 0
-16.456935 -11.043906 -7.323674 21.129004 0.591051 1.924759 0.048088 -0.021699 1598830.000000 0 1 0
-16.713435 -10.342906 -8.501574 21.414747 0.554156 1.979038 0.050354 -0.033491 100016.000000 0 1 0
-15.554735 -10.627506 -9.536474 21.114877 0.599384 2.039407 0.045032 -0.028197 742872.000000 0 1 0
-15.479635 -11.953606 -9.956074 21.946098 0.657568 2.041665 0.045128 -0.029250 338808.000000 0 1 0
-14.457735 -12.143006 -10.925774 21.814015 0.698599 2.095389 0.047433 -0.018886 166339.000000 0 1 0
-14.589835 -13.564206 -11.412874 22.958761 0.748985 2.091053 0.045249 -0.020388 76391.100000 0 1 0
-15.538635 -13.787206 -12.433074 24.209865 0.725746 2.110118 0.055640 -0.010623 -2640.750000 0 1 0
-15.513335 -15.060906 -12.981174 25.219147 0.770602 2.111495 0.040397 -0.004547 -31479.800000 0 0 1
-16.038635 -15.013606 -14.409074 26.272945 0.752400 2.151291 0.051214 -0.001739 -189474.000000 0 0 1
-15.958735 -16.222206 -15.203074 27.367402 0.793585 2.159782 0.041166 0.004471 25113.300000 0 0 1
-16.253835 -15.963906 -16.534174 28.149820 0.776399 2.198594 0.047079 0.002216 -41508.100000 0 0 1
-16.834935 -17.162206 -17.368474 29.658393 0.795024 2.196438 0.046846 -0.009613 904365.000000 0 0 1
-18.226035 -17.372306 -17.096974 30.435044 0.761420 2.167299 0.045065 -0.006989 -303334.000000 0 0 1
-18.976835 -17.897606 -18.103874 31.752084 0.756139 2.177501 0.038568 0.000969 825918.000000 0 0 1
-20.510835 -17.887906 -17.712774 32.471740 0.717196 2.147761 0.031146 -0.002456 1067740.000000 0 0 1
-20.871935 -16.597006 -17.219774 31.743014 0.671797 2.144176 0.042146 -0.003976 -8911.490000 0 0 1
-20.961835 -16.560706 -15.782174 31.027932 0.668639 2.104406 0.040841 -0.003697 -284013.000000 0 0 1
-21.148535 -15.152906 -15.187574 30.125297 0.621714 2.099190 0.057705 -0.010701 63049.800000 0 0 1
-22.482735 -14.689806 -15.247474 30.882831 0.578749 2.087159 0.062155 -0.015051 330316.000000 0 0 1
-22.507835 -13.320506 -14.910774 30.105975 0.534380 2.088949 0.073791 -0.011790 321756.000000 0 0 1
-23.942235 -12.745206 -14.683474 30.842752 0.489177 2.066983 0.080444 -0.018636 160025.000000 0 0 1
-24.567535 -13.158806 -13.512774 30.972779 0.491734 2.022256 0.069984 -0.010973 -439957.000000 0 0 1
-25.639795 -12.342806 -13.203974 31.370191 0.448651 2.005243 0.077495 -0.012797 -702881.000000 0 0 1
-26.186815 -12.761106 -11.841774 31.445552 0.453444 1.956898 0.079638 -0.010588 895376.000000 0 0 1
-27.441035 -12.131106 -11.445574 32.111919 0.416247 1.935238 0.085015 -0.021292 1280770.000000 0 0 1
-27.919495 -12.648106 -10.246774 32.318249 0.425363 1.893423 0.084516 -0.011431 -355953.000000 0 0 1
-28.739845 -11.641106 -9.487274 32.426878 0.384853 1.867714 0.075042 -0.011812 -498431.000000 0 0 1
-28.003105 -10.645606 -8.758074 31.212285 0.363285 1.855212 0.079564 -0.016433 256362.000000 0 0 1
-28.791835 -9.757406 -7.953774 31.423547 0.326748 1.826695 0.086465 -0.018460 41910.800000 0 0 1
-28.043305 -8.435006 -7.487074 30.226356 0.292177 1.821102 0.086964 -0.017512 15573.600000 0 0 1
-27.317435 -8.755906 -6.333974 29.377328 0.310179 1.788110 0.084679 -0.017184 149551.000000 0 0 1
-26.517475 -7.669506 -5.817974 28.210754 0.281542 1.778519 0.080586 -0.012186 45586.800000 0 0 1
-27.245115 -6.394006 -5.309674 28.484597 0.230513 1.758298 0.088133 -0.019944 -613332.000000 0 0 1
-28.136625 -6.710306 -4.234774 29.234076 0.234117 1.716165 0.088688 -0.020299 136783.000000 0 0 1
-27.628165 -6.973206 -2.965474 28.648476 0.247231 1.674495 0.090879 -0.013409 -408357.000000 0 0 1
-26.877915 -5.772406 -2.265374 27.583962 0.211550 1.653015 0.099767 -0.012334 468847.000000 0 0 1
-27.769745 -4.699106 -1.936574 28.231023 0.167629 1.639448 0.098850 -0.018025 332772.000000 0 0 1
-27.170865 -3.750506 -1.086074 27.449987 0.137167 1.610372 0.094994 -0.026278 -624056.000000 0 0 1
-28.099195 -2.698506 -0.397274 28.231269 0.095741 1.584869 0.098562 -0.035377 -283094.000000 0 0 1
-28.954655 -3.301706 0.525326 29.147029 0.113540 1.552772 0.091577 -0.027604 -108434.000000 0 0 1
-28.387145 -3.386306 1.815526 28.645999 0.118729 1.507376 0.090790 -0.029307 210963.000000 0 0 1
-29.449655 -3.684306 2.937226 29.824212 0.124459 1.472152 0.078384 -0.024667 418810.000000 0 0 1
-29.897675 -5.033206 3.030726 30.469484 0.166784 1.471164 0.078021 -0.021600 97729.100000 0 0 1
-31.013455 -5.102206 3.883626 31.669378 0.163055 1.447857 0.079383 -0.027817 -401460.000000 0 0 1
-31.685105 -6.487906 3.975426 32.585930 0.201970 1.448493 0.067660 -0.018572 -620915.000000 0 0 1
-31.014865 -7.532206 4.576326 32.242810 0.238246 1.428382 0.061880 -0.011417 246900.000000 0 0 1
-31.676105 -8.775806 4.294426 33.148643 0.270269 1.440881 0.066698 -0.005755 771115.000000 0 0 1
-30.647865 -9.905806 4.688026 32.548337 0.312615 1.426261 0.063361 -0.011042 630494.000000 0 0 1
-30.791805 -10.341206 6.018826 33.034862 0.324007 1.387577 0.053608 -0.018175 247869.000000 0 0 1
-29.658785 -11.105406 6.362926 32.302638 0.358279 1.372521 0.041343 -0.014106 -71165.200000 0 0 1
-29.670955 -11.458706 7.849726 32.761040 0.368547 1.328837 0.044768 -0.016666 -66643.300000 0 0 1
-29.572755 -10.302806 8.647126 32.487974 0.335238 1.301385 0.064360 -0.012844 387792.000000 0 0 1
-29.658535 -10.610406 10.044426 33.062062 0.343564 1.262112 0.073974 -0.015388 -458683.000000 0 0 1
-29.694525 -9.326606 10.903926 32.979479 0.304328 1.233828 0.069219 -0.015705 -960086.000000 0 0 1
-28.525375 -8.596506 10.921226 31.731217 0.292707 1.219432 0.070719 -0.016168 -527381.000000 0 0 1
-28.656805 -7.441206 11.749326 31.853269 0.254055 1.193016 0.084993 -0.023428 -283225.000000 0 0 1
-27.608095 -6.392206 11.422626 30.553946 0.227525 1.187639 0.087430 -0.016824 -420009.000000 0 0 1
-27.835555 -5.826606 10.121726 30.186368 0.206343 1.228864 0.090913 -0.018041 369775.000000 0 0 1
-27.321025 -4.512406 9.935426 29.419601 0.163685 1.226309 0.091376 -0.021922 -306587.000000 0 0 1
-27.599995 -3.943306 8.586426 29.172524 0.141913 1.272039 0.098785 -0.022754 -604265.000000 0 0 1
-26.741805 -4.315506 7.566626 28.124750 0.159997 1.298402 0.095670 -0.016512 -227217.000000 0 0 1
-26.977355 -3.713706 6.367426 27.966291 0.136800 1.341100 0.095987 -0.022429 -849535.000000 0 0 1
-26.036625 -4.101506 5.268726 26.879131 0.156244 1.373503 0.090016 -0.013717 349783.000000 0 0 1
-24.659235 -3.709106 5.519526 25.540175 0.149295 1.352966 0.117934 -0.026721 1065600.000000 0 0 1
-23.945935 -4.021106 4.401726 24.676959 0.166372 1.391463 0.119845 -0.023215 -425731.000000 0 1 0
-22.446935 -3.624906 4.491526 23.177115 0.160106 1.375771 0.121246 -0.022656 231774.000000 0 1 0
-22.153635 -2.262306 4.288926 22.678106 0.101766 1.380529 0.102499 -0.025594 409.864000 0 1 0
-20.818235 -1.906306 4.513326 21.386983 0.091314 1.358166 0.083334 -0.021683 -745846.000000 0 1 0
-20.562535 -0.418006 4.706226 21.098369 0.020326 1.345843 0.071058 -0.025605 -488649.000000 0 1 0
-20.749835 0.394794 3.556526 21.056125 -0.019024 1.401076 0.080332 -0.021993 590872.000000 0 1 0
-22.026435 0.953194 3.330126 22.297134 -0.043248 1.420883 0.088712 -0.030043 -173664.000000 0 1 0
-21.956435 2.068294 2.296526 22.172887 -0.093923 1.467037 0.099776 -0.024406 -107835.000000 0 1 0
-21.177835 3.143594 2.825926 21.595573 -0.147362 1.439563 0.068770 -0.025361 494828.000000 0 1 0
-21.220135 4.366494 2.087626 21.765077 -0.202939 1.474732 0.071956 -0.017416 334017.000000 0 1 0
-20.185935 4.518294 0.891526 20.704632 -0.220204 1.527724 0.048634 -0.009821 -619950.000000 0 1 0
-20.677535 5.254294 -0.227274 21.335879 -0.248840 1.581449 0.076387 -0.000933 1445020.000000 0 1 0
-21.775935 4.677594 -0.986574 22.294497 -0.211590 1.615063 0.113757 -0.019937 728213.000000 0 1 0
-21.415235 3.336294 -1.790974 21.747431 -0.154548 1.653243 0.114814 -0.012283 -270849.000000 0 1 0
-21.016035 2.274694 -0.980774 21.161519 -0.107816 1.617160 0.064426 -0.013360 453413.000000 0 1 0
-20.553835 1.249994 -1.801974 20.670504 -0.060741 1.658083 0.054558 -0.004412 -302321.000000 0 1 0
-19.812735 0.170694 -0.992074 19.838292 -0.008615 1.620825 0.054849 -0.006961 -62970.000000 0 1 0
-20.733635 -0.623206 -0.230374 20.744279 0.030049 1.581902 0.076708 -0.013289 1015510.000000 0 1 0
-20.174135 -1.487606 0.748726 20.242759 0.073605 1.533801 0.079446 -0.013948 -129957.000000 0 1 0
-19.259935 -2.651606 0.253526 19.443261 0.136815 1.557757 0.044658 -0.009145 543266.000000 0 1 0
-18.443335 -3.216106 1.305526 18.767109 0.172642 1.501176 0.042321 -0.009205 612652.000000 0 1 0
-17.653235 -4.304006 0.932926 18.194272 0.239143 1.519498 0.024149 -0.004976 -248551.000000 0 1 0
-18.362235 -5.706206 0.668126 19.240033 0.301297 1.536064 0.019959 -0.001297 -248026.000000 0 1 0
-18.877435 -6.155806 1.910926 19.947510 0.315220 1.474851 0.024375 -0.011357 114760.000000 0 1 0
-20.160235 -6.698906 1.766226 21.317364 0.320805 1.487847 0.058531 -0.010995 -449485.000000 0 1 0
-20.793935 -7.004406 3.152026 22.167199 0.324911 1.428119 0.071292 -0.012502 -395476.000000 0 1 0
-20.126535 -7.977606 3.910826 22.000323 0.377375 1.392084 0.066975 -0.010799 253492.000000 0 1 0
-20.882935 -8.439006 4.991826 23.070157 0.384045 1.352695 0.069001 -0.011750 -172605.000000 0 1 0
-20.085535 -9.325306 5.964926 22.934045 0.434665 1.307680 0.067612 -0.004302 -123946.000000 0 1 0
-19.677735 -10.518106 5.336726 22.941763 0.490879 1.336025 0.067734 -0.004541 347083.000000 0 1 0
-18.587235 -11.083506 6.050626 22.470859 0.537692 1.298166 0.066160 -0.009908 83390.000000 0 1 0
-18.132935 -12.337906 5.310026 22.565985 0.597460 1.333258 0.051399 -0.006156 -60583.500000 0 1 0
-19.037335 -13.399406 5.507726 23.922777 0.613304 1.338483 0.068885 -0.004349 272922.000000 0 1 0
-18.507635 -14.508706 4.854126 24.012448 0.664866 1.367243 0.059047 -0.002978 626062.000000 0 1 0
-19.240035 -15.851706 5.246026 25.475014 0.689140 1.363384 0.065160 -0.010740 268354.000000 0 0 1
-18.325435 -16.855906 4.960526 25.387989 0.743652 1.374143 0.059800 -0.018971 -125320.000000 0 0 1
-18.928835 -17.998206 5.362726 26.664491 0.760202 1.368297 0.055229 -0.014905 -448055.000000 0 0 1
-18.121635 -19.285406 5.275926 26.984365 0.816499 1.374011 0.057930 -0.018884 -587961.000000 0 0 1
-17.960035 -19.866706 3.987026 27.076656 0.835761 1.423009 0.059516 -0.023512 467693.000000 0 0 1
-17.124035 -21.019406 3.938526 27.396351 0.887170 1.426535 0.054224 -0.026431 -488217.000000 0 0 1
-15.617435 -20.882406 3.929126 26.370764 0.928656 1.421244 0.052422 -0.021301 -981742.000000 0 0 1
-14.972135 -22.095506 3.972326 26.984359 0.975256 1.423051 0.044166 -0.020257 -1085780.000000 0 0 1
-13.587735 -22.013606 4.058626 26.185833 1.017795 1.415176 0.033798 -0.015121 -508334.000000 0 0 1
-12.903935 -23.419506 4.273426 27.078534 1.067193 1.412318 0.039932 -0.007411 -56894.800000 0 0 1
-13.042935 -24.269406 3.198926 27.737256 1.077660 1.455210 0.047750 -0.015612 -288156.000000 0 0 1
-12.441135 -25.492186 3.481826 28.578953 1.116765 1.448661 0.048969 -0.017965 -198719.000000 0 0 1
18.060065 19.315094 -24.476874 36.032709 0.818965 2.317599 0.048320 -0.010162 -294356.000000 0 0 1
17.491265 19.703494 -25.660324 36.778040 0.844805 2.342989 0.038352 -0.015142 -319253.000000 0 0 1
18.223465 19.395194 -26.824464 37.786506 0.816536 2.360146 0.050226 -0.009458 -450219.000000 0 0 1
17.348265 19.525894 -28.046534 38.325329 0.844385 2.391758 0.045928 -0.006405 -136649.000000 0 0 1
17.160065 20.945194 -28.297864 39.165521 0.884407 2.378236 0.040884 -0.003277 -313898.000000 0 0 1
16.052965 21.093494 -29.119704 39.377535 0.920268 2.403124 0.039012 -0.009962 -611589.000000 0 0 1
15.742965 22.606094 -29.342264 40.247296 0.962488 2.387728 0.052634 -0.020778 -542726.000000 0 0 1
15.190965 23.294394 -28.264024 39.651598 0.992925 2.364292 0.053025 -0.023338 199179.000000 0 0 1
15.047165 24.695394 -28.644904 40.703933 1.023559 2.351442 0.064510 -0.022535 -335942.000000 0 0 1
14.158065 25.534494 -27.738024 40.272312 1.064529 2.330576 0.063168 -0.030141 -896655.000000 0 0 1
12.863865 25.046894 -27.672554 39.479059 1.096335 2.347515 0.070020 -0.033234 -901869.000000 0 0 1
12.105865 25.755894 -26.719924 39.036808 1.131417 2.324687 0.065591 -0.029259 -475247.000000 0 0 1
10.689165 25.188094 -26.368124 37.999688 1.169456 2.337693 0.080240 -0.032018 928468.000000 0 0 1
9.887965 26.002794 -25.527774 37.756911 1.207417 2.313265 0.067690 -0.029034 211231.000000 0 0 1
9.433165 27.180294 -26.237864 38.938136 1.236744 2.310183 0.083651 -0.036603 -884670.000000 0 0 1
8.959465 28.252494 -25.238164 38.928657 1.263707 2.276170 0.074405 -0.027193 347361.000000 0 0 1
10.025465 28.730594 -24.388774 38.997041 1.235060 2.246441 0.067110 -0.022490 445329.000000 0 0 1
9.561765 29.577994 -23.397674 38.906763 1.258127 2.216021 0.070710 -0.026174 256215.000000 0 0 1
10.531865 29.944194 -22.166274 38.715870 1.232593 2.180393 0.040906 -0.013885 717952.000000 0 0 1
11.584565 30.830894 -22.533774 39.906354 1.211372 2.170825 0.039203 -0.022852 168587.000000 0 0 1
12.277965 31.236094 -21.372074 39.789540 1.196279 2.137825 0.010462 -0.010287 -242481.000000 0 0 1
13.581065 31.974094 -21.732174 40.976522 1.169136 2.129818 0.006065 -0.000235 -172570.000000 0 0 1
14.512465 31.095494 -22.355274 40.954849 1.134137 2.148202 0.009651 -0.007449 -255722.000000 0 0 1
15.539265 31.875394 -22.930574 42.229382 1.117198 2.144802 0.005810 0.000406 87702.500000 0 0 1
16.830465 31.131594 -23.345274 42.396255 1.075181 2.153933 -0.001881 -0.000217 76959.000000 0 0 1
17.640165 30.769394 -22.247974 41.867688 1.050239 2.131034 -0.000133 0.004443 -17346.200000 0 0 1
18.832165 30.237094 -22.823274 42.306431 1.013769 2.140610 0.009089 -0.001609 -171232.000000 0 0 1
19.774165 29.594894 -21.800774 41.739059 0.981760 2.120355 0.016432 0.004443 -248483.000000 0 0 1
20.377965 30.492794 -20.885774 42.205301 0.981672 2.088472 0.023349 0.008308 -54308.900000 0 0 1
21.316365 29.786994 -20.122674 41.792037 0.949660 2.073156 0.046625 0.002297 -65446.800000 0 0 1
22.070665 30.565194 -19.040274 42.235972 0.945402 2.038466 0.055980 0.004772 44173.400000 0 0 1
23.046065 31.490094 -19.482274 43.615434 0.939012 2.033851 0.072838 0.000881 409522.000000 0 0 1
23.733665 32.083294 -18.366674 43.931302 0.933887 2.002124 0.068373 0.002858 17481.700000 0 0 1
25.095165 32.716594 -18.679474 45.266605 0.916474 1.996163 0.077735 -0.003093 247952.000000 0 0 1
26.175565 31.818994 -18.886374 45.324427 0.882402 2.000601 0.081897 0.004876 679563.000000 0 0 1
27.432365 32.513694 -18.927374 46.560932 0.869961 1.989425 0.079293 -0.003228 898799.000000 0 0 1
28.597165 31.685394 -19.510174 46.929829 0.836583 1.999542 0.077727 -0.002615 280771.000000 0 0 1
29.050465 30.520894 -18.737974 46.114706 0.810077 1.989235 0.071884 0.013066 972085.000000 0 0 1
30.301665 29.981094 -19.229274 46.763467 0.780080 1.994570 0.047758 0.005292 935348.000000 0 0 1
30.920165 28.799394 -18.420574 46.095327 0.749901 1.981898 0.031424 0.007800 -254560.000000 0 0 1
31.349265 29.205294 -17.169374 46.157480 0.750007 1.951931 0.024934 0.018126 -129329.000000 0 0 1
31.671565 28.144494 -16.294674 45.395120 0.726501 1.937941 0.023661 0.007233 6914.060000 0 0 1
32.019865 28.682894 -14.862274 45.484803 0.730481 1.903662 0.018508 0.012863 -47436.700000 0 0 1
33.216565 29.421494 -14.770074 46.766650 0.724885 1.892122 -0.005161 0.023592 -189973.000000 0 0 1
33.026765 30.828694 -14.864374 47.561803 0.750989 1.888649 0.005626 0.014918 354984.000000 0 0 1
34.376665 31.626094 -14.938674 49.042113 0.743749 1.880324 0.017243 0.008444 679740.000000 0 0 1
35.107765 31.737694 -13.743274 49.281984 0.735025 1.853414 0.011983 0.008285 -621659.000000 0 0 1
-36.356140 32.276694 -14.014074 50.595930 -0.726029 1.851446 0.050383 -0.013698 -735042.000000 0 0 1
-35.617040 32.423994 -12.695974 49.810407 -0.738504 1.828526 0.043356 0.001081 -553536.000000 0 0 1
-36.096140 33.417994 -11.791774 50.583985 -0.746891 1.806074 0.031080 -0.003838 -430053.000000 0 0 1
-35.138940 33.739494 -10.872274 49.912973 -0.765083 1.790381 0.032481 0.001093 -493877.000000 0 0 1
-35.758740 -33.583423 -9.871774 50.039842 0.754038 1.769377 0.017826 0.003142 390865.000000 0 0 1
-34.901340 -33.022723 -8.883374 48.862237 0.757748 1.753618 0.015383 0.001763 -180679.000000 0 0 1
-34.503040 -33.889423 -7.844574 48.994797 0.776426 1.731599 0.001355 0.005204 81936.600000 0 0 1
-34.078340 -33.056523 -6.547874 47.926419 0.770179 1.707848 0.006273 0.009005 302444.000000 0 0 1
-35.124740 -32.231023 -6.029574 48.051452 0.742463 1.696610 -0.009268 0.012869 -35355.800000 0 0 1
-34.600940 -31.176923 -5.275074 46.872722 0.733391 1.683576 0.023242 0.007282 -232701.000000 0 0 1
-35.732340 -30.344723 -4.687774 47.112393 0.704043 1.670463 -0.000964 0.011963 -372031.000000 0 0 1
36.203765 -30.951023 -3.714374 47.775255 -0.707339 1.648622 -0.006904 0.010328 -621677.000000 0 0 1
34.908965 -30.431723 -3.701674 46.458885 -0.716984 1.650557 0.000658 0.012992 -320350.000000 0 0 1
34.558365 -29.421123 -2.568774 45.458571 -0.705275 1.627334 0.009749 0.010461 -47359.100000 0 0 1
35.114465 -28.156123 -2.921874 45.103550 -0.675861 1.635623 0.021928 0.011270 175360.000000 0 0 1
34.409665 -27.216923 -2.190074 43.927012 -0.669209 1.620674 0.026378 0.004909 -197533.000000 0 0 1
34.553365 -25.723623 -2.548074 43.152433 -0.639947 1.629879 0.049307 -0.001571 -167173.000000 0 0 1
33.878165 -25.345623 -3.737574 42.474700 -0.642310 1.658906 0.051231 -0.009395 572536.000000 0 0 1
34.234965 -24.011123 -4.005574 42.007279 -0.611640 1.666296 0.054870 -0.016106 -245990.000000 0 0 1
33.976765 -23.581723 -5.452374 41.716263 -0.606724 1.701873 0.050692 -0.018455 -223068.000000 0 0 1
34.963065 -23.912523 -6.422074 42.842359 -0.599864 1.721264 0.043292 -0.017947 268913.000000 0 0 1
34.717365 -23.276223 -7.672174 42.496355 -0.590617 1.752329 0.037569 -0.024246 -143560.000000 0 0 1
35.961565 -23.176123 -8.596374 43.637879 -0.572477 1.769087 0.038265 -0.024756 76700.500000 0 0 1
-36.274540 -24.425923 -9.052974 44.658978 0.592624 1.774924 0.018916 -0.005311 44659.800000 0 0 1
-35.118140 -24.212523 -9.846674 43.777701 0.603616 1.797662 0.035647 -0.006875 248462.000000 0 0 1
-34.669140 -25.411723 -10.727574 44.303339 0.632518 1.815366 0.018508 -0.007279 -513058.000000 0 0 1
-34.102540 -26.513823 -10.109074 44.363943 0.660854 1.800683 0.026133 0.007549 -93342.900000 0 0 1
-35.022740 -27.420823 -9.504274 45.484339 0.664254 1.781305 0.015533 -0.000721 -56744.500000 0 0 1
-34.367640 -28.648323 -8.801474 45.599639 0.694886 1.765032 0.010414 0.005348 37487.500000 0 0 1
-33.715240 -29.425823 -9.800674 45.811022 0.717569 1.786400 0.019873 0.003408 -13850.700000 0 0 1
-33.050240 -30.550223 -9.277574 45.953323 0.746110 1.774085 0.029795 -0.002786 -110264.000000 0 0 1
-32.423040 -31.391623 -10.429074 46.319037 0.769237 1.797901 0.044328 -0.005641 310263.000000 0 0 1
-31.163340 -30.896923 -10.898274 45.216657 0.781105 1.814217 0.035769 0.002630 700179.000000 0 0 1
-30.790040 -31.562123 -12.113474 45.726693 0.797780 1.838907 0.022871 -0.001635 -136329.000000 0 0 1
-31.027240 -30.691623 -13.409274 45.656040 0.779960 1.868894 0.002556 0.002994 -127944.000000 0 0 1
-30.179340 -29.548023 -13.611674 44.375173 0.774829 1.882563 -0.000008 0.007902 186847.000000 0 0 1
-30.473340 -29.089623 -14.889874 44.682648 0.762171 1.910530 -0.020327 0.014638 -258062.000000 0 0 1
-29.506440 -28.064523 -15.478574 43.564134 0.760357 1.934037 -0.015342 0.008790 -490646.000000 0 0 1
-28.265840 -28.597623 -15.824274 43.210988 0.791233 1.945729 -0.007268 0.007116 -87574.100000 0 0 1
-27.361740 -27.631323 -16.444274 42.220481 0.790300 1.970869 0.021153 0.013974 830596.000000 0 0 1
-26.080440 -28.386323 -16.878074 42.081375 0.827708 1.983494 0.039447 0.001873 -214316.000000 0 0 1
-26.344340 -29.116723 -18.076574 43.226964 0.835345 2.002235 0.024512 0.005191 265721.000000 0 0 1
-26.571640 -28.363523 -19.297074 43.392610 0.818005 2.031645 0.016059 0.001819 -127705.000000 0 0 1
-25.260640 -27.831723 -19.922574 42.539555 0.833787 2.058197 0.044296 0.001430 91035.200000 0 0 1
-24.769840 -26.759223 -19.208274 41.213576 0.823986 2.055636 0.038684 0.006771 333585.000000 0 0 1
-23.344940 -26.638723 -19.176074 40.278153 0.851200 2.067001 0.068349 -0.010077 725444.000000 0 0 1
-22.838440 -25.475623 -18.349274 38.823931 0.839928 2.063067 0.061741 -0.003952 -227913.000000 0 0 1
-23.226640 -25.612523 -16.976274 38.518464 0.834211 2.027209 0.065988 -0.003059 343949.000000 0 0 1
-22.912540 -24.406423 -16.317174 37.241216 0.816958 2.024334 0.071469 -0.004271 -197046.000000 0 0 1
-23.037140 -24.451523 -14.791074 36.706440 0.815173 1.985541 0.048135 0.000200 496057.000000 0 0 1
-24.395140 -24.211623 -14.423374 37.274110 0.781623 1.968123 0.017630 0.018372 431447.000000 0 0 1
-24.589940 -24.188923 -12.997574 36.860631 0.777177 1.931159 0.017068 0.021073 -246209.000000 0 0 1
-26.061140 -24.246523 -12.581374 37.754045 0.749343 1.910540 0.021231 0.028202 -1094220.000000 0 0 1
-26.721640 -25.434723 -12.932374 39.092423 0.760729 1.907964 0.025491 0.019504 151962.000000 0 0 1
-28.053540 -25.547623 -12.478774 39.942484 0.738681 1.888534 0.021112 0.019770 -228218.000000 0 0 1
-29.143840 -24.679223 -13.102174 40.374428 0.702638 1.901297 0.022771 0.015480 -1720460.000000 0 0 1
-29.204040 -23.336423 -12.587274 39.444950 0.674181 1.895586 0.028613 0.012435 278729.000000 0 0 1
-29.782340 -23.154923 -11.259774 39.369033 0.660852 1.860852 0.047838 0.006806 972148.000000 0 0 1
-31.293340 -23.644423 -11.156774 40.777512 0.647059 1.847931 0.030816 0.004892 1277180.000000 0 0 1
-32.314140 -22.752223 -11.678374 41.209850 0.613469 1.858121 0.059051 -0.006265 751832.000000 0 0 1
-32.444440 -22.807523 -13.084274 41.761502 0.612718 1.889472 0.062370 -0.005263 -1617610.000000 0 0 1
-33.771140 -22.300323 -13.606274 42.695726 0.583608 1.895133 0.032449 -0.013530 -1099130.000000 0 0 1
-34.691540 -23.304223 -13.260174 43.845433 0.591517 1.878037 0.038912 -0.012858 -536864.000000 0 0 1
-35.987140 -22.905023 -13.697674 44.803355 0.566811 1.881500 0.067361 -0.022806 -417289.000000 0 0 1
35.781365 -23.856023 -13.005874 44.928484 -0.588037 1.864479 0.066819 -0.012709 -968968.000000 0 0 1
35.715265 -25.186723 -13.589374 45.767043 -0.614213 1.872267 0.052817 -0.006676 63461.300000 0 0 1
34.730365 -26.002923 -13.002974 45.292688 -0.642674 1.861981 0.053309 -0.015458 78010.700000 0 0 1
34.421965 -27.344523 -13.729974 46.055475 -0.671312 1.873517 0.047476 -0.024158 499014.000000 0 0 1
33.626365 -27.186923 -14.917274 45.742609 -0.679903 1.902986 0.057324 -0.027977 191400.000000 0 0 1
33.386365 -28.376723 -15.641474 46.524654 -0.704465 1.913673 0.050999 -0.008349 127424.000000 0 0 1
32.529465 -28.288923 -16.938374 46.317791 -0.715786 1.945180 0.051974 -0.024406 1224980.000000 0 0 1
31.095665 -28.303623 -16.783974 45.274024 -0.738428 1.950580 0.059330 -0.023015 752539.000000 0 0 1
30.457965 -28.151123 -18.004074 45.214157 -0.746059 1.980345 0.063796 -0.028882 89493.900000 0 0 1
28.912565 -28.186523 -17.906174 44.170664 -0.772683 1.988197 0.057967 -0.031373 63667.600000 0 0 1
28.430365 -27.143923 -17.140174 42.881975 -0.762254 1.981992 0.054338 -0.026651 -272362.000000 0 0 1
27.017065 -27.123223 -17.139374 41.944596 -0.787359 1.991737 0.062752 -0.023645 -25135.500000 0 0 1
26.489065 -26.081223 -16.098774 40.510138 -0.777640 1.979479 0.049741 -0.025121 -244340.000000 0 0 1
26.658065 -24.722323 -16.502474 39.927150 -0.747741 1.996887 0.049109 -0.030966 -15098.700000 0 0 1
26.363865 -23.885223 -15.403974 38.766476 -0.736111 1.979427 0.050237 -0.024344 -476128.000000 0 0 1
26.074865 -22.424623 -15.737474 37.821031 -0.710276 1.999953 0.054661 -0.024248 924657.000000 0 0 1
24.689965 -22.128623 -16.013274 36.819767 -0.730745 2.020734 0.053522 -0.028906 906547.000000 0 0 1
24.444865 -20.742223 -16.250674 35.942672 -0.703641 2.039946 0.051155 -0.025686 405904.000000 0 0 1
22.930665 -20.377023 -16.224774 34.702763 -0.726501 2.057297 0.049585 -0.023419 224046.000000 0 0 1
22.379165 -20.588723 -14.934274 33.878534 -0.743753 2.027306 0.055118 -0.022451 1109500.000000 0 0 1
20.999465 -20.151223 -14.893874 32.693681 -0.764788 2.043795 0.049087 -0.024120 1092990.000000 0 0 1
20.774565 -18.793223 -14.139374 31.379765 -0.735365 2.038221 0.034303 -0.016544 -245059.000000 0 0 1
20.672965 -18.909423 -12.719774 30.768984 -0.740874 1.996977 0.041587 -0.022663 190219.000000 0 0 1
20.373865 -17.687423 -12.111174 29.573972 -0.714933 1.992726 0.043684 -0.031239 -5887.210000 0 0 1
19.446465 -17.762623 -10.842774 28.482302 -0.740176 1.961333 0.051037 -0.019487 185257.000000 0 0 1
20.123065 -18.298223 -9.734774 28.888207 -0.737938 1.914505 0.049407 -0.026729 225824.000000 0 0 1
19.196665 -18.528823 -8.702174 28.063447 -0.767697 1.886083 0.045742 -0.029631 248251.000000 0 0 1
19.899865 -19.290923 -7.520274 28.717570 -0.769862 1.835756 0.052543 -0.030922 836371.000000 0 0 1
20.911765 -18.523723 -6.827274 28.758336 -0.724916 1.810486 0.053848 -0.032424 354171.000000 0 0 1
21.556465 -19.267023 -5.837074 29.495267 -0.729375 1.770010 0.056583 -0.023261 -54973.100000 0 0 1
22.931765 -18.614523 -5.500474 30.043660 -0.681856 1.754918 0.055330 -0.019141 259924.000000 0 0 1
23.834465 -18.840823 -6.603474 31.091224 -0.668913 1.784817 0.037392 -0.029965 82183.300000 0 0 1
24.640065 -17.708623 -6.712274 31.077045 -0.623161 1.788500 0.038602 -0.022932 -609534.000000 0 0 1
25.756565 -17.811223 -7.778974 32.266898 -0.605013 1.814277 0.050609 -0.037504 -53447.600000 0 0 1
26.680065 -18.842023 -7.509174 33.514704 -0.614889 1.796771 0.069626 -0.047040 93161.200000 0 0 1
26.481865 -19.969423 -8.320674 34.195038 -0.646107 1.816594 0.072659 -0.050854 -383952.000000 0 0 1
27.344365 -21.240023 -8.017274 35.540534 -0.660409 1.798336 0.078264 -0.053156 227357.000000 0 0 1
28.700065 -20.920423 -8.300274 36.472625 -0.629881 1.800383 0.070439 -0.029871 139720.000000 0 0 1
29.444165 -22.105823 -8.032374 37.684815 -0.643994 1.785590 0.082874 -0.042884 -127923.000000 0 0 1
-29.876095 29.926594 3.876226 42.464187 -0.786243 1.479387 0.043404 -0.018877 284780.000000 0 0 1
-29.160215 31.019994 3.325526 42.703832 -0.816292 1.492843 0.036666 -0.012959 -87368.300000 0 0 1
-28.170765 31.605294 4.156026 42.541264 -0.842792 1.472946 0.028113 -0.005630 305589.000000 0 0 1
-27.591355 32.889294 3.437926 43.067480 -0.872772 1.490885 0.030857 -0.011087 -309234.000000 0 0 1
-26.756975 32.567794 2.363726 42.215923 -0.883036 1.514776 0.034687 -0.006459 -166671.000000 0 0 1
-26.218685 33.613494 1.607126 42.659926 -0.908367 1.533114 0.046523 -0.021737 -631816.000000 0 0 1
-24.948135 -34.100623 2.068126 42.302945 0.939173 1.521888 0.044326 -0.020919 -696221.000000 0 0 1
-23.798635 33.524994 1.981726 41.160995 -0.953472 1.522632 0.039134 -0.027182 -1016430.000000 0 0 1
-22.683335 34.123094 2.563026 41.054699 -0.984122 1.508326 0.031491 -0.022716 -555163.000000 0 0 1
-21.378335 33.527594 2.057826 39.816672 -1.003163 1.519091 0.036534 -0.020844 -404432.000000 0 0 1
-21.030635 34.100294 0.809626 40.072099 -1.018167 1.550591 0.058587 -0.030548 -924523.000000 0 0 1
-19.702335 33.858094 0.503026 39.176595 -1.043785 1.557956 0.063801 -0.027568 -1128600.000000 0 0 1
-19.277635 -33.817823 -0.844374 38.935657 1.052695 1.592484 0.064766 -0.025491 1677.270000 0 0 1
-19.035635 -32.423523 -0.800374 37.606926 1.039921 1.592081 0.074993 -0.028336 610285.000000 0 0 1
-18.014435 -32.018223 0.128926 36.738306 1.058308 1.567287 0.083379 -0.022125 -57495.100000 0 0 1
-17.869235 -30.460823 0.185826 35.315802 1.040266 1.565534 0.095240 -0.027643 -35308.000000 0 0 1
-17.012035 -29.924723 -0.829774 34.432353 1.053865 1.594897 0.095500 -0.020973 288449.000000 0 0 1
-16.900335 -28.534023 -0.622074 33.169245 1.036067 1.589552 0.075939 -0.020810 70958.900000 0 0 1
-15.872735 -27.887823 -1.580574 32.127444 1.053359 1.620013 0.074923 -0.014005 -49662.800000 0 0 1
-16.299435 -28.010423 -2.926474 32.539509 1.043787 1.660854 0.072310 -0.007271 -540279.000000 0 0 1
-15.355635 -27.650523 -3.858574 31.862762 1.063857 1.692194 0.059603 0.006942 -675464.000000 0 0 1
-15.912335 -27.744423 -5.269674 32.414887 1.050065 1.734091 0.072714 -0.001761 323869.000000 0 0 1
-16.815035 -26.659323 -5.528674 32.000487 1.008082 1.744436 0.073683 -0.000550 -79459.300000 0 0 1
-17.201235 -26.583723 -6.884674 32.403327 0.996491 1.784896 0.076616 -0.005189 -9715.770000 0 0 1
-18.194635 -25.433423 -7.044174 32.055018 0.949821 1.792357 0.065290 0.001261 -56836.200000 0 0 1
-17.555135 -24.247723 -6.632174 30.661386 0.944150 1.788823 0.054723 0.012391 25194.200000 0 0 1
-18.106435 -23.099423 -7.222774 30.225731 0.905982 1.812092 0.033893 0.009486 -116257.000000 0 0 1
-17.142635 -21.914523 -7.096074 28.713595 0.906973 1.820517 0.038034 0.010874 357141.000000 0 0 1
-16.013335 -22.010523 -7.940574 28.353884 0.941831 1.854645 0.062095 0.002303 -1065390.000000 0 0 1
-14.862135 -21.473523 -7.398074 27.142711 0.965382 1.846851 0.081305 -0.010554 13011.300000 0 0 1
-13.750935 -21.374523 -8.492474 26.797026 0.999122 1.893275 0.065834 -0.008229 257906.000000 0 0 1
-14.105435 -20.424423 -9.487574 26.573190 0.966396 1.935889 0.071152 -0.003935 379562.000000 0 0 1
-13.073435 -20.394623 -10.489474 26.398569 1.000757 1.979424 0.052916 0.002898 649636.000000 0 0 1
-13.462635 -19.419623 -11.564374 26.307776 0.964616 2.025927 0.048875 -0.001440 110395.000000 0 0 1
-14.460735 -19.914023 -12.476274 27.592365 0.942729 2.039986 0.048674 0.010364 74109.700000 0 0 1
-14.594335 -19.092023 -13.592574 27.609021 0.918130 2.085554 0.035103 -0.000043 111292.000000 0 0 1
-15.793135 -19.535023 -14.470474 28.990255 0.890923 2.093413 0.043740 -0.000214 288076.000000 0 0 1
-17.057435 -19.370223 -13.881774 29.306404 0.848803 2.064258 0.065386 -0.005194 435992.000000 0 0 1
-18.165735 -19.737223 -14.729874 30.602633 0.826835 2.072964 0.053323 0.003644 201835.000000 0 0 1
-19.507535 -19.460823 -14.068574 30.938525 0.784199 2.042862 0.045821 0.013459 -670482.000000 0 0 1
-20.551035 -20.043523 -14.779274 32.287998 0.772897 2.046240 0.050404 0.002112 -327723.000000 0 0 1
-21.856635 -19.765123 -14.334474 32.769647 0.735190 2.023537 0.040024 0.006098 863043.000000 0 0 1
-23.042835 -20.447223 -15.129474 34.321454 0.725786 2.027305 0.038929 -0.000077 336279.000000 0 0 1
-23.112635 -19.871723 -16.444274 34.633704 0.710143 2.065539 0.039317 -0.012089 53935.500000 0 0 1
-23.821335 -20.667923 -17.333274 35.986962 0.714636 2.073338 0.043224 -0.016738 -334778.000000 0 0 1
-24.094635 -20.097723 -18.759374 36.556587 0.695200 2.109659 0.040349 -0.013072 -273966.000000 0 0 1
-22.927935 -19.813823 -19.474274 36.021177 0.712668 2.141987 0.028134 -0.011268 -305200.000000 0 0 1
-23.214035 -19.400623 -20.792474 36.709707 0.696150 2.172931 0.028054 -0.007845 -377059.000000 0 0 1
-22.073235 -18.747123 -21.579474 36.115870 0.704096 2.211184 0.018424 0.005186 -189761.000000 0 0 1
-21.022935 -19.616223 -21.949874 36.173982 0.750797 2.222807 0.010319 0.007502 -763067.000000 0 0 1
-20.028235 -18.854823 -22.525674 35.553348 0.755229 2.256960 0.009262 0.006208 -387532.000000 0 0 1
-18.740835 -19.659423 -22.854274 35.496897 0.809315 2.270301 0.019381 0.010451 22341.500000 0 0 1
-18.904035 -20.817623 -23.702074 36.776682 0.833536 2.271148 0.004871 0.017991 -974775.000000 0 0 1
-17.705635 -21.484223 -23.842974 36.654451 0.881519 2.279012 0.003217 0.016326 -758785.000000 0 0 1
-17.754335 -22.908223 -24.359174 37.859906 0.911474 2.269732 0.011510 0.011434 -183001.000000 0 0 1
-17.920735 -22.980323 -25.748924 38.887724 0.908476 2.294461 0.016144 0.017620 45474.500000 0 0 1
-18.004835 -24.336223 -26.214714 40.045438 0.933831 2.284482 0.025916 0.005192 43126.500000 0 0 1
-18.209035 -24.486923 -27.707174 41.217301 0.931389 2.308002 0.019939 0.015268 314147.000000 0 0 1
-17.049435 -24.045323 -28.402734 40.933802 0.954020 2.337646 0.028854 0.015348 189493.000000 0 0 1
-17.025535 -24.509423 -29.745274 42.135045 0.963668 2.354561 0.031381 0.010974 943883.000000 0 0 1
-15.708635 -24.095823 -30.545104 41.956803 0.993070 2.386216 0.025267 -0.003254 667320.000000 0 0 1
-14.591035 -24.813123 -30.126284 41.667522 1.039220 2.378954 0.030019 0.000025 -456872.000000 0 0 1
-13.452735 -24.448623 -30.892644 41.630118 1.067765 2.406956 0.042487 -0.003835 -194326.000000 0 0 1
-12.260635 -25.313923 -30.555284 41.530029 1.119752 2.397554 0.057167 -0.006237 -1125520.000000 0 0 1
-12.492435 -26.574323 -31.134424 42.797289 1.131358 2.385447 0.045751 0.003340 88809.800000 0 0 1
-11.674035 -27.624323 -30.664464 42.891674 1.170960 2.367318 0.038810 0.000268 -402011.000000 0 0 1
-10.273235 -27.689123 -31.293844 43.029427 1.215519 2.385127 0.051056 -0.013315 -860026.000000 0 0 1
-9.480935 -26.715923 -30.723464 41.803827 1.229781 2.396380 0.071073 -0.031268 -751729.000000 0 0 1
-8.322235 -26.434123 -31.475354 41.937100 1.265791 2.419671 0.073296 -0.026221 -116441.000000 0 0 1
-7.447835 -25.334423 -30.845354 40.604669 1.284871 2.433572 0.101880 -0.038898 -378019.000000 0 0 1
-7.948335 -23.997523 -30.931924 39.947980 1.250954 2.456413 0.097415 -0.031624 374927.000000 0 0 1
-8.827635 -23.612123 -29.859724 39.077649 1.213025 2.440461 0.080273 -0.018005 371805.000000 0 0 1
-9.246335 -22.085623 -29.852224 38.267803 1.174309 2.465602 0.081469 -0.036788 220927.000000 0 0 1
-10.080335 -21.645523 -30.931014 39.075177 1.134963 2.484182 0.067856 -0.029338 149805.000000 0 0 1
-10.444635 -20.303723 -30.828814 38.363360 1.095680 2.504117 0.080960 -0.029011 -134192.000000 0 0 1
-11.218835 -19.777923 -32.010544 39.264532 1.054813 2.523963 0.067435 -0.020145 -357913.000000 0 0 1
-11.892635 -18.577423 -31.877534 38.765095 1.001365 2.536283 0.061118 -0.017714 -177847.000000 0 0 1
-12.533835 -18.301823 -33.106194 39.850644 0.970317 2.551262 0.050198 -0.014724 -268170.000000 0 0 1
-13.399735 -17.002623 -32.960684 39.434107 0.903355 2.560461 0.055322 -0.016082 338838.000000 0 0 1
-12.711735 -15.704423 -32.987284 38.683046 0.890328 2.592040 0.064475 -0.020233 258980.000000 0 0 1
-11.735635 -15.438123 -31.990444 37.409214 0.920817 2.596634 0.056083 -0.017694 275904.000000 0 0 1
-11.454435 -13.912923 -32.095794 36.809150 0.882012 2.629971 0.048526 -0.019633 -375871.000000 0 0 1
-10.655735 -13.481823 -33.180654 37.366563 0.901950 2.663724 0.053487 -0.026122 -670426.000000 0 0 1
-11.187935 -13.513123 33.974257 38.236430 0.879255 0.476663 0.057709 -0.023175 -764122.000000 0 0 1
-11.702635 -12.163523 33.337421 37.366919 0.804707 0.468683 0.057828 -0.018940 339322.000000 0 0 1
-12.979435 -11.752523 33.788172 38.055593 0.735830 0.478116 0.042172 -0.011131 -548970.000000 0 0 1
-13.588135 -10.886623 32.933739 37.253016 0.675464 0.486327 0.051545 -0.027341 295063.000000 0 0 1
-14.754735 -10.075523 33.549130 38.010032 0.599135 0.489349 0.069609 -0.030287 430451.000000 0 0 1
-14.192235 -9.137423 -33.996814 37.956494 0.572027 2.680751 0.059980 -0.027922 -230207.000000 0 0 1
-15.167135 -8.555223 -33.200864 37.490415 0.513576 2.658543 0.071603 -0.027992 -478733.000000 0 0 1
-14.626735 -7.478223 -32.359474 36.290505 0.472624 2.671837 0.071921 -0.045526 -548453.000000 0 0 1
-14.468735 -6.186323 -32.932384 36.498723 0.404041 2.695845 0.070805 -0.053843 401815.000000 0 0 1
-15.534735 -5.252223 -32.727034 36.605636 0.326030 2.677088 0.069935 -0.040918 255548.000000 0 0 1
-15.822035 -4.836223 -31.280704 35.386555 0.296645 2.655086 0.073818 -0.048410 -278721.000000 0 0 1
-16.391435 -5.904123 -30.511664 35.135445 0.345729 2.622765 0.075593 -0.052513 -206554.000000 0 0 1
-16.723735 -5.511823 -29.178344 34.079896 0.318370 2.598616 0.084501 -0.056386 -50418.100000 0 0 1
-15.614435 -5.026623 -28.212454 32.634646 0.311445 2.614939 0.080165 -0.055206 195413.000000 0 0 1
-15.174935 -3.662123 -28.513834 32.507361 0.236799 2.640691 0.072299 -0.046854 206778.000000 0 0 1
-13.826635 -3.413523 -28.146224 31.544221 0.242040 2.673163 0.062608 -0.038936 48546.100000 0 0 1
-13.440635 -2.115523 -28.903564 31.945925 0.156117 2.701625 0.036815 -0.021438 -101568.000000 0 0 1
-13.385235 -2.270523 -30.323904 33.224373 0.168030 2.720641 0.047940 -0.031179 147607.000000 0 0 1
-13.302035 -1.046523 -31.089444 33.831832 0.078512 2.736182 0.043818 -0.033145 -184670.000000 0 0 1
-13.639935 -1.301523 -32.573134 35.337669 0.095132 2.743412 0.041666 -0.030968 110925.000000 0 0 1
-15.015435 -1.565523 -32.827084 36.132141 0.103886 2.710545 0.026202 -0.039149 489636.000000 0 0 1
-15.123235 -1.773523 -34.211391 37.446988 0.116738 2.722836 0.030347 -0.031435 -384135.000000 0 0 1
-16.556535 -1.948523 33.694179 37.592730 0.117150 0.459453 0.018331 -0.027725 -229403.000000 0 0 1
-16.556235 -2.184523 32.327461 36.386067 0.131188 0.476824 0.034185 -0.030475 401301.000000 0 0 1
-17.814735 -1.868523 31.750201 36.454512 0.104504 0.513656 0.032945 -0.022613 218438.000000 0 0 1
-17.674635 -1.757523 30.187171 35.024947 0.099112 0.531838 0.041413 -0.014044 -59554.900000 0 0 1
-16.878735 -0.665523 29.789861 34.245737 0.039409 0.515827 0.024675 -0.003595 -54220.700000 0 0 1
-16.784835 -0.728523 28.381941 32.981753 0.043376 0.534478 0.018002 -0.010719 -410791.000000 0 0 1
-16.124235 0.564477 27.938271 32.262309 -0.034994 0.523705 0.015613 -0.012089 -559941.000000 0 0 1
-16.645635 1.816477 28.327761 32.906517 -0.108696 0.533847 0.027089 -0.012386 -426685.000000 0 0 1
-17.932835 2.085477 27.824381 33.168238 -0.115774 0.575562 0.048473 -0.020143 -194860.000000 0 0 1
-18.057835 2.907477 26.521481 32.216887 -0.159639 0.603742 0.042883 -0.016373 -400425.000000 0 0 1
-17.588835 4.219477 26.613071 32.178047 -0.235446 0.596945 0.034657 -0.010540 132649.000000 0 0 1
-18.190835 5.017477 25.589211 31.794485 -0.269133 0.635404 0.037991 -0.006856 -563043.000000 0 0 1
-17.930535 6.526477 25.701361 32.010295 -0.349080 0.638637 0.031857 -0.003849 262661.000000 0 0 1
-16.584935 6.967477 25.574881 31.267881 -0.397720 0.612996 0.020621 -0.001387 80774.000000 0 0 1
-16.194835 6.863477 24.188681 29.907730 -0.400859 0.628727 0.012371 0.002058 -1039860.000000 0 0 1
-15.018535 7.742477 23.863461 29.239821 -0.475993 0.616116 -0.007978 0.010010 -966102.000000 0 0 1
-13.822535 7.374477 24.467311 29.053308 -0.490096 0.569534 -0.010095 0.007852 -437277.000000 0 0 1
-12.748035 8.163477 24.005191 28.379640 -0.569577 0.562622 -0.007893 0.013463 -396565.000000 0 0 1
-11.372135 7.815477 24.549701 28.161942 -0.602116 0.512068 -0.002738 0.014282 -833744.000000 0 0 1
-10.361635 8.615477 24.035231 27.555077 -0.693643 0.510989 -0.001527 0.014513 -515320.000000 0 0 1
-9.389835 8.893477 25.026211 28.170449 -0.758257 0.476980 0.007951 0.010748 -116515.000000 0 0 1
-9.394035 10.332477 25.610711 29.170473 -0.832935 0.499198 0.009958 0.000507 -763541.000000 0 0 1
-10.301535 10.468477 26.652301 30.431165 -0.793436 0.503659 -0.004919 -0.002620 -72960.500000 0 0 1
-10.264535 11.779477 27.264191 31.423763 -0.854014 0.520381 -0.001763 -0.003219 -714143.000000 0 0 1
-10.918635 12.969477 26.507241 31.465183 -0.871040 0.569017 -0.012205 -0.006158 492967.000000 0 0 1
-12.339135 12.874477 26.385731 31.846715 -0.806627 0.594332 0.003205 -0.010669 518075.000000 0 0 1
-12.749235 12.165477 25.242881 30.785466 -0.761972 0.609453 -0.004735 0.007809 -581117.000000 0 0 1
-14.245235 12.063477 24.898171 31.118694 -0.702658 0.643329 -0.001474 -0.001055 -255453.000000 0 0 1
-14.767435 13.308477 24.482211 31.536826 -0.733480 0.682013 0.006811 -0.006948 -219824.000000 0 0 1
-16.060135 13.266477 23.937891 31.732475 -0.690425 0.716109 0.021482 0.002985 -265813.000000 0 0 1
-16.232235 12.725477 22.490961 30.516661 -0.664886 0.742166 0.013236 0.011057 -548063.000000 0 0 1
-16.311435 11.289477 22.349661 29.883483 -0.605418 0.725913 0.017756 0.005703 124228.000000 0 0 1
-16.020635 10.994477 21.034561 28.635503 -0.601451 0.745775 0.007308 0.014735 -229841.000000 0 0 1
-16.176335 9.479477 20.782761 27.990310 -0.530068 0.734004 -0.000158 0.012508 1169660.000000 0 0 1
-17.562335 9.081477 20.688961 28.617162 -0.477234 0.762724 0.022346 0.006745 804724.000000 0 0 1
-17.843735 7.702477 20.637761 28.348620 -0.407501 0.755398 0.013453 0.006598 633568.000000 0 0 1
-19.353435 7.457477 20.973661 29.496846 -0.367797 0.779809 0.040958 -0.001704 614504.000000 0 0 1
-19.679735 7.645477 22.309161 30.715533 -0.370549 0.757850 0.035187 -0.010941 586120.000000 0 0 1
-21.103135 7.611477 22.443461 31.733041 -0.346157 0.785184 0.035521 -0.009066 434189.000000 0 0 1
-21.639335 8.310477 23.729581 33.172547 -0.366677 0.773689 0.068448 -0.017993 -839667.000000 0 0 1
-21.623235 9.737477 23.729121 33.547786 -0.423124 0.785092 0.061929 -0.018138 1115980.000000 0 0 1
-20.352635 10.432477 23.645071 32.896136 -0.473666 0.768751 0.046772 -0.009941 661072.000000 0 0 1
-19.361635 10.268477 24.813761 33.106454 -0.487633 0.723468 0.054053 -0.021818 -506925.000000 0 0 1
-19.762135 10.634477 26.109981 34.429133 -0.493680 0.709989 0.068901 -0.029565 320484.000000 0 0 1
-18.834735 10.044477 27.020171 34.434408 -0.489928 0.668608 0.066026 -0.027975 399346.000000 0 0 1
-31.420125 -14.236606 20.679561 40.218771 0.425433 1.030749 0.095141 -0.021671 -58247.100000 0 0 1
-30.221825 -14.976706 20.534361 39.488232 0.460089 1.023931 0.087329 -0.017286 224267.000000 0 0 1
-30.192525 -15.935106 19.417961 39.275609 0.485626 1.053649 0.077700 -0.003324 -107545.000000 0 0 1
-29.947595 -15.392906 17.992261 38.177500 0.474781 1.080056 0.075380 0.002416 164771.000000 0 0 1
-31.050975 -14.627106 17.510861 38.532397 0.440235 1.099047 0.089559 -0.018877 138311.000000 0 0 1
-30.823195 -14.205506 16.219361 37.615601 0.431857 1.124988 0.083888 -0.014675 58310.000000 0 0 1
-31.975835 -13.290106 15.625061 37.989782 0.393907 1.146920 0.073607 -0.016366 237213.000000 0 0 1
-33.203505 -13.953206 15.380661 39.162859 0.397826 1.167192 0.083642 -0.020144 705823.000000 0 0 1
-34.080965 -14.037606 16.527161 40.394476 0.390714 1.149280 0.094115 -0.022121 -337963.000000 0 0 1
-34.840491 -12.746706 16.761961 40.709971 0.350733 1.146433 0.087797 -0.026251 -594891.000000 0 0 1
-35.853685 -12.862106 17.773361 42.033474 0.344439 1.134221 0.055381 -0.018229 285410.000000 0 0 1
36.165510 -11.650106 17.976861 42.033756 -0.311637 1.128875 0.051865 -0.014017 -102401.000000 0 0 1
35.280050 -11.791006 19.218161 41.869410 -0.322541 1.093924 0.058086 -0.005700 -452020.000000 0 0 1
36.074100 -12.172006 20.302461 43.147287 -0.325421 1.080895 0.046899 -0.003927 70887.800000 0 0 1
35.273850 -12.210306 21.482161 43.067613 -0.333248 1.048582 0.031732 -0.007818 -924196.000000 0 0 1
36.018720 -12.639906 22.787461 44.456538 -0.337500 1.032611 0.025116 -0.010270 723532.000000 0 0 1
-35.521540 -11.849006 23.065461 43.979476 0.321966 1.018716 0.034583 -0.009109 762699.000000 0 0 1
-34.407058 -12.392006 22.383861 42.877089 0.345696 1.021547 0.042738 -0.013761 -1115690.000000 0 0 1
-33.152585 -11.520706 22.381861 41.626534 0.334451 1.003110 0.058417 -0.013215 -228503.000000 0 0 1
-33.254075 -10.261406 21.730561 41.028616 0.299306 1.012615 0.069955 -0.013776 -120452.000000 0 0 1
-31.985145 -9.642406 21.694261 39.832983 0.292800 0.994848 0.083460 -0.019807 71336.000000 0 0 1
-31.998735 -8.420106 20.700961 39.030079 0.257306 1.011742 0.076076 -0.006976 60973.400000 0 0 1
-32.160395 -8.590306 19.296261 38.476358 0.261015 1.045454 0.078270 -0.009537 -380969.000000 0 0 1
-33.490595 -8.830506 18.958461 39.484441 0.257804 1.069970 0.068577 -0.013381 -678969.000000 0 0 1
-33.873315 -8.793906 17.467561 39.113297 0.254004 1.107847 0.077342 -0.016989 157882.000000 0 0 1
-35.263797 -8.704806 17.201861 40.189714 0.242010 1.128499 0.028273 -0.015885 309377.000000 0 0 1
-35.565229 -8.495606 15.841861 39.850037 0.234480 1.161965 0.044309 -0.008856 724344.000000 0 0 1
35.611090 -8.496806 15.583661 39.789395 -0.234221 1.168368 0.051712 -0.012469 749952.000000 0 0 1
34.990510 -9.725706 15.909361 39.648870 -0.271109 1.157908 0.047484 -0.001839 850554.000000 0 0 1
33.559160 -9.641406 15.772561 38.313804 -0.279761 1.146513 0.039024 -0.004314 795162.000000 0 0 1
32.817180 -10.989306 15.963961 38.112730 -0.323128 1.138605 0.027985 -0.002557 -192411.000000 0 0 1
32.812370 -11.652806 17.222861 38.846704 -0.341242 1.111459 0.016510 -0.007397 -546911.000000 0 0 1
31.774790 -12.566806 17.243161 38.273862 -0.376618 1.103448 0.029638 -0.000479 -469054.000000 0 0 1
31.566050 -13.001606 18.698661 38.924249 -0.390711 1.069702 0.019352 -0.002229 181540.000000 0 0 1
32.518480 -13.936906 19.203661 40.255055 -0.404903 1.073502 0.018905 -0.003151 30291.700000 0 0 1
32.311240 -14.044506 20.608461 40.816333 -0.410027 1.041522 0.019518 -0.000541 -196827.000000 0 0 1
33.088350 -15.185706 21.278561 42.168966 -0.430267 1.041875 0.006949 0.003186 -153069.000000 0 0 1
32.944730 -15.344406 22.683661 42.841038 -0.435884 1.012804 0.010857 -0.000826 -162094.000000 0 0 1
33.582780 -16.535506 23.135161 44.005247 -0.457533 1.017216 0.010014 0.005681 143574.000000 0 0 1
33.978520 -16.521706 24.615051 45.093318 -0.452579 0.993370 0.018443 0.005646 18028.600000 0 0 1
34.941080 -15.531506 24.853571 45.604898 -0.418275 0.994436 0.020879 0.009519 -250205.000000 0 0 1
35.512690 -15.533106 26.143781 46.753886 -0.412323 0.977401 0.013340 0.004468 102482.000000 0 0 1
-36.069125 -14.488006 26.212431 46.882574 0.381948 0.977487 0.014810 -0.003494 1530760.000000 0 0 1
-34.801268 -14.845906 25.523151 45.639462 0.403217 0.977334 0.012328 -0.001052 1069020.000000 0 0 1
-33.896855 -13.890306 26.015721 44.930560 0.388910 0.953269 0.022365 -0.007431 -20528.100000 0 0 1
-32.466165 -14.493406 25.852721 43.959913 0.419869 0.942092 0.040656 -0.008420 -305535.000000 0 0 1
-32.133205 -14.671906 24.501981 42.990171 0.428326 0.964359 0.046889 -0.009710 378260.000000 0 0 1
-30.770965 -15.033906 24.269761 41.974897 0.454465 0.954279 0.060079 -0.016987 546605.000000 0 0 1
-30.371305 -16.492606 24.587901 42.414469 0.497478 0.952429 0.058224 -0.009674 -615796.000000 0 0 1
-30.460285 -16.751406 25.989801 43.404013 0.502799 0.928809 0.062535 -0.012837 -20480.500000 0 0 1
-30.179035 -18.041606 26.327691 43.925176 0.538814 0.928075 0.062430 -0.015838 -165006.000000 0 0 1
-29.849685 -18.024506 27.891661 44.652338 0.543240 0.896125 0.053060 -0.020061 119211.000000 0 0 1
-28.653875 -17.367206 28.255361 43.829555 0.544895 0.870212 0.052689 -0.021904 33711.600000 0 0 1
-28.176665 -17.771706 29.539761 44.523651 0.562705 0.845360 0.057855 -0.024192 175508.000000 0 0 1
-26.981225 -16.911406 29.989031 43.741561 0.559881 0.815374 0.058506 -0.028574 -11037.900000 0 0 1
-27.252825 -15.594306 30.408661 43.710246 0.519734 0.801420 0.072506 -0.033904 -566890.000000 0 0 1
-26.056905 -14.877806 30.364511 42.688582 0.518803 0.779446 0.055009 -0.029844 -489628.000000 0 0 1
-26.013865 -13.536206 31.051531 42.710042 0.479791 0.756808 0.064810 -0.023892 -57462.700000 0 0 1
-25.379905 -13.594406 32.308131 43.275430 0.491749 0.727905 0.066627 -0.020123 97783.000000 0 0 1
-25.049295 -12.298606 32.748346 43.025308 0.456402 0.705725 0.065778 -0.014486 -119241.000000 0 0 1
-24.149935 -12.281506 34.010182 43.482724 0.470466 0.672681 0.075221 -0.012158 233643.000000 0 0 1
-22.793335 -12.666106 33.879223 42.752405 0.507204 0.655978 0.044557 -0.011145 123809.000000 0 0 1
-22.591735 -14.106606 34.029481 43.213290 0.558178 0.664091 0.042529 -0.008755 -198915.000000 0 0 1
-22.568535 -14.654206 -32.923164 42.520810 0.575897 2.456379 0.038119 -0.009019 -583064.000000 0 0 1
-21.359435 -14.525406 -32.224334 41.299160 0.597208 2.465887 0.023294 -0.002868 -348590.000000 0 0 1
-21.275635 -15.203406 -30.995584 40.552712 0.620453 2.440795 0.034438 -0.010390 311028.000000 0 0 1
-19.905135 -15.250006 -30.245024 39.287894 0.653747 2.449372 0.033969 -0.007889 467747.000000 0 0 1
-19.721935 -14.083406 -29.416414 38.113285 0.620126 2.452487 0.020208 -0.004704 -95297.000000 0 0 1
-20.339935 -14.245906 -28.149624 37.537450 0.610988 2.418719 0.027333 -0.005933 -131665.000000 0 0 1
-20.098235 -13.127906 -27.098714 36.202504 0.578612 2.416641 0.037072 -0.006966 52697.800000 0 0 1
-18.770235 -12.953706 -26.651564 35.077430 0.604064 2.433790 0.028612 -0.011217 -146651.000000 0 0 1
-18.601435 -11.731906 -26.006264 34.058432 0.562687 2.439632 0.048827 -0.021101 656780.000000 0 0 1
-17.208635 -11.653706 -25.296924 32.739584 0.595260 2.453834 0.047668 -0.019668 -103880.000000 0 0 1
-17.120935 -12.466306 -24.149774 32.120816 0.629358 2.421647 0.050643 -0.022558 251099.000000 0 0 1
-15.890835 -12.561406 -23.436174 30.976795 0.668910 2.428851 0.048232 -0.025786 -46662.600000 0 0 1
-14.758335 -13.269306 -24.141274 31.251945 0.732321 2.453522 0.038207 -0.012567 -1092440.000000 0 0 1
-14.146835 -12.659906 -25.227724 31.572840 0.729986 2.496481 0.049302 -0.029148 2997.750000 0 0 1
-13.550135 -13.572906 -26.170584 32.445792 0.786238 2.509164 0.055350 -0.023383 293046.000000 0 0 1
-12.570335 -12.989306 -27.245924 32.696724 0.801789 2.555833 0.055000 -0.023167 473865.000000 0 0 1
-13.244535 -12.144506 -28.187064 33.427793 0.742098 2.574046 0.058878 -0.030565 45721.300000 0 0 1
-12.362735 -11.524306 -29.103384 33.654923 0.750313 2.615466 0.065795 -0.037981 -199869.000000 0 0 1
-13.015235 -10.361406 -29.919854 34.233796 0.672357 2.634141 0.039069 -0.030976 -249723.000000 0 0 1
-12.208835 -9.526906 -30.714274 34.397445 0.662631 2.674593 0.039857 -0.025328 -219142.000000 0 0 1
-11.724735 -10.260806 -31.861444 35.466959 0.718910 2.686776 0.055641 -0.024748 137309.000000 0 0 1
-10.806835 -9.344706 -32.725344 35.707973 0.712968 2.729967 0.040413 -0.023205 178667.000000 0 0 1
-9.553135 -9.047306 -32.153774 34.741637 0.758210 2.753180 0.023764 -0.021039 -446186.000000 0 0 1
-9.054635 -7.872306 -32.670874 34.804391 0.715662 2.789635 0.019910 -0.019118 314353.000000 0 0 1
-7.536335 -7.629806 -32.380864 34.110565 0.791561 2.821770 0.028503 -0.018229 256013.000000 0 0 1
-7.211035 -7.540806 -31.002884 32.711490 0.807749 2.816958 0.019500 -0.014288 -358753.000000 0 0 1
-7.568535 -6.373806 -30.276254 31.852154 0.699916 2.825716 0.026301 -0.005530 -594016.000000 0 0 1
-6.896135 -5.007606 -30.582234 31.747533 0.628059 2.869814 0.022132 -0.011517 -876352.000000 0 0 1
-5.536635 -4.977506 -30.318934 31.219668 0.732269 2.900797 0.021579 -0.012047 -889172.000000 0 0 1
-5.127035 -3.617906 -30.473974 31.113322 0.614510 2.938517 0.033271 -0.021763 1022840.000000 0 0 1
-3.593335 -3.424206 -30.132474 30.538553 0.761302 2.978333 0.031875 -0.015073 -203079.000000 0 0 1
-2.689435 -3.929206 -31.110734 31.472996 0.970567 2.989722 0.022683 -0.020971 -382793.000000 0 0 1
-1.387035 -3.688206 -30.663424 30.915567 1.211085 3.013788 0.032783 -0.018634 -434248.000000 0 0 1
-0.893235 -2.205806 -30.644264 30.736531 1.186032 3.064089 0.030034 -0.015932 -95869.600000 0 0 1
0.557665 -2.220306 -30.478564 30.564417 -1.324721 3.066623 0.039064 -0.017068 1693870.000000 0 0 1
1.157365 -0.894806 -30.792574 30.827306 -0.658148 3.094119 0.019546 -0.006001 467743.000000 0 0 1
1.252565 0.051594 -29.560494 29.587064 0.041167 3.099209 0.024915 -0.013042 -37021.400000 0 0 1
0.018865 0.636794 -29.179584 29.186538 1.541181 3.119763 0.035471 -0.016745 -250675.000000 0 0 1
0.149665 1.977994 -28.915854 28.983814 1.495275 3.073099 0.048648 -0.026578 -1299120.000000 0 0 1
-0.994335 2.716594 -28.341304 28.488561 -1.219919 3.039873 0.038869 -0.022387 -775864.000000 0 0 1
-1.988635 3.137094 -29.278514 29.513173 -1.005815 3.015406 0.039539 -0.027569 396786.000000 0 0 1
-2.888335 4.114094 -28.681324 29.118492 -0.958690 2.968093 0.071362 -0.029227 1114720.000000 0 0 1
-4.197235 4.190194 -29.559714 30.148817 -0.784559 2.943583 0.093360 -0.030242 227619.000000 0 0 1
-4.021635 4.766294 -30.872164 31.495740 -0.869933 2.942272 0.100209 -0.031267 -6721.660000 0 0 1
-5.088635 4.651794 -31.801614 32.540376 -0.740580 2.928101 0.107220 -0.030106 -598042.000000 0 0 1
-4.778135 5.251494 -33.169634 33.920987 -0.832559 2.930726 0.106390 -0.026643 -36969.500000 0 0 1
-4.082235 4.531494 -34.171243 34.711279 -0.837507 2.964966 0.107669 -0.027478 718472.000000 0 0 1
-2.834035 3.917694 -33.825424 34.169275 -0.944542 2.999606 0.094059 -0.027299 353102.000000 0 0 1
-2.141535 3.407494 33.279997 33.522461 -1.009700 0.120346 0.073592 -0.026996 107051.000000 0 0 1
-2.848535 2.208294 32.918613 33.115341 -0.659459 0.109056 0.073493 -0.039478 340537.000000 0 0 1
-2.489035 1.657094 31.631831 31.772850 -0.587373 0.094251 0.081813 -0.031698 -154746.000000 0 0 1
-2.401435 2.548594 30.368561 30.569785 -0.815118 0.114801 0.080167 -0.029653 -599439.000000 0 0 1
-3.531935 3.321894 30.114181 30.502024 -0.754762 0.159639 0.074261 -0.030366 -452479.000000 0 0 1
-3.334135 4.228694 29.051691 29.546558 -0.903135 0.183279 0.076219 -0.030844 -43117.200000 0 0 1
-4.620435 5.022194 28.802581 29.599992 -0.827039 0.232643 0.068887 -0.026522 -32903.900000 0 0 1
-4.574935 5.815194 27.650851 28.623698 -0.904205 0.261464 0.061897 -0.011356 -749304.000000 0 0 1
-5.809835 6.444494 27.574731 28.907637 -0.837142 0.304854 0.043922 -0.007599 -403812.000000 0 0 1
-5.983135 7.138094 26.240221 27.844201 -0.873194 0.341078 0.048303 -0.004195 61544.400000 0 0 1
-5.153535 8.278994 26.066911 27.831359 -1.014009 0.357992 0.056300 -0.003170 59747.200000 0 0 1
-5.331135 8.961894 24.811641 26.913827 -1.034160 0.397861 0.056816 -0.003111 48768.300000 0 0 1
-4.630235 10.367394 24.813281 27.287742 -1.150761 0.429150 0.053576 -0.002416 -207710.000000 0 0 1
-4.884935 11.271994 23.753091 26.741911 -1.161858 0.477308 0.065092 -0.004738 39706.200000 0 0 1
-4.461935 12.633094 23.977561 27.466841 -1.231279 0.509550 0.071458 0.000879 979714.000000 0 0 1
-2.891335 12.920594 23.981511 27.393694 -1.350646 0.504453 0.067406 0.000597 1511060.000000 0 0 1
-2.151535 12.408794 25.100611 28.082877 -1.399115 0.465037 0.080572 -0.003359 92514.100000 0 0 1
-2.254435 13.250694 26.285351 29.522586 -1.402273 0.472689 0.081601 -0.002756 -358827.000000 0 0 1
-1.381435 12.800694 27.493871 30.359168 -1.463294 0.437957 0.075278 -0.001393 1660190.000000 0 0 1
0.056465 12.891194 27.326591 30.214709 1.566416 0.440793 0.082097 0.001906 766729.000000 0 0 1
0.670665 12.445794 28.509341 31.114789 1.516962 0.412146 0.077592 -0.002746 23930.000000 0 0 1
2.209165 12.475994 28.387851 31.086990 1.395540 0.419790 0.064854 -0.001948 100609.000000 0 0 1
2.802365 13.740394 28.516711 31.778208 1.369605 0.457030 0.064931 0.001056 -56425.200000 0 0 1
4.206965 13.624894 28.384901 31.765373 1.271313 0.465538 0.050070 0.001406 -22346.400000 0 0 1
4.980565 14.932994 28.500671 32.559002 1.248871 0.504628 0.058945 -0.004662 -704287.000000 0 0 1
4.998565 15.485294 29.844911 33.992627 1.258561 0.499166 0.063324 0.007388 -290146.000000 0 0 1
4.028365 16.417694 30.187321 34.598306 1.330183 0.510483 0.032212 0.008492 -448818.000000 0 0 1
3.967065 17.790494 29.479251 34.659278 1.351398 0.553777 0.043723 0.010689 781313.000000 0 0 1
4.961265 18.688194 30.080961 35.759292 1.311306 0.571285 0.058007 0.013957 950440.000000 0 0 1
5.058765 19.805594 29.274731 35.705217 1.320722 0.609559 0.032020 0.008508 -193441.000000 0 0 1
5.970065 20.904094 29.832611 36.913514 1.292609 0.629748 0.036082 0.011030 -506855.000000 0 0 1
5.612665 21.606794 31.020691 38.218305 1.316649 0.623789 0.033928 0.002230 416240.000000 0 0 1
6.677465 22.396294 31.594391 39.298703 1.281037 0.636880 0.040186 0.001635 499110.000000 0 0 1
6.855865 23.778494 30.957871 39.633438 1.290087 0.674363 0.046017 0.010517 -57458.600000 0 0 1
7.276665 23.753394 29.620951 38.659725 1.273531 0.697895 0.026971 0.010941 105319.000000 0 0 1
7.551865 25.079094 29.183001 39.212742 1.278311 0.731426 0.030823 0.008240 170450.000000 0 0 1
8.055065 25.189394 27.715301 38.308322 1.261293 0.761966 0.046627 0.008865 67825.500000 0 0 1
7.036565 24.836994 26.799251 37.210071 1.294721 0.766684 0.027741 0.006004 61433.600000 0 0 1
7.540065 24.565194 25.511001 36.209288 1.272984 0.789017 0.039216 -0.005282 -262091.000000 0 0 1
29.047720 2.247094 6.751426 29.906541 0.077205 1.343083 0.079415 0.000658 -108605.000000 0 0 1
29.201580 3.041994 7.886326 30.400331 0.103798 1.308379 0.070479 -0.002659 479596.000000 0 0 1
28.062350 3.010594 8.757426 29.550832 0.106874 1.269926 0.065886 0.004761 275830.000000 0 0 1
28.071570 3.945394 10.011726 30.063496 0.139633 1.231292 0.051259 0.002251 -72109.500000 0 0 1
27.839060 5.322594 9.854126 30.007450 0.188912 1.236199 0.056804 -0.002935 -165217.000000 0 0 1
28.924740 5.984694 9.277726 30.960189 0.204027 1.266453 0.081148 -0.016383 -361990.000000 0 0 1
28.721900 7.475994 9.062926 31.031832 0.254639 1.274424 0.097689 -0.020078 332527.000000 0 0 1
27.741510 7.681094 8.040026 29.886997 0.270114 1.298427 0.083731 -0.016821 316293.000000 0 0 1
27.795910 9.015094 7.564626 30.184567 0.313627 1.317484 0.090256 -0.034126 -187365.000000 0 0 1
26.941870 9.247394 6.319026 29.177195 0.330635 1.352492 0.084367 -0.028645 -88523.800000 0 0 1
25.560670 9.359594 6.605126 28.010311 0.351008 1.332744 0.079768 -0.028727 -85758.700000 0 0 1
24.946370 9.467994 5.349126 27.213552 0.362740 1.372947 0.097388 -0.040794 -210241.000000 0 0 1
23.516170 10.039594 5.286126 26.110281 0.403498 1.366933 0.045211 -0.036939 -102844.000000 0 0 1
23.425270 11.468494 5.554126 26.666794 0.455275 1.360982 0.041637 -0.016129 -699355.000000 0 0 1
22.141170 11.830594 5.900826 25.787867 0.490730 1.339929 0.039551 -0.015811 -1058110.000000 0 0 1
22.000170 13.296694 6.339926 26.476484 0.543642 1.328992 0.039324 -0.008968 -212505.000000 0 0 1
22.354470 14.250394 5.344026 27.043569 0.567519 1.371879 0.049405 -0.012060 431010.000000 0 0 1
22.447270 15.553194 5.841626 27.926803 0.605929 1.360064 0.097229 -0.014800 -101301.000000 0 0 1
22.201570 16.597594 4.698326 28.115193 0.641955 1.402899 0.097284 -0.023574 -617889.000000 0 0 1
20.872370 16.673394 4.266026 27.052853 0.674025 1.412443 0.110453 -0.012539 -61095.600000 0 0 1
20.750470 17.759294 3.386326 27.521659 0.707881 1.447442 0.098482 -0.014872 -503019.000000 0 0 1
19.291270 18.026494 3.065326 26.580139 0.751519 1.455215 0.104307 -0.005882 -816875.000000 0 0 1
18.488570 18.645594 4.028626 26.565301 0.789627 1.418559 0.105362 -0.015418 10560.700000 0 0 1
17.159470 18.537594 3.574426 25.512081 0.823985 1.430227 0.105831 -0.018878 -23069.100000 0 0 1
16.141470 19.336494 4.447026 25.577785 0.875212 1.396045 0.098151 -0.024473 -782422.000000 0 0 1
14.821970 18.946894 4.357426 24.447141 0.906948 1.391600 0.094153 -0.028925 -605038.000000 0 1 0
14.016470 20.139794 4.463026 24.939754 0.962788 1.390875 0.076715 -0.028270 -245196.000000 0 1 0
12.539470 19.913394 4.149026 23.895522 1.008824 1.396280 0.059295 -0.018167 -342609.000000 0 1 0
11.826970 19.340994 5.230426 23.266040 1.021966 1.344049 0.046826 -0.021712 519618.000000 0 1 0
10.426970 19.261694 4.937926 22.452564 1.074632 1.349057 0.038154 -0.008954 1153150.000000 0 1 0
9.511870 18.856994 6.158726 21.999813 1.103618 1.287060 0.031431 -0.003964 -11731.900000 0 1 0
9.319770 19.754194 7.225626 23.006433 1.129973 1.251320 0.033027 -0.006965 -108027.000000 0 1 0
8.832370 19.042094 8.348326 22.589967 1.136498 1.192262 0.039208 -0.006445 -640521.000000 0 1 0
7.715070 19.770194 9.094326 23.088734 1.198734 1.165941 0.028742 -0.011537 499381.000000 0 1 0
6.463870 19.874194 8.406426 22.526278 1.256348 1.188359 0.027499 -0.026183 291394.000000 0 1 0
6.423470 21.009694 7.486926 23.210391 1.274083 1.242355 0.031864 -0.021867 -471145.000000 0 1 0
5.189770 21.231594 6.520526 22.808585 1.331061 1.280871 0.019115 -0.013327 275845.000000 0 1 0
3.947670 21.369694 7.161326 22.880832 1.388124 1.252463 0.018679 -0.021853 -174003.000000 0 1 0
3.717870 22.570494 7.920926 24.207247 1.407540 1.237444 0.022480 -0.020271 -588976.000000 0 1 0
3.829870 23.868994 7.156726 25.211416 1.411699 1.282970 0.026724 -0.014767 -633024.000000 0 0 1
2.788770 24.013394 6.251726 24.970070 1.455180 1.317735 0.025089 -0.014908 -256613.000000 0 1 0
2.993970 25.082794 5.371426 25.825619 1.451995 1.361279 0.030918 -0.008243 264905.000000 0 0 1
1.732570 25.093294 4.444026 25.542603 1.501861 1.395922 0.026482 -0.011269 -334029.000000 0 0 1
0.619570 25.509794 5.145626 26.030960 1.546514 1.371813 0.038376 -0.016017 -1114260.000000 0 0 1
-0.405430 25.766894 4.211426 26.111938 -1.555063 1.408805 0.039200 -0.016233 -329639.000000 0 0 1
-1.515930 26.620294 4.833626 27.098008 -1.513911 1.391461 0.039580 -0.013047 261693.000000 0 0 1
-2.578530 26.908394 3.918326 27.314167 -1.475262 1.426846 0.068712 -0.021941 -270993.000000 0 0 1
-3.535830 27.739394 4.470626 28.318943 -1.444014 1.412266 0.053265 -0.019801 -482201.000000 0 0 1
-4.501330 28.240294 3.373926 28.795130 -1.412732 1.453357 0.042886 -0.023118 -200418.000000 0 0 1
-3.970330 29.165394 2.428126 29.534378 -1.435496 1.488490 0.052328 -0.018021 -347548.000000 0 0 1
-4.899030 29.550694 1.478026 29.990474 -1.406507 1.521493 0.066612 -0.020721 -382664.000000 0 0 1
-4.241730 30.597994 0.510226 30.894819 -1.433047 1.554281 0.060618 -0.020432 174978.000000 0 0 1
-4.223630 31.881494 1.089726 32.178505 -1.439084 1.536925 0.059165 -0.016611 -219938.000000 0 0 1
-3.018630 32.089594 1.768026 32.279716 -1.477004 1.515997 0.054101 -0.017426 -425209.000000 0 0 1
-2.348130 33.509594 1.669626 33.633231 -1.500837 1.521134 0.051852 -0.018080 -939319.000000 0 0 1
-1.529330 33.731494 0.566026 33.770888 -1.525489 1.554035 0.033847 -0.014207 -57154.000000 0 0 1
-0.574730 -33.652323 0.576026 33.662160 1.553720 1.553684 0.036024 -0.008910 369330.000000 0 0 1
0.631770 -33.807623 1.534226 33.848314 -1.552111 1.525454 0.033853 -0.004053 -433390.000000 0 0 1
0.283170 -33.650623 2.911126 33.777497 -1.562382 1.484504 0.037014 -0.009069 125751.000000 0 0 1
1.354570 -34.188123 3.661626 34.410320 -1.531196 1.464184 0.041013 -0.007548 341255.000000 0 0 1
1.030970 -34.157623 5.202626 34.566942 -1.540623 1.419713 0.050646 -0.010128 1001990.000000 0 0 1
-0.020130 33.389394 5.711626 33.874396 -1.570193 1.401375 0.038141 -0.018049 449714.000000 0 0 1
-0.413830 33.747094 7.046926 34.477482 -1.558534 1.364954 0.047030 -0.024680 663576.000000 0 0 1
0.667670 33.711394 8.212626 34.703762 1.550993 1.331880 0.056097 -0.015567 635881.000000 0 0 1
0.922370 32.354294 8.524226 33.471085 1.542296 1.313285 0.059954 -0.022057 350090.000000 0 0 1
2.113970 32.285394 9.320326 33.670224 1.505412 1.290321 0.072546 -0.019982 120770.000000 0 0 1
2.781070 30.924094 9.489026 32.466529 1.481105 1.274196 0.057047 -0.019161 60672.400000 0 0 1
2.080170 29.927894 10.243026 31.700560 1.501402 1.241774 0.065260 -0.024454 541493.000000 0 0 1
2.770370 28.662794 10.069126 30.506032 1.474442 1.234419 0.061492 -0.028131 360952.000000 0 0 1
2.358570 27.658994 11.179026 29.925798 1.485729 1.187954 0.053883 -0.029732 -186068.000000 0 0 1
2.673470 28.087494 12.532426 30.872584 1.475899 1.152789 0.053136 -0.023372 -88320.100000 0 0 1
2.335070 27.161294 13.548226 30.442451 1.485037 1.109573 0.050198 -0.018001 1196770.000000 0 0 1
0.838470 26.778694 13.972626 30.216481 1.539495 1.090077 0.037686 -0.021448 1582070.000000 0 0 1
0.072070 27.785694 14.656026 31.414154 1.568203 1.085419 0.039499 -0.022830 351819.000000 0 0 1
-0.587930 28.659294 13.747926 31.791606 -1.550285 1.123600 0.057416 -0.027651 -417835.000000 0 0 1
-1.219330 29.880394 14.430926 33.205065 -1.530012 1.121202 0.037239 -0.025483 -106291.000000 0 0 1
-2.295030 29.571294 15.285226 33.367150 -1.493342 1.094949 0.028508 -0.020217 -292090.000000 0 0 1
-2.858730 30.796694 15.691826 34.682014 -1.478236 1.101287 0.017230 -0.011558 -791294.000000 0 0 1
-4.229330 30.602594 16.327026 34.942492 -1.433465 1.084614 0.004784 0.005016 -125510.000000 0 0 1
-5.229830 30.247094 15.355126 34.322262 -1.399586 1.106962 0.012992 -0.003949 466565.000000 0 0 1
-6.404130 29.820494 16.019526 34.451414 -1.359253 1.087174 0.013358 -0.000381 155924.000000 0 0 1
-7.633230 29.379094 15.155026 33.927454 -1.316598 1.107735 -0.003966 -0.007810 531764.000000 0 0 1
-8.693230 28.826894 15.896126 34.047744 -1.277903 1.085040 -0.003512 -0.004052 -400481.000000 0 0 1
-9.690230 28.235094 15.100126 33.453473 -1.240194 1.102489 0.008503 -0.005801 -757388.000000 0 0 1
-10.839130 27.750794 15.930426 33.784194 -1.198430 1.079766 0.008635 -0.003210 -1164800.000000 0 0 1
-11.649230 28.770994 16.492826 35.149509 -1.186077 1.082390 0.010130 -0.004043 297752.000000 0 0 1
-11.151430 29.419094 17.662826 36.080644 -1.208476 1.059237 0.012503 -0.008128 -638828.000000 0 0 1
-12.056530 30.619594 17.941326 37.480803 -1.195688 1.071645 0.027988 -0.001215 -400968.000000 0 0 1
-13.170630 30.268694 18.726826 37.951987 -1.160382 1.054762 0.027992 0.000238 54750.600000 0 0 1
-13.991830 31.404494 19.002926 39.282626 -1.151661 1.065863 0.050549 -0.006744 116808.000000 0 0 1
-14.988730 31.081594 20.127426 39.947976 -1.121459 1.042757 0.053788 -0.009879 -149573.000000 0 0 1
-14.450230 31.112894 21.419726 40.442873 -1.135995 1.012633 0.045565 -0.009572 -102889.000000 0 0 1
-15.391030 30.690294 22.417226 41.003780 -1.105953 0.992365 0.039578 -0.005491 193134.000000 0 0 1
-14.877130 30.466594 23.845726 41.450706 -1.116545 0.957851 0.028565 -0.006263 -204751.000000 0 0 1
-14.017730 29.337794 24.122026 40.485492 -1.125062 0.932511 0.021434 -0.007076 536475.000000 0 0 1
-13.667630 29.095294 25.485026 41.022272 -1.131637 0.900461 0.037622 -0.006128 14439.500000 0 0 1
-13.081830 30.288594 26.363526 42.232318 -1.163091 0.896625 0.033287 -0.011822 -267268.000000 0 0 1
-13.933730 31.428994 26.490226 43.401182 -1.153495 0.914285 0.040813 -0.014575 -54223.200000 0 0 1
-13.276930 32.519594 27.007126 44.307852 -1.183177 0.915324 0.046694 -0.017905 -349337.000000 0 0 1
-14.243230 33.610994 27.573026 45.747571 -1.169970 0.923889 0.059621 -0.025760 341894.000000 0 0 1
-15.081330 33.190694 28.655826 46.370519 -1.144302 0.904632 0.038746 -0.027833 124486.000000 0 0 1
-14.457130 33.005694 29.887226 46.814856 -1.157950 0.878361 0.048457 -0.013955 -926745.000000 0 0 1
-15.326230 32.227994 30.840026 47.166133 -1.126894 0.858122 0.027527 -0.012209 -88680.900000 0 0 1
-16.491030 33.002694 31.157726 48.290121 -1.107399 0.869486 0.024940 -0.009191 69376.200000 0 0 1
-17.014030 32.476094 32.387926 48.919849 -1.088217 0.847231 0.018601 -0.007885 459441.000000 0 0 1
-18.490330 32.920394 32.599526 49.883602 -1.059039 0.858581 0.018833 -0.003669 411234.000000 0 0 1
-18.633530 -34.109623 32.930826 50.942263 1.070811 0.867895 0.030499 -0.005724 -967471.000000 0 0 1
-19.974830 -33.842523 33.144426 51.408785 1.037593 0.870135 0.025207 -0.002916 -815568.000000 0 0 1
-20.271830 -32.326523 33.379126 50.696324 1.010691 0.852088 0.027915 0.001529 -532731.000000 0 0 1
-19.949930 -31.756123 -33.830209 50.506773 1.009883 2.304756 0.031021 0.005678 122814.000000 0 0 1
-20.662630 -32.152023 -32.641509 50.260969 0.999603 2.277645 0.035306 0.004387 66286.300000 0 0 1
-20.196130 -31.213223 -31.471009 48.709069 0.996506 2.273262 0.048056 -0.000752 -18772.400000 0 0 1
-20.455030 -29.815423 -31.565109 47.997123 0.969491 2.288486 0.051125 0.001973 -5892.030000 0 0 1
-19.906230 -29.104623 -30.495109 46.618546 0.970921 2.283843 0.044936 -0.000204 -207575.000000 0 0 1
-20.236630 -27.613523 -30.620409 45.930789 0.938360 2.300521 0.045281 -0.008800 746870.000000 0 0 1
-21.612830 -27.431423 -30.266609 46.213256 0.903486 2.284891 0.056694 -0.006661 281614.000000 0 0 1
-22.053930 -26.162923 -30.450809 45.805307 0.870412 2.298006 0.053798 -0.004587 247640.000000 0 0 1
-23.291130 -25.946023 -29.519109 45.684250 0.839267 2.273332 0.060263 -0.010214 199757.000000 0 0 1
-23.033930 -26.254023 -28.153209 44.860215 0.850638 2.249233 0.060855 -0.012114 21656.900000 0 0 1
-22.411530 -25.248323 -27.422709 43.494362 0.844850 2.252979 0.064400 -0.014759 -248559.000000 0 0 1
-22.083830 -25.524323 -25.980509 42.593116 0.857540 2.226819 0.059037 -0.008442 932094.000000 0 0 1
-23.280130 -25.487423 -25.145409 42.706730 0.830629 2.200361 0.058434 -0.010623 1068640.000000 0 0 1
-23.127330 -26.003623 -23.850509 42.188963 0.843875 2.171624 0.055153 -0.005910 -723867.000000 0 0 1
-24.444730 -26.017923 -23.073509 42.507223 0.816563 2.144580 0.042426 -0.004312 816378.000000 0 0 1
-25.522130 -26.835223 -23.619309 43.924710 0.810472 2.138530 0.039214 -0.004452 715385.000000 0 0 1
-25.372730 -28.218323 -23.432209 44.599525 0.838447 2.123971 0.049657 -0.005416 -944660.000000 0 0 1
-26.749930 -28.908923 -23.452409 45.839940 0.824168 2.107860 0.019606 -0.004864 123836.000000 0 0 1
-27.557330 -28.517223 -22.352309 45.522129 0.802515 2.084057 0.011280 0.002597 -39600.700000 0 0 1
-28.678830 -27.749423 -22.749709 45.935336 0.768929 2.088925 0.014175 0.001128 21194.200000 0 0 1
-29.491730 -27.200623 -21.559609 45.546161 0.745007 2.063895 0.018432 -0.002066 -140317.000000 0 0 1
-30.227430 -28.118523 -20.787009 46.221734 0.749269 2.037252 -0.002152 0.003203 96629.200000 0 0 1
-30.526930 -27.512023 -19.553409 45.509787 0.733499 2.014905 -0.006429 0.005114 -682703.000000 0 0 1
-31.326630 -28.478323 -18.642509 46.259224 0.737808 1.985590 -0.013315 0.009133 547013.000000 0 0 1
-32.711730 -28.709623 -18.944709 47.467903 0.720332 1.981338 -0.008447 0.006036 812702.000000 0 0 1
-33.639030 -27.710623 -18.613609 47.391238 0.689064 1.974432 -0.010942 0.005373 -420476.000000 0 0 1
-33.959730 -27.323823 -17.159509 46.843392 0.677536 1.945844 0.006549 0.005479 -49357.400000 0 0 1
-32.978230 -26.410023 -16.582409 45.387546 0.675248 1.944807 0.000813 0.008993 927975.000000 0 0 1
-33.361130 -25.852123 -15.347409 44.909245 0.659259 1.919567 0.008289 0.004854 -111384.000000 0 0 1
-33.120430 -26.730423 -14.087709 44.832377 0.679036 1.890443 -0.000713 0.008533 13164.900000 0 0 1
-34.050030 -27.809723 -14.090009 46.166153 0.684860 1.880947 0.013072 0.000247 441845.000000 0 0 1
-33.981830 -28.534523 -12.889909 46.207506 0.698484 1.853504 0.008647 -0.006413 -69088.300000 0 0 1
-34.850730 -29.808623 -12.878609 47.633875 0.707576 1.844570 0.025138 -0.005540 -217183.000000 0 0 1
-34.290730 -30.682523 -13.792009 48.036350 0.729921 1.862011 0.020743 -0.007997 135963.000000 0 0 1
-34.844230 -31.954723 -13.687709 49.219692 0.742168 1.852606 0.023057 -0.012277 -573729.000000 0 0 1
-34.111430 -32.998723 -14.581009 49.649887 0.768819 1.868867 0.023708 0.008391 -1861990.000000 0 0 1
-32.889330 -33.207423 -14.035309 48.799907 0.790211 1.862526 0.024040 -0.004714 -1608610.000000 0 0 1
-32.312230 34.177994 -14.810409 49.310888 -0.813452 1.875853 0.045194 -0.013289 -386417.000000 0 0 1
-30.777130 34.131094 -14.818109 48.288090 -0.837025 1.882698 0.039315 -0.012259 -177768.000000 0 0 1
-30.382630 33.227094 -15.886009 47.744207 -0.830086 1.909995 0.057922 -0.006601 -53924.700000 0 0 1
-29.000430 32.927794 -15.981709 46.697747 -0.848731 1.920093 0.037052 -0.004475 18853.100000 0 0 1
9.804165 20.354694 -9.654774 24.569287 1.121923 1.974646 0.053635 -0.009836 -94219.900000 0 1 0
8.483665 19.935694 -9.330874 23.589609 1.168459 1.977463 0.049392 -0.015772 744592.000000 0 1 0
7.613065 19.680294 -10.446074 23.545555 1.201689 2.030468 0.050665 -0.029916 479858.000000 0 1 0
7.787365 18.302594 -11.159274 22.806959 1.168520 2.082075 0.052908 -0.027469 -37219.700000 0 1 0
9.060365 18.094894 -11.768374 23.409613 1.106578 2.097533 0.075340 -0.030885 421676.000000 0 1 0
8.936265 17.032494 -12.712774 23.055960 1.087616 2.154823 0.074022 -0.033613 561929.000000 0 1 0
10.221265 16.748294 -13.588674 23.866957 1.022847 2.176512 0.084952 -0.021122 987477.000000 0 1 0
10.019665 15.504094 -14.225474 23.305251 0.997055 2.227359 0.088079 -0.032940 1420830.000000 0 1 0
11.244865 15.117694 -14.922374 24.034743 0.931261 2.240644 0.084433 -0.034322 1146720.000000 0 1 0
11.175065 13.662094 -15.487874 23.482102 0.885199 2.291031 0.069228 -0.041785 -565996.000000 0 1 0
11.161165 12.568494 -14.538674 22.224123 0.844636 2.283900 0.082992 -0.043819 420988.000000 0 1 0
12.397665 12.099694 -13.981274 22.261642 0.773235 2.249832 0.105998 -0.039647 433440.000000 0 1 0
13.389265 11.419394 -14.966374 23.101240 0.706162 2.275568 0.104719 -0.035024 -128253.000000 0 1 0
13.893165 12.289694 -15.968674 24.475603 0.724233 2.281586 0.072650 -0.023522 1244780.000000 0 1 0
14.941965 11.550194 -16.723974 25.226188 0.658062 2.295563 0.066348 -0.025910 1124860.000000 0 0 1
15.435265 12.367094 -17.896774 26.673712 0.675486 2.306288 0.037200 -0.023304 -333230.000000 0 0 1
16.225465 13.446094 -17.500574 27.392211 0.691999 2.263849 0.016412 -0.011273 -326413.000000 0 0 1
16.909365 13.990294 -18.613874 28.777269 0.691208 2.274211 -0.002722 -0.007821 -63995.500000 0 0 1
17.987065 15.008094 -18.123074 29.617954 0.695357 2.229250 -0.002790 0.000669 -346729.000000 0 0 1
17.664165 16.305294 -17.645174 29.820085 0.745417 2.203988 0.007076 -0.001547 -298933.000000 0 0 1
17.102865 17.092494 -18.638174 30.529377 0.785095 2.227488 0.002239 0.003671 -403095.000000 0 0 1
16.938165 18.488994 -18.114274 30.933335 0.829145 2.196405 0.007147 0.003081 157859.000000 0 0 1
18.176265 19.185694 -18.053074 32.005951 0.812409 2.170083 0.012421 0.007089 352370.000000 0 0 1
17.893065 20.547294 -17.660474 32.469145 0.854337 2.145893 0.003018 0.005443 342862.000000 0 0 1
18.912365 21.683694 -18.048774 33.964958 0.853558 2.131042 0.024226 -0.003975 595573.000000 0 0 1
20.127265 21.796694 -17.323674 34.355674 0.825198 2.099304 0.034721 -0.004758 -6342.150000 0 0 1
19.903365 22.746694 -16.271774 34.326762 0.851966 2.064654 0.039592 -0.005339 142035.000000 0 0 1
21.115465 23.283094 -15.467274 35.031441 0.834181 2.028094 0.054735 -0.006741 212571.000000 0 0 1
21.751665 22.328394 -14.609674 34.425785 0.798481 2.009075 0.049296 -0.006241 -314018.000000 0 0 1
22.542565 22.988494 -13.655174 34.972873 0.795192 1.971917 0.053173 -0.010136 1245480.000000 0 0 1
24.073365 22.596994 -13.843874 35.802288 0.753775 1.967820 0.054243 -0.010610 1187560.000000 0 0 1
24.679065 23.108294 -15.020174 36.995339 0.752540 1.988871 0.063996 -0.005499 1025400.000000 0 0 1
26.113565 23.215194 -14.905274 37.987243 0.726709 1.974009 0.062994 -0.005261 1145180.000000 0 0 1
26.800165 23.713794 -16.203774 39.283013 0.724375 1.995980 0.074096 0.001520 -562907.000000 0 0 1
26.846365 22.731394 -17.238374 39.174036 0.702588 2.026446 0.066170 -0.013910 173372.000000 0 0 1
27.044165 23.382894 -18.492674 40.250783 0.712920 2.048157 0.058198 -0.002281 -646916.000000 0 0 1
27.320065 22.387894 -19.638474 40.413777 0.686499 2.078229 0.056700 -0.014606 -950842.000000 0 0 1
28.611365 21.905494 -19.692474 41.064028 0.653425 2.070944 0.046216 -0.005001 -1008320.000000 0 0 1
29.005765 21.191994 -20.868274 41.544191 0.630978 2.097070 0.062345 -0.022139 535665.000000 0 0 1
30.547365 21.295894 -21.057774 42.779509 0.608806 2.085457 0.094480 -0.029095 332269.000000 0 0 1
30.757865 22.599794 -21.566774 43.839738 0.633679 2.085120 0.071962 -0.010679 -178.422000 0 0 1
32.163465 22.773794 -21.489374 44.887942 0.616118 2.070008 0.111385 -0.020721 461659.000000 0 0 1
32.687165 24.187094 -22.020374 46.242438 0.637042 2.067118 0.106127 -0.017766 121115.000000 0 0 1
32.791865 24.298394 -23.444074 47.067429 0.637709 2.092197 0.092461 -0.016830 753868.000000 0 0 1
31.559965 24.564294 -24.145674 46.716693 0.661392 2.113967 0.077913 -0.015744 495417.000000 0 0 1
31.813165 25.118494 -25.524584 47.901154 0.668344 2.132772 0.079150 -0.013932 -333803.000000 0 0 1
31.544165 26.482794 -25.713564 48.554712 0.698394 2.128901 0.077827 -0.014403 688642.000000 0 0 1
30.178465 26.849694 -25.982534 48.028511 0.727094 2.142400 0.057049 -0.003913 577902.000000 0 0 1
29.792065 26.610594 -27.496014 48.494552 0.729051 2.173646 0.068576 -0.005548 -368844.000000 0 0 1
29.691565 25.230594 -27.855664 47.896867 0.704353 2.191461 0.066240 -0.017187 98115.100000 0 0 1
29.178365 25.175294 -29.183084 48.340715 0.711882 2.218925 0.067423 -0.019685 -52879.800000 0 0 1
28.520465 23.792994 -29.485614 47.422831 0.695275 2.241784 0.072803 -0.020268 777671.000000 0 0 1
27.197565 23.617794 -28.976714 46.229402 0.715068 2.248239 0.056351 -0.016164 415527.000000 0 0 1
26.534665 22.395894 -29.225894 45.385211 0.701014 2.270449 0.062929 -0.021073 427248.000000 0 0 1
25.142065 22.484694 -28.528284 44.176327 0.729660 2.272844 0.046402 -0.020087 205791.000000 0 0 1
25.166765 22.407194 -27.120224 43.254536 0.727457 2.248482 0.038089 -0.007823 -537565.000000 0 0 1
23.901965 22.675694 -26.625084 42.360195 0.759077 2.250471 0.040388 -0.016789 -709455.000000 0 0 1
23.933565 22.845394 -25.107344 41.534398 0.762140 2.219928 0.039162 -0.009218 -470387.000000 0 0 1
24.314665 21.672394 -24.491774 40.752209 0.728004 2.215539 0.030809 -0.007644 99704.200000 0 0 1
24.410365 21.745694 -23.065874 40.009694 0.727730 2.185244 0.041626 -0.005896 -187839.000000 0 0 1
24.921865 20.457394 -22.442274 39.284347 0.687332 2.178858 0.049546 -0.007258 288469.000000 0 0 1
26.248065 20.131694 -22.848874 40.203445 0.654279 2.175273 0.044601 -0.012189 202322.000000 0 0 1
26.523265 18.777494 -22.551074 39.555389 0.616050 2.177441 0.078575 -0.024336 -725412.000000 0 0 1
27.698765 18.137094 -23.234274 40.447586 0.579741 2.182703 0.091865 -0.033900 -791221.000000 0 0 1
28.957065 18.360594 -22.662374 41.099953 0.565090 2.154834 0.122521 -0.049237 -481479.000000 0 0 1
29.919465 17.733994 -23.485674 41.967199 0.535053 2.164723 0.122312 -0.039053 -105860.000000 0 0 1
31.273965 17.442294 -22.833574 42.469596 0.508755 2.138438 0.123563 -0.042191 -159343.000000 0 0 1
31.973965 18.577094 -22.356274 43.211640 0.526337 2.114568 0.114581 -0.037659 -430979.000000 0 0 1
33.165265 18.195594 -21.735574 43.628541 0.501794 2.092314 0.114393 -0.035868 208439.000000 0 0 1
33.921965 19.315194 -20.884774 44.271324 0.517616 2.062065 0.094659 -0.047389 316373.000000 0 0 1
33.343965 19.531294 -19.629274 43.342817 0.529877 2.040794 0.107551 -0.044821 123827.000000 0 0 1
33.793265 20.761094 -18.969074 43.964002 0.550909 2.016916 0.081184 -0.023723 66016.600000 0 0 1
33.323665 20.845694 -17.484774 43.020075 0.558996 1.989343 0.080386 -0.030470 9429.020000 0 0 1
33.886165 19.837994 -16.648174 42.649500 0.529638 1.971807 0.084847 -0.042424 383556.000000 0 0 1
33.277965 19.775894 -15.349774 41.642820 0.536191 1.948305 0.075169 -0.032814 -161059.000000 0 0 1
33.700265 18.469794 -14.659174 41.130676 0.501353 1.935214 0.061001 -0.022591 110912.000000 0 0 1
35.097365 18.419794 -14.401174 42.172356 0.483306 1.919291 0.036167 -0.027360 187806.000000 0 0 1
35.460265 17.371294 -13.524874 41.738644 0.455519 1.900790 0.031415 -0.007988 -125315.000000 0 0 1
35.327565 17.672594 -12.022374 41.290372 0.463847 1.866242 0.043011 -0.015549 -229487.000000 0 0 1
36.094265 18.793294 -11.556574 42.302934 0.480049 1.847500 0.032377 -0.018890 129817.000000 0 0 1
35.713165 19.267594 -10.262174 41.856690 0.494753 1.818496 0.036563 -0.013419 300526.000000 0 0 1
34.459165 20.217994 -10.178274 41.228613 0.530600 1.820249 0.042079 -0.018956 867913.000000 0 0 1
33.230165 19.511494 -10.179074 39.856690 0.530926 1.829049 0.050019 -0.024773 228013.000000 0 0 1
32.079465 20.324894 -9.973474 39.264023 0.564745 1.827621 0.044780 -0.021064 1248950.000000 0 0 1
30.721165 19.612194 -10.357674 37.890757 0.568173 1.847677 0.063669 -0.021676 712541.000000 0 0 1
30.412365 19.433594 -11.729074 37.949277 0.568606 1.885014 0.071225 -0.030131 181287.000000 0 0 1
29.355165 18.496894 -11.933374 36.691500 0.562263 1.902057 0.078857 -0.028148 98996.800000 0 0 1
29.192465 18.108594 -13.443774 36.889785 0.555225 1.943818 0.101275 -0.029226 -339110.000000 0 0 1
30.294765 17.392494 -13.909074 37.599653 0.521164 1.949725 0.091380 -0.019245 -405299.000000 0 0 1
29.989365 16.565994 -15.023574 37.409917 0.504681 1.984052 0.071496 -0.012327 -234058.000000 0 0 1
31.183665 15.954094 -15.767874 38.413277 0.472898 1.993776 0.088972 -0.019352 -127449.000000 0 0 1
32.011965 15.154394 -14.943874 38.441395 0.442140 1.970065 0.072447 -0.014423 1003080.000000 0 0 1
33.222465 14.707294 -15.588574 39.535304 0.416759 1.976097 0.078763 -0.020177 614212.000000 0 0 1
34.033765 13.642694 -14.880774 39.570919 0.381245 1.956330 0.044430 -0.013784 -447044.000000 0 0 1
34.545065 14.115894 -13.681674 39.746800 0.387917 1.922205 0.051148 -0.008321 -29206.800000 0 0 1
34.920865 13.093794 -12.798774 39.429974 0.358732 1.901380 0.046322 -0.009404 76691.900000 0 0 1
35.811465 13.619594 -11.611674 40.034801 0.363421 1.865064 0.054852 -0.008954 48083.400000 0 0 1
-35.624840 13.912494 -12.063074 40.102425 -0.372314 1.876335 0.034638 -0.007076 -339959.000000 0 0 1
-34.669140 14.206194 -11.052674 39.063113 -0.388896 1.857658 0.026802 -0.015613 -237169.000000 0 0 1
-33.282340 14.573994 -11.614274 38.144552 -0.412737 1.880189 0.046179 -0.015789 718808.000000 0 0 1
-32.351440 13.545794 -12.096874 37.100385 -0.396529 1.902927 0.049111 -0.019168 1114700.000000 0 0 1
-32.060340 12.481694 -11.144474 36.164311 -0.371265 1.884057 0.067173 -0.017751 -427733.000000 0 0 1
-30.816640 11.693994 -11.676274 34.967845 -0.362684 1.911250 0.077740 -0.018810 244564.000000 0 0 1
-31.008640 10.856494 -12.813374 35.264455 -0.336774 1.942659 0.072766 -0.013834 278422.000000 0 0 1
-29.944640 9.928694 -12.936974 34.097298 -0.320161 1.959959 0.094802 -0.020697 -34056.800000 0 0 1
-29.966640 9.152594 -14.246174 34.419805 -0.296427 1.997525 0.098308 -0.020196 754074.000000 0 0 1
-31.164040 8.355594 -14.442974 35.349864 -0.261955 1.991686 0.095620 -0.026340 1171840.000000 0 0 1
-30.988140 7.572894 -15.589174 35.505435 -0.239683 2.025353 0.098991 -0.031397 -19374.800000 0 0 1
-32.290440 7.185094 -16.318874 36.886363 -0.218948 2.029080 0.089388 -0.036164 574025.000000 0 0 1
-32.997540 6.009794 -15.794574 37.073223 -0.180154 2.010904 0.099276 -0.035029 1058200.000000 0 0 1
-34.231040 5.659394 -16.426274 38.387698 -0.163847 2.012969 0.067940 -0.038730 878770.000000 0 0 1
-35.301740 5.098694 -15.419674 38.858408 -0.143440 1.978843 0.059589 -0.033268 -116195.000000 0 0 1
36.242965 4.620494 -15.966574 39.872709 0.126803 1.982792 0.050439 -0.021724 -634724.000000 0 0 1
35.281365 4.368294 -14.981474 38.578507 0.123186 1.969623 0.056195 -0.027493 313858.000000 0 0 1
34.347565 3.148694 -15.167374 37.679155 0.091416 1.985086 0.051473 -0.026553 -113321.000000 0 0 1
35.072565 1.968794 -14.895274 38.155342 0.056076 1.971846 0.054052 -0.024811 103056.000000 0 0 1
34.476465 0.687094 -15.160474 37.668802 0.019927 1.985007 0.061443 -0.000196 -489071.000000 0 0 1
33.765365 0.146394 -13.911874 36.519331 0.004336 1.961615 0.073577 -0.013094 228794.000000 0 0 1
34.620565 -0.326706 -12.819674 36.919294 -0.009436 1.925417 0.080781 -0.012788 466590.000000 0 0 1
34.071965 -0.196006 -11.482174 35.955215 -0.005753 1.895836 0.084787 -0.005301 -111195.000000 0 0 1
33.996665 1.174094 -10.797074 35.689333 0.034522 1.878142 0.088383 -0.014804 770579.000000 0 0 1
33.013565 2.062894 -11.423874 34.995083 0.062405 1.903333 0.082166 -0.012321 1088820.000000 0 0 1
33.239165 3.384694 -10.911574 35.147698 0.101479 1.886462 0.083788 -0.022340 129707.000000 0 0 1
32.226665 4.425594 -11.466174 34.490824 0.136473 1.909687 0.076357 -0.024632 117364.000000 0 0 1
32.504565 4.873194 -12.835174 35.285074 0.148815 1.943094 0.071135 -0.023720 -155469.000000 0 0 1
31.504865 5.692894 -13.318074 34.674726 0.178770 1.965014 0.076159 -0.027221 -693742.000000 0 0 1
31.865265 6.390494 -14.616074 35.635139 0.197922 1.993425 0.050802 -0.022237 -709524.000000 0 0 1
31.959865 5.518994 -15.746374 36.053301 0.170999 2.022782 0.041146 -0.010724 238799.000000 0 0 1
32.141065 6.223894 -16.948474 36.865101 0.191276 2.048502 0.032589 -0.006934 189706.000000 0 0 1
30.908865 7.102794 -17.421574 36.184511 0.225876 2.073122 0.043800 -0.011453 963674.000000 0 0 1
29.710265 6.561894 -17.928474 35.315555 0.217373 2.103269 0.041494 -0.009415 476172.000000 0 0 1
28.903165 5.755994 -17.065174 34.055022 0.196576 2.095673 0.044204 -0.006535 193197.000000 0 0 1
27.449065 5.640794 -17.634674 33.109688 0.202679 2.132482 0.050873 -0.004134 397168.000000 0 0 1
27.422665 4.723994 -18.719874 33.537327 0.170592 2.162987 0.053517 -0.009478 -269203.000000 0 0 1
26.339365 4.909994 -19.571074 33.179769 0.184297 2.201669 0.063837 -0.013861 -491196.000000 0 0 1
26.019865 3.713094 -20.433874 33.292095 0.141745 2.231630 0.057524 -0.001890 -432667.000000 0 0 1
25.230365 2.824894 -19.712774 32.142569 0.111500 2.231018 0.068318 -0.009279 -296847.000000 0 0 1
24.837565 1.790094 -20.551274 32.287210 0.071948 2.260767 0.061017 -0.014369 -550037.000000 0 0 1
23.800565 0.949994 -19.780474 30.961856 0.039894 2.263820 0.063825 -0.018249 -313207.000000 0 0 1
22.638965 1.712594 -19.543574 29.956752 0.075504 2.281534 0.055191 -0.021783 -176142.000000 0 0 1
21.763565 1.008594 -18.688774 28.704360 0.046310 2.279800 0.055496 -0.022960 -256177.000000 0 0 1
20.409165 1.704994 -18.464974 27.575284 0.083347 2.304494 0.050112 -0.026488 -1066280.000000 0 0 1
19.541965 1.455994 -19.545374 27.677246 0.074369 2.354898 0.044751 -0.021438 87958.100000 0 0 1
18.373365 2.250094 -19.618174 26.972508 0.121858 2.385234 0.031182 -0.018164 442885.000000 0 0 1
17.256365 1.942594 -18.598974 25.445581 0.112101 2.390482 0.052794 -0.024628 -1064760.000000 0 0 1
17.473665 2.574594 -17.360874 24.766054 0.146289 2.347588 0.061904 -0.021050 226058.000000 0 1 0
16.471765 2.338094 -16.373874 23.342867 0.141004 2.348227 0.043718 -0.010404 286560.000000 0 1 0
15.368765 3.431294 -16.294874 22.660442 0.219662 2.373287 0.052416 -0.014526 102910.000000 0 1 0
14.537165 3.504294 -17.441074 22.973904 0.236545 2.432832 0.040737 -0.009370 454353.000000 0 1 0
13.596865 4.562294 -17.234174 22.421106 0.323735 2.447538 0.045338 -0.012296 49586.400000 0 1 0
-20.029835 -21.551806 -17.958774 34.470164 0.821984 2.118812 0.056513 -0.009649 -29100.900000 0 0 1
-19.749835 -22.439706 -19.002674 35.421717 0.849069 2.137044 0.061083 -0.013693 374155.000000 0 0 1
-20.809535 -22.462106 -19.963674 36.553129 0.823570 2.148564 0.062253 -0.009543 187231.000000 0 0 1
-20.578835 -23.283006 -21.248974 37.644465 0.846972 2.170581 0.055036 -0.000993 -71654.500000 0 0 1
-20.589835 -24.662906 -21.067274 38.419140 0.875163 2.151191 0.050319 -0.008546 310564.000000 0 0 1
-19.768435 -25.219876 -22.082174 38.916007 0.905985 2.174180 0.046970 -0.010315 113771.000000 0 0 1
-19.579435 -26.697346 -21.727974 39.600599 0.938014 2.151578 0.055845 -0.001606 585522.000000 0 0 1
-20.795335 -27.420626 -22.005174 40.848065 0.921952 2.139699 0.062185 0.010024 675044.000000 0 0 1
-20.691035 -28.788336 -21.669674 41.550716 0.947610 2.119432 0.088236 -0.017404 363706.000000 0 0 1
-22.055335 -29.551986 -21.800974 42.837369 0.929652 2.104731 0.080390 -0.013243 406050.000000 0 0 1
-22.535435 -29.512476 -23.152374 43.759165 0.918654 2.128320 0.065427 -0.010551 69040.000000 0 0 1
-21.851335 -30.273126 -24.151974 44.466402 0.945585 2.144982 0.067377 -0.014126 -351323.000000 0 0 1
-22.315335 -29.780696 -25.530724 45.129613 0.927729 2.172102 0.055604 -0.008487 287552.000000 0 0 1
-23.659935 -30.085786 -25.877914 46.201878 0.904394 2.165309 0.051767 -0.003714 451359.000000 0 0 1
-24.168435 -29.278126 -26.917364 46.538870 0.880712 2.187543 0.045086 -0.001652 -6030.430000 0 0 1
-23.643535 -29.493176 -28.407444 47.284745 0.895043 2.215265 0.043791 -0.009587 -176590.000000 0 0 1
-24.074935 -30.728816 -28.974384 48.614582 0.906220 2.209309 0.040965 0.002267 276041.000000 0 0 1
-23.698235 -30.738346 -30.337604 49.262790 0.914011 2.234238 0.051860 0.006484 -208480.000000 0 0 1
-24.210135 -31.929016 -31.135234 50.744414 0.922037 2.231370 0.041316 0.006371 101144.000000 0 0 1
-23.562735 -33.126056 -30.795354 50.998941 0.952523 2.219110 0.035367 -0.000577 652648.000000 0 0 1
-24.509235 -34.119948 -31.208254 52.333819 0.947877 2.209718 0.039044 -0.001124 476423.000000 0 0 1
-23.923935 32.922038 -31.067884 51.199889 -0.942385 2.222820 0.049888 -0.005608 96519.200000 0 0 1
-23.012935 32.450389 -32.040324 51.080380 -0.953941 2.248817 0.045597 -0.016321 -25112.400000 0 0 1
-22.634035 31.095351 -31.818094 49.916044 -0.941596 2.261957 0.065342 -0.013551 -65943.500000 0 0 1
-21.457835 30.734221 -32.731524 49.763276 -0.961297 2.288617 0.057030 -0.004886 -62449.400000 0 0 1
-21.926635 30.437581 -34.009624 50.634753 -0.946523 2.307251 0.042415 0.000803 297564.000000 0 0 1
-21.162235 29.350471 33.935581 49.607600 -0.946103 0.817454 0.033687 0.004529 48668.700000 0 0 1
-21.347835 29.218961 32.438255 48.597512 -0.939817 0.839966 0.019179 -0.003427 -328711.000000 0 0 1
-20.769335 30.281801 31.812831 48.584040 -0.969618 0.856878 0.016459 -0.000276 119215.000000 0 0 1
-20.702035 30.058471 30.367351 47.479069 -0.967677 0.876826 0.018088 -0.001167 -251891.000000 0 0 1
-20.060835 31.352331 29.801211 47.681421 -1.001588 0.895656 0.008879 -0.016399 281952.000000 0 0 1
-21.000535 32.457363 29.825061 48.826603 -0.996519 0.913680 0.002214 -0.012479 665689.000000 0 0 1
-20.465935 33.643221 29.269111 49.065280 -1.024280 0.931621 0.002321 -0.024490 -147829.000000 0 0 1
-21.428035 -33.563696 29.194311 49.376009 1.002598 0.938170 0.016381 -0.028215 -110974.000000 0 0 1
-21.714735 -33.104596 30.525521 49.992514 0.990254 0.913976 0.008588 -0.014445 -18680.000000 0 0 1
-22.650535 -32.031436 30.555101 49.725988 0.955298 0.909083 0.018737 -0.014180 -210224.000000 0 0 1
-22.171035 -30.627626 30.109551 48.334164 0.944216 0.898294 0.027478 -0.016745 -160347.000000 0 0 1
-22.232335 -30.479046 28.704391 47.404547 0.940590 0.920377 0.018720 -0.014689 11186.500000 0 0 1
-22.326435 -29.175936 28.189111 46.306922 0.917616 0.916318 0.031828 -0.022970 -1414260.000000 0 0 1
-23.684135 -28.935606 27.642601 46.500763 0.884869 0.934209 0.028872 -0.008576 -1971240.000000 0 0 1
-24.659835 -28.629646 28.635151 47.410295 0.859756 0.922303 0.034817 -0.006828 658865.000000 0 0 1
-25.806585 -29.456196 28.810121 48.617594 0.851343 0.936530 0.026558 0.000185 822798.000000 0 0 1
-26.881085 -29.244606 27.680101 48.415161 0.827485 0.962191 0.024328 -0.002023 -299525.000000 0 0 1
-26.312575 -29.539336 26.419321 47.569997 0.843108 0.981979 0.013752 0.008254 -172545.000000 0 0 1
-27.327205 -29.581076 25.480211 47.655613 0.824983 1.006675 0.021817 0.008832 -292857.000000 0 0 1
-26.670925 -29.884126 24.101461 46.746976 0.842153 1.029121 0.009715 0.010093 -572008.000000 0 0 1
-25.875505 -28.817846 23.640861 45.375108 0.839143 1.022763 -0.004407 0.006554 229732.000000 0 0 1
-25.396125 -28.913386 22.327861 44.491353 0.850071 1.045063 0.009806 0.003441 51573.600000 0 0 1
-24.240435 -29.923296 22.143161 44.422089 0.889936 1.048961 0.007861 -0.004331 -841290.000000 0 0 1
-24.725735 -31.227016 22.195561 45.597494 0.901072 1.062406 -0.002500 -0.012077 742032.000000 0 0 1
-23.687735 -32.182736 21.926261 45.580679 0.936291 1.068952 0.015182 -0.000884 183953.000000 0 0 1
-22.835135 -32.776796 23.039661 46.114941 0.962298 1.047643 0.015550 -0.009992 64870.600000 0 0 1
-21.938735 -31.865676 23.674571 45.356530 0.967847 1.021642 0.046037 -0.018929 559356.000000 0 0 1
-21.319135 -32.545946 24.792591 46.134767 0.990881 1.003451 0.052106 -0.035321 89284.700000 0 0 1
-20.405235 -31.578736 25.600691 45.486104 0.997118 0.972997 0.050412 -0.021193 -239085.000000 0 0 1
-19.252235 -31.114796 24.901631 44.259128 1.016705 0.973229 0.063013 -0.026572 233592.000000 0 0 1
-18.274035 -30.538946 25.698661 43.897481 1.031565 0.945393 0.073213 -0.031809 130812.000000 0 0 1
-17.437335 -31.439796 26.674961 44.766897 1.064408 0.932456 0.056253 -0.041579 -690536.000000 0 0 1
-18.151135 -31.728546 27.874261 45.968890 1.051162 0.919306 0.045011 -0.040209 274501.000000 0 0 1
-17.394535 -32.389586 28.873971 46.747849 1.077957 0.905041 0.051915 -0.036334 -328046.000000 0 0 1
-17.789935 -32.019726 30.296091 47.535227 1.063669 0.879755 0.052313 -0.031359 -132787.000000 0 0 1
-17.488935 -30.660116 30.449731 46.616432 1.052416 0.858997 0.056527 -0.029690 109150.000000 0 0 1
-17.929535 -30.063366 31.649641 47.190826 1.033034 0.835680 0.044772 -0.019346 -280958.000000 0 0 1
-17.840335 -28.493326 31.561741 46.111720 1.011390 0.816930 0.044900 -0.021933 -129479.000000 0 0 1
-18.607235 -27.694416 30.679451 45.325916 0.979195 0.827303 0.051749 -0.025682 -47847.900000 0 0 1
-18.650935 -27.985126 29.282241 44.592313 0.982938 0.854407 0.066798 -0.019017 62261.300000 0 0 1
-17.353935 -27.807286 28.427331 43.387987 1.012860 0.856364 0.050499 -0.012056 417309.000000 0 0 1
-16.826035 -26.467056 28.400581 42.310915 1.004515 0.834922 0.041839 -0.007257 -20536.800000 0 0 1
-15.677135 -26.374256 27.609951 41.275700 1.034497 0.838048 0.038686 -0.005435 -215663.000000 0 0 1
-15.451035 -24.952906 27.072001 39.928377 1.016373 0.825739 0.035472 0.000316 -471071.000000 0 0 1
-16.488435 -24.648106 26.189511 39.563723 0.981212 0.847369 0.058963 -0.016040 -155661.000000 0 0 1
-16.200935 -23.479406 25.455851 38.232881 0.966809 0.842217 0.050736 -0.009021 -109512.000000 0 0 1
-16.913135 -22.218506 25.935691 38.110055 0.920154 0.822287 0.046112 -0.014939 -556339.000000 0 0 1
-16.524535 -21.148706 25.215971 36.826258 0.907531 0.816566 0.034405 -0.007745 323793.000000 0 0 1
-17.281635 -19.968906 25.577691 36.764527 0.857414 0.801379 0.043067 -0.016608 168430.000000 0 0 1
-16.910735 -18.902906 24.505321 35.267600 0.840967 0.802600 0.036922 -0.018676 541114.000000 0 0 1
-15.639835 -18.274206 24.631701 34.427776 0.862920 0.773514 0.042395 -0.017926 27759.400000 0 0 1
-15.545235 -17.280506 23.574901 33.106589 0.838212 0.778324 0.038756 -0.017801 138115.000000 0 0 1
-14.166735 -16.583306 23.616631 32.147282 0.863825 0.745663 0.050595 -0.017576 -549.762000 0 0 1
-13.000835 -17.339506 23.392821 31.888937 0.927435 0.747234 0.010239 -0.002944 -96502.400000 0 0 1
-11.843335 -16.569806 23.599011 31.172687 0.950237 0.712024 0.008051 -0.007909 85264.500000 0 0 1
-11.186835 -15.946606 22.304061 29.612678 0.959052 0.717894 0.018777 -0.013844 -214318.000000 0 0 1
-10.659435 -16.837506 21.364461 29.215842 1.006410 0.750625 0.045265 -0.005253 -1256270.000000 0 0 1
-9.297335 -16.995906 21.402761 28.868313 1.070233 0.735653 0.041970 -0.003513 -1432220.000000 0 0 1
-8.884435 -18.371806 20.800861 29.139875 1.120362 0.775847 0.044204 0.005375 -172917.000000 0 0 1
-8.841235 -18.283006 19.398461 28.084445 1.120373 0.808313 0.037807 0.001926 -157498.000000 0 0 1
-8.616035 -19.489506 18.714061 28.360060 1.154543 0.850146 0.029682 0.001666 -63122.500000 0 0 1
-8.275935 -19.207506 17.229761 27.097677 1.163964 0.881701 0.033410 -0.011465 -522653.000000 0 0 1
-7.185735 -18.360906 17.048961 26.065778 1.197760 0.857838 0.052967 -0.010727 -614075.000000 0 0 1
-6.987335 -18.133806 15.688061 24.975449 1.203008 0.891637 0.069616 -0.015973 -184064.000000 0 1 0
-5.856435 -17.160606 15.403461 23.791824 1.241918 0.866593 0.049079 -0.013371 -215315.000000 0 1 0
-6.143935 -15.877206 15.973761 23.345121 1.201577 0.817230 0.044745 -0.018833 -534574.000000 0 1 0
-5.078835 -15.006906 15.839261 22.402768 1.244463 0.785517 0.031282 -0.003631 -825848.000000 0 1 0
-5.185235 -13.709606 16.661861 22.191386 1.209206 0.721485 0.006086 -0.002051 -223115.000000 0 1 0
-4.999035 -13.839606 18.094761 23.322638 1.224168 0.682742 0.021465 -0.002320 461474.000000 0 1 0
-5.856535 -14.772306 18.823961 24.634560 1.193351 0.701108 0.044271 -0.015119 827249.000000 0 1 0
-7.190735 -14.134706 19.340761 25.011231 1.100190 0.686794 0.060534 -0.022610 410571.000000 0 0 1
-6.966735 -13.117606 20.325661 25.174183 1.082581 0.631063 0.052073 -0.022378 -784259.000000 0 0 1
-8.139835 -12.614106 20.842761 25.686442 0.997735 0.624201 0.051987 -0.015297 -372037.000000 0 0 1
-7.771035 -11.648606 22.002661 26.080570 0.982479 0.566766 0.056605 -0.011688 -225842.000000 0 0 1
-7.367735 -10.324206 21.557161 25.011677 0.950977 0.531823 0.046099 -0.006956 278013.000000 0 0 1
-6.858335 -9.480206 22.589061 25.439669 0.944513 0.477936 0.045264 -0.011822 909295.000000 0 0 1
-5.457135 -9.808906 23.243161 25.811616 1.063095 0.449896 0.058801 -0.003772 637418.000000 0 0 1
-5.434935 -10.976706 23.993521 26.939111 1.111049 0.472007 0.069399 -0.002140 345456.000000 0 0 1
-4.110435 -11.166706 24.492831 27.230310 1.218091 0.452243 0.055807 -0.001806 310335.000000 0 0 1
-4.021935 -12.537706 25.225351 28.455024 1.260379 0.481073 0.054055 -0.004442 15659.700000 0 0 1
-2.727435 -12.817906 25.742291 28.886038 1.361140 0.470885 0.055075 -0.005793 327463.000000 0 0 1
-2.726435 -13.895406 26.669081 30.195292 1.377046 0.488112 0.044066 -0.007636 -97784.800000 0 0 1
-2.738735 -15.365706 26.204301 30.500345 1.394412 0.537194 0.054167 -0.018364 229617.000000 0 0 1
-1.595335 -15.804406 25.468981 30.016552 1.470195 0.557656 0.048597 -0.019515 3568.050000 0 0 1
-1.742535 -17.088006 24.845391 30.204799 1.469173 0.604890 0.062929 -0.015176 -125122.000000 0 0 1
-0.428435 -17.940406 24.692541 30.524799 1.546920 0.628460 0.064178 -0.021025 841103.000000 0 0 1
0.214465 -18.393006 25.870271 31.743025 -1.559137 0.618083 0.068368 -0.022959 135916.000000 0 0 1
0.719765 -17.378406 26.732101 31.892512 -1.529403 0.576834 0.076360 -0.022154 -972826.000000 0 0 1
1.432365 -17.894806 27.990761 33.252947 -1.490923 0.570275 0.068595 -0.017411 -2162.180000 0 0 1
2.685465 -18.481006 27.577321 33.305675 -1.426497 0.595253 0.072856 -0.024984 980641.000000 0 0 1
3.624865 -18.731006 28.628411 34.403142 -1.379637 0.587831 0.066314 -0.022207 252375.000000 0 0 1
4.316365 -17.521206 29.208271 34.332882 -1.329255 0.553409 0.066527 -0.022371 -1193090.000000 0 0 1
3.471765 -16.634106 29.932201 34.419229 -1.365036 0.516332 0.053691 -0.020789 -76887.900000 0 0 1
4.139765 -15.613606 30.641361 34.638351 -1.311621 0.485144 0.055210 -0.025712 -24265.300000 0 0 1
3.129665 -14.619806 31.287221 34.675983 -1.359909 0.445783 0.044591 -0.021070 340575.000000 0 0 1
2.348965 -15.243606 32.293091 35.787273 -1.417904 0.445576 0.061827 -0.027247 870.213000 0 0 1
1.383265 -14.352706 32.823969 35.851451 -1.474717 0.413911 0.042926 -0.019661 -49450.700000 0 0 1
0.744865 -14.953506 34.075944 37.220051 -1.521025 0.413981 0.044613 -0.023559 254222.000000 0 0 1
1.609765 -14.844106 -33.248784 36.447503 -1.462774 2.719510 0.058828 -0.014926 -253095.000000 0 0 1
0.969565 -15.417906 -32.154424 35.672943 -1.507993 2.693713 0.050321 -0.020997 -94742.400000 0 0 1
1.845065 -15.545306 -30.908034 34.646318 -1.452660 2.672771 0.050036 -0.017640 -66248.300000 0 0 1
1.204065 -16.201306 -29.812774 33.951931 -1.496614 2.642647 0.049285 -0.014916 -465215.000000 0 0 1
1.998465 -16.233106 -28.661354 32.999709 -1.448302 2.623032 0.051525 -0.018510 -12474.800000 0 0 1
1.522365 -17.249306 -27.658084 32.631668 -1.482768 2.582212 0.076646 -0.018579 382698.000000 0 0 1
2.172565 -18.494106 -28.016474 33.640375 -1.453859 2.554984 0.072412 -0.013515 316868.000000 0 0 1
1.726965 -19.609806 -27.244964 33.612720 -1.482957 2.515896 0.103754 -0.021157 -660433.000000 0 0 1
2.436865 -20.967106 -27.572214 34.724413 -1.455092 2.488206 0.087474 -0.019096 1149040.000000 0 0 1
3.816065 -21.035306 -27.140584 34.549353 -1.391336 2.474397 0.066502 -0.015096 898856.000000 0 0 1
4.061365 -20.997006 -25.740464 33.465511 -1.379730 2.448328 0.077193 -0.015806 -141579.000000 0 0 1
5.518765 -21.506306 -25.422664 33.753368 -1.319605 2.423693 0.069264 -0.017262 721818.000000 0 0 1
5.941765 -22.833506 -25.673204 34.868137 -1.316221 2.398374 0.068741 -0.013178 -56019.300000 0 0 1
5.868065 -23.355006 -27.027614 36.199205 -1.324637 2.413786 0.051167 -0.005303 -441127.000000 0 0 1
5.261665 -24.756706 -27.048584 37.043292 -1.361378 2.389394 0.035171 0.003272 84862.000000 0 0 1
6.028165 -25.702236 -26.314454 37.274579 -1.340422 2.354578 0.035090 0.007684 -101838.000000 0 0 1
5.539565 -27.014296 -26.478694 38.230619 -1.368540 2.335890 0.025503 0.007491 26918.200000 0 0 1
6.000065 -28.049686 -25.428354 38.332582 -1.360064 2.296098 0.022142 0.005388 147371.000000 0 0 1
7.332765 -28.509236 -25.528514 38.964741 -1.319047 2.285203 0.027928 0.004914 -17807.400000 0 0 1
7.472165 -29.825976 -25.021174 39.641913 -1.325323 2.253870 0.023332 0.004217 224579.000000 0 0 1
8.774565 -30.529346 -25.489734 40.727884 -1.290926 2.247023 0.035263 0.004331 245210.000000 0 0 1
8.976265 -30.543476 -26.869824 41.658909 -1.284959 2.271814 0.035578 0.001633 -384872.000000 0 0 1
10.323965 -30.613886 -27.257394 42.270082 -1.245542 2.271609 0.079312 -0.012142 -36660.200000 0 0 1
10.524665 -30.418246 -28.771644 43.172280 -1.237691 2.300217 0.087979 -0.011084 -197243.000000 0 0 1
10.013865 -31.447746 -29.549284 44.298966 -1.262519 2.301028 0.085652 -0.024844 -79086.800000 0 0 1
10.055265 -31.066686 -30.878644 44.941495 -1.257770 2.328266 0.089680 -0.030786 -29033.500000 0 0 1
-35.122524 -4.642006 -5.776274 35.895755 0.131404 1.732417 0.096618 -0.033730 25210.800000 0 0 1
-34.627468 -4.002806 -4.615174 35.162251 0.115085 1.702430 0.100205 -0.041795 23542.300000 0 0 1
-33.740255 -2.947106 -4.765774 34.202381 0.087126 1.710592 0.103854 -0.041898 -549341.000000 0 0 1
-34.341868 -1.610606 -5.180874 34.767793 0.046865 1.720367 0.118432 -0.032579 -129080.000000 0 0 1
-35.250828 -1.038506 -4.247274 35.520962 0.029452 1.690654 0.091709 -0.025546 302358.000000 0 0 1
-36.059315 -0.079706 -4.846774 36.383675 0.002210 1.704406 0.090567 -0.030919 -291845.000000 0 0 1
35.816820 0.793294 -3.889274 36.036098 0.022145 1.678934 0.093241 -0.022608 198721.000000 0 0 1
-36.107055 1.655294 -3.047074 36.273187 -0.045812 1.654899 0.082455 -0.018303 446548.000000 0 0 1
35.837920 2.603394 -2.323674 36.007410 0.072516 1.635374 0.085290 -0.018695 -200186.000000 0 0 1
-36.204505 3.946694 -2.034874 36.475791 -0.108582 1.626612 0.076023 -0.020845 -228981.000000 0 0 1
-36.084955 4.750894 -3.218074 36.538350 -0.130906 1.658984 0.085543 -0.023414 639316.000000 0 0 1
-34.734010 4.777494 -3.671574 35.252750 -0.136687 1.675136 0.069274 -0.010634 525775.000000 0 0 1
-33.825925 5.982094 -3.224274 34.501806 -0.175040 1.664385 0.061821 -0.011467 -44725.200000 0 0 1
-33.429955 5.925594 -1.876474 34.002878 -0.175432 1.626010 0.065184 -0.017953 403358.000000 0 0 1
-33.308545 7.217894 -1.353174 34.108478 -0.213399 1.610479 0.078175 -0.030755 -407336.000000 0 0 1
-32.740835 7.328594 0.047826 33.551049 -0.220207 1.569371 0.086519 -0.024805 -845671.000000 0 0 1
-31.351055 7.141894 0.025726 32.154253 -0.223982 1.569996 0.091455 -0.022789 111009.000000 0 0 1
-30.639545 7.417794 1.236826 31.548933 -0.237528 1.531583 0.097692 -0.037806 162052.000000 0 0 1
-30.325225 8.927194 1.453626 31.645333 -0.286295 1.524845 0.093928 -0.033104 -1200810.000000 0 0 1
-31.458155 9.706394 1.350526 32.949257 -0.299282 1.529797 0.100911 -0.034202 -611084.000000 0 0 1
-31.233825 11.072294 1.659126 33.179817 -0.340675 1.520771 0.106372 -0.025809 -153565.000000 0 0 1
-32.486165 11.962294 1.512226 34.651612 -0.352820 1.527142 0.119547 -0.038589 -766988.000000 0 0 1
-32.841595 12.049394 0.135026 34.982517 -0.351645 1.566937 0.116058 -0.041888 634148.000000 0 0 1
-33.930155 12.947494 -0.084074 36.316664 -0.364538 1.573111 0.113186 -0.035410 946417.000000 0 0 1
-35.367289 12.384094 0.216826 37.473430 -0.336814 1.565010 0.129308 -0.043362 -29864.900000 0 0 1
-35.789035 11.397294 -0.708174 37.566672 -0.308303 1.589649 0.116922 -0.038888 -740935.000000 0 0 1
35.827470 10.747494 -0.212874 37.405367 0.291438 1.576487 0.130419 -0.037174 -420898.000000 0 0 1
35.267660 9.600194 -1.144074 36.568845 0.265770 1.602087 0.124813 -0.035948 418833.000000 0 0 1
34.812100 10.027394 -2.464074 36.311191 0.280452 1.638708 0.115470 -0.028629 338972.000000 0 0 1
34.099820 8.907094 -2.948274 35.367023 0.255498 1.654255 0.098073 -0.036205 -111648.000000 0 0 1
33.524460 9.000994 -4.394974 34.988899 0.262304 1.696740 0.081502 -0.024800 128708.000000 0 0 1
32.271790 9.667294 -4.447174 33.980911 0.291052 1.702046 0.090211 -0.028764 255454.000000 0 0 1
31.801780 9.747494 -5.736974 33.753217 0.297417 1.741594 0.073158 -0.013801 34979.000000 0 0 1
30.344270 10.259294 -5.882974 32.567425 0.326031 1.752433 0.086473 -0.012279 633027.000000 0 0 1
29.269030 9.331294 -5.699474 31.244730 0.308624 1.754237 0.077092 -0.009651 621148.000000 0 0 1
28.052140 9.894594 -6.097774 30.364591 0.339097 1.772990 0.086886 0.004049 -376120.000000 0 0 1
26.881870 8.891294 -6.197974 28.984563 0.319428 1.786298 0.095097 0.013051 -236498.000000 0 0 1
26.924370 8.076994 -7.330774 29.049953 0.291446 1.825905 0.091931 0.004749 -174626.000000 0 0 1
25.829870 7.231494 -7.400274 27.825181 0.272977 1.839992 0.093517 -0.001532 -595865.000000 0 0 1
25.867970 6.197094 -8.566074 27.945186 0.235135 1.882343 0.096157 -0.018591 410143.000000 0 0 1
26.942370 5.250294 -8.414574 28.709962 0.192459 1.868252 0.101542 -0.018805 1041920.000000 0 0 1
26.933670 4.262494 -9.468174 28.865857 0.156957 1.904988 0.087952 -0.022302 -282848.000000 0 0 1
27.952810 3.132694 -9.156774 29.580734 0.111605 1.885518 0.093997 -0.017566 -604194.000000 0 0 1
29.294500 3.495894 -9.381874 30.958174 0.118774 1.878688 0.110427 -0.012302 464944.000000 0 0 1
30.229540 3.024994 -8.418774 31.525409 0.099735 1.841124 0.084085 -0.017731 101947.000000 0 0 1
30.533270 1.520494 -8.441974 31.715286 0.049757 1.840224 0.092751 -0.021656 -592265.000000 0 0 1
29.639470 0.767294 -7.586474 30.604599 0.025882 1.821295 0.107077 -0.025098 667237.000000 0 0 1
29.989040 -0.583206 -7.243474 30.856937 -0.019445 1.807751 0.102370 -0.027020 -245626.000000 0 0 1
29.773160 -1.703006 -8.261074 30.944896 -0.057137 1.841034 0.092430 -0.019163 -308855.000000 0 0 1
30.627840 -1.724706 -9.384174 32.079618 -0.056252 1.867665 0.095659 -0.016922 181580.000000 0 0 1
30.643360 -3.012506 -9.960074 32.361918 -0.097994 1.883646 0.081662 -0.018178 -120209.000000 0 0 1
31.827090 -3.289106 -10.895574 33.800819 -0.102977 1.899004 0.077064 -0.012203 -422696.000000 0 0 1
33.130650 -3.490206 -10.428074 34.907968 -0.104960 1.874158 0.083664 -0.013771 -273861.000000 0 0 1
33.948750 -3.886106 -11.493574 36.051653 -0.113974 1.895268 0.074590 -0.010107 383336.000000 0 0 1
35.394080 -4.212206 -10.974774 37.295163 -0.118452 1.869486 0.083343 -0.013537 310015.000000 0 0 1
35.536650 -5.459106 -10.284274 37.395476 -0.152427 1.849400 0.075953 -0.016165 -38622.600000 0 0 1
-35.940800 -5.613406 -9.667374 37.639203 0.154933 1.830551 0.074457 -0.015809 -341523.000000 0 0 1
-35.979107 -6.876806 -8.813774 37.675844 0.188856 1.806921 0.069812 -0.020184 -32478.900000 0 0 1
35.897810 -6.739806 -7.665074 37.320652 -0.185589 1.777653 0.071638 -0.022638 735768.000000 0 0 1
35.803330 -7.984606 -7.090074 37.361765 -0.219422 1.761722 0.073907 -0.018632 -73241.800000 0 0 1
35.203620 -7.947206 -5.639174 36.527431 -0.222028 1.725798 0.080922 -0.023277 -290750.000000 0 0 1
36.191760 -7.512106 -4.708574 37.261855 -0.204658 1.697500 0.082858 -0.024537 599484.000000 0 0 1
-36.124845 -8.367906 -3.650974 37.260649 0.227624 1.668939 0.087844 -0.019885 161456.000000 0 0 1
-35.289438 -9.635406 -4.024674 36.801950 0.266543 1.680376 0.086042 -0.020638 -329668.000000 0 0 1
-36.070375 -10.472206 -4.856874 37.872527 0.282559 1.699393 0.081138 -0.018129 439349.000000 0 0 1
-35.357769 -11.454306 -5.602774 37.586754 0.313286 1.720416 0.072344 -0.015451 -45988.400000 0 0 1
-36.253865 -12.012506 -6.739674 38.782293 0.319959 1.745465 0.069413 -0.013852 181491.000000 0 0 1
-36.242785 -11.161106 -7.881574 38.732790 0.298738 1.775713 0.065404 -0.015065 154344.000000 0 0 1
35.847680 -11.745506 -8.990574 38.779421 -0.316627 1.804764 0.074110 -0.014906 -162386.000000 0 0 1
35.993390 -11.029106 -10.319474 39.034047 -0.297337 1.838348 0.060427 -0.015719 -66450.300000 0 0 1
35.131360 -9.912606 -10.526874 37.990621 -0.275009 1.851562 0.052229 -0.013017 456880.000000 0 0 1
35.296740 -9.336006 -11.811974 38.373735 -0.258579 1.883691 0.048685 -0.012413 -148618.000000 0 0 1
34.314340 -8.170106 -12.149874 37.307425 -0.233744 1.902516 0.048047 -0.007051 56043.500000 0 0 1
34.520810 -7.697806 -13.495274 37.855844 -0.219401 1.935306 0.054122 -0.001984 432961.000000 0 0 1
33.449560 -6.917406 -13.966874 36.902535 -0.203926 1.958950 0.040404 0.001942 -112327.000000 0 0 1
33.645340 -6.544806 -15.451574 37.597799 -0.192124 1.994314 0.035192 0.004098 31570.300000 0 0 1
34.725480 -5.635906 -15.616774 38.490336 -0.160896 1.988576 0.035121 0.003220 426566.000000 0 0 1
34.350160 -4.329106 -15.915074 38.104648 -0.125368 2.001673 0.053055 0.004080 253704.000000 0 0 1
35.594310 -3.376706 -15.852274 39.110761 -0.094583 1.988122 0.051803 0.002086 245921.000000 0 0 1
36.256750 -3.376306 -17.104974 40.230976 -0.092854 2.009945 0.050248 -0.000273 827339.000000 0 0 1
-35.111731 -2.890806 -17.145374 39.181045 0.082146 2.023717 0.063924 -0.001491 805685.000000 0 0 1
-34.798674 -1.433906 -16.671074 38.612544 0.041182 2.017231 0.058746 -0.002352 -642788.000000 0 0 1
-35.213798 -0.408806 -17.614274 39.375644 0.011609 2.034585 0.049068 -0.006021 389417.000000 0 0 1
-34.898461 0.802894 -17.019174 38.835545 -0.023003 2.024433 0.062344 -0.014409 -157046.000000 0 0 1
-35.358160 1.972294 -17.965074 39.709361 -0.055723 2.040267 0.047041 -0.018852 -103133.000000 0 0 1
-34.474577 2.160494 -19.050774 39.447385 -0.062587 2.074807 0.052931 -0.015745 248022.000000 0 0 1
-34.601925 3.410694 -19.594974 39.911014 -0.098252 2.083995 0.046788 -0.007800 -60379.000000 0 0 1
-33.624165 3.755994 -20.751174 39.690090 -0.111244 2.120964 0.045455 0.000158 -587958.000000 0 0 1
-32.299595 3.935594 -20.354774 38.380589 -0.121249 2.129798 0.053450 -0.002022 -156701.000000 0 0 1
-31.598785 4.318894 -21.570074 38.502002 -0.135837 2.165463 0.047616 -0.002967 -139854.000000 0 0 1
-30.162545 4.842694 -21.438774 37.320931 -0.159195 2.182721 0.072818 -0.006672 -7928.880000 0 0 1
-29.241655 3.811294 -21.117774 36.270660 -0.129607 2.192262 0.065011 0.002079 306919.000000 0 0 1
-27.922985 4.242894 -21.450774 35.465913 -0.150796 2.220346 0.056190 -0.005635 701504.000000 0 0 1
-26.825655 3.222694 -20.972074 34.202769 -0.119562 2.230862 0.078157 -0.002112 295855.000000 0 0 1
-26.419805 3.326094 -19.654674 33.096453 -0.125235 2.206645 0.065429 0.000279 -146682.000000 0 0 1
-25.970635 2.143194 -19.063874 32.287745 -0.082337 2.202396 0.078454 -0.001774 -795044.000000 0 0 1
-25.273635 2.385894 -17.699974 30.947346 -0.094124 2.179663 0.080746 -0.008361 -666771.000000 0 0 1
-24.088935 3.047994 -18.003274 30.227222 -0.125862 2.208806 0.068531 -0.005159 -675549.000000 0 0 1
-23.519635 3.565394 -16.809574 29.128115 -0.150447 2.185959 0.078633 -0.010490 495724.000000 0 0 1
-22.224335 4.436994 -16.991974 28.325522 -0.197055 2.214150 0.064694 -0.012297 695376.000000 0 0 1
-21.161235 3.661594 -17.534274 27.724645 -0.171337 2.255500 0.082801 -0.016751 969450.000000 0 0 1
-19.945535 4.475094 -17.530574 26.929015 -0.220711 2.279687 0.073583 -0.019825 765262.000000 0 0 1
-18.763835 3.615094 -17.996874 26.249531 -0.190331 2.326234 0.081349 -0.028014 -351667.000000 0 0 1
-18.529535 2.535794 -17.113074 25.350172 -0.136007 2.311852 0.110395 -0.024129 109475.000000 0 0 1
-17.385635 1.812594 -17.548574 24.768897 -0.103883 2.358156 0.083533 -0.021080 -320216.000000 0 1 0
-17.396835 0.391094 -16.871574 24.237427 -0.022477 2.340742 0.100029 -0.023143 718624.000000 0 1 0
-18.391135 -0.475706 -17.484274 25.380307 0.025860 2.330755 0.078551 -0.019060 1451040.000000 0 0 1
-19.761635 -0.162906 -17.221374 26.213060 0.008243 2.287598 0.080003 -0.023305 -267451.000000 0 0 1
-20.819335 -1.040506 -17.876874 27.461063 0.049936 2.279684 0.074934 -0.026248 -374167.000000 0 0 1
-20.813735 -2.303406 -17.306474 27.166732 0.110219 2.261457 0.070659 -0.022930 830756.000000 0 0 1
-21.939135 -3.069206 -17.759974 28.392999 0.138994 2.246575 0.074698 -0.011360 499548.000000 0 0 1
-22.247335 -4.315106 -16.878274 28.256684 0.191582 2.210951 0.082542 -0.011714 124446.000000 0 0 1
-22.581735 -3.932806 -15.545274 27.695799 0.172429 2.166736 0.081738 -0.020516 227166.000000 0 0 1
-23.085935 -4.936006 -14.709174 27.815182 0.210639 2.128004 0.097597 -0.031811 -22647.200000 0 0 1
-23.181935 -4.385506 -13.245574 27.056977 0.186968 2.082363 0.082001 -0.033300 387011.000000 0 0 1
-24.189935 -3.365806 -13.116774 27.722399 0.138253 2.063656 0.074377 -0.032649 862633.000000 0 0 1
-24.279335 -2.899306 -11.770374 27.137314 0.118852 2.019429 0.077615 -0.031965 -705318.000000 0 0 1
-25.237675 -1.748406 -11.592374 27.827690 0.069167 2.000473 0.103052 -0.033195 -677912.000000 0 0 1
-25.414115 -1.470406 -10.254374 27.444335 0.057793 1.953729 0.100960 -0.034658 414895.000000 0 0 1
-25.922185 -0.177606 -10.175874 27.848513 0.006851 1.944860 0.112691 -0.037640 -471022.000000 0 0 1
-26.192795 0.391594 -8.772374 27.625539 -0.014949 1.893937 0.127383 -0.037707 234232.000000 0 0 1
-25.027935 0.769094 -8.031574 26.296297 -0.030720 1.881182 0.111830 -0.031666 620775.000000 0 0 1
-25.312865 0.788094 -6.654674 26.184861 -0.031124 1.827757 0.105802 -0.036655 -7775.770000 0 0 1
-24.093535 1.157294 -5.778274 24.803754 -0.047996 1.805916 0.075618 -0.024272 -37907.700000 0 1 0
-23.704635 2.525894 -5.859574 24.548411 -0.106156 1.811818 0.105350 -0.025581 736595.000000 0 1 0
-22.406135 2.828694 -5.360774 23.211512 -0.125582 1.803854 0.100914 -0.015706 297585.000000 0 1 0
-21.947035 4.334294 -5.487274 23.034076 -0.194980 1.811333 0.100309 -0.018894 19115.400000 0 1 0
-22.688235 5.144994 -4.575774 23.710013 -0.222998 1.765004 0.115632 -0.020894 778652.000000 0 1 0
-22.506235 6.552994 -4.822074 23.931668 -0.283330 1.773679 0.119201 -0.021330 -476322.000000 0 1 0
-23.067035 7.545294 -3.757774 24.558918 -0.316133 1.724410 0.120481 -0.017738 -361209.000000 0 1 0
-22.490935 7.507494 -2.459974 23.838123 -0.322171 1.674175 0.111271 -0.018538 1615210.000000 0 1 0
-21.064035 7.734894 -2.353574 22.562391 -0.351922 1.675300 0.112591 -0.019245 738471.000000 0 1 0
-20.522835 9.120394 -2.544874 22.601875 -0.418189 1.683631 0.090845 -0.018257 -889536.000000 0 1 0
-20.453435 9.591694 -3.886274 22.922625 -0.438503 1.741158 0.077188 -0.018671 376179.000000 0 1 0
-20.204035 10.985394 -3.852274 23.317846 -0.498011 1.736764 0.102003 -0.018970 -379910.000000 0 1 0
-20.028535 11.511794 -5.274774 23.695714 -0.521661 1.795282 0.102957 -0.022841 -743091.000000 0 1 0
-18.842535 11.097594 -5.873474 22.642779 -0.532266 1.833194 0.077739 -0.015489 -201754.000000 0 1 0
-18.774535 11.511594 -7.259874 23.188483 -0.550032 1.889232 0.078845 -0.016253 45572.900000 0 1 0
-17.423035 11.223594 -7.969574 22.204624 -0.572274 1.937902 0.061816 -0.015887 169054.000000 0 1 0
-17.134635 9.862994 -8.387574 21.476167 -0.522298 1.972028 0.048972 -0.011014 587557.000000 0 1 0
-17.903335 9.338394 -9.507174 22.318633 -0.480779 2.010835 0.052434 -0.006260 104461.000000 0 1 0
-17.947735 10.085494 -10.853474 23.273081 -0.511962 2.055960 0.052375 -0.004211 233975.000000 0 1 0
-16.700935 9.939294 -11.516574 22.590756 -0.536834 2.105739 0.031319 -0.007871 423573.000000 0 1 0
-16.814935 10.571394 -12.750374 23.602298 -0.561249 2.141492 0.032151 -0.008162 383423.000000 0 1 0
-15.883335 9.985594 -13.861174 23.326478 -0.561244 2.207098 0.031683 -0.000053 -70782.300000 0 1 0
-16.262135 8.707194 -14.357474 23.375400 -0.491586 2.232185 0.046739 -0.004839 27792.700000 0 1 0
-15.706435 7.649994 -13.622674 22.153820 -0.453243 2.233072 0.029599 -0.005305 -137211.000000 0 1 0
-15.750335 6.246094 -14.281274 22.159457 -0.377545 2.271136 0.047866 -0.013933 -372497.000000 0 1 0
-14.876735 6.169194 -15.357074 22.253448 -0.393103 2.332422 0.061719 -0.011128 -5090.100000 0 1 0
-14.996235 4.945394 -16.029774 22.501059 -0.318545 2.363710 0.074331 -0.019546 150221.000000 0 1 0
32.512080 -16.249606 28.536771 46.210738 -0.463489 0.905191 0.007127 -0.002496 -275101.000000 0 0 1
31.672140 -15.106506 28.523331 45.220697 -0.445050 0.888266 0.012357 0.001001 261353.000000 0 0 1
30.494940 -15.180806 29.320041 44.945112 -0.461897 0.860113 0.022834 -0.007837 533636.000000 0 0 1
30.778150 -15.117606 30.855921 46.129431 -0.456567 0.838070 0.018146 -0.008954 -162742.000000 0 0 1
31.439000 -13.915006 31.216901 46.438487 -0.416686 0.833592 0.007040 -0.007744 58480.900000 0 0 1
31.557000 -13.857506 32.626262 47.458905 -0.413775 0.812806 0.002818 -0.009329 -284392.000000 0 0 1
32.060240 -12.477006 33.111196 47.748152 -0.371139 0.804523 0.014679 -0.009531 21012.800000 0 0 1
31.921810 -12.329906 -33.931674 48.191151 -0.368600 2.351960 0.005992 -0.022174 70985.300000 0 0 1
32.141250 -10.997906 -33.512814 47.719205 -0.329686 2.349408 0.029696 -0.016318 -143510.000000 0 0 1
31.801540 -10.671006 -32.040864 46.387771 -0.323744 2.333278 0.035312 -0.012537 1323810.000000 0 0 1
30.389680 -10.824606 -31.738384 45.255163 -0.342182 2.348045 0.078663 -0.020835 1274410.000000 0 0 1
29.889900 -10.126206 -30.605364 43.961738 -0.326648 2.340861 0.060979 -0.013416 -82329.600000 0 0 1
28.400970 -10.429006 -30.346084 42.851652 -0.351920 2.357694 0.061193 0.002105 102972.000000 0 0 1
27.992830 -10.137806 -28.975094 41.544310 -0.347464 2.342630 0.054488 -0.003101 -208729.000000 0 0 1
27.190970 -11.127606 -28.467824 40.909528 -0.388446 2.340431 0.063547 0.000128 -697043.000000 0 0 1
26.648870 -10.813006 -27.019844 39.460807 -0.385461 2.325024 0.056892 0.001986 -789249.000000 0 0 1
25.829770 -9.649106 -26.871394 38.501351 -0.357512 2.343305 0.046130 0.000197 1537820.000000 0 0 1
24.466170 -9.660206 -27.361874 37.955042 -0.376050 2.375900 0.051028 -0.006224 1629540.000000 0 0 1
23.517670 -10.871506 -27.129024 37.513389 -0.433010 2.379195 0.035973 0.008074 -723042.000000 0 0 1
24.032770 -11.961306 -27.814884 38.656366 -0.461812 2.373939 0.034916 -0.001540 -199736.000000 0 0 1
23.302970 -13.151706 -27.487364 38.360800 -0.513816 2.369638 0.026672 -0.013939 226970.000000 0 0 1
23.973670 -14.427106 -28.023874 39.600704 -0.541734 2.356979 0.029365 0.002276 79465.400000 0 0 1
24.118870 -14.454606 -29.425044 40.699984 -0.539910 2.378894 0.033605 -0.007070 1240420.000000 0 0 1
25.320370 -15.195106 -29.796084 41.950197 -0.540503 2.360682 0.025366 -0.003145 881342.000000 0 0 1
25.350670 -15.353606 -31.333564 43.129826 -0.544563 2.384002 0.055348 -0.013009 -25624.000000 0 0 1
24.147870 -15.767206 -31.954484 43.044320 -0.578442 2.407386 0.069758 -0.013598 -7415.060000 0 0 1
24.231270 -15.913606 -33.364494 44.199398 -0.581098 2.426242 0.085207 -0.013977 -107191.000000 0 0 1
24.244770 -14.664506 34.063492 44.307766 -0.543980 0.693845 0.063353 -0.022988 -762612.000000 0 0 1
23.179570 -13.809306 33.917331 43.340221 -0.537291 0.671992 0.085518 -0.027664 -903720.000000 0 0 1
23.273370 -13.047506 32.746766 42.240240 -0.510960 0.683685 0.073640 -0.026138 -495667.000000 0 0 1
22.358970 -11.835306 32.838739 41.453357 -0.486837 0.656415 0.090554 -0.032002 410644.000000 0 0 1
20.945270 -11.956606 32.792848 40.706703 -0.518710 0.634128 0.076246 -0.023642 506090.000000 0 0 1
20.351070 -12.384106 31.579201 39.557276 -0.546663 0.646303 0.060471 -0.015038 -56722.400000 0 0 1
18.810770 -12.551106 31.745981 38.976694 -0.588392 0.618953 0.060120 -0.007849 745469.000000 0 0 1
18.075870 -11.298706 31.891851 38.359979 -0.558651 0.589204 0.072363 -0.016012 -520346.000000 0 0 1
16.811070 -11.645106 32.351598 38.273313 -0.605813 0.563711 0.061561 -0.014215 -620834.000000 0 0 1
15.968370 -10.417206 32.788806 37.929050 -0.578036 0.526687 0.078736 -0.021836 -615798.000000 0 0 1
15.283870 -9.869006 31.664001 36.518529 -0.573356 0.521512 0.076915 -0.025719 38173.500000 0 0 1
14.514670 -8.710706 31.963751 36.169510 -0.540516 0.487042 0.093179 -0.021040 481846.000000 0 0 1
13.303270 -8.844406 32.907079 36.579726 -0.586730 0.451946 0.102255 -0.026159 -1511000.000000 0 0 1
12.448470 -9.877006 32.592257 36.259825 -0.670723 0.453651 0.098900 -0.025250 -581694.000000 0 0 1
11.243970 -9.943506 33.283213 36.511264 -0.724096 0.423667 0.099283 -0.024016 424359.000000 0 0 1
10.053170 -9.016806 32.852749 35.520025 -0.731106 0.390003 0.068573 -0.025453 -58233.700000 0 0 1
10.428670 -7.692506 33.052881 35.502462 -0.635538 0.373646 0.098437 -0.023261 450108.000000 0 0 1
9.507070 -6.833906 32.369949 34.422380 -0.623248 0.347065 0.074952 -0.010229 573625.000000 0 0 1
10.014270 -5.370106 32.481858 34.412131 -0.492222 0.336527 0.086793 -0.011103 183905.000000 0 0 1
10.066370 -4.800706 33.739302 35.534759 -0.445002 0.319243 0.089897 -0.019901 -53100.500000 0 0 1
10.617970 -3.550906 33.680820 35.492927 -0.322732 0.320923 0.080769 -0.018237 -279526.000000 0 0 1
10.323470 -2.765506 -33.403314 35.071405 -0.261740 2.831933 0.072338 -0.028860 -26809.100000 0 0 1
8.942870 -2.571906 -33.220494 34.499143 -0.280036 2.868483 0.065766 -0.013289 -437629.000000 0 0 1
8.650470 -1.664006 -32.192674 33.376156 -0.190039 2.874495 0.053874 -0.016051 -325944.000000 0 0 1
7.153970 -1.439106 -31.971294 32.793505 -0.198513 2.917192 0.052107 -0.015438 -427950.000000 0 0 1
6.597270 -0.661606 -32.987764 33.647500 -0.099951 2.943241 0.072420 -0.016957 -1079800.000000 0 0 1
5.269970 -0.364506 -32.764194 33.187315 -0.069057 2.981739 0.077473 -0.015813 -628788.000000 0 0 1
4.698070 0.799994 -33.646904 33.982731 0.168664 3.000890 0.056327 -0.016457 579109.000000 0 0 1
5.450870 2.028494 -33.407044 33.909547 0.356262 2.969223 0.045458 -0.016624 484408.000000 0 0 1
4.886770 2.980394 34.138070 34.614608 0.547660 0.166124 0.048242 -0.017623 559989.000000 0 0 1
5.894370 4.107994 33.736638 34.493187 0.608666 0.209828 0.033949 -0.012900 140668.000000 0 0 1
5.388970 4.998694 32.794504 33.608146 0.747845 0.220490 0.052058 -0.030106 -349079.000000 0 0 1
6.302270 6.015994 32.528380 33.675010 0.762162 0.261705 0.048140 -0.021295 -485148.000000 0 0 1
5.757570 7.039594 31.514321 32.800273 0.885245 0.280943 0.062609 -0.016356 -951257.000000 0 0 1
4.660470 7.651694 32.077141 33.304825 1.023729 0.272363 0.061412 -0.011765 -747517.000000 0 0 1
4.311970 8.892594 31.498231 33.012269 1.119306 0.304032 0.058277 -0.012277 -290604.000000 0 0 1
3.831070 9.069594 30.121181 31.689433 1.171123 0.315917 0.061960 -0.015846 222169.000000 0 0 1
2.531070 8.501594 29.907171 31.194908 1.281435 0.288332 0.069573 -0.019523 389660.000000 0 0 1
2.319870 7.943794 28.659041 29.829957 1.286662 0.281114 0.068178 0.000530 423216.000000 0 0 1
0.786270 7.856394 28.392141 29.469558 1.471048 0.271239 0.072275 -0.013780 218244.000000 0 0 1
0.147670 9.085994 28.118521 29.550437 1.554545 0.312580 0.075696 -0.011448 -259671.000000 0 0 1
-1.044030 8.933294 27.389771 28.828689 -1.454454 0.317281 0.069952 -0.001153 445349.000000 0 0 1
-2.382630 8.837394 28.163981 29.613955 -1.307450 0.314221 0.076602 -0.004478 -124116.000000 0 0 1
-2.896330 10.051994 28.624191 30.475821 -1.290260 0.350379 0.066648 -0.001899 -255339.000000 0 0 1
-4.260630 9.807394 28.892831 30.808013 -1.160965 0.354457 0.051549 0.003355 -757518.000000 0 0 1
-4.896830 10.835594 29.771061 32.057840 -1.146346 0.379993 0.038660 0.009870 -384113.000000 0 0 1
-5.052930 12.141394 29.262471 32.081736 -1.176425 0.422364 0.041852 -0.000958 393470.000000 0 0 1
-6.023430 12.204094 28.207851 31.319395 -1.112315 0.449530 0.035129 -0.003578 20047.900000 0 0 1
-6.318730 13.628494 27.681231 31.494647 -1.136657 0.497206 0.033270 -0.000251 -73366.400000 0 0 1
-5.325630 14.119394 26.826761 30.779778 -1.210111 0.512399 0.031950 0.002278 -396187.000000 0 0 1
-5.668430 15.398894 26.374201 31.062124 -1.218083 0.556557 0.017218 0.001576 56590.300000 0 0 1
-4.487930 16.226894 25.824981 30.828287 -1.300968 0.577731 0.070876 -0.005194 66846.700000 0 0 1
-4.396530 15.950394 24.428871 29.504479 -1.301837 0.595315 0.066109 0.009985 146204.000000 0 0 1
-3.507430 16.875094 23.784091 29.372672 -1.365867 0.627095 0.080836 0.006067 338734.000000 0 0 1
-3.435530 16.604494 22.296161 28.011264 -1.366772 0.650186 0.078324 -0.002175 -184569.000000 0 0 1
-2.688930 15.499294 21.879561 26.947609 -1.399019 0.623346 0.071996 -0.013042 -47247.300000 0 0 1
-3.027730 15.242394 20.547861 25.762615 -1.374710 0.647516 0.070738 -0.018611 17774.400000 0 0 1
-2.142230 14.158094 19.897061 24.513951 -1.420628 0.623803 0.058408 -0.021709 11075.300000 0 1 0
-2.396830 12.864494 20.425561 24.257855 -1.386595 0.569782 0.056527 -0.009640 521607.000000 0 1 0
-1.558630 12.030394 19.624561 23.071262 -1.441956 0.553659 0.047365 -0.010565 460115.000000 0 1 0
-2.326130 10.692294 19.286561 22.174478 -1.356582 0.516073 0.044040 -0.013401 -152507.000000 0 1 0
-2.531830 9.613094 20.198561 22.512299 -1.313271 0.457355 0.067005 -0.026224 239989.000000 0 1 0
-3.481130 9.862294 21.247061 23.681654 -1.231475 0.457420 0.067851 -0.014305 439183.000000 0 1 0
-4.969130 9.859694 20.811061 23.558567 -1.103966 0.487780 0.051715 -0.004089 -18385.600000 0 1 0
-5.554330 8.531894 20.970961 23.311478 -0.993713 0.451948 0.038609 -0.009525 212120.000000 0 1 0
-6.951430 8.499494 20.767161 23.491249 -0.885257 0.486364 0.026230 -0.004192 277245.000000 0 1 0
-7.601830 7.129694 21.002261 23.446009 -0.753360 0.460633 0.030571 -0.000372 122437.000000 0 1 0
-7.372130 6.571594 22.291861 24.381576 -0.728049 0.417042 0.030896 0.006436 -204165.000000 0 1 0
-8.125630 5.428294 22.398261 24.437151 -0.588957 0.411390 0.031354 0.003573 -150609.000000 0 1 0
-8.042330 4.828694 23.833151 25.612779 -0.540721 0.374972 0.034418 -0.004632 105897.000000 0 0 1
-8.795130 5.492494 24.860881 26.936689 -0.558234 0.395153 0.014614 -0.000733 84086.800000 0 0 1
-9.049130 4.577094 25.887461 27.802827 -0.468281 0.373355 0.009741 -0.004772 -26788.700000 0 0 1
-9.982930 5.185394 26.956531 29.209618 -0.479067 0.395342 0.012515 -0.000239 -211189.000000 0 0 1
-9.358330 6.304994 27.549741 29.771119 -0.592877 0.388747 0.014670 -0.002816 -194730.000000 0 0 1
-10.167630 7.071294 28.373431 30.958610 -0.607680 0.411566 0.021882 -0.001496 -142398.000000 0 0 1
-9.287130 8.076194 29.172261 31.662226 -0.715770 0.399235 0.028739 -0.007910 128723.000000 0 0 1
-8.433530 7.418494 30.064171 32.093814 -0.721453 0.357544 0.044731 -0.011655 -117107.000000 0 0 1
-7.727030 8.383594 30.826581 32.867458 -0.826129 0.354253 0.047169 -0.012786 -115484.000000 0 0 1
-6.634330 7.895694 31.788751 33.419770 -0.871992 0.313708 0.075285 -0.011103 -1086430.000000 0 0 1
-5.395630 7.744794 31.232691 32.627836 -0.962303 0.293488 0.076261 -0.015207 -1668630.000000 0 0 1
-4.528030 7.124594 32.134341 33.224671 -1.004647 0.256897 0.082201 -0.012152 -112847.000000 0 0 1
-3.045330 7.363494 31.785991 32.769564 -1.178645 0.245626 0.068757 -0.008672 43705.700000 0 0 1
-2.553730 8.664894 32.084211 33.331645 -1.284189 0.274447 0.071999 -0.005844 -357137.000000 0 0 1
-1.212730 8.842794 31.709141 32.941393 -1.434503 0.274383 0.070071 -0.006777 118063.000000 0 0 1
-0.872830 10.332294 31.346351 33.016842 -1.486520 0.319461 0.074319 -0.002217 41255.300000 0 0 1
-0.961430 11.260094 32.391243 34.306074 -1.485619 0.335688 0.076095 -0.010577 -214682.000000 0 0 1
-1.599830 12.449294 32.015561 34.388087 -1.442989 0.373633 0.079452 -0.008929 -173231.000000 0 0 1
-1.687130 13.414594 33.180294 35.829173 -1.445685 0.386937 0.072259 -0.006126 -37648.500000 0 0 1
-0.439330 13.961294 33.544241 36.336302 -1.539339 0.394574 0.100104 -0.009288 -254635.000000 0 0 1
-0.536130 14.896894 -33.848034 36.985055 -1.534822 2.726754 0.097897 -0.013993 -206314.000000 0 0 1
0.784870 15.169294 -33.119394 36.436489 1.519102 2.711584 0.070598 -0.009333 -651713.000000 0 0 1
1.653370 15.919894 -33.864384 37.456283 1.467312 2.700075 0.077251 -0.009565 169710.000000 0 0 1
2.859070 16.308394 -33.200664 37.100163 1.397247 2.678987 0.071259 -0.008523 364603.000000 0 0 1
3.794870 17.194094 -34.018684 38.305466 1.353571 2.663969 0.069721 -0.001749 -592542.000000 0 0 1
3.332270 18.502094 34.165089 38.995959 1.392604 0.503045 0.070836 0.004299 23620.000000 0 0 1
4.142470 19.284094 33.298909 38.702114 1.359199 0.534762 0.052538 0.015155 35289.900000 0 0 1
3.652070 20.730294 33.325488 39.416631 1.396415 0.563356 0.061113 0.001654 -333739.000000 0 0 1
3.887370 21.310994 -33.817934 40.161209 1.390369 2.571878 0.072940 -0.012697 154427.000000 0 0 1
3.618270 22.691994 -33.828134 40.894512 1.412676 2.544911 0.064204 -0.010749 38081.900000 0 0 1
3.882770 23.285894 -32.480294 40.153185 1.405573 2.513091 0.086148 -0.020960 -64332.100000 0 0 1
3.504970 24.654794 -32.391104 40.857402 1.429581 2.486160 0.086054 -0.026652 183772.000000 0 0 1
3.256470 25.079294 -31.014774 40.018643 1.441672 2.457524 0.094470 -0.029606 40697.100000 0 0 1
2.714470 26.548694 -30.789484 40.745476 1.468905 2.427448 0.093180 -0.043206 261201.000000 0 0 1
3.676970 27.585794 -30.973744 41.639752 1.438285 2.409609 0.083731 -0.040382 124478.000000 0 0 1
3.278670 28.786994 -30.322074 41.938870 1.457391 2.378941 0.079080 -0.044422 -887831.000000 0 0 1
4.303670 29.895194 -30.238434 42.738824 1.427820 2.356774 0.088597 -0.051661 -20969.300000 0 0 1
5.334370 29.565494 -29.293364 41.960399 1.392291 2.343564 0.085825 -0.054902 -118077.000000 0 0 1
6.038970 30.670594 -28.886304 42.562578 1.376386 2.316758 0.078067 -0.055873 -942688.000000 0 0 1
7.118970 30.320094 -27.850504 41.780837 1.340180 2.300415 0.090469 -0.053025 214122.000000 0 0 1
8.271770 29.707794 -28.436654 41.947806 1.299237 2.315706 0.097422 -0.048618 1932350.000000 0 0 1
9.500470 30.452794 -28.753304 42.946293 1.268391 2.304356 0.107989 -0.045346 1428750.000000 0 0 1
9.423970 31.815094 -29.456944 44.370293 1.282820 2.296803 0.121669 -0.051297 -1341150.000000 0 0 1
8.768170 32.766894 -28.677944 44.418178 1.309330 2.272651 0.100846 -0.044925 15979.600000 0 0 1
8.700170 34.002294 -29.286564 45.711615 1.320301 2.266181 0.073408 -0.028638 907899.000000 0 0 1
7.406670 34.160694 -30.223794 46.209192 1.357283 2.283742 0.062756 -0.026583 942168.000000 0 0 1
7.483170 33.412894 -31.451144 46.492943 1.350471 2.313757 0.058553 -0.030116 -17513.500000 0 0 1
6.181470 33.152994 -31.943944 46.451556 1.386460 2.329089 0.054631 -0.030149 -176864.000000 0 0 1
6.060970 32.372394 -33.264544 46.810652 1.385713 2.361174 0.066874 -0.042276 -63117.700000 0 0 1
5.997970 33.227894 34.011866 47.925730 1.392209 0.781754 0.063235 -0.035148 112787.000000 0 0 1
6.114970 32.434094 32.871001 46.581821 1.384448 0.787440 0.082560 -0.036963 -126876.000000 0 0 1
5.582370 33.167494 31.645691 46.181114 1.404051 0.815847 0.061752 -0.031940 220162.000000 0 0 1
6.440870 34.199094 31.120541 46.685661 1.384642 0.841162 0.059649 -0.027431 232821.000000 0 0 1
6.015970 -33.708723 29.877701 45.443888 -1.394187 0.853349 0.039101 -0.029045 -213808.000000 0 0 1
17.610365 -22.243906 29.580691 40.986993 -0.901141 0.764528 0.077047 -0.013912 -113907.000000 0 0 1
16.807765 -21.119906 30.070751 40.407938 -0.898606 0.731491 0.066794 -0.013026 -296885.000000 0 0 1
15.476065 -21.514406 30.074771 40.085785 -0.947211 0.722341 0.066562 -0.011301 -716196.000000 0 0 1
14.988865 -21.971806 31.477711 41.210104 -0.972126 0.701562 0.065750 -0.019238 -494649.000000 0 0 1
15.719165 -23.091706 31.972451 42.456527 -0.973122 0.718091 0.079030 -0.026779 280563.000000 0 0 1
15.291665 -23.501906 33.283857 43.519993 -0.993960 0.700074 0.077042 -0.026000 -229928.000000 0 0 1
16.071965 -24.623706 33.960928 44.921928 -0.992523 0.713618 0.087645 -0.030399 -245814.000000 0 0 1
15.943865 -25.961346 33.439507 45.237141 -1.020046 0.738908 0.094108 -0.036072 -521019.000000 0 0 1
16.718965 -26.833496 34.164986 46.548970 -1.013591 0.746665 0.099474 -0.036278 -315640.000000 0 0 1
16.394565 -28.271016 33.784685 47.004650 -1.045282 0.768791 0.101118 -0.032122 169129.000000 0 0 1
16.961465 -28.768996 32.540924 46.628942 -1.038078 0.798378 0.095042 -0.031300 180186.000000 0 0 1
16.656065 -30.115386 32.302181 47.199491 -1.065595 0.817049 0.106592 -0.034201 -205932.000000 0 0 1
17.484665 -30.780186 31.190261 47.180142 -1.054201 0.848527 0.095191 -0.028014 233889.000000 0 0 1
18.775665 -31.232716 31.561511 48.209306 -1.029529 0.857041 0.084983 -0.033160 393682.000000 0 0 1
19.487465 -31.873856 30.506041 48.231966 -1.022041 0.886038 0.061391 -0.015502 350974.000000 0 0 1
20.920665 -32.381006 30.875481 49.391286 -0.997183 0.895511 0.056584 -0.015495 483660.000000 0 0 1
21.838665 -31.293076 31.002511 49.166448 -0.961498 0.888519 0.051881 -0.011902 588545.000000 0 0 1
23.080165 -31.873246 31.459831 50.381731 -0.944063 0.896396 0.038244 -0.008163 745656.000000 0 0 1
24.147665 -30.712766 31.545691 50.214683 -0.904501 0.891538 0.035690 -0.006199 440506.000000 0 0 1
24.772265 -30.466916 30.269141 49.579421 -0.888126 0.914082 0.035370 -0.004330 336996.000000 0 0 1
25.690965 -29.376896 30.211311 49.353329 -0.852233 0.912028 0.031512 -0.003330 290281.000000 0 0 1
26.701465 -29.452926 29.048631 49.236837 -0.834357 0.939765 0.033478 -0.004492 107184.000000 0 0 1
27.663465 -30.473516 29.269421 50.503480 -0.833696 0.952617 0.038368 -0.001615 112224.000000 0 0 1
28.502265 -30.728076 28.147341 50.486301 -0.822959 0.979396 0.036229 -0.002898 876387.000000 0 0 1
29.741165 -31.633046 28.551421 51.965086 -0.816214 0.989109 0.044608 -0.008070 501960.000000 0 0 1
29.387565 -32.962986 28.860851 52.755437 -0.842679 0.991938 0.042411 -0.003740 21814.000000 0 0 1
30.467465 -33.765126 29.306751 54.103936 -0.836693 0.998368 0.045869 -0.009998 -936308.000000 0 0 1
29.975765 33.346844 29.875861 53.880660 0.838585 0.983056 0.031873 -0.002172 -570239.000000 0 0 1
29.354965 33.351028 31.178311 54.277916 0.849039 0.958901 0.031428 -0.006663 38491.900000 0 0 1
28.171165 34.086095 31.245901 54.145939 0.880122 0.955662 0.016194 0.002182 382923.000000 0 0 1
26.872565 33.607657 30.427811 52.701622 0.896301 0.955305 0.028785 -0.002696 637636.000000 0 0 1
26.483165 32.300911 30.823911 51.911659 0.884045 0.935052 0.022906 0.006123 67767.800000 0 0 1
25.096865 32.126161 30.598071 50.972392 0.907626 0.926936 0.020166 0.005111 471534.000000 0 0 1
24.569365 30.658721 30.561821 49.775855 0.895213 0.909692 0.034920 0.003331 97609.300000 0 0 1
24.357865 30.190241 29.205071 48.556075 0.891915 0.925455 0.042863 -0.011903 134704.000000 0 0 1
23.738065 28.950921 29.111711 47.425133 0.884014 0.909873 0.079495 -0.037844 -560821.000000 0 0 1
23.107565 28.536651 27.761751 46.032758 0.890138 0.923431 0.092654 -0.039128 290530.000000 0 0 1
21.959565 29.315731 27.447841 45.771372 0.927890 0.927704 0.103187 -0.039823 184208.000000 0 0 1
21.210465 28.863291 26.346831 44.464917 0.937056 0.936599 0.117818 -0.039640 98223.400000 0 0 1
20.009665 29.792421 26.045181 44.343280 0.979361 0.943011 0.085108 -0.035257 45594.500000 0 0 1
20.244265 31.089131 25.541411 45.041403 0.993600 0.967858 0.092700 -0.034115 -200442.000000 0 0 1
18.951065 31.571281 25.296411 44.674344 1.030184 0.968859 0.070285 -0.025179 -405791.000000 0 0 1
18.925965 33.027701 24.635851 45.342544 1.050442 0.996401 0.073923 -0.017151 -118617.000000 0 0 1
19.529565 33.100707 23.339861 44.964539 1.037759 1.025031 0.092875 -0.020845 1248370.000000 0 0 1
20.930965 33.451634 23.454461 45.904563 1.011688 1.034519 0.103679 -0.019412 842065.000000 0 0 1
21.490965 33.821645 22.044061 45.735171 1.004739 1.067868 0.119178 -0.025732 -48737.400000 0 0 1
21.050765 -33.333676 21.567961 44.938242 -1.007525 1.070202 0.102524 -0.016100 263101.000000 0 0 1
21.467865 -33.180106 20.223661 44.393526 -0.996526 1.097802 0.120203 -0.022703 -95930.400000 0 0 1
21.227465 -31.869996 19.537361 42.988492 -0.983211 1.099009 0.108332 -0.023681 -145143.000000 0 0 1
21.848165 -30.788426 20.237361 42.834802 -0.953641 1.078726 0.105897 -0.016156 309491.000000 0 0 1
21.605865 -29.487746 19.686661 41.519938 -0.938455 1.076798 0.108353 -0.026040 179971.000000 0 0 1
22.359865 -29.102076 18.342861 41.028709 -0.915670 1.107305 0.089013 -0.026751 35872.300000 0 0 1
21.954465 -29.926786 17.255161 40.931060 -0.937870 1.135624 0.077208 -0.027651 377864.000000 0 0 1
22.355765 -29.338566 15.999461 40.205901 -0.919664 1.161528 0.064211 -0.014770 -220954.000000 0 0 1
21.724965 -30.021556 14.791361 39.900530 -0.944377 1.191027 0.063922 -0.023766 -87013.300000 0 0 1
22.413165 -31.279656 14.539861 41.136048 -0.949055 1.209531 0.077158 -0.024552 420467.000000 0 0 1
22.572865 -31.582156 13.162561 40.990485 -0.950250 1.243892 0.065555 -0.019503 -416825.000000 0 0 1
21.329565 -31.861166 12.302061 40.266921 -0.980867 1.260319 0.058586 -0.013340 -410787.000000 0 0 1
20.555865 -32.880736 12.840161 40.847964 -1.012079 1.251035 0.059333 -0.020027 -939527.000000 0 0 1
19.409965 -33.165746 12.138061 40.299454 -1.041300 1.264849 0.058251 -0.010520 -256226.000000 0 0 1
18.271065 -33.897406 12.934761 40.622334 -1.076429 1.246739 0.071162 -0.010211 464583.000000 0 0 1
17.755565 -33.049236 13.976161 40.035549 -1.077798 1.214192 0.068712 -0.007455 380322.000000 0 0 1
18.318865 -33.405286 15.244161 41.035088 -1.069196 1.190182 0.053465 -0.018206 -909184.000000 0 0 1
18.280865 -32.321186 16.347761 40.572138 -1.056055 1.156080 0.065669 -0.017143 379700.000000 0 0 1
16.958565 -32.021576 16.764461 39.925198 -1.083752 1.137465 0.061790 -0.022986 676960.000000 0 0 1
15.999665 -32.994916 17.182661 40.495650 -1.119291 1.132598 0.065254 -0.018592 -575300.000000 0 0 1
16.358565 -33.775426 18.475661 41.829800 -1.119760 1.113319 0.050058 -0.018506 -513106.000000 0 0 1
17.314265 33.623777 18.341561 42.032785 1.095267 1.119244 0.050642 -0.017073 -151674.000000 0 0 1
17.427465 32.901007 19.568261 42.060785 1.083677 1.086893 0.053895 -0.019367 159472.000000 0 0 1
18.415865 31.729191 19.648061 41.616486 1.044908 1.079100 0.066873 -0.016117 -148070.000000 0 0 1
17.880165 30.570801 19.024361 40.201996 1.041571 1.077855 0.035362 -0.015101 -143593.000000 0 0 1
18.761165 29.486401 18.940961 39.751593 1.004137 1.074146 0.042131 -0.020811 -90070.800000 0 0 1
17.964365 28.146341 18.717361 38.278904 1.002727 1.059884 0.038465 -0.012464 352314.000000 0 0 1
17.729165 27.361441 19.862061 38.176867 0.995855 1.023636 0.033827 -0.024093 -68687.700000 0 0 1
17.223465 26.076581 19.530361 36.852012 0.987078 1.012234 0.035185 -0.017288 -656094.000000 0 0 1
17.094965 25.077591 20.754061 36.767573 0.972470 0.971010 0.040521 -0.016110 -188200.000000 0 0 1
15.957265 25.242521 21.588761 36.849610 1.007066 0.944854 0.036367 -0.013180 291699.000000 0 0 1
14.876065 24.430571 21.121261 35.556402 1.023850 0.934748 0.034717 -0.012116 -202430.000000 0 0 1
13.610465 24.712231 21.949261 35.745058 1.067371 0.909614 0.047740 -0.020089 -105088.000000 0 0 1
12.969965 25.890521 21.461361 36.043433 1.106386 0.932995 0.051175 -0.022690 -30727.800000 0 0 1
11.717065 26.126641 22.073061 36.153990 1.149214 0.914068 0.049491 -0.022351 158400.000000 0 0 1
10.857465 27.190521 21.315361 36.215378 1.190884 0.941505 0.038860 -0.020553 -118618.000000 0 0 1
11.245265 28.523841 21.498461 37.446619 1.195265 0.959280 0.027015 -0.018245 -201505.000000 0 0 1
10.646465 29.319861 20.479061 37.314788 1.222486 0.989846 0.034523 -0.017908 45924.000000 0 0 1
11.010265 30.848651 20.540561 38.662383 1.227977 1.010685 0.022512 -0.020683 -158159.000000 0 0 1
10.609765 31.663551 21.611161 39.776750 1.247476 0.996420 0.025638 -0.016614 -162478.000000 0 0 1
11.204565 31.283451 22.840261 40.322129 1.226868 0.968611 0.036826 -0.014718 -386808.000000 0 0 1
10.891965 32.294331 23.919531 41.637755 1.245505 0.958843 0.022966 -0.015563 -839037.000000 0 0 1
9.576065 32.266291 24.310571 41.518892 1.282294 0.945262 0.026689 -0.019273 -1186250.000000 0 0 1
9.497565 32.610332 25.684101 42.582984 1.287392 0.923347 0.019195 -0.011907 -700491.000000 0 0 1
8.247265 32.062261 26.382891 42.332764 1.319028 0.897935 0.089379 -0.036146 250696.000000 0 0 1
7.001865 32.754121 26.150961 42.493897 1.360196 0.907897 0.081634 -0.029788 1269280.000000 0 0 1
6.339265 32.568978 24.847121 41.452431 1.378559 0.928029 0.069918 -0.039801 223426.000000 0 0 1
5.397265 31.321801 24.771731 40.296704 1.400156 0.908748 0.062054 -0.027021 -440364.000000 0 0 1
6.026865 30.160601 25.167541 39.741541 1.373568 0.885012 0.053062 -0.027379 -886881.000000 0 0 1
5.335765 29.012691 24.746921 38.504762 1.388917 0.872782 0.039532 -0.023665 -344405.000000 0 0 1
6.320165 27.767641 24.567331 37.610372 1.347000 0.858985 0.039499 -0.023305 -24212.300000 0 0 1
7.279165 27.967271 23.570411 37.292342 1.316171 0.886608 0.030524 -0.018408 471647.000000 0 0 1
8.352465 28.882061 23.859851 38.382673 1.289284 0.899973 0.053009 -0.019104 -351922.000000 0 0 1
9.503665 28.394451 24.769401 38.859847 1.247815 0.879673 0.051684 -0.026937 -787289.000000 0 0 1
9.152665 28.409691 26.154281 39.685365 1.259129 0.851253 0.054874 -0.025754 1272830.000000 0 0 1
10.291265 28.141481 27.047421 40.366026 1.220206 0.836515 0.049341 -0.013941 1427480.000000 0 0 1
11.477565 29.115701 27.076291 41.383379 1.195295 0.857567 0.041983 -0.018372 -536482.000000 0 0 1
11.142065 30.243111 27.838731 42.588570 1.217810 0.858377 0.059177 -0.025140 194350.000000 0 0 1
12.149465 31.244111 27.785671 43.541331 1.199933 0.878710 0.053464 -0.012011 -70552.900000 0 0 1
11.982265 32.407228 28.793771 44.976486 1.216645 0.876043 0.040270 -0.017137 -65284.700000 0 0 1
11.809565 32.038061 30.140351 45.544966 1.217639 0.847617 0.050542 -0.034658 -299055.000000 0 0 1
10.485365 31.879381 30.561701 45.390036 1.253034 0.832116 0.077475 -0.030843 -577782.000000 0 0 1
10.235465 31.554581 32.046321 46.123996 1.257131 0.802674 0.107593 -0.030887 -181756.000000 0 0 1
10.458365 30.278651 32.453174 45.600248 1.238222 0.778897 0.104563 -0.032717 120342.000000 0 0 1
10.357365 30.215661 33.887544 46.568517 1.240567 0.755845 0.135039 -0.029657 -139340.000000 0 0 1
10.456365 28.751271 -34.060294 45.782909 1.221984 2.409762 0.117796 -0.034036 293879.000000 0 0 1
11.737965 28.167541 34.117600 45.773364 1.175960 0.729723 0.130796 -0.026210 427727.000000 0 0 1
11.841265 26.870081 -33.783184 44.760700 1.155715 2.426071 0.127444 -0.029436 644882.000000 0 0 1
13.291765 26.296201 -33.985774 44.979929 1.102788 2.427330 0.122342 -0.028779 724090.000000 0 0 1
13.400165 24.912291 -33.741174 44.030142 1.077295 2.443890 0.097724 -0.030562 -109693.000000 0 0 1
13.520465 24.524561 -32.390974 42.818597 1.066953 2.428695 0.095468 -0.028595 -248340.000000 0 0 1
13.511265 22.980511 -32.204524 41.806572 1.039288 2.450142 0.073066 -0.041741 366292.000000 0 0 1
14.639765 22.270511 -32.754754 42.227624 0.989264 2.458574 0.073200 -0.028659 561760.000000 0 0 1
14.383965 20.912411 -32.909734 41.560533 0.968292 2.484630 0.068870 -0.034323 -146563.000000 0 0 1
15.660965 20.242111 -33.403654 42.081028 0.912310 2.487818 0.079820 -0.042112 782078.000000 0 0 1
16.789265 20.370911 -32.513914 41.880879 0.881485 2.459639 0.071626 -0.037440 692859.000000 0 0 1
17.959665 19.699811 -32.949284 42.382631 0.831573 2.461357 0.075413 -0.036716 641110.000000 0 0 1
19.139965 19.899111 -31.921294 42.205235 0.804842 2.428489 0.059794 -0.037525 436671.000000 0 0 1
19.799965 21.150111 -32.174514 43.296248 0.818357 2.408524 0.044056 -0.025612 -245175.000000 0 0 1
20.749065 21.467111 -31.183754 43.171600 0.802405 2.377949 0.031462 -0.015209 -124959.000000 0 0 1
20.230465 21.920211 -29.802254 42.165646 0.825465 2.355747 0.024150 -0.015224 -364773.000000 0 0 1
19.731865 23.183211 -29.873184 42.652255 0.865648 2.346739 0.014436 -0.000031 -415224.000000 0 0 1
19.255365 23.704681 -28.652884 41.876828 0.888599 2.324327 0.029290 0.000756 -247088.000000 0 0 1
20.314865 24.293301 -27.676594 42.057722 0.874349 2.289039 0.012751 0.001523 297649.000000 0 0 1
21.131565 25.293381 -28.289594 43.435000 0.874805 2.280104 0.020614 0.002042 201471.000000 0 0 1
20.488665 26.577221 -28.497414 44.025409 0.914046 2.274826 0.010531 0.004419 -103136.000000 0 0 1
21.428065 27.548881 -29.275704 45.554030 0.909727 2.268760 0.003524 0.004960 -213732.000000 0 0 1
21.614065 27.376171 -30.682844 46.454918 0.902478 2.292263 0.008401 0.005987 111348.000000 0 0 1
22.153665 26.138201 -31.195914 46.337624 0.867721 2.309366 0.006046 0.009636 100356.000000 0 0 1
23.577665 25.735881 -30.719454 46.496523 0.829135 2.292524 0.023622 0.005136 49545.800000 0 0 1
24.528165 26.681111 -31.191424 47.816498 0.827416 2.281431 0.019956 0.008613 -195779.000000 0 0 1
25.842465 26.326411 -30.791994 48.052677 0.794674 2.266332 0.037359 -0.007720 -315569.000000 0 0 1
26.814865 27.357211 -31.334574 49.490499 0.795409 2.256404 0.035448 0.001732 -672208.000000 0 0 1
26.869165 28.465071 -30.455494 49.595860 0.814231 2.232008 0.019510 0.005512 215913.000000 0 0 1
27.803765 29.484961 -30.819524 50.914195 0.814736 2.220968 0.026153 0.000276 417917.000000 0 0 1
27.755765 30.627631 -29.731184 50.915396 0.834548 2.194362 0.023569 0.005595 -58245.800000 0 0 1
28.484365 30.363121 -28.518004 50.463399 0.817313 2.171378 0.037029 0.003825 293362.000000 0 0 1
28.022365 31.196741 -27.526564 50.161751 0.838951 2.151672 0.035549 0.012673 -402865.000000 0 0 1
28.725465 31.091181 -26.147614 49.754513 0.824927 2.124137 0.052848 0.011916 -346165.000000 0 0 1
28.733265 29.775951 -25.556874 48.634983 0.803217 2.124079 0.050967 0.015570 1455400.000000 0 0 1
27.446865 29.127001 -25.261014 47.326857 0.815088 2.133833 0.060843 0.011571 1188500.000000 0 0 1
26.802065 29.331881 -23.891874 46.363040 0.830435 2.112179 0.063449 0.012687 71017.000000 0 0 1
26.220965 30.647711 -23.746574 46.805138 0.863083 2.102903 0.079147 0.004639 471090.000000 0 0 1
25.378865 30.670571 -22.596474 45.775226 0.879531 2.087066 0.066612 0.009691 325050.000000 0 0 1
3.239965 -26.216596 -19.691574 32.947919 -1.447835 2.211373 0.061292 -0.015107 -58358.700000 0 0 1
3.171065 -27.257936 -18.740574 33.230406 -1.454981 2.169968 0.062480 -0.009644 188878.000000 0 0 1
3.339665 -26.705296 -17.460974 32.081331 -1.446386 2.146318 0.081163 -0.010876 -79046.900000 0 0 1
3.490865 -27.727856 -16.308774 32.357322 -1.445558 2.099045 0.080747 -0.014625 -618746.000000 0 0 1
4.807965 -28.092906 -16.068574 32.718909 -1.401293 2.084160 0.065115 -0.019793 -847165.000000 0 0 1
4.819665 -28.952746 -14.950474 32.939450 -1.405842 2.041908 0.069508 -0.026848 760162.000000 0 0 1
6.209165 -29.623716 -14.663274 33.632275 -1.364186 2.021932 0.072695 -0.021268 526721.000000 0 0 1
7.182665 -28.713876 -14.163974 32.813039 -1.325680 2.017125 0.062097 -0.011996 932947.000000 0 0 1
8.511065 -29.275726 -14.024274 33.558704 -1.287874 2.001932 0.057379 -0.007780 755328.000000 0 0 1
8.653165 -30.237056 -12.795874 33.954252 -1.292068 1.957196 0.049666 -0.012862 -1025540.000000 0 0 1
8.531365 -29.465206 -11.595074 32.793724 -1.288963 1.932188 0.048206 -0.017138 -44128.300000 0 0 1
8.655065 -30.150206 -10.358374 33.033937 -1.291248 1.889744 0.053328 -0.018760 528770.000000 0 0 1
9.893065 -31.106046 -10.190274 34.195037 -1.262869 1.873398 0.046873 -0.015186 494659.000000 0 0 1
11.147665 -30.485926 -9.999974 33.965595 -1.220234 1.869639 0.048976 -0.016898 104828.000000 0 0 1
12.133365 -31.498256 -9.892574 35.174163 -1.203107 1.855888 0.049448 -0.016444 -407098.000000 0 0 1
13.300965 -31.327056 -8.949574 35.190837 -1.169278 1.827936 0.056069 -0.013288 -728763.000000 0 0 1
14.148265 -30.254276 -9.284274 34.665435 -1.133366 1.841931 0.054412 -0.016647 -42137.000000 0 0 1
14.992965 -29.926696 -8.227674 34.468693 -1.106357 1.811823 0.052310 -0.013665 882981.000000 0 0 1
16.393965 -29.239856 -8.567674 34.599658 -1.059797 1.821022 0.060935 -0.012866 1139930.000000 0 0 1
16.391965 -27.870116 -8.959774 33.551713 -1.039131 1.841120 0.067141 -0.012108 -69822.700000 0 0 1
15.871865 -27.619746 -10.253574 33.464941 -1.049220 1.882203 0.056056 -0.010215 -80078.700000 0 0 1
15.518665 -26.112566 -10.558474 32.158614 -1.034579 1.905326 0.059809 -0.005451 -460693.000000 0 0 1
14.501365 -25.563206 -9.737574 30.961063 -1.054787 1.890737 0.046303 -0.006466 228121.000000 0 0 1
14.060565 -24.259006 -9.961974 29.756340 -1.045511 1.912173 0.037143 -0.003063 -173978.000000 0 0 1
13.381465 -23.964106 -11.300374 29.682325 -1.061530 1.961361 0.017442 0.001694 380854.000000 0 0 1
14.313965 -23.763606 -12.380374 30.378812 -1.028652 1.990547 0.021130 0.003359 300310.000000 0 0 1
13.547965 -24.010406 -13.515174 30.703532 -1.057076 2.026599 0.017354 0.000236 94072.700000 0 0 1
14.083265 -23.549506 -14.867474 31.208322 -1.031828 2.067346 0.011925 0.006737 747020.000000 0 0 1
15.197765 -24.273106 -15.456674 32.543271 -1.011395 2.065712 0.018090 0.002214 1015690.000000 0 0 1
15.664665 -23.611206 -16.640374 32.859897 -0.985030 2.101805 0.016438 -0.006594 -256972.000000 0 0 1
16.744465 -24.423206 -17.410974 34.351304 -0.969803 2.102324 0.029777 -0.013189 1081800.000000 0 0 1
18.044365 -24.560506 -16.804674 34.802509 -0.937166 2.074712 0.051750 -0.018753 803521.000000 0 0 1
18.884965 -23.451806 -17.150474 34.652098 -0.892852 2.088554 0.058009 -0.023352 218443.000000 0 0 1
20.364965 -23.650806 -16.691574 35.393517 -0.859911 2.061900 0.056511 -0.020845 505766.000000 0 0 1
21.035465 -24.656506 -17.401674 36.786578 -0.864482 2.063539 0.071704 -0.020684 -693600.000000 0 0 1
22.343365 -24.809906 -16.939974 37.439553 -0.837660 2.040320 0.076589 -0.012781 -607315.000000 0 0 1
23.052665 -25.954426 -17.617174 38.928427 -0.844540 2.040422 0.073651 -0.022913 -636138.000000 0 0 1
23.747265 -25.531406 -18.760474 39.594705 -0.821588 2.064412 0.071782 -0.023572 -127682.000000 0 0 1
24.045065 -26.596136 -19.641074 40.881431 -0.835731 2.071953 0.073254 -0.028533 -271296.000000 0 0 1
25.208565 -26.404026 -20.650374 41.941415 -0.808556 2.085598 0.061515 -0.032387 -224635.000000 0 0 1
25.063665 -25.354066 -21.575774 41.671693 -0.791158 2.115022 0.060134 -0.040563 -283161.000000 0 0 1
25.532665 -24.131006 -21.040674 40.950365 -0.757183 2.110415 0.067400 -0.039367 -1055200.000000 0 0 1
24.623265 -22.903206 -21.098274 39.698856 -0.749222 2.131117 0.082596 -0.036043 -560947.000000 0 0 1
24.381865 -22.358506 -22.393874 39.948263 -0.742136 2.165873 0.075906 -0.027639 -104401.000000 0 0 1
23.641165 -23.197406 -23.242174 40.462612 -0.775924 2.182681 0.039695 -0.026808 -691193.000000 0 0 1
22.913165 -22.249106 -24.239474 40.094737 -0.770695 2.220003 0.022570 -0.016672 123059.000000 0 0 1
23.824965 -21.624406 -25.116194 40.817485 -0.737018 2.233600 0.006545 -0.007444 72655.500000 0 0 1
23.080365 -20.881306 -26.071254 40.601016 -0.735418 2.268074 -0.002011 0.002730 170040.000000 0 0 1
23.796565 -20.283506 -27.334924 41.531857 -0.705869 2.289179 -0.000076 0.004183 -6921.270000 0 0 1
22.959665 -19.355606 -27.994844 41.054805 -0.700432 2.321139 0.003194 0.004900 284958.000000 0 0 1
23.520965 -18.870306 -29.227044 41.994575 -0.676127 2.340569 0.019157 0.002582 42346.800000 0 0 1
22.627665 -17.747706 -29.842234 41.443349 -0.665117 2.374704 0.047253 0.002799 -474288.000000 0 0 1
21.383465 -18.296306 -30.173694 41.260868 -0.707753 2.391009 0.044814 -0.000982 -438732.000000 0 0 1
20.628565 -17.346906 -30.911484 41.011860 -0.699197 2.424502 0.050307 -0.005753 459971.000000 0 0 1
19.225765 -17.914806 -31.283324 40.856048 -0.750116 2.442919 0.047612 -0.009513 354002.000000 0 0 1
19.322365 -18.620706 -32.525464 42.166222 -0.766908 2.451776 0.061538 -0.011164 -203393.000000 0 0 1
18.120165 -19.249506 -32.829544 42.150478 -0.815610 2.463651 0.053764 -0.018890 -528630.000000 0 0 1
18.184565 -20.100006 -34.143561 43.594396 -0.835388 2.470608 0.087776 -0.019255 -349806.000000 0 0 1
18.886465 -21.273606 -34.003384 44.333903 -0.844769 2.444924 0.090181 -0.013839 -190736.000000 0 0 1
19.001365 -21.928506 33.153105 44.057232 -0.856793 0.718945 0.073823 -0.017534 -109387.000000 0 0 1
19.780665 -23.265606 33.252170 45.147203 -0.866180 0.742874 0.059475 -0.003737 44561.200000 0 0 1
19.360065 -24.159406 -34.118033 46.070915 -0.895235 2.404692 0.071799 -0.007321 -326372.000000 0 0 1
20.044665 -23.899006 -32.959154 45.379036 -0.872885 2.383732 0.073570 -0.008101 -639156.000000 0 0 1
19.568165 -24.588406 -31.674244 44.617939 -0.898604 2.360152 0.073644 -0.012593 -46173.300000 0 0 1
19.565465 -26.015036 -31.834264 45.530318 -0.925963 2.345058 0.083099 -0.025421 -256943.000000 0 0 1
20.411365 -26.570276 -30.892704 45.573705 -0.915747 2.315648 0.065347 -0.021570 -322539.000000 0 0 1
20.571765 -28.109546 -30.971444 46.610883 -0.939018 2.297578 0.068366 -0.029246 254563.000000 0 0 1
19.465865 -28.827646 -30.443354 46.225003 -0.976875 2.289741 0.074052 -0.027533 54114.300000 0 0 1
19.629065 -30.176486 -30.715124 47.321658 -0.994087 2.277159 0.078785 -0.025271 -808611.000000 0 0 1
18.562865 -31.114536 -30.183984 47.156836 -1.032882 2.265394 0.102353 -0.025856 1475630.000000 0 0 1
17.220965 -31.091426 -30.790604 47.024459 -1.064978 2.284686 0.125524 -0.030015 1638580.000000 0 0 1
17.242365 -31.539406 -32.152824 48.226936 -1.070496 2.300567 0.122655 -0.038883 -199168.000000 0 0 1
15.857265 -31.874636 -32.784254 48.396824 -1.109160 2.315026 0.137634 -0.051259 515056.000000 0 0 1
14.934765 -30.840936 -33.022474 47.588805 -1.119827 2.337705 0.143322 -0.042657 161840.000000 0 0 1
13.734465 -31.381516 -33.549524 47.947947 -1.158251 2.345784 0.099576 -0.032888 481529.000000 0 0 1
12.676765 -30.409756 -34.132823 47.439469 -1.175836 2.373882 0.097588 -0.028855 175655.000000 0 0 1
11.969465 -29.568696 -33.234044 46.066013 -1.186157 2.376682 0.109881 -0.037960 -264234.000000 0 0 1
11.339065 -28.684856 -34.151674 46.018824 -1.194350 2.407030 0.079415 -0.035217 -546058.000000 0 0 1
10.127365 -27.999386 -33.534984 44.845561 -1.223737 2.415521 0.076168 -0.036968 -289949.000000 0 0 1
9.159465 -28.883846 -33.001374 44.802489 -1.263714 2.398821 0.063270 -0.018874 221743.000000 0 0 1
8.043265 -28.105376 -32.573544 43.768048 -1.292064 2.410179 0.021202 -0.014080 1121180.000000 0 0 1
6.923565 -28.825766 -31.712004 43.410963 -1.335075 2.389860 0.007817 -0.016208 1013150.000000 0 0 1
5.889065 -29.600046 -32.288534 44.197209 -1.374406 2.389932 0.018246 -0.017609 147581.000000 0 0 1
6.285565 -30.910566 -32.550014 45.326315 -1.370185 2.371902 0.018991 -0.015363 -795626.000000 0 0 1
5.144065 -31.826026 -32.861914 46.035451 -1.410551 2.365762 0.026453 -0.023535 -269421.000000 0 0 1
4.409265 -32.145806 -31.654064 45.329618 -1.434482 2.343828 0.025582 -0.035131 972556.000000 0 0 1
3.363565 -33.141826 -31.810404 46.060786 -1.469653 2.333139 0.051531 -0.072964 -505195.000000 0 0 1
2.488765 -33.376296 -30.551274 45.316128 -1.496367 2.310652 0.048280 -0.075458 -160074.000000 0 0 1
1.624365 -32.309176 -30.259844 44.296496 -1.520563 2.322823 0.045249 -0.057985 69640.800000 0 0 1
0.443165 -32.399276 -31.054864 44.881111 -1.557119 2.334964 0.042057 -0.025520 -556733.000000 0 0 1
-0.500735 -31.196676 -30.807434 43.847250 1.554747 2.349852 0.037650 -0.014075 -95229.000000 0 0 1
-1.095535 -31.142136 -29.539624 42.937422 1.535632 2.329483 0.030849 -0.020659 103218.000000 0 0 1
-1.705535 -29.872756 -29.223464 41.824649 1.513765 2.344395 0.055064 -0.011126 264308.000000 0 0 1
-2.285035 -29.823236 -27.803614 40.837333 1.494326 2.319703 0.056527 -0.012149 1017910.000000 0 0 1
-1.247435 -29.803616 -26.755504 40.070795 1.528966 2.301919 0.035122 -0.008333 761588.000000 0 0 1
-1.822335 -29.902236 -25.460904 39.315675 1.509928 2.275229 0.046523 -0.013246 -34829.400000 0 0 1
-0.929035 -30.501146 -24.363674 39.048325 1.540347 2.244566 0.033717 -0.007016 81974.700000 0 0 1
-1.562735 -30.582126 -23.087274 38.350108 1.519741 2.216816 0.056181 -0.018309 115147.000000 0 0 1
-0.664135 -31.229416 -22.221374 38.334149 1.549533 2.189127 0.038457 -0.015355 436469.000000 0 0 1
-1.316035 -31.216016 -20.826174 37.548650 1.528662 2.158733 0.022664 -0.006950 246552.000000 0 0 1
-1.505235 -30.020396 -20.115774 36.168139 1.520698 2.160571 0.037210 -0.009801 -682790.000000 0 0 1
-0.342135 -29.549926 -19.527074 35.420641 1.559219 2.154707 0.059791 -0.019342 -933374.000000 0 0 1
-0.310935 -28.052116 -19.098274 33.937619 1.559713 2.168501 0.049387 -0.019341 97745.300000 0 0 1
-1.100935 -27.844506 -17.908674 33.124752 1.531278 2.141998 0.050714 -0.020960 254488.000000 0 0 1
-1.009935 -26.525516 -17.384574 31.730843 1.532741 2.150620 0.058062 -0.023389 262193.000000 0 0 1
-1.935135 -26.143876 -16.159774 30.795865 1.496912 2.123204 0.061471 -0.017828 153027.000000 0 0 1
-1.917335 -24.892706 -15.587974 29.433110 1.493924 2.128933 0.057123 -0.016418 245792.000000 0 0 1
-2.847835 -24.849406 -14.496774 28.909507 1.456690 2.096074 0.060631 -0.014138 263985.000000 0 0 1
-2.689035 -23.627506 -13.523674 27.356530 1.457474 2.087882 0.056147 -0.010442 -251393.000000 0 0 1
-1.516535 -23.800606 -12.781674 27.058084 1.507164 2.062784 0.057615 -0.010304 -360995.000000 0 0 1
-1.284135 -22.588906 -12.022674 25.621327 1.514009 2.059232 0.054987 -0.011209 619887.000000 0 0 1
-0.009635 -22.635906 -11.104774 25.213099 1.570371 2.026881 0.050176 -0.011065 710584.000000 0 0 1
0.367965 -21.295706 -10.746474 23.856429 -1.553519 2.038082 0.046974 -0.006879 -784983.000000 0 1 0
1.551865 -21.200106 -10.041174 23.509104 -1.497726 2.012100 0.034474 -0.004773 -484676.000000 0 1 0
1.915765 -19.757606 -9.704774 22.095606 -1.474135 2.025524 0.031577 -0.007210 -1258050.000000 0 1 0
2.433165 -19.048306 -10.808074 22.035715 -1.443748 2.083437 0.033385 0.000884 155827.000000 0 1 0
3.317965 -17.977706 -10.442174 21.053404 -1.388290 2.089765 0.015782 0.000260 1127550.000000 0 1 0
4.750465 -18.392706 -9.907274 21.424580 -1.318040 2.051525 0.026928 -0.010320 377246.000000 0 1 0
4.570265 -18.954806 -8.643674 21.328036 -1.334199 1.988074 0.025900 -0.009956 -914157.000000 0 1 0
5.646165 -19.633706 -8.086274 21.971560 -1.290777 1.947690 0.032622 -0.017107 -952252.000000 0 1 0
5.255165 -20.621206 -7.020174 22.408341 -1.321265 1.889445 0.044386 -0.020992 -269733.000000 0 1 0
4.508565 -21.659006 -7.564174 23.380685 -1.365566 1.900246 0.040647 -0.015941 -47078.000000 0 1 0
4.094065 -22.681406 -6.649974 23.988116 -1.392216 1.851695 0.048105 -0.019861 140934.000000 0 1 0
3.302565 -23.782506 -7.409474 25.127969 -1.432813 1.870115 0.040926 -0.013129 113343.000000 0 0 1
4.086865 -24.538206 -8.312674 26.228355 -1.405760 1.893292 0.055160 -0.010582 59776.800000 0 0 1
3.331365 -24.957406 -9.448574 26.893227 -1.438099 1.929795 0.053961 -0.011688 83789.700000 0 0 1
4.083165 -25.873476 -10.407874 28.185685 -1.414274 1.949010 0.042882 -0.012511 -114387.000000 0 0 1
4.377965 -27.174076 -9.945774 29.266285 -1.411061 1.917540 0.053245 -0.017236 250098.000000 0 0 1
5.096665 -27.878856 -10.982174 30.394321 -1.389978 1.940483 0.062569 -0.008742 312497.000000 0 0 1
5.000265 -29.360146 -10.807374 31.683121 -1.402107 1.918892 0.058257 -0.017830 -219251.000000 0 0 1
3.778665 -29.973146 -11.135174 32.197203 -1.445390 1.923933 0.068949 -0.015633 -254750.000000 0 0 1
3.819265 -31.399016 -11.047974 33.504369 -1.449755 1.906832 0.068891 -0.018185 377748.000000 0 0 1
2.565665 -32.166126 -11.589974 34.286584 -1.491202 1.915622 0.067461 -0.027470 330933.000000 0 0 1
2.374765 -31.981686 -12.977174 34.595879 -1.496678 1.955309 0.079692 -0.031051 122854.000000 0 0 1
1.314165 -32.832136 -13.326274 35.457944 -1.530791 1.956092 0.076825 -0.030353 -144704.000000 0 0 1
0.762365 -32.777056 -14.794374 35.969294 -1.547541 1.994682 0.090818 -0.026251 707425.000000 0 0 1
-0.196435 -31.705656 -15.066574 35.103973 1.564601 2.014402 0.082687 -0.027599 627508.000000 0 0 1
-0.634735 -31.764456 -16.400074 35.753965 1.550816 2.047319 0.045032 -0.019415 109558.000000 0 0 1
-1.902535 -30.929726 -16.708774 35.205834 1.509362 2.065309 0.047322 -0.007623 593492.000000 0 0 1
-3.062135 -31.404276 -15.998374 35.377298 1.473597 2.040051 0.041302 -0.011525 1004310.000000 0 0 1
-4.221735 -30.783876 -16.593574 35.225229 1.434505 2.061301 0.040541 -0.005753 452151.000000 0 0 1
-5.606135 -30.990876 -16.010374 35.329807 1.391835 2.041113 0.038105 -0.017081 -398681.000000 0 0 1
-5.746235 -30.048456 -14.938474 34.045366 1.381845 2.025038 0.022390 -0.012966 873543.000000 0 0 1
-7.041835 -29.837696 -14.320074 33.836963 1.339032 2.007779 0.042103 -0.010257 1171520.000000 0 0 1
-7.686135 -30.915956 -13.415374 34.566534 1.327123 1.969369 0.039001 -0.011377 92751.400000 0 0 1
-8.060335 -32.063016 -14.168274 35.968681 1.324509 1.975673 0.059560 -0.009682 -283353.000000 0 0 1
-8.493935 -33.047156 -13.278574 36.613959 1.319217 1.941922 0.063189 -0.011834 195264.000000 0 0 1
-8.834135 34.004489 -13.951774 37.802106 -1.316622 1.948809 0.095930 -0.011827 506896.000000 0 0 1
-7.645435 33.317001 -14.336774 37.067753 -1.345226 1.967925 0.099750 -0.012432 123758.000000 0 0 1
-7.935935 32.242651 -15.180674 36.510553 -1.329462 1.999606 0.115383 -0.020591 -652952.000000 0 0 1
-8.116235 -21.906706 -3.356974 23.601829 1.215985 1.713514 0.052283 -0.013920 -182953.000000 0 1 0
-7.582135 -20.815506 -4.103174 22.530205 1.221480 1.753937 0.039908 -0.021582 -651652.000000 0 1 0
-6.346735 -21.158006 -4.630874 22.569610 1.279368 1.777446 0.034510 -0.012022 -379638.000000 0 1 0
-5.950935 -20.184306 -5.809174 21.830400 1.284090 1.840146 0.029211 -0.020305 537707.000000 0 1 0
-6.846535 -20.282206 -6.938874 22.503131 1.245243 1.884256 0.031133 -0.023118 178785.000000 0 1 0
-6.718335 -19.117706 -7.810374 21.716921 1.232857 1.938683 0.018820 -0.020927 -629080.000000 0 1 0
-7.649935 -19.125506 -9.017474 22.486026 1.190302 1.983433 0.016642 -0.029892 83218.100000 0 1 0
-7.237235 -20.020206 -10.048574 23.540605 1.223917 2.011815 0.020285 -0.011614 -357780.000000 0 1 0
-8.323835 -20.194406 -10.889774 24.406709 1.179830 2.033288 0.036903 -0.003645 -72090.700000 0 1 0
-7.917235 -21.098906 -12.111874 25.584057 1.211812 2.063960 0.035643 -0.004363 -240028.000000 0 0 1
-7.124335 -20.468906 -13.060974 25.304571 1.235854 2.113147 0.039190 0.001382 -257145.000000 0 0 1
-6.787735 -21.355906 -14.145674 26.499966 1.263055 2.133884 0.032582 0.003585 286752.000000 0 0 1
-5.733135 -20.916506 -15.203874 26.486352 1.303271 2.182211 0.028824 0.018048 375935.000000 0 0 1
-4.394035 -20.829206 -14.745274 25.895685 1.362889 2.176585 0.032357 0.008231 169197.000000 0 0 1
-3.491635 -20.075006 -15.516774 25.611866 1.398590 2.221622 0.037598 0.009372 -33602.200000 0 0 1
-3.618635 -18.534306 -15.535574 24.453407 1.377982 2.259210 0.051980 0.011271 62411.000000 0 1 0
-4.712435 -18.030806 -16.341874 24.786566 1.315160 2.290689 0.043900 0.017299 529770.000000 0 1 0
-4.618635 -18.245006 -17.751574 25.871421 1.322860 2.326974 0.035272 0.007213 -855635.000000 0 0 1
-5.979235 -18.000406 -18.392174 26.420408 1.250091 2.340796 0.023333 0.018573 -435320.000000 0 0 1
-6.911735 -18.987206 -18.083174 27.116181 1.221686 2.300807 0.021186 0.021846 -171990.000000 0 0 1
-8.148635 -18.812006 -18.752974 27.784274 1.162033 2.311692 0.001655 0.019325 -76468.000000 0 0 1
-9.193935 -19.859806 -18.387474 28.583904 1.137232 2.269572 0.004125 0.014766 -544658.000000 0 0 1
-8.903535 -21.248306 -18.668774 29.652767 1.173999 2.251808 0.016291 0.016115 -98523.600000 0 0 1
-9.667335 -22.171306 -17.967474 30.130621 1.159621 2.209705 0.026057 0.004240 -197436.000000 0 0 1
-9.006635 -23.561906 -18.088974 31.040198 1.205681 2.192917 0.039227 -0.013384 -686502.000000 0 0 1
-8.974035 -23.917506 -19.454474 32.110076 1.211843 2.221653 0.038916 -0.022069 540826.000000 0 0 1
-8.000335 -24.922406 -19.791874 32.815392 1.260178 2.218213 0.053397 -0.036542 424300.000000 0 0 1
-6.508335 -24.539406 -19.669374 32.115809 1.311545 2.229954 0.057314 -0.022984 -858005.000000 0 0 1
-5.985435 -23.648206 -20.646074 31.958152 1.322899 2.273174 0.056111 -0.020955 109469.000000 0 0 1
-5.658635 -22.355706 -20.099474 30.590630 1.322885 2.287691 0.048978 -0.020186 41719.000000 0 0 1
-4.664435 -22.189906 -18.916574 29.529404 1.363608 2.266077 0.051995 -0.004280 328461.000000 0 0 1
-3.350635 -22.585306 -19.300374 29.896944 1.423516 2.272557 0.063948 -0.017190 414259.000000 0 0 1
-2.420335 -22.623606 -18.208574 29.141684 1.464219 2.245709 0.066502 -0.016550 1202870.000000 0 0 1
-0.997535 -23.162706 -18.591574 29.717885 1.527756 2.246700 0.086476 -0.021381 630936.000000 0 0 1
-0.249335 -22.399906 -19.517174 29.710908 1.559666 2.287500 0.096772 -0.020248 -355403.000000 0 0 1
1.000165 -23.036906 -19.678374 30.313987 -1.527408 2.277265 0.088259 -0.025713 193029.000000 0 0 1
1.979665 -22.339306 -20.655874 30.489815 -1.482409 2.315111 0.092879 -0.026890 189714.000000 0 0 1
1.580165 -22.406906 -21.978774 31.426627 -1.500392 2.345309 0.079877 -0.029577 -337142.000000 0 0 1
1.036465 -21.256006 -22.529974 30.991802 -1.522074 2.384689 0.097986 -0.021745 -120248.000000 0 0 1
0.660265 -21.384606 -24.025574 32.170880 -1.539930 2.414050 0.096311 -0.023634 27414.700000 0 0 1
0.103465 -20.273106 -24.691374 31.947981 -1.565693 2.454135 0.086043 -0.025927 318408.000000 0 0 1
-1.327035 -20.272406 -24.731574 32.005972 1.505429 2.453908 0.074284 -0.023304 567332.000000 0 0 1
-1.800835 -18.941906 -25.309144 31.663727 1.476010 2.496943 0.061315 -0.015886 -131976.000000 0 0 1
-1.340035 -17.793206 -24.633674 30.417294 1.495627 2.514705 0.069272 -0.013833 -422381.000000 0 0 1
-1.735235 -16.672506 -25.296634 30.346387 1.467092 2.556383 0.070764 -0.021624 -193465.000000 0 0 1
-1.082135 -15.322606 -24.921974 29.275554 1.500290 2.589234 0.058183 -0.017787 194926.000000 0 0 1
0.257565 -15.170906 -25.359744 29.552316 -1.553820 2.602414 0.065821 -0.030936 -257085.000000 0 0 1
0.848765 -13.944906 -24.951174 28.596187 -1.510006 2.631164 0.055857 -0.029012 446619.000000 0 0 1
0.310065 -12.643406 -25.704114 28.647048 -1.546277 2.684341 0.053619 -0.020709 -161174.000000 0 0 1
0.963465 -11.458906 -25.357474 27.843065 -1.486914 2.715841 0.048109 -0.021309 -111111.000000 0 0 1
0.592165 -10.344106 -26.176494 28.152443 -1.513612 2.764699 0.039532 -0.019032 -628921.000000 0 0 1
1.440265 -9.029706 -25.913224 27.479176 -1.412626 2.802369 0.041094 -0.018900 792356.000000 0 0 1
2.837265 -8.945206 -26.129504 27.763605 -1.263651 2.796790 0.049825 -0.025118 -67849.900000 0 0 1
3.150365 -9.292106 -27.462714 29.162796 -1.243922 2.798455 0.046015 -0.020941 87208.600000 0 0 1
4.647165 -9.025706 -27.887464 29.677772 -1.095315 2.792476 0.041104 -0.021128 -7201.310000 0 0 1
4.901765 -7.678106 -28.276194 29.707301 -1.002613 2.829934 0.042597 -0.013630 744145.000000 0 0 1
6.205165 -7.222406 -28.701734 30.239986 -0.861011 2.821264 0.049699 -0.015708 236703.000000 0 0 1
7.312465 -7.382206 -27.607714 29.498389 -0.790144 2.781618 0.062310 -0.019817 -342730.000000 0 0 1
7.758765 -8.708706 -27.305344 29.692117 -0.843020 2.737898 0.048070 -0.023809 -137728.000000 0 0 1
8.364165 -9.350606 -28.341844 30.994406 -0.841025 2.724864 0.049982 -0.027288 -1234930.000000 0 0 1
8.876265 -10.758206 -27.885464 31.178938 -0.880955 2.677814 0.061244 -0.028539 -60601.400000 0 0 1
7.886865 -11.726106 -27.570824 30.981519 -0.978704 2.667948 0.057050 -0.028745 204165.000000 0 0 1
8.411065 -12.874006 -26.874754 30.963502 -0.992079 2.621855 0.065709 -0.023018 -32201.400000 0 0 1
9.263565 -13.890706 -27.699314 32.342191 -0.982640 2.599140 0.071503 -0.029423 99036.600000 0 0 1
8.485465 -14.569806 -28.696404 33.283118 -1.043418 2.610375 0.072226 -0.036576 -408968.000000 0 0 1
9.147865 -15.383806 -29.630704 34.616810 -1.034326 2.598207 0.074311 -0.037143 -604555.000000 0 0 1
8.173965 -16.046406 -30.585494 35.493285 -1.099661 2.609458 0.072793 -0.037688 -523888.000000 0 0 1
7.488665 -15.082006 -31.361454 35.596177 -1.109929 2.648841 0.069351 -0.037465 70786.400000 0 0 1
6.760165 -15.668206 -32.397324 36.616651 -1.163469 2.656797 0.067641 -0.028041 -474225.000000 0 0 1
5.842565 -14.703106 -33.129874 36.713832 -1.192560 2.696060 0.064605 -0.019124 -179324.000000 0 0 1
6.474965 -13.887706 -34.080693 37.366926 -1.134522 2.719064 0.077116 -0.015501 144844.000000 0 0 1
5.548065 -12.966106 33.800935 36.625185 -1.166481 0.395283 0.044835 -0.012095 426921.000000 0 0 1
6.344665 -11.921606 32.892717 35.557142 -1.081723 0.389586 0.069317 -0.013912 595025.000000 0 0 1
6.879665 -12.441806 31.671541 34.716205 -1.065693 0.421934 0.064445 -0.016393 120798.000000 0 0 1
7.355965 -11.308806 30.931621 33.745585 -0.994095 0.411274 0.061661 -0.012100 2092.230000 0 0 1
7.816665 -11.703106 29.521811 32.704744 -0.981931 0.444847 0.043225 -0.001042 296276.000000 0 0 1
6.704465 -12.145906 28.754911 31.926757 -1.066424 0.449528 0.042371 -0.005785 313395.000000 0 0 1
7.010765 -12.274206 27.382291 30.815529 -1.051839 0.476540 0.034379 0.000329 17711.700000 0 0 1
5.982365 -13.072406 26.542771 30.186010 -1.141613 0.496391 0.031194 -0.019930 -29305.300000 0 0 1
5.977165 -14.434806 26.834061 31.050877 -1.178211 0.527245 0.039654 -0.014996 -101639.000000 0 0 1
5.643465 -15.187906 25.682221 30.366061 -1.215031 0.562819 0.024212 -0.019137 663602.000000 0 0 1
4.126665 -15.455306 25.368771 29.991172 -1.309877 0.562594 0.041841 -0.024268 479135.000000 0 0 1
3.418065 -14.342006 24.930391 28.963783 -1.336835 0.534068 0.029718 -0.020104 -493849.000000 0 0 1
2.073865 -14.654906 24.642811 28.746049 -1.430216 0.540874 0.026591 -0.018562 -293302.000000 0 0 1
1.275465 -13.375906 24.717521 28.133566 -1.475728 0.497921 0.033267 -0.016320 -1078840.000000 0 0 1
1.560565 -12.477806 23.640311 26.776769 -1.446375 0.488865 0.017790 -0.011340 -326561.000000 0 0 1
0.675565 -11.413806 23.432291 26.073044 -1.511677 0.453961 0.022239 -0.001651 -977663.000000 0 0 1
-0.744835 -11.769406 23.105261 25.940833 1.507595 0.471934 0.032208 -0.000141 -1767780.000000 0 0 1
-0.850935 -12.407006 21.838161 25.130921 1.502318 0.517668 0.026615 -0.002745 729292.000000 0 0 1
-2.190435 -12.831906 21.513661 25.145446 1.401724 0.544148 0.041485 -0.011029 987125.000000 0 0 1
-2.226835 -13.585506 20.137061 24.393155 1.408328 0.599672 0.054692 -0.013975 533357.000000 0 1 0
-1.368235 -14.754006 20.023361 24.909592 1.478324 0.637071 0.059796 -0.018215 188011.000000 0 1 0
-1.458735 -15.400906 18.757961 24.314131 1.476361 0.689626 0.065997 -0.023775 958647.000000 0 1 0
-2.594935 -16.513906 18.603961 25.011001 1.414934 0.732012 0.049532 -0.027309 1022410.000000 0 0 1
-2.142235 -17.511406 17.689261 24.982964 1.449067 0.784059 0.032119 -0.021376 -444520.000000 0 1 0
-3.098235 -18.527506 17.619261 25.754726 1.405106 0.817403 0.036974 -0.016834 -189459.000000 0 0 1
-2.802935 -19.739506 16.668461 25.987346 1.429743 0.874466 0.042448 -0.025046 30800.500000 0 0 1
-1.695835 -20.533206 17.049361 26.742647 1.488393 0.879502 0.046395 -0.024174 -533247.000000 0 0 1
-2.006635 -21.803606 17.506261 28.033784 1.479023 0.896343 0.049154 -0.036847 -360206.000000 0 0 1
-0.883735 -22.504706 18.292461 29.014771 1.531548 0.888659 0.072644 -0.024305 424090.000000 0 0 1
0.283765 -22.662006 17.498061 28.632660 -1.558275 0.913318 0.075911 -0.027318 -306096.000000 0 0 1
1.171065 -23.611306 18.057961 29.748196 -1.521239 0.918482 0.074509 -0.021722 -9356.560000 0 0 1
2.496265 -23.682706 17.270861 29.417420 -1.465780 0.943329 0.062881 -0.027816 203562.000000 0 0 1
3.310465 -22.518806 17.469961 28.692427 -1.424833 0.916161 0.068833 -0.022289 -45935.300000 0 0 1
4.176465 -22.208606 16.389461 27.915578 -1.384911 0.943315 0.054267 -0.027168 47315.900000 0 0 1
5.120465 -21.088706 16.861261 27.481900 -1.332600 0.910260 0.057693 -0.018126 -546812.000000 0 0 1
5.973965 -21.461106 17.959861 28.615100 -1.299307 0.892284 0.066450 -0.005105 219880.000000 0 0 1
6.680165 -20.372606 18.548461 28.349834 -1.253944 0.857579 0.070712 -0.011729 236112.000000 0 0 1
7.708365 -19.570806 17.735061 27.513047 -1.195585 0.870289 0.070223 -0.006747 -988860.000000 0 0 1
7.205565 -18.674906 16.787061 26.124275 -1.202554 0.872929 0.066172 -0.006466 -207149.000000 0 0 1
8.186665 -17.958106 16.063261 25.446875 -1.143067 0.887636 0.064367 -0.011435 -127776.000000 0 0 1
7.551965 -16.816906 15.259761 23.931169 -1.148716 0.879350 0.062925 0.001022 -10449.600000 0 1 0
6.773065 -17.268806 14.170561 23.342898 -1.197020 0.918440 0.053384 -0.000011 163601.000000 0 1 0
6.247565 -16.180306 13.408561 21.923136 -1.202311 0.912694 0.049555 -0.004455 141586.000000 0 1 0
6.714165 -16.258606 11.939061 21.259433 -1.179167 0.974491 0.058918 -0.007122 388204.000000 0 1 0
8.082165 -16.006606 11.650761 21.383944 -1.103215 0.994602 0.059599 -0.004263 218287.000000 0 1 0
8.254365 -16.371706 10.261061 21.010871 -1.103807 1.060576 0.049441 -0.005709 1266900.000000 0 1 0
9.756065 -16.021906 9.911361 21.215970 -1.023844 1.084715 0.041443 -0.007351 1323290.000000 0 1 0
10.287365 -16.512206 8.705161 21.313439 -1.013625 1.150057 0.040318 -0.007230 1490650.000000 0 1 0
11.696765 -16.141806 8.513361 21.676013 -0.943734 1.167171 0.040851 -0.012472 1880940.000000 0 1 0
12.547465 -17.166806 7.745961 22.630467 -0.939622 1.221454 0.046034 -0.017925 -178479.000000 0 1 0
12.852465 -18.281006 8.523661 23.917229 -0.958026 1.206404 0.053329 -0.019299 56986.700000 0 1 0
13.627065 -19.240006 7.816661 24.838980 -0.954543 1.250663 0.058344 -0.018711 216091.000000 0 1 0
14.044765 -20.454406 8.629261 26.269798 -0.969095 1.236096 0.055148 -0.017917 544168.000000 0 0 1
12.900765 -21.244906 8.934761 26.412227 -1.025070 1.225706 0.054483 -0.013960 398889.000000 0 0 1
13.425265 -22.416006 9.507861 27.804937 -1.031176 1.221807 0.041403 -0.009865 476377.000000 0 0 1
12.381765 -23.255506 10.283061 28.281938 -1.081548 1.198676 0.053328 -0.013548 161649.000000 0 0 1
12.183265 -22.639006 11.564061 28.190141 -1.077094 1.148105 0.061742 -0.023320 165860.000000 0 0 1
11.192965 -23.317306 12.379061 28.674386 -1.123253 1.124407 0.079676 -0.022248 405453.000000 0 0 1
11.577665 -24.737006 12.843161 30.181262 -1.133050 1.131244 0.069204 -0.020374 170437.000000 0 0 1
12.702765 -24.669706 13.716561 30.953169 -1.095289 1.111699 0.055713 -0.025620 143671.000000 0 0 1
12.957565 -25.994346 14.137061 32.302647 -1.108368 1.117820 0.046468 -0.027086 38788.800000 0 0 1
14.035665 -26.178376 15.232761 33.381796 -1.078645 1.096942 0.050950 -0.021419 -13432.600000 0 0 1
13.776865 -25.584366 16.452661 33.392392 -1.076835 1.055599 0.039852 -0.016742 147741.000000 0 0 1
14.812165 -25.856826 17.378661 34.496283 -1.050577 1.042823 0.042673 -0.017451 -168671.000000 0 0 1
14.571465 -25.345476 18.818061 34.768379 -1.049027 0.998884 0.042154 -0.018992 20818.100000 0 0 1
15.009165 -24.003206 19.112661 34.157324 -1.011983 0.976956 0.033767 -0.021415 881567.000000 0 0 1
16.403865 -23.837906 19.435161 34.857683 -0.968073 0.979356 0.041545 -0.023341 857553.000000 0 0 1
16.861965 -22.407206 19.819361 34.339712 -0.925682 0.955555 0.039080 -0.029769 -180945.000000 0 0 1
16.857965 -21.524306 18.714361 33.131768 -0.906380 0.970549 0.032453 -0.024603 -168876.000000 0 0 1
15.629865 -20.898806 18.488061 31.982201 -0.928651 0.954431 0.044557 -0.017135 -952688.000000 0 0 1
15.754465 -19.867106 17.347361 30.721914 -0.900343 0.970778 0.041558 -0.015673 -314741.000000 0 0 1
16.556965 -18.774506 17.616261 30.609604 -0.848080 0.957564 0.046635 -0.021918 751166.000000 0 0 1
17.951365 -18.990206 17.297861 31.338402 -0.813512 0.986071 0.045174 -0.015253 474903.000000 0 0 1
18.779965 -17.724106 17.423961 31.151652 -0.756482 0.977223 0.052534 -0.012997 -372807.000000 0 0 1
19.202965 -17.504606 18.744261 32.039233 -0.739164 0.945866 0.049496 -0.010202 199295.000000 0 0 1
19.767065 -16.218606 18.945661 31.823232 -0.687108 0.933107 0.056595 -0.008937 -249665.000000 0 0 1
20.160565 -15.979006 20.400261 32.832113 -0.670205 0.900331 0.057445 -0.005480 -77215.900000 0 0 1
21.338965 -16.713906 20.678861 34.092835 -0.664448 0.919088 0.054848 -0.006697 18847.600000 0 0 1
21.714265 -16.688906 22.028961 35.146892 -0.655280 0.893397 0.048727 0.001147 33375.100000 0 0 1
34.177230 -1.037906 -7.268874 34.957071 -0.030359 1.780262 0.097035 -0.022275 -616482.000000 0 0 1
35.423620 -0.815006 -7.842974 36.290623 -0.023003 1.788631 0.089308 -0.022632 -385110.000000 0 0 1
36.098050 -2.030606 -8.154174 37.063231 -0.056193 1.792618 0.094267 -0.031262 1034140.000000 0 0 1
-35.153237 -1.705906 -8.639674 36.239539 0.048490 1.811519 0.082133 -0.027312 723232.000000 0 0 1
-34.350776 -2.816406 -8.847374 35.583479 0.081807 1.822069 0.094590 -0.023156 -436558.000000 0 0 1
-33.006915 -2.479806 -9.062574 34.318161 0.074989 1.838041 0.132998 -0.028620 -293077.000000 0 0 1
-31.989125 -3.562106 -8.656574 33.330602 0.110897 1.833527 0.120369 -0.026291 -268449.000000 0 0 1
-31.720195 -3.592006 -7.334974 32.754773 0.112760 1.796648 0.118575 -0.032339 -110133.000000 0 0 1
-30.494715 -4.236206 -7.128674 31.602074 0.138033 1.798331 0.111623 -0.035634 -503736.000000 0 0 1
-30.041625 -4.179306 -5.666074 30.855636 0.138230 1.755476 0.109929 -0.044738 -525617.000000 0 0 1
-29.630315 -2.859306 -5.430474 30.259235 0.096201 1.751239 0.116079 -0.040564 393708.000000 0 0 1
-29.675255 -2.561306 -4.028174 30.056734 0.086098 1.705220 0.103716 -0.040318 -242161.000000 0 0 1
-29.307175 -1.074606 -3.623274 29.549846 0.036651 1.693721 0.122813 -0.038059 -665119.000000 0 0 1
-27.922245 -0.923406 -3.508174 28.156913 0.033059 1.695715 0.113803 -0.032904 -22207.200000 0 0 1
-27.678855 0.350094 -2.927274 27.835419 -0.012648 1.676155 0.130948 -0.036136 20141.300000 0 0 1
-26.191555 0.501894 -2.528074 26.318067 -0.019160 1.667003 0.135039 -0.026153 -55042.600000 0 0 1
-25.842465 -0.197706 -1.351774 25.878551 0.007650 1.623055 0.133110 -0.030987 459742.000000 0 0 1
-24.440635 -0.150106 -1.166074 24.468897 0.006142 1.618470 0.115850 -0.029701 30086.800000 0 1 0
-24.095635 -0.957406 0.088226 24.114810 0.039713 1.567138 0.110641 -0.029065 -162245.000000 0 1 0
-24.438535 -2.331206 -0.154374 24.549957 0.095103 1.577085 0.115720 -0.024204 581182.000000 0 1 0
-23.711035 -3.174506 0.754026 23.934478 0.133092 1.539287 0.104384 -0.022517 -73331.200000 0 1 0
-23.966135 -4.732606 0.722326 24.439619 0.194962 1.541236 0.110994 -0.012678 -445807.000000 0 1 0
-25.054265 -5.063906 1.544626 25.607523 0.199431 1.510440 0.098941 -0.018726 81296.800000 0 0 1
-25.284055 -6.420906 1.380226 26.123103 0.248694 1.517936 0.100670 -0.014503 14714.900000 0 0 1
-26.509075 -6.865106 2.222826 27.473655 0.253405 1.489800 0.094804 -0.012689 -114153.000000 0 0 1
-26.306745 -7.173406 3.624326 27.507060 0.266211 1.438652 0.093362 -0.015558 -313356.000000 0 0 1
-27.473095 -7.606806 4.252526 28.822187 0.270115 1.422712 0.070200 -0.006127 -453958.000000 0 0 1
-27.361695 -7.641306 5.731926 28.981148 0.272332 1.371702 0.074138 -0.004272 -192653.000000 0 0 1
-26.540515 -8.719106 6.180626 28.611570 0.317413 1.353062 0.078199 -0.000316 266938.000000 0 0 1
-26.573925 -8.919106 7.570926 29.035201 0.323820 1.306997 0.054656 -0.010720 -217390.000000 0 0 1
-25.807585 -7.840606 8.341526 28.232740 0.294949 1.270864 0.067779 -0.011045 -385261.000000 0 0 1
-24.457435 -7.679406 7.965526 26.843790 0.304242 1.269523 0.085170 -0.010468 30810.800000 0 0 1
-24.120935 -6.334906 7.985526 26.186241 0.256831 1.260909 0.086388 -0.018903 -536000.000000 0 0 1
-22.749135 -5.968206 7.417826 24.661038 0.256567 1.265274 0.104438 -0.020368 -101525.000000 0 1 0
-21.706635 -6.260306 8.310026 24.071269 0.280786 1.218317 0.109437 -0.029088 178364.000000 0 1 0
-20.381535 -6.049606 7.856826 22.665711 0.288535 1.216810 0.096350 -0.024058 1244260.000000 0 1 0
-19.240835 -6.402906 8.901926 22.146134 0.321250 1.157137 0.098717 -0.022403 630660.000000 0 1 0
-19.200535 -5.495906 10.032826 22.350015 0.278783 1.105267 0.092139 -0.010868 240550.000000 0 1 0
-18.045435 -5.692806 10.821926 21.798162 0.305589 1.051280 0.082049 -0.021045 -10703.600000 0 1 0
-17.767535 -4.465306 11.707726 21.741553 0.246219 1.002146 0.072934 -0.020893 -154140.000000 0 1 0
-18.784435 -4.394306 12.674726 23.082756 0.229801 0.989510 0.077274 -0.016400 82251.100000 0 1 0
-19.021135 -3.095906 13.109426 23.307623 0.161347 0.973448 0.086793 -0.017489 -618906.000000 0 1 0
-20.226435 -3.062206 14.011626 24.795392 0.150255 0.970254 0.079366 -0.019300 -736909.000000 0 1 0
-20.023135 -3.774606 15.242026 25.445883 0.186326 0.928547 0.071616 -0.015583 95909.700000 0 0 1
-21.205035 -3.752706 15.992526 26.823445 0.175159 0.932019 0.053342 -0.010001 -300168.000000 0 0 1
-21.145835 -4.794106 17.139026 27.638307 0.222947 0.901903 0.052718 -0.003195 -439093.000000 0 0 1
-22.132035 -4.704606 18.117926 28.986541 0.209452 0.895606 0.043013 -0.006562 -5703.920000 0 0 1
-21.845935 -5.554006 19.215526 29.619729 0.248961 0.864868 0.054133 -0.004042 -388102.000000 0 0 1
-22.573435 -5.156406 20.491826 30.920276 0.224575 0.846336 0.055331 -0.000980 -468064.000000 0 0 1
-22.197635 -3.900706 21.028526 30.824494 0.173950 0.820027 0.043999 -0.007366 264688.000000 0 0 1
-22.944235 -3.641906 22.202026 32.134582 0.157415 0.808053 0.053978 -0.014664 -50411.200000 0 0 1
-22.980235 -2.157706 22.640326 32.331583 0.093620 0.795043 0.048315 -0.007463 251629.000000 0 0 1
-23.753535 -1.269106 21.818526 32.278308 0.053377 0.828543 0.058478 -0.014829 171350.000000 0 0 1
-23.685835 0.123194 22.260426 32.504777 -0.005201 0.816418 0.054734 -0.015073 -577695.000000 0 0 1
-24.904835 0.926194 21.785626 33.101694 -0.037172 0.852448 0.067681 -0.019732 -917540.000000 0 0 1
-25.976965 0.388294 22.489526 34.361785 -0.014946 0.857285 0.075996 -0.020523 -987994.000000 0 0 1
-27.157655 0.983094 21.982526 34.953343 -0.036184 0.890645 0.078870 -0.021487 8074.360000 0 0 1
-28.250775 1.135794 23.075126 36.494627 -0.040182 0.886293 0.073526 -0.018617 -268739.000000 0 0 1
-27.873025 1.819894 24.241426 36.984650 -0.065200 0.856024 0.063003 -0.018147 -71340.900000 0 0 1
-28.971425 1.842794 25.097526 38.374799 -0.063522 0.857922 0.057366 -0.019483 -183235.000000 0 0 1
-28.548935 2.818394 26.255726 38.888921 -0.098403 0.829633 0.067450 -0.017086 -19903.100000 0 0 1
-27.448085 2.459594 27.035626 38.605337 -0.089370 0.794967 0.057268 -0.016792 -160728.000000 0 0 1
-27.260875 3.289294 28.127226 39.307959 -0.120079 0.773370 0.049625 -0.015579 329895.000000 0 0 1
-26.080725 2.874494 29.080426 39.168075 -0.109772 0.734073 0.062828 -0.017146 397016.000000 0 0 1
-26.387335 1.778394 29.968326 39.969422 -0.067294 0.723065 0.054978 -0.018846 -332098.000000 0 0 1
-25.340765 1.477794 30.815926 39.924423 -0.058251 0.689040 0.057237 -0.028437 -443303.000000 0 0 1
-25.708455 0.372994 31.818326 40.908064 -0.014508 0.679637 0.034135 -0.030980 -89039.800000 0 0 1
-25.917845 -0.875406 31.267726 40.622306 0.033763 0.692397 0.027277 -0.020485 -151225.000000 0 0 1
-26.359495 -1.827706 32.214326 41.664449 0.069227 0.686948 0.025497 -0.014504 -575848.000000 0 0 1
-27.008565 -3.049306 31.465126 41.579022 0.112425 0.712462 0.042400 -0.013102 188718.000000 0 0 1
-28.251995 -2.629206 30.905126 41.954914 0.092795 0.742727 0.032278 -0.005994 178512.000000 0 0 1
-28.241835 -1.910906 29.654426 40.995583 0.067559 0.762145 0.035187 -0.009849 -633070.000000 0 0 1
-29.690725 -1.487506 29.358026 41.780923 0.050058 0.791659 0.033534 -0.017515 461059.000000 0 0 1
-30.341965 -0.683006 30.323526 42.902420 0.022506 0.785829 0.048705 -0.020104 -577523.000000 0 0 1
-31.638325 -0.266706 30.009426 43.607573 0.008430 0.811832 0.034284 -0.025106 197416.000000 0 0 1
-32.581685 0.088494 31.188326 45.103057 -0.002716 0.807246 0.028607 -0.008739 123336.000000 0 0 1
-32.900925 -1.004706 32.030726 45.928725 0.030528 0.799032 0.022860 -0.008056 -5669.780000 0 0 1
-33.641445 -0.659406 33.197226 47.267721 0.019599 0.792140 0.038743 -0.008387 25353.000000 0 0 1
-33.930505 -1.967906 33.972126 48.054731 0.057933 0.785625 0.037330 -0.010640 202068.000000 0 0 1
-34.757459 -2.946706 33.352026 48.260975 0.084577 0.807819 0.013967 -0.003899 313058.000000 0 0 1
-34.377146 -4.178706 33.846326 48.423378 0.120961 0.796845 0.011863 -0.002106 6929.980000 0 0 1
-35.393566 -5.216806 33.336726 48.900480 0.146341 0.820677 0.008385 -0.005857 263212.000000 0 0 1
36.021990 -5.121206 33.830726 49.682276 -0.141223 0.821749 0.011588 -0.009809 -627836.000000 0 0 1
35.089870 -6.018306 33.320526 48.762449 -0.169859 0.818491 0.007649 -0.011251 -1389850.000000 0 0 1
33.674560 -5.579206 33.588426 47.888264 -0.164189 0.793448 0.026250 -0.010062 -1363240.000000 0 0 1
33.247390 -5.664806 -33.464809 47.511813 -0.168763 2.352299 0.047642 -0.025946 211703.000000 0 0 1
32.720510 -6.935306 -33.081909 47.044053 -0.208865 2.350700 0.053848 -0.028109 -734985.000000 0 0 1
31.356350 -7.376706 -33.634809 46.571846 -0.231053 2.377793 0.068569 -0.033456 -260227.000000 0 0 1
30.237460 -7.003006 -32.855809 45.197901 -0.227588 2.384640 0.075623 -0.035858 -66777.500000 0 0 1
29.042710 -7.598306 -33.327009 44.854239 -0.255890 2.408348 0.076980 -0.037129 333837.000000 0 0 1
27.859950 -7.077806 -32.441809 43.344470 -0.248786 2.416540 0.093078 -0.041794 187288.000000 0 0 1
26.590670 -7.571006 -32.807109 42.903266 -0.277384 2.441335 0.088633 -0.043647 56080.200000 0 0 1
25.580470 -7.229306 -31.886809 41.513756 -0.275428 2.446668 0.084520 -0.042126 276266.000000 0 0 1
24.129770 -7.557106 -32.379509 41.082700 -0.303510 2.478601 0.070858 -0.039906 572491.000000 0 0 1
23.832970 -8.927106 -32.436309 41.228847 -0.358393 2.476303 0.073963 -0.042521 64301.800000 0 0 1
23.377770 -9.360006 -31.141409 40.048935 -0.380834 2.461611 0.077323 -0.040057 -449714.000000 0 0 1
23.112370 -10.854106 -31.054209 40.203945 -0.439052 2.453434 0.080340 -0.034504 -995586.000000 0 0 1
21.966470 -11.250706 -31.677709 40.156960 -0.473341 2.479727 0.098448 -0.043557 -824095.000000 0 0 1
21.965370 -12.652606 -31.503409 40.435513 -0.522604 2.464029 0.080973 -0.026671 -419003.000000 0 0 1
20.942370 -13.528906 -32.305909 40.807915 -0.573563 2.484314 0.072703 -0.020899 439707.000000 0 0 1
19.564670 -13.309006 -32.080509 39.863078 -0.597352 2.506080 0.072281 -0.022642 177872.000000 0 0 1
19.106370 -12.098106 -32.699809 39.757956 -0.564472 2.536540 0.072102 -0.028946 -167373.000000 0 0 1
17.767170 -11.529106 -32.116009 38.471167 -0.575601 2.558579 0.053693 -0.029769 823458.000000 0 0 1
16.588070 -12.062006 -32.690609 38.591864 -0.628716 2.581273 0.046612 -0.020676 -90463.600000 0 0 1
15.426770 -11.557206 -32.062109 37.410334 -0.642967 2.600291 0.080097 -0.026665 -50388.900000 0 0 1
14.128170 -11.965906 -32.752009 37.622895 -0.702723 2.627083 0.076376 -0.022557 -1076860.000000 0 0 1
13.859170 -13.361806 -32.695209 37.941945 -0.767129 2.609440 0.078933 -0.019573 -58266.500000 0 0 1
12.729470 -13.694106 -33.461209 38.330412 -0.821889 2.632050 0.061162 -0.025994 586883.000000 0 0 1
11.343970 -13.601906 -32.697609 37.186438 -0.875666 2.645163 0.043789 -0.019726 337437.000000 0 0 1
11.043370 -12.261706 -32.394609 36.355414 -0.837628 2.670457 0.079460 -0.014468 631949.000000 0 0 1
9.970470 -12.360006 -31.389609 35.177942 -0.892000 2.673232 0.073968 -0.024516 1633000.000000 0 0 1
8.636470 -11.649506 -31.780809 34.933071 -0.932848 2.713509 0.072690 -0.014774 221879.000000 0 0 1
8.832370 -10.269706 -32.058909 34.803036 -0.860502 2.741828 0.070685 -0.015512 500147.000000 0 0 1
7.632770 -9.495306 -32.207709 34.434816 -0.893714 2.779970 0.063884 -0.012920 408830.000000 0 0 1
7.888270 -7.992906 -32.458009 34.345796 -0.791987 2.808501 0.083052 -0.014911 20933.400000 0 0 1
8.440970 -7.311606 -31.345209 33.275091 -0.713827 2.799343 0.074547 -0.020540 269751.000000 0 0 1
8.899270 -6.009206 -31.811509 33.574986 -0.593919 2.816047 0.078032 -0.018086 126826.000000 0 0 1
9.236470 -5.048906 -30.642509 32.400111 -0.500250 2.810702 0.075666 -0.019633 -267388.000000 0 0 1
8.101270 -4.771306 -29.876209 31.320661 -0.532261 2.836709 0.075158 -0.018475 -412058.000000 0 0 1
8.275570 -3.712006 -28.896709 30.286694 -0.421647 2.837456 0.077368 -0.017099 -475232.000000 0 0 1
6.919170 -3.330506 -28.329409 29.351705 -0.448612 2.876892 0.067614 -0.018862 -1062610.000000 0 0 1
6.201570 -2.580506 -29.289709 30.050051 -0.394313 2.916160 0.061514 -0.012945 378828.000000 0 0 1
4.940870 -2.074306 -28.844809 29.338336 -0.397480 2.957912 0.066471 -0.021340 670207.000000 0 0 1
3.766570 -3.070806 -28.812509 29.219473 -0.683988 2.974498 0.048868 -0.021563 -678540.000000 0 0 1
3.844770 -3.898206 -27.730209 28.265576 -0.792299 2.946653 0.053892 -0.025612 -338107.000000 0 0 1
2.797770 -4.825206 -27.666809 28.223438 -1.045344 2.942659 0.061124 -0.026312 -20507.600000 0 0 1
2.900370 -5.721806 -26.369009 27.138089 -1.101646 2.902953 0.045572 -0.037230 84549.600000 0 0 1
2.712470 -4.967506 -25.173509 25.801922 -1.070997 2.920438 0.047333 -0.038343 61037.100000 0 0 1
3.005170 -5.796806 -24.049509 24.920130 -1.092523 2.876482 0.042897 -0.043175 14928.400000 0 1 0
3.064670 -5.162506 -22.678809 23.460010 -1.035067 2.882804 0.049144 -0.052549 369767.000000 0 1 0
4.165870 -4.287406 -22.447609 23.229969 -0.799775 2.881325 0.054203 -0.045775 164376.000000 0 1 0
3.839270 -3.381206 -21.415809 22.018389 -0.722044 2.907102 0.052241 -0.041847 -186912.000000 0 1 0
4.851570 -2.243206 -21.402509 22.059853 -0.433091 2.896859 0.064008 -0.036745 342946.000000 0 1 0
6.162170 -2.670406 -21.015709 22.062716 -0.408926 2.832283 0.062964 -0.035822 111073.000000 0 1 0
6.942870 -1.501506 -20.807409 21.986501 -0.212986 2.812611 0.074981 -0.022996 863383.000000 0 1 0
8.458370 -1.807906 -20.520809 22.269175 -0.210573 2.742694 0.075224 -0.025692 104076.000000 0 1 0
9.139070 -2.435306 -21.613009 23.591852 -0.260421 2.729093 0.083020 -0.037098 312768.000000 0 1 0
10.228970 -3.285306 -21.309809 23.864891 -0.310770 2.674621 0.065108 -0.037506 291375.000000 0 1 0
11.461170 -2.711306 -20.604409 23.732915 -0.232294 2.622316 0.057497 -0.026819 -927610.000000 0 1 0
11.263970 -2.516106 -19.240909 22.437032 -0.219769 2.601287 0.051586 -0.014579 145101.000000 0 1 0
12.505870 -2.215906 -18.627809 22.545560 -0.175369 2.543178 0.050633 -0.017445 133998.000000 0 1 0
12.827370 -0.703306 -18.507209 22.528933 -0.054774 2.534809 0.041291 -0.014897 -114906.000000 0 1 0
13.233370 -0.156206 -19.738809 23.764828 -0.011803 2.550961 0.040157 -0.021170 185721.000000 0 1 0
13.481070 1.246894 -19.501709 23.740485 0.092230 2.534752 0.068954 -0.029884 -83364.000000 0 1 0
13.892670 1.983494 -20.813409 25.102560 0.141814 2.548355 0.052928 -0.024302 106385.000000 0 0 1
15.254670 2.167294 -21.147509 26.165230 0.141130 2.511936 0.048765 -0.019943 257984.000000 0 0 1
15.214170 3.156694 -22.144809 27.052324 0.204581 2.529751 0.047971 -0.024565 725724.000000 0 0 1
16.535870 3.235294 -23.008209 28.518061 0.193212 2.509502 0.044701 -0.026584 801057.000000 0 0 1
16.630070 2.252194 -24.052809 29.328642 0.134610 2.532405 0.031846 -0.023070 193875.000000 0 0 1
17.609670 1.250794 -23.794609 29.628506 0.070910 2.503274 0.030027 -0.016422 -194614.000000 0 0 1
9.355665 26.899694 3.009326 28.638750 1.236084 1.465523 0.006679 0.001827 18438.200000 0 0 1
9.416565 27.527894 4.264426 29.404795 1.241200 1.425258 0.013475 0.001088 1101510.000000 0 0 1
10.812465 27.652294 4.613126 30.047290 1.198059 1.416658 0.018389 -0.007652 704198.000000 0 0 1
10.941465 28.299594 6.021726 30.932892 1.201869 1.374875 0.014894 -0.008279 -120873.000000 0 0 1
10.621065 27.346094 6.997126 30.159171 1.200335 1.336656 0.016168 -0.007856 109131.000000 0 0 1
10.593565 28.081894 8.242926 31.124945 1.210065 1.302765 0.020646 -0.009319 -636331.000000 0 0 1
10.473065 27.193394 9.463926 30.638728 1.203172 1.256773 0.034975 -0.014165 212689.000000 0 0 1
11.617765 26.504594 9.958026 30.604382 1.157689 1.239384 0.040490 -0.011749 12933.200000 0 0 1
12.193465 25.562194 9.144626 29.761225 1.125708 1.258477 0.040359 -0.013095 -631407.000000 0 0 1
13.498065 24.916694 9.638326 29.932202 1.074326 1.242950 0.052836 -0.016175 -794785.000000 0 0 1
14.487365 25.861794 9.810826 31.224484 1.060168 1.251179 0.053936 -0.013139 -979417.000000 0 0 1
15.572865 25.281894 10.464326 31.483176 1.018718 1.231972 0.063632 -0.012729 -42823.400000 0 0 1
16.699965 26.261994 10.904226 32.977011 1.004398 1.233792 0.051256 -0.012011 337022.000000 0 0 1
17.468965 26.803494 9.807826 33.463195 0.993197 1.273336 0.035457 -0.009594 1935040.000000 0 0 1
18.922165 26.732794 9.872926 34.207678 0.954837 1.278014 0.059083 -0.017231 1732450.000000 0 0 1
19.677165 27.571294 10.947726 35.598030 0.950946 1.258192 0.049904 -0.013022 -530948.000000 0 0 1
19.657165 28.984694 10.963926 36.697742 0.974858 1.267400 0.051855 -0.027142 -405755.000000 0 0 1
18.439465 29.576094 11.325726 36.647391 1.013306 1.256607 0.044633 -0.015290 -224925.000000 0 0 1
18.529065 31.149494 11.452526 38.010229 1.034177 1.264739 0.049315 -0.010849 -515044.000000 0 0 1
18.896965 31.906694 10.302826 38.487408 1.036090 1.299798 0.063478 -0.030856 139527.000000 0 0 1
17.966365 31.963894 9.228426 37.810641 1.058724 1.324236 0.068419 -0.036070 1548790.000000 0 0 1
16.549765 32.634494 9.529026 37.811469 1.101465 1.316035 0.058226 -0.024317 1043170.000000 0 0 1
16.755365 33.955694 9.764726 39.103468 1.112404 1.318410 0.061501 -0.023452 580365.000000 0 0 1
15.517265 -33.816723 10.089026 38.550548 -1.140596 1.306004 0.059091 -0.011804 747284.000000 0 0 1
15.705465 -32.238123 10.097626 37.254802 -1.117465 1.296321 0.066886 -0.003280 158825.000000 0 0 1
15.953165 -31.795623 8.795026 36.644476 -1.105757 1.328421 0.062827 -0.011702 24185.000000 0 0 1
16.341065 -30.441123 8.769626 35.645459 -1.078137 1.322221 0.053012 -0.010624 -57451.900000 0 0 1
16.830165 -29.963123 7.340926 35.141605 -1.059018 1.360351 0.058349 -0.000657 -280056.000000 0 0 1
15.923865 -29.869923 6.296226 34.429991 -1.081015 1.386891 0.061743 0.009456 -341577.000000 0 0 1
16.554065 -29.197423 5.206426 33.965180 -1.055018 1.416902 0.056931 0.003698 320182.000000 0 0 1
16.212765 -29.843023 3.829626 34.177856 -1.073136 1.458511 0.060261 -0.008587 97407.100000 0 0 1
16.921465 -31.020223 3.593926 35.517693 -1.071416 1.469436 0.056393 -0.013255 -184136.000000 0 0 1
16.626965 -31.443823 2.294326 35.643147 -1.084388 1.506382 0.049531 -0.019812 64561.000000 0 0 1
17.053065 -32.927423 1.948626 37.132457 -1.092933 1.518295 0.060683 -0.027221 46392.500000 0 0 1
18.451265 -33.126623 1.867126 37.964569 -1.062601 1.521596 0.055459 -0.017905 62916.700000 0 0 1
18.746865 33.997594 1.419126 38.849649 1.066866 1.534260 0.081556 -0.023881 -670644.000000 0 0 1
20.172765 33.649794 1.802226 39.274636 1.030751 1.524892 0.090804 -0.026298 -573943.000000 0 0 1
20.319965 33.244894 3.123826 39.088134 1.022167 1.490794 0.074680 -0.041455 144453.000000 0 0 1
21.681465 33.050394 3.457126 39.678283 0.990206 1.483557 0.045044 -0.027317 -232356.000000 0 0 1
21.929365 33.018194 4.969526 39.947394 0.984531 1.446071 0.044455 -0.017736 -396444.000000 0 0 1
21.358465 32.004394 5.763726 38.906115 0.982314 1.422105 0.056303 -0.029047 -61237.100000 0 0 1
22.045265 30.772494 5.661626 38.275241 0.949151 1.422333 0.043489 -0.034464 -11232.900000 0 0 1
21.419465 29.744894 6.585726 37.241428 0.946704 1.393023 0.062083 -0.039596 -206976.000000 0 0 1
20.128565 29.421694 6.141026 36.173296 0.970794 1.400203 0.071914 -0.031364 -1254630.000000 0 0 1
19.351165 28.950494 7.184026 35.555715 0.981579 1.367346 0.070154 -0.035264 -843215.000000 0 0 1
17.889665 28.893194 6.729526 34.643084 1.016404 1.375300 0.072585 -0.028655 -455417.000000 0 0 1
17.234065 30.124594 6.466226 35.303204 1.051150 1.386594 0.063431 -0.039651 40996.900000 0 0 1
17.674665 30.800794 5.296526 35.904538 1.049836 1.422739 0.076328 -0.038202 -646324.000000 0 0 1
17.729265 32.379694 5.460926 37.317464 1.069842 1.423932 0.083629 -0.040063 997898.000000 0 0 1
16.419365 32.937394 5.661426 37.235993 1.108348 1.418163 0.080062 -0.038874 572202.000000 0 0 1
16.541865 -34.054623 5.733226 38.291259 -1.118618 1.420504 0.080684 -0.037347 602262.000000 0 0 1
15.190065 -33.249823 5.744326 37.003866 -1.142263 1.414930 0.074218 -0.033066 579538.000000 0 0 1
14.395765 -33.446223 4.627026 36.705548 -1.164348 1.444402 0.066475 -0.028373 -562038.000000 0 0 1
13.142565 -32.817723 4.707826 35.663617 -1.189884 1.438403 0.060080 -0.024726 -169955.000000 0 0 1
12.376265 -32.869123 3.369026 35.283162 -1.210684 1.475165 0.053167 -0.026866 -375473.000000 0 0 1
11.213265 -32.102423 3.508626 34.184987 -1.234748 1.467979 0.051385 -0.026297 -34120.300000 0 0 1
10.595565 -31.727423 2.229926 33.524140 -1.248485 1.504230 0.046523 -0.023927 -245824.000000 0 0 1
9.740465 -30.457823 2.273426 32.058137 -1.261273 1.499821 0.050537 -0.021791 154756.000000 0 0 1
9.126765 -30.042023 1.021726 31.414406 -1.275857 1.538266 0.056321 -0.012618 -212086.000000 0 0 1
8.115565 -30.841623 0.512326 31.895620 -1.313492 1.554733 0.048622 -0.016902 -981470.000000 0 0 1
8.450265 -31.400923 -0.908874 32.530770 -1.307915 1.598739 0.056663 -0.017529 -389141.000000 0 0 1
9.635865 -32.122423 -1.003574 33.551559 -1.279364 1.600712 0.049260 -0.022319 -723874.000000 0 0 1
9.787865 -32.825423 -2.206274 34.324603 -1.281011 1.635117 0.046440 -0.008727 125826.000000 0 0 1
11.043265 -33.748823 -2.237474 35.580094 -1.254559 1.633723 0.042572 -0.010564 -170357.000000 0 0 1
11.099165 33.795994 -1.124374 35.589673 1.253477 1.602394 0.038539 -0.011676 -185692.000000 0 0 1
12.214665 32.948294 -1.213574 35.160501 1.215781 1.605318 0.055610 -0.019421 -394004.000000 0 0 1
12.353165 32.036694 0.087026 34.335958 1.202770 1.568262 0.044657 -0.018957 -556831.000000 0 0 1
12.695365 32.559294 1.348126 34.972808 1.199014 1.532239 0.047371 -0.023917 387264.000000 0 0 1
14.000365 33.078294 1.552726 35.952673 1.170409 1.527595 0.056503 -0.025022 -168926.000000 0 0 1
15.237765 32.211694 1.445026 35.663297 1.128940 1.530267 0.061776 -0.029133 -927758.000000 0 0 1
15.703365 31.804894 0.158626 35.470721 1.112169 1.566324 0.065694 -0.028915 87014.900000 0 0 1
16.514465 30.645694 0.215626 34.812822 1.076528 1.564602 0.073969 -0.021657 -285634.000000 0 0 1
17.200865 30.239194 -1.095274 34.806295 1.053614 1.602269 0.065936 -0.019517 304366.000000 0 0 1
18.315465 31.089894 -1.326974 36.108151 1.038420 1.607555 0.053180 -0.015535 134884.000000 0 0 1
17.924665 32.176094 -2.151974 36.894791 1.062534 1.629157 0.056883 -0.019859 -1089850.000000 0 0 1
19.025665 33.021394 -2.642474 38.201715 1.048089 1.640023 0.059024 -0.014819 -1049000.000000 0 0 1
19.755565 33.789194 -1.702574 39.177681 1.041724 1.614268 0.050648 -0.017000 -624866.000000 0 0 1
20.808565 -33.988223 -2.337274 39.920653 -1.021434 1.629378 0.051456 -0.012812 -1818110.000000 0 0 1
21.905565 -33.460223 -1.392374 40.017234 -0.991142 1.605598 0.052141 -0.012819 -320962.000000 0 0 1
22.780265 33.987994 -0.822074 40.924320 0.980321 1.590885 0.043853 -0.013042 549859.000000 0 0 1
23.526065 33.156394 -1.710174 40.690869 0.953691 1.612837 0.045418 -0.006135 -571191.000000 0 0 1
24.495565 33.720194 -2.752074 41.769104 0.942547 1.636732 0.039871 -0.000167 -685370.000000 0 0 1
23.810265 -34.146223 -3.887274 41.809140 -0.961883 1.663907 0.039381 -0.011382 100725.000000 0 0 1
24.674365 -33.578023 -4.807674 41.945460 -0.937071 1.685666 0.045887 -0.008279 124556.000000 0 0 1
23.799565 -33.125523 -6.054874 41.235677 -0.947784 1.718165 0.040932 -0.017630 585596.000000 0 0 1
22.762365 -32.238023 -5.671374 39.869536 -0.956007 1.713529 0.057207 -0.017300 93162.800000 0 0 1
22.250765 -31.615723 -6.843074 39.261663 -0.957533 1.745985 0.066288 -0.022188 -461637.000000 0 0 1
21.271065 -30.522823 -6.550274 37.775746 -0.962160 1.745076 0.077704 -0.027832 1193710.000000 0 0 1
19.972265 -30.865823 -5.960874 37.244092 -0.996486 1.731536 0.078805 -0.022474 1331620.000000 0 0 1
19.214365 -29.695823 -5.746574 35.833739 -0.996505 1.731859 0.079701 -0.029074 141474.000000 0 0 1
18.011865 -29.779323 -4.791574 35.131105 -1.026822 1.707614 0.060381 -0.019388 83122.400000 0 0 1
16.896265 -30.435023 -5.322974 35.215174 -1.064001 1.722534 0.058557 -0.024706 62473.200000 0 0 1
15.786165 -30.426123 -4.424874 34.561995 -1.092194 1.699176 0.042650 -0.023743 1251280.000000 0 0 1
14.472565 -31.187823 -4.836074 34.720643 -1.136324 1.710536 0.034003 -0.018108 783987.000000 0 0 1
14.562865 -32.606223 -4.682774 36.016263 -1.150750 1.701184 0.029893 -0.013582 -344957.000000 0 0 1
13.378265 -33.198223 -5.135874 36.159054 -1.187722 1.713314 0.027565 -0.007473 -434351.000000 0 0 1
13.497865 33.710694 -5.338074 36.702837 1.189943 1.716754 0.031029 -0.006461 -55001.000000 0 0 1
13.735265 33.035994 -4.100374 36.011768 1.176772 1.684906 0.044041 -0.014138 63050.400000 0 0 1
14.286765 31.705294 -4.226674 35.031444 1.147434 1.691745 0.048717 -0.019008 541609.000000 0 0 1
13.291165 30.536294 -4.679474 33.630607 1.160269 1.710393 0.045075 -0.015839 544060.000000 0 0 1
12.315865 30.160694 -3.721074 32.790156 1.183120 1.684523 0.046298 -0.013879 -122414.000000 0 0 1
12.768965 29.390094 -2.629874 32.151832 1.160936 1.652683 0.057177 -0.016410 -84280.300000 0 0 1
11.664365 28.585094 -1.872074 30.930077 1.183363 1.631359 0.048641 -0.007757 353922.000000 0 0 1
10.665465 29.420594 -1.325674 31.322211 1.223014 1.613133 0.027590 -0.010258 -27160.600000 0 0 1
9.858565 28.704294 -0.378474 30.352446 1.239966 1.583266 0.017503 0.003667 68125.400000 0 0 1
8.656865 29.534694 0.078026 30.777354 1.285674 1.568261 0.008013 0.015070 341694.000000 0 0 1
7.758265 28.780594 0.924626 29.822276 1.307489 1.539787 0.009517 0.007183 -110231.000000 0 0 1
6.549665 29.469494 1.077326 30.207777 1.352099 1.535125 0.024839 0.010408 -666160.000000 0 0 1
5.457765 28.652894 1.752026 29.220628 1.382572 1.510802 0.014171 0.008995 -196104.000000 0 0 1
4.940165 27.666994 0.834126 28.116962 1.394100 1.541126 0.003436 0.005917 174767.000000 0 0 1
3.835865 27.025194 1.471526 27.335697 1.429802 1.516939 0.006907 0.000512 635345.000000 0 0 1
3.323465 25.789894 0.590026 26.009847 1.442636 1.548110 0.000461 -0.001690 537623.000000 0 0 1
2.027365 25.356894 0.982126 25.456764 1.491013 1.532207 0.012049 -0.006966 109123.000000 0 0 1
1.584465 24.296494 0.220526 24.349102 1.505675 1.561739 0.005217 -0.010246 45095.100000 0 1 0
0.239165 23.780094 0.795426 23.794595 1.560739 1.537361 0.003681 -0.008442 42136.000000 0 1 0
-0.782835 24.719594 0.661326 24.740826 -1.539138 1.544063 0.005851 -0.009616 -28539.500000 0 1 0
-2.007135 24.242694 1.218926 24.356161 -1.488191 1.520730 0.006538 -0.002437 130696.000000 0 1 0
-3.222935 25.164094 1.316826 25.403798 -1.443413 1.518937 0.032557 -0.015198 -73672.800000 0 0 1
-4.346335 24.368794 1.733926 24.814013 -1.394296 1.500862 0.029173 -0.013589 -140977.000000 0 1 0
-5.487135 25.020494 2.154526 25.705558 -1.354908 1.486882 0.033187 -0.016601 -179760.000000 0 0 1
-6.500035 25.438694 1.067626 26.277698 -1.320631 1.530157 0.046480 -0.016495 -165311.000000 0 0 1
-6.003935 26.547894 0.304226 27.220038 -1.348383 1.559620 0.043980 -0.015995 377616.000000 0 0 1
-6.896935 26.771694 -0.794074 27.657221 -1.318658 1.599512 0.045684 -0.015706 137210.000000 0 0 1
-6.728035 28.042894 -1.672374 28.887146 -1.335328 1.628722 0.054043 -0.013692 -919.596000 0 0 1
-7.132235 29.244094 -1.027574 30.118793 -1.331580 1.604920 0.069225 -0.029497 -2632.420000 0 0 1
-7.189335 30.311394 -1.981274 31.215262 -1.337917 1.634310 0.066741 -0.029062 -318891.000000 0 0 1
-7.338535 31.781394 -1.558874 32.654880 -1.343867 1.618552 0.064501 -0.024725 -731639.000000 0 0 1
-7.337035 32.781594 -2.569274 33.690743 -1.350609 1.647131 0.059485 -0.017919 640605.000000 0 0 1
-6.195335 32.860894 -3.470074 33.619368 -1.384451 1.674197 0.052133 -0.021307 286820.000000 0 0 1
-4.893435 33.271894 -2.801874 33.746335 -1.424769 1.653920 0.050550 -0.022035 -1191900.000000 0 0 1
-4.818135 -33.727123 -2.737874 34.179369 1.428900 1.650985 0.054303 -0.020695 -32415.000000 0 0 1
-3.880935 -33.433723 -1.725974 33.702441 1.455235 1.622031 0.042295 -0.013157 17851.700000 0 0 1
-3.782135 -31.918023 -1.427074 32.172990 1.452851 1.615167 0.036691 -0.013204 23886.400000 0 0 1
-5.003735 -31.376123 -0.986174 31.787907 1.412652 1.601825 0.036105 -0.009607 -171903.000000 0 0 1
-5.118535 -30.145323 -1.712174 30.624687 1.402605 1.626734 0.038630 -0.006713 -372203.000000 0 0 1
-6.520235 -29.563623 -1.557974 30.314165 1.353722 1.622213 0.053157 -0.010878 -396370.000000 0 0 1
-6.926935 -29.314123 -0.241874 30.122396 1.338752 1.578826 0.050818 -0.011356 -13662.800000 0 0 1
-8.140735 -28.588223 -0.123374 29.724961 1.293381 1.574947 0.041801 -0.009508 361685.000000 0 0 1
-8.256835 -27.984223 1.299326 29.205827 1.283884 1.526293 0.037848 -0.007455 40512.800000 0 0 1
-7.331835 -26.936123 1.447526 27.953638 1.305041 1.518990 0.052501 -0.015122 -403292.000000 0 0 1
-7.186335 -26.487423 2.785326 27.585958 1.305863 1.469655 0.044946 -0.009234 624097.000000 0 0 1
-8.359735 -25.605523 3.346626 27.142732 1.255225 1.447184 0.035594 -0.005287 693820.000000 0 0 1
-8.221535 -24.269323 2.844126 25.781442 1.244168 1.460255 0.037828 -0.012444 -499367.000000 0 0 1
-9.192735 -23.393423 3.348026 25.356812 1.196372 1.438373 0.032623 -0.016142 45036.800000 0 0 1
-8.593435 -21.986323 3.719826 23.897336 1.198199 1.414502 0.026680 0.005080 -49883.400000 0 1 0
-7.642435 -21.907923 4.722226 23.678331 1.235152 1.370018 0.024753 0.000707 -361683.000000 0 1 0
-6.960435 -20.643523 4.710026 22.288721 1.245594 1.357872 0.009590 -0.003559 -17050.700000 0 1 0
-7.701735 -19.521623 5.509226 21.697052 1.195020 1.314070 0.015438 -0.013865 177168.000000 0 1 0
-7.724535 -19.626523 6.939126 22.204061 1.195840 1.252956 0.004422 -0.014652 -214934.000000 0 1 0
-8.740435 -18.847023 7.477426 22.079796 1.136561 1.225310 0.007138 -0.020038 -802018.000000 0 1 0
-27.178395 29.175194 -5.377974 40.234061 -0.820817 1.704865 0.107135 -0.004063 -91296.000000 0 0 1
-26.676775 29.887394 -4.255974 40.286722 -0.842098 1.676636 0.094493 -0.022395 66246.300000 0 0 1
-25.400325 29.411494 -3.873074 39.053978 -0.858449 1.670132 0.079827 -0.012055 292089.000000 0 0 1
-24.514435 30.533394 -3.228074 39.289517 -0.894306 1.653050 0.064198 -0.018178 -63975.100000 0 0 1
-24.910035 30.953994 -1.862574 39.775982 -0.893169 1.617640 0.051273 -0.027121 694791.000000 0 0 1
-24.038135 31.935094 -1.232074 39.990001 -0.925558 1.601611 0.049310 -0.029432 719696.000000 0 0 1
-22.669135 31.416594 -0.721774 38.748071 -0.945743 1.589425 0.038944 -0.024797 -7297.010000 0 0 1
-21.726235 31.062094 -1.713674 37.944955 -0.960443 1.615974 0.045823 -0.022304 -1035090.000000 0 0 1
-20.601135 30.688194 -1.016474 36.975738 -0.979589 1.598290 0.037635 -0.014683 -1203330.000000 0 0 1
-19.495735 30.166594 -1.935874 35.970191 -0.997048 1.624641 0.054779 -0.017751 441934.000000 0 0 1
-18.285535 29.878894 -1.215274 35.051191 -1.021608 1.605475 0.055684 -0.014653 478921.000000 0 0 1
-17.303435 29.163094 -1.931874 33.965086 -1.035293 1.627705 0.063274 -0.014785 1108570.000000 0 0 1
-15.867035 29.355694 -1.290274 33.394376 -1.075269 1.609443 0.070160 -0.020271 894845.000000 0 0 1
-15.691135 28.664794 -0.059174 32.678519 -1.069951 1.572607 0.066620 -0.023269 -355960.000000 0 0 1
-14.560835 29.215194 0.549426 32.647317 -1.108430 1.553966 0.070453 -0.024451 -199758.000000 0 0 1
-13.947635 28.441194 1.738726 31.724773 -1.114856 1.515962 0.068138 -0.027946 -602384.000000 0 0 1
-14.749835 28.410394 2.882226 32.140556 -1.091930 1.481000 0.055116 -0.027161 -554164.000000 0 0 1
-14.261135 27.879794 4.077326 31.579858 -1.097973 1.441323 0.051944 -0.030750 693164.000000 0 0 1
-13.101435 28.731394 4.793026 31.939219 -1.142966 1.420160 0.059412 -0.026270 871615.000000 0 0 1
-13.467235 29.983794 5.399826 33.309945 -1.148649 1.407969 0.047380 -0.018796 -227216.000000 0 0 1
-13.378735 31.109894 4.568526 34.171442 -1.164658 1.436701 0.053389 -0.020147 -111705.000000 0 0 1
-13.318535 32.357294 5.533226 35.425900 -1.180323 1.413963 0.057123 -0.016541 137635.000000 0 0 1
-14.485035 32.662794 6.264226 36.275541 -1.153384 1.397242 0.060898 -0.015838 37436.100000 0 0 1
-14.211035 33.858894 6.948726 37.371955 -1.173412 1.383774 0.070566 -0.019173 751876.000000 0 0 1
-15.327535 -34.121323 7.984226 38.248476 1.148602 1.360504 0.064086 -0.019000 682035.000000 0 0 1
-15.403935 33.648994 9.254426 38.146827 -1.141489 1.325751 0.046510 -0.014047 -548532.000000 0 0 1
-16.634135 33.917194 9.848226 39.039186 -1.114831 1.315776 0.062574 -0.018099 -992277.000000 0 0 1
-16.873635 33.107994 11.171326 38.802801 -1.099455 1.278763 0.059226 -0.019553 74575.800000 0 0 1
-16.158635 33.585194 12.268626 39.237557 -1.122363 1.252788 0.068395 -0.028225 404321.000000 0 0 1
-14.753835 33.319894 12.185426 38.423633 -1.153951 1.248091 0.061278 -0.023406 504356.000000 0 0 1
-13.846435 33.607394 13.440926 38.753570 -1.179983 1.216606 0.059985 -0.018241 250526.000000 0 0 1
-14.061135 32.690294 14.489826 38.422986 -1.164587 1.184119 0.049784 -0.013989 688494.000000 0 0 1
-13.331835 31.389894 14.441326 37.035323 -1.169165 1.170237 0.023396 -0.006636 197129.000000 0 0 1
-14.108435 30.248194 13.780126 36.109459 -1.134370 1.179247 0.022645 -0.010465 14572.000000 0 0 1
-14.055735 30.391994 12.375126 35.698469 -1.137611 1.216792 0.024088 -0.008105 86159.000000 0 0 1
-15.208235 29.748894 11.894626 35.465042 -1.098213 1.228777 0.008107 -0.010735 -118694.000000 0 0 1
-15.349035 29.494894 10.375426 34.830893 -1.090965 1.268325 0.011451 -0.005124 -489634.000000 0 0 1
-14.543435 28.459094 9.941926 33.470486 -1.098364 1.269210 0.005661 -0.005917 -118259.000000 0 0 1
-14.760435 28.158694 8.577126 32.929464 -1.087986 1.307288 0.012313 -0.012904 -308668.000000 0 0 1
-14.062635 26.816594 8.207826 31.372852 -1.087819 1.306094 0.023168 -0.019139 407429.000000 0 0 1
-12.692835 27.104494 7.943626 30.965510 -1.132835 1.311365 0.033110 -0.016502 342754.000000 0 0 1
-12.009135 25.878494 7.677226 29.544129 -1.136313 1.307923 0.031151 -0.023545 293822.000000 0 0 1
-10.709735 25.988694 6.846826 28.930773 -1.179909 1.331867 0.058986 -0.030345 85962.300000 0 0 1
-10.997835 26.333594 5.523826 29.067562 -1.175180 1.379600 0.071959 -0.028928 299225.000000 0 0 1
-9.958435 25.917994 4.657626 28.153265 -1.203959 1.404594 0.081242 -0.016419 43559.000000 0 0 1
-10.206635 26.437794 3.253926 28.525784 -1.202363 1.456478 0.077653 -0.022851 20611.400000 0 0 1
-9.766935 27.734094 3.011326 29.557420 -1.232195 1.468739 0.072682 -0.016218 -80021.000000 0 0 1
-10.126535 28.054594 1.712726 29.875414 -1.224393 1.513436 0.080991 -0.021734 -19530.900000 0 0 1
-9.799635 29.496494 1.296926 31.108809 -1.250039 1.529094 0.093077 -0.022001 225620.000000 0 0 1
-10.569235 30.495494 1.945326 32.333700 -1.237168 1.510596 0.074372 -0.029565 -112158.000000 0 0 1
-10.105135 31.788694 1.709926 33.399980 -1.263013 1.519579 0.073018 -0.026512 -350103.000000 0 0 1
-10.888535 32.772894 2.595926 34.631800 -1.250028 1.495768 0.068557 -0.022919 1643350.000000 0 0 1
-12.208235 33.193794 2.083326 35.428932 -1.218365 1.511959 0.081059 -0.021675 1472770.000000 0 0 1
-12.212035 34.064994 0.966926 36.200726 -1.226576 1.544083 0.075427 -0.018966 -576074.000000 0 0 1
-13.676235 -33.978423 0.696626 36.634109 1.188139 1.551779 0.075522 -0.019287 171543.000000 0 0 1
-14.469535 33.396694 0.121026 36.396720 -1.161948 1.567471 0.061881 -0.015832 -22964.700000 0 0 1
-14.762235 33.609294 -1.274874 36.730553 -1.156934 1.605512 0.063355 -0.014189 -143065.000000 0 0 1
-13.598735 33.377394 -2.261674 36.112203 -1.183907 1.633466 0.073837 -0.015548 -14269.200000 0 0 1
-13.144635 32.032094 -2.310474 34.701221 -1.181392 1.637428 0.070347 -0.016467 -777338.000000 0 0 1
-11.764035 31.955194 -2.419274 34.137660 -1.218052 1.641724 0.068180 -0.014305 -690975.000000 0 0 1
-11.257935 30.478394 -2.544874 32.590642 -1.216967 1.648962 0.046396 -0.021067 63110.400000 0 0 1
-11.415135 29.884994 -3.822274 32.218441 -1.205930 1.689713 0.053771 -0.019787 414347.000000 0 0 1
-10.216935 29.936094 -4.611174 31.965894 -1.241901 1.715554 0.045673 -0.017600 563329.000000 0 0 1
-10.478335 29.313994 -5.984874 31.700543 -1.227499 1.760730 0.050455 -0.017515 -114609.000000 0 0 1
-10.713735 27.915794 -5.810274 30.460383 -1.204344 1.762721 0.056012 -0.015891 -50619.100000 0 0 1
-10.757535 27.269394 -7.040774 30.148249 -1.195048 1.806511 0.054949 -0.016415 167479.000000 0 0 1
-11.335635 25.829394 -7.036974 29.071863 -1.157240 1.815279 0.069828 -0.018410 244113.000000 0 0 1
-10.437535 24.927194 -6.444074 27.781886 -1.174256 1.804881 0.045800 -0.011779 107195.000000 0 0 1
-10.917635 23.594994 -6.675274 26.841717 -1.137423 1.822124 0.088494 -0.025811 205899.000000 0 0 1
-10.262435 22.450794 -5.834974 25.365383 -1.142047 1.802912 0.069931 -0.021734 -123368.000000 0 0 1
-8.876335 22.177194 -5.919274 24.610060 -1.190078 1.813700 0.056733 -0.024166 172023.000000 0 1 0
-8.457835 20.908094 -5.454874 23.204289 -1.186396 1.808098 0.054637 -0.024622 -225525.000000 0 1 0
-8.404035 20.776194 -3.900674 22.748479 -1.186414 1.743118 0.046326 -0.028182 1334120.000000 0 1 0
-9.709435 20.797194 -3.223774 23.177341 -1.134008 1.710340 0.063824 -0.026443 1527420.000000 0 1 0
-10.372435 19.548494 -3.236774 22.365324 -1.082969 1.716029 0.065804 -0.026599 241488.000000 0 1 0
-11.739835 19.446094 -2.504774 22.852750 -1.027652 1.680622 0.067313 -0.027500 253945.000000 0 1 0
-11.675935 19.473194 -1.073074 22.730689 -1.030678 1.618022 0.067847 -0.027669 128688.000000 0 1 0
-11.260335 18.250494 -0.449774 21.449428 -1.017979 1.591767 0.061919 -0.027228 -41289.500000 0 1 0
-11.149535 18.346294 1.094826 21.496448 -1.024715 1.519844 0.060922 -0.025528 453357.000000 0 1 0
-12.401835 18.230594 1.776726 22.120507 -0.973431 1.490389 0.082532 -0.032901 453456.000000 0 1 0
-12.323635 18.521194 3.185626 22.473425 -0.983685 1.428566 0.084548 -0.025069 971655.000000 0 1 0
-13.704935 18.242394 3.914726 23.150276 -0.926484 1.400879 0.059473 -0.035405 970133.000000 0 1 0
-14.081135 16.893594 4.158226 22.382197 -0.875948 1.383928 0.056150 -0.032855 481107.000000 0 1 0
-15.344635 16.906894 4.808326 23.332829 -0.833800 1.363234 0.067783 -0.037912 140517.000000 0 1 0
-15.514535 15.599594 5.567926 22.694712 -0.788132 1.322926 0.045243 -0.030269 -836930.000000 0 1 0
-14.628835 15.381394 6.607226 22.231634 -0.810470 1.269038 0.038590 -0.018218 1049.430000 0 1 0
-15.095635 16.099394 7.712026 23.378281 -0.817564 1.234620 0.033513 -0.015299 -631041.000000 0 1 0
-14.038635 16.066294 8.826326 23.089242 -0.852650 1.178545 0.027370 -0.007023 802833.000000 0 1 0
-12.850435 16.826594 8.569126 22.840706 -0.918586 1.186217 0.027703 -0.025506 844891.000000 0 1 0
-11.868935 16.230394 7.718226 21.537602 -0.939385 1.204285 0.026467 -0.022088 50686.100000 0 1 0
-10.663135 17.190194 7.444926 21.555327 -1.015581 1.218145 0.046242 -0.030389 655853.000000 0 1 0
-9.730635 17.300294 8.529126 21.603968 -1.058441 1.164952 0.041932 -0.023032 -62805.100000 0 1 0
-8.996835 18.468494 8.382126 22.187572 -1.117485 1.183394 0.035405 -0.030945 -1054740.000000 0 1 0
-7.784635 18.469694 9.287526 22.090457 -1.171910 1.136875 0.031581 -0.023227 -1601750.000000 0 1 0
-6.766735 17.594494 8.862126 20.830079 -1.203641 1.131339 0.019692 -0.022706 -159447.000000 0 1 0
-5.605235 17.730594 9.669226 20.959164 -1.264605 1.091295 0.021470 -0.022178 89177.100000 0 1 0
-4.655635 18.782494 9.125726 21.394763 -1.327822 1.130132 0.012032 -0.021828 -2124050.000000 0 1 0
-4.882535 20.077094 9.606526 22.786272 -1.332238 1.135595 0.010797 -0.024474 -30431.000000 0 1 0
-4.547635 21.067594 8.642726 23.221137 -1.358199 1.189427 0.022872 -0.029600 316731.000000 0 1 0
-3.094135 21.624194 8.623626 23.485024 -1.428674 1.194803 0.027147 -0.027849 1407980.000000 0 1 0
-2.001635 20.674894 8.373826 22.395953 -1.474282 1.187587 0.018467 -0.017973 474524.000000 0 1 0
-0.804735 21.388294 8.246326 22.937057 -1.533189 1.203043 0.015678 -0.020828 -98502.200000 0 1 0
0.418465 20.444294 8.142026 22.009926 1.550331 1.191868 0.013872 -0.016617 276128.000000 0 1 0
0.840765 19.826694 9.349726 21.936774 1.528416 1.130495 0.015773 -0.018412 -879540.000000 0 1 0
2.147065 19.337494 9.206026 21.524392 1.460218 1.128847 0.010480 -0.023209 -212833.000000 0 1 0
2.616665 18.695694 10.583026 21.642004 1.431739 1.059849 -0.002419 -0.035094 -71223.400000 0 1 0
4.006265 18.413394 10.562326 21.602452 1.356562 1.059921 0.015760 -0.014587 173749.000000 0 1 0
4.491165 18.305094 11.894626 22.287421 1.330198 1.007836 0.009720 -0.007149 139227.000000 0 1 0
6.027665 18.283794 12.044726 22.709145 1.252344 1.011735 0.026668 -0.011199 -29731.600000 0 1 0
6.625265 17.145494 11.469126 21.665709 1.202056 1.012941 0.015122 -0.006061 -70143.900000 0 1 0
7.623865 16.638694 12.325626 22.065595 1.141143 0.978111 0.021877 0.005508 -203482.000000 0 1 0
8.878765 16.032794 11.647726 21.715259 1.065050 1.004649 0.022019 -0.000002 252711.000000 0 1 0
9.644865 17.091894 11.051226 22.523007 1.057045 1.057945 0.030951 -0.010992 1277210.000000 0 1 0
10.859565 16.518394 10.442826 22.357104 0.989221 1.084797 0.030266 -0.009158 927543.000000 0 1 0
11.802065 17.625094 10.016126 23.457524 0.980754 1.129635 0.038217 -0.003584 -404526.000000 0 1 0
12.886065 17.124494 9.256526 23.344854 0.925701 1.163082 0.049397 -0.001745 -254081.000000 0 1 0
13.602065 18.140994 8.617826 24.256519 0.927425 1.207584 0.066967 -0.003551 -515102.000000 0 1 0
14.510465 17.445994 7.617226 23.936132 0.877001 1.246933 0.081052 -0.009284 -211037.000000 0 1 0
15.648365 16.790294 8.175326 24.364343 0.820586 1.228613 0.084931 -0.015285 -330806.000000 0 1 0
16.736465 17.098894 7.379526 25.038746 0.796109 1.271629 0.088854 -0.002828 -979914.000000 0 0 1
18.099565 16.995294 8.054026 26.101754 0.753943 1.257115 0.088623 -0.014673 -537290.000000 0 0 1
18.559665 15.692994 8.208926 25.653804 0.701901 1.245079 0.102816 -0.018556 89204.300000 0 0 1
19.699165 15.672194 9.042926 26.747883 0.672038 1.225920 0.117765 -0.024239 -29424.600000 0 0 1
19.849565 14.598594 10.114126 26.634934 0.634131 1.181290 0.105081 -0.020165 -27159.800000 0 0 1
20.076865 13.303294 9.527426 25.900385 0.585195 1.194102 0.089742 -0.026773 405576.000000 0 0 1
20.683665 12.379694 10.406626 26.255831 0.539334 1.163253 0.106684 -0.032951 -504677.000000 0 0 1
21.503165 11.266194 9.828926 26.190093 0.482609 1.186085 0.081245 -0.025204 -986725.000000 0 0 1
22.878965 11.547494 9.690326 27.398796 0.467417 1.209297 0.069311 -0.027180 764732.000000 0 0 1
23.561565 10.548594 8.872226 27.297189 0.420942 1.239760 0.068064 -0.025714 85400.100000 0 0 1
23.788565 9.131894 9.468426 27.183421 0.366531 1.215022 0.072003 -0.026636 -829767.000000 0 0 1
22.589765 8.392894 9.514826 25.908880 0.355730 1.194754 0.067933 -0.020055 299595.000000 0 0 1
22.580465 7.031994 10.053426 25.698204 0.301900 1.168849 0.068345 -0.010980 -411033.000000 0 0 1
23.609265 6.067694 9.397026 26.125053 0.251560 1.202856 0.070698 -0.015943 157947.000000 0 0 1
23.356065 5.819194 8.023126 25.372018 0.244180 1.249055 0.057329 -0.011098 -9370.520000 0 0 1
24.501165 5.365894 7.369226 26.142023 0.215602 1.285031 0.058494 -0.011258 -377673.000000 0 0 1
24.314365 5.202794 5.861426 25.546305 0.210801 1.339291 0.067295 -0.018728 -117939.000000 0 0 1
23.332865 4.233294 5.525026 24.348907 0.179478 1.341892 0.056631 -0.007433 689100.000000 0 1 0
23.334265 4.006994 4.160126 24.038522 0.170063 1.396860 0.076793 -0.015972 548071.000000 0 1 0
22.295365 2.845594 3.851826 22.803887 0.126945 1.401072 0.074135 -0.004268 574317.000000 0 1 0
22.790665 1.561794 4.255626 23.237124 0.068421 1.386618 0.083427 -0.003748 597313.000000 0 1 0
21.919765 0.596894 3.725426 22.242103 0.027224 1.402509 0.081633 -0.006624 -344554.000000 0 1 0
22.519865 -0.815006 3.793826 22.851732 -0.036175 1.404005 0.091996 -0.013199 -419492.000000 0 1 0
22.291965 -1.316006 5.088426 22.903180 -0.058967 1.346756 0.081386 -0.013591 588956.000000 0 1 0
22.839665 -2.578806 5.405926 23.611958 -0.112433 1.339799 0.094473 -0.016431 -534229.000000 0 1 0
22.296065 -3.147206 6.731926 23.501877 -0.140229 1.280285 0.103066 -0.018785 -447283.000000 0 1 0
22.539065 -4.442906 6.974426 24.008154 -0.194625 1.276045 0.104864 -0.028661 355255.000000 0 1 0
22.386565 -4.874606 8.376026 24.394218 -0.214400 1.220303 0.124123 -0.026005 -59053.000000 0 1 0
22.174065 -6.389906 8.555426 24.611285 -0.280569 1.215763 0.138591 -0.043293 -426802.000000 0 1 0
20.835365 -6.734006 8.384626 23.446987 -0.312604 1.205100 0.141832 -0.048099 -230239.000000 0 1 0
20.628165 -8.050806 8.831126 23.839577 -0.372101 1.191314 0.136294 -0.050081 -242378.000000 0 1 0
-26.242735 -32.746623 5.687126 42.348151 0.895210 1.436095 0.034515 -0.009762 -296868.000000 0 0 1
-27.197675 -33.728623 5.919426 43.730689 0.892185 1.435019 0.036911 -0.019952 -179429.000000 0 0 1
-27.035105 -34.184123 7.267226 44.184429 0.901649 1.405571 0.031414 -0.008570 -154923.000000 0 0 1
-27.648425 32.843994 7.580726 43.596224 -0.871076 1.396023 0.046776 -0.020488 481048.000000 0 0 1
-29.057685 32.927494 7.769826 44.597524 -0.847748 1.395682 0.056545 -0.016717 142845.000000 0 0 1
-29.684615 31.682494 8.005326 44.147956 -0.817943 1.388458 0.072439 -0.027990 90405.300000 0 0 1
-31.210095 31.790094 8.169726 45.292654 -0.794604 1.389427 0.079623 -0.030689 -201574.000000 0 0 1
-31.818905 32.183494 6.974926 45.791589 -0.791095 1.417882 0.063861 -0.024024 346616.000000 0 0 1
-33.242415 32.165194 7.122926 46.801645 -0.768930 1.418009 0.056058 -0.024266 728838.000000 0 0 1
-34.020495 32.375394 5.798626 47.320020 -0.760626 1.447947 0.041942 -0.017234 -167993.000000 0 0 1
-33.908005 31.233594 4.902126 46.360770 -0.744366 1.464860 0.051090 -0.022925 383196.000000 0 0 1
-34.893568 31.244294 3.886226 46.998614 -0.730277 1.488014 0.060532 -0.020047 -32148.600000 0 0 1
-34.523949 30.046394 2.970126 45.864044 -0.716165 1.505992 0.059215 -0.019929 253704.000000 0 0 1
-34.795602 28.816694 3.635326 45.324953 -0.691684 1.490504 0.076019 -0.025892 166055.000000 0 0 1
-34.230147 27.794094 2.841626 44.184720 -0.682001 1.506439 0.065551 -0.019207 -166072.000000 0 0 1
-34.395047 26.360394 3.422326 43.469552 -0.653915 1.491985 0.085440 -0.022001 -217666.000000 0 0 1
-35.732410 25.928994 3.280226 44.270507 -0.627730 1.496633 0.088508 -0.020661 -103249.000000 0 0 1
-36.014460 24.751394 4.039926 43.886146 -0.602126 1.478611 0.090431 -0.018256 -163293.000000 0 0 1
35.210590 24.420094 3.965926 43.033187 0.606380 1.478506 0.086010 -0.022676 -299964.000000 0 0 1
34.703000 23.745494 2.823126 42.143999 0.600076 1.503759 0.081908 -0.024858 388940.000000 0 0 1
35.101450 22.371594 2.754626 41.715560 0.567425 1.504715 0.083296 -0.020090 -392437.000000 0 0 1
34.150480 21.633194 1.730526 40.462885 0.564665 1.528015 0.089545 -0.020494 1538370.000000 0 0 1
32.775250 21.469994 2.172326 39.241516 0.579929 1.515410 0.080708 -0.027305 1531530.000000 0 0 1
32.586460 20.489294 3.204526 38.625865 0.561304 1.487738 0.057715 -0.022548 -545956.000000 0 0 1
32.795790 18.981394 2.850526 37.999771 0.524667 1.495711 0.074131 -0.027203 90556.500000 0 0 1
31.662610 18.448394 2.157426 36.708562 0.527569 1.511991 0.062624 -0.032406 900577.000000 0 0 1
31.906460 17.069994 1.865326 36.233773 0.491255 1.519293 0.072856 -0.026084 -231059.000000 0 0 1
31.492040 16.029094 2.950226 35.459614 0.470813 1.487500 0.080012 -0.030118 1056850.000000 0 0 1
30.058690 15.813394 2.904226 34.088455 0.484296 1.485496 0.045645 -0.019926 1379730.000000 0 0 1
29.599460 14.898894 3.912626 33.367854 0.466324 1.453269 0.042891 -0.015904 -618822.000000 0 0 1
28.109230 14.941794 4.179926 32.106974 0.488577 1.440238 0.032725 -0.009274 -769127.000000 0 0 1
27.299070 14.598294 3.094326 31.111481 0.491063 1.471172 0.031800 -0.025872 505848.000000 0 0 1
25.955370 15.078194 3.211726 30.188546 0.526278 1.464206 0.012356 -0.009789 318449.000000 0 0 1
25.042170 14.689494 2.069726 29.106275 0.530501 1.499627 0.032501 -0.020995 -508434.000000 0 0 1
25.347470 15.255494 0.776726 29.594385 0.541782 1.544548 0.042777 -0.019967 180725.000000 0 0 1
26.356770 14.529594 0.114626 30.096537 0.503815 1.566988 0.044399 -0.020398 -671465.000000 0 0 1
26.759970 15.101794 -1.286974 30.754129 0.513788 1.612656 0.059862 -0.022063 245069.000000 0 0 1
27.421170 16.372094 -1.361574 31.965917 0.538255 1.613404 0.037032 -0.018253 696844.000000 0 0 1
28.692690 16.519194 -0.763274 33.117016 0.522381 1.593846 0.056056 -0.028616 -224911.000000 0 0 1
29.236960 17.961294 -0.609474 34.318790 0.550893 1.588556 0.061456 -0.018697 -182808.000000 0 0 1
29.831600 18.560294 -1.726774 35.176563 0.556561 1.619905 0.066295 -0.009243 528271.000000 0 0 1
30.575890 19.729894 -1.337474 36.413494 0.573047 1.607535 0.063439 0.001677 238308.000000 0 0 1
30.687160 20.758594 -2.462474 37.130644 0.594751 1.637164 0.064630 -0.002560 -671439.000000 0 0 1
31.667730 21.700594 -2.286474 38.457624 0.600764 1.630286 0.041287 0.004104 -435417.000000 0 0 1
31.642790 22.551994 -3.390974 39.004580 0.619202 1.657844 0.048642 -0.005646 -354109.000000 0 0 1
32.794810 23.566594 -3.452574 40.531520 0.623105 1.656082 0.033015 -0.002054 -413236.000000 0 0 1
32.792210 24.488694 -2.381674 40.996311 0.641440 1.628924 0.060339 -0.000855 267978.000000 0 0 1
33.415630 23.988594 -1.200674 41.152139 0.622629 1.599977 0.065643 0.005329 -467107.000000 0 0 1
32.998510 24.782794 0.058026 41.268533 0.644158 1.569390 0.067640 -0.017822 -66039.000000 0 0 1
33.495060 26.112894 0.114426 42.471347 0.662180 1.568102 0.068347 -0.014360 1025340.000000 0 0 1
34.818780 26.206394 0.698126 43.584514 0.645196 1.554778 0.084688 -0.025124 1693090.000000 0 0 1
35.776340 27.402194 0.265626 45.065477 0.653619 1.564902 0.055739 -0.022956 350368.000000 0 0 1
36.238550 27.500694 -1.085974 45.504944 0.649160 1.594664 0.042557 -0.016873 44540.800000 0 0 1
35.282350 27.688194 -2.122474 44.899723 0.665379 1.618085 0.036232 -0.014408 -512446.000000 0 0 1
35.619060 27.270394 -3.556374 45.000440 0.653418 1.649909 0.034609 -0.005005 319147.000000 0 0 1
-36.055605 28.059894 -4.156074 45.876326 -0.661331 1.661514 0.018928 -0.000708 717861.000000 0 0 1
-35.698311 27.709094 -5.493374 45.522966 -0.660060 1.691764 0.024387 -0.001047 -314310.000000 0 0 1
35.915520 27.775294 -6.550974 45.872723 0.658279 1.714094 0.002723 0.010137 -262223.000000 0 0 1
35.040680 26.672294 -6.452374 44.507231 0.650619 1.716283 0.010354 0.012739 -356080.000000 0 0 1
33.905720 26.893094 -7.251174 43.879560 0.670564 1.736810 -0.010341 0.019725 -543026.000000 0 0 1
32.780980 25.898494 -7.026174 42.363802 0.668642 1.737420 0.008607 0.007043 -823590.000000 0 0 1
32.971090 24.528494 -7.374674 41.750755 0.639611 1.748364 0.010418 0.005511 624614.000000 0 0 1
34.159590 23.874494 -6.860974 42.236737 0.609994 1.733960 0.019089 0.007378 810221.000000 0 0 1
34.132380 22.383194 -7.218174 41.450316 0.580425 1.745829 0.032118 0.009099 -57793.900000 0 0 1
33.242770 21.641894 -6.421574 40.183204 0.577096 1.731292 0.039012 0.004955 -33776.000000 0 0 1
33.290360 20.260094 -6.700874 39.542650 0.546710 1.741077 0.046308 -0.004111 -120710.000000 0 0 1
32.229060 19.374394 -6.014574 38.082207 0.541262 1.729397 0.058557 -0.005308 951269.000000 0 0 1
30.932850 19.407494 -6.616274 37.111549 0.560328 1.750035 0.052791 -0.013979 1139770.000000 0 0 1
29.842980 18.744394 -5.985974 35.746155 0.560826 1.739047 0.080248 -0.023157 1308020.000000 0 0 1
28.506810 18.540494 -6.780874 34.675183 0.576648 1.767619 0.063926 -0.030055 620729.000000 0 0 1
28.610080 17.634394 -7.834774 34.509306 0.552369 1.799827 0.060790 -0.026136 -310540.000000 0 0 1
27.472070 17.661594 -8.634174 33.781585 0.571363 1.829252 0.068607 -0.029542 -545991.000000 0 0 1
27.473970 16.419694 -9.540774 33.398379 0.538686 1.860497 0.064455 -0.021791 -31800.900000 0 0 1
26.670370 16.554594 -10.715574 33.169062 0.555509 1.899757 0.066045 -0.020516 350607.000000 0 0 1
26.854970 15.464894 -11.591274 33.086401 0.522486 1.928723 0.064772 -0.016443 -19794.100000 0 0 1
26.039470 15.617894 -12.910074 32.994584 0.540256 1.972817 0.071430 -0.008165 13845.100000 0 0 1
24.631970 15.487094 -12.806074 31.789613 0.561284 1.985412 0.051747 -0.006564 511769.000000 0 0 1
23.951670 15.526094 -14.064274 31.820526 0.575127 2.028609 0.048972 -0.011105 40681.200000 0 0 1
23.852770 14.099894 -14.656474 31.346034 0.533866 2.057336 0.050750 -0.017890 -226692.000000 0 0 1
25.070970 13.554394 -15.154674 32.279084 0.495629 2.059508 0.073584 -0.022282 560836.000000 0 0 1
25.448270 13.904794 -16.511574 33.370493 0.500071 2.088396 0.091097 -0.030033 -650837.000000 0 0 1
26.841570 13.442594 -16.951674 34.475099 0.464297 2.084846 0.118959 -0.028799 -162967.000000 0 0 1
26.868670 12.140294 -17.406174 34.238677 0.424382 2.104096 0.124632 -0.032786 -379642.000000 0 0 1
28.168780 11.659394 -17.568574 35.186310 0.392442 2.093589 0.120673 -0.025528 -407245.000000 0 0 1
28.327680 10.231694 -18.136774 35.158037 0.346609 2.112813 0.098674 -0.019552 -287874.000000 0 0 1
27.894700 10.149694 -19.530674 35.532770 0.348966 2.152744 0.099913 -0.022979 95959.200000 0 0 1
28.281560 9.085394 -20.339374 36.001127 0.310835 2.171187 0.067707 -0.004055 -915384.000000 0 0 1
29.711790 8.900094 -20.800474 37.345171 0.291042 2.161540 0.067822 -0.010339 -1378330.000000 0 0 1
29.999410 9.945594 -21.709574 38.342992 0.320123 2.172677 0.074149 -0.008896 336497.000000 0 0 1
30.566070 9.495394 -22.997074 39.412086 0.301200 2.193832 0.054634 -0.001784 -829929.000000 0 0 1
31.921070 8.852894 -23.027274 40.343323 0.270538 2.178255 0.049025 0.001266 -1617070.000000 0 0 1
32.941660 9.774994 -22.800974 41.238184 0.288460 2.156648 0.054734 -0.001521 776171.000000 0 0 1
34.267170 9.218794 -22.995074 42.284731 0.262805 2.145773 0.011233 0.006017 1026540.000000 0 0 1
35.385240 10.225094 -22.703374 43.267897 0.281302 2.123178 0.033598 -0.002698 -276439.000000 0 0 1
35.365980 10.642394 -21.343774 42.656415 0.292302 2.094817 0.027978 -0.006745 357583.000000 0 0 1
36.291660 11.704094 -21.199374 43.628933 0.311970 2.078191 0.010206 -0.003744 51692.400000 0 0 1
36.025690 12.438594 -19.884674 42.988012 0.332455 2.051680 0.006679 -0.007930 -228525.000000 0 0 1
36.233010 11.542094 -18.836974 42.436806 0.308389 2.030724 0.016703 -0.007646 298342.000000 0 0 1
36.252720 12.258694 -17.648174 42.142535 0.326075 2.002891 0.030654 -0.005751 58448.900000 0 0 1
-35.871294 11.352494 -16.515474 41.090020 -0.306505 1.984424 0.030686 -0.011235 -61238.300000 0 0 1
35.867150 10.384094 -16.166674 40.689595 0.281810 1.979388 0.027910 -0.012967 501305.000000 0 0 1
36.254190 9.599294 -15.103874 40.430678 0.258838 1.953656 0.026502 -0.023336 -205698.000000 0 0 1
35.363350 8.346794 -14.886574 39.266341 0.231787 1.959639 0.064201 -0.022135 284469.000000 0 0 1
34.188640 8.507394 -14.104974 37.949824 0.243884 1.951608 0.075475 -0.022033 658608.000000 0 0 1
34.519430 8.411694 -12.735474 37.743078 0.239022 1.914977 0.068296 -0.027102 -717530.000000 0 0 1
33.367100 8.804494 -11.814374 36.475497 0.257987 1.900644 0.075741 -0.021799 -488559.000000 0 0 1
33.200860 10.253494 -11.843974 36.711183 0.299540 1.899299 0.078446 -0.025506 -230993.000000 0 0 1
32.250560 10.703694 -10.939974 35.698049 0.320453 1.882267 0.049278 -0.009036 -911788.000000 0 0 1
32.482120 10.443494 -9.386074 35.387187 0.311077 1.839248 0.059678 -0.010491 265723.000000 0 0 1
33.685340 11.062494 -8.881874 36.550904 0.317310 1.816254 0.066562 -0.011279 914174.000000 0 0 1
33.481470 12.438594 -8.572174 36.731588 0.355705 1.806342 0.066752 -0.008172 -671996.000000 0 0 1
33.236680 12.678994 -7.025574 36.260067 0.364436 1.765785 0.065047 -0.012040 -167189.000000 0 0 1
34.421290 12.380994 -6.315674 37.121448 0.345281 1.741763 0.085021 -0.014031 515171.000000 0 0 1
34.238890 12.662794 -4.933374 36.837292 0.354236 1.705123 0.091245 -0.017803 -488235.000000 0 0 1
35.551620 12.673794 -4.166874 37.972431 0.342445 1.680752 0.106358 -0.015523 -364714.000000 0 0 1
36.353280 13.850694 -4.367174 39.146837 0.364023 1.682588 0.104210 -0.008409 -422862.000000 0 0 1
-35.130397 13.525594 -3.823974 37.837934 -0.367519 1.672031 0.088748 -0.018127 -640282.000000 0 0 1
-34.174352 14.730494 -3.775774 37.404950 -0.406975 1.671912 0.085277 -0.016282 -69207.300000 0 0 1
-34.485512 15.641294 -2.736974 37.965664 -0.425812 1.642950 0.112031 -0.011036 55182.000000 0 0 1
-33.489365 16.612194 -2.498974 37.466618 -0.460478 1.637545 0.114958 -0.010975 -159817.000000 0 0 1
-33.809145 17.633894 -1.422674 38.158047 -0.480756 1.608089 0.114680 -0.011873 34172.800000 0 0 1
-34.865946 18.513094 -1.793874 39.516918 -0.488123 1.616207 0.088665 -0.003052 451534.000000 0 0 1
-35.084086 19.437994 -0.763274 40.116222 -0.505940 1.589824 0.080392 -0.004921 -99185.300000 0 0 1
-36.273925 20.405794 -0.971774 41.630979 -0.512425 1.594141 0.071143 -0.004837 -100834.000000 0 0 1
-36.015269 21.606094 -1.659474 42.031854 -0.540357 1.610288 0.080535 0.003913 40797.700000 0 0 1
36.224330 21.602394 -2.964874 42.280680 0.537732 1.640978 0.050693 0.007905 -215438.000000 0 0 1
-35.970136 22.850494 -3.707974 42.775517 -0.565945 1.657590 0.068515 -0.011590 416720.000000 0 0 1
-34.601887 22.710394 -4.088574 41.590492 -0.580815 1.669261 0.080685 -0.003535 348323.000000 0 0 1
-34.163920 23.955594 -4.623974 41.981247 -0.611528 1.681164 0.087659 -0.004243 1360570.000000 0 0 1
-32.602095 24.028294 -4.898074 40.795179 -0.635140 1.691152 0.083096 -0.016201 1207120.000000 0 0 1
-32.130855 23.126194 -5.849474 40.017859 -0.623859 1.717494 0.082194 -0.008576 -1154860.000000 0 0 1
-30.810455 23.408094 -6.151774 39.179935 -0.649709 1.728462 0.076893 0.002772 -844775.000000 0 0 1
-30.379785 22.476294 -7.307874 38.490520 -0.636969 1.761818 0.080488 -0.016077 -163447.000000 0 0 1
-31.032715 22.779994 -8.525674 39.428982 -0.633224 1.788746 0.067829 -0.026360 -1904.100000 0 0 1
-30.408885 22.298894 -9.732674 38.944395 -0.632728 1.823386 0.037176 -0.020234 -351845.000000 0 0 1
-31.344915 22.109494 -10.900074 39.876623 -0.614315 1.847665 0.037760 -0.008079 -559427.000000 0 0 1
-31.839855 23.353594 -11.341874 41.082902 -0.632838 1.850502 0.049161 -0.008307 -189257.000000 0 0 1
-32.564055 23.234394 -12.522574 41.917414 -0.619728 1.874173 0.027446 0.000748 -497755.000000 0 0 1
-33.246935 24.634094 -12.900274 43.342985 -0.637680 1.873008 0.062513 0.003978 16790.900000 0 0 1
-32.458335 25.781094 -13.092974 43.469924 -0.671245 1.876743 0.053724 0.000225 -367139.000000 0 0 1
-31.630775 25.885894 -14.242474 43.283178 -0.685846 1.906097 0.033158 -0.005803 400355.000000 0 0 1
-30.334085 26.728394 -13.995974 42.783771 -0.722294 1.904064 0.031355 0.002316 702662.000000 0 0 1
-29.357955 26.125494 -13.115674 41.430084 -0.727204 1.892912 0.036631 -0.000181 519241.000000 0 0 1
-29.652705 25.917894 -11.744474 41.096871 -0.718291 1.860612 0.046642 -0.003543 -653626.000000 0 0 1
-29.869245 27.195794 -10.911274 41.843027 -0.738583 1.834613 0.066290 0.006753 3540.450000 0 0 1
-28.658935 27.678794 -10.381374 41.173087 -0.768002 1.825687 0.065397 0.004715 -300541.000000 0 0 1
-28.861845 28.887794 -9.748074 41.982564 -0.785847 1.805128 0.054221 -0.000554 -164461.000000 0 0 1
-27.625565 29.630294 -9.213974 41.545439 -0.820397 1.794437 0.065214 -0.000943 23069.400000 0 0 1
-27.891575 30.926494 -8.651374 42.535094 -0.836951 1.775619 0.066543 -0.013956 565385.000000 0 0 1
-26.667045 31.522494 -8.188074 42.093271 -0.868647 1.766567 0.076434 -0.010684 675475.000000 0 0 1
34.806620 -25.264666 33.882385 54.752353 -0.627870 0.903544 0.024747 0.002814 -168486.000000 0 0 1
34.381990 -23.909906 34.149582 54.037013 -0.607645 0.886708 0.022724 -0.003443 79497.400000 0 0 1
33.354350 -24.013806 -33.312094 52.904358 -0.623997 2.251920 0.027095 -0.005604 -243997.000000 0 0 1
32.879520 -22.677606 -32.767674 51.662918 -0.603792 2.257846 0.018862 -0.008108 -103394.000000 0 0 1
32.263680 -21.983306 -33.814014 51.648798 -0.598109 2.284570 0.009428 -0.006464 -130010.000000 0 0 1
32.023050 -20.640306 -33.463954 50.708324 -0.572531 2.291522 0.005165 -0.000816 123355.000000 0 0 1
31.738430 -19.852606 33.644309 50.332827 -0.558964 0.838691 -0.002698 0.003301 843768.000000 0 0 1
32.964050 -19.728406 32.899455 50.578778 -0.539303 0.862607 0.016569 -0.009787 783705.000000 0 0 1
32.682280 -19.167706 31.629571 49.355467 -0.530424 0.875188 0.011391 -0.002004 -720065.000000 0 0 1
33.780250 -19.041106 30.592211 49.391825 -0.513282 0.902846 0.000259 -0.000797 -719059.000000 0 0 1
34.709540 -18.064406 30.974231 49.904688 -0.479870 0.901202 -0.005650 -0.009915 55649.100000 0 0 1
35.672960 -17.793306 29.975231 49.876611 -0.462679 0.926060 0.007934 -0.006439 -241653.000000 0 0 1
-36.149635 -16.598606 30.329081 50.021626 0.430448 0.919372 0.012600 -0.013409 -825847.000000 0 0 1
-35.144269 -16.509906 29.349311 48.673183 0.439177 0.923556 0.026122 -0.014026 816819.000000 0 0 1
-34.085207 -15.552806 29.640621 47.772980 0.428074 0.901483 0.027294 -0.017744 1347830.000000 0 0 1
-33.008885 -16.069206 30.669291 47.837343 0.453044 0.874845 0.054211 -0.024443 -139384.000000 0 0 1
-31.945775 -15.143906 30.855491 46.924746 0.442673 0.853231 0.053547 -0.023163 257673.000000 0 0 1
-30.932015 -15.757506 31.651131 46.977470 0.471158 0.831523 0.063847 -0.026350 -172545.000000 0 0 1
-29.989065 -14.677306 32.140391 46.344063 0.455149 0.804437 0.064758 -0.027857 -540097.000000 0 0 1
-30.544245 -13.822706 33.123189 47.129225 0.424970 0.791447 0.067483 -0.023723 326392.000000 0 0 1
-29.594925 -12.883506 33.622308 46.607982 0.410586 0.764996 0.064843 -0.023485 -71952.900000 0 0 1
-29.785955 -12.280806 -33.365634 46.381967 0.391066 2.373686 0.046486 -0.016741 -349819.000000 0 0 1
-29.695275 -13.276406 -32.339244 45.868279 0.420430 2.353284 0.064192 -0.016328 328856.000000 0 0 1
-29.658965 -12.731806 -31.033614 44.775421 0.405485 2.336570 0.058235 -0.009377 -388889.000000 0 0 1
-29.845005 -13.770206 -29.906834 44.438290 0.432286 2.309050 0.062912 -0.010289 781288.000000 0 0 1
-31.119445 -14.446406 -29.955274 45.545988 0.434620 2.288548 0.064345 -0.017831 698477.000000 0 0 1
-31.323465 -15.168006 -28.754794 45.144945 0.450959 2.261324 0.070111 -0.013327 83650.900000 0 0 1
-32.461555 -16.184706 -28.831784 46.335398 0.462512 2.242398 0.075737 -0.019579 -48288.400000 0 0 1
-32.113525 -17.257906 -29.669764 47.004348 0.493120 2.253913 0.076781 -0.022218 662660.000000 0 0 1
-33.258505 -18.122006 -29.714754 48.140439 0.498906 2.236041 0.069940 -0.022331 412461.000000 0 0 1
-33.134625 -19.519906 -30.375474 49.006118 0.532373 2.239323 0.061175 -0.018759 -152293.000000 0 0 1
-34.314933 -20.288606 -30.322564 50.085927 0.533959 2.221078 0.036249 -0.018891 32163.700000 0 0 1
-34.075439 -21.563706 -30.897404 50.801364 0.564205 2.224588 0.023118 -0.015053 -33962.000000 0 0 1
-35.310371 -22.497606 -30.954164 52.068463 0.567281 2.207427 0.012926 -0.007949 -70206.900000 0 0 1
-35.776985 -23.021306 -29.756254 51.917318 0.571769 2.181137 0.013310 -0.016995 -539818.000000 0 0 1
35.860730 -23.887006 -29.952914 52.476262 -0.587614 2.178264 0.031918 -0.016195 -297840.000000 0 0 1
36.151990 -25.347196 -30.415714 53.614945 -0.611483 2.174019 0.022638 -0.008884 -129788.000000 0 0 1
-36.010217 -25.516246 -31.714314 54.347146 0.616464 2.193891 0.026521 -0.004002 -194473.000000 0 0 1
-35.212528 -26.686196 -31.722134 54.390891 0.648513 2.193490 0.004357 0.002537 -15311.100000 0 0 1
-35.280042 -27.524786 -32.998854 55.598738 0.662538 2.206219 0.013936 -0.005432 -141083.000000 0 0 1
36.162690 -28.052056 -33.243804 56.566850 -0.659759 2.198998 0.027143 -0.004142 -525401.000000 0 0 1
36.073290 -29.286166 -33.975994 57.561532 -0.681926 2.202171 0.023360 -0.007305 107181.000000 0 0 1
-36.064055 -30.565566 -33.301594 57.826171 0.703062 2.184490 0.030451 -0.017309 297862.000000 0 0 1
35.961060 -30.963636 -32.134124 57.310963 -0.710864 2.166024 0.029269 -0.020605 62038.100000 0 0 1
-35.851766 -31.656086 -31.318744 57.169228 0.723327 2.150559 0.034097 -0.022975 67627.100000 0 0 1
36.216020 -32.153816 -29.978314 56.957592 -0.726053 2.125071 0.025863 -0.016431 199551.000000 0 0 1
35.397960 -33.304696 -30.132514 57.185547 -0.754939 2.125775 0.042263 -0.013953 205001.000000 0 0 1
34.900710 -33.722826 -28.863034 56.465594 -0.768235 2.107332 0.034338 -0.013788 -561474.000000 0 0 1
33.793330 33.672653 -28.951774 55.803601 0.783609 2.116261 0.037664 -0.016859 -1186700.000000 0 0 1
32.654400 34.141047 -29.573664 55.736186 0.807651 2.130106 0.044621 -0.019315 -1197770.000000 0 0 1
31.576550 33.282213 -29.325224 54.449545 0.811690 2.139543 0.040557 -0.020487 -211756.000000 0 0 1
30.318060 33.700034 -30.098054 54.412957 0.838178 2.156927 0.028495 -0.012308 -293056.000000 0 0 1
30.236040 33.233921 -31.407584 54.819229 0.832596 2.180873 0.028684 -0.010064 -620198.000000 0 0 1
29.112700 33.776646 -32.044284 54.911267 0.859424 2.193908 0.020867 0.002885 -309617.000000 0 0 1
28.799680 33.215739 -33.449864 55.241291 0.856487 2.221219 0.020604 -0.000498 -20235.600000 0 0 1
28.439860 31.859991 -33.375934 54.201823 0.842056 2.234161 0.012750 -0.002006 -18432.700000 0 0 1
28.350250 31.290111 33.733838 54.044237 0.834651 0.896703 0.020394 0.002562 43108.300000 0 0 1
28.131310 29.787781 33.828974 53.132683 0.813990 0.880600 0.031019 -0.018054 235497.000000 0 0 1
29.364120 29.160141 34.142060 53.649283 0.781913 0.880982 0.039078 -0.017512 -73039.500000 0 0 1
29.260200 27.784951 -34.107431 52.834455 0.759543 2.272543 0.043868 -0.021418 -528816.000000 0 0 1
30.534130 27.116771 -33.639824 52.908318 0.726191 2.259858 0.060586 -0.027454 -489778.000000 0 0 1
31.077530 27.393891 -32.389204 52.586107 0.722482 2.234358 0.063925 -0.020831 -421529.000000 0 0 1
32.236260 26.648011 -32.141734 52.748308 0.690779 2.226026 0.064538 -0.022227 -134963.000000 0 0 1
32.947920 26.944591 -30.839434 52.560889 0.685497 2.197820 0.088159 -0.027580 316005.000000 0 0 1
33.814610 28.089061 -30.625264 53.575460 0.693169 2.179286 0.065361 -0.018801 783612.000000 0 0 1
33.123890 29.367361 -30.588304 53.807790 0.725358 2.175446 0.074274 -0.020396 679023.000000 0 0 1
32.264570 29.606931 -29.298654 52.687607 0.742470 2.160461 0.057535 -0.004731 1011460.000000 0 0 1
33.103190 29.953351 -28.177434 52.791970 0.735487 2.133819 0.051542 -0.001630 371015.000000 0 0 1
32.272090 30.073051 -27.073834 51.757788 0.750141 2.121265 0.046401 -0.000843 -495562.000000 0 0 1
32.913540 30.727961 -25.925204 51.957914 0.751070 2.093201 0.060819 0.002381 -513514.000000 0 0 1
33.301190 32.041611 -26.087804 53.067952 0.766124 2.084714 0.046550 -0.003475 30842.500000 0 0 1
33.746890 32.566272 -24.865174 53.081932 0.767596 2.058309 0.037832 -0.010185 -171433.000000 0 0 1
33.995870 34.046885 -24.845474 54.149857 0.786148 2.047472 0.044786 -0.015826 677196.000000 0 0 1
32.814340 -33.526466 -24.875074 53.099662 -0.796132 2.058343 0.063999 -0.010906 842675.000000 0 0 1
33.063810 -32.154006 -24.834874 52.381930 -0.771449 2.064751 0.057703 -0.017395 -1123780.000000 0 0 1
33.693740 -31.461936 -26.037224 52.943919 -0.751158 2.084939 0.048360 -0.021156 49896.900000 0 0 1
35.056000 -31.654686 -26.368364 54.094666 -0.734456 2.079962 0.048695 -0.025424 -373649.000000 0 0 1
35.906610 -31.016396 -25.483204 53.858102 -0.712456 2.063664 0.050164 -0.022994 -476835.000000 0 0 1
-35.310090 -31.279886 -25.846104 53.788985 0.724949 2.072032 0.020588 -0.021785 465438.000000 0 0 1
-34.790277 -32.594916 -25.667244 54.144246 0.752830 2.064685 0.026831 -0.022406 3044.400000 0 0 1
-34.388325 -33.084196 -24.359474 53.577094 0.766072 2.042789 0.037679 -0.014536 3405.930000 0 0 1
-33.064375 -32.531226 -23.813974 52.140569 0.777271 2.045108 0.021922 -0.012587 -303650.000000 0 0 1
-33.045925 -31.123496 -23.652274 51.187257 0.755448 2.051128 0.019321 -0.013770 -188222.000000 0 0 1
-32.976875 -30.725676 -22.292674 50.284240 0.750074 2.030110 0.013185 -0.013396 -269523.000000 0 0 1
-33.124305 -29.205786 -22.062374 49.365432 0.722614 2.034115 0.004254 -0.005726 452454.000000 0 0 1
-34.398141 -28.688846 -22.451874 50.103580 0.695145 2.035445 -0.000791 -0.010016 -98995.900000 0 0 1
-34.465419 -28.232166 -23.821874 50.521303 0.686306 2.061812 0.010213 -0.010981 -44686.700000 0 0 1
-35.715591 -27.441646 -24.263574 51.160223 0.655135 2.064927 0.016498 -0.014473 114597.000000 0 0 1
-35.641804 -26.163746 -23.666574 50.149642 0.633231 2.062263 0.015708 -0.017438 -43940.800000 0 0 1
36.151910 -25.254856 -24.249774 50.327129 -0.609770 2.073553 0.028695 -0.018651 71571.300000 0 0 1
-36.234215 -24.620706 -25.645364 50.762016 0.596826 2.100419 0.026712 -0.014227 1145660.000000 0 0 1
-35.010426 -23.814706 -25.628044 49.494109 0.597325 2.115074 0.024047 -0.019646 1006620.000000 0 0 1
-34.888039 -23.137506 -26.851804 49.734685 0.585594 2.141116 0.037735 -0.020647 1088350.000000 0 0 1
-33.652685 -22.109406 -26.913224 48.431918 0.581272 2.159991 0.033960 -0.025410 761300.000000 0 0 1
-33.675875 -20.912606 -26.144284 47.486053 0.555715 2.153840 0.050335 -0.017545 -118885.000000 0 0 1
-34.687012 -19.929806 -26.353844 47.905230 0.521504 2.153310 0.052136 -0.013252 346960.000000 0 0 1
-35.671140 -19.892906 -25.115274 47.947210 0.508717 2.122115 0.054450 -0.013336 45048.900000 0 0 1
-35.178471 -19.512806 -23.883274 46.783386 0.506429 2.106571 0.064074 -0.023149 -551623.000000 0 0 1
-34.559976 -20.529106 -23.121674 46.372923 0.536006 2.092783 0.037727 -0.021363 -91896.900000 0 0 1
-35.371674 -21.789706 -22.640174 47.313044 0.552117 2.069763 0.056274 -0.019587 621137.000000 0 0 1
36.300280 -21.395006 -21.747674 47.417485 -0.532581 2.047263 0.049612 -0.015839 462543.000000 0 0 1
35.632850 -22.450106 -21.063174 47.088900 -0.562215 2.034548 0.043944 -0.011468 574675.000000 0 0 1
34.566000 -22.019006 -19.983874 45.596054 -0.567192 2.024481 0.049013 -0.018218 498972.000000 0 0 1
33.356000 -21.587706 -20.561474 44.737300 -0.574398 2.048346 0.059200 -0.016219 -1475270.000000 0 0 1
32.341330 -21.759906 -19.691774 43.671742 -0.592251 2.038574 0.067690 -0.025304 -1233140.000000 0 0 1
31.004020 -21.240506 -20.222974 42.677594 -0.600648 2.064459 0.061279 -0.022928 -620224.000000 0 0 1
30.355340 -21.894806 -21.308874 43.068519 -0.624868 2.088363 0.056431 -0.018417 -320420.000000 0 0 1
29.128110 -21.411306 -21.719474 42.173764 -0.633880 2.111804 0.061965 -0.018140 -539410.000000 0 0 1
29.114270 -20.061006 -22.473474 41.894411 -0.603335 2.136999 0.060365 -0.016101 -582688.000000 0 0 1
29.472260 -19.007306 -21.638474 41.208195 -0.572797 2.123630 0.057299 -0.014556 -59847.700000 0 0 1
29.507110 -17.872106 -22.447174 41.157713 -0.544591 2.147656 0.045192 -0.011181 -183447.000000 0 0 1
30.342790 -16.747006 -21.839674 40.964844 -0.504322 2.133095 0.043757 -0.015088 -213164.000000 0 0 1
29.668730 -16.179406 -20.707574 39.633450 -0.499255 2.120550 0.023542 -0.017182 1080610.000000 0 0 1
30.512190 -15.745306 -19.568274 39.519941 -0.476392 2.088803 0.012068 -0.012220 672555.000000 0 0 1
31.457590 -16.752506 -18.828274 40.307944 -0.489341 2.056817 0.032860 -0.021905 -141448.000000 0 0 1
32.581930 -17.069906 -19.590774 41.674480 -0.482590 2.060190 0.038817 -0.020374 -1035970.000000 0 0 1
33.425820 -17.893506 -18.911774 42.368835 -0.491503 2.033490 0.045480 -0.019985 -1160550.000000 0 0 1
34.567640 -18.366706 -19.778974 43.857330 -0.488394 2.038664 0.056405 -0.023123 -379989.000000 0 0 1
35.453550 -17.325706 -20.175474 44.319116 -0.454557 2.043429 0.056944 -0.028630 131769.000000 0 0 1
-36.205385 -17.853806 -20.928074 45.470569 0.458133 2.049079 0.061152 -0.026213 -107543.000000 0 0 1
-35.216577 -16.856406 -21.536574 44.588898 0.446422 2.074877 0.060550 -0.023976 -81860.700000 0 0 1
-34.352296 -16.226406 -20.606374 43.220356 0.441286 2.067778 0.081867 -0.030685 48852.300000 0 0 1
-33.585745 -15.240906 -21.291074 42.586352 0.426002 2.094338 0.091018 -0.027362 -541860.000000 0 0 1
-32.248925 -14.805906 -20.654974 41.058933 0.430407 2.097928 0.093566 -0.021842 976465.000000 0 0 1
-31.115625 -15.722306 -20.841774 40.617147 0.467868 2.109621 0.096041 -0.031267 1192000.000000 0 0 1
-31.212005 -17.007506 -20.157574 40.862848 0.498921 2.086674 0.088533 -0.036384 -433940.000000 0 0 1
-29.936645 -17.884406 -20.141474 40.270755 0.538512 2.094570 0.074730 -0.042109 38984.700000 0 0 1
-30.236425 -19.109106 -19.457974 40.718695 0.563610 2.069017 0.067979 -0.039310 -172422.000000 0 0 1
-29.186595 -20.020606 -19.542474 40.430067 0.601235 2.075291 0.058636 -0.036412 -399051.000000 0 0 1
-29.592755 -21.446106 -19.181274 41.274543 0.627117 2.054119 0.038854 -0.011077 -539472.000000 0 0 1
-30.452315 -22.057506 -20.083574 42.628946 0.626868 2.061362 0.045675 -0.016554 -240005.000000 0 0 1
-30.642425 -23.414306 -19.745474 43.325186 0.652473 2.044011 0.028255 -0.004637 -446847.000000 0 0 1
-31.753645 -24.115406 -20.511574 44.839397 0.649524 2.045917 0.013363 -0.003774 -497466.000000 0 0 1
-31.550825 -24.255506 -21.936374 45.442147 0.655410 2.074568 0.008721 -0.009975 -32991.100000 0 0 1
-32.560795 -25.015006 -22.560274 46.849994 0.655083 2.073210 0.014799 -0.010611 -81344.300000 0 0 1
-32.252975 -25.148976 -24.066474 47.454406 0.662265 2.102670 0.015369 -0.011185 372161.000000 0 0 1
-30.965955 -25.729596 -24.231674 46.990175 0.693300 2.112592 0.023569 -0.011577 29091.300000 0 0 1
-30.804335 -26.044016 -25.584534 47.767837 0.701856 2.136016 0.025579 -0.011434 542333.000000 0 0 1
-29.294065 -26.321646 -25.870434 47.119536 0.732003 2.152010 0.031406 -0.015113 605141.000000 0 0 1
-28.492285 -25.134866 -25.913374 45.989942 0.722873 2.169361 0.043904 -0.011835 379364.000000 0 0 1
-27.165295 -25.573846 -26.251074 45.619007 0.755231 2.183940 0.042075 -0.011145 454591.000000 0 0 1
-26.202345 -24.416006 -26.428324 44.510230 0.750122 2.206518 0.054144 -0.009784 -353437.000000 0 0 1
-26.322905 -23.809706 -27.689524 45.016744 0.735309 2.233301 0.056568 -0.012264 -270556.000000 0 0 1
-25.365225 -22.805706 -27.765404 43.981957 0.732314 2.254013 0.061715 -0.012600 -192291.000000 0 0 1
-25.451885 -21.956506 -29.041554 44.421825 0.711802 2.283349 0.057015 -0.019747 -28557.700000 0 0 1
-24.834935 -22.640406 -30.094244 45.111257 0.739206 2.301121 0.059441 -0.009829 64352.500000 0 0 1
-24.777735 -21.852206 -31.230064 45.461764 0.722741 2.328083 0.057599 -0.012815 -73363.500000 0 0 1
-24.300635 -22.619006 -32.463494 46.432949 0.749573 2.345001 0.048781 -0.033420 197319.000000 0 0 1
-25.264415 -23.597406 -32.836034 47.679486 0.751295 2.330467 0.022864 -0.025551 335762.000000 0 0 1
-24.693835 -24.639906 -33.624944 48.451495 0.784305 2.337815 0.047616 -0.003257 263497.000000 0 0 1
-19.428935 -15.137906 -11.576474 27.214968 0.661893 2.010169 0.058903 0.002281 257038.000000 0 0 1
-19.856235 -14.401406 -10.409874 26.646502 0.627494 1.972151 0.055806 -0.001778 361882.000000 0 0 1
-19.194435 -14.938506 -9.282674 26.033697 0.661352 1.935384 0.047688 -0.004956 -95896.200000 0 0 1
-19.740435 -14.312606 -7.998974 25.661627 0.627334 1.887788 0.062018 -0.012347 -847067.000000 0 0 1
-20.970635 -14.689806 -7.492674 26.677671 0.611057 1.855486 0.064767 -0.007912 -345002.000000 0 0 1
-21.200635 -14.004606 -6.263574 26.169224 0.583773 1.812491 0.074264 -0.019684 -43355.800000 0 0 1
-22.285835 -14.746706 -5.448074 27.272795 0.584562 1.771912 0.073842 -0.015888 -223575.000000 0 0 1
-21.895635 -16.085906 -5.105974 27.645003 0.633613 1.756561 0.051209 -0.023829 588353.000000 0 0 1
-21.122135 -16.221806 -3.932874 26.921350 0.654922 1.717409 0.060229 -0.024972 -167753.000000 0 0 1
-20.801335 -17.640506 -3.425874 27.488536 0.703359 1.695750 0.038463 -0.021848 -792171.000000 0 0 1
-21.954335 -18.238906 -2.962674 28.695435 0.693221 1.674226 0.062800 -0.023616 -380991.000000 0 0 1
-21.736335 -19.472606 -2.312374 29.274524 0.730520 1.649868 0.035973 -0.014570 -419034.000000 0 0 1
-23.095935 -20.125006 -2.046374 30.702211 0.716768 1.637498 0.066181 -0.030686 -219748.000000 0 0 1
-23.786235 -20.646006 -3.147774 31.653611 0.714841 1.670405 0.036708 -0.026007 -2532.210000 0 0 1
-24.791935 -21.547306 -2.737974 32.960931 0.715493 1.653959 0.055032 -0.019114 -259560.000000 0 0 1
-24.893135 -22.629906 -3.815174 33.857590 0.737810 1.683719 0.056425 -0.019630 -330545.000000 0 0 1
-23.845835 -23.575306 -3.744474 33.740777 0.779693 1.682003 0.052962 -0.023515 -185338.000000 0 0 1
-23.758735 -24.397406 -4.921874 34.408368 0.798660 1.714332 0.045727 -0.021529 832346.000000 0 0 1
-22.343835 -24.384506 -5.634274 33.549906 0.829041 1.739533 0.036562 -0.013667 1183650.000000 0 0 1
-21.956435 -23.150606 -6.325374 32.527619 0.811866 1.766505 0.013012 -0.001459 243059.000000 0 0 1
-21.703235 -21.990706 -5.518874 31.385977 0.791977 1.747554 0.013908 -0.005528 -633672.000000 0 0 1
-21.519035 -20.648706 -6.299274 30.481450 0.764761 1.778956 0.023903 -0.002014 -1187980.000000 0 0 1
-20.363135 -20.457906 -7.012874 29.704606 0.787720 1.809133 0.002578 0.005700 -810706.000000 0 0 1
-20.413335 -19.187906 -7.647374 29.040702 0.754464 1.837272 -0.001585 0.011350 581977.000000 0 0 1
-19.034935 -19.064806 -8.360374 28.208004 0.786182 1.871700 0.016931 0.006425 257458.000000 0 0 1
-18.814835 -19.858206 -9.510474 28.961967 0.812371 1.905382 0.016658 0.009854 -377018.000000 0 0 1
-17.567235 -19.727406 -10.159174 28.301716 0.843255 1.937949 0.040659 0.013256 -45357.100000 0 0 1
-17.266535 -18.437606 -10.967874 27.538570 0.818186 1.980430 0.040181 0.008281 -298008.000000 0 0 1
-16.942835 -17.245906 -10.267574 26.266024 0.794263 1.972413 0.047969 0.003530 -160821.000000 0 0 1
-15.666935 -17.196906 -9.688374 25.200219 0.831919 1.965415 0.053808 0.000447 -549409.000000 0 0 1
-15.422735 -15.969206 -8.693074 23.842103 0.802804 1.944010 0.051456 -0.003892 123214.000000 0 1 0
-15.979735 -16.206206 -7.377374 23.925274 0.792434 1.884255 0.024845 -0.001993 502363.000000 0 1 0
-16.293535 -14.998206 -6.665074 23.126796 0.744027 1.863140 0.044151 -0.004274 -94343.000000 0 1 0
-16.747835 -15.225306 -5.186974 23.220780 0.737815 1.796073 0.031068 -0.011508 59057.500000 0 1 0
-17.315135 -14.078406 -4.563474 22.778076 0.682659 1.772506 0.038408 -0.008096 294249.000000 0 1 0
-17.826435 -14.489506 -3.302974 23.208560 0.682503 1.713598 0.036090 -0.004477 -6897.770000 0 1 0
-18.711535 -13.397106 -2.655674 23.165850 0.621371 1.685686 0.044866 -0.002366 -565201.000000 0 1 0
-19.995935 -13.165506 -3.142474 24.146286 0.582264 1.701310 0.065588 -0.016956 -18247.900000 0 1 0
-20.542435 -12.078606 -2.389474 23.949822 0.531537 1.670733 0.070228 -0.008152 1360630.000000 0 1 0
-22.138835 -12.046306 -2.472474 25.324981 0.498322 1.668582 0.079944 -0.008099 1459940.000000 0 0 1
-22.643935 -11.327006 -3.562774 25.568384 0.463826 1.710594 0.094169 -0.021464 835918.000000 0 0 1
-24.022535 -11.612606 -3.823274 26.954633 0.450283 1.713117 0.096575 -0.011418 783351.000000 0 0 1
-24.634935 -10.974706 -5.150674 27.456396 0.419100 1.759509 0.095665 -0.017707 -7091.450000 0 0 1
-24.232635 -11.562306 -6.353874 27.591290 0.445191 1.803167 0.091500 -0.021101 55873.400000 0 0 1
-24.882835 -11.091906 -7.497074 28.255831 0.419327 1.839341 0.097452 -0.019124 -344830.000000 0 0 1
-24.158935 -11.539406 -8.795974 28.181221 0.445605 1.888222 0.093303 -0.023093 380733.000000 0 0 1
-22.999235 -10.732906 -8.987974 26.924780 0.436625 1.911147 0.098381 -0.024094 340802.000000 0 0 1
-22.115435 -11.259306 -9.964374 26.742349 0.470913 1.952613 0.077696 -0.019644 -216877.000000 0 0 1
-20.748535 -10.572606 -9.864374 25.290069 0.471266 1.971481 0.088206 -0.029720 -614505.000000 0 0 1
-20.761735 -9.246506 -10.392474 24.991019 0.418991 1.999672 0.081981 -0.028143 279458.000000 0 1 0
-19.750735 -8.396106 -9.906374 23.637309 0.401958 2.003249 0.085103 -0.027623 -361714.000000 0 1 0
-19.511635 -7.091806 -10.670074 23.341982 0.348620 2.045550 0.067747 -0.036033 -244727.000000 0 1 0
-19.030835 -7.364706 -11.970174 23.657909 0.369239 2.101302 0.079043 -0.028763 473602.000000 0 1 0
-18.870735 -6.175906 -12.715874 23.578378 0.316288 2.140405 0.084701 -0.034944 -42062.000000 0 1 0
-18.170335 -6.492606 -14.066274 23.878339 0.343180 2.200717 0.086114 -0.025554 254055.000000 0 1 0
-19.104835 -6.898006 -15.070274 25.292101 0.346494 2.209119 0.093080 -0.032109 730403.000000 0 0 1
-18.497635 -6.745806 -16.330074 25.580065 0.349697 2.263202 0.090126 -0.031338 103464.000000 0 0 1
-19.162535 -7.641206 -17.438374 27.012732 0.379435 2.272554 0.078853 -0.029033 -429180.000000 0 0 1
-20.427935 -7.181306 -17.803674 28.032883 0.338049 2.258934 0.083221 -0.036646 -218109.000000 0 0 1
-20.910035 -8.056206 -18.819274 29.262555 0.367752 2.269359 0.092979 -0.036985 -751324.000000 0 0 1
-22.316235 -7.712606 -19.272974 30.478619 0.332754 2.255372 0.085473 -0.036734 -1407990.000000 0 0 1
-22.346135 -6.479706 -19.967174 30.659817 0.282230 2.280025 0.090040 -0.041314 1597860.000000 0 0 1
-23.563735 -6.272606 -20.764474 32.027466 0.260164 2.276190 0.080744 -0.040512 2308710.000000 0 0 1
-24.950635 -6.161806 -20.024474 32.580387 0.242115 2.232697 0.104800 -0.040627 332953.000000 0 0 1
-25.089665 -5.014106 -19.225974 32.004229 0.197249 2.215213 0.098600 -0.028474 6064.900000 0 0 1
-26.420505 -4.776306 -18.833174 32.795497 0.178849 2.182497 0.113677 -0.021841 -177745.000000 0 0 1
-26.535055 -3.325706 -18.062274 32.270966 0.124682 2.164828 0.099414 -0.016090 35774.100000 0 0 1
-26.692575 -2.171706 -18.908974 32.783520 0.081181 2.185581 0.094089 -0.011829 855156.000000 0 0 1
-28.051495 -1.950006 -19.334874 34.125156 0.069404 2.173154 0.095936 -0.009734 808419.000000 0 0 1
-28.277725 -0.691606 -20.218574 34.769222 0.024453 2.191377 0.086991 -0.005284 -247992.000000 0 0 1
-27.690025 -0.638306 -21.485374 35.053762 0.023048 2.230555 0.085419 -0.010780 -277418.000000 0 0 1
-28.067045 -1.627806 -22.401474 35.947668 0.057932 2.243585 0.079147 -0.003422 22115.800000 0 0 1
-27.306375 -1.728206 -23.796174 36.261312 0.063205 2.286623 0.074466 -0.006598 -274354.000000 0 0 1
-27.578345 -0.685206 -24.693474 37.024347 0.024841 2.300907 0.049492 0.000191 -87223.700000 0 0 1
-27.146375 0.641094 -24.403074 36.508173 -0.023612 2.302889 0.064754 0.004395 -379709.000000 0 0 1
-25.717485 0.893294 -23.901474 35.120756 -0.034721 2.319311 0.072267 -0.003087 -718277.000000 0 0 1
-24.794435 0.641294 -24.901374 35.146176 -0.025859 2.358179 0.056824 -0.006605 -158175.000000 0 0 1
-23.450235 1.031894 -24.596874 33.999773 -0.043975 2.379572 0.056573 -0.006481 845647.000000 0 0 1
-22.371135 0.358694 -25.475294 33.905559 -0.016032 2.420918 0.054749 -0.011810 -39069.500000 0 0 1
-22.234835 0.906494 -26.782464 34.821114 -0.040747 2.448298 0.037358 -0.010488 522184.000000 0 0 1
-21.307535 0.213694 -27.644294 34.903635 -0.010029 2.484903 0.029199 -0.015824 317080.000000 0 0 1
-21.219235 0.967794 -28.987754 35.937202 -0.045578 2.509212 0.023692 -0.005246 74183.500000 0 0 1
-20.441535 2.200294 -28.979494 35.531799 -0.107226 2.524550 0.028294 -0.006263 522641.000000 0 0 1
-20.391035 2.853094 -30.192674 36.544932 -0.139017 2.543089 0.019787 -0.004335 -61523.000000 0 0 1
-19.553535 2.275494 -31.358274 37.025126 -0.115851 2.581011 0.012412 -0.006368 793648.000000 0 0 1
-18.130335 2.222594 -31.152164 36.112412 -0.121981 2.611271 0.011766 -0.003871 526328.000000 0 0 1
-17.561335 1.726094 -32.306354 36.811417 -0.097975 2.641666 0.002727 -0.008774 -882027.000000 0 0 1
-16.054135 1.612994 -32.408044 36.202463 -0.100136 2.679651 0.016664 -0.016062 -589745.000000 0 0 1
-15.455935 2.897794 -32.537054 36.137834 -0.185336 2.691392 0.017270 -0.010699 938433.000000 0 0 1
-14.030735 2.885694 -32.749804 35.745467 -0.202841 2.729275 0.017480 -0.008897 937849.000000 0 0 1
-13.418635 4.278594 -33.078084 35.951714 -0.308664 2.739055 0.029853 -0.006370 -241724.000000 0 0 1
-13.378335 5.178794 -31.941994 35.015578 -0.369339 2.719472 0.033161 -0.021203 115215.000000 0 0 1
-12.860235 6.364994 -32.492874 35.520215 -0.459588 2.725738 0.040769 -0.009047 -199549.000000 0 0 1
-12.464335 7.465394 -31.521224 34.708491 -0.539640 2.709689 0.048992 -0.020234 -159922.000000 0 0 1
-11.370535 7.218194 -30.655194 33.483314 -0.565627 2.727636 0.072149 -0.028939 -47048.400000 0 0 1
-11.555435 6.299794 -29.586694 32.381908 -0.499135 2.723044 0.065632 -0.030829 197613.000000 0 0 1
-10.265235 5.503394 -29.154014 31.394568 -0.492124 2.761506 0.092311 -0.033399 239019.000000 0 0 1
-9.694935 4.604394 -30.118574 31.973750 -0.443389 2.799272 0.074431 -0.041470 15050.400000 0 0 1
-10.554335 3.580994 -30.600854 32.567311 -0.327103 2.792311 0.072697 -0.038101 -509063.000000 0 0 1
-9.942935 2.490894 -31.542714 33.166388 -0.245467 2.827395 0.069421 -0.033525 -450963.000000 0 0 1
-10.839035 1.480394 -31.911384 33.734443 -0.135740 2.811334 0.069838 -0.028035 -50074.800000 0 0 1
-10.429035 0.645894 -32.973054 34.589077 -0.061853 2.834708 0.065755 -0.025935 -361762.000000 0 0 1
-10.630735 1.247394 34.021546 35.665588 -0.116804 0.304810 0.067460 -0.026287 -573147.000000 0 0 1
-11.965235 1.100294 33.658876 35.739299 -0.091700 0.342884 0.029907 -0.008804 -858361.000000 0 0 1
-12.201435 1.632794 32.351934 34.614862 -0.133029 0.363592 0.015809 0.000300 -294637.000000 0 0 1
-13.627435 1.271494 31.933951 34.743358 -0.093035 0.404909 0.006468 0.005630 -625833.000000 0 0 1
-14.578935 2.198394 32.388160 35.586110 -0.149665 0.427187 0.003311 0.011116 -150163.000000 0 0 1
-15.820235 1.734994 31.852451 35.607144 -0.109233 0.463368 0.006478 0.014026 115271.000000 0 0 1
-16.729935 2.831494 31.291401 35.595785 -0.167658 0.496876 0.026115 0.004287 -400173.000000 0 0 1
-17.377335 3.612994 32.259271 36.819643 -0.204994 0.502995 0.031569 -0.004606 307166.000000 0 0 1
-16.503035 4.562094 32.848738 37.043252 -0.269704 0.480493 0.022055 0.001260 -145087.000000 0 0 1
-17.111935 5.219694 34.130495 38.535104 -0.296067 0.482799 0.026636 0.001410 632064.000000 0 0 1
-18.374535 5.854994 33.894413 38.996612 -0.308475 0.517289 0.030808 -0.002757 -126202.000000 0 0 1
-19.361935 5.256394 -33.729314 39.245138 -0.265091 2.604993 0.022194 0.003994 40246.700000 0 0 1
-20.762835 5.867794 -34.012614 40.278831 -0.275428 2.576295 0.015809 0.002027 -36978.200000 0 0 1
-20.842735 7.237094 -33.612054 40.206533 -0.334199 2.560721 0.015157 -0.004171 232194.000000 0 0 1
-20.206035 8.189094 33.962497 40.358349 -0.385049 0.570699 0.008231 -0.000657 -317646.000000 0 0 1
-20.109835 9.667894 -34.014654 40.680097 -0.448133 2.561022 0.008889 0.004742 -797106.000000 0 0 1
-19.203435 9.891694 -32.971714 39.417654 -0.475655 2.561607 0.006646 0.001818 56290.600000 0 0 1
-18.989835 11.302794 -32.784904 39.537538 -0.536884 2.548488 0.005403 0.009149 429704.000000 0 0 1
-18.136635 12.037294 -33.911554 40.296743 -0.585946 2.570935 -0.001313 -0.007388 -533780.000000 0 0 1
-18.926735 12.239194 33.401311 40.294749 -0.574025 0.593614 0.014985 -0.013160 -54298.800000 0 0 1
-18.241935 12.359894 32.152341 38.978305 -0.595502 0.600810 0.023764 -0.014327 -316021.000000 0 0 1
-18.996535 11.696694 31.006071 38.197611 -0.551904 0.623691 0.039355 -0.021025 -431933.000000 0 0 1
-18.997035 10.295694 31.025001 37.807927 -0.496652 0.608345 0.044932 -0.021236 -135342.000000 0 0 1
-17.804735 9.606694 30.735331 36.796165 -0.494791 0.582143 0.049520 -0.026463 -159796.000000 0 0 1
-17.996635 8.060194 30.675281 36.466677 -0.421083 0.571322 0.055705 -0.023061 -34182.200000 0 0 1
-18.847535 7.555894 29.680371 35.961724 -0.381278 0.600006 0.053684 -0.020217 -33944.300000 0 0 1
-19.023935 6.188794 29.945511 36.013122 -0.314518 0.588964 0.056961 -0.014181 -103908.000000 0 0 1
-19.655435 5.411694 28.790271 35.277504 -0.268671 0.616152 0.060515 -0.018121 164117.000000 0 0 1
-21.010135 5.759794 28.515261 35.884832 -0.267570 0.652394 0.085772 -0.027347 166919.000000 0 0 1
-21.609935 4.677694 27.838641 35.550810 -0.213172 0.671215 0.075891 -0.021254 -910102.000000 0 0 1
-23.059835 5.021594 27.578741 36.298201 -0.214416 0.707818 0.067221 -0.014508 -966526.000000 0 0 1
-23.240135 5.925794 26.551731 35.780069 -0.249661 0.734626 0.076030 -0.020639 10772.700000 0 0 1
-24.551535 6.439494 26.481411 36.681196 -0.256507 0.764203 0.065375 -0.017775 -366558.000000 0 0 1
-24.833535 7.072794 25.102361 36.011907 -0.277462 0.799511 0.062320 -0.022131 -305876.000000 0 0 1
-24.900635 6.161894 24.028151 35.147726 -0.242586 0.818067 0.067190 -0.017856 786704.000000 0 0 1
-26.083595 5.352094 24.001491 35.847879 -0.202381 0.837211 0.064278 -0.012308 116882.000000 0 0 1
-26.250955 4.576494 22.730361 35.024653 -0.172602 0.864551 0.069992 -0.014079 134637.000000 0 0 1
-26.850225 5.307394 21.623661 34.881023 -0.195151 0.902148 0.074107 -0.010374 350047.000000 0 0 1
-26.896045 4.484194 20.498761 34.113113 -0.165204 0.926163 0.079387 -0.012263 -457685.000000 0 0 1
-27.676835 5.137694 19.359361 34.164133 -0.183542 0.968353 0.102471 -0.014262 -35105.800000 0 0 1
-29.059915 5.113294 19.629561 35.439302 -0.174174 0.983764 0.108963 -0.015990 -384258.000000 0 0 1
-29.835725 5.671694 18.628661 35.628158 -0.187856 1.020590 0.110684 -0.013680 1337500.000000 0 0 1
-31.409175 5.504594 18.826461 37.030697 -0.173492 1.037469 0.108080 -0.016480 1309240.000000 0 0 1
-31.984175 6.372494 19.752461 38.128151 -0.196664 1.026221 0.100882 -0.017166 -939820.000000 0 0 1
-33.292475 5.956994 19.993161 39.288690 -0.177055 1.036915 0.098866 -0.013870 -992688.000000 0 0 1
-33.963865 7.062094 20.821161 40.459091 -0.205008 1.030229 0.091781 -0.024819 -328208.000000 0 0 1
-33.350845 7.227394 22.074461 40.642293 -0.213408 0.996624 0.081102 -0.032932 100879.000000 0 0 1
-33.555725 8.532494 22.533461 41.310374 -0.249001 0.993850 0.089275 -0.029434 36772.200000 0 0 1
-0.673635 32.015994 11.379026 33.984700 -1.549759 1.229374 0.045148 -0.002297 -388994.000000 0 0 1
-1.017935 32.323194 12.717726 34.750044 -1.539314 1.196114 0.032115 -0.008568 144617.000000 0 0 1
-0.425935 33.558094 13.147426 36.044166 -1.558105 1.197423 0.025693 -0.014945 -109725.000000 0 0 1
-0.339635 33.727794 14.660526 36.777853 -1.560727 1.160781 0.013818 -0.008643 417439.000000 0 0 1
-1.584235 33.842394 15.366326 37.201363 -1.524018 1.144987 0.010994 0.010287 236099.000000 0 0 1
-1.418535 -34.098723 16.687626 37.989631 1.529219 1.116013 0.003666 -0.002000 429716.000000 0 0 1
-2.711035 -33.659523 17.457326 38.014096 1.490427 1.093665 -0.002286 0.010038 206152.000000 0 0 1
-3.474435 33.670394 17.930226 38.304831 -1.467971 1.083665 0.004623 0.010922 46114.100000 0 0 1
-4.283735 34.098294 19.035426 39.286021 -1.445822 1.064966 0.011777 0.008583 81054.800000 0 0 1
-5.276535 33.006994 19.533326 38.715039 -1.412276 1.041946 0.008256 0.005079 -6114.760000 0 0 1
-6.329035 32.962794 18.610826 38.379230 -1.381100 1.064526 0.008938 -0.000291 122387.000000 0 0 1
-7.417935 32.108894 19.018426 38.048750 -1.343755 1.047378 0.015924 -0.014565 247380.000000 0 0 1
-8.420835 31.917794 17.911226 37.556198 -1.312845 1.073651 0.004008 -0.016784 -693597.000000 0 0 1
-9.064935 33.162294 17.577926 38.612100 -1.303964 1.098150 0.020432 -0.015903 -151943.000000 0 0 1
-9.841335 33.043994 16.415126 38.186565 -1.281336 1.126451 0.026775 -0.011974 -220428.000000 0 0 1
-10.819535 -34.170823 16.274826 39.364673 1.264153 1.144570 0.069515 -0.022217 -310418.000000 0 0 1
-11.897835 34.106894 17.159626 39.991142 -1.235156 1.127316 0.074670 -0.019859 -717547.000000 0 0 1
-12.789335 -33.256423 17.000826 39.478917 1.203664 1.125605 0.068616 -0.025513 -144907.000000 0 0 1
-14.186935 -33.528623 17.601426 40.438199 1.170511 1.120461 0.101278 -0.024358 34687.500000 0 0 1
-14.282835 -33.351923 18.988926 40.950330 1.166179 1.088622 0.094291 -0.017227 -134678.000000 0 0 1
-15.574335 -33.592023 19.504726 41.849950 1.136664 1.085960 0.092728 -0.022672 223905.000000 0 0 1
-15.530735 -33.357923 21.010726 42.372224 1.135063 1.051971 0.087971 -0.039911 -36589.700000 0 0 1
-15.488635 -31.964323 21.394326 41.464840 1.119577 1.028665 0.094961 -0.031223 -26017.400000 0 0 1
-15.196135 -31.777023 22.727326 41.919364 1.124731 0.997782 0.083782 -0.026055 23940.700000 0 0 1
-14.832235 -30.286423 23.052526 40.849499 1.115397 0.971177 0.094310 -0.036795 16583.600000 0 0 1
-15.123135 -29.929723 24.393726 41.467474 1.102927 0.941889 0.086886 -0.043722 -211245.000000 0 0 1
-14.924235 -28.551123 24.630626 40.553264 1.089139 0.918057 0.075261 -0.003778 -512494.000000 0 0 1
-15.998935 -27.589223 24.184626 40.025334 1.045289 0.921993 0.077566 -0.005649 129322.000000 0 0 1
-17.262735 -27.649923 24.847026 40.986522 1.012677 0.919492 0.078630 -0.007323 836386.000000 0 0 1
-18.157035 -26.643623 24.403926 40.436521 0.972610 0.922898 0.071080 -0.007582 397475.000000 0 0 1
-19.253835 -26.171323 25.449026 41.271071 0.936520 0.906340 0.073370 -0.012131 1239210.000000 0 0 1
-20.193635 -27.122723 26.039426 42.678762 0.930806 0.914577 0.086448 -0.013812 1259020.000000 0 0 1
-21.067335 -27.827723 25.149026 43.019627 0.922790 0.946416 0.066234 -0.015377 932337.000000 0 0 1
-22.455435 -27.074123 24.909726 43.101615 0.878380 0.954606 0.046837 -0.008757 776528.000000 0 0 1
-22.421335 -25.956623 24.076926 41.906574 0.858345 0.958757 0.062830 -0.009525 784953.000000 0 0 1
-23.719435 -25.689623 23.526026 42.143117 0.825252 0.978532 0.053189 -0.004926 545615.000000 0 0 1
-24.046335 -24.202323 23.171826 41.242117 0.788631 0.974178 0.060854 -0.001161 -159617.000000 0 0 1
-24.472835 -23.459623 24.262326 41.688536 0.764263 0.949622 0.054615 -0.003996 303424.000000 0 0 1
-25.054145 -22.189923 23.923126 41.139019 0.724846 0.950202 0.048847 -0.000204 53054.100000 0 0 1
-25.639785 -21.533923 25.168526 41.887506 0.698580 0.926220 0.051702 -0.001689 233346.000000 0 0 1
-26.833125 -22.186823 25.597426 43.214581 0.690897 0.936845 0.041124 0.005538 479447.000000 0 0 1
-27.259945 -21.595623 26.805526 43.909131 0.669973 0.914133 0.029172 -0.001727 -272120.000000 0 0 1
-28.441985 -22.259723 27.580626 45.443732 0.664063 0.918619 0.029633 0.004184 373262.000000 0 0 1
-29.779465 -21.990823 27.240126 45.961259 0.636072 0.936419 0.034269 0.006209 234126.000000 0 0 1
-30.215895 -22.459623 25.962526 45.732787 0.639202 0.967086 0.027043 0.010233 -1711640.000000 0 0 1
-31.706885 -22.709823 26.055526 46.903658 0.621544 0.981818 0.019404 0.010746 -404865.000000 0 0 1
-32.386785 -23.190623 24.856326 46.952591 0.621418 1.012913 0.010655 0.007345 650932.000000 0 0 1
-31.979495 -24.527623 24.547026 47.189500 0.654280 1.023735 0.014143 0.003847 -557095.000000 0 0 1
-32.446445 -25.023623 23.138326 47.056728 0.656949 1.056742 0.014262 0.002663 -178221.000000 0 0 1
-33.829155 -25.181123 22.980826 48.027275 0.639883 1.071856 0.008291 0.002232 -365123.000000 0 0 1
-34.143272 -25.775023 21.759226 47.995612 0.646635 1.100266 0.011682 0.003088 -9638.720000 0 0 1
-35.337190 -26.752123 21.688626 49.343588 0.648000 1.115707 0.019888 0.011815 -582615.000000 0 0 1
-35.375589 -27.878823 22.527626 50.360253 0.667431 1.107019 0.018663 0.016613 613517.000000 0 0 1
-34.273367 -28.792623 22.416326 50.061668 0.698711 1.106522 0.006786 0.017198 -31560.700000 0 0 1
-34.555602 -29.991623 21.458126 50.537494 0.714808 1.132278 0.017799 0.010276 -92809.700000 0 0 1
-34.785988 -29.622623 20.077326 49.906551 0.705403 1.156770 0.019811 0.002821 475502.000000 0 0 1
-35.093560 -30.715223 19.299926 50.472468 0.718965 1.178420 0.026287 0.001549 -324999.000000 0 0 1
-35.391254 -30.382123 17.823426 49.932843 0.709387 1.205798 0.038791 0.002842 21556.700000 0 0 1
-34.244183 -29.922023 17.097226 48.582988 0.718141 1.211177 0.057558 -0.011081 448262.000000 0 0 1
-34.531734 -29.225823 15.905726 47.953952 0.702369 1.232705 0.064868 -0.011224 88176.400000 0 0 1
-35.185835 -30.067823 14.735426 48.572109 0.707126 1.262567 0.051712 -0.013998 511309.000000 0 0 1
-34.205908 -30.998323 14.280026 48.320383 0.736245 1.270788 0.055852 -0.019719 200291.000000 0 0 1
-34.580226 -31.913123 13.223126 48.878324 0.745309 1.296851 0.055289 -0.020390 8159.300000 0 0 1
-34.876399 -31.391423 11.800026 48.384143 0.732857 1.324430 0.057257 -0.020843 695986.000000 0 0 1
-36.104835 -30.661723 11.742326 48.801462 0.704054 1.327798 0.051543 -0.021093 496883.000000 0 0 1
36.329420 -30.008123 10.501726 48.276293 -0.690395 1.351509 0.036449 -0.009975 450801.000000 0 0 1
35.396940 -28.758923 10.731226 46.852729 -0.682298 1.339703 0.066351 0.000927 431475.000000 0 0 1
35.382850 -27.805223 9.670026 46.028099 -0.666046 1.359130 0.080404 -0.033801 -333673.000000 0 0 1
34.270360 -26.979523 9.757626 44.694110 -0.666921 1.350704 0.078479 -0.026999 -324955.000000 0 0 1
34.090520 -25.920223 8.619026 43.684198 -0.650083 1.372190 0.061121 -0.023239 633101.000000 0 0 1
34.946600 -24.767923 8.880726 43.744510 -0.616565 1.366362 0.070546 -0.029334 643036.000000 0 0 1
35.174680 -24.034023 7.703426 43.292437 -0.599414 1.391904 0.070183 -0.030479 43870.800000 0 0 1
35.785680 -22.620123 7.929426 43.071576 -0.563689 1.385641 0.073405 -0.030403 195041.000000 0 0 1
34.800250 -21.759623 8.558326 41.925929 -0.558795 1.365222 0.076212 -0.031576 651334.000000 0 0 1
35.087390 -20.421023 8.198626 41.416912 -0.527083 1.371527 0.083577 -0.027984 329201.000000 0 0 1
34.265340 -19.398623 9.041626 40.400137 -0.515142 1.345083 0.099917 -0.021579 260545.000000 0 0 1
34.812310 -19.358523 10.335726 41.151872 -0.507501 1.316917 0.088560 -0.037045 910115.000000 0 0 1
33.897970 -18.667123 11.259126 40.302627 -0.503369 1.287664 0.082849 -0.021190 658714.000000 0 0 1
34.455020 -18.582723 12.662326 41.143657 -0.494617 1.257960 0.073642 -0.037757 -692220.000000 0 0 1
35.536680 -17.761323 12.908826 41.772694 -0.463490 1.256628 0.041212 -0.023261 -334412.000000 0 0 1
35.975820 -18.034023 14.240226 42.688050 -0.464673 1.230689 0.047032 -0.017050 -277542.000000 0 0 1
-35.433733 -17.276323 14.503526 42.004441 0.453652 1.218253 0.069730 -0.027071 751164.000000 0 0 1
-34.230736 -17.787223 13.867926 40.993268 0.479226 1.225689 0.073232 -0.027348 791970.000000 0 0 1
-33.150615 -17.017423 14.318226 39.919514 0.474260 1.203946 0.074419 -0.024887 -205937.000000 0 0 1
-31.846825 -17.158823 13.501226 38.612545 0.494198 1.213589 0.089796 -0.022061 157636.000000 0 0 1
-31.221505 -18.470823 13.611726 38.745746 0.534224 1.211828 0.075208 -0.023819 462239.000000 0 0 1
-30.022835 -18.351723 12.852426 37.461197 0.548657 1.220596 0.043151 -0.013988 -109441.000000 0 0 1
-29.440165 -19.764623 12.516326 37.603485 0.591237 1.231472 0.040925 -0.017441 -112354.000000 0 0 1
-29.995635 -20.593223 11.533026 38.168438 0.601636 1.263837 0.056116 -0.017284 -245267.000000 0 0 1
-29.040425 -21.524723 11.038826 37.795710 0.637844 1.274410 0.051705 -0.018172 -356032.000000 0 0 1
-29.581315 -22.323523 9.803126 38.333995 0.646470 1.312194 0.070122 -0.019503 100224.000000 0 0 1
-30.408165 -23.349623 10.244426 39.683872 0.654842 1.309689 0.076078 -0.024008 408943.000000 0 0 1
-31.777805 -22.987323 10.476426 40.595584 0.626243 1.309774 0.092230 -0.031156 -259389.000000 0 0 1
-32.705755 -24.179123 10.574226 42.025120 0.636613 1.316446 0.104876 -0.027823 -393011.000000 0 0 1
-32.708025 -24.931423 9.371926 42.180846 0.651290 1.346742 0.095043 -0.016100 513469.000000 0 0 1
-33.568685 -26.093423 9.583826 43.584092 0.660754 1.349092 0.090163 -0.012318 677390.000000 0 0 1
-33.646865 -27.111023 8.422726 44.023419 0.678238 1.378286 0.075762 -0.008721 719158.000000 0 0 1
-32.394345 -27.689323 8.030026 43.365580 0.707250 1.384551 0.073463 -0.005361 447837.000000 0 0 1
-32.578895 -28.403623 6.836826 43.759484 0.717038 1.413917 0.057523 0.003637 414606.000000 0 0 1
-31.212565 -28.649623 6.136026 42.809765 0.742610 1.426969 0.055442 0.009840 479427.000000 0 0 1
-30.827305 -27.497623 5.408126 41.661612 0.728372 1.440618 0.054987 0.015151 13828.400000 0 0 1
-29.696765 -27.737323 4.576426 40.892550 0.751295 1.458648 0.049078 0.007782 406047.000000 0 0 1
-29.217095 -26.425123 3.925926 39.589629 0.735263 1.471468 0.047945 0.005620 104052.000000 0 0 1
-29.683485 -26.186323 2.628226 39.670397 0.722885 1.504496 0.056120 0.000624 -223155.000000 0 0 1
-28.983795 -25.093923 2.113826 38.395750 0.713591 1.515715 0.067131 -0.011844 -190294.000000 0 0 1
-29.460065 -24.602123 0.771426 38.389517 0.695780 1.550700 0.070415 -0.009474 -288665.000000 0 0 1
-29.046615 -25.386023 -0.332774 38.578061 0.718249 1.579422 0.059062 -0.009575 -215486.000000 0 0 1
-29.174605 -24.759423 -1.557674 38.296384 0.703718 1.611482 0.062951 -0.012977 -305553.000000 0 0 1
-30.558605 -24.577623 -2.204074 39.277804 0.677344 1.626941 0.074801 -0.010157 -262545.000000 0 0 1
-31.209615 -23.462023 -1.640374 39.079374 0.644624 1.612784 0.056338 -0.005809 115604.000000 0 0 1
-32.507305 -23.321823 -2.216574 40.069259 0.622331 1.626143 0.056407 -0.011584 232622.000000 0 0 1
-33.257265 -22.056523 -1.855774 39.949716 0.585605 1.617266 0.056198 -0.012542 -323774.000000 0 0 1
-33.479895 -21.948923 -0.432274 40.035553 0.580292 1.581594 0.059265 -0.018788 452507.000000 0 0 1
-34.180659 -20.743923 -0.054374 39.982881 0.545471 1.572156 0.058405 -0.018584 -4290.280000 0 0 1
-34.331069 -20.560123 1.468026 40.043677 0.539594 1.534127 0.057304 -0.015651 -347231.000000 0 0 1
-35.146209 -21.521423 2.087426 41.264816 0.549444 1.520189 0.055464 -0.018815 114713.000000 0 0 1
-35.268482 -21.192423 3.441026 41.289530 0.541073 1.487361 0.056197 -0.014368 -594449.000000 0 0 1
36.291880 -21.953023 4.171926 42.619722 -0.544016 1.472752 0.072438 -0.010024 379119.000000 0 0 1
35.026750 -21.758123 3.597726 41.391216 -0.555852 1.483766 0.069756 -0.008867 -294417.000000 0 0 1
34.388930 -20.542523 3.893026 40.246110 -0.538475 1.473914 0.070790 -0.022433 -1043320.000000 0 0 1
33.191140 -20.200623 3.026026 38.972731 -0.546730 1.493073 0.061920 -0.014831 -293052.000000 0 0 1
32.123930 -21.099123 3.188526 38.565354 -0.581143 1.488023 0.062387 -0.007167 118031.000000 0 0 1
30.916750 -20.670323 2.554526 37.277785 -0.589326 1.502216 0.064633 -0.014097 1027630.000000 0 0 1
29.612000 -21.330023 3.084026 36.624468 -0.624232 1.486490 0.051827 -0.001501 152298.000000 0 0 1
29.300850 -22.551923 2.471126 37.057192 -0.655970 1.504063 0.036943 0.001801 -200278.000000 0 0 1
28.063790 -23.100823 2.865526 36.461426 -0.688701 1.492125 0.036482 -0.000337 -40519.500000 0 0 1
27.794520 -24.492523 2.080026 37.104522 -0.722331 1.514708 0.028344 -0.000199 46541.300000 0 0 1
27.566370 -24.275523 0.717526 36.738544 -0.722005 1.551264 0.020326 -0.000223 116546.000000 0 0 1
26.978270 -25.390023 0.069926 37.047067 -0.755079 1.568909 0.023003 -0.007797 -89728.700000 0 0 1
26.205070 -25.075723 -1.250974 36.291356 -0.763379 1.605273 0.027028 -0.016327 183900.000000 0 0 1
26.959070 -24.522223 -2.355474 36.519572 -0.738099 1.635340 0.019869 -0.021654 210492.000000 0 0 1
27.458170 -25.429623 -3.326474 37.572360 -0.747061 1.659448 0.027889 -0.023070 -600059.000000 0 0 1
26.424470 -25.965823 -4.325874 37.298656 -0.776644 1.687037 0.037693 -0.028557 116026.000000 0 0 1
25.891970 -25.020523 -5.295974 36.393241 -0.768283 1.716836 0.038912 -0.037343 -84050.200000 0 0 1
24.968370 -24.112523 -4.851174 35.048069 -0.767962 1.709657 0.037162 -0.036932 -1069430.000000 0 0 1
24.362170 -23.169623 -5.914274 34.136863 -0.760314 1.744927 0.044674 -0.038167 -39158.200000 0 0 1
23.478670 -23.807623 -6.822374 34.126172 -0.792355 1.772069 0.037466 -0.032926 929335.000000 0 0 1
22.364470 -23.066323 -7.357774 32.960000 -0.800846 1.795927 0.041920 -0.031790 545926.000000 0 0 1
22.690070 -21.716923 -8.135274 32.444517 -0.763487 1.824245 0.038662 -0.028325 -1037080.000000 0 0 1
23.225070 -21.832323 -9.383574 33.228085 -0.754498 1.857090 0.036183 -0.031832 -29271.500000 0 0 1
23.161170 -20.644723 -10.090374 32.626064 -0.728016 1.885225 0.034984 -0.027460 -242887.000000 0 0 1
23.801670 -20.535723 -11.507574 33.476255 -0.711870 1.921707 0.027504 -0.018894 492290.000000 0 0 1
25.214470 -20.356423 -11.421574 34.359945 -0.679195 1.909654 0.053658 -0.024320 391992.000000 0 0 1
25.677370 -19.965623 -12.714774 34.923043 -0.660906 1.943441 0.054428 -0.029855 -112258.000000 0 0 1
27.165670 -19.520323 -12.781674 35.810443 -0.623078 1.935771 0.046881 -0.020517 301998.000000 0 0 1
28.148130 -20.511823 -12.909874 37.144541 -0.629736 1.925762 0.039069 -0.022330 79584.100000 0 0 1
28.309690 -21.449723 -11.802274 37.427568 -0.648399 1.891607 0.061891 -0.028738 -733594.000000 0 0 1
28.231390 -22.881923 -12.295474 38.363687 -0.681119 1.897051 0.055227 -0.014459 388208.000000 0 0 1
29.294030 -23.178023 -13.230674 39.628420 -0.669364 1.911201 0.056683 -0.031589 994605.000000 0 0 1
29.282510 -24.571823 -13.609074 40.576431 -0.698149 1.912819 0.040281 -0.024589 -629866.000000 0 0 1
-3.325535 -8.501106 -27.759464 29.221838 1.197909 2.823892 0.012634 -0.003324 -378839.000000 0 0 1
-3.649735 -7.308106 -27.169774 28.371211 1.107621 2.849533 0.015962 -0.001966 -523075.000000 0 0 1
-4.747135 -6.654906 -27.734474 28.914082 0.951181 2.854966 0.011637 -0.002307 -293489.000000 0 0 1
-4.951035 -5.230806 -27.128394 28.068200 0.812869 2.882087 0.008433 -0.007611 -40708.600000 0 0 1
-5.301535 -5.338206 -25.764454 26.840451 0.788845 2.857482 0.008714 -0.003111 129011.000000 0 0 1
-4.995735 -4.183306 -25.039374 25.873300 0.697119 2.887011 0.016877 -0.008637 220295.000000 0 0 1
-5.680635 -4.186906 -23.641374 24.672137 0.635161 2.851515 0.021363 -0.011462 2387.410000 0 1 0
-4.995235 -5.148806 -22.845374 23.945223 0.800536 2.837330 0.017340 -0.010837 463672.000000 0 1 0
-5.412535 -5.167106 -21.497274 22.762410 0.762204 2.806622 0.018410 -0.004823 268527.000000 0 1 0
-4.629435 -6.267206 -20.656574 22.077219 0.934582 2.780896 0.017869 -0.008028 -83729.100000 0 1 0
-5.113635 -7.535406 -20.984674 22.875492 0.974568 2.732151 0.009268 -0.001238 317083.000000 0 1 0
-4.299135 -8.503106 -20.363674 22.482540 1.102682 2.703954 0.009016 -0.006312 -929271.000000 0 1 0
-5.002635 -9.894806 -20.387374 23.207296 1.102693 2.643488 0.007533 -0.002973 1198670.000000 0 1 0
-6.126135 -10.001706 -19.450374 22.713008 1.021230 2.598963 0.009070 -0.006118 790781.000000 0 1 0
-7.280135 -9.317906 -19.898774 23.147029 0.907559 2.605417 0.008103 -0.006392 -1318200.000000 0 1 0
-8.372135 -9.415906 -18.832774 22.658891 0.844009 2.551956 0.013103 -0.001608 -468491.000000 0 1 0
-8.861435 -10.765406 -18.694774 23.321955 0.882104 2.500755 0.010406 -0.007445 -449933.000000 0 1 0
-9.767935 -10.757806 -17.642374 22.855991 0.833587 2.452609 0.023526 -0.001387 -197073.000000 0 1 0
-10.684635 -12.033506 -17.649574 23.884601 0.844703 2.402310 0.020901 0.000419 627547.000000 0 1 0
-11.671735 -12.037506 -18.715274 25.127524 0.800824 2.411049 0.035651 -0.004748 533542.000000 0 0 1
-11.197735 -12.573106 -19.943374 26.100009 0.843193 2.440463 0.047367 -0.012306 -1569200.000000 0 0 1
-12.261235 -12.679706 -21.015974 27.436910 0.802175 2.443352 0.052921 -0.020636 21159.900000 0 0 1
-13.308335 -13.627406 -20.857174 28.246056 0.797243 2.401506 0.044517 -0.008225 324946.000000 0 0 1
-14.168635 -13.420006 -19.738774 27.757269 0.758269 2.361888 0.033839 0.000249 -1145440.000000 0 0 1
-15.507435 -14.167806 -19.782474 28.854004 0.740286 2.326232 0.031128 0.001543 -9636.070000 0 0 1
-15.369235 -15.566606 -19.841074 29.533047 0.791778 2.307468 0.036329 0.000657 -575802.000000 0 0 1
-16.097935 -16.103206 -20.881574 30.894933 0.785562 2.312968 0.040904 0.003842 -206950.000000 0 0 1
-15.647335 -17.484506 -21.284574 31.679333 0.840792 2.307535 0.023443 0.009104 -60404.400000 0 0 1
-15.865235 -18.492506 -20.279074 31.700463 0.861718 2.264916 0.019665 0.009628 94310.300000 0 0 1
-15.420135 -19.741006 -20.821774 32.573520 0.907673 2.264285 0.011171 0.006376 -325833.000000 0 0 1
-16.038735 -20.951206 -20.212874 33.237845 0.917431 2.224497 0.020380 -0.000332 -309304.000000 0 0 1
-15.543935 -22.131006 -20.731274 34.076107 0.958488 2.224816 0.019407 -0.000410 -146420.000000 0 0 1
-16.409735 -23.139306 -20.297874 34.881379 0.953942 2.191873 0.047721 -0.003699 92862.100000 0 0 1
-15.942035 -24.541806 -20.725674 35.860874 0.994712 2.187007 0.059770 -0.010665 -105122.000000 0 0 1
-16.074035 -24.918706 -22.028974 36.940388 0.997902 2.209728 0.040677 -0.007428 -59877.400000 0 0 1
-15.554535 -26.208896 -22.040474 37.611598 1.035182 2.196912 0.047926 -0.007010 -260484.000000 0 0 1
-15.739935 -26.955726 -23.377274 38.998124 1.042286 2.213605 0.048508 -0.007383 9375.790000 0 0 1
-17.038135 -27.421136 -23.685574 40.040270 1.014826 2.203769 0.062933 -0.012517 -276074.000000 0 0 1
-17.095135 -28.838906 -23.732074 41.074780 1.035702 2.186799 0.068486 -0.007962 -79289.400000 0 0 1
-18.115435 -29.515456 -24.689174 42.531006 1.020320 2.190137 0.078996 -0.018695 -138991.000000 0 0 1
-17.982535 -29.443486 -26.116994 43.271097 1.022512 2.218763 0.060196 -0.010316 -75571.400000 0 0 1
-17.935535 -28.089126 -26.631764 42.660676 1.002532 2.244993 0.071714 -0.015158 -56296.500000 0 0 1
-16.753735 -27.827986 -27.584314 42.614303 1.028874 2.274836 0.078996 -0.013570 -667060.000000 0 0 1
-16.905635 -28.401196 -28.901754 43.906034 1.033881 2.289306 0.071315 -0.000837 860194.000000 0 0 1
-15.779535 -28.161576 -29.781574 43.920499 1.060063 2.315942 0.045859 -0.001736 695764.000000 0 0 1
-16.185935 -28.391026 -31.273664 45.233582 1.052647 2.334196 0.045572 -0.005276 7698.340000 0 0 1
-16.435735 -29.706786 -31.686934 46.440159 1.065450 2.321724 0.037823 -0.009930 143337.000000 0 0 1
-16.855735 -29.843606 -33.019974 47.592808 1.056660 2.337551 0.036042 -0.010883 -137396.000000 0 0 1
-16.718935 -31.283236 -33.612004 48.866456 1.079980 2.329297 0.030181 -0.010327 288373.000000 0 0 1
-15.401135 -31.524726 -34.088560 48.918639 1.116358 2.341781 0.041710 -0.010923 186287.000000 0 0 1
-15.490035 -32.648516 33.503743 49.278470 1.127798 0.823189 0.036315 -0.010388 -250998.000000 0 0 1
-14.177935 -33.043006 32.829535 48.689142 1.165479 0.830823 0.034744 -0.012738 -261002.000000 0 0 1
-13.342835 -33.816146 33.656150 49.540887 1.194980 0.823905 0.038724 -0.006906 -439038.000000 0 0 1
-12.176935 34.142472 33.034505 49.043498 -1.228209 0.831760 0.047555 -0.009776 -33790.900000 0 0 1
-11.278635 33.296339 33.992313 48.901239 -1.244192 0.802207 0.041460 -0.009562 202579.000000 0 0 1
-10.613635 34.079876 -33.449454 48.917820 -1.268883 2.323739 0.039156 -0.004262 -459005.000000 0 0 1
-9.870135 33.279749 -32.612494 47.629151 -1.282479 2.325012 0.042643 -0.008643 -260258.000000 0 0 1
-9.090635 34.042959 -31.526074 47.280609 -1.309851 2.300685 0.029293 -0.003458 -329937.000000 0 0 1
-9.890035 -33.693746 -30.606514 46.581542 1.285288 2.287698 0.036717 -0.004342 -357926.000000 0 0 1
-9.294735 -32.491746 -30.164664 45.299146 1.292173 2.299495 0.040229 -0.004841 -111662.000000 0 0 1
-10.122535 -31.723476 -29.062834 44.198337 1.261922 2.288365 0.042533 -0.000943 330561.000000 0 0 1
-10.085735 -32.262416 -27.749494 43.733511 1.267806 2.258175 0.072946 -0.012026 -55096.700000 0 0 1
-10.481935 -33.605756 -27.563044 44.709498 1.268450 2.235076 0.076607 -0.017809 -261079.000000 0 0 1
-10.875835 -33.910916 -26.136654 44.174186 1.260442 2.203928 0.075254 -0.021329 438026.000000 0 0 1
-9.834635 -33.771056 -25.164104 43.248543 1.287419 2.191796 0.088185 -0.034278 -19004.700000 0 0 1
-10.262535 34.156612 -23.927674 42.947961 -1.278922 2.161724 0.091446 -0.040757 627044.000000 0 0 1
-9.123735 34.104692 -22.840874 42.048520 -1.309396 2.145043 0.115467 -0.039355 1086230.000000 0 0 1
-8.140835 33.077708 -23.073174 41.143399 -1.329480 2.166147 0.099588 -0.040796 379326.000000 0 0 1
-7.369135 32.899798 -21.884574 40.194967 -1.350446 2.146542 0.113957 -0.040378 -26725.600000 0 0 1
-6.483235 31.659501 -21.890474 39.032668 -1.368809 2.166178 0.108175 -0.044207 -73049.000000 0 0 1
-5.356135 31.694331 -22.751274 39.380696 -1.403385 2.186737 0.079096 -0.044366 161904.000000 0 0 1
-4.571235 30.553411 -22.462174 38.196287 -1.422283 2.199470 0.063878 -0.030686 -382971.000000 0 0 1
-3.243335 30.435881 -23.213774 38.415379 -1.464634 2.219662 0.061984 -0.042271 -487190.000000 0 0 1
-3.259435 30.736381 -24.617274 39.514038 -1.465146 2.243369 0.072183 -0.039984 302179.000000 0 0 1
-2.260735 31.711521 -24.962274 40.420868 -1.499626 2.236432 0.054615 -0.040888 406783.000000 0 0 1
-2.203635 31.938021 -26.486194 41.550110 -1.501908 2.261983 0.066404 -0.029668 -46474.100000 0 0 1
-1.252535 32.946063 -26.795224 42.485243 -1.532797 2.253245 0.067827 -0.035825 -274213.000000 0 0 1
-1.714635 -34.175971 -26.545214 43.308029 1.520668 2.230572 0.060835 -0.028565 426307.000000 0 0 1
-0.589835 -33.174706 -27.026834 42.794378 1.553019 2.254348 0.024109 -0.011558 872091.000000 0 0 1
0.484565 -33.093406 -26.107874 42.154827 -1.556155 2.238689 0.039576 -0.019681 -396021.000000 0 0 1
1.468165 -32.250676 -26.654974 41.865849 -1.525304 2.260976 0.027760 -0.005824 -8950.520000 0 0 1
2.638865 -31.844766 -25.727694 41.023981 -1.488119 2.248670 0.019859 -0.009601 -372960.000000 0 0 1
2.308465 -31.162756 -24.535274 39.729411 -1.496854 2.236432 0.016862 -0.006363 -194830.000000 0 0 1
3.407965 -30.428906 -24.064274 38.943829 -1.459264 2.236894 0.008251 0.001731 -405706.000000 0 0 1
3.315465 -29.782906 -22.685574 37.585224 -1.459932 2.218776 0.021049 -0.000408 -198992.000000 0 0 1
3.331065 -30.720746 -21.601574 37.702629 -1.462788 2.180892 0.033007 -0.002744 415839.000000 0 0 1
3.257265 -29.980886 -20.395474 36.406575 -1.462576 2.165440 0.048743 -0.006549 -364605.000000 0 0 1
3.218965 -30.901516 -19.125174 36.483390 -1.467002 2.122590 0.057112 -0.008399 276404.000000 0 0 1
2.042465 -31.720056 -19.043274 37.053744 -1.506495 2.110564 0.066639 -0.011989 551086.000000 0 0 1
2.227665 -33.053996 -19.453774 38.418465 -1.503503 2.101761 0.045970 -0.005345 -283438.000000 0 0 1
2.906565 -34.047683 -18.459274 38.838610 -1.485635 2.066080 0.039606 -0.018647 948547.000000 0 0 1
4.267665 34.037291 -18.775674 39.105959 1.446065 2.071591 0.049188 -0.010728 528441.000000 0 0 1
4.667865 33.023039 -17.839774 37.822844 1.430375 2.061976 0.057589 -0.030207 647384.000000 0 0 1
5.990965 32.336641 -18.313374 37.642126 1.387605 2.078890 0.054192 -0.019122 38028.300000 0 0 1
7.179465 33.057635 -18.170474 38.399454 1.356937 2.063712 0.087319 -0.025841 -874376.000000 0 0 1
8.119165 32.296811 -18.915274 38.298726 1.324508 2.087352 0.054392 -0.038048 -501106.000000 0 0 1
9.400065 33.127398 -19.055174 39.355881 1.294309 2.076218 0.025828 -0.034064 -625207.000000 0 0 1
10.187865 33.279574 -17.901274 39.137938 1.273726 2.045854 0.015598 -0.026190 -800514.000000 0 0 1
11.332065 33.953500 -18.324274 40.212372 1.248669 2.043941 0.014113 -0.013456 -95612.200000 0 0 1
12.390665 34.064905 -17.165974 40.107567 1.221936 2.013073 -0.008054 -0.009551 55734.700000 0 0 1
13.078765 32.856724 -16.800874 39.152110 1.191968 2.014312 -0.007852 -0.010656 -36634.100000 0 0 1
13.785065 33.069442 -15.608074 39.079764 1.175847 1.981648 -0.010593 -0.010787 239636.000000 0 0 1
14.820665 31.980081 -15.169574 38.373085 1.136827 1.977210 0.006565 -0.001289 240322.000000 0 0 1
14.282665 30.809451 -14.650374 36.984459 1.136706 1.978086 0.026127 -0.014808 -232561.000000 0 0 1
15.275565 29.793621 -14.540874 36.502599 1.097030 1.980515 0.027591 -0.003628 154697.000000 0 0 1
14.851765 28.512491 -13.790674 34.981705 1.090580 1.976021 0.031967 -0.017535 -210789.000000 0 0 1
14.976965 28.732251 -12.354474 34.676861 1.090286 1.935074 0.041475 -0.025010 1124830.000000 0 0 1
13.683765 28.629721 -11.682274 33.813930 1.124938 1.923554 0.063847 -0.025430 1286250.000000 0 0 1
13.085565 27.221121 -11.481974 32.311873 1.122696 1.934083 0.056210 -0.026636 -701482.000000 0 0 1
12.288765 26.858331 -12.593974 32.109062 1.141690 1.973845 0.029970 -0.020158 182501.000000 0 0 1
11.606465 25.590421 -12.537874 30.769757 1.144996 1.990483 0.043343 -0.023338 362721.000000 0 0 1
10.549865 25.414631 -11.432074 29.797574 1.177332 1.964550 0.039217 -0.019269 -729278.000000 0 0 1
9.507065 26.366761 -11.482774 30.289345 1.224736 1.959623 0.037456 -0.018954 66556.200000 0 0 1
9.012165 26.571351 -10.157474 29.840075 1.243803 1.918135 0.023243 -0.008450 420667.000000 0 0 1
8.043865 27.816481 -10.138974 30.679947 1.289299 1.907604 0.039220 -0.009033 435260.000000 0 0 1
8.721365 29.029201 -10.445974 32.060491 1.278941 1.902676 0.044763 -0.018943 367775.000000 0 0 1
7.772165 30.084661 -10.594874 32.829022 1.317981 1.899408 0.026558 -0.009939 329154.000000 0 0 1
8.472265 31.420081 -10.900374 34.319366 1.307415 1.894010 0.047641 -0.020534 -537076.000000 0 0 1
9.165665 31.981281 -9.814674 34.686302 1.291683 1.857670 0.044044 -0.020425 -117122.000000 0 0 1
9.827465 33.219040 -10.169174 36.103957 1.283162 1.856324 0.047004 -0.019096 788329.000000 0 0 1
10.841765 33.260157 -11.392074 36.790776 1.255689 1.885616 0.042012 -0.023080 -805793.000000 0 0 1
12.122465 32.889652 -10.986274 36.733929 1.217666 1.874522 0.045582 -0.013498 -1215600.000000 0 0 1
13.006065 33.230526 -11.990974 37.645836 1.197735 1.894965 0.047945 -0.014442 -545991.000000 0 0 1
14.502165 33.138463 -11.658174 38.005046 1.158282 1.882576 0.049780 -0.013247 -3134.220000 0 0 1
14.874665 33.938384 -10.526774 38.521195 1.157728 1.847589 0.053227 -0.015194 -205984.000000 0 0 1
16.219365 -34.061037 -10.559574 39.175588 -1.126381 1.843717 0.055119 -0.022576 -173453.000000 0 0 1
16.592365 -33.254426 -9.310474 38.312509 -1.107987 1.816268 0.060303 -0.025408 -157126.000000 0 0 1
16.594165 -33.976476 -8.135874 38.677638 -1.116470 1.782730 0.056120 -0.023663 32180.100000 0 0 1
16.990265 -33.163676 -7.080174 37.929242 -1.097345 1.758566 0.052109 -0.025008 -786979.000000 0 0 1
17.395565 -33.999896 -5.838474 38.635300 -1.097883 1.722495 0.065664 -0.025595 1337530.000000 0 0 1
18.539665 33.507577 -5.939374 38.752458 1.065425 1.724667 0.062261 -0.027414 871899.000000 0 0 1
19.798365 34.092285 -6.182474 39.905915 1.044668 1.726349 0.074367 -0.024565 -883367.000000 0 0 1
20.743765 33.186955 -7.006174 39.758825 1.012155 1.747938 0.051748 -0.017014 158709.000000 0 0 1
21.008065 31.904521 -6.413074 38.734542 0.988492 1.737127 0.050480 -0.006398 -327961.000000 0 0 1
21.882665 32.021491 -5.332574 39.149243 0.971316 1.707433 0.045172 -0.002697 -838413.000000 0 0 1
22.294965 30.637931 -4.712674 38.183210 0.941726 1.694535 0.029538 0.000121 -412802.000000 0 0 1
23.063365 29.898931 -5.567274 38.168827 0.913753 1.717178 0.029402 0.002365 -370490.000000 0 0 1
23.445465 28.626351 -5.006274 37.339263 0.884567 1.705277 0.030932 0.005423 -65429.100000 0 0 1
24.326565 27.780011 -5.954274 37.402729 0.851578 1.730670 0.026343 0.011471 1243650.000000 0 0 1
25.710965 28.238321 -5.988574 38.656428 0.832211 1.726341 0.040835 0.009933 1234120.000000 0 0 1
26.562265 27.472721 -6.813074 38.816520 0.802246 1.747230 0.028818 0.008419 -51448.100000 0 0 1
27.370765 26.457051 -6.008174 38.538713 0.768425 1.727335 0.034617 0.010741 -287562.000000 0 0 1
28.345065 27.008281 -5.126974 39.486400 0.761253 1.701005 0.037516 0.007831 128568.000000 0 0 1
29.063365 26.044361 -4.415974 39.274530 0.730669 1.683473 0.037944 0.008092 377001.000000 0 0 1
30.408065 26.575881 -3.816274 40.564661 0.718249 1.665014 0.047834 0.006946 459782.000000 0 0 1
30.291565 27.606981 -2.804474 41.080279 0.739064 1.639118 0.066663 -0.007670 462126.000000 0 0 1
31.552665 27.635531 -2.130374 41.997996 0.719314 1.621544 0.088493 -0.024828 400097.000000 0 0 1
31.568565 28.662891 -0.975074 42.650748 0.737194 1.593660 0.077559 -0.017356 175.747000 0 0 1
31.612665 29.994581 -1.458974 43.602340 0.759140 1.604263 0.046602 0.000568 -194106.000000 0 0 1
30.549565 30.805261 -1.015574 43.396675 0.789566 1.594201 0.064618 -0.008582 67473.100000 0 0 1
33.430750 23.110494 19.319961 44.999676 0.604859 1.127039 0.109705 -0.034886 240152.000000 0 0 1
33.643400 22.828994 20.679261 45.614396 0.596190 1.100277 0.080046 -0.036589 -195625.000000 0 0 1
34.500420 23.697794 21.351361 46.986647 0.601869 1.099083 0.070797 -0.031805 -224795.000000 0 0 1
34.193550 23.834394 22.869561 47.542549 0.608739 1.068963 0.049401 -0.013922 461431.000000 0 0 1
33.030670 24.530794 23.331561 47.298485 0.638792 1.054936 0.028107 -0.002873 580286.000000 0 0 1
33.017970 24.452894 24.707311 47.943525 0.637454 1.029390 0.016716 0.003017 -732180.000000 0 0 1
31.764420 24.999694 25.333681 47.704910 0.666785 1.010957 0.023611 -0.005652 -762348.000000 0 0 1
31.753130 26.399294 25.154831 48.352347 0.693591 1.023664 0.018556 -0.013793 754295.000000 0 0 1
30.452700 26.908494 25.448821 47.948686 0.723689 1.011310 0.019962 -0.017231 416902.000000 0 0 1
30.331460 28.472594 25.508291 48.799170 0.753797 1.020758 0.022746 -0.012756 -131574.000000 0 0 1
30.513710 29.096194 24.256041 48.641860 0.761623 1.048737 0.031981 -0.022752 208536.000000 0 0 1
30.161680 30.451294 24.325381 49.282171 0.790176 1.054579 0.045007 -0.022059 -138546.000000 0 0 1
30.528680 31.305794 23.034961 49.423298 0.797965 1.085947 0.045320 -0.016336 869820.000000 0 0 1
31.917880 31.660694 22.959561 50.480610 0.781353 1.098627 0.023105 -0.021755 473046.000000 0 0 1
32.208070 32.125694 21.653861 50.381640 0.784118 1.126529 0.028638 -0.010296 -380633.000000 0 0 1
33.714930 32.294794 21.483561 51.392544 0.763887 1.139522 0.016380 -0.023989 -385804.000000 0 0 1
34.215160 33.183194 22.483561 52.700209 0.770088 1.130031 0.027572 -0.002219 61998.900000 0 0 1
35.563890 33.570294 22.319661 53.757996 0.756570 1.142647 0.022456 -0.000745 53741.400000 0 0 1
35.854410 -33.579323 23.195261 54.324302 -0.752644 1.129649 0.021789 0.005388 -55947.900000 0 0 1
35.158180 -32.394223 22.809461 52.969376 -0.744505 1.125621 0.015095 0.009114 385472.000000 0 0 1
35.319670 -31.403623 23.838711 52.933456 -0.726775 1.103636 0.021804 0.007700 -1053970.000000 0 0 1
34.476410 -30.154223 23.524421 51.490760 -0.718622 1.096327 0.019402 0.002146 -880073.000000 0 0 1
33.113460 -30.211523 23.732611 50.719564 -0.739604 1.083863 0.023674 0.005316 -573923.000000 0 0 1
32.359600 -30.884723 22.743361 50.182371 -0.762082 1.100429 0.030642 0.006014 -322864.000000 0 0 1
31.723940 -32.310623 23.124261 50.844038 -0.794560 1.098640 0.023974 0.005234 -326776.000000 0 0 1
30.677190 -32.259623 24.034301 50.590720 -0.810536 1.075749 0.051999 -0.000928 -388607.000000 0 0 1
30.053170 -33.507123 24.111151 51.061413 -0.839686 1.079013 0.045995 -0.003928 -145340.000000 0 0 1
29.003830 -33.609823 25.242251 51.068715 -0.858828 1.053790 0.044186 -0.004507 -19640.900000 0 0 1
28.651580 33.460994 25.437671 50.868716 0.862675 1.047122 0.056807 -0.014116 130265.000000 0 0 1
27.795560 33.274194 26.555231 50.842358 0.874870 1.021244 0.051328 -0.003739 -855942.000000 0 0 1
27.410470 31.733594 26.648901 49.684190 0.858363 1.004671 0.054187 -0.011816 660044.000000 0 0 1
26.586970 31.357694 25.507991 48.382120 0.867545 1.015471 0.067313 -0.015134 437279.000000 0 0 1
25.264070 31.869894 25.585291 48.047585 0.900507 1.009246 0.062307 -0.010665 -623721.000000 0 0 1
24.611570 31.610794 24.162971 46.784835 0.909253 1.028073 0.106295 -0.027002 -252312.000000 0 0 1
24.954370 32.346994 23.022061 46.894177 0.913703 1.057632 0.125143 -0.033339 805513.000000 0 0 1
26.304070 32.104694 22.574061 47.246203 0.884384 1.072652 0.097886 -0.028874 656174.000000 0 0 1
26.609770 33.179194 21.479661 47.647818 0.894836 1.103134 0.107953 -0.031405 71331.000000 0 0 1
27.918960 33.314994 20.957361 48.255239 0.873293 1.121533 0.104413 -0.031242 191229.000000 0 0 1
27.938960 33.893394 19.638161 48.114499 0.881402 1.150364 0.087212 -0.029559 78884.000000 0 0 1
29.369970 -34.155523 19.150461 48.948290 -0.860589 1.168819 0.090115 -0.032090 755469.000000 0 0 1
30.177260 33.097994 18.844961 48.592970 0.831525 1.172539 0.094700 -0.039651 376693.000000 0 0 1
31.367590 33.496994 18.196261 49.366772 0.818215 1.193301 0.075409 -0.030208 -132836.000000 0 0 1
32.128240 32.387594 17.428161 48.835651 0.789418 1.205877 0.052631 -0.037472 -31208.300000 0 0 1
32.957970 31.540794 18.227661 49.125320 0.763430 1.190663 0.038152 -0.024915 194267.000000 0 0 1
33.941550 31.000894 17.361961 49.137785 0.740148 1.209666 0.050699 -0.038131 130301.000000 0 0 1
35.044590 30.203594 18.128561 49.689285 0.711340 1.197337 0.042564 -0.034407 579187.000000 0 0 1
35.889930 31.117894 18.862661 51.109787 0.714302 1.192797 0.054003 -0.032542 629651.000000 0 0 1
-35.852229 30.500894 19.693661 51.024770 -0.704923 1.174545 0.057432 -0.033291 255935.000000 0 0 1
-34.850236 31.436094 20.365561 51.161734 -0.733938 1.161393 0.058057 -0.026898 112475.000000 0 0 1
-33.811175 31.883894 19.484461 50.392683 -0.756070 1.173797 0.055204 -0.026564 1158900.000000 0 0 1
-32.640385 32.515194 20.025061 50.235801 -0.783477 1.160783 0.053650 -0.008488 821251.000000 0 0 1
-32.884725 33.843494 20.780261 51.561677 -0.799765 1.155985 0.039574 -0.003116 -484860.000000 0 0 1
-32.973325 33.556394 22.136061 51.993047 -0.794162 1.131005 0.054858 0.005035 274428.000000 0 0 1
-32.829765 -33.669423 22.867261 52.290871 0.798024 1.118192 0.050446 0.011385 -61234.400000 0 0 1
-32.826835 -33.986023 24.382791 53.171152 0.802746 1.094409 0.050669 -0.000270 -814822.000000 0 0 1
-34.091655 34.031994 24.774281 54.168096 -0.784522 1.095773 0.046225 -0.004574 -870646.000000 0 0 1
-34.214402 33.981694 26.186761 54.873740 -0.781986 1.073310 0.059084 -0.003725 941829.000000 0 0 1
-35.629000 33.667394 26.812591 55.873376 -0.757098 1.070277 0.045297 -0.016486 937357.000000 0 0 1
-35.534192 32.939294 28.039051 55.980928 -0.747520 1.046195 0.069366 -0.022247 -336291.000000 0 0 1
35.930250 32.875294 28.653271 56.504670 0.741027 1.038985 0.068264 -0.027417 -363193.000000 0 0 1
35.984130 31.855394 29.855241 56.577019 0.724613 1.014915 0.065682 -0.020011 -165078.000000 0 0 1
35.831340 30.464694 29.590251 55.565866 0.704625 1.009215 0.053440 -0.019170 -62013.400000 0 0 1
-35.929696 29.843094 28.783141 54.863672 -0.693121 1.018516 0.050040 -0.016166 -446482.000000 0 0 1
-36.333635 28.376894 28.411851 54.153619 -0.663053 1.018489 0.057053 -0.017679 272781.000000 0 0 1
35.295460 28.283594 27.463171 52.914619 0.675556 1.025105 0.039993 -0.008503 813524.000000 0 0 1
34.995080 26.977394 26.952041 51.757588 0.656738 1.023083 0.051111 -0.012852 69222.700000 0 0 1
34.646800 25.872994 27.996731 51.513391 0.641427 0.996214 0.037977 -0.016424 -241351.000000 0 0 1
35.787940 25.464294 28.752561 52.496825 0.618424 0.991182 0.040137 -0.014936 339618.000000 0 0 1
35.683140 24.074994 29.249311 52.042425 0.593535 0.973960 0.044280 -0.010713 -65484.200000 0 0 1
36.043300 23.014794 28.200371 51.225590 0.568271 0.987817 0.023527 0.004570 -609100.000000 0 0 1
34.999690 22.817594 27.320501 49.920243 0.577736 0.991682 0.027962 0.001612 -411589.000000 0 0 1
35.426080 21.889094 26.362421 49.286071 0.553463 1.006424 0.032874 -0.001336 -308709.000000 0 0 1
35.046710 20.441394 26.502771 48.461524 0.528021 0.992160 0.026801 0.006980 -1030780.000000 0 0 1
33.675440 20.202494 26.360701 47.297596 0.540359 0.979621 0.021167 0.016522 -159582.000000 0 0 1
33.269660 19.017494 27.047261 46.905113 0.519288 0.956189 0.034508 0.021256 -316458.000000 0 0 1
33.274430 19.033194 28.624881 47.841760 0.519582 0.929388 0.025013 0.010317 -447413.000000 0 0 1
32.339030 19.872994 29.260321 47.926142 0.551028 0.914067 0.027116 0.004573 77487.000000 0 0 1
32.485430 21.250494 28.977141 48.441318 0.579290 0.929555 0.019705 0.004190 -1139410.000000 0 0 1
31.498530 22.127194 29.700441 48.619814 0.612391 0.913636 0.029598 -0.006159 -1408090.000000 0 0 1
30.178650 21.964994 29.328361 47.469618 0.629162 0.904811 0.040283 -0.012531 -851117.000000 0 0 1
29.652950 22.836794 28.336991 46.944666 0.656264 0.922756 0.029193 -0.012044 -151038.000000 0 0 1
29.633530 24.404994 28.527791 47.828701 0.688943 0.931716 0.033586 -0.010309 -341741.000000 0 0 1
30.925510 24.934794 28.776461 49.053194 0.678562 0.943895 0.033581 -0.012792 -84401.400000 0 0 1
30.962880 26.166194 29.405061 50.080208 0.701632 0.943251 0.030488 -0.012748 -153851.000000 0 0 1
31.344150 26.051594 30.892941 51.142107 0.693447 0.922210 0.032675 -0.019079 -231769.000000 0 0 1
32.608950 25.471294 31.074631 51.747107 0.663118 0.926658 0.013790 -0.012812 -304155.000000 0 0 1
32.987410 25.204094 32.443120 52.687490 0.652434 0.907440 0.037407 -0.012952 150799.000000 0 0 1
32.251520 24.040094 33.144746 52.121597 0.640547 0.881607 0.036679 -0.012190 -65728.000000 0 0 1
32.602640 24.072894 -33.910064 52.842490 0.636018 2.267535 0.050934 -0.025688 143029.000000 0 0 1
32.197780 22.943994 -33.197524 51.625570 0.619129 2.269263 0.047825 -0.026872 -89612.700000 0 0 1
32.826280 22.867294 -31.763154 51.082049 0.608451 2.241844 0.058974 -0.035554 149354.000000 0 0 1
32.060410 23.632894 -30.815594 50.358558 0.635217 2.229287 0.044999 -0.031005 545728.000000 0 0 1
32.514580 23.420094 -29.472484 49.742597 0.624217 2.204955 0.083963 -0.037481 284545.000000 0 0 1
33.947820 23.887394 -29.083664 50.684529 0.613172 2.181956 0.079222 -0.012602 287117.000000 0 0 1
34.446260 23.160894 -27.995634 50.067228 0.591946 2.164170 0.082031 -0.021637 -615773.000000 0 0 1
35.616280 23.742494 -27.501744 50.878004 0.587970 2.141879 0.090556 -0.019454 -56598.000000 0 0 1
-36.241475 22.847894 -26.554284 50.404373 -0.562498 2.125657 0.079469 -0.018096 551724.000000 0 0 1
-35.455798 21.810494 -27.224184 49.738993 -0.551482 2.149980 0.070519 -0.013177 440090.000000 0 0 1
-35.430112 20.618394 -26.480394 48.801868 -0.527038 2.144338 0.042439 -0.007547 -407052.000000 0 0 1
-34.261810 19.662694 -26.849344 47.763798 -0.521004 2.167752 0.042633 0.001620 90027.100000 0 0 1
-33.080895 20.110594 -26.204534 46.748895 -0.546224 2.165832 0.050269 -0.005836 -391378.000000 0 0 1
-32.018895 19.196394 -26.366694 45.704636 -0.540076 2.185716 0.001805 0.000728 212883.000000 0 0 1
-30.756915 19.521594 -25.535634 44.487628 -0.565548 2.182171 -0.007647 -0.001725 -66405.000000 0 0 1
-30.927575 19.564694 -24.152974 43.848128 -0.564044 2.154158 -0.004755 0.002016 242547.000000 0 0 1
-29.709565 19.749294 -23.434874 42.683559 -0.586671 2.152009 -0.011200 0.006160 306479.000000 0 0 1
-29.921115 20.144594 -21.981374 42.240485 -0.592551 2.118100 -0.022764 0.007830 -102325.000000 0 0 1
-30.593175 19.164394 -21.242074 41.886061 -0.559625 2.102659 -0.017001 0.012148 -17368.800000 0 0 1
-31.422775 19.751194 -20.259874 42.284311 -0.561157 2.070465 -0.006649 0.012959 -719754.000000 0 0 1
-32.219315 18.596294 -19.536274 42.018715 -0.523470 2.054366 -0.005782 0.008137 423137.000000 0 0 1
-33.067735 18.866594 -18.413974 42.290636 -0.518479 2.021295 -0.000568 -0.003945 497465.000000 0 0 1
-34.161020 19.687094 -18.826674 43.692112 -0.522813 2.016280 0.014669 -0.003998 -539825.000000 0 0 1
-35.195746 19.813694 -17.650874 44.078071 -0.512737 1.982800 0.028981 -0.018058 124693.000000 0 0 1
-34.814273 20.584594 -16.486874 43.675807 -0.533975 1.957873 0.026684 -0.021857 -696115.000000 0 0 1
-35.814437 20.486194 -15.566074 44.098307 -0.519584 1.931557 0.032488 -0.013948 -1609230.000000 0 0 1
-35.610563 21.307194 -14.232774 43.871182 -0.539197 1.901197 0.019094 -0.006046 -101433.000000 0 0 1
-35.898591 22.737094 -14.388774 44.863360 -0.564596 1.897291 0.021665 -0.011751 465887.000000 0 0 1
35.436450 22.993794 -14.529174 44.671617 0.575583 1.902066 0.041142 -0.005425 -29126.000000 0 0 1
34.999220 24.419594 -14.876774 45.194915 0.609193 1.906220 0.034471 -0.007678 -217920.000000 0 0 1
35.237780 25.359994 -13.855974 45.572123 0.623814 1.879732 0.030992 -0.001415 -104964.000000 0 0 1
35.094350 26.728294 -14.139374 46.324259 0.650892 1.880972 0.013464 0.010325 -214584.000000 0 0 1
36.273080 27.447594 -14.834074 47.845130 0.647771 1.886035 0.042853 0.011040 60434.100000 0 0 1
-36.153925 26.869494 -16.107974 47.838717 -0.639133 1.914221 0.047705 0.004478 -105892.000000 0 0 1
-35.032250 27.566094 -16.594474 47.566002 -0.666688 1.927164 0.066889 -0.000502 -701976.000000 0 0 1
-34.743012 27.355194 -18.092174 47.777717 -0.666985 1.959159 0.055074 -0.004740 14938.500000 0 0 1
-34.053818 26.134394 -18.390074 46.699721 -0.654572 1.975552 0.052964 -0.008732 1682470.000000 0 0 1
-32.611435 26.234994 -18.211374 45.644657 -0.677462 1.981202 0.037283 -0.001174 1162480.000000 0 0 1
-31.837535 25.000194 -18.671674 44.578804 -0.665678 2.002971 0.030536 -0.002167 -376488.000000 0 0 1
-31.812695 24.902194 -20.089274 45.119239 -0.664150 2.032248 0.025199 0.001698 63316.800000 0 0 1
-31.013755 23.845094 -20.545074 44.187573 -0.655460 2.054376 0.010517 0.010425 -241905.000000 0 0 1
-30.919965 23.711994 -22.051374 44.772380 -0.654219 2.085781 0.010896 0.006454 -130728.000000 0 0 1
-32.116325 23.386694 -22.762874 45.788036 -0.629394 2.091091 0.041839 -0.000468 243081.000000 0 0 1
-32.035535 23.153694 -24.153474 46.322342 -0.625832 2.119313 0.035921 -0.005208 -43839.100000 0 0 1
-33.026095 24.042294 -24.989074 47.887458 -0.629258 2.119790 0.021171 -0.000935 58958.200000 0 0 1
-32.757065 25.383694 -25.046074 48.421721 -0.659252 2.114429 0.004131 0.007721 -424652.000000 0 0 1
-33.613015 25.963794 -25.968334 49.782605 -0.657704 2.119562 0.021289 0.002500 -314723.000000 0 0 1
-33.150335 27.361494 -26.339724 50.412073 -0.690024 2.120563 0.001703 0.012403 -151886.000000 0 0 1
-31.990035 27.414194 -27.123094 50.105515 -0.708521 2.142802 -0.011362 0.007824 -615997.000000 0 0 1
-31.729675 28.735394 -27.416124 50.834427 -0.735918 2.140428 -0.000830 0.003121 -410916.000000 0 0 1
-30.362755 28.872894 -28.072364 50.434101 -0.760252 2.161102 0.013939 0.000820 -792800.000000 0 0 1
-29.326495 28.391894 -27.229694 49.067292 -0.769207 2.159094 -0.005785 0.000512 -608496.000000 0 0 1
-28.062935 28.460094 -27.817454 48.696160 -0.792425 2.178819 0.039107 -0.001899 -120710.000000 0 0 1
-27.365605 29.847194 -27.673054 49.046195 -0.828746 2.170290 0.041080 -0.016121 -855027.000000 0 0 1
-26.672905 30.064194 -26.444664 48.110496 -0.845099 2.152760 0.044444 -0.016232 15344.200000 0 0 1
-27.500225 30.350794 -25.347744 48.165768 -0.834633 2.124993 0.021011 -0.007868 -511044.000000 0 0 1
-26.796515 30.804894 -24.095874 47.408922 -0.854874 2.103955 -0.006004 -0.005785 -211863.000000 0 0 1
-26.256965 32.117694 -24.199074 48.026760 -0.885461 2.098866 0.000960 -0.001912 383624.000000 0 0 1
-25.476995 32.434194 -23.035274 47.240640 -0.904961 2.080153 0.033057 0.001725 92649.900000 0 0 1
-24.803235 33.813994 -23.059574 47.857399 -0.937926 2.073549 0.022902 0.013666 -411493.000000 0 0 1
-25.700865 -33.536423 -22.978574 48.096164 0.916909 2.068903 0.004160 -0.000543 -203191.000000 0 0 1
-25.118995 -32.310823 -23.386874 47.137025 0.909978 2.089951 0.021007 -0.003983 20441.900000 0 0 1
16.684565 8.788994 -25.660164 31.844389 0.484837 2.507819 0.046449 -0.005364 1329150.000000 0 0 1
15.472965 8.097894 -25.181224 30.644454 0.482159 2.535223 0.035171 -0.008787 1627220.000000 0 0 1
15.670165 6.691294 -25.324944 30.523438 0.403571 2.549346 0.035064 -0.017138 125312.000000 0 0 1
14.329765 5.916094 -25.274364 29.650224 0.391538 2.591388 0.050078 -0.017171 428104.000000 0 0 1
13.636665 5.992594 -24.022174 28.265432 0.414044 2.586550 0.068716 -0.025517 -365399.000000 0 0 1
12.421965 5.325694 -24.095074 27.626813 0.405027 2.630402 0.065198 -0.021452 -582551.000000 0 0 1
11.600465 5.451094 -22.776874 26.135631 0.439281 2.629024 0.065886 -0.032136 -239980.000000 0 0 1
12.151565 4.820894 -21.622674 25.267401 0.377684 2.597802 0.084217 -0.026939 -4040.650000 0 0 1
11.519365 4.983994 -20.362274 23.919828 0.408343 2.589201 0.091388 -0.027492 -241802.000000 0 1 0
11.450965 6.425994 -19.848374 23.798654 0.511382 2.557137 0.063413 -0.029899 50623.700000 0 1 0
11.027765 6.599494 -18.526374 22.547537 0.539274 2.535111 0.050108 -0.020853 -125671.000000 0 1 0
11.385265 7.924294 -18.062874 22.774681 0.608045 2.486698 0.045647 -0.022736 -22371.600000 0 1 0
12.793665 8.327994 -17.604574 23.301381 0.577040 2.427238 0.031323 -0.024171 -236961.000000 0 1 0
13.111765 7.821194 -16.346374 22.367239 0.537843 2.390315 0.036377 -0.025559 7890.210000 0 1 0
14.489565 7.978494 -16.123574 23.099209 0.503332 2.343417 0.033585 -0.024975 -435967.000000 0 1 0
14.948365 7.513694 -14.734974 22.294139 0.465760 2.292860 0.044252 -0.031600 -419883.000000 0 1 0
16.357065 7.512594 -14.637074 23.199926 0.430550 2.253522 0.038051 -0.034676 282076.000000 0 1 0
16.784965 7.645294 -13.313174 22.747003 0.427406 2.196011 0.027861 -0.034744 -294758.000000 0 1 0
17.307665 9.071194 -13.072974 23.510518 0.482752 2.160420 0.051079 -0.030035 -144885.000000 0 1 0
16.306765 10.111694 -13.029274 23.193079 0.555062 2.167325 0.052843 -0.026747 773876.000000 0 1 0
16.837765 11.329794 -12.418874 23.792918 0.592292 2.119940 0.083604 -0.044993 -155410.000000 0 1 0
16.025865 12.640894 -12.433574 23.900090 0.667862 2.117918 0.092652 -0.031995 -648651.000000 0 1 0
14.839465 12.623294 -11.695974 22.723403 0.704875 2.111466 0.081085 -0.020576 -223872.000000 0 1 0
14.898865 13.209094 -10.434874 22.479833 0.725353 2.053514 0.051305 -0.027949 -349015.000000 0 1 0
14.677365 14.739794 -10.494174 23.298374 0.787520 2.038038 0.057075 -0.019001 -917852.000000 0 1 0
13.391265 15.211894 -10.724574 22.929112 0.848964 2.057514 0.075537 -0.023405 -505833.000000 0 1 0
13.338565 16.596294 -10.730074 23.843002 0.893799 2.037596 0.080699 -0.016190 128841.000000 0 1 0
12.201165 17.139394 -9.839974 23.226113 0.952143 2.008278 0.077802 -0.018260 -59024.800000 0 1 0
12.477665 16.934394 -8.462674 22.673391 0.935781 1.953298 0.073165 -0.018807 967985.000000 0 1 0
11.486965 17.545594 -7.597274 22.305084 0.991130 1.918359 0.059034 -0.004357 554446.000000 0 1 0
11.694265 17.245994 -6.084974 21.707303 0.974930 1.854923 0.044481 -0.011474 478458.000000 0 1 0
12.914765 17.863694 -5.698374 22.767832 0.944826 1.823768 0.060239 -0.018511 638459.000000 0 1 0
13.419665 17.512994 -4.420774 22.501902 0.916964 1.768545 0.071810 -0.025582 21158.100000 0 1 0
14.467965 18.451294 -3.778674 23.749750 0.905816 1.730579 0.079109 -0.028499 -443233.000000 0 1 0
15.689165 18.469694 -4.450074 24.639047 0.866619 1.752404 0.091078 -0.034783 -546223.000000 0 1 0
16.372365 19.640994 -4.083674 25.894002 0.875912 1.729165 0.076063 -0.028948 -676481.000000 0 0 1
17.711065 19.782994 -4.789674 26.981283 0.840602 1.749261 0.066401 -0.027762 -459858.000000 0 0 1
18.720165 18.867494 -4.440374 26.947055 0.789318 1.736333 0.076532 -0.042621 179486.000000 0 0 1
19.215865 18.154294 -5.561774 27.014092 0.756999 1.778163 0.088117 -0.041605 448.141000 0 0 1
20.297065 17.092094 -5.224974 27.044608 0.699888 1.765217 0.082989 -0.046377 167555.000000 0 0 1
21.596965 17.637394 -5.046474 28.336786 0.684818 1.749841 0.077894 -0.044440 -120425.000000 0 0 1
22.362665 16.613094 -4.514574 28.221712 0.638938 1.731455 0.080387 -0.046811 -252572.000000 0 0 1
23.891365 16.825794 -4.660274 29.590924 0.613581 1.728945 0.079979 -0.040764 213566.000000 0 0 1
24.441665 17.907694 -3.906274 30.550604 0.632318 1.699010 0.085166 -0.037256 497999.000000 0 0 1
25.857665 17.841694 -3.994574 31.668620 0.603980 1.697270 0.067816 -0.027183 62179.200000 0 0 1
26.660165 19.028794 -3.469274 32.937748 0.619897 1.676320 0.084514 -0.026656 -369167.000000 0 0 1
26.606265 20.219994 -4.235374 33.685009 0.649852 1.696865 0.084950 -0.030335 219894.000000 0 0 1
26.827365 21.304594 -3.401774 34.426229 0.671155 1.669771 0.093707 -0.003023 -246448.000000 0 0 1
26.694465 22.620994 -4.176974 35.238486 0.702985 1.689610 0.065356 -0.002210 651772.000000 0 0 1
27.868965 22.983894 -4.936974 36.459735 0.689629 1.706623 0.065646 0.003533 943259.000000 0 0 1
28.171765 22.261394 -6.113474 36.422418 0.668738 1.739444 0.067167 -0.003114 356225.000000 0 0 1
29.293165 22.938894 -6.974574 37.854022 0.664338 1.756104 0.055891 -0.003689 637505.000000 0 0 1
28.719665 23.696594 -8.066674 38.097492 0.689860 1.784149 0.035980 0.001187 842928.000000 0 0 1
29.673365 24.611294 -8.624974 39.504614 0.692417 1.790897 0.012758 0.004476 215335.000000 0 0 1
30.688265 24.022694 -9.628774 40.144398 0.664163 1.813011 0.020722 -0.003759 93840.100000 0 0 1
30.153265 23.824794 -10.935674 39.955339 0.668689 1.848031 0.028750 -0.001508 539772.000000 0 0 1
31.243765 23.508294 -11.804874 40.843209 0.645045 1.864009 0.029431 -0.006189 428248.000000 0 0 1
30.918265 22.548294 -13.017574 40.420562 0.630113 1.898694 0.029318 -0.010250 -23388.100000 0 0 1
30.493365 23.248494 -14.164774 40.877605 0.651397 1.924652 0.042161 -0.009675 39325.600000 0 0 1
30.228365 22.376194 -15.207074 40.567267 0.637224 1.955043 0.049332 -0.010941 -162542.000000 0 0 1
30.263165 23.024994 -16.614874 41.497753 0.650394 1.982728 0.051588 -0.007325 -127440.000000 0 0 1
31.493065 23.715894 -16.839674 42.869935 0.645451 1.974480 0.051724 -0.003748 189639.000000 0 0 1
31.499365 24.448494 -18.030874 43.761298 0.660033 1.995475 0.057956 -0.012840 401729.000000 0 0 1
32.904465 25.070694 -18.299474 45.233994 0.651089 1.987285 0.051220 -0.015947 732049.000000 0 0 1
33.911965 24.080194 -18.517274 45.527645 0.617459 1.989664 0.064420 -0.009211 391200.000000 0 0 1
35.194565 24.725494 -18.581774 46.853919 0.612427 1.978595 0.064893 -0.013904 140610.000000 0 0 1
36.311165 23.746894 -18.859674 47.308593 0.579170 1.980843 0.055477 -0.023995 -487489.000000 0 0 1
36.263065 23.213494 -20.179774 47.551019 0.569414 2.009075 0.059387 -0.014988 -536926.000000 0 0 1
-35.144940 23.073794 -20.595674 46.816114 -0.580954 2.026314 0.074305 -0.013113 -562245.000000 0 0 1
-34.964140 22.198294 -21.834374 46.818749 -0.565678 2.055967 0.083942 -0.022747 -123150.000000 0 0 1
-34.828240 20.771394 -21.655974 45.972147 -0.537765 2.061297 0.064299 -0.017299 170505.000000 0 0 1
-34.451540 20.100194 -22.867174 45.976451 -0.528149 2.091358 0.043180 -0.012024 146536.000000 0 0 1
-34.209240 18.618794 -22.634174 45.047058 -0.498427 2.097234 0.024470 -0.005094 411325.000000 0 0 1
-35.426040 17.941994 -22.311074 45.548913 -0.468805 2.082687 0.040217 -0.019714 560381.000000 0 0 1
-35.219440 16.561594 -22.281774 44.846101 -0.439558 2.090761 0.017294 -0.016375 -334377.000000 0 0 1
36.265765 15.656794 -22.261374 45.342140 0.407552 2.083993 0.025433 -0.016015 -323396.000000 0 0 1
35.483465 15.810594 -23.423874 45.362198 0.419169 2.113408 0.093096 -0.023648 80488.600000 0 0 1
34.254865 15.125994 -23.460474 44.188067 0.415823 2.130486 0.110912 -0.022988 -234418.000000 0 0 1
34.310765 13.696394 -24.007774 44.058971 0.379805 2.147067 0.066018 -0.018582 -560902.000000 0 0 1
34.429965 13.781494 -25.442324 44.974036 0.380744 2.172092 0.082426 -0.015663 173736.000000 0 0 1
34.833065 12.544894 -25.890084 45.177574 0.345682 2.181048 0.058732 -0.006956 -303880.000000 0 0 1
34.759165 12.292194 -27.396084 45.933027 0.339913 2.209849 0.080915 -0.003269 244128.000000 0 0 1
33.438765 12.332394 -27.935364 45.283810 0.353329 2.235588 0.085650 -0.001137 504016.000000 0 0 1
33.090765 13.561494 -28.504224 45.731866 0.388949 2.243739 0.089899 -0.004733 -402569.000000 0 0 1
33.487465 13.712494 -29.973504 46.987804 0.388653 2.262564 0.072721 -0.011679 -644743.000000 0 0 1
34.873165 13.806094 -30.117484 48.102065 0.376962 2.247359 0.077585 -0.005952 -489989.000000 0 0 1
35.278365 13.803194 -31.496884 49.266062 0.372954 2.264413 0.067820 -0.013253 1042660.000000 0 0 1
-35.866440 13.953494 -31.619684 49.808693 -0.371023 2.258575 0.067717 -0.015414 1218790.000000 0 0 1
-35.103540 12.848594 -31.207204 48.695323 -0.350875 2.266423 0.064682 -0.012195 108914.000000 0 0 1
-34.952340 12.690994 -29.818764 47.664306 -0.348292 2.246696 0.047801 -0.005517 -839709.000000 0 0 1
-33.852040 11.643794 -29.515284 46.397096 -0.331285 2.260288 0.036490 -0.004854 124285.000000 0 0 1
-34.220740 10.266894 -29.709884 46.466605 -0.291475 2.264490 0.038505 -0.007620 584935.000000 0 0 1
-33.047340 9.469794 -29.811324 45.502953 -0.279074 2.285179 0.036154 -0.004514 402414.000000 0 0 1
-33.427040 8.061694 -30.309554 45.836961 -0.236654 2.293276 0.038719 -0.005170 -862772.000000 0 0 1
-33.722940 8.191894 -31.664774 46.978737 -0.238302 2.310438 0.034276 -0.012808 142595.000000 0 0 1
-34.277040 7.070294 -32.325734 47.643023 -0.203416 2.316513 0.037499 -0.012230 -626942.000000 0 0 1
-35.591440 6.519194 -31.828194 48.190087 -0.181159 2.292243 0.053770 0.004218 -1342000.000000 0 0 1
-35.377940 5.717194 -30.650424 47.156478 -0.160218 2.278345 0.056159 0.001258 -115212.000000 0 0 1
36.269465 4.875094 -30.353874 47.545749 0.133612 2.263232 0.054883 0.012084 -509653.000000 0 0 1
-36.271740 4.120994 -29.050434 46.653504 -0.113129 2.242966 0.055590 0.005054 358529.000000 0 0 1
-35.255240 3.113094 -29.008454 45.761487 -0.088073 2.257389 0.053124 0.008666 488803.000000 0 0 1
-35.574840 2.223194 -27.990434 45.320815 -0.062412 2.236492 0.056807 0.020209 266633.000000 0 0 1
-34.500140 1.141494 -27.686984 44.250783 -0.033075 2.246804 0.076003 0.007654 -586771.000000 0 0 1
-33.315440 1.470894 -27.074684 42.954867 -0.044122 2.252743 0.078083 0.005912 -751539.000000 0 0 1
-32.587440 0.265594 -26.863174 42.233185 -0.008150 2.260188 0.072968 -0.003609 411201.000000 0 0 1
-31.470740 0.418194 -25.778014 40.682778 -0.013288 2.257039 0.063168 -0.001803 164237.000000 0 0 1
-32.013640 0.341794 -24.470374 40.296268 -0.010676 2.223406 0.069132 -0.001439 56204.300000 0 0 1
-31.152940 0.676694 -23.424474 38.982940 -0.021718 2.215411 0.076196 0.002352 -258652.000000 0 0 1
-31.870640 0.424594 -22.075974 38.771982 -0.013322 2.176547 0.072844 0.005228 -370647.000000 0 0 1
-31.986840 -0.973706 -21.786874 38.714002 0.030431 2.168523 0.076037 -0.004624 314813.000000 0 0 1
-32.624840 -1.333106 -20.570474 38.591473 0.040839 2.132976 0.067744 -0.005964 -40005.100000 0 0 1
-34.124440 -1.019106 -20.417574 39.779308 0.029856 2.109788 0.069584 -0.003321 -307121.000000 0 0 1
-35.007840 -1.926106 -21.094974 40.917682 0.054964 2.112442 0.064318 -0.006576 -106058.000000 0 0 1
-36.284040 -1.811306 -20.534474 41.731008 0.049879 2.085259 0.064251 -0.002400 -414661.000000 0 0 1
35.648665 -3.149806 -20.316374 41.152201 -0.088128 2.087123 0.053126 -0.003849 -229816.000000 0 0 1
35.129865 -3.680206 -21.508474 41.355359 -0.104379 2.117752 0.056419 -0.006311 598901.000000 0 0 1
36.159865 -4.253706 -22.354274 42.724038 -0.117098 2.121427 0.061889 -0.006646 477363.000000 0 0 1
35.577865 -5.210606 -23.388574 42.894758 -0.145423 2.147489 0.050225 -0.000194 -737038.000000 0 0 1
35.020565 -6.358806 -22.821574 42.281185 -0.179617 2.140945 0.052443 0.005711 109332.000000 0 0 1
34.554865 -7.240406 -23.820474 42.589636 -0.206545 2.164340 0.056463 0.005116 -600660.000000 0 0 1
33.132365 -7.024606 -24.293874 41.680823 -0.208923 2.193034 0.037201 0.010834 -1164780.000000 0 0 1
32.944165 -5.968306 -25.198434 41.903457 -0.179220 2.215980 0.050170 0.001418 183070.000000 0 0 1
31.570465 -5.701906 -25.440284 40.944035 -0.178683 2.241252 0.031967 0.007077 324774.000000 0 0 1
31.383665 -4.570306 -26.498824 41.328075 -0.144610 2.266834 0.060978 -0.025088 34731.600000 0 0 1
31.687765 -5.030106 -27.822164 42.467508 -0.157426 2.285164 0.062217 -0.028907 236631.000000 0 0 1
31.450965 -3.991506 -28.744424 42.794126 -0.126237 2.307285 0.068027 -0.032748 70603.300000 0 0 1
31.361565 -4.605906 -30.125714 43.730090 -0.145822 2.330768 0.074218 -0.027999 63532.100000 0 0 1
30.979465 -3.567906 -31.000434 43.971401 -0.114665 2.353239 0.065072 -0.040330 -80802.200000 0 0 1
30.232365 -4.028806 -32.093164 44.274127 -0.132481 2.381648 0.071788 -0.045606 -584548.000000 0 0 1
29.721965 -2.899006 -32.992094 44.500311 -0.097230 2.405936 0.077898 -0.034756 -1111730.000000 0 0 1
28.782365 -1.982906 -32.436224 43.410426 -0.068784 2.414634 0.075251 -0.036111 1665420.000000 0 0 1
27.406965 -2.453106 -32.254244 42.396883 -0.089269 2.435294 0.085851 -0.036969 1114570.000000 0 0 1
26.709865 -2.809406 -33.540084 42.967975 -0.104797 2.466395 0.087952 -0.044002 -1883430.000000 0 0 1
27.113165 -3.994706 -34.156542 43.792131 -0.146282 2.465414 0.100653 -0.047755 -336352.000000 0 0 1
26.468465 -4.220406 33.050695 42.552790 -0.158119 0.681389 0.091091 -0.040301 -492679.000000 0 0 1
27.188065 -5.327306 32.271151 42.532320 -0.193491 0.709413 0.071867 -0.048884 -173629.000000 0 0 1
28.528265 -5.184706 31.889261 43.100673 -0.179777 0.737907 0.077761 -0.039755 -304295.000000 0 0 1
28.730565 -4.351906 30.769191 42.321715 -0.150330 0.756809 0.098657 -0.039751 -271566.000000 0 0 1
29.419865 -2.984406 31.169041 42.964453 -0.101096 0.759092 0.074294 -0.039296 -128818.000000 0 0 1
30.737465 -3.126006 31.649711 44.229717 -0.101352 0.773348 0.072424 -0.036906 -237764.000000 0 0 1
31.268465 -1.811306 31.830331 44.656105 -0.057863 0.777331 0.063349 -0.029353 1002540.000000 0 0 1
32.793865 -1.843806 32.225101 46.014067 -0.056165 0.794934 0.049956 -0.029722 1066040.000000 0 0 1
33.679365 -2.072906 31.145461 45.919890 -0.061471 0.825409 0.054116 -0.020304 -231268.000000 0 0 1
34.987565 -2.336106 31.582731 47.191694 -0.066671 0.837606 0.038631 -0.017614 344101.000000 0 0 1
35.952665 -2.945206 30.503321 47.241094 -0.081736 0.868864 0.019585 -0.011627 268618.000000 0 0 1
36.273965 -2.004606 29.446661 46.764568 -0.055207 0.889657 0.019516 -0.003700 23074.100000 0 0 1
-35.489740 -2.523006 28.548231 45.616760 0.070972 0.894604 0.014028 0.000790 36331.800000 0 0 1
-35.421140 -1.675506 27.255871 44.725239 0.047267 0.915484 0.029681 0.004767 21304.600000 0 0 1
36.203565 -1.834206 26.375291 44.829883 -0.050620 0.941790 0.041960 -0.011810 -102919.000000 0 0 1
-36.185640 -1.321906 25.118921 44.069357 0.036515 0.964307 0.055278 -0.013261 15223.500000 0 0 1
-26.750575 15.120494 12.251426 33.080509 -0.514468 1.191409 0.066270 -0.010756 -855963.000000 0 0 1
-27.855535 14.472294 12.727726 33.872897 -0.479164 1.185591 0.052013 -0.003847 -469782.000000 0 0 1
-28.810755 15.388494 13.261126 35.252274 -0.490572 1.185129 0.049266 -0.003676 186473.000000 0 0 1
-30.086955 14.669794 13.738126 36.182369 -0.453662 1.181334 0.045737 -0.002092 283043.000000 0 0 1
-31.211905 15.489694 14.070726 37.577905 -0.460663 1.187002 0.044938 -0.002112 -77244.700000 0 0 1
-32.138665 14.652294 14.669726 38.246364 -0.427757 1.177150 0.061488 -0.010014 -256652.000000 0 0 1
-33.220385 15.346394 15.534626 39.754628 -0.432753 1.169336 0.057927 -0.006971 75126.800000 0 0 1
-32.635245 15.851794 16.733726 39.954426 -0.452163 1.138650 0.040130 -0.002272 428326.000000 0 0 1
-33.561935 15.999094 17.802726 41.222707 -0.444837 1.124235 0.049796 -0.013871 470921.000000 0 0 1
-32.779945 16.358694 19.148926 41.337792 -0.462884 1.089159 0.052436 -0.011552 656415.000000 0 0 1
-32.082785 15.225894 19.703926 40.612531 -0.443107 1.064240 0.047365 -0.017521 170841.000000 0 0 1
-31.016175 15.553294 20.578426 40.340795 -0.464813 1.035478 0.040755 -0.016500 265326.000000 0 0 1
-31.416225 16.021994 22.020826 41.576439 -0.471608 1.012612 0.055366 -0.027253 -808667.000000 0 0 1
-32.010575 17.292894 22.106026 42.572262 -0.495307 1.024813 0.061218 -0.027056 120910.000000 0 0 1
-32.547625 17.608394 23.372426 43.768410 -0.495910 1.007469 0.080032 -0.037704 -256471.000000 0 0 1
-33.679185 16.683694 23.930926 44.556957 -0.459938 1.003817 0.067288 -0.027491 -578653.000000 0 0 1
-34.886061 16.507494 23.254026 45.058677 -0.441965 1.028525 0.065701 -0.010269 230269.000000 0 0 1
-35.732427 17.693394 23.319126 46.191387 -0.459771 1.041603 0.065321 -0.006083 -534038.000000 0 0 1
35.508170 17.317694 23.176626 45.802714 0.453767 1.040244 0.049408 -0.003815 -413360.000000 0 0 1
35.006970 16.660394 24.292626 45.751375 0.444196 1.011051 0.059315 0.001021 -338625.000000 0 0 1
33.914420 15.842394 23.982026 44.455673 0.437006 1.001002 0.084168 -0.001664 -128413.000000 0 0 1
33.397800 15.038594 25.189126 44.452946 0.423093 0.968366 0.068905 0.002714 -286932.000000 0 0 1
32.732420 15.703494 26.244526 44.797167 0.447320 0.944865 0.068063 0.004034 207397.000000 0 0 1
32.620630 15.017394 27.499826 45.231273 0.431440 0.917279 0.052778 0.007451 -536312.000000 0 0 1
31.665710 13.875794 27.582526 44.227260 0.412995 0.897387 0.052507 0.009735 -840716.000000 0 0 1
32.277690 12.722994 27.175126 44.070526 0.375473 0.906344 0.061219 -0.000883 214402.000000 0 0 1
31.343850 11.646894 27.206026 43.107481 0.355773 0.887799 0.064664 -0.002475 221670.000000 0 0 1
31.926250 10.383394 26.605726 42.836491 0.314440 0.900651 0.071355 -0.010940 480140.000000 0 0 1
33.022710 9.849594 27.366226 44.004820 0.289866 0.899640 0.069521 -0.014222 434923.000000 0 0 1
33.490340 8.583994 26.914626 43.814209 0.250911 0.909311 0.065087 -0.011589 -486166.000000 0 0 1
34.563980 8.057494 27.878726 45.131090 0.229028 0.904946 0.053563 -0.003585 -750745.000000 0 0 1
35.747060 8.776194 27.731326 46.085793 0.240747 0.925128 0.064532 -0.012577 -216786.000000 0 0 1
-35.936031 7.988694 28.343126 46.460202 -0.218746 0.914670 0.060885 -0.015240 825942.000000 0 0 1
-34.593808 8.686994 28.703726 45.783177 -0.246027 0.893165 0.074202 -0.017405 149170.000000 0 0 1
-33.703955 8.886794 27.678226 44.508605 -0.257805 0.899678 0.068729 -0.017312 67576.800000 0 0 1
-32.474365 9.483494 28.084126 43.968616 -0.284129 0.877948 0.072495 -0.008947 290729.000000 0 0 1
-31.725585 10.133494 26.902026 42.812609 -0.309168 0.891344 0.061156 -0.014688 -241712.000000 0 0 1
-31.320275 9.170194 25.950426 41.695044 -0.284827 0.899008 0.061577 -0.019926 388820.000000 0 0 1
-30.501015 9.754094 24.933826 40.585095 -0.309518 0.909223 0.056779 -0.015619 130788.000000 0 0 1
-29.828365 8.721094 24.008126 39.270587 -0.284448 0.913029 0.065959 -0.017709 524900.000000 0 0 1
-28.894085 9.261494 23.058926 38.109809 -0.310186 0.920948 0.055801 -0.023337 428893.000000 0 0 1
-28.211645 8.348894 22.260726 36.893643 -0.287726 0.923069 0.055471 -0.012240 480504.000000 0 0 1
-26.911545 8.879994 21.564326 35.610472 -0.318720 0.920325 0.045409 -0.010708 -251840.000000 0 0 1
-25.878635 9.184594 22.471826 35.483003 -0.341043 0.884970 0.052471 -0.025595 1085190.000000 0 0 1
-24.715035 9.897994 21.983926 34.526747 -0.380924 0.880557 0.056020 -0.015762 1513230.000000 0 0 1
-23.893035 9.286694 20.767526 32.991059 -0.370708 0.889900 0.055870 -0.009403 -916129.000000 0 0 1
-24.523035 9.560494 19.513426 32.765166 -0.371733 0.932841 0.057708 -0.015624 385811.000000 0 0 1
-24.084435 8.785094 18.382226 31.545905 -0.349765 0.948733 0.071694 -0.016884 -405742.000000 0 0 1
-24.065635 7.232594 18.473026 31.188426 -0.291949 0.936881 0.065864 -0.008002 92981.400000 0 0 1
-23.021635 6.841894 19.380226 30.860985 -0.288881 0.891835 0.052550 -0.004869 966505.000000 0 0 1
-23.256535 5.544994 19.952426 31.140210 -0.234057 0.875349 0.059100 -0.005308 -285730.000000 0 0 1
-23.258335 4.271694 19.066526 30.376470 -0.181639 0.892234 0.047712 -0.009662 -199470.000000 0 0 1
-24.401435 4.139094 18.228826 30.738449 -0.168026 0.935979 0.076083 -0.007960 527527.000000 0 0 1
-24.345835 3.139794 17.211326 29.980123 -0.128258 0.959302 0.079062 -0.010199 -358147.000000 0 0 1
-24.389035 1.661894 17.729126 30.197829 -0.068036 0.943325 0.075994 -0.005882 772312.000000 0 0 1
-23.057235 1.195694 18.079126 29.324403 -0.051811 0.906479 0.044020 -0.006477 1488890.000000 0 0 1
-23.107535 -0.093406 18.695626 29.723616 0.004042 0.890553 0.059311 -0.018018 159610.000000 0 0 1
-21.762635 -0.891206 18.790226 28.765937 0.040928 0.858979 0.055415 -0.007908 248723.000000 0 0 1
-20.873835 -0.371706 19.751826 28.740038 0.017805 0.813089 0.032123 -0.003722 27646.300000 0 0 1
-19.940635 -1.365206 20.105726 28.350184 0.068357 0.782445 0.023793 -0.008106 155916.000000 0 0 1
-18.827935 -1.059806 21.131626 28.322429 0.056230 0.728597 0.026958 -0.006055 329988.000000 0 0 1
-19.313435 -1.014906 22.481026 29.655275 0.052501 0.710435 0.031433 -0.006541 -399149.000000 0 0 1
-18.315335 -0.727106 23.422826 29.742377 0.039678 0.664016 0.021429 -0.010897 -1265930.000000 0 0 1
-18.603935 -0.896006 24.918526 31.110162 0.048125 0.641871 0.023641 -0.006249 -177793.000000 0 0 1
-19.376435 0.128594 25.533726 32.053611 -0.006636 0.649156 0.021956 -0.016957 -129675.000000 0 0 1
-20.756635 0.001594 25.255426 32.690587 -0.000077 0.687934 0.067472 -0.021516 -747252.000000 0 0 1
-21.521735 1.081394 26.012626 33.778858 -0.050204 0.691820 0.056163 -0.026323 -346600.000000 0 0 1
-21.320135 2.385294 25.527926 33.345357 -0.111417 0.698882 0.054613 -0.021356 323863.000000 0 0 1
-22.436535 2.820994 24.753726 33.527647 -0.125076 0.740238 0.057771 -0.015647 -447877.000000 0 0 1
-22.131735 3.835194 23.634926 32.605707 -0.171585 0.759949 0.053686 -0.011950 -58167.800000 0 0 1
-21.612035 3.292094 22.423626 31.316720 -0.151165 0.772702 0.057029 -0.007863 1427690.000000 0 0 1
-20.257435 2.782894 22.526726 30.423044 -0.136522 0.737057 0.029561 -0.002203 385081.000000 0 0 1
-19.759635 2.273294 21.175726 29.052064 -0.114544 0.754099 0.023839 -0.001486 -274080.000000 0 0 1
-19.523835 3.237494 20.141726 28.237398 -0.164327 0.776601 0.022001 0.008307 414197.000000 0 0 1
-18.956735 2.552294 19.018426 26.973553 -0.133833 0.788265 0.024178 -0.002512 75836.300000 0 0 1
-18.590235 3.455594 17.825526 25.986292 -0.183785 0.814876 0.019842 -0.000753 -1939700.000000 0 0 1
-17.317835 3.881694 17.836026 25.161455 -0.220500 0.782911 0.017390 -0.008870 -2006220.000000 0 0 1
-17.040135 4.668394 16.683226 24.300003 -0.267403 0.814060 0.025926 -0.000913 -138209.000000 0 1 0
-15.571635 5.123094 16.533826 23.282812 -0.317847 0.781113 0.019157 0.001081 -114375.000000 0 1 0
-15.066735 6.059194 17.484026 23.862345 -0.382365 0.748510 0.011844 -0.000443 -130931.000000 0 1 0
-15.561035 7.322694 17.443926 24.496086 -0.439835 0.778296 0.009200 -0.009785 -707673.000000 0 1 0
-15.011935 8.276794 16.267326 23.632381 -0.503877 0.811586 -0.002481 -0.002443 -165092.000000 0 1 0
-15.372135 8.122694 14.884126 22.887069 -0.486112 0.862779 -0.000105 -0.000925 852125.000000 0 1 0
-16.788235 8.198294 14.644426 23.738494 -0.454273 0.905991 0.019003 -0.003764 822676.000000 0 1 0
-17.239635 7.399094 13.369126 23.036605 -0.405415 0.951647 0.021561 -0.008006 -120931.000000 0 1 0
-16.982535 6.035194 13.507626 22.523011 -0.341456 0.927638 0.013076 -0.004084 6529.580000 0 1 0
-17.749735 5.364194 12.557226 22.394455 -0.293485 0.975530 0.022324 -0.004968 -177274.000000 0 1 0
-17.553635 3.819194 12.570326 21.925543 -0.214234 0.960246 0.035080 -0.007993 -146411.000000 0 1 0
-18.077035 3.213394 13.760926 22.944895 -0.175923 0.927623 0.037712 -0.008558 237441.000000 0 1 0
-17.828235 1.852294 13.867426 22.662358 -0.103525 0.912317 0.034181 -0.011631 77161.800000 0 1 0
-18.755835 1.140394 14.946026 24.009697 -0.060727 0.898864 0.048219 -0.009235 887057.000000 0 1 0
-20.092535 1.137894 14.445526 24.772525 -0.056572 0.948224 0.064911 -0.008439 1343540.000000 0 1 0
-21.108835 0.660894 15.391926 26.132951 -0.031299 0.940994 0.063036 -0.014398 991277.000000 0 0 1
-22.517235 0.474094 14.794026 26.946500 -0.021052 0.989611 0.076557 -0.018692 -188775.000000 0 0 1
-22.507535 -0.608006 13.849526 26.434224 0.027007 1.019345 0.083549 -0.012513 739513.000000 0 0 1
-23.793135 -0.878106 13.305226 27.274776 0.036889 1.061204 0.103439 -0.017752 239474.000000 0 0 1
-23.684635 -1.957906 12.253826 26.738579 0.082478 1.094734 0.092808 -0.020741 -322025.000000 0 0 1
-23.325335 -3.195306 12.783026 26.789681 0.136141 1.073373 0.074171 -0.010429 226339.000000 0 0 1
-23.524035 -4.190906 11.840626 26.667290 0.176305 1.110724 0.090542 -0.010257 76301.100000 0 0 1
-23.274435 -5.647706 12.361726 26.951961 0.238056 1.094312 0.084705 -0.009023 278400.000000 0 0 1
-24.420135 -6.003006 13.112826 28.360630 0.241043 1.090141 0.072007 -0.011428 520591.000000 0 0 1
-24.434735 -7.359606 13.539926 28.888574 0.292552 1.082984 0.077296 -0.017472 -299889.000000 0 0 1
-25.301475 -7.671906 14.763026 30.281508 0.294408 1.061542 0.081911 -0.011592 208404.000000 0 0 1
-26.667505 -7.310506 14.579226 31.259450 0.267562 1.085586 0.082698 -0.023847 536878.000000 0 0 1
-27.343635 -7.577706 15.790726 32.472189 0.270344 1.062964 0.091936 -0.017645 643902.000000 0 0 1
-28.863225 -7.124906 15.952126 33.739004 0.242012 1.078320 0.098839 -0.023140 2067300.000000 0 0 1
-29.838175 -7.634706 14.983626 34.250759 0.250496 1.118015 0.090167 -0.021719 1041360.000000 0 0 1
-29.977655 -9.052306 14.845426 34.655314 0.293262 1.128104 0.098666 -0.034104 -957278.000000 0 0 1
-30.328195 -9.911606 16.062126 35.721580 0.315870 1.104425 0.095897 -0.032814 -871191.000000 0 0 1
-29.258155 -10.197606 16.902426 35.294799 0.335373 1.071403 0.110090 -0.018813 -199254.000000 0 0 1
-29.687905 -10.931606 18.031226 36.414240 0.352811 1.052766 0.106405 -0.012542 350643.000000 0 0 1
-28.533155 -11.151606 19.060126 36.080295 0.372576 1.014235 0.114134 -0.010379 371963.000000 0 0 1
-27.483755 -11.955506 18.567126 35.256618 0.410312 1.016167 0.104116 -0.019195 -883453.000000 0 0 1
-26.391255 -11.914106 19.405426 34.857063 0.424052 0.980371 0.098027 -0.021743 -984767.000000 0 0 1
-25.281615 -12.815306 18.886726 34.060249 0.469154 0.983023 0.082562 -0.013748 -300183.000000 0 0 1
-24.529335 -12.237806 17.806026 32.688022 0.462771 0.994734 0.072385 -0.006187 -116012.000000 0 0 1
-23.494835 -13.044606 17.368226 31.997255 0.506836 0.997025 0.068455 -0.009475 -411940.000000 0 0 1
-23.146835 -12.968906 15.830326 30.896080 0.510708 1.032850 0.068253 -0.002081 202910.000000 0 0 1
-22.473735 -11.720106 15.521526 29.721162 0.480701 1.021323 0.054564 -0.008931 198189.000000 0 0 1
-22.131135 -11.598106 14.139626 28.709445 0.482712 1.055827 0.065567 -0.003918 -171030.000000 0 0 1
-20.938735 -10.688306 13.867326 27.294198 0.471978 1.037855 0.058843 -0.008604 -577514.000000 0 0 1
-21.173435 -9.240906 13.853726 26.937603 0.411519 1.030617 0.060025 -0.009630 600812.000000 0 0 1
-20.074035 -8.446406 13.373926 25.557202 0.398276 1.020085 0.070722 -0.010767 209294.000000 0 0 1
-19.695035 -8.629706 11.838726 24.546317 0.412970 1.067516 0.092192 -0.014298 -49485.600000 0 1 0
-19.054735 -9.872106 11.516926 24.355308 0.478016 1.078250 0.081537 -0.018548 552437.000000 0 1 0
-18.637335 -10.039406 10.150026 23.476861 0.494104 1.123708 0.088998 -0.017450 -780054.000000 0 1 0
-18.120435 -11.361106 9.723926 23.494247 0.560020 1.144078 0.070835 -0.011733 1563390.000000 0 1 0
-16.693935 -11.662006 9.845526 22.619113 0.609771 1.120453 0.074440 -0.019911 2201170.000000 0 1 0
-16.002035 -11.527506 11.108026 22.634858 0.624272 1.057848 0.070393 -0.017621 -25821.200000 0 1 0
-14.518335 -11.942206 10.963726 21.762391 0.688347 1.042813 0.070141 -0.022971 98713.100000 0 1 0
-14.237235 -13.340606 10.767926 22.284948 0.752897 1.066499 0.061794 -0.025430 599608.000000 0 1 0
-12.832235 -13.573806 10.688926 21.521330 0.813474 1.051042 0.065828 -0.031652 453942.000000 0 1 0
-12.478335 -15.049206 10.749426 22.310034 0.878521 1.068066 0.075739 -0.032442 -188663.000000 0 1 0
-12.844635 -15.780106 9.582026 22.490257 0.887591 1.130672 0.061664 -0.034517 179876.000000 0 1 0
-12.486035 -17.113106 9.793626 23.338265 0.940468 1.137750 0.048184 -0.032219 33096.200000 0 1 0
-12.658835 -18.041906 8.627726 23.668421 0.958974 1.197674 0.041193 -0.018826 -338766.000000 0 1 0
-11.810935 -17.913206 7.537526 22.741932 0.987882 1.232970 0.037183 -0.017099 -488964.000000 0 1 0
-12.229335 -18.702606 6.417826 23.249358 0.991696 1.291121 0.018353 -0.010441 126151.000000 0 1 0
-11.507735 -18.422506 5.018726 22.293594 1.012444 1.343730 0.028030 -0.013094 16506.600000 0 1 0
-11.904035 -19.241706 3.985026 22.974546 1.016771 1.396461 0.035688 -0.014462 400587.000000 0 1 0
-10.965135 -19.216706 2.901526 22.314454 1.052272 1.440398 0.033646 -0.014647 221672.000000 0 1 0
-11.404235 -20.017406 1.655726 23.097501 1.052942 1.499051 0.046961 -0.019467 -120913.000000 0 1 0
-11.188435 -21.428206 1.714826 24.234062 1.089597 1.499976 0.037506 -0.023832 -318279.000000 0 1 0
-11.596235 -22.125806 0.561026 24.986771 1.088052 1.548342 0.048158 -0.028258 -667456.000000 0 1 0
-10.638235 -22.197406 -0.627574 24.622972 1.123881 1.596286 0.055794 -0.023315 -641228.000000 0 1 0
-10.437135 -21.084406 -1.441374 23.570396 1.111143 1.631986 0.051322 -0.041282 -663094.000000 0 1 0
-11.404535 -20.704106 -2.380374 23.756886 1.067313 1.671162 0.061105 -0.037334 -161488.000000 0 1 0
-12.554435 -19.781806 -1.868274 23.503705 1.005291 1.650369 0.065401 -0.038432 540899.000000 0 1 0
-13.503535 -20.447706 -1.046274 24.526493 0.987149 1.613468 0.065212 -0.021254 -844474.000000 0 1 0
-14.562235 -19.629006 -0.720174 24.451488 0.932517 1.600254 0.067776 -0.006583 -518169.000000 0 1 0
26.298565 -20.046606 -4.188474 33.332030 -0.651308 1.696789 0.043890 -0.017799 -437990.000000 0 0 1
25.228765 -20.456406 -3.379174 32.655382 -0.681314 1.674462 0.042389 -0.017972 -222232.000000 0 0 1
25.475665 -21.486506 -2.467574 33.418084 -0.700658 1.644703 0.038808 -0.010528 -237128.000000 0 0 1
24.182465 -21.853306 -1.704874 32.638401 -0.734847 1.623055 0.030337 -0.008169 385582.000000 0 0 1
23.149465 -22.232806 -2.615174 32.203020 -0.765202 1.652095 0.034108 -0.020450 -109722.000000 0 0 1
22.033865 -22.704706 -1.893574 31.695118 -0.800392 1.630575 0.033381 -0.018309 -373572.000000 0 0 1
20.905165 -23.231606 -2.763074 31.374640 -0.838059 1.658978 0.043888 -0.022086 -294226.000000 0 0 1
20.114165 -22.231406 -3.370374 30.169098 -0.835356 1.682746 0.048375 -0.028771 -155879.000000 0 0 1
19.129665 -22.798706 -4.209074 30.057302 -0.872683 1.711293 0.056654 -0.025073 186142.000000 0 0 1
18.230465 -21.813806 -4.975274 28.860792 -0.874645 1.744050 0.060315 -0.020360 424164.000000 0 0 1
17.128665 -21.193706 -4.301274 27.587412 -0.891078 1.727349 0.062574 -0.017528 913851.000000 0 0 1
17.544665 -20.079706 -3.491974 26.892448 -0.852674 1.701014 0.052203 -0.018956 -880554.000000 0 0 1
16.455565 -19.702006 -2.564674 25.797911 -0.874944 1.670375 0.062956 -0.012389 -769892.000000 0 0 1
16.082165 -20.811006 -1.728674 26.357586 -0.912880 1.636429 0.057721 -0.013493 345124.000000 0 0 1
15.270165 -20.272506 -0.670974 25.389026 -0.925222 1.597227 0.061263 -0.005751 -61381.100000 0 0 1
14.992765 -21.165506 0.541926 25.943310 -0.954483 1.549906 0.043131 -0.001497 -384599.000000 0 0 1
14.063965 -22.183406 0.301626 26.267653 -1.005761 1.559313 0.058097 -0.009474 -300016.000000 0 0 1
13.448465 -22.529606 1.519926 26.282210 -1.032642 1.512933 0.044118 0.003963 -143503.000000 0 0 1
12.433665 -23.657306 1.531226 26.769550 -1.086899 1.513565 0.049178 -0.003565 -21468.600000 0 0 1
13.022065 -24.935706 1.822926 28.190188 -1.089527 1.506086 0.035241 -0.001392 349993.000000 0 0 1
12.147965 -25.978956 1.420626 28.714063 -1.133397 1.521301 0.039300 -0.006365 193258.000000 0 0 1
12.560665 -27.314926 1.949226 30.127645 -1.139785 1.506052 0.042023 -0.008106 18350.000000 0 0 1
12.231165 -27.361776 3.311326 30.153492 -1.150426 1.460759 0.053797 -0.010393 -24526.800000 0 0 1
12.390065 -28.629586 3.899526 31.438404 -1.162362 1.446439 0.059637 -0.017299 -215013.000000 0 0 1
11.899765 -28.780286 5.357526 31.600829 -1.178733 1.400436 0.059057 -0.012524 -81760.600000 0 0 1
12.104465 -30.033256 5.918626 32.917240 -1.187676 1.390010 0.053324 -0.020873 -184497.000000 0 0 1
11.889465 -30.010956 7.299326 33.095272 -1.193595 1.348413 0.045439 -0.013877 -310934.000000 0 0 1
12.097065 -31.359996 7.962726 34.542631 -1.202636 1.338186 0.043438 -0.010477 149813.000000 0 0 1
11.838865 -31.274426 9.360226 34.725528 -1.208919 1.297872 0.034126 -0.005144 -111949.000000 0 0 1
11.021865 -32.381146 9.695226 35.553025 -1.242718 1.294600 0.029045 -0.005664 145263.000000 0 0 1
10.936465 -32.672086 11.220926 36.235075 -1.247786 1.255950 0.028071 -0.004481 507447.000000 0 0 1
12.118365 -33.319956 11.735126 37.346853 -1.221972 1.251161 0.020413 -0.006235 596817.000000 0 0 1
12.061565 -33.621156 13.142126 38.060202 -1.226348 1.218240 0.024919 -0.001899 467641.000000 0 0 1
11.011265 33.743598 13.691926 38.044016 1.255370 1.202639 0.020607 -0.003046 617231.000000 0 0 1
11.303965 32.459188 13.200926 36.819056 1.235680 1.204098 0.022136 0.003109 -359083.000000 0 0 1
10.187465 31.639651 13.331226 35.813035 1.259295 1.189370 0.027226 0.004548 -347411.000000 0 0 1
9.970965 30.485581 12.273926 34.342976 1.254692 1.205322 0.033367 0.002359 -57317.100000 0 0 1
9.627765 30.924611 10.951626 34.190108 1.268978 1.244734 0.008659 0.000897 927422.000000 0 0 1
10.746965 31.596531 10.294026 34.925706 1.242940 1.271612 0.016334 -0.001736 937185.000000 0 0 1
10.471365 31.924731 8.834626 34.740301 1.253852 1.313667 0.022525 -0.010033 395279.000000 0 0 1
9.316665 32.753083 8.668726 35.138461 1.293665 1.321521 0.024389 -0.005760 241524.000000 0 0 1
8.968765 32.878264 7.289226 34.850420 1.304489 1.360083 0.030989 -0.010950 1292.190000 0 0 1
9.476365 34.153505 6.614126 36.055652 1.300141 1.386309 0.031254 -0.009136 -478088.000000 0 0 1
8.753365 -33.139906 6.910426 34.966109 -1.312560 1.371855 0.037152 -0.004218 -449465.000000 0 0 1
9.014565 -32.080176 6.000926 33.858695 -1.296860 1.392621 0.043181 -0.017488 -212699.000000 0 0 1
8.160965 -30.867906 6.370726 32.557874 -1.312327 1.373852 0.035300 -0.015792 -172508.000000 0 0 1
8.366565 -30.537606 7.780926 32.605024 -1.303383 1.329829 0.041485 -0.014247 -124739.000000 0 0 1
8.097065 -29.195986 8.177226 31.382083 -1.300261 1.307184 0.051282 -0.009822 39476.400000 0 0 1
8.947865 -28.028246 7.549326 30.374977 -1.261779 1.319626 0.051805 -0.013724 -220939.000000 0 0 1
9.065265 -26.969896 8.543726 29.707736 -1.246535 1.279084 0.051877 -0.012579 -161360.000000 0 0 1
9.783565 -25.804876 8.238726 28.800805 -1.208404 1.280685 0.059497 -0.018824 -169459.000000 0 0 1
9.186665 -24.893606 7.152126 27.481618 -1.217264 1.307514 0.042740 -0.020540 -249723.000000 0 0 1
9.119865 -25.406606 5.859726 27.622526 -1.226165 1.357036 0.042838 -0.010679 -449645.000000 0 0 1
8.510065 -24.499906 5.002326 26.413820 -1.236483 1.380263 0.049838 -0.007717 78727.300000 0 0 1
8.351365 -25.155196 3.640426 26.754101 -1.250252 1.434303 0.053015 -0.004487 369649.000000 0 0 1
7.388165 -26.211026 3.551626 27.463010 -1.296052 1.441109 0.047852 -0.011829 -63929.200000 0 0 1
7.872865 -27.510046 3.886626 28.877162 -1.292065 1.435795 0.042174 -0.009116 162116.000000 0 0 1
6.821865 -28.615836 3.642526 29.642401 -1.336770 1.447603 0.042544 -0.010272 -164466.000000 0 0 1
5.721265 -28.671066 4.519326 29.583563 -1.373835 1.417431 0.037466 -0.007830 -550202.000000 0 0 1
4.700465 -29.492956 4.029726 30.135818 -1.412750 1.436676 0.041542 -0.004403 -184752.000000 0 0 1
4.855365 -31.026126 4.185526 31.681441 -1.415563 1.438296 0.042265 -0.006764 -636699.000000 0 0 1
5.853365 -31.496646 3.326126 32.208131 -1.387052 1.467342 0.045191 -0.012687 -350711.000000 0 0 1
5.933665 -32.884106 3.587326 33.607168 -1.392276 1.463850 0.042558 -0.011381 107139.000000 0 0 1
7.148765 -33.570726 2.917726 34.447230 -1.360984 1.485993 0.035969 -0.014512 78824.700000 0 0 1
7.013965 -33.757786 1.546926 34.513430 -1.365938 1.525960 0.040229 -0.015511 58288.900000 0 0 1
8.017465 33.738783 1.129226 34.696691 1.337490 1.538245 0.033598 -0.013639 -263839.000000 0 0 1
7.675465 33.284862 -0.313474 34.159816 1.344159 1.579973 0.039304 -0.007731 245268.000000 0 0 1
6.567665 32.402868 -0.355774 33.063675 1.370818 1.581557 0.035430 -0.000518 -456399.000000 0 0 1
5.374165 33.145425 -0.483474 33.581759 1.410056 1.585194 0.040206 -0.004319 -876630.000000 0 0 1
4.126465 32.315011 -0.167874 32.577842 1.443789 1.575949 0.032484 -0.003629 -184384.000000 0 0 1
3.981965 31.227921 -1.039974 31.497946 1.443968 1.603820 0.037087 0.000993 -68684.200000 0 0 1
2.935165 30.348831 -0.655074 30.497472 1.474382 1.592278 0.026575 -0.001814 244643.000000 0 0 1
2.668265 29.236361 -1.681074 29.405959 1.479783 1.627995 0.028795 -0.001559 121459.000000 0 0 1
2.089665 29.691881 -2.904174 29.906666 1.500534 1.668058 0.039545 -0.010253 57623.100000 0 0 1
2.198765 28.759431 -3.956774 29.113493 1.494491 1.707127 0.043231 -0.014392 -162593.000000 0 0 1
1.927465 29.311241 -5.408574 29.868321 1.505132 1.752881 0.048143 -0.023814 1018730.000000 0 0 1
0.525265 29.644621 -5.569874 30.167912 1.553079 1.756491 0.051118 -0.026330 1225900.000000 0 0 1
0.353365 30.575381 -6.656874 31.293653 1.559240 1.785157 0.047698 -0.025487 -109649.000000 0 0 1
0.543565 30.116271 -8.147474 31.203630 1.552749 1.834965 0.056598 -0.030031 220774.000000 0 0 1
-0.617835 29.407101 -8.613674 30.648893 -1.549790 1.855678 0.074884 -0.035042 663890.000000 0 0 1
-0.563535 28.952361 -9.969274 30.625858 -1.551335 1.902356 0.079447 -0.032890 -159957.000000 0 0 1
-0.621735 30.060931 -11.056874 32.035926 -1.550117 1.923184 0.065480 -0.031367 751891.000000 0 0 1
0.569765 30.873501 -11.026974 32.788593 1.552344 1.913787 0.057021 -0.035486 385625.000000 0 0 1
0.270865 32.140841 -11.626574 34.180173 1.562369 1.917879 0.050644 -0.032662 5734.290000 0 0 1
-0.224835 33.264348 -10.666274 34.933319 -1.564037 1.881084 0.047277 -0.029781 781576.000000 0 0 1
0.842665 33.735813 -9.815174 35.144740 1.545823 1.853839 0.051850 -0.034997 292948.000000 0 0 1
0.300065 -33.863856 -8.845474 35.001332 -1.561936 1.826285 0.042624 -0.030908 -244573.000000 0 0 1
1.255965 -33.414566 -7.707374 34.314928 -1.533227 1.797336 0.042388 -0.024474 -1145160.000000 0 0 1
2.335365 -32.718166 -8.104874 33.787887 -1.499539 1.813034 0.053542 -0.024972 -1540610.000000 0 0 1
3.212265 -32.496826 -6.994874 33.395967 -1.472268 1.781811 0.054516 -0.028632 -1246460.000000 0 0 1
4.477165 -31.752116 -7.430274 32.915815 -1.430716 1.798494 0.042645 -0.025526 -439084.000000 0 0 1
5.254365 -32.627836 -8.210174 34.052768 -1.411128 1.814297 0.043600 -0.023188 -308778.000000 0 0 1
6.003365 -33.604516 -7.550674 34.961645 -1.394014 1.788482 0.049270 -0.015186 -1505130.000000 0 0 1
6.458165 33.709298 -8.535074 35.367670 1.381506 1.814526 0.042643 -0.009521 207138.000000 0 0 1
5.514565 32.665111 -8.803574 34.277147 1.403552 1.830542 0.037146 -0.015040 273643.000000 0 0 1
4.428465 33.081634 -9.654074 34.744883 1.437723 1.852358 0.045277 -0.022376 671281.000000 0 0 1
3.442465 31.915631 -9.866274 33.582754 1.463350 1.868986 0.048143 -0.037052 -424907.000000 0 0 1
4.056265 31.021971 -10.774474 33.089352 1.440779 1.902461 0.030651 -0.015051 -44482.300000 0 0 1
3.585465 29.692501 -10.615874 31.736366 1.450625 1.911873 0.021097 -0.027072 -235280.000000 0 0 1
4.439465 28.657871 -11.361574 31.145911 1.417105 1.944199 0.012448 -0.020642 -199515.000000 0 0 1
4.358965 28.845161 -12.788774 31.852733 1.420815 1.983947 0.024895 -0.017164 86785.600000 0 0 1
5.656665 28.804001 -13.352674 32.248445 1.376879 1.997702 0.012016 -0.016928 145127.000000 0 0 1
5.635665 29.250891 -14.826274 33.274520 1.380462 2.032612 0.017586 -0.019181 46232.700000 0 0 1
4.856765 28.338471 -15.603374 32.712725 1.401061 2.068014 0.048697 -0.022428 67148.100000 0 0 1
4.663065 28.847221 -16.832674 33.723066 1.410536 2.093407 0.070592 -0.023124 -165076.000000 0 0 1
3.485665 28.156771 -17.511874 33.340955 1.447628 2.123789 0.068056 -0.026055 -237086.000000 0 0 1
3.988365 27.117261 -18.284474 32.948063 1.424765 2.159097 0.073527 -0.017108 309179.000000 0 0 1
2.987865 26.609081 -19.172874 32.932804 1.458977 2.192206 0.096525 -0.031229 587760.000000 0 0 1
3.489565 25.325641 -19.897874 32.395841 1.433871 2.232182 0.105007 -0.033425 297771.000000 0 0 1
3.657065 24.154201 -19.062874 30.986976 1.420533 2.233423 0.106978 -0.038430 -142329.000000 0 0 1
4.772065 23.377971 -19.426274 30.768201 1.369436 2.254121 0.101422 -0.033718 -284660.000000 0 0 1
4.947665 22.051611 -18.640274 29.295268 1.350084 2.260475 0.097333 -0.027536 -508767.000000 0 0 1
3.880465 21.157911 -18.514774 28.381544 1.389407 2.281481 0.117168 -0.027864 -767239.000000 0 0 1
4.254065 19.889411 -17.999674 27.160154 1.360085 2.295246 0.091448 -0.022318 -87049.400000 0 0 1
3.100465 18.879811 -17.959974 26.241585 1.408028 2.324589 0.075792 -0.028185 215670.000000 0 0 1
2.180765 18.962711 -16.872874 25.476146 1.456297 2.294682 0.077084 -0.026417 161135.000000 0 0 1
1.424365 17.767811 -16.691674 24.419989 1.490802 2.323377 0.049473 -0.016991 -52008.800000 0 1 0
2.091965 16.714511 -15.783074 23.083687 1.446285 2.323662 0.042708 -0.019043 279023.000000 0 1 0
3.329965 16.147211 -16.182674 23.101948 1.367422 2.346880 0.046364 -0.022568 -160225.000000 0 1 0
3.259965 15.018011 -17.074674 22.971994 1.357042 2.408760 0.050263 -0.023647 -199715.000000 0 1 0
3.042065 15.277711 -18.598374 24.260299 1.374249 2.444353 0.051987 -0.020583 526842.000000 0 1 0
4.281265 15.685411 -19.209474 25.166748 1.304341 2.439183 0.068845 -0.021859 661629.000000 0 0 1
3.937965 16.369111 -20.382074 26.436420 1.334710 2.451182 0.053525 -0.026309 -247765.000000 0 0 1
4.157065 15.511511 -21.662374 26.965656 1.308951 2.503666 0.063448 -0.033078 -176355.000000 0 0 1
3.382365 14.388611 -21.897174 26.418909 1.339916 2.547836 0.064376 -0.026254 -79589.900000 0 0 1
2.032765 14.675911 -22.245174 26.727556 1.433162 2.554029 0.061997 -0.035471 238151.000000 0 0 1
1.228165 13.454111 -22.781974 26.486597 1.479763 2.606325 0.067855 -0.025889 -13610.500000 0 0 1
1.084765 12.450311 -21.754574 25.088811 1.483888 2.620152 0.065703 -0.022466 -252544.000000 0 0 1
0.033465 11.674311 -22.227174 25.106531 1.567930 2.657966 0.054352 -0.011009 -433995.000000 0 0 1
-0.562335 10.689911 -21.207274 23.755818 -1.518240 2.674140 0.038635 -0.007986 -1136350.000000 0 1 0
-1.527435 11.205211 -20.385974 23.312609 -1.435317 2.635120 0.035301 -0.007263 -728056.000000 0 1 0
-2.013935 10.333511 -19.399774 22.072349 -1.378316 2.644384 0.025281 -0.004473 649546.000000 0 1 0
-3.117035 9.273011 -19.731674 22.023705 -1.246521 2.681314 0.021150 -0.007835 37709.600000 0 1 0
-2.605335 8.241111 -20.505374 22.252506 -1.264600 2.742686 0.024508 -0.008117 -623185.000000 0 1 0
-3.582335 7.332411 -20.958874 22.491593 -1.116341 2.770285 0.022402 -0.000674 -20524.600000 0 1 0
-3.064135 6.060911 -21.688174 22.726646 -1.102713 2.838125 0.027967 -0.012860 202714.000000 0 1 0
-2.280935 5.174411 -20.880174 21.632357 -1.155610 2.877114 0.030149 -0.011965 168762.000000 0 1 0
-1.911035 4.035111 -21.635974 22.091843 -1.128489 2.938091 0.035256 -0.017308 -153930.000000 0 1 0
-1.053135 2.984311 -20.884974 21.123384 -1.231549 2.991208 0.032998 -0.015404 -337386.000000 0 1 0
0.332065 3.116811 -20.875274 21.109283 1.464657 2.992555 0.024454 -0.010874 -655878.000000 0 1 0
0.980765 2.275711 -19.922774 20.076296 1.163879 3.017845 0.030325 -0.017517 -192117.000000 0 1 0
2.493865 2.333111 -20.124274 20.411986 0.752107 2.973495 0.025080 -0.015295 -345796.000000 0 1 0
3.004865 1.738211 -21.311874 21.592743 0.524435 2.980125 0.043366 -0.019523 235314.000000 0 1 0
4.386765 2.095411 -21.460874 22.004626 0.445622 2.918823 0.063093 -0.005347 619991.000000 0 1 0
5.021865 1.285711 -22.602374 23.189210 0.250639 2.916142 0.064600 -0.008393 -1639110.000000 0 1 0
6.383865 1.342711 -22.601874 23.524483 0.207307 2.860601 0.067381 -0.013088 -1400300.000000 0 1 0
6.920865 0.772611 -23.816374 24.813604 0.111175 2.857125 0.066642 -0.015361 485706.000000 0 1 0
8.461065 0.562811 -23.665174 25.138553 0.066420 2.797523 0.067269 -0.026713 278338.000000 0 0 1
9.121265 1.772111 -23.722174 25.477036 0.191893 2.768268 0.070371 -0.027835 -1060690.000000 0 0 1
10.459365 1.652811 -23.385674 25.671382 0.156726 2.716409 0.057902 -0.029304 -788216.000000 0 0 1
14.154865 -21.295406 22.312561 33.936778 -0.984163 0.853334 0.041817 -0.008324 -586877.000000 0 0 1
13.058065 -21.937406 22.953061 34.330830 -1.033883 0.838493 0.033424 -0.003151 2815880.000000 0 0 1
11.677665 -21.373306 22.824461 33.378767 -1.070747 0.817836 0.026550 -0.014868 2774050.000000 0 0 1
11.197365 -21.234506 21.372061 32.141099 -1.085533 0.843376 0.035080 -0.022809 -1015770.000000 0 0 1
11.802065 -20.099906 20.719861 31.186658 -1.039864 0.844129 0.025421 -0.023807 142210.000000 0 0 1
11.366965 -20.009406 19.352061 30.068031 -1.054177 0.871592 0.050555 -0.026001 59082.400000 0 0 1
11.585265 -18.664006 18.593561 28.779924 -1.015275 0.868385 0.065260 -0.030225 -244767.000000 0 0 1
10.675065 -17.694606 19.024961 28.089237 -1.027958 0.826704 0.070095 -0.031569 -190746.000000 0 0 1
10.817265 -16.462006 18.342461 26.915734 -0.989443 0.821017 0.076565 -0.025328 -186938.000000 0 0 1
9.801865 -15.371206 18.744861 26.148047 -1.003133 0.771488 0.077397 -0.016010 62117.800000 0 0 1
8.474665 -15.705406 18.425161 25.650854 -1.075971 0.769432 0.063173 -0.012695 -162094.000000 0 0 1
7.572165 -14.797306 19.053961 25.285399 -1.097812 0.717342 0.041965 -0.006843 557775.000000 0 0 1
6.080265 -14.860106 18.634261 24.597319 -1.182412 0.711210 0.026391 -0.004419 199406.000000 0 1 0
5.771965 -14.563806 17.296161 23.336179 -1.193464 0.735979 0.019389 -0.005892 349995.000000 0 1 0
4.400265 -14.844806 17.005061 22.997885 -1.282629 0.738590 0.003897 0.003519 320598.000000 0 1 0
4.043365 -16.327206 16.671161 23.682358 -1.328035 0.789855 0.002543 -0.001819 -170075.000000 0 1 0
2.663665 -16.344006 16.361361 23.279085 -1.409242 0.791421 0.003216 0.002606 15681.800000 0 1 0
2.031165 -17.609006 16.449561 24.182448 -1.455956 0.822724 0.011206 -0.003958 1333770.000000 0 1 0
0.517865 -17.498106 16.008661 23.721913 -1.541210 0.830039 0.026276 -0.004665 820193.000000 0 1 0
0.332365 -17.788606 14.633861 23.036816 -1.552114 0.882480 0.024947 0.007483 -370375.000000 0 1 0
-1.049135 -17.611506 14.448761 22.804222 1.511296 0.884598 0.018128 -0.001029 -481324.000000 0 1 0
-1.650535 -18.411706 13.274761 22.758174 1.481389 0.948015 0.016265 0.002123 -732340.000000 0 1 0
-3.033335 -18.398206 13.447361 22.989708 1.407395 0.946003 0.015633 -0.005296 -937236.000000 0 1 0
-3.591935 -19.270006 12.493261 23.244714 1.386511 1.003366 0.033710 -0.025667 565675.000000 0 1 0
-5.147835 -19.422406 12.443261 23.633976 1.311707 1.016319 0.040846 -0.027580 376409.000000 0 1 0
-5.770235 -19.937306 13.576961 24.801727 1.289075 0.991518 0.039674 -0.033537 -278571.000000 0 1 0
-5.931635 -21.317006 13.477761 25.908476 1.299403 1.023703 0.012587 -0.018829 -356549.000000 0 0 1
-6.703735 -22.063506 14.580461 27.282380 1.275822 1.006966 0.023343 -0.017374 1309390.000000 0 0 1
-8.122535 -21.735606 14.555761 27.391283 1.213168 1.010543 0.022427 -0.014039 886555.000000 0 0 1
-8.811935 -22.718906 15.275261 28.759912 1.200792 1.010862 0.020771 -0.012200 -615037.000000 0 0 1
-10.286135 -22.330106 15.318261 28.967005 1.139130 1.013590 0.037456 -0.001551 -431213.000000 0 0 1
-10.451335 -21.174806 16.155461 28.611218 1.112303 0.970781 0.019856 0.003605 -330085.000000 0 0 1
-11.677435 -20.532306 15.863461 28.453251 1.053683 0.979392 0.021061 0.001613 -199913.000000 0 0 1
-11.984735 -19.285906 16.725461 28.201438 1.014772 0.935928 0.028976 0.004901 -379153.000000 0 0 1
-12.317135 -19.648506 18.043961 29.382991 1.010851 0.909557 0.028603 0.010497 -74734.700000 0 0 1
-12.569535 -18.564306 18.910161 29.329523 0.975619 0.870102 0.022732 0.005253 -53754.400000 0 0 1
-12.920635 -19.012406 20.326161 30.684968 0.973900 0.846759 0.025463 0.003213 -163944.000000 0 0 1
-14.203335 -19.587106 20.412361 31.655236 0.943398 0.869991 0.039484 0.001091 -52453.800000 0 0 1
-14.427935 -20.280606 21.643661 32.983578 0.952450 0.855031 0.031982 0.007170 -755420.000000 0 0 1
-15.825335 -20.844806 21.767761 34.040896 0.921434 0.877002 0.043524 -0.002763 -1047880.000000 0 0 1
-15.903035 -21.951506 20.870861 34.210642 0.943841 0.914648 0.041608 -0.002613 474424.000000 0 0 1
-17.208935 -22.229206 20.393561 34.730137 0.912012 0.943200 0.051921 -0.003593 406207.000000 0 0 1
-18.228235 -22.950806 21.320161 36.243032 0.899583 0.941896 0.058421 -0.008850 -72250.100000 0 0 1
-18.852335 -22.081206 22.261961 36.586680 0.864116 0.916663 0.055053 -0.009203 -381568.000000 0 0 1
-19.944235 -22.638906 22.899661 37.877264 0.848594 0.921564 0.057760 -0.013245 -624427.000000 0 0 1
-20.523135 -21.736006 23.985921 38.327242 0.814091 0.894615 0.051761 -0.009634 -341870.000000 0 0 1
-21.273935 -20.740106 23.337961 37.780852 0.772693 0.904957 0.056071 -0.005148 -9322.550000 0 0 1
-21.655835 -19.723906 24.209411 38.001359 0.738744 0.880109 0.055475 -0.011112 -130375.000000 0 0 1
-22.737935 -18.810506 23.623481 37.801028 0.691152 0.895738 0.071152 -0.012945 21584.900000 0 0 1
-22.212735 -18.110706 22.490861 36.431335 0.684019 0.905427 0.075347 -0.010518 290639.000000 0 0 1
-23.034335 -17.000306 22.220561 36.240094 0.635804 0.910756 0.066226 -0.011886 -382705.000000 0 0 1
-22.669835 -16.350106 20.913861 34.908982 0.624831 0.928424 0.059901 -0.009022 102256.000000 0 0 1
-21.535435 -15.482106 20.837761 33.729555 0.623307 0.904868 0.078875 -0.014031 117049.000000 0 0 1
-21.192835 -15.180306 19.517761 32.565641 0.621578 0.928125 0.072560 -0.006129 -161919.000000 0 0 1
-20.036035 -14.201306 19.345261 31.262741 0.616600 0.903587 0.060033 -0.017832 -139004.000000 0 0 1
-19.639835 -14.157006 17.977361 30.155091 0.624570 0.932082 0.063604 -0.014111 69221.100000 0 0 1
-18.663535 -13.156506 17.748261 28.920961 0.614028 0.910081 0.063134 -0.020378 -289971.000000 0 0 1
-18.156135 -13.166406 16.266061 27.705311 0.627424 0.943312 0.048446 -0.022119 138325.000000 0 0 1
-17.691335 -11.957906 15.694061 26.500537 0.594381 0.936989 0.047663 -0.012583 1067160.000000 0 0 1
-16.612335 -11.238906 16.364661 25.885997 0.594807 0.886430 0.026275 -0.015977 486579.000000 0 0 1
-16.182335 -9.947506 15.611761 24.587557 0.551168 0.882858 0.039191 -0.010976 47544.500000 0 1 0
-17.071035 -8.873906 15.856861 24.932038 0.479379 0.881488 0.050793 -0.013493 237438.000000 0 1 0
-16.883835 -7.801106 14.935661 23.853619 0.432826 0.894206 0.060902 -0.013752 -918351.000000 0 1 0
-17.153435 -6.477706 15.640361 24.100248 0.361077 0.864565 0.064843 -0.015350 672164.000000 0 1 0
-16.209735 -6.200006 16.677861 24.069621 0.365318 0.805292 0.053337 -0.014549 167473.000000 0 1 0
-14.844235 -6.087406 16.373361 22.923674 0.389170 0.775236 0.059405 -0.020862 -920152.000000 0 1 0
-13.943935 -6.092806 17.632661 23.290908 0.411949 0.711992 0.051078 -0.014092 -65118.800000 0 1 0
-13.885935 -7.239306 18.497461 24.235982 0.480574 0.702510 0.040186 -0.018008 115200.000000 0 1 0
-13.479535 -8.429706 17.800661 23.866742 0.558866 0.729008 0.047672 -0.019753 -474186.000000 0 1 0
-13.434935 -9.740106 18.684061 24.989224 0.627297 0.726228 0.031806 -0.016583 1227340.000000 0 1 0
-14.745235 -10.285106 18.992761 26.152062 0.609060 0.757955 0.037229 -0.019042 1267880.000000 0 0 1
-15.474235 -9.647106 20.060361 27.109716 0.557470 0.737771 0.029035 -0.014063 222430.000000 0 0 1
-16.855135 -10.341706 20.347161 28.373464 0.550333 0.771136 0.023331 -0.013931 1526780.000000 0 0 1
-17.938935 -10.243906 19.393461 28.334597 0.518856 0.816955 0.038273 -0.016030 1137960.000000 0 0 1
-18.413735 -8.884506 19.109861 27.985477 0.449545 0.819141 0.036264 -0.012811 -845490.000000 0 0 1
-19.522835 -8.780406 18.098561 28.032028 0.422646 0.868937 0.055022 -0.013525 -552533.000000 0 0 1
-20.808535 -9.172906 18.492561 29.310616 0.415197 0.888062 0.055172 -0.013025 101740.000000 0 0 1
-21.745935 -9.022206 17.425761 29.290665 0.393278 0.933623 0.062120 -0.010794 624389.000000 0 0 1
-23.239435 -9.323806 17.748761 30.692397 0.381546 0.954179 0.069024 -0.006879 113611.000000 0 0 1
-23.744135 -8.320606 18.544161 31.255438 0.337056 0.935632 0.077760 -0.007288 -507328.000000 0 0 1
-25.065325 -8.606206 18.858761 32.526761 0.330739 0.952323 0.093199 -0.006390 -696029.000000 0 0 1
-25.882225 -7.500606 19.561361 33.298582 0.282071 0.942888 0.086720 -0.009282 37977.600000 0 0 1
-25.547045 -7.378306 20.935061 33.843282 0.281162 0.903851 0.088922 -0.007575 453842.000000 0 0 1
-26.394455 -6.418106 21.543061 34.669336 0.238532 0.900285 0.084984 -0.013722 -413154.000000 0 0 1
-26.279745 -6.573006 23.085461 35.591684 0.245089 0.865027 0.078221 -0.009878 259434.000000 0 0 1
-25.156645 -6.069606 23.794821 35.155234 0.236748 0.827321 0.075212 -0.013607 173078.000000 0 0 1
-24.012735 -6.874306 23.600311 34.363385 0.278820 0.813738 0.079017 -0.012694 -395626.000000 0 0 1
-22.887935 -6.749806 24.654641 34.311351 0.286778 0.769072 0.073465 -0.012737 345158.000000 0 0 1
-22.272035 -5.463306 24.697391 33.702410 0.240549 0.748357 0.062916 -0.011770 -33180.700000 0 0 1
-21.448535 -5.281006 25.800211 33.964387 0.241416 0.708059 0.060737 -0.016248 -225382.000000 0 0 1
-21.026735 -3.813806 25.887121 33.568017 0.179428 0.690097 0.051184 -0.016654 640092.000000 0 0 1
-19.945235 -3.439906 26.769481 33.559656 0.170787 0.647377 0.042217 -0.013452 540838.000000 0 0 1
-20.328035 -3.352606 28.165941 34.896837 0.163454 0.631538 0.048911 -0.017435 616315.000000 0 0 1
-21.327135 -2.186706 28.585221 35.731545 0.102175 0.643502 0.055798 -0.024873 266250.000000 0 0 1
-22.631335 -2.376106 28.124591 36.177560 0.104609 0.680268 0.061496 -0.026422 -1055430.000000 0 0 1
-23.466635 -1.527406 28.860021 37.227903 0.064997 0.683724 0.064826 -0.018792 44063.400000 0 0 1
-24.750735 -1.098506 28.119421 37.476759 0.044354 0.722256 0.072436 -0.024454 -588533.000000 0 0 1
-24.506635 -0.338106 26.935641 36.417280 0.013796 0.738262 0.072491 -0.029724 208229.000000 0 0 1
-25.705905 -0.038606 26.240111 36.733343 0.001502 0.775115 0.074179 -0.021782 -71124.200000 0 0 1
-26.453535 -1.190406 25.580091 36.817763 0.044970 0.802688 0.069093 -0.023337 -390772.000000 0 0 1
-27.267575 -1.953706 26.471771 38.053808 0.071527 0.801485 0.057468 -0.019164 171450.000000 0 0 1
-27.624015 -3.209306 25.940851 38.030431 0.115660 0.820155 0.042246 -0.010976 -129844.000000 0 0 1
-26.589755 -4.285506 26.251261 37.609964 0.159797 0.798214 0.057730 -0.017372 -70324.300000 0 0 1
-26.450195 -4.763906 27.614181 38.533760 0.178198 0.771848 0.060982 -0.014914 -281623.000000 0 0 1
-25.446155 -5.744306 27.630041 37.998988 0.222022 0.756671 0.077289 -0.018466 -358247.000000 0 0 1
-25.231415 -6.231806 29.076921 38.999065 0.242140 0.729392 0.065596 -0.018155 931259.000000 0 0 1
-26.403535 -6.851706 29.683401 40.313731 0.253899 0.743196 0.062182 -0.011565 1050140.000000 0 0 1
-26.052355 -7.536106 30.800871 41.039150 0.281582 0.721942 0.070256 -0.009439 -442437.000000 0 0 1
-27.304715 -8.107406 31.498471 42.466825 0.288632 0.735166 0.040165 -0.014227 284835.000000 0 0 1
-28.042295 -8.993906 30.605991 42.473373 0.310362 0.766140 0.038413 -0.015504 563200.000000 0 0 1
-29.374385 -9.084906 31.110541 43.740780 0.299949 0.779524 0.038393 -0.008904 472027.000000 0 0 1
-30.252915 -9.786606 30.023451 43.731272 0.312868 0.814071 0.027638 -0.019927 -152068.000000 0 0 1
-29.960355 -11.133006 30.002481 43.837377 0.355779 0.817010 0.046880 -0.025059 270780.000000 0 0 1
-30.838615 -11.967406 29.237241 44.148106 0.370176 0.846974 0.025980 -0.015604 125709.000000 0 0 1
-30.111335 -13.185706 28.601441 43.572902 0.412745 0.854754 0.042443 -0.023275 -42219.100000 0 0 1
-29.139565 -12.702506 27.699511 42.163146 0.411083 0.854017 0.058327 -0.027467 -75638.200000 0 0 1
-28.222155 -13.746506 27.379251 41.654290 0.453260 0.853569 0.068600 -0.028756 -9710.530000 0 0 1
-26.892025 -13.233506 26.797851 40.204870 0.457306 0.841249 0.083851 -0.035427 337204.000000 0 0 1
-25.967305 -12.485106 27.630391 39.920137 0.448171 0.806344 0.080041 -0.038962 663185.000000 0 0 1
-26.454435 -11.201206 28.153211 40.223221 0.400527 0.795505 0.080777 -0.041975 -374758.000000 0 0 1
-26.696435 -10.107106 27.112111 39.369021 0.361918 0.811149 0.088056 -0.039427 950877.000000 0 0 1
-25.511035 -9.467106 26.565681 38.028601 0.355346 0.797398 0.076351 -0.031945 1179300.000000 0 0 1
-24.781935 -10.068106 25.464901 36.931996 0.385898 0.809987 0.070692 -0.033816 255242.000000 0 0 1
-25.534415 -10.214706 24.133991 36.589563 0.380538 0.850527 0.079628 -0.026220 -636085.000000 0 0 1
-26.659635 -11.045006 24.205981 37.665075 0.392770 0.872826 0.085956 -0.028905 -497202.000000 0 0 1
-27.291095 -11.170106 22.951361 37.367635 0.388493 0.909419 0.097545 -0.018049 -799742.000000 0 0 1
-28.548105 -12.018106 23.063461 38.618033 0.398459 0.930766 0.101363 -0.032546 -632544.000000 0 0 1
-29.718795 -11.384206 23.483531 39.551020 0.365822 0.935081 0.090364 -0.023034 -335818.000000 0 0 1
-29.766885 -11.300806 24.925261 40.435682 0.362836 0.906611 0.092596 -0.025243 -1138070.000000 0 0 1
-31.137165 -10.968006 25.490851 41.708557 0.338676 0.913263 0.044163 -0.016504 -821285.000000 0 0 1
-31.594655 -9.655806 25.217421 41.561703 0.296600 0.918835 0.040845 -0.012823 -391057.000000 0 0 1
-32.914715 -9.395406 25.610421 42.749805 0.278053 0.928449 0.032677 -0.007348 -20859.500000 0 0 1
-33.505155 -9.569406 27.030421 44.100030 0.278203 0.911027 0.011745 -0.000187 -651743.000000 0 0 1
-33.928785 -10.839106 27.340141 44.901359 0.309219 0.916131 0.014617 -0.010685 -172795.000000 0 0 1
-34.628465 -10.714606 28.539031 46.134691 0.300073 0.903834 0.002220 -0.011881 -501089.000000 0 0 1
-35.107841 -12.039206 29.239201 47.248639 0.330354 0.903535 0.010105 -0.004480 -361223.000000 0 0 1
-36.211465 -12.687906 28.726631 47.931958 0.337017 0.928144 0.002862 -0.007418 -359906.000000 0 0 1
35.267470 -12.247206 29.251591 47.428305 -0.334237 0.906184 0.003106 -0.001358 1388360.000000 0 0 1
33.957860 -12.784006 28.506421 46.143072 -0.360056 0.904876 0.012250 -0.007441 1109720.000000 0 0 1
33.910810 -12.183606 27.239811 45.170683 -0.344921 0.923487 0.014697 -0.002749 30173.900000 0 0 1
32.872990 -12.706006 26.416661 44.044478 -0.368830 0.927580 0.023137 0.000985 159122.000000 0 0 1
32.954220 -12.120206 24.982871 43.093200 -0.352434 0.952386 0.016300 -0.008602 85006.600000 0 0 1
32.420890 -10.812406 24.894831 42.282087 -0.321902 0.941248 0.031734 -0.014892 -58145.100000 0 0 1
32.763620 -10.218206 23.688511 41.701464 -0.302317 0.966662 0.021759 -0.014816 -475052.000000 0 0 1
32.342240 -8.734306 23.476241 40.907731 -0.263767 0.959557 0.049536 -0.002440 448181.000000 0 0 1
30.928400 -8.595106 23.354181 39.697097 -0.271063 0.941830 0.060904 -0.011196 219649.000000 0 0 1
30.596500 -7.315106 22.744961 38.819967 -0.234678 0.944795 0.072517 -0.002289 -850398.000000 0 0 1
29.112930 -7.095806 22.906961 37.717927 -0.239072 0.918110 0.063086 0.004038 -414069.000000 0 0 1
28.327630 -7.914606 22.008061 36.734866 -0.272448 0.928413 0.058670 0.007469 -782348.000000 0 0 1
26.985770 -7.909406 22.326761 35.906472 -0.285110 0.899753 0.057751 -0.004686 -966583.000000 0 0 1
14.977965 -17.747606 25.824121 34.730422 -0.869829 0.732419 0.043687 0.007216 -36280.200000 0 0 1
14.213865 -18.892406 26.050021 35.178979 -0.925787 0.736983 0.034784 0.000823 94933.800000 0 0 1
15.030565 -20.029906 26.027171 36.118260 -0.927035 0.766115 0.032272 -0.004990 -434790.000000 0 0 1
14.188265 -21.330506 26.090631 36.565262 -0.983835 0.776264 0.011411 -0.015325 525194.000000 0 0 1
13.435565 -21.538106 27.316721 37.290853 -1.013057 0.748763 0.012872 -0.016982 1091670.000000 0 0 1
12.211065 -20.809206 27.447601 36.544548 -1.040131 0.721111 0.025091 -0.011614 366339.000000 0 0 1
11.507565 -21.029506 28.858341 37.516237 -1.070097 0.693173 0.018820 -0.012826 304066.000000 0 0 1
12.251665 -20.454706 29.912381 38.252436 -1.031138 0.672971 0.025844 -0.011972 124066.000000 0 0 1
11.426965 -19.641206 30.730951 38.219679 -1.043878 0.636702 0.030317 -0.010104 251593.000000 0 0 1
11.115565 -18.206506 30.245771 37.011341 -1.022672 0.614255 0.031464 -0.009944 1376910.000000 0 0 1
12.288965 -17.349106 30.374991 37.076276 -0.954499 0.610683 0.022587 0.003779 940031.000000 0 0 1
11.916665 -16.079206 29.877061 35.960903 -0.933001 0.590216 0.032946 0.000841 312108.000000 0 0 1
12.989065 -15.007706 30.179641 36.121431 -0.857376 0.581745 0.035160 0.001923 57886.500000 0 0 1
12.773665 -13.816806 29.590871 35.066941 -0.824608 0.566397 0.067473 -0.003745 272669.000000 0 0 1
13.636065 -12.753406 30.080471 35.403762 -0.751963 0.555493 0.065478 -0.001024 241053.000000 0 0 1
13.121465 -11.340406 29.749911 34.435953 -0.712717 0.527794 0.074139 -0.010858 -4321.320000 0 0 1
13.276465 -10.854706 28.380601 33.159429 -0.685375 0.543540 0.090541 -0.007833 2130.320000 0 0 1
14.625665 -10.549306 28.088571 33.379122 -0.624870 0.570740 0.080181 -0.009873 -141309.000000 0 0 1
14.885065 -9.502506 26.944371 32.215865 -0.568172 0.580170 0.082353 0.001010 1493.090000 0 0 1
14.975665 -8.169006 27.485281 32.348785 -0.499371 0.555467 0.086473 -0.006461 196638.000000 0 0 1
16.287465 -7.892106 27.941781 33.291290 -0.451212 0.574780 0.084608 -0.011484 -232704.000000 0 0 1
16.691265 -6.421606 27.682341 32.956750 -0.367272 0.573587 0.079778 -0.012074 -474003.000000 0 0 1
18.062365 -6.288006 27.885541 33.814072 -0.335006 0.601173 0.070825 -0.020363 -647597.000000 0 0 1
18.613265 -5.063106 27.449191 33.549169 -0.265590 0.612561 0.060227 -0.018981 -1525530.000000 0 0 1
20.103365 -5.079906 27.406741 34.366847 -0.247508 0.647696 0.053656 -0.018674 -2212610.000000 0 0 1
20.508465 -6.061706 26.448501 34.012713 -0.287389 0.679947 0.051974 -0.008546 886771.000000 0 0 1
21.912465 -6.073406 26.125331 34.634886 -0.270379 0.716199 0.048904 -0.002661 1206850.000000 0 0 1
22.938065 -6.371706 27.266221 36.196689 -0.270948 0.717762 0.051344 -0.013152 -618671.000000 0 0 1
23.279565 -5.121406 27.898361 36.694489 -0.216546 0.707041 0.053501 -0.013327 -84513.400000 0 0 1
24.212365 -5.368106 28.931321 38.106122 -0.218180 0.708667 0.068406 -0.029784 -100151.000000 0 0 1
24.862165 -4.051606 29.355931 38.682211 -0.161543 0.709174 0.073331 -0.031841 -304688.000000 0 0 1
25.569965 -3.316606 28.390291 38.351423 -0.128987 0.737329 0.061384 -0.021961 58537.300000 0 0 1
26.024265 -2.113606 28.938491 38.976480 -0.081039 0.734061 0.052541 -0.026312 -753794.000000 0 0 1
26.847465 -1.256006 27.986591 38.802232 -0.046749 0.765173 0.056952 -0.022558 -434772.000000 0 0 1
28.195065 -1.436906 28.313001 39.983152 -0.050919 0.783960 0.068668 -0.013403 -237292.000000 0 0 1
29.124065 -1.014606 27.300391 39.931841 -0.034823 0.818010 0.061866 -0.002844 673782.000000 0 0 1
30.612565 -0.931406 27.697891 41.293702 -0.030416 0.835572 0.059351 -0.011602 326476.000000 0 0 1
31.029965 0.161894 28.536801 42.157253 0.005217 0.827235 0.047130 0.003112 330253.000000 0 0 1
32.420365 0.200594 28.830061 43.385398 0.006187 0.843957 0.060362 -0.004741 385801.000000 0 0 1
32.773465 1.340394 29.821851 44.331021 0.040876 0.832933 0.045079 -0.015143 -282562.000000 0 0 1
32.865165 2.645794 29.305191 44.112510 0.080331 0.844201 0.040405 -0.008985 174378.000000 0 0 1
32.999865 3.633194 30.287391 44.939039 0.109656 0.831232 0.036534 -0.003562 -115405.000000 0 0 1
32.907865 5.033394 29.603351 44.549085 0.151778 0.843957 0.035233 0.003821 -135068.000000 0 0 1
32.990465 6.145694 30.427081 45.298428 0.184176 0.834291 0.039869 0.004921 327594.000000 0 0 1
31.782865 6.504594 31.085051 44.930398 0.201870 0.806750 0.035365 0.005869 -149274.000000 0 0 1
32.018365 7.372794 32.340551 46.102549 0.226323 0.793308 0.033907 0.000128 -180099.000000 0 0 1
32.491865 6.639294 33.460675 47.110702 0.201562 0.780934 0.030531 0.009288 598.471000 0 0 1
32.476065 7.367894 -33.774244 47.430794 0.223095 2.363244 0.036762 0.003782 115933.000000 0 0 1
33.176065 6.676594 -32.546244 46.951956 0.198595 2.336691 0.059204 -0.001474 2823.710000 0 0 1
32.461265 5.587994 -31.997874 45.921926 0.170473 2.341707 0.046976 0.006266 272182.000000 0 0 1
32.511165 4.381594 -32.749424 46.354061 0.133965 2.355345 0.056486 -0.002791 31570.000000 0 0 1
32.317765 3.154094 -31.820434 45.463460 0.097288 2.346071 0.059604 -0.008615 -49238.600000 0 0 1
32.581865 1.959794 -32.515584 46.072572 0.060077 2.354273 0.057047 -0.008213 213230.000000 0 0 1
32.444665 0.825894 -31.639614 45.325528 0.025450 2.343471 0.053037 -0.011543 -186523.000000 0 0 1
32.468565 -0.532106 -32.344304 45.832792 -0.016387 2.354210 0.065151 -0.036373 -328120.000000 0 0 1
33.652865 -0.722306 -33.099864 47.208453 -0.021460 2.347795 0.049938 -0.029355 203938.000000 0 0 1
34.258865 -1.994506 -32.865094 47.515916 -0.058153 2.334588 0.050650 -0.024386 960379.000000 0 0 1
35.385765 -2.013506 -31.758314 47.589884 -0.056840 2.301419 0.058442 -0.022811 691361.000000 0 0 1
34.761365 -2.009606 -30.451764 46.256901 -0.057747 2.289379 0.072048 -0.023702 -180727.000000 0 0 1
35.656865 -1.591806 -29.503924 46.307962 -0.044613 2.261558 0.091140 -0.021523 -491354.000000 0 0 1
35.037365 -1.286706 -28.097514 44.930422 -0.036707 2.246384 0.088863 -0.025491 -203636.000000 0 0 1
34.358365 -0.100606 -27.938794 44.284123 -0.002928 2.253507 0.078953 -0.009293 99028.500000 0 0 1
33.350265 -0.227806 -26.954164 42.881453 -0.006831 2.250515 0.078299 -0.006148 -61826.200000 0 0 1
32.685565 1.139394 -26.754784 42.254737 0.034845 2.256449 0.056750 0.008796 -163403.000000 0 0 1
31.895065 1.545494 -27.858394 42.376571 0.048418 2.288161 0.071328 -0.007933 138557.000000 0 0 1
31.152065 2.686494 -27.512874 41.648849 0.086025 2.292403 0.057011 0.008350 107574.000000 0 0 1
30.292165 3.171894 -28.728414 41.868818 0.104330 2.326984 0.062184 -0.000423 -248818.000000 0 0 1
29.357665 4.163494 -28.468294 41.105363 0.140880 2.335840 0.057374 0.002097 -162192.000000 0 0 1
28.699965 4.638794 -29.643614 41.520479 0.160245 2.365922 0.047427 0.002621 143676.000000 0 0 1
27.618565 5.664094 -29.238504 40.617203 0.202278 2.374390 0.049109 -0.005265 497593.000000 0 0 1
26.575065 5.099794 -28.421494 39.243130 0.189597 2.380730 0.062398 -0.006942 305392.000000 0 0 1
25.661065 6.025094 -27.916984 38.394661 0.230618 2.384893 0.065300 -0.006847 -847164.000000 0 0 1
24.325465 5.388294 -27.584794 37.170994 0.217989 2.407002 0.068899 -0.006527 -568616.000000 0 0 1
23.604465 5.080694 -28.780664 37.567417 0.212008 2.443558 0.068152 -0.012101 255518.000000 0 0 1
22.253565 4.752894 -28.525854 36.490211 0.210418 2.468247 0.079007 -0.017257 -57562.400000 0 0 1
21.459465 4.390494 -29.775664 36.964513 0.201810 2.507349 0.069608 -0.014214 -119799.000000 0 0 1
21.456365 2.954294 -29.932934 36.947043 0.136828 2.515218 0.073588 -0.023732 94688.600000 0 0 1
20.615565 2.612994 -31.045164 37.358151 0.126076 2.551725 0.047823 -0.026078 -3149.030000 0 0 1
20.837665 3.051994 -32.511044 38.736170 0.145431 2.566780 0.055068 -0.014761 -1472180.000000 0 0 1
22.060265 2.733194 -33.025884 39.809981 0.123269 2.549166 0.061424 -0.016422 -1484960.000000 0 0 1
22.188065 3.297694 34.119011 40.832486 0.147545 0.581600 0.053640 -0.019542 -543776.000000 0 0 1
23.569165 3.111594 33.514904 41.090587 0.131261 0.616971 0.050524 -0.013127 -517144.000000 0 0 1
23.987965 1.776994 33.302490 41.080847 0.073943 0.625522 0.070309 -0.021457 909124.000000 0 0 1
25.392465 1.594394 33.021587 41.686264 0.062708 0.656480 0.072574 -0.023587 993449.000000 0 0 1
25.595365 0.026394 32.685023 41.514264 0.001031 0.664346 0.067463 -0.028493 -481575.000000 0 0 1
25.043565 -0.489706 31.499031 40.244365 -0.019552 0.671814 0.067951 -0.032183 -630250.000000 0 0 1
23.685165 -0.606706 31.257171 39.222008 -0.025610 0.648601 0.071419 -0.037534 -1249090.000000 0 0 1
22.883765 -1.547506 32.121731 39.469825 -0.067522 0.620083 0.069248 -0.035585 -995833.000000 0 0 1
23.070265 -2.911606 31.823581 39.413892 -0.125542 0.631030 0.075219 -0.047517 25462.900000 0 0 1
22.355865 -3.662706 32.764457 39.833526 -0.162394 0.604943 0.075717 -0.039454 -342426.000000 0 0 1
22.306465 -5.169706 32.446436 39.712409 -0.227738 0.614546 0.073263 -0.041897 54206.600000 0 0 1
23.567665 -5.805106 32.325211 40.423426 -0.241509 0.644059 0.076728 -0.038900 -171773.000000 0 0 1
23.455265 -7.197606 32.346891 40.598970 -0.297743 0.648912 0.090539 -0.036304 -798999.000000 0 0 1
24.698565 -8.048806 32.178061 41.354927 -0.315029 0.679169 0.077344 -0.033692 -294695.000000 0 0 1
25.302465 -7.871906 30.873601 40.686126 -0.301620 0.709291 0.084802 -0.037900 -804888.000000 0 0 1
26.473665 -8.560506 30.658721 41.401623 -0.312747 0.736953 0.078506 -0.034539 -654470.000000 0 0 1
27.000265 -8.355706 29.269501 40.688276 -0.300120 0.767916 0.071433 -0.023317 66555.700000 0 0 1
26.119465 -8.896206 28.314831 39.536042 -0.328273 0.772486 0.056592 -0.017412 -74261.200000 0 0 1
26.494465 -8.392506 27.030171 38.768815 -0.306765 0.799292 0.069014 -0.015338 272354.000000 0 0 1
25.841465 -9.153206 25.866651 37.691460 -0.340417 0.814443 0.039671 -0.011340 583150.000000 0 0 1
24.431265 -8.999006 25.698411 36.582471 -0.352919 0.791922 0.040131 -0.015856 459748.000000 0 0 1
23.898665 -9.811106 24.656381 35.711918 -0.389550 0.808721 0.044818 -0.009807 -334002.000000 0 0 1
22.469265 -9.456706 24.273211 34.401830 -0.398370 0.787556 0.024230 0.005173 -450512.000000 0 0 1
21.562765 -9.780906 25.306971 34.656338 -0.425845 0.752143 0.020747 0.008791 -232243.000000 0 0 1
20.267965 -9.315406 24.961521 33.476032 -0.430819 0.729281 0.033895 0.009795 226177.000000 0 0 1
19.296265 -9.296006 26.163581 33.812639 -0.448943 0.686008 0.056439 -0.008625 16095.200000 0 0 1
18.641065 -10.518506 26.506591 34.069453 -0.513729 0.679294 0.061425 0.000683 368407.000000 0 0 1
19.367965 -11.239206 27.506511 35.468944 -0.525807 0.683274 0.043947 0.003253 -120733.000000 0 0 1
18.549565 -12.236206 28.336471 36.010647 -0.583129 0.665041 0.056002 -0.003711 60383.800000 0 0 1
17.817065 -13.155506 27.525241 35.329224 -0.636013 0.677556 0.056582 -0.002668 229338.000000 0 0 1
17.003965 -14.089306 28.220151 35.833229 -0.691932 0.663987 0.051453 -0.000779 -4605.930000 0 0 1
17.658565 -15.338306 28.856011 37.145093 -0.715196 0.681155 0.055692 0.008782 -151054.000000 0 0 1
16.687265 -16.277006 29.312691 37.451831 -0.772953 0.671841 0.053045 0.009318 367811.000000 0 0 1
17.285765 -17.493706 29.768521 38.613369 -0.791377 0.690483 0.052250 0.005501 143850.000000 0 0 1
17.793665 -18.455706 28.602801 38.410257 -0.803660 0.730762 0.042985 0.003870 329948.000000 0 0 1
18.948565 -18.084306 27.886591 38.259015 -0.762065 0.754098 0.059088 -0.004151 200708.000000 0 0 1
19.433765 -19.020006 26.927291 38.268928 -0.774639 0.790298 0.056481 0.001400 41724.500000 0 0 1
20.462565 -18.395006 25.946671 37.819606 -0.732240 0.814731 0.059296 -0.012505 -949999.000000 0 0 1
21.658365 -18.257606 26.598821 38.857718 -0.700405 0.816854 0.076412 -0.014231 -746870.000000 0 0 1
22.649265 -17.632806 25.759501 38.567564 -0.661503 0.839405 0.066000 -0.009778 748413.000000 0 0 1
24.057565 -17.459906 26.379591 39.742894 -0.627803 0.844967 0.066025 -0.012967 153586.000000 0 0 1
24.715165 -18.685006 26.649331 40.867538 -0.647339 0.860458 0.062022 -0.015749 -1444380.000000 0 0 1
26.053565 -18.459206 26.777911 41.672378 -0.616414 0.872933 0.050837 -0.017867 -1333430.000000 0 0 1
26.891965 -19.739306 26.940281 42.878861 -0.633197 0.891445 0.042841 -0.012695 -84743.000000 0 0 1
26.922965 -20.166606 28.319081 43.971677 -0.642892 0.871042 0.045593 -0.014213 -165548.000000 0 0 1
27.467465 -21.446406 28.452871 44.988619 -0.662919 0.886089 0.047566 -0.006651 -615636.000000 0 0 1
26.712365 -22.461106 29.266041 45.547260 -0.699158 0.872985 0.061237 -0.004960 -263778.000000 0 0 1
26.716965 -22.238306 30.668391 46.356107 -0.694167 0.847869 0.067246 -0.011313 -61571.000000 0 0 1
26.118765 -23.348306 31.303611 46.981373 -0.729451 0.841563 0.078307 -0.011052 -187457.000000 0 0 1
25.760465 -23.278406 32.791789 47.757588 -0.734827 0.813953 0.065075 -0.012028 -19271.900000 0 0 1
25.081265 -24.457006 33.127498 48.214584 -0.772797 0.813327 0.060232 -0.008069 -154477.000000 0 0 1
24.831465 -24.501306 -33.898064 48.641488 -0.778706 2.341857 0.062714 -0.005067 -172656.000000 0 0 1
24.602365 -25.866796 -33.326974 48.837022 -0.810446 2.321854 0.051475 -0.010328 21962.000000 0 0 1
23.390865 -26.523716 -33.609204 48.787485 -0.848080 2.330753 0.063484 -0.010227 -323635.000000 0 0 1
23.341865 -27.177106 33.531444 49.069293 -0.861170 0.818457 0.063300 -0.005731 346117.000000 0 0 1
21.972865 -27.918416 33.509360 48.837711 -0.904009 0.814631 0.085723 -0.012402 414017.000000 0 0 1
21.954365 -29.190796 34.156683 50.007757 -0.925953 0.818896 0.083237 -0.023116 511406.000000 0 0 1
20.666065 -29.809986 34.118428 49.797477 -0.964608 0.815995 0.104240 -0.031700 312136.000000 0 0 1
20.654265 -31.386716 -34.056594 50.710711 -0.988778 2.307143 0.077024 -0.028033 -381956.000000 0 0 1
21.188465 -31.882246 -32.875814 50.460359 -0.984236 2.280380 0.056404 -0.026378 654255.000000 0 0 1
22.502365 -32.410606 -33.106074 51.505494 -0.963913 2.268902 0.037040 -0.018125 107829.000000 0 0 1
23.119565 -33.012586 -31.841934 51.363936 -0.959852 2.239447 0.021531 -0.014815 -602107.000000 0 0 1
24.385165 -33.605926 -32.128234 52.499695 -0.943081 2.229345 0.013593 -0.010736 371763.000000 0 0 1
24.990265 -34.166711 -30.999574 52.467619 -0.939292 2.202887 0.013227 0.002777 31522.300000 0 0 1
25.727665 -33.193996 -30.080734 51.658539 -0.911443 2.192350 0.017443 -0.004983 -777387.000000 0 0 1
26.215965 -33.750106 -28.875294 51.576439 -0.910383 2.165006 0.027027 0.000559 -56096.200000 0 0 1
26.994065 -32.717016 -28.283074 50.980535 -0.880950 2.158897 0.031619 0.002029 119859.000000 0 0 1
27.651965 -32.988756 -26.884674 50.751107 -0.873179 2.129085 0.031944 0.003073 766800.000000 0 0 1
28.762365 -33.880096 -27.015354 52.009267 -0.866915 2.116984 0.035610 0.008923 -46170.900000 0 0 1
29.638665 -33.871946 -25.938204 51.947566 -0.851954 2.093604 0.044540 0.003708 22290.500000 0 0 1
-27.093515 -30.412123 8.855326 41.681802 0.843043 1.356714 0.029987 0.000949 41678.600000 0 0 1
-27.204825 -31.549923 9.720926 42.778460 0.859217 1.341555 0.037441 -0.003383 -434234.000000 0 0 1
-26.049085 -31.789123 10.468926 42.411103 0.884317 1.321374 0.023996 -0.002147 -231056.000000 0 0 1
-26.140445 -32.960123 11.407326 43.586921 0.900281 1.305998 0.024713 -0.002114 56355.700000 0 0 1
-25.983935 -34.177523 10.723526 44.252254 0.920759 1.326032 0.023942 -0.002576 115134.000000 0 0 1
-26.876335 33.230394 11.199426 44.181711 -0.890720 1.314515 0.015059 -0.015876 267819.000000 0 0 1
-26.268085 31.813394 11.058126 42.712837 -0.880584 1.308919 0.034018 -0.011596 165670.000000 0 0 1
-26.107745 31.374294 9.700326 41.953033 -0.876764 1.337466 0.050550 -0.021962 -149385.000000 0 0 1
-25.967505 29.980794 9.646126 40.819200 -0.857008 1.332226 0.061686 -0.018018 -140123.000000 0 0 1
-25.453465 29.534794 8.231826 39.849039 -0.859484 1.362723 0.044625 -0.009217 237522.000000 0 0 1
-24.054835 29.798794 8.090226 39.141474 -0.891655 1.362604 0.024576 -0.008138 560322.000000 0 0 1
-23.590835 29.608294 6.764426 38.456937 -0.898031 1.393980 0.005023 -0.003500 -622932.000000 0 0 1
-22.390335 28.703594 6.695026 37.014143 -0.908337 1.388918 0.038273 -0.001484 -950402.000000 0 0 1
-22.569135 27.322994 7.121426 36.147290 -0.880394 1.372488 0.042850 -0.008797 61995.700000 0 0 1
-23.090935 26.451794 6.174426 35.651258 -0.853132 1.396729 0.026122 -0.008643 -673602.000000 0 0 1
-23.422335 25.051094 6.523326 34.910126 -0.818987 1.382831 0.040745 -0.008975 -561969.000000 0 0 1
-24.646235 24.871694 7.201826 35.747788 -0.789951 1.367946 0.042900 -0.012391 224124.000000 0 0 1
-24.902335 23.488094 7.510226 35.045975 -0.756181 1.354825 0.049742 -0.019505 -274190.000000 0 0 1
-25.337795 22.570294 6.329326 34.517856 -0.727695 1.386389 0.026369 -0.022060 -807679.000000 0 0 1
-26.639405 22.955494 5.979626 35.670275 -0.711254 1.402365 0.032137 -0.019392 -200696.000000 0 0 1
-27.124035 22.478594 4.719226 35.542532 -0.692017 1.437626 0.019901 -0.018001 41444.800000 0 0 1
-26.746265 23.317194 3.466026 35.652035 -0.717010 1.473424 0.009350 -0.017411 559622.000000 0 0 1
-25.360455 23.643094 3.257426 34.824695 -0.750367 1.477122 0.008806 -0.017833 989242.000000 0 0 1
-25.186675 24.394694 2.066426 35.124633 -0.769426 1.511931 0.010651 -0.016012 921902.000000 0 0 1
-23.823035 25.195794 2.091926 34.738181 -0.813396 1.510540 0.028597 -0.009626 950460.000000 0 0 1
-23.256535 25.589194 0.856226 34.589108 -0.833118 1.546040 0.023985 -0.013429 -855899.000000 0 0 1
-22.117935 26.325694 1.093626 34.401181 -0.872040 1.539001 0.036254 -0.021307 -1220830.000000 0 0 1
-21.525735 26.962594 -0.201574 34.501875 -0.897059 1.576639 0.048175 -0.019071 254086.000000 0 0 1
-21.163735 26.067794 -1.243274 33.600287 -0.888858 1.607807 0.046495 -0.022026 195558.000000 0 0 1
-20.106735 25.154294 -0.988274 32.217945 -0.896460 1.601476 0.049761 -0.032532 -5570.840000 0 0 1
-19.701635 24.330594 -2.229674 31.386361 -0.890140 1.641896 0.056739 -0.030902 -60088.500000 0 0 1
-20.762435 23.458494 -2.550374 31.430623 -0.846291 1.652029 0.028854 -0.024408 -81338.500000 0 0 1
-20.427835 22.332094 -3.385574 30.454572 -0.829902 1.682195 0.025975 -0.020748 244800.000000 0 0 1
-21.664735 21.757794 -4.152574 30.983967 -0.787541 1.705224 0.030512 -0.013280 456418.000000 0 0 1
-21.981035 22.604394 -5.270174 31.967159 -0.799378 1.736415 0.018090 -0.008693 447913.000000 0 0 1
-23.163935 22.127094 -5.926074 32.577516 -0.762509 1.753722 0.020933 -0.001441 619640.000000 0 0 1
-23.496335 22.803694 -7.300574 33.546752 -0.770439 1.790176 0.021711 0.002952 290547.000000 0 0 1
-22.692935 22.213694 -8.329474 32.829828 -0.774727 1.827317 0.014863 0.000236 228527.000000 0 0 1
-22.433135 23.139194 -9.339674 33.554394 -0.800890 1.852866 0.019193 -0.003087 -265725.000000 0 0 1
-21.761835 22.513794 -10.558474 33.044360 -0.802380 1.896024 0.014818 0.000452 -542363.000000 0 0 1
-22.541835 21.633694 -11.312674 33.228416 -0.764843 1.918194 0.007702 0.001932 -85972.800000 0 0 1
-21.801735 20.991394 -12.380774 32.699202 -0.766464 1.959108 0.001835 -0.000094 250140.000000 0 0 1
-22.565835 20.615594 -13.709574 33.498836 -0.740265 1.992434 -0.001854 -0.006355 585120.000000 0 0 1
-23.556535 19.580594 -13.486274 33.469233 -0.693488 1.985529 0.004401 0.002950 742908.000000 0 0 1
-24.543735 19.640894 -14.504274 34.619844 -0.674888 2.003094 0.009703 -0.005811 -162230.000000 0 0 1
-25.261135 18.365994 -14.777074 34.551362 -0.628648 2.012726 0.048385 -0.015145 -395176.000000 0 0 1
-24.571635 17.460294 -15.581074 33.932241 -0.617796 2.047870 0.040190 -0.016830 -3726.780000 0 0 1
-25.496475 16.485494 -15.954374 34.298452 -0.573967 2.054615 0.086242 -0.028337 -316579.000000 0 0 1
-24.873635 15.458794 -16.933274 33.829097 -0.556074 2.095034 0.084724 -0.016550 -196784.000000 0 0 1
-23.818535 14.703294 -16.437174 32.460594 -0.553046 2.101770 0.087102 -0.015964 -222791.000000 0 0 1
-23.389235 13.807494 -17.490674 32.305215 -0.533283 2.142921 0.102142 -0.029590 37214.500000 0 0 1
-22.238735 12.873794 -17.074274 30.851689 -0.524753 2.157274 0.112719 -0.024113 -615381.000000 0 0 1
-21.007835 13.444994 -16.777974 30.059897 -0.569312 2.162953 0.092982 -0.027107 -652220.000000 0 0 1
-20.130535 12.431594 -16.389174 28.781730 -0.553223 2.176608 0.082159 -0.030121 -336409.000000 0 0 1
-18.904935 12.955294 -15.611374 27.729970 -0.600783 2.168781 0.068058 -0.022107 -182820.000000 0 0 1
-17.938135 13.591894 -16.410274 27.853426 -0.648417 2.200822 0.051643 -0.008190 43188.100000 0 0 1
-17.043335 14.342394 -15.606474 27.198190 -0.699553 2.181941 0.051649 0.005688 -301675.000000 0 0 1
-16.194935 15.246694 -16.475274 27.679817 -0.755248 2.208322 0.026621 0.012594 -469101.000000 0 0 1
-15.314535 14.508994 -17.313574 27.291129 -0.758394 2.258032 0.048459 -0.000312 -23745.500000 0 0 1
-14.583435 15.532994 -17.984474 27.881746 -0.816917 2.271855 0.048037 0.004589 -424321.000000 0 0 1
-13.636635 15.083494 -19.068474 27.876088 -0.835733 2.324089 0.040678 0.002946 3206.440000 0 0 1
-12.714935 14.157094 -18.475274 26.522229 -0.839014 2.341438 0.040824 0.005221 103037.000000 0 0 1
-11.566835 14.048194 -19.305174 26.529854 -0.881968 2.385726 0.039090 0.004942 227760.000000 0 0 1
-11.077035 12.572894 -19.450774 25.673157 -0.848564 2.430472 0.034647 -0.006248 279476.000000 0 0 1
-11.952335 11.746794 -20.208574 26.253227 -0.776725 2.449255 0.036979 0.004963 504409.000000 0 0 1
-11.467935 10.404394 -20.008574 25.300355 -0.736811 2.482979 0.027350 0.009816 90244.400000 0 0 1
-11.946235 9.454594 -21.086574 26.014332 -0.669493 2.515930 0.032984 0.004251 126591.000000 0 0 1
-11.331635 9.613694 -22.373174 26.858667 -0.703561 2.555298 0.032313 0.002414 84692.400000 0 0 1
-11.851735 8.647994 -23.294874 27.530030 -0.630370 2.579539 0.029862 0.010911 230190.000000 0 0 1
-11.486335 8.872194 -24.819974 28.752093 -0.657692 2.612451 0.032533 -0.011711 -918008.000000 0 0 1
-10.145835 8.707794 -25.129184 28.464707 -0.709272 2.652627 0.038842 -0.012027 -918012.000000 0 0 1
-10.049735 8.379994 -26.502494 29.556787 -0.695044 2.682971 0.029764 -0.023013 -110933.000000 0 0 1
-9.759935 9.523194 -27.532604 30.724450 -0.773122 2.681731 0.064793 -0.026018 -659338.000000 0 0 1
-8.425035 9.890094 -27.652414 30.552433 -0.865220 2.702366 0.059758 -0.025205 -624761.000000 0 0 1
-8.049335 10.975894 -26.866804 30.117888 -0.938027 2.672668 0.047222 -0.016197 389461.000000 0 0 1
-6.548335 11.406094 -26.929084 29.969238 -1.049632 2.687268 0.051293 -0.012732 566954.000000 0 0 1
-6.085735 12.003694 -28.143044 31.195444 -1.101574 2.695529 0.060804 -0.023810 -659658.000000 0 0 1
-4.785135 12.452994 -27.999074 31.014879 -1.203936 2.696946 0.072707 -0.023104 -928327.000000 0 0 1
-4.101335 12.448394 -29.388234 32.178436 -1.252529 2.722085 0.077603 -0.021303 1053400.000000 0 0 1
-2.660935 12.424694 -29.283754 31.921651 -1.359818 2.732202 0.083805 -0.031446 1005300.000000 0 0 1
-2.002535 12.521494 -30.535994 33.064254 -1.412211 2.747994 0.091044 -0.023472 42193.200000 0 0 1
-0.474035 12.438794 -30.448514 32.894685 -1.532705 2.753510 0.079443 -0.028559 -280778.000000 0 0 1
0.072965 11.300794 -29.789414 31.860986 1.564340 2.779002 0.060026 -0.012274 1719800.000000 0 0 1
1.491565 11.045494 -30.067814 32.067135 1.436570 2.786609 0.054627 -0.014631 1837410.000000 0 0 1
1.837465 10.317294 -31.411794 33.113798 1.394549 2.819583 0.060035 -0.011069 -361544.000000 0 0 1
1.765365 11.254694 -32.520614 34.458308 1.415208 2.804641 0.070509 -0.016949 184509.000000 0 0 1
1.716965 10.606194 -33.761104 35.429528 1.410305 2.833483 0.071455 -0.009160 -24930.700000 0 0 1
2.067465 11.559894 33.543552 35.539773 1.393819 0.336757 0.073865 -0.009655 1249130.000000 0 0 1
3.485065 11.851894 33.382796 35.595282 1.284806 0.354433 0.068897 -0.009630 1070330.000000 0 0 1
3.801665 12.867694 32.464310 35.127790 1.283526 0.391920 0.059841 -0.003628 -612457.000000 0 0 1
5.297965 12.931994 32.229931 35.129380 1.181974 0.409139 0.051956 -0.001265 -918516.000000 0 0 1
5.768865 11.843794 31.503491 34.147111 1.117539 0.396077 0.066423 -0.007156 704968.000000 0 0 1
7.200265 11.822994 31.367291 34.286061 1.023782 0.415610 0.052166 0.002345 1079770.000000 0 0 1
7.827065 10.555994 30.681461 33.377298 0.932770 0.404672 0.025134 0.006677 269939.000000 0 0 1
7.402065 10.318094 29.332191 31.962964 0.948496 0.408562 0.035241 -0.009552 5996.320000 0 0 1
8.296565 9.405394 28.725721 31.344242 0.847955 0.411656 0.034121 -0.006667 17761.300000 0 0 1
7.687065 8.456794 27.688511 29.954332 0.833041 0.391448 0.028466 -0.000518 -243379.000000 0 0 1
6.871165 7.497494 28.297311 30.069306 0.828961 0.345017 0.032046 -0.001263 -285119.000000 0 0 1
6.134165 6.742694 27.353111 28.832006 0.832621 0.321677 0.039905 -0.005424 44586.600000 0 0 1
5.358965 5.492694 27.942561 28.977145 0.797721 0.268022 0.058719 -0.019443 424893.000000 0 0 1
6.180165 4.364094 28.215181 29.211919 0.614838 0.261980 0.042614 -0.018952 158913.000000 0 0 1
5.583865 3.641994 29.319201 30.067578 0.577945 0.223579 0.045738 -0.025896 -28030.600000 0 0 1
6.438165 2.613694 30.112641 30.903924 0.385641 0.226780 0.067522 -0.021559 -40657.900000 0 0 1
6.452965 1.277094 29.669981 30.390451 0.195383 0.218181 0.074130 -0.014313 -32439.100000 0 0 1
7.230765 1.088294 28.479241 29.402985 0.149387 0.251327 0.067406 -0.017171 -211682.000000 0 0 1
7.050165 -0.328206 27.966351 28.843186 -0.046519 0.247206 0.056630 -0.009470 84338.400000 0 0 1
7.734665 -1.282006 28.780181 29.828969 -0.164255 0.265963 0.038369 -0.020678 274816.000000 0 0 1
7.597765 -2.656506 28.468241 29.584182 -0.336357 0.275537 0.046453 -0.024337 -776895.000000 0 0 1
8.252065 -3.475906 29.595361 30.920283 -0.398662 0.293800 0.047897 -0.013481 705398.000000 0 0 1
9.671165 -3.463006 29.754651 31.477978 -0.343851 0.332428 0.059301 -0.016487 688932.000000 0 0 1
10.386665 -4.107706 28.684151 30.782082 -0.376603 0.371330 0.061899 -0.006503 126141.000000 0 0 1
11.933065 -4.168706 28.887861 31.532280 -0.336087 0.412463 0.057722 -0.013323 859613.000000 0 0 1
12.620565 -5.351206 28.439351 31.570726 -0.401029 0.449156 0.069952 -0.011770 143770.000000 0 0 1
12.501565 -6.585506 29.201291 32.440306 -0.484837 0.450672 0.072699 -0.011571 -79388.300000 0 0 1
11.433465 -7.588706 28.676411 31.790709 -0.585965 0.446330 0.080355 -0.002829 490398.000000 0 0 1
10.093565 -7.192306 28.884431 31.431190 -0.619108 0.405327 0.064751 -0.002263 -72568.000000 0 0 1
9.142665 -8.128206 28.425541 30.946203 -0.726727 0.406407 0.043348 -0.005450 101163.000000 0 0 1
7.682865 -7.677906 28.536681 30.533897 -0.785075 0.363691 0.053302 -0.006961 -324602.000000 0 0 1
7.081365 -7.603506 29.800671 31.560086 -0.820940 0.335482 0.055384 -0.003363 777492.000000 0 0 1
5.655565 -7.493906 29.609711 31.062502 -0.924301 0.307048 0.025031 -0.004835 743164.000000 0 0 1
5.058465 -6.700406 30.737381 31.863304 -0.924135 0.266631 0.026658 -0.001988 -246858.000000 0 0 1
4.946665 -7.373806 32.003741 33.212678 -0.979908 0.270639 0.029580 0.003073 57232.100000 0 0 1
4.406165 -6.627006 33.119595 34.062283 -0.984032 0.235814 0.041202 -0.006861 236800.000000 0 0 1
5.375765 -5.606106 33.787216 34.668477 -0.806370 0.225956 0.040489 -0.011216 192722.000000 0 0 1
5.760165 -4.644506 32.847973 33.671060 -0.678580 0.221563 0.045948 -0.002581 -203825.000000 0 0 1
6.483065 -3.585106 33.463075 34.273321 -0.505140 0.217874 0.059322 -0.006015 52533.400000 0 0 1
6.637765 -2.398506 32.486804 33.244627 -0.346744 0.213927 0.053801 -0.000580 -445880.000000 0 0 1
5.350865 -1.950606 32.185081 32.685105 -0.349569 0.175142 0.056198 -0.006780 -470242.000000 0 0 1
5.393265 -0.737206 31.422201 31.890210 -0.135848 0.171532 0.055450 -0.010032 522968.000000 0 0 1
3.978065 -0.224106 30.984011 31.239145 -0.056276 0.127893 0.055750 -0.009230 793039.000000 0 0 1
3.122265 0.069294 32.064741 32.216471 0.022190 0.097092 0.048575 -0.016054 -88104.700000 0 0 1
1.822265 0.519794 31.689521 31.746127 0.277867 0.059726 0.061828 -0.024964 208077.000000 0 0 1
0.953465 0.583694 32.917376 32.936355 0.549329 0.033949 0.053132 -0.023379 -514635.000000 0 0 1
1.401265 1.562794 33.848649 33.913669 0.839840 0.061932 0.051061 -0.017950 233170.000000 0 0 1
0.649265 1.518394 -33.354024 33.394879 1.166726 3.092122 0.039811 -0.019860 162940.000000 0 0 1
1.030865 2.701994 -32.485014 32.613488 1.206322 3.052802 0.035480 -0.016455 -510102.000000 0 0 1
2.166965 2.570394 -31.712424 31.890132 0.870352 3.035974 0.027156 -0.010141 -837357.000000 0 0 1
2.480765 3.703194 -31.028884 31.347400 0.980560 2.998918 0.021328 -0.003062 324210.000000 0 0 1
3.684465 3.507094 -30.029254 30.457037 0.760739 2.973792 0.018356 0.001716 454970.000000 0 0 1
3.307765 2.912194 -28.815854 29.150911 0.721887 2.989830 0.028056 -0.010619 -661.923000 0 0 1
4.453165 2.459994 -28.145834 28.601927 0.504695 2.962770 0.040528 -0.016715 -299025.000000 0 0 1
4.134065 1.777094 -26.811724 27.186708 0.405985 2.975311 0.040173 -0.021822 -10223.400000 0 0 1
3.845865 0.375694 -26.864014 27.140506 0.097379 2.998731 0.051141 -0.025884 154435.000000 0 0 1
3.403865 -0.066806 -25.562144 25.787865 -0.019624 3.009186 0.056298 -0.029037 -213370.000000 0 0 1
3.810865 -1.538506 -25.241314 25.573690 -0.383706 2.980192 0.059436 -0.035137 -654283.000000 0 0 1
5.125265 -1.666506 -24.833974 25.412041 -0.314372 2.927889 0.055633 -0.037503 -1131210.000000 0 0 1
5.592465 -2.961706 -24.768474 25.564128 -0.487037 2.891446 0.063292 -0.042205 -496966.000000 0 0 1
7.050765 -2.988106 -24.295074 25.473372 -0.400853 2.836250 0.068288 -0.041109 205609.000000 0 0 1
7.952365 -2.649306 -25.363464 26.712623 -0.321583 2.822414 0.062762 -0.030377 -91953.800000 0 0 1
9.270565 -3.086906 -25.081374 26.917423 -0.321432 2.770108 0.060002 -0.030642 329103.000000 0 0 1
-29.776565 -3.094606 17.568361 34.711205 0.103556 1.040105 0.110205 -0.028651 -1194080.000000 0 0 1
-31.058155 -3.109006 18.053561 36.058370 0.099770 1.046417 0.104214 -0.004917 -1199900.000000 0 0 1
-31.426405 -4.473906 18.340161 36.660555 0.141411 1.046886 0.098470 -0.019587 1049280.000000 0 0 1
-32.868515 -4.649106 18.947261 38.222405 0.140513 1.052143 0.084687 -0.018978 394920.000000 0 0 1
-33.919715 -4.579606 18.072261 38.705639 0.134202 1.084997 0.071600 -0.020000 -751750.000000 0 0 1
-35.196343 -4.814706 18.608261 40.102760 0.135952 1.088275 0.058234 -0.007731 -365732.000000 0 0 1
-36.191565 -4.666406 17.467961 40.456575 0.128229 1.124341 0.044850 -0.009612 -180500.000000 0 0 1
35.181380 -4.953806 17.790361 39.733696 -0.139888 1.106560 0.047865 -0.011766 386463.000000 0 0 1
34.284600 -4.669606 16.700361 38.420581 -0.135368 1.121122 0.030483 -0.011117 -363310.000000 0 0 1
32.937610 -5.318906 16.900061 37.400387 -0.160102 1.101937 0.026878 -0.007900 -939536.000000 0 0 1
32.371630 -4.791206 18.080261 37.386815 -0.146940 1.066033 0.036885 -0.013569 -71816.400000 0 0 1
31.140390 -5.458906 18.271661 36.515437 -0.173537 1.046757 0.066200 -0.021453 246387.000000 0 0 1
30.319790 -5.059006 19.561361 36.435286 -0.165332 1.004062 0.073731 -0.013668 588266.000000 0 0 1
29.393160 -3.955606 19.486161 35.486830 -0.133772 0.989498 0.073052 -0.015823 788581.000000 0 0 1
29.970020 -2.630506 19.619061 35.916977 -0.087547 0.992935 0.067543 -0.015051 514663.000000 0 0 1
28.841570 -1.556806 19.764061 34.998256 -0.053926 0.970708 0.057519 -0.005760 139225.000000 0 0 1
29.315140 -0.244406 19.669961 35.303605 -0.008337 0.979827 0.065889 -0.010990 -608181.000000 0 0 1
28.358460 0.753194 19.843361 34.619771 0.026554 0.960415 0.053971 -0.008671 -543436.000000 0 0 1
28.671170 2.195794 19.348161 34.658460 0.076436 0.978519 0.051166 -0.008824 -103317.000000 0 0 1
28.748530 2.237794 17.941061 33.961263 0.077684 1.014223 0.040418 -0.010899 74697.600000 0 0 1
28.511760 3.496794 17.382961 33.575517 0.122034 1.026604 0.035395 -0.007043 85134.900000 0 0 1
28.334760 3.453194 15.805661 32.628240 0.121273 1.065100 0.037047 -0.006400 -4923.720000 0 0 1
28.208790 4.697694 15.132161 32.354079 0.165019 1.084104 0.035744 -0.002018 294584.000000 0 0 1
27.755960 4.531394 13.809661 31.331032 0.161831 1.114344 0.041949 -0.000500 -146591.000000 0 0 1
27.412770 5.893194 13.142161 30.966209 0.211757 1.132494 0.040508 0.007233 -85209.600000 0 0 1
26.203870 6.412694 13.656461 30.236805 0.240006 1.102182 0.047265 0.001927 -9531.060000 0 0 1
25.916270 7.765394 13.247761 30.124036 0.291121 1.115450 0.061391 -0.013665 -519216.000000 0 0 1
24.638570 8.370294 13.918061 29.509886 0.327490 1.079646 0.072142 -0.022339 1333020.000000 0 0 1
23.365470 7.759194 13.615961 28.134403 0.320622 1.065621 0.065230 -0.012366 1244810.000000 0 0 1
23.216670 6.448194 14.004461 27.869659 0.270912 1.044310 0.079254 -0.010901 -1633660.000000 0 0 1
21.829770 5.824194 13.802961 26.476061 0.260727 1.022379 0.083404 -0.006197 -510997.000000 0 0 1
21.405970 5.749894 12.459461 25.426659 0.262417 1.058689 0.094366 -0.006159 656149.000000 0 0 1
20.399670 4.728694 12.419861 24.346663 0.227780 1.035465 0.095975 -0.003167 -13338.800000 0 1 0
19.924570 4.462794 10.953861 23.170932 0.220348 1.078397 0.095935 -0.003246 481076.000000 0 1 0
20.908370 3.806594 10.090561 23.525933 0.180088 1.127508 0.099347 -0.011445 1241890.000000 0 1 0
20.408670 3.577894 8.803861 22.512732 0.173549 1.169012 0.099553 -0.013865 26448.800000 0 1 0
21.440470 2.816594 7.939261 23.036033 0.130620 1.218935 0.092338 -0.010337 -989467.000000 0 1 0
21.567470 1.449994 8.342461 23.170129 0.067130 1.202472 0.086682 -0.011706 1184230.000000 0 1 0
22.517470 0.745394 7.494061 23.743483 0.033091 1.249680 0.074989 0.001306 974814.000000 0 1 0
24.042470 1.096094 7.613961 25.243101 0.045558 1.264399 0.075194 0.001790 203100.000000 0 0 1
24.629770 0.650894 8.861761 26.183583 0.026421 1.225530 0.068263 0.005212 558818.000000 0 0 1
24.375070 1.483994 9.979461 26.380597 0.060807 1.182850 0.064809 0.004781 -753108.000000 0 0 1
25.036670 0.954594 11.237561 27.459586 0.038109 1.149175 0.060507 0.004156 -81660.300000 0 0 1
26.438070 1.173794 11.210561 28.740668 0.044369 1.170100 0.051425 -0.000384 132788.000000 0 0 1
26.980270 0.493694 12.304461 29.657688 0.018296 1.142982 0.061305 -0.007948 355493.000000 0 0 1
28.531290 0.282894 12.269161 31.058764 0.009915 1.164695 0.074057 -0.005680 618703.000000 0 0 1
29.252390 1.433794 12.577761 31.874098 0.048975 1.165156 0.063337 -0.005124 184951.000000 0 0 1
30.643810 1.176594 12.743661 33.208859 0.038377 1.176950 0.046278 -0.005975 470319.000000 0 0 1
31.425200 2.464894 13.122661 34.144152 0.078277 1.176313 0.050167 -0.004430 -89891.800000 0 0 1
31.671330 3.372994 12.070161 34.060813 0.106100 1.208555 0.054464 -0.016858 154152.000000 0 0 1
32.042060 4.665894 12.544261 34.724957 0.144601 1.201192 0.047733 -0.017919 643729.000000 0 0 1
33.492240 5.106794 12.139961 35.988722 0.151311 1.226720 0.056317 -0.014714 868617.000000 0 0 1
34.516600 4.242394 12.619861 36.995330 0.122295 1.222688 0.050054 -0.014080 -317910.000000 0 0 1
35.783720 4.706294 12.297161 38.129306 0.130770 1.242414 0.053681 -0.007842 50817.900000 0 0 1
-35.788499 3.728094 12.787761 38.186938 -0.103796 1.229326 0.083591 -0.002923 -59751.400000 0 0 1
-35.654217 2.424794 12.193561 37.759579 -0.067904 1.241976 0.066531 -0.002060 1126320.000000 0 0 1
35.969440 1.477294 12.420161 38.082061 0.041048 1.238577 0.060027 0.005049 901167.000000 0 0 1
35.526990 1.169294 13.912361 38.171823 0.032901 1.197736 0.052091 0.007051 -131131.000000 0 0 1
-36.317985 0.389794 14.717061 39.188517 -0.010732 1.185811 0.067187 -0.000274 359807.000000 0 0 1
35.877780 0.118194 16.051661 39.305023 0.003294 1.150110 0.072916 -0.012461 -471083.000000 0 0 1
-35.977967 -0.769406 16.953061 39.779548 0.021382 1.130536 0.077782 -0.009220 177323.000000 0 0 1
-34.689410 -0.126106 17.040261 38.648954 0.003635 1.114197 0.089747 -0.015792 947438.000000 0 0 1
-33.664385 -0.854206 17.708961 38.047705 0.025369 1.086664 0.085752 -0.008346 249636.000000 0 0 1
-33.779845 -0.928606 19.227961 38.880005 0.027483 1.053484 0.091396 -0.019810 62000.200000 0 0 1
-34.865619 -1.711206 19.762761 40.113668 0.049041 1.055642 0.073906 -0.017684 553446.000000 0 0 1
-34.846785 -1.663806 21.239261 40.843273 0.047710 1.023924 0.073527 -0.023801 151270.000000 0 0 1
-35.233777 -2.982506 21.976561 41.632724 0.084448 1.014709 0.046593 -0.017726 -174486.000000 0 0 1
-34.300146 -4.020606 21.809461 40.845048 0.116686 1.007524 0.061485 -0.014107 -44730.700000 0 0 1
-34.571298 -5.201206 22.579161 41.617854 0.149329 0.997344 0.050223 -0.010535 -109761.000000 0 0 1
-34.696090 -5.116506 24.144621 42.578869 0.146411 0.967869 0.046470 -0.017015 484924.000000 0 0 1
-33.485945 -4.755106 24.810771 41.946322 0.141060 0.937893 0.053911 -0.013106 -121002.000000 0 0 1
-33.650255 -4.648906 26.204341 42.902442 0.137285 0.913740 0.041781 -0.009197 38564.100000 0 0 1
-32.408625 -4.021606 26.904031 42.312164 0.123460 0.881692 0.040652 -0.010982 -2659.610000 0 0 1
-32.251245 -2.593906 26.844301 42.041500 0.080255 0.878224 0.036701 -0.013118 -151594.000000 0 0 1
-31.897555 -2.146806 25.547871 40.923790 0.067202 0.896588 0.055943 -0.019236 -427998.000000 0 0 1
-31.844005 -0.583806 25.430271 40.756352 0.018331 0.896998 0.056769 -0.023823 57177.600000 0 0 1
-33.066585 0.096394 25.183671 41.564717 -0.002915 0.919911 0.064077 -0.025443 136315.000000 0 0 1
-32.950315 1.496494 25.046811 41.416247 -0.045385 0.921334 0.073854 -0.022562 -233761.000000 0 0 1
-34.313084 2.070794 24.625651 42.285916 -0.060277 0.949167 0.081955 -0.023987 46544.200000 0 0 1
-34.742566 1.576494 23.329661 41.878447 -0.045345 0.979930 0.094803 -0.021683 873643.000000 0 0 1
-35.896469 2.261294 22.742461 42.554548 -0.062912 1.006962 0.085022 -0.012315 1123550.000000 0 0 1
-35.733267 3.699694 22.204661 42.232702 -0.103169 1.017177 0.089805 -0.012035 5611.440000 0 0 1
-35.104376 3.767294 20.910061 41.033406 -0.106908 1.036092 0.101054 -0.022697 23829.200000 0 0 1
-36.027144 3.428494 19.881361 41.291382 -0.094878 1.068443 0.094738 -0.026729 -41553.200000 0 0 1
-35.424184 2.815394 18.592361 40.105800 -0.079310 1.088762 0.104169 -0.019204 -427697.000000 0 0 1
-34.608455 3.675694 17.883761 39.129079 -0.105811 1.096126 0.110967 -0.019815 -393847.000000 0 0 1
-34.122676 2.976494 16.784561 38.143650 -0.087009 1.115158 0.126344 -0.009540 -82891.800000 0 0 1
-33.133075 3.820494 15.931961 36.962471 -0.114801 1.125162 0.120263 -0.003368 83855.000000 0 0 1
-33.790015 4.802494 15.148161 37.340272 -0.141182 1.153075 0.117948 -0.006845 414167.000000 0 0 1
-32.886335 5.523094 14.308961 36.287215 -0.166392 1.165463 0.126102 -0.007396 62285.900000 0 0 1
-33.563985 6.713794 13.624661 36.840841 -0.197424 1.191976 0.128249 -0.020608 306991.000000 0 0 1
-32.578455 7.353894 12.825061 35.775938 -0.222008 1.204154 0.131656 -0.017752 701693.000000 0 0 1
-33.045575 8.674294 12.490061 36.376573 -0.256704 1.220310 0.100697 -0.020163 -174561.000000 0 0 1
-32.063205 9.381294 11.539461 35.344264 -0.284643 1.238211 0.117028 -0.021627 -157354.000000 0 0 1
-32.207955 10.801594 11.380261 35.826487 -0.323583 1.247547 0.100683 -0.014411 -393128.000000 0 0 1
-31.442805 11.389094 10.406061 35.023529 -0.347516 1.269125 0.094058 -0.020734 -582445.000000 0 0 1
-31.382875 12.932694 10.532261 35.539667 -0.390889 1.269925 0.093526 -0.017855 -7985.490000 0 0 1
-30.620095 13.582594 9.537161 34.828645 -0.417506 1.293422 0.083650 -0.015437 121696.000000 0 0 1
-30.656925 15.001994 9.597161 35.454371 -0.455092 1.296686 0.069926 -0.011445 -242144.000000 0 0 1
-29.739125 15.669394 8.556561 34.686600 -0.484931 1.321541 0.071557 -0.017099 -567256.000000 0 0 1
-28.399395 15.362594 8.845961 33.478142 -0.495867 1.303390 0.090010 -0.017643 18406.000000 0 0 1
-27.606075 16.301694 8.050361 33.055241 -0.533413 1.324779 0.065222 -0.032248 441392.000000 0 0 1
-26.209375 16.620094 8.654361 32.218890 -0.565136 1.298845 0.070365 -0.026479 -89803.800000 0 0 1
-26.221165 17.209794 9.923061 32.896712 -0.580814 1.264381 0.064934 -0.020115 303468.000000 0 0 1
-26.513175 18.611394 10.019061 33.907433 -0.612045 1.270836 0.066196 -0.027491 -192556.000000 0 0 1
-26.650705 18.930094 11.556761 34.672284 -0.617608 1.230980 0.075343 -0.008868 739370.000000 0 0 1
-25.339385 19.107394 12.131361 33.975681 -0.646094 1.205678 0.077416 -0.003451 1114630.000000 0 0 1
-25.320435 19.432494 13.482961 34.648759 -0.654584 1.171107 0.077141 -0.000333 25694.100000 0 0 1
-25.943965 18.366494 14.420561 34.905158 -0.616028 1.144902 0.067345 0.007783 79069.400000 0 0 1
-25.153195 17.181594 14.452761 33.716060 -0.599278 1.127786 0.082994 -0.000395 447778.000000 0 0 1
-25.558375 16.337594 15.509361 34.068869 -0.568764 1.098160 0.076171 0.002724 211939.000000 0 0 1
-24.412535 15.382594 15.959561 32.974288 -0.562266 1.065576 0.078615 0.001543 155537.000000 0 0 1
-23.355035 15.901594 16.707361 32.824599 -0.597767 1.036786 0.070659 0.003745 -897393.000000 0 0 1
-22.319835 15.051194 16.987761 31.832335 -0.593297 1.007869 0.047850 -0.011952 -650169.000000 0 0 1
-22.549835 13.908694 18.038361 32.051978 -0.552679 0.973046 0.066122 -0.016184 -474674.000000 0 0 1
-22.656535 14.245194 19.377561 33.041399 -0.561288 0.944111 0.071005 -0.011377 204668.000000 0 0 1
-23.007735 13.082694 20.149661 33.264420 -0.517027 0.920098 0.070340 -0.022978 -496958.000000 0 0 1
-22.623535 13.240094 21.646461 33.995496 -0.529492 0.880527 0.064735 -0.023975 983995.000000 0 0 1
-21.208035 13.420494 21.870161 33.289554 -0.564190 0.854007 0.066109 -0.016657 876504.000000 0 0 1
-20.822635 14.750394 21.838061 33.586563 -0.616330 0.862946 0.063628 0.004161 -1655170.000000 0 0 1
-19.348635 14.909494 22.250261 33.041441 -0.656537 0.831992 0.064502 -0.005187 -464339.000000 0 0 1
-18.539935 14.402994 21.233861 31.655210 -0.660473 0.835529 0.048471 -0.006694 -608585.000000 0 0 1
-18.344935 15.393494 20.226361 31.346483 -0.698140 0.869444 0.059117 -0.007078 -1190800.000000 0 0 1
-17.050535 14.944594 19.467861 29.884097 -0.719672 0.861308 0.035060 -0.002660 1314360.000000 0 0 1
-15.812535 14.878994 20.186261 29.646347 -0.754991 0.821803 0.031191 0.001685 517814.000000 0 0 1
-15.258935 16.093394 20.592861 30.263813 -0.812007 0.822427 0.009614 -0.005783 -1256550.000000 0 0 1
-14.315035 15.840694 21.739661 30.470653 -0.835948 0.776369 -0.013047 0.005100 -486109.000000 0 0 1
-13.141035 15.174294 21.328361 29.288991 -0.857083 0.755099 0.001878 0.017209 563572.000000 0 0 1
-12.232335 14.774994 22.405761 29.494891 -0.879268 0.708023 0.019955 0.022721 479422.000000 0 0 1
-11.036435 13.979194 21.925861 28.248259 -0.902497 0.682205 0.004565 0.025075 -520597.000000 0 0 1
-10.095435 13.587294 22.905861 28.481763 -0.931787 0.636419 0.003089 0.016045 -238839.000000 0 0 1
-9.243435 12.599094 22.413661 27.323076 -0.937836 0.608826 0.010243 0.030201 560598.000000 0 0 1
-7.741535 13.065994 22.467661 27.119133 -1.035914 0.594408 0.006225 0.031239 459476.000000 0 0 1
-7.608735 14.059394 21.430461 26.736194 -1.074746 0.640909 0.000986 0.025185 -3878.270000 0 0 1
-6.809735 15.167994 21.830861 27.441338 -1.148812 0.650887 0.011924 0.022888 22144.300000 0 0 1
-7.601035 16.225194 22.711361 28.928162 -1.132688 0.667947 0.020453 0.009028 893658.000000 0 0 1
-8.614935 16.979094 22.025361 29.113970 -1.101258 0.712818 -0.028787 0.015938 1677.470000 0 0 1
-8.122835 17.762994 20.962061 28.651569 -1.141897 0.750101 0.001738 0.009423 -780002.000000 0 0 1
-9.170035 18.009994 19.834661 28.317189 -1.099845 0.794774 0.005506 0.014444 1061560.000000 0 0 1
-10.259735 18.890394 20.158461 29.469861 -1.073251 0.817514 -0.014353 0.015035 164191.000000 0 0 1
-11.267935 18.224094 20.883361 29.919872 -1.017030 0.798229 -0.001599 0.009253 -1293500.000000 0 0 1
-12.631735 18.909294 20.881961 30.873588 -0.981859 0.827974 -0.008064 -0.002770 -470042.000000 0 0 1
-13.233735 18.792194 19.610761 30.213577 -0.957247 0.864434 -0.001564 -0.004319 50002.100000 0 0 1
-14.218235 19.820594 19.464861 31.207290 -0.948523 0.897293 -0.011321 -0.011473 291314.000000 0 0 1
-14.948835 19.836794 18.095261 30.731166 -0.925001 0.941193 0.010357 -0.003236 237004.000000 0 0 1
-15.739035 18.630994 17.925661 30.268143 -0.869342 0.936974 0.030866 -0.003883 218610.000000 0 0 1
-16.372335 18.676394 16.673561 29.914356 -0.851042 0.979574 0.045739 -0.010897 -1562570.000000 0 0 1
-17.128835 17.364694 16.465961 29.428854 -0.792236 0.976993 0.045393 -0.014701 117946.000000 0 0 1
-18.173335 17.049094 17.376261 30.378877 -0.753491 0.961873 0.049427 -0.011848 5890.870000 0 0 1
-19.268935 17.928794 17.252461 31.470318 -0.749386 0.990569 0.059911 -0.006507 -1150880.000000 0 0 1
34.215880 -9.500606 11.899826 37.451219 -0.270844 1.247449 0.057062 -0.013997 -54570.000000 0 0 1
32.921690 -9.980806 11.566726 36.293846 -0.294361 1.246442 0.055749 -0.008768 336683.000000 0 0 1
32.511180 -11.133006 12.243126 36.480334 -0.329921 1.228545 0.059286 -0.008610 -820524.000000 0 0 1
31.062130 -11.437506 11.928126 35.184551 -0.352808 1.224926 0.048074 -0.007742 -1093540.000000 0 0 1
30.103710 -10.626306 12.538926 34.298344 -0.339336 1.196536 0.049183 -0.003269 -296883.000000 0 0 1
28.758190 -10.958706 12.415626 33.185456 -0.364076 1.187339 0.045091 -0.003682 -201308.000000 0 0 1
28.227900 -11.973106 13.439826 33.478329 -0.401158 1.157698 0.034368 -0.001380 -796851.000000 0 0 1
28.355180 -11.505906 14.762726 33.975582 -0.385477 1.121302 0.041082 -0.003165 361813.000000 0 0 1
27.659770 -12.267306 15.764726 34.118562 -0.417441 1.090483 0.043798 -0.001147 435510.000000 0 0 1
26.141570 -12.015906 15.929326 32.886275 -0.430848 1.065146 0.039008 -0.009300 87186.100000 0 0 1
25.786570 -10.691306 16.226926 32.288765 -0.393035 1.044243 0.039111 -0.012953 -82492.100000 0 0 1
25.170170 -9.859906 15.258826 31.041697 -0.373357 1.056917 0.061559 -0.023872 133509.000000 0 0 1
24.863370 -8.424406 15.748526 30.613295 -0.326688 1.030449 0.098697 -0.034540 291694.000000 0 0 1
25.998070 -7.581806 15.634226 31.269993 -0.283760 1.047226 0.077615 -0.028248 169278.000000 0 0 1
25.738170 -6.310406 16.115226 31.015724 -0.240434 1.024434 0.094727 -0.027361 372295.000000 0 0 1
27.076270 -5.522706 16.236426 32.050682 -0.201209 1.039576 0.088975 -0.025859 332550.000000 0 0 1
27.518470 -5.118506 14.958826 31.736915 -0.183901 1.079989 0.100732 -0.020437 328940.000000 0 0 1
28.736440 -4.394206 15.085826 32.751705 -0.151739 1.092112 0.083260 -0.020561 133152.000000 0 0 1
29.038610 -3.620706 13.786826 32.348523 -0.124046 1.130512 0.087275 -0.018310 -234730.000000 0 0 1
29.437770 -4.388006 12.705726 32.361588 -0.147971 1.167320 0.063082 -0.014290 268041.000000 0 0 1
29.704690 -3.502306 11.619626 32.088167 -0.117362 1.200260 0.063145 -0.013073 -199873.000000 0 0 1
30.125650 -4.206006 10.316226 32.119617 -0.138719 1.243820 0.067773 -0.013216 155770.000000 0 0 1
31.417490 -4.785906 10.345526 33.421452 -0.151170 1.256079 0.063739 -0.014913 334169.000000 0 0 1
31.782750 -5.314906 9.069826 33.476158 -0.165693 1.296433 0.054370 -0.016975 -438827.000000 0 0 1
33.081630 -6.102106 9.001326 34.823179 -0.182406 1.309341 0.056295 -0.017966 -362115.000000 0 0 1
34.251550 -5.334606 9.174126 35.857932 -0.154507 1.312073 0.058898 -0.016335 -426947.000000 0 0 1
35.405210 -6.105306 9.013226 37.041084 -0.170762 1.324998 0.072884 -0.025467 -174627.000000 0 0 1
-36.134115 -5.261206 8.500126 37.491422 0.144586 1.342086 0.067363 -0.024160 28248.800000 0 0 1
-36.307595 -4.760706 7.183026 37.316239 0.130378 1.377097 0.062981 -0.023921 -224285.000000 0 0 1
-35.177087 -3.996806 6.894626 36.068516 0.113134 1.378459 0.075129 -0.012427 -342226.000000 0 0 1
-35.342777 -3.310406 5.491926 35.919799 0.093393 1.417300 0.068403 -0.025850 -65461.800000 0 0 1
-34.441433 -3.824506 4.519126 34.946555 0.110591 1.441118 0.084769 -0.032410 514538.000000 0 0 1
-34.660237 -3.149606 3.297026 34.958868 0.090622 1.476344 0.078443 -0.028450 -250304.000000 0 0 1
-33.905645 -3.736306 2.132826 34.177503 0.109754 1.508351 0.099938 -0.026616 -442948.000000 0 0 1
-34.380931 -4.964806 1.603326 34.774537 0.143414 1.524674 0.089481 -0.017105 457231.000000 0 0 1
-35.368710 -4.775306 0.570726 35.694187 0.134203 1.554806 0.081257 -0.019677 319093.000000 0 0 1
-34.751028 -4.770106 -0.878474 35.087884 0.136413 1.595835 0.094869 -0.024354 -1019850.000000 0 0 1
-34.340608 -6.001906 -1.422574 34.890170 0.173028 1.611581 0.081755 -0.025355 -44229.400000 0 0 1
-33.409875 -5.899506 -2.452674 34.015284 0.174778 1.642964 0.076164 -0.021021 172217.000000 0 0 1
-31.969995 -5.488406 -1.987774 32.498530 0.170016 1.632000 0.082694 -0.029970 -485969.000000 0 0 1
-31.462925 -6.515506 -1.198874 32.152835 0.204199 1.608092 0.087831 -0.020749 -599507.000000 0 0 1
-30.366025 -6.098806 -0.444674 30.975614 0.198206 1.585152 0.080883 -0.026796 -667371.000000 0 0 1
-29.909875 -7.269606 0.456326 30.784023 0.238427 1.555972 0.066419 -0.017383 -314120.000000 0 0 1
-29.314865 -8.382906 -0.137874 30.490219 0.278528 1.575318 0.074602 -0.005672 352014.000000 0 0 1
-29.150345 -9.478006 0.763826 30.662007 0.314360 1.545883 0.076621 -0.003710 -124755.000000 0 0 1
-28.693795 -10.773006 0.099926 30.649658 0.359163 1.567536 0.079129 -0.003906 160307.000000 0 0 1
-27.475935 -10.717406 -0.637774 29.499095 0.371913 1.592418 0.088872 -0.005336 397416.000000 0 0 1
-26.799685 -11.905806 -0.875274 29.338328 0.418063 1.600635 0.094858 -0.000565 -320022.000000 0 0 1
-27.369415 -12.930406 -1.863374 30.327421 0.441358 1.632277 0.086739 -0.004515 -19619.100000 0 0 1
-28.592545 -13.575006 -1.490174 31.686512 0.443264 1.617842 0.094193 -0.008476 752874.000000 0 0 1
-28.922275 -14.530006 -2.498074 32.463202 0.465551 1.647823 0.087583 -0.010031 -364641.000000 0 0 1
-29.928885 -15.539506 -1.878474 33.774889 0.478901 1.626443 0.085901 -0.011600 15053.900000 0 0 1
-29.432655 -16.262006 -0.773274 33.635279 0.504773 1.593788 0.072944 -0.005238 141684.000000 0 0 1
-30.464085 -16.820806 0.012226 34.799428 0.504494 1.570445 0.071958 -0.006167 -27838.700000 0 0 1
-30.636355 -18.348306 -0.166774 35.710985 0.539615 1.575466 0.068981 -0.003074 558316.000000 0 0 1
-29.506365 -19.144006 0.254826 35.173620 0.575538 1.563551 0.099066 -0.016733 906797.000000 0 0 1
-29.759385 -20.584906 0.098226 36.185205 0.605141 1.568082 0.078003 -0.010899 274971.000000 0 0 1
-30.700645 -21.226706 1.180326 37.342949 0.604937 1.539183 0.066244 -0.006406 -166356.000000 0 0 1
-30.133595 -21.451706 2.471426 37.071785 0.618659 1.504081 0.079667 -0.009303 -17084.300000 0 0 1
-31.120565 -21.676306 3.452826 38.082461 0.608391 1.480005 0.061148 -0.006883 -44215.100000 0 0 1
-30.522605 -21.929806 4.841126 37.894358 0.623020 1.442693 0.064713 -0.013679 -117492.000000 0 0 1
-29.909655 -20.809106 5.388626 36.832644 0.607856 1.423969 0.052510 -0.017422 -286418.000000 0 0 1
-29.101495 -21.081306 6.470326 36.512787 0.626919 1.392648 0.051064 -0.019776 -55384.200000 0 0 1
-28.631465 -19.767406 7.234326 35.536554 0.604260 1.365789 0.050277 -0.013335 460112.000000 0 0 1
-27.552755 -19.964206 8.141126 34.985737 0.627034 1.335945 0.042894 -0.018441 100983.000000 0 0 1
-27.101695 -18.745006 8.619426 34.061293 0.605103 1.314958 0.046502 -0.019410 796140.000000 0 0 1
-25.827825 -18.765606 9.542226 33.320844 0.628334 1.280356 0.054038 -0.011165 777216.000000 0 0 1
-26.237635 -19.467906 10.751926 34.395011 0.638351 1.252866 0.052065 -0.015264 708691.000000 0 0 1
-25.162355 -19.677206 11.671826 34.008354 0.663675 1.220470 0.038220 -0.003986 225837.000000 0 0 1
-24.743535 -18.500806 12.514926 33.333853 0.642029 1.185923 0.037516 -0.000327 -380187.000000 0 0 1
-24.269535 -17.363006 11.784926 32.083778 0.621003 1.194673 0.035364 0.001157 34555.100000 0 0 1
-24.191935 -16.153406 12.570526 31.689121 0.588731 1.162896 0.046300 0.000919 389483.000000 0 0 1
-23.280735 -16.169006 13.860826 31.552368 0.607041 1.115982 0.056901 0.001673 -29464.900000 0 0 1
-23.946435 -16.807406 14.931426 32.846129 0.611983 1.098888 0.043855 -0.013710 -133346.000000 0 0 1
-23.073035 -17.160506 15.992526 32.903022 0.639487 1.063232 0.059708 -0.015911 -65934.500000 0 0 1
-23.708935 -17.884006 17.196126 34.317023 0.646257 1.045931 0.043455 0.003340 341077.000000 0 0 1
-24.635935 -17.031006 17.890926 34.886527 0.604868 1.032316 0.067171 -0.006822 346169.000000 0 0 1
-25.505925 -17.775906 18.714726 36.287409 0.608664 1.028930 0.055507 0.003145 -76604.100000 0 0 1
-26.481525 -16.871906 19.486626 36.954851 0.567267 1.015366 0.075930 -0.003332 -208963.000000 0 0 1
-25.798245 -16.261106 20.575326 36.787458 0.562415 0.977252 0.079000 -0.013476 779256.000000 0 0 1
-26.670895 -15.390606 21.366126 37.479578 0.523378 0.964201 0.076833 -0.017976 463756.000000 0 0 1
-25.910295 -14.723506 22.514226 37.349905 0.516746 0.923801 0.075918 -0.020227 -695963.000000 0 0 1
-25.019035 -13.755006 22.090326 36.098959 0.502676 0.912288 0.077701 -0.018641 -308046.000000 0 0 1
-24.086735 -13.447606 23.126326 35.997721 0.509193 0.873120 0.082351 -0.026587 -96881.700000 0 0 1
-22.887035 -12.685106 22.545826 34.540449 0.506099 0.859605 0.083415 -0.020880 -414871.000000 0 0 1
-23.178935 -11.386806 22.261826 34.095620 0.456629 0.859359 0.085881 -0.017282 326318.000000 0 0 1
-22.151135 -10.810006 21.462826 32.683053 0.454011 0.854367 0.072439 -0.016086 -354310.000000 0 0 1
-21.654635 -9.408206 21.933526 32.226032 0.409861 0.822194 0.067849 -0.018714 145623.000000 0 0 1
-21.018035 -9.525806 23.201726 32.723369 0.425529 0.782680 0.074335 -0.021767 1531020.000000 0 0 1
-19.634035 -9.974006 23.186226 31.977762 0.470024 0.759655 0.064091 -0.020724 884997.000000 0 0 1
-19.031235 -10.193906 24.578826 32.714253 0.491752 0.720738 0.055999 -0.019549 93875.500000 0 0 1
-19.514735 -11.353606 25.210826 33.842503 0.526927 0.730343 0.052615 -0.019171 199176.000000 0 0 1
-18.809135 -11.531806 26.416326 34.417850 0.549993 0.695836 0.056847 -0.015057 -225549.000000 0 0 1
-19.365135 -12.882906 26.943726 35.594130 0.587030 0.712131 0.052563 -0.033687 468707.000000 0 0 1
-20.638035 -12.863906 27.577526 36.768581 0.557384 0.722689 0.056509 -0.033103 -582475.000000 0 0 1
-21.688735 -13.142206 26.682426 36.811285 0.544780 0.759989 0.055506 -0.028501 -344864.000000 0 0 1
-22.903435 -13.385906 27.636026 38.307960 0.528907 0.764949 0.049418 -0.034193 -323789.000000 0 0 1
-22.877235 -14.467306 28.479526 39.290638 0.563895 0.759991 0.051158 -0.027779 -127382.000000 0 0 1
-22.033235 -14.449306 29.636126 39.655339 0.580439 0.726743 0.044747 -0.021251 144954.000000 0 0 1
-22.422235 -15.482406 30.740426 41.078405 0.604317 0.725247 0.032248 -0.022808 -324907.000000 0 0 1
-22.242135 -16.834406 30.303526 41.187541 0.647883 0.744030 0.026850 -0.021534 -120888.000000 0 0 1
-22.379735 -17.728906 31.393426 42.434819 0.669958 0.738018 0.032895 -0.022559 10626.400000 0 0 1
-23.779535 -18.106106 31.953226 43.752783 0.650767 0.752016 0.045185 -0.022371 128756.000000 0 0 1
-24.402435 -17.005806 32.606326 44.134440 0.608635 0.739515 0.053298 -0.021084 -670939.000000 0 0 1
-25.538515 -17.369906 33.313626 45.428263 0.597276 0.747598 0.070322 -0.027720 -631551.000000 0 0 1
-26.301905 -16.240106 34.019926 45.966147 0.553152 0.737565 0.072652 -0.027975 -143595.000000 0 0 1
-25.706145 -15.804306 -33.195909 44.861458 0.551236 2.403815 0.071753 -0.022024 -592229.000000 0 0 1
-26.475585 -14.969106 -32.421509 44.454303 0.514584 2.388127 0.077463 -0.020874 -450474.000000 0 0 1
-25.883585 -14.508306 -31.028809 42.932947 0.510885 2.378537 0.077602 -0.013875 -11088.800000 0 0 1
-26.015035 -15.541006 -30.062409 42.685517 0.538495 2.352200 0.085975 -0.008620 54841.800000 0 0 1
-25.402915 -15.179506 -28.840409 41.321843 0.538616 2.343321 0.092329 0.001415 -193515.000000 0 0 1
-25.797765 -16.009506 -27.563309 41.006890 0.555413 2.307922 0.077490 0.002722 -149025.000000 0 0 1
-27.068925 -15.758706 -27.008309 41.358340 0.527206 2.282377 0.077861 -0.005410 -61928.300000 0 0 1
-27.213735 -14.558206 -26.246409 40.514229 0.491221 2.275531 0.080460 -0.005107 -660008.000000 0 0 1
-26.314435 -14.298306 -25.016909 39.022261 0.497734 2.266718 0.075077 -0.014422 -1250370.000000 0 0 1
-25.043845 -13.918406 -25.468509 38.334856 0.507256 2.297446 0.060933 -0.013685 -486853.000000 0 0 1
-24.058135 -14.232206 -24.519909 37.183001 0.534202 2.290868 0.062514 -0.016249 -407390.000000 0 0 1
-23.529935 -15.643806 -24.533909 37.420572 0.586742 2.285808 0.055310 -0.001850 -1398560.000000 0 0 1
-22.643635 -15.842206 -25.588309 37.662598 0.610479 2.317753 0.035303 0.003710 -294126.000000 0 0 1
-22.204735 -17.173606 -25.642609 38.020079 0.658323 2.311015 0.037120 0.005963 -249430.000000 0 0 1
-21.333135 -17.330506 -26.902809 38.460503 0.682241 2.345483 0.021956 0.004975 -365894.000000 0 0 1
-21.909035 -17.311506 -28.188709 39.677417 0.668708 2.360930 0.031586 0.001180 -125842.000000 0 0 1
-22.764735 -18.407806 -28.442509 40.817360 0.679969 2.341756 0.039529 0.004149 58667.800000 0 0 1
-23.570335 -18.325306 -29.763209 42.157161 0.660853 2.354639 0.061664 -0.011635 1771.910000 0 0 1
-22.745435 -18.617606 -30.870609 42.625868 0.685932 2.380702 0.049739 -0.013404 225539.000000 0 0 1
-23.380635 -18.376106 -32.086209 43.747688 0.666118 2.394162 0.057241 -0.022271 -325734.000000 0 0 1
-22.514835 -18.960006 -33.248209 44.405440 0.699897 2.416958 0.048139 -0.023741 -382487.000000 0 0 1
-21.389135 -18.171106 -33.564109 43.751956 0.704232 2.445175 0.038223 -0.015500 916521.000000 0 0 1
-20.154035 -18.689506 -32.995709 42.944145 0.747713 2.447040 0.025654 -0.016018 929524.000000 0 0 1
-19.525435 -19.923206 -33.765209 43.798015 0.795481 2.451097 0.022747 -0.016462 -934288.000000 0 0 1
-19.134435 -19.536506 33.335926 43.117116 0.795795 0.687006 0.027627 -0.020145 94162.300000 0 0 1
-19.158435 -20.644506 32.438826 42.959501 0.822717 0.714986 0.029018 -0.023842 685705.000000 0 0 1
-20.546635 -21.059906 31.793726 43.318875 0.797734 0.746682 0.032718 -0.021564 1302910.000000 0 0 1
-21.552935 -21.625006 32.660326 44.708689 0.787067 0.751722 0.034498 -0.020307 552570.000000 0 0 1
-22.726335 -22.063106 32.012126 45.033801 0.770592 0.780095 0.046925 -0.014394 -435041.000000 0 0 1
-22.526935 -23.380606 31.226026 45.046424 0.803991 0.804882 0.049329 -0.012434 -743154.000000 0 0 1
-22.195635 -24.539806 31.980826 46.017622 0.835514 0.802419 0.046797 -0.011042 47120.900000 0 0 1
-22.241235 -25.721816 31.167426 46.126921 0.857839 0.828898 0.055932 -0.000304 -234873.000000 0 0 1
-21.710235 -26.959926 31.968326 47.118423 0.892845 0.825122 0.056622 -0.007780 -78313.100000 0 0 1
-22.543735 -27.306976 33.062326 48.445933 0.880659 0.819676 0.040522 -0.006160 167916.000000 0 0 1
-21.962035 -28.260926 33.914126 49.306986 0.910165 0.812321 0.036653 -0.009092 -723988.000000 0 0 1
-23.067835 -29.046846 -33.839509 50.209130 0.899627 2.310368 0.037600 -0.009451 -160613.000000 0 0 1
-23.948135 -29.806796 33.677726 50.952405 0.893958 0.848693 0.022758 -0.006592 1712860.000000 0 0 1
-25.115775 -29.107526 33.173526 50.779259 0.858882 0.858876 0.021864 0.002776 561987.000000 0 0 1
-26.184295 -28.743926 -34.181009 51.770378 0.831964 2.291938 0.020843 0.007634 -472627.000000 0 0 1
-27.095095 -27.728646 33.825826 51.451031 0.796954 0.853384 0.022145 0.000229 30665.100000 0 0 1
-28.050785 -27.348186 -33.634809 51.634003 0.772716 2.280235 0.017094 0.009370 690593.000000 0 0 1
-29.284045 -26.656316 34.078226 52.244043 0.738459 0.860196 0.004956 0.009445 821746.000000 0 0 1
-30.222505 -27.547616 33.501326 52.864070 0.739129 0.884436 0.001402 0.006413 -602244.000000 0 0 1
-31.439775 -26.967516 33.191726 53.079159 0.708977 0.895248 0.005224 0.000980 -465559.000000 0 0 1
