# x y z rho theta phi s1 s2 stress_xx np intf bulk
-0.742837 -10.683498 -14.429220 17.969178 1.501377 2.503106 0.001471 0.001227 -7710.130000 1 0 0
2.097063 -13.505298 -13.087420 18.922773 -1.416750 2.334530 -0.010112 0.013899 -26188.700000 1 0 0
2.117163 -11.188798 -14.785720 18.662505 -1.383786 2.485315 -0.004665 0.008862 -484871.000000 1 0 0
-5.615937 -6.333098 -16.514420 18.557289 0.845345 2.667956 0.010087 0.000267 1176380.000000 1 0 0
4.554063 -14.032098 -11.503120 18.707246 -1.256975 2.233058 -0.011018 0.007826 1615950.000000 1 0 0
13.997063 -10.816198 -7.966920 19.400508 -0.657901 1.993969 0.017201 -0.001182 -223285.000000 1 0 0
7.132663 10.758502 -10.841820 16.857203 0.985351 2.269410 0.020418 -0.013818 896727.000000 1 0 0
5.730763 -4.264198 -12.544720 14.435894 -0.639707 2.623964 0.000377 -0.004395 947453.000000 1 0 0
13.708363 0.473502 -10.003620 16.976920 0.034527 2.200924 0.019906 -0.001299 872001.000000 1 0 0
14.049163 5.124902 -10.321520 18.170783 0.349784 2.174905 0.019944 -0.004322 -470092.000000 1 0 0
4.149863 4.273102 -13.502220 14.757734 0.800028 2.726118 0.003054 0.001866 1726700.000000 1 0 0
10.297363 -4.887298 -13.720820 17.837664 -0.443135 2.448392 0.017897 -0.012338 721872.000000 1 0 0
2.539563 -7.595298 -11.987220 14.416358 -1.248122 2.552601 -0.002285 0.000714 1837780.000000 1 0 0
-5.597537 -2.051998 -15.170620 16.300026 0.351377 2.767149 0.004936 0.002123 171051.000000 1 0 0
10.682763 0.043502 -9.744420 14.459496 0.004072 2.310287 0.006140 -0.005992 2933370.000000 1 0 0
-1.629437 -9.476098 -16.935620 19.474772 1.400509 2.625225 0.013142 -0.002059 1674030.000000 1 0 0
8.758763 1.707602 -17.995420 20.086488 0.192544 2.681242 0.019263 -0.009972 -229349.000000 1 0 0
16.443563 -6.023698 -8.722220 19.564070 -0.351144 2.032896 0.024998 0.002406 -935974.000000 1 0 0
10.110163 7.582402 -9.931820 16.073247 0.643487 2.236878 0.010109 -0.007827 113.603000 1 0 0
13.893663 -2.345698 -10.623220 17.646217 -0.167255 2.216814 0.027198 -0.002887 -720397.000000 1 0 0
7.170563 -1.910298 -13.594120 15.487618 -0.260361 2.641924 0.007854 -0.008441 83360.100000 1 0 0
-2.743137 6.715702 -13.766120 15.560576 -1.183013 2.656602 0.003126 0.000134 451048.000000 1 0 0
11.278063 1.724902 -13.795620 17.902210 0.151767 2.450594 0.010074 -0.015251 -10173.400000 1 0 0
-2.291937 10.783902 -12.936820 16.997260 -1.361379 2.435822 0.002249 0.002661 -1849400.000000 1 0 0
2.881863 -1.051598 -15.260620 15.565909 -0.349889 2.943214 0.007547 -0.004608 458183.000000 1 0 0
-9.066737 0.514002 -15.252120 17.750975 -0.056630 2.604554 0.007711 0.000925 -803170.000000 1 0 0
2.239563 -1.832598 -18.035120 18.265805 -0.685791 2.982495 0.017537 -0.008615 898477.000000 1 0 0
1.030563 7.986902 -13.158420 15.427141 1.442474 2.592387 0.006740 0.001599 -622545.000000 1 0 0
9.378463 -9.088198 -9.864420 16.366359 -0.769681 2.217709 0.012428 -0.003290 89811.600000 1 0 0
3.943163 7.233402 -13.546820 15.855188 1.071698 2.595209 0.002252 0.001345 2199500.000000 1 0 0
-2.706137 9.118402 -15.507720 18.192246 -1.282298 2.591423 0.003766 0.000756 319387.000000 1 0 0
5.533563 -7.755198 -15.146620 17.893673 -0.951048 2.580133 0.008943 -0.006495 -29598.800000 1 0 0
4.232363 7.345302 -16.456520 18.511710 1.048061 2.665907 0.009001 -0.000413 928384.000000 1 0 0
-0.185637 5.148802 -13.371220 14.329486 -1.534757 2.773808 0.009377 -0.003174 970187.000000 1 0 0
8.783063 4.257502 -16.693720 19.337756 0.451365 2.612511 0.006648 -0.004841 -68289.200000 1 0 0
5.362563 0.209402 -14.464220 15.427722 0.039029 2.786308 0.003394 -0.001862 156451.000000 1 0 0
6.245563 7.894402 -11.594520 15.354528 0.901482 2.426634 0.004419 -0.003325 -375186.000000 1 0 0
2.793263 -8.399898 -15.032820 17.445524 -1.249764 2.609408 0.003783 -0.001819 337905.000000 1 0 0
4.010963 11.370602 -13.873620 18.380853 1.231675 2.426125 0.023094 -0.013833 -343192.000000 1 0 0
0.675763 -4.545298 -13.800220 14.545187 -1.423205 2.820156 0.007929 -0.001959 1183940.000000 1 0 0
8.474563 -0.108398 -11.638820 14.397642 -0.012790 2.512198 -0.000655 -0.005174 -806912.000000 1 0 0
-0.985837 -5.061398 -16.298920 17.095158 1.378429 2.835185 0.008167 -0.005527 956026.000000 1 0 0
4.538963 0.837202 -11.811020 12.680824 0.182398 2.769059 -0.001466 -0.004328 716477.000000 1 0 0
-2.924237 -7.188798 -15.584120 17.409618 1.184461 2.679551 0.006815 -0.000588 3270570.000000 1 0 0
11.424763 -3.776898 -11.399720 16.575397 -0.319278 2.329181 0.018369 -0.008329 1716020.000000 1 0 0
6.537463 -7.055598 -12.424020 15.712293 -0.823497 2.482780 0.004897 -0.003966 -798604.000000 1 0 0
3.488363 -3.974398 -14.627920 15.554439 -0.850434 2.794700 0.007897 -0.002898 2094560.000000 1 0 0
-0.767137 -1.657998 -18.316420 18.407301 1.137441 3.042182 0.021215 -0.010413 1750380.000000 1 0 0
14.887763 3.017102 -8.491720 17.402807 0.199949 2.080537 0.016430 0.001867 -1896120.000000 1 0 0
6.925263 4.176402 -14.432620 16.543945 0.542672 2.630848 0.000396 0.000447 995948.000000 1 0 0
10.156963 -9.671298 -13.962420 19.790075 -0.760910 2.353962 0.027770 -0.012600 -1273780.000000 1 0 0
8.967163 -3.129198 -15.611820 18.273774 -0.335750 2.595055 0.015278 -0.015452 1846450.000000 1 0 0
-5.353837 -2.144298 -18.134620 19.029610 0.380951 2.833681 -0.004838 0.011241 -866775.000000 1 0 0
5.030463 -9.091198 -11.019620 15.145543 -1.065398 2.385587 -0.005652 -0.001077 1442480.000000 1 0 0
-2.462737 4.056202 -17.080820 17.727726 -1.025133 2.870612 0.013713 0.001953 1063760.000000 1 0 0
9.422363 9.223802 -14.543620 19.631004 0.774750 2.405131 0.028920 -0.013328 -1654690.000000 1 0 0
9.854763 9.976702 -11.701120 18.263821 0.791547 2.266170 0.018178 -0.013623 414505.000000 1 0 0
12.064563 -6.000498 -9.697820 16.601427 -0.461538 2.194636 0.024246 -0.003014 -678568.000000 1 0 0
8.103663 6.831502 -13.675720 17.302141 0.700424 2.482268 0.004943 -0.004789 388402.000000 1 0 0
3.966563 -4.201798 -17.583820 18.508902 -0.814189 2.824095 0.025739 -0.011257 489231.000000 1 0 0
9.386063 -7.450498 -12.333620 17.196694 -0.670939 2.370585 0.017065 -0.008866 526625.000000 1 0 0
12.064763 -8.773598 -8.862920 17.351826 -0.628754 2.106885 0.020443 0.002174 -145434.000000 1 0 0
-2.917137 -2.540898 -13.816620 14.347991 0.716574 2.868589 0.006023 -0.003309 -1532170.000000 1 0 0
-0.332537 6.071302 -17.663620 18.680867 -1.516079 2.810065 0.017297 -0.002231 1027660.000000 1 0 0
1.062963 -8.464298 -17.425920 19.401983 -1.445868 2.686344 0.006681 -0.005677 -415231.000000 1 0 0
0.075163 8.561302 -15.983920 18.132492 1.562017 2.649841 0.008907 -0.002159 553084.000000 1 0 0
1.748863 3.386202 -14.903920 15.383489 1.094062 2.891243 0.013558 -0.001552 2314780.000000 1 0 0
-1.924137 -0.472698 -15.815920 15.939545 0.240897 3.016966 0.010053 -0.002626 1784370.000000 1 0 0
14.193563 -4.306798 -8.466320 17.078768 -0.294604 2.089462 0.022864 0.000222 805467.000000 1 0 0
0.557263 0.609702 -14.583320 14.606694 0.830304 3.085013 0.009738 -0.001445 1664620.000000 1 0 0
8.817663 2.658702 -12.626920 15.628787 0.292851 2.511422 -0.000228 -0.003475 884941.000000 1 0 0
6.010863 0.842702 -17.225620 18.263697 0.139289 2.802816 0.019916 -0.000452 711447.000000 1 0 0
15.332563 1.551702 -12.301120 19.718337 0.100860 2.244445 0.034982 -0.011166 -350754.000000 1 0 0
8.800863 -11.244398 -11.915720 18.597744 -0.906701 2.266216 0.017148 -0.005629 741065.000000 1 0 0
-4.644437 0.730002 -15.073820 15.789989 -0.155902 2.839259 0.006492 -0.001249 1311450.000000 1 0 0
2.422663 5.086102 -17.286220 18.181065 1.126263 2.826545 0.015810 -0.003641 1499030.000000 1 0 0
5.926263 -11.656398 -12.320220 17.966080 -1.100441 2.326429 -0.004481 -0.000029 -547259.000000 1 0 0
12.782463 7.277302 -8.628420 17.052862 0.517555 2.101315 0.010052 -0.005864 645922.000000 1 0 0
-5.073137 3.628002 -15.668820 16.864491 -0.620815 2.762772 0.005492 0.004260 382483.000000 1 0 0
-0.779837 -4.514598 -19.102920 19.644626 1.399747 2.906208 0.017587 -0.009842 -1797750.000000 1 0 0
9.743063 4.444502 -10.336720 14.883839 0.427974 2.338511 -0.003287 0.000889 897681.000000 1 0 0
13.290363 3.632902 -12.778120 18.791277 0.266830 2.318563 0.024084 -0.013003 -525840.000000 1 0 0
-6.166837 5.890402 -17.149520 19.152879 -0.762475 2.680129 0.006218 0.007394 -489845.000000 1 0 0
-10.194437 3.175702 -15.380420 18.723487 -0.301986 2.534746 0.015584 0.001419 -125492.000000 1 0 0
10.835763 13.232702 -8.312820 19.016339 0.884659 2.023214 0.026517 -0.012247 -725093.000000 1 0 0
7.324363 13.336702 -12.350020 19.596860 1.068576 2.252612 0.032121 -0.013399 454411.000000 1 0 0
5.325963 15.182002 -11.278820 19.648686 1.233402 2.182208 0.024440 -0.005460 -39331.700000 1 0 0
14.164663 9.551202 -9.870820 19.730591 0.593267 2.094718 0.035797 -0.008751 -1798300.000000 1 0 0
8.196763 -17.324198 -2.176720 19.288672 -1.128867 1.683887 0.020903 -0.001028 188758.000000 1 0 0
0.698963 -16.006798 -0.004520 16.022052 -1.527157 1.571078 0.002935 -0.007964 3474580.000000 1 0 0
-9.222737 -11.647698 7.608580 16.691862 0.901071 1.097497 0.013998 -0.004118 -1610950.000000 1 0 0
2.049563 -16.015098 -2.600620 16.353816 -1.443511 1.730497 -0.003355 -0.003552 1228900.000000 1 0 0
-1.274437 -11.051398 -9.446820 14.594520 1.455984 2.274814 0.002994 0.000341 1079500.000000 1 0 0
-4.890637 -12.682598 -12.937520 18.765555 1.202749 2.331497 0.018481 -0.002751 1598870.000000 1 0 0
-8.244837 -17.810798 -1.655620 19.696268 1.137257 1.654953 0.010071 0.000862 -1798590.000000 1 0 0
-11.309037 -7.051698 -8.896820 16.024175 0.557553 2.159415 0.015741 -0.001563 834695.000000 1 0 0
-13.561337 -11.514998 -4.731620 18.409055 0.703974 1.830741 0.006953 0.000825 508273.000000 1 0 0
-5.838637 -13.456398 9.884380 17.687999 1.161417 0.977836 0.017798 -0.008405 871768.000000 1 0 0
0.127763 -14.109898 -3.705920 14.589016 -1.561742 1.827632 -0.003264 -0.001687 1068240.000000 1 0 0
-14.704537 -11.597698 1.935180 18.827505 0.667822 1.467830 -0.014821 0.008346 -62569.800000 1 0 0
-3.851137 -16.493098 -7.697520 18.603907 1.341406 1.997375 -0.002361 0.002260 40996.600000 1 0 0
0.528463 -15.256398 -9.326620 17.889181 -1.536171 2.119235 -0.007269 0.008324 1423580.000000 1 0 0
4.539363 -14.281998 -2.590820 15.208341 -1.263056 1.741986 -0.002940 -0.002461 416335.000000 1 0 0
-3.441137 -18.091698 -2.490320 18.583667 1.382836 1.705207 -0.004278 -0.002924 1405600.000000 1 0 0
-0.943237 -13.492498 0.658980 13.541472 1.501002 1.522113 0.007310 -0.001358 2906790.000000 1 0 0
-8.505137 -11.284198 -10.547520 17.632943 0.924918 2.212014 0.019727 -0.006615 2384210.000000 1 0 0
-3.731537 -14.136098 -0.415220 14.626211 1.312711 1.599189 0.001980 0.001813 4699250.000000 1 0 0
-1.447937 -14.985998 -7.326620 16.743836 1.474476 2.023692 -0.005912 0.004076 -161091.000000 1 0 0
-14.116837 -7.906498 -1.862420 16.287002 0.510546 1.685397 -0.000383 0.000269 996356.000000 1 0 0
-10.818837 -7.224198 -11.755120 17.533372 0.588747 2.305602 0.016606 -0.000731 55485.600000 1 0 0
-9.597837 -14.665798 6.962180 18.859376 0.991308 1.192688 0.004889 0.001472 -158710.000000 1 0 0
-2.564637 -14.348198 -12.230220 19.026993 1.393921 2.268922 0.013337 -0.001357 -179780.000000 1 0 0
2.411963 -17.883498 -4.746720 18.659272 -1.436734 1.828013 -0.003146 -0.003610 359252.000000 1 0 0
-6.642637 -9.583098 -9.232620 14.872851 0.964675 2.240521 0.012065 -0.005812 203403.000000 1 0 0
-10.994537 -15.385598 0.341880 18.913312 0.950339 1.552719 0.001411 0.004085 454812.000000 1 0 0
-12.710137 -10.948698 4.096980 17.268666 0.711084 1.331263 0.004123 0.002883 942865.000000 1 0 0
-16.929237 -8.760898 -1.442920 19.116340 0.477550 1.646349 -0.009003 0.000091 -1541910.000000 1 0 0
-1.229237 -19.274798 -3.964420 19.716630 1.507108 1.773246 -0.002609 -0.004049 -382037.000000 1 0 0
3.281763 -14.264998 -8.862220 17.111373 -1.344674 2.115207 -0.012218 0.008173 1343660.000000 1 0 0
-4.364437 -8.087898 -13.086620 15.991312 1.075953 2.529345 0.011067 0.000584 928691.000000 1 0 0
5.592163 -16.576398 1.220480 17.536785 -1.245429 1.501145 0.014050 -0.009473 3515510.000000 1 0 0
-2.837537 -13.811598 -3.248620 14.469464 1.368170 1.797242 -0.002861 -0.000380 -1226070.000000 1 0 0
-0.430537 -13.989598 3.609680 14.454204 1.540030 1.318393 0.012398 0.000529 -2857860.000000 1 0 0
1.168163 -16.216698 7.043080 17.718659 -1.498886 1.162011 0.022849 -0.005822 2415010.000000 1 0 0
-5.582237 -10.463698 -14.604720 18.813511 1.080720 2.459554 0.019714 -0.001229 1278090.000000 1 0 0
-0.203937 -17.401698 -6.003620 18.409349 1.559077 1.902990 -0.003929 0.000760 1099830.000000 1 0 0
-6.499537 -13.349998 -1.293520 14.904349 1.117718 1.657694 0.000346 0.001975 1151520.000000 1 0 0
-1.710837 -17.744398 -0.185220 17.827645 1.474678 1.581186 0.008129 -0.004927 470924.000000 1 0 0
-9.434237 -9.800798 -4.899920 14.459243 0.804453 1.916520 0.012197 -0.005681 1822530.000000 1 0 0
-0.810037 -16.716998 4.779180 17.405595 1.522378 1.292646 0.024392 -0.006975 2024860.000000 1 0 0
-6.756137 -9.884298 -6.356720 13.555539 0.971215 2.058885 0.013929 -0.004713 1454220.000000 1 0 0
-5.912937 -14.478298 -8.670920 17.882081 1.183070 2.077039 0.005853 -0.005136 -536827.000000 1 0 0
-5.682737 -12.052898 -10.308520 16.847298 1.130221 2.229231 0.013428 -0.008924 619854.000000 1 0 0
-10.640037 -12.245698 -8.782020 18.446989 0.855443 2.066974 0.023695 -0.014328 -1538500.000000 1 0 0
4.069263 -17.052698 6.681980 18.761723 -1.336548 1.206652 0.021308 -0.007301 1779410.000000 1 0 0
-6.658637 -14.409398 -4.137920 16.403981 1.137923 1.825802 0.005398 -0.003529 -751147.000000 1 0 0
-2.782537 -12.290098 -7.128320 14.477637 1.348145 2.085604 0.002684 -0.000822 1644450.000000 1 0 0
-7.194337 -12.755898 4.533580 15.330518 1.057267 1.270585 0.007837 -0.000719 2616870.000000 1 0 0
2.675763 -16.433298 2.350380 16.814793 -1.409387 1.430557 0.006921 -0.009574 3051050.000000 1 0 0
-6.293237 -12.030998 7.333580 15.431498 1.088852 1.075566 0.011497 0.001437 2476350.000000 1 0 0
-11.198637 -12.785898 -0.951020 17.023311 0.851480 1.626691 0.002701 0.007920 286022.000000 1 0 0
-14.358737 -8.599098 4.692380 17.382067 0.539592 1.297450 -0.004375 -0.001994 1122990.000000 1 0 0
-7.955837 -15.524998 4.565480 18.032319 1.097236 1.314827 0.005536 0.004696 1207490.000000 1 0 0
-16.391737 -9.178098 1.288980 18.830507 0.510429 1.502291 -0.017593 0.006711 -2045130.000000 1 0 0
-6.583137 -16.919898 2.461780 18.321600 1.199742 1.436024 0.008079 0.000173 1632400.000000 1 0 0
-11.506037 -15.028098 -4.678320 19.496649 0.917364 1.813116 0.020188 -0.001004 -633933.000000 1 0 0
-10.125637 -9.905098 -12.583420 18.946820 0.774389 2.297145 0.018351 0.000498 -1544770.000000 1 0 0
-4.298537 -16.011498 -4.635020 17.214207 1.308515 1.843416 -0.002770 -0.001454 938252.000000 1 0 0
-11.827737 -8.286798 0.023680 14.441847 0.611145 1.569157 -0.002800 0.003344 1608410.000000 1 0 0
-9.705137 -11.112098 3.599880 15.186427 0.852882 1.331472 0.002316 0.004397 1937100.000000 1 0 0
-14.034837 -12.929298 -0.577620 19.091282 0.744421 1.601057 -0.009926 0.011426 -2154640.000000 1 0 0
5.577463 -15.031698 -7.183820 17.568930 -1.215496 1.992038 -0.006656 0.000468 -93498.100000 1 0 0
-7.453837 -10.512998 -1.326120 12.955363 0.954048 1.673337 0.001033 0.003398 733335.000000 1 0 0
-11.618737 -8.295098 -6.187620 15.559253 0.620021 1.979784 0.010354 -0.002964 751803.000000 1 0 0
-14.281537 -6.539098 -9.301420 18.254822 0.429380 2.105437 -0.004478 -0.001195 2502410.000000 1 0 0
-3.828337 -16.454898 1.442480 16.955842 1.342206 1.485621 0.004746 -0.001566 295848.000000 1 0 0
-7.945237 -15.475398 0.202080 17.396999 1.096478 1.559180 0.009711 0.002529 805897.000000 1 0 0
1.060763 -18.679798 3.630680 19.058906 -1.514071 1.379127 0.015460 -0.008740 264532.000000 1 0 0
-14.025737 -8.770398 -4.572820 17.162514 0.558820 1.840496 -0.000218 -0.003292 1209610.000000 1 0 0
-3.351037 -14.451198 11.315180 18.657435 1.342937 0.919183 0.011150 -0.009681 1204600.000000 1 0 0
-10.786937 -12.169198 -3.847920 16.710892 0.845539 1.803146 0.010949 -0.003653 491897.000000 1 0 0
-9.878337 -10.663198 0.573580 14.546970 0.823588 1.531357 0.000981 0.005067 1512120.000000 1 0 0
-0.114237 -13.163298 -11.224220 17.299381 1.562118 2.276832 -0.003958 0.001116 1608300.000000 1 0 0
-5.785937 -12.679198 -6.352920 15.316616 1.142688 1.998490 0.001999 -0.007437 2525950.000000 1 0 0
1.610163 -15.780498 9.867880 18.681322 -1.469113 1.014291 0.026269 -0.009503 -652550.000000 1 0 0
-8.903337 -15.743098 -5.536120 18.914629 1.056101 1.867835 0.016640 -0.003737 548827.000000 1 0 0
-3.209337 -15.556998 5.908380 16.947831 1.367355 1.214696 0.009400 -0.001475 -1716490.000000 1 0 0
-17.427037 -5.506798 -6.446420 19.379959 0.306063 1.909891 -0.000429 0.004166 458883.000000 1 0 0
18.871963 5.517702 -2.700120 19.846578 0.284447 1.707269 -0.000936 0.002282 -691648.000000 1 0 0
12.824263 -12.558398 -5.948920 18.909382 -0.774924 1.890833 0.026637 -0.000769 -175565.000000 1 0 0
10.944163 -13.615398 -1.707720 17.551925 -0.893738 1.668246 0.026842 -0.004219 1932160.000000 1 0 0
18.674263 -2.925898 4.418180 19.411576 -0.155417 1.341178 0.024041 -0.012525 -1234270.000000 1 0 0
8.617163 -16.905298 4.967080 19.614191 -1.099394 1.314769 0.020930 -0.010793 454807.000000 1 0 0
18.141563 -1.150298 6.608380 19.341927 -0.063322 1.222113 0.050238 -0.017526 -1280690.000000 1 0 0
17.971363 -4.316098 -5.030420 19.154731 -0.235701 1.836533 0.024694 -0.010806 -153110.000000 1 0 0
5.565663 -11.728798 14.769380 19.664076 -1.127732 0.721093 0.006256 0.012620 -208798.000000 1 0 0
16.027163 -8.902498 -0.933620 18.357452 -0.507028 1.621676 0.026038 -0.002355 600271.000000 1 0 0
13.785463 -12.690498 -1.381220 18.788174 -0.744065 1.644378 0.027325 0.000069 -786026.000000 1 0 0
11.309563 -2.110698 13.830480 17.990092 -0.184507 0.693860 0.021430 -0.006713 -1626750.000000 1 0 0
16.980763 -6.137898 -1.495120 18.117822 -0.346849 1.653412 0.021169 -0.009489 -1953770.000000 1 0 0
17.750263 3.603502 -0.901920 18.134787 0.200289 1.620551 0.004392 -0.000191 188170.000000 1 0 0
9.686963 -11.059398 9.445880 17.474901 -0.851455 0.999718 0.007353 -0.000658 995715.000000 1 0 0
9.045163 -11.124398 4.268480 14.959516 -0.888123 1.281440 0.003537 -0.004697 -86431.000000 1 0 0
13.987663 -10.054598 6.814180 18.525191 -0.623245 1.194119 0.021593 -0.008465 -826486.000000 1 0 0
16.246063 -0.495398 -4.688320 16.916274 -0.030484 1.851621 0.012780 -0.004689 -897972.000000 1 0 0
15.785763 -0.462698 -1.695820 15.883331 -0.029303 1.677768 0.014630 -0.004172 1041740.000000 1 0 0
12.901163 -5.247598 -0.367020 13.932408 -0.386315 1.597142 0.009960 -0.004855 1832530.000000 1 0 0
14.268763 -7.619698 0.943580 16.203325 -0.490486 1.512530 0.021014 -0.001851 2760490.000000 1 0 0
15.489963 2.418202 3.658680 16.098838 0.154864 1.341530 0.020513 -0.008489 1538180.000000 1 0 0
15.893163 -7.114898 4.947280 18.102209 -0.420915 1.293977 0.025769 -0.011517 -1035390.000000 1 0 0
13.670663 -12.126298 3.304880 18.570308 -0.725603 1.391877 0.018812 -0.002142 -205815.000000 1 0 0
13.982663 -0.983098 9.098880 16.711402 -0.070193 0.995038 0.033326 -0.013053 2121730.000000 1 0 0
14.150363 -2.835698 -1.500920 14.509538 -0.197778 1.674425 0.011008 -0.004279 306826.000000 1 0 0
14.975663 1.856102 9.005580 17.573163 0.123312 1.032747 0.040063 -0.011700 -2094160.000000 1 0 0
14.366563 -10.251898 -3.015420 17.905091 -0.619792 1.740014 0.021778 -0.000376 1897100.000000 1 0 0
7.305263 -12.662498 6.073880 15.830279 -1.047519 1.177010 -0.000133 -0.002238 -96821.300000 1 0 0
12.439863 -4.579698 6.972380 14.977913 -0.352749 1.086585 0.015969 -0.006400 2506540.000000 1 0 0
15.023663 -9.190898 -5.713620 18.515629 -0.549023 1.884500 0.028635 0.001796 291367.000000 1 0 0
14.287663 -4.561898 4.615580 15.692412 -0.309058 1.272253 0.019310 -0.010219 713024.000000 1 0 0
17.098663 -4.197298 0.866080 17.627583 -0.240716 1.521644 0.013269 -0.013540 -1777500.000000 1 0 0
10.236063 -14.560198 1.135480 17.834395 -0.958049 1.507085 0.024767 -0.004228 790811.000000 1 0 0
16.424163 -2.603498 8.500980 18.676134 -0.157208 1.098223 0.040139 -0.015757 1176550.000000 1 0 0
15.996763 -2.604998 3.035280 16.489250 -0.161428 1.385664 0.014486 -0.009617 1332080.000000 1 0 0
7.810563 -15.235198 2.653880 17.325104 -1.097068 1.417010 0.007956 -0.005466 2520400.000000 1 0 0
16.622063 -7.078098 7.814680 19.684046 -0.402570 1.162544 0.032207 -0.008329 -42322.400000 1 0 0
10.275863 -8.528598 5.135780 14.307570 -0.692747 1.203648 0.010836 -0.006112 2316790.000000 1 0 0
10.941363 -11.952998 2.219780 16.355886 -0.829557 1.434659 0.016473 -0.004779 155920.000000 1 0 0
12.330763 -7.249898 11.927980 18.624860 -0.531514 0.875734 0.017621 -0.010312 -919194.000000 1 0 0
15.017163 -9.803598 4.248080 18.430190 -0.578359 1.338209 0.012835 -0.008708 -728342.000000 1 0 0
7.292463 -10.275898 7.780480 14.809117 -0.953612 1.017629 0.001466 0.000367 -44508.400000 1 0 0
15.211463 -3.324098 -4.286520 16.149690 -0.215144 1.839440 0.020462 -0.004699 2848160.000000 1 0 0
11.756063 -8.982398 9.745980 17.716450 -0.652442 0.988302 0.015988 -0.009286 -2230460.000000 1 0 0
16.960963 -6.693598 2.289980 18.377228 -0.375883 1.445862 0.025432 -0.010918 1811090.000000 1 0 0
17.501763 3.979502 2.037380 18.063749 0.223576 1.457768 0.012937 -0.002839 -548777.000000 1 0 0
14.766863 -4.956298 8.733880 17.857933 -0.323822 1.059767 0.031406 -0.012102 825456.000000 1 0 0
12.856763 -12.573798 6.117080 18.995142 -0.774272 1.242919 0.016589 -0.004464 1572980.000000 1 0 0
18.201363 0.701402 -0.811020 18.232918 0.038517 1.615292 0.013847 -0.008718 -1385860.000000 1 0 0
11.657163 -2.182298 10.895580 16.104829 -0.185065 0.827741 0.016654 -0.007818 1529200.000000 1 0 0
5.800463 -12.578798 10.543780 17.408125 -1.138725 0.920174 0.000060 0.007416 -1066900.000000 1 0 0
10.724863 -5.007998 11.015780 16.169419 -0.436862 0.821297 0.017335 -0.007243 25239.300000 1 0 0
17.957663 1.312402 5.108880 18.716322 0.072953 1.294324 0.040468 -0.010387 383262.000000 1 0 0
12.291863 -7.651598 7.131080 16.139676 -0.556794 1.113153 0.017316 -0.009179 -1705460.000000 1 0 0
10.760363 -7.843098 14.277180 19.522742 -0.629852 0.750555 0.021938 -0.007625 -854095.000000 1 0 0
14.098463 -0.252098 3.633880 14.561431 -0.017879 1.318576 0.009976 -0.006928 2314440.000000 1 0 0
11.629263 -7.767998 2.471180 14.201700 -0.588904 1.395900 0.010674 -0.003001 1467230.000000 1 0 0
9.304663 6.022002 3.500480 11.623021 0.574406 1.264879 0.001984 -0.000126 918930.000000 1 0 0
-3.896237 14.794802 -9.996020 18.275318 -1.313291 2.149535 0.004978 0.003071 -693205.000000 1 0 0
8.802363 -6.432298 9.267080 14.308557 -0.631065 0.866287 0.009958 -0.003343 2053080.000000 1 0 0
5.852363 -10.608098 -8.445920 14.768733 -1.066658 2.179590 -0.005650 -0.002394 -35644.800000 1 0 0
5.372063 1.080902 0.540780 5.506346 0.198557 1.472428 -0.002000 0.001757 2849960.000000 1 0 0
-0.447237 9.936502 10.895780 14.753037 -1.525817 0.739887 -0.010284 -0.000073 1022940.000000 1 0 0
-6.311237 -5.222898 1.124680 8.268935 0.691319 1.434361 0.005889 -0.002275 3611240.000000 1 0 0
-1.032537 3.991202 -10.812820 11.572075 -1.317643 2.777337 0.009937 -0.003508 1236490.000000 1 0 0
10.900363 5.827702 1.215780 12.420070 0.490969 1.472751 0.001462 0.001179 995719.000000 1 0 0
-10.026537 -1.795198 -13.591620 16.984886 0.177167 2.498456 0.010233 -0.003238 1267140.000000 1 0 0
7.443863 10.897802 -6.099520 14.538821 0.971530 2.003728 0.006871 -0.006634 546296.000000 1 0 0
-12.405037 -2.888498 -9.643920 15.976031 0.228772 2.218867 0.007167 -0.001731 20153.400000 1 0 0
-4.011337 -8.659598 2.524880 9.871904 1.137000 1.312158 0.009095 0.000229 -1246400.000000 1 0 0
8.075963 -6.719898 -5.903220 12.050984 -0.694002 2.082718 0.000598 -0.003998 1296430.000000 1 0 0
14.302663 3.249802 -4.271020 15.276419 0.223423 1.854156 0.008613 0.001761 1444900.000000 1 0 0
-2.610837 -4.883798 9.846980 11.297387 1.079860 0.512308 0.007784 -0.001075 2492110.000000 1 0 0
3.537263 -1.893198 -4.638120 6.132584 -0.491422 2.428447 -0.003297 -0.000881 -1939430.000000 1 0 0
-3.966037 8.407402 -3.418720 9.904621 -1.130018 1.923210 -0.002863 -0.001214 2317020.000000 1 0 0
5.759563 0.067402 11.725880 13.064201 0.011702 0.456597 0.006592 -0.001958 1276460.000000 1 0 0
7.168163 4.632202 12.395580 15.049593 0.573713 0.602981 0.005079 0.006776 865042.000000 1 0 0
1.103963 -14.577098 12.414080 19.178631 -1.495208 0.866776 0.018671 0.003591 1161710.000000 1 0 0
2.962063 8.691602 -9.095220 12.924426 1.242345 2.351421 0.004469 -0.001764 1101640.000000 1 0 0
-4.420437 -8.906898 -4.565620 10.941572 1.110118 2.001239 0.007383 -0.001805 2019120.000000 1 0 0
5.746363 -6.619498 -4.099620 9.677052 -0.855890 2.008260 -0.001854 -0.004610 3194180.000000 1 0 0
-3.126137 3.388702 8.620380 9.775837 -0.825679 0.491121 -0.002274 0.001124 2467840.000000 1 0 0
-3.757537 3.071002 -11.131520 12.143347 -0.685196 2.730479 0.004642 -0.004437 1189120.000000 1 0 0
3.104663 -6.139598 8.560880 10.982816 -1.102616 0.676962 -0.000598 0.001960 198354.000000 1 0 0
-5.228437 -8.714598 10.576580 14.667816 1.030404 0.765445 0.015320 -0.003995 2533910.000000 1 0 0
-13.257437 -2.442698 6.414080 14.928725 0.182208 1.126695 -0.002970 -0.000685 -974980.000000 1 0 0
4.003063 -5.929098 -8.296820 10.955179 -0.976940 2.430030 -0.002263 -0.004225 2605220.000000 1 0 0
2.906863 -0.586798 12.371480 12.721937 -0.199190 0.235265 0.006255 -0.004093 647711.000000 1 0 0
1.521063 -1.398598 -7.567620 7.844653 -0.743478 2.875042 0.002520 -0.004150 -351168.000000 1 0 0
3.643463 -3.474898 3.397780 6.074096 -0.761722 0.977148 0.001253 0.000623 294533.000000 1 0 0
1.558263 0.340002 -11.851120 11.957961 0.214826 3.007816 0.007375 -0.004442 962963.000000 1 0 0
4.086063 3.566802 -10.608920 11.914998 0.717650 2.668984 -0.000049 -0.000151 632471.000000 1 0 0
2.892563 3.232302 3.400480 5.511620 0.840810 0.905915 -0.005468 0.001655 1025710.000000 1 0 0
-5.244237 0.873802 2.542580 5.893239 -0.165105 1.124708 0.001015 -0.002235 1485130.000000 1 0 0
-9.576637 -9.211298 5.781580 14.490917 0.765955 1.160393 0.005617 0.000026 -1613740.000000 1 0 0
-2.984637 3.793102 -0.462520 4.848671 -0.904120 1.666333 -0.000992 -0.002046 2167580.000000 1 0 0
-15.995337 -6.368398 4.906380 17.901952 0.378903 1.293174 -0.000497 -0.007916 518276.000000 1 0 0
0.924563 6.710602 -8.019620 10.497681 1.433882 2.440197 0.005857 -0.003258 276808.000000 1 0 0
-1.638137 6.520602 -9.413320 11.567729 -1.324665 2.521384 0.003707 -0.001470 -808529.000000 1 0 0
2.043963 -0.370398 5.264180 5.659202 -0.179270 0.375844 0.001477 0.000369 2388310.000000 1 0 0
-3.389937 -0.630598 -6.285220 7.168914 0.183918 2.639823 0.011567 -0.007237 862789.000000 1 0 0
1.902963 -1.232198 -2.448720 3.337036 -0.574627 2.394696 0.001493 0.000904 2462320.000000 1 0 0
2.478763 -8.639598 -7.655020 11.806196 -1.291394 2.276264 -0.004018 0.000363 1374630.000000 1 0 0
-2.464537 14.054502 -5.596220 15.327121 -1.397206 1.944557 0.005925 0.001804 2931040.000000 1 0 0
6.911463 -5.130998 -8.142020 11.848542 -0.638613 2.328389 0.000314 -0.006297 2146340.000000 1 0 0
-14.170437 -4.963198 -2.156220 15.168517 0.336898 1.713431 0.004312 -0.001996 422842.000000 1 0 0
-2.748637 6.880302 -6.798920 10.055788 -1.190726 2.313280 0.002192 -0.002925 -2913240.000000 1 0 0
-5.716937 -1.053398 -8.104520 9.973779 0.182215 2.519366 0.012425 -0.009555 978557.000000 1 0 0
-5.796537 -10.608198 3.482080 12.580087 1.070705 1.290341 0.005492 0.000717 -2323840.000000 1 0 0
8.072963 -7.577598 6.642680 12.911929 -0.753757 1.030418 0.003778 -0.003855 562644.000000 1 0 0
8.805463 -5.958298 13.137580 16.900695 -0.594889 0.680371 0.017694 -0.000495 1490730.000000 1 0 0
-4.784837 9.483802 -0.793720 10.652096 -1.103533 1.645379 -0.005401 0.001558 1358910.000000 1 0 0
2.805163 6.580002 12.068480 14.029026 1.167811 0.535035 -0.007035 0.005176 593025.000000 1 0 0
5.950963 -2.856998 10.959080 12.793663 -0.447593 0.542148 0.007291 -0.004239 362442.000000 1 0 0
-9.658837 -6.506198 -1.066220 11.694468 0.592788 1.662096 0.002796 -0.000879 890874.000000 1 0 0
0.885063 -13.401998 6.200480 14.793338 -1.504852 1.138298 0.009202 0.000648 -323595.000000 1 0 0
-0.561037 -3.168398 8.723280 9.297802 1.395540 0.353379 0.002718 -0.001279 574978.000000 1 0 0
4.191363 0.771102 3.414180 5.460654 0.181940 0.895367 -0.003107 0.003034 1511490.000000 1 0 0
-10.142637 5.647002 8.279080 14.258502 -0.508017 0.951280 -0.001859 -0.004561 1024700.000000 1 0 0
9.373163 7.977002 -0.059920 12.308222 0.705102 1.575665 0.004241 0.001684 585491.000000 1 0 0
4.301763 2.817402 8.268580 9.737162 0.579841 0.556370 -0.002314 0.001129 4218120.000000 1 0 0
1.381863 2.609402 -9.750920 10.188178 1.083773 2.847556 0.008169 -0.004443 3649020.000000 1 0 0
-1.475537 -10.114898 3.082280 10.676555 1.425940 1.277932 0.007580 -0.000073 -2552230.000000 1 0 0
-9.856437 9.596202 9.063880 16.473930 -0.772021 0.988198 0.005425 -0.009999 367035.000000 1 0 0
9.796063 -2.026498 -7.723820 12.638312 -0.203991 2.228301 0.009058 -0.003501 77042.900000 1 0 0
-5.200237 -1.874398 6.696080 8.682933 0.345949 0.690108 0.004080 -0.002308 2266870.000000 1 0 0
3.184063 -7.867998 -4.981620 9.841758 -1.186258 2.101536 -0.006820 -0.002436 1590940.000000 1 0 0
-5.061937 4.952102 -13.057220 14.853873 -0.774430 2.644651 0.001345 -0.004301 2242270.000000 1 0 0
-5.650037 9.683502 5.515280 12.494456 -1.042620 1.113618 -0.001907 -0.000124 1441710.000000 1 0 0
-0.451637 -1.743998 -9.367020 9.538688 1.317396 2.951586 0.008424 -0.006645 217204.000000 1 0 0
-16.734037 0.240702 6.486380 17.948790 -0.014383 1.201046 -0.005167 -0.002929 -1057210.000000 1 0 0
-5.976337 -2.958098 4.094580 7.825122 0.459614 1.020123 0.000898 -0.001793 2367530.000000 1 0 0
1.100463 -5.667998 -5.169720 7.750047 -1.379029 2.301047 0.001681 -0.003527 1340020.000000 1 0 0
-7.139237 1.472502 -8.452420 11.161558 -0.203402 2.429934 0.003863 -0.005757 372037.000000 1 0 0
8.060863 1.919902 4.728080 9.540349 0.233819 1.052285 -0.001300 -0.000165 221485.000000 1 0 0
0.472863 -8.101198 -0.489020 8.129708 -1.512493 1.630985 0.002236 0.000466 395264.000000 1 0 0
5.475463 5.445602 -3.359420 8.421459 0.782664 1.981126 0.001500 -0.000676 571070.000000 1 0 0
-0.766637 -0.472898 -1.227020 1.522151 0.552715 2.508344 0.003240 0.000636 594596.000000 1 0 0
9.140663 6.398002 -6.307520 12.816823 0.610692 2.085329 0.003701 -0.002361 1149280.000000 1 0 0
-14.979137 -7.085598 2.465580 16.752891 0.441841 1.423086 -0.010669 -0.004645 1000860.000000 1 0 0
-6.395437 6.936802 8.887280 12.961658 -0.825982 0.815287 0.001554 -0.000219 -141912.000000 1 0 0
-9.463137 -3.202498 -9.642820 13.884918 0.326320 2.338496 0.013059 -0.003678 974587.000000 1 0 0
14.873863 3.441402 -1.298620 15.321927 0.227371 1.655654 0.001653 0.001652 1934930.000000 1 0 0
12.071663 1.613202 -5.834320 13.504323 0.132848 2.017543 0.010913 -0.000882 -98493.800000 1 0 0
1.672063 -9.419498 12.786780 15.969486 -1.395116 0.642332 0.001795 0.002078 534827.000000 1 0 0
-3.593137 6.398102 7.917180 10.794817 -1.059095 0.747451 -0.002446 0.001246 1672740.000000 1 0 0
-3.988937 13.125902 -12.456520 18.530133 -1.275767 2.308014 0.004720 -0.000013 113360.000000 1 0 0
-10.218137 7.892702 6.527880 14.467836 -0.657697 1.102687 -0.001360 -0.003631 -45524.400000 1 0 0
8.087063 -9.330798 -7.205020 14.296038 -0.856683 2.099005 0.003285 -0.002481 1052130.000000 1 0 0
5.870063 -3.895498 -0.361820 7.054322 -0.585891 1.622109 0.001645 0.000069 -1825280.000000 1 0 0
-1.644637 -4.468598 4.292880 6.411085 1.218139 0.837123 0.004477 0.000013 935158.000000 1 0 0
9.864663 -2.177698 -2.604320 10.432470 -0.217273 1.823101 0.001224 -0.000187 -1168100.000000 1 0 0
13.510263 7.107802 1.468580 15.336387 0.484312 1.474892 0.006892 0.001462 -10270.100000 1 0 0
5.361563 -3.775898 -3.305120 7.343540 -0.613575 2.037642 -0.000166 -0.004177 -2085960.000000 1 0 0
-12.316937 -5.936898 1.869280 13.800287 0.449153 1.434926 -0.002899 -0.000907 -278716.000000 1 0 0
3.765563 -5.798098 -0.346820 6.922260 -0.994809 1.620920 0.001496 0.000728 -253995.000000 1 0 0
-5.241537 3.703602 -8.673120 10.789504 -0.615133 2.504532 0.006303 -0.005955 1144540.000000 1 0 0
-1.816337 -9.305298 7.315680 11.975259 1.378026 0.913600 0.007936 -0.001556 2190230.000000 1 0 0
-7.414637 -7.427298 2.603480 10.812942 0.786251 1.327633 0.008825 -0.002118 -3143940.000000 1 0 0
-5.718937 13.131302 -8.497620 16.653735 -1.160049 2.106275 0.007143 -0.004480 2174430.000000 1 0 0
9.184063 -13.956298 -4.307320 17.253355 -0.988777 1.823116 0.016839 -0.000336 665661.000000 1 0 0
-6.471737 -5.142698 -6.737520 10.664188 0.671464 2.254656 0.014197 -0.004162 1066370.000000 1 0 0
3.485263 0.437002 -6.211320 7.135722 0.124735 2.626921 -0.001267 -0.004998 1267850.000000 1 0 0
-3.615737 5.750502 4.986780 8.426731 -1.009491 0.937530 -0.001372 0.000543 -1136300.000000 1 0 0
-2.638737 -10.780798 -2.856520 11.460727 1.330753 1.822696 0.003953 0.003022 2875690.000000 1 0 0
-12.517637 -0.463298 1.680880 12.638483 0.036995 1.437404 -0.004033 -0.001557 586465.000000 1 0 0
8.371063 -12.106798 -6.146020 15.950637 -0.965842 1.966346 0.005512 -0.004131 -739665.000000 1 0 0
6.107463 3.951602 0.973080 7.339151 0.574272 1.437817 -0.002608 0.002427 -1550840.000000 1 0 0
3.418163 -4.828398 -10.899420 12.401396 -0.954769 2.644319 -0.001512 -0.003180 -125513.000000 1 0 0
-7.524337 4.256802 8.575680 12.176958 -0.514846 0.789424 -0.001224 0.000823 3919950.000000 1 0 0
8.177863 8.715102 4.013180 12.606984 0.817190 1.246829 0.006071 -0.000092 809799.000000 1 0 0
0.318763 10.553902 -6.291620 12.291092 1.540602 2.108173 0.003821 -0.000347 1681090.000000 1 0 0
5.419363 8.001002 3.221780 10.186530 0.975444 1.248992 0.003594 -0.001197 2396490.000000 1 0 0
8.057163 6.697202 -3.790120 11.141606 0.693484 1.917902 0.003745 -0.001682 412813.000000 1 0 0
10.512663 2.516002 -8.292320 13.623836 0.234912 2.225170 0.000303 0.000453 1275110.000000 1 0 0
3.277463 -12.587398 -0.363520 13.012167 -1.316076 1.598737 -0.000607 -0.004761 -3245230.000000 1 0 0
0.596363 2.138402 5.166780 5.623524 1.298824 0.405818 0.000086 -0.001435 1314170.000000 1 0 0
-4.763037 13.412302 1.461980 14.307821 -1.229564 1.468437 -0.011548 0.005153 2273810.000000 1 0 0
8.251063 4.145402 -8.003620 12.219752 0.465572 2.284945 -0.003683 0.001774 1696610.000000 1 0 0
-13.918637 -0.550798 -3.599020 14.386966 0.039552 1.823640 -0.001834 -0.000799 -361167.000000 1 0 0
-8.529737 0.006602 -0.543420 8.547033 -0.000774 1.634419 0.004385 -0.002191 369209.000000 1 0 0
1.796063 -3.876598 -1.115020 4.415555 -1.136930 1.826081 0.000683 0.001137 -909068.000000 1 0 0
8.047963 -5.732698 -0.345720 9.887014 -0.618944 1.605771 0.002484 -0.000927 1734320.000000 1 0 0
-2.317537 -1.155798 7.383280 7.824300 0.462622 0.337352 0.002632 -0.001275 1409290.000000 1 0 0
-5.793537 8.873402 -11.645220 15.745269 -0.992378 2.403274 0.002234 0.001076 -2416830.000000 1 0 0
-6.198337 9.197202 -8.842120 14.184181 -0.977777 2.243853 -0.000621 -0.000518 264507.000000 1 0 0
-1.566537 14.011102 -8.417120 16.419894 -1.459452 2.109027 0.012034 0.000585 -285790.000000 1 0 0
-1.357537 7.175702 9.725180 12.161937 -1.383821 0.644100 -0.002123 0.000725 558346.000000 1 0 0
10.026763 2.309302 -3.976020 11.030756 0.226366 1.939545 0.000069 0.002619 -832664.000000 1 0 0
-2.973337 -7.529998 -6.992520 10.697521 1.194724 2.283204 0.007399 -0.002894 1931210.000000 1 0 0
-5.522737 -5.074298 -1.586420 7.665889 0.743106 1.779248 0.009725 -0.002324 64525.900000 1 0 0
5.612363 7.366602 -8.825820 12.792988 0.919744 2.332141 0.001707 -0.001092 692489.000000 1 0 0
-9.615237 5.248602 -7.449520 13.247489 -0.499661 2.168003 0.003385 0.000105 -519271.000000 1 0 0
-0.496137 6.200602 -5.292520 8.167275 -1.490952 2.275772 0.003278 -0.002643 -942432.000000 1 0 0
-8.321137 2.853502 -6.300220 10.820193 -0.330355 2.192308 0.005291 -0.001711 2304100.000000 1 0 0
3.689363 1.377702 -2.006320 4.419817 0.357390 2.041976 -0.002842 -0.000744 2220160.000000 1 0 0
-6.691337 12.495302 -3.450920 14.588194 -1.079147 1.809616 -0.001701 0.001945 1115220.000000 1 0 0
-6.575837 3.163602 -2.375520 7.674185 -0.448409 1.885513 0.003455 -0.000244 -471010.000000 1 0 0
12.065063 4.000302 -0.804420 12.736375 0.320154 1.633998 0.006641 0.000339 -280773.000000 1 0 0
2.342763 12.313502 -5.507120 13.690845 1.382784 1.984768 0.007316 -0.002058 -141656.000000 1 0 0
-9.225437 -1.376498 -4.279420 10.262401 0.148114 2.000938 0.001326 -0.000412 453103.000000 1 0 0
-1.169237 5.727302 3.519780 6.823339 -1.369412 1.028804 -0.003615 -0.000882 1373900.000000 1 0 0
11.554163 2.682802 11.972780 16.853592 0.228151 0.780731 0.021464 0.002790 -328351.000000 1 0 0
-7.057537 -2.337898 -5.738720 9.391886 0.319886 2.228157 0.012036 -0.004115 522079.000000 1 0 0
7.491263 -7.367798 10.832280 15.091115 -0.777089 0.770171 0.006747 0.000555 -70876.600000 1 0 0
-5.480037 -1.933898 -10.956620 12.402351 0.339255 2.653931 0.014931 -0.005809 167851.000000 1 0 0
0.786063 -6.254498 4.451580 7.717072 -1.445772 0.955931 0.003242 0.000289 1704040.000000 1 0 0
-4.929437 -9.391698 7.506380 12.994194 1.087450 0.954923 0.009231 -0.001271 2719340.000000 1 0 0
-8.757037 9.374002 1.675680 12.936983 -0.819413 1.440905 0.000746 0.000418 1134930.000000 1 0 0
-8.145037 7.206202 -9.070920 14.161659 -0.724317 2.265980 0.004963 -0.002591 -44564.500000 1 0 0
-1.294737 -10.650098 -0.036220 10.728572 1.449820 1.574172 0.004685 0.000352 -524469.000000 1 0 0
-3.929137 10.324502 7.812080 13.530042 -1.207156 0.955271 0.002623 0.000342 1869750.000000 1 0 0
-7.436037 12.045702 1.980280 14.293883 -1.017740 1.431809 -0.006933 -0.002270 3191920.000000 1 0 0
-8.182737 -8.255698 -2.884020 11.976282 0.789837 1.813998 0.009201 -0.001562 -566438.000000 1 0 0
5.475063 4.602502 -8.037220 10.759008 0.699029 2.414368 0.001342 0.001916 910894.000000 1 0 0
-8.953837 -0.130698 -10.205520 13.577221 0.014596 2.421379 0.005075 -0.004368 -1854100.000000 1 0 0
-15.178637 -2.262798 -1.591320 15.428661 0.147988 1.674121 -0.003473 -0.001840 -737944.000000 1 0 0
-7.247937 -5.826698 8.804180 12.806115 0.677121 0.812758 0.007342 -0.001968 454683.000000 1 0 0
8.061463 3.395602 -1.023720 8.807116 0.398660 1.687298 -0.002347 0.002067 81770.600000 1 0 0
11.909363 7.241402 -5.835220 15.110282 0.546312 1.967278 0.007759 -0.003663 296781.000000 1 0 0
3.813663 13.351502 -9.546020 16.850315 1.292570 2.173072 0.008912 -0.003286 1970350.000000 1 0 0
-9.807837 5.486502 -0.447620 11.247033 -0.510031 1.610606 0.000324 0.001278 1207250.000000 1 0 0
11.247463 -1.332698 -5.178720 12.453941 -0.117939 1.999651 0.011974 -0.001479 -633074.000000 1 0 0
10.545063 1.678602 -1.200920 10.745150 0.157859 1.682794 0.001904 0.001788 119392.000000 1 0 0
14.568563 5.007402 4.790980 16.132903 0.331063 1.269279 0.018649 -0.007053 1744240.000000 1 0 0
0.814763 -0.835398 10.345480 10.411084 -0.797903 0.112321 0.004442 -0.001979 1280760.000000 1 0 0
-7.984137 1.459802 -12.531820 14.930639 -0.180840 2.566857 0.006399 -0.002797 1032360.000000 1 0 0
3.154663 -11.549498 -7.851520 14.317443 -1.304158 2.151232 -0.007267 0.001410 726923.000000 1 0 0
2.848763 4.989002 -6.735420 8.852767 1.051967 2.435382 0.002578 0.000133 -1529830.000000 1 0 0
6.449263 8.015302 0.515180 10.300653 0.893245 1.520761 0.005266 -0.002507 863464.000000 1 0 0
-9.158437 -5.400698 6.764780 12.601855 0.532809 1.004147 0.003546 -0.001582 -2589020.000000 1 0 0
-0.278637 -6.875898 -11.856820 13.709114 1.530295 2.615720 0.005692 0.000672 1369300.000000 1 0 0
6.391163 -13.509598 -4.701620 15.667209 -1.128913 1.875587 -0.001766 -0.002552 2733330.000000 1 0 0
-3.296137 -0.430598 10.112080 10.644439 0.129902 0.317602 0.001736 0.001131 -101538.000000 1 0 0
8.642563 8.501702 6.875980 13.937429 0.777182 1.054864 0.002645 0.000394 -419620.000000 1 0 0
-8.004537 5.710202 -2.687420 10.193196 -0.619643 1.837599 0.003743 -0.001641 12805.700000 1 0 0
-5.385237 5.834002 -6.469620 10.241697 -0.825376 2.254533 0.004820 -0.001748 -468479.000000 1 0 0
3.281063 -13.632298 2.521080 14.246430 -1.334606 1.392897 0.002741 -0.005291 -1874040.000000 1 0 0
-11.359537 -6.983998 6.564980 14.863185 0.551241 1.113310 0.006903 -0.002328 -1157960.000000 1 0 0
-12.871737 -3.701898 -6.748520 14.997607 0.280041 2.037532 0.006168 -0.002532 -680208.000000 1 0 0
6.128263 0.351602 -7.310320 9.545680 0.057311 2.443120 -0.003160 0.000538 1266440.000000 1 0 0
-1.362237 2.135102 -2.478720 3.543784 -1.002889 2.345432 0.003202 -0.003036 2158470.000000 1 0 0
7.616663 0.930902 -5.032520 9.176404 0.121616 2.151270 -0.002635 0.002004 -1185500.000000 1 0 0
3.606463 -4.501098 10.891580 12.324486 -0.895299 0.487012 0.002428 -0.001321 -445985.000000 1 0 0
6.031063 -2.561698 2.060280 6.868826 -0.401659 1.266160 0.001683 0.000309 -1668860.000000 1 0 0
-6.292237 7.717502 1.221780 10.032190 -0.886783 1.448707 -0.004698 -0.000412 989096.000000 1 0 0
6.038063 -3.445098 7.951980 10.562238 -0.518494 0.718386 0.005387 -0.003134 853789.000000 1 0 0
6.771063 -2.305498 -7.841120 10.613472 -0.328180 2.402069 -0.000982 -0.005465 367770.000000 1 0 0
12.151663 -8.284698 -5.877520 15.838067 -0.598389 1.950991 0.017624 -0.000304 1257880.000000 1 0 0
5.534263 -9.624998 9.953680 14.911217 -1.048971 0.839910 -0.002457 0.006337 1205770.000000 1 0 0
-6.586537 7.501002 -4.493920 10.947275 -0.850220 1.993805 0.000788 -0.002749 894996.000000 1 0 0
-1.354337 -7.538498 9.803080 12.440400 1.393036 0.663237 0.010389 -0.002070 227839.000000 1 0 0
10.097263 -9.432498 0.781180 13.839688 -0.751373 1.514321 0.010153 -0.003751 25139.100000 1 0 0
11.111763 6.092102 9.850980 16.050756 0.501504 0.910008 0.012069 -0.000185 1965320.000000 1 0 0
-15.253737 -4.250298 -4.965420 16.595088 0.271747 1.874661 -0.006282 -0.000972 1443320.000000 1 0 0
-4.737737 -4.603398 7.876880 10.280207 0.771018 0.697862 0.009169 -0.002633 -315490.000000 1 0 0
2.971363 10.918402 -11.090020 15.843896 1.305089 2.346131 0.004139 -0.003080 494453.000000 1 0 0
9.872263 -1.380198 1.496980 10.080053 -0.138905 1.421736 0.000432 -0.001083 -944258.000000 1 0 0
-1.661537 -2.690498 0.763480 3.253058 1.017567 1.333891 0.004414 -0.001638 692970.000000 1 0 0
1.609963 3.040102 0.917480 3.560332 1.083769 1.310161 -0.005018 -0.001056 -126591.000000 1 0 0
-8.996537 -2.372398 4.324680 10.260059 0.257832 1.135691 0.003850 -0.003120 4522920.000000 1 0 0
9.962363 4.865402 -2.696720 11.410219 0.454307 1.809396 0.002647 0.002127 617596.000000 1 0 0
2.560963 8.505102 2.490480 9.224845 1.278322 1.297429 -0.003054 -0.002119 -521506.000000 1 0 0
-8.097037 -0.115598 2.464080 8.464459 0.014276 1.275411 0.000143 -0.002732 1851460.000000 1 0 0
6.929263 2.001402 13.785780 15.558535 0.281181 0.482023 0.012694 0.000054 -1069270.000000 1 0 0
6.891263 4.295002 3.781080 8.957293 0.557342 1.135010 -0.003160 0.000972 -1368210.000000 1 0 0
-0.328937 3.305502 7.689180 8.376039 -1.471611 0.407796 -0.002541 0.000063 -219624.000000 1 0 0
2.644563 -10.253198 9.225480 14.043905 -1.318372 0.854093 0.000994 0.001835 1742820.000000 1 0 0
1.370963 -4.601698 6.879680 8.389586 -1.281244 0.609340 0.001052 -0.000129 656322.000000 1 0 0
-0.210437 10.732802 -2.002520 10.920046 -1.551192 1.755220 0.000493 -0.002458 1807600.000000 1 0 0
8.836863 5.565802 8.010580 13.161978 0.562072 0.916482 -0.000284 -0.000333 -1467270.000000 1 0 0
2.570263 11.356902 -2.915120 12.003474 1.348228 1.816106 0.007506 -0.008284 1840360.000000 1 0 0
1.513163 2.425002 -6.689420 7.274520 1.012928 2.737778 0.002811 -0.003821 2274150.000000 1 0 0
-13.670137 -2.128098 3.508580 14.272757 0.154435 1.322427 -0.003764 -0.003126 1612420.000000 1 0 0
-0.959537 -10.693398 -5.329520 11.986378 1.481304 2.031559 -0.000106 0.000177 930816.000000 1 0 0
-5.704237 2.864502 0.382780 6.394546 -0.465383 1.510900 0.003759 -0.001991 816729.000000 1 0 0
3.779763 7.167902 -5.065320 9.556301 1.085534 2.129456 0.003689 -0.003698 -1466990.000000 1 0 0
2.994663 9.694602 -6.473120 12.035555 1.271195 2.138661 0.007008 -0.003295 744233.000000 1 0 0
-12.231037 1.697102 -2.547520 12.608263 -0.137873 1.774249 0.001947 -0.000566 330587.000000 1 0 0
-2.463137 9.598402 -5.690720 11.427190 -1.319597 2.092085 -0.002107 -0.000358 1149460.000000 1 0 0
-1.298737 3.378202 1.803280 4.043610 -1.203770 1.108552 -0.002006 -0.002582 -172053.000000 1 0 0
12.881063 3.759002 9.618680 16.509720 0.283939 0.948864 0.027854 -0.002802 735086.000000 1 0 0
-2.553837 -9.586698 11.635280 15.290736 1.310449 0.706041 0.010757 -0.004566 2137300.000000 1 0 0
-0.418937 -8.950698 -7.500220 11.685196 1.524025 2.267713 0.003023 -0.001115 2684490.000000 1 0 0
2.294563 7.620602 -0.553720 7.977794 1.278331 1.640260 -0.000049 -0.003459 2170460.000000 1 0 0
-11.850437 -1.242598 -5.543620 13.141866 0.104475 2.006258 0.003448 0.002692 -1817920.000000 1 0 0
-6.228937 -7.137198 -10.994520 14.512710 0.853246 2.430392 0.013638 -0.003057 1245650.000000 1 0 0
-4.742737 -2.339598 -1.342720 5.456205 0.458274 1.819441 0.006711 -0.001163 -2284030.000000 1 0 0
-10.454137 3.744002 4.553980 12.001886 -0.343904 1.181607 0.000597 -0.003454 1983930.000000 1 0 0
6.745963 9.347302 -3.608420 12.078939 0.945654 1.874165 0.006021 -0.003458 1852230.000000 1 0 0
1.228763 -2.727298 -11.516720 11.898860 -1.147492 2.887471 0.004973 -0.004663 -684103.000000 1 0 0
1.220763 8.755002 7.578580 11.643676 1.432254 0.862060 -0.009576 0.002690 707311.000000 1 0 0
10.334463 0.392402 10.411180 14.674732 0.037952 0.782060 0.015678 -0.004321 706095.000000 1 0 0
-5.249537 -0.910298 -3.866920 6.583264 0.171698 2.198622 0.011156 -0.004443 446722.000000 1 0 0
11.716863 5.645702 5.438780 14.097487 0.449018 1.174724 0.003803 -0.000319 3075420.000000 1 0 0
9.944063 -3.483398 3.632780 11.145202 -0.336941 1.238780 0.004567 -0.004434 -1944390.000000 1 0 0
7.311863 -1.712198 -3.493520 8.282490 -0.230023 2.006221 -0.002589 -0.000229 -3973850.000000 1 0 0
2.407463 9.263902 10.421880 14.150312 1.316545 0.742897 -0.010719 0.003370 1634970.000000 1 0 0
2.400563 -10.836398 6.333680 12.779113 -1.352789 1.052239 -0.001535 0.001323 2493650.000000 1 0 0
5.869163 -7.618198 -1.279120 9.701555 -0.914358 1.703028 0.000774 -0.003124 1725270.000000 1 0 0
-0.261337 -5.612198 -2.352520 6.090929 1.524264 1.967341 0.003874 0.000923 1154960.000000 1 0 0
7.706563 -5.078798 2.661280 9.605608 -0.582692 1.290069 0.003696 -0.002096 2223040.000000 1 0 0
-2.727137 -12.515198 4.672380 13.634464 1.356244 1.221019 0.010749 0.000569 293524.000000 1 0 0
4.747163 -10.326698 -1.126020 11.421216 -1.139907 1.669547 -0.001532 -0.004392 893741.000000 1 0 0
0.903563 0.188202 1.040880 1.391142 0.205353 0.725422 -0.001639 0.001071 -1819830.000000 1 0 0
-1.574337 8.500002 2.461080 8.988074 -1.387656 1.293438 -0.005285 0.000256 341381.000000 1 0 0
-7.408337 0.657602 -3.091220 8.054288 -0.088533 1.964702 0.004949 0.000213 -877430.000000 1 0 0
4.429763 -6.323198 12.922380 15.053024 -0.959696 0.538542 0.007190 -0.001033 241889.000000 1 0 0
-5.110237 13.032502 8.498080 16.376141 -1.197106 1.025197 0.006182 -0.004917 989342.000000 1 0 0
0.715263 6.027802 8.208680 10.209232 1.452688 0.636729 -0.005562 0.003405 -643898.000000 1 0 0
7.918463 -0.581998 -0.754720 7.975611 -0.073367 1.665567 -0.002264 0.000007 3600850.000000 1 0 0
2.338263 -9.278298 -2.362720 9.855797 -1.323923 1.812883 -0.001540 -0.001165 1428180.000000 1 0 0
-7.120437 12.204402 4.900280 14.955293 -1.042648 1.236969 0.000623 -0.000198 23919.200000 1 0 0
-14.973937 0.218402 0.194980 14.976799 -0.014584 1.557777 -0.002632 -0.002120 -489831.000000 1 0 0
6.862763 -0.540298 3.951680 7.937582 -0.078567 1.049685 -0.000386 0.001524 2341320.000000 1 0 0
-4.230737 -5.143398 5.205780 8.453036 0.882452 0.907335 0.008869 -0.002422 799986.000000 1 0 0
2.933863 5.076902 6.834480 9.005143 1.046797 0.709093 -0.004542 0.001076 107629.000000 1 0 0
2.087763 -7.239898 1.805380 7.748179 -1.290044 1.335628 0.000610 -0.000456 1329530.000000 1 0 0
-2.425237 6.463402 -1.714020 7.113031 -1.211827 1.814161 -0.002635 -0.001805 924002.000000 1 0 0
2.743263 -3.801498 -6.585520 8.083685 -0.945703 2.522953 -0.001057 -0.004531 -1962100.000000 1 0 0
-5.158037 0.882602 -12.161320 13.239413 -0.169471 2.735242 0.008116 -0.002415 6007.860000 1 0 0
-7.439537 6.453902 -11.865820 15.420676 -0.714574 2.448815 0.007820 -0.002946 2319560.000000 1 0 0
-1.059637 11.200602 -8.963220 14.384562 -1.476472 2.243514 0.004826 0.000667 1464470.000000 1 0 0
4.585363 5.860902 -0.592120 7.465007 0.906902 1.650199 0.001561 -0.001311 -85623.500000 1 0 0
-2.606637 13.401302 3.621280 14.124557 -1.378689 1.311519 -0.008358 0.005007 1068690.000000 1 0 0
1.450663 -7.855798 10.252180 12.997122 -1.388192 0.661936 -0.001044 0.001478 -766951.000000 1 0 0
12.931363 -0.270298 -1.145220 12.984788 -0.020899 1.659108 0.012522 -0.003247 1389200.000000 1 0 0
-1.065737 3.157002 -5.414720 6.357803 -1.245230 2.589951 0.006943 -0.005873 -402562.000000 1 0 0
6.584563 1.072602 7.277680 9.872769 0.161478 0.741958 0.001178 -0.000087 322232.000000 1 0 0
5.500663 -6.155698 6.810380 10.701924 -0.841535 0.881014 0.000116 0.000389 1434910.000000 1 0 0
12.209863 -4.928298 2.583180 13.417961 -0.383634 1.377070 0.008148 -0.004807 -475255.000000 1 0 0
4.411663 -9.159598 13.875380 17.201371 -1.121941 0.632345 0.002364 0.006626 342576.000000 1 0 0
-2.748837 -4.344498 -1.386820 5.324851 1.006667 1.834277 0.007797 -0.002187 2363120.000000 1 0 0
-9.230837 -5.221398 -7.529020 13.006057 0.514777 2.188158 0.015646 -0.003061 -1730110.000000 1 0 0
-10.656637 -3.040598 7.855280 13.583614 0.277939 0.954164 0.004610 -0.000359 420353.000000 1 0 0
12.008563 -0.662698 1.567780 12.128589 -0.055130 1.441170 0.005641 -0.002905 42280.600000 1 0 0
-7.593637 4.699002 4.395280 9.953011 -0.554134 1.113412 0.000595 -0.003743 2790870.000000 1 0 0
-1.068637 10.538402 6.914380 12.649448 -1.469738 0.992480 -0.006151 0.002895 898309.000000 1 0 0
7.344163 -10.080598 1.794480 12.600609 -0.941169 1.427898 0.002723 -0.004340 2948180.000000 1 0 0
-4.338537 -1.737198 1.709480 4.976252 0.380861 1.220126 0.001561 -0.000352 255277.000000 1 0 0
6.724563 -14.990998 -0.997520 16.460401 -1.149129 1.631435 0.011592 -0.006830 -2290070.000000 1 0 0
-10.395437 1.658102 2.420280 10.801489 -0.158170 1.344809 -0.002236 0.000191 1688130.000000 1 0 0
-2.945837 8.358002 -11.304420 14.363985 -1.231934 2.476723 -0.000754 -0.000287 -491330.000000 1 0 0
-1.173437 -5.163798 -6.910120 8.705833 1.347348 2.487721 0.002985 -0.004461 100404.000000 1 0 0
12.875063 -0.445298 6.348980 14.362279 -0.034572 1.112903 0.015413 -0.009826 1356590.000000 1 0 0
5.887663 -13.266898 3.649580 14.966449 -1.153122 1.324462 0.002687 -0.004334 475708.000000 1 0 0
-5.527637 3.509402 -4.932020 8.197286 -0.565674 2.216380 0.006503 -0.002982 1900060.000000 1 0 0
-4.358437 8.082802 3.443380 9.807371 -1.076264 1.212049 -0.003417 0.000215 -47910.200000 1 0 0
14.063463 6.232602 -3.967820 15.886154 0.417165 1.823235 0.011753 -0.001507 1229580.000000 1 0 0
-6.821537 -8.448198 5.388980 12.122150 0.891526 1.110117 0.010199 -0.000585 -423073.000000 1 0 0
1.610663 11.331602 2.649580 11.748179 1.429603 1.343308 -0.002177 -0.000173 782599.000000 1 0 0
-7.370837 7.339602 5.967780 11.992222 -0.783275 1.049923 -0.000533 -0.002683 -506624.000000 1 0 0
-17.471237 -3.941298 5.235280 18.659746 0.221874 1.286413 -0.001506 -0.010081 -721032.000000 1 0 0
7.541363 -13.124598 -8.625820 17.422170 -1.049265 2.088753 -0.000059 -0.001508 -305423.000000 1 0 0
-2.386937 12.775202 -2.836720 13.302264 -1.386085 1.785698 -0.004363 0.001722 1593810.000000 1 0 0
-5.524837 13.999602 -5.708920 16.096722 -1.194917 1.933351 0.010174 0.001761 1921360.000000 1 0 0
-5.617237 2.362702 7.417880 9.600034 -0.398152 0.687724 0.000837 -0.000462 1092200.000000 1 0 0
-7.439437 5.075802 1.492780 9.128931 -0.598736 1.406537 0.001125 0.000105 3365660.000000 1 0 0
10.784063 -5.732098 -5.086820 13.229841 -0.488556 1.965458 0.011402 -0.003520 2334170.000000 1 0 0
-9.552037 -0.648598 6.783380 11.733556 0.067797 0.954376 0.001343 -0.001373 1531850.000000 1 0 0
-11.256137 -4.538598 -2.570420 12.405908 0.383271 1.779501 0.000453 -0.001387 1867840.000000 1 0 0
6.549063 -4.294798 13.551880 15.652123 -0.580434 0.524015 0.015303 -0.007023 365662.000000 1 0 0
0.220763 10.391602 -11.649020 15.611976 1.549555 2.413071 0.001932 0.002411 -1141420.000000 1 0 0
-11.877137 -3.230798 1.437780 12.392403 0.265592 1.454513 -0.001268 -0.003449 3710900.000000 1 0 0
5.269663 5.914302 5.396780 9.585069 0.842974 0.972736 -0.001929 0.001644 -3848030.000000 1 0 0
-7.127737 -0.070998 8.093180 10.784676 0.009961 0.722079 0.001527 0.000047 823184.000000 1 0 0
1.691263 2.071802 9.591880 9.957755 0.886180 0.271919 0.000793 -0.001206 1230830.000000 1 0 0
10.449763 -5.019598 -2.061620 11.774726 -0.447809 1.746792 0.008211 -0.001527 214076.000000 1 0 0
-9.635837 -2.335098 -1.673820 10.055035 0.237751 1.738041 0.002489 -0.001428 -560732.000000 1 0 0
-1.939137 -5.203298 -9.878320 11.332069 1.214066 2.629485 0.013043 -0.005202 628076.000000 1 0 0
7.700763 -1.626098 6.535580 10.230334 -0.208104 0.877803 0.006394 -0.002492 1123180.000000 1 0 0
1.484963 -11.923298 -2.632120 12.300334 -1.446891 1.786452 -0.004124 -0.001738 -3553340.000000 1 0 0
-0.771837 -1.508598 4.852480 5.139860 1.097892 0.335979 0.003881 -0.000304 1856740.000000 1 0 0
7.611563 1.519502 9.927580 12.601651 0.197040 0.663567 0.003433 0.000310 1541400.000000 1 0 0
-3.820937 10.746002 -7.979320 13.919255 -1.229170 2.181273 0.001606 0.002488 1498010.000000 1 0 0
-9.592137 12.766702 6.444080 17.219870 -0.926438 1.187237 0.003195 -0.002640 2664930.000000 1 0 0
-2.522737 -2.379898 -10.984620 11.519115 0.756271 2.835769 0.013890 -0.006331 -1987760.000000 1 0 0
1.182463 -11.933698 11.174480 16.391472 -1.472033 0.820678 0.009806 0.004747 2054710.000000 1 0 0
1.436863 3.451402 -1.976520 4.228875 1.176307 2.057129 -0.001870 -0.001438 1426980.000000 1 0 0
-1.915437 -9.385698 -12.038020 15.384218 1.369480 2.469454 0.005506 -0.000257 2393040.000000 1 0 0
1.316363 -2.701498 1.513080 3.364567 -1.117383 1.104356 0.003328 0.001949 3730400.000000 1 0 0
-0.959637 -2.232598 -6.627320 7.058808 1.164842 2.790137 0.005345 -0.006656 645430.000000 1 0 0
1.862863 5.827502 4.019980 7.320538 1.261395 0.989465 -0.007283 0.000469 -1346880.000000 1 0 0
-10.935337 8.662202 3.627880 14.414467 -0.669923 1.316377 -0.007146 -0.003205 992781.000000 1 0 0
-16.475137 -1.394298 3.991480 17.009001 0.084429 1.333919 -0.001592 -0.004267 600289.000000 1 0 0
-12.294137 0.340402 6.767580 14.037871 -0.027681 1.067753 -0.001472 -0.002109 -281021.000000 1 0 0
-5.095437 2.977802 4.658180 7.518605 -0.528874 0.902622 0.000146 -0.000155 2634510.000000 1 0 0
5.116563 -6.031698 3.910580 8.823448 -0.867302 1.111628 0.001184 -0.000395 2552530.000000 1 0 0
9.914663 3.409702 6.294080 12.228738 0.331235 1.030144 0.002028 0.002304 332372.000000 1 0 0
-12.123537 5.921002 3.232380 13.873958 -0.454316 1.335654 -0.001392 -0.001582 336735.000000 1 0 0
-4.874737 12.319102 -1.247620 13.307137 -1.193997 1.664690 -0.013490 0.004816 1441140.000000 1 0 0
-1.773937 -12.207698 10.337780 16.094857 1.426493 0.873297 0.016424 -0.002905 1517140.000000 1 0 0
5.259263 6.381302 13.772680 16.064481 0.881492 0.540722 -0.000853 0.005231 214767.000000 1 0 0
12.916163 -3.747698 -5.945120 14.704318 -0.282401 1.987022 0.010226 -0.002104 1545420.000000 1 0 0
3.519263 -2.534398 6.408480 7.738023 -0.624122 0.594943 0.000071 0.001712 1097570.000000 1 0 0
7.224063 -11.882798 -0.699420 13.923978 -1.024557 1.621049 0.004019 -0.005144 -51636.400000 1 0 0
-6.052737 -6.562898 -4.070220 9.811929 0.825815 1.998545 0.011245 -0.001973 -606534.000000 1 0 0
0.225563 -8.967698 5.093480 10.315717 -1.545649 1.054389 0.003808 -0.000770 1741970.000000 1 0 0
-10.208637 2.499902 -0.403320 10.518006 -0.240155 1.609151 -0.000022 0.000659 -306455.000000 1 0 0
-1.894837 8.958002 -0.329720 9.162146 -1.362344 1.606791 -0.002726 -0.000515 -361625.000000 1 0 0
-3.480137 2.274802 -6.655320 7.847252 -0.578939 2.583201 0.011411 -0.008174 1487250.000000 1 0 0
-12.711337 3.116602 6.432480 14.583144 -0.240440 1.113983 -0.001179 -0.006733 766977.000000 1 0 0
11.383063 1.589202 7.919280 13.957602 0.138714 0.967474 0.011675 -0.007069 -3357630.000000 1 0 0
6.001463 2.488002 -3.232720 7.256596 0.393000 2.032515 -0.002444 0.001984 371918.000000 1 0 0
10.569963 -2.389998 6.308780 12.539414 -0.222373 1.043596 0.009895 -0.005794 3227290.000000 1 0 0
-0.963537 10.966202 4.047380 11.728907 -1.483157 1.218475 -0.003305 0.002991 764250.000000 1 0 0
-1.609137 -12.261298 7.400880 14.411862 1.440305 1.031506 0.013226 0.002035 306143.000000 1 0 0
8.041463 8.650302 -7.876620 14.196267 0.821857 2.158964 0.005454 -0.004148 2335690.000000 1 0 0
-4.684637 -5.917298 -8.747920 11.553630 0.901146 2.429747 0.013679 -0.005848 1518380.000000 1 0 0
-8.575437 -5.283898 -11.685220 15.427316 0.552222 2.430175 0.018855 -0.001928 2106220.000000 1 0 0
6.067363 -0.638898 -9.942720 11.665280 -0.104914 2.591229 -0.001518 -0.003972 -325505.000000 1 0 0
-11.144637 -5.482398 -5.380920 13.535654 0.457172 1.979627 0.005005 -0.002472 -67997.700000 1 0 0
3.836063 8.811702 -2.764120 10.000091 1.160203 1.850852 0.006555 -0.006255 924355.000000 1 0 0
11.644063 -10.528098 -4.066920 16.216192 -0.735109 1.824297 0.018019 -0.002859 975190.000000 1 0 0
3.932063 -11.295698 3.867680 12.570317 -1.235813 1.258039 0.000423 -0.001950 584106.000000 1 0 0
-1.012737 0.839702 3.248480 3.504762 -0.692259 0.384793 0.000545 -0.001421 -1087650.000000 1 0 0
-10.680637 -5.101998 4.501580 12.663752 0.445638 1.207380 0.007581 -0.005014 3642280.000000 1 0 0
4.537863 -8.652398 2.693580 10.134671 -1.087770 1.301785 -0.000402 -0.001332 5253510.000000 1 0 0
-3.726237 -5.756498 2.713680 7.374698 0.996315 1.193970 0.007043 -0.001041 1828570.000000 1 0 0
10.000063 5.007702 12.312480 16.633565 0.464261 0.737400 0.008244 0.008793 1251170.000000 1 0 0
1.623063 -12.390198 -5.363620 13.598521 -1.440542 1.976240 -0.004289 -0.001523 1260100.000000 1 0 0
9.792763 -10.847398 -1.752920 14.718593 -0.836450 1.690175 0.013523 -0.007535 -163545.000000 1 0 0
9.671963 -4.491998 -9.135420 14.042109 -0.434793 2.279135 0.009314 -0.004636 2230650.000000 1 0 0
-7.392637 -3.063098 -13.058320 15.315136 0.392811 2.591816 0.010720 0.001483 2417740.000000 1 0 0
0.410663 6.221602 -2.543920 6.734130 1.504886 1.958178 -0.000401 -0.003526 1213100.000000 1 0 0
-5.996037 -9.527398 0.977380 11.299516 1.009077 1.484191 0.006423 0.001194 -529243.000000 1 0 0
-8.996637 -4.101798 0.599880 9.905760 0.427771 1.510201 -0.000306 -0.001327 3721490.000000 1 0 0
1.873963 3.725302 12.059980 12.760592 1.104723 0.332909 -0.003457 -0.001819 2288060.000000 1 0 0
6.710163 4.305002 9.530180 12.425122 0.570422 0.696630 0.000152 0.001001 2777780.000000 1 0 0
-8.158337 9.877602 -3.630920 13.315745 -0.880435 1.846972 -0.000673 0.000166 1860400.000000 1 0 0
16.386863 2.156202 -6.023420 17.591477 0.130830 1.920272 0.010454 0.001136 -34656.100000 1 0 0
-11.026037 2.725702 -5.094020 12.447972 -0.242347 1.992401 0.002768 0.001160 908741.000000 1 0 0
-13.709737 4.063502 1.509780 14.378748 -0.288146 1.465602 -0.002690 0.003629 -851372.000000 1 0 0
-17.301037 10.564702 3.137380 20.512971 -0.548206 1.417248 0.024033 -0.016031 -1152120.000000 1 0 0
-14.333437 2.852802 -1.122020 14.657586 -0.196464 1.647420 0.001134 0.001650 308876.000000 1 0 0
-14.328737 5.233302 5.155780 16.102243 -0.350179 1.244866 -0.006094 -0.003019 1095180.000000 1 0 0
-17.412037 7.637402 3.077980 19.260917 -0.413357 1.410304 0.014724 -0.005965 -389424.000000 1 0 0
-14.811037 12.644402 -3.395520 19.768088 -0.706647 1.743420 0.043204 -0.009718 339833.000000 1 0 0
-8.468737 12.516202 -9.653120 17.932026 -0.975933 2.139236 0.009148 -0.010959 1666930.000000 1 0 0
-12.460737 8.957402 -9.746220 18.179489 -0.623265 2.136619 0.019976 -0.003734 -453982.000000 1 0 0
-13.970937 -3.212098 -12.189220 18.817060 0.225986 2.275456 0.006195 0.001674 -851287.000000 1 0 0
-14.911737 5.946002 -7.714720 17.811001 -0.379425 2.018774 0.025669 0.000775 414639.000000 1 0 0
-10.886437 13.633902 -8.299720 19.320537 -0.896981 2.014824 0.023200 -0.012136 1217900.000000 1 0 0
-10.874637 13.625202 4.003380 17.886613 -0.897199 1.345064 0.002480 -0.001974 -611567.000000 1 0 0
-15.088137 3.275502 3.129880 15.753633 -0.213774 1.370789 -0.007219 0.000694 -271485.000000 1 0 0
-11.061037 9.505302 -12.425720 19.159745 -0.709897 2.276451 0.018426 -0.002945 -59662.400000 1 0 0
-13.065937 11.700302 -8.996420 19.711706 -0.730313 2.044741 0.028099 -0.016920 -1323110.000000 1 0 0
-8.823337 14.591502 -3.496720 17.406615 -1.026935 1.773057 0.001369 -0.004110 -80080.900000 1 0 0
-16.699637 8.274702 -4.036220 19.069338 -0.460043 1.784070 0.033424 -0.003162 -1656460.000000 1 0 0
-16.973537 6.711702 0.338980 18.255487 -0.376553 1.552227 0.022688 0.000540 539156.000000 1 0 0
-10.477737 2.856102 -12.447020 16.518735 -0.266122 2.424180 0.009460 -0.007734 1142570.000000 1 0 0
-16.801937 0.973302 2.399480 17.000292 -0.057863 1.429180 -0.004971 -0.004113 -514032.000000 1 0 0
-12.667037 1.231702 -6.998420 14.524077 -0.096932 2.073561 0.003198 -0.001705 548238.000000 1 0 0
-12.322137 9.064102 -5.379420 16.215153 -0.634218 1.908957 0.021067 -0.001870 -197075.000000 1 0 0
-9.568437 14.049902 1.282880 17.047009 -0.972914 1.495470 0.010707 -0.003845 1383190.000000 1 0 0
-12.132637 11.252602 2.823080 16.786653 -0.747784 1.401819 0.002428 -0.003036 -484000.000000 1 0 0
-12.582837 6.902102 -3.612120 14.799129 -0.501716 1.817364 0.007904 -0.000725 -1019270.000000 1 0 0
-15.884537 3.716802 -9.377220 18.816626 -0.229853 2.092488 0.019083 -0.001810 -1132800.000000 1 0 0
-15.126237 5.989902 -4.745420 16.947006 -0.377048 1.854606 0.018820 0.000356 928491.000000 1 0 0
-17.767637 5.407002 7.514380 20.034733 -0.295413 1.186327 -0.003631 -0.007179 -789599.000000 1 0 0
-15.846837 10.195602 -2.116320 18.961840 -0.571710 1.682639 0.037261 -0.004511 494514.000000 1 0 0
-8.796037 9.955302 -8.401820 15.718425 -0.847143 2.134737 0.007705 -0.006201 -489565.000000 1 0 0
-16.917737 4.196502 -1.273520 17.476908 -0.243146 1.643730 0.000885 0.001238 -993937.000000 1 0 0
-10.278137 5.477102 -4.579420 12.514386 -0.489611 1.945431 0.003478 0.001235 -286438.000000 1 0 0
-18.075437 2.848402 6.081380 19.282583 -0.156299 1.249937 -0.003054 -0.005409 -1176770.000000 1 0 0
-10.308737 10.121802 -5.743220 15.546881 -0.776249 1.949174 0.007584 -0.006567 1291760.000000 1 0 0
-15.370137 0.559002 -5.914820 16.478432 -0.036353 1.937932 -0.000384 -0.002085 188856.000000 1 0 0
-16.332437 -4.161298 -8.791020 19.009128 0.249479 2.051568 -0.004703 -0.006786 -551266.000000 1 0 0
-9.899337 9.595302 -1.094520 13.829847 -0.769804 1.650021 -0.002093 0.001018 617627.000000 1 0 0
-17.353437 -2.969498 -3.283520 17.909250 0.169477 1.755181 0.001657 -0.002381 -1233020.000000 1 0 0
-11.961937 5.174402 -11.519820 17.394500 -0.408267 2.294638 0.010615 -0.003847 -12901.900000 1 0 0
-16.316837 7.175102 5.770280 18.735458 -0.414286 1.257720 0.005206 -0.006356 -1604630.000000 1 0 0
-12.173037 6.068302 -8.766020 16.181787 -0.462450 2.143280 0.013843 -0.000188 3812700.000000 1 0 0
-14.551537 8.434202 -0.116420 16.819529 -0.525291 1.577718 0.019271 -0.003277 1276910.000000 1 0 0
-14.828337 12.022002 3.831480 19.470191 -0.681259 1.372717 0.005533 -0.011540 1464750.000000 1 0 0
-17.314137 4.155802 -4.034920 18.257344 -0.235567 1.793639 0.013515 -0.004041 -402615.000000 1 0 0
-13.729237 13.473002 -0.841920 19.254157 -0.775979 1.614537 0.029339 -0.004891 -303287.000000 1 0 0
-10.014537 6.918702 -13.037620 17.836450 -0.604569 2.390515 0.000040 -0.001437 1578070.000000 1 0 0
-15.860637 -1.121198 -8.313320 17.942358 0.070573 2.052551 -0.000393 -0.006839 36456.500000 1 0 0
-11.365137 11.967802 -0.024520 16.504400 -0.811221 1.572282 0.011799 -0.005495 990973.000000 1 0 0
-12.003337 7.426402 -0.892920 14.143156 -0.554052 1.633973 -0.001195 0.004197 1936560.000000 1 0 0
-11.480537 0.199102 -11.717120 16.405282 -0.017341 2.366318 0.009734 -0.006536 206295.000000 1 0 0
-19.033637 -1.224698 -4.777120 19.662149 0.064255 1.816213 0.007581 -0.005134 -776511.000000 1 0 0
-17.968237 1.469502 -5.078020 18.729743 -0.081602 1.845353 0.000499 -0.001793 -12869.300000 1 0 0
-13.328337 -0.075098 -9.500320 16.367844 0.005634 2.190048 0.003875 -0.005204 -213831.000000 1 0 0
-6.153237 11.308402 -13.219220 18.452373 -1.072471 2.369420 -0.003010 0.002852 1030720.000000 1 0 0
16.397363 5.756302 7.056580 18.756434 0.337610 1.185081 0.050069 -0.015281 -209522.000000 1 0 0
14.879063 10.160102 -5.488020 18.834345 0.599120 1.866469 0.028924 -0.006712 781281.000000 1 0 0
2.343563 16.853202 4.277580 17.544811 1.432625 1.324505 0.015856 -0.009421 847270.000000 1 0 0
-3.827637 18.251202 -5.855220 19.545864 -1.364073 1.875031 0.014010 -0.001238 551325.000000 1 0 0
5.481963 14.538902 5.606380 16.518567 1.210225 1.224519 0.011189 -0.008829 705864.000000 1 0 0
9.780263 5.920302 15.114080 18.950961 0.544331 0.647596 0.009563 0.016875 -1944980.000000 1 0 0
4.591363 12.676602 -1.174320 13.533509 1.223302 1.657677 0.008156 -0.007758 1198630.000000 1 0 0
3.505263 13.665802 12.939680 19.143571 1.319711 0.828573 -0.000188 -0.004698 -1008110.000000 1 0 0
-0.754437 12.390302 9.106180 15.395170 -1.509982 0.937884 -0.007075 0.000392 497361.000000 1 0 0
-7.739437 13.951302 8.412380 18.036237 -1.064316 1.085562 0.015540 -0.011724 914150.000000 1 0 0
11.450863 12.869302 -4.145720 17.718019 0.843656 1.806969 0.024903 -0.008198 1199060.000000 1 0 0
-5.762237 16.132402 0.784980 17.148585 -1.227736 1.525005 -0.005923 0.002990 253453.000000 1 0 0
3.140163 10.585702 6.728880 12.930411 1.282423 1.023487 -0.008779 0.001432 2491550.000000 1 0 0
-1.199537 15.510802 2.372380 15.736964 -1.493614 1.419467 -0.001659 0.001607 377051.000000 1 0 0
9.865963 8.860602 9.496480 16.310445 0.731763 0.949324 0.015789 -0.004536 2944300.000000 1 0 0
7.307063 12.278202 6.222780 15.584299 1.033969 1.160045 0.009644 -0.005872 1071500.000000 1 0 0
11.854163 13.943302 -1.517420 18.364079 0.866204 1.653520 0.018333 -0.008627 873609.000000 1 0 0
9.681463 15.872102 -1.120120 18.625493 1.023080 1.630972 0.012541 -0.008092 1234990.000000 1 0 0
10.122463 13.659802 3.045780 17.272267 0.933054 1.393530 0.018231 -0.009010 2321030.000000 1 0 0
-6.014737 14.579602 6.257080 16.967407 -1.179523 1.193110 -0.000660 -0.005019 203676.000000 1 0 0
-0.870637 18.218902 -6.155020 19.250212 -1.523045 1.896249 0.032395 0.000409 844701.000000 1 0 0
-3.495237 15.762602 5.446580 17.039411 -1.352585 1.245440 -0.009599 0.003473 1485120.000000 1 0 0
6.998363 12.335502 10.601480 17.706865 1.054742 0.928892 0.002946 -0.003185 993764.000000 1 0 0
1.487663 14.622802 6.143480 15.930531 1.469409 1.174893 0.000156 -0.003314 -873038.000000 1 0 0
17.407563 7.659302 -1.393720 19.069101 0.414506 1.643949 0.003036 0.004558 -756831.000000 1 0 0
2.143363 16.188902 -3.417120 16.683862 1.439165 1.777072 0.009441 -0.006209 715082.000000 1 0 0
6.707163 11.144202 0.571380 13.019437 1.029016 1.526896 0.012444 -0.005267 1499380.000000 1 0 0
12.732863 9.355702 3.201480 16.121551 0.633681 1.370884 0.010840 -0.001055 -2132270.000000 1 0 0
5.979263 14.166102 -3.458220 15.760371 1.171399 1.792021 0.003889 -0.007484 -102763.000000 1 0 0
3.131663 16.445502 1.481680 16.806463 1.382623 1.482520 0.012802 -0.013234 -8598.450000 1 0 0
2.949663 18.853102 -2.541820 19.250995 1.415599 1.703219 0.016095 -0.012716 -1328840.000000 1 0 0
3.936763 11.983002 10.588380 16.468279 1.253376 0.872445 -0.004459 -0.001339 1565110.000000 1 0 0
8.028363 11.508602 3.376280 14.432664 0.961685 1.334675 0.008529 -0.002232 1101000.000000 1 0 0
0.760363 12.435202 0.160280 12.459458 1.509726 1.557932 0.003794 -0.003846 -806146.000000 1 0 0
11.997963 9.926502 -4.632720 16.246496 0.691196 1.859961 0.014770 -0.004381 -290400.000000 1 0 0
-1.139537 16.437202 9.912680 19.228660 -1.501580 1.029187 -0.003655 -0.006405 121133.000000 1 0 0
8.317663 14.700902 -8.112920 18.738183 1.055909 2.018572 0.017534 -0.002666 1028250.000000 1 0 0
14.513863 7.618002 -1.305120 16.443524 0.483351 1.650250 0.013252 -0.000375 -485626.000000 1 0 0
12.492263 8.323602 5.990180 16.162340 0.587749 1.191114 0.012624 -0.005567 -1605040.000000 1 0 0
-2.955637 14.255502 10.119380 17.730115 -1.366360 0.963383 -0.002411 -0.006104 2892860.000000 1 0 0
-4.609237 17.189202 -3.138520 18.071083 -1.308812 1.745358 0.015815 -0.000777 991860.000000 1 0 0
-7.152437 16.463002 -1.800420 18.039659 -1.160944 1.670766 0.003535 0.001980 -665624.000000 1 0 0
8.361563 11.224702 -1.899020 14.125011 0.930551 1.705648 0.014414 -0.006441 460815.000000 1 0 0
8.555363 12.869002 -4.154920 16.002150 0.984084 1.833454 0.015428 -0.008667 1402610.000000 1 0 0
2.637163 14.803402 -7.299220 16.714483 1.394500 2.022724 0.006209 0.000244 -1146190.000000 1 0 0
11.351563 11.352202 9.733580 18.774265 0.785426 1.025755 0.028047 -0.011172 885679.000000 1 0 0
8.655563 15.714002 1.524480 18.004795 1.067325 1.486024 0.013909 -0.009509 584528.000000 1 0 0
6.017263 9.956402 7.653980 13.925544 1.027176 0.988868 0.002779 0.001764 3561190.000000 1 0 0
14.431563 11.486202 2.507680 18.614276 0.672241 1.435667 0.020824 -0.000105 331113.000000 1 0 0
12.058463 12.571802 1.121680 17.456084 0.806237 1.506495 0.016515 -0.004158 2064260.000000 1 0 0
5.232863 15.801502 8.212780 18.561252 1.251001 1.112446 0.015444 -0.014265 127036.000000 1 0 0
11.546563 14.940702 5.274080 19.605193 0.912846 1.298427 0.024081 -0.011549 -210030.000000 1 0 0
6.001063 16.800802 1.782680 17.929240 1.227731 1.471203 0.007342 -0.015369 1724700.000000 1 0 0
-0.622837 16.116602 -4.213020 16.669803 -1.532170 1.826301 0.012415 -0.003565 106969.000000 1 0 0
16.021463 6.430402 2.599280 17.458339 0.381680 1.421356 0.010388 -0.007589 462119.000000 1 0 0
7.637563 16.504802 -3.155020 18.457925 1.137392 1.742570 -0.002972 -0.010544 81013.400000 1 0 0
14.830763 8.161202 7.488880 18.510539 0.503065 1.154284 0.041135 -0.012532 48796.300000 1 0 0
2.061963 12.948402 8.539080 15.647002 1.412878 0.993533 -0.006880 -0.001835 306104.000000 1 0 0
16.040563 7.441402 -5.822620 18.616579 0.434362 1.888899 0.014621 0.005369 55620.800000 1 0 0
-3.040437 16.963802 0.662580 17.246850 -1.393448 1.532369 -0.002885 0.000112 -919074.000000 1 0 0
-2.960137 18.579202 4.522180 19.349400 -1.412799 1.334903 -0.004144 0.000694 129048.000000 1 0 0
-1.057037 19.136402 0.808680 19.182627 -1.515615 1.528627 0.003219 -0.002345 130312.000000 1 0 0
7.140863 16.599702 -6.073620 19.063863 1.164546 1.895041 0.005797 -0.005592 10197.300000 1 0 0
10.983063 10.019802 0.817680 14.889348 0.739567 1.515852 0.009608 -0.001208 -1790700.000000 1 0 0
9.092563 8.692302 14.260980 19.015950 0.762896 0.722812 0.010141 0.009104 449936.000000 1 0 0
6.481663 12.425402 -8.418020 16.348261 1.089982 2.111709 0.018248 -0.007223 1138550.000000 1 0 0
6.340563 9.006802 13.251180 17.231337 0.957408 0.693495 -0.002364 0.004363 -2787.790000 1 0 0
16.595563 9.522602 2.898680 19.351873 0.520935 1.420442 0.011587 -0.005265 -1283210.000000 1 0 0
2.565663 14.695102 -0.894620 14.944196 1.397946 1.630696 0.007086 -0.009323 398220.000000 1 0 0
9.099263 12.868502 8.335180 17.828913 0.955324 1.084325 0.021594 -0.014385 589661.000000 1 0 0
7.151363 9.401402 10.468780 15.783653 0.920501 0.845620 0.000978 0.000533 259134.000000 1 0 0
4.415163 15.767102 -5.379320 17.234624 1.297766 1.888223 0.010299 -0.003971 2621860.000000 1 0 0
0.315463 16.256202 -8.113220 18.171075 1.551393 2.033636 0.015211 -0.000497 733197.000000 1 0 0
-2.524437 15.676302 -2.022920 16.006606 -1.411132 1.697516 0.000992 0.000419 -908684.000000 1 0 0
13.281363 10.481502 7.696780 18.587547 0.668114 1.143862 0.033642 -0.012647 1929150.000000 1 0 0
-0.964237 15.919802 7.017380 17.424507 -1.510302 1.156298 -0.000639 -0.001612 833496.000000 1 0 0
13.409163 13.283602 6.810480 20.065950 0.780694 1.224512 0.035828 -0.008872 -1440980.000000 1 0 0
5.287763 17.411802 4.514280 18.748600 1.275959 1.327627 0.017112 -0.014270 -861528.000000 1 0 0
10.899163 9.499302 -1.840920 14.574549 0.716880 1.697445 0.009881 -0.001388 -273057.000000 1 0 0
3.160363 12.716802 4.733580 13.932398 1.327212 1.224142 -0.000043 0.000014 1556410.000000 1 0 0
-0.243237 18.075502 3.407780 18.395540 -1.557340 1.384470 0.004097 -0.001192 3542600.000000 1 0 0
-7.709537 16.009802 -5.827420 18.700523 -1.122016 1.887692 0.019280 -0.005518 -668431.000000 1 0 0
-12.544337 -9.035698 8.327380 17.559883 0.624221 1.076710 0.002104 -0.003508 -528346.000000 1 0 0
-13.338637 -11.571998 6.893280 18.956468 0.714598 1.198627 0.003265 -0.000144 -1016240.000000 1 0 0
-6.711137 -12.245498 12.450280 18.708315 1.069452 0.842640 0.027848 -0.005842 -1374930.000000 1 0 0
-1.740637 -10.711798 14.387580 18.021512 1.409707 0.646236 0.010273 -0.006031 1472100.000000 1 0 0
-8.807637 2.957202 10.987480 14.389032 -0.323928 0.701924 0.005709 -0.000605 1913540.000000 1 0 0
0.746263 9.934602 15.153880 18.135415 1.495820 0.581580 -0.010846 -0.005371 -424540.000000 1 0 0
0.973963 -6.694498 16.689080 18.008062 -1.426323 0.385113 0.009829 -0.005286 1859410.000000 1 0 0
6.012563 1.960502 17.899980 18.984303 0.315197 0.339614 0.020500 -0.004918 -402502.000000 1 0 0
-5.156637 -2.948798 17.715480 18.684875 0.519460 0.323531 0.020216 -0.011780 662902.000000 1 0 0
-4.280637 8.208402 13.041880 15.993509 -1.090101 0.617293 0.006611 -0.003059 -542951.000000 1 0 0
0.018663 -4.820798 18.568980 19.184563 -1.566925 0.254010 0.021173 -0.016823 -419602.000000 1 0 0
-11.659537 2.208402 11.117380 16.260934 -0.187190 0.817994 0.007856 -0.002236 532204.000000 1 0 0
-3.510937 -6.072198 14.450180 16.062564 1.046561 0.451901 0.019715 -0.010087 1613190.000000 1 0 0
-7.576737 -2.187698 14.615080 16.607032 0.281094 0.494821 0.016746 -0.001945 1158670.000000 1 0 0
-6.189537 -1.212298 10.616980 12.349101 0.193414 0.536042 0.008636 -0.003308 2141660.000000 1 0 0
-3.938837 2.371702 11.139480 12.051034 -0.541986 0.391445 -0.001320 0.002856 1050770.000000 1 0 0
-6.379337 6.283002 13.592480 16.276595 -0.777790 0.582494 -0.000254 -0.001162 2096630.000000 1 0 0
-8.946537 5.559602 12.550780 16.385108 -0.556024 0.698221 -0.000288 -0.005633 300373.000000 1 0 0
-12.389937 -2.125998 15.858680 20.236802 0.169936 0.670268 0.012592 0.006438 1058160.000000 1 0 0
-3.592237 -7.605498 17.063580 19.024025 1.129536 0.457977 0.022961 -0.010199 941377.000000 1 0 0
-0.607637 -5.328998 14.563580 15.519836 1.457262 0.352869 0.012697 -0.005767 3159890.000000 1 0 0
-14.403937 -2.162098 13.700680 19.996417 0.148992 0.815977 0.002714 0.006057 494881.000000 1 0 0
-6.512637 1.460402 12.156180 13.867946 -0.220592 0.502115 0.007510 0.000338 1623180.000000 1 0 0
2.226863 -2.318998 14.513180 14.865028 -0.805663 0.218007 0.009295 -0.006640 1367750.000000 1 0 0
-12.555037 4.137602 9.166780 16.086596 -0.318348 0.964486 -0.001103 -0.004776 -1048000.000000 1 0 0
-9.174837 -2.930198 12.580780 15.844233 0.309134 0.653388 0.004581 0.006112 1498010.000000 1 0 0
-7.312937 -7.161698 15.348880 18.448769 0.774950 0.588142 0.029314 -0.007046 77961.600000 1 0 0
-3.267537 6.047302 19.446080 20.625147 -1.075408 0.339763 0.031367 -0.014463 -16385.300000 1 0 0
0.663163 5.458802 16.165980 17.075632 1.449904 0.327877 0.004893 -0.006187 184510.000000 1 0 0
3.334263 1.444102 16.799080 17.187548 0.408720 0.213014 0.015574 -0.010781 2227470.000000 1 0 0
-11.814537 11.428002 7.854380 18.217404 -0.768769 1.125033 0.006335 -0.014618 145997.000000 1 0 0
0.687563 -9.365398 15.514680 18.135289 -1.497513 0.544287 0.000220 0.002497 1710940.000000 1 0 0
-2.583137 -3.663098 19.013980 19.535156 0.956603 0.231510 0.022221 -0.016045 1088630.000000 1 0 0
-12.889437 2.543802 13.728680 19.002241 -0.194852 0.763418 0.006326 -0.009364 681885.000000 1 0 0
-5.448737 -0.627998 15.820180 16.743990 0.114749 0.333729 0.016112 -0.002751 2213690.000000 1 0 0
-4.498537 -6.004398 11.704180 13.902426 0.927803 0.570038 0.014891 -0.002082 1098130.000000 1 0 0
2.443863 1.786902 13.979580 14.303640 0.631347 0.213269 0.003901 -0.004878 732233.000000 1 0 0
0.096163 3.341102 14.354780 14.738789 1.542023 0.228772 0.006630 -0.005142 421753.000000 1 0 0
-13.002437 7.139802 12.267180 19.248996 -0.502162 0.879821 0.011399 -0.010119 612984.000000 1 0 0
0.823263 1.426802 18.229380 18.303655 1.047461 0.090119 0.014674 -0.009765 1486330.000000 1 0 0
-2.052937 6.383802 12.455780 14.146163 -1.259656 0.493868 -0.003431 -0.001991 1470590.000000 1 0 0
-13.610437 -2.552998 10.866680 17.602458 0.185422 0.905441 0.006198 0.000398 143205.000000 1 0 0
-2.527437 3.591102 13.470980 14.168671 -0.957521 0.315123 0.000093 0.000734 -568804.000000 1 0 0
3.517263 6.105702 16.209180 17.674508 1.048164 0.410068 -0.000448 -0.005205 964664.000000 1 0 0
-3.548937 12.418702 12.336980 17.861136 -1.292442 0.808317 -0.000684 -0.004143 -18293.800000 1 0 0
3.653563 -1.527898 17.042080 17.496156 -0.396092 0.228324 0.015389 -0.009898 -541450.000000 1 0 0
-15.845137 0.644802 9.250580 18.359122 -0.040672 1.042725 -0.001726 -0.003493 429593.000000 1 0 0
-4.651637 4.610902 15.209580 16.559875 -0.781000 0.406628 0.017103 -0.004755 531040.000000 1 0 0
-8.112037 -8.191298 10.515180 15.603574 0.790260 0.831327 0.013203 -0.006530 3284040.000000 1 0 0
-2.693637 -0.432998 14.770180 15.020032 0.159385 0.182652 0.010550 -0.003719 2790890.000000 1 0 0
-1.938437 1.051902 17.220180 17.360836 -0.497186 0.127380 0.014854 -0.009135 1178970.000000 1 0 0
-0.706637 -2.452598 14.443880 14.667659 1.290276 0.174904 0.010349 -0.004452 -46790.200000 1 0 0
5.033763 -8.205798 16.539580 19.137178 -1.020553 0.527110 0.009789 0.003054 -195571.000000 1 0 0
-4.412737 9.978702 10.691180 15.275734 -1.154435 0.795567 0.002389 -0.004056 561110.000000 1 0 0
-6.210737 2.092802 15.129180 16.487727 -0.325016 0.408790 0.017956 -0.002886 -345286.000000 1 0 0
-4.932537 6.875802 17.293480 19.252818 -0.948503 0.455068 0.024868 -0.007090 338144.000000 1 0 0
-4.036937 9.195802 15.714180 18.649265 -1.157129 0.568673 0.012346 -0.005071 -461049.000000 1 0 0
-4.850537 -9.654798 18.605280 21.515094 1.105233 0.526135 0.041405 -0.011106 222373.000000 1 0 0
-6.922337 -4.170798 11.206280 13.816476 0.542265 0.624799 0.009742 0.000114 1300250.000000 1 0 0
-2.418837 -0.720098 19.533180 19.695543 0.289349 0.128491 0.018302 -0.012192 1269780.000000 1 0 0
-5.837837 -4.510198 15.350780 17.031402 0.657797 0.447984 0.020451 -0.007621 885389.000000 1 0 0
-12.923437 0.124802 9.709080 16.164685 -0.009657 0.926501 -0.004057 -0.000449 1926950.000000 1 0 0
-14.426537 8.934002 10.432780 19.919444 -0.554472 1.019551 0.009720 -0.013530 269799.000000 1 0 0
-8.208537 10.341602 13.020580 18.543579 -0.899884 0.792368 0.008646 -0.020212 -1783800.000000 1 0 0
-10.516237 7.214002 10.767680 16.690596 -0.601259 0.869597 0.011339 -0.009468 923735.000000 1 0 0
-9.982837 -6.296498 14.845580 18.965605 0.562711 0.671702 0.020813 -0.006654 470868.000000 1 0 0
-0.650537 -13.429898 14.577580 19.831571 1.522395 0.745027 0.013645 -0.006336 440845.000000 1 0 0
3.810063 -5.601398 17.062280 18.357931 -0.973484 0.377951 0.020718 -0.003669 1862440.000000 1 0 0
-7.307737 9.358402 10.420580 15.797822 -0.907827 0.850482 -0.000393 -0.007194 2372510.000000 1 0 0
-10.392737 -6.633198 11.828780 17.085910 0.568073 0.806108 0.012585 -0.005476 422391.000000 1 0 0
-11.013037 -3.832698 10.646480 15.790000 0.334905 0.830841 0.005223 0.005546 401634.000000 1 0 0
-10.258137 -10.197698 9.872780 17.512687 0.782444 0.971877 0.016017 -0.006325 438342.000000 1 0 0
-9.992337 -3.448698 15.279980 18.580046 0.332334 0.605203 0.023651 -0.005914 1774960.000000 1 0 0
5.675063 -3.360398 16.084280 17.383977 -0.534616 0.389139 0.021398 -0.008146 1078060.000000 1 0 0
-11.419937 0.686002 15.352580 19.146469 -0.059998 0.640413 0.018252 -0.002078 -383319.000000 1 0 0
-3.189637 3.270502 18.805780 19.352708 -0.797915 0.238307 0.018635 -0.008347 -544644.000000 1 0 0
0.519163 7.300302 13.862480 15.675850 1.499801 0.485759 -0.005060 -0.001806 706379.000000 1 0 0
-13.184537 -7.276798 12.097780 19.316834 0.504315 0.894022 -0.002186 -0.009747 1062090.000000 1 0 0
-1.531937 -1.105498 12.154580 12.300519 0.625098 0.154195 0.005166 -0.002953 796382.000000 1 0 0
1.969663 -4.964498 13.151380 14.194527 -1.193095 0.385766 0.008003 -0.006189 1436680.000000 1 0 0
-14.726837 -3.920098 8.517480 17.458361 0.260155 1.061144 0.000680 -0.009584 -202046.000000 1 0 0
8.111263 0.824802 16.133380 18.076471 0.101338 0.467923 0.020126 -0.009156 864392.000000 1 0 0
-0.992937 11.360902 13.341880 17.551688 -1.483618 0.707256 -0.012142 -0.001733 2105730.000000 1 0 0
2.775863 -12.245498 -13.832120 18.681145 -1.347879 2.404509 -0.006133 0.011683 -81803.900000 1 0 0
0.826663 -10.680498 -14.081220 17.692857 -1.493551 2.491240 -0.004636 0.006982 -2161570.000000 1 0 0
3.267463 -14.279398 -12.380420 19.179477 -1.345846 2.272479 -0.013728 0.008634 -1615370.000000 1 0 0
-5.212937 -10.162198 -16.107420 19.745733 1.096824 2.524807 0.016984 -0.006871 -279891.000000 1 0 0
-1.096437 -12.107898 -15.054320 19.350347 1.480487 2.462252 0.000151 0.004346 -187822.000000 1 0 0
5.796063 -14.893298 -12.154920 20.078515 -1.199659 2.221026 -0.013470 0.007145 1486180.000000 1 0 0
1.899363 -12.000498 -16.139020 20.201176 -1.413825 2.496285 -0.006319 0.011940 -619728.000000 1 0 0
1.371763 -14.499398 -14.106320 20.275664 -1.476469 2.340227 -0.000849 0.022051 -399171.000000 1 0 0
-1.094637 -10.678598 -15.987220 19.256737 1.468646 2.550289 0.005429 -0.000165 -434378.000000 1 0 0
-6.014137 -5.586698 -15.161220 17.240756 0.748569 2.645360 0.016140 0.000570 53682.000000 1 0 0
-6.496937 -7.711798 -16.638720 19.455823 0.870692 2.596743 0.014893 0.004279 782461.000000 1 0 0
5.011063 -12.520398 -11.378320 17.644753 -1.190090 2.271631 -0.009452 0.004361 -402178.000000 1 0 0
-2.033037 -15.629498 -13.009520 20.436782 1.441446 2.260844 0.006095 0.001796 -193209.000000 1 0 0
15.676763 -7.447098 -8.689120 19.409301 -0.443481 2.034963 0.007674 0.006077 163914.000000 1 0 0
19.205563 -3.764998 -4.178420 20.012197 -0.193582 1.781138 0.012304 -0.014343 125974.000000 1 0 0
14.734663 -11.927398 -8.873420 20.931094 -0.680494 2.008582 0.014351 -0.000991 60291.400000 1 0 0
17.952663 -3.479798 -6.405520 19.376217 -0.191458 1.907722 0.041921 -0.002345 683922.000000 1 0 0
9.649463 -9.173898 -15.426520 20.377686 -0.760139 2.429552 0.036624 -0.017423 150570.000000 1 0 0
1.281163 1.914302 -15.164420 15.338369 0.981002 2.990846 0.013982 -0.004199 -209284.000000 1 0 0
4.830663 -4.403598 -13.865620 15.329136 -0.739183 2.701066 0.005094 -0.002190 -43588.100000 1 0 0
13.166363 -5.502398 -8.733320 16.730223 -0.395853 2.120000 0.021381 0.000190 -1569160.000000 1 0 0
3.009763 0.848502 -12.264320 12.656705 0.274785 2.891938 0.006061 -0.001923 -1694310.000000 1 0 0
0.560563 6.451102 -12.904620 14.438150 1.484120 2.676514 0.010846 -0.002292 -151086.000000 1 0 0
3.078263 -1.160098 -16.858420 17.176375 -0.360407 2.948883 0.015227 -0.005360 247254.000000 1 0 0
13.148563 4.360502 -11.339920 17.902303 0.320220 2.256779 0.015933 -0.006025 -6006.620000 1 0 0
-3.916437 9.353802 -16.544820 19.405236 -1.174274 2.591729 0.008839 0.000394 141990.000000 1 0 0
-0.369837 -5.193898 -17.723620 18.472685 1.499710 2.855841 0.012886 -0.006508 183652.000000 1 0 0
-0.483637 -8.491198 -17.507420 19.463918 1.513900 2.689376 0.011748 -0.004564 -2898600.000000 1 0 0
5.611363 -10.099198 -12.083620 16.718106 -1.063645 2.378622 -0.000713 -0.003178 226098.000000 1 0 0
1.770563 -9.803898 -17.966320 20.543612 -1.392124 2.635294 0.006640 -0.005333 -256318.000000 1 0 0
10.915263 8.683602 -14.562820 20.164911 0.672020 2.377754 0.032239 -0.018583 -1003960.000000 1 0 0
10.966563 -3.700098 -12.914720 17.342036 -0.325404 2.410891 0.015728 -0.012055 394889.000000 1 0 0
4.938263 7.399202 -12.311220 15.188837 0.982283 2.515877 -0.001358 0.000589 -1028960.000000 1 0 0
9.635063 -5.921298 -12.708920 17.012139 -0.551055 2.414410 0.015626 -0.005492 -862724.000000 1 0 0
-3.324337 0.287202 -15.882020 16.228748 -0.086180 2.934510 0.006534 -0.000013 -1053860.000000 1 0 0
-0.742437 10.863402 -12.818120 16.818708 -1.502559 2.437400 0.002369 0.001740 -2746810.000000 1 0 0
6.685863 -5.522098 -12.331320 15.075005 -0.690357 2.528718 0.002517 -0.004472 24361.200000 1 0 0
17.930763 -6.141798 -8.129420 20.623322 -0.330003 1.975978 0.024445 0.000794 426642.000000 1 0 0
12.924463 4.711302 -13.883820 19.544784 0.349556 2.360805 0.010059 -0.015683 208089.000000 1 0 0
14.261863 0.723302 -11.483420 18.324651 0.050672 2.248063 0.030854 -0.008236 -72055.900000 1 0 0
14.946263 6.214202 -11.143420 19.651536 0.394027 2.173717 0.021465 -0.004038 405844.000000 1 0 0
8.293963 1.464302 -11.708320 14.422856 0.174750 2.518006 -0.004594 -0.000504 506690.000000 1 0 0
9.892563 1.201902 -9.005220 13.431357 0.120903 2.305628 -0.001296 -0.001006 306478.000000 1 0 0
-0.095237 -5.736698 -12.958520 14.171875 1.554196 2.724777 0.004549 -0.001630 537448.000000 1 0 0
10.668363 -5.717898 -8.952620 15.055156 -0.492006 2.207632 0.015354 -0.005223 -378545.000000 1 0 0
10.336963 8.512902 -11.251920 17.490798 0.688931 2.269604 0.017584 -0.013823 815017.000000 1 0 0
8.328963 8.106602 -14.646920 18.698152 0.771870 2.470810 0.021764 -0.009296 -18992.600000 1 0 0
8.730563 10.597602 -10.828720 17.486940 0.881696 2.238579 0.018515 -0.010946 -1166090.000000 1 0 0
7.170463 1.612802 -17.952420 19.398610 0.221241 2.753015 0.011511 -0.003466 -1964360.000000 1 0 0
12.165163 2.545202 -12.752920 17.807476 0.206246 2.369074 0.017694 -0.014757 -1591940.000000 1 0 0
2.659163 -1.156398 -19.421020 19.636304 -0.410203 2.993379 0.023988 -0.010491 -235056.000000 1 0 0
10.311363 -2.151898 -15.484420 18.727577 -0.205739 2.544235 0.017743 -0.014580 1753570.000000 1 0 0
8.232763 -0.872098 -13.015720 15.425560 -0.105537 2.575077 0.002761 -0.007476 159748.000000 1 0 0
0.552663 4.427402 -14.589220 15.256234 1.446611 2.844800 0.013888 -0.001198 146432.000000 1 0 0
4.028063 -7.582798 -15.625720 17.829393 -1.082493 2.639136 0.009974 -0.008934 -1434770.000000 1 0 0
11.488563 -5.666098 -14.485520 19.337064 -0.458189 2.417509 0.024535 -0.012390 -363068.000000 1 0 0
-5.864737 4.340802 -16.871220 18.381398 -0.637169 2.733406 0.009104 0.004948 -46205.200000 1 0 0
11.365963 7.874402 -9.071720 16.537455 0.605881 2.151433 0.013681 -0.009955 -1936530.000000 1 0 0
9.528863 6.137102 -13.440520 17.581548 0.572184 2.441011 0.006777 -0.005938 -547429.000000 1 0 0
12.138263 0.596202 -10.222220 15.880386 0.049078 2.270121 0.006209 -0.003082 -415818.000000 1 0 0
5.548563 -7.383598 -13.620520 16.456690 -0.926354 2.545719 0.005681 -0.004174 -642034.000000 1 0 0
8.611863 -10.152498 -10.789020 17.135938 -0.867319 2.251852 0.011055 -0.003580 115112.000000 1 0 0
10.154963 4.516302 -15.916320 19.412612 0.418470 2.532025 0.016070 -0.007842 -523812.000000 1 0 0
9.896863 -0.470598 -11.051720 14.842839 -0.047514 2.410706 0.000663 -0.006236 -1051820.000000 1 0 0
-1.652637 5.518402 -13.888020 15.035328 -1.279819 2.748405 0.007452 -0.000825 231984.000000 1 0 0
1.347163 -0.679898 -15.097420 15.172647 -0.467392 3.041972 0.010357 -0.002033 -955858.000000 1 0 0
11.431563 -10.628798 -14.185520 21.092201 -0.749025 2.308443 0.037777 -0.010787 -401347.000000 1 0 0
9.535763 -7.736398 -10.767420 16.331564 -0.681595 2.290685 0.012922 -0.005993 -453940.000000 1 0 0
14.147363 -1.028398 -9.682220 17.174134 -0.072564 2.169737 0.019737 -0.001986 923242.000000 1 0 0
4.035363 11.094602 -12.306920 17.053874 1.221949 2.376979 0.015580 -0.009728 24455.400000 1 0 0
-1.392937 2.879302 -16.989420 17.287888 -1.120212 2.955504 0.015164 -0.003785 31737.900000 1 0 0
5.999263 -0.653898 -17.869520 18.861031 -0.108568 2.815904 0.015866 0.004229 88255.700000 1 0 0
6.301363 -6.621998 -15.974920 18.405328 -0.810204 2.621858 0.011729 -0.006423 -307371.000000 1 0 0
-1.751037 -5.377698 -19.999720 20.783998 1.256012 2.866004 0.016478 -0.009512 -1083470.000000 1 0 0
0.053963 -4.366198 -15.268620 15.880723 -1.558438 2.863047 0.006347 -0.003545 220140.000000 1 0 0
0.457863 0.529102 -12.979420 12.998267 0.857453 3.087736 0.008740 -0.005336 606934.000000 1 0 0
15.892663 0.739302 -13.547720 20.896507 0.046485 2.276178 0.041989 -0.017084 504653.000000 1 0 0
-0.029137 7.027502 -16.390320 17.833374 -1.566650 2.736539 0.011423 -0.001974 -222229.000000 1 0 0
-4.852037 -0.632198 -18.302820 18.945585 0.129565 2.880363 -0.004662 0.002818 -412794.000000 1 0 0
10.447363 -8.344598 -13.114120 18.728584 -0.673965 2.346501 0.020355 -0.013821 349440.000000 1 0 0
4.050563 8.742702 -17.231420 19.742435 1.136931 2.631729 0.012920 -0.013811 -510600.000000 1 0 0
9.279463 0.885302 -16.734620 19.155670 0.095117 2.633372 0.014751 -0.014972 -615251.000000 1 0 0
3.452463 4.665402 -18.479920 19.369898 0.933717 2.837282 0.016127 -0.007667 -30895.300000 1 0 0
1.521163 -8.068898 -15.946920 17.936703 -1.384462 2.666098 0.003086 -0.001305 237583.000000 1 0 0
4.611363 7.745202 -14.956520 17.462827 1.033778 2.599203 0.005482 -0.002411 1132230.000000 1 0 0
-5.715937 -0.444698 -15.144920 16.193774 0.077643 2.779707 0.004866 0.001643 -305265.000000 1 0 0
2.845063 3.370702 -13.688320 14.381451 0.869763 2.829861 0.008582 0.000043 304316.000000 1 0 0
-2.395937 -10.211798 -18.168420 20.978866 1.340340 2.618012 0.010773 -0.001873 345488.000000 1 0 0
6.181363 -9.245098 -15.288920 18.905877 -0.981450 2.512711 0.005239 -0.009257 -32751.200000 1 0 0
-1.722537 5.473802 -17.220820 18.151757 -1.265920 2.819938 0.013312 -0.004528 -462565.000000 1 0 0
9.995963 -12.227198 -11.561120 19.572510 -0.885464 2.202700 0.026213 -0.006120 -386617.000000 1 0 0
10.813163 3.568002 -9.501920 14.830429 0.318719 2.266212 -0.003196 -0.000211 -1375230.000000 1 0 0
4.903763 -0.494798 -11.015720 12.068049 -0.100561 2.720886 -0.001377 -0.005749 -20043.000000 1 0 0
6.400063 9.459202 -11.451720 16.173410 0.975951 2.357541 0.013015 -0.009183 337743.000000 1 0 0
10.851263 -9.605898 -9.484420 17.319856 -0.724597 2.150294 0.024959 -0.003500 -218435.000000 1 0 0
3.256863 -2.396498 -14.495120 15.048551 -0.634371 2.869549 0.006713 -0.003424 -396955.000000 1 0 0
9.111563 -4.452498 -14.737120 17.889327 -0.454538 2.538868 0.015952 -0.014093 1103760.000000 1 0 0
-4.019937 -6.579998 -16.581720 18.286873 1.022377 2.706321 0.005444 -0.001273 238775.000000 1 0 0
5.929263 -7.752998 -11.109720 14.788206 -0.917909 2.420759 -0.000186 -0.002035 626456.000000 1 0 0
5.536363 6.540602 -16.979720 19.019508 0.868361 2.674215 0.004919 -0.004353 -598733.000000 1 0 0
9.328863 1.188402 -19.354620 21.518395 0.126707 2.689295 0.043045 -0.014623 14543.000000 1 0 0
13.033863 5.845502 -9.339620 17.066926 0.421594 2.149854 0.008335 -0.004527 374816.000000 1 0 0
-1.731237 -0.842298 -17.338120 17.444686 0.452813 3.031003 0.013154 -0.003779 186956.000000 1 0 0
-0.589637 -0.777298 -19.655820 19.680019 0.921831 3.091997 0.021054 -0.008757 -56990.600000 1 0 0
2.928963 6.408202 -16.554620 17.991646 1.142083 2.739204 0.012032 -0.002026 -289121.000000 1 0 0
7.638063 3.671102 -15.728820 17.866527 0.448034 2.647399 0.003738 -0.003531 -141907.000000 1 0 0
3.124763 -9.947898 -15.012720 18.278583 -1.266443 2.534532 0.000189 0.004577 166172.000000 1 0 0
9.029363 -10.581798 -13.357120 19.285137 -0.864394 2.335901 0.023049 -0.007339 -792531.000000 1 0 0
3.845163 0.184102 -14.948020 15.435753 0.047842 2.889539 0.006669 -0.003812 -1607670.000000 1 0 0
-1.386237 -3.059798 -18.794520 19.092355 1.145410 2.964729 0.022648 -0.007073 120218.000000 1 0 0
9.226963 10.119702 -13.195020 19.017197 0.831510 2.337614 0.026938 -0.012259 487081.000000 1 0 0
4.628463 2.104402 -10.835420 11.969023 0.426727 2.702855 0.000135 0.000151 349296.000000 1 0 0
-0.421137 6.998202 -18.966620 20.220902 -1.510691 2.787528 0.017690 -0.005932 169423.000000 1 0 0
0.703463 -1.832398 -17.695120 17.803647 -1.204244 3.031122 0.020758 -0.005710 -1580470.000000 1 0 0
-4.428737 -2.331498 -14.172020 15.029829 0.484581 2.802108 0.008368 -0.002481 -3438000.000000 1 0 0
10.084663 6.041402 -10.412520 15.704125 0.539734 2.295674 0.004371 -0.000954 -71255.600000 1 0 0
8.312063 5.635202 -17.411520 20.099924 0.595777 2.618439 0.013349 -0.010781 -448951.000000 1 0 0
11.320963 0.143402 -13.460320 17.588774 0.012666 2.442271 0.007687 -0.009634 196648.000000 1 0 0
6.751463 11.935802 -11.861720 18.131355 1.056019 2.283934 0.025693 -0.017654 -442563.000000 1 0 0
-0.917237 0.620102 -15.170820 15.211168 -0.594473 3.068741 0.010995 -0.003762 -363157.000000 1 0 0
-4.574937 -3.123298 -19.137420 19.922999 0.599019 2.859839 -0.000885 0.006899 -49391.500000 1 0 0
5.730563 -12.031798 -13.867520 19.233087 -1.126300 2.376076 -0.008209 0.002646 -171837.000000 1 0 0
2.238763 -4.776298 -14.035920 14.994404 -1.132482 2.782105 0.006186 -0.001903 -894491.000000 1 0 0
11.921663 1.803402 -15.274720 19.460097 0.150133 2.473372 0.024981 -0.016040 538529.000000 1 0 0
9.752863 2.157602 -13.808120 17.042235 0.217721 2.515340 0.004258 -0.010414 -1011120.000000 1 0 0
-2.296737 -4.134598 -16.311520 16.983392 1.063746 2.859372 0.005964 -0.005222 -941298.000000 1 0 0
-2.893737 10.127702 -14.289520 17.752027 -1.292487 2.506390 0.003414 -0.001705 266421.000000 1 0 0
3.598163 5.704102 -13.645320 15.220983 1.008035 2.682559 0.003926 0.003390 15235.200000 1 0 0
-5.130937 -2.562398 -16.617820 17.579658 0.463169 2.809269 0.000614 0.004606 582784.000000 1 0 0
-4.224237 6.211002 -13.581820 15.520521 -0.973536 2.636414 -0.000261 0.002828 -1099210.000000 1 0 0
5.812763 -1.214998 -13.951120 15.162394 -0.206056 2.739166 0.003034 -0.005378 -2345440.000000 1 0 0
6.743563 -3.075998 -12.576620 14.598246 -0.427947 2.609044 0.002612 -0.007028 422867.000000 1 0 0
2.750463 -3.343598 -18.161020 18.669959 -0.882423 2.907565 0.025584 -0.015675 190653.000000 1 0 0
7.404363 -12.013498 -11.925820 18.476307 -1.018451 2.272429 0.003863 0.000070 -2052620.000000 1 0 0
-6.137537 -5.419498 -17.691120 19.494001 0.723348 2.708128 0.020375 -0.000139 330992.000000 1 0 0
0.518963 8.863802 -11.906720 14.852821 1.512315 2.500842 0.004223 0.000288 -263401.000000 1 0 0
0.445263 8.644302 -14.468520 16.860021 1.519332 2.602462 0.004253 -0.000043 -2071.530000 1 0 0
7.669863 -2.444898 -15.005220 17.028240 -0.308584 2.649183 0.009100 -0.015407 -49751.800000 1 0 0
14.289463 1.598202 -8.954320 16.938797 0.111382 2.127780 0.016985 0.002553 553104.000000 1 0 0
2.666863 10.747502 -14.531120 18.269494 1.327571 2.490424 0.007763 -0.004269 -55868.700000 1 0 0
6.226063 0.822102 -15.623520 16.838471 0.131283 2.759394 0.009560 -0.003533 -168078.000000 1 0 0
16.681163 -5.651098 -10.271920 20.388929 -0.326637 2.098787 0.040218 -0.005513 568848.000000 1 0 0
4.862663 -4.252598 -11.230720 12.956047 -0.718570 2.619610 -0.000710 -0.002010 -1533610.000000 1 0 0
8.644563 -3.423598 -17.158520 19.515745 -0.377088 2.645007 0.006160 -0.014510 175607.000000 1 0 0
13.346463 -9.661098 -8.912620 18.732317 -0.626567 2.066657 0.023791 0.000490 -806188.000000 1 0 0
2.374363 -7.921698 -13.579820 15.899762 -1.279588 2.594594 0.000142 0.002379 379934.000000 1 0 0
-6.919037 -2.123098 -18.462920 19.830786 0.297728 2.768003 0.004330 -0.000394 -800164.000000 1 0 0
-1.465137 -6.484298 -15.737720 17.084162 1.348576 2.741918 0.006409 -0.002115 1132690.000000 1 0 0
1.686963 -7.312198 -18.363220 19.837388 -1.344058 2.753645 0.022190 -0.012650 -456724.000000 1 0 0
5.316863 10.782502 -14.625820 18.932670 1.112683 2.453593 0.031700 -0.019463 225171.000000 1 0 0
5.397463 -3.463498 -17.598120 18.730250 -0.570511 2.792128 0.021525 -0.008351 -339238.000000 1 0 0
4.064263 12.985902 -14.006920 19.528075 1.267479 2.370674 0.025942 -0.013995 -428359.000000 1 0 0
9.313363 10.196202 -15.842220 21.016118 0.830619 2.424642 0.041749 -0.018291 132085.000000 1 0 0
2.403563 3.861702 -16.280820 16.904288 1.014062 2.869155 0.013762 -0.004888 373981.000000 1 0 0
16.571563 1.893902 -11.310220 20.152534 0.113793 2.166668 0.029230 -0.009015 429206.000000 1 0 0
10.064763 -3.695698 -10.510320 15.014142 -0.351908 2.346233 0.015131 -0.006541 781203.000000 1 0 0
14.675663 -2.182098 -12.048320 19.112788 -0.147607 2.252839 0.034442 -0.005126 402529.000000 1 0 0
-2.680937 -8.651898 -16.071620 18.448299 1.270312 2.628378 0.009825 0.002901 -228585.000000 1 0 0
13.951963 8.289502 -8.974620 18.544997 0.536104 2.075945 0.029260 -0.005817 134829.000000 1 0 0
-8.296537 0.168502 -16.619320 18.575864 -0.020307 2.678495 0.003854 0.003974 -361579.000000 1 0 0
-3.548637 3.999302 -15.914220 16.788379 -0.845034 2.817471 0.006341 0.003683 -1256820.000000 1 0 0
15.057563 4.039202 -9.684520 18.353073 0.262081 2.126662 0.022020 0.001817 433436.000000 1 0 0
5.400163 1.074202 -13.145920 14.252399 0.196357 2.744956 0.001274 0.000105 324900.000000 1 0 0
7.894463 -7.749998 -12.808520 16.924633 -0.776164 2.429196 0.011898 -0.006871 -2712930.000000 1 0 0
3.222363 -6.138598 -11.807120 13.692118 -1.087401 2.610649 -0.000348 -0.000510 -450188.000000 1 0 0
-3.205137 3.928702 -18.498620 19.180891 -0.886480 2.874074 0.014730 0.001136 -316564.000000 1 0 0
0.942963 5.093002 -17.858420 18.594382 1.387721 2.859303 0.015531 -0.008511 -151912.000000 1 0 0
6.332463 7.127102 -10.225620 13.980664 0.844369 2.391186 0.001264 -0.000296 291923.000000 1 0 0
9.551863 3.771402 -11.768020 15.618830 0.376045 2.424091 0.000185 -0.003707 -125908.000000 1 0 0
4.602463 1.630702 -17.552220 18.218735 0.340510 2.870265 0.014215 -0.003260 987105.000000 1 0 0
2.611263 8.067702 -13.195820 15.685541 1.257769 2.570430 0.004858 -0.001403 -835585.000000 1 0 0
14.472063 -3.595398 -9.885720 17.891198 -0.243507 2.156213 0.024750 0.001392 308118.000000 1 0 0
-1.313437 9.380802 -16.194820 18.761577 -1.431687 2.612352 0.011873 0.000522 -1039640.000000 1 0 0
-5.249837 2.076502 -15.736520 16.718574 -0.376653 2.797138 0.008914 -0.001596 657981.000000 1 0 0
4.547663 4.230102 -11.974220 13.489142 0.749236 2.663107 0.000875 0.001227 539851.000000 1 0 0
9.165563 3.232402 -17.815420 20.293969 0.339050 2.642188 0.010466 -0.003048 816886.000000 1 0 0
-4.130837 14.420402 -13.389820 20.107190 -1.291809 2.299525 0.007041 -0.003728 -134368.000000 1 0 0
15.593263 -4.891498 -7.978420 18.186033 -0.303971 2.024961 0.025077 -0.000506 51769.700000 1 0 0
1.175563 9.282002 -16.897820 19.315119 1.444817 2.635921 0.007731 -0.002696 -742168.000000 1 0 0
0.484763 -3.227598 -12.855220 13.263072 -1.421718 2.892957 0.004948 -0.002943 322170.000000 1 0 0
7.542663 3.429102 -13.189520 15.576070 0.426695 2.580701 -0.001294 0.000887 -523435.000000 1 0 0
-2.878937 7.583002 -15.090820 17.132515 -1.207949 2.648407 0.001591 0.003082 357927.000000 1 0 0
12.145963 -5.181898 -11.062220 17.226410 -0.403255 2.268117 0.026808 -0.003916 -649129.000000 1 0 0
0.562963 -4.389198 -19.942420 20.427484 -1.443232 2.923234 0.029310 -0.015073 -1164240.000000 1 0 0
3.540263 -4.593198 -16.138320 17.148653 -0.914139 2.796617 0.014944 -0.008329 610504.000000 1 0 0
-5.654537 4.126902 -14.297920 15.919662 -0.630473 2.686294 0.003575 -0.000633 316468.000000 1 0 0
12.390363 -7.506798 -9.801920 17.491448 -0.544716 2.165645 0.022804 -0.001959 343310.000000 1 0 0
-1.985037 -1.799998 -14.908320 15.147224 0.736550 2.963752 0.009039 -0.000844 782092.000000 1 0 0
7.056663 5.749302 -14.199120 16.866119 0.683661 2.571540 0.003174 -0.005327 -285289.000000 1 0 0
4.068663 -5.547098 -18.437720 19.679275 -0.937955 2.784481 0.028730 -0.014716 -32779.600000 1 0 0
7.605263 7.433102 -12.276420 16.241968 0.773951 2.427741 0.005536 -0.005848 -392633.000000 1 0 0
12.363763 -2.535198 -11.044720 16.771276 -0.202247 2.289686 0.019407 -0.007581 -841913.000000 1 0 0
7.483463 -0.740698 -10.629220 13.020414 -0.098657 2.525860 -0.000347 -0.003895 -2208490.000000 1 0 0
5.381663 3.901502 -14.464620 15.918833 0.627283 2.710832 -0.000202 0.002436 -1292850.000000 1 0 0
14.652663 2.834602 -12.966620 19.770400 0.191093 2.286118 0.022723 -0.015279 -315174.000000 1 0 0
-6.436437 6.853902 -15.868520 18.444881 -0.816799 2.606696 0.008455 0.009718 612633.000000 1 0 0
-11.315737 3.898302 -16.321120 20.239112 -0.331769 2.508860 0.027918 -0.009807 465615.000000 1 0 0
-5.087837 6.571002 -18.155120 19.966786 -0.911932 2.712314 0.013818 0.021886 -155018.000000 1 0 0
-10.174837 1.604102 -15.602020 18.695548 -0.156367 2.558078 0.020687 -0.004340 50155.700000 1 0 0
-7.590837 5.858202 -17.898620 20.305171 -0.657274 2.649785 0.006461 0.002467 -91663.800000 1 0 0
-8.771637 3.816002 -15.733420 18.413148 -0.410343 2.595320 0.006179 0.010055 -912134.000000 1 0 0
8.905863 13.442302 -12.122520 20.173383 0.985666 2.215444 0.042871 -0.017315 -946345.000000 1 0 0
13.629663 9.322402 -11.343320 20.033617 0.599892 2.172702 0.019488 -0.011612 -3486.130000 1 0 0
8.615663 15.877302 -9.148920 20.248978 1.073621 2.039602 0.034280 -0.006844 317775.000000 1 0 0
6.975963 13.621102 -13.926320 20.691565 1.097481 2.309112 0.037534 -0.011581 -395230.000000 1 0 0
4.885663 15.921502 -12.646920 20.911923 1.273058 2.220274 0.044302 -0.012094 103055.000000 1 0 0
11.107763 11.012802 -11.531820 19.433144 0.781105 2.206085 0.033284 -0.013762 499261.000000 1 0 0
15.738863 9.735802 -9.973620 21.023100 0.553972 2.065093 0.048346 0.004751 -537533.000000 1 0 0
13.426963 10.880702 -9.254420 19.604012 0.681027 2.062431 0.053852 -0.008418 442205.000000 1 0 0
10.519863 11.656202 -8.168220 17.698994 0.836595 2.050490 0.020482 -0.007567 198935.000000 1 0 0
5.441563 16.342302 -10.118620 19.976684 1.249369 2.101942 0.021125 -0.000406 -57524.300000 1 0 0
6.748763 14.544602 -11.509520 19.737282 1.136357 2.193380 0.025088 -0.004448 -1335040.000000 1 0 0
10.865763 13.661202 -9.881820 20.058505 0.898883 2.085929 0.037182 -0.010678 -262391.000000 1 0 0
7.963963 -18.716998 -1.445320 20.392147 -1.168508 1.641732 0.027943 0.002147 -181744.000000 1 0 0
7.165963 -17.306998 -3.411920 19.040074 -1.178237 1.750966 0.019285 -0.004331 63617.400000 1 0 0
4.546063 -18.369598 5.871080 19.813591 -1.328193 1.269963 0.020088 0.005868 132269.000000 1 0 0
9.740863 -17.223098 -2.664520 19.965450 -1.056078 1.704652 0.031277 0.000415 270651.000000 1 0 0
-9.703937 -12.204698 -10.029720 18.539589 0.899051 2.142409 0.025539 -0.010050 -837225.000000 1 0 0
-5.196737 -7.042798 -12.212020 15.024664 0.935097 2.519736 0.013007 -0.001288 138319.000000 1 0 0
-10.713837 -9.529698 -5.792020 15.464442 0.726970 1.954695 0.009680 -0.006029 -1140600.000000 1 0 0
-4.632337 -11.587998 -14.075320 18.811031 1.190503 2.416214 0.022516 -0.001087 -24058.500000 1 0 0
-2.793137 -15.630898 7.442380 17.536123 1.393969 1.132494 0.010312 0.000602 -36251.800000 1 0 0
-4.740837 -11.937998 -11.556020 17.278106 1.192774 2.303423 0.014287 -0.003569 64325.800000 1 0 0
-14.433737 -12.836998 -4.387220 19.808306 0.726914 1.794132 0.008884 0.001352 162837.000000 1 0 0
-3.185437 -12.259498 -3.257320 13.078702 1.316584 1.822501 0.002522 0.000467 715136.000000 1 0 0
-2.448937 -17.358298 -1.509520 17.595069 1.430640 1.656694 -0.003192 -0.003494 -1236490.000000 1 0 0
-5.873837 -12.133298 3.839580 14.016464 1.119942 1.293316 0.003842 0.001007 934673.000000 1 0 0
-8.864637 -10.562198 -11.907320 18.218839 0.872559 2.283090 0.020283 -0.001644 -553670.000000 1 0 0
-9.844637 -12.010598 -7.388020 17.197506 0.884180 2.014844 0.018025 -0.012058 9548.540000 1 0 0
-10.958337 -14.997198 6.229980 19.591165 0.939767 1.247178 0.012642 -0.003166 -1267370.000000 1 0 0
-9.444837 -15.613398 0.689480 18.260847 1.026768 1.533030 0.009178 0.004576 -1269450.000000 1 0 0
-14.746037 -7.815198 -8.393020 18.680625 0.487348 2.036767 -0.008308 0.003156 197927.000000 1 0 0
-2.382937 -16.630898 5.024580 17.536008 1.428481 1.280194 0.021332 -0.000871 -515486.000000 1 0 0
4.485563 -15.771298 5.781880 17.386324 -1.293700 1.231787 0.016563 -0.002806 -507938.000000 1 0 0
4.203263 -14.664998 -10.101520 18.296729 -1.291661 2.155670 -0.011432 0.009764 113430.000000 1 0 0
-7.497037 -14.044398 -0.290720 15.922789 1.080468 1.589055 0.002341 0.004351 260255.000000 1 0 0
2.820363 -14.790998 9.488780 17.797893 -1.382377 1.008488 0.012358 -0.006861 -596165.000000 1 0 0
2.248663 -17.119298 10.491080 20.203703 -1.440192 1.024805 0.040121 -0.009985 -264130.000000 1 0 0
-8.006537 -17.005798 -5.861220 19.688975 1.130770 1.873069 0.018898 -0.006841 -522319.000000 1 0 0
-6.512437 -9.037298 -7.721120 13.553608 0.946367 2.176904 0.014509 -0.005640 188426.000000 1 0 0
-6.043937 -13.065498 -4.789520 15.171550 1.137524 1.891981 0.003696 -0.006434 265083.000000 1 0 0
2.241763 -19.507998 -4.786520 20.211340 -1.456383 1.809891 -0.005476 -0.002203 -229101.000000 1 0 0
-5.589137 -12.969898 8.407280 16.435908 1.163912 1.033845 0.016009 -0.000459 906270.000000 1 0 0
2.240163 -17.616398 3.311480 18.064377 -1.444312 1.386438 0.009281 -0.007831 970397.000000 1 0 0
-17.642937 -9.866698 -2.407520 20.357336 0.509912 1.689337 0.005266 0.000124 687537.000000 1 0 0
-3.417237 -15.468898 2.610280 16.055463 1.353378 1.407493 0.010848 0.000733 -385199.000000 1 0 0
-10.203837 -10.489798 -14.103020 20.323616 0.799216 2.337719 0.020576 -0.000374 -193650.000000 1 0 0
5.991663 -14.690598 -5.691820 16.855578 -1.183535 1.915249 -0.009324 -0.002395 490727.000000 1 0 0
-7.220637 -12.213998 -10.667820 17.751669 1.036889 2.215482 0.015067 -0.013500 -1835450.000000 1 0 0
-7.514037 -14.140198 3.913680 16.484018 1.082349 1.331085 0.011145 -0.000277 947044.000000 1 0 0
3.311363 -15.180798 -3.047620 15.833817 -1.356032 1.764480 -0.002773 -0.003913 -1153720.000000 1 0 0
-7.689037 -11.411398 7.843380 15.838558 0.977869 1.052722 0.011913 -0.006139 -1844410.000000 1 0 0
-12.690937 -12.280398 -0.990420 17.687538 0.768959 1.626821 -0.005278 0.009945 -2901880.000000 1 0 0
-1.918137 -13.704098 4.020880 14.410032 1.431732 1.288009 0.008203 0.001574 -2940370.000000 1 0 0
-3.109737 -14.057298 5.240080 15.321114 1.353084 1.221734 0.008439 0.001453 -47445.200000 1 0 0
-14.424737 -10.286598 -4.276820 18.225761 0.619479 1.807663 -0.000406 -0.000366 607808.000000 1 0 0
-6.300837 -8.605998 -10.456720 14.936759 0.938821 2.346287 0.014317 -0.003121 207077.000000 1 0 0
0.819563 -19.736298 2.436380 19.902992 -1.529295 1.448076 0.017885 -0.006815 133984.000000 1 0 0
6.463063 -14.242298 -8.246720 17.681138 -1.144792 2.056028 -0.004732 0.003964 -1496680.000000 1 0 0
-3.928837 -16.607098 -6.085720 18.118153 1.338492 1.913347 -0.003686 -0.004866 -209183.000000 1 0 0
-3.733637 -13.781298 -13.107320 19.382107 1.306227 2.313468 0.020027 -0.000562 -1076330.000000 1 0 0
-8.164037 -14.687398 -4.580920 17.417118 1.063470 1.836940 0.010469 -0.004590 -1025880.000000 1 0 0
-4.688337 -14.431498 10.404280 18.398306 1.256683 0.969754 0.019720 -0.001085 35735.200000 1 0 0
-0.270737 -12.123498 -10.036720 15.741292 1.548468 2.262181 0.000308 0.000999 370139.000000 1 0 0
2.472163 -17.107398 6.893380 18.608959 -1.427281 1.191321 0.017332 -0.012609 -653321.000000 1 0 0
-2.733637 -19.173798 -3.461220 19.674536 1.429179 1.747641 -0.002731 -0.002687 -597395.000000 1 0 0
0.680063 -15.428498 -3.141120 15.759685 -1.526747 1.771454 -0.006053 -0.002064 -505090.000000 1 0 0
6.171663 -17.982298 0.624380 19.022153 -1.240185 1.537967 0.017166 -0.007339 -256919.000000 1 0 0
-6.813837 -16.509798 4.031480 18.309960 1.179377 1.348798 0.005956 -0.000409 -119209.000000 1 0 0
-5.161737 -13.348998 -9.530320 17.194950 1.201829 2.158259 0.008887 -0.008781 23591.900000 1 0 0
5.677663 -15.276298 -2.094720 16.431342 -1.214953 1.698627 0.006112 -0.002776 -1881110.000000 1 0 0
-8.775037 -10.187198 -0.450920 13.453015 0.859733 1.604321 0.002217 0.004087 -1024160.000000 1 0 0
-7.336337 -18.268098 -2.908020 19.899795 1.188918 1.717455 0.014017 -0.004616 134902.000000 1 0 0
7.870663 -16.130398 -1.164020 17.985884 -1.116843 1.635560 0.014496 -0.003138 305740.000000 1 0 0
-8.120637 -10.082598 -9.546020 16.085088 0.892765 2.206160 0.018051 -0.006782 -823962.000000 1 0 0
-9.137737 -15.045998 -6.965120 18.931276 1.025012 1.947563 0.020045 -0.009187 -292993.000000 1 0 0
-11.426337 -10.434198 -11.834320 19.480370 0.740044 2.223705 0.019606 0.002312 -1000830.000000 1 0 0
6.544763 -16.235998 2.444580 17.675337 -1.187619 1.432047 0.012434 -0.008331 253056.000000 1 0 0
-2.272337 -11.220298 -6.103520 12.973495 1.370979 2.060609 0.002470 -0.001693 -61655.600000 1 0 0
-12.361737 -15.328998 -3.339020 19.973477 0.892148 1.738758 0.010830 -0.003523 281020.000000 1 0 0
-0.169337 -19.453798 -2.769120 19.650623 1.562092 1.712185 0.008218 -0.017589 -367284.000000 1 0 0
-5.843337 -15.588798 -4.757620 17.314450 1.212164 1.849155 -0.000426 -0.002757 -2184120.000000 1 0 0
1.967063 -16.090198 -1.023320 16.242260 -1.449148 1.633842 0.000185 -0.007030 1308720.000000 1 0 0
-13.303137 -11.864298 5.296680 18.595426 0.728290 1.281959 0.006707 0.001979 463762.000000 1 0 0
2.059463 -15.262798 -8.840620 17.758124 -1.436673 2.091897 -0.009039 0.011010 -1110990.000000 1 0 0
-11.652237 -16.818798 0.016880 20.460863 0.964912 1.569971 0.015383 0.004576 446357.000000 1 0 0
-7.571537 -16.536898 -0.911020 18.210633 1.141428 1.620844 0.008571 0.003852 656550.000000 1 0 0
-3.030637 -14.460698 -1.819120 14.886429 1.364209 1.693302 -0.000629 0.000486 366239.000000 1 0 0
-1.772537 -10.443998 -13.280220 16.987738 1.402680 2.468269 0.006418 0.002730 -488781.000000 1 0 0
1.617263 -19.463298 4.906980 20.137377 -1.487894 1.324643 0.028080 -0.016723 -272125.000000 1 0 0
-17.324837 -9.339598 2.544080 19.845665 0.494426 1.442249 -0.009172 0.000278 -852385.000000 1 0 0
-2.575537 -15.711898 -8.126920 17.875793 1.408319 2.042756 -0.005831 0.004490 -2531490.000000 1 0 0
-10.380537 -12.130398 0.259380 15.967761 0.862976 1.554552 0.000717 0.007423 598239.000000 1 0 0
-6.756737 -11.431898 -6.652120 14.852357 1.036989 2.035193 0.010359 -0.007117 256866.000000 1 0 0
-2.206037 -13.743498 -6.722920 15.457943 1.411639 2.020742 -0.005047 0.000568 355921.000000 1 0 0
-14.043237 -14.514198 -0.886020 20.215328 0.801888 1.614640 0.002349 0.007279 -525379.000000 1 0 0
-9.590737 -11.319998 -4.514720 15.508298 0.867908 1.866190 0.010625 -0.007016 1051100.000000 1 0 0
9.423163 -15.310198 -5.168520 18.705929 -1.019070 1.850742 0.018936 0.002594 402471.000000 1 0 0
-5.557137 -10.724598 -9.432720 15.325632 1.092721 2.233799 0.011392 -0.004744 -342336.000000 1 0 0
-10.358337 -16.073598 -4.893220 19.738270 0.998345 1.821314 0.018442 -0.001478 -360070.000000 1 0 0
2.159563 -17.451398 -3.239620 17.880440 -1.447675 1.752985 -0.001256 -0.003789 344223.000000 1 0 0
-0.281237 -14.457398 -8.220220 16.633324 1.551346 2.087713 -0.003566 0.003820 -1191010.000000 1 0 0
-0.461037 -18.319598 -7.288620 19.721669 1.545635 1.949347 -0.005817 0.004251 -102284.000000 1 0 0
-1.736637 -9.934198 -10.537920 14.586020 1.397731 2.378160 0.005732 -0.000733 284400.000000 1 0 0
-5.057937 -17.268698 2.047080 18.110251 1.285869 1.457520 0.011989 -0.001203 -399398.000000 1 0 0
0.246263 -12.877998 -2.740620 13.168693 -1.551676 1.780445 0.000372 -0.002039 -2015350.000000 1 0 0
2.703763 -15.013198 3.096480 15.565816 -1.392614 1.370532 0.006453 -0.003497 -442660.000000 1 0 0
-9.570537 -13.079498 6.927880 17.625662 0.939097 1.166843 0.007607 -0.001580 -98001.700000 1 0 0
-0.920837 -17.909298 -4.696520 18.537751 1.519425 1.826937 -0.003663 -0.002436 -292989.000000 1 0 0
-9.599037 -17.360298 -2.295220 19.969715 1.065706 1.685986 0.013916 -0.006025 -1656180.000000 1 0 0
1.371663 -16.256898 1.422080 16.376523 -1.486622 1.483850 0.002510 -0.010626 803101.000000 1 0 0
-0.335437 -18.064698 4.026080 18.510947 1.552230 1.351547 0.020629 -0.013607 -542633.000000 1 0 0
-17.267837 -9.239498 0.013080 19.584349 0.491308 1.570128 -0.016521 0.002781 157266.000000 1 0 0
-14.675237 -6.858498 -10.783720 19.459964 0.437190 2.158137 0.003658 -0.005856 226129.000000 1 0 0
2.810263 -12.713698 -8.950920 15.800464 -1.353252 2.173045 -0.009565 0.004109 715708.000000 1 0 0
-11.685037 -14.827198 1.666080 18.951563 0.903365 1.482770 0.004031 0.008517 -17403.000000 1 0 0
-2.408037 -15.559598 10.685280 19.028267 1.417252 0.974541 0.028316 -0.008241 -658301.000000 1 0 0
-7.030337 -15.735898 1.457380 17.296476 1.150631 1.486438 0.009998 0.001382 -824604.000000 1 0 0
-12.514837 -15.232998 -5.906520 20.580388 0.883046 1.861887 0.018529 -0.002536 127083.000000 1 0 0
0.989863 -13.846598 -5.058020 14.774697 -1.499430 1.920206 -0.003824 -0.000791 887134.000000 1 0 0
5.749963 -16.634998 -7.484520 19.125984 -1.237998 1.972870 0.000896 0.001229 -29916.600000 1 0 0
-6.704337 -12.882398 6.049480 15.732149 1.090942 1.176098 0.011519 0.000176 -145069.000000 1 0 0
-2.576137 -13.550298 0.573980 13.804945 1.382922 1.529207 0.005355 0.000262 1947490.000000 1 0 0
-4.241137 -15.553098 0.150980 16.121691 1.304581 1.561431 0.002936 0.001055 322766.000000 1 0 0
-17.570237 -7.344698 -1.927120 19.140837 0.395943 1.671648 -0.018612 0.004114 720017.000000 1 0 0
1.201063 -12.771198 -12.026120 17.583334 -1.477027 2.323960 -0.004547 0.008874 -538130.000000 1 0 0
1.383363 -17.217098 -5.759320 18.207469 -1.490620 1.892640 0.000172 0.000739 -229119.000000 1 0 0
-12.682337 -6.326698 -9.123520 16.855486 0.462734 2.142754 0.003724 0.000206 -83913.000000 1 0 0
-11.226837 -13.728098 -8.812120 19.802930 0.885296 2.031960 0.018000 -0.012592 1561.160000 1 0 0
-4.407937 -9.816498 3.551580 11.331693 1.148746 1.252004 0.007015 0.000679 -3766720.000000 1 0 0
-7.257537 -14.198298 9.804980 18.719005 1.098264 1.019493 0.016683 -0.010257 -744694.000000 1 0 0
-5.106037 -15.795398 -8.442620 18.623750 1.258138 2.041289 0.001277 -0.001592 -454022.000000 1 0 0
-0.304037 -13.473298 2.117780 13.642111 1.548234 1.414928 0.007478 -0.002837 544879.000000 1 0 0
-10.939937 -13.518698 -4.712220 18.017837 0.890444 1.835404 0.019159 -0.004235 -506549.000000 1 0 0
-9.825937 -10.488198 6.722980 15.866625 0.817988 1.133250 0.013008 0.001154 -516118.000000 1 0 0
-15.445337 -8.106298 -4.966720 18.136671 0.483320 1.848190 0.002991 0.001857 295740.000000 1 0 0
-14.727937 -7.206998 5.453380 17.279824 0.455085 1.249716 0.006340 -0.004754 -52085.100000 1 0 0
-1.574837 -19.349498 -0.086120 19.413671 1.489586 1.575232 0.014029 -0.010161 -241763.000000 1 0 0
-15.283037 -12.288998 -1.332620 19.656210 0.677232 1.638645 -0.004686 0.014920 318179.000000 1 0 0
-4.314837 -12.135398 -6.756420 14.544240 1.229179 2.053914 0.001796 -0.003424 -1184020.000000 1 0 0
-7.317237 -18.299798 2.194880 19.830332 1.190416 1.459886 0.014904 0.003773 -342606.000000 1 0 0
-2.475937 -11.749898 -8.612220 14.777033 1.363115 2.192980 0.002008 -0.000600 389235.000000 1 0 0
-1.034537 -20.455298 -5.000120 21.082948 1.520264 1.810242 -0.006269 0.001185 -369128.000000 1 0 0
-5.416337 -9.119998 -13.730520 17.350454 1.034877 2.483833 0.016885 -0.004668 766364.000000 1 0 0
-8.597937 -19.022098 -0.666620 20.885620 1.146283 1.602719 0.016058 0.005470 267836.000000 1 0 0
-17.295137 -7.176798 5.430180 19.496540 0.393336 1.288543 0.003434 -0.008905 -92052.200000 1 0 0
-3.534537 -14.620198 -4.399320 15.671540 1.333591 1.855341 -0.002534 -0.001204 -2534510.000000 1 0 0
-3.066737 -14.794798 -10.788920 18.565876 1.366406 2.190895 0.007315 -0.005110 -544145.000000 1 0 0
-0.091737 -16.791698 6.229880 17.910359 1.565333 1.215534 0.032240 -0.008619 -339049.000000 1 0 0
-11.219937 -11.481598 3.930680 16.527684 0.796924 1.330671 0.002258 0.000746 -1282100.000000 1 0 0
-0.186337 -14.657398 -0.202020 14.659975 1.558084 1.584577 0.001973 -0.002856 1345520.000000 1 0 0
-7.289837 -9.485598 -2.542120 12.230318 0.915550 1.780177 0.006239 -0.001716 -645452.000000 1 0 0
-11.126237 -14.368098 -0.837420 18.191665 0.911879 1.616846 0.002638 0.000659 -459273.000000 1 0 0
0.374563 -14.593398 -10.719720 18.111322 -1.545135 2.204185 -0.008075 0.006547 -50419.100000 1 0 0
-1.440337 -14.123698 -3.889920 14.720221 1.469167 1.838230 -0.002976 -0.000327 -2929560.000000 1 0 0
-11.477337 -8.182798 -7.769820 16.095265 0.619366 2.074576 0.014283 -0.000477 546956.000000 1 0 0
-0.218637 -17.266598 -0.302720 17.270636 1.558135 1.588325 0.002044 -0.008891 -1267520.000000 1 0 0
-12.943337 -9.419498 4.614180 16.659759 0.629108 1.290162 -0.000301 0.000426 858246.000000 1 0 0
4.027763 -16.847298 1.565680 17.392690 -1.336126 1.480655 0.008899 -0.012565 1139630.000000 1 0 0
-3.674637 -17.953898 -8.284620 20.111697 1.368914 1.995368 0.003213 -0.002760 -135792.000000 1 0 0
-13.358337 -11.201798 2.690680 17.639876 0.697816 1.417665 -0.010609 0.005121 -672744.000000 1 0 0
-8.668237 -12.079398 4.387380 15.501590 0.948352 1.283847 0.007353 -0.000421 1210430.000000 1 0 0
-8.229437 -9.510298 -5.933720 13.906058 0.857476 2.011638 0.014558 -0.004609 -1174610.000000 1 0 0
3.918463 -17.493798 -5.188820 18.663097 -1.350442 1.852534 -0.010066 0.003813 -87168.700000 1 0 0
-2.630337 -13.037698 11.372780 17.499725 1.371720 0.863365 0.012087 -0.006883 -20219.500000 1 0 0
0.029963 -16.724298 -9.598720 19.283114 -1.569005 2.091832 -0.006763 0.007963 -431657.000000 1 0 0
-7.167137 -10.921198 -14.499820 19.516281 0.990033 2.408279 0.023756 0.003892 981172.000000 1 0 0
-4.547837 -18.828198 -1.563520 19.432665 1.333792 1.651342 0.010248 -0.006395 -283965.000000 1 0 0
-2.523637 -17.239498 1.060280 17.455464 1.425442 1.510017 0.012821 -0.007102 -726419.000000 1 0 0
4.089963 -14.608698 -7.474820 16.911972 -1.297818 2.028606 -0.011347 0.001812 -1009520.000000 1 0 0
-0.818637 -15.968398 -6.190420 17.145880 1.519575 1.940184 -0.005378 0.002590 92861.200000 1 0 0
-9.647637 -15.184598 8.496880 19.895876 1.004784 1.129549 0.010752 -0.003377 -401090.000000 1 0 0
-7.243637 -12.041098 -1.826920 14.170249 1.029219 1.700083 -0.000257 0.003108 811668.000000 1 0 0
-7.315637 -14.925798 -9.308020 19.050912 1.115073 2.081265 0.018656 -0.013014 -83384.700000 1 0 0
-5.072337 -13.193598 -0.552520 14.145845 1.203763 1.609865 0.001835 0.002085 1934820.000000 1 0 0
-6.252237 -13.849798 -7.296820 16.856778 1.146752 2.018472 0.002090 -0.005997 365189.000000 1 0 0
5.758363 -15.345198 0.201180 16.391288 -1.211802 1.558522 0.007470 -0.005985 -54732.600000 1 0 0
-14.350337 -12.801598 0.940480 19.253509 0.728420 1.521930 -0.015350 0.004048 956708.000000 1 0 0
0.656063 -15.222898 11.000380 18.792961 -1.527726 0.945490 0.029781 -0.010256 -317055.000000 1 0 0
-9.273037 -10.803698 2.062980 14.386278 0.861491 1.426901 0.002708 0.003987 -14853.600000 1 0 0
-9.467637 -8.898698 -3.538720 13.466459 0.754431 1.836699 0.007647 -0.002870 -874251.000000 1 0 0
-12.280837 -7.196898 -12.406020 18.881834 0.530082 2.287675 0.010602 0.002593 -923024.000000 1 0 0
-13.228737 -8.514998 -0.733520 15.749373 0.571915 1.617388 -0.005806 0.002823 -427354.000000 1 0 0
-11.186337 -9.704698 0.541280 14.819187 0.714594 1.534263 -0.001349 0.005462 1225110.000000 1 0 0
-15.713537 -12.213498 3.011680 20.128463 0.660720 1.420609 -0.005585 0.010482 -336520.000000 1 0 0
-10.393137 -12.519498 -2.329220 16.437165 0.877936 1.712979 0.006271 0.000420 948350.000000 1 0 0
-3.456337 -8.858298 -12.052320 15.351682 1.198783 2.473624 0.008939 0.000139 12659.500000 1 0 0
-0.302137 -15.552398 3.833080 16.020639 1.551372 1.329194 0.017009 -0.005629 -625363.000000 1 0 0
-15.726237 -7.728898 1.227880 17.565822 0.456796 1.500838 -0.011725 0.000131 44492.400000 1 0 0
-6.324537 -13.420498 -13.198720 19.857386 1.130404 2.297856 0.031788 -0.006926 641617.000000 1 0 0
-15.282637 -10.340098 1.205080 18.491318 0.594842 1.505580 -0.008314 0.004762 47129.900000 1 0 0
-10.005237 -8.336398 -12.609420 18.127267 0.694662 2.340058 0.021121 0.002511 573188.000000 1 0 0
-13.312637 -11.525298 -6.340920 18.715397 0.713562 1.916446 0.013058 -0.004914 -393766.000000 1 0 0
-12.179537 -11.482998 -3.939420 17.196494 0.755970 1.801932 0.004577 0.001203 -2494710.000000 1 0 0
-11.819537 -11.223998 -8.879020 18.561159 0.759560 2.069589 0.019164 -0.010790 -882756.000000 1 0 0
-13.140637 -8.653298 -5.916320 16.809485 0.582337 1.930464 0.003643 0.001412 -1007790.000000 1 0 0
-13.343237 -8.088698 -3.282220 15.944968 0.544967 1.778125 0.001806 -0.003457 867939.000000 1 0 0
-4.256337 -17.072098 -3.429220 17.925750 1.326462 1.763284 -0.003785 -0.001504 494559.000000 1 0 0
-15.408737 -8.811098 -1.747520 17.835876 0.519445 1.668932 -0.003524 0.001523 -3268300.000000 1 0 0
-9.337237 -15.890298 3.804980 18.819231 1.039540 1.367207 0.006200 0.009124 -615714.000000 1 0 0
4.799363 -17.120698 8.100180 19.538810 -1.297486 1.143327 0.026726 -0.018174 56573.000000 1 0 0
-8.344837 -15.336098 6.137480 18.506779 1.072471 1.232761 0.008683 0.002528 829523.000000 1 0 0
0.817263 -16.076798 8.575880 18.239437 -1.520005 1.081298 0.026139 -0.008421 -463997.000000 1 0 0
-10.898437 -7.757898 -10.263320 16.861099 0.618625 2.225215 0.015012 0.000406 660587.000000 1 0 0
-4.719537 -16.006198 5.882680 17.694020 1.284065 1.231878 0.011066 -0.003015 -1981660.000000 1 0 0
-1.469837 -13.203998 -12.054920 17.939540 1.459935 2.307669 0.003402 -0.000007 -638987.000000 1 0 0
-6.376737 -14.284998 -2.560820 15.851869 1.150945 1.733054 0.001934 0.002139 496520.000000 1 0 0
-17.640937 -6.877298 -7.231820 20.268180 0.371725 1.935644 -0.000796 -0.001557 -100886.000000 1 0 0
-17.144837 -4.322298 -10.214620 20.419750 0.246959 2.094663 0.002769 -0.002281 689470.000000 1 0 0
-15.183637 -5.277298 -8.847220 18.348461 0.334504 2.073935 -0.012365 -0.010532 -240002.000000 1 0 0
-16.026537 -5.434498 -5.666120 17.846249 0.326926 1.893884 -0.005030 0.004429 -34958.600000 1 0 0
-15.387837 -3.956498 -12.414220 20.163142 0.251667 2.234056 0.018940 -0.001936 -144936.000000 1 0 0
-18.662637 -5.262298 -5.441320 20.139359 0.274834 1.844380 0.003586 0.003084 -182100.000000 1 0 0
-17.384837 -4.416198 -7.587520 19.475776 0.248764 1.970980 -0.004411 -0.004010 921994.000000 1 0 0
12.083763 -7.777498 8.682180 16.789492 -0.571886 1.027314 0.018308 -0.009733 69262.700000 1 0 0
15.960563 -3.454498 1.697480 16.418117 -0.213152 1.467221 0.013709 -0.008955 -177249.000000 1 0 0
12.058963 -2.221498 12.451680 17.475639 -0.182177 0.777718 0.020534 -0.008510 513592.000000 1 0 0
9.658763 -10.023198 5.211880 14.863374 -0.803912 1.212529 0.006023 -0.005503 536772.000000 1 0 0
16.915363 -2.035298 7.104480 18.459295 -0.119747 1.175726 0.038311 -0.017376 323272.000000 1 0 0
5.061463 -12.837198 9.118780 16.539776 -1.195230 0.986846 0.004557 0.004295 36575.000000 1 0 0
15.189063 -9.112498 -2.264820 17.857062 -0.540374 1.697969 0.019378 -0.002098 486492.000000 1 0 0
11.124463 -8.453298 6.450480 15.388977 -0.649797 1.138274 0.012628 -0.008645 -2569250.000000 1 0 0
19.897463 -3.132398 3.415180 20.429987 -0.156146 1.402843 0.031244 -0.016477 166096.000000 1 0 0
13.596863 -8.494798 6.850380 17.434562 -0.558428 1.166992 0.019743 -0.008649 -1958290.000000 1 0 0
8.225363 -11.077798 8.767380 16.347512 -0.932107 1.004734 0.000588 0.001118 -1097650.000000 1 0 0
16.784663 0.044602 -0.569620 16.794385 0.002657 1.604720 0.015519 -0.005522 -1379380.000000 1 0 0
12.435763 -12.462498 2.397780 17.768269 -0.786472 1.435436 0.015338 -0.004667 -2080000.000000 1 0 0
10.386863 -11.648898 3.642180 16.026516 -0.842608 1.341534 0.008185 -0.004540 -932125.000000 1 0 0
16.275763 3.038602 2.392780 16.728985 0.184570 1.427272 0.014449 -0.006064 -424069.000000 1 0 0
18.313563 -3.189398 0.555980 18.597525 -0.172426 1.540897 0.016140 -0.015931 298774.000000 1 0 0
13.349463 -11.743498 -0.197620 17.780803 -0.721485 1.581911 0.026639 -0.000134 -551611.000000 1 0 0
16.993663 -7.603098 -0.886720 18.638078 -0.420696 1.618390 0.026873 -0.007332 897348.000000 1 0 0
10.205763 -5.663998 9.691180 15.170940 -0.506659 0.877860 0.017759 -0.009311 1472950.000000 1 0 0
11.331763 -13.236398 6.068880 18.451081 -0.862768 1.235639 0.009879 -0.004522 1792680.000000 1 0 0
13.083163 -1.767398 10.204780 16.686233 -0.134277 0.912754 0.023847 -0.008741 1797780.000000 1 0 0
15.532363 -2.003898 -1.276620 15.713041 -0.128306 1.652132 0.011414 -0.011081 450900.000000 1 0 0
10.459463 -12.375898 8.915680 18.494663 -0.869126 1.067783 0.006331 -0.008063 245191.000000 1 0 0
14.496663 1.244702 3.189780 14.895543 0.085651 1.354982 0.012808 -0.006190 1133170.000000 1 0 0
15.023663 -5.825998 5.261180 16.950891 -0.369935 1.255206 0.023969 -0.010786 -612985.000000 1 0 0
14.284263 -3.430198 -2.949820 14.983586 -0.235676 1.768961 0.010932 -0.005936 1405310.000000 1 0 0
14.093063 0.591402 9.460280 16.984141 0.041939 0.980019 0.034265 -0.009544 30198.200000 1 0 0
15.357063 -3.435598 4.233980 16.296297 -0.220091 1.307968 0.018331 -0.011490 -400975.000000 1 0 0
18.662363 4.698602 -4.033420 19.662887 0.246643 1.777391 -0.001036 -0.000601 680562.000000 1 0 0
18.170063 -5.890398 -5.213320 19.799663 -0.313491 1.837241 0.039489 -0.007395 544415.000000 1 0 0
17.420363 0.060802 5.906180 18.394447 0.003490 1.243921 0.044156 -0.010601 890249.000000 1 0 0
16.939863 -6.532798 3.891680 18.568295 -0.368072 1.359643 0.019888 -0.014643 -155757.000000 1 0 0
9.747063 -6.658098 14.231480 18.489741 -0.599285 0.692431 0.019403 -0.003040 -880354.000000 1 0 0
8.528863 -12.309698 5.153680 15.837632 -0.964880 1.239354 0.001941 -0.004432 -1950720.000000 1 0 0
16.983763 -10.186698 -0.725920 19.817769 -0.540265 1.607434 0.035584 0.004000 320091.000000 1 0 0
14.992663 -8.840898 0.276180 17.407403 -0.532798 1.554930 0.031920 -0.003657 -17410.200000 1 0 0
10.030163 -13.032398 1.537280 16.516985 -0.914848 1.477589 0.014848 -0.006873 -228775.000000 1 0 0
16.861663 -8.295798 8.822580 20.759909 -0.457220 1.131855 0.027643 -0.007484 345178.000000 1 0 0
19.010063 -0.286898 -1.745720 19.092206 -0.015091 1.662361 0.015441 -0.006999 -1015480.000000 1 0 0
13.373563 -1.184798 7.669980 15.462358 -0.088362 1.051762 0.018610 -0.012324 -361739.000000 1 0 0
12.771363 -9.914198 -3.096820 16.461753 -0.660111 1.760046 0.016288 -0.000550 513173.000000 1 0 0
8.829863 -15.252998 1.445080 17.683571 -1.046041 1.488986 0.017989 -0.004110 -918417.000000 1 0 0
11.452663 -8.274798 11.117680 17.978837 -0.625682 0.904122 0.020742 -0.006518 -447265.000000 1 0 0
13.969263 -4.024998 -0.451320 14.544573 -0.280534 1.601831 0.011969 -0.006966 -727933.000000 1 0 0
7.199163 -13.366398 10.639680 18.538914 -1.076746 0.959523 0.008812 0.005595 -286339.000000 1 0 0
15.423663 -6.840998 1.746080 16.962825 -0.417468 1.467678 0.021645 -0.009116 1138130.000000 1 0 0
15.957463 -6.254098 -2.663520 17.344991 -0.373524 1.724968 0.023204 -0.006710 -501548.000000 1 0 0
11.228963 -8.536398 3.816780 14.612580 -0.650005 1.306533 0.013366 -0.006289 827932.000000 1 0 0
10.660963 -14.595998 -0.427420 18.079878 -0.939956 1.594439 0.033965 -0.007385 739332.000000 1 0 0
13.569963 -12.848598 4.702980 19.270402 -0.758100 1.324254 0.019633 -0.001919 290579.000000 1 0 0
12.751563 -11.024198 6.530880 18.077270 -0.712873 1.201161 0.012673 -0.008784 -91380.400000 1 0 0
10.921163 -10.613398 1.411980 15.294107 -0.771107 1.478343 0.014204 -0.002787 11709.400000 1 0 0
13.893763 -7.550898 11.715880 19.680308 -0.497819 0.933145 0.018760 -0.015701 -199011.000000 1 0 0
15.381963 -1.834498 -4.853920 16.233629 -0.118702 1.874445 0.022078 -0.003195 122999.000000 1 0 0
12.865763 -11.553498 -7.152820 18.712937 -0.731711 1.963015 0.022045 0.001935 -412511.000000 1 0 0
17.646563 -5.344398 1.852580 18.530942 -0.294077 1.470657 0.024725 -0.012259 449948.000000 1 0 0
10.543363 -9.803898 9.141280 17.054088 -0.749072 1.005084 0.008341 -0.004539 -1737070.000000 1 0 0
16.394563 1.738502 9.744880 19.151155 0.105647 1.036959 0.053041 -0.014117 39689.800000 1 0 0
18.071663 3.543102 0.655880 18.427391 0.193603 1.535196 -0.000694 -0.006157 515665.000000 1 0 0
13.337163 -4.006098 5.768780 15.073405 -0.291797 1.178066 0.016925 -0.010350 -1153230.000000 1 0 0
12.155263 -6.127698 6.614880 15.134587 -0.466937 1.118457 0.014928 -0.008315 -183891.000000 1 0 0
16.432063 -10.251698 3.688080 19.715779 -0.557796 1.382625 0.007313 -0.003812 -758750.000000 1 0 0
16.358663 -8.289998 -5.540420 19.157927 -0.469045 1.864185 0.029572 0.000275 481525.000000 1 0 0
14.033463 -0.369598 5.263280 14.992558 -0.026331 1.212094 0.015342 -0.008288 76538.300000 1 0 0
18.370063 -4.368998 5.098880 19.558781 -0.233495 1.307054 0.039875 -0.012646 142760.000000 1 0 0
13.687363 -13.377398 7.230780 20.459297 -0.773946 1.209569 0.027767 -0.004984 -56470.800000 1 0 0
14.891763 -13.636498 -0.787420 20.207392 -0.741426 1.609773 0.025701 0.003185 -14335.400000 1 0 0
17.879863 -6.042898 8.013280 20.504115 -0.325920 1.169281 0.045832 -0.004740 705274.000000 1 0 0
14.358563 3.344102 9.206580 17.381382 0.228820 1.012572 0.035920 -0.009116 -607949.000000 1 0 0
18.694763 3.812102 3.089780 19.328037 0.201155 1.410248 0.029752 -0.008446 -132479.000000 1 0 0
14.727063 -10.407698 8.140480 19.785701 -0.615212 1.146771 0.017427 -0.013651 -922418.000000 1 0 0
15.019863 -4.803698 10.291880 18.830682 -0.309542 0.992559 0.033741 -0.013663 208479.000000 1 0 0
17.806163 -7.977798 1.863880 19.600478 -0.421219 1.475559 0.035980 -0.013919 -152064.000000 1 0 0
18.518963 -5.906498 -1.910320 19.531718 -0.308744 1.668759 0.027870 -0.011591 461078.000000 1 0 0
14.246363 -13.255698 -5.540320 20.232833 -0.749392 1.848167 0.027190 -0.000426 305388.000000 1 0 0
15.517063 -1.496898 9.276880 18.140574 -0.096170 1.033997 0.043704 -0.016202 1129340.000000 1 0 0
12.854263 -10.065998 10.149680 19.224265 -0.664342 1.014597 0.006467 -0.013242 -1960240.000000 1 0 0
16.570163 2.045702 4.777480 17.366044 0.122835 1.292098 0.028561 -0.008235 220619.000000 1 0 0
14.986263 2.350202 -0.105120 15.169791 0.155557 1.577726 0.005678 -0.001351 -1157110.000000 1 0 0
15.053063 -10.039698 -7.040620 19.415472 -0.588201 1.941884 0.025210 0.003203 757795.000000 1 0 0
16.320863 -0.170098 -3.155820 16.624040 -0.010422 1.761790 0.017714 -0.000197 -212295.000000 1 0 0
12.099463 2.548302 13.468080 18.283326 0.207579 0.742720 0.028024 -0.001583 -290510.000000 1 0 0
17.721563 -2.971798 9.394880 20.276813 -0.166148 1.089046 0.040874 -0.018116 531827.000000 1 0 0
7.855063 -18.212798 4.359180 20.307892 -1.163607 1.354458 0.030974 -0.010024 10887.800000 1 0 0
6.752463 -11.273298 6.672180 14.737740 -1.031128 1.100974 0.002562 -0.003774 240028.000000 1 0 0
18.105863 2.185502 -1.486820 18.297795 0.120126 1.652143 0.012974 -0.002262 632332.000000 1 0 0
17.483063 -2.384298 3.533980 17.995315 -0.135541 1.373128 0.012388 -0.010272 -2078300.000000 1 0 0
12.522363 -13.460898 -1.960220 18.489127 -0.821503 1.677016 0.030842 -0.001042 -329950.000000 1 0 0
14.908963 -8.187898 4.310380 17.547029 -0.502223 1.322609 0.018794 -0.012327 -255960.000000 1 0 0
11.982563 -3.086898 14.863080 19.339645 -0.252134 0.694257 0.020216 -0.010014 -210045.000000 1 0 0
12.014563 -13.796698 -6.479520 19.408317 -0.854334 1.911184 0.027675 -0.005610 -697434.000000 1 0 0
10.583863 -12.138198 -1.287420 16.155849 -0.853698 1.650568 0.022650 -0.005205 -1098180.000000 1 0 0
13.098863 -8.174998 1.933780 15.561179 -0.557952 1.446205 0.018446 -0.002097 457976.000000 1 0 0
8.747563 -7.892798 10.028580 15.472185 -0.734076 0.865620 0.010854 -0.003162 -2116580.000000 1 0 0
15.672163 -3.860598 7.991980 18.010903 -0.241526 1.111040 0.036867 -0.018711 -918982.000000 1 0 0
10.156463 -17.231898 5.392680 20.716492 -1.038208 1.307455 0.022382 -0.006805 687077.000000 1 0 0
15.234063 -6.411198 8.222980 18.460702 -0.398347 1.109140 0.031462 -0.008415 -414225.000000 1 0 0
16.560263 -4.966398 -0.470220 17.295332 -0.291364 1.597987 0.016067 -0.011414 -573472.000000 1 0 0
13.843763 -10.550898 3.443380 17.743395 -0.651226 1.375492 0.017579 -0.005815 248298.000000 1 0 0
14.982763 -10.227298 -4.488820 18.687705 -0.598955 1.813370 0.028340 -0.000082 563695.000000 1 0 0
13.680163 -6.655698 -0.176120 15.214341 -0.452807 1.582373 0.017661 -0.005913 327839.000000 1 0 0
17.785863 -0.858198 -4.962220 18.485049 -0.048214 1.842575 0.012336 -0.003921 -90395.100000 1 0 0
14.347563 0.245702 -1.682020 14.447910 0.017123 1.687481 0.011410 -0.001426 -487930.000000 1 0 0
4.889163 -12.975998 11.761780 18.182956 -1.210462 0.867340 0.000417 0.007763 -662728.000000 1 0 0
12.062263 -7.401298 13.480780 19.545046 -0.550353 0.809682 0.020415 -0.008690 74402.100000 1 0 0
12.041563 -5.706298 11.533280 17.623212 -0.442537 0.857359 0.019591 -0.008326 -33908.900000 1 0 0
13.302363 -4.503298 8.309080 16.317884 -0.326424 1.036540 0.024656 -0.012094 -1182510.000000 1 0 0
15.297363 -1.170498 3.023380 15.637141 -0.076368 1.376225 0.015827 -0.007176 806841.000000 1 0 0
15.101863 -10.275798 5.722780 19.141799 -0.597472 1.267186 0.019458 -0.008943 -487847.000000 1 0 0
13.752263 -8.228098 -5.754320 17.027581 -0.539175 1.915525 0.022857 0.001501 -551815.000000 1 0 0
9.748763 -2.393698 13.827880 17.087376 -0.240775 0.627930 0.026533 -0.001533 -1241400.000000 1 0 0
10.080263 -9.111598 13.611680 19.233064 -0.734968 0.784526 0.023795 -0.002750 -325752.000000 1 0 0
20.257463 6.295502 -2.822920 21.400164 0.301312 1.703093 0.018098 0.006211 -709416.000000 1 0 0
11.172463 -3.584798 10.418480 15.691380 -0.310483 0.844692 0.013938 -0.007354 653263.000000 1 0 0
10.171463 -14.104198 -3.044520 17.653786 -0.946006 1.744120 0.020903 -0.004314 822122.000000 1 0 0
14.924363 -12.695998 2.471280 19.749233 -0.704894 1.445335 0.019256 0.006007 38246.600000 1 0 0
11.453563 -0.610398 14.321580 18.348415 -0.053243 0.675275 0.030039 -0.004987 147233.000000 1 0 0
19.014663 -1.933098 5.561680 19.905440 -0.101315 1.287622 0.040753 -0.016362 322007.000000 1 0 0
19.093063 -0.665998 7.749980 20.616760 -0.034868 1.185421 0.067703 -0.019401 -305207.000000 1 0 0
18.972463 0.666902 0.572780 18.992819 0.035137 1.540634 0.019516 -0.012205 -13886.800000 1 0 0
18.716263 0.733802 3.807180 19.113649 0.039187 1.370269 0.035848 -0.016279 420158.000000 1 0 0
16.710863 -3.930398 -4.113820 17.652889 -0.231002 1.805998 0.018438 -0.009505 639184.000000 1 0 0
11.146563 -8.098498 15.817080 20.976452 -0.628321 0.716605 0.028189 -0.008616 515393.000000 1 0 0
16.601563 -7.584598 6.310780 19.312275 -0.428544 1.237906 0.026877 -0.008690 449072.000000 1 0 0
18.965663 2.182602 6.004580 20.012873 0.114578 1.266066 0.053823 -0.011511 650210.000000 1 0 0
15.337363 1.818102 7.439380 17.143061 0.117990 1.121914 0.039146 -0.011514 236394.000000 1 0 0
8.617563 -15.704098 3.955780 18.344734 -1.068916 1.353454 0.012226 -0.008148 603129.000000 1 0 0
11.392263 -15.247798 2.060280 19.144810 -0.929127 1.462972 0.024530 0.001937 664628.000000 1 0 0
7.754463 -16.288098 6.129880 19.052802 -1.126466 1.243239 0.008982 -0.002710 -515979.000000 1 0 0
14.579063 -11.739798 -2.417020 18.873630 -0.677934 1.699212 0.022566 -0.002330 1067660.000000 1 0 0
13.685663 -4.924698 3.174780 14.887217 -0.345417 1.355891 0.013663 -0.005810 -1612440.000000 1 0 0
-1.007437 10.168602 -5.545220 11.626042 -1.472045 2.067995 -0.000018 0.000670 -2056410.000000 1 0 0
8.273063 -1.769598 -8.016820 11.655233 -0.210723 2.329292 -0.000256 -0.004951 -3312500.000000 1 0 0
2.869963 -10.150398 7.661080 13.036848 -1.295245 0.942647 -0.000961 0.000837 663843.000000 1 0 0
-6.348237 1.249502 8.316280 10.536692 -0.194342 0.661179 0.000925 -0.000164 -585621.000000 1 0 0
7.378663 -6.331098 -7.261220 12.134776 -0.709136 2.212275 -0.001921 -0.003945 -109035.000000 1 0 0
-11.483437 -4.576398 -4.122120 13.030911 0.379231 1.892659 0.000762 -0.003021 -148439.000000 1 0 0
2.175463 -3.170098 2.873580 4.799960 -0.969362 0.928960 0.002193 0.001442 462222.000000 1 0 0
-3.678337 -4.121698 8.971680 10.536109 0.842178 0.551924 0.005979 -0.002923 -1999590.000000 1 0 0
-4.855437 -1.146298 -2.362520 5.520034 0.231840 2.013064 0.006307 -0.000916 -388335.000000 1 0 0
4.936363 -5.256998 -3.745720 8.126138 -0.816843 2.049859 0.001239 -0.002725 371990.000000 1 0 0
2.664363 14.172502 -8.756820 16.871293 1.384970 2.116520 0.007841 -0.002698 170920.000000 1 0 0
5.421363 -5.432398 13.722680 15.723042 -0.786415 0.509937 0.011064 -0.003338 -889999.000000 1 0 0
-4.734237 -1.079698 9.941580 11.064075 0.224227 0.454351 0.006919 -0.001000 -1657050.000000 1 0 0
-1.052337 11.871402 -2.739120 12.228670 -1.482383 1.796705 -0.002850 -0.001724 425808.000000 1 0 0
3.078563 9.445502 -10.539820 14.483883 1.255724 2.385749 0.005126 -0.001187 -369356.000000 1 0 0
-10.563337 2.616602 1.157280 10.943948 -0.242818 1.464852 -0.002032 0.001368 383461.000000 1 0 0
5.564163 -9.084498 -0.712220 10.676857 -1.021244 1.637553 -0.000865 -0.002671 160900.000000 1 0 0
-6.856337 5.498202 9.344780 12.828269 -0.675908 0.754736 0.000040 -0.000670 336422.000000 1 0 0
-5.641237 -1.910498 5.156480 7.877998 0.326543 0.857220 0.002605 -0.003144 732155.000000 1 0 0
6.598563 -3.810698 -7.289620 10.545189 -0.523714 2.334048 -0.000387 -0.005617 427447.000000 1 0 0
6.306963 4.690602 11.038980 13.551332 0.639469 0.618749 0.001465 0.004093 519951.000000 1 0 0
3.678263 -9.910598 3.200980 11.045173 -1.215410 1.276770 -0.001852 -0.001567 1423620.000000 1 0 0
-6.656037 6.637702 -5.853720 11.073751 -0.784019 2.127761 0.002882 -0.002138 557172.000000 1 0 0
-11.019137 8.508402 5.253580 14.880000 -0.657526 1.209953 -0.005641 -0.003877 445786.000000 1 0 0
-9.235837 -5.530098 5.135980 11.927320 0.539511 1.125632 0.004339 -0.003365 -328377.000000 1 0 0
3.244763 9.741402 -7.992420 13.011617 1.249265 2.232235 0.007424 -0.003351 508508.000000 1 0 0
-8.202337 -8.492898 6.135080 13.305896 0.802800 1.091585 0.006950 -0.001791 -2468040.000000 1 0 0
-7.783937 -5.698798 -7.471220 12.201849 0.631961 2.229766 0.015878 -0.004708 -3147590.000000 1 0 0
9.276863 -1.553898 6.843980 11.632490 -0.165962 0.941779 0.008888 -0.004248 1272050.000000 1 0 0
-3.996337 -0.513698 -4.800220 6.267114 0.127841 2.443295 0.011185 -0.006325 76166.800000 1 0 0
9.053463 1.123802 -4.479520 10.163376 0.123498 2.027232 -0.001839 0.001883 -3256490.000000 1 0 0
-2.017837 -10.631798 10.530980 15.099945 1.383234 0.799007 0.008925 -0.002987 568386.000000 1 0 0
-12.853237 0.238702 -2.720320 13.140123 -0.018569 1.779328 -0.001738 -0.000848 -367808.000000 1 0 0
-9.734737 -5.098698 -6.011520 12.525982 0.482477 2.071365 0.010206 -0.003267 -931108.000000 1 0 0
-5.624837 8.268802 -0.133020 10.001479 -0.973450 1.584097 -0.004798 0.001708 788196.000000 1 0 0
6.137663 9.625202 0.483680 11.425820 1.003141 1.528452 0.011577 -0.004352 709901.000000 1 0 0
-0.581537 -12.071198 0.019780 12.085214 1.522658 1.569160 0.006420 0.001114 -176707.000000 1 0 0
6.201363 4.604702 2.421480 8.094674 0.638704 1.267000 0.000975 0.000962 -11476.500000 1 0 0
3.503263 -7.485298 -8.207820 11.647783 -1.133059 2.352751 -0.002240 -0.003269 942183.000000 1 0 0
-6.621237 -9.816898 4.599380 12.703014 0.977408 1.200309 0.009266 0.000503 -1981110.000000 1 0 0
-0.113637 6.407502 -9.136020 11.159564 -1.553063 2.529891 0.003836 -0.001061 -3437790.000000 1 0 0
-17.460537 -2.620198 4.334480 18.180306 0.148953 1.330062 0.004997 -0.008210 775413.000000 1 0 0
-8.438837 0.946202 -9.142020 12.477412 -0.111658 2.393056 0.005520 -0.004314 -141228.000000 1 0 0
-10.088437 -5.794798 -11.907820 16.647896 0.521383 2.367814 0.016762 0.004003 213065.000000 1 0 0
2.115563 9.369502 6.380780 11.531588 1.348728 0.984439 -0.006830 0.001704 226102.000000 1 0 0
-11.337537 1.683702 -1.213020 11.525885 -0.147429 1.676235 -0.000180 -0.000205 -915305.000000 1 0 0
-6.090037 -5.337398 -3.068920 8.659945 0.719631 1.933048 0.012561 -0.002771 661548.000000 1 0 0
-7.003937 -8.388498 1.422080 11.020179 0.875107 1.441392 0.005922 0.000846 -769038.000000 1 0 0
0.022863 10.957502 -7.816920 13.460001 1.568710 2.190448 0.004511 0.000556 898605.000000 1 0 0
-2.827137 9.290602 -4.192320 10.577502 -1.275399 1.978327 -0.003423 -0.001159 833028.000000 1 0 0
3.425963 -4.783498 9.356680 11.052897 -0.949278 0.561352 0.003236 -0.000449 -810554.000000 1 0 0
-8.884837 1.579402 -0.466220 9.036161 -0.175926 1.622414 0.001758 0.000208 -1041380.000000 1 0 0
2.517863 3.553302 -10.416220 11.289962 0.954323 2.745587 0.003251 -0.001196 -715560.000000 1 0 0
-13.666537 0.402702 1.036880 13.711730 -0.029458 1.495104 -0.002050 -0.001635 -1595050.000000 1 0 0
9.420163 -12.648098 -5.119520 16.580812 -0.930639 1.884687 0.014777 -0.001835 -2093660.000000 1 0 0
-4.751337 9.466102 -8.243920 13.421793 -1.105604 2.232192 -0.001025 -0.000608 -590483.000000 1 0 0
-2.226037 7.100202 8.340980 11.177658 -1.266985 0.728432 -0.002882 0.002165 -854219.000000 1 0 0
-10.783937 -1.219098 -4.430820 11.722273 0.112570 1.958413 0.002584 -0.000541 -3289960.000000 1 0 0
2.740863 -7.176898 9.688480 12.364741 -1.205989 0.670426 -0.001953 0.001459 -1371090.000000 1 0 0
-16.172737 -6.404498 3.319380 17.708566 0.377058 1.382236 -0.005366 -0.007273 470763.000000 1 0 0
-10.895737 -0.029098 6.115280 12.494582 0.002671 1.059355 -0.001181 -0.001656 -476464.000000 1 0 0
-8.448637 10.081902 9.519980 16.237433 -0.873310 0.944315 0.005194 -0.007725 -827023.000000 1 0 0
0.267863 -6.005798 -3.815220 7.120201 -1.526225 2.136287 0.001113 0.000243 786839.000000 1 0 0
4.893563 1.386002 -3.018520 5.914340 0.276001 2.106415 -0.003646 0.001218 -858475.000000 1 0 0
0.351163 5.370802 3.804180 6.590949 1.505506 0.955522 -0.004508 0.000455 -1399620.000000 1 0 0
5.940663 -11.323898 -1.502920 12.875594 -1.087653 1.687789 -0.002401 -0.005961 -1175980.000000 1 0 0
6.171463 -13.424598 5.244980 15.678539 -1.139894 1.229687 0.004597 -0.006577 -140771.000000 1 0 0
8.179663 -8.334298 -5.982020 13.120670 -0.794762 2.044206 0.001776 -0.004001 607229.000000 1 0 0
-13.175837 -1.251398 -4.767920 14.067756 0.094693 1.916571 0.000803 0.000432 -4066280.000000 1 0 0
-6.808037 -1.690898 -7.125220 9.998864 0.243442 2.363998 0.011038 -0.004111 -381304.000000 1 0 0
-5.609837 12.985102 -4.531920 14.853331 -1.162994 1.880852 -0.000613 0.001611 437303.000000 1 0 0
-4.303437 6.897202 -6.872320 10.645175 -1.012960 2.272580 0.002259 -0.001243 -3242030.000000 1 0 0
-9.388437 -3.725598 -8.115520 12.957026 0.377769 2.247647 0.011077 -0.002945 584614.000000 1 0 0
-2.314637 -6.364998 9.329080 11.528334 1.222012 0.627955 0.008255 -0.002369 -774076.000000 1 0 0
7.419163 -5.986198 9.997380 13.813983 -0.678908 0.761627 0.009867 -0.002305 765404.000000 1 0 0
9.685063 -4.953998 12.222780 16.362728 -0.472812 0.727275 0.019279 -0.003827 -382396.000000 1 0 0
-6.571137 2.847002 -9.049720 11.540481 -0.408845 2.472157 0.004383 -0.005669 692130.000000 1 0 0
7.547263 5.529602 8.896480 12.910655 0.632313 0.810577 -0.000435 -0.001845 -906855.000000 1 0 0
12.720063 3.319802 11.110080 17.212058 0.255295 0.869142 0.026635 0.000497 -402456.000000 1 0 0
-7.413037 -7.361798 -3.944820 11.167399 0.781930 1.931833 0.012521 -0.004809 -998781.000000 1 0 0
2.385063 1.483002 -5.743020 6.392973 0.556286 2.686757 0.000013 -0.002705 135314.000000 1 0 0
12.849263 7.005602 -7.091420 16.262541 0.499162 2.022011 0.010374 -0.001502 94807.400000 1 0 0
0.787963 -7.707598 1.009980 7.813323 -1.468918 1.441170 0.001646 -0.000321 528283.000000 1 0 0
-10.081737 -6.148998 -8.507420 14.554306 0.547678 2.195096 0.013388 -0.001053 -774110.000000 1 0 0
-6.642037 0.234202 3.072780 7.322123 -0.035246 1.137729 0.002844 -0.003184 747118.000000 1 0 0
10.684063 -8.041298 1.244480 13.429832 -0.645191 1.477998 0.008265 -0.003797 -586867.000000 1 0 0
6.201263 1.037902 10.569580 12.298330 0.165832 0.536638 0.005956 0.000036 503164.000000 1 0 0
-12.959937 5.433502 1.954280 14.188098 -0.396993 1.432616 -0.001864 0.001059 15443.100000 1 0 0
2.077763 7.414902 3.564580 8.485523 1.297589 1.137265 -0.006562 0.000346 -139583.000000 1 0 0
10.175063 -9.623898 -0.796520 14.028035 -0.757567 1.627607 0.009052 -0.003261 826126.000000 1 0 0
6.862063 -11.731298 -9.011620 16.307071 -1.041527 2.156301 -0.005186 -0.003295 -355231.000000 1 0 0
10.222963 3.505102 11.871880 16.054165 0.330305 0.738485 0.012845 0.005393 -1817270.000000 1 0 0
-11.039637 -2.997198 -2.058020 11.622919 0.265104 1.748801 -0.002462 0.000414 -267812.000000 1 0 0
12.360263 0.991202 6.821380 14.152378 0.080021 1.067866 0.009409 -0.008304 -619578.000000 1 0 0
-9.498737 9.227002 3.100080 13.600517 -0.770888 1.340837 -0.000912 -0.002621 696962.000000 1 0 0
-6.634737 7.682702 -8.792920 13.429784 -0.858463 2.284625 0.001673 -0.003028 -534259.000000 1 0 0
8.484663 5.474602 12.093280 15.754624 0.573018 0.695705 0.004708 0.007264 -1970430.000000 1 0 0
1.280763 4.893902 -2.690520 5.729706 1.314831 2.059604 -0.000968 -0.003060 156188.000000 1 0 0
1.201863 0.513902 9.506080 9.595526 0.404061 0.136647 0.003723 -0.001519 793020.000000 1 0 0
2.560263 12.525302 -3.946820 13.379668 1.369167 1.870238 0.010016 -0.007254 441885.000000 1 0 0
2.069063 0.567802 13.051280 13.226463 0.267831 0.162937 0.006347 -0.005386 -201557.000000 1 0 0
-12.194237 -1.799698 0.791380 12.351705 0.146528 1.506682 -0.004406 -0.001368 36029.700000 1 0 0
3.230863 8.666502 -1.278220 9.337054 1.213957 1.708125 0.003849 -0.004248 -390895.000000 1 0 0
3.737563 -2.828998 -5.897420 7.533404 -0.647909 2.470007 -0.002679 -0.002775 -1624750.000000 1 0 0
-7.825137 -7.251098 9.292780 14.148037 0.747341 0.854196 0.006906 -0.002149 82877.200000 1 0 0
-6.950637 10.901502 -3.528720 13.401715 -1.003198 1.837241 0.000027 0.002693 -170751.000000 1 0 0
0.341063 0.456702 2.489380 2.553803 0.929350 0.225093 0.000163 0.001105 -1833670.000000 1 0 0
-7.238637 4.503002 -1.968120 8.749194 -0.556496 1.797687 0.005285 -0.001189 -870836.000000 1 0 0
-6.887337 -3.922198 -5.836520 9.842968 0.517676 2.205530 0.010040 -0.002362 -42052.100000 1 0 0
2.933063 -6.139298 13.517380 15.133188 -1.125105 0.466323 0.006505 -0.002357 -375236.000000 1 0 0
-5.422937 -0.618498 -11.843120 13.040333 0.113562 2.709739 0.010988 -0.006849 -662190.000000 1 0 0
11.755463 2.477302 -0.550520 12.026263 0.207697 1.616589 0.003837 0.000840 -724390.000000 1 0 0
6.052963 -10.956198 10.680780 16.454655 -1.066059 0.864391 0.000620 0.005669 263792.000000 1 0 0
-8.143837 6.406902 -10.449020 14.715723 -0.666589 2.360377 0.005175 -0.002942 343773.000000 1 0 0
2.957163 7.976902 11.215480 14.077029 1.215787 0.648945 -0.007627 0.003571 877551.000000 1 0 0
-6.210137 -10.157298 -0.458520 11.914141 1.022039 1.609291 0.008159 0.001685 -819518.000000 1 0 0
11.292463 4.220602 6.080480 13.502052 0.357678 1.103653 0.002170 -0.000963 690346.000000 1 0 0
-7.861637 10.661402 1.352680 13.315426 -0.935413 1.469033 -0.004914 0.001671 521799.000000 1 0 0
4.326763 -2.673098 -3.572720 6.215357 -0.553409 2.183182 -0.001763 -0.002526 -5510180.000000 1 0 0
6.445663 6.461302 6.259880 11.067117 0.786610 0.969601 -0.000483 0.001800 -5251980.000000 1 0 0
-0.381037 10.365802 -10.178320 14.532489 -1.534054 2.346731 -0.000393 0.000918 -201046.000000 1 0 0
14.168063 6.474202 -2.381920 15.758262 0.428625 1.722532 0.014456 -0.000648 829834.000000 1 0 0
1.449163 9.411302 -6.130820 11.325177 1.418015 2.142831 0.003802 -0.003496 -201780.000000 1 0 0
0.619763 7.316102 7.234380 10.307555 1.486286 0.792802 -0.008174 0.003463 -307582.000000 1 0 0
12.204963 6.326702 1.981480 13.889367 0.478236 1.427646 0.003000 -0.000959 -626153.000000 1 0 0
-6.855637 6.615002 -3.182720 10.044288 -0.767536 1.893223 0.001292 -0.002360 -319985.000000 1 0 0
1.165163 9.953202 11.072580 14.934050 1.454263 0.735595 -0.012216 0.001510 -905568.000000 1 0 0
-3.512137 13.588902 -10.999120 17.831826 -1.317875 2.235499 0.002072 0.002322 -56085.200000 1 0 0
-10.011437 -5.587598 -2.281820 11.690032 0.509057 1.767251 0.001826 -0.000780 1347840.000000 1 0 0
-4.058837 3.858802 -12.491720 13.689689 -0.760139 2.720129 0.003482 -0.005256 -486010.000000 1 0 0
-3.168037 8.463102 2.486980 9.372599 -1.212609 1.302234 -0.004307 0.001657 -2331050.000000 1 0 0
7.103963 8.961102 7.030780 13.423840 0.900488 1.019545 0.005326 -0.000169 114325.000000 1 0 0
-1.343937 -2.269698 -8.142320 8.558918 1.036190 2.828306 0.009163 -0.007015 -811698.000000 1 0 0
0.823763 -1.326998 4.897680 5.140698 -1.015244 0.308709 0.003015 0.000199 -783870.000000 1 0 0
2.762263 -8.890398 -6.097120 11.128529 -1.269551 2.150627 -0.005996 -0.001649 247848.000000 1 0 0
5.330163 3.951802 8.762980 10.991687 0.637977 0.648092 -0.001693 0.001396 758687.000000 1 0 0
6.121863 -7.532998 -2.853920 10.117713 -0.888376 1.856749 -0.001081 -0.004642 816329.000000 1 0 0
1.834963 2.247702 -8.259020 8.753895 0.886151 2.803739 0.004203 -0.004187 57055.100000 1 0 0
-5.476737 10.911402 -0.645320 12.225783 -1.105608 1.623604 -0.006792 0.003626 701084.000000 1 0 0
-5.350637 3.445802 -3.376220 7.204286 -0.572145 2.058548 0.004715 -0.000552 971451.000000 1 0 0
2.160663 13.668402 -6.349720 15.225394 1.414016 2.000991 0.004365 0.001378 298284.000000 1 0 0
-5.296837 -2.579398 2.671580 6.468935 0.453169 1.145066 0.000437 -0.002086 159020.000000 1 0 0
10.337263 -3.479998 -1.832420 11.060160 -0.324729 1.737241 0.001855 -0.000154 208635.000000 1 0 0
2.383563 -3.391198 7.033080 8.163688 -0.958149 0.532565 0.000556 -0.000643 -1854550.000000 1 0 0
-2.866037 9.944802 -11.695320 15.617099 -1.290205 2.417166 -0.000473 0.002858 -2759710.000000 1 0 0
0.416363 -2.026998 9.342480 9.568908 -1.368206 0.217976 0.003585 -0.002572 128973.000000 1 0 0
9.420263 2.672102 4.993980 10.991875 0.276394 1.099172 -0.000944 -0.002116 -1459490.000000 1 0 0
13.384763 2.185702 -5.088420 14.485206 0.161869 1.929738 0.009745 -0.001052 -1258000.000000 1 0 0
-6.319137 3.762802 7.581480 10.562623 -0.537076 0.770209 0.000000 -0.000832 562047.000000 1 0 0
10.548263 0.029702 1.826080 10.705199 0.002816 1.399379 0.001835 0.001021 1706970.000000 1 0 0
15.502263 6.708202 -4.502920 17.481316 0.408395 1.831318 0.015815 0.000787 372870.000000 1 0 0
8.112763 -4.893398 -9.153720 13.173946 -0.542749 2.338987 0.004917 -0.004418 302845.000000 1 0 0
4.427063 5.590102 -2.166220 7.452559 0.900985 1.865721 0.001060 -0.002829 374105.000000 1 0 0
-1.727437 -10.507398 1.505380 10.754331 1.407852 1.430356 0.006460 0.000246 -788836.000000 1 0 0
-2.793337 12.274002 -12.978720 18.080405 -1.347026 2.371482 0.002031 0.001645 -872190.000000 1 0 0
8.313363 4.256202 -9.621320 13.408843 0.473179 2.371054 -0.002649 0.001715 -854099.000000 1 0 0
4.070063 7.578602 -9.141020 12.552246 1.077952 2.386543 0.003943 -0.002629 -1672420.000000 1 0 0
-1.730037 -5.007898 -2.494120 5.855998 1.238170 2.010762 0.007391 -0.001202 84388.600000 1 0 0
-3.387937 -9.185198 7.126780 12.109375 1.217431 0.941552 0.009454 0.000200 -995250.000000 1 0 0
0.946063 7.248802 -1.442920 7.451321 1.441017 1.765674 -0.001293 -0.003622 1353080.000000 1 0 0
0.311163 -1.108598 -2.217020 2.498198 -1.297156 2.662575 0.004442 0.003772 -379017.000000 1 0 0
4.246563 -6.754698 7.652680 11.055440 -1.009553 0.806250 -0.001870 0.001300 -275746.000000 1 0 0
-13.953337 4.002902 6.086880 15.740678 -0.279375 1.173749 -0.001531 -0.002405 -552421.000000 1 0 0
4.246863 6.327702 12.585280 14.712747 0.979694 0.544474 -0.003893 0.005313 -2833290.000000 1 0 0
8.222363 10.067302 -7.276320 14.896397 0.885931 2.081122 0.011514 -0.008223 72978.200000 1 0 0
12.519963 5.353902 9.509480 16.608550 0.404096 0.961165 0.026398 0.000488 589959.000000 1 0 0
7.471663 4.121302 0.267580 8.537123 0.504064 1.539448 0.001309 0.001898 -2302780.000000 1 0 0
-10.908737 -7.512398 -0.965920 13.280425 0.603074 1.643593 0.000648 0.001200 -1094510.000000 1 0 0
10.417463 6.832502 0.186380 12.459588 0.580491 1.555837 0.003475 0.001470 -829974.000000 1 0 0
14.574263 3.511602 4.258480 15.584451 0.236439 1.294024 0.017730 -0.005644 123354.000000 1 0 0
2.198663 5.510402 8.180880 10.105713 1.191150 0.627445 -0.005632 0.003880 -1549120.000000 1 0 0
4.185463 0.089102 11.755280 12.478487 0.021285 0.342126 0.003647 -0.001404 -2483350.000000 1 0 0
-1.617937 -1.539698 -0.400320 2.269063 0.760625 1.748150 0.008051 -0.001616 -1287550.000000 1 0 0
3.117263 -5.285398 -9.435820 11.255553 -1.037920 2.565001 -0.003489 -0.003099 303449.000000 1 0 0
-3.966937 -5.371198 -1.386120 6.819655 0.934659 1.775476 0.007759 -0.003114 -1045500.000000 1 0 0
-1.252737 -8.535498 8.551280 12.146953 1.425069 0.789803 0.008049 0.002648 95627.300000 1 0 0
3.945863 8.468302 -6.023320 11.115861 1.134752 2.143453 0.008122 -0.003405 199336.000000 1 0 0
-14.191637 -1.798998 -2.743320 14.565877 0.126092 1.760267 -0.005570 -0.001419 -982769.000000 1 0 0
8.829863 -10.683998 -6.675920 15.384479 -0.880130 2.019656 0.000951 -0.002896 440660.000000 1 0 0
14.738263 6.137202 1.695280 16.054769 0.394575 1.465006 0.007517 -0.001009 -1021760.000000 1 0 0
-5.852637 0.496502 -8.487620 10.321801 -0.084631 2.536238 0.011242 -0.008740 207180.000000 1 0 0
-8.124337 -4.572198 -12.999320 15.996630 0.512601 2.519445 0.014689 -0.000200 1210360.000000 1 0 0
0.926563 -10.651298 12.078580 16.130739 -1.484024 0.724558 0.010150 0.001805 -296033.000000 1 0 0
0.186163 11.723102 3.262280 12.169973 1.554918 1.299418 -0.002462 0.001854 -1598360.000000 1 0 0
5.113263 -13.274998 -3.716320 14.703131 -1.203131 1.826325 -0.005064 -0.004442 1270080.000000 1 0 0
-7.594337 1.588402 -6.907920 10.388279 -0.206184 2.298253 0.003742 -0.004342 1119820.000000 1 0 0
1.507263 2.759502 4.039080 5.118677 1.070869 0.661476 -0.003296 -0.000427 -1416350.000000 1 0 0
17.204463 5.537102 2.004880 18.184405 0.311372 1.460319 0.011093 -0.011074 187713.000000 1 0 0
2.451663 -8.304998 -3.632720 9.390437 -1.283746 1.968013 -0.004903 -0.000334 744609.000000 1 0 0
-0.353137 -9.458498 -0.498920 9.478229 1.533478 1.623459 0.005733 0.002022 -1095960.000000 1 0 0
0.839463 11.861302 -5.614920 13.150000 1.500141 2.011958 0.007516 -0.000614 -1513890.000000 1 0 0
6.047163 -5.003498 7.739880 11.023108 -0.691234 0.792383 0.003162 0.000569 -1165070.000000 1 0 0
-6.046637 -1.762098 -9.460320 11.365055 0.283565 2.554229 0.014109 -0.007500 -435126.000000 1 0 0
2.071163 -1.282498 11.226380 11.487651 -0.554430 0.213684 0.004829 -0.004652 -826896.000000 1 0 0
17.972863 2.237902 -5.723020 18.994340 0.123878 1.876853 0.003316 0.004314 -28744.300000 1 0 0
-8.822737 4.851402 7.786980 12.728466 -0.502747 0.912492 0.001035 -0.002754 753922.000000 1 0 0
11.605963 -7.074898 -4.983420 14.477121 -0.547442 1.922212 0.014244 -0.002337 537777.000000 1 0 0
10.834463 0.514902 8.919180 14.042880 0.047489 0.882608 0.010354 -0.005969 49003.400000 1 0 0
-8.378737 -7.334198 -1.583220 11.247235 0.719019 1.712031 0.008509 -0.001577 -260484.000000 1 0 0
10.254763 -10.573498 -3.239320 15.081519 -0.800700 1.787270 0.016587 -0.004836 817988.000000 1 0 0
7.648563 -14.011998 -3.882420 16.428932 -1.071139 1.809369 0.008685 -0.002635 -1991270.000000 1 0 0
1.770563 -1.219998 -11.551420 11.749834 -0.603336 2.957559 0.005810 -0.004554 138506.000000 1 0 0
-11.803137 -2.619798 -6.338420 13.651116 0.218417 2.053658 0.006255 -0.002972 -289166.000000 1 0 0
2.646563 -12.154998 -6.512720 14.041503 -1.356408 2.053098 -0.006165 0.000751 -508165.000000 1 0 0
-5.532237 1.514102 1.099980 5.840215 -0.267145 1.381319 0.001854 -0.000849 674122.000000 1 0 0
0.120663 6.892402 -3.997820 7.968835 1.553292 2.096338 0.003242 -0.003674 915080.000000 1 0 0
5.432663 -11.752398 3.545580 13.424002 -1.137794 1.303502 -0.002680 -0.006358 -2679290.000000 1 0 0
-4.450737 -9.172398 1.142680 10.259029 1.119033 1.459182 0.008579 0.000500 -794479.000000 1 0 0
7.182063 -6.224398 -4.705720 10.605138 -0.714086 2.030543 0.002370 -0.004979 61485.600000 1 0 0
-6.959537 -5.981398 2.262780 9.451585 0.709957 1.329041 0.004727 -0.001006 -483685.000000 1 0 0
-6.270937 -0.744998 7.006180 9.432191 0.118247 0.733562 0.001465 -0.000452 -1181650.000000 1 0 0
4.128263 -5.001798 3.207580 7.235268 -0.880785 1.111491 0.000291 0.001380 -1249110.000000 1 0 0
-2.519637 10.584102 -8.829020 14.011545 -1.337088 2.252510 0.000510 0.001563 -1563820.000000 1 0 0
-2.317737 -4.906898 2.872780 6.140230 1.129518 1.083926 0.003231 -0.000713 1155900.000000 1 0 0
15.125263 5.097302 6.328080 17.169760 0.325052 1.193337 0.031530 -0.011494 832006.000000 1 0 0
6.726363 0.248102 0.089380 6.731530 0.036868 1.557518 -0.003795 0.000901 4182620.000000 1 0 0
-9.617637 9.142502 0.362980 13.274639 -0.760077 1.543449 -0.002864 0.000282 -1527500.000000 1 0 0
7.171863 10.464602 -2.577420 12.945524 0.969974 1.771233 0.007921 -0.003637 -599162.000000 1 0 0
1.765763 -4.245598 -5.406520 7.097428 -1.176655 2.436818 0.001013 -0.002934 -880244.000000 1 0 0
0.959563 -8.194098 -7.838620 11.380157 -1.454223 2.330625 -0.000900 -0.000168 -110600.000000 1 0 0
-10.433537 0.259602 -10.509720 14.811493 -0.024876 2.359677 0.006320 -0.003540 -3868800.000000 1 0 0
5.957963 -2.599098 0.503380 6.519664 -0.411352 1.493510 0.000501 0.001023 -197137.000000 1 0 0
-3.254837 5.236202 -1.047720 6.253758 -1.014644 1.739125 0.000506 -0.003321 1133490.000000 1 0 0
-0.419337 4.604002 -5.108620 6.889897 -1.479966 2.406048 0.003929 -0.004292 -651027.000000 1 0 0
3.957463 -9.712898 9.980280 14.477841 -1.183889 0.810207 -0.001596 0.006293 -2047670.000000 1 0 0
7.308963 -13.498798 -0.866320 15.374947 -1.074539 1.627172 0.007926 -0.008007 244043.000000 1 0 0
12.855663 -0.074398 0.423180 12.862841 -0.005787 1.537891 0.003090 -0.004446 -415171.000000 1 0 0
9.231563 2.421302 -0.621620 9.564040 0.256507 1.635838 -0.000485 0.001904 -316516.000000 1 0 0
-0.771437 -5.833698 4.376580 7.333594 1.439321 0.931308 0.003556 0.000222 170591.000000 1 0 0
11.422963 -3.803598 3.268480 12.475351 -0.321431 1.305708 0.008912 -0.005698 -2876170.000000 1 0 0
1.690863 -8.167798 11.775180 14.430066 -1.366664 0.616310 -0.001545 0.001972 392637.000000 1 0 0
9.486163 -6.007598 -5.948320 12.706732 -0.564546 2.057962 0.005135 -0.003697 -1540500.000000 1 0 0
3.136263 6.278602 -0.206020 7.021355 1.107536 1.600143 -0.002593 -0.001512 -1506240.000000 1 0 0
6.350963 -1.376998 11.447880 13.163768 -0.213512 0.516302 0.007358 -0.002372 476014.000000 1 0 0
-4.836637 -7.521198 -3.854120 9.737337 0.999310 1.977744 0.010444 -0.001899 -662947.000000 1 0 0
-3.425537 -8.503298 -5.806420 10.851493 1.187837 2.135399 0.007658 -0.000540 109540.000000 1 0 0
9.757063 5.344402 2.188380 11.338073 0.501112 1.376566 0.000632 -0.000289 -710436.000000 1 0 0
8.819563 -1.461198 0.276780 8.944070 -0.164186 1.539846 -0.001487 0.000511 478402.000000 1 0 0
-3.807737 9.645702 9.250680 13.896528 -1.194815 0.842388 0.001250 -0.000438 367113.000000 1 0 0
-14.288637 -3.542298 -6.035520 15.910391 0.243011 1.959884 -0.007870 0.001977 -647828.000000 1 0 0
10.666563 6.268002 -5.916320 13.713725 0.531275 2.016858 0.006939 -0.002401 -1694000.000000 1 0 0
-1.808037 4.453602 2.825380 5.575512 -1.185152 1.039388 -0.001308 -0.003039 83478.300000 1 0 0
6.845763 -3.763898 2.708580 8.268482 -0.502701 1.237056 0.001849 0.000444 -1889930.000000 1 0 0
8.285663 -11.234398 -1.687020 14.060937 -0.935326 1.691065 0.010978 -0.006514 -2891660.000000 1 0 0
4.459363 0.552002 1.819480 4.847796 0.123158 1.186053 -0.002417 0.002404 677899.000000 1 0 0
-10.827337 2.379502 3.781180 11.712838 -0.216329 1.242085 -0.001503 -0.001831 156960.000000 1 0 0
-0.848637 -3.077798 4.453280 5.479482 1.301753 0.621993 0.003400 -0.000708 484774.000000 1 0 0
8.551363 -8.722298 -8.596320 14.936566 -0.795294 2.184038 0.006406 -0.003182 -923577.000000 1 0 0
12.055363 -4.858498 0.944680 13.031853 -0.383103 1.498243 0.006417 -0.003910 460750.000000 1 0 0
2.944663 4.820802 3.471080 6.630201 1.022456 1.019813 -0.006392 -0.000688 -951442.000000 1 0 0
6.091563 7.395202 1.938880 9.775244 0.881759 1.371126 0.002291 -0.001911 -254230.000000 1 0 0
-1.676537 -1.211598 -10.229620 10.436660 0.625785 2.942075 0.012910 -0.004987 1206420.000000 1 0 0
-1.049437 -8.708098 6.029580 10.643689 1.450862 0.968552 0.002832 0.000465 316662.000000 1 0 0
-4.173837 -0.274198 2.301080 4.773999 0.065600 1.067858 0.001194 -0.001382 290129.000000 1 0 0
-8.416437 6.112402 -7.986320 13.114084 -0.628124 2.225580 0.002526 -0.000843 -782916.000000 1 0 0
6.447763 11.180202 -9.462720 16.003551 1.047676 2.203452 0.013529 -0.007644 84923.800000 1 0 0
-11.328437 -5.794398 3.159580 13.110739 0.472798 1.327409 0.001020 -0.002804 1322910.000000 1 0 0
1.673263 -6.349298 3.085580 7.254943 -1.313120 1.131495 -0.004447 0.000409 307057.000000 1 0 0
10.131963 2.162902 7.219580 12.627634 0.210316 0.962185 0.006282 -0.002301 -2075160.000000 1 0 0
-4.034937 -2.475898 -10.564220 11.576422 0.550370 2.720306 0.012360 -0.006597 -2138640.000000 1 0 0
-8.316037 11.926002 5.891480 15.687432 -0.961883 1.185802 0.002669 0.000534 405673.000000 1 0 0
6.933263 5.975002 -2.979220 9.625307 0.711298 1.885484 0.002878 -0.000818 -2752140.000000 1 0 0
3.830063 -9.920698 -2.341120 10.889007 -1.202358 1.787487 -0.003654 -0.003511 -747449.000000 1 0 0
8.534763 -12.953198 -7.429120 17.199400 -0.988195 2.017440 0.006520 -0.003295 114926.000000 1 0 0
-1.173437 9.411102 3.655480 10.164070 -1.446750 1.202907 -0.005187 0.000389 -282221.000000 1 0 0
0.531163 -13.208998 4.638280 14.009761 -1.530606 1.233354 0.011297 0.000441 -1048390.000000 1 0 0
-11.160237 -7.073298 -5.244920 14.215894 0.564899 1.948673 0.006508 -0.003983 -65434.000000 1 0 0
3.575863 10.264602 -3.418520 11.394522 1.235576 1.875504 0.009048 -0.007843 -430800.000000 1 0 0
11.638263 -8.224098 -7.398620 16.056915 -0.615171 2.049664 0.021705 0.000152 658191.000000 1 0 0
11.812163 -4.877198 -5.942120 14.093369 -0.391574 2.006033 0.011765 -0.003036 -219106.000000 1 0 0
1.257263 -10.383998 -2.638020 10.787367 -1.450306 1.817849 -0.003215 0.001139 -1660260.000000 1 0 0
2.381963 -12.115698 -3.967920 12.969514 -1.376671 1.881724 -0.004931 -0.001104 -1044980.000000 1 0 0
-7.703637 -5.621698 7.280080 11.997878 0.630412 0.918792 0.006167 -0.000085 -2266540.000000 1 0 0
-7.293337 -0.903698 9.476280 11.992052 0.123279 0.659639 0.004762 -0.000130 637902.000000 1 0 0
16.133863 2.610102 -7.568320 18.010931 0.160388 2.004470 0.016359 0.005027 -432328.000000 1 0 0
-2.079237 6.332202 -5.472620 8.623780 -1.253529 2.258283 0.002819 -0.002094 -498667.000000 1 0 0
7.664363 1.136102 8.392180 11.421990 0.147160 0.745515 0.005912 -0.001722 -937304.000000 1 0 0
7.906763 8.293502 -3.816120 12.077328 0.809266 1.892279 0.009205 -0.001273 -247910.000000 1 0 0
8.103363 0.529102 3.991980 9.048775 0.065202 1.113903 0.000573 -0.000197 1398550.000000 1 0 0
-6.966137 5.916202 5.283080 10.556488 -0.704076 1.046669 0.001797 -0.005332 -3932.510000 1 0 0
-6.091137 -2.087998 -4.489520 7.849681 0.330240 2.179661 0.009263 -0.003810 -1055330.000000 1 0 0
-15.231037 -2.016598 3.170980 15.687775 0.131635 1.367263 0.001292 -0.003852 -281524.000000 1 0 0
1.149163 1.283402 -10.588520 10.727743 0.840527 2.980311 0.008136 -0.006283 504139.000000 1 0 0
1.491963 -9.195198 9.484280 13.293953 -1.409944 0.776418 0.000849 0.001148 -683102.000000 1 0 0
-0.240937 -6.881398 -1.320920 7.011171 1.535798 1.760331 0.002713 0.000966 743453.000000 1 0 0
-0.352837 -10.276298 -8.396020 13.274787 1.536475 2.255546 0.001939 0.000040 -322507.000000 1 0 0
-4.326037 6.527202 3.796780 8.702557 -0.985496 1.119332 -0.001240 0.000041 -359482.000000 1 0 0
10.737563 -1.164898 -8.655020 13.840579 -0.108065 2.246359 0.012238 -0.002345 152833.000000 1 0 0
3.043063 -1.010698 6.355080 7.118200 -0.320669 0.467288 0.000822 0.001015 807747.000000 1 0 0
1.897163 -12.318798 6.708480 14.154706 -1.417991 1.077037 0.003462 0.001211 -324576.000000 1 0 0
2.874963 -5.026198 -1.456120 5.970625 -1.051223 1.817162 0.002834 0.000150 -552459.000000 1 0 0
-1.063937 9.437902 -1.609220 9.633044 -1.458540 1.738635 -0.002315 -0.003335 19688.700000 1 0 0
4.547063 -2.523298 2.522680 5.779855 -0.506620 1.119135 0.001295 0.001108 -2742950.000000 1 0 0
17.748863 6.692302 -2.576520 19.142818 0.360571 1.705801 -0.002436 0.006858 644861.000000 1 0 0
-7.076437 3.465302 -5.393020 9.548243 -0.455370 2.171009 0.006184 -0.002555 1679980.000000 1 0 0
-13.868137 -5.960998 2.184980 15.252307 0.405958 1.427046 -0.006061 -0.003927 -583308.000000 1 0 0
6.663163 -6.114598 3.308980 9.629922 -0.742493 1.220033 0.001697 -0.002488 2506040.000000 1 0 0
-4.638137 2.039902 3.453480 6.131887 -0.414348 0.972543 0.001973 -0.002157 411091.000000 1 0 0
6.871563 -12.228398 -5.555720 15.087018 -1.058836 1.947917 0.000830 -0.004406 -189027.000000 1 0 0
2.861763 -12.344798 3.299380 13.094641 -1.343001 1.316087 0.001739 -0.003738 -823349.000000 1 0 0
3.376663 11.177502 -6.048120 13.149835 1.277419 2.048723 0.007778 -0.004362 -213700.000000 1 0 0
-5.736137 -8.396998 6.533580 12.087205 0.971491 0.999721 0.011527 -0.000543 -928153.000000 1 0 0
-3.980337 6.501102 6.362280 9.929049 -1.021414 0.875290 -0.000751 -0.000281 338923.000000 1 0 0
4.263263 4.365202 -7.064320 9.334614 0.797212 2.429181 0.001248 -0.000353 -1995900.000000 1 0 0
-0.295837 -2.802298 1.618680 3.249695 1.465616 1.049388 0.001623 0.001160 527023.000000 1 0 0
-13.257437 -0.878798 6.572780 14.823406 0.066190 1.111402 -0.006227 -0.002285 -578277.000000 1 0 0
-0.430737 -9.323798 -5.937420 11.062175 1.524632 2.137355 -0.001100 0.000789 527919.000000 1 0 0
2.087763 -1.623898 -3.982320 4.780656 -0.661068 2.555317 0.000218 -0.000594 -214699.000000 1 0 0
11.298763 -2.023698 1.036180 11.525236 -0.177229 1.480769 0.005320 -0.002835 1082260.000000 1 0 0
0.478663 -4.266298 -1.894620 4.692548 -1.459067 1.986409 0.003209 -0.000540 -1725200.000000 1 0 0
1.087663 -7.513298 -11.321920 13.631527 -1.427030 2.550924 -0.000943 -0.002267 -810287.000000 1 0 0
-4.360637 3.968502 -9.953020 11.568353 -0.738353 2.606784 0.003466 -0.002618 11199.100000 1 0 0
-1.057537 5.784702 -2.104920 6.245947 -1.389977 1.914531 0.000632 -0.003512 -2108190.000000 1 0 0
-11.382837 1.798602 -3.865520 12.155090 -0.156714 1.894433 0.002000 0.000299 -214786.000000 1 0 0
-1.814637 -11.245798 4.210380 12.144471 1.410814 1.216755 0.011917 -0.000163 -200984.000000 1 0 0
-3.478837 -5.379598 -9.641820 11.576143 0.996764 2.555132 0.009509 -0.002485 -1802110.000000 1 0 0
-12.875437 -3.656298 -8.333720 15.766937 0.276691 2.127696 0.004645 -0.000321 -83400.800000 1 0 0
11.353563 4.501402 0.543380 12.225435 0.377464 1.526335 0.004405 0.001344 447108.000000 1 0 0
-8.899337 -2.354498 -3.056620 9.699732 0.258644 1.891384 0.003624 -0.001143 -551621.000000 1 0 0
-2.396737 -6.113598 -6.455920 9.208656 1.197176 2.347694 0.004088 -0.003448 428294.000000 1 0 0
0.058163 2.653502 -1.901720 3.265118 1.548881 2.192518 0.001194 -0.001806 -300085.000000 1 0 0
8.060563 5.980402 -5.201520 11.304587 0.638319 2.048932 0.003015 -0.000097 -15221.700000 1 0 0
-9.799037 -0.931198 -0.938220 9.887797 0.094745 1.665826 0.000191 -0.000796 495785.000000 1 0 0
6.175863 0.500602 -8.906620 10.849874 0.080881 2.533775 -0.001187 -0.001776 520682.000000 1 0 0
-4.118237 2.380202 7.896480 9.218440 -0.524061 0.542160 -0.002670 0.001957 -1803540.000000 1 0 0
-10.234237 -3.419698 1.494880 10.893513 0.322479 1.433135 0.002349 -0.002923 3587860.000000 1 0 0
-1.810037 -8.212198 -7.817120 11.481455 1.353857 2.319716 0.004764 -0.003813 -302520.000000 1 0 0
-9.550137 -9.748398 4.313080 14.312199 0.795671 1.264681 0.002800 0.001391 -243145.000000 1 0 0
-1.174037 -10.736098 7.476480 13.135445 1.461875 0.965284 0.011845 -0.001515 358173.000000 1 0 0
9.496163 3.781002 -3.796420 10.903480 0.378920 1.926430 0.000431 0.001869 -426631.000000 1 0 0
12.771563 -0.842898 2.961480 13.137490 -0.065902 1.343420 0.005752 -0.004423 -682461.000000 1 0 0
6.540963 11.911802 -6.904920 15.243134 1.068632 2.040908 0.009348 -0.005565 -66079.800000 1 0 0
-11.833637 0.003302 -6.538520 13.519883 -0.000279 2.075585 0.004667 -0.000677 275794.000000 1 0 0
-7.639437 -6.595598 -11.497820 15.299111 0.712200 2.421182 0.019833 -0.003267 -941297.000000 1 0 0
4.171163 6.012102 6.539580 9.813769 0.964247 0.841470 -0.004842 0.002732 -2024690.000000 1 0 0
-4.289537 -1.388098 -7.414220 8.677420 0.312966 2.595243 0.011341 -0.009735 370941.000000 1 0 0
9.591263 9.270302 0.819780 13.364238 0.768383 1.509417 0.009784 -0.000937 -1764880.000000 1 0 0
-8.912837 3.905302 4.946880 10.916120 -0.412969 1.100476 -0.000650 -0.003894 568048.000000 1 0 0
-6.886437 7.912502 -12.121820 16.030260 -0.854621 2.428257 0.004707 -0.002155 -1516830.000000 1 0 0
11.163463 -3.582798 7.239780 13.779468 -0.310555 1.017607 0.013009 -0.004901 868925.000000 1 0 0
11.833963 6.877402 6.403380 15.111075 0.526450 1.133210 0.010003 -0.003429 256710.000000 1 0 0
-9.820737 -0.790098 -14.808020 17.786192 0.080279 2.554504 0.000863 0.001851 56867.400000 1 0 0
1.730263 -13.121498 12.099480 17.932232 -1.439688 0.830193 0.014974 0.005682 175525.000000 1 0 0
2.944863 2.979502 13.021380 13.678669 0.791245 0.311262 -0.002826 -0.001694 -436665.000000 1 0 0
-2.633037 -1.458698 11.059780 11.462086 0.505908 0.265730 0.005744 -0.002521 -662245.000000 1 0 0
2.579063 -10.096098 -8.316120 13.331940 -1.320694 2.244359 -0.009472 0.001632 -1207380.000000 1 0 0
13.887463 3.631102 -7.478920 16.185820 0.255741 2.051120 0.012013 0.000622 -3183150.000000 1 0 0
7.259163 -1.712198 4.991480 8.974516 -0.231634 0.981010 -0.000205 -0.000074 558157.000000 1 0 0
-1.129637 8.713202 10.106780 13.391899 -1.441869 0.715609 -0.006545 -0.000143 -34576.500000 1 0 0
-12.289337 -4.667198 0.867280 13.174321 0.362951 1.504918 -0.002228 -0.002930 64768.100000 1 0 0
-4.853037 4.895002 -5.304720 8.697878 -0.789703 2.226714 0.005025 -0.003889 -43784.400000 1 0 0
-11.174237 0.307302 2.000180 11.356000 -0.027494 1.393738 -0.007097 0.000900 -1988280.000000 1 0 0
-1.538337 2.425602 -4.028920 4.947952 -1.005603 2.522250 0.005038 -0.005025 846307.000000 1 0 0
3.194063 -9.817698 13.132280 16.704670 -1.256259 0.666251 0.000941 0.004684 -1542000.000000 1 0 0
8.880663 4.601702 -1.552720 10.121895 0.478079 1.724807 0.000871 0.000109 -932014.000000 1 0 0
4.173363 2.311602 3.859180 6.136263 0.505828 0.890641 -0.005074 0.003647 1042050.000000 1 0 0
-5.498137 -3.244598 7.486180 9.838690 0.533128 0.706110 0.006782 -0.002146 -201741.000000 1 0 0
1.812363 -5.892498 7.673880 9.843507 -1.272408 0.676789 -0.000882 -0.000215 -532205.000000 1 0 0
-5.819937 -6.123298 -9.833120 12.963669 0.810793 2.431826 0.016974 -0.004104 -311494.000000 1 0 0
-11.758937 -5.779498 5.522880 14.218910 0.456823 1.171882 0.005315 -0.004182 -1854850.000000 1 0 0
10.452163 6.136902 4.603680 12.965459 0.530911 1.207805 0.004358 -0.000197 -791416.000000 1 0 0
1.628763 -3.782198 0.427380 4.140114 -1.164159 1.467383 0.000882 0.001520 -629624.000000 1 0 0
8.786463 4.306602 6.990580 12.025679 0.455729 0.950466 0.000692 0.003186 -29095.100000 1 0 0
-7.848437 12.016302 3.496180 14.772026 -0.992210 1.331853 -0.002057 -0.001342 474591.000000 1 0 0
-6.135437 13.243802 -6.985320 16.181365 -1.136963 2.017161 0.010322 -0.003804 564959.000000 1 0 0
4.450163 -6.980298 -1.056620 8.345355 -1.003236 1.697749 0.001791 -0.003991 -1401900.000000 1 0 0
-1.915837 -8.209298 11.133780 13.965101 1.341526 0.648058 0.010584 -0.002595 -86240.300000 1 0 0
11.523563 8.857602 -5.747120 15.629427 0.655331 1.947343 0.011794 -0.004473 679560.000000 1 0 0
-3.357237 -2.949598 -1.858320 4.839889 0.720853 1.964877 0.009089 -0.001424 -2167030.000000 1 0 0
-2.060237 5.935502 4.832580 7.926448 -1.236704 0.915142 -0.003762 -0.000758 -1251130.000000 1 0 0
0.338263 -11.513298 -5.695520 12.849491 -1.541425 2.030016 -0.006458 -0.002669 -594792.000000 1 0 0
-8.939737 6.288602 -1.551320 11.039566 -0.613033 1.711787 0.003301 0.001563 -279601.000000 1 0 0
2.901763 -0.030298 3.961080 4.910325 -0.010441 0.632277 -0.002214 0.002272 -209960.000000 1 0 0
-10.116937 3.969602 -0.922120 10.906900 -0.373913 1.655442 0.003202 0.000503 -64376.600000 1 0 0
6.517163 5.465702 13.560080 16.006969 0.697875 0.560224 0.006236 0.008584 -1241460.000000 1 0 0
-8.867137 -1.550398 5.672280 10.639766 0.173098 1.008511 0.003065 -0.002544 -400593.000000 1 0 0
12.930463 -1.822198 -1.495720 13.143609 -0.140001 1.684842 0.010314 -0.003830 -1681050.000000 1 0 0
5.088063 -5.557298 5.420980 9.282185 -0.829449 0.947124 0.001119 -0.000969 64774.400000 1 0 0
-9.044537 -1.224998 3.204980 9.673478 0.134621 1.233098 -0.001162 -0.000766 765221.000000 1 0 0
2.013163 5.485002 5.583080 8.081389 1.219031 0.808123 -0.003783 0.000217 -1238690.000000 1 0 0
9.306763 3.110502 -7.417620 12.300900 0.322548 2.218071 -0.001861 0.000272 -961159.000000 1 0 0
2.389463 -2.489598 -1.600720 3.803937 -0.805919 2.005130 -0.001904 0.002597 -171215.000000 1 0 0
-6.128937 0.395402 -3.939920 7.296793 -0.064425 2.141177 0.009127 -0.000217 -2457730.000000 1 0 0
-4.015337 4.159802 5.042480 7.671603 -0.803068 0.853577 -0.000662 -0.001290 1016290.000000 1 0 0
-6.427237 1.825402 -12.302820 14.000031 -0.276724 2.644077 0.002796 -0.001708 -1526800.000000 1 0 0
-0.098637 3.137702 6.154080 6.908516 -1.539370 0.471702 -0.001068 0.000259 1088090.000000 1 0 0
-8.642937 9.516402 -2.104320 13.026528 -0.833461 1.733048 -0.002560 0.002236 859584.000000 1 0 0
-1.223437 -3.735998 -6.146320 7.296008 1.254330 2.572560 0.002641 -0.002763 333062.000000 1 0 0
-3.329537 7.008602 -2.933920 8.295433 -1.127295 1.932298 0.000042 0.000140 1012170.000000 1 0 0
7.124063 -0.488198 -4.515720 8.448807 -0.068421 2.134689 -0.003017 0.001346 -408251.000000 1 0 0
-5.229837 -10.861998 7.015680 13.948260 1.122074 1.043754 0.008441 0.000582 771249.000000 1 0 0
9.878863 8.353302 -1.510020 13.024966 0.701918 1.686990 0.009890 -0.001161 -48702.600000 1 0 0
13.659463 4.724502 -4.275420 15.072526 0.332998 1.858401 0.003462 0.000940 806794.000000 1 0 0
4.774763 1.104002 -6.823720 8.401210 0.227223 2.518762 -0.004425 -0.001021 -532684.000000 1 0 0
8.992663 -4.724398 3.542980 10.758282 -0.483730 1.235207 0.003388 -0.002582 -588462.000000 1 0 0
-8.767737 -3.233998 -0.710020 9.372091 0.353370 1.646628 -0.000133 -0.000775 353285.000000 1 0 0
-8.509337 -4.258298 -10.442920 14.127863 0.463989 2.402636 0.016201 -0.004384 281673.000000 1 0 0
10.501663 -1.141198 10.679380 15.021198 -0.108244 0.779943 0.016956 -0.006901 -261248.000000 1 0 0
2.144963 -11.580798 9.921680 15.399853 -1.387655 0.870727 0.001481 0.002273 385339.000000 1 0 0
-6.435437 -10.610798 2.036580 12.575832 1.025612 1.408136 0.008666 0.002697 -1038120.000000 1 0 0
-3.724837 -1.232398 6.674580 7.742301 0.319523 0.531412 0.005241 -0.001917 -837391.000000 1 0 0
4.592763 -7.591898 3.889780 9.688177 -1.026741 1.157645 -0.001725 -0.000691 119837.000000 1 0 0
11.462563 -9.625298 -5.331920 15.889181 -0.698493 1.913006 0.017234 -0.000583 737402.000000 1 0 0
11.364363 1.227602 11.303880 16.075865 0.107605 0.790967 0.020483 -0.004156 183076.000000 1 0 0
-10.278337 -3.482398 4.451080 11.729596 0.326671 1.181568 0.008217 -0.003571 2457400.000000 1 0 0
2.048063 8.763502 8.952780 12.694321 1.341213 0.788008 -0.010608 0.001300 -448400.000000 1 0 0
6.573063 8.718602 4.056880 11.648066 0.924796 1.215052 0.003984 0.000624 -248730.000000 1 0 0
-4.272237 3.517302 0.519580 5.558182 -0.688783 1.477180 0.001787 -0.001096 206316.000000 1 0 0
4.836663 6.851702 4.191180 9.375772 0.956117 1.107363 0.000769 -0.000216 -1402910.000000 1 0 0
-8.169837 13.227602 1.179280 15.591869 -1.017510 1.495090 -0.004128 0.002253 780860.000000 1 0 0
8.850863 8.226102 -9.156120 15.160510 0.748829 2.219238 0.003368 -0.007190 -873039.000000 1 0 0
7.104963 1.880002 6.040080 9.513015 0.258676 0.882881 -0.001254 0.000361 -389168.000000 1 0 0
11.571063 -6.279598 3.013880 13.505788 -0.497220 1.345747 0.007900 -0.004291 -72605.700000 1 0 0
11.400163 4.647502 -2.106420 12.489995 0.387101 1.740255 0.008135 0.002376 -1226680.000000 1 0 0
-3.999337 14.404702 -5.966120 16.096109 -1.299976 1.950512 0.002814 0.003218 80942.700000 1 0 0
7.261563 -3.071898 6.994980 10.540237 -0.400205 0.845115 0.005014 -0.002300 -95460.400000 1 0 0
-7.899637 -0.530398 0.899980 7.968410 0.067041 1.457611 0.006662 -0.002003 884707.000000 1 0 0
-3.296637 1.010902 10.730380 11.270794 -0.297543 0.310922 0.002142 0.001087 -420599.000000 1 0 0
7.062763 -1.292698 -1.951020 7.440441 -0.181026 1.836117 -0.000295 -0.000171 -1048350.000000 1 0 0
-7.896237 5.281702 2.991580 9.959743 -0.589539 1.265719 -0.000213 -0.000667 680610.000000 1 0 0
9.488863 -2.136798 2.844980 10.134018 -0.221495 1.286236 0.000898 -0.002368 -1418050.000000 1 0 0
0.262163 3.507102 1.657880 3.888066 1.496183 1.130285 -0.002582 -0.001364 -3011940.000000 1 0 0
-7.581437 -3.089398 4.039680 9.129161 0.386951 1.112409 0.003106 -0.002960 555232.000000 1 0 0
-2.266837 8.430102 -6.753420 11.036931 -1.308112 2.229248 -0.002367 -0.000926 -460722.000000 1 0 0
4.447263 9.810802 7.297580 13.010943 1.145199 0.975348 -0.006054 0.003574 1163660.000000 1 0 0
-11.870937 -3.061698 6.827280 14.032281 0.252415 1.062670 0.003036 -0.002231 -1810180.000000 1 0 0
-4.680437 2.348302 -5.569320 7.644498 -0.465028 2.386984 0.011132 -0.006077 411640.000000 1 0 0
-2.589537 2.814702 -1.704420 4.187278 -0.827038 1.990015 0.004896 -0.001424 835708.000000 1 0 0
2.465963 5.109802 11.434280 12.764552 1.121170 0.460605 -0.005557 -0.000422 528092.000000 1 0 0
-0.790037 1.627502 4.555980 4.902027 -1.118873 0.377993 0.002740 -0.001334 502121.000000 1 0 0
5.142863 1.537902 7.734180 9.414442 0.290572 0.606719 0.000624 0.001688 -383643.000000 1 0 0
3.354563 -8.249398 1.723480 9.070614 -1.184576 1.379627 0.000284 -0.000492 1402810.000000 1 0 0
5.082063 6.333202 -4.623820 9.344331 0.894565 2.088431 0.005446 -0.002361 -1922440.000000 1 0 0
-4.153537 2.788202 -7.992420 9.428930 -0.591192 2.582334 0.009545 -0.008075 -80377.500000 1 0 0
-8.676537 -2.139698 -12.805920 15.615768 0.241783 2.532318 0.010367 -0.002859 -102796.000000 1 0 0
-7.795837 8.142402 1.356880 11.354070 -0.807139 1.451004 -0.000389 0.001164 -1896240.000000 1 0 0
7.465763 0.940002 -6.618220 10.021081 0.125249 2.292187 -0.003596 0.001776 642528.000000 1 0 0
8.961963 8.875102 5.400380 13.720361 0.780529 1.166248 0.005588 -0.000131 360516.000000 1 0 0
9.338263 -1.138598 -1.414620 9.513186 -0.121329 1.720051 -0.001152 -0.000382 722669.000000 1 0 0
5.384963 0.054402 4.209180 6.835055 0.010102 0.907367 -0.003958 0.002692 -248332.000000 1 0 0
-4.213737 -7.263098 -7.985420 11.587714 1.045095 2.331082 0.014287 -0.007243 91660.000000 1 0 0
-2.225337 7.446402 -0.509220 7.788474 -1.280397 1.636224 -0.001915 -0.001786 63427.300000 1 0 0
13.427363 -3.309898 -7.440520 15.703848 -0.241686 2.064400 0.013907 -0.001491 1500010.000000 1 0 0
-4.766437 -5.067098 1.676380 7.155743 0.815964 1.334328 0.008308 -0.002667 1849570.000000 1 0 0
-8.822137 1.310202 2.563880 9.280098 -0.147435 1.290878 0.000753 -0.001185 101812.000000 1 0 0
-1.032637 11.201302 10.143580 15.146871 -1.478867 0.837016 -0.009177 -0.001026 163269.000000 1 0 0
-8.555037 0.388402 7.482380 11.372138 -0.045369 0.852694 0.001747 -0.000965 261574.000000 1 0 0
-6.096137 12.951802 -2.052120 14.461095 -1.130880 1.713183 -0.007297 0.004730 307330.000000 1 0 0
-12.982437 -0.716398 3.224580 13.396075 0.055126 1.327698 -0.003910 -0.003070 531472.000000 1 0 0
-6.664337 12.788602 8.713280 16.848827 -1.090399 1.027285 0.014041 -0.008089 -595590.000000 1 0 0
-8.107837 0.948102 -14.034520 16.235877 -0.116408 2.614780 0.004600 -0.000807 -289864.000000 1 0 0
7.241763 2.770302 3.695980 8.589410 0.365369 1.125977 -0.003182 0.000737 -759517.000000 1 0 0
-1.534037 0.597502 -2.162520 2.717862 -0.371419 2.490909 0.002050 -0.002619 656169.000000 1 0 0
-6.191337 9.696902 -10.349420 15.474917 -1.002558 2.303372 0.000310 0.001503 -59644.800000 1 0 0
-10.141737 13.833702 5.377980 17.976340 -0.938187 1.266974 -0.001226 0.001379 506656.000000 1 0 0
-5.612837 8.310102 2.504580 10.336085 -0.976756 1.326046 -0.004349 -0.000120 -1272390.000000 1 0 0
-2.404137 -10.714598 -1.241420 11.050955 1.350072 1.683370 0.004331 0.002036 465080.000000 1 0 0
-2.178437 -12.603098 8.804080 15.527250 1.399638 0.967927 0.012788 0.001723 366768.000000 1 0 0
-14.613537 -6.386198 -1.616720 16.029747 0.411995 1.671826 0.007684 -0.001893 622246.000000 1 0 0
-2.764237 -9.274598 3.339380 10.237707 1.281135 1.238532 0.006368 0.000244 -839689.000000 1 0 0
4.707763 -2.659298 7.503080 9.248302 -0.514192 0.624437 0.001965 0.000979 -713650.000000 1 0 0
-15.039237 -1.281798 -0.325120 15.097264 0.085025 1.592333 -0.001890 -0.005393 223288.000000 1 0 0
5.424563 8.703502 -2.882520 10.652969 1.013448 1.844796 0.006262 -0.003809 -32104.000000 1 0 0
-5.677237 -5.653198 8.566180 11.728986 0.783277 0.751973 0.010298 0.000488 -2170610.000000 1 0 0
3.484363 3.552702 7.070880 8.646376 0.795109 0.613244 -0.003936 0.001289 480404.000000 1 0 0
3.233963 2.328902 9.412580 10.221495 0.624114 0.400512 0.001101 -0.001708 -549668.000000 1 0 0
9.954263 -3.254598 5.154280 11.672461 -0.315999 1.113442 0.007336 -0.004825 -315427.000000 1 0 0
6.496563 10.038302 -5.049120 12.979462 0.996408 1.970351 0.009859 -0.005135 1073240.000000 1 0 0
-4.488537 12.076702 -8.517420 15.444745 -1.214949 2.154930 0.000767 0.000097 -81723.400000 1 0 0
-3.453737 -7.210698 2.127180 8.273292 1.124111 1.310762 0.007754 -0.000530 995662.000000 1 0 0
-7.469737 -4.080498 1.125680 8.585721 0.499975 1.439307 0.002839 -0.001440 2393480.000000 1 0 0
-1.976337 -3.915098 -10.870720 11.722050 1.103317 2.758127 0.013225 -0.005150 -1130800.000000 1 0 0
-5.204837 8.270002 -4.435620 10.731169 -1.009065 1.996915 -0.000553 -0.002533 -610080.000000 1 0 0
-10.950837 -3.233698 -10.175320 15.294273 0.287132 2.298695 0.006637 0.000637 -1650010.000000 1 0 0
4.721063 -11.347298 -7.622420 14.462050 -1.176529 2.125938 -0.007591 -0.003802 -1451290.000000 1 0 0
-9.467737 -3.963798 7.301180 12.595911 0.396492 0.952501 0.003741 -0.001866 -9463.500000 1 0 0
-5.748337 -9.586198 -5.168720 12.314798 1.030636 2.003929 0.010519 -0.004365 -255669.000000 1 0 0
5.074263 4.221602 -9.555320 11.613536 0.693929 2.537072 -0.001577 0.005611 472889.000000 1 0 0
-3.503637 -7.213798 -14.092320 16.214434 1.118666 2.624221 0.008199 0.001563 -78392.900000 1 0 0
0.658063 -0.797098 -8.765220 8.825956 -0.880656 3.024210 0.007055 -0.009142 -480338.000000 1 0 0
-7.716537 2.216602 -2.945720 8.551932 -0.279722 1.922450 0.003991 -0.000639 -83847.500000 1 0 0
-2.292137 7.591802 -12.538620 14.835982 -1.277577 2.577641 0.000271 -0.000362 -37121.300000 1 0 0
-9.687537 8.988902 7.593180 15.241559 -0.748008 1.049287 -0.001376 -0.006735 -92703.200000 1 0 0
-10.628637 -3.069498 -14.348020 18.117821 0.281146 2.484757 0.009371 0.004319 -325260.000000 1 0 0
-3.257537 4.807802 7.961980 9.854929 -0.975295 0.630185 -0.002067 -0.000007 -118369.000000 1 0 0
8.667663 -2.427398 -3.586720 9.689438 -0.273057 1.949986 -0.000756 0.001121 -5320590.000000 1 0 0
1.887663 -8.400298 -1.132720 8.683970 -1.349754 1.701607 0.000905 0.000527 -1291730.000000 1 0 0
-13.602937 -2.839998 4.941980 14.748853 0.205822 1.229111 -0.002781 -0.005547 367684.000000 1 0 0
7.087363 2.615402 -2.040120 7.825160 0.353521 1.834557 -0.002330 0.000857 308419.000000 1 0 0
-11.080937 4.496402 8.803180 14.849269 -0.385478 0.936221 0.000359 -0.004048 -3085870.000000 1 0 0
-1.725237 -2.479398 7.930780 8.486526 0.962875 0.363904 0.004276 -0.000880 -1150010.000000 1 0 0
3.238263 11.907202 -9.865420 15.798554 1.305260 2.245225 0.004571 -0.005317 579503.000000 1 0 0
3.674863 -5.005198 -7.053420 9.397200 -0.937478 2.419747 -0.003354 -0.005561 -336633.000000 1 0 0
8.313263 -13.857698 -9.818220 18.908823 -1.030449 2.116758 0.004975 0.002159 -67099.000000 1 0 0
-6.301337 -5.791498 -0.379520 8.566933 0.743263 1.615111 0.008356 -0.001685 -258804.000000 1 0 0
-1.201737 -4.053898 9.876780 10.743791 1.282609 0.404495 0.003134 -0.001404 1334570.000000 1 0 0
2.833963 3.285702 1.844880 4.714951 0.859082 1.168771 -0.006141 0.001496 -1199070.000000 1 0 0
-9.118337 13.383602 7.845280 17.994813 -0.972727 1.119676 0.006673 -0.014619 38504.000000 1 0 0
3.866563 -11.147098 -0.053020 11.798768 -1.236915 1.575290 0.000175 -0.003536 90097.500000 1 0 0
-12.511537 -1.391298 -9.089320 15.527074 0.110746 2.196152 0.005313 -0.003335 297980.000000 1 0 0
-4.269137 0.951002 -13.531620 14.220924 -0.219183 2.828966 0.005457 -0.002653 1048970.000000 1 0 0
3.891263 -3.024898 4.917880 6.962577 -0.660781 0.786496 0.000319 0.001622 -121936.000000 1 0 0
1.644263 -1.241598 1.019280 2.298716 -0.646763 1.111394 0.002175 0.001945 221130.000000 1 0 0
8.087863 -9.017998 7.324380 14.155718 -0.839720 1.026969 0.006583 -0.003591 -1467760.000000 1 0 0
-0.039937 2.298302 -6.259720 6.668425 -1.553421 2.789667 0.005467 -0.005924 -162259.000000 1 0 0
-3.799437 -9.744198 -3.291820 10.964543 1.199012 1.875724 0.006528 0.001965 826823.000000 1 0 0
-9.499837 2.381402 -5.390420 11.179205 -0.245617 2.073941 0.004274 -0.000463 -1544620.000000 1 0 0
8.950863 -7.573698 5.270780 12.855348 -0.702250 1.148335 0.004540 -0.003130 1943210.000000 1 0 0
-5.533437 -4.345398 4.700780 8.461604 0.665712 0.981781 0.005348 -0.002630 -348704.000000 1 0 0
-0.203137 -12.436498 10.529380 16.296490 1.554464 0.868315 0.016985 0.002747 -857049.000000 1 0 0
-14.155937 -8.231198 3.184680 16.681888 0.526680 1.378711 -0.013964 -0.003014 -1037210.000000 1 0 0
10.931263 -1.461098 -3.608820 11.603917 -0.132875 1.887042 0.009417 -0.000214 39844.100000 1 0 0
-13.563437 2.979102 2.746880 14.155820 -0.216209 1.375511 -0.005351 0.001542 -1649650.000000 1 0 0
-6.233137 6.102702 1.157980 8.799766 -0.774825 1.438821 0.000070 0.000272 1147270.000000 1 0 0
7.157963 -7.037598 -0.454320 10.048414 -0.776919 1.616025 0.002060 -0.003224 810627.000000 1 0 0
-6.886937 7.887902 10.062780 14.522687 -0.853043 0.805292 0.001241 -0.002372 137748.000000 1 0 0
-12.597937 -4.932698 -1.868520 13.657632 0.373199 1.708038 -0.000946 -0.001746 -1839640.000000 1 0 0
-9.441137 -5.614598 0.227280 10.986831 0.536510 1.550108 0.002583 -0.000723 -728447.000000 1 0 0
-1.695937 1.853102 2.218380 3.351328 -0.829653 0.847392 0.001487 -0.001055 -483930.000000 1 0 0
-7.007237 7.459202 7.518180 12.698980 -0.816630 0.937221 0.001160 -0.002870 -480376.000000 1 0 0
5.559163 7.141602 -0.468520 9.062355 0.909353 1.622519 0.002818 -0.003015 -1497830.000000 1 0 0
-0.023037 -4.144698 7.534280 8.599094 1.565238 0.502936 0.003604 -0.000753 -101584.000000 1 0 0
6.422663 0.640802 13.072980 14.579575 0.099443 0.458621 0.009762 -0.002185 696571.000000 1 0 0
5.684563 6.153002 -7.856520 11.484711 0.824950 2.324145 -0.002807 0.000794 -16296.300000 1 0 0
10.055863 5.271102 9.006680 14.492245 0.482806 0.900162 0.004850 0.000651 -2043440.000000 1 0 0
-1.120337 -4.985298 -8.500720 9.918195 1.349741 2.600378 0.012273 -0.005329 937280.000000 1 0 0
10.023563 -3.587698 -7.892320 13.252626 -0.343719 2.208720 0.011032 -0.007446 434333.000000 1 0 0
8.307363 -5.549398 1.221980 10.064856 -0.588932 1.449086 0.003076 -0.001976 1174830.000000 1 0 0
15.715463 3.270202 -5.045320 16.826326 0.205160 1.875328 0.006959 0.003134 37317.800000 1 0 0
-6.943537 3.580402 1.124380 7.892795 -0.476085 1.427854 0.001891 -0.002213 795839.000000 1 0 0
-1.661637 4.021202 0.397980 4.369152 -1.178946 1.479581 0.000664 0.000072 -415303.000000 1 0 0
-2.586637 10.034902 7.022680 12.518306 -1.318524 0.975212 -0.004243 0.002115 -538991.000000 1 0 0
5.559763 -5.763798 -8.680420 11.810251 -0.803415 2.396449 -0.002227 -0.005530 -496723.000000 1 0 0
-1.166437 -0.919598 6.328380 6.500356 0.667616 0.230538 0.001665 -0.002517 -43038.100000 1 0 0
-5.606237 5.022902 -7.835820 10.865520 -0.730572 2.376277 0.004440 -0.004588 12049.800000 1 0 0
6.720363 -1.201698 2.516480 7.275989 -0.176944 1.217640 -0.002289 0.002359 -941343.000000 1 0 0
8.709563 7.449102 3.226480 11.906123 0.707551 1.296372 0.003831 -0.000423 -476225.000000 1 0 0
-5.243837 -4.800398 -7.715920 10.491763 0.741278 2.397092 0.013671 -0.007535 940169.000000 1 0 0
-2.083637 7.936402 -10.035520 12.963012 -1.314049 2.456192 0.001383 -0.001036 218257.000000 1 0 0
-2.883337 -2.335298 1.719180 4.089356 0.680766 1.136906 0.000736 0.001845 -1260910.000000 1 0 0
5.975063 -2.062498 -9.202820 11.164550 -0.332378 2.539742 -0.003114 -0.003521 1014410.000000 1 0 0
1.055163 -7.623398 5.182180 9.278176 -1.433259 0.978179 0.000470 0.000571 422651.000000 1 0 0
1.702963 11.599602 1.114680 11.776814 1.425026 1.476004 0.002715 -0.001640 19710.400000 1 0 0
-1.108937 6.996002 2.552680 7.529273 -1.413594 1.224906 -0.003542 -0.000095 399759.000000 1 0 0
8.713063 7.858302 -6.674720 13.498973 0.733863 2.088011 0.008118 -0.005982 242119.000000 1 0 0
3.756663 -11.018698 5.456680 12.856888 -1.242220 1.132479 0.001849 0.001293 1237670.000000 1 0 0
7.989163 -7.120298 12.332180 16.328136 -0.727957 0.714728 0.011707 -0.000357 473833.000000 1 0 0
-8.590337 0.066402 -3.994920 9.474054 -0.007730 2.006082 0.006219 -0.000274 -222746.000000 1 0 0
-3.308937 -4.999598 11.237280 12.736620 0.986142 0.490110 0.012453 -0.003406 521533.000000 1 0 0
-8.179737 0.212202 -11.546420 14.151783 -0.025937 2.525078 0.006499 -0.003898 -1755990.000000 1 0 0
1.368463 -5.043198 5.352580 7.480417 -1.305828 0.773392 0.002198 0.001048 -266413.000000 1 0 0
6.743063 3.820602 -7.519220 10.798359 0.515497 2.341067 -0.002590 0.000386 -284597.000000 1 0 0
16.287063 4.133702 -1.234620 16.848744 0.248555 1.644139 -0.002318 0.005899 -1559370.000000 1 0 0
7.849163 7.572302 -0.111120 10.906945 0.767447 1.580985 0.005587 -0.004275 -1636590.000000 1 0 0
5.507463 -10.379998 13.910980 18.209664 -1.082982 0.701409 0.002767 0.007001 886193.000000 1 0 0
-5.330037 -9.369298 9.076080 14.091425 1.053571 0.870969 0.011055 -0.001910 424978.000000 1 0 0
-12.746837 -3.195198 2.776480 13.431307 0.245605 1.362578 -0.003306 -0.003974 60212.000000 1 0 0
-2.067837 -1.386898 -5.863020 6.369807 0.590790 2.739999 0.010099 -0.007022 -654275.000000 1 0 0
-2.531337 12.993202 -4.390820 13.946694 -1.378386 1.891073 0.000218 0.002706 311636.000000 1 0 0
4.021163 -0.465698 -5.004320 6.436602 -0.115298 2.461443 -0.003112 -0.001531 -365864.000000 1 0 0
-8.913337 3.823802 -7.401520 12.200473 -0.405252 2.222647 0.004649 -0.001668 289806.000000 1 0 0
-4.508337 8.065502 -11.207620 14.525432 -1.061096 2.452127 0.002495 -0.000147 -2030260.000000 1 0 0
-10.188337 -6.386898 7.419380 14.129469 0.559952 1.017964 0.005444 -0.000976 -2279120.000000 1 0 0
8.125263 5.216302 4.104780 10.491850 0.570721 1.168823 -0.002696 0.001164 -2943320.000000 1 0 0
-6.743737 -7.562398 4.060780 10.915942 0.842560 1.189629 0.010197 -0.000980 -858793.000000 1 0 0
-4.109237 11.830202 8.198980 14.968727 -1.236483 0.991135 0.001167 -0.001141 -135379.000000 1 0 0
-7.271037 10.017602 -7.969420 14.721820 -0.942947 2.142819 0.004060 -0.004091 -1370450.000000 1 0 0
13.070163 5.513602 4.558580 14.899987 0.399197 1.259865 0.004805 -0.004198 507208.000000 1 0 0
5.426163 3.881902 -3.692520 7.625425 0.620990 2.076288 0.000452 0.001295 316649.000000 1 0 0
-2.871437 -4.340298 5.274980 7.410044 0.986326 0.778641 0.005956 -0.000256 -1737370.000000 1 0 0
12.339163 -2.465398 -5.220120 13.622877 -0.197206 1.964041 0.012796 -0.002584 -1470300.000000 1 0 0
-5.233137 9.708002 7.043380 13.085879 -1.076396 1.002446 0.000123 0.001399 638440.000000 1 0 0
1.760063 3.810302 -0.473520 4.223795 1.138072 1.683140 -0.003375 -0.000651 325133.000000 1 0 0
-0.099837 9.639502 7.715980 12.347725 -1.560440 0.895805 -0.007845 0.001616 -1288910.000000 1 0 0
-5.483537 2.017402 5.862980 8.277296 -0.352533 0.783680 0.000535 -0.001334 792445.000000 1 0 0
8.857863 0.899202 10.654280 13.884667 0.101168 0.696112 0.010845 -0.001269 -2006490.000000 1 0 0
0.404363 -2.877098 -10.185120 10.591406 -1.431166 2.863716 0.006013 -0.005920 -2694760.000000 1 0 0
1.143163 10.592902 -2.809720 11.018662 1.463295 1.828640 0.004244 -0.004296 -330821.000000 1 0 0
2.218863 -4.478098 11.640280 12.667787 -1.110761 0.405543 0.005301 -0.003779 -1079530.000000 1 0 0
6.471063 -3.048198 9.452580 11.854005 -0.440221 0.647795 0.007326 -0.003164 392243.000000 1 0 0
-10.691837 -8.114498 5.706080 14.584917 0.649200 1.168827 0.003681 -0.000875 -1698770.000000 1 0 0
-2.996737 0.761502 -6.917020 7.576641 -0.248843 2.721228 0.012794 -0.007103 758189.000000 1 0 0
11.004163 2.536002 -5.184820 12.425991 0.226504 2.001220 0.006824 0.001621 -2653830.000000 1 0 0
-2.027237 -4.098698 0.069680 4.573169 1.111474 1.555559 0.002604 -0.000320 1331040.000000 1 0 0
-1.201137 -6.444498 -10.644520 12.501204 1.386529 2.589597 0.008287 -0.002655 1050800.000000 1 0 0
0.280463 6.897602 -6.571320 9.530888 1.530158 2.331562 0.003935 -0.002481 -2660520.000000 1 0 0
2.020963 3.843202 -6.151820 7.529899 1.086680 2.526961 -0.000069 -0.001966 -1757650.000000 1 0 0
1.547163 -14.813898 6.366180 16.197948 -1.466734 1.166879 0.013613 -0.000641 -267906.000000 1 0 0
-1.796437 5.385002 -10.479920 11.918648 -1.248806 2.645161 0.006547 -0.001184 94249.200000 1 0 0
13.613463 4.326002 -0.787020 14.305945 0.307682 1.625838 0.008178 0.001101 -134829.000000 1 0 0
-2.297837 3.323102 -6.332020 7.511161 -0.965816 2.573660 0.010501 -0.007077 -1309560.000000 1 0 0
5.723163 7.829602 14.088280 17.103709 0.939590 0.602895 0.002017 0.007373 295491.000000 1 0 0
15.801363 0.713202 -5.642520 16.793741 0.045105 1.913452 0.004165 -0.003642 -7598.150000 1 0 0
6.162063 -8.291298 10.609280 14.807885 -0.931664 0.772079 -0.000974 0.003664 1238060.000000 1 0 0
0.160363 -5.884098 -6.436420 8.722146 -1.543550 2.400809 0.002436 -0.002433 -899698.000000 1 0 0
8.779863 5.563302 -7.618420 12.887073 0.564791 2.203302 -0.000666 0.000550 34225.500000 1 0 0
-16.071237 -0.769998 5.418980 16.977718 0.047875 1.245930 -0.003970 -0.003799 -177204.000000 1 0 0
-0.282537 4.065202 -12.258620 12.918184 -1.501406 2.820664 0.007584 -0.002592 832383.000000 1 0 0
-11.281237 3.666802 5.886680 13.242536 -0.314264 1.110149 0.000240 -0.004265 314188.000000 1 0 0
5.169763 -9.749498 -9.588520 14.619127 -1.083235 2.286156 -0.007193 -0.000458 -513889.000000 1 0 0
1.489163 11.321402 -11.504820 16.209646 1.440012 2.359942 0.000260 -0.000689 -1842630.000000 1 0 0
5.985763 2.377002 1.187780 6.549069 0.378012 1.388421 -0.001935 0.002524 -404322.000000 1 0 0
5.802363 4.493702 4.895680 8.822043 0.658973 0.982509 -0.002012 0.001146 -540250.000000 1 0 0
0.468363 -1.492598 -6.392520 6.581150 -1.266737 2.901593 0.003085 -0.003183 -354547.000000 1 0 0
12.770663 6.973002 -4.536920 15.241267 0.499780 1.873051 0.011387 -0.003257 53460.600000 1 0 0
7.457663 3.090902 12.836880 15.164296 0.392909 0.561382 0.006553 0.003859 -819763.000000 1 0 0
-2.486637 -0.286398 8.731780 9.083467 0.114670 0.279176 0.002001 -0.001826 633098.000000 1 0 0
2.296463 -15.410298 13.078480 20.342017 -1.422864 0.872480 0.020184 -0.000276 52110.500000 1 0 0
18.902763 4.584502 -1.446120 19.504444 0.237937 1.645008 0.008128 -0.001991 1217030.000000 1 0 0
-0.368237 -13.226098 7.119580 15.025102 1.542962 1.077144 0.011128 0.001933 -2240260.000000 1 0 0
4.394063 1.674602 -0.582420 4.738279 0.364113 1.694026 -0.002005 -0.000968 278967.000000 1 0 0
2.768763 -0.404398 -7.385420 7.897722 -0.145032 2.779430 -0.001273 -0.003084 322074.000000 1 0 0
7.125363 -11.387898 0.872580 13.461665 -1.011697 1.505931 -0.000715 -0.002964 470046.000000 1 0 0
-11.972137 -7.396398 1.329780 14.135314 0.553406 1.476582 -0.003079 0.001691 -62988.400000 1 0 0
0.146563 -7.001598 9.979880 12.191877 -1.549867 0.611883 0.001433 -0.000697 -941843.000000 1 0 0
-4.683137 -7.195998 10.623780 13.659387 0.993861 0.679696 0.014497 -0.000635 -1155910.000000 1 0 0
11.749663 0.718502 -1.740120 11.899531 0.061075 1.717557 0.007075 -0.001329 1414170.000000 1 0 0
6.526963 -9.665998 -7.387420 13.806040 -0.976875 2.135406 -0.004215 -0.003329 -584405.000000 1 0 0
-10.964437 4.927002 3.578980 12.542062 -0.422323 1.281416 -0.003950 -0.002121 -534851.000000 1 0 0
5.975363 -9.155398 1.983580 11.111294 -0.992553 1.391315 -0.000026 -0.003288 4490750.000000 1 0 0
11.690963 -1.373998 5.795080 13.120573 -0.116990 1.113327 0.011498 -0.010019 -533164.000000 1 0 0
-6.541637 3.529202 4.220780 8.547705 -0.494745 1.054352 -0.001541 -0.002303 -540939.000000 1 0 0
9.524763 6.322202 -3.250220 11.885086 0.585991 1.847796 0.007933 0.000566 413105.000000 1 0 0
-2.288137 6.575502 10.890180 12.925510 -1.235923 0.568826 -0.003776 -0.000501 369197.000000 1 0 0
1.880663 9.817002 2.978580 10.429878 1.381518 1.281183 -0.003825 -0.001720 -286251.000000 1 0 0
2.784363 6.075902 -5.587320 8.711338 1.141092 2.267098 0.000478 -0.001408 -2235900.000000 1 0 0
11.946263 0.007302 -5.653520 13.216487 0.000611 2.012812 0.013224 -0.001771 235099.000000 1 0 0
-2.721137 -12.503298 6.258280 14.244407 1.356504 1.115921 0.010754 0.001123 400167.000000 1 0 0
10.839963 1.781402 -2.740920 11.322139 0.162881 1.815311 0.005365 0.001450 161530.000000 1 0 0
-8.886137 5.381002 0.822880 10.420928 -0.544490 1.491750 0.001271 0.000098 815764.000000 1 0 0
1.172563 -10.169298 5.546680 11.642817 -1.455999 1.074237 0.001906 -0.000616 113735.000000 1 0 0
9.403363 -5.848698 -1.237320 11.142776 -0.556424 1.682068 0.007759 -0.002692 360265.000000 1 0 0
-7.792537 8.546402 -4.428620 12.384559 -0.831505 1.936485 -0.000391 -0.001116 -42342.000000 1 0 0
-7.438937 -0.054098 -1.651120 7.620165 0.007272 1.789206 0.003786 -0.000321 -2317990.000000 1 0 0
4.107263 8.752602 2.700080 10.038330 1.132040 1.298466 0.002640 -0.003176 -1080790.000000 1 0 0
-1.269537 -10.521098 -3.755720 11.243250 1.450711 1.911385 0.003077 0.002713 532115.000000 1 0 0
3.157663 7.751602 -3.731320 9.164110 1.183965 1.990146 0.005645 -0.005768 -313367.000000 1 0 0
-4.264437 1.556402 -11.038120 11.935155 -0.349950 2.751414 0.006832 -0.005242 -22103.500000 1 0 0
1.189563 2.775002 10.955080 11.363515 1.165821 0.268924 0.001562 -0.001128 690708.000000 1 0 0
2.063563 5.551302 -7.982120 9.939290 1.214899 2.503255 0.002808 -0.000976 551765.000000 1 0 0
15.562863 5.977702 4.035480 17.152863 0.366725 1.333304 0.019194 -0.010688 -12399.800000 1 0 0
-4.452637 9.071702 4.655380 11.126289 -1.114514 1.139099 -0.002467 0.000252 81263.200000 1 0 0
-1.058337 -8.122498 -12.409020 14.868720 1.441229 2.558152 0.007240 0.000440 -971999.000000 1 0 0
14.286263 -4.212098 -5.250320 15.792559 -0.286712 1.909702 0.013457 -0.002489 1011490.000000 1 0 0
-6.061937 -6.227898 -5.626420 10.353280 0.798901 2.145330 0.013100 -0.003112 559930.000000 1 0 0
-8.919737 2.681802 -12.068820 15.245006 -0.292062 2.484313 0.006540 -0.003932 193430.000000 1 0 0
10.475363 5.257602 13.837480 18.134261 0.465168 0.702766 0.006227 0.013540 590291.000000 1 0 0
-0.431037 10.875202 5.517480 12.202393 -1.531182 1.101607 -0.004016 0.002891 318036.000000 1 0 0
0.294863 11.201102 -0.617520 11.221985 1.544478 1.625852 0.000881 -0.003274 -465868.000000 1 0 0
-1.499137 -0.602798 3.756980 4.089703 0.382313 0.406163 0.002176 -0.000020 -179028.000000 1 0 0
-4.810837 6.915302 8.822480 12.198430 -0.962976 0.762304 -0.000365 0.000475 -1097740.000000 1 0 0
3.491463 -8.714798 -11.294820 14.687103 -1.189742 2.448118 -0.007360 0.000727 585789.000000 1 0 0
6.700963 -3.758498 12.056880 14.296767 -0.511165 0.567348 0.012680 -0.002859 -279491.000000 1 0 0
-2.509637 -1.828698 -12.460320 12.841417 0.629710 2.897359 0.008734 -0.007022 950246.000000 1 0 0
-16.130137 -4.813098 5.285880 17.643349 0.289981 1.266527 -0.005246 -0.007936 410804.000000 1 0 0
-8.936337 7.347402 5.824980 12.952715 -0.688128 1.104354 -0.003169 -0.001386 -3811150.000000 1 0 0
-12.944737 1.595002 6.032980 14.370355 -0.122598 1.137548 -0.001515 -0.006024 544966.000000 1 0 0
-3.443537 3.548802 10.161680 11.300959 -0.800451 0.452888 -0.002292 0.001876 500669.000000 1 0 0
2.005763 -12.408798 -1.227220 12.629625 -1.410542 1.668120 -0.000904 -0.003203 -3290420.000000 1 0 0
10.192463 -5.205398 -3.660820 12.015992 -0.472179 1.880380 0.012589 -0.001054 1033970.000000 1 0 0
2.998463 -13.443998 0.958380 13.807619 -1.351354 1.501331 -0.001685 -0.004347 442171.000000 1 0 0
10.004663 -1.612798 -6.162520 11.860483 -0.159830 2.117161 0.008291 -0.001388 346441.000000 1 0 0
11.912563 -5.400898 -1.622420 13.179951 -0.425660 1.694207 0.014491 -0.003216 -1073750.000000 1 0 0
1.380563 0.949502 5.893080 6.126654 0.602467 0.277017 0.000918 -0.001438 341341.000000 1 0 0
-10.829337 11.773302 6.678180 17.334453 -0.827137 1.175313 -0.000681 -0.004199 -19799.500000 1 0 0
4.760063 -14.052198 2.915080 15.120190 -1.244186 1.376788 0.002125 -0.005401 -4013500.000000 1 0 0
5.269963 -3.472798 -1.755620 6.550957 -0.582662 1.842107 0.000761 -0.001228 -1417800.000000 1 0 0
2.034663 -2.947798 -7.720620 8.511013 -0.966657 2.707217 -0.000371 -0.003410 -629331.000000 1 0 0
-2.765737 14.925802 -8.939120 17.616377 -1.387575 2.102999 0.009954 0.004157 -1892130.000000 1 0 0
-2.371737 6.074202 -8.128720 10.420996 -1.198540 2.465515 0.007830 -0.003378 -855992.000000 1 0 0
2.582963 -3.575498 -11.378820 12.203829 -0.945190 2.771787 -0.000924 -0.001628 -986732.000000 1 0 0
14.487763 2.779302 -2.725320 15.001572 0.189535 1.753480 0.005288 0.002043 828834.000000 1 0 0
-3.408137 13.015102 2.275380 13.644985 -1.314687 1.403258 -0.009840 0.003751 282323.000000 1 0 0
7.900063 -4.980898 14.027780 16.852268 -0.562536 0.587377 0.019053 -0.002690 -1067210.000000 1 0 0
-11.402237 7.304002 2.973180 13.863595 -0.569722 1.354658 -0.004596 0.000159 622236.000000 1 0 0
-2.272937 11.899302 4.118480 12.795370 -1.382056 1.243090 -0.008288 0.002031 127306.000000 1 0 0
1.814263 1.455102 0.748380 2.443142 0.675980 1.259473 -0.004413 0.001426 -1036830.000000 1 0 0
-6.907237 8.724402 5.300980 12.325806 -0.901128 1.126224 -0.004227 -0.002544 -826389.000000 1 0 0
-1.158537 9.138502 1.048880 9.271169 -1.444694 1.457420 -0.004317 0.000225 96714.600000 1 0 0
5.109163 13.168802 -8.630820 16.553306 1.200699 2.119282 0.010712 -0.006476 -1914710.000000 1 0 0
8.908463 6.907302 7.097180 13.320716 0.659537 1.008899 -0.002000 0.001235 -1999680.000000 1 0 0
7.237463 -13.700798 2.894380 15.762937 -1.084804 1.386129 0.007559 -0.006372 211937.000000 1 0 0
4.172563 -13.434898 -1.291020 14.127049 -1.269665 1.662310 -0.003065 -0.000992 -3740500.000000 1 0 0
12.143063 -11.946398 -4.623620 17.650730 -0.777234 1.835839 0.020038 -0.002319 -738605.000000 1 0 0
2.820363 0.031802 -1.912220 3.407645 0.011275 2.166578 -0.000436 -0.001799 1696030.000000 1 0 0
-13.586937 -3.171998 -10.664220 17.561094 0.229351 2.223409 0.000856 -0.001736 148080.000000 1 0 0
-6.567737 13.698902 5.014080 15.998002 -1.123735 1.252005 0.001585 -0.001818 535766.000000 1 0 0
7.268563 -4.470298 -0.768720 8.567759 -0.551389 1.660640 -0.000441 -0.000931 -2507830.000000 1 0 0
11.745863 2.014502 -7.367820 14.011006 0.169855 2.124522 0.012200 -0.000772 -714620.000000 1 0 0
-7.593537 -4.657098 9.861480 13.289061 0.550140 0.734636 0.008341 -0.001758 345359.000000 1 0 0
0.998963 2.795902 8.397280 8.906700 1.227637 0.339849 0.000109 0.000135 -1654520.000000 1 0 0
1.540463 8.049702 -8.695720 11.949321 1.381714 2.385783 0.004599 -0.002622 153445.000000 1 0 0
-8.614237 -1.976998 -5.636320 10.482448 0.225597 2.138493 0.009320 -0.001708 -75198.600000 1 0 0
6.756163 -0.511298 7.122680 9.830550 -0.075535 0.760422 0.004669 -0.001055 -189090.000000 1 0 0
-10.831037 6.646502 7.235080 14.623055 -0.550398 1.053224 -0.001139 -0.003448 20204.300000 1 0 0
-5.926837 11.182602 5.055280 13.628420 -1.083434 1.190779 -0.004429 0.000722 -245366.000000 1 0 0
6.111663 -1.233298 -6.909420 9.306639 -0.199120 2.407469 -0.003349 -0.001244 -907787.000000 1 0 0
4.471563 -5.734698 11.455380 13.568617 -0.908533 0.565622 0.004811 -0.001606 -1251080.000000 1 0 0
-9.020237 -7.423198 2.690080 11.987706 0.688579 1.344466 0.005425 0.000876 -788257.000000 1 0 0
-1.355137 12.728802 -9.326520 15.838017 -1.464734 2.200455 0.014317 0.000339 205198.000000 1 0 0
-4.724937 9.272102 -2.305520 10.658909 -1.099509 1.788819 -0.004950 -0.000475 804703.000000 1 0 0
-3.306737 9.654902 -0.200320 10.207437 -1.240825 1.590423 -0.004106 -0.001207 -1419040.000000 1 0 0
-3.462237 10.698302 -6.387820 12.932324 -1.257809 2.087414 0.000124 0.002110 1198590.000000 1 0 0
4.912263 -4.935398 0.292380 6.969502 -0.787748 1.528833 0.000697 0.000420 -2069900.000000 1 0 0
-2.157237 2.953702 -10.997120 11.589421 -0.939990 2.820506 0.009216 -0.004170 -1008690.000000 1 0 0
-3.638637 11.995802 -2.232520 12.732757 -1.276291 1.747044 -0.006387 0.003639 -847335.000000 1 0 0
-0.167937 0.343102 -0.071620 0.388653 -1.115610 1.756134 -0.003849 0.000570 -2350150.000000 1 0 0
-4.837437 -1.775798 0.159680 5.155556 0.351822 1.539819 0.001693 0.000176 185703.000000 1 0 0
2.673663 2.580102 -2.418720 4.433464 0.767592 2.147853 -0.009333 -0.001445 400733.000000 1 0 0
6.008163 -9.678198 8.435080 14.174488 -1.015228 0.933420 -0.000750 0.002863 -1072990.000000 1 0 0
-4.280137 -5.562698 6.686580 9.693995 0.914972 0.809632 0.008981 -0.002392 -74985.600000 1 0 0
-6.171937 5.433202 -11.973420 14.524988 -0.721828 2.539818 0.003391 -0.004401 1358300.000000 1 0 0
-12.965337 3.118402 8.020780 15.561405 -0.236035 1.029290 0.002048 -0.006870 827142.000000 1 0 0
4.748663 -7.560298 -4.949920 10.208311 -1.009967 2.077035 -0.004962 -0.004837 123574.000000 1 0 0
-5.906937 2.466402 -1.133520 6.500763 -0.395538 1.746060 0.002881 -0.001436 -591413.000000 1 0 0
-6.901537 -2.718398 -14.556720 16.337656 0.375222 2.670322 0.007173 0.003129 -699453.000000 1 0 0
2.806163 -6.168398 0.909780 6.837498 -1.143854 1.437343 0.000379 0.000924 559655.000000 1 0 0
4.897663 -7.861498 13.039280 15.994157 -1.013641 0.617631 0.001947 0.003444 172432.000000 1 0 0
-10.049837 -1.617398 7.967680 12.926683 0.159569 0.906666 0.008905 -0.001493 -441434.000000 1 0 0
-4.424637 13.289702 -0.084620 14.007168 -1.249402 1.576838 -0.011006 0.005874 217269.000000 1 0 0
6.753163 2.124302 -4.559220 8.420472 0.304764 2.142951 -0.003651 0.003740 -1504400.000000 1 0 0
4.918563 4.492602 0.099480 6.662254 0.740168 1.555864 -0.003068 0.001042 -1152850.000000 1 0 0
-5.815637 12.305102 1.897680 13.741847 -1.129292 1.432259 -0.010581 0.002691 1040080.000000 1 0 0
6.534563 -7.292498 6.484280 11.744229 -0.840159 0.985886 -0.000199 0.000034 -2397630.000000 1 0 0
-0.309337 4.893902 7.764780 9.183560 -1.507672 0.563279 -0.004608 0.000228 -690282.000000 1 0 0
-5.804637 -3.479898 -1.499120 6.931873 0.540054 1.788783 0.008068 -0.001995 -1114870.000000 1 0 0
2.409163 -6.546698 -5.251520 8.731654 -1.218180 2.216092 -0.002561 -0.001955 -999639.000000 1 0 0
-14.432037 -4.859698 -3.753620 15.684070 0.324804 1.812469 0.001051 -0.002838 -448636.000000 1 0 0
-12.310137 -5.178798 -6.395820 14.807632 0.398218 2.017425 0.006125 -0.004663 -1046340.000000 1 0 0
-14.917637 -3.827398 -1.304220 15.455933 0.251151 1.655280 0.005388 -0.002949 -26915.700000 1 0 0
11.879563 2.898502 8.666580 14.987826 0.239315 0.954225 0.013672 -0.004717 -1071240.000000 1 0 0
8.688363 -6.517798 7.696780 13.312015 -0.643614 0.954296 0.009259 -0.003387 52311.900000 1 0 0
-8.882637 -1.643398 -9.751420 13.292562 0.182944 2.394400 0.011317 -0.004997 178172.000000 1 0 0
-8.908837 5.109002 -3.860720 10.971529 -0.520688 1.930381 0.006137 -0.001492 -775915.000000 1 0 0
-4.112637 -6.342198 4.208880 8.651701 0.995507 1.062740 0.011479 -0.002707 -952553.000000 1 0 0
-0.251337 -9.230998 3.571180 9.900900 1.543576 1.201786 0.003241 -0.000865 -150479.000000 1 0 0
7.955663 -10.634298 3.185480 13.657531 -0.928504 1.335388 0.000615 -0.003789 -116665.000000 1 0 0
0.049463 6.414902 9.622380 11.564757 1.563086 0.588015 -0.008218 -0.000226 186380.000000 1 0 0
0.002363 3.508402 -9.694120 10.309455 1.570123 2.794347 0.009700 -0.004003 1294740.000000 1 0 0
4.395363 -3.173698 11.151380 12.399389 -0.625376 0.452518 0.007217 -0.004803 -1532200.000000 1 0 0
8.566263 -9.312998 1.160680 12.706690 -0.827139 1.479325 0.003810 -0.003862 -1497970.000000 1 0 0
-0.255737 -0.456898 11.455380 11.467340 1.060517 0.045676 0.005799 -0.002923 -1909900.000000 1 0 0
10.849163 6.011702 11.407380 16.851504 0.505998 0.827205 0.015768 0.004974 -206933.000000 1 0 0
-6.335937 -2.960698 -11.839820 13.751043 0.437136 2.608054 0.012410 -0.005590 -163543.000000 1 0 0
-1.653237 2.784802 8.331280 8.938598 -1.035048 0.370748 -0.001296 0.000792 -843614.000000 1 0 0
-1.768037 13.512902 -6.897620 15.274215 -1.440695 2.039338 0.008580 0.000392 356043.000000 1 0 0
7.749363 3.111202 9.750380 12.837527 0.381780 0.708219 0.002300 0.002315 397417.000000 1 0 0
6.435063 8.461302 -8.042820 13.330064 0.920591 2.218503 0.009274 -0.004919 917192.000000 1 0 0
6.627963 -3.069698 -3.938820 8.298629 -0.433730 2.065346 0.000044 -0.002128 -2093670.000000 1 0 0
2.009363 8.236602 0.936080 8.529677 1.331515 1.460831 -0.001248 -0.001077 1062490.000000 1 0 0
-17.577837 6.469102 6.340880 19.774640 -0.352643 1.244373 0.008064 -0.007132 -1188310.000000 1 0 0
-14.586037 3.176302 -10.170120 18.063021 -0.214416 2.168850 0.015790 -0.005489 -365924.000000 1 0 0
-18.304137 0.123502 -4.332320 18.810255 -0.006747 1.803200 0.013218 -0.004988 401957.000000 1 0 0
-13.066037 7.925302 0.174280 15.282739 -0.545227 1.559392 0.002953 0.002039 -679061.000000 1 0 0
-12.920437 -4.080698 -13.014620 18.787500 0.305918 2.336061 0.014777 0.010841 -879346.000000 1 0 0
-17.322737 -0.688598 -8.833420 19.457151 0.039730 2.042039 0.002727 -0.009338 -114907.000000 1 0 0
-16.608637 -2.082898 -2.229220 16.886525 0.124759 1.703195 -0.001689 -0.003743 -1178170.000000 1 0 0
-15.262937 4.079802 1.799980 15.901005 -0.261195 1.457354 -0.002169 0.002774 -2098030.000000 1 0 0
-13.026337 5.977102 4.546280 15.035953 -0.430187 1.263628 -0.003014 -0.001938 212096.000000 1 0 0
-9.963437 14.231802 2.870580 17.608364 -0.960015 1.407042 0.011632 -0.002882 -21737.000000 1 0 0
-11.827437 2.494602 -6.453520 13.702527 -0.207870 2.061190 0.003358 0.002482 159759.000000 1 0 0
-15.827637 10.805202 3.690380 19.516285 -0.599007 1.380559 0.008076 -0.009742 -657410.000000 1 0 0
-12.839137 1.143902 -8.590120 15.490066 -0.088860 2.158627 0.005504 -0.002399 635683.000000 1 0 0
-12.299037 14.411902 4.084980 19.381855 -0.864335 1.358441 0.011035 -0.010740 728230.000000 1 0 0
-10.312037 11.173402 -0.958320 15.234875 -0.825467 1.633741 0.004372 -0.002113 566496.000000 1 0 0
-16.869037 5.787202 8.761280 19.869981 -0.330485 1.114161 0.002363 -0.011185 -228421.000000 1 0 0
-11.888937 12.704802 -9.100120 19.635962 -0.818560 2.052671 0.028072 -0.009100 -1377750.000000 1 0 0
-17.294037 -0.345698 3.150680 17.582094 0.019987 1.390625 0.005595 -0.005654 748333.000000 1 0 0
-13.001637 14.884702 -0.590620 19.772348 -0.852822 1.600672 0.028364 -0.006841 -37451.900000 1 0 0
-16.738137 4.617602 -10.431120 20.255759 -0.269178 2.111770 0.036053 -0.002268 826983.000000 1 0 0
-12.023837 7.654402 -8.880120 16.793424 -0.566899 2.127965 0.018242 -0.000978 171875.000000 1 0 0
-14.730937 13.483802 -2.058720 20.076149 -0.741225 1.673522 0.045849 -0.009998 259387.000000 1 0 0
-11.831337 10.613602 -5.490820 16.816010 -0.731197 1.903419 0.023419 -0.008126 1337800.000000 1 0 0
-17.615137 2.773802 -0.915220 17.855662 -0.156184 1.622075 0.001571 -0.000113 -141664.000000 1 0 0
-9.458837 15.519102 0.617980 18.184995 -1.023423 1.536807 0.012081 -0.002598 13300.400000 1 0 0
-8.091537 13.190102 -3.750820 15.922325 -1.020542 1.808601 0.000382 -0.001913 -590831.000000 1 0 0
-17.636737 11.644102 2.008480 21.229075 -0.583525 1.476045 0.047431 -0.006214 -157347.000000 1 0 0
-8.119237 15.667902 -7.358220 19.119325 -1.092688 1.965850 0.031330 -0.014009 133591.000000 1 0 0
-6.337137 15.344102 -5.359920 17.445043 -1.179132 1.883094 0.009713 -0.002038 -1108700.000000 1 0 0
-17.185337 5.207402 -0.082720 17.957163 -0.294220 1.575403 0.009865 0.001085 465484.000000 1 0 0
-5.427437 12.440602 -12.375620 18.367951 -1.159420 2.310084 -0.003393 0.004567 -178526.000000 1 0 0
-11.137037 3.804002 -11.345020 16.346667 -0.329139 2.337863 0.008833 -0.007428 362828.000000 1 0 0
-11.599437 11.202302 1.347380 16.181902 -0.767983 1.487435 0.005244 -0.004417 -25264.900000 1 0 0
-12.939237 0.217902 -11.039520 17.010066 -0.016839 2.277065 0.009279 -0.008557 739568.000000 1 0 0
-14.164237 -1.759898 -12.848620 19.204424 0.123616 2.303719 0.011333 -0.008438 85189.300000 1 0 0
-18.757737 -2.371998 -3.686120 19.263088 0.125787 1.763340 0.010583 -0.000900 437165.000000 1 0 0
-18.442937 4.770502 -4.990620 19.692789 -0.253115 1.827014 0.033038 -0.011127 243699.000000 1 0 0
-8.168537 15.357302 -2.250020 17.539507 -1.081956 1.699434 0.006954 -0.004932 -236921.000000 1 0 0
-16.308037 9.246102 -5.264920 19.472079 -0.515776 1.844587 0.044611 -0.001428 -69021.600000 1 0 0
-18.165737 1.721802 2.063980 18.363514 -0.094501 1.458163 0.002494 -0.003583 -292351.000000 1 0 0
-15.682137 -2.692598 -8.593820 18.084061 0.170040 2.066005 -0.007255 -0.006134 -214988.000000 1 0 0
-9.655737 10.540302 -7.150320 15.983063 -0.829169 2.034617 0.010439 -0.013136 806429.000000 1 0 0
-14.031137 12.068302 -7.749920 20.064346 -0.710333 1.967363 0.041621 -0.015474 697242.000000 1 0 0
-11.067137 6.539002 -3.749920 13.390369 -0.533663 1.854638 0.002315 -0.000688 -2262120.000000 1 0 0
-13.077837 5.041602 -12.692820 18.909132 -0.367951 2.306695 0.017882 -0.005045 729649.000000 1 0 0
-17.480937 9.111302 2.493580 19.870001 -0.480474 1.444970 0.018657 -0.014838 779625.000000 1 0 0
-13.485937 8.845102 -6.481720 17.381572 -0.580495 1.952937 0.021944 -0.004282 100969.000000 1 0 0
-15.738537 7.054702 -3.749020 17.650086 -0.421393 1.784835 0.017904 0.000626 -1555960.000000 1 0 0
-14.904837 -0.257198 -9.312620 17.576838 0.017254 2.129189 0.004008 -0.007948 -26594.000000 1 0 0
-10.027037 5.963702 -6.061920 13.147399 -0.536559 2.050001 0.006096 0.000323 513751.000000 1 0 0
-12.682737 12.252502 -0.888220 17.656856 -0.768146 1.621122 0.023944 -0.008998 -254186.000000 1 0 0
-10.522737 3.550402 -13.851320 17.753660 -0.325409 2.465774 0.006653 -0.005272 389396.000000 1 0 0
-10.973437 6.348602 -11.911820 17.395762 -0.524493 2.325063 0.005775 -0.000721 -712982.000000 1 0 0
-5.828237 11.612902 -14.738420 19.648127 -1.105649 2.419037 0.007481 -0.007020 -65160.300000 1 0 0
-15.606837 13.390802 3.406180 20.844400 -0.709125 1.406650 0.014241 -0.012590 481658.000000 1 0 0
-15.022637 11.071002 -3.185320 18.931270 -0.635100 1.739858 0.041243 -0.007064 1021920.000000 1 0 0
-18.139837 7.697802 -4.384220 20.187403 -0.401328 1.789717 0.028168 -0.003816 -630161.000000 1 0 0
-4.010937 16.141802 -10.855020 19.861441 -1.327247 2.149020 0.009212 -0.000007 69384.400000 1 0 0
-15.844737 4.605702 -4.483620 17.098861 -0.282882 1.836116 0.014258 -0.002363 91624.800000 1 0 0
-18.508437 -1.760498 -6.181820 19.592767 0.094833 1.891796 0.000156 -0.003679 232562.000000 1 0 0
-10.833837 8.593902 -5.822720 15.004375 -0.670609 1.969331 0.009278 -0.001976 1115130.000000 1 0 0
-11.225537 13.579702 -6.729420 18.860172 -0.880021 1.935643 0.020691 -0.008320 567598.000000 1 0 0
-9.385737 10.505702 -4.479020 14.782539 -0.841643 1.878629 -0.000965 -0.002445 387290.000000 1 0 0
-11.118037 6.329902 -0.126520 12.794312 -0.517567 1.580685 -0.002454 0.005252 -715956.000000 1 0 0
-14.680437 9.298802 -1.420020 17.435579 -0.564627 1.652330 0.026938 -0.005180 1061580.000000 1 0 0
-18.463937 3.545502 4.656780 19.369387 -0.189714 1.327998 -0.002585 -0.002223 340585.000000 1 0 0
-14.642037 13.209702 0.449680 19.725306 -0.734016 1.547997 0.019802 -0.005942 -207708.000000 1 0 0
-16.825137 2.466302 -9.059120 19.267474 -0.145548 2.060287 0.006108 -0.008151 265422.000000 1 0 0
-9.167537 8.411602 -8.775020 15.224972 -0.742423 2.185060 0.010979 -0.003241 -1417860.000000 1 0 0
-17.602537 4.732802 -2.562720 18.406963 -0.262659 1.710476 0.006664 -0.003350 638734.000000 1 0 0
-13.559437 5.961202 -4.476520 15.473639 -0.414201 1.864292 0.013805 0.001608 -932211.000000 1 0 0
-12.047337 9.738102 3.364280 15.852045 -0.679793 1.356940 -0.005035 -0.000491 -26496.300000 1 0 0
-17.517737 2.553702 -4.035020 18.156925 -0.144758 1.794898 0.009303 -0.001846 913051.000000 1 0 0
-11.306437 1.511102 -12.592920 16.991192 -0.132862 2.405569 0.015492 -0.007282 52585.700000 1 0 0
-11.126837 12.108802 3.727280 16.861857 -0.827634 1.347907 0.001581 -0.002801 98839.600000 1 0 0
-15.978537 13.145102 -4.396320 21.152659 -0.688414 1.780160 0.039025 -0.004907 103031.000000 1 0 0
-11.201437 4.202402 -4.650820 12.835985 -0.358916 1.941559 0.000102 0.000700 -194143.000000 1 0 0
-11.123937 15.082602 -8.953220 20.769858 -0.935321 2.016472 0.033124 -0.014500 503736.000000 1 0 0
-15.556237 7.212302 -0.260620 17.148812 -0.434129 1.585994 0.021056 0.002979 -70409.100000 1 0 0
-12.720037 8.474202 -3.979320 15.793874 -0.587686 1.825495 0.014801 -0.001693 699102.000000 1 0 0
-19.268637 2.005702 -5.926520 20.258995 -0.103718 1.867676 0.023701 -0.008864 1385780.000000 1 0 0
-12.651137 10.180502 -8.779120 18.459871 -0.677607 2.066418 0.024409 -0.013249 484703.000000 1 0 0
-16.646937 11.074102 -0.998620 20.018829 -0.587010 1.620701 0.031881 -0.005244 708234.000000 1 0 0
-10.613737 6.622402 -14.503420 19.153507 -0.557841 2.429843 0.003426 -0.003348 -45147.300000 1 0 0
-13.469437 12.895002 -4.302820 19.136904 -0.763613 1.797579 0.028481 -0.011014 788599.000000 1 0 0
-18.098637 7.710402 -0.237320 19.674026 -0.402735 1.582859 0.042376 -0.003247 24516.100000 1 0 0
-12.777437 6.684702 -2.059520 14.566735 -0.482007 1.712657 0.000387 0.004518 260109.000000 1 0 0
-13.849437 8.624502 -10.491920 19.397663 -0.556967 2.142286 0.021813 -0.007687 -329782.000000 1 0 0
-14.913337 1.335702 -0.936120 15.002268 -0.089326 1.633235 -0.003502 0.002068 -1062750.000000 1 0 0
-13.390037 2.774702 -2.377820 13.879701 -0.204329 1.742962 0.002777 0.000664 -504302.000000 1 0 0
-11.336437 9.261502 -10.863320 18.229151 -0.685002 2.209221 0.021002 -0.005572 256856.000000 1 0 0
-15.543837 4.534502 -8.071620 18.092088 -0.283846 2.033245 0.022986 -0.000785 772860.000000 1 0 0
-18.280337 10.588802 4.399980 21.579001 -0.525019 1.365455 0.039631 -0.025323 77439.100000 1 0 0
-15.455337 6.385902 -6.263220 17.857075 -0.391820 1.929159 0.024501 0.003147 829874.000000 1 0 0
-7.789337 11.298902 -13.093520 18.967847 -0.967227 2.332701 0.004506 0.002101 788724.000000 1 0 0
-16.918537 9.240502 -2.800220 19.479862 -0.499903 1.715046 0.037269 -0.005700 832938.000000 1 0 0
-20.607037 -0.929998 -4.940620 21.211427 0.045100 1.805878 0.019818 -0.007051 431290.000000 1 0 0
-15.330037 4.410302 4.206180 16.497053 -0.280126 1.312984 -0.002387 0.002228 18807.900000 1 0 0
-6.893037 12.539102 -9.398820 17.119605 -1.068166 2.151975 0.009403 -0.007570 -528338.000000 1 0 0
-17.093737 1.641802 5.869280 18.147722 -0.095753 1.241458 -0.005553 -0.005443 -263866.000000 1 0 0
-10.332737 14.180302 -3.165920 17.828894 -0.941088 1.749315 0.018803 -0.009826 -166421.000000 1 0 0
-9.881837 8.484802 -12.838120 18.288245 -0.709481 2.348981 -0.003229 -0.001654 343541.000000 1 0 0
-13.574337 11.894302 2.827980 18.268402 -0.719529 1.415370 0.003743 -0.004186 -969477.000000 1 0 0
-16.864237 6.708902 1.911580 18.250096 -0.378624 1.465860 0.013737 -0.001452 1015390.000000 1 0 0
-9.330437 13.278602 -8.545620 18.341373 -0.958283 2.055471 0.022742 -0.014990 667929.000000 1 0 0
-5.573437 9.861902 -12.879720 17.152478 -1.056397 2.420213 0.001287 0.001929 -504137.000000 1 0 0
-15.803437 1.864902 3.245780 16.240738 -0.117463 1.369587 -0.008971 -0.000495 -811372.000000 1 0 0
-18.777237 -4.663298 4.608680 19.888965 0.243424 1.336950 0.011899 -0.008482 641246.000000 1 0 0
-5.227537 14.550902 -9.175820 17.979198 -1.225897 2.106397 0.004739 0.000715 -290031.000000 1 0 0
-15.405837 -0.741698 -6.830420 16.868449 0.048107 1.987691 0.000711 -0.004577 693185.000000 1 0 0
-9.022537 11.008602 -9.609320 17.173658 -0.884224 2.164625 0.009143 -0.008846 832291.000000 1 0 0
-16.777737 1.250002 -6.103020 17.896978 -0.074366 1.918786 0.001886 -0.005162 -866387.000000 1 0 0
-11.102737 8.681502 -1.435820 14.166892 -0.663622 1.672321 0.001934 -0.001335 -1275820.000000 1 0 0
-10.679737 11.038402 -12.691820 19.924493 -0.801911 2.261391 0.020717 -0.003434 -302619.000000 1 0 0
-13.951237 11.879202 -10.307220 21.023588 -0.705353 2.083195 0.046025 -0.017006 42815.000000 1 0 0
-13.308837 5.769802 -7.645720 16.397342 -0.409075 2.055875 0.014786 0.000337 794222.000000 1 0 0
-8.835837 15.415202 -4.873920 18.424320 -1.050323 1.838520 0.013053 -0.006986 263111.000000 1 0 0
-8.553037 6.204502 -12.959020 16.720840 -0.627580 2.457546 0.004939 -0.002191 535265.000000 1 0 0
-16.318537 7.560002 4.226780 18.474684 -0.433840 1.339964 0.009614 -0.002921 91183.100000 1 0 0
-12.735937 5.510902 -10.197020 17.220725 -0.408379 2.204504 0.011854 -0.002613 521714.000000 1 0 0
-12.323237 9.179302 -13.337920 20.347528 -0.640215 2.285648 0.017169 -0.005166 -1411420.000000 1 0 0
-10.773537 5.247702 -8.475320 14.677825 -0.453268 2.186366 0.005789 0.001722 -278588.000000 1 0 0
-17.699137 -4.334898 -2.518820 18.395523 0.240193 1.708154 -0.003753 -0.001676 384388.000000 1 0 0
-8.759237 13.192002 -11.105220 19.341124 -0.984655 2.182394 0.017712 -0.009563 313556.000000 1 0 0
-15.072537 6.263002 6.084380 17.419135 -0.393817 1.213980 -0.001707 -0.006194 -1688240.000000 1 0 0
-16.286137 -3.166998 -4.440320 17.175116 0.192063 1.832299 -0.006011 -0.001373 -758258.000000 1 0 0
-11.166237 -1.176098 -12.589920 16.869326 0.104939 2.413313 0.006555 -0.001576 904510.000000 1 0 0
-15.446937 7.046402 -8.721920 19.087471 -0.427972 2.045354 0.025673 0.001230 -51302.900000 1 0 0
-14.848737 9.431802 1.121780 17.626749 -0.565895 1.507113 0.013517 -0.007147 -190257.000000 1 0 0
-19.328437 5.444102 7.943580 21.594610 -0.274550 1.194100 0.016994 -0.013538 390457.000000 1 0 0
-16.260937 0.455802 1.041380 16.300623 -0.028023 1.506867 -0.001021 -0.004268 -1255890.000000 1 0 0
-17.418437 3.916802 7.062380 19.199492 -0.221186 1.194109 -0.003193 -0.001389 497057.000000 1 0 0
-15.358337 4.025902 -1.427420 15.941265 -0.256363 1.660459 0.001693 0.002276 -2383840.000000 1 0 0
-10.717237 13.332902 0.425580 17.111592 -0.893731 1.545923 0.011762 -0.010760 -727530.000000 1 0 0
-13.401937 3.461002 0.063180 13.841765 -0.252725 1.566232 0.002099 0.002301 178106.000000 1 0 0
-15.087137 0.208102 -4.359120 15.705634 -0.013792 1.852041 -0.000596 0.000977 -438909.000000 1 0 0
-18.915237 7.165702 3.537680 20.534086 -0.362126 1.397649 0.025288 -0.005772 1596630.000000 1 0 0
-14.106737 1.466002 -6.350520 15.539572 -0.103550 1.991790 0.002506 -0.001482 291360.000000 1 0 0
-14.295237 12.132602 5.308880 19.486868 -0.703748 1.294875 0.004807 -0.016161 87858.500000 1 0 0
17.701163 5.539302 6.155980 19.542546 0.303281 1.250335 0.047890 -0.017555 -375208.000000 1 0 0
18.482763 7.576302 -0.201820 19.976326 0.389022 1.580899 0.012868 0.000155 536585.000000 1 0 0
16.648263 5.116002 8.497480 19.378991 0.298140 1.116879 0.057824 -0.011650 215169.000000 1 0 0
11.684163 12.363302 10.963480 20.237805 0.813632 0.998299 0.036202 -0.012489 519865.000000 1 0 0
-2.292037 16.429302 -0.636720 16.600627 -1.432182 1.609161 -0.002870 0.002718 8454.770000 1 0 0
14.965363 12.701002 3.331480 19.909201 0.703735 1.402672 0.022446 -0.002705 -11275.200000 1 0 0
13.633563 11.703602 6.764480 19.199128 0.709374 1.210734 0.036678 -0.007309 1101650.000000 1 0 0
-0.563437 15.845202 8.551980 18.014556 -1.535252 1.076144 -0.004400 -0.004827 -12161.000000 1 0 0
0.707763 12.983202 9.344080 16.011754 1.516337 0.947671 -0.010746 -0.001689 -1514110.000000 1 0 0
0.813263 15.481902 -3.956120 16.000049 1.518315 1.820644 0.008680 -0.004100 -320803.000000 1 0 0
5.303363 10.200902 13.536280 17.759924 1.091362 0.704121 -0.000764 -0.000292 102748.000000 1 0 0
-1.356437 16.356502 -2.877920 16.663058 -1.488056 1.744379 0.001904 -0.005317 46432.500000 1 0 0
8.582563 10.029402 3.288980 13.603921 0.862979 1.326610 0.009523 -0.001393 455503.000000 1 0 0
12.573163 13.672202 -4.930320 19.217741 0.827249 1.830248 0.034751 -0.010824 -264543.000000 1 0 0
2.396763 11.565602 7.812280 14.161191 1.366457 0.986433 -0.006835 -0.000171 308550.000000 1 0 0
-0.230637 14.824402 -8.602920 17.141363 -1.555240 2.096568 0.017678 -0.001706 -2041880.000000 1 0 0
2.378663 15.854702 0.194380 16.033321 1.421878 1.558673 0.010721 -0.010649 -368846.000000 1 0 0
1.815163 13.416802 5.203780 14.504644 1.436323 1.203850 0.001551 0.000832 103288.000000 1 0 0
17.523963 9.164202 -1.922320 19.868749 0.481841 1.667699 -0.000620 0.007886 479527.000000 1 0 0
-7.182037 15.005702 7.251680 18.147716 -1.124398 1.159725 0.009439 -0.008788 -578456.000000 1 0 0
8.536363 15.817502 -0.043420 17.974002 1.075912 1.573212 0.007938 -0.012403 -685306.000000 1 0 0
15.634763 10.498602 2.036180 18.942346 0.591335 1.463095 0.015447 -0.002491 308581.000000 1 0 0
14.177363 7.470802 8.770580 18.268376 0.484977 1.070032 0.035719 -0.008611 -751390.000000 1 0 0
4.188863 18.292502 -1.734720 18.845993 1.345684 1.662974 0.011223 -0.018076 -1160950.000000 1 0 0
-0.489737 17.601902 -4.736620 18.234647 -1.542981 1.833569 0.016278 0.000359 405023.000000 1 0 0
1.354063 13.616802 -0.777220 13.706015 1.471682 1.627533 0.005202 -0.008275 38178.700000 1 0 0
10.330963 14.627402 4.300880 18.417037 0.955872 1.335093 0.021703 -0.016800 8479.770000 1 0 0
-1.596837 15.338002 -5.150220 16.258197 -1.467060 1.893126 0.011336 -0.000456 106347.000000 1 0 0
15.306863 8.791802 -6.240620 18.722745 0.521361 1.910617 0.026460 -0.002697 723343.000000 1 0 0
-2.488337 18.424702 0.969080 18.617212 -1.436554 1.518720 0.001860 -0.001975 -181474.000000 1 0 0
-3.877537 19.357202 3.488180 20.047542 -1.373098 1.395911 0.008530 -0.003027 -432511.000000 1 0 0
1.935163 17.666702 -2.794720 17.990766 1.461694 1.726770 0.012552 -0.006384 -512195.000000 1 0 0
2.736063 12.217402 3.308580 12.949813 1.350483 1.312439 0.003623 -0.001113 65817.700000 1 0 0
-2.664537 15.951502 1.810880 16.273582 -1.405285 1.459288 -0.003027 -0.003730 -225179.000000 1 0 0
11.917563 12.767502 -2.635120 17.662991 0.819816 1.720544 0.018822 -0.003592 583985.000000 1 0 0
7.228763 11.562802 4.782380 14.450763 1.012072 1.233494 0.006494 -0.003216 -4834.450000 1 0 0
7.196563 15.763902 2.109280 17.456809 1.142532 1.449672 0.009032 -0.010312 -1205720.000000 1 0 0
5.465163 12.302502 10.277680 16.936654 1.152750 0.918729 -0.001246 0.003648 -2204140.000000 1 0 0
-1.294137 14.141102 3.165580 14.548761 -1.479535 1.351458 -0.006568 0.002418 -930649.000000 1 0 0
4.658863 15.960702 1.573780 16.701071 1.286791 1.476424 0.009196 -0.015321 -778667.000000 1 0 0
7.321963 13.116802 11.965080 19.204811 1.061670 0.898192 0.010407 -0.007520 165750.000000 1 0 0
0.761063 17.106502 -9.380120 19.524300 1.526336 2.071945 0.020965 -0.001561 258440.000000 1 0 0
9.833163 9.616102 15.330480 20.595730 0.774238 0.731232 0.015601 0.001894 54057.500000 1 0 0
13.451363 7.504402 -0.106920 15.403462 0.508882 1.577738 0.003932 0.001280 295322.000000 1 0 0
12.402463 13.534102 -0.077720 18.357533 0.829002 1.575030 0.020352 -0.007287 854462.000000 1 0 0
9.404163 12.291802 3.544380 15.877320 0.917716 1.345664 0.012282 -0.004606 294104.000000 1 0 0
-0.705137 12.849502 0.733580 12.889727 -1.515975 1.513854 -0.000849 -0.002176 731266.000000 1 0 0
15.981863 7.466302 -0.760420 17.656269 0.437043 1.613878 0.008383 0.000917 -2579850.000000 1 0 0
-4.236537 18.568702 -2.367920 19.192498 -1.346481 1.694489 0.016980 0.002005 -185948.000000 1 0 0
11.632663 9.260202 -3.227420 15.214678 0.672329 1.784546 0.014134 -0.001768 -251648.000000 1 0 0
14.720463 9.707002 7.828180 19.292441 0.582971 1.152982 0.036945 -0.013129 1327110.000000 1 0 0
4.404663 13.739202 4.697280 15.173370 1.260557 1.256051 0.007254 -0.002415 756152.000000 1 0 0
2.167863 15.951302 5.525780 17.019926 1.435719 1.240138 0.009505 -0.002029 273110.000000 1 0 0
5.963263 18.440202 5.544180 20.157864 1.258027 1.292167 0.024721 -0.021052 -76682.300000 1 0 0
10.815863 16.971802 -0.716720 20.137990 1.003412 1.606394 0.023562 -0.010731 -316042.000000 1 0 0
9.981663 13.561002 -4.378420 17.398417 0.936279 1.825188 0.021125 -0.010295 1357370.000000 1 0 0
16.514763 7.966302 2.459380 18.499943 0.449448 1.437462 0.009513 -0.005926 133603.000000 1 0 0
3.902363 13.946602 -0.525020 14.491783 1.297966 1.607033 0.005540 -0.009275 -635492.000000 1 0 0
5.495863 13.018502 -2.481620 14.347276 1.171335 1.744639 0.007491 -0.008489 216067.000000 1 0 0
-6.188337 16.958902 -2.981920 18.297315 -1.220908 1.734497 0.008819 0.000878 -659282.000000 1 0 0
18.115163 10.038702 2.598080 20.873061 0.506032 1.446002 0.024796 -0.007627 1132620.000000 1 0 0
7.892963 12.802702 9.376980 17.723876 1.018327 1.013305 0.018156 -0.012463 109391.000000 1 0 0
-2.503337 15.787002 6.729880 17.343224 -1.413536 1.172291 -0.009511 0.000748 -1098130.000000 1 0 0
11.166963 16.022102 6.411980 20.555347 0.962105 1.253565 0.027145 -0.014848 -28426.900000 1 0 0
13.565363 11.985302 1.329680 18.150332 0.723637 1.497471 0.023359 -0.001319 707908.000000 1 0 0
17.644863 7.650902 -5.624920 20.037894 0.409137 1.855334 0.011348 0.018172 928535.000000 1 0 0
9.509463 9.218802 8.008280 15.477362 0.769880 1.026964 0.012993 -0.004030 -401344.000000 1 0 0
-2.160837 14.122102 -2.005720 14.426569 -1.418963 1.710278 -0.001889 0.000033 511727.000000 1 0 0
10.887763 11.576602 0.874180 15.916195 0.816052 1.515845 0.011553 -0.001800 -580150.000000 1 0 0
11.796163 9.796302 -0.561020 15.343785 0.693043 1.607368 0.007559 0.000990 -1167310.000000 1 0 0
-0.104937 16.011402 11.038080 19.447756 -1.564242 0.967238 -0.000201 -0.008234 -576526.000000 1 0 0
2.194363 20.023502 -1.727320 20.217307 1.461643 1.656338 0.016280 -0.012656 -260209.000000 1 0 0
9.249163 14.267402 1.855980 17.104105 0.995637 1.462071 0.015353 -0.011056 -273837.000000 1 0 0
8.511663 11.641102 -5.209020 15.332891 0.939454 1.917425 0.014093 -0.007906 -863929.000000 1 0 0
10.528163 10.108802 10.262880 17.842555 0.765080 0.957959 0.014172 -0.005170 102555.000000 1 0 0
-5.021837 15.777002 5.882980 17.571058 -1.262635 1.229392 -0.009099 -0.002441 -206068.000000 1 0 0
14.416363 9.075802 -1.920520 17.143223 0.561864 1.683060 0.021653 -0.001364 -492688.000000 1 0 0
12.171463 9.551502 6.979680 16.973262 0.665370 1.147008 0.017240 -0.007700 -1224520.000000 1 0 0
3.155363 13.060202 9.676680 16.557878 1.333738 0.946637 -0.006832 -0.004146 -769589.000000 1 0 0
8.486863 12.574302 -2.604720 15.392351 0.977090 1.740836 0.010426 -0.005563 -637723.000000 1 0 0
9.527863 16.940502 2.171880 19.557040 1.058459 1.459513 0.018513 -0.013742 355027.000000 1 0 0
9.745463 14.151302 -7.645020 18.806374 0.967720 1.989430 0.022812 -0.013074 -711398.000000 1 0 0
6.355663 11.445402 7.259780 14.969839 1.063891 1.064478 0.004869 -0.002803 -262732.000000 1 0 0
5.614863 16.819202 -5.646320 18.608954 1.248593 1.879076 0.004250 -0.001541 -704937.000000 1 0 0
-4.107537 17.278602 -4.632720 18.354401 -1.337405 1.825960 0.013357 -0.001042 165408.000000 1 0 0
-0.398337 18.692902 -0.602520 18.706851 -1.549490 1.603010 0.000674 -0.000642 -224513.000000 1 0 0
6.496963 15.467202 -2.691320 16.990823 1.173128 1.729865 0.004156 -0.007862 853612.000000 1 0 0
-1.191637 20.700302 0.885980 20.753493 -1.513294 1.528093 0.004525 -0.002596 24125.200000 1 0 0
-1.415637 18.863002 4.177380 19.371819 -1.495888 1.353447 0.005572 -0.002490 29762.500000 1 0 0
7.225863 13.683102 -4.364520 16.077606 1.084933 1.845712 0.007413 -0.005931 -436979.000000 1 0 0
-0.921137 11.975102 7.626480 14.227254 -1.494026 1.005049 -0.004892 0.002467 468620.000000 1 0 0
7.591863 10.846802 10.897480 17.147727 0.960126 0.882133 0.005605 -0.000738 494496.000000 1 0 0
1.586963 16.020202 -7.197720 17.634412 1.472058 1.991238 0.013368 -0.001963 -376428.000000 1 0 0
8.901863 7.229802 14.887880 18.792609 0.682116 0.656358 0.007890 0.017607 224552.000000 1 0 0
11.398163 11.400402 -4.821120 16.826481 0.785496 1.861389 0.020583 -0.006517 -166640.000000 1 0 0
-3.364337 17.022202 4.483480 17.921376 -1.375667 1.317935 -0.007677 0.003477 -10789.300000 1 0 0
4.071163 15.241902 -6.836720 17.193914 1.309786 1.979723 0.011726 -0.005954 -1185890.000000 1 0 0
-4.468637 14.074502 9.554580 17.588357 -1.263364 0.996513 0.005739 -0.004620 721560.000000 1 0 0
6.246463 17.624402 0.416580 18.703245 1.230188 1.548521 0.005486 -0.016332 -264205.000000 1 0 0
9.845163 10.618102 -2.135320 14.636629 0.823152 1.717208 0.010900 -0.004481 87627.600000 1 0 0
7.222463 17.929902 -2.537420 19.495739 1.187864 1.701319 0.001370 -0.007186 318330.000000 1 0 0
3.551363 10.448802 10.334180 15.119025 1.243163 0.818220 -0.007864 0.003451 990399.000000 1 0 0
-0.071937 18.673102 1.940180 18.773764 -1.566944 1.467266 0.006025 -0.001535 -107432.000000 1 0 0
-0.823537 17.160602 -7.374320 18.696124 -1.522843 1.976244 0.025720 0.002623 471960.000000 1 0 0
10.037963 8.583102 13.000580 18.532280 0.707427 0.793282 0.013904 0.003140 -479183.000000 1 0 0
3.647263 11.431802 5.520880 13.208661 1.261960 1.139582 -0.003145 0.001216 799585.000000 1 0 0
13.212763 13.737002 8.352180 20.809642 0.804848 1.157794 0.039126 -0.019054 -240790.000000 1 0 0
-0.493637 17.438402 6.663080 18.674533 -1.542496 1.205956 0.003540 -0.002863 -196877.000000 1 0 0
12.153063 13.606802 5.966680 19.194876 0.841773 1.254712 0.022662 -0.007332 -1053040.000000 1 0 0
4.873763 14.509002 -4.499620 15.953410 1.246726 1.856724 0.007281 -0.004538 -1324520.000000 1 0 0
3.736163 17.593202 4.570180 18.557107 1.361541 1.321960 0.014502 -0.011624 -2000170.000000 1 0 0
7.116563 11.736102 2.008780 13.871436 1.025697 1.425471 0.012822 -0.003258 1198880.000000 1 0 0
6.327963 8.762402 11.657980 15.897524 0.945344 0.747603 -0.004795 0.004724 325801.000000 1 0 0
-5.435937 14.837902 1.688680 15.892274 -1.219626 1.464337 -0.008378 0.006250 -231189.000000 1 0 0
6.864263 13.740702 5.832880 16.430078 1.107503 1.207869 0.008183 -0.007378 248215.000000 1 0 0
5.753763 15.917102 4.876480 17.613630 1.223928 1.290273 0.008232 -0.013521 552526.000000 1 0 0
1.208863 17.945402 4.164480 18.461898 1.503535 1.343267 0.018357 -0.006165 752914.000000 1 0 0
7.581563 17.927502 -6.825220 20.626659 1.170705 1.908046 0.005632 0.000041 417093.000000 1 0 0
-2.325837 18.798502 -5.891020 19.836767 -1.447697 1.872319 0.024053 0.002155 -1414990.000000 1 0 0
13.559163 10.046402 -4.589120 17.488313 0.637672 1.836316 0.018009 -0.002821 -2142030.000000 1 0 0
-1.281237 18.021602 9.909280 20.606153 -1.499821 1.069128 0.011251 -0.008013 -192424.000000 1 0 0
3.391563 11.709802 -1.557120 12.290109 1.288876 1.697835 0.008415 -0.007911 59241.200000 1 0 0
4.194463 14.107702 -10.903820 18.317043 1.281803 2.208414 0.023347 -0.009000 399219.000000 1 0 0
11.581463 13.379202 2.450880 17.864493 0.857297 1.433169 0.021427 -0.007441 86886.000000 1 0 0
15.882763 6.379702 -7.034820 18.505444 0.381949 1.960753 0.007647 0.001262 200086.000000 1 0 0
2.489063 16.052602 2.902580 16.501710 1.416965 1.393981 0.010843 -0.007815 152087.000000 1 0 0
13.494463 10.734802 3.542880 17.603650 0.671989 1.368154 0.018731 -0.000650 -348965.000000 1 0 0
-4.837737 19.473802 -5.874420 20.907929 -1.327303 1.855597 0.006627 -0.002076 -149606.000000 1 0 0
5.583363 12.128302 -0.052220 13.351868 1.139362 1.574707 0.009618 -0.008474 525769.000000 1 0 0
4.811763 15.296702 9.693380 18.737763 1.266034 1.027082 0.009084 -0.013184 -32713.200000 1 0 0
7.728263 9.423902 13.831080 18.434607 0.883937 0.722314 0.001068 0.003037 -1824190.000000 1 0 0
-5.004237 13.643802 7.085980 16.168081 -1.219254 1.117124 0.000914 -0.001476 -922239.000000 1 0 0
-4.562937 17.109302 0.459780 17.713272 -1.310169 1.544837 0.001474 -0.000413 -3951110.000000 1 0 0
-0.653937 16.565602 3.370380 16.917632 -1.531341 1.370231 0.003267 -0.001016 -1476850.000000 1 0 0
7.929263 16.560602 -4.711720 18.955924 1.124250 1.821992 0.002720 -0.008909 437918.000000 1 0 0
3.158563 16.420602 -4.605320 17.344211 1.380764 1.839545 0.009505 -0.003903 108769.000000 1 0 0
9.537663 14.390302 8.192380 19.109235 0.985487 1.127728 0.026014 -0.014779 424839.000000 1 0 0
12.744763 10.842002 9.132680 19.062629 0.704902 1.071181 0.034104 -0.014618 237453.000000 1 0 0
3.706363 12.282002 12.151380 17.670334 1.277715 0.812520 -0.002146 -0.002785 637739.000000 1 0 0
-3.283737 19.112702 5.978780 20.293450 -1.400648 1.271742 0.007637 -0.004975 260326.000000 1 0 0
-2.600937 15.811802 10.183580 18.986396 -1.407763 1.004676 -0.000748 -0.005638 307077.000000 1 0 0
2.095363 14.197102 7.546580 16.214164 1.424263 1.086674 -0.000283 -0.005099 -278285.000000 1 0 0
4.285263 17.082702 7.921880 19.311612 1.325014 1.148108 0.015412 -0.012700 715506.000000 1 0 0
-1.912937 13.448802 9.206980 16.410304 -1.429506 0.975144 -0.004337 -0.004603 -1318360.000000 1 0 0
5.818663 17.790302 3.038880 18.962765 1.254694 1.409847 0.009387 -0.014014 695937.000000 1 0 0
7.446063 15.275402 -6.866720 18.328491 1.117235 1.954813 0.011427 -0.004995 324640.000000 1 0 0
10.929863 7.643302 9.453780 16.347963 0.610259 0.954172 0.014151 -0.004749 336303.000000 1 0 0
9.100463 16.222602 -2.571020 18.777683 1.059567 1.708147 0.008370 -0.011575 306058.000000 1 0 0
14.882363 11.387002 -6.545920 19.849373 0.653117 1.906867 0.055161 -0.003457 519893.000000 1 0 0
10.850963 6.407302 16.177680 20.506443 0.533392 0.661768 0.006182 0.013006 -1000370.000000 1 0 0
8.422763 8.481202 10.170280 15.694212 0.788855 0.865805 0.003401 -0.000095 663104.000000 1 0 0
16.252263 9.565302 4.475580 19.381998 0.531959 1.337779 0.019912 -0.008872 31757.300000 1 0 0
-3.380437 14.373402 4.665580 15.485144 -1.339807 1.264747 -0.009591 0.005911 -1089970.000000 1 0 0
4.856663 14.520402 12.866180 19.999195 1.248022 0.871950 0.006987 -0.003468 -844211.000000 1 0 0
16.103663 10.462602 -4.492320 19.722447 0.576167 1.800590 0.030041 -0.007904 459979.000000 1 0 0
14.774463 13.910202 6.230480 21.227278 0.755278 1.272897 0.032649 -0.007250 360001.000000 1 0 0
6.190263 9.578402 9.201780 14.653937 0.997046 0.891894 -0.002412 0.003243 495959.000000 1 0 0
10.451763 12.104902 8.628480 18.171919 0.858556 1.076031 0.022141 -0.012425 -38094.200000 1 0 0
7.970263 11.389702 -0.374320 13.906492 0.960219 1.597717 0.011133 -0.005473 -189909.000000 1 0 0
7.573663 13.533302 -8.834920 17.848430 1.060589 2.088628 0.019606 -0.005377 -1106820.000000 1 0 0
2.818463 15.269502 -2.334720 15.701985 1.388270 1.720039 0.005923 -0.008177 229280.000000 1 0 0
12.292063 13.635802 -7.786320 19.941331 0.837178 1.971929 0.030610 -0.014024 98079.800000 1 0 0
-7.940837 14.734302 9.814280 19.403006 -1.076488 1.040473 0.024968 -0.020034 130684.000000 1 0 0
11.499563 9.546202 2.247380 15.113591 0.692848 1.421544 0.011470 0.000076 -1777680.000000 1 0 0
12.194363 8.636202 4.477880 15.599291 0.616217 1.279644 0.011905 -0.002097 455504.000000 1 0 0
14.015563 7.964002 6.146980 17.252440 0.516728 1.206495 0.015832 -0.008459 -2998620.000000 1 0 0
16.216463 7.363902 7.220680 19.218192 0.426259 1.185622 0.052737 -0.015713 704532.000000 1 0 0
13.665063 8.448402 2.336680 16.234824 0.553729 1.426365 0.008822 -0.003194 -2884190.000000 1 0 0
-4.175237 17.413102 -7.213620 19.305052 -1.335464 1.953753 0.012144 -0.002771 281680.000000 1 0 0
3.344763 19.400002 -3.981920 20.084900 1.400064 1.770373 0.013874 -0.009516 275924.000000 1 0 0
-0.055037 14.912602 6.182380 16.143436 -1.567106 1.177792 0.001692 -0.000182 -1434980.000000 1 0 0
6.821963 16.136702 8.166080 19.329179 1.170824 1.134623 0.028094 -0.017792 362139.000000 1 0 0
12.807063 15.143602 -2.013720 19.935009 0.868799 1.671983 0.031888 -0.012078 -118378.000000 1 0 0
12.691763 15.563002 4.354080 20.548622 0.886670 1.357286 0.027391 -0.013652 -332142.000000 1 0 0
2.946263 18.020002 1.304480 18.305808 1.408731 1.499475 0.015523 -0.013360 -140287.000000 1 0 0
10.320563 14.416102 -1.278420 17.775611 0.949475 1.642778 0.015306 -0.006322 200155.000000 1 0 0
-6.448837 15.765102 -0.604120 17.043794 -1.182506 1.606249 -0.002835 0.003259 -768559.000000 1 0 0
-4.003537 15.893302 -2.442820 16.570840 -1.324029 1.718752 0.010303 0.000069 -2546430.000000 1 0 0
-6.757337 17.012402 1.690480 18.383176 -1.192705 1.478708 -0.007470 0.004875 105412.000000 1 0 0
0.113363 19.479502 -6.358720 20.491393 1.564977 1.886317 0.027438 -0.002766 332740.000000 1 0 0
4.879763 14.716402 7.073580 17.041716 1.250619 1.142772 0.014662 -0.009428 -4586.650000 1 0 0
8.731363 12.274602 6.938780 16.584607 0.952503 1.139128 0.018298 -0.007356 -501732.000000 1 0 0
-7.654637 17.600202 -5.646420 20.006065 -1.160555 1.856920 0.026493 -0.005781 440056.000000 1 0 0
-8.009637 17.723402 -1.386620 19.498615 -1.146343 1.641970 0.020723 -0.002606 221313.000000 1 0 0
-13.807737 -9.105798 9.308080 18.979186 0.583004 1.058206 0.006017 -0.006191 31727.400000 1 0 0
-12.817137 -12.823598 7.732680 19.710860 0.785650 1.167660 0.015429 -0.000449 870.488000 1 0 0
-3.813937 -14.883598 12.803680 20.000046 1.319943 0.876060 0.012646 -0.008824 222904.000000 1 0 0
-1.940737 -14.049898 15.312180 20.871726 1.433533 0.747144 0.026702 -0.001115 -344784.000000 1 0 0
-7.324237 -13.671498 12.949180 20.204840 1.078975 0.875133 0.030197 -0.008723 23809.300000 1 0 0
-9.919137 -11.531098 9.012280 17.679839 0.860406 1.035903 0.011353 -0.005850 651030.000000 1 0 0
-10.822637 -10.601198 11.332780 18.919481 0.775062 0.928544 0.027922 -0.011477 183285.000000 1 0 0
-6.125537 -12.283998 10.934680 17.549531 1.108221 0.898128 0.023045 -0.004470 917620.000000 1 0 0
-12.581537 -10.263598 7.299880 17.802381 0.684281 1.148287 0.001513 -0.001838 -731353.000000 1 0 0
-7.842037 -11.136098 12.603080 18.556612 0.957257 0.824166 0.024475 -0.010167 -410171.000000 1 0 0
-14.911937 -11.367098 7.219880 20.092373 0.651315 1.203242 0.008188 -0.003578 403152.000000 1 0 0
-11.155437 -9.143498 9.091380 17.049942 0.686605 1.008393 0.003940 -0.006985 -794127.000000 1 0 0
-5.592537 -11.809898 13.482980 18.776073 1.128534 0.769737 0.032878 -0.010469 -1201210.000000 1 0 0
4.110363 -12.407298 14.885580 19.809508 -1.250890 0.720560 0.000916 0.011462 -373117.000000 1 0 0
6.585263 -12.807698 14.194880 20.221212 -1.095882 0.792623 0.008447 0.009709 -380302.000000 1 0 0
6.553363 -8.347698 16.099980 19.283152 -0.905238 0.582800 0.008693 0.001758 -1281080.000000 1 0 0
0.710163 -1.784598 14.558180 14.684336 -1.192067 0.131176 0.010698 -0.006242 -1690140.000000 1 0 0
-0.193737 -6.327898 15.702080 16.930302 1.540189 0.383250 0.014789 -0.006475 -639784.000000 1 0 0
-1.549737 -4.706698 18.465380 19.118706 1.252714 0.262178 0.019055 -0.017998 -2702040.000000 1 0 0
-4.941837 12.768402 12.999180 18.879420 -1.201515 0.811327 0.013025 -0.007850 -860856.000000 1 0 0
-4.012037 8.786902 11.632580 15.120284 -1.142473 0.692995 0.001748 -0.000004 -178596.000000 1 0 0
-0.705137 -3.843898 15.111780 15.608929 1.389370 0.253065 0.011202 -0.007124 151620.000000 1 0 0
-4.358937 9.336502 14.142480 17.498009 -1.134002 0.629650 0.009017 -0.005551 317177.000000 1 0 0
-13.572537 -2.309498 16.906780 21.803366 0.168545 0.683415 0.010805 0.009561 -410925.000000 1 0 0
-0.369237 0.786002 17.379380 17.401062 -1.131627 0.049926 0.013724 -0.008301 -766445.000000 1 0 0
-3.475937 -7.260398 15.508580 17.473167 1.124290 0.478763 0.019029 -0.009886 489702.000000 1 0 0
-7.353837 5.571102 12.545980 15.572980 -0.648333 0.634067 0.001031 -0.001491 -974136.000000 1 0 0
-9.694437 10.027202 13.537880 19.437106 -0.802270 0.800293 0.015378 -0.021688 15423.000000 1 0 0
-5.542537 2.323902 11.203980 12.714142 -0.397020 0.492355 0.002446 0.001123 -698370.000000 1 0 0
-7.454037 -7.211398 16.951780 19.872840 0.768855 0.549066 0.025826 -0.013047 95440.500000 1 0 0
-4.763237 3.115502 18.574980 19.427420 -0.579233 0.297331 0.025106 -0.008797 -867189.000000 1 0 0
0.982663 -8.283298 16.682980 18.652090 -1.452716 0.463642 0.011208 -0.000199 588998.000000 1 0 0
-15.112537 -3.568298 14.030680 20.928008 0.231868 0.836014 0.011843 0.003228 268830.000000 1 0 0
-14.328137 2.288502 13.019480 19.494605 -0.158383 0.839479 -0.001368 -0.002793 171461.000000 1 0 0
-5.598137 0.954302 16.059380 17.033893 -0.168845 0.339895 0.018637 -0.004656 462332.000000 1 0 0
4.538563 5.718502 15.024180 16.704065 0.899931 0.452327 0.000146 0.001030 658781.000000 1 0 0
-1.058937 -12.049298 13.894180 18.421595 1.483138 0.716311 0.007810 -0.003464 -321899.000000 1 0 0
-5.961837 -4.037998 16.863780 18.336739 0.595333 0.403553 0.019303 -0.008866 77046.900000 1 0 0
-13.055637 -1.384798 9.920480 16.455493 0.105674 0.923706 -0.002713 0.003341 -563894.000000 1 0 0
-14.459137 10.509402 10.199980 20.580422 -0.628510 1.052253 0.008850 -0.010157 288193.000000 1 0 0
-3.626937 -3.392498 17.838680 18.517079 0.752012 0.271523 0.017816 -0.012765 -1366560.000000 1 0 0
-7.880437 9.259802 11.886480 17.003930 -0.865700 0.796738 0.001712 -0.012435 -229534.000000 1 0 0
-4.134437 10.590702 16.422080 19.973513 -1.198607 0.605544 0.011252 -0.006320 374103.000000 1 0 0
-12.583837 12.743302 8.359680 19.764335 -0.791694 1.134078 0.014673 -0.016906 134430.000000 1 0 0
-12.673737 3.310802 10.528880 16.806021 -0.255523 0.893749 0.004284 -0.003153 497594.000000 1 0 0
-10.289037 -3.243198 13.691380 17.430906 0.305351 0.667348 0.014345 0.003735 -1395980.000000 1 0 0
-4.254437 -6.376098 17.869180 19.443828 0.982392 0.405220 0.024675 -0.011685 -205068.000000 1 0 0
0.633863 -3.539298 17.774380 18.134414 -1.393582 0.199598 0.015229 -0.019340 -711484.000000 1 0 0
-5.898537 1.710502 13.618380 14.939171 -0.282246 0.423664 0.009878 0.001876 -667376.000000 1 0 0
-10.542237 8.691702 10.223180 17.064520 -0.689481 0.928433 0.012395 -0.016566 129854.000000 1 0 0
4.561563 2.296302 17.469280 18.200456 0.466366 0.284413 0.018641 -0.008951 -1543800.000000 1 0 0
0.432063 -5.364598 13.384580 14.426107 -1.490430 0.382317 0.007309 -0.004189 -650032.000000 1 0 0
-4.276137 5.708302 20.628780 21.826970 -0.927866 0.332880 0.044923 -0.016689 -739981.000000 1 0 0
-10.883537 10.812102 8.969980 17.771141 -0.782106 1.041704 0.013109 -0.015999 178692.000000 1 0 0
0.686563 4.165202 13.094080 13.757732 1.407432 0.311870 0.003620 -0.002651 -1439500.000000 1 0 0
-3.125237 7.152102 13.376980 15.487519 -1.158833 0.528179 0.004659 -0.000700 -719696.000000 1 0 0
0.771063 8.813802 14.054480 16.607409 1.483535 0.561837 -0.011227 -0.001730 175383.000000 1 0 0
-4.260437 -6.599398 13.166580 15.331738 0.997535 0.537914 0.021532 -0.006711 -195165.000000 1 0 0
-5.044437 8.153502 16.355780 18.958836 -1.016752 0.530213 0.023819 -0.010576 -344687.000000 1 0 0
1.734863 -10.573798 15.816480 19.104345 -1.408173 0.595444 0.004655 0.005077 215827.000000 1 0 0
-15.263537 -0.965398 14.327280 20.956586 0.063165 0.818024 0.009289 0.003672 362112.000000 1 0 0
-13.614837 -5.091598 8.264780 16.721087 0.357871 1.053798 0.002492 -0.007810 -76724.200000 1 0 0
-14.348037 -1.914798 12.126680 18.883564 0.132670 0.873455 0.008706 0.001877 378389.000000 1 0 0
9.405663 1.270602 16.978380 19.451126 0.134276 0.509735 0.021719 -0.003215 -325307.000000 1 0 0
4.934863 -6.710598 17.081480 19.004261 -0.936716 0.453718 0.015970 0.005038 70148.900000 1 0 0
-6.171637 -2.780098 11.053980 12.961810 0.423239 0.549451 0.008851 -0.000339 138405.000000 1 0 0
0.561963 -6.236298 18.184280 19.232141 -1.480927 0.331623 0.021644 -0.009685 -105034.000000 1 0 0
-8.258837 11.875702 12.472480 19.099828 -0.963137 0.859237 0.010582 -0.013465 431839.000000 1 0 0
-6.718637 -5.736898 14.930080 17.348180 0.706741 0.534323 0.022991 -0.007439 -1371010.000000 1 0 0
-4.609437 -8.823898 17.307580 19.966482 1.089405 0.521984 0.029407 -0.008337 441232.000000 1 0 0
2.419663 -6.043298 16.369380 17.616265 -1.189956 0.378501 0.009492 -0.002549 459068.000000 1 0 0
2.215763 5.225902 16.129880 17.099493 1.169776 0.338374 0.004059 -0.003060 -2960580.000000 1 0 0
1.004763 -8.759398 14.074780 16.608312 -1.456589 0.559626 0.006882 -0.001861 -451551.000000 1 0 0
-10.012237 -2.719698 11.245680 15.300554 0.265237 0.745152 -0.001471 0.003232 226329.000000 1 0 0
-1.095037 10.098502 12.340880 15.983621 -1.462783 0.688665 -0.010712 -0.001620 -207570.000000 1 0 0
-12.441137 -3.528998 11.305080 17.176745 0.276395 0.852422 0.002959 0.003054 -1027520.000000 1 0 0
-1.934337 6.620802 20.149180 21.297092 -1.286547 0.329822 0.020359 -0.011416 -42923.100000 1 0 0
0.519563 -13.247298 15.634480 20.498727 -1.531596 0.703311 0.013518 -0.010203 -1059030.000000 1 0 0
4.018863 -8.576398 15.308380 18.001454 -1.132586 0.554057 0.006455 0.003311 199946.000000 1 0 0
4.452463 -4.415398 16.224280 17.393890 -0.781219 0.368809 0.016045 -0.004378 160624.000000 1 0 0
8.058863 1.690702 14.816480 16.950864 0.206795 0.507249 0.012086 0.002036 -259279.000000 1 0 0
-6.337037 -0.102298 11.806780 13.400319 0.016142 0.492651 0.008346 0.000218 71770.500000 1 0 0
-3.681637 -10.829198 18.568480 21.808586 1.243082 0.552091 0.036564 -0.008666 889520.000000 1 0 0
3.301163 -1.582198 13.582280 14.066959 -0.446939 0.263267 0.009877 -0.006136 715575.000000 1 0 0
-2.532937 8.655302 15.935880 18.310715 -1.286100 0.514978 0.004381 -0.003197 -544224.000000 1 0 0
-3.250237 4.022302 14.823480 15.699634 -0.891164 0.335661 0.010133 -0.003316 -1399810.000000 1 0 0
-4.784837 -8.801498 19.977780 22.348886 1.072850 0.464814 0.046333 -0.014066 -196114.000000 1 0 0
-5.752737 -2.862698 19.177980 20.225823 0.461745 0.323298 0.020717 -0.013582 -1232720.000000 1 0 0
-6.721937 -8.667398 11.140380 15.633819 0.911147 0.777625 0.015861 -0.006978 -777098.000000 1 0 0
-11.686137 2.583502 12.670480 17.429324 -0.217575 0.756907 0.010952 -0.006000 -3791.820000 1 0 0
-11.652937 -7.533098 11.640280 18.111726 0.573879 0.872788 0.004045 -0.003926 -905424.000000 1 0 0
-11.174737 -7.003698 15.670580 20.481543 0.559852 0.699588 0.031240 -0.016747 50377.100000 1 0 0
0.261463 5.854902 17.629180 18.577842 1.526169 0.320951 0.005379 -0.007322 -178386.000000 1 0 0
-2.227337 -0.149098 13.246680 13.433458 0.066840 0.166951 0.005894 -0.002977 109912.000000 1 0 0
-6.284137 -10.354398 18.544380 22.149446 1.025315 0.578582 0.051546 -0.006309 -589973.000000 1 0 0
0.373663 2.642302 19.166280 19.351167 1.430312 0.138344 0.024529 -0.014221 -194153.000000 1 0 0
-0.481437 10.885102 14.789880 18.370023 -1.526596 0.634936 -0.007255 -0.001317 93453.000000 1 0 0
-12.907637 -2.154998 14.320680 19.399304 0.165429 0.740390 0.012812 0.004521 -103885.000000 1 0 0
-13.641937 8.563902 11.803680 19.969219 -0.560584 0.938382 0.011410 -0.017727 1008730.000000 1 0 0
-18.044637 -0.499498 7.035180 19.374008 0.027674 1.199177 0.007638 -0.010186 -458141.000000 1 0 0
-2.117937 -7.963098 17.672080 19.498692 1.310845 0.436300 0.020566 -0.012386 -26867.800000 1 0 0
5.654863 2.642802 14.494380 15.781284 0.437188 0.406643 0.012092 -0.002232 -1915340.000000 1 0 0
-14.063437 -6.577198 10.945680 18.995992 0.437460 0.956713 0.001864 -0.012765 686846.000000 1 0 0
3.211063 7.675602 16.149980 18.167213 1.174575 0.475721 -0.002665 -0.005744 -496112.000000 1 0 0
0.990563 2.042802 14.616980 14.792239 1.119298 0.154088 0.007597 -0.005575 -966265.000000 1 0 0
-14.343237 0.904202 9.732380 17.356994 -0.062957 0.975544 -0.003361 -0.001475 -444535.000000 1 0 0
-9.571837 -4.945698 15.573080 18.936758 0.476912 0.605227 0.016724 -0.002005 -572628.000000 1 0 0
-2.725737 0.044502 18.125580 18.329437 -0.016325 0.149282 0.016685 -0.010011 -81666.800000 1 0 0
6.799863 3.369502 17.909580 19.451085 0.460061 0.400799 0.022611 0.006908 -252342.000000 1 0 0
-4.209837 -0.972398 14.867680 15.482771 0.227001 0.282819 0.016116 -0.002212 24631.900000 1 0 0
4.789563 -9.188398 17.777280 20.576643 -1.090284 0.527726 0.012768 0.005446 -264868.000000 1 0 0
1.923163 6.771002 13.410080 15.145140 1.294055 0.483361 -0.003702 0.003817 -1721880.000000 1 0 0
-3.864037 -0.741698 20.289680 20.667656 0.189642 0.191543 0.018033 -0.011771 33014.200000 1 0 0
-10.745537 1.755702 16.389780 19.676736 -0.161958 0.586375 0.016837 -0.004936 32174.400000 1 0 0
-3.887537 7.134802 18.461180 20.170114 -1.071900 0.414609 0.028646 -0.011256 -228114.000000 1 0 0
-12.735637 1.327002 14.736080 19.522024 -0.103821 0.715380 0.016765 -0.002588 -126324.000000 1 0 0
-16.129237 -4.671198 8.379880 18.766853 0.281898 1.107918 0.005695 -0.013740 -1066330.000000 1 0 0
-2.386037 0.797802 15.702080 15.902357 -0.322677 0.158876 0.012408 -0.004217 98730.100000 1 0 0
-13.916437 -8.693598 12.424180 20.581694 0.558384 0.922722 0.009691 -0.013233 734644.000000 1 0 0
6.095063 -3.147898 14.561380 16.096361 -0.476734 0.440267 0.015940 -0.007006 709536.000000 1 0 0
-15.708937 0.457902 7.672480 17.488491 -0.029141 1.116627 -0.004826 -0.005028 84631.900000 1 0 0
-14.055837 5.916702 12.398780 19.654609 -0.398429 0.888170 0.011948 -0.016835 -99083.100000 1 0 0
0.557063 9.286502 16.639780 19.063885 1.510882 0.509798 -0.006885 -0.011931 -149408.000000 1 0 0
-10.467237 -5.377798 10.830780 15.993422 0.474606 0.826843 0.008842 -0.002322 278658.000000 1 0 0
-3.183137 -11.047798 15.059780 18.946851 1.290270 0.652047 0.021397 -0.009792 -20903.600000 1 0 0
-3.425937 2.563702 12.614480 13.320462 -0.642426 0.327031 0.000473 0.002590 -1033820.000000 1 0 0
-12.517037 -7.673898 7.492880 16.483573 0.549979 1.098911 0.004759 -0.004012 1022710.000000 1 0 0
-8.253737 -1.758798 13.217880 15.682152 0.209951 0.568218 0.009462 0.000821 -162802.000000 1 0 0
-9.802237 6.416602 9.590480 15.140473 -0.579606 0.884814 0.001415 -0.005537 -285872.000000 1 0 0
-17.988237 -3.365798 6.613780 19.458863 0.184972 1.224002 0.002900 -0.016031 258813.000000 1 0 0
-1.336737 0.038502 20.486780 20.530380 -0.028795 0.065183 0.019605 -0.012534 -406525.000000 1 0 0
-2.899637 2.675702 20.255480 20.636175 -0.745254 0.192380 0.023919 -0.003719 -556909.000000 1 0 0
-3.697437 11.280402 11.205180 16.324048 -1.254056 0.814240 0.002118 -0.005136 -739918.000000 1 0 0
-4.311837 -4.788298 14.965880 16.294088 0.837708 0.406563 0.017508 -0.010159 -117608.000000 1 0 0
-0.164637 -14.474098 13.445080 19.755930 1.559422 0.822271 0.022639 -0.005600 940274.000000 1 0 0
-12.124337 0.418402 8.361480 14.733939 -0.034496 0.967332 -0.001804 -0.002414 -698782.000000 1 0 0
-7.800337 2.133002 15.277980 17.286168 -0.266925 0.486816 0.010501 -0.003623 -819696.000000 1 0 0
3.494463 -2.207098 18.460880 18.917892 -0.563330 0.220252 0.021342 -0.012363 -377918.000000 1 0 0
-2.087337 4.817302 12.596680 13.646967 -1.161916 0.394890 -0.001894 0.001179 -635954.000000 1 0 0
-10.434037 -5.952798 13.318280 17.935482 0.518459 0.733903 0.003513 -0.005737 -455225.000000 1 0 0
2.346563 -3.864798 14.214780 14.916534 -1.025127 0.307958 0.008425 -0.005591 -409629.000000 1 0 0
6.719263 0.966402 16.913780 18.225212 0.142846 0.381673 0.019255 -0.011014 -547573.000000 1 0 0
-2.038637 -5.731598 13.920180 15.191401 1.229067 0.412005 0.011468 -0.006821 -209444.000000 1 0 0
-12.921837 3.976602 14.516080 19.836931 -0.298545 0.749880 0.004807 0.000138 156997.000000 1 0 0
-13.328137 -6.339398 13.407680 19.939736 0.443971 0.833336 0.002726 -0.009366 -451692.000000 1 0 0
-9.497337 6.950702 12.009980 16.815210 -0.631789 0.775269 0.005432 -0.005796 123165.000000 1 0 0
-1.041137 -2.446198 12.880080 13.151589 1.168405 0.203549 0.007387 -0.001593 523994.000000 1 0 0
0.094363 6.578002 15.207380 16.569351 1.556452 0.408288 0.003118 -0.006385 418904.000000 1 0 0
-16.378637 -0.702598 9.925880 19.164459 0.042871 1.026365 0.000766 -0.000421 -392919.000000 1 0 0
-1.259337 2.778702 13.835380 14.167740 -1.145276 0.217031 0.004314 -0.001234 -3679090.000000 1 0 0
-11.246137 -3.163698 16.255880 20.018447 0.274227 0.623149 0.019270 -0.002981 -39174.800000 1 0 0
-5.277437 -1.488198 17.152980 18.008076 0.274855 0.309402 0.027488 -0.006617 344652.000000 1 0 0
-11.937537 6.601302 11.231380 17.669914 -0.505134 0.881983 0.013380 -0.009470 -955035.000000 1 0 0
-2.758037 4.769402 18.714780 19.508894 -1.046502 0.286302 0.023134 -0.008871 126685.000000 1 0 0
5.111963 -1.956198 16.569980 17.450590 -0.365479 0.319040 0.018080 -0.006099 -389195.000000 1 0 0
-8.175937 -4.134498 12.218680 15.272071 0.468190 0.643390 0.013561 0.001555 -737600.000000 1 0 0
-11.745437 -0.678598 16.118580 19.955561 0.057711 0.630515 0.028987 -0.002820 271200.000000 1 0 0
1.999163 2.101502 17.335680 17.576653 0.810350 0.165779 0.013127 -0.013271 -1004280.000000 1 0 0
-8.999537 -7.389398 11.627580 16.455865 0.687467 0.786126 0.013198 -0.007009 619690.000000 1 0 0
-7.227137 6.792402 14.901680 17.900511 -0.754399 0.587241 0.007841 -0.009716 -659868.000000 1 0 0
-5.690537 3.491202 15.703080 17.063335 -0.550294 0.401996 0.015428 -0.003629 261396.000000 1 0 0
-9.290137 4.379502 11.538980 15.447807 -0.440519 0.727310 0.001222 -0.003606 88915.800000 1 0 0
-10.401737 0.272302 14.183080 17.590624 -0.026173 0.632949 0.016794 -0.000483 -436260.000000 1 0 0
8.287863 -0.716398 15.652880 17.726097 -0.086225 0.488492 0.020962 -0.009638 -74407.500000 1 0 0
-8.794837 -7.382698 14.758880 18.699677 0.698329 0.661196 0.024147 -0.005179 -524772.000000 1 0 0
-0.087037 4.145102 15.697780 16.236063 -1.549802 0.258218 0.006058 -0.006900 962.330000 1 0 0
-7.998937 3.146402 9.610380 12.893496 -0.374763 0.729712 0.000084 0.001578 -362918.000000 1 0 0
-2.024037 -9.783598 13.111380 16.484047 1.366794 0.651132 0.009031 -0.003354 424821.000000 1 0 0
-6.004137 10.293602 10.604580 15.951960 -1.042755 0.843594 0.008512 -0.008238 271037.000000 1 0 0
-8.726637 -2.550898 15.683480 18.128233 0.284388 0.525365 0.021910 -0.005425 41076.600000 1 0 0
4.332563 5.780102 17.577580 19.003999 0.927574 0.389916 0.012088 -0.003532 633874.000000 1 0 0
-6.900437 -0.940698 15.221480 16.739008 0.135489 0.429097 0.013266 -0.000815 -258816.000000 1 0 0
-0.857437 -9.883098 15.439780 18.352047 1.484255 0.571092 0.005818 -0.006077 742700.000000 1 0 0
-4.334637 5.698102 16.308180 17.810507 -0.920472 0.413676 0.019329 -0.006255 379038.000000 1 0 0
3.520763 -0.032398 17.403280 17.755871 -0.009202 0.199619 0.015332 -0.011334 -1226820.000000 1 0 0
1.365963 0.286602 19.229080 19.279665 0.206817 0.072456 0.016214 -0.010215 -940601.000000 1 0 0
-6.407937 6.527402 17.861380 20.067325 -0.794633 0.473291 0.019608 -0.009123 -16118.400000 1 0 0
-12.124537 0.691702 10.954180 16.354721 -0.056988 0.836874 0.006720 -0.001319 -294077.000000 1 0 0
-5.219037 5.217002 13.892480 15.730749 -0.785203 0.488279 0.004623 -0.001181 -1020890.000000 1 0 0
-8.853737 -9.526698 10.069080 16.447888 0.821995 0.911981 0.019898 -0.003750 -1232680.000000 1 0 0
6.970563 -3.733098 16.973480 18.724951 -0.491683 0.435964 0.025335 -0.010399 -179155.000000 1 0 0
-16.850437 1.832602 9.572980 19.466320 -0.108331 1.056673 0.010896 -0.005577 4505.790000 1 0 0
-4.176937 -9.488398 11.553380 15.522792 1.156109 0.731333 0.015191 -0.005679 1590320.000000 1 0 0
-11.285737 -3.676698 9.141580 14.981804 0.314940 0.914510 0.001831 0.003211 -815559.000000 1 0 0
3.672663 -5.139398 18.621380 19.663612 -0.950333 0.327041 0.019316 -0.006939 80221.700000 1 0 0
2.560563 -1.957998 16.009180 16.330464 -0.652827 0.198690 0.014657 -0.008976 -1114190.000000 1 0 0
-3.216537 -4.209298 20.371880 21.049413 0.918300 0.254409 0.024088 -0.014817 -1048070.000000 1 0 0
-6.462437 -3.343198 14.447080 16.175852 0.477414 0.466548 0.016162 -0.002069 347880.000000 1 0 0
-9.606637 5.280702 13.993680 17.776287 -0.502608 0.664524 0.016371 -0.008850 78926.100000 1 0 0
-5.906737 -5.244798 11.819680 14.216268 0.726109 0.589139 0.014145 -0.000662 -26329.300000 1 0 0
5.991063 1.229402 19.335480 20.279670 0.202396 0.306347 0.023396 -0.012295 113239.000000 1 0 0
-2.458737 12.021202 13.454680 18.209423 -1.369046 0.739381 0.001476 -0.007781 331058.000000 1 0 0
3.325563 1.316902 15.203380 15.618462 0.377048 0.231062 0.008404 -0.007010 -1159330.000000 1 0 0
-5.630737 7.462602 12.882980 15.917500 -0.924404 0.627736 -0.001937 -0.005799 -1963750.000000 1 0 0
-1.777637 -1.651798 15.303380 15.494575 0.748721 0.157258 0.011821 -0.004786 -37400.600000 1 0 0
-7.260237 10.254402 14.272780 19.015153 -0.954714 0.721826 0.026024 -0.019705 -590001.000000 1 0 0
-10.184437 2.288902 10.560580 14.848828 -0.221072 0.779584 0.003839 -0.000391 -1658680.000000 1 0 0
-13.602137 5.338702 9.007680 17.165610 -0.374015 1.018373 0.001047 -0.009754 50529.800000 1 0 0
0.402563 -4.716398 20.100380 20.650223 -1.485649 0.231281 0.027976 -0.023187 -349358.000000 1 0 0
-14.416837 -2.852598 7.404080 16.456090 0.195343 1.104110 -0.004343 -0.006308 72916.700000 1 0 0
-2.384737 2.529102 17.654780 17.993737 -0.814769 0.194407 0.010903 -0.006449 -9978.260000 1 0 0
-6.494037 -8.408898 14.776880 18.199952 0.913187 0.623365 0.027365 -0.002893 -365844.000000 1 0 0
-7.991737 2.016102 11.999280 14.557309 -0.247117 0.601869 0.003296 0.000694 -354561.000000 1 0 0
-14.706137 -3.367298 9.993580 18.096431 0.225092 0.985747 0.006223 -0.005075 1007200.000000 1 0 0
-0.607337 7.004702 12.775080 14.582091 -1.484308 0.503125 -0.003213 -0.001741 -362835.000000 1 0 0
-1.891137 -2.254998 19.366480 19.588822 0.872933 0.150811 0.019141 -0.013468 103616.000000 1 0 0
-12.838237 10.277902 7.344780 18.011146 -0.675088 1.150763 0.001916 -0.015747 266442.000000 1 0 0
-19.428837 2.363902 6.810980 20.723349 -0.121075 1.235910 0.008362 -0.011032 506140.000000 1 0 0
-16.085937 8.519702 6.623080 19.370284 -0.487075 1.221837 0.006732 -0.009246 573671.000000 1 0 0
-12.283037 7.340602 13.704180 19.813177 -0.538668 0.806998 0.019575 -0.015301 106758.000000 1 0 0
-15.963537 8.395402 10.450080 20.845178 -0.484161 1.045674 0.012262 -0.009309 751605.000000 1 0 0
2.163063 10.653802 15.016580 18.538608 1.370487 0.626616 -0.005423 -0.011397 -558630.000000 1 0 0
2.281463 14.515602 12.351680 19.195618 1.414899 0.871782 -0.009711 -0.004293 -641626.000000 1 0 0
-2.899537 13.689802 11.608680 18.181843 -1.362078 0.878279 -0.013118 -0.006438 607260.000000 1 0 0
8.816063 4.934102 15.856380 18.801412 0.510238 0.567288 0.013109 0.013743 -246176.000000 1 0 0
0.043563 12.480902 12.757680 17.847498 1.567306 0.774435 -0.018087 -0.003935 315613.000000 1 0 0
3.271963 13.345602 14.482680 19.963938 1.330367 0.759120 -0.014745 -0.002759 -165867.000000 1 0 0
-2.744037 -4.109598 -13.668320 14.534150 0.982069 2.794683 0.003458 -0.003810 -290673.000000 1 0 0
6.073863 -11.538498 16.259880 20.842563 -1.086253 0.675925 0.010967 0.006905 129686.000000 1 0 0
7.792463 -13.650998 7.246880 17.308654 -1.052098 1.138799 -0.003300 -0.000560 -353363.000000 1 0 0
-0.149137 15.551802 1.163980 15.596013 -1.561207 1.496094 0.000319 -0.003752 -2029670.000000 1 0 0
-13.553537 8.293602 9.209580 18.365690 -0.549134 1.045516 0.001435 -0.007931 815881.000000 1 0 0
-15.596937 -9.643998 4.871580 18.973757 0.553786 1.311135 0.003377 -0.002369 -348132.000000 1 0 0
9.423963 -11.172398 11.008880 18.298333 -0.870086 0.925252 0.002454 -0.001003 58835.300000 1 0 0
-5.804437 -10.574798 -16.725720 20.622017 1.068803 2.516761 0.025105 -0.006035 154563.000000 1 0 0
-1.876037 -12.522698 -14.704020 19.404786 1.422091 2.430658 0.006483 0.003194 -45573.500000 1 0 0
5.329563 -15.408898 -12.802320 20.730118 -1.237800 2.236447 -0.013307 0.006645 277398.000000 1 0 0
2.673863 -11.897098 -16.679220 20.661241 -1.349721 2.510310 -0.005807 0.009883 293350.000000 1 0 0
0.751663 -14.086098 -14.695520 20.370112 -1.517485 2.376655 0.013444 0.016853 321102.000000 1 0 0
-6.478237 -6.171998 -14.574320 17.101811 0.761195 2.590990 0.012043 -0.000538 69633.100000 1 0 0
-6.171937 -8.252998 -17.348520 20.178601 0.928678 2.605573 0.010588 0.000908 11357.600000 1 0 0
-2.680537 -16.257298 -13.308220 21.180032 1.407384 2.250211 0.010727 -0.002064 257277.000000 1 0 0
16.038463 -8.233098 -9.081420 20.186341 -0.474258 2.037427 0.012016 0.004136 27365.800000 1 0 0
19.009763 -3.694998 -3.251420 19.636594 -0.191980 1.737142 0.008801 -0.018369 41993.000000 1 0 0
15.674063 -11.795198 -8.823320 21.509391 -0.645118 1.993478 0.017926 0.001595 107512.000000 1 0 0
18.568263 -2.756598 -6.380820 19.826600 -0.147381 1.898459 0.130001 -0.002358 -248256.000000 1 0 0
9.029463 -9.816198 -15.751220 20.639522 -0.827120 2.438983 0.038772 -0.004953 142510.000000 1 0 0
-4.791237 9.400502 -16.177420 19.314096 -1.099436 2.563665 0.011249 -0.005230 611010.000000 1 0 0
2.436363 -9.630698 -18.621320 21.105444 -1.323016 2.651522 0.008699 0.005296 269041.000000 1 0 0
11.097663 7.847302 -14.974920 20.223415 0.615484 2.404572 0.036514 -0.040566 438742.000000 1 0 0
18.318163 -5.289298 -8.289720 20.790652 -0.281100 1.980921 0.013650 -0.005772 146501.000000 1 0 0
12.019763 4.789302 -14.163020 19.183411 0.379171 2.401336 0.004327 -0.005112 97969.500000 1 0 0
15.840763 6.250202 -10.825520 20.178867 0.375812 2.137055 0.016892 -0.004497 259718.000000 1 0 0
3.449063 -0.630398 -19.378420 19.693060 -0.180778 2.962596 0.026985 -0.005788 263692.000000 1 0 0
10.502263 -1.906798 -14.586620 18.074924 -0.179604 2.509865 0.016503 -0.015374 262778.000000 1 0 0
12.196363 -5.845398 -13.877820 19.378179 -0.446930 2.369077 0.026076 -0.011887 92556.600000 1 0 0
10.232363 6.670002 -13.088820 17.902720 0.577677 2.390741 0.018905 -0.006996 607185.000000 1 0 0
10.754063 5.016502 -16.457920 20.289857 0.436470 2.516896 0.023564 -0.012259 277947.000000 1 0 0
12.063663 -10.145498 -14.704620 21.556645 -0.699244 2.321480 0.056956 -0.019554 221539.000000 1 0 0
-1.613137 2.207602 -17.624120 17.834947 -0.939749 2.987681 0.008228 -0.004202 335442.000000 1 0 0
6.352763 -1.278898 -17.247620 18.424809 -0.198658 2.782194 0.017773 0.005606 125211.000000 1 0 0
6.715763 -5.946998 -15.450320 17.865628 -0.724762 2.615562 -0.002252 -0.014515 395219.000000 1 0 0
-2.397437 -4.758398 -20.317720 21.004757 1.104087 2.885122 0.023657 -0.022598 211635.000000 1 0 0
16.154263 -0.160698 -13.392720 20.984542 -0.009947 2.262978 0.036831 -0.006859 15888.400000 1 0 0
-3.920337 -0.501198 -18.433720 18.852647 0.127156 2.930387 -0.004079 -0.005778 -43809.100000 1 0 0
4.569563 8.765302 -18.026820 20.559126 1.090235 2.640021 0.024007 -0.013890 225940.000000 1 0 0
8.798163 1.058602 -15.934120 18.232512 0.119745 2.634047 0.009086 -0.059960 -197258.000000 1 0 0
4.354963 4.492902 -18.238520 19.281999 0.800987 2.811102 0.015450 -0.012394 508500.000000 1 0 0
-2.271037 -11.150798 -18.240020 21.498750 1.369878 2.583794 0.010843 -0.001928 204504.000000 1 0 0
6.624463 -9.252598 -16.129220 19.739449 -0.949441 2.527169 0.025946 -0.010509 261629.000000 1 0 0
9.815163 -13.121898 -11.824320 20.207330 -0.928577 2.195861 0.002811 0.044261 273741.000000 1 0 0
6.328763 7.022502 -16.773720 19.254258 0.837312 2.628375 0.012962 -0.021745 392714.000000 1 0 0
8.741263 1.350802 -20.083220 21.944705 0.153319 2.726735 0.042205 -0.010394 226966.000000 1 0 0
-1.296637 -1.002998 -20.248920 20.315168 0.658396 3.060812 0.023537 -0.009785 274152.000000 1 0 0
-0.742537 6.558702 -19.745120 20.819167 -1.458062 2.818981 0.016255 -0.009548 -60262.000000 1 0 0
8.947063 5.966002 -18.035920 20.998513 0.588103 2.603942 0.023014 -0.017413 -100212.000000 1 0 0
11.898563 -0.110398 -12.749920 17.439852 -0.009278 2.390699 -0.005237 -0.014807 -57495.400000 1 0 0
-4.429337 -2.767198 -20.006020 20.676491 0.558415 2.886236 -0.008406 -0.001011 338514.000000 1 0 0
5.390463 -11.412698 -14.502720 19.225911 -1.129536 2.425432 -0.018694 0.001052 -4281.990000 1 0 0
11.217963 2.038302 -15.868120 19.539565 0.179739 2.518542 0.015272 -0.013640 -213840.000000 1 0 0
-2.913037 -4.394798 -16.986020 17.785526 0.985449 2.840616 0.004659 -0.008572 247243.000000 1 0 0
-6.738737 -4.772198 -17.341920 19.207464 0.616191 2.697205 0.012991 -0.007224 58861.200000 1 0 0
2.795563 10.407902 -15.409020 18.803657 1.308390 2.531281 0.004358 -0.010879 305883.000000 1 0 0
16.778263 -6.444598 -10.785120 20.960958 -0.366728 2.111260 0.025085 -0.005871 35048.300000 1 0 0
9.362363 -3.282898 -17.764820 20.347484 -0.337252 2.632264 -0.000361 -0.013113 70152.600000 1 0 0
-7.353937 -1.284798 -18.359820 19.819539 0.172963 2.755399 -0.000594 -0.004764 527934.000000 1 0 0
1.441963 -7.297898 -19.281020 20.666309 -1.375723 2.773370 0.026432 -0.021568 291592.000000 1 0 0
5.892663 10.287202 -14.055220 18.387474 1.050606 2.440893 0.029371 -0.015303 467675.000000 1 0 0
6.038963 -3.997998 -18.051120 19.449833 -0.584788 2.760036 0.024863 -0.015725 542896.000000 1 0 0
4.560463 13.461402 -14.662720 20.420640 1.244151 2.371770 0.030246 -0.013019 47856.500000 1 0 0
9.654863 11.075802 -15.732120 21.526481 0.853834 2.390328 0.060959 -0.018585 -202419.000000 1 0 0
16.942363 1.137502 -10.871120 20.162312 0.067039 2.140260 0.034371 -0.010720 -181160.000000 1 0 0
15.283063 -2.877798 -12.270920 19.809826 -0.186121 2.238820 0.034376 -0.007004 48131.600000 1 0 0
-8.845737 0.320902 -17.379320 19.503611 -0.036262 2.670520 0.009776 -0.000918 438711.000000 1 0 0
-3.136837 4.744902 -18.980020 19.814011 -0.986660 2.850424 0.016601 -0.000221 406.470000 1 0 0
4.377963 2.407402 -17.053420 17.770236 0.502759 2.856594 0.012540 -0.005019 485043.000000 1 0 0
-4.722637 14.205302 -14.101220 20.565464 -1.249836 2.326327 -0.000429 -0.005880 318014.000000 1 0 0
0.925663 9.525602 -17.781420 20.193386 1.473924 2.647832 0.010845 -0.005415 402711.000000 1 0 0
0.907463 -5.132498 -20.423320 21.077904 -1.395798 2.891723 0.025566 0.008485 541859.000000 1 0 0
3.695463 -6.281198 -17.964120 19.386065 -1.038997 2.756201 0.023092 -0.023517 -255089.000000 1 0 0
-6.814237 7.700802 -16.074520 19.082096 -0.846401 2.572495 0.005488 0.010623 48469.500000 1 0 0
-11.931037 3.264902 -16.671220 20.759066 -0.267109 2.503245 0.039369 -0.017397 376948.000000 1 0 0
-4.329337 6.725002 -17.604220 19.335909 -0.998815 2.715147 0.009577 0.021948 253659.000000 1 0 0
-8.221637 5.283602 -17.480920 20.027340 -0.571188 2.631815 0.013597 -0.006929 389480.000000 1 0 0
-8.380037 4.203202 -14.959220 17.654184 -0.464905 2.581766 -0.006792 -0.011130 402563.000000 1 0 0
9.540363 13.160502 -12.771020 20.671630 0.943538 2.236744 0.043931 -0.031153 672036.000000 1 0 0
14.170963 9.687102 -12.033620 20.963400 0.599626 2.182215 0.053720 -0.014826 89736.900000 1 0 0
8.895763 15.675402 -10.033920 20.628436 1.054618 2.078775 0.024004 -0.003360 60018.400000 1 0 0
7.613063 13.163302 -14.462020 20.985263 1.046444 2.331113 0.050787 -0.024868 281811.000000 1 0 0
4.117963 15.555102 -13.069920 20.730211 1.311999 2.252964 0.044768 -0.011790 272171.000000 1 0 0
11.393063 11.028902 -10.625920 19.087921 0.769158 2.161184 0.044922 -0.039575 38793.300000 1 0 0
15.924963 10.599002 -9.623420 21.413862 0.587235 2.036892 0.047833 -0.017482 226404.000000 1 0 0
13.392563 11.638902 -9.825820 20.282296 0.715454 2.076534 0.047990 -0.007438 -143988.000000 1 0 0
10.770763 11.367502 -7.298620 17.277132 0.812347 2.006936 0.015330 -0.012575 55593.300000 1 0 0
6.256863 16.821302 -10.027420 20.558543 1.214693 2.080306 0.059045 -0.004866 52591.700000 1 0 0
11.735563 13.511702 -10.233220 20.615730 0.855632 2.090219 0.048616 -0.029082 168419.000000 1 0 0
8.051463 -19.480598 -2.003620 21.173905 -1.178872 1.665565 0.027752 -0.000306 141967.000000 1 0 0
7.369663 -16.597998 -4.010520 18.598111 -1.152936 1.788145 0.020295 -0.016036 285840.000000 1 0 0
3.873763 -18.768598 5.331280 19.891929 -1.367258 1.299467 0.026376 -0.014083 -108554.000000 1 0 0
10.404863 -17.189998 -1.985920 20.191609 -1.026499 1.669309 0.037428 -0.027950 611931.000000 1 0 0
-3.219337 -14.955198 7.956480 17.243192 1.358766 1.091193 0.034913 -0.026173 243785.000000 1 0 0
-15.377637 -12.732298 -4.363320 20.435795 0.691568 1.785966 0.006333 0.000849 -24957.900000 1 0 0
-9.111937 -12.609798 -7.307220 17.188074 0.945058 2.009905 0.014937 -0.011095 117382.000000 1 0 0
-11.650337 -15.012198 6.880580 20.209870 0.910826 1.223394 0.010114 -0.000043 208035.000000 1 0 0
-15.360437 -7.598198 -7.701720 18.788085 0.459367 1.993169 0.050638 -0.009730 -112857.000000 1 0 0
5.419063 -15.757998 5.606280 17.581556 -1.239573 1.246256 0.023375 -0.008119 -34026.600000 1 0 0
2.755863 -14.003798 8.960980 16.852308 -1.376485 1.010147 0.010515 -0.002949 267021.000000 1 0 0
2.984363 -17.468698 10.001980 20.349482 -1.401589 1.056973 0.022087 -0.004598 295363.000000 1 0 0
-7.746237 -17.531798 -5.114120 19.837398 1.154750 1.831543 -0.006547 -0.001731 229256.000000 1 0 0
2.108763 -19.830598 -3.902920 20.320736 -1.464856 1.764063 0.005187 -0.006055 -89871.400000 1 0 0
-18.352437 -10.319798 -1.967320 21.146644 0.512247 1.663963 0.006291 -0.002185 -57931.400000 1 0 0
-4.134437 -14.992198 3.011380 15.840707 1.301712 1.379528 0.008720 0.004423 752.025000 1 0 0
-10.825837 -9.977198 -14.606020 20.738348 0.744627 2.352233 0.014978 0.009993 156303.000000 1 0 0
1.045963 -20.587498 2.792080 20.802279 -1.520034 1.436170 0.029326 -0.006109 308246.000000 1 0 0
5.529863 -18.663098 0.459780 19.470542 -1.282738 1.547180 0.003054 0.000709 241595.000000 1 0 0
-7.547937 -19.173898 -3.100920 20.838077 1.195770 1.720161 0.011056 -0.004306 211397.000000 1 0 0
-9.243337 -15.689698 -7.655820 19.753924 1.038405 1.968779 0.027221 -0.007848 87895.900000 1 0 0
-12.121437 -10.770698 -12.387620 20.405644 0.726462 2.223162 0.044598 0.002866 318070.000000 1 0 0
-13.195937 -14.874898 -3.316020 20.159151 0.845139 1.736039 0.003888 -0.010467 163372.000000 1 0 0
-0.148937 -20.351898 -2.459920 20.500565 1.563478 1.691079 0.016487 -0.015750 414615.000000 1 0 0
-11.869137 -16.919798 -0.902520 20.687449 0.959068 1.614437 0.010154 0.009530 84606.000000 1 0 0
1.109763 -20.246298 5.085480 20.904695 -1.516038 1.325061 0.035898 -0.017137 212662.000000 1 0 0
-18.266037 -9.343698 2.414980 20.658774 0.472832 1.453630 0.009484 0.006304 -40978.900000 1 0 0
-14.578637 -14.952998 -0.235420 20.885024 0.798074 1.582069 -0.002833 -0.000584 -104206.000000 1 0 0
10.216063 -15.751198 -4.886720 19.399696 -0.995413 1.825436 0.024561 0.003386 -93352.300000 1 0 0
-0.174937 -19.224898 -7.256420 20.549524 1.561697 1.931699 -0.002126 0.008646 175001.000000 1 0 0
-9.698737 -16.448398 -2.542220 19.263390 1.038025 1.703154 0.004260 -0.005867 416877.000000 1 0 0
-15.403137 -6.331798 -11.092420 20.009750 0.390015 2.158379 0.046480 -0.007452 93409.300000 1 0 0
-12.297537 -15.406298 2.104280 19.824516 0.897145 1.464451 0.012144 0.003203 198522.000000 1 0 0
-2.778037 -16.365498 10.344580 19.559073 1.402650 1.013505 0.029047 -0.017715 301279.000000 1 0 0
-12.242937 -14.750498 -6.678420 20.299458 0.878028 1.906035 0.010168 0.002304 242945.000000 1 0 0
4.944063 -17.107498 -7.311720 19.250234 -1.289462 1.960403 -0.006763 0.001790 117398.000000 1 0 0
-17.246737 -7.130098 -2.794120 18.870489 0.392019 1.719411 -0.038802 0.003938 -96286.600000 1 0 0
-12.143237 -13.754498 -9.061220 20.463386 0.847534 2.029517 0.034872 -0.022628 88929.300000 1 0 0
-8.023637 -13.687498 10.038980 18.775182 1.040584 1.006651 0.029049 -0.010458 562862.000000 1 0 0
-15.633737 -8.356698 -5.863520 18.671610 0.490888 1.890235 0.006305 0.008800 380625.000000 1 0 0
-0.717037 -19.716298 0.093180 19.729552 1.534445 1.566073 0.010183 -0.008115 164858.000000 1 0 0
-15.123337 -11.484698 -1.812220 19.076105 0.649492 1.665939 0.007139 0.009023 125891.000000 1 0 0
-6.818037 -18.852798 1.605380 20.111959 1.223784 1.490889 0.009278 -0.003873 68572.500000 1 0 0
-1.785937 -21.035598 -4.965620 21.687401 1.486099 1.801809 -0.007641 0.003391 -173596.000000 1 0 0
-9.064737 -19.690498 -1.154320 21.707548 1.139360 1.623997 0.013895 0.008160 35931.900000 1 0 0
-17.731137 -7.622598 4.713480 19.867414 0.406013 1.331266 -0.001439 -0.008490 -22718.200000 1 0 0
-2.992237 -15.738998 -10.715220 19.273959 1.382922 2.160293 0.008613 -0.000221 20363.900000 1 0 0
-2.745737 -18.152698 -8.277020 20.138734 1.420676 1.994347 0.001037 0.000821 -1465.860000 1 0 0
4.499563 -16.914198 -4.710420 18.125237 -1.310795 1.833696 -0.000463 -0.023055 755611.000000 1 0 0
0.703263 -17.380998 -9.464920 19.803495 -1.530357 2.069107 -0.005142 0.011500 154967.000000 1 0 0
-7.805437 -10.222998 -14.412220 19.317004 0.918700 2.412966 0.021216 -0.012339 176796.000000 1 0 0
-5.155337 -19.348898 -2.075720 20.131219 1.310405 1.674089 0.014238 -0.006366 292828.000000 1 0 0
-9.868837 -16.100498 8.618080 20.757921 1.020907 1.142666 0.003339 0.002281 288355.000000 1 0 0
-7.219237 -15.313898 -10.169720 19.749837 1.130275 2.111719 0.022300 -0.009211 419753.000000 1 0 0
-12.685637 -8.053098 -12.480320 19.532951 0.565630 2.263912 0.009350 0.003660 310618.000000 1 0 0
-15.414237 -13.086398 3.237180 20.477594 0.703902 1.412046 -0.006963 0.009149 105058.000000 1 0 0
-6.234937 -14.361298 -13.296020 20.540338 1.161202 2.274850 0.013374 0.000564 467829.000000 1 0 0
-13.863037 -12.141598 -6.809620 19.646199 0.719297 1.924754 0.004706 0.002719 246250.000000 1 0 0
-12.035337 -10.639398 -8.162020 18.018455 0.723912 2.040903 0.033164 -0.004293 362119.000000 1 0 0
-9.918737 -15.191698 3.528780 18.483001 0.992382 1.378697 0.004183 0.016415 520041.000000 1 0 0
5.085263 -17.988598 8.360180 20.477846 -1.295292 1.150255 0.034958 -0.017998 276048.000000 1 0 0
-4.817037 -16.823698 5.408580 18.316479 1.291933 1.271043 0.011098 0.012249 279620.000000 1 0 0
-18.478037 -7.272898 -7.019120 21.061837 0.374974 1.910558 0.002799 -0.002202 -197929.000000 1 0 0
-17.324537 -3.501098 -10.657220 20.639129 0.199403 2.113391 0.027049 -0.014051 -146851.000000 1 0 0
-15.792637 -3.565098 -13.179220 20.876043 0.222023 2.254035 0.013327 -0.001703 104374.000000 1 0 0
-19.464037 -5.095498 -5.923420 20.973788 0.256044 1.857112 0.028080 0.004270 -525398.000000 1 0 0
5.648863 -13.343998 8.570380 16.835182 -1.170344 1.036686 0.021533 -0.002959 267750.000000 1 0 0
19.616663 -3.497898 2.584580 20.093004 -0.176458 1.441808 0.011706 -0.015584 -207034.000000 1 0 0
18.245763 -2.601898 -0.187520 18.431302 -0.141648 1.580971 0.026328 -0.015466 176321.000000 1 0 0
14.030363 -11.469898 0.405780 18.126618 -0.685324 1.548409 0.025271 0.001718 8288.800000 1 0 0
11.196763 -13.679798 5.239680 18.437967 -0.884883 1.282647 0.013947 -0.000512 502160.000000 1 0 0
9.911163 -12.959898 8.404980 18.353032 -0.917918 1.095096 0.004447 -0.015499 89.793000 1 0 0
19.328463 4.029702 -4.140720 20.173585 0.205541 1.777520 0.068435 0.002443 44356.900000 1 0 0
18.964763 -6.293198 -4.883820 20.569839 -0.320403 1.810512 0.033833 -0.008253 -76253.700000 1 0 0
17.849463 -9.963398 -0.404620 20.445937 -0.509110 1.590587 0.045903 -0.001547 388649.000000 1 0 0
17.690563 -8.759798 8.808780 21.616768 -0.459774 1.151084 0.061851 -0.008426 -129847.000000 1 0 0
19.673163 0.197902 -2.222920 19.799340 0.010059 1.683306 0.008914 -0.004204 -174235.000000 1 0 0
7.327563 -13.707998 11.516780 19.345247 -1.079895 0.933122 0.002279 0.010725 418879.000000 1 0 0
16.239563 -6.861498 -3.337420 17.942740 -0.399766 1.757890 0.027486 -0.005115 282452.000000 1 0 0
14.534363 -6.927798 12.038080 20.103667 -0.444793 0.928794 0.026169 -0.020349 410938.000000 1 0 0
16.855263 0.932602 9.542880 19.391652 0.055274 1.056281 0.080279 -0.033705 359570.000000 1 0 0
16.401663 -10.316898 2.740780 19.569486 -0.561482 1.430281 0.001685 -0.002208 191944.000000 1 0 0
16.408663 -7.500498 -6.066320 19.034230 -0.428748 1.895160 0.031387 0.004372 247797.000000 1 0 0
17.533963 -4.457898 5.540980 18.921288 -0.248969 1.273597 0.022973 -0.021556 -86160.700000 1 0 0
13.318663 -13.379998 8.106380 20.545669 -0.787695 1.165214 0.023118 -0.010730 132604.000000 1 0 0
15.172963 -14.298398 -1.408220 20.896078 -0.755732 1.638239 0.031333 0.001502 143422.000000 1 0 0
18.686063 -6.308998 7.586980 21.131367 -0.325614 1.203559 0.048997 -0.014072 328924.000000 1 0 0
19.525963 3.500902 2.750880 20.027153 0.177410 1.433003 0.034109 -0.008128 334893.000000 1 0 0
15.671063 -10.507698 8.176080 20.563127 -0.590663 1.161887 0.041967 -0.025693 312417.000000 1 0 0
14.576663 -4.053398 10.670380 18.513944 -0.271222 0.956550 0.037647 -0.013430 -41265.800000 1 0 0
18.714963 -7.787698 1.662780 20.338705 -0.394327 1.488951 0.034560 -0.014513 11839.700000 1 0 0
19.142963 -5.950098 -1.195320 20.081969 -0.301358 1.630354 0.031329 -0.016623 244436.000000 1 0 0
14.544763 -13.887898 -6.183720 21.039540 -0.762300 1.869111 0.029404 -0.001334 428004.000000 1 0 0
13.745463 -9.738598 10.181580 19.683562 -0.616405 1.027146 0.011520 -0.011159 395875.000000 1 0 0
14.154563 2.183702 0.322780 14.325655 0.153069 1.548263 -0.000430 -0.005314 -267752.000000 1 0 0
13.047263 2.484102 13.461580 18.910736 0.188141 0.778670 0.028078 -0.005753 -61010.200000 1 0 0
18.154463 -3.743198 9.048280 20.626861 -0.203337 1.116684 0.032447 -0.013572 99299.900000 1 0 0
6.919563 -18.211698 4.524680 20.000476 -1.207692 1.342592 0.007917 -0.017504 344343.000000 1 0 0
12.910763 -3.206198 14.699780 19.825514 -0.243411 0.735556 0.019987 -0.003871 335376.000000 1 0 0
11.376063 -13.687298 -7.174420 19.189300 -0.877354 1.953981 0.021161 -0.004963 191560.000000 1 0 0
10.563463 -17.689598 4.666480 21.125450 -1.032470 1.348066 0.017201 -0.001215 561936.000000 1 0 0
18.360963 -0.482698 -4.305920 18.865283 -0.026283 1.801072 0.024711 -0.013176 -152690.000000 1 0 0
4.060563 -13.394698 11.560280 18.153407 -1.276455 0.880442 -0.002232 -0.004347 -179792.000000 1 0 0
9.391063 -2.767998 14.624380 17.599044 -0.286632 0.589937 0.034180 -0.003477 514699.000000 1 0 0
9.169263 -9.094598 13.342680 18.569173 -0.781310 0.769097 0.024112 -0.027380 250151.000000 1 0 0
20.973463 5.900802 -2.339120 21.912943 0.274257 1.677746 0.027358 0.006622 326696.000000 1 0 0
14.713263 -13.198098 1.692880 19.837735 -0.731167 1.485356 0.021824 -0.002673 79524.100000 1 0 0
10.709363 -0.418598 14.880080 18.338005 -0.039067 0.624195 0.011634 -0.012052 -57917.500000 1 0 0
19.634663 0.066102 7.479280 21.011044 0.003367 1.206846 0.087503 -0.023526 15888.600000 1 0 0
19.862763 0.990502 0.500880 19.893751 0.049826 1.545616 0.030747 -0.013931 102562.000000 1 0 0
18.183263 0.449602 3.073980 18.446748 0.024721 1.403375 0.030144 -0.010404 -17138.500000 1 0 0
10.326963 -8.363398 16.217780 20.966854 -0.680725 0.686458 0.032724 -0.001142 281861.000000 1 0 0
18.888963 3.086802 5.723480 19.976973 0.161986 1.280221 0.034876 -0.004172 154743.000000 1 0 0
15.937463 2.469902 7.096580 17.620005 0.153751 1.156269 0.052804 -0.012594 -66344.900000 1 0 0
11.437463 -16.194998 2.003380 19.927545 -0.955899 1.470093 0.011980 0.009639 299362.000000 1 0 0
8.293463 -16.166698 6.902680 19.436837 -1.096806 1.207739 0.007588 -0.003572 526750.000000 1 0 0
6.274963 6.670402 7.170780 11.631401 0.815935 0.906504 -0.000199 0.002763 -869456.000000 1 0 0
18.510863 2.060102 -6.485520 19.722019 0.110835 1.905878 0.007915 0.006911 247771.000000 1 0 0
14.171063 4.495902 -7.206520 16.521685 0.307215 2.022152 0.013686 -0.001330 360771.000000 1 0 0
-10.714837 -3.876398 -13.854020 17.937895 0.347129 2.453301 0.009520 -0.000331 -188031.000000 1 0 0
7.707263 -14.239398 -10.442420 19.266720 -1.074686 2.143603 -0.004994 0.007581 26221.500000 1 0 0
2.036663 -15.744098 13.929180 21.119817 -1.442150 0.850601 0.017684 -0.004538 424995.000000 1 0 0
-9.470937 -7.827198 1.957780 12.441728 0.690659 1.412784 0.005029 0.006094 309423.000000 1 0 0
-13.803837 3.114702 -9.634520 17.119325 -0.221924 2.168549 0.013371 -0.005172 334496.000000 1 0 0
-13.135937 -4.969298 -13.272620 19.323800 0.361659 2.327947 0.016038 0.004359 28562.200000 1 0 0
-17.743537 -0.103998 -8.214120 19.552895 0.005861 2.004349 0.025112 -0.019487 409650.000000 1 0 0
-12.287937 15.261802 4.509180 20.105937 -0.892927 1.344601 0.015336 -0.013084 329317.000000 1 0 0
-16.825637 6.712002 8.974080 20.216012 -0.379571 1.110839 -0.016289 -0.009031 200588.000000 1 0 0
-13.400337 15.359302 0.129280 20.383668 -0.853408 1.564454 0.034280 -0.021300 76037.000000 1 0 0
-16.237537 5.099102 -11.079220 20.307821 -0.304280 2.147859 0.044666 0.005424 -11693.800000 1 0 0
-18.349837 2.875602 -0.321520 18.576571 -0.155446 1.588105 0.032551 -0.001836 -105306.000000 1 0 0
-9.990937 15.572502 -0.167220 18.502692 -1.000366 1.579834 0.014953 -0.004801 84153.800000 1 0 0
-17.990937 12.454402 2.355580 22.007606 -0.605512 1.463556 0.071398 -0.021165 62265.200000 1 0 0
-8.803437 16.249302 -7.668520 20.008661 -1.074291 1.964120 0.047472 -0.023370 -118347.000000 1 0 0
-15.061437 -1.465098 -12.745420 19.784821 0.096970 2.270776 0.015541 -0.022731 17472.100000 1 0 0
-19.065637 5.291202 -4.497120 20.290871 -0.270713 1.794285 0.040332 -0.012962 30220.000000 1 0 0
-16.974137 9.373302 -5.930220 20.276776 -0.504539 1.867598 0.048905 0.004965 -91470.300000 1 0 0
-18.735437 1.579102 2.810680 19.010789 -0.084085 1.422406 -0.002815 -0.010833 14016.900000 1 0 0
-13.544937 12.082502 -6.933920 19.430168 -0.728395 1.935705 0.033379 -0.007752 109466.000000 1 0 0
-12.863237 5.303002 -13.580520 19.442614 -0.391031 2.344085 0.021807 -0.007974 -31599.300000 1 0 0
-14.171037 9.479502 -6.657120 18.302910 -0.589571 1.943054 0.034764 -0.007450 421733.000000 1 0 0
-6.604237 11.688202 -15.281220 20.340740 -1.056484 2.420768 0.019333 -0.015905 -206275.000000 1 0 0
-15.062337 13.984602 2.902780 20.757390 -0.748312 1.430493 0.023778 -0.018265 44439.100000 1 0 0
-18.700337 8.321002 -4.831420 21.030557 -0.418659 1.802600 0.045275 -0.007180 272370.000000 1 0 0
-3.485237 16.835802 -10.474820 20.132386 -1.366666 2.117995 0.006696 0.004116 72447.600000 1 0 0
-19.269737 -1.850298 -6.742920 20.499106 0.095727 1.905974 0.010427 -0.005260 -47478.500000 1 0 0
-10.520437 13.214802 -6.207720 17.995732 -0.898432 1.922987 0.015988 -0.027943 49904.300000 1 0 0
-19.334037 3.224602 4.450580 20.100018 -0.165263 1.347524 0.016717 0.001891 97346.100000 1 0 0
-15.015537 12.336502 0.471180 19.439075 -0.687763 1.546555 0.016391 -0.010517 133089.000000 1 0 0
-17.529637 2.702202 -8.467120 19.654064 -0.152947 2.016184 0.007363 -0.009873 -65769.100000 1 0 0
-16.742537 12.580402 -4.396020 21.398693 -0.644399 1.777704 0.046333 -0.001228 183816.000000 1 0 0
-10.503437 15.751102 -8.687620 20.830126 -0.982675 2.001015 0.027066 -0.013148 -146060.000000 1 0 0
-19.026137 2.459602 -6.725120 20.329063 -0.128562 1.907961 0.016351 -0.010665 160903.000000 1 0 0
-17.069537 10.476702 -0.392820 20.032092 -0.550480 1.590407 0.031946 -0.007119 -79596.900000 1 0 0
-11.380637 7.132002 -14.737020 19.939010 -0.559805 2.402537 0.002653 -0.000427 234045.000000 1 0 0
-13.654337 13.332902 -5.125320 19.760468 -0.773488 1.833169 0.045384 -0.002030 237372.000000 1 0 0
-18.964037 7.321902 -0.185720 20.329276 -0.368461 1.579932 0.044130 -0.007148 105223.000000 1 0 0
-14.673137 9.044902 -10.274720 20.066915 -0.552410 2.108335 0.031445 -0.007111 679412.000000 1 0 0
-18.610937 11.455102 4.606580 22.333986 -0.551741 1.363046 0.042797 -0.026804 114931.000000 1 0 0
-8.180137 12.057302 -13.511320 19.870807 -0.974688 2.318502 0.006015 0.001264 496702.000000 1 0 0
-20.736837 -0.057798 -5.293820 21.401970 0.002787 1.820743 0.007429 -0.004365 8401.340000 1 0 0
-10.699737 13.432902 -3.623220 17.551495 -0.898174 1.778725 0.017033 -0.000984 485277.000000 1 0 0
-18.750337 -5.004498 3.722480 19.760491 0.260822 1.381284 0.006523 -0.004636 -174701.000000 1 0 0
-11.492937 11.476302 -12.914220 20.750186 -0.784674 2.242559 0.033398 -0.008137 289099.000000 1 0 0
-14.647037 12.522302 -10.238620 21.821391 -0.707354 2.059182 0.047608 0.027058 144129.000000 1 0 0
-13.131837 9.149702 -12.840120 20.519037 -0.608546 2.246910 0.057949 -0.031706 205212.000000 1 0 0
-18.348737 -4.810098 -3.023520 19.208198 0.256380 1.728862 -0.006366 -0.000833 -278375.000000 1 0 0
-9.573337 12.825502 -11.430220 19.667034 -0.929584 2.190983 0.026050 -0.007503 -10277.800000 1 0 0
-15.517437 7.931002 -8.382820 19.338132 -0.472490 2.019155 0.014255 -0.000007 46383.500000 1 0 0
-14.649237 9.008702 1.948680 17.307635 -0.551347 1.457966 0.013430 -0.002663 -103502.000000 1 0 0
-19.684937 6.273302 8.239880 22.242902 -0.308510 1.191303 0.025220 -0.011133 273158.000000 1 0 0
-18.994137 6.351702 4.020980 20.427669 -0.322713 1.372663 0.020170 0.003347 46522.900000 1 0 0
-14.889937 12.666202 5.822880 20.397275 -0.704874 1.281296 0.024741 -0.020135 80178.100000 1 0 0
17.988463 6.386902 5.837280 19.961241 0.341171 1.274029 0.037447 -0.016728 33411.900000 1 0 0
18.246363 8.095302 0.557880 19.969349 0.417575 1.542856 0.016786 0.003879 -97098.700000 1 0 0
17.390163 4.522602 8.501780 19.878429 0.254431 1.128862 0.074763 -0.010988 14765.400000 1 0 0
11.837463 13.222502 10.588180 20.665663 0.840611 1.032870 0.033846 -0.019681 67791.500000 1 0 0
15.520363 12.557402 4.088980 20.378659 0.680260 1.368775 0.030051 -0.002131 92937.400000 1 0 0
4.421763 10.068602 13.207980 17.186607 1.156990 0.694296 0.001556 -0.022011 368130.000000 1 0 0
13.263663 13.175202 -5.353220 19.446533 0.782052 1.849676 0.039250 -0.006725 319258.000000 1 0 0
18.066963 9.202302 -2.700920 20.454644 0.471095 1.703227 0.023166 0.004383 -81329.300000 1 0 0
14.737463 7.633502 9.520380 19.133760 0.477917 1.050002 0.049231 -0.007092 202584.000000 1 0 0
4.658663 18.963602 -1.253720 19.567656 1.329903 1.634911 0.000175 -0.013656 420336.000000 1 0 0
-4.751437 19.005402 3.610680 19.920303 -1.325813 1.388533 0.003868 -0.011930 103660.000000 1 0 0
6.660563 12.973502 12.631780 19.293437 1.096488 0.856986 0.006781 0.003319 -269374.000000 1 0 0
0.237863 17.028802 -10.169320 19.835618 1.556829 2.109099 0.018297 0.007602 -19479.600000 1 0 0
10.342163 9.223602 16.029980 21.189512 0.728291 0.712843 0.012337 0.013683 92875.800000 1 0 0
-1.218937 12.070502 0.911580 12.166092 -1.470153 1.495798 -0.005806 0.002127 144444.000000 1 0 0
-4.689737 19.335702 -2.697820 20.078377 -1.332848 1.705568 0.014634 0.012241 111857.000000 1 0 0
6.418363 18.084502 6.298480 20.196916 1.229754 1.253653 0.027781 -0.025942 22836.100000 1 0 0
11.149963 17.295402 -1.545120 20.635891 0.998172 1.645742 0.021576 -0.006816 299702.000000 1 0 0
18.507563 10.650202 3.210080 21.593084 0.522173 1.421581 0.031363 -0.002885 262528.000000 1 0 0
11.969163 16.393302 6.760180 21.393953 0.940137 1.249301 0.045939 -0.010394 -42412.500000 1 0 0
17.986863 6.834802 -5.279220 19.952742 0.363137 1.838571 -0.004172 0.012468 205380.000000 1 0 0
0.700463 15.639102 10.698680 18.961379 1.526037 0.971290 -0.007921 -0.005516 347029.000000 1 0 0
1.244463 20.006702 -1.729220 20.119816 1.508674 1.656849 0.010469 -0.013146 165712.000000 1 0 0
14.648963 9.725402 -1.267520 17.629014 0.586083 1.642758 0.026251 -0.006946 -6269.880000 1 0 0
10.043863 17.507102 1.610480 20.247751 1.049938 1.491174 0.032384 -0.015192 230818.000000 1 0 0
0.237063 17.991802 -0.517620 18.000807 1.557621 1.599556 -0.001764 0.005753 119021.000000 1 0 0
-0.396437 21.052302 1.268580 21.094214 -1.551967 1.510621 0.015870 0.000721 289692.000000 1 0 0
6.067263 17.099802 -0.354820 18.147749 1.229839 1.590349 0.007182 -0.027366 -209161.000000 1 0 0
6.499263 18.450402 -2.867020 19.770623 1.232113 1.716324 -0.015656 -0.010244 76325.900000 1 0 0
10.476963 9.415702 12.871580 19.081398 0.732099 0.830426 0.023326 0.000227 -146620.000000 1 0 0
12.762163 14.565502 8.466380 21.135426 0.851292 1.158649 0.027033 -0.017980 183721.000000 1 0 0
0.415363 17.581202 6.899480 18.891109 1.547175 1.196923 0.007139 -0.004240 212804.000000 1 0 0
6.980863 18.161002 -7.523220 20.860328 1.203821 1.939758 0.002778 0.004787 84272.700000 1 0 0
-1.553037 18.499102 9.134380 20.689746 -1.487041 1.113534 0.048497 -0.018264 96544.300000 1 0 0
16.091863 6.788902 -7.866320 19.155057 0.399229 1.993980 0.038930 0.001311 -282794.000000 1 0 0
-5.073837 19.655302 -6.776520 21.400840 -1.318170 1.892989 0.005838 -0.004175 248801.000000 1 0 0
3.972263 15.647802 9.966280 18.972593 1.322193 1.017730 0.007602 -0.010681 168489.000000 1 0 0
8.920763 14.912402 7.692880 19.003687 1.031693 1.154025 0.023340 -0.009366 -50904.700000 1 0 0
-2.591837 19.615102 6.392780 20.792726 -1.439423 1.258281 0.008007 -0.001095 70509.000000 1 0 0
4.677763 17.944002 8.002280 20.196662 1.315785 1.163402 0.022050 -0.021061 93288.900000 1 0 0
14.095963 11.498302 -7.067120 19.515412 0.684251 1.941349 -0.025843 -0.019523 -142648.000000 1 0 0
11.683663 6.690302 15.818480 20.772395 0.520044 0.705150 0.020897 0.007532 318970.000000 1 0 0
16.915763 9.266202 5.086180 19.946798 0.501141 1.312962 0.029027 -0.015307 38600.500000 1 0 0
4.898463 15.142802 12.149780 20.022900 1.257936 0.918775 -0.009331 -0.006852 447798.000000 1 0 0
16.407963 11.355002 -4.608020 20.479042 0.605365 1.797751 0.059571 0.025040 -40750.600000 1 0 0
15.549763 13.391602 6.050680 21.394879 0.710966 1.284074 0.039638 -0.013497 420278.000000 1 0 0
12.368563 14.563302 -7.977320 20.705283 0.866711 1.966307 0.030919 -0.014666 322176.000000 1 0 0
-8.383437 15.573102 9.868880 20.253353 -1.076958 1.061834 0.035709 -0.017414 182546.000000 1 0 0
-5.061737 17.072002 -7.231220 19.218870 -1.282560 1.956549 0.011991 0.012495 -50383.000000 1 0 0
2.603063 19.579602 -4.547620 20.268636 1.438624 1.797090 0.010471 -0.013559 125481.000000 1 0 0
7.248663 16.299502 8.999080 19.979998 1.152345 1.103578 0.030501 -0.026401 632787.000000 1 0 0
13.413763 15.420002 -1.336920 20.481524 0.854866 1.636117 0.046468 -0.015222 77652.700000 1 0 0
12.828063 16.501102 4.416480 21.362370 0.909985 1.362553 0.033696 -0.018885 302511.000000 1 0 0
2.794063 18.347002 0.425580 18.563415 1.419668 1.547869 0.017814 -0.014777 -5871.160000 1 0 0
-6.395237 17.890202 1.719380 19.076547 -1.227481 1.480543 -0.043391 0.025496 132357.000000 1 0 0
0.104163 20.097702 -5.637520 20.873670 1.565614 1.844270 0.022759 0.008565 89351.000000 1 0 0
-7.194637 18.017402 -6.365320 20.418298 -1.190880 1.887826 0.025943 -0.009393 -38435.900000 1 0 0
-7.443937 18.401502 -1.036420 19.877164 -1.186392 1.622961 0.017063 -0.001599 185027.000000 1 0 0
-14.552237 -9.595598 8.978980 19.607784 0.582948 1.095132 0.008348 0.006268 279381.000000 1 0 0
-13.437037 -13.403298 8.159580 20.658681 0.784141 1.164760 0.013657 0.000310 -104094.000000 1 0 0
-4.013237 -15.806698 12.907280 20.797972 1.322155 0.901285 0.038704 -0.005807 138731.000000 1 0 0
-2.071837 -14.990398 15.284880 21.508884 1.433455 0.780402 0.023559 -0.006225 447225.000000 1 0 0
-7.591137 -13.691198 13.860680 20.909154 1.064540 0.846111 0.007212 -0.001855 12531.100000 1 0 0
-10.218137 -11.214698 11.733680 19.179651 0.831862 0.912491 0.032250 -0.003853 40528.800000 1 0 0
-7.545937 -10.362398 13.068180 18.305676 0.941391 0.775763 0.023478 -0.009384 251932.000000 1 0 0
-15.331637 -12.128498 7.602880 20.975303 0.669276 1.199882 0.004689 0.008292 266785.000000 1 0 0
-4.717637 -12.080298 13.230080 18.526325 1.198486 0.775425 0.030483 -0.020125 363869.000000 1 0 0
3.592463 -12.416698 14.089180 19.120281 -1.289162 0.742366 0.002724 0.010699 626939.000000 1 0 0
6.830663 -13.453898 14.846580 21.168048 -1.101001 0.793482 0.017344 0.012586 351841.000000 1 0 0
6.959363 -9.112498 16.490780 20.085222 -0.918574 0.607565 0.008382 0.000972 466204.000000 1 0 0
-4.946437 13.632202 13.394580 19.741300 -1.222720 0.825070 0.004152 -0.006562 -13021.000000 1 0 0
-13.250137 -1.781698 17.627980 22.124336 0.133665 0.648867 0.012014 -0.001164 466144.000000 1 0 0
-10.334437 10.717002 13.669080 20.211345 -0.803569 0.828058 0.019470 0.015766 173073.000000 1 0 0
-7.621937 -8.104398 17.228980 20.508850 0.816067 0.573374 0.031335 -0.007731 129606.000000 1 0 0
-5.124037 2.293502 18.263980 19.107299 -0.420853 0.298210 0.028455 -0.006341 626077.000000 1 0 0
-15.502037 -3.594298 14.896780 21.797848 0.227834 0.818378 0.012395 0.002415 39407.900000 1 0 0
-14.676137 3.078502 12.622980 19.601168 -0.206765 0.871092 0.005445 0.004340 319902.000000 1 0 0
-13.629137 10.897202 10.451480 20.340497 -0.674468 1.031158 -0.051446 0.029247 -88390.100000 1 0 0
-4.742137 11.166402 15.972780 20.057569 -1.169198 0.649565 0.036465 -0.005243 156741.000000 1 0 0
-13.363137 12.920802 7.846180 20.176300 -0.768571 1.171380 0.022429 -0.033862 123699.000000 1 0 0
-4.058637 -6.439998 18.796580 20.279485 1.008450 0.384792 0.024478 -0.010490 265176.000000 1 0 0
0.056863 -2.828798 17.519680 17.746676 -1.550698 0.160114 0.007689 -0.025739 15550.900000 1 0 0
-4.511337 6.526702 21.050080 22.495685 -0.965992 0.360449 0.041806 -0.015107 279968.000000 1 0 0
2.135163 -10.499498 16.674880 19.820444 -1.370174 0.571118 0.003522 0.003367 310549.000000 1 0 0
-14.945137 -0.150998 13.956080 20.448767 0.010103 0.819632 -0.013593 0.004023 77869.700000 1 0 0
-14.057637 -5.781298 7.784380 17.077387 0.390173 1.097492 0.001322 -0.005344 73073.900000 1 0 0
10.136663 1.010602 16.430080 19.331859 0.099369 0.555007 0.020310 0.004862 326386.000000 1 0 0
-7.510737 12.164602 11.963280 18.641587 -1.017662 0.874015 0.018861 -0.020546 102712.000000 1 0 0
-1.610537 7.376402 19.673080 21.072143 -1.355833 0.366448 0.023941 -0.034025 364441.000000 1 0 0
1.025163 -14.051598 15.628580 21.041646 -1.497968 0.733635 0.003860 0.005918 484313.000000 1 0 0
-3.842337 -11.411198 17.835080 21.519040 1.246004 0.593828 0.036003 -0.014719 307393.000000 1 0 0
-1.951037 9.090702 16.547780 18.980949 -1.359384 0.511911 0.000260 -0.009626 359172.000000 1 0 0
-5.133937 -9.342798 20.676080 23.262533 1.068331 0.476044 0.071663 -0.018477 240214.000000 1 0 0
-6.664537 -2.596398 19.189780 20.479379 0.371495 0.356771 0.020308 -0.013934 290422.000000 1 0 0
-10.962437 -7.904298 15.885780 20.856916 0.624704 0.704933 0.054327 -0.014480 166856.000000 1 0 0
-0.196637 6.684202 17.558280 18.788571 -1.541387 0.363891 0.005513 -0.009356 143354.000000 1 0 0
-6.364037 -11.122198 19.097980 22.998632 1.051075 0.590978 0.059079 -0.010077 467775.000000 1 0 0
0.489563 3.437602 18.659680 18.980001 1.429334 0.183981 0.017108 -0.012901 130181.000000 1 0 0
-17.881637 -0.964698 7.847280 19.551557 0.053897 1.157791 -0.023308 -0.001570 139363.000000 1 0 0
-1.878137 -8.874498 17.551880 19.757343 1.362241 0.477008 0.015185 -0.008614 401333.000000 1 0 0
5.898263 3.275302 15.160080 16.593526 0.506903 0.418710 0.010472 -0.002205 418529.000000 1 0 0
-13.631037 -6.684098 10.106580 18.238018 0.455905 0.983456 -0.005977 -0.007310 125202.000000 1 0 0
3.792463 8.181802 16.705280 18.983967 1.136753 0.495002 0.000939 0.000278 192243.000000 1 0 0
6.326063 4.167402 17.705980 19.258453 0.582514 0.404276 0.019671 -0.015761 236919.000000 1 0 0
5.439763 -9.128998 18.467380 21.306659 -1.033414 0.522164 0.020984 0.016107 217997.000000 1 0 0
-4.537137 -0.612798 19.631780 20.158569 0.134250 0.229115 0.016945 -0.015846 537371.000000 1 0 0
-11.277037 2.358902 16.895980 20.450186 -0.206204 0.598464 0.039417 -0.012166 27800.400000 1 0 0
-16.921137 -4.237998 8.675880 19.482207 0.245408 1.109261 0.011464 -0.017738 519459.000000 1 0 0
-13.346937 -9.394498 12.718880 20.692202 0.613318 0.908829 0.013778 -0.013629 55784.100000 1 0 0
-14.742837 6.124302 13.021180 20.601200 -0.393719 0.886589 0.014722 -0.018176 404189.000000 1 0 0
1.392663 9.408102 17.074980 19.544995 1.423836 0.508195 -0.001480 -0.006825 199510.000000 1 0 0
-3.794637 -10.328698 15.167380 18.738481 1.218716 0.627625 0.025791 -0.009024 778623.000000 1 0 0
-18.745437 -2.796598 6.541980 20.050184 0.148096 1.238431 0.074010 -0.020441 -369628.000000 1 0 0
-0.837537 -0.571698 21.016880 21.041329 0.598948 0.048212 0.021488 -0.016247 405917.000000 1 0 0
-2.011537 2.349502 20.340380 20.574195 -0.862740 0.150904 0.013728 -0.009452 211589.000000 1 0 0
-8.026737 2.436102 16.149480 18.198044 -0.294663 0.479058 0.008136 0.004608 566508.000000 1 0 0
2.569063 -2.317098 18.645480 18.963727 -0.733877 0.183461 0.015744 -0.018568 14454.300000 1 0 0
-12.057537 4.360802 14.428080 19.302080 -0.347030 0.726523 -0.012543 -0.004008 180439.000000 1 0 0
-13.488037 -5.424498 13.207880 19.641803 0.382377 0.833300 0.012438 -0.002570 65270.000000 1 0 0
-17.324437 -0.774898 9.872780 19.955159 0.044699 1.053251 0.007884 -0.009618 -46149.500000 1 0 0
-7.380037 7.729902 14.921580 18.354015 -0.808549 0.621532 0.010602 -0.009846 22852.100000 1 0 0
-9.574537 0.739002 14.161680 17.110554 -0.077031 0.595875 0.019168 -0.000063 284965.000000 1 0 0
7.604863 -1.036098 15.075080 16.916426 -0.135408 0.470922 0.022515 -0.008119 164941.000000 1 0 0
4.141263 6.373702 18.294180 19.810380 0.994602 0.393783 0.013242 -0.001359 191826.000000 1 0 0
1.822563 0.655802 19.975880 20.069568 0.345400 0.096663 0.020848 -0.010778 288859.000000 1 0 0
-7.060137 7.148902 17.559880 20.231206 -0.791645 0.519716 0.021579 -0.016341 593882.000000 1 0 0
7.707163 -3.311498 16.546780 18.551611 -0.405815 0.469196 0.024910 -0.006720 340926.000000 1 0 0
-16.639137 2.708302 9.271380 19.239394 -0.161352 1.067980 0.019492 -0.009056 224947.000000 1 0 0
3.637863 -5.827698 19.275180 20.462860 -1.012746 0.342377 0.019902 -0.009296 159899.000000 1 0 0
-3.882737 -3.608498 20.684380 21.352763 0.748806 0.250865 0.019419 -0.013932 361916.000000 1 0 0
-9.475737 5.938402 14.666580 18.443502 -0.559818 0.651432 0.010115 -0.005949 -233446.000000 1 0 0
6.534063 1.755902 19.910380 21.028561 0.262528 0.327574 0.025446 -0.000075 99064.400000 1 0 0
-7.108237 11.073602 14.729280 19.751035 -1.000130 0.729141 0.022595 -0.023817 218958.000000 1 0 0
-14.498337 5.099402 9.212880 17.918785 -0.338209 1.030784 0.003030 -0.010343 137075.000000 1 0 0
0.402663 -5.569198 20.518980 21.265151 -1.498620 0.265692 0.021473 -0.016960 194239.000000 1 0 0
-5.803737 -8.189098 14.162280 17.358423 0.954245 0.616558 0.012668 0.001745 121446.000000 1 0 0
-12.875037 10.106402 6.411080 17.578620 -0.665503 1.197476 -0.010539 -0.018334 138866.000000 1 0 0
-19.290337 1.766802 7.536780 20.785614 -0.091335 1.199744 -0.012805 -0.008588 35952.500000 1 0 0
-16.350537 9.291502 6.136480 19.782024 -0.516761 1.255388 0.021555 -0.011663 139598.000000 1 0 0
-11.754237 8.128502 13.750280 19.831914 -0.605024 0.804681 -0.021345 -0.022918 188138.000000 1 0 0
-16.496237 8.910902 11.044180 21.760145 -0.495271 1.038467 0.016454 -0.010405 312721.000000 1 0 0
2.879263 10.130702 15.356980 18.621442 1.293887 0.601136 -0.001977 -0.017718 518277.000000 1 0 0
1.589563 14.488802 13.002080 19.532183 1.461524 0.842399 -0.009539 -0.017438 149588.000000 1 0 0
8.917163 4.990702 16.799280 19.663130 0.510240 0.546489 0.018532 0.010458 152023.000000 1 0 0
-0.287637 13.361402 12.889780 18.567612 -1.549272 0.803478 -0.019022 -0.000996 137671.000000 1 0 0
4.039763 12.897902 14.818080 20.056197 1.267264 0.739467 -0.001096 0.005774 203801.000000 1 0 0
-3.427137 -4.573898 -13.198920 14.383230 0.927755 2.732948 0.000097 -0.005348 102777.000000 1 0 0
5.635663 -12.143398 16.846880 21.518368 -1.136285 0.671472 -0.029152 0.025723 196118.000000 1 0 0
8.655563 -14.030398 7.130180 17.961356 -1.018032 1.162579 0.001206 0.001961 316451.000000 1 0 0
-0.497237 15.291202 0.319380 15.302617 -1.538290 1.549924 0.000069 -0.003297 -488576.000000 1 0 0
-13.943537 8.131902 8.358480 18.177300 -0.527977 1.092992 -0.000160 -0.008507 -31464.400000 1 0 0
-16.063437 -9.446498 5.675280 19.480225 0.531605 1.275174 0.000715 0.000647 117686.000000 1 0 0
8.583663 -10.903398 11.361180 17.934318 -0.903880 0.884743 -0.018388 0.011760 212679.000000 1 0 0
-25.922687 6.148802 31.062362 40.922656 -0.232894 0.708943 0.042536 -0.025900 244579.000000 0 0 1
-24.587237 5.800602 30.723192 39.775542 -0.231683 0.688163 0.039588 -0.024933 405094.000000 0 0 1
-23.882037 5.393702 31.897302 40.210466 -0.222121 0.654654 0.027075 -0.017554 667810.000000 0 0 1
-22.463337 4.821502 31.539712 39.020531 -0.211431 0.629563 0.023250 -0.017713 314063.000000 0 0 1
-22.520837 3.648902 30.771822 38.306757 -0.160627 0.637981 0.041277 -0.023456 -408542.000000 0 0 1
-21.283337 3.023902 30.614962 37.408559 -0.141134 0.612185 0.027132 -0.016636 -4825.580000 0 0 1
-20.612537 2.256102 31.815212 37.975971 -0.109019 0.577606 0.022987 -0.010469 -78349.600000 0 0 1
-21.125637 0.963402 31.757332 38.154277 -0.045572 0.587480 0.026091 -0.012043 130929.000000 0 0 1
-20.952837 0.272302 32.957883 39.055314 -0.012995 0.566328 0.014487 -0.008196 -151441.000000 0 0 1
-21.270537 -1.241798 33.099081 39.364031 0.058315 0.571952 0.023625 -0.015932 -74290.300000 0 0 1
-20.456537 -2.022398 32.228212 38.225877 0.098543 0.567775 0.033413 -0.008495 63880.700000 0 0 1
-20.597437 -3.438398 32.283222 38.448451 0.165408 0.574159 0.040713 -0.015662 43612.100000 0 0 1
-21.921337 -4.152198 31.804132 38.849563 0.187196 0.611743 0.038666 -0.009928 827131.000000 0 0 1
-23.104737 -3.987098 32.559242 40.122688 0.170883 0.624095 0.034477 -0.002361 431000.000000 0 0 1
-23.093837 -4.577098 33.832370 41.217768 0.195660 0.607951 0.031854 0.001203 -670487.000000 0 0 1
-24.474037 -4.377098 -34.148957 42.240843 0.176976 2.512284 0.023114 0.006188 90188.700000 0 0 1
-24.557437 -5.146398 -32.952950 41.417992 0.206576 2.490825 0.034372 0.007929 824211.000000 0 0 1
-25.717377 -4.735798 -32.203880 41.483746 0.182108 2.459573 0.035136 0.004632 427012.000000 0 0 1
-25.763897 -5.363598 -30.809040 40.518435 0.205251 2.434680 0.029774 0.009174 -501880.000000 0 0 1
-25.926087 -6.776498 -30.676280 40.732261 0.255658 2.423588 0.026110 0.005207 476247.000000 0 0 1
-25.928567 -7.240398 -29.344580 39.822335 0.272308 2.399251 0.015814 0.010282 -226279.000000 0 0 1
-26.241057 -8.721998 -29.243780 40.247547 0.320892 2.384153 0.015333 0.008374 -1106380.000000 0 0 1
-27.566387 -8.994498 -28.982880 40.997733 0.315394 2.355957 0.032815 0.004008 -1127330.000000 0 0 1
-27.768167 -10.277898 -28.485490 41.086853 0.354496 2.336854 0.033002 0.005328 754263.000000 0 0 1
-29.262327 -10.572998 -28.110420 41.931704 0.346722 2.305525 0.060125 0.002559 800207.000000 0 0 1
-29.459547 -11.584298 -27.150760 41.704013 0.374654 2.279743 0.056584 -0.000664 246109.000000 0 0 1
-30.729527 -11.495298 -26.511920 42.182078 0.357964 2.250434 0.053994 0.006771 267894.000000 0 0 1
-30.723047 -12.307098 -25.169820 41.579925 0.381008 2.220984 0.051679 -0.001345 322835.000000 0 0 1
-29.814767 -11.808498 -24.182820 40.164285 0.377107 2.216922 0.044824 -0.008515 559806.000000 0 0 1
-29.897857 -12.588098 -23.052520 39.796492 0.398509 2.188617 0.053328 -0.013597 -339319.000000 0 0 1
-29.445787 -11.781898 -21.820520 38.496787 0.380611 2.173430 0.065341 -0.019996 -497.101000 0 0 1
-29.361297 -12.512598 -20.642520 38.010059 0.402852 2.144898 0.057409 -0.017974 422455.000000 0 0 1
-28.329257 -13.500198 -20.598120 37.537778 0.444709 2.151641 0.058398 -0.018040 -256050.000000 0 0 1
-27.768767 -13.651698 -19.169220 36.399620 0.456922 2.125431 0.074312 -0.028827 -215908.000000 0 0 1
-27.147027 -12.516998 -18.687120 35.254004 0.432031 2.129480 0.070290 -0.026207 -92661.600000 0 0 1
-26.899037 -12.715798 -17.352620 34.443623 0.441589 2.098786 0.067391 -0.016987 -151076.000000 0 0 1
-26.601217 -11.430098 -16.600320 33.374280 0.405831 2.091394 0.065865 -0.019171 15836.200000 0 0 1
-25.373837 -10.734098 -16.763720 32.250191 0.400208 2.117416 0.063160 -0.022598 435709.000000 0 0 1
-25.431967 -9.493698 -16.104720 31.563861 0.357278 2.106245 0.067696 -0.024333 -502467.000000 0 0 1
-24.096337 -8.743698 -16.157620 30.301063 0.348089 2.133218 0.070379 -0.019558 -80916.800000 0 0 1
-23.164037 -9.351798 -15.276020 29.281147 0.383710 2.119641 0.045411 -0.021446 389835.000000 0 0 1
-21.907537 -8.683398 -15.330120 28.113239 0.377370 2.147542 0.058922 -0.031601 1019630.000000 0 0 1
-20.845737 -9.127598 -14.227020 26.837771 0.412716 2.129529 0.033065 -0.006748 678720.000000 0 0 1
-20.138737 -10.280998 -14.622120 26.927200 0.472019 2.144831 0.016834 0.003832 636334.000000 0 0 1
-18.959737 -10.556098 -13.876020 25.757461 0.508021 2.139712 0.015517 0.010952 256494.000000 0 0 1
-18.108837 -11.737898 -14.314820 25.896377 0.575099 2.156485 0.020951 0.002356 66978.800000 0 0 1
-17.275937 -11.490098 -15.475120 25.883580 0.586912 2.211643 0.029342 -0.006219 684766.000000 0 0 1
-17.945137 -11.684398 -16.739220 27.180041 0.577161 2.234279 0.025017 -0.006386 35075.200000 0 0 1
-17.122737 -11.131498 -17.889920 27.150463 0.576446 2.290175 0.015582 -0.000333 -272335.000000 0 0 1
-17.894537 -11.251298 -19.067720 28.467247 0.561296 2.304753 0.025384 -0.003556 486318.000000 0 0 1
-17.342237 -10.533898 -20.147020 28.594032 0.545852 2.352639 0.024996 -0.002684 -80899.200000 0 0 1
-18.157537 -10.761098 -21.451620 30.094342 0.534999 2.364296 0.038019 -0.001712 -807744.000000 0 0 1
-19.309937 -10.002998 -21.444320 30.541652 0.477962 2.349186 0.036688 -0.013356 -945416.000000 0 0 1
-20.168937 -10.597298 -22.378020 31.935318 0.483781 2.347216 0.042565 -0.007645 183203.000000 0 0 1
-21.397537 -9.738798 -22.795520 32.746520 0.427117 2.340776 0.042806 -0.014736 448753.000000 0 0 1
-20.940037 -8.587198 -23.521020 32.641439 0.389170 2.375446 0.045018 -0.024737 653288.000000 0 0 1
-21.965537 -8.165998 -24.423020 33.847486 0.355931 2.376850 0.043040 -0.026732 -8458.540000 0 0 1
-21.494037 -7.421098 -25.586950 34.230956 0.332449 2.415056 0.032781 -0.025755 -174356.000000 0 0 1
-20.663737 -8.290098 -26.362510 34.506488 0.381532 2.440266 0.037032 -0.029434 400284.000000 0 0 1
-20.056737 -7.620098 -27.478580 34.862745 0.363083 2.478664 0.032384 -0.033639 -339369.000000 0 0 1
-18.864237 -8.376898 -28.046110 34.822639 0.417905 2.507144 0.038341 -0.029019 -476706.000000 0 0 1
-19.180137 -9.476698 -28.864480 35.928314 0.458908 2.503765 0.036442 -0.024381 67920.600000 0 0 1
-18.018437 -10.209298 -29.176230 35.779132 0.515501 2.524309 0.013492 -0.014999 -42481.400000 0 0 1
-18.288937 -11.332198 -30.181440 37.065122 0.554721 2.522287 0.015294 -0.012127 -181824.000000 0 0 1
-18.541337 -10.975298 -31.516380 38.177488 0.534470 2.541924 0.004731 -0.010250 256462.000000 0 0 1
-18.953337 -12.116598 -32.185350 39.267515 0.568806 2.531584 -0.000112 -0.002745 -44964.000000 0 0 1
-19.549637 -11.854198 -33.622820 40.659616 0.545086 2.544429 -0.003836 -0.001287 -659201.000000 0 0 1
-18.655537 -11.308498 34.139403 40.514319 0.544947 0.568610 -0.000925 -0.003888 -476076.000000 0 0 1
-19.162237 -11.230698 32.808162 39.619382 0.530125 0.595116 -0.002519 -0.003595 -449468.000000 0 0 1
-18.618737 -12.329898 31.860222 38.907037 0.584925 0.611338 0.001388 -0.005273 -437076.000000 0 0 1
-17.279037 -12.106598 31.487902 37.902807 0.611164 0.590336 0.010732 -0.008580 -79136.500000 0 0 1
-16.797837 -12.940398 30.495812 37.143179 0.656405 0.607576 0.018272 -0.006628 -118960.000000 0 0 1
-16.745837 -14.497598 30.664772 37.827657 0.713563 0.625545 0.013387 -0.001445 -552429.000000 0 0 1
-18.001837 -15.151098 30.436402 38.470722 0.699622 0.658097 -0.000433 0.001636 558519.000000 0 0 1
-18.128437 -16.522298 30.893142 39.446328 0.739079 0.671050 0.010408 -0.001600 -381931.000000 0 0 1
-18.413637 -16.675498 32.408302 40.834205 0.735904 0.654002 -0.002235 -0.007469 -707639.000000 0 0 1
-17.365637 -16.281498 33.249246 40.892113 0.753188 0.621344 0.002731 -0.007445 -326746.000000 0 0 1
-17.672937 -16.371198 -34.033350 41.696736 0.747180 2.525619 0.004710 -0.009744 -147838.000000 0 0 1
-16.502037 -15.809398 -33.234240 40.333225 0.763965 2.539217 -0.003940 -0.007621 -240901.000000 0 0 1
-16.373737 -14.401698 -33.428080 39.911712 0.721407 2.563581 0.001572 -0.007872 99006.100000 0 0 1
-15.230737 -13.748798 -32.861720 38.741418 0.734305 2.583435 0.005299 -0.006613 479971.000000 0 0 1
-15.236437 -13.529298 -31.343870 37.384879 0.726121 2.565156 0.015548 -0.008674 -153404.000000 0 0 1
-15.189337 -14.710898 -30.587040 37.184587 0.769398 2.536717 0.011759 -0.006965 15872.900000 0 0 1
-15.830537 -14.511398 -29.324900 36.347440 0.741950 2.509502 0.012787 -0.007506 -365757.000000 0 0 1
-15.821137 -15.721998 -28.419570 36.127020 0.782255 2.476172 0.017338 -0.008144 390746.000000 0 0 1
-14.569637 -16.194598 -27.923410 35.415480 0.838169 2.479085 0.024167 -0.008732 570433.000000 0 0 1
-13.687937 -16.738798 -28.893450 36.088481 0.885333 2.499139 0.012593 -0.015271 -1080020.000000 0 0 1
-12.253737 -16.986098 -28.482780 35.354638 0.945853 2.507536 0.009399 -0.007002 -898909.000000 0 0 1
-11.466337 -15.842998 -28.406260 34.487579 0.944309 2.538643 0.011639 -0.004082 -1062880.000000 0 0 1
-10.189437 -16.237098 -28.010510 33.941961 1.010372 2.541436 0.016508 -0.012129 -275082.000000 0 0 1
-9.201537 -15.054698 -27.863100 32.979760 1.022177 2.577090 0.014343 -0.006989 -79824.100000 0 0 1
-9.346737 -14.217898 -26.666890 31.632786 0.989242 2.573659 0.014518 -0.010134 466371.000000 0 0 1
-8.264537 -13.277598 -26.480900 30.754435 1.014038 2.608114 0.027680 -0.009937 522753.000000 0 0 1
-8.351537 -11.993298 -27.313450 30.977604 0.962524 2.650284 0.024207 -0.018500 -137463.000000 0 0 1
-7.775437 -12.130298 -28.589840 32.015317 1.000779 2.674775 0.039142 -0.015466 187007.000000 0 0 1
-7.679037 -10.881298 -29.219330 32.111361 0.956249 2.713930 0.036281 -0.012143 134349.000000 0 0 1
-6.745637 -10.936798 -30.466900 33.065831 1.018127 2.742467 0.038156 0.000650 394002.000000 0 0 1
-5.350937 -11.120098 -30.184450 32.609664 1.122305 2.753491 0.046325 -0.003344 944196.000000 0 0 1
-4.516737 -10.730098 -31.274370 33.370978 1.172369 2.785232 0.051555 0.002044 169278.000000 0 0 1
-4.376837 -9.179098 -31.453330 33.056384 1.125859 2.828889 0.036771 -0.000908 135680.000000 0 0 1
-3.136037 -8.830898 -32.124110 33.463084 1.229567 2.857751 0.044206 -0.003337 919720.000000 0 0 1
-3.189137 -7.522898 -32.610430 33.618518 1.169837 2.896084 0.037403 -0.006096 -727947.000000 0 0 1
-1.887237 -6.880898 -33.038110 33.799781 1.303107 2.928896 0.047161 -0.009757 -750640.000000 0 0 1
-1.269737 -7.381298 -34.184283 34.995157 1.400443 2.925903 0.058143 -0.013363 -224585.000000 0 0 1
-0.288337 -6.455698 34.032107 34.640200 1.526162 0.187649 0.044349 -0.004673 3700.440000 0 0 1
0.563263 -6.871498 32.843848 33.559694 -1.489008 0.206915 0.041812 -0.001181 599266.000000 0 0 1
-0.252937 -6.883098 31.651342 32.392105 1.534065 0.214272 0.035944 -0.000144 1129480.000000 0 0 1
0.613163 -7.421498 30.627562 31.519869 -1.488364 0.238512 0.037624 -0.007228 658944.000000 0 0 1
0.202963 -7.143698 29.134112 29.997835 -1.542393 0.240550 0.043865 -0.004739 21886.100000 0 0 1
0.224863 -5.765098 28.937472 29.507019 -1.531812 0.196797 0.040212 -0.013534 -18584.100000 0 0 1
0.192763 -5.497298 27.575872 28.119142 -1.535746 0.196890 0.052940 -0.008538 -145242.000000 0 0 1
-0.933537 -4.543498 27.133872 27.527475 1.368150 0.169309 0.050014 -0.003007 395981.000000 0 0 1
-2.204037 -5.125498 27.326332 27.890086 1.164686 0.201405 0.041314 0.000869 -119677.000000 0 0 1
-3.319137 -4.343798 26.937392 27.486512 0.918326 0.200223 0.026831 -0.003363 70462.600000 0 0 1
-4.674137 -4.871698 27.377492 28.197661 0.806091 0.241779 0.019060 0.000725 -377856.000000 0 0 1
-5.161037 -5.894198 26.575852 27.706566 0.851619 0.286674 0.016525 0.004295 1090130.000000 0 0 1
-6.545937 -6.248698 26.871842 28.354742 0.762171 0.324840 0.016289 0.000250 1868800.000000 0 0 1
-6.682637 -7.804298 26.894952 28.790678 0.862670 0.364913 0.024400 -0.002645 848115.000000 0 0 1
-5.733637 -8.378098 27.822352 29.616725 0.970644 0.349881 0.023872 -0.005896 472305.000000 0 0 1
-5.880237 -9.814598 27.753232 30.019084 1.031015 0.391023 0.024206 -0.012091 173138.000000 0 0 1
-5.314237 -10.568298 28.995412 31.315554 1.104874 0.387357 0.027993 -0.014689 36547.800000 0 0 1
-5.496237 -11.961598 28.927252 31.781667 1.140078 0.427062 0.045131 -0.024531 220853.000000 0 0 1
-4.973537 -12.621698 30.091182 33.007917 1.195433 0.423551 0.055667 -0.023112 -52358.600000 0 0 1
-4.883837 -14.125498 29.934782 33.458522 1.237916 0.463075 0.064177 -0.035933 -293544.000000 0 0 1
-6.167837 -14.658598 29.771922 33.753282 1.172518 0.490611 0.071306 -0.033724 -332555.000000 0 0 1
-6.143437 -16.101198 29.711402 34.347603 1.206294 0.525604 0.065308 -0.032551 -79747.900000 0 0 1
-6.260837 -16.759298 31.099182 35.878005 1.213276 0.522040 0.072219 -0.029164 140000.000000 0 0 1
-7.519137 -16.513598 31.702802 36.528126 1.143519 0.519835 0.067145 -0.029782 -94309.600000 0 0 1
-7.590437 -16.781298 33.082034 37.863540 1.146019 0.508004 0.066806 -0.026015 594772.000000 0 0 1
-9.018437 -17.037698 33.720994 38.842255 1.083967 0.519329 0.068396 -0.018107 1156470.000000 0 0 1
-9.628737 -18.287898 33.421045 39.295369 1.086167 0.553845 0.071422 -0.015621 188071.000000 0 0 1
-10.377337 -18.215798 32.201872 38.424796 1.052963 0.577098 0.060854 -0.020393 -199236.000000 0 0 1
-11.065037 -19.607498 31.945482 39.082002 1.057020 0.613920 0.057669 -0.019331 -264580.000000 0 0 1
-12.158137 -19.928798 32.753346 40.221374 1.022999 0.619228 0.064174 -0.012412 -33408.100000 0 0 1
-12.521337 -21.303298 32.604123 40.910185 1.039422 0.648537 0.063079 -0.013378 -203264.000000 0 0 1
-11.911637 -22.193298 33.697833 42.071053 1.078204 0.641876 0.080269 -0.012652 1110030.000000 0 0 1
-10.521637 -22.528398 33.389181 41.630169 1.133864 0.640089 0.061864 -0.013900 1506650.000000 0 0 1
-9.781937 -23.121498 -34.183989 42.412676 1.170564 2.508134 0.055813 -0.022675 445515.000000 0 0 1
-10.159137 -24.605498 -33.897530 43.100826 1.179235 2.475870 0.073469 -0.007621 -164909.000000 0 0 1
-9.534637 -25.425998 33.779425 43.340976 1.212030 0.677108 0.071599 -0.004703 -13676.900000 0 0 1
-9.715537 -26.841988 33.888343 44.309184 1.223513 0.700042 0.068910 -0.012827 -1604050.000000 0 0 1
-9.080237 -27.537998 32.699672 43.704240 1.252288 0.725446 0.065720 -0.011764 334292.000000 0 0 1
-7.693437 -27.241948 32.600526 43.175305 1.295553 0.715030 0.064860 -0.018475 139781.000000 0 0 1
-6.908737 -27.941508 33.525558 44.186215 1.328401 0.709430 0.052551 -0.013403 -567800.000000 0 0 1
-5.358337 -27.729188 33.499842 43.816196 1.379911 0.700447 0.054664 -0.020106 880368.000000 0 0 1
-4.935937 -26.532498 34.127792 43.509115 1.386865 0.669096 0.053781 -0.012068 48316.300000 0 0 1
-4.658437 -25.465388 33.184668 42.088112 1.389865 0.662500 0.077619 -0.010672 68069.800000 0 0 1
-4.268237 -24.079598 33.799159 41.718438 1.395363 0.626349 0.066994 -0.011788 152954.000000 0 0 1
-3.080437 -24.187798 -34.087996 41.910979 1.444123 2.520671 0.047140 -0.015698 -28666.500000 0 0 1
-2.689437 -22.916698 -33.583610 40.746374 1.453974 2.539604 0.044855 -0.016566 -27746.200000 0 0 1
33.767681 -15.876598 2.458580 37.394749 -0.439501 1.505002 0.099695 -0.033188 -420643.000000 0 0 1
34.831711 -16.134898 3.311180 38.529819 -0.433797 1.484752 0.096805 -0.029994 -290949.000000 0 0 1
34.414051 -16.572398 4.615680 38.474353 -0.448786 1.450539 0.099030 -0.039412 -272837.000000 0 0 1
35.523181 -16.720298 5.655880 39.666784 -0.439923 1.427724 0.082084 -0.023767 -580131.000000 0 0 1
-35.434085 -17.778298 5.370780 40.006094 0.465030 1.436141 0.084364 -0.029917 -806682.000000 0 0 1
-34.439155 -17.636198 6.325180 39.205852 0.473279 1.408756 0.078589 -0.023374 1031.710000 0 0 1
-33.217347 -18.632698 6.321580 38.607408 0.511198 1.406316 0.049506 -0.023240 510795.000000 0 0 1
-33.510777 -20.019398 6.592380 39.587978 0.538507 1.403492 0.065225 -0.030011 543061.000000 0 0 1
-32.401117 -20.699498 7.202880 39.117555 0.568498 1.385605 0.043307 -0.016100 523823.000000 0 0 1
-32.757087 -22.207998 7.306780 40.244391 0.595780 1.388224 0.029817 -0.011371 -374640.000000 0 0 1
-32.705027 -22.824698 6.033080 40.335886 0.609312 1.420662 0.038639 -0.008900 228221.000000 0 0 1
-33.240867 -24.129898 6.097380 41.525718 0.627905 1.423430 0.038087 -0.019006 -358399.000000 0 0 1
-32.803207 -25.061758 4.966180 41.578902 0.652403 1.451071 0.030525 -0.006011 -27760.400000 0 0 1
-33.400277 -24.900598 3.726180 41.827057 0.640628 1.481593 0.031550 -0.002249 -75575.100000 0 0 1
-32.653857 -25.676588 2.836880 41.636636 0.666348 1.502609 0.029585 0.005605 -7472.640000 0 0 1
-33.162767 -25.424438 1.417080 41.811234 0.654076 1.536898 0.022095 0.005815 179821.000000 0 0 1
-34.299411 -26.235618 1.083980 43.196439 0.652969 1.545700 0.027468 0.006812 457684.000000 0 0 1
-34.934943 -25.858068 -0.149720 43.463920 0.637185 1.574241 0.024435 0.011426 216549.000000 0 0 1
-35.774685 -24.559598 -0.199820 43.394031 0.601613 1.575401 0.042504 0.002009 -1244000.000000 0 0 1
34.711161 -24.736498 0.129880 42.623655 -0.619158 1.567749 0.024836 0.006802 -1054780.000000 0 0 1
34.195961 -23.518198 0.521280 41.505917 -0.602456 1.558237 0.035030 0.003150 250181.000000 0 0 1
32.656161 -23.399098 0.348880 40.175420 -0.621734 1.562112 0.015057 0.002999 437989.000000 0 0 1
32.220901 -23.576898 -1.001120 39.938188 -0.631703 1.595866 0.014288 -0.009946 -954426.000000 0 0 1
30.857961 -23.362898 -1.093120 38.719939 -0.648037 1.599032 0.017059 -0.006400 -823334.000000 0 0 1
30.414951 -23.214198 -2.524920 38.345058 -0.651927 1.636691 0.019100 -0.000015 -410922.000000 0 0 1
30.814631 -22.034198 -3.116720 38.010016 -0.620760 1.652886 0.027917 -0.004322 89146.800000 0 0 1
30.420561 -21.928198 -4.472220 37.765820 -0.624573 1.689495 0.021745 -0.026686 -150166.000000 0 0 1
30.357531 -20.466998 -4.956720 36.946540 -0.593199 1.705361 0.034619 -0.024534 -316752.000000 0 0 1
29.484581 -19.707698 -4.213920 35.714017 -0.589206 1.689062 0.048948 -0.018710 -447150.000000 0 0 1
29.656541 -18.286598 -4.447820 35.123969 -0.552545 1.697769 0.053037 -0.018424 446934.000000 0 0 1
28.721441 -17.615798 -3.343420 33.858765 -0.550165 1.669704 0.062319 -0.012802 293741.000000 0 0 1
29.200981 -17.450698 -2.001920 34.076852 -0.538658 1.629577 0.065714 -0.003876 101618.000000 0 0 1
29.667831 -18.622898 -1.233020 35.050148 -0.560548 1.605982 0.056655 0.002945 178905.000000 0 0 1
28.731321 -19.896498 -1.079220 34.964613 -0.605676 1.601667 0.040995 0.010005 -206525.000000 0 0 1
27.666651 -19.538798 -0.248520 33.871374 -0.614890 1.578134 0.041837 0.021651 -486003.000000 0 0 1
27.050771 -20.697098 0.226880 34.061203 -0.653108 1.564135 0.032951 0.013148 -319674.000000 0 0 1
25.910211 -20.400998 1.225580 33.000634 -0.666994 1.533650 0.024745 0.015892 -1222980.000000 0 0 1
25.354711 -21.534998 1.877280 33.318789 -0.704116 1.514424 0.015011 0.025252 744616.000000 0 0 1
24.251011 -21.225398 2.758280 32.345590 -0.718965 1.485417 0.008610 0.024458 932955.000000 0 0 1
22.987211 -20.562098 2.159080 30.917202 -0.729769 1.500905 0.003881 0.019042 -1091780.000000 0 0 1
23.012211 -19.188198 1.895880 30.022378 -0.695029 1.507605 0.028685 0.003089 90527.900000 0 0 1
22.985911 -18.256898 2.958780 29.502895 -0.671234 1.470340 0.040243 0.005148 -246485.000000 0 0 1
22.860811 -16.844998 2.370480 28.495435 -0.635032 1.487512 0.035962 0.013576 159355.000000 0 0 1
21.620711 -16.555198 1.752380 27.287370 -0.653480 1.506533 0.034302 0.008484 42246.300000 0 0 1
21.596811 -15.191398 1.542280 26.449565 -0.613010 1.512453 0.045599 0.002692 4409.230000 0 0 1
20.232111 -14.620098 1.092480 24.985578 -0.625745 1.527058 0.032900 -0.001605 -399564.000000 0 1 0
19.280911 -14.620398 2.145680 24.292252 -0.648782 1.482353 0.029070 0.002644 664638.000000 0 1 0
18.252211 -13.646798 1.845280 22.864457 -0.642014 1.490003 0.038386 -0.004429 405591.000000 0 1 0
18.664011 -12.178298 2.272380 22.401339 -0.578132 1.469182 0.048290 -0.003071 -653356.000000 0 1 0
19.682311 -11.629198 1.487480 22.909479 -0.533661 1.505822 0.046939 -0.005841 219178.000000 0 1 0
20.098211 -10.313298 1.925380 22.671773 -0.474108 1.485770 0.045809 -0.021299 58044.400000 0 1 0
21.064711 -9.696798 0.880080 23.206131 -0.431414 1.532863 0.062156 -0.012649 2699.710000 0 1 0
20.375811 -9.440098 -0.320120 22.458665 -0.433858 1.585051 0.056055 -0.007121 1380740.000000 0 1 0
21.215511 -8.650898 -1.212720 22.943554 -0.387181 1.623678 0.056247 -0.000303 479911.000000 0 1 0
20.511511 -8.472698 -2.611220 22.345630 -0.391723 1.687920 0.062021 -0.001912 67314.600000 0 1 0
21.314411 -7.945398 -3.684120 23.043572 -0.356815 1.731362 0.051732 -0.003317 850459.000000 0 1 0
22.242611 -8.899698 -4.208720 24.323892 -0.380609 1.744700 0.044733 0.001042 -168830.000000 0 1 0
21.588511 -9.966898 -5.140020 24.327406 -0.432521 1.783686 0.029563 -0.005951 12035.000000 0 1 0
21.066811 -9.429598 -6.363420 23.942034 -0.420860 1.839814 0.029318 -0.011925 180689.000000 0 1 0
19.696111 -9.139698 -6.302220 22.609486 -0.434464 1.853281 0.020908 -0.000579 -477108.000000 0 1 0
18.908411 -9.131198 -7.647620 22.347100 -0.449888 1.920075 0.016353 0.001904 -340445.000000 0 1 0
18.929011 -10.398498 -8.282620 23.130889 -0.502338 1.937003 0.021620 0.002420 1202510.000000 0 1 0
20.101611 -10.717198 -9.055520 24.513987 -0.489816 1.949162 0.021405 0.002889 311061.000000 0 1 0
20.027911 -12.145398 -9.623220 25.322605 -0.545129 1.960620 0.022295 -0.008464 -182933.000000 0 0 1
19.044711 -12.328998 -10.623520 25.051236 -0.574525 2.008733 0.037245 -0.008496 247332.000000 0 0 1
18.906011 -13.659498 -11.093120 25.827824 -0.625664 2.014738 0.047598 -0.009316 -193755.000000 0 0 1
17.747111 -13.937598 -12.065620 25.588978 -0.665741 2.061806 0.051773 -0.014258 23996.300000 0 0 1
17.652911 -15.344698 -12.285020 26.419818 -0.715561 2.054423 0.051095 -0.017713 537416.000000 0 0 1
16.675711 -15.631598 -13.312520 26.450887 -0.753091 2.098201 0.064326 -0.018443 343911.000000 0 0 1
16.627611 -17.113198 -13.837920 27.583094 -0.799789 2.096338 0.064704 -0.020434 -544809.000000 0 0 1
16.072111 -17.966098 -12.899420 27.340236 -0.840984 2.062140 0.052870 -0.016444 100720.000000 0 0 1
16.129111 -19.271398 -13.391420 28.475694 -0.873930 2.060399 0.053407 -0.018975 -810313.000000 0 0 1
15.238111 -20.199798 -12.621620 28.276089 -0.924505 2.033502 0.045886 -0.012148 -255106.000000 0 0 1
13.880411 -19.927698 -12.905620 27.501527 -0.962397 2.059259 0.045854 -0.015314 87528.100000 0 0 1
12.978611 -20.614898 -12.029320 27.168418 -1.008914 2.029480 0.032865 -0.007385 207547.000000 0 0 1
11.524011 -20.166098 -12.173520 26.223443 -1.051631 2.053553 0.025649 -0.002740 171484.000000 0 0 1
10.626811 -20.855698 -11.295020 25.989743 -1.099546 2.020385 0.025423 -0.004539 676999.000000 0 0 1
9.255311 -20.666398 -11.647920 25.464384 -1.149737 2.045888 0.015592 0.003534 612665.000000 0 0 1
8.260511 -21.266598 -10.622420 25.166248 -1.200307 2.006546 0.010581 0.003288 -97550.400000 0 0 1
8.259111 -22.693498 -10.538020 26.348770 -1.221756 1.982252 0.022928 0.005725 170290.000000 0 0 1
7.476011 -23.149798 -9.435120 26.092631 -1.258428 1.940781 0.023725 -0.005636 167035.000000 0 0 1
7.455511 -24.663798 -9.226920 27.368296 -1.277244 1.914673 0.025625 -0.001198 1222760.000000 0 0 1
8.740311 -25.188418 -8.786320 28.072208 -1.236799 1.889136 0.015432 0.008669 878534.000000 0 0 1
9.168011 -26.369378 -9.414720 29.462408 -1.236193 1.896051 0.011485 0.007649 -85776.300000 0 0 1
10.655111 -26.651268 -9.165820 30.130280 -1.190465 1.879901 0.006466 0.009221 -119808.000000 0 0 1
10.911811 -27.212228 -7.907620 30.366156 -1.189437 1.834242 0.021127 0.009851 -167679.000000 0 0 1
12.294811 -27.414168 -7.706920 31.017666 -1.149204 1.821895 0.018149 0.005933 -173902.000000 0 0 1
12.601111 -27.789808 -6.212120 31.139234 -1.145082 1.771639 0.017588 -0.000428 -29517.800000 0 0 1
12.195211 -29.099288 -5.727020 32.066969 -1.173942 1.750355 0.036573 -0.003186 56339.300000 0 0 1
10.813311 -29.399458 -5.701220 31.839594 -1.218347 1.750828 0.045317 -0.004145 -80790.400000 0 0 1
10.384211 -30.509968 -4.722220 32.572832 -1.242740 1.716283 0.064024 -0.011466 7982.860000 0 0 1
10.639811 -31.920398 -4.989220 34.014846 -1.249055 1.718005 0.071990 -0.018494 158755.000000 0 0 1
9.712511 -32.413008 -5.976620 34.360675 -1.279662 1.745623 0.078764 -0.019659 533784.000000 0 0 1
9.806311 -33.973608 -6.178120 35.896225 -1.289789 1.743768 0.072474 -0.019725 -14878.000000 0 0 1
9.245911 33.997243 -5.113920 35.601287 1.305258 1.714939 0.072758 -0.022041 43399.600000 0 0 1
9.609411 32.595397 -5.116020 34.365308 1.284109 1.720223 0.073228 -0.011888 76290.100000 0 0 1
9.110411 31.857997 -3.840120 33.356830 1.292261 1.686175 0.070867 -0.015148 1520690.000000 0 0 1
7.676611 31.665807 -3.990320 32.826458 1.332959 1.692656 0.062924 -0.010360 940603.000000 0 0 1
7.262611 30.572507 -3.183220 31.584120 1.337566 1.671753 0.044337 -0.008289 1552690.000000 0 0 1
5.725111 30.170717 -3.370020 30.893464 1.383269 1.680099 0.040104 -0.014411 1650140.000000 0 0 1
5.400811 29.421117 -4.537020 30.254842 1.389248 1.721324 0.046061 -0.011110 118730.000000 0 0 1
5.145211 30.248157 -5.680020 31.203956 1.402309 1.753846 0.045187 -0.014642 -264627.000000 0 0 1
5.315311 29.510567 -7.045220 30.801968 1.392591 1.801565 0.040620 -0.016208 -18190.500000 0 0 1
4.436511 28.441327 -7.363020 29.712048 1.416055 1.821218 0.026448 -0.015941 152518.000000 0 0 1
4.941611 27.191167 -6.826220 28.467111 1.391022 1.812949 0.028463 -0.014024 -479929.000000 0 0 1
4.281511 25.902207 -7.333920 27.258798 1.406982 1.843201 0.024987 -0.015561 646589.000000 0 0 1
2.887511 25.783967 -7.005220 26.874222 1.459272 1.834509 0.019663 -0.015404 1342550.000000 0 0 1
1.940411 26.573657 -7.827820 27.770474 1.497906 1.856545 0.021619 -0.019007 680224.000000 0 0 1
1.455011 25.784717 -9.071720 27.372702 1.514427 1.908599 0.032549 -0.020611 61104.800000 0 0 1
2.485411 25.574427 -10.054220 27.591954 1.473917 1.943774 0.032062 -0.020920 262300.000000 0 0 1
2.128411 24.870517 -11.229920 27.371223 1.485425 1.993560 0.055542 -0.021429 -567628.000000 0 0 1
1.750911 23.373987 -11.100220 25.934993 1.496027 2.013077 0.061304 -0.017967 274828.000000 0 0 1
0.586411 23.042187 -10.353820 25.268317 1.545352 1.992982 0.051934 -0.011056 -93774.500000 0 0 1
0.634911 21.666187 -10.010720 23.875538 1.541500 2.003457 0.032824 -0.007001 211361.000000 0 1 0
-0.529989 21.091287 -9.152320 22.997571 -1.545673 1.980098 0.035733 -0.004603 1167160.000000 0 1 0
-1.784489 20.873287 -9.816820 23.135438 -1.485512 2.009007 0.043842 -0.008432 318332.000000 0 1 0
-2.726189 20.122987 -9.090620 22.248733 -1.436140 1.991706 0.043033 -0.012102 333565.000000 0 1 0
-4.081689 20.099787 -9.848020 22.751816 -1.370449 2.018443 0.044378 -0.014196 -306733.000000 0 1 0
-5.092289 19.340787 -9.297620 22.055457 -1.313347 2.005957 0.035636 -0.018507 -1266140.000000 0 1 0
-6.015689 19.049787 -10.247620 22.452096 -1.264919 2.044766 0.036069 -0.015248 -1106910.000000 0 1 0
-7.030489 17.967687 -9.753220 21.619224 -1.197825 2.038835 0.045584 -0.012823 226493.000000 0 1 0
-7.951989 18.411487 -8.784920 21.895018 -1.163093 1.983655 0.051894 -0.012797 -165527.000000 0 1 0
-9.183489 18.810587 -9.334920 22.919760 -1.116626 1.990278 0.058367 -0.014862 21319.800000 0 1 0
-10.285489 18.964887 -8.231320 23.091402 -1.073850 1.935280 0.078547 -0.019968 330702.000000 0 1 0
-10.584889 17.795387 -7.543520 22.036796 -1.034201 1.920176 0.068017 -0.022892 -119840.000000 0 1 0
-11.421189 18.177987 -6.452220 22.416822 -1.009829 1.862756 0.051461 -0.015142 -107044.000000 0 1 0
-11.844789 16.963287 -5.624720 21.440373 -0.961239 1.836245 0.040056 -0.021964 -222407.000000 0 1 0
-12.722989 17.307087 -4.596520 21.966741 -0.936879 1.781603 0.044974 -0.008272 -169107.000000 0 1 0
-13.378089 16.218287 -4.002720 21.401586 -0.881070 1.758933 0.060236 -0.010072 45567.700000 0 1 0
-14.611189 16.660987 -3.174620 22.386459 -0.850852 1.713086 0.058485 -0.005934 -474106.000000 0 1 0
-15.661189 17.038887 -4.002020 23.486436 -0.827505 1.742029 0.075115 -0.007947 -359758.000000 0 1 0
-16.775089 17.400487 -3.187220 24.379067 -0.803696 1.701908 0.074671 0.000286 460666.000000 0 1 0
-18.073289 17.548987 -4.046220 25.514361 -0.770681 1.730055 0.074567 -0.009467 225034.000000 0 0 1
-17.922189 18.541387 -5.008220 26.269187 -0.802378 1.762621 0.070012 -0.007371 -419812.000000 0 0 1
-19.109889 18.913087 -5.617420 27.467219 -0.780222 1.776763 0.056528 -0.013547 -297017.000000 0 0 1
-18.737289 19.817587 -6.844820 28.118932 -0.813411 1.816691 0.046150 -0.006215 -57873.700000 0 0 1
-18.330689 21.040287 -6.353920 28.619576 -0.854112 1.794675 0.044249 -0.014025 4786.750000 0 0 1
-17.992689 21.822587 -7.466020 29.252412 -0.881295 1.828879 0.030839 0.007154 -271677.000000 0 0 1
-17.779589 23.278687 -7.094020 30.138616 -0.918540 1.808406 0.042018 0.000801 -1116070.000000 0 0 1
-16.684889 23.465187 -6.297920 29.473112 -0.952694 1.786140 0.032455 0.000808 -772019.000000 0 0 1
-16.834689 24.464177 -5.352920 30.175428 -0.968077 1.749133 0.036884 -0.011348 259256.000000 0 0 1
-15.437589 24.827747 -4.797420 29.626870 -1.014510 1.733440 0.020716 -0.004629 169251.000000 0 0 1
-15.703789 25.865457 -3.873320 30.506286 -1.025148 1.698108 0.032700 -0.009364 1033210.000000 0 0 1
-14.528189 26.514737 -3.325420 30.416410 -1.069545 1.680345 0.023111 -0.004202 708570.000000 0 0 1
-13.939889 27.699127 -4.132520 31.283220 -1.104543 1.703284 0.032776 -0.003852 -294567.000000 0 0 1
-14.886589 28.718457 -4.163320 32.614315 -1.092566 1.698799 0.051225 -0.010729 -103686.000000 0 0 1
-14.520189 29.731787 -5.114020 33.480864 -1.116494 1.724141 0.042486 -0.007546 -390985.000000 0 0 1
-15.201289 31.082367 -4.840720 34.937448 -1.115935 1.709797 0.057429 -0.015846 529885.000000 0 0 1
-16.597089 31.035627 -5.152820 35.570002 -1.079717 1.716172 0.063328 -0.011432 248195.000000 0 0 1
-17.199289 32.194757 -4.641220 36.794821 -1.080144 1.697271 0.076078 -0.014482 4890.820000 0 0 1
12.478063 -8.809898 18.821272 24.239567 -0.614762 0.681753 0.021950 -0.002240 -92675.000000 0 1 0
13.040963 -10.010998 19.290072 25.345486 -0.654707 0.705812 0.026227 -0.003143 152121.000000 0 0 1
13.681263 -10.752998 18.244872 25.212681 -0.666124 0.761736 0.035653 -0.007157 -147038.000000 0 0 1
14.098263 -12.124898 18.684172 26.360433 -0.710287 0.783006 0.048287 -0.016068 -55367.100000 0 0 1
15.191463 -12.260198 19.604972 27.666729 -0.679022 0.783267 0.038560 -0.013031 732917.000000 0 0 1
15.392963 -13.577598 20.168072 28.775781 -0.722818 0.794180 0.035633 -0.008910 46737.600000 0 0 1
16.011763 -14.618398 19.174072 28.943378 -0.739940 0.846687 0.034426 -0.015247 -397566.000000 0 0 1
15.113463 -14.882498 18.107272 27.888686 -0.777698 0.864173 0.041088 -0.020141 355612.000000 0 0 1
15.309663 -16.166398 17.545972 28.347827 -0.812610 0.903387 0.041026 -0.017945 -283679.000000 0 0 1
14.505163 -16.411398 16.225472 27.258020 -0.846978 0.933213 0.035585 -0.024197 -965157.000000 0 0 1
13.145963 -16.510698 16.449372 26.758201 -0.898371 0.908738 0.050599 -0.030858 -578789.000000 0 0 1
12.325863 -16.240698 15.288872 25.484049 -0.921592 0.927372 0.058776 -0.034161 345839.000000 0 0 1
11.916963 -17.494098 14.507972 25.662009 -0.972800 0.969941 0.041722 -0.025524 -477708.000000 0 0 1
13.024763 -18.154098 13.971172 26.351648 -0.948451 1.011981 0.037433 -0.024199 -164797.000000 0 0 1
12.633163 -19.437398 13.552472 26.852909 -0.994463 1.041770 0.039352 -0.021096 -30663.700000 0 0 1
13.690963 -20.299598 12.786672 27.622728 -0.977428 1.089528 0.046804 -0.023523 -160436.000000 0 0 1
14.646363 -20.878898 13.648572 28.926248 -0.959070 1.079419 0.041261 -0.022427 -234725.000000 0 0 1
15.104763 -22.061498 13.089572 29.769119 -0.970436 1.115528 0.032523 -0.020454 -100237.000000 0 0 1
15.745363 -23.052398 14.166772 31.305382 -0.971554 1.101191 0.029822 -0.018915 -515158.000000 0 0 1
16.988963 -22.636798 14.611472 31.851917 -0.926974 1.094229 0.009513 -0.015388 -759423.000000 0 0 1
17.446463 -23.429898 15.660572 33.145025 -0.930745 1.078687 0.012254 -0.014540 -801250.000000 0 0 1
18.844763 -23.050498 16.094672 33.845074 -0.885450 1.075219 0.006346 -0.001686 -480064.000000 0 0 1
19.866463 -23.684098 15.342072 34.510752 -0.872835 1.110114 0.004498 -0.013809 176819.000000 0 0 1
21.139763 -23.100398 15.583272 34.976511 -0.829687 1.109024 0.018244 -0.008111 3340.720000 0 0 1
22.287363 -23.873598 14.969672 35.927236 -0.819748 1.141021 0.018761 -0.016369 -370016.000000 0 0 1
22.819163 -24.915098 15.755572 37.278873 -0.829278 1.134439 0.026416 -0.009445 291523.000000 0 0 1
23.924763 -25.600058 15.201472 38.194790 -0.819213 1.161462 0.033325 -0.016217 69693.600000 0 0 1
24.484263 -26.750008 16.057072 39.659445 -0.829593 1.153955 0.048906 -0.015322 -36869.600000 0 0 1
25.136963 -26.206848 17.190872 40.177006 -0.806233 1.128652 0.047075 -0.005873 107086.000000 0 0 1
25.699063 -27.285488 17.940172 41.554656 -0.815331 1.124392 0.053845 -0.000703 113351.000000 0 0 1
25.872663 -26.797748 19.389972 41.993868 -0.802960 1.090848 0.049445 -0.002601 -364061.000000 0 0 1
24.655163 -26.469418 19.983372 41.326049 -0.820870 1.066086 0.057936 0.007223 -321830.000000 0 0 1
24.843263 -25.912148 21.239172 41.710065 -0.806455 1.036530 0.052887 0.009843 432491.000000 0 0 1
23.507263 -25.934268 22.045972 41.366684 -0.834447 1.008725 0.063900 0.004106 424869.000000 0 0 1
23.270963 -27.240418 22.424072 42.266027 -0.863822 1.011552 0.054769 0.009012 -204098.000000 0 0 1
21.960563 -27.428418 22.900172 41.940461 -0.895659 0.993195 0.055158 0.000734 -178851.000000 0 0 1
21.548763 -28.907248 22.764672 42.640455 -0.930217 1.007620 0.067286 0.008525 -402661.000000 0 0 1
22.119563 -29.721398 23.742262 44.003767 -0.930998 1.000893 0.063138 0.002328 211894.000000 0 0 1
22.096363 -31.069808 23.456672 44.763799 -0.952603 1.019244 0.061191 -0.000473 -174380.000000 0 0 1
23.160563 -31.751708 24.336822 46.226221 -0.940592 1.016350 0.043386 0.004195 19073.300000 0 0 1
22.839563 -31.797158 25.710742 46.837454 -0.947901 0.989706 0.037637 0.001769 447669.000000 0 0 1
23.956563 -32.353738 26.404552 48.144383 -0.933431 0.990293 0.023911 0.006101 -495875.000000 0 0 1
23.732563 -32.615728 27.891452 49.040324 -0.941759 0.965817 0.020371 0.001349 169237.000000 0 0 1
23.003263 -33.782708 28.264242 49.691939 -0.972992 0.965763 0.020030 -0.002967 -84373.700000 0 0 1
21.708063 -33.888118 27.747772 48.883365 -1.001072 0.967169 0.026056 -0.012259 -1217880.000000 0 0 1
21.037763 33.466375 27.992382 48.437167 1.009595 0.954629 0.034163 -0.029134 -178684.000000 0 0 1
20.688963 33.380625 29.348522 49.026881 1.015953 0.929018 0.019805 -0.017653 43978.000000 0 0 1
20.266963 32.112977 29.747712 48.238153 1.007812 0.906273 0.024970 -0.023422 -345081.000000 0 0 1
19.965663 31.960087 31.303742 48.989786 1.012408 0.877618 0.011328 -0.019808 222346.000000 0 0 1
21.171963 32.005317 32.045132 49.994828 0.986370 0.875036 -0.001788 -0.010133 -333633.000000 0 0 1
20.988663 32.777674 33.289967 51.216421 1.001246 0.863230 -0.018366 -0.012181 -630667.000000 0 0 1
22.173663 32.931525 34.213130 52.408920 0.978197 0.859507 -0.030896 -0.001537 -498372.000000 0 0 1
22.663263 31.677237 -34.033720 51.723930 0.949781 2.288940 -0.023406 -0.006395 607798.000000 0 0 1
23.858563 31.625437 -33.236510 51.711362 0.924478 2.268855 -0.022346 0.001514 564241.000000 0 0 1
24.127363 30.183237 -32.815170 50.695097 0.896444 2.274839 -0.007328 0.000210 -449658.000000 0 0 1
24.424363 29.253467 -33.851500 50.972923 0.875121 2.297096 -0.001309 -0.005577 -383322.000000 0 0 1
23.523563 28.220847 -34.045340 50.088516 0.875929 2.318155 -0.002487 -0.013300 -754100.000000 0 0 1
23.667063 27.416797 33.322623 49.215930 0.858670 0.827023 0.036050 -0.022730 -778751.000000 0 0 1
24.776963 26.593747 33.252828 49.263331 0.820750 0.829829 0.025082 -0.021822 -314308.000000 0 0 1
25.060763 26.235207 31.924422 48.326976 0.808290 0.849189 0.034961 -0.034268 -615582.000000 0 0 1
26.458263 25.629747 31.802252 48.665253 0.769493 0.858610 0.022129 -0.023610 -515550.000000 0 0 1
26.603963 24.372877 32.472462 48.541413 0.741659 0.837982 0.032307 -0.027992 193677.000000 0 0 1
27.737563 24.438427 33.321548 49.768812 0.722251 0.837225 0.036464 -0.031110 -799300.000000 0 0 1
27.714263 23.635787 -33.989410 49.819783 0.706140 2.321628 0.033376 -0.037509 -749839.000000 0 0 1
26.878363 24.102967 -32.918460 48.857184 0.731012 2.310094 0.033822 -0.027498 1522470.000000 0 0 1
25.454263 24.025157 -33.166230 48.219566 0.756523 2.329274 0.019514 -0.024750 862084.000000 0 0 1
24.857663 22.584787 -33.316140 47.306883 0.737527 2.352170 0.011118 -0.025168 -976746.000000 0 0 1
24.903863 21.820187 -32.104820 46.119870 0.719496 2.340771 0.003391 -0.030687 306768.000000 0 0 1
24.527463 20.496887 -32.314040 45.452349 0.696116 2.361635 0.002610 -0.018497 -211898.000000 0 0 1
24.443763 19.613187 -31.003200 44.083705 0.676191 2.350798 0.004360 -0.020813 -498883.000000 0 0 1
23.321563 19.817987 -30.195200 42.993000 0.704361 2.349459 -0.006894 -0.018292 -271922.000000 0 0 1
23.337663 19.032087 -29.044660 41.838489 0.684127 2.338117 -0.000972 -0.014767 -450045.000000 0 0 1
22.011663 19.086087 -28.286610 40.606949 0.714332 2.341437 0.020711 -0.020013 -447757.000000 0 0 1
21.901763 18.416687 -27.087350 39.402869 0.699174 2.328763 0.023330 -0.013591 -55911.400000 0 0 1
22.456263 19.021787 -25.929150 39.222863 0.702784 2.293043 0.016924 -0.004261 -333156.000000 0 0 1
22.413063 18.197287 -24.619020 37.941834 0.681958 2.276884 0.022649 -0.002450 -53788.100000 0 0 1
23.366463 17.144887 -24.635820 38.037644 0.633013 2.275318 0.013960 -0.012050 403018.000000 0 0 1
23.400463 16.405487 -23.402320 36.937654 0.611447 2.256946 0.010755 -0.004404 -721422.000000 0 0 1
24.349463 15.213587 -23.402920 37.041143 0.558457 2.254681 0.037091 -0.009519 50787.600000 0 0 1
25.684963 15.654787 -23.100520 37.926557 0.547370 2.225703 0.068690 -0.022098 1042600.000000 0 0 1
26.674363 14.612587 -23.199920 38.252917 0.501163 2.222432 0.068714 -0.027153 315377.000000 0 0 1
26.645763 13.524687 -22.033920 37.126910 0.469688 2.206167 0.056392 -0.019500 -1646950.000000 0 0 1
25.489463 12.808087 -21.955420 35.997226 0.465634 2.226756 0.034423 -0.010783 -1137590.000000 0 0 1
25.243363 12.399687 -20.616120 34.871249 0.456588 2.203351 0.032067 -0.020419 -644300.000000 0 0 1
23.822763 11.838487 -20.544320 33.611648 0.461197 2.228405 0.036191 -0.013718 -483855.000000 0 0 1
22.924263 12.911987 -20.589820 33.409309 0.512956 2.234819 0.048322 -0.016481 301170.000000 0 0 1
21.607063 12.497687 -21.015320 32.629757 0.524391 2.270582 0.040119 -0.018774 832317.000000 0 0 1
20.550963 13.582587 -20.893920 32.301465 0.584015 2.274232 0.032924 -0.015037 -857260.000000 0 0 1
20.960863 14.733387 -21.692420 33.570695 0.612670 2.273353 0.016993 -0.008493 263453.000000 0 0 1
20.157163 15.897487 -21.628620 33.568416 0.667798 2.270923 0.013626 -0.004729 -193969.000000 0 0 1
18.821163 15.850187 -22.416520 33.286108 0.699917 2.309662 0.019247 0.001585 -202288.000000 0 0 1
17.965563 14.867387 -21.946220 32.022449 0.691315 2.325865 0.029323 -0.006814 -461370.000000 0 0 1
16.795163 14.835987 -22.743720 31.928997 0.723539 2.363597 0.035859 -0.018947 -91527.600000 0 0 1
15.774963 13.784087 -22.250820 30.560588 0.718147 2.386326 0.038711 -0.013862 -182758.000000 0 0 1
14.571763 14.048787 -22.904020 30.566302 0.767127 2.417835 0.037630 -0.015837 -794362.000000 0 0 1
13.429363 13.420987 -22.364720 29.336861 0.785086 2.437721 0.049364 -0.017200 -8503.910000 0 0 1
12.196263 13.583687 -23.266620 29.573654 0.839164 2.476298 0.046056 -0.016454 -460425.000000 0 0 1
11.728563 14.892687 -23.208020 29.966040 0.903700 2.456685 0.053990 -0.018843 -304585.000000 0 0 1
11.079963 15.224787 -24.420920 30.837332 0.941683 2.484755 0.049108 -0.020521 -893438.000000 0 0 1
10.789163 16.706987 -24.507520 31.561813 0.997388 2.459877 0.044128 -0.024374 -390940.000000 0 0 1
11.885463 17.599887 -24.442020 32.379509 0.976830 2.426238 0.039842 -0.018271 66095.800000 0 0 1
13.002663 17.378487 -25.295490 33.330810 0.928445 2.432453 0.032903 -0.023423 -286500.000000 0 0 1
12.800863 17.370487 -26.815350 34.418875 0.935712 2.464007 0.039981 -0.022280 -381062.000000 0 0 1
14.001363 17.134187 -27.530400 35.320553 0.885680 2.464574 0.031323 -0.023983 92205.500000 0 0 1
13.623563 16.875287 -28.874740 36.112704 0.891615 2.497380 0.030591 -0.037251 -228731.000000 0 0 1
14.597663 17.391187 -29.912640 37.554110 0.872505 2.492316 0.030556 -0.030176 -939996.000000 0 0 1
15.848963 16.803087 -29.970060 37.838312 0.814611 2.484966 0.025150 -0.028458 -1010040.000000 0 0 1
16.628863 17.466287 -30.915090 39.208839 0.809955 2.479118 0.021413 -0.017506 -257149.000000 0 0 1
17.876263 16.674087 -31.355610 39.758776 0.750617 2.479400 0.021401 -0.017242 -883399.000000 0 0 1
18.812363 16.535087 -30.293840 39.306881 0.721062 2.450736 0.019244 -0.015991 -240018.000000 0 0 1
19.893263 15.711587 -30.573100 39.715367 0.668487 2.449332 0.021601 -0.013463 -1066800.000000 0 0 1
21.017263 16.289487 -31.360580 41.116405 0.659343 2.438315 0.008365 -0.010726 -1674320.000000 0 0 1
20.741863 16.730887 -32.645750 42.141339 0.678767 2.456994 0.015906 -0.011999 -93317.800000 0 0 1
21.953763 17.223487 -33.160300 43.338456 0.665239 2.442066 0.013603 -0.005952 20948.800000 0 0 1
21.799763 17.589787 34.028397 44.074506 0.678922 0.688712 0.017869 0.001846 -241251.000000 0 0 1
22.923663 18.342587 33.652593 44.659174 0.674838 0.717362 0.018027 -0.009138 136373.000000 0 0 1
22.787463 18.889587 32.366352 43.859613 0.692144 0.740764 0.031793 -0.009449 -339946.000000 0 0 1
23.526863 20.230587 32.139212 44.673469 0.710210 0.767822 0.035581 -0.016315 618428.000000 0 0 1
24.948263 20.020287 32.182422 45.375500 0.676247 0.782367 0.032327 -0.023359 599520.000000 0 0 1
25.628763 21.224487 31.927632 46.116006 0.691672 0.806079 0.047093 -0.030769 633986.000000 0 0 1
27.148163 21.049287 31.573562 46.658172 0.659528 0.827526 0.033806 -0.029941 1048320.000000 0 0 1
27.873563 20.570387 32.737500 47.663615 0.635770 0.813658 0.035699 -0.027769 1060760.000000 0 0 1
29.251463 20.292787 32.384352 48.126827 0.606509 0.832680 0.042881 -0.020597 1081440.000000 0 0 1
30.014963 19.529787 33.463887 49.011655 0.576845 0.819244 0.025951 -0.018641 -151493.000000 0 0 1
30.006963 20.239787 -33.919180 49.604209 0.593408 2.323749 0.022477 -0.021702 206518.000000 0 0 1
28.862363 20.008187 -33.106430 48.263850 0.606166 2.326700 0.024720 -0.028424 -119858.000000 0 0 1
29.089763 20.414287 -31.664130 47.598052 0.611912 2.298612 0.028835 -0.025136 -182266.000000 0 0 1
29.890263 19.373987 -31.126180 47.303470 0.575088 2.288970 0.027893 -0.024575 -48453.900000 0 0 1
30.220963 19.637187 -29.762210 46.740934 0.576225 2.261070 0.009218 -0.027095 218443.000000 0 0 1
31.643663 19.124787 -29.408660 47.243499 0.543634 2.242718 0.062693 -0.019288 719872.000000 0 0 1
32.662163 19.759787 -30.188280 48.668248 0.544069 2.239905 0.023183 -0.019819 576665.000000 0 0 1
33.892463 19.868087 -29.487080 49.121562 0.530218 2.214657 0.048342 -0.013311 418110.000000 0 0 1
35.042163 20.693287 -30.073570 50.602223 0.533424 2.207208 0.048671 -0.019288 22169.100000 0 0 1
35.869463 20.188187 -31.086930 51.580796 0.512635 2.217657 0.028577 -0.013152 10653.400000 0 0 1
-34.964686 21.130787 -31.428440 51.544023 -0.543609 2.226529 0.035154 -0.019532 295186.000000 0 0 1
-33.971186 20.826087 -32.587560 51.475397 -0.549961 2.256310 0.031853 -0.022550 531524.000000 0 0 1
-33.125986 19.694387 -32.355150 50.319535 -0.536388 2.269197 0.051822 -0.013386 552387.000000 0 0 1
-32.262186 19.360487 -33.434010 50.333986 -0.540492 2.297277 0.039225 -0.001996 80671.500000 0 0 1
-31.439086 18.081287 -33.225630 49.186295 -0.521925 2.312447 0.024185 -0.000001 36014.400000 0 0 1
-32.245686 16.948587 -32.908780 49.092023 -0.483923 2.305475 0.027710 0.003144 439619.000000 0 0 1
-31.497086 15.730887 -33.075910 48.306760 -0.463199 2.324996 0.014815 0.009314 146345.000000 0 0 1
-32.410286 14.488287 -32.967750 48.448010 -0.420379 2.319210 0.018609 0.010345 70025.300000 0 0 1
-31.840486 13.187787 -33.183740 47.842397 -0.392673 2.337278 0.023315 0.003653 -189114.000000 0 0 1
-32.905086 12.306987 -33.115810 48.279018 -0.357907 2.326671 0.036959 0.003437 -472402.000000 0 0 1
-32.538686 10.804487 -33.229360 47.746135 -0.320596 2.340551 0.034410 0.000165 -109943.000000 0 0 1
-31.997886 10.390187 34.173535 47.954679 -0.313974 0.777568 0.027037 -0.001192 261115.000000 0 0 1
-32.303286 9.012787 33.988019 47.748487 -0.272086 0.778719 0.044455 -0.009737 -490355.000000 0 0 1
-31.569686 8.432487 32.794011 46.294698 -0.261014 0.783603 0.056583 -0.020820 -535025.000000 0 0 1
-30.208086 8.363687 33.106071 45.590478 -0.270103 0.758073 0.049782 -0.017344 -808142.000000 0 0 1
-29.466486 7.749887 32.100952 44.258397 -0.257182 0.759315 0.046719 -0.015973 -144616.000000 0 0 1
20.117263 -4.094898 -31.161500 37.316371 -0.200808 2.559043 0.049064 -0.032394 -219329.000000 0 0 1
21.080863 -4.303898 -32.185480 38.714745 -0.201394 2.552328 0.059002 -0.032622 395829.000000 0 0 1
22.273963 -3.538498 -32.103890 39.234043 -0.157546 2.529185 0.040884 -0.029583 352048.000000 0 0 1
22.141763 -2.046498 -32.477800 39.360555 -0.092165 2.541239 0.042724 -0.025331 407499.000000 0 0 1
23.310763 -1.320898 -32.015980 39.625237 -0.056604 2.511494 0.040843 -0.018815 1123590.000000 0 0 1
23.070863 0.066602 -32.239500 39.644098 0.002887 2.520466 0.036488 -0.019844 -171376.000000 0 0 1
24.136963 0.975402 -31.623020 39.793967 0.040389 2.489258 0.036562 -0.013744 332624.000000 0 0 1
25.368363 1.107602 -32.313350 41.096633 0.043633 2.475557 0.046663 -0.016265 -197138.000000 0 0 1
26.428863 1.582502 -31.518300 41.162997 0.059806 2.442917 0.044094 -0.016861 -144220.000000 0 0 1
27.786063 1.244402 -32.153330 42.514121 0.044755 2.428432 0.039019 -0.020119 -412507.000000 0 0 1
28.173363 2.108502 -33.179010 43.577871 0.074701 2.436224 0.043893 -0.016057 -345284.000000 0 0 1
28.880163 1.306702 -34.088980 44.697090 0.045215 2.438222 0.029662 -0.012568 -1410.560000 0 0 1
29.642963 2.060602 33.430411 44.727438 0.069402 0.726619 0.034238 -0.016360 487431.000000 0 0 1
28.724163 2.856002 32.661873 43.589359 0.099103 0.723779 0.045173 -0.010917 607633.000000 0 0 1
28.842163 4.285202 32.928587 43.983237 0.147495 0.724755 0.041886 -0.000885 -140180.000000 0 0 1
27.809863 5.070002 32.090612 42.765649 0.180329 0.722155 0.040104 0.002037 -104595.000000 0 0 1
27.913263 6.434102 32.230152 43.119956 0.226546 0.726576 0.042574 0.001852 -131937.000000 0 0 1
27.219063 7.140202 31.278082 42.073486 0.256543 0.732634 0.035394 0.004240 -511927.000000 0 0 1
27.279763 8.642702 31.631722 42.654983 0.306813 0.735386 0.024982 0.005135 806606.000000 0 0 1
28.587363 9.149202 31.319832 43.380607 0.309742 0.764140 0.028121 0.007199 597253.000000 0 0 1
28.698863 10.536302 31.466642 43.872405 0.351856 0.770976 0.020156 0.007056 125527.000000 0 0 1
30.030863 11.127202 30.951642 44.538427 0.354842 0.802457 0.018755 0.014693 -352555.000000 0 0 1
31.183963 10.785002 31.685182 45.746109 0.332974 0.805666 0.021278 0.008788 -250369.000000 0 0 1
32.362963 10.813602 30.929952 46.053852 0.322472 0.834425 0.013631 0.011383 -155308.000000 0 0 1
33.026163 12.242902 30.914672 46.865051 0.354998 0.850439 0.019848 0.016759 -752662.000000 0 0 1
33.537063 12.470602 32.171162 48.116880 0.356002 0.838466 0.023903 0.003020 185687.000000 0 0 1
34.319063 13.689302 32.348552 49.108287 0.379543 0.851682 0.019409 0.007524 435599.000000 0 0 1
33.568963 15.064202 32.465542 49.069510 0.421817 0.847814 0.024443 0.006724 -524090.000000 0 0 1
33.014663 15.451502 31.163692 47.957195 0.437737 0.863445 0.032076 -0.001044 496400.000000 0 0 1
32.045463 16.491302 31.318612 47.746520 0.475277 0.855376 0.038895 -0.012165 639884.000000 0 0 1
30.629963 15.970302 31.724372 46.900756 0.480617 0.827912 0.037644 -0.003014 -347907.000000 0 0 1
30.043063 15.321202 30.590702 45.531482 0.471595 0.834082 0.044734 -0.004737 1076950.000000 0 0 1
28.709263 14.863202 30.946092 44.752621 0.477719 0.807244 0.034594 -0.006776 1031740.000000 0 0 1
27.880563 14.465702 29.717182 43.239949 0.478610 0.813083 0.021484 0.001842 -207147.000000 0 0 1
28.140263 13.177402 29.137292 42.596949 0.437948 0.817533 0.022375 0.005191 16254.200000 0 0 1
27.227763 12.911902 28.097692 41.201317 0.442810 0.820356 0.013730 0.001414 -90534.200000 0 0 1
27.142163 11.377702 28.056342 40.660883 0.396939 0.809296 0.012006 0.009184 26022.900000 0 0 1
27.962963 10.654502 27.127212 40.389743 0.364040 0.834381 0.022681 0.012563 256732.000000 0 0 1
27.677963 9.246102 27.214302 39.902108 0.322404 0.820266 0.029860 0.013275 -69447.200000 0 0 1
28.800663 8.320802 26.694982 40.141449 0.281252 0.843272 0.018999 0.012648 -91439.000000 0 0 1
29.152663 8.421102 25.326512 39.524991 0.281208 0.875293 0.025587 0.007307 403127.000000 0 0 1
30.198063 7.502402 25.005292 39.918337 0.243510 0.893856 0.030315 0.014965 373227.000000 0 0 1
30.809563 7.660802 23.595212 39.555670 0.243708 0.931655 0.038745 0.010718 -528041.000000 0 0 1
31.417063 8.899002 23.309572 40.119324 0.276023 0.950832 0.027125 0.004818 231076.000000 0 0 1
30.624563 10.099602 23.056372 39.641671 0.318556 0.950078 0.030244 0.001972 -236187.000000 0 0 1
30.110863 10.213802 21.622272 38.451377 0.327027 0.973598 0.030548 0.013836 -149065.000000 0 0 1
31.188563 10.365302 20.721972 38.853134 0.320859 1.008251 0.035333 -0.006509 293114.000000 0 0 1
30.760063 10.224402 19.372572 37.762632 0.320903 1.032110 0.040114 -0.010036 -642033.000000 0 0 1
31.667563 10.880402 18.280372 38.149569 0.330946 1.071080 0.052358 -0.025331 326900.000000 0 0 1
32.897863 10.294902 17.922372 38.851844 0.303281 1.091336 0.054011 -0.018832 -185591.000000 0 0 1
33.893463 10.378802 18.897172 40.169509 0.297152 1.081012 0.053440 -0.010867 -1508280.000000 0 0 1
35.191063 9.785902 18.366472 40.884007 0.271227 1.104889 0.068199 -0.026803 -1037390.000000 0 0 1
35.218063 8.391602 18.104372 40.478379 0.233914 1.107097 0.058360 -0.017052 181936.000000 0 0 1
-35.585686 7.904002 17.253372 40.329805 -0.218564 1.128731 0.064572 -0.011980 -332942.000000 0 0 1
-35.594486 6.399102 17.137472 40.020106 -0.177878 1.128272 0.059958 -0.007824 -142002.000000 0 0 1
35.086863 5.866102 16.464172 39.199082 0.165656 1.137335 0.046626 -0.001741 425181.000000 0 0 1
35.290163 4.588002 15.927972 38.989045 0.129283 1.149960 0.054685 -0.003642 -469489.000000 0 0 1
34.013263 3.733302 15.930372 37.744090 0.109323 1.135077 0.048221 0.002864 -215376.000000 0 0 1
33.767463 3.123402 17.171272 38.011179 0.092235 1.102079 0.051574 0.012441 156259.000000 0 0 1
32.516663 2.479402 17.301172 36.916274 0.076103 1.083023 0.050259 0.010986 112101.000000 0 0 1
32.421363 1.653502 18.604972 37.416892 0.050956 1.050388 0.044466 0.000149 16872.800000 0 0 1
33.259463 0.513102 18.667072 38.143344 0.015426 1.059403 0.052717 0.002684 101071.000000 0 0 1
32.828163 -0.389598 19.678072 38.276188 -0.011867 1.030830 0.056813 0.003521 104186.000000 0 0 1
33.645563 -1.682898 19.689072 39.019426 -0.049977 1.041882 0.052539 -0.000021 -7210.160000 0 0 1
33.244763 -2.559398 20.749972 39.272460 -0.076835 1.014129 0.058387 0.004094 -211508.000000 0 0 1
33.941763 -3.758498 20.925872 40.050739 -0.110284 1.021035 0.044831 0.003396 -155897.000000 0 0 1
33.439863 -4.505198 22.147272 40.361155 -0.133919 0.989955 0.044534 0.003752 8715.040000 0 0 1
33.777063 -3.855898 23.339372 41.236927 -0.113665 0.969172 0.046997 -0.006121 54111.900000 0 0 1
33.250063 -4.523298 24.455672 41.522365 -0.135209 0.941005 0.038731 -0.005391 3423.720000 0 0 1
33.460063 -3.819998 25.812342 42.431653 -0.113674 0.916845 0.026195 -0.003146 140574.000000 0 0 1
32.705563 -4.323698 26.913132 42.575402 -0.131439 0.886499 0.032445 -0.000958 -75084.300000 0 0 1
33.124363 -3.788798 28.120782 43.616015 -0.113886 0.870119 0.030462 0.004971 -332442.000000 0 0 1
32.303663 -4.149498 29.337132 43.833917 -0.127753 0.837558 0.034991 -0.002406 -273110.000000 0 0 1
32.472363 -5.524998 29.694372 44.347893 -0.168531 0.837156 0.052005 -0.013358 -190177.000000 0 0 1
31.449163 -6.010898 30.519502 44.233706 -0.188853 0.809362 0.064040 -0.024791 -254218.000000 0 0 1
31.519863 -7.547098 30.813252 44.720431 -0.235015 0.810661 0.064934 -0.024504 500219.000000 0 0 1
32.562863 -7.875398 31.747632 46.154892 -0.237296 0.812274 0.062887 -0.026811 403515.000000 0 0 1
33.354663 -8.971498 31.341382 46.640149 -0.262754 0.833913 0.058231 -0.021767 611232.000000 0 0 1
34.750663 -9.118998 32.016242 48.122806 -0.256626 0.842897 0.065968 -0.024240 654841.000000 0 0 1
34.558563 -9.438198 33.376000 48.962549 -0.266606 0.820762 0.045094 -0.025268 561179.000000 0 0 1
35.821963 -9.778598 33.941677 50.307767 -0.266485 0.830264 0.014433 -0.017257 317704.000000 0 0 1
35.680763 -10.282898 -33.214770 49.820435 -0.280589 2.300555 0.023508 -0.010565 -341078.000000 0 0 1
35.192063 -9.323898 -32.314680 48.679101 -0.258993 2.296726 0.017302 -0.005769 715522.000000 0 0 1
-35.648786 -8.310798 -31.978130 48.605619 0.229039 2.288837 0.027463 0.000369 292199.000000 0 0 1
35.589163 -6.979098 -31.530300 48.056801 -0.193644 2.286442 0.031370 -0.008712 -136366.000000 0 0 1
35.353763 -6.833798 -30.137350 46.955822 -0.190943 2.267670 0.012735 -0.000819 169429.000000 0 0 1
34.725263 -5.602898 -29.860240 46.139682 -0.159971 2.274663 0.023652 -0.010924 -37694.700000 0 0 1
34.859963 -5.299198 -28.350910 45.244587 -0.150859 2.247998 0.027968 -0.004890 242410.000000 0 0 1
-35.629086 -4.893798 -28.074690 45.624218 0.136500 2.233621 0.021381 -0.006141 151223.000000 0 0 1
-35.452586 -4.512498 -26.722530 44.624457 0.126602 2.212838 0.024534 -0.009714 1460030.000000 0 0 1
-33.904586 -4.481798 -26.340620 43.167531 0.131427 2.227103 0.025825 -0.002410 773811.000000 0 0 1
-33.728386 -4.008798 -24.985720 42.165872 0.118300 2.205027 0.036229 -0.011276 735377.000000 0 0 1
-32.405586 -4.222998 -24.478320 40.830674 0.129587 2.213683 0.044150 -0.011735 1113280.000000 0 0 1
-31.203086 -3.383898 -25.026120 40.142123 0.108025 2.243928 0.059619 -0.012785 -161520.000000 0 0 1
-30.713786 -3.876398 -26.246200 40.586034 0.125547 2.274021 0.056497 -0.009674 -334026.000000 0 0 1
-29.654886 -3.076098 -26.695480 40.019037 0.103360 2.301065 0.074602 -0.012965 89780.200000 0 0 1
-29.049586 -3.651898 -28.031710 40.533833 0.125057 2.334447 0.073142 -0.003667 430902.000000 0 0 1
-29.964386 -3.484398 -29.120620 41.928701 0.115765 2.338559 0.067820 -0.001998 130217.000000 0 0 1
-29.616086 -4.319298 -30.241240 42.547638 0.144822 2.361377 0.057359 0.004519 -1474880.000000 0 0 1
-30.649386 -4.389398 -31.368820 44.075555 0.142246 2.362720 0.037343 0.014752 45578.700000 0 0 1
-31.860686 -5.080098 -31.043440 44.772826 0.158116 2.336930 0.039112 0.013642 682688.000000 0 0 1
-32.700086 -4.396998 -30.125970 44.678891 0.133663 2.310782 0.047805 -0.001433 -1213950.000000 0 0 1
-33.794486 -3.494398 -30.713700 45.799667 0.103035 2.305827 0.074551 -0.011642 -657996.000000 0 0 1
-33.303486 -2.302898 -31.324130 45.778015 0.069039 2.324387 0.085636 -0.013408 221485.000000 0 0 1
-32.610886 -1.335698 -30.550450 44.705526 0.040936 2.323166 0.089139 -0.017295 114031.000000 0 0 1
-32.383286 -0.000198 -31.268910 45.015797 0.000006 2.338689 0.100586 -0.019477 810394.000000 0 0 1
-33.635886 0.639202 -31.577110 46.139954 -0.019001 2.324545 0.105129 -0.014803 806894.000000 0 0 1
-33.441686 1.945402 -32.140080 46.423224 -0.058107 2.335506 0.118036 -0.012972 -83020.200000 0 0 1
-34.786686 2.614902 -32.462100 47.652274 -0.075029 2.320236 0.085903 -0.015317 -7765.530000 0 0 1
-35.397886 2.194802 -33.683300 48.912087 -0.061924 2.330422 0.068309 -0.017879 470530.000000 0 0 1
35.125563 2.766202 -33.813470 48.834494 0.078590 2.335620 0.036152 -0.011272 339371.000000 0 0 1
34.221563 2.245702 33.671776 48.061908 0.065528 0.794570 0.013042 -0.004410 3302.320000 0 0 1
34.610063 2.499902 32.279252 47.392574 0.072105 0.821528 0.022457 0.002068 466422.000000 0 0 1
35.705463 1.726902 31.799412 47.844172 0.048328 0.843777 0.014250 0.008158 128167.000000 0 0 1
-35.871386 1.827602 30.300372 46.991584 -0.050905 0.870029 0.027707 0.004394 -265891.000000 0 0 1
-35.660486 3.138002 29.790442 46.572393 -0.087771 0.876742 0.027611 0.005978 666194.000000 0 0 1
-34.996386 3.135902 28.479462 45.228980 -0.089368 0.889664 0.028606 0.003762 508534.000000 0 0 1
-34.641486 4.612202 28.077862 44.829358 -0.132363 0.893963 0.029924 0.008740 162250.000000 0 0 1
-33.770386 4.675602 26.961492 43.465185 -0.137578 0.901670 0.026583 0.010644 366752.000000 0 0 1
-33.327386 5.992502 26.735502 43.144082 -0.177906 0.902462 0.026951 0.009781 -50583.800000 0 0 1
-32.555586 6.137202 25.372492 41.728824 -0.186328 0.917216 0.033534 0.007252 723315.000000 0 0 1
-31.339986 5.372902 25.299132 40.633839 -0.169789 0.898720 0.030656 0.006840 820834.000000 0 0 1
-30.490586 5.626102 24.200652 39.331926 -0.182467 0.908039 0.034080 0.000338 148154.000000 0 0 1
-30.971886 5.048502 22.842772 38.814138 -0.161582 0.941573 0.033381 -0.004104 -103160.000000 0 0 1
-30.817386 3.675202 22.587572 38.385112 -0.118697 0.941661 0.027456 -0.001014 -251951.000000 0 0 1
-31.244986 3.426202 21.277472 37.956802 -0.109220 0.975722 0.052591 -0.001149 -250015.000000 0 0 1
-31.275386 1.895102 20.919172 37.674301 -0.060520 0.982116 0.034183 0.008255 749522.000000 0 0 1
-30.026686 1.382702 20.410672 36.333308 -0.046017 0.974282 0.009478 0.010073 817424.000000 0 0 1
-29.732286 1.789202 19.080272 35.373251 -0.060105 1.001074 0.019394 0.006515 -121700.000000 0 0 1
-28.518686 1.089402 18.430872 33.973509 -0.038181 0.997378 0.028050 0.008423 -81393.500000 0 0 1
-28.778286 -0.277198 18.137872 34.018363 0.009632 1.008443 0.031335 0.009917 475136.000000 0 0 1
-27.793586 -0.934698 17.324372 32.764172 0.033617 1.013658 0.049975 0.006447 64910.600000 0 0 1
-27.751686 -0.613798 15.807672 31.943940 0.022114 1.053126 0.053336 0.006575 -24352.000000 0 0 1
-27.265986 0.682302 15.549372 31.395581 -0.025019 1.052648 0.059498 0.008623 204944.000000 0 0 1
-27.616286 1.044602 14.255172 31.095987 -0.037808 1.094574 0.081636 -0.000450 67901.300000 0 0 1
-26.994386 2.417102 13.776372 30.402758 -0.089303 1.100524 0.074786 0.001124 -457807.000000 0 0 1
-25.598886 2.395202 13.793972 29.177279 -0.093295 1.078371 0.063149 -0.007892 -240477.000000 0 0 1
-25.066786 3.618702 13.209672 28.564562 -0.143372 1.090040 0.060118 -0.011197 -611801.000000 0 0 1
-23.560986 3.694302 13.103772 27.211703 -0.155531 1.068375 0.046003 -0.012503 -961756.000000 0 0 1
-22.878486 4.065402 14.294172 27.281422 -0.175860 1.019311 0.034855 -0.004070 -157626.000000 0 0 1
-21.528086 4.206902 13.907672 25.972675 -0.192983 1.005728 0.028012 -0.010179 -564847.000000 0 0 1
-20.775686 4.759602 15.092972 26.116676 -0.225209 0.954636 0.016468 -0.012016 -569561.000000 0 0 1
-21.169386 6.117502 15.353072 26.856723 -0.281315 0.962262 0.015120 -0.007343 495324.000000 0 0 1
-20.520186 6.587902 16.535172 27.164138 -0.310651 0.916359 0.012759 0.003251 -167414.000000 0 0 1
-20.725986 8.063702 16.903272 27.934036 -0.371042 0.920887 -0.000689 0.008257 -543478.000000 0 0 1
-20.072886 8.996802 16.045272 27.227081 -0.421362 0.940588 0.015927 -0.001479 529029.000000 0 0 1
-20.500786 10.306602 16.208072 28.092879 -0.465839 0.955812 0.009246 0.001370 -491320.000000 0 0 1
-20.206986 11.055802 17.553572 28.959988 -0.500635 0.919608 0.033912 -0.001869 -163034.000000 0 0 1
-21.005386 10.624402 18.632372 30.021150 -0.468272 0.901236 0.047875 -0.003313 328818.000000 0 0 1
-20.559386 11.201102 19.801172 30.663324 -0.498855 0.868777 0.056113 -0.001061 -483995.000000 0 0 1
-12.228537 -33.676484 -20.643320 41.349599 1.222483 2.093516 0.086302 -0.031845 -726464.000000 0 0 1
-13.170837 -34.096084 -19.753020 41.547511 1.202168 2.066251 0.103052 -0.026794 -1471080.000000 0 0 1
-14.230837 -33.204384 -19.741520 41.167651 1.165895 2.070926 0.078314 -0.047183 -959283.000000 0 0 1
-15.480837 -33.781284 -19.102220 41.781889 1.141089 2.045628 0.068917 -0.031862 -1923100.000000 0 0 1
-16.123637 33.961702 -19.873720 42.524506 -1.127544 2.057084 0.061523 -0.032475 220475.000000 0 0 1
-16.979837 33.067502 -19.173220 41.825673 -1.096415 2.046999 0.059644 -0.026162 8163.420000 0 0 1
-18.233537 33.640702 -18.504020 42.503617 -1.074110 2.021225 0.056566 -0.029549 -1320850.000000 0 0 1
-18.009237 -34.090984 -17.515320 42.347541 1.084789 1.997211 0.053814 -0.032472 564930.000000 0 0 1
-19.232937 -33.739084 -16.833520 42.327285 1.052691 1.979804 0.031998 -0.026159 858989.000000 0 0 1
-19.485037 34.228202 -15.462920 42.312391 -1.053280 1.944909 0.040367 -0.025950 -322621.000000 0 0 1
-19.540637 32.868902 -15.596320 41.297051 -1.034429 1.958066 0.039558 -0.034996 186330.000000 0 0 1
-19.924637 32.289002 -14.381720 40.575913 -1.017918 1.933111 0.045314 -0.023951 -445891.000000 0 0 1
-20.037237 30.780502 -14.438620 39.463957 -0.993738 1.945362 0.029736 -0.017553 652353.000000 0 0 1
-18.811537 30.073902 -14.171620 38.198800 -1.011830 1.950878 0.031851 -0.021156 421888.000000 0 0 1
-18.971037 28.696102 -14.160920 37.200782 -0.986656 1.961308 0.031619 -0.017193 -410938.000000 0 0 1
-17.819237 27.845202 -13.626520 35.756993 -1.001526 1.961768 0.035722 -0.016613 238090.000000 0 0 1
-16.606137 28.006102 -14.361120 35.585774 -1.035579 1.986205 0.063338 -0.024725 -447487.000000 0 0 1
-15.602637 27.132502 -13.965020 34.272974 -1.048922 1.990472 0.071516 -0.031717 424677.000000 0 0 1
-14.234437 27.604602 -14.577420 34.309393 -1.094704 2.009627 0.071683 -0.033910 343423.000000 0 0 1
-14.392337 27.618702 -16.001820 35.014145 -1.090405 2.045427 0.048369 -0.026796 -376505.000000 0 0 1
-13.399637 28.351802 -16.671620 35.515037 -1.129291 2.059435 0.082119 -0.031130 -377838.000000 0 0 1
-13.531337 28.502202 -18.218920 36.433524 -1.127554 2.094464 0.090266 -0.036958 -213928.000000 0 0 1
-13.146737 27.262802 -18.791920 35.626301 -1.121472 2.126420 0.078726 -0.032714 81632.800000 0 0 1
-13.462437 27.165202 -20.120020 36.386820 -1.110694 2.156695 0.074212 -0.040788 -65193.200000 0 0 1
-12.576137 26.092702 -20.816120 35.669303 -1.121669 2.193935 0.047248 -0.020849 191642.000000 0 0 1
-11.218537 26.480602 -20.892120 35.546569 -1.170069 2.199058 0.046072 -0.014650 -254124.000000 0 0 1
-10.469937 25.493002 -21.528920 34.971519 -1.181101 2.233960 0.055734 -0.017477 500379.000000 0 0 1
-9.154937 25.957402 -22.217820 35.372746 -1.231726 2.249913 0.055391 -0.020473 209292.000000 0 0 1
-9.440537 26.423302 -23.537120 36.623908 -1.227650 2.268776 0.061863 -0.020457 890128.000000 0 0 1
-8.316537 26.866302 -24.349220 37.200101 -1.270599 2.284380 0.034955 -0.022814 752902.000000 0 0 1
-8.803437 27.457002 -25.750560 38.658490 -1.260525 2.299769 0.041809 -0.018236 76372.700000 0 0 1
-9.542237 26.596202 -26.569450 38.785925 -1.226319 2.325439 0.048403 -0.021703 -276378.000000 0 0 1
-9.727137 27.292802 -27.794840 40.150559 -1.228432 2.335420 0.075556 -0.019274 -1010690.000000 0 0 1
-10.978937 26.798102 -28.431640 40.583661 -1.181964 2.346990 0.056913 -0.016106 -1046680.000000 0 0 1
-11.236537 27.546302 -29.589530 41.959490 -1.183486 2.353491 0.068404 -0.014192 880319.000000 0 0 1
-12.530037 27.092902 -30.080650 42.377738 -1.137609 2.360042 0.072455 -0.010773 1129810.000000 0 0 1
-12.796737 27.480802 -31.566510 43.765232 -1.134995 2.376429 0.056346 -0.014251 -121469.000000 0 0 1
-12.118037 26.812902 -32.636880 43.942514 -1.146324 2.407916 0.054126 -0.010154 48738.100000 0 0 1
-12.316937 25.421102 -32.620270 43.151146 -1.119612 2.427906 0.046921 -0.013662 -143970.000000 0 0 1
-11.650537 24.622602 -33.740880 43.364208 -1.128847 2.462402 0.033044 -0.006049 259022.000000 0 0 1
-12.345437 24.591902 33.639483 43.460169 -1.105540 0.685614 0.047886 -0.003095 418041.000000 0 0 1
-11.408437 24.277402 32.619730 42.232588 -1.131501 0.688212 0.039345 -0.004660 -7491.820000 0 0 1
-12.139037 24.315002 31.226312 41.396354 -1.107756 0.716171 0.047763 -0.006226 134120.000000 0 0 1
-13.010237 23.214602 31.040922 40.886707 -1.059978 0.708723 0.042568 -0.002720 -373053.000000 0 0 1
-13.576437 23.291702 29.766082 40.160212 -1.043055 0.735965 0.048195 0.002229 -657218.000000 0 0 1
-14.808237 22.414502 29.666822 40.022670 -0.986968 0.735865 0.043854 0.004907 -361772.000000 0 0 1
-14.527037 21.027802 29.830812 39.282065 -0.966238 0.708405 0.019770 0.001711 171969.000000 0 0 1
-15.783137 20.377802 29.948082 39.512654 -0.911782 0.710652 0.023983 0.001333 441330.000000 0 0 1
-15.517937 18.874402 30.235642 38.874715 -0.882683 0.679684 0.014045 -0.006937 206548.000000 0 0 1
-15.210737 18.197802 28.990942 37.456658 -0.874571 0.685684 0.024768 -0.000566 192643.000000 0 0 1
-14.691837 16.864102 29.167522 36.755848 -0.854128 0.654179 0.012728 -0.009389 140709.000000 0 0 1
-14.486937 16.151802 27.826842 35.285765 -0.839683 0.662245 0.022471 -0.006240 -165314.000000 0 0 1
-13.428137 16.790202 27.182902 34.657408 -0.896202 0.669178 0.017853 -0.010646 -729669.000000 0 0 1
-12.862637 16.016802 26.197142 33.290774 -0.894185 0.664996 0.013955 -0.003181 170277.000000 0 0 1
-11.816037 16.789402 25.339382 32.612682 -0.957538 0.680943 0.020055 -0.001141 130422.000000 0 0 1
-12.354337 17.694102 24.414172 32.584700 -0.961267 0.723863 0.016541 -0.004907 -236607.000000 0 0 1
-12.563037 19.009402 24.833032 33.702622 -0.986807 0.742430 0.017591 -0.007610 309860.000000 0 0 1
-11.334437 19.722902 25.492332 34.166084 -1.049200 0.728566 0.005198 -0.000096 500674.000000 0 0 1
-11.078837 19.400402 26.887552 34.957927 -1.051926 0.693301 0.014082 -0.003933 618157.000000 0 0 1
-12.077337 19.997202 27.752902 36.276352 -1.027476 0.699691 0.025292 -0.006495 536640.000000 0 0 1
-11.719137 19.559702 29.204732 37.051808 -1.031004 0.662896 0.026701 -0.003378 145978.000000 0 0 1
-10.536937 20.146002 29.737832 37.432968 -1.088896 0.652730 0.005188 -0.008995 65582.300000 0 0 1
-10.621837 20.261602 31.161572 38.657464 -1.087949 0.633274 -0.000289 -0.009467 242092.000000 0 0 1
-9.423837 20.941202 31.886282 39.294753 -1.147931 0.624143 0.001118 -0.012671 1081030.000000 0 0 1
-8.174837 20.241502 31.944732 38.691243 -1.186962 0.599475 0.000753 -0.018865 618853.000000 0 0 1
-7.189937 21.018602 32.609747 39.457222 -1.241199 0.598009 -0.002913 -0.012977 -185462.000000 0 0 1
-6.004937 20.223902 33.133887 39.280019 -1.282165 0.566974 0.009780 -0.012754 -724722.000000 0 0 1
-6.354737 19.437502 34.260972 39.900042 -1.254818 0.538127 0.008700 -0.018989 378319.000000 0 0 1
-5.290137 19.016102 -33.505640 38.887345 -1.299464 2.609225 0.003019 -0.018878 416078.000000 0 0 1
-4.331237 17.975302 -34.069670 38.763559 -1.334349 2.644368 0.006048 -0.022585 -141745.000000 0 0 1
-5.028937 16.752002 -34.321775 38.521475 -1.279157 2.670290 0.001383 -0.021865 95209.600000 0 0 1
-4.785837 16.202402 33.050050 37.117757 -1.283585 0.472550 0.006896 -0.018048 -272191.000000 0 0 1
-5.401337 14.831302 32.751492 36.356597 -1.221541 0.449095 0.016500 -0.012687 -307442.000000 0 0 1
-4.785737 13.716802 33.377008 36.401629 -1.235105 0.410529 0.025335 -0.014473 -416723.000000 0 0 1
-5.656337 12.593602 33.431475 36.169828 -1.148655 0.391620 0.032897 -0.018179 -150697.000000 0 0 1
-4.932737 11.287902 33.795893 35.970974 -1.158811 0.349534 0.062848 -0.024493 -39466.900000 0 0 1
-4.562837 11.124802 -33.485150 35.578589 -1.181571 2.796843 0.052095 -0.024951 -173154.000000 0 0 1
-3.672937 10.058302 -33.268340 34.949140 -1.220676 2.830198 0.069139 -0.032918 35440.800000 0 0 1
-3.430737 9.602302 -31.825810 33.419401 -1.227648 2.831533 0.068492 -0.028896 -267199.000000 0 0 1
-4.560437 9.017802 -31.243750 32.837331 -1.102587 2.828776 0.069841 -0.026095 -250365.000000 0 0 1
-4.299137 8.576202 -29.909340 31.410229 -1.106120 2.831209 0.079956 -0.024061 197333.000000 0 0 1
-5.586137 7.946602 -29.346250 30.912066 -0.958087 2.821945 0.076485 -0.020423 14957.600000 0 0 1
-5.420137 6.958802 -28.368870 29.708511 -0.909061 2.840143 0.063620 -0.017254 96243.400000 0 0 1
-6.629937 6.234902 -28.128850 29.564545 -0.754701 2.828672 0.072017 -0.029006 -170181.000000 0 0 1
-6.629137 5.512002 -26.755640 28.110353 -0.693644 2.829872 0.062096 -0.024457 -205325.000000 0 0 1
-6.834637 6.343202 -25.593400 27.239138 -0.748123 2.792203 0.047100 -0.019184 535418.000000 0 0 1
-5.671637 7.118802 -25.282110 26.870614 -0.898063 2.796025 0.049868 -0.018607 265982.000000 0 0 1
-5.893037 8.046002 -24.136520 26.115851 -0.938643 2.749757 0.034730 -0.007776 139935.000000 0 0 1
-6.165337 7.347002 -22.858320 24.788962 -0.872627 2.744313 0.031793 -0.007685 1032890.000000 0 1 0
-7.572537 7.518502 -22.540020 24.938398 -0.781818 2.699429 0.028637 -0.000074 1209500.000000 0 1 0
-7.791737 7.741202 -21.001720 23.700414 -0.782145 2.659730 0.023560 -0.000168 193293.000000 0 1 0
-7.135437 8.972302 -20.683220 23.647670 -0.898944 2.635491 0.011993 0.005366 83161.300000 0 1 0
-6.897437 9.225902 -19.326120 22.498685 -0.928822 2.604088 0.013593 0.011920 615202.000000 0 1 0
-8.147637 9.642002 -18.414420 22.325839 -0.869203 2.540650 0.009147 0.018245 397051.000000 0 1 0
-7.882237 9.682802 -17.038820 21.123629 -0.887550 2.509214 0.006806 0.014220 575035.000000 0 1 0
-8.978137 10.009602 -16.137720 21.005359 -0.839667 2.446926 0.012727 0.007900 665402.000000 0 1 0
-9.507237 11.414202 -16.367020 22.103188 -0.876296 2.404584 0.016573 0.001710 -1153340.000000 0 1 0
-8.582537 12.384102 -16.032420 22.001464 -0.964764 2.387215 0.009038 0.001028 -647907.000000 0 1 0
-8.993337 13.694402 -16.362620 23.154959 -0.989714 2.355559 0.028148 -0.005937 -439979.000000 0 1 0
-7.857837 14.705702 -16.192920 23.242503 -1.080056 2.341575 0.031665 -0.005737 -101885.000000 0 1 0
-7.260537 14.825502 -14.870820 22.218285 -1.115396 2.304070 0.028930 -0.001955 321696.000000 0 1 0
-8.100037 15.281602 -13.824720 22.141835 -1.083397 2.245122 0.022753 -0.019296 -410040.000000 0 1 0
-7.275537 16.062002 -12.770320 21.771597 -1.145479 2.197600 0.005683 -0.016686 404855.000000 0 1 0
-6.874737 17.412502 -13.117020 22.858553 -1.194767 2.181976 0.021426 -0.016599 -150112.000000 0 1 0
-5.959637 17.602802 -14.162520 23.365635 -1.244347 2.221977 0.026798 -0.005949 -249590.000000 0 1 0
-5.872137 19.104102 -14.619020 24.762158 -1.272587 2.202323 0.046535 -0.001465 67497.300000 0 1 0
-5.407137 20.034002 -13.667320 24.847415 -1.307180 2.153220 0.041444 -0.004099 -163665.000000 0 1 0
-5.180037 21.319402 -14.173020 26.119422 -1.332442 2.144354 0.029456 -0.006471 -91496.000000 0 0 1
-4.707737 22.194602 -12.983620 26.140726 -1.361782 2.090568 0.033959 -0.004706 -622820.000000 0 0 1
-4.871337 23.578002 -13.063620 27.391792 -1.367058 2.067940 0.016840 -0.004590 -26874.800000 0 0 1
-6.178337 24.130502 -13.065620 28.127627 -1.320142 2.053880 0.020190 -0.003926 310426.000000 0 0 1
-6.918037 24.038302 -11.687420 27.609690 -1.290577 2.007891 0.017077 -0.006584 -188786.000000 0 0 1
-7.222237 22.686202 -11.294120 26.351122 -1.262587 2.013740 0.022506 -0.002583 -386293.000000 0 0 1
-7.801237 22.469402 -10.043620 25.818746 -1.236624 1.970348 0.032918 -0.005611 -140879.000000 0 0 1
-7.072437 22.956002 -8.766920 25.570614 -1.271937 1.920747 0.035205 -0.003915 -32475.200000 0 0 1
-7.096737 24.410502 -8.669120 26.858703 -1.287870 1.899449 0.032854 -0.001554 -315314.000000 0 0 1
-6.634737 24.858102 -7.411420 26.774505 -1.309972 1.851268 0.029299 -0.002111 5266.890000 0 0 1
-6.671237 26.417002 -7.251920 28.194924 -1.323432 1.830927 0.020973 -0.005151 390399.000000 0 0 1
-5.851637 27.301402 -8.051320 29.059112 -1.359656 1.851537 0.010446 -0.003923 125663.000000 0 0 1
-6.236737 27.329802 -9.416720 29.571770 -1.346436 1.894876 0.013503 -0.005494 337855.000000 0 0 1
-5.532337 28.461202 -10.252120 30.753093 -1.378809 1.910671 0.003578 -0.006355 212884.000000 0 0 1
-6.144737 29.732302 -10.170420 32.018823 -1.366997 1.894035 0.006195 -0.002207 161292.000000 0 0 1
-6.915137 29.989502 -11.367320 32.808617 -1.344172 1.924606 0.012220 -0.006098 548857.000000 0 0 1
-8.126737 30.955302 -11.212920 33.911711 -1.314059 1.907789 0.030671 -0.011429 -351302.000000 0 0 1
-9.166137 30.416502 -10.499820 33.457852 -1.278098 1.890012 0.048514 -0.007089 -969962.000000 0 0 1
-10.189437 31.338102 -10.244920 34.508834 -1.256433 1.872218 0.060456 -0.021416 -77793.300000 0 0 1
-11.276037 30.739102 -9.352620 34.051621 -1.219207 1.849032 0.066386 -0.018902 39651.800000 0 0 1
-12.109437 29.691202 -9.782920 33.524789 -1.183545 1.866917 0.073141 -0.018274 -83814.600000 0 0 1
-13.369937 29.724902 -9.149120 33.853086 -1.148118 1.844459 0.079219 -0.010653 924072.000000 0 0 1
-14.401137 28.627902 -9.663120 33.471263 -1.104715 1.863664 0.070083 -0.011654 532979.000000 0 0 1
-14.128837 27.313402 -9.200720 32.098274 -1.093416 1.861516 0.064511 -0.007537 218577.000000 0 0 1
-15.121037 26.424302 -9.695020 31.951259 -1.051039 1.879088 0.060861 -0.007537 264218.000000 0 0 1
-15.052337 25.065702 -8.932320 30.572023 -1.029998 1.867295 0.059398 -0.005704 -210501.000000 0 0 1
-14.055237 24.206502 -9.433820 29.538135 -1.044735 1.895869 0.054722 -0.002800 95087.700000 0 0 1
-14.282037 22.851002 -9.082220 28.436449 -1.012192 1.895878 0.054002 -0.002027 81698.800000 0 0 1
-13.188437 21.854702 -9.597220 27.270305 -1.027837 1.930428 0.052222 0.001191 25336.700000 0 0 1
-13.274337 21.475802 -10.952720 27.520541 -1.017169 1.980114 0.063296 -0.004378 -20816.100000 0 0 1
-12.512837 20.348002 -11.240420 26.399987 -1.019463 2.010613 0.062439 -0.009908 -258777.000000 0 0 1
-12.696537 19.965402 -12.738420 26.871671 -1.004378 2.064677 0.072777 -0.009025 312011.000000 0 0 1
-13.978037 19.389202 -12.909320 27.165736 -0.946169 2.065994 0.069302 -0.008099 -44909.100000 0 0 1
-14.046537 18.856302 -14.222120 27.479702 -0.930551 2.114781 0.071164 -0.013132 317950.000000 0 0 1
-15.476637 18.424602 -14.650720 28.171544 -0.872137 2.117710 0.065129 -0.005119 292219.000000 0 0 1
-16.196537 19.552302 -15.104420 29.542577 -0.878994 2.107466 0.034478 -0.001913 42293.700000 0 0 1
-17.569937 19.193802 -15.298720 30.185354 -0.829540 2.102295 0.021135 -0.001065 86593.700000 0 0 1
-18.265837 20.309002 -16.059320 31.685930 -0.838315 2.102298 0.013545 -0.000025 -307794.000000 0 0 1
-18.388237 21.497802 -15.259320 32.142334 -0.863202 2.065467 0.019378 -0.006008 208236.000000 0 0 1
-18.957137 22.507702 -16.078120 33.533202 -0.870818 2.070845 0.022358 -0.012144 23324.100000 0 0 1
-19.264237 23.870702 -15.367820 34.308762 -0.891787 2.035242 0.019987 -0.008731 -451166.000000 0 0 1
-20.451137 23.751702 -14.655220 34.600113 -0.859928 2.008168 0.011590 -0.004829 -453339.000000 0 0 1
-20.727837 24.959802 -14.009320 35.339723 -0.877763 1.978409 0.014360 -0.007810 25391.200000 0 0 1
-25.484657 -0.532798 3.594080 25.742359 0.020904 1.430721 0.104609 -0.032107 -131783.000000 0 0 1
-26.003767 0.331102 4.553480 26.401510 -0.012732 1.397459 0.110722 -0.030084 557688.000000 0 0 1
-27.254147 -0.184198 5.035380 27.716016 0.006758 1.388104 0.107626 -0.024394 566819.000000 0 0 1
-27.685807 0.671802 6.246180 28.389611 -0.024260 1.348965 0.096075 -0.017699 -364712.000000 0 0 1
-28.089247 1.992802 6.011780 28.794419 -0.070827 1.360466 0.111249 -0.022749 140545.000000 0 0 1
-28.268697 2.829102 7.169580 29.300613 -0.099747 1.323596 0.101729 -0.019043 -350297.000000 0 0 1
-27.052907 3.122802 8.067980 28.402535 -0.114924 1.282772 0.103477 -0.016845 -113190.000000 0 0 1
-26.487877 2.018202 8.777280 27.977159 -0.076046 1.251677 0.098997 -0.022587 537490.000000 0 0 1
-25.315787 2.362602 9.499780 27.142527 -0.093056 1.213229 0.092398 -0.031652 49298.100000 0 0 1
-24.753737 1.108602 10.220680 26.803709 -0.044755 1.179577 0.076227 -0.027038 -292173.000000 0 0 1
-23.884137 0.254202 9.480880 25.698321 -0.010643 1.192939 0.077060 -0.030027 435474.000000 0 0 1
-24.464237 -0.761498 8.679780 25.969547 0.031117 1.230009 0.076761 -0.020755 -534052.000000 0 0 1
-23.347737 -1.656598 8.195680 24.799805 0.070835 1.233991 0.062595 -0.023175 -171638.000000 0 1 0
-22.548537 -2.341098 9.162280 24.451271 0.103454 1.186706 0.061130 -0.025017 1158230.000000 0 1 0
-21.380537 -2.909698 8.523780 23.200184 0.135260 1.194583 0.055276 -0.018331 1099060.000000 0 1 0
-20.082237 -2.879198 9.396680 22.358078 0.142400 1.137041 0.023307 -0.012760 400945.000000 0 1 0
-19.518037 -1.608698 9.596780 21.809170 0.082235 1.115160 0.016967 -0.014433 540346.000000 0 1 0
-20.183237 -1.005998 10.693380 22.863147 0.049802 1.084095 0.038160 -0.016445 -446028.000000 0 1 0
-19.928337 0.492002 10.819880 22.681501 -0.024684 1.073518 0.027469 -0.012303 -425932.000000 0 1 0
-20.543337 1.324902 9.860680 22.825799 -0.064404 1.124090 0.030044 -0.012006 437080.000000 0 1 0
-20.639037 2.640102 10.370680 23.248462 -0.127227 1.108415 0.024702 -0.013131 -213400.000000 0 1 0
-21.490037 3.616802 9.503280 23.774257 -0.166739 1.159574 0.027017 -0.018388 -344820.000000 0 1 0
-21.570837 4.815102 10.182780 24.334651 -0.219622 1.139061 0.019710 -0.017733 720692.000000 0 1 0
-22.441237 5.814902 9.671680 25.118989 -0.253541 1.175551 0.026733 -0.016572 -216484.000000 0 0 1
-22.432837 7.130402 10.503880 25.776080 -0.307756 1.151076 0.021299 -0.016691 -194823.000000 0 0 1
-23.144137 6.844202 11.682580 26.813744 -0.287526 1.119987 0.017454 -0.012700 239080.000000 0 0 1
-23.003837 7.843202 12.678680 27.412429 -0.328592 1.089966 0.016280 -0.014153 -269075.000000 0 0 1
-23.791937 7.482902 13.945480 28.574928 -0.304719 1.060963 0.032110 -0.011372 376486.000000 0 0 1
-25.169587 7.239702 13.688880 29.551765 -0.280076 1.089175 0.053956 -0.011135 269082.000000 0 0 1
-25.959417 6.923002 14.803880 30.675302 -0.260620 1.067176 0.048458 -0.011605 37075.700000 0 0 1
-27.459777 6.813902 14.471380 31.778758 -0.243228 1.097998 0.057243 -0.004244 -114923.000000 0 0 1
-27.747487 5.734202 13.569980 31.415736 -0.203788 1.124144 0.069705 0.003178 -317813.000000 0 0 1
-28.978817 5.898302 12.926980 32.274892 -0.200796 1.158704 0.062703 -0.002168 -611390.000000 0 0 1
-29.358177 4.739702 12.028380 32.078798 -0.160063 1.186439 0.087483 -0.004308 -223480.000000 0 0 1
-29.960637 3.652102 12.714380 32.751078 -0.121298 1.172105 0.070644 -0.009110 325624.000000 0 0 1
-30.421167 2.696702 11.760680 32.726644 -0.088414 1.203213 0.073909 -0.005318 -335541.000000 0 0 1
-31.507267 1.762702 12.314380 33.874164 -0.055888 1.198739 0.055485 0.001572 -233065.000000 0 0 1
-31.050047 0.546802 12.883480 33.621251 -0.017609 1.177544 0.057653 0.005113 438534.000000 0 0 1
-32.134547 0.069102 13.675980 34.923722 -0.002150 1.168431 0.049364 0.013908 468053.000000 0 0 1
-31.789387 -1.185198 14.550780 34.981353 0.037266 1.141800 0.045268 0.008295 -94122.300000 0 0 1
-31.805927 -2.384198 13.899080 34.792037 0.074821 1.159836 0.034419 0.006633 157062.000000 0 0 1
-32.058527 -3.420798 14.856380 35.498775 0.106303 1.138999 0.034459 0.014062 -149277.000000 0 0 1
-31.947257 -4.884898 14.397380 35.380419 0.151730 1.151705 0.038087 0.004654 -608856.000000 0 0 1
-32.985427 -5.308398 13.591280 36.068551 0.159563 1.184438 0.028035 -0.003146 -407167.000000 0 0 1
-32.769417 -6.637398 13.109980 35.913247 0.199845 1.197114 0.043091 -0.006743 -446885.000000 0 0 1
-33.774417 -6.975798 11.955480 36.500774 0.203677 1.237097 0.044644 0.000029 1776990.000000 0 0 1
-35.170262 -7.143198 12.308280 37.940300 0.200378 1.240407 0.039611 0.004529 1137110.000000 0 0 1
-35.824652 -5.966298 12.703580 38.475750 0.165027 1.234312 0.040681 -0.003821 -409011.000000 0 0 1
34.473411 -5.858998 12.410980 37.104937 -0.168348 1.229739 0.060112 -0.009571 361347.000000 0 0 1
33.577601 -6.720398 13.039480 36.642149 -0.197535 1.206962 0.058592 -0.007350 225259.000000 0 0 1
32.247281 -6.310498 12.689780 35.224140 -0.193249 1.202252 0.064466 -0.006391 937413.000000 0 0 1
31.107251 -7.275298 13.150780 34.547562 -0.229748 1.180289 0.045370 -0.004892 331962.000000 0 0 1
30.798041 -7.263298 14.545980 34.826145 -0.231604 1.139912 0.047785 -0.005267 -35248.300000 0 0 1
30.036891 -8.365398 14.969380 34.587238 -0.271621 1.123199 0.038905 -0.005092 -565075.000000 0 0 1
29.486721 -8.268298 16.360480 34.720265 -0.273387 1.080136 0.034827 -0.007222 -185649.000000 0 0 1
30.411211 -8.480298 17.415780 36.056436 -0.271946 1.066702 0.023648 0.003003 -360183.000000 0 0 1
29.816341 -8.788198 18.635480 36.242623 -0.286628 1.030737 0.028385 -0.004870 -359365.000000 0 0 1
30.815331 -9.210698 19.762280 37.748766 -0.290447 1.019818 0.031733 -0.002594 276424.000000 0 0 1
31.780901 -8.249398 20.111280 38.503790 -0.253966 1.021228 0.037174 -0.001050 -125269.000000 0 0 1
33.017841 -8.527998 19.470280 39.268262 -0.252761 1.052009 0.020535 0.012165 -169169.000000 0 0 1
34.225521 -7.887598 20.171080 40.502753 -0.226505 1.049485 0.006988 0.009274 -105764.000000 0 0 1
34.341881 -8.382598 21.539780 41.395590 -0.239411 1.023547 0.015623 0.002504 -259600.000000 0 0 1
35.636601 -8.110398 22.021980 42.669820 -0.223775 1.028503 0.011351 0.001181 39074.400000 0 0 1
-35.769493 -8.793198 23.336580 43.604735 0.241050 1.006070 0.014334 0.000861 -60138.000000 0 0 1
35.460041 -8.194098 24.480680 43.861845 -0.227094 0.978664 0.016028 0.004325 92320.000000 0 0 1
35.423001 -9.038498 25.589780 44.624212 -0.249828 0.960085 0.011536 -0.003128 -127553.000000 0 0 1
34.881121 -8.428998 26.894980 44.845073 -0.237104 0.927631 0.022060 -0.002709 1109710.000000 0 0 1
35.906561 -7.550798 27.481880 45.842659 -0.207270 0.927942 0.007711 -0.016762 945092.000000 0 0 1
35.461611 -6.856298 28.671680 46.115073 -0.190988 0.899831 0.014531 -0.021191 637704.000000 0 0 1
-35.144337 -6.433498 29.558180 46.370253 0.181055 0.879627 0.021835 -0.012889 877797.000000 0 0 1
-34.527261 -7.424298 30.355280 46.569249 0.211802 0.860800 0.018631 -0.013134 -687112.000000 0 0 1
-33.243287 -7.073198 30.753780 45.836026 0.209644 0.835304 0.014008 -0.019849 -613605.000000 0 0 1
-32.771707 -7.840898 31.989980 46.463139 0.234843 0.811374 0.005448 -0.009448 -75599.600000 0 0 1
-32.545497 -9.278698 31.829980 46.459135 0.277731 0.816031 0.010662 -0.011320 412708.000000 0 0 1
-32.083867 -9.910798 33.020480 47.095122 0.299604 0.793795 0.004088 -0.002615 -235473.000000 0 0 1
-32.273787 -11.427898 33.050080 47.586784 0.340316 0.803041 0.011041 -0.004201 -902067.000000 0 0 1
-33.633347 -11.709998 33.051380 48.587239 0.335040 0.822695 0.004580 -0.012113 -731042.000000 0 0 1
-33.911377 -13.074698 33.024280 49.107355 0.367992 0.833226 0.007901 -0.011837 -793885.000000 0 0 1
-35.396673 -13.361598 33.047380 50.235307 0.360945 0.852834 0.009562 -0.010239 -756612.000000 0 0 1
-35.616142 -14.711498 33.343880 50.958337 0.391712 0.857492 0.003583 -0.015219 -212249.000000 0 0 1
34.862641 -14.870898 33.736580 50.741543 -0.403189 0.843475 -0.006613 -0.009993 -405046.000000 0 0 1
34.399101 -16.329198 34.068080 51.093786 -0.443202 0.840923 -0.007705 0.003612 -230942.000000 0 0 1
35.014821 -17.019098 -33.483013 51.349777 -0.452429 2.281092 -0.007311 -0.006895 68094.000000 0 0 1
34.707401 -18.389198 -33.302413 51.495796 -0.487230 2.274048 -0.006873 -0.010342 -452805.000000 0 0 1
35.324911 -19.012898 -32.066713 51.357704 -0.493761 2.245134 -0.005053 -0.007297 -102641.000000 0 0 1
34.506861 -18.895998 -30.918213 50.037167 -0.501000 2.236872 -0.013755 -0.002493 -67036.800000 0 0 1
35.084701 -19.660498 -29.848913 50.084219 -0.510772 2.209275 -0.013137 0.000940 -648186.000000 0 0 1
34.031291 -19.884498 -28.719613 48.768209 -0.528796 2.200494 -0.006784 0.001653 846901.000000 0 0 1
32.801401 -20.537498 -28.956513 48.334257 -0.559402 2.213159 -0.007656 -0.002300 720628.000000 0 0 1
31.948691 -19.962298 -29.962713 48.134981 -0.558472 2.242695 -0.005036 -0.006328 -503105.000000 0 0 1
30.518571 -20.576698 -30.057713 47.521046 -0.593224 2.255591 -0.000099 -0.000414 923955.000000 0 0 1
29.652591 -19.794298 -30.911713 47.187121 -0.588607 2.285095 -0.001819 0.004313 354882.000000 0 0 1
28.296541 -20.150498 -30.747613 46.391298 -0.618813 2.295333 0.001791 0.005693 502615.000000 0 0 1
27.322931 -19.461398 -31.776513 46.206443 -0.618916 2.329123 -0.000357 0.015315 428323.000000 0 0 1
27.491281 -19.948298 -33.091113 47.420743 -0.627716 2.343145 -0.000865 0.006514 -466786.000000 0 0 1
26.431011 -19.551998 -33.885513 47.213419 -0.636900 2.371304 0.013362 0.010312 -493110.000000 0 0 1
26.760911 -19.732798 33.299880 47.057536 -0.635371 0.784641 0.009199 0.005714 821762.000000 0 0 1
27.903951 -18.949898 32.857280 47.088533 -0.596569 0.798507 0.000359 0.005897 737550.000000 0 0 1
28.107391 -18.879398 31.415080 46.188357 -0.591471 0.822827 -0.001283 0.003269 -98689.300000 0 0 1
26.993901 -18.250298 30.492680 44.626759 -0.594498 0.818548 0.004765 0.004268 99864.400000 0 0 1
26.765111 -16.916598 30.732680 44.125277 -0.563645 0.800306 0.014775 0.003914 233927.000000 0 0 1
25.826511 -16.279098 29.904480 42.735180 -0.562419 0.795731 0.028517 0.002907 -237228.000000 0 0 1
25.578511 -14.810498 30.422080 42.415964 -0.524851 0.770975 0.039845 -0.005406 -648491.000000 0 0 1
26.724811 -14.029098 30.413980 42.849052 -0.483405 0.781591 0.043946 -0.004923 -204832.000000 0 0 1
26.465811 -12.762298 31.030980 42.734496 -0.449321 0.758114 0.071390 -0.015492 -128737.000000 0 0 1
27.783191 -12.003198 31.275480 43.521697 -0.407811 0.768983 0.068344 -0.021298 -331847.000000 0 0 1
28.205321 -11.469398 30.079880 42.800542 -0.386217 0.791482 0.063424 -0.023122 -545308.000000 0 0 1
29.521441 -11.033998 30.260780 43.691869 -0.357685 0.805716 0.062186 -0.024397 -713552.000000 0 0 1
30.147421 -10.527598 28.976280 43.119858 -0.335965 0.833898 0.053456 -0.010132 -329690.000000 0 0 1
29.746991 -9.237898 28.502680 42.221144 -0.301106 0.829722 0.054548 -0.016853 -149088.000000 0 0 1
30.463881 -8.910298 27.347580 41.896678 -0.284550 0.859603 0.051270 -0.007121 -52737.400000 0 0 1
30.537341 -7.399198 27.051080 41.461286 -0.237719 0.859994 0.050322 -0.003258 -4963.860000 0 0 1
29.265241 -6.831898 26.862980 40.308174 -0.229340 0.841373 0.065081 -0.006642 -240757.000000 0 0 1
29.360311 -5.461598 26.699880 40.059212 -0.183918 0.841278 0.059825 -0.007643 751151.000000 0 0 1
27.943251 -4.873198 26.403380 38.751927 -0.172660 0.821200 0.063430 -0.001680 730848.000000 0 0 1
27.368041 -5.087498 25.111880 37.489983 -0.183794 0.836818 0.059016 -0.011195 -1228670.000000 0 0 1
26.165711 -4.459098 25.089080 36.523827 -0.168796 0.813549 0.063888 -0.010913 -742216.000000 0 0 1
25.184411 -4.967098 23.935480 35.097490 -0.194730 0.820342 0.067964 -0.008209 486475.000000 0 0 1
25.493211 -4.275198 22.752180 34.436069 -0.166153 0.849035 0.076831 0.002899 190650.000000 0 0 1
24.747911 -4.816398 21.682580 33.253437 -0.192216 0.860524 0.082564 -0.003384 -59336.800000 0 0 1
24.857311 -3.924998 20.397380 32.393589 -0.156608 0.889664 0.095805 -0.009053 177989.000000 0 0 1
24.183311 -2.659298 20.412080 31.757793 -0.109524 0.872724 0.087458 -0.007827 86625.000000 0 0 1
24.737111 -1.689698 19.530280 31.562820 -0.068200 0.903614 0.087303 -0.016367 473108.000000 0 0 1
23.642611 -0.653998 19.016680 30.348557 -0.027655 0.893602 0.061558 -0.010311 592792.000000 0 0 1
22.714011 -1.266898 18.163480 29.110880 -0.055718 0.897020 0.071431 -0.012429 -404888.000000 0 0 1
21.684111 -0.436698 17.712980 28.002518 -0.020136 0.885956 0.060753 -0.007137 216237.000000 0 0 1
20.515611 -1.186698 17.022980 26.684835 -0.057779 0.878993 0.045288 -0.006514 96090.400000 0 0 1
20.877611 -1.687598 15.739180 26.200084 -0.080658 0.926382 0.058832 -0.008456 -4982.670000 0 0 1
19.834811 -2.489998 15.250980 25.143830 -0.124883 0.919083 0.053115 -0.014382 -146428.000000 0 0 1
20.106211 -2.977798 13.833880 24.586648 -0.147035 0.973199 0.057011 -0.023185 -182424.000000 0 1 0
19.206611 -3.957598 13.356080 23.726385 -0.203210 0.972881 0.055475 -0.025985 216629.000000 0 1 0
19.554011 -4.377898 12.056980 23.385810 -0.220255 1.029126 0.055705 -0.021684 47495.200000 0 1 0
18.683511 -5.579998 11.499480 22.637314 -0.290226 1.037949 0.053119 -0.028733 140663.000000 0 1 0
18.829411 -6.831098 12.159680 23.432209 -0.348022 1.025197 0.061846 -0.025376 542296.000000 0 1 0
17.626811 -7.566898 12.129180 22.695361 -0.405493 1.006958 0.050117 -0.010374 -255607.000000 0 1 0
17.796711 -9.048698 12.585580 23.600820 -0.470383 1.008336 0.051216 -0.021292 -210971.000000 0 1 0
18.622111 -9.862898 11.794280 24.148806 -0.487073 1.060541 0.050862 -0.026938 355438.000000 0 1 0
18.187811 -11.200398 11.918280 24.459983 -0.551970 1.061851 0.053932 -0.018888 -10135.700000 0 1 0
18.560811 -11.964298 10.639980 24.512391 -0.572570 1.121796 0.047441 -0.024145 -10386.500000 0 1 0
18.050611 -11.436198 9.444080 23.362402 -0.564733 1.154646 0.050709 -0.028774 76361.300000 0 1 0
18.656111 -11.986498 8.305080 23.679125 -0.571083 1.212441 0.041014 -0.028362 -75701.500000 0 1 0
18.469911 -11.259098 6.903080 22.705890 -0.547442 1.261885 0.039259 -0.020821 44747.000000 0 1 0
18.948211 -9.888898 6.973380 22.482283 -0.481007 1.255422 0.045724 -0.013404 565032.000000 0 1 0
19.461011 -9.504598 5.710280 22.398117 -0.454318 1.313006 0.031944 -0.017502 -173525.000000 0 1 0
20.031511 -8.092698 5.549080 22.305728 -0.383948 1.319382 0.055066 -0.013525 -518778.000000 0 1 0
20.481111 -7.813198 4.256780 22.330297 -0.364442 1.378995 0.047618 -0.014401 556590.000000 0 1 0
20.892811 -6.471598 4.220780 22.275685 -0.300380 1.380165 0.058435 -0.015196 -331184.000000 0 1 0
21.631911 -6.063398 2.914480 22.653887 -0.273286 1.441786 0.066616 -0.021411 247380.000000 0 1 0
20.733611 -5.924098 1.821080 21.640100 -0.278309 1.486544 0.040874 -0.030355 752187.000000 0 1 0
21.433711 -5.327398 0.788780 22.099939 -0.243616 1.535097 0.059605 -0.021058 -25830.800000 0 1 0
-25.319227 -15.670898 0.102480 29.776683 0.554224 1.567355 0.054909 -0.007272 -187860.000000 0 0 1
-24.386637 -15.060098 -0.803520 28.673338 0.553228 1.598823 0.043787 0.000874 1616910.000000 0 0 1
-22.984237 -15.263298 -0.493820 27.595059 0.586207 1.588693 0.038031 0.003083 1423290.000000 0 0 1
-22.407737 -14.648298 0.770580 26.781955 0.578983 1.542020 0.045721 -0.010320 -1018000.000000 0 0 1
-22.819837 -15.315898 1.936280 27.551241 0.591111 1.500459 0.043753 0.004263 -179834.000000 0 0 1
-22.005637 -15.052398 3.049480 26.835091 0.599924 1.456913 0.034289 0.016682 103965.000000 0 0 1
-22.602137 -15.644598 4.384180 27.835788 0.605454 1.412636 0.039650 0.017307 -65615.200000 0 0 1
-22.531837 -17.035098 4.413880 28.589519 0.647359 1.415788 0.062277 0.003188 306372.000000 0 0 1
-23.423837 -17.574498 5.372980 29.772606 0.643682 1.389335 0.074289 -0.001795 -540587.000000 0 0 1
-23.153637 -19.088698 5.426380 30.494506 0.689465 1.391897 0.037940 0.005134 227744.000000 0 0 1
-23.773437 -19.842298 6.484180 31.637600 0.695510 1.364382 0.034974 0.000376 82349.700000 0 0 1
-23.699937 -21.230098 6.088180 32.395525 0.730483 1.381739 0.041593 -0.005908 -126455.000000 0 0 1
-24.403137 -22.228198 7.005680 33.744414 0.738791 1.361665 0.035727 -0.002596 -95283.100000 0 0 1
-23.749537 -22.481998 8.226580 33.721764 0.757988 1.324355 0.038997 0.002890 45930.900000 0 0 1
-24.469637 -23.497598 8.904280 35.074014 0.765136 1.314116 0.049982 0.002373 304084.000000 0 0 1
-23.690437 -24.026298 10.158780 35.237773 0.792437 1.278353 0.021865 -0.003534 319025.000000 0 0 1
-23.538337 -23.055398 11.161180 34.787593 0.775034 1.244182 0.043277 -0.004295 -137882.000000 0 0 1
-22.424437 -23.299498 11.975280 34.483755 0.804534 1.216135 0.039397 -0.005885 -85945.200000 0 0 1
-22.452037 -22.385598 13.220880 34.351138 0.783916 1.175724 0.030619 -0.003695 125956.000000 0 0 1
-23.626537 -22.766098 13.920980 35.641299 0.766853 1.169529 0.038875 -0.009782 202358.000000 0 0 1
-23.835837 -21.830298 14.917380 35.598276 0.741509 1.138400 0.026606 0.010000 -403368.000000 0 0 1
-25.125647 -22.125198 15.688980 36.972512 0.721983 1.132562 0.013643 0.010091 -96426.400000 0 0 1
-26.376207 -21.773498 15.139780 37.403241 0.690096 1.154067 0.013479 0.013107 286810.000000 0 0 1
-26.961367 -22.810098 14.386580 38.133838 0.702184 1.183955 0.013073 0.004189 -115539.000000 0 0 1
-28.110317 -23.665098 14.957480 39.673077 0.699752 1.184221 0.015023 -0.000457 -402869.000000 0 0 1
-27.651777 -24.551798 15.926580 40.262483 0.726085 1.164109 0.009962 0.010488 -35499.300000 0 0 1
-28.658707 -25.445668 16.352880 41.667976 0.726082 1.167495 0.014815 0.005179 -39122.100000 0 0 1
-28.524497 -26.891568 15.706980 42.231654 0.755940 1.189715 0.034126 0.001375 49270.800000 0 0 1
-28.946457 -27.098608 14.367180 42.174018 0.752439 1.223173 0.041360 -0.006046 2794.960000 0 0 1
-30.208707 -27.735898 14.313980 43.436575 0.742749 1.234983 0.064452 -0.014068 126771.000000 0 0 1
-30.720147 -27.849028 12.845180 43.408461 0.736416 1.270384 0.074350 -0.013270 -358764.000000 0 0 1
-30.043597 -28.814738 12.133580 43.360473 0.764523 1.287179 0.084139 -0.021484 -23803.700000 0 0 1
-30.730127 -29.223498 10.944180 43.796446 0.760274 1.318232 0.070129 -0.010218 141953.000000 0 0 1
-30.151527 -30.510068 10.234480 44.099019 0.791309 1.336581 0.073676 -0.020783 11263.300000 0 0 1
-30.257107 -31.721058 10.961080 45.186982 0.809014 1.325781 0.075403 -0.011389 262161.000000 0 0 1
-29.751967 -32.856648 10.239980 45.492813 0.834946 1.343761 0.074275 -0.012893 -68756.100000 0 0 1
-29.707007 -34.189045 11.078380 46.627541 0.855429 1.330909 0.068738 -0.007126 1302310.000000 0 0 1
-31.036207 33.978236 11.275780 47.380480 -0.830619 1.330507 0.077364 -0.003321 1263340.000000 0 0 1
-30.968957 32.723390 11.877980 46.593809 -0.812937 1.313025 0.063545 -0.007290 754098.000000 0 0 1
-32.355047 32.207067 12.486980 47.329367 -0.783106 1.303804 0.071058 -0.005303 1479870.000000 0 0 1
-33.456467 31.914837 11.659680 47.684800 -0.761820 1.323776 0.037915 -0.009791 323346.000000 0 0 1
-34.008327 33.036740 10.966580 48.664755 -0.770908 1.343495 0.053409 -0.002234 -27611.700000 0 0 1
-35.422910 32.943683 10.295480 49.457717 -0.749150 1.361095 0.041024 0.015455 675068.000000 0 0 1
-35.525303 32.127807 9.105180 48.755999 -0.735221 1.382943 0.028633 0.006894 614385.000000 0 0 1
35.006591 32.316827 8.494380 48.394145 0.745467 1.394357 0.022394 0.009166 520888.000000 0 0 1
34.888041 31.701897 7.065280 47.666591 0.737587 1.422025 0.015391 -0.000228 -239631.000000 0 0 1
34.799351 30.271177 7.088580 46.664622 0.715921 1.418301 0.040892 -0.006471 95576.200000 0 0 1
34.512791 29.811047 5.783680 45.970450 0.712433 1.444649 0.061179 -0.013582 -138280.000000 0 0 1
34.632061 28.229117 5.575480 45.026089 0.683890 1.446650 0.063692 -0.015162 15478.500000 0 0 1
33.670041 27.370367 6.184680 43.829886 0.682557 1.429217 0.054630 -0.011778 222529.000000 0 0 1
33.934651 27.067827 7.521780 44.054568 0.673304 1.399218 0.046964 -0.002532 53460.300000 0 0 1
32.949781 25.987997 8.048680 42.729911 0.667822 1.381303 0.033764 -0.002174 146675.000000 0 0 1
33.171231 24.796957 7.343180 42.061169 0.641927 1.395314 0.035121 -0.004877 123694.000000 0 0 1
32.140421 23.858557 7.550480 40.733858 0.638569 1.384357 0.030728 -0.002699 -565743.000000 0 0 1
32.227741 22.603587 6.620380 39.917150 0.611645 1.404173 0.027871 0.003611 -158424.000000 0 0 1
33.246791 21.672587 6.931380 40.287643 0.577689 1.397889 0.033538 0.009840 534301.000000 0 0 1
34.570441 22.067787 6.547080 41.532721 0.568137 1.412499 0.043044 0.003202 97437.900000 0 0 1
35.550331 20.902187 6.483980 41.746491 0.531520 1.414847 0.027078 0.006773 -538691.000000 0 0 1
35.273181 20.010287 5.424580 40.914973 0.516024 1.437823 0.046889 -0.002058 267824.000000 0 0 1
35.723241 18.726087 5.830480 40.753047 0.482819 1.427235 0.055867 -0.007336 -169422.000000 0 0 1
35.389111 17.534787 4.894280 39.797135 0.460029 1.447503 0.055379 -0.010603 73990.400000 0 0 1
-35.687332 17.493287 3.679580 39.914159 -0.455762 1.478478 0.064506 -0.013321 442085.000000 0 0 1
35.598091 16.404087 2.932480 39.305440 0.431810 1.496119 0.051578 -0.018214 -586376.000000 0 0 1
-35.359710 15.944187 1.703480 38.825611 -0.423614 1.526907 0.066954 -0.008068 1130710.000000 0 0 1
-34.163053 15.164987 1.984280 37.430314 -0.417770 1.517759 0.069743 -0.011895 1500810.000000 0 0 1
-33.102507 16.008387 2.468880 36.852949 -0.450442 1.503753 0.078757 -0.018396 96909.600000 0 0 1
-31.743157 15.268087 2.693080 35.326976 -0.448323 1.494489 0.049633 -0.018688 267127.000000 0 0 1
-31.700917 14.551787 3.844080 35.092444 -0.430341 1.461035 0.054373 -0.016105 -164433.000000 0 0 1
-30.381267 14.341687 4.256380 33.864763 -0.441044 1.444775 0.052202 -0.021586 -663462.000000 0 0 1
-30.182537 13.509287 5.557380 33.531640 -0.420845 1.404293 0.057349 -0.015393 -176015.000000 0 0 1
-30.358917 12.116287 5.347280 33.121922 -0.379732 1.408644 0.056331 -0.005997 491785.000000 0 0 1
-29.938857 11.519287 6.603980 32.751209 -0.367300 1.367763 0.032419 0.001932 -99816.600000 0 0 1
-29.951827 10.000587 6.598980 32.259421 -0.322251 1.364782 0.034685 -0.001809 1406860.000000 0 0 1
-31.315817 9.485587 6.676880 33.395172 -0.294116 1.369504 0.037229 0.002785 1267740.000000 0 0 1
-31.373797 8.099087 6.466480 33.041273 -0.252633 1.373816 0.042694 -0.007416 461142.000000 0 0 1
-32.805577 7.465287 6.450680 34.257082 -0.223751 1.381363 0.042343 -0.002928 668735.000000 0 0 1
-33.408237 7.311687 7.758480 35.068007 -0.215462 1.347710 0.045764 -0.002267 526232.000000 0 0 1
-34.408906 6.288187 7.651780 35.805920 -0.180754 1.355434 0.039865 -0.003824 176360.000000 0 0 1
-34.773506 5.619087 8.968580 36.348402 -0.160206 1.321482 0.050703 -0.004420 -108518.000000 0 0 1
-35.558060 6.299687 9.962680 37.460869 -0.175347 1.301608 0.048225 -0.001124 234325.000000 0 0 1
-34.941623 7.451887 10.473680 37.230977 -0.210119 1.285631 0.052655 -0.008060 -545197.000000 0 0 1
-35.785745 8.416387 11.305380 38.461237 -0.230990 1.272448 0.049559 -0.014866 -732843.000000 0 0 1
35.668171 8.081987 12.600880 38.682284 0.222826 1.238988 0.042409 -0.017273 455644.000000 0 0 1
34.821761 9.067787 13.168480 38.316950 0.254748 1.219972 0.064413 -0.018677 719.453000 0 0 1
34.045461 8.652587 14.476480 37.993804 0.248879 1.179895 0.054126 -0.020153 -491401.000000 0 0 1
32.772021 8.112187 14.295080 36.662819 0.242656 1.170266 0.063759 -0.024195 -355440.000000 0 0 1
32.317161 7.650687 15.531380 36.662729 0.232458 1.133349 0.042546 -0.011780 -26083.000000 0 0 1
30.804471 7.357787 15.661080 35.331599 0.234462 1.111564 0.050768 -0.000494 -353072.000000 0 0 1
29.977511 8.503487 15.711580 34.897195 0.276401 1.103779 0.033683 -0.003346 336741.000000 0 0 1
28.579041 8.282187 15.666480 33.627293 0.282072 1.086161 0.034568 0.004398 389685.000000 0 0 1
27.977191 7.657787 16.967180 33.604317 0.267172 1.041518 0.035984 0.008923 -802799.000000 0 0 1
27.731611 8.597787 18.036280 34.179988 0.300638 1.014923 0.052579 -0.005958 342768.000000 0 0 1
27.083651 8.100287 19.226880 34.187889 0.290616 0.973525 0.058962 -0.003576 71517.800000 0 0 1
27.724041 6.929587 20.028580 34.896786 0.244930 0.959490 0.055347 -0.003373 52380.500000 0 0 1
27.045551 6.787187 21.270380 35.070740 0.245876 0.919146 0.035761 0.005318 353453.000000 0 0 1
27.600841 5.720287 22.043880 35.783526 0.204357 0.907098 0.039808 0.003375 -662747.000000 0 0 1
26.928521 5.558987 23.389480 36.098689 0.203575 0.865931 0.033711 0.010552 1254610.000000 0 0 1
25.551311 5.107787 23.394480 35.018005 0.197302 0.839184 0.037399 0.005192 1209780.000000 0 0 1
24.584811 6.131187 23.211280 34.362304 0.244404 0.829172 0.037260 0.008009 563601.000000 0 0 1
23.110911 5.778187 23.609780 33.539877 0.244997 0.789879 0.039497 0.001244 947976.000000 0 0 1
22.479611 4.784987 22.802880 32.375922 0.209729 0.789337 0.041738 0.002023 1286390.000000 0 0 1
21.052611 5.032787 22.732580 31.389673 0.234654 0.760915 0.039625 -0.006792 689373.000000 0 0 1
20.304311 4.040687 21.749080 30.026899 0.196440 0.760749 0.051303 -0.009648 887566.000000 0 0 1
18.955511 4.337287 21.396880 28.912799 0.224942 0.737654 0.042146 -0.011408 760516.000000 0 0 1
17.952311 4.230687 22.395280 29.012631 0.231440 0.688949 0.049002 -0.014034 -808247.000000 0 0 1
16.597411 4.095387 21.718180 27.639204 0.241916 0.666849 0.056152 -0.012229 -812019.000000 0 0 1
16.430011 2.822987 21.182280 26.955584 0.170157 0.666773 0.045522 -0.016695 1290980.000000 0 0 1
15.205411 2.761687 20.376580 25.574136 0.179667 0.648873 0.053122 -0.022203 1614260.000000 0 0 1
14.099511 1.784887 20.931480 25.300373 0.125922 0.596478 0.054426 -0.020839 53417.600000 0 0 1
14.307311 0.447187 20.663080 25.136865 0.031246 0.605842 0.031257 -0.015930 161136.000000 0 0 1
13.652411 -0.388513 21.595580 25.552071 -0.028450 0.563933 0.038097 -0.019597 -173169.000000 0 0 1
14.058811 -1.855313 21.624280 25.859270 -0.131210 0.580426 0.018170 -0.013748 -218060.000000 0 0 1
13.569511 -2.587013 20.510480 24.728608 -0.188388 0.592722 0.017425 -0.011397 169688.000000 0 1 0
13.640611 -3.985213 20.707280 25.114530 -0.284247 0.601454 0.003092 0.004824 -58929.700000 0 0 1
13.492911 -4.788113 19.430780 24.135863 -0.340999 0.635022 0.013406 -0.001403 60583.100000 0 1 0
12.142511 -4.689113 19.027580 23.053788 -0.368530 0.599964 0.025565 -0.007368 -94816.300000 0 1 0
11.938611 -5.239213 17.760780 22.032364 -0.413540 0.633227 0.034035 -0.005483 661777.000000 0 1 0
10.396311 -5.430913 17.628580 21.174157 -0.481398 0.587098 0.036812 -0.004128 617312.000000 0 1 0
9.765811 -6.207713 18.596980 21.903297 -0.566227 0.556613 0.032313 0.010916 -409776.000000 0 1 0
8.382311 -6.325213 18.359480 21.150460 -0.646433 0.519552 0.033162 -0.000939 304992.000000 0 1 0
7.521211 -7.213913 19.311280 21.943898 -0.764546 0.494872 0.021041 -0.006080 -194282.000000 0 1 0
7.577711 -8.637313 19.203480 22.378528 -0.850652 0.539198 0.016831 0.000759 266506.000000 0 1 0
8.694111 -9.295013 19.825280 23.559001 -0.818789 0.570713 0.028361 0.000708 548599.000000 0 1 0
9.012711 -10.635913 19.199580 23.727104 -0.867822 0.628035 0.044336 -0.011895 140334.000000 0 1 0
9.426511 -10.527913 17.833180 22.753425 -0.840538 0.670102 0.041710 -0.000659 89361.200000 0 1 0
9.924611 -11.742813 17.269280 23.121842 -0.869116 0.727436 0.040511 -0.011521 233554.000000 0 1 0
9.783111 -11.910013 15.737680 22.027987 -0.883131 0.774973 0.031176 -0.010088 227056.000000 0 1 0
10.403011 -13.051513 15.171680 22.555365 -0.897843 0.833023 0.024872 -0.011530 196958.000000 0 1 0
10.014411 -13.120413 13.758980 21.488210 -0.918857 0.875903 0.014828 -0.006845 -330777.000000 0 1 0
10.673011 -14.263713 12.968280 22.035039 -0.928408 0.941557 0.026471 -0.014912 217976.000000 0 1 0
12.049411 -14.155413 12.670480 22.496779 -0.865593 0.972527 0.013886 -0.016655 -88702.200000 0 1 0
12.258911 -13.269413 11.580780 21.458627 -0.824961 1.000740 -0.004156 -0.016026 193399.000000 0 1 0
13.761911 -13.128713 11.116480 22.030193 -0.761855 1.041875 0.022394 -0.022245 1185310.000000 0 1 0
14.219811 -14.382313 10.536580 22.805119 -0.791080 1.090517 0.031511 -0.016489 473011.000000 0 1 0
15.475411 -14.226813 9.874280 23.224813 -0.743386 1.131657 0.037236 -0.025872 452606.000000 0 1 0
16.140411 -15.533613 9.306780 24.257414 -0.766243 1.177032 0.034296 -0.026327 183031.000000 0 1 0
16.605411 -16.433113 10.314880 25.537886 -0.780183 1.155015 0.039298 -0.024382 155579.000000 0 0 1
15.612911 -17.176713 11.017780 25.694239 -0.833054 1.127628 0.055393 -0.019656 133494.000000 0 0 1
16.189811 -17.780713 12.278580 27.000505 -0.832196 1.098701 0.052624 -0.021318 -564982.000000 0 0 1
17.208811 -18.696113 12.075880 28.133871 -0.826798 1.127157 0.074040 -0.021989 -658499.000000 0 0 1
17.503911 -19.212613 13.350580 29.218990 -0.831902 1.096273 0.051437 -0.023277 180276.000000 0 0 1
18.822711 -20.057113 13.297480 30.551681 -0.817137 1.120485 0.033311 -0.025460 533968.000000 0 0 1
19.904511 -19.266613 12.864580 30.543237 -0.769115 1.136037 0.039162 -0.024117 -424698.000000 0 0 1
21.120111 -20.002313 12.785080 31.774359 -0.758223 1.156691 0.029772 -0.025781 706539.000000 0 0 1
22.050011 -19.321513 11.715280 31.571690 -0.719542 1.190636 0.042790 -0.013914 -78877.400000 0 0 1
21.684311 -19.367713 10.324680 30.853147 -0.729027 1.229574 0.038236 -0.013550 895489.000000 0 0 1
20.516911 -18.707313 9.730080 29.420769 -0.739296 1.233728 0.040825 -0.018260 1186030.000000 0 0 1
20.336511 -17.176413 9.823680 28.374417 -0.701356 1.217262 0.063269 -0.028534 -8540.830000 0 0 1
21.356111 -16.521013 9.109980 28.495948 -0.658433 1.245390 0.055453 -0.015464 -49724.600000 0 0 1
21.367011 -15.156913 9.411280 27.836188 -0.616981 1.225904 0.059394 -0.023905 -25046.200000 0 0 1
-34.790779 25.018802 7.835880 43.563055 -0.623444 1.389938 0.040354 0.006348 419140.000000 0 0 1
-33.948597 24.237502 8.742180 42.619121 -0.620025 1.364207 0.030266 0.007668 565381.000000 0 0 1
-32.895057 25.114502 9.135780 42.382608 -0.652068 1.353536 0.041958 0.006049 -228134.000000 0 0 1
-31.888757 24.327202 9.995180 41.335326 -0.651692 1.326568 0.050682 -0.004941 83153.700000 0 0 1
-31.218977 23.241402 9.290980 40.013868 -0.639949 1.336464 0.058065 -0.010493 596343.000000 0 0 1
-30.379407 22.403102 10.058680 39.063850 -0.635417 1.310369 0.055314 -0.012615 -114742.000000 0 0 1
-29.333727 21.647002 9.246880 37.610704 -0.635748 1.322392 0.048444 -0.019222 -431218.000000 0 0 1
-29.915927 20.664902 8.477380 37.334526 -0.604502 1.341733 0.059332 -0.020736 -145953.000000 0 0 1
-29.115067 20.311402 7.403880 36.263723 -0.609130 1.365183 0.066872 -0.025229 -246488.000000 0 0 1
-29.909937 19.578202 6.287780 36.296646 -0.579582 1.396685 0.065990 -0.022902 -281813.000000 0 0 1
-30.411237 18.318002 6.716380 36.131735 -0.542141 1.383823 0.062276 -0.014941 220835.000000 0 0 1
-31.485187 18.044802 5.853480 36.758606 -0.520421 1.410874 0.054172 -0.017593 -27970.800000 0 0 1
-32.330527 16.761702 6.184280 36.938638 -0.478297 1.402584 0.042069 -0.012123 236371.000000 0 0 1
-33.096887 16.711702 7.381980 37.804478 -0.467586 1.374266 0.041624 -0.013835 670228.000000 0 0 1
-33.985477 15.580502 7.387380 38.109554 -0.429855 1.375715 0.049204 -0.011731 374030.000000 0 0 1
-35.030126 15.749202 8.526680 39.342742 -0.422513 1.352335 0.037362 -0.011453 -350722.000000 0 0 1
35.796967 16.700902 8.329780 40.369892 0.436527 1.362967 0.049931 -0.020075 -174376.000000 0 0 1
35.298741 17.159702 9.580280 40.400969 0.452488 1.331386 0.048759 -0.007783 452529.000000 0 0 1
34.267981 18.341202 9.403380 39.988971 0.491432 1.333424 0.032936 -0.000941 317951.000000 0 0 1
33.012711 18.063902 8.831180 38.654022 0.500676 1.340293 0.040077 -0.005042 261212.000000 0 0 1
32.297361 19.310502 8.682480 38.618655 0.538872 1.344032 0.031421 0.002050 -409842.000000 0 0 1
30.879841 19.240002 8.148680 37.284625 0.557203 1.350465 0.035051 -0.001076 -905935.000000 0 0 1
30.468741 20.545402 7.961680 37.601145 0.593276 1.357441 0.028208 -0.006289 -759062.000000 0 0 1
29.145851 20.743402 7.536580 36.559122 0.618542 1.363160 0.018404 -0.005740 -215310.000000 0 0 1
28.784891 20.403902 6.060280 35.799667 0.616635 1.400694 0.000331 0.007838 -871361.000000 0 0 1
28.673741 19.013902 5.803080 34.891082 0.585538 1.403700 0.025137 0.002967 157926.000000 0 0 1
28.419471 18.787402 4.405280 34.351700 0.584121 1.442202 0.022742 -0.004064 262719.000000 0 0 1
26.990131 19.189302 3.895880 33.344780 0.618054 1.453693 0.050110 -0.002368 123303.000000 0 0 1
25.920711 18.380402 4.369780 32.075184 0.616808 1.434136 0.047784 -0.009878 790076.000000 0 0 1
24.594511 18.751002 4.040380 31.189978 0.651394 1.440890 0.047212 -0.013433 251177.000000 0 0 1
23.953411 20.033702 4.614680 31.565969 0.696523 1.424079 0.049606 -0.015285 -894497.000000 0 0 1
24.479711 21.234302 4.199180 32.676979 0.714523 1.441934 0.038193 -0.013272 -242016.000000 0 0 1
24.011711 22.326602 4.944680 33.158548 0.749049 1.421116 0.026359 -0.009873 -376423.000000 0 0 1
24.781211 23.662002 4.859880 34.606606 0.762299 1.429898 0.009128 -0.014877 -509922.000000 0 0 1
26.094411 23.487102 5.329780 35.510123 0.732860 1.420135 0.025503 -0.020648 -338026.000000 0 0 1
26.788681 24.707402 5.103380 36.798555 0.745004 1.431664 0.023130 -0.019403 -839601.000000 0 0 1
28.200291 24.608902 5.686880 37.857563 0.717496 1.420008 0.027734 -0.013444 -348681.000000 0 0 1
29.003521 23.488702 5.258180 37.690474 0.680722 1.430830 0.022994 -0.011982 468910.000000 0 0 1
29.423251 23.420402 3.877680 37.805811 0.672287 1.468047 0.018929 -0.025529 -336915.000000 0 0 1
30.401771 24.507302 3.331180 39.191482 0.678458 1.485696 0.034929 -0.038558 -494233.000000 0 0 1
29.863691 25.777002 3.332080 39.590360 0.712082 1.486533 0.029300 -0.034854 -417637.000000 0 0 1
30.597391 26.547202 2.405180 40.580034 0.714640 1.511492 0.060050 -0.034289 -898027.000000 0 0 1
30.085411 27.998002 2.307680 41.162428 0.749475 1.514704 0.054649 -0.025421 333007.000000 0 0 1
28.800661 28.253902 1.779880 40.384762 0.775815 1.526709 0.077064 -0.024672 12828.300000 0 0 1
27.767541 27.810902 2.623180 39.387354 0.786178 1.504147 0.045458 -0.024372 -9116.350000 0 0 1
26.257811 28.082802 2.266580 38.513034 0.818970 1.511910 0.000186 -0.018692 860831.000000 0 0 1
26.073611 29.452402 2.605780 39.421660 0.846174 1.504648 0.010457 -0.013846 889205.000000 0 0 1
24.788911 29.960202 2.168280 38.946184 0.879573 1.515094 0.001153 -0.019131 775916.000000 0 0 1
24.686511 31.500602 2.289980 40.086853 0.906084 1.513640 0.016863 -0.028927 -76205.800000 0 0 1
24.674011 31.971202 3.642780 40.549161 0.913515 1.480839 -0.005259 -0.031782 534168.000000 0 0 1
25.943311 31.940202 4.299680 41.372928 0.888633 1.466683 0.000133 -0.030499 237622.000000 0 0 1
25.835911 31.877702 5.863780 41.449561 0.889704 1.428852 0.011174 -0.032463 186976.000000 0 0 1
25.161511 30.719402 6.422780 40.224811 0.884532 1.410438 0.006829 -0.035469 344634.000000 0 0 1
25.828011 29.468602 6.199180 39.672591 0.851141 1.413895 0.016972 -0.036817 -195970.000000 0 0 1
25.273311 28.232202 6.881880 38.511787 0.840643 1.391136 0.037440 -0.031617 429635.000000 0 0 1
23.928211 27.965002 6.460980 37.367698 0.863032 1.397020 -0.002331 -0.033839 315678.000000 0 0 1
23.535211 26.678702 6.861080 36.231667 0.847919 1.380279 0.012265 -0.023311 479266.000000 0 0 1
22.150611 26.311602 6.194580 34.947429 0.871049 1.392601 -0.000017 -0.012134 478309.000000 0 0 1
22.151811 25.958202 4.826680 34.464878 0.864352 1.430288 -0.005494 -0.012757 191721.000000 0 0 1
22.314711 27.165402 4.015180 35.383994 0.883119 1.457077 -0.003484 -0.012931 -388642.000000 0 0 1
22.536711 26.848202 2.481480 35.140960 0.872481 1.500122 -0.000793 -0.006097 -537945.000000 0 0 1
23.728311 26.131702 2.383180 35.377650 0.833564 1.503381 -0.012688 0.005609 -602939.000000 0 0 1
23.756011 25.621802 1.047380 34.955998 0.823166 1.540829 0.002450 0.002445 -1330110.000000 0 0 1
24.983711 25.012502 0.468680 35.355774 0.785974 1.557540 0.015391 -0.002214 -1846990.000000 0 0 1
25.950011 25.986402 0.107980 36.724758 0.786099 1.567856 0.008413 -0.004923 239351.000000 0 0 1
26.706911 25.607802 -1.057920 37.015373 0.764392 1.599381 0.005148 0.000354 451535.000000 0 0 1
27.959861 24.751402 -0.764020 37.349290 0.724605 1.591254 0.019801 -0.009126 -465424.000000 0 0 1
27.517011 23.393202 -0.634320 36.122433 0.704573 1.588358 0.023816 -0.011575 388061.000000 0 0 1
27.973231 22.653802 0.455480 35.998665 0.680711 1.558143 0.025794 -0.012206 -1092240.000000 0 0 1
26.848741 21.839302 0.974280 34.623103 0.682870 1.542653 0.024632 -0.011106 -730526.000000 0 0 1
26.399611 20.783902 0.115380 33.599455 0.666937 1.567362 0.037188 -0.020061 737569.000000 0 0 1
25.181011 20.266702 0.644580 32.330141 0.677686 1.550858 0.032945 -0.009790 198192.000000 0 0 1
24.686211 18.895502 0.082080 31.087872 0.653302 1.568156 0.042118 -0.018264 -493335.000000 0 0 1
23.372311 18.549902 0.413480 29.841829 0.670869 1.556940 0.041474 -0.013068 -87337.000000 0 0 1
23.021911 17.401002 -0.340520 28.860340 0.647232 1.582596 0.054731 -0.021053 45378.800000 0 0 1
21.544511 16.999102 -0.173320 27.443860 0.668011 1.577112 0.053197 -0.007574 -332479.000000 0 0 1
21.036711 16.053702 -1.122920 26.486327 0.651850 1.613205 0.058544 -0.012076 1898450.000000 0 0 1
19.619311 15.739702 -0.984520 25.171906 0.676115 1.609918 0.066287 -0.012779 1894260.000000 0 0 1
18.521611 16.712702 -1.508020 24.992771 0.734104 1.631171 0.060367 -0.013107 -85282.600000 0 1 0
18.417111 17.924802 -0.792220 25.712178 0.771852 1.601612 0.045838 -0.013414 577452.000000 0 0 1
17.345411 18.802602 -1.163620 25.607716 0.825688 1.616252 0.032987 -0.017641 373210.000000 0 0 1
17.458111 20.171702 -0.422620 26.680739 0.857386 1.586637 0.035315 -0.010641 -367060.000000 0 0 1
17.275111 20.126002 0.972380 26.541118 0.861476 1.534151 0.040095 -0.006542 261513.000000 0 0 1
17.426711 21.323902 1.746480 27.594370 0.885632 1.507463 0.038863 -0.006031 113578.000000 0 0 1
16.436011 22.505902 1.396680 27.903562 0.940024 1.520722 0.040645 -0.008670 -262630.000000 0 0 1
15.162011 22.491102 1.908680 27.191530 0.977642 1.500545 0.037660 -0.001421 -509982.000000 0 0 1
14.246211 23.433502 1.338480 27.456786 1.024558 1.522028 0.028363 0.000940 792993.000000 0 0 1
12.767511 23.192502 1.738580 26.531569 1.067568 1.505221 0.030235 0.001812 182335.000000 0 0 1
12.508511 23.407302 3.127680 26.723529 1.080021 1.453489 0.023641 0.012897 1197780.000000 0 0 1
11.105111 23.315102 3.483280 26.058601 1.126283 1.436724 0.017612 0.011299 1400460.000000 0 0 1
10.998711 23.513202 5.037580 26.442759 1.133266 1.379116 0.022643 0.005111 -33714.200000 0 0 1
11.753511 22.557302 5.757380 26.079193 1.090450 1.348197 0.028684 -0.019259 175161.000000 0 0 1
11.257511 22.246602 7.071380 25.916158 1.102334 1.294436 0.029255 -0.020942 -620164.000000 0 0 1
11.929411 21.011502 7.793580 25.387673 1.054423 1.258775 0.027212 -0.022925 -158589.000000 0 0 1
13.042011 21.349202 8.567680 26.444047 1.022408 1.240849 0.028027 -0.014566 -94565.100000 0 0 1
14.252111 21.488102 7.837280 26.949660 0.985159 1.275721 0.017852 -0.005594 -681985.000000 0 0 1
15.472411 21.578202 8.749580 27.956564 0.948726 1.252477 0.016288 -0.005064 -656149.000000 0 0 1
15.762011 20.314602 9.413780 27.381441 0.910927 1.219834 0.017863 -0.007526 1263560.000000 0 0 1
17.019211 20.268002 10.139880 28.341888 0.872307 1.204918 0.010773 -0.004914 842563.000000 0 0 1
17.140011 21.162802 11.444580 29.540186 0.890041 1.172961 -0.004066 -0.002849 -1000110.000000 0 0 1
16.282911 20.816702 12.467180 29.221548 0.907001 1.130018 0.006856 -0.007497 -357535.000000 0 0 1
16.407811 21.610502 13.632180 30.365546 0.921400 1.105222 0.010218 0.001217 -744.076000 0 0 1
17.454411 21.032402 14.635780 31.003620 0.878098 1.079163 0.024548 -0.001986 70299.500000 0 0 1
18.757711 21.264902 14.167880 31.698211 0.847961 1.107431 0.021152 -0.000177 -177036.000000 0 0 1
19.726511 20.871102 15.181380 32.484033 0.813584 1.084507 0.015953 -0.008242 511343.000000 0 0 1
21.114211 21.419402 14.795080 33.518578 0.792573 1.113639 0.029966 -0.008678 -224027.000000 0 0 1
21.584111 20.819402 13.601380 32.928998 0.767366 1.144994 0.028362 -0.009021 49560.000000 0 0 1
22.893311 21.307002 13.348980 34.004225 0.749524 1.167374 0.052977 -0.002316 44090.100000 0 0 1
23.573911 20.813302 12.056280 33.679025 0.723284 1.204697 0.053147 -0.001758 419.373000 0 0 1
23.048111 21.322502 10.854980 33.221907 0.746527 1.237942 0.051442 -0.001769 -375271.000000 0 0 1
24.037211 21.289302 9.881580 33.595647 0.724848 1.272248 0.062533 -0.020794 -845995.000000 0 0 1
23.935411 22.186502 8.632780 33.758994 0.747497 1.312206 0.062957 -0.016636 -218110.000000 0 0 1
24.300711 23.558502 8.805880 34.972433 0.769891 1.316262 0.063326 -0.017926 1327950.000000 0 0 1
25.732911 23.771702 8.838680 36.130303 0.745802 1.323655 0.055103 -0.022217 773870.000000 0 0 1
26.151711 25.128702 9.473880 37.484904 0.765451 1.315287 0.072576 -0.016980 -640416.000000 0 0 1
27.302701 25.603802 8.853380 38.462638 0.753298 1.338532 0.063029 -0.019158 -452544.000000 0 0 1
27.779681 26.723602 9.475780 39.694483 0.766024 1.329751 0.065524 -0.023840 -445141.000000 0 0 1
29.131781 27.195502 8.964280 40.848676 0.751036 1.349545 0.064549 -0.023839 -445676.000000 0 0 1
28.943931 27.855802 7.695280 40.901274 0.766243 1.381526 0.070769 -0.027513 -118940.000000 0 0 1
30.114811 28.071702 6.950580 41.752040 0.750299 1.403545 0.056147 -0.016339 -372077.000000 0 0 1
29.957421 29.058202 5.792780 42.135288 0.770162 1.432879 0.081721 -0.011780 21737.300000 0 0 1
29.921811 30.437202 6.174080 43.126063 0.793937 1.427139 0.077099 -0.017667 16646.500000 0 0 1
30.002521 31.294702 5.047480 43.646153 0.806476 1.454892 0.073189 -0.017637 -91999.700000 0 0 1
30.242901 32.760602 5.506080 44.924459 0.825338 1.447924 0.033477 -0.005738 105487.000000 0 0 1
29.210011 33.336902 6.286080 44.767048 0.851283 1.429913 0.023501 -0.015018 -31085.900000 0 0 1
29.260951 -33.983284 6.326580 45.288988 -0.859928 1.430644 0.013368 -0.005885 190719.000000 0 0 1
27.947471 -33.399284 6.912080 44.094786 -0.874034 1.413392 0.036918 -0.019457 445459.000000 0 0 1
26.825391 -33.591984 6.075780 43.415874 -0.896931 1.430392 0.023069 -0.021245 -556574.000000 0 0 1
25.709511 -32.893484 6.569180 42.262446 -0.907377 1.414726 0.019788 -0.034906 -125776.000000 0 0 1
24.558011 -32.964984 5.546080 41.479454 -0.930520 1.436688 0.033383 -0.026017 -216242.000000 0 0 1
24.891911 -32.217484 4.381580 40.948403 -0.912974 1.463589 0.015388 -0.001468 341330.000000 0 0 1
23.932111 -32.361784 3.317280 40.386078 -0.934038 1.488564 0.031038 -0.015149 -17073.100000 0 0 1
24.403511 -31.755184 1.985580 40.098199 -0.915567 1.521258 0.037127 -0.001143 -389307.000000 0 0 1
24.359111 -30.408684 2.048480 39.016030 -0.895411 1.518269 0.044254 0.004576 78694.600000 0 0 1
24.941011 -29.827984 0.917780 38.892223 -0.874391 1.547196 0.033453 0.002766 -567519.000000 0 0 1
25.161711 -28.274184 1.051980 37.863542 -0.843579 1.543009 0.039686 -0.001639 -316066.000000 0 0 1
24.050511 -27.416384 1.201580 36.490122 -0.850704 1.537861 0.026116 0.002740 -72467.300000 0 0 1
23.327311 -27.270684 -0.017220 35.886682 -0.863176 1.571276 0.029143 -0.000383 -64976.000000 0 0 1
22.115811 -26.314684 0.004680 34.373998 -0.871881 1.570660 0.017408 0.004578 -282447.000000 0 0 1
22.390711 -24.924484 0.123280 33.505060 -0.838898 1.567117 0.028543 -0.000820 -51634.500000 0 0 1
22.701911 -24.293884 1.390280 33.279159 -0.819260 1.529008 0.015958 0.004467 -397824.000000 0 0 1
21.533611 -24.287684 2.355780 32.544396 -0.845431 1.498346 0.012013 0.002254 -581067.000000 0 0 1
21.681211 -23.572684 3.579480 32.226682 -0.827171 1.459495 0.009071 -0.002487 -817492.000000 0 0 1
20.465911 -23.389984 4.222680 31.365202 -0.851974 1.435757 0.021184 -0.000305 -661341.000000 0 0 1
20.526511 -22.397084 5.430880 30.861975 -0.828950 1.393902 0.021276 0.001305 -227327.000000 0 0 1
20.599011 -21.002584 5.047380 29.848012 -0.795099 1.400877 0.037185 -0.001746 -34184.100000 0 0 1
19.392111 -20.398084 4.641280 28.525029 -0.810675 1.407361 0.030505 0.006721 -677464.000000 0 0 1
19.286311 -18.883184 4.752680 27.406649 -0.774837 1.396502 0.025433 0.006512 85353.600000 0 0 1
19.183111 -18.424284 6.079780 27.283873 -0.765223 1.346076 0.044904 -0.005371 -788610.000000 0 0 1
17.872611 -18.520184 6.515780 26.549629 -0.803190 1.322845 0.039609 -0.000563 -761962.000000 0 0 1
18.839063 -26.618088 -12.194820 34.815895 -0.954885 1.928651 0.090868 -0.028235 77714.500000 0 0 1
18.922763 -25.334438 -12.652320 34.058566 -0.929270 1.951407 0.098098 -0.032409 823863.000000 0 0 1
17.618163 -24.827298 -13.030920 33.114940 -0.953637 1.975238 0.066877 -0.022373 745644.000000 0 0 1
17.663163 -23.425998 -13.669920 32.367135 -0.924741 2.006821 0.067002 -0.025637 73885.300000 0 0 1
17.944763 -22.320198 -12.815620 31.375880 -0.893640 1.991557 0.069547 -0.023561 -677179.000000 0 0 1
19.196163 -22.174598 -12.218820 31.772709 -0.857268 1.965538 0.067261 -0.032243 -1074990.000000 0 0 1
19.349063 -22.683198 -10.759420 31.696669 -0.864556 1.917128 0.069358 -0.030803 -257321.000000 0 0 1
18.577263 -22.113198 -9.712620 30.470366 -0.872079 1.895213 0.058209 -0.025113 439467.000000 0 0 1
17.199463 -22.468598 -9.791420 29.942133 -0.917456 1.903936 0.056275 -0.009957 272336.000000 0 0 1
16.327563 -22.113798 -8.560820 28.790572 -0.934798 1.872710 0.033787 -0.011371 -642662.000000 0 0 1
16.298563 -20.686598 -8.329820 27.621810 -0.903489 1.877132 0.037902 -0.015555 1559100.000000 0 0 1
15.209163 -20.233098 -7.414020 26.375454 -0.926210 1.855732 0.030922 -0.010593 1557240.000000 0 0 1
13.760463 -20.346698 -7.948220 25.816907 -0.976154 1.883749 0.033370 -0.004062 -345364.000000 0 0 1
13.247263 -21.629698 -7.783720 26.531493 -1.021267 1.868553 0.021958 0.001152 -348863.000000 0 0 1
11.887463 -21.598098 -8.181120 25.975380 -1.067651 1.891207 0.029663 0.002597 286308.000000 0 0 1
11.125263 -22.918298 -7.807820 26.645486 -1.118871 1.868187 0.026201 0.007465 50759.400000 0 0 1
10.988363 -23.026898 -6.419720 26.309598 -1.125557 1.817292 0.028576 0.008415 86063.100000 0 0 1
10.295263 -24.162598 -5.947820 26.929540 -1.168009 1.793499 0.026178 0.012629 243271.000000 0 0 1
11.003663 -24.868698 -4.729620 27.602573 -1.154222 1.742993 0.032105 0.001116 512371.000000 0 0 1
10.143963 -25.789028 -4.031220 28.004012 -1.196041 1.715250 0.043364 -0.007876 435033.000000 0 0 1
10.869163 -26.453058 -2.974720 28.753294 -1.180942 1.674438 0.035706 -0.010594 773144.000000 0 0 1
9.896663 -27.313318 -2.105920 29.127241 -1.223172 1.643160 0.048285 -0.012021 763279.000000 0 0 1
9.107563 -26.565368 -1.167820 28.107477 -1.240518 1.612357 0.042807 -0.005366 -160450.000000 0 0 1
8.381663 -27.385388 -0.333520 28.641281 -1.273786 1.582441 0.048928 -0.014998 256301.000000 0 0 1
7.486263 -26.767178 0.810780 27.806174 -1.298084 1.541634 0.049443 -0.005542 673202.000000 0 0 1
6.309563 -26.077198 0.434880 26.833188 -1.333402 1.554589 0.052737 -0.018461 -95989.400000 0 0 1
5.637963 -25.609098 1.588580 26.270442 -1.354098 1.510289 0.037544 -0.012818 335666.000000 0 0 1
4.198563 -25.044278 1.485080 25.437163 -1.404695 1.512381 0.036611 -0.020593 864352.000000 0 0 1
3.250063 -26.049768 1.082380 26.274034 -1.446674 1.529589 0.045238 -0.025825 -762142.000000 0 0 1
1.988663 -25.494298 0.984580 25.590690 -1.492950 1.532313 0.035806 -0.024578 -892793.000000 0 0 1
0.961263 -26.362838 0.279380 26.381837 -1.534350 1.560206 0.039228 -0.021621 -347310.000000 0 0 1
0.423563 -27.428088 0.982480 27.448947 -1.555355 1.534996 0.040120 -0.014504 -254885.000000 0 0 1
1.143063 -28.663178 0.853680 28.698661 -1.530938 1.541046 0.031279 -0.019591 67168.200000 0 0 1
0.500463 -29.892918 1.556780 29.937612 -1.554056 1.518772 0.040995 -0.009107 124105.000000 0 0 1
0.772663 -29.837188 2.939780 29.991617 -1.544906 1.472619 0.041145 -0.009103 -7364.590000 0 0 1
0.250863 -30.957778 3.564880 31.163365 -1.562693 1.456152 0.044801 -0.007192 -292841.000000 0 0 1
0.202363 -30.660318 5.061280 31.075917 -1.564196 1.407199 0.040872 -0.002636 -678629.000000 0 0 1
1.476463 -30.760878 5.597680 31.300888 -1.522835 1.390995 0.036000 0.006928 -739474.000000 0 0 1
1.575563 -30.472968 7.003880 31.307164 -1.519139 1.345172 0.030392 0.005370 1468130.000000 0 0 1
3.034963 -30.900288 7.494580 31.940688 -1.472892 1.333948 0.030793 0.008408 1566860.000000 0 0 1
3.318363 -32.268538 7.414080 33.275196 -1.468321 1.346099 0.029835 0.003992 206257.000000 0 0 1
4.671963 -32.675178 7.610780 33.873566 -1.428777 1.344180 0.034686 -0.000436 538322.000000 0 0 1
4.919363 -34.242586 7.608080 35.420865 -1.428110 1.354319 0.041908 0.003375 -143527.000000 0 0 1
5.021263 34.014025 6.273880 34.950373 1.424232 1.390310 0.036512 0.002401 -70151.100000 0 0 1
5.113663 32.618847 6.288680 33.610805 1.415292 1.382584 0.012645 -0.005607 -334105.000000 0 0 1
5.623363 31.961247 4.991480 32.833800 1.396636 1.418182 0.025785 -0.009926 1441080.000000 0 0 1
7.043663 32.192717 4.766480 33.297200 1.355394 1.427153 0.025821 -0.007333 982266.000000 0 0 1
7.660463 31.049747 4.287480 32.266887 1.328911 1.437527 0.025503 0.000733 -32052.400000 0 0 1
9.152563 31.250877 3.918680 32.798518 1.285890 1.451033 -0.009379 0.011212 -52099.500000 0 0 1
9.953463 31.479257 5.050280 33.399407 1.264552 1.419005 0.000497 0.003875 -505297.000000 0 0 1
11.266263 31.571887 4.542280 33.828169 1.228037 1.436114 0.010445 0.010550 404778.000000 0 0 1
12.419163 31.867457 5.578080 34.653793 1.199189 1.409127 0.014850 0.000870 479526.000000 0 0 1
12.793563 30.779577 6.356380 33.933187 1.176871 1.382363 0.021164 -0.000747 -696597.000000 0 0 1
13.853463 31.285877 7.084480 34.941585 1.153944 1.366629 0.042508 -0.010749 -490789.000000 0 0 1
14.537163 30.233837 8.007680 34.489664 1.122607 1.336482 0.048633 -0.005113 -259976.000000 0 0 1
13.766663 29.980947 9.144880 34.234588 1.140334 1.300389 0.048133 -0.004534 150193.000000 0 0 1
14.149963 28.759827 9.779280 33.510945 1.113566 1.274664 0.040195 0.000316 164736.000000 0 0 1
13.883363 28.921117 11.342480 34.026910 1.123242 1.230954 0.039931 -0.001388 -102936.000000 0 0 1
14.715163 29.913907 11.894880 35.395847 1.113636 1.228073 0.045495 -0.013168 -61165.200000 0 0 1
14.356563 30.278047 13.217080 36.021691 1.128036 1.195100 0.040110 -0.007621 -341993.000000 0 0 1
15.229363 31.329207 13.943380 37.521601 1.118324 1.190054 0.035630 -0.002222 154961.000000 0 0 1
16.419463 30.687927 14.396480 37.664390 1.079506 1.178587 0.030671 -0.010990 60829.400000 0 0 1
17.109063 31.568397 15.247380 39.009823 1.074141 1.169231 0.041276 -0.007247 -2771.260000 0 0 1
18.490763 31.164117 15.814780 39.537549 1.035292 1.159286 0.043482 -0.013737 425046.000000 0 0 1
19.559163 30.943047 14.912380 39.527359 1.007106 1.183953 0.021681 -0.009235 254823.000000 0 0 1
19.863663 29.597257 14.629980 38.530495 0.979709 1.181326 0.017322 -0.001285 53115.200000 0 0 1
21.335263 29.275607 14.305780 38.947528 0.941020 1.194682 0.054864 -0.008629 989310.000000 0 0 1
22.379363 29.365817 15.318180 39.972912 0.919603 1.177523 0.056407 -0.013796 1400060.000000 0 0 1
23.643263 29.098577 14.715980 40.277675 0.888466 1.196773 0.048800 -0.007729 -136878.000000 0 0 1
24.888463 29.149747 15.575780 41.373279 0.864092 1.184814 0.051933 -0.009325 -487493.000000 0 0 1
24.973763 27.916867 16.255580 40.832391 0.840986 1.161346 0.054097 -0.003240 77274.800000 0 0 1
25.836963 28.110627 17.356880 41.940640 0.827519 1.144124 0.034925 0.001128 -193438.000000 0 0 1
26.594863 26.794457 17.828280 41.750176 0.789137 1.129599 0.001535 0.010086 -170601.000000 0 0 1
25.881463 25.694707 18.319180 40.812503 0.781777 1.105305 0.021893 0.006605 -451636.000000 0 0 1
25.448663 25.936707 19.627380 41.298683 0.794896 1.075543 0.032567 0.011185 62292.800000 0 0 1
24.744863 24.699907 20.155880 40.356575 0.784489 1.047839 0.030549 0.001957 -247125.000000 0 0 1
25.736363 23.719267 20.295280 40.458156 0.744635 1.045307 0.021655 0.007645 -209564.000000 0 0 1
25.224063 22.474487 20.566580 39.551740 0.727817 1.023955 0.021900 0.002959 -417048.000000 0 0 1
26.271263 21.375987 20.774380 39.732693 0.683017 1.020601 0.008366 0.007150 9112.780000 0 0 1
25.586363 20.146287 20.984880 38.741451 0.667001 0.998380 0.002550 0.018716 203552.000000 0 0 1
26.459363 19.048487 20.979680 38.769701 0.623967 0.999009 0.012800 0.008053 -82817.700000 0 0 1
27.094063 18.750887 22.365680 39.823456 0.605381 0.974453 0.030397 0.006513 -238244.000000 0 0 1
26.137863 18.248987 23.279280 39.473260 0.609505 0.940049 0.014827 0.016459 72323.400000 0 0 1
26.599263 17.830887 24.538180 40.343321 0.590550 0.916962 0.031079 0.007822 -229677.000000 0 0 1
25.528163 17.076087 25.375380 39.839550 0.589555 0.880275 0.019284 0.005911 127977.000000 0 0 1
25.237663 15.846987 24.759280 38.743884 0.560689 0.877534 0.016264 -0.000569 289050.000000 0 0 1
24.135563 15.221187 25.381680 38.189522 0.562655 0.843806 0.014813 0.005136 -130861.000000 0 0 1
23.786963 13.807187 24.852180 37.068704 0.525922 0.836001 0.019044 0.007712 195861.000000 0 0 1
22.559463 13.353487 25.406780 36.506841 0.534460 0.801060 0.001559 0.006829 404137.000000 0 0 1
22.149963 12.161087 24.785280 35.395239 0.502101 0.795058 0.012194 0.006055 -123446.000000 0 0 1
20.830963 11.557087 25.308480 34.756502 0.506524 0.755155 0.015369 0.003107 236871.000000 0 0 1
19.753763 12.490387 25.267380 34.418910 0.563835 0.746436 0.027251 0.001780 -399573.000000 0 0 1
18.531463 11.811187 25.238280 33.464758 0.567437 0.716400 0.034079 -0.001041 -1155860.000000 0 0 1
17.420063 12.806187 25.292280 33.273960 0.633923 0.707295 0.031920 -0.011198 -1060570.000000 0 0 1
17.073563 13.247887 26.569180 34.248129 0.659891 0.682838 0.053182 -0.013815 541179.000000 0 0 1
15.943463 14.125687 26.613780 34.088448 0.725018 0.674968 0.070582 -0.015344 426464.000000 0 0 1
15.690463 14.565287 28.059880 35.294405 0.748226 0.651750 0.066006 -0.005336 -158189.000000 0 0 1
15.274863 13.488187 28.848180 35.319543 0.723361 0.614994 0.067889 -0.002320 -8636.410000 0 0 1
15.407063 13.635787 30.287680 36.614967 0.724485 0.596701 0.058331 0.006398 -210236.000000 0 0 1
16.826963 13.242987 30.747480 37.469066 0.666770 0.608319 0.051569 0.007363 -265790.000000 0 0 1
17.747663 14.268787 30.444280 38.018837 0.677164 0.642220 0.055743 -0.004360 -1241300.000000 0 0 1
18.989663 13.710587 30.278080 38.279885 0.625341 0.658410 0.034260 0.007112 -1467170.000000 0 0 1
20.045763 14.768387 29.916180 38.921917 0.634956 0.694115 0.025867 -0.002627 -581054.000000 0 0 1
19.933263 15.540787 28.737580 38.271393 0.662203 0.721389 0.041062 -0.009640 83866.200000 0 0 1
20.101363 14.813387 27.508880 37.151577 0.635087 0.737057 0.042264 -0.006699 -513749.000000 0 0 1
19.992863 15.652987 26.197880 36.483688 0.664245 0.769770 0.041316 -0.007785 -680722.000000 0 0 1
20.951863 16.611087 25.920980 37.239844 0.670348 0.800908 0.041727 -0.004079 -284704.000000 0 0 1
20.801063 17.118287 24.616980 36.492679 0.688581 0.830410 0.035704 -0.006073 241621.000000 0 0 1
21.972863 18.074487 24.230980 37.371569 0.688360 0.865342 0.030654 -0.001355 288323.000000 0 0 1
21.677263 18.659687 22.943080 36.667050 0.710728 0.894750 0.024070 -0.005072 144634.000000 0 0 1
22.789963 19.431987 22.557880 37.494566 0.706034 0.925255 0.023110 0.005582 -24181.800000 0 0 1
22.913663 20.808887 23.249580 38.711609 0.737296 0.926565 0.033472 -0.011413 -41900.600000 0 0 1
22.116763 21.726987 22.505980 38.310994 0.776508 0.942886 0.042135 -0.007413 262664.000000 0 0 1
22.109163 22.966987 23.127780 39.385172 0.804426 0.943176 0.050404 -0.016018 17836.100000 0 0 1
21.177163 24.033747 22.469680 39.127736 0.848498 0.959091 0.066457 -0.029533 122913.000000 0 0 1
21.737263 24.875227 21.477880 39.402853 0.852617 0.994307 0.068517 -0.019008 264181.000000 0 0 1
20.785063 25.893557 21.236180 39.414090 0.894404 1.001788 0.073296 -0.029604 171628.000000 0 0 1
21.315163 26.825887 20.094980 39.721186 0.899372 1.040370 0.065939 -0.025367 -12782.300000 0 0 1
21.389863 26.258257 18.851080 38.760618 0.887219 1.062893 0.065311 -0.020869 -22640.700000 0 0 1
21.653563 27.171477 17.855580 39.063892 0.897935 1.096080 0.054274 -0.021771 -272348.000000 0 0 1
21.627863 26.550487 16.416180 37.976095 0.887220 1.123780 0.033302 -0.008759 2054320.000000 0 0 1
20.303063 25.984727 16.015780 36.659591 0.907534 1.118671 0.025224 -0.007935 1837230.000000 0 0 1
20.337063 25.473837 14.709280 35.761367 0.897062 1.146897 0.027356 -0.000456 -712351.000000 0 0 1
19.101263 24.670427 14.307980 34.325013 0.911950 1.140832 0.027181 0.001723 2288980.000000 0 0 1
17.759163 25.260077 14.050080 33.924388 0.958025 1.143778 0.013931 0.006293 2060970.000000 0 0 1
17.216863 25.931827 15.167680 34.625692 0.984692 1.117371 0.026621 -0.006355 -1909410.000000 0 0 1
15.745663 26.312607 14.962680 34.119803 1.031549 1.116830 0.021175 -0.001025 -480376.000000 0 0 1
14.878863 25.231567 14.653280 32.752575 1.037990 1.106948 0.027419 0.000649 85277.500000 0 0 1
14.769263 24.202317 15.630880 32.376035 1.022880 1.066957 0.027147 -0.003085 -1101740.000000 0 0 1
13.821963 24.577277 16.776180 32.810508 1.058492 1.034094 0.042226 -0.015556 -546439.000000 0 0 1
14.272463 25.674897 17.513180 34.199634 1.063441 1.033184 0.041429 -0.013921 328215.000000 0 0 1
13.206863 26.283727 18.237180 34.609973 1.105172 1.015807 0.038379 -0.019937 80292.000000 0 0 1
13.696463 27.506697 18.908180 36.079506 1.108805 1.019174 0.041200 -0.030074 -516324.000000 0 0 1
13.944163 28.568107 18.004580 36.534112 1.116712 1.055474 0.038067 -0.022425 166404.000000 0 0 1
14.577363 29.626217 18.698380 37.945245 1.113535 1.055523 0.038795 -0.022614 -431981.000000 0 0 1
14.669663 30.972707 17.907180 38.667489 1.128465 1.089299 0.035680 -0.020867 440377.000000 0 0 1
13.385363 31.510507 17.580180 38.485617 1.169103 1.096403 0.025701 -0.016706 619994.000000 0 0 1
13.554663 32.879211 17.316080 39.555253 1.179769 1.117680 0.029913 -0.010870 -507463.000000 0 0 1
12.190663 33.562889 17.193280 39.631915 1.222394 1.122064 0.040405 -0.013957 -401962.000000 0 0 1
12.069463 -33.886948 16.705380 39.661907 -1.228637 1.136034 0.042426 -0.011088 -290082.000000 0 0 1
12.562863 -32.793638 17.471780 39.223861 -1.204953 1.109133 0.036946 -0.010217 -378090.000000 0 0 1
12.185463 -32.734658 18.891480 39.710595 -1.214439 1.075004 0.034951 -0.021564 -872603.000000 0 0 1
13.043263 -33.401718 19.808580 40.965611 -1.198509 1.066100 0.042667 -0.020420 478213.000000 0 0 1
12.548363 -33.370558 21.132980 41.444642 -1.211122 1.035718 0.035598 -0.012277 269744.000000 0 0 1
13.702663 -33.856408 22.060580 42.669527 -1.186220 1.027442 0.041093 -0.018505 572357.000000 0 0 1
14.859963 -33.056838 22.056180 42.426974 -1.148335 1.024107 0.037329 -0.020528 -1087050.000000 0 0 1
15.935263 -33.653948 22.648680 43.583064 -1.128570 1.024335 0.033033 -0.018775 108611.000000 0 0 1
17.244163 -32.806318 22.350580 43.280065 -1.086851 1.028134 0.051941 -0.013923 791046.000000 0 0 1
17.261963 -31.564678 23.020080 42.710986 -1.070355 1.001579 0.065666 -0.015702 -269272.000000 0 0 1
18.210763 -30.756718 22.406180 42.185833 -1.036213 1.010862 0.064415 -0.011244 -396820.000000 0 0 1
-4.369937 12.798602 18.615472 23.009484 -1.241769 0.628288 0.019952 -0.006698 -491441.000000 0 1 0
-4.056837 14.105202 18.192972 23.375176 -1.290742 0.678838 0.016141 -0.003517 -530908.000000 0 1 0
-5.135737 14.848202 17.727372 23.687647 -1.237794 0.725179 0.021122 -0.008181 -813043.000000 0 1 0
-4.893137 16.342602 17.446072 24.400591 -1.279881 0.774193 0.022896 -0.003905 -240583.000000 0 1 0
-4.592737 17.020502 18.657072 25.668600 -1.307238 0.757081 0.013260 0.002279 188532.000000 0 0 1
-4.378737 18.392702 18.448072 26.415832 -1.337078 0.797676 0.013722 0.007320 -182201.000000 0 0 1
-3.892737 19.221102 19.718472 27.810471 -1.370975 0.782674 0.020464 0.005160 89874.100000 0 0 1
-4.897837 19.242802 20.696272 28.681177 -1.321560 0.764689 0.016656 0.005786 -21251.000000 0 0 1
-4.389837 19.916202 21.814772 29.863189 -1.353850 0.751757 0.021647 0.007099 -171675.000000 0 0 1
-5.431437 20.102502 22.914772 30.962846 -1.306910 0.737617 0.022567 0.008726 -212176.000000 0 0 1
-5.724037 18.914602 23.598052 30.779779 -1.276933 0.697152 0.013702 0.004311 -347250.000000 0 0 1
-6.213237 19.094802 24.911822 31.997104 -1.256213 0.678421 0.002191 0.005967 -13998.100000 0 0 1
-5.357937 19.824102 26.009992 33.139435 -1.306829 0.668318 -0.003575 -0.001438 -1175580.000000 0 0 1
-5.093937 21.211002 25.690642 33.702580 -1.335104 0.703975 0.008093 -0.006174 -223602.000000 0 0 1
-4.267037 21.874102 26.624352 34.720888 -1.378143 0.696939 0.006972 -0.000725 -580980.000000 0 0 1
-2.807237 21.498902 26.419362 34.176981 -1.440955 0.687214 0.027867 0.000532 -1476190.000000 0 0 1
-2.536637 20.205402 26.772132 33.636882 -1.445907 0.650277 0.031221 0.001775 -1008810.000000 0 0 1
-1.232037 19.844502 26.410482 33.058066 -1.508791 0.645312 0.036845 0.002522 235373.000000 0 0 1
-0.527637 18.753802 27.331642 33.151201 -1.542669 0.601560 0.022509 0.003583 -61611.700000 0 0 1
-1.071837 17.480002 27.032362 32.209438 -1.509555 0.574860 0.019657 0.006236 -64160.500000 0 0 1
-0.211937 16.384802 27.239992 31.788737 -1.557862 0.541557 0.019378 0.001409 324064.000000 0 0 1
1.208863 16.332702 26.588722 31.227850 1.496916 0.552066 0.016953 0.004651 -74408.000000 0 0 1
1.234363 16.126302 25.192292 29.937148 1.494402 0.570731 0.011391 0.000754 -115156.000000 0 0 1
1.032763 14.739902 24.865792 28.924711 1.500845 0.536167 0.014819 -0.002251 -202783.000000 0 0 1
1.094963 14.344102 23.371272 27.443916 1.494609 0.551764 0.015440 -0.011591 -109812.000000 0 0 1
2.427063 14.382902 22.934072 27.179591 1.403625 0.566476 0.014743 -0.012351 -502364.000000 0 0 1
2.505563 13.907802 21.590072 25.803798 1.392553 0.579564 0.005124 -0.010515 181073.000000 0 0 1
3.911963 13.716202 20.969872 25.360859 1.292965 0.597295 -0.001290 -0.002759 219197.000000 0 0 1
4.292463 14.861402 20.233972 25.469592 1.289616 0.652717 0.004767 -0.004766 288254.000000 0 0 1
5.681363 14.725102 19.917472 25.412835 1.202566 0.670105 0.012906 -0.010371 710074.000000 0 0 1
6.307863 15.881102 19.085472 25.617450 1.192712 0.730234 0.030969 -0.014684 53107.800000 0 0 1
6.286863 15.549002 17.704772 24.387600 1.186566 0.758346 0.031297 -0.019253 158113.000000 0 1 0
6.758963 16.588302 16.855772 24.596186 1.183881 0.815780 0.038876 -0.018746 20763.200000 0 1 0
6.650863 16.003102 15.413472 23.192851 1.176916 0.843867 0.033182 -0.018631 -860249.000000 0 1 0
7.692563 15.218402 15.023372 22.726130 1.102776 0.848564 0.029007 -0.014644 -879553.000000 0 1 0
7.872763 13.943102 15.601872 22.356406 1.056787 0.798377 0.026450 -0.011546 -6233.770000 0 1 0
9.069463 13.260502 14.898972 21.910623 0.970927 0.823049 0.032663 -0.015320 -597352.000000 0 1 0
10.345163 13.742502 15.083872 22.877979 0.925515 0.850885 0.039423 -0.023660 -760275.000000 0 1 0
11.262063 13.002602 14.277572 22.355106 0.857007 0.878026 0.045787 -0.018950 793285.000000 0 1 0
12.686463 13.657602 14.200272 23.433398 0.822245 0.919794 0.046160 -0.009584 -41509.800000 0 1 0
13.354363 13.395302 15.426872 24.408226 0.786929 0.886619 0.031894 -0.014111 703922.000000 0 1 0
14.724363 13.767602 15.593572 25.485549 0.751831 0.912387 0.033061 -0.014131 828715.000000 0 0 1
15.754363 13.117602 14.630872 25.185985 0.694325 0.950946 0.049105 -0.019714 -750848.000000 0 0 1
17.064063 13.589102 14.867972 26.398911 0.672516 0.972538 0.050566 -0.022630 144213.000000 0 0 1
17.906963 13.354002 13.762772 26.237427 0.640771 1.018613 0.056585 -0.013931 514435.000000 0 0 1
19.357363 13.902002 13.990872 27.635442 0.622821 1.039947 0.053861 -0.011868 790184.000000 0 0 1
20.050663 13.454202 15.156872 28.509216 0.591004 1.010251 0.041802 -0.015778 -418126.000000 0 0 1
21.386863 13.818402 15.040872 29.573196 0.573640 1.037241 0.033748 -0.014259 -208495.000000 0 0 1
22.329163 13.530002 16.259272 30.757379 0.544771 1.013811 0.048226 -0.016110 324760.000000 0 0 1
22.416363 12.161002 16.396972 30.319036 0.497071 0.999391 0.048507 -0.017833 501369.000000 0 0 1
23.193263 11.798602 17.544972 31.384080 0.470590 0.977568 0.047782 -0.017297 44644.500000 0 0 1
23.361463 10.294502 17.745172 31.090607 0.415061 0.963369 0.056341 -0.006236 39877.700000 0 0 1
22.154463 9.725502 18.219772 30.288045 0.413657 0.925356 0.051172 -0.006157 478866.000000 0 0 1
22.179863 8.365402 17.972172 29.747692 0.360665 0.922093 0.042478 0.001397 60176.200000 0 0 1
20.878963 7.654102 18.425572 28.879371 0.351381 0.878874 0.055250 -0.002350 72047.600000 0 0 1
20.867063 6.384002 17.855072 28.195627 0.296894 0.885042 0.061994 -0.002882 158877.000000 0 0 1
19.820463 5.655102 18.437472 27.654498 0.277932 0.841013 0.051867 -0.002462 -337775.000000 0 0 1
19.612163 4.302502 17.754872 26.802685 0.215958 0.846740 0.059298 0.000917 -355741.000000 0 0 1
18.808963 4.410602 16.583872 25.460858 0.230333 0.861437 0.054608 -0.005735 561082.000000 0 0 1
18.467563 3.249702 15.821472 24.534270 0.174185 0.869940 0.051957 -0.010475 281910.000000 0 1 0
17.634963 2.117402 16.526572 24.261139 0.119496 0.821402 0.047984 -0.000707 -162660.000000 0 1 0
18.343763 1.417102 17.502572 25.393736 0.077099 0.810346 0.047242 -0.011770 -174068.000000 0 0 1
17.458563 0.717602 18.354272 25.341579 0.041080 0.760814 0.042086 -0.013643 32945.300000 0 0 1
18.174363 0.125702 19.610172 26.737279 0.006916 0.747428 0.035327 -0.016683 245973.000000 0 0 1
18.548563 -1.221498 19.502672 26.942447 -0.065759 0.761410 0.031840 -0.009481 702395.000000 0 0 1
17.414463 -2.037298 19.896972 26.519871 -0.116459 0.722331 0.012833 -0.004286 866440.000000 0 0 1
17.289863 -3.422598 19.321372 26.152800 -0.195428 0.739526 -0.001349 0.000397 -109935.000000 0 0 1
17.169663 -3.449298 17.887872 25.033396 -0.198256 0.774801 0.010864 -0.007468 268214.000000 0 0 1
17.038763 -4.818498 17.481172 24.882297 -0.275600 0.791815 0.022479 -0.004594 -167199.000000 0 1 0
16.845263 -5.097898 16.020172 23.799104 -0.293869 0.832347 0.026323 -0.007002 -154855.000000 0 1 0
15.625563 -4.634698 15.469372 22.470872 -0.288344 0.811490 0.018968 -0.014227 208629.000000 0 1 0
15.643563 -4.586598 14.069072 21.533618 -0.285201 0.858790 0.030433 -0.016661 272345.000000 0 1 0
16.154963 -3.269498 13.362972 21.218894 -0.199686 0.889542 0.035344 -0.012266 29454.000000 0 1 0
15.198263 -2.240398 13.579572 20.503935 -0.146357 0.846924 0.028257 -0.007419 449663.000000 0 1 0
15.627263 -1.049898 12.982972 20.343824 -0.067083 0.878668 0.034936 -0.010306 41714.300000 0 1 0
14.609663 0.091602 13.176172 19.673895 0.006270 0.836953 0.039428 -0.005736 -360201.000000 0 1 0
14.892663 1.352502 12.582672 19.543395 0.090568 0.871300 0.042755 -0.008546 3578.010000 0 1 0
15.945263 2.095402 13.172572 20.788428 0.130663 0.884535 0.057810 -0.016723 -62842.500000 0 1 0
16.005063 3.516902 12.509772 20.616135 0.216299 0.918774 0.049463 -0.020680 875665.000000 0 1 0
14.906663 4.409802 12.889072 20.193640 0.287624 0.878543 0.035455 -0.011525 1272890.000000 0 1 0
15.056063 5.663502 12.223272 20.203184 0.359788 0.921009 0.053735 -0.015334 673204.000000 0 1 0
13.918963 6.723502 12.571172 19.924291 0.449993 0.888023 0.033596 -0.007933 514174.000000 0 1 0
14.200863 8.027502 12.022172 20.264202 0.514501 0.935680 0.033930 -0.013730 -162418.000000 0 1 0
13.324263 8.999902 12.470072 20.347897 0.594060 0.911143 0.027011 0.004946 -867825.000000 0 1 0
13.545963 9.662002 13.849772 21.648639 0.619580 0.876620 0.034491 -0.003671 -193647.000000 0 1 0
13.330763 8.825102 14.947672 21.886629 0.584772 0.818990 0.038535 -0.004172 355068.000000 0 1 0
13.502163 9.597002 16.121272 23.115065 0.617921 0.798983 0.031226 -0.005964 -187140.000000 0 1 0
12.954263 8.909402 17.433572 23.475940 0.602463 0.733831 0.025293 -0.008803 728370.000000 0 1 0
11.720763 9.362102 18.033472 23.457010 0.673986 0.693852 0.008471 0.001019 637276.000000 0 1 0
11.285863 8.681302 19.162272 23.873172 0.655688 0.639038 0.023410 0.009252 -79160.200000 0 1 0
12.025763 8.943302 20.497472 25.391888 0.639443 0.631327 0.034864 0.002001 748668.000000 0 0 1
13.354663 8.376202 20.538672 25.891018 0.560188 0.654629 0.044655 -0.005514 715978.000000 0 0 1
13.837163 8.476602 21.854172 27.219931 0.549630 0.638696 0.037313 -0.006337 807719.000000 0 0 1
15.403863 8.356602 21.976672 28.108466 0.497067 0.673165 0.041433 -0.010842 1302650.000000 0 0 1
16.110063 9.347102 21.198872 28.218692 0.525735 0.720865 0.054366 -0.005557 467044.000000 0 0 1
16.864763 8.807302 20.111372 27.684943 0.481274 0.757673 0.050539 -0.009549 132521.000000 0 0 1
17.549263 9.933902 19.286772 27.904096 0.515088 0.807675 0.053572 -0.010031 -31426.400000 0 0 1
18.553363 10.596102 20.024672 29.282966 0.518910 0.817793 0.043294 -0.011970 176032.000000 0 0 1
19.251863 11.628402 19.348872 29.668717 0.543366 0.860361 0.043591 -0.014321 736715.000000 0 0 1
20.267263 12.358102 20.314472 31.243597 0.547563 0.862954 0.036945 -0.006854 71943.100000 0 0 1
19.612663 13.397402 21.011372 31.711585 0.599293 0.846542 0.026710 -0.005614 314411.000000 0 0 1
20.444563 14.043102 21.958472 33.126475 0.601871 0.846154 0.021898 0.002556 512319.000000 0 0 1
21.708363 14.856202 21.484672 33.963964 0.600148 0.885926 0.008620 0.002357 297668.000000 0 0 1
22.784463 14.043802 21.098172 34.080683 0.552374 0.903244 -0.006608 0.012702 -280643.000000 0 0 1
23.967963 14.808402 21.086572 35.190844 0.553435 0.928287 -0.009588 0.014686 -23389.900000 0 0 1
25.286963 14.026002 20.926272 35.694090 0.506424 0.944353 -0.005426 0.005436 -60697.400000 0 0 1
25.475163 13.396802 19.681472 34.868590 0.484134 0.971033 -0.000298 0.007086 13014.200000 0 0 1
26.690063 12.691502 19.772972 35.558460 0.443868 0.981147 0.021579 -0.003694 -115907.000000 0 0 1
27.073663 12.021102 18.461272 34.904278 0.417865 1.013479 0.042694 -0.008566 -245625.000000 0 0 1
27.640563 12.871102 17.442872 35.127194 0.435800 1.051161 0.042523 -0.008611 580052.000000 0 0 1
28.019263 12.192502 16.239772 34.604427 0.410434 1.082301 0.056835 -0.020688 160736.000000 0 0 1
26.777663 11.880702 15.358972 33.077066 0.417585 1.087908 0.057699 -0.028899 312272.000000 0 0 1
26.547863 12.945702 14.402372 32.860440 0.453708 1.117102 0.062915 -0.023101 120629.000000 0 0 1
25.449563 12.644102 13.565672 31.489379 0.461108 1.125416 0.056035 -0.013801 127460.000000 0 0 1
25.047663 13.842402 12.647172 31.288152 0.504870 1.154675 0.050616 -0.010223 -123266.000000 0 0 1
24.520363 14.923002 13.354272 31.658818 0.546716 1.135346 0.046627 -0.018785 219413.000000 0 0 1
23.940863 15.802602 12.391872 31.248130 0.583421 1.163026 0.046980 -0.014886 384734.000000 0 0 1
22.972163 16.920202 12.952372 31.333328 0.634839 1.144640 0.038560 -0.014544 -1184760.000000 0 0 1
21.752563 16.398302 13.321372 30.323872 0.645964 1.115974 0.034349 -0.010679 -1001760.000000 0 0 1
20.854063 17.379102 13.751372 30.430664 0.694759 1.101911 0.021313 -0.005589 -465808.000000 0 0 1
20.127963 18.144202 12.540172 29.859719 0.733612 1.137385 0.027547 -0.004442 -450027.000000 0 0 1
19.089463 17.421402 11.907172 28.455115 0.739743 1.139053 0.021908 -0.005009 -114155.000000 0 0 1
17.877163 17.384202 12.611772 27.943876 0.771419 1.102547 0.017095 -0.003383 -302985.000000 0 0 1
16.730363 16.875702 11.657672 26.468767 0.789723 1.114717 0.019633 -0.007644 100160.000000 0 0 1
16.686163 15.451502 11.624872 25.540450 0.746999 1.098250 0.033989 -0.009208 71802.300000 0 0 1
15.553663 15.028102 10.931372 24.233348 0.768214 1.102812 0.036728 -0.018765 -337447.000000 0 1 0
15.727463 13.651802 10.262172 23.217169 0.714865 1.112960 0.046231 -0.020377 -383930.000000 0 1 0
16.011063 12.567702 11.139772 23.203357 0.665489 1.070035 0.064828 -0.016777 557243.000000 0 1 0
16.402263 11.414202 10.363572 22.510483 0.607964 1.092363 0.063852 -0.011910 176766.000000 0 1 0
16.930463 10.186002 11.249772 22.736591 0.541623 1.053207 0.079757 -0.017035 -503505.000000 0 1 0
17.635263 9.195702 10.413172 22.449890 0.480651 1.088471 0.085970 -0.016298 836971.000000 0 1 0
18.238363 8.192802 11.200872 22.917666 0.422194 1.060147 0.101625 -0.010030 703663.000000 0 1 0
19.365463 8.613702 12.214472 24.462427 0.418519 1.047988 0.079886 -0.015541 -562432.000000 0 1 0
18.801463 9.269402 13.331972 24.842670 0.458044 1.004327 0.066010 -0.017544 -61958.700000 0 1 0
19.710263 9.477802 14.396872 26.183833 0.448216 0.988626 0.063027 -0.005638 -1147360.000000 0 0 1
19.072063 9.746102 15.777272 26.601736 0.472420 0.935903 0.047355 -0.009558 263376.000000 0 0 1
18.247063 8.712002 16.340272 25.997283 0.445443 0.891125 0.046144 -0.010301 1401620.000000 0 0 1
16.997963 8.458002 15.665572 24.614603 0.461717 0.880930 0.038361 -0.012157 -23881.900000 0 1 0
16.364063 7.109602 16.144072 24.061588 0.409860 0.835310 0.031613 0.000993 -834923.000000 0 1 0
15.759763 7.136402 17.418972 24.550334 0.425200 0.781978 0.044317 -0.000081 38451.200000 0 1 0
15.421863 5.852802 17.889472 24.333564 0.362722 0.744869 0.049259 0.016796 193250.000000 0 1 0
14.385463 5.048802 17.054472 22.875466 0.337535 0.729458 0.048513 -0.019025 -556641.000000 0 1 0
14.316063 3.698702 17.432172 22.858492 0.252832 0.703454 0.077835 -0.006952 6261.180000 0 1 0
13.514963 3.029502 16.497272 21.540475 0.220514 0.698398 0.050611 0.003177 -186498.000000 0 1 0
13.377663 1.531602 16.814972 21.541841 0.113993 0.675215 0.047285 0.002653 -389827.000000 0 1 0
14.553063 0.780302 16.673172 22.144867 0.053566 0.718318 0.035727 -0.007923 -263468.000000 0 1 0
14.289663 -0.635198 16.689072 21.980060 -0.044422 0.708587 0.030166 0.009971 8123.130000 0 1 0
13.329363 -1.380198 17.669172 22.176034 -0.103178 0.648867 0.032104 0.000547 -967607.000000 0 1 0
12.026663 -1.031598 17.441772 21.211323 -0.085566 0.605380 0.035202 -0.007668 -1717840.000000 0 1 0
11.226863 -1.546698 18.460672 21.661743 -0.136906 0.550573 0.032752 -0.016183 -116505.000000 0 1 0
-25.679467 14.008502 28.921292 41.135317 -0.499392 0.791081 0.032851 -0.010131 -162308.000000 0 0 1
-24.647537 14.101802 29.879592 41.220770 -0.519681 0.759954 0.038009 -0.010643 9778.800000 0 0 1
-23.968037 12.850602 29.933732 40.442961 -0.492152 0.737508 0.034090 -0.009758 -105093.000000 0 0 1
-22.793137 12.886402 30.940162 40.532457 -0.514562 0.702324 0.038444 -0.012040 -367478.000000 0 0 1
-23.182237 13.033402 32.298422 41.838663 -0.512173 0.688853 0.033804 -0.016935 390925.000000 0 0 1
-22.115837 13.234702 33.241142 42.062348 -0.539262 0.659526 0.027548 -0.013750 175030.000000 0 0 1
-22.666837 13.384602 -33.975250 42.979655 -0.533400 2.482415 0.025638 -0.015378 -113203.000000 0 0 1
-23.255937 12.212802 -33.520330 42.586426 -0.483563 2.476911 0.023637 -0.017436 190203.000000 0 0 1
-24.118137 12.516702 -32.406430 42.291005 -0.478712 2.443816 0.013626 -0.011860 162449.000000 0 0 1
-24.837537 11.302102 -31.812930 41.913045 -0.427038 2.432606 0.009661 -0.019285 -264581.000000 0 0 1
-24.075337 10.426302 -30.992100 40.605910 -0.408686 2.439111 0.003662 -0.019804 394211.000000 0 0 1
-23.453037 9.375802 -31.841340 40.642608 -0.380307 2.470990 0.001501 -0.018746 481314.000000 0 0 1
-22.573737 8.388202 -30.992010 39.248443 -0.355779 2.481013 0.005367 -0.005165 -191064.000000 0 0 1
-23.281837 7.601502 -30.071550 38.783050 -0.315587 2.458111 0.002804 -0.002420 -197207.000000 0 0 1
-22.474337 6.681202 -29.370860 37.581668 -0.288961 2.467896 0.004367 0.003188 -687238.000000 0 0 1
-23.122737 5.769502 -28.392380 37.068523 -0.244523 2.443303 0.004335 0.009501 -275862.000000 0 0 1
-23.941637 4.734702 -28.944840 37.860576 -0.195241 2.441079 0.017799 0.004250 339656.000000 0 0 1
-24.126037 3.722802 -28.007590 37.153063 -0.153099 2.424688 0.041706 0.010552 -399781.000000 0 0 1
-24.711337 2.422402 -28.659190 37.919222 -0.097716 2.427665 0.049652 0.014176 1422690.000000 0 0 1
-26.095207 2.355302 -29.083460 39.145306 -0.090014 2.408281 0.060792 0.002073 1347540.000000 0 0 1
-26.477177 3.337602 -30.068120 40.202890 -0.125394 2.415703 0.052894 -0.000581 -524067.000000 0 0 1
-27.800727 3.077602 -30.829770 41.627237 -0.110253 2.404782 0.088670 -0.014871 88626.500000 0 0 1
-28.977627 3.297002 -30.071700 41.891291 -0.113290 2.371507 0.074446 -0.018024 -352815.000000 0 0 1
-30.096037 3.462702 -30.873530 43.254325 -0.114551 2.365659 0.089773 -0.028809 -224464.000000 0 0 1
-30.578157 4.919502 -31.161550 43.934809 -0.159516 2.359255 0.096354 -0.045448 259054.000000 0 0 1
-29.642177 5.478702 -32.099050 44.034349 -0.182765 2.387590 0.078996 -0.040624 510354.000000 0 0 1
-30.037607 6.702502 -32.582200 44.819429 -0.219541 2.384689 0.080752 -0.039726 -629306.000000 0 0 1
-29.688337 7.989902 -31.729170 44.181174 -0.262897 2.371951 0.059505 -0.035281 -365887.000000 0 0 1
-28.291857 8.103302 -31.678190 43.238877 -0.278950 2.392978 0.024860 -0.030812 -207469.000000 0 0 1
-27.602167 7.720302 -30.495940 41.850748 -0.272730 2.387194 0.014808 -0.032888 -283657.000000 0 0 1
-27.627997 8.647502 -29.210300 41.125748 -0.303338 2.360675 0.016109 -0.022224 270208.000000 0 0 1
-28.925427 8.795002 -28.627940 41.636419 -0.295175 2.328933 0.022987 -0.021463 474628.000000 0 0 1
-29.305747 7.690502 -27.861440 41.161032 -0.256636 2.314324 0.022430 -0.004479 -1232060.000000 0 0 1
-30.698567 7.818002 -27.288010 41.810988 -0.249369 2.281875 0.034672 -0.006140 -963245.000000 0 0 1
-30.892577 8.683602 -26.173520 41.410258 -0.274019 2.254997 -0.006561 0.002612 -42464.700000 0 0 1
-30.595697 8.055602 -24.952920 40.294387 -0.257449 2.238603 -0.005880 0.007475 -8104.140000 0 0 1
-30.140487 8.843102 -23.704420 39.351607 -0.285387 2.217269 -0.010726 0.006074 84156.700000 0 0 1
-31.114347 9.789502 -23.285920 40.077064 -0.304824 2.190788 -0.010787 0.007940 182379.000000 0 0 1
-30.478977 10.839902 -22.628320 39.477999 -0.341701 2.181188 -0.002788 0.010226 -625461.000000 0 0 1
-31.367367 11.754502 -21.824020 39.979594 -0.358540 2.148234 -0.008216 0.010782 -525719.000000 0 0 1
-31.964297 11.149302 -20.691920 39.675922 -0.335610 2.119432 -0.007108 0.007809 240932.000000 0 0 1
-32.578337 11.966302 -19.713120 39.914253 -0.352010 2.087350 -0.010262 0.004976 -180973.000000 0 0 1
-31.672687 12.686602 -18.682920 38.899364 -0.380983 2.071780 0.003495 0.006031 -524.306000 0 0 1
-31.113917 11.979102 -17.555420 37.679803 -0.367516 2.055460 0.022575 0.004832 606308.000000 0 0 1
-31.946777 11.844602 -16.405620 37.815811 -0.355049 2.019535 0.016192 0.006177 -119030.000000 0 0 1
-32.334897 13.098802 -15.566220 38.202505 -0.384893 1.990474 0.014726 0.003778 339711.000000 0 0 1
-33.105827 14.147702 -16.228520 39.490735 -0.403858 1.994287 0.009446 0.001461 695343.000000 0 0 1
-33.763957 14.969902 -15.258420 39.961509 -0.417326 1.962570 0.008530 0.001281 -93021.600000 0 0 1
-34.536269 16.088902 -15.977620 41.314538 -0.435961 1.967881 0.006994 -0.004066 -131396.000000 0 0 1
-35.688271 15.516002 -16.577620 42.299132 -0.410112 1.973507 0.002512 0.001094 357294.000000 0 0 1
35.241281 16.562902 -16.970520 42.476772 0.439349 1.981795 -0.003029 -0.004049 -496223.000000 0 0 1
34.983821 16.670902 -18.540620 42.959764 0.444697 2.017041 -0.007104 -0.004922 313984.000000 0 0 1
33.950191 15.846202 -19.065220 42.038081 0.436694 2.041510 0.010080 -0.007443 68281.500000 0 0 1
32.620831 16.201702 -18.829320 41.001916 0.460978 2.047925 0.037805 -0.018367 -1049070.000000 0 0 1
31.699731 15.047702 -19.124620 39.963201 0.443199 2.069806 0.049090 -0.022168 -614395.000000 0 0 1
31.471071 14.789702 -20.516020 40.374134 0.439317 2.103829 0.050138 -0.022422 282292.000000 0 0 1
30.707521 13.619602 -20.813420 39.517640 0.417458 2.125495 0.035823 -0.017637 18933.000000 0 0 1
31.328001 12.239302 -20.518520 39.398653 0.372448 2.118575 0.027821 0.004895 -114480.000000 0 0 1
31.215581 11.949002 -19.158720 38.525936 0.365582 2.091273 0.022642 0.006272 -222906.000000 0 0 1
32.047911 10.876002 -18.865720 38.746244 0.327171 2.079339 0.011014 0.011428 -520870.000000 0 0 1
32.085421 10.539702 -17.391920 37.987346 0.317384 2.046354 0.001555 0.014000 -132298.000000 0 0 1
30.922091 9.962402 -16.802720 36.575355 0.311677 2.048116 0.005605 0.006843 235365.000000 0 0 1
30.995511 9.866702 -15.352020 35.968848 0.308184 2.011764 0.002839 0.005596 -329419.000000 0 0 1
30.714781 11.137102 -14.543820 35.762488 0.347853 1.989611 0.008517 -0.002590 364140.000000 0 0 1
29.312891 11.408102 -14.469920 34.623243 0.371147 2.001956 -0.003495 0.001177 631649.000000 0 0 1
29.048481 12.433502 -13.520420 34.368707 0.404431 1.975116 0.004423 0.001243 -36972.600000 0 0 1
27.541871 12.546502 -13.212220 33.023206 0.427454 1.982410 0.025542 -0.007418 -19235.900000 0 0 1
26.913101 11.426002 -12.602620 31.838571 0.401491 1.977766 0.011163 -0.004837 4402.450000 0 0 1
25.563611 11.154102 -12.888720 30.725093 0.411426 2.003674 0.017189 -0.000683 -413390.000000 0 0 1
25.265411 10.429302 -14.231220 30.816213 0.391483 2.050831 0.018894 -0.002424 -792662.000000 0 0 1
25.647211 9.079502 -14.302020 30.737023 0.340247 2.054773 0.004223 -0.000816 767830.000000 0 0 1
27.045471 8.942502 -14.541520 31.982521 0.319331 2.042799 0.000370 -0.005188 34550.600000 0 0 1
27.820331 7.859802 -13.762620 32.018074 0.275344 2.015111 0.000901 0.000229 -466497.000000 0 0 1
27.490541 6.510802 -13.999920 31.529640 0.232553 2.030881 -0.011045 -0.006810 843352.000000 0 0 1
26.397011 6.017102 -13.206520 30.123411 0.224117 2.024629 0.004937 -0.005789 370368.000000 0 0 1
26.127311 4.466402 -13.362420 29.683993 0.169311 2.037736 0.016343 -0.009648 260907.000000 0 0 1
25.180311 3.959602 -12.415620 28.352675 0.155973 2.024057 0.020404 -0.011435 450011.000000 0 0 1
24.660211 2.682702 -12.829420 27.926993 0.108361 2.048106 0.020447 -0.016358 72044.200000 0 0 1
23.691211 2.105302 -11.792820 26.547625 0.088631 2.031093 0.023274 -0.003345 -51148.300000 0 0 1
24.348511 1.937002 -10.552620 26.607514 0.079386 1.978610 0.018797 -0.004743 787718.000000 0 0 1
23.394311 1.419802 -9.610920 25.331392 0.060616 1.959952 0.012152 0.004931 -279138.000000 0 0 1
23.858511 1.090102 -8.145320 25.234166 0.045659 1.899471 0.006911 0.010420 -148798.000000 0 0 1
24.231511 -0.237798 -7.710320 25.429741 -0.009813 1.878846 0.012870 -0.000289 167410.000000 0 0 1
25.234011 -0.832498 -8.455520 26.626006 -0.032979 1.893958 0.028678 -0.007419 -1081210.000000 0 0 1
25.452411 -2.269498 -7.982520 26.771188 -0.088931 1.873577 0.037640 -0.011276 -356571.000000 0 0 1
26.273611 -2.411998 -6.843120 27.257085 -0.091546 1.824570 0.051231 -0.015225 551440.000000 0 0 1
26.224511 -3.801398 -6.540720 27.293894 -0.143953 1.812792 0.051519 -0.017006 -171941.000000 0 0 1
27.394361 -4.135898 -5.577220 28.260610 -0.149845 1.769450 0.061718 -0.020711 214847.000000 0 0 1
28.620791 -4.343298 -6.273220 29.620385 -0.150604 1.784200 0.069683 -0.018183 123611.000000 0 0 1
29.612351 -4.791898 -5.378420 30.475909 -0.160430 1.748207 0.081369 -0.019771 -60286.400000 0 0 1
30.929721 -4.993798 -6.180420 31.934046 -0.160075 1.765562 0.083083 -0.021776 -226213.000000 0 0 1
30.751331 -5.992898 -7.202320 32.147047 -0.192470 1.796757 0.067262 -0.023361 -22197.200000 0 0 1
31.754851 -5.992298 -8.170220 33.332127 -0.186512 1.818435 0.065595 -0.032682 -1042770.000000 0 0 1
31.380201 -6.863198 -9.379220 33.463268 -0.215321 1.854886 0.057345 -0.027561 199387.000000 0 0 1
30.178391 -6.364298 -9.933820 32.402475 -0.207844 1.882390 0.060504 -0.023233 283555.000000 0 0 1
29.018621 -7.011298 -9.468820 31.319279 -0.237070 1.877935 0.059536 -0.028324 -111250.000000 0 0 1
27.695341 -6.180098 -9.428220 29.901787 -0.219549 1.891576 0.053282 -0.024562 -38177.700000 0 0 1
27.038671 -5.933698 -10.675420 29.669229 -0.216028 1.938865 0.029378 -0.021880 1322430.000000 0 0 1
25.772111 -5.249698 -10.641320 28.372500 -0.200948 1.955255 0.035938 -0.013960 1146840.000000 0 0 1
24.550111 -6.031998 -10.092220 27.220321 -0.240929 1.950624 0.054384 -0.009991 -856937.000000 0 0 1
24.517811 -6.323198 -8.674220 26.764678 -0.252402 1.900848 0.052914 -0.016372 416091.000000 0 0 1
23.343411 -6.989398 -8.224220 25.717783 -0.290921 1.896301 0.044066 -0.016093 -302427.000000 0 0 1
22.404011 -5.940898 -7.584120 24.387556 -0.259206 1.887024 0.049109 -0.005552 -422036.000000 0 1 0
21.711111 -5.124098 -8.499320 23.871891 -0.231771 1.934822 0.033021 -0.006075 564863.000000 0 1 0
21.630911 -3.780998 -8.109120 23.408334 -0.173048 1.924549 0.034111 -0.006894 -71720.800000 0 1 0
21.368211 -2.791298 -9.305320 23.472980 -0.129893 1.978418 0.024505 -0.002229 179800.000000 0 1 0
22.526511 -2.741998 -10.149920 24.859267 -0.121127 1.991382 0.020275 -0.006745 1127830.000000 0 1 0
22.411311 -1.888898 -11.313420 25.175947 -0.084085 2.036861 0.020932 -0.003789 -157035.000000 0 0 1
23.736711 -1.926398 -12.105620 26.714949 -0.080979 2.041081 0.029607 -0.012788 -508191.000000 0 0 1
24.736511 -1.134498 -11.597920 27.343991 -0.045831 2.008818 0.018826 -0.017272 -46768.400000 0 0 1
25.969911 -1.272998 -12.281920 28.755910 -0.048979 2.012090 0.020442 -0.015802 -703713.000000 0 0 1
27.005571 -0.307298 -11.798820 29.472147 -0.011379 1.982682 0.024503 -0.009026 211253.000000 0 0 1
28.301971 -0.658798 -12.375420 30.896385 -0.023273 1.982909 0.028196 -0.018282 1645980.000000 0 0 1
29.358861 0.236702 -12.036920 31.731470 0.008062 1.959876 0.043931 -0.020588 259760.000000 0 0 1
29.429021 1.611302 -12.828020 32.143766 0.054698 1.981313 0.043607 -0.022935 -476778.000000 0 0 1
29.633471 1.292902 -14.211020 32.890231 0.043602 2.017588 0.030404 -0.022512 437554.000000 0 0 1
29.744491 2.497702 -14.957820 33.387268 0.083775 2.035334 0.023270 -0.016892 -306570.000000 0 0 1
30.036111 2.203802 -16.466720 34.324592 0.073241 2.071149 0.022674 -0.018790 -353898.000000 0 0 1
29.047661 1.488002 -17.177020 33.779148 0.051181 2.104249 0.028351 -0.018462 37430.300000 0 0 1
29.347171 1.435102 -18.551320 34.748633 0.048862 2.133969 0.014930 -0.011473 -692933.000000 0 0 1
28.207431 0.812402 -19.315620 34.196672 0.028793 2.171035 0.020670 -0.008107 -583522.000000 0 0 1
28.191981 -0.600298 -19.220720 34.126006 -0.021290 2.169083 0.032524 -0.016666 240658.000000 0 0 1
27.659981 -1.212298 -20.443320 34.416182 -0.043801 2.206822 0.035386 -0.014501 115170.000000 0 0 1
27.383861 -2.737998 -20.273420 34.181634 -0.099655 2.205711 0.031687 -0.014523 -238463.000000 0 0 1
26.166511 -3.098098 -19.666020 32.879125 -0.117851 2.211963 0.031444 -0.016479 -13382.200000 0 0 1
25.900411 -4.462098 -19.779420 32.893268 -0.170604 2.215950 0.043294 -0.022690 -228135.000000 0 0 1
26.635011 -5.372298 -18.755320 33.015867 -0.199030 2.174955 0.037700 -0.017692 1150040.000000 0 0 1
28.073881 -5.246998 -18.731120 34.154482 -0.184768 2.151274 0.041089 -0.019699 989369.000000 0 0 1
28.516821 -5.617098 -17.453920 33.902806 -0.194485 2.111597 0.021817 -0.017599 -657765.000000 0 0 1
30.002771 -5.398998 -17.186320 34.995501 -0.178044 2.084149 0.039793 -0.007130 -537310.000000 0 0 1
30.814631 -6.211198 -18.017220 36.231764 -0.198901 2.091254 0.037055 -0.008602 -97108.600000 0 0 1
32.069251 -5.606298 -18.226420 37.310452 -0.173070 2.081174 0.032516 -0.006188 -453696.000000 0 0 1
33.058721 -6.459598 -18.992620 38.669434 -0.192966 2.084210 0.022909 -0.004325 -468764.000000 0 0 1
33.541051 -7.523998 -18.213920 38.901922 -0.220669 2.058050 0.018357 -0.010126 -451748.000000 0 0 1
34.267661 -8.368098 -18.998420 40.065417 -0.239511 2.064834 0.000431 -0.005018 -746313.000000 0 0 1
35.038591 -9.429698 -18.200220 40.593966 -0.262894 2.035713 0.000845 0.002526 -1448720.000000 0 0 1
34.199781 -10.180698 -17.373220 39.687535 -0.289330 2.023891 0.010561 -0.010080 -74342.900000 0 0 1
34.782451 -11.120098 -16.487320 40.066286 -0.309435 1.994897 0.027311 -0.009418 -466980.000000 0 0 1
35.768451 -10.572998 -15.415820 40.358616 -0.287411 1.962724 0.032867 -0.020764 -195769.000000 0 0 1
-35.673667 -11.507798 -14.374820 40.145678 0.312046 1.936993 0.025832 -0.023592 647164.000000 0 0 1
-35.058161 -12.817998 -14.605720 40.083697 0.350523 1.943764 0.030792 -0.015366 251473.000000 0 0 1
-33.685287 -12.778198 -15.344720 39.159180 0.362571 1.973443 0.040293 -0.020940 82205.000000 0 0 1
-33.759677 -12.407498 -16.670120 39.642840 0.352200 2.004801 0.033059 -0.010385 244186.000000 0 0 1
-32.443287 -12.590198 -17.172720 38.806988 0.370178 2.029199 0.044508 -0.012567 519589.000000 0 0 1
-32.048857 -11.565098 -18.279020 38.665273 0.346315 2.063206 0.042308 -0.007435 165272.000000 0 0 1
-31.991097 -10.221098 -17.849520 38.032967 0.309248 2.059314 0.046888 -0.007695 -277695.000000 0 0 1
-33.118867 -9.541698 -18.286520 39.016666 0.280508 2.058598 0.030580 -0.004619 -830742.000000 0 0 1
-33.244937 -8.130998 -17.707220 38.534201 0.239870 2.048251 0.035735 -0.009911 346023.000000 0 0 1
-34.440108 -7.509698 -18.210420 39.675383 0.214690 2.047649 0.030315 -0.009018 375915.000000 0 0 1
-34.875769 -6.479298 -17.326220 39.477823 0.183688 2.025154 0.039798 -0.011122 -70685.300000 0 0 1
23.828263 27.249802 -26.847770 45.068177 0.852285 2.208951 0.024876 0.008905 -127995.000000 0 0 1
24.393363 26.227602 -26.020520 44.271782 0.821617 2.199065 0.029280 -0.005867 630359.000000 0 0 1
25.725263 25.846702 -26.381070 45.008910 0.787753 2.197070 0.052351 -0.012683 573828.000000 0 0 1
26.379763 24.888502 -25.341880 44.244099 0.756319 2.180683 0.041729 -0.014544 -281931.000000 0 0 1
26.833563 25.571702 -24.210220 44.272867 0.761324 2.149383 0.050009 -0.005725 -10956.100000 0 0 1
27.246563 24.757502 -23.152120 43.489421 0.737572 2.132185 0.046148 -0.008862 62425.700000 0 0 1
28.040663 25.549302 -22.077520 43.891485 0.738942 2.097865 0.038088 0.001821 -31517.100000 0 0 1
27.312563 26.582502 -21.461320 43.740070 0.771853 2.083639 0.031353 0.008585 152283.000000 0 0 1
28.083963 27.317302 -20.516120 44.225051 0.771561 2.053192 0.017594 0.012811 344763.000000 0 0 1
27.162463 28.432202 -19.945520 44.090966 0.808233 2.040220 0.021157 0.018603 -138812.000000 0 0 1
26.260363 27.914402 -19.015420 42.783252 0.815920 2.031367 0.027110 0.016153 -32135.400000 0 0 1
25.416563 28.904602 -18.430120 42.674899 0.849522 2.017364 0.024624 0.012959 614359.000000 0 0 1
24.399163 28.319902 -17.366320 41.218019 0.859632 2.005706 0.031504 0.007399 411779.000000 0 0 1
23.490263 27.422202 -17.977920 40.335781 0.862475 2.032760 0.039534 0.004930 456671.000000 0 0 1
22.309863 27.234402 -17.201520 39.183350 0.884470 2.025283 0.033790 0.009692 355196.000000 0 0 1
21.312863 26.215502 -17.770720 38.174457 0.888186 2.055011 0.032719 -0.000776 -318084.000000 0 0 1
20.736263 26.659202 -18.978120 38.741124 0.909722 2.082737 0.030198 0.003379 -267140.000000 0 0 1
19.895263 25.618502 -19.414820 37.802968 0.910489 2.110147 0.023427 0.007928 -111645.000000 0 0 1
19.147763 25.905802 -20.720620 38.302630 0.934288 2.142388 0.017925 0.011033 196796.000000 0 0 1
18.098663 26.815202 -20.506020 38.302918 0.977088 2.135736 0.004207 0.013572 -645395.000000 0 0 1
17.078163 26.849102 -21.450620 38.375344 1.004269 2.163938 -0.004857 0.013312 61220.000000 0 0 1
15.931463 27.862102 -21.157120 38.441279 1.051373 2.153610 -0.008853 0.015433 187725.000000 0 0 1
15.297363 27.627002 -19.901520 37.327350 1.065109 2.133130 -0.003288 0.013192 20067.700000 0 0 1
14.476763 28.768902 -19.628420 37.716061 1.104585 2.118146 -0.002383 0.005891 9296.210000 0 0 1
13.881763 28.789102 -18.231620 36.795485 1.121499 2.089190 0.013637 0.004369 -159257.000000 0 0 1
12.992463 27.706602 -18.037020 35.521739 1.132312 2.103395 0.014415 0.003829 -99948.200000 0 0 1
12.528463 27.694702 -16.674020 34.669610 1.145967 2.072523 0.030887 0.004679 424474.000000 0 0 1
11.711863 26.372502 -16.407820 33.194776 1.152865 2.087813 0.039460 -0.001291 293992.000000 0 0 1
12.572463 25.234202 -16.376120 32.603820 1.108565 2.097025 0.012400 0.001147 -174640.000000 0 0 1
11.862363 24.060402 -16.090320 31.281256 1.112745 2.111076 0.054361 -0.000391 -519478.000000 0 0 1
12.711363 22.838002 -16.127620 30.712428 1.062909 2.123649 0.021583 0.005985 -566096.000000 0 0 1
13.090463 22.603002 -17.468220 31.422836 1.045851 2.160252 0.022054 0.006871 -746768.000000 0 0 1
13.951263 21.501002 -17.467120 31.016626 0.995219 2.168993 0.024269 0.010654 -667353.000000 0 0 1
13.369963 20.113002 -17.761220 29.979154 0.984127 2.204896 0.035839 0.003661 83527.100000 0 0 1
12.473463 19.712302 -16.722020 28.701709 1.006625 2.192738 0.035202 0.001161 17327.100000 0 0 1
11.957063 18.376602 -16.836320 27.642947 0.993952 2.225676 0.043320 -0.002488 -345798.000000 0 0 1
12.905863 17.181202 -16.965920 27.378777 0.926552 2.239124 0.033716 -0.001995 -501546.000000 0 0 1
13.605763 16.988902 -15.794120 26.892263 0.895530 2.198529 0.024464 -0.000164 392076.000000 0 0 1
14.766763 16.152102 -15.993120 27.105859 0.830174 2.201886 0.036413 -0.002398 189173.000000 0 0 1
15.319363 15.439702 -14.730520 26.268907 0.789310 2.166098 0.063293 0.007351 -650645.000000 0 0 1
16.050063 16.267002 -13.841420 26.717125 0.792111 2.115393 0.033010 0.015568 681122.000000 0 0 1
17.349163 16.714202 -14.200320 27.964390 0.766760 2.103426 0.022067 0.012889 -91465.500000 0 0 1
18.442263 15.763102 -14.716520 28.375489 0.707232 2.116050 0.023114 0.003851 -933564.000000 0 0 1
18.731563 14.666402 -13.817820 27.511942 0.664275 2.096993 0.044197 0.005314 846749.000000 0 0 1
19.571663 15.014902 -12.676920 27.734483 0.654403 2.045507 0.045838 0.004586 363969.000000 0 0 1
20.325963 13.793302 -12.062120 27.365940 0.596222 2.027254 0.061239 -0.008361 11778.900000 0 0 1
19.463463 13.054002 -11.218820 25.982595 0.590785 2.017264 0.087240 -0.010035 379906.000000 0 0 1
20.038763 11.933502 -10.601720 25.619464 0.537120 1.997437 0.097160 -0.001146 -309276.000000 0 0 1
20.321063 10.609502 -11.350120 25.579921 0.481166 2.030533 0.087254 -0.000028 -757964.000000 0 0 1
21.337263 10.878302 -12.314120 26.930536 0.471478 2.045702 0.072680 0.002175 742302.000000 0 0 1
21.876363 9.697802 -12.982520 27.224409 0.417269 2.067887 0.062106 0.003007 107955.000000 0 0 1
22.640763 8.673102 -12.114520 27.103292 0.365831 2.034178 0.056368 0.007792 -547082.000000 0 0 1
21.717163 8.065302 -11.192720 25.728607 0.355592 2.020868 0.058615 0.006522 714676.000000 0 0 1
22.210663 7.049002 -10.321920 25.486153 0.307316 1.987776 0.039545 0.017465 -840391.000000 0 0 1
22.493563 5.659902 -10.977020 25.661057 0.246506 2.012820 0.047070 0.001092 -694254.000000 0 0 1
21.448463 4.866202 -11.426920 24.784894 0.223102 2.049967 0.065592 -0.004913 -153717.000000 0 1 0
20.842863 5.370802 -12.630820 24.956123 0.252194 2.101478 0.050829 -0.010760 -446830.000000 0 1 0
19.856163 4.394802 -13.246120 24.270171 0.217820 2.148113 0.062147 -0.017334 -597340.000000 0 1 0
20.433363 3.279902 -13.843420 24.898200 0.159159 2.160363 0.058022 -0.020401 53396.200000 0 1 0
19.546863 2.192202 -13.950520 24.114365 0.111684 2.187703 0.057256 -0.015816 150075.000000 0 1 0
20.241463 0.961502 -14.672320 25.018359 0.047466 2.197480 0.069695 -0.017432 648431.000000 0 0 1
21.422263 0.486102 -14.007820 25.600169 0.022688 2.149784 0.076289 -0.014914 328522.000000 0 0 1
22.426363 0.141502 -14.901920 26.926362 0.006310 2.157276 0.043364 -0.025347 -742613.000000 0 0 1
22.385163 -1.320298 -15.424420 27.216749 -0.058913 2.173322 0.038494 -0.021029 -471388.000000 0 0 1
21.226563 -1.659998 -16.167320 26.733963 -0.078045 2.220246 0.036799 -0.017260 266444.000000 0 0 1
21.541163 -2.651598 -17.115520 27.640436 -0.122478 2.238546 0.043524 -0.019569 234117.000000 0 0 1
20.266463 -3.218198 -17.812520 27.173005 -0.157479 2.285671 0.038479 -0.021204 -123204.000000 0 0 1
19.615163 -4.095698 -16.950620 26.246007 -0.205845 2.272914 0.052770 -0.023383 172271.000000 0 0 1
18.572563 -4.722198 -17.704620 26.090090 -0.248981 2.316645 0.049113 -0.026978 138051.000000 0 0 1
17.979863 -6.006998 -17.075320 25.513252 -0.322437 2.304026 0.055951 -0.028986 -682104.000000 0 0 1
18.954063 -6.949498 -16.764320 26.241083 -0.351430 2.263809 0.052460 -0.019484 -84395.000000 0 0 1
18.437263 -8.068198 -16.129920 25.791526 -0.412497 2.246435 0.054200 -0.009573 -751630.000000 0 0 1
19.497663 -9.028598 -15.675520 26.596924 -0.433662 2.201079 0.069249 -0.002880 -580700.000000 0 0 1
20.094463 -9.855298 -16.650720 27.895534 -0.455977 2.210423 0.072152 -0.012743 438061.000000 0 0 1
21.013763 -10.714298 -16.002620 28.503653 -0.471513 2.166901 0.076080 -0.020787 -417141.000000 0 0 1
21.583763 -11.759198 -17.010620 29.891450 -0.498855 2.176183 0.073665 -0.018365 351418.000000 0 0 1
22.625963 -11.168698 -17.832620 30.897837 -0.458533 2.186028 0.071774 -0.012075 809772.000000 0 0 1
23.145063 -12.151098 -18.727320 32.156735 -0.483445 2.192445 0.071895 -0.009887 -152696.000000 0 0 1
22.421663 -12.247198 -20.127320 32.524358 -0.499938 2.238059 0.081286 -0.010472 773993.000000 0 0 1
21.052263 -12.638198 -20.182220 31.784333 -0.540658 2.258771 0.080361 -0.017907 516091.000000 0 0 1
20.880063 -14.054198 -20.036020 32.170477 -0.592438 2.243123 0.066053 -0.009184 102530.000000 0 0 1
19.355463 -14.315698 -19.859320 31.208424 -0.636825 2.260547 0.072058 -0.016036 295690.000000 0 0 1
18.643863 -14.058398 -21.034720 31.427562 -0.646088 2.304073 0.072104 -0.008476 -11655.800000 0 0 1
17.267263 -14.370198 -20.875020 30.666389 -0.694082 2.319532 0.072722 -0.012811 278803.000000 0 0 1
16.375563 -13.887498 -22.040920 30.770503 -0.703368 2.369282 0.059655 -0.008933 -202022.000000 0 0 1
16.586463 -14.547698 -23.279920 32.073368 -0.720008 2.383041 0.052911 -0.007373 359221.000000 0 0 1
16.011163 -13.798698 -24.348820 32.243239 -0.711315 2.426695 0.049998 -0.004941 -78066.100000 0 0 1
15.999063 -14.601698 -25.673280 33.590131 -0.739765 2.440767 0.034662 -0.007959 -643305.000000 0 0 1
15.065863 -15.627198 -25.710750 33.648659 -0.803685 2.440433 0.043695 -0.012479 -215241.000000 0 0 1
14.921063 -16.291898 -26.912980 34.819141 -0.829289 2.454252 0.043014 -0.010650 120517.000000 0 0 1
16.037463 -17.345298 -27.190100 36.018900 -0.824555 2.426274 0.048397 -0.014797 293815.000000 0 0 1
17.363063 -16.868998 -27.269620 36.464657 -0.770966 2.415594 0.055479 -0.008426 124418.000000 0 0 1
18.322763 -17.874898 -27.541410 37.600065 -0.773026 2.392758 0.049113 -0.005549 -403122.000000 0 0 1
19.740463 -17.348898 -27.531350 38.061074 -0.721006 2.379433 0.043800 0.002909 -746565.000000 0 0 1
20.259363 -16.834798 -26.304850 37.226299 -0.693338 2.355506 0.054243 0.001707 -22254.800000 0 0 1
21.642363 -16.612098 -26.483560 38.022791 -0.654653 2.341330 0.050325 0.001646 -11902.100000 0 0 1
22.356263 -16.049498 -25.219440 37.328395 -0.622637 2.312588 0.055835 0.002455 133721.000000 0 0 1
22.015963 -14.700398 -24.938320 36.369275 -0.588728 2.326358 0.068105 -0.002090 583011.000000 0 0 1
20.673463 -14.458998 -24.491820 35.161114 -0.610322 2.341388 0.082673 -0.000331 659627.000000 0 0 1
20.637563 -13.184498 -23.621820 34.025437 -0.568504 2.338160 0.082636 0.001719 107800.000000 0 0 1
20.919163 -12.000898 -24.370820 34.286583 -0.520841 2.361428 0.090875 -0.013720 371066.000000 0 0 1
20.427363 -10.899098 -23.624520 33.078474 -0.490129 2.366271 0.091692 -0.007659 50104.200000 0 0 1
20.751863 -9.534998 -24.282220 33.334400 -0.430707 2.386843 0.095477 -0.008601 -237355.000000 0 0 1
20.092763 -8.474398 -23.689920 32.198554 -0.399126 2.397562 0.096991 -0.015079 -124922.000000 0 0 1
20.047163 -7.356198 -24.574620 32.556326 -0.351690 2.426197 0.071727 -0.013306 -844100.000000 0 0 1
19.321763 -6.200698 -23.926020 31.372498 -0.310535 2.438186 0.062162 -0.019271 -915958.000000 0 0 1
18.045063 -6.607098 -23.556320 30.400300 -0.350984 2.457308 0.047706 -0.008882 -671689.000000 0 0 1
17.370463 -5.781098 -22.628620 29.106847 -0.321281 2.461370 0.022783 -0.013733 17790.500000 0 0 1
17.963663 -5.817998 -21.184720 28.378419 -0.313215 2.413595 0.045467 -0.017289 -424882.000000 0 0 1
17.769063 -6.896298 -20.275620 27.828031 -0.370212 2.387078 0.056200 -0.012838 193551.000000 0 0 1
18.161063 -8.160598 -20.750320 28.757527 -0.422310 2.376851 0.070453 -0.012691 -187878.000000 0 0 1
17.828963 -9.256298 -19.633520 28.089608 -0.478867 2.344739 0.064712 -0.012967 -94998.700000 0 0 1
16.439463 -9.380398 -19.478920 27.160194 -0.518523 2.370553 0.046159 -0.011474 -439672.000000 0 0 1
16.126863 -10.575498 -18.738120 26.889292 -0.580420 2.341809 0.054514 -0.013660 -438699.000000 0 0 1
14.639563 -10.682898 -18.350920 25.791421 -0.630400 2.362445 0.063548 -0.016589 -100525.000000 0 0 1
14.203563 -9.868598 -17.271520 24.442501 -0.607226 2.355504 0.065582 -0.014974 104270.000000 0 1 0
14.308963 -8.479898 -17.523020 24.160119 -0.534982 2.382248 0.059400 -0.025533 -966007.000000 0 1 0
13.108563 -7.674398 -17.004120 22.800678 -0.529652 2.412490 0.057831 -0.020308 -438603.000000 0 1 0
11.923463 -7.935598 -17.714720 22.780562 -0.587226 2.461675 0.043409 -0.022543 -910563.000000 0 1 0
11.031263 -6.953798 -17.337220 21.693853 -0.562453 2.496720 0.034349 -0.022732 -266258.000000 0 1 0
9.608763 -7.155898 -17.943020 21.575152 -0.640117 2.552873 0.035192 -0.013830 482288.000000 0 1 0
9.428963 -6.557598 -19.205820 22.377912 -0.607682 2.602644 0.039071 -0.016612 564976.000000 0 1 0
8.053063 -6.169698 -19.342620 21.841565 -0.653745 2.658554 0.039326 -0.026296 979615.000000 0 1 0
7.607363 -5.895598 -20.817820 22.934945 -0.659301 2.708543 0.044604 -0.029672 100224.000000 0 1 0
7.593163 -7.078898 -21.653320 24.013188 -0.750362 2.694542 0.046791 -0.026555 68346.100000 0 1 0
6.888263 -6.735798 -22.849120 24.797206 -0.774208 2.742565 0.058558 -0.028310 162932.000000 0 1 0
6.934863 -7.825898 -23.959320 26.141653 -0.845690 2.730085 0.050706 -0.023980 -566455.000000 0 0 1
6.124763 -8.893098 -23.669320 26.016084 -0.967688 2.713588 0.052442 -0.023087 -316657.000000 0 0 1
5.955463 -9.667198 -24.856220 27.326799 -1.018660 2.713096 0.046717 -0.009793 36017.900000 0 0 1
5.094863 -10.948398 -24.670220 27.467159 -1.135249 2.686389 0.041308 -0.011194 -180461.000000 0 0 1
5.709563 -11.991398 -24.032820 27.458499 -1.126420 2.636731 0.034379 -0.013950 -38537.100000 0 0 1
4.873963 -13.160198 -24.066920 27.859702 -1.216103 2.613682 0.035312 -0.019490 -467024.000000 0 0 1
5.252963 -14.185598 -22.953520 27.489796 -1.216150 2.558899 0.039642 -0.010944 458083.000000 0 0 1
6.375563 -15.043398 -23.268920 28.432275 -1.169933 2.529414 0.052090 -0.007072 636165.000000 0 0 1
7.657863 -14.480198 -23.477420 28.627055 -1.084335 2.532405 0.049310 -0.010184 -10318.500000 0 0 1
8.326263 -13.995198 -22.144620 27.487751 -1.034108 2.507514 0.049235 -0.006791 -608938.000000 0 0 1
8.791963 -15.042398 -21.314620 27.529718 -1.041868 2.456310 0.050195 -0.003552 -107534.000000 0 0 1
7.784463 -15.609098 -20.530420 26.939561 -1.108179 2.437334 0.054037 -0.004482 -179550.000000 0 0 1
8.302263 -15.927098 -19.109420 26.225369 -1.090281 2.387162 0.053361 -0.005039 539447.000000 0 0 1
9.392763 -16.850798 -19.094920 27.143864 -1.062284 2.351066 0.066986 -0.009815 -1562.740000 0 0 1
9.885563 -17.166498 -17.796020 26.629145 -1.048313 2.302706 0.076164 -0.011452 -461549.000000 0 0 1
9.104163 -18.100098 -16.866520 26.362451 -1.104760 2.265026 0.042212 -0.010413 -954272.000000 0 0 1
9.012163 -19.460098 -17.319820 27.566115 -1.137094 2.250164 0.037184 -0.012477 756308.000000 0 0 1
7.962463 -19.755598 -18.261420 28.056442 -1.187665 2.279541 0.046133 -0.003880 1041830.000000 0 0 1
6.460163 -19.509598 -17.908820 27.259567 -1.251032 2.287594 0.045132 0.001741 143587.000000 0 0 1
6.079163 -18.158998 -18.034120 26.304656 -1.247750 2.326206 0.037091 0.001139 137067.000000 0 0 1
4.695263 -18.024198 -17.723220 25.710499 -1.315962 2.331371 0.018641 0.002983 536533.000000 0 0 1
4.208863 -16.555398 -17.590320 24.519688 -1.321841 2.370853 -0.011597 0.016885 49214.300000 0 1 0
4.699463 -15.989698 -16.367920 23.359457 -1.284940 2.347171 -0.014951 0.016286 173284.000000 0 1 0
4.434163 -14.640098 -16.275020 22.335410 -1.276701 2.387166 -0.019719 0.021432 54217.800000 0 1 0
10.586263 30.326702 -18.095020 36.867432 1.234947 2.083819 0.049646 -0.017166 93121.100000 0 0 1
9.518363 29.970002 -18.980720 36.729661 1.263275 2.113868 0.064995 -0.019498 695083.000000 0 0 1
8.635463 28.956002 -18.444820 35.401026 1.280967 2.118848 0.061762 -0.020681 -355654.000000 0 0 1
7.692263 28.527802 -19.479920 35.390305 1.307419 2.153677 0.069986 -0.015471 -1516100.000000 0 0 1
6.770963 29.493102 -19.807220 36.166490 1.345129 2.150371 0.077373 -0.031256 -769204.000000 0 0 1
6.077763 29.065402 -20.956720 36.344476 1.364660 2.185374 0.058577 -0.025498 -341004.000000 0 0 1
5.038463 29.990302 -21.563820 37.280057 1.404348 2.187596 0.060800 -0.031886 -192571.000000 0 0 1
3.885063 30.021302 -20.756420 36.704240 1.442101 2.171841 0.059103 -0.029129 -1041680.000000 0 0 1
2.874063 30.820202 -21.221920 37.530188 1.477813 2.171790 0.046614 -0.034149 -992827.000000 0 0 1
1.506563 30.449102 -20.594820 36.790816 1.521359 2.164918 0.049842 -0.028192 225898.000000 0 0 1
0.973663 29.208802 -21.081620 36.035217 1.537474 2.195711 0.050684 -0.036532 172370.000000 0 0 1
0.495363 29.214202 -22.448420 36.846256 1.553842 2.225905 0.060548 -0.040584 -313558.000000 0 0 1
-0.130337 27.837102 -22.904020 36.048792 -1.566114 2.259273 0.066812 -0.034804 358739.000000 0 0 1
-1.151137 27.450602 -22.003720 35.199778 -1.528886 2.246068 0.068863 -0.037361 -153660.000000 0 0 1
-1.717437 26.213302 -22.367120 34.501810 -1.505372 2.276131 0.068230 -0.040663 449234.000000 0 0 1
-2.897537 25.766202 -21.445120 33.647973 -1.458812 2.261835 0.044781 -0.033869 295030.000000 0 0 1
-4.052437 26.560102 -21.429720 34.367051 -1.419388 2.244077 0.049226 -0.034376 184501.000000 0 0 1
-5.049437 26.038602 -20.559320 33.558773 -1.379253 2.230188 0.044539 -0.029481 258744.000000 0 0 1
-6.081737 27.097602 -20.093620 34.278581 -1.350017 2.197139 0.049692 -0.037112 -629875.000000 0 0 1
-7.245937 26.514202 -19.623120 33.772376 -1.304025 2.190803 0.055677 -0.025775 -926566.000000 0 0 1
-7.928337 27.406802 -18.752520 34.141593 -1.289200 2.152272 0.055716 -0.035198 1099550.000000 0 0 1
-9.241837 26.786602 -18.127120 33.638164 -1.238567 2.139910 0.055768 -0.028294 964932.000000 0 0 1
-8.949437 25.823602 -17.141420 32.261109 -1.237189 2.130971 0.056158 -0.030744 -88037.200000 0 0 1
-10.146337 25.136902 -16.785620 31.883680 -1.187153 2.125233 0.043978 -0.026509 339984.000000 0 0 1
-10.306437 24.414902 -15.417520 30.659583 -1.171353 2.097702 0.052479 -0.014143 -455811.000000 0 0 1
-9.563237 23.254902 -15.369020 29.469523 -1.180642 2.119431 0.051004 -0.011806 -491961.000000 0 0 1
-9.624737 22.629302 -14.088220 28.340763 -1.168653 2.091051 0.054137 -0.006390 -296777.000000 0 0 1
-8.980037 21.245002 -14.151420 27.060190 -1.170884 2.121117 0.053033 -0.000251 -275680.000000 0 0 1
-9.651537 20.083902 -14.650220 26.667288 -1.122821 2.152407 0.057623 -0.001547 -568811.000000 0 0 1
-10.027137 20.169602 -16.037220 27.650475 -1.109438 2.189523 0.061253 0.000002 -120804.000000 0 0 1
-8.998737 19.972902 -17.156220 27.824988 -1.147487 2.235183 0.066001 -0.005700 -286344.000000 0 0 1
-8.501737 18.676302 -17.298620 26.838891 -1.143614 2.271212 0.060819 -0.008359 -627230.000000 0 0 1
-7.635137 18.616502 -18.368020 27.244332 -1.181590 2.310672 0.064341 -0.014969 -409866.000000 0 0 1
-7.029037 17.227302 -18.647220 26.342098 -1.183398 2.357298 0.053734 -0.017767 246796.000000 0 0 1
-7.981837 16.255502 -19.078420 26.304699 -1.114355 2.382246 0.055986 -0.021270 -84719.200000 0 0 1
-7.514537 15.484802 -20.125320 26.481614 -1.118990 2.434068 0.046067 -0.018870 719960.000000 0 0 1
-6.238037 14.574102 -19.932420 25.467998 -1.166369 2.469701 0.037853 -0.016172 477206.000000 0 0 1
-6.489837 13.537802 -19.025420 24.235443 -1.123775 2.473532 0.024904 -0.012004 528564.000000 0 1 0
-5.294837 12.853402 -18.637220 23.250618 -1.180039 2.500729 0.026151 -0.005600 429719.000000 0 1 0
-4.489037 13.389402 -17.473320 22.466519 -1.247306 2.461874 0.026179 0.002432 -409374.000000 0 1 0
-3.871437 14.590202 -17.676920 23.245118 -1.311428 2.434813 0.024961 -0.009774 -643602.000000 0 1 0
-3.211337 15.057902 -16.521220 22.583264 -1.360678 2.391417 0.019091 -0.002246 74967.900000 0 1 0
-2.487537 16.443302 -16.660620 23.540312 -1.420655 2.357102 0.038837 -0.005128 138000.000000 0 1 0
-3.306937 17.561202 -16.782220 24.514783 -1.384667 2.324818 0.032918 -0.010867 -696950.000000 0 1 0
-2.495837 18.678102 -16.859420 25.285188 -1.437959 2.300663 0.037095 -0.010646 -88532.500000 0 0 1
-3.233937 19.978702 -17.268520 26.604674 -1.410319 2.277169 0.048697 -0.016287 153530.000000 0 0 1
-3.629737 19.857202 -18.621020 27.463173 -1.390000 2.315884 0.050678 -0.019432 28976.200000 0 0 1
-4.065337 21.100702 -19.303220 28.885652 -1.380465 2.302668 0.064246 -0.012814 -114642.000000 0 0 1
-2.977237 22.198002 -19.357120 29.602590 -1.437470 2.283524 0.054832 -0.019762 -377484.000000 0 0 1
-1.957737 21.763102 -20.263520 29.800597 -1.481081 2.318518 0.067070 -0.016265 120155.000000 0 0 1
-0.779237 22.554602 -20.240220 30.314746 -1.536261 2.301870 0.059335 -0.019567 219499.000000 0 0 1
0.212663 22.194502 -19.136520 29.306101 1.561215 2.282319 0.070699 -0.019373 -688960.000000 0 0 1
-0.314737 22.269402 -17.809320 28.516613 -1.556664 2.245319 0.069652 -0.019338 119650.000000 0 0 1
0.736263 22.036002 -16.853320 27.751790 1.537397 2.223438 0.079761 -0.021684 682394.000000 0 0 1
0.231763 22.160402 -15.394920 26.984082 1.560338 2.177933 0.081727 -0.025613 328366.000000 0 0 1
-0.653637 21.115302 -14.982320 25.898902 -1.539851 2.187676 0.067238 -0.015757 596.579000 0 0 1
-0.682437 21.091002 -13.569720 25.088511 -1.538451 2.142272 0.081358 -0.013658 43630.000000 0 0 1
-1.587637 19.965102 -13.052920 23.906163 -1.491443 2.148386 0.045493 -0.004790 -108308.000000 0 1 0
-1.221837 18.626402 -13.473420 23.021051 -1.505293 2.196003 0.046078 -0.002239 -679629.000000 0 1 0
-1.909337 17.653402 -12.834620 21.909259 -1.463058 2.196673 0.033115 -0.002252 -329600.000000 0 1 0
-1.292637 16.245302 -13.134520 20.930752 -1.491394 2.249164 0.016580 0.005736 -393065.000000 0 1 0
0.024063 16.042002 -12.707620 20.465337 1.569296 2.240730 0.020538 0.013766 -391347.000000 0 1 0
0.230563 14.656202 -12.373920 19.182578 1.555066 2.271899 0.019667 0.008104 238726.000000 0 1 0
0.782963 13.757802 -13.500920 19.291578 1.513947 2.345963 0.007701 -0.003783 -438568.000000 0 1 0
-0.178237 13.513102 -14.481220 19.807611 -1.557607 2.390720 0.010564 -0.011110 -165424.000000 0 1 0
0.420663 12.737902 -15.523520 20.085089 1.537784 2.454176 0.011528 -0.008777 -114442.000000 0 1 0
-0.340737 12.676502 -16.866120 21.101560 -1.543923 2.496898 0.015132 -0.006414 -133307.000000 0 1 0
-0.353937 13.911002 -17.510320 22.366327 -1.545359 2.470090 0.023785 -0.009948 -189041.000000 0 1 0
-0.593037 13.728802 -18.871120 23.344183 -1.527627 2.512202 0.030932 -0.014628 -307777.000000 0 1 0
-1.061837 15.023602 -19.613120 24.728740 -1.500236 2.486728 0.030583 -0.009728 -827999.000000 0 1 0
-0.133537 16.027502 -19.755320 25.439562 -1.562465 2.459982 0.029626 -0.013099 -1189380.000000 0 0 1
-0.684337 17.263702 -19.957920 26.397392 -1.531177 2.428063 0.051414 -0.019554 -655122.000000 0 0 1
0.321263 18.403302 -20.084220 27.242625 1.553341 2.399765 0.068263 -0.019413 -265632.000000 0 0 1
0.971963 18.320402 -21.324020 28.129978 1.517792 2.431119 0.060653 -0.026495 -549485.000000 0 0 1
1.622763 19.483702 -21.680220 29.193834 1.487700 2.407785 0.059122 -0.023324 -164281.000000 0 0 1
2.237563 19.237702 -23.080120 30.129517 1.455005 2.443439 0.066585 -0.033559 928267.000000 0 0 1
3.333063 18.282002 -23.197520 29.723153 1.390463 2.466186 0.054197 -0.032213 624430.000000 0 0 1
3.546663 18.088602 -24.580920 30.724550 1.377181 2.498161 0.049977 -0.040875 32793.300000 0 0 1
4.474163 16.941802 -24.975620 30.509415 1.312601 2.529801 0.033362 -0.028694 -248668.000000 0 0 1
5.792063 17.032302 -24.437820 30.345582 1.243001 2.507007 0.029190 -0.020372 548854.000000 0 0 1
6.654663 15.965802 -24.856020 30.282224 1.175885 2.533628 0.039397 -0.026350 378065.000000 0 0 1
7.194763 16.085502 -26.306750 31.663119 1.150205 2.551398 0.038488 -0.030613 -540194.000000 0 0 1
8.392063 16.869902 -26.474940 32.495273 1.109185 2.523063 0.025587 -0.023523 537714.000000 0 0 1
8.734763 17.109802 -27.818660 33.807089 1.098774 2.537230 0.029443 -0.026472 107216.000000 0 0 1
9.283863 15.875202 -28.596830 33.999865 1.041626 2.570085 0.029116 -0.028478 149784.000000 0 0 1
10.529463 15.375802 -28.088730 33.708480 0.970340 2.555818 0.033783 -0.030564 491452.000000 0 0 1
10.921663 14.141802 -28.640150 33.756947 0.913178 2.583794 0.035275 -0.025819 -206265.000000 0 0 1
10.470163 12.918902 -27.798080 32.392215 0.889714 2.602494 0.033445 -0.024610 153083.000000 0 0 1
9.055063 12.821202 -27.743680 31.876154 0.955883 2.626726 0.039995 -0.028080 -49479.000000 0 0 1
8.653463 12.268102 -26.512610 30.468135 0.956480 2.626354 0.036884 -0.019955 1113830.000000 0 0 1
7.123563 11.872502 -26.485410 29.886091 1.030373 2.659900 0.032198 -0.020120 1049740.000000 0 0 1
6.268363 12.943202 -26.253610 29.934443 1.119789 2.640456 0.039945 -0.022590 -1214740.000000 0 0 1
4.952463 12.554802 -26.115030 29.396339 1.195068 2.664594 0.043377 -0.024467 -377155.000000 0 0 1
3.788963 13.529302 -26.404630 29.909911 1.297736 2.652598 0.047324 -0.022067 -308594.000000 0 0 1
3.542963 13.715402 -27.778880 31.182223 1.318003 2.670023 0.056244 -0.033753 279275.000000 0 0 1
4.181163 14.831702 -28.424340 32.332718 1.296020 2.644809 0.062509 -0.035257 -22474.900000 0 0 1
4.005263 14.670402 -29.982740 33.618857 1.304275 2.672199 0.073566 -0.035535 336115.000000 0 0 1
4.832363 13.609302 -30.516200 33.760973 1.229605 2.699574 0.067905 -0.039632 367582.000000 0 0 1
4.707763 13.452202 -31.923260 34.960253 1.234155 2.721694 0.073017 -0.038002 -461686.000000 0 0 1
5.757163 12.464802 -32.576240 35.351487 1.138112 2.742710 0.070975 -0.027394 1831490.000000 0 0 1
7.157063 12.873102 -32.526130 35.705594 1.063381 2.716386 0.066628 -0.023721 1488220.000000 0 0 1
7.782363 12.904202 -31.255320 34.698395 1.028110 2.692339 0.053772 -0.023214 -812435.000000 0 0 1
7.897863 11.632702 -30.403800 33.497568 0.974347 2.708428 0.056243 -0.019247 -558743.000000 0 0 1
8.974063 10.795802 -30.734160 33.788633 0.877286 2.713118 0.045542 -0.013438 -302809.000000 0 0 1
8.928863 9.613302 -29.972920 32.718743 0.822294 2.728984 0.041547 -0.010303 104617.000000 0 0 1
9.924563 8.524502 -30.463910 33.154395 0.709655 2.735952 0.034006 -0.009011 601345.000000 0 0 1
11.224463 8.714702 -29.902270 33.107104 0.660186 2.697959 0.042268 -0.014173 -39540.900000 0 0 1
11.903463 7.529502 -29.856100 33.011703 0.564008 2.700790 0.021264 -0.008933 -490283.000000 0 0 1
13.089863 7.474802 -28.837430 32.539431 0.518851 2.659940 0.021391 0.000519 288423.000000 0 0 1
13.714763 6.254402 -28.686000 32.405229 0.427861 2.657779 0.030643 -0.003292 382499.000000 0 0 1
14.685763 5.940102 -29.705580 33.665679 0.384363 2.651671 0.025529 -0.001173 -2824.470000 0 0 1
15.681163 4.798002 -29.349920 33.620492 0.296927 2.632069 0.043523 -0.011097 1550.110000 0 0 1
16.488063 5.064202 -28.250720 33.099933 0.297998 2.593458 0.018929 -0.005327 -32499.500000 0 0 1
17.179863 3.901402 -27.854260 32.957980 0.223304 2.577632 0.027289 -0.010358 -213729.000000 0 0 1
17.830963 3.974402 -26.454240 32.149120 0.219308 2.537223 0.022172 -0.010084 -65989.400000 0 0 1
18.948563 4.827302 -26.488800 32.924268 0.249452 2.505692 0.041827 -0.016962 -4368.260000 0 0 1
19.481763 5.174602 -25.230590 32.293935 0.259618 2.467509 0.042697 -0.014434 413156.000000 0 0 1
20.484763 6.378202 -25.247930 33.132536 0.301849 2.437236 0.036719 -0.014064 -37919.400000 0 0 1
19.893963 7.578902 -25.662060 33.342928 0.363990 2.449074 0.042275 -0.018754 198640.000000 0 0 1
20.834563 8.521502 -26.123710 34.483956 0.388248 2.430365 0.041027 -0.022610 -597434.000000 0 0 1
21.184663 8.431002 -27.663110 35.848562 0.378761 2.452252 0.034648 -0.018792 73500.500000 0 0 1
20.173863 8.609402 -28.677740 36.104284 0.403361 2.488656 0.032961 -0.013569 1099430.000000 0 0 1
19.086163 7.666602 -28.682850 35.295386 0.381957 2.519484 0.025613 -0.009797 871104.000000 0 0 1
17.700263 8.168302 -29.202240 35.111128 0.432359 2.552975 0.021616 -0.002046 326071.000000 0 0 1
17.717963 8.602102 -30.575010 36.369680 0.451982 2.569321 0.011089 0.000210 1540990.000000 0 0 1
16.428863 9.267802 -30.793590 36.111562 0.513617 2.591995 0.002465 0.004910 1395430.000000 0 0 1
15.749163 9.129802 -32.141340 36.938532 0.525360 2.626263 0.002521 0.011236 151.887000 0 0 1
15.210263 7.843202 -32.463240 36.697818 0.476091 2.656452 0.016460 0.009595 -289853.000000 0 0 1
14.045863 8.099702 -33.193620 36.941953 0.523082 2.687215 0.014488 0.005476 -205132.000000 0 0 1
13.321563 6.788102 -33.640150 36.813069 0.471264 2.723364 0.018146 -0.000398 106144.000000 0 0 1
12.906163 5.955002 -32.613620 35.576387 0.432300 2.730591 0.029234 -0.007604 79913.700000 0 0 1
12.128063 4.856002 -33.065380 35.552638 0.380846 2.765318 0.032051 -0.013556 26581.300000 0 0 1
11.934963 3.841702 -31.938350 34.311226 0.311413 2.767508 0.036386 -0.011951 -13808.200000 0 0 1
13.008763 2.972602 -31.627400 34.327201 0.224651 2.742338 0.043880 -0.020403 76006.200000 0 0 1
12.677663 2.076702 -30.603300 33.190327 0.162366 2.744152 0.050963 -0.017032 380989.000000 0 0 1
11.783463 0.812502 -31.018100 33.190853 0.068844 2.777754 0.051768 -0.010152 619122.000000 0 0 1
12.438963 -0.309198 -31.567860 33.931596 -0.024852 2.766130 0.049628 -0.016044 200389.000000 0 0 1
13.347163 -1.076998 -30.757210 33.545680 -0.080517 2.730977 0.049317 -0.020986 556903.000000 0 0 1
13.813863 -2.370498 -31.438890 34.421590 -0.169948 2.722228 0.044057 -0.026034 -155515.000000 0 0 1
12.945563 -3.480398 -31.408100 34.149224 -0.262638 2.738191 0.054451 -0.020742 -256244.000000 0 0 1
13.394863 -4.607998 -32.098850 35.085498 -0.331331 2.725995 0.061214 -0.017967 -493886.000000 0 0 1
12.562963 -5.857498 -31.885030 34.767707 -0.436286 2.731509 0.065811 -0.015605 -498993.000000 0 0 1
12.817363 -6.622098 -30.682340 33.904911 -0.476879 2.702065 0.067328 -0.013757 303915.000000 0 0 1
12.277963 -7.939198 -30.794610 34.089401 -0.573997 2.698310 0.075886 -0.022886 42864.700000 0 0 1
12.603763 -8.780798 -29.493750 33.254151 -0.608495 2.661429 0.053369 -0.020490 -1797580.000000 0 0 1
13.952963 -8.930898 -29.424520 33.767566 -0.569364 2.628813 0.051568 -0.017813 -1237850.000000 0 0 1
14.407963 -9.605198 -28.208240 33.099155 -0.587997 2.591038 0.058806 -0.014319 68584.600000 0 0 1
14.277863 -11.132298 -28.303490 33.598705 -0.662233 2.572515 0.041826 -0.009837 -861186.000000 0 0 1
13.009863 -11.677798 -28.346510 33.303936 -0.731494 2.588961 0.028795 -0.016712 -613512.000000 0 0 1
13.235663 -13.031498 -28.303990 33.854373 -0.777626 2.560842 0.028452 -0.027126 274373.000000 0 0 1
-10.195837 -2.596998 -17.741420 20.626621 0.249408 2.606306 0.011087 -0.000533 -611867.000000 0 1 0
-10.884437 -2.201298 -18.831020 21.861473 0.199551 2.608775 0.006509 -0.004191 -413876.000000 0 1 0
-11.545937 -3.320098 -19.420320 22.835949 0.280001 2.587594 -0.005952 0.003708 -561197.000000 0 1 0
-12.491137 -2.781598 -20.502920 24.168896 0.219111 2.583598 -0.003151 -0.014418 299715.000000 0 1 0
-13.639737 -2.017398 -20.074820 24.353865 0.146841 2.539756 -0.001865 -0.007714 798123.000000 0 1 0
-14.452837 -1.681898 -21.185020 25.700552 0.115850 2.539765 -0.000781 -0.007272 280997.000000 0 0 1
-15.105937 -0.272998 -21.218620 26.047912 0.018070 2.522835 0.002995 -0.007990 79694.900000 0 0 1
-14.271237 0.790002 -21.636520 25.931281 -0.055300 2.557802 0.009498 -0.019459 -322913.000000 0 0 1
-14.943237 1.977202 -21.443420 26.211256 -0.131550 2.528895 0.004427 -0.016202 -260668.000000 0 0 1
-14.299737 3.238602 -22.146620 26.560193 -0.222722 2.556802 0.021535 -0.027185 -550719.000000 0 0 1
-13.187537 3.648802 -21.450720 25.443237 -0.269933 2.573784 0.023944 -0.025232 -563984.000000 0 0 1
-12.612837 4.860602 -21.989620 25.811868 -0.367831 2.590435 0.029040 -0.029074 219599.000000 0 0 1
-11.671837 5.672002 -21.009920 24.694537 -0.452350 2.588287 0.025359 -0.026000 343047.000000 0 1 0
-12.270637 6.169502 -19.800120 24.097221 -0.465874 2.535143 0.041300 -0.025990 291122.000000 0 1 0
-11.326037 6.303902 -18.763220 22.805191 -0.507885 2.537048 0.026492 -0.022381 228625.000000 0 1 0
-12.022137 6.924502 -17.519120 22.347261 -0.522570 2.471798 0.059108 -0.016249 255009.000000 0 1 0
-12.379937 8.288502 -17.712820 23.145326 -0.589969 2.442284 0.051785 -0.012918 -63850.700000 0 1 0
-13.244237 8.703002 -16.711820 23.031218 -0.581362 2.382726 0.050006 -0.012981 -471286.000000 0 1 0
-13.640437 10.208002 -16.905320 24.001139 -0.642453 2.352310 0.046311 -0.003636 -13429.300000 0 1 0
-12.707837 11.113302 -16.334120 23.490383 -0.718560 2.339708 0.015144 0.017397 182024.000000 0 1 0
-13.238937 12.416102 -16.405420 24.465626 -0.753336 2.305746 0.021779 -0.000681 -204655.000000 0 1 0
-12.524437 13.548002 -15.646420 24.191328 -0.824636 2.274149 0.036939 0.007467 -601767.000000 0 1 0
-12.702837 13.499802 -14.280420 23.399511 -0.815804 2.227219 0.063006 -0.001948 -116330.000000 0 1 0
-12.312637 14.633902 -13.588020 23.460316 -0.871329 2.188533 0.065192 -0.009956 -1142650.000000 0 1 0
-12.951037 14.675102 -12.235620 23.082426 -0.847724 2.129496 0.055839 -0.016953 328428.000000 0 1 0
-14.320437 15.041602 -12.129020 24.050735 -0.809954 2.099379 0.048965 -0.011348 145971.000000 0 1 0
-15.225337 14.065702 -12.571120 24.242276 -0.745829 2.115964 0.047440 -0.011140 -570528.000000 0 1 0
-16.621237 14.340602 -11.922220 24.981148 -0.711871 2.068318 0.030889 -0.005572 411158.000000 0 1 0
-17.686537 13.572602 -12.439120 25.529607 -0.654543 2.079726 0.027631 -0.011690 1339340.000000 0 0 1
-18.907437 13.684702 -11.642020 26.082540 -0.626504 2.033482 0.050946 -0.012509 1306840.000000 0 0 1
-20.202537 13.312902 -12.414020 27.193451 -0.582656 2.044862 0.039181 -0.018993 -132319.000000 0 0 1
-20.400637 11.906502 -12.315520 26.638747 -0.528299 2.051402 0.045337 -0.017661 279155.000000 0 0 1
-21.507137 11.607502 -13.144720 27.750220 -0.494905 2.064261 0.063103 -0.012079 -315560.000000 0 0 1
-22.199637 10.327502 -12.601220 27.536738 -0.435431 2.046107 0.056024 -0.010299 -323784.000000 0 0 1
-21.392637 9.168402 -12.624120 26.477782 -0.404897 2.067786 0.056728 -0.016322 159531.000000 0 0 1
-22.063537 8.129502 -12.083420 26.436670 -0.353024 2.045495 0.054321 -0.013114 -473314.000000 0 0 1
-21.027937 7.042902 -11.716720 25.081032 -0.323187 2.056866 0.074500 -0.016552 109173.000000 0 0 1
-20.583437 6.370702 -12.930920 25.129115 -0.300155 2.111313 0.068587 -0.014143 310353.000000 0 0 1
-19.481937 5.539702 -12.690020 23.901272 -0.277038 2.130500 0.068357 -0.018403 -272801.000000 0 1 0
-19.314437 4.379302 -13.734520 24.101096 -0.222967 2.177145 0.071108 -0.024994 -150183.000000 0 1 0
-20.307737 3.399002 -13.563020 24.655891 -0.165838 2.153271 0.064801 -0.025560 379372.000000 0 1 0
-20.078037 2.235802 -14.484420 24.858094 -0.110899 2.192824 0.063828 -0.029731 313318.000000 0 1 0
-20.975837 1.042402 -14.030920 25.257456 -0.049655 2.159780 0.059650 -0.029827 34440.800000 0 0 1
-22.214237 0.914502 -14.674220 26.639095 -0.041144 2.154182 0.062239 -0.022522 45482.000000 0 0 1
-22.786537 -0.377798 -14.410820 26.963693 0.016578 2.134656 0.057606 -0.027502 -420176.000000 0 0 1
-24.085937 -0.555098 -15.193320 28.482934 0.023042 2.133433 0.057410 -0.014932 -298381.000000 0 0 1
-25.205917 0.050102 -14.572620 29.115323 -0.001988 2.094988 0.076520 -0.025342 605295.000000 0 0 1
-26.428477 -0.327598 -15.244520 30.511754 0.012395 2.093965 0.072669 -0.018218 671415.000000 0 0 1
-27.620137 0.158602 -14.396720 31.147435 -0.005742 2.051284 0.074251 -0.017640 -376972.000000 0 0 1
-27.938517 -0.760398 -13.357720 30.976889 0.027210 2.016636 0.089723 -0.024744 971010.000000 0 0 1
-29.168357 -0.349898 -12.711820 31.819898 0.011995 1.981760 0.107662 -0.030014 945904.000000 0 0 1
-29.344677 -0.998698 -11.306020 31.463210 0.034020 1.938358 0.099589 -0.036921 -275256.000000 0 0 1
-29.598407 -2.391298 -11.142520 31.716554 0.080616 1.929772 0.101297 -0.030866 333184.000000 0 0 1
-28.611777 -3.274298 -11.612120 31.051508 0.113943 1.954075 0.105517 -0.027068 -457994.000000 0 0 1
-28.836857 -4.718398 -11.185220 31.287966 0.162187 1.936378 0.102741 -0.029664 553612.000000 0 0 1
-29.971457 -5.300398 -11.876520 32.671612 0.175038 1.942831 0.096216 -0.027756 1068040.000000 0 0 1
-30.407867 -6.584298 -11.385920 33.130508 0.213241 1.921617 0.102742 -0.023103 255534.000000 0 0 1
-29.517687 -7.778598 -11.885820 32.757796 0.257665 1.942110 0.097352 -0.025242 -357444.000000 0 0 1
-28.229447 -7.809298 -11.359920 31.415516 0.269887 1.940782 0.081781 -0.026490 -407508.000000 0 0 1
-27.444307 -8.716198 -12.129420 31.245559 0.307521 1.969470 0.090083 -0.025914 -151385.000000 0 0 1
-25.943627 -8.758798 -11.814120 29.822169 0.325594 1.978119 0.086137 -0.030980 -731581.000000 0 0 1
-25.244337 -7.625798 -12.262320 29.082536 0.293364 2.006048 0.078375 -0.030256 469594.000000 0 0 1
-23.851037 -7.591798 -12.006720 27.760921 0.308161 2.018065 0.067349 -0.029413 24800.800000 0 0 1
-23.447837 -7.318998 -10.561720 26.737965 0.302556 1.976873 0.048293 -0.023358 -714821.000000 0 0 1
-23.827937 -6.096898 -9.915520 26.519056 0.250497 1.954009 0.056370 -0.015759 997179.000000 0 0 1
-25.228627 -6.081198 -9.614620 27.674998 0.236531 1.925606 0.069320 -0.024237 208664.000000 0 0 1
-25.632327 -4.778498 -8.866020 27.540090 0.184309 1.898565 0.081946 -0.033888 -326559.000000 0 0 1
-25.150587 -4.591098 -7.557820 26.659912 0.180556 1.858228 0.059909 -0.026613 563069.000000 0 0 1
-25.588557 -3.259298 -7.170220 26.773296 0.126691 1.841918 0.091808 -0.025659 84104.700000 0 0 1
-25.379087 -2.984398 -5.678320 26.177243 0.117055 1.789453 0.078779 -0.020389 220317.000000 0 0 1
-24.019637 -2.986498 -5.242020 24.765721 0.123701 1.784074 0.039491 -0.009669 494693.000000 0 1 0
-23.824937 -2.945198 -3.886920 24.318922 0.122994 1.731316 0.022252 -0.007631 -46690.400000 0 1 0
-22.487837 -3.520498 -3.388920 23.012638 0.155291 1.718597 0.013293 -0.002077 -38352.900000 0 1 0
-22.563937 -4.920398 -3.295820 23.328181 0.214704 1.712551 0.030262 -0.006108 -58434.300000 0 1 0
-21.397937 -5.419598 -2.729720 22.241743 0.248060 1.693836 0.021870 -0.009415 -530552.000000 0 1 0
-21.470237 -6.979598 -2.585920 22.723839 0.314307 1.684841 0.029430 -0.003800 274384.000000 0 1 0
-22.454237 -7.319398 -1.606620 23.671662 0.315109 1.638720 0.053664 -0.000174 611454.000000 0 1 0
-22.966137 -8.621398 -1.788220 24.596132 0.359118 1.643564 0.045539 0.000222 -46384.900000 0 1 0
-23.054137 -9.322198 -0.454220 24.871730 0.384260 1.589060 0.034470 -0.009787 198334.000000 0 1 0
-21.783937 -9.706898 0.039880 23.848803 0.419188 1.569124 0.011358 -0.000417 273888.000000 0 1 0
-21.903937 -10.520698 1.219580 24.330124 0.447773 1.520649 -0.006262 0.002138 327421.000000 0 1 0
-20.582137 -11.172998 1.717380 23.482114 0.497337 1.497595 -0.004954 -0.001072 233171.000000 0 1 0
-20.037637 -12.231998 0.946080 23.495186 0.548069 1.530518 0.004105 0.011356 702919.000000 0 1 0
-18.885537 -12.788598 1.582180 22.862963 0.595235 1.501538 -0.017749 0.010527 209402.000000 0 1 0
-18.225737 -13.933798 0.841880 22.957286 0.652724 1.534117 -0.009374 0.017755 -305524.000000 0 1 0
-19.012637 -15.098398 0.988080 24.298525 0.671148 1.530121 0.003797 0.020569 538425.000000 0 1 0
-18.404537 -16.229098 0.362980 24.540627 0.722668 1.556005 0.001042 0.015930 332131.000000 0 1 0
-17.243037 -16.929998 1.135780 24.191676 0.776238 1.523830 -0.000933 0.016630 -279297.000000 0 1 0
-16.055637 -16.180698 1.164180 22.824412 0.789278 1.519768 0.001992 0.011351 -152344.000000 0 1 0
-15.021537 -16.883598 1.813180 22.671350 0.843694 1.490734 0.010264 0.011219 5665.050000 0 1 0
-14.902937 -16.798698 3.348480 22.704760 0.845127 1.422777 0.014427 0.007332 -435972.000000 0 1 0
-14.938537 -15.475798 3.762180 21.836076 0.803061 1.397640 0.008709 0.008214 108376.000000 0 1 0
-14.301737 -15.207598 5.022180 21.471680 0.816086 1.334712 0.005882 0.005926 -290683.000000 0 1 0
-14.904337 -15.592198 6.358980 22.487609 0.807950 1.284108 0.018782 0.002493 -609720.000000 0 1 0
-15.767737 -14.638798 6.994880 22.623976 0.748287 1.256466 0.017499 0.003389 492103.000000 0 1 0
-16.036137 -14.953198 8.387680 23.475711 0.750467 1.205430 0.021858 0.006441 168849.000000 0 1 0
-16.864537 -16.235698 8.761680 24.995551 0.766402 1.212660 0.013729 0.008410 -212955.000000 0 1 0
-16.165137 -17.452298 8.550280 25.278482 0.823668 1.225747 0.015720 0.005385 62166.400000 0 0 1
-16.867337 -18.677198 8.894080 26.691749 0.836272 1.231085 0.021438 0.005336 164095.000000 0 0 1
-16.683337 -19.109998 10.386680 27.411839 0.853091 1.182176 0.027822 0.006462 -641474.000000 0 0 1
-15.357337 -19.470098 10.582880 26.961637 0.902943 1.167431 0.019391 0.007678 -764490.000000 0 0 1
-15.204437 -19.716898 12.011580 27.644331 0.913904 1.121309 0.023549 0.001668 1010400.000000 0 0 1
-13.818937 -20.357998 12.409180 27.557193 0.974443 1.103688 0.020786 0.004856 1979290.000000 0 0 1
-12.611537 -19.616598 12.095880 26.271127 0.999428 1.092323 0.004218 0.004492 787037.000000 0 0 1
-11.466437 -20.430198 12.350280 26.483987 1.059357 1.085659 -0.000604 0.005710 159247.000000 0 0 1
-10.208737 -19.602298 12.545780 25.413874 1.090653 1.054505 0.006024 0.002011 -384822.000000 0 0 1
-9.700437 -18.865998 11.477680 24.119733 1.095873 1.074852 0.007125 -0.001878 -356689.000000 0 1 0
-8.589237 -18.098298 11.887980 23.294795 1.127684 1.035230 0.015454 -0.003278 -59675.500000 0 1 0
-7.767937 -17.384598 10.779880 21.880834 1.150583 1.055649 0.009045 -0.010291 29998.500000 0 1 0
-6.940137 -18.211998 10.010580 21.910137 1.206710 1.096298 0.015423 -0.010672 -432422.000000 0 1 0
-6.191537 -17.473498 9.077980 20.641414 1.230261 1.115427 0.020521 -0.010130 -69344.000000 0 1 0
-5.127237 -18.325898 8.340180 20.777048 1.297991 1.157737 0.022928 -0.009569 58826.100000 0 1 0
-3.939337 -18.380398 9.080780 20.876254 1.359668 1.120779 0.044549 -0.008975 -174405.000000 0 1 0
-2.863337 -19.030898 8.398680 20.997895 1.421459 1.159304 0.050272 -0.013575 967413.000000 0 1 0
-1.496737 -19.070398 9.128780 21.195635 1.492472 1.125537 0.049995 -0.021939 657625.000000 0 1 0
-0.505737 -19.820298 8.427580 21.543539 1.545286 1.168874 0.058307 -0.004314 -435400.000000 0 1 0
0.676063 -19.895898 9.180480 21.922250 -1.536829 1.138701 0.058204 -0.011589 245443.000000 0 1 0
1.899063 -20.292698 8.284380 22.000704 -1.477485 1.184726 0.054718 -0.026112 378451.000000 0 1 0
1.929763 -21.660298 7.826280 23.111537 -1.481939 1.225335 0.062448 -0.022194 -299804.000000 0 1 0
2.262663 -22.623598 8.790280 24.376543 -1.471114 1.201881 0.061522 -0.020940 -134853.000000 0 1 0
2.023163 -24.054498 8.295880 25.525158 -1.486886 1.239776 0.064193 -0.019477 48867.600000 0 0 1
1.933863 -24.986398 9.276480 26.722893 -1.493554 1.216281 0.049058 -0.009908 -363775.000000 0 0 1
1.440863 -26.185728 8.782480 27.656833 -1.515827 1.247650 0.051831 -0.012002 -634814.000000 0 0 1
1.565163 -27.302728 9.819680 29.057096 -1.513533 1.226065 0.045834 -0.001920 356737.000000 0 0 1
0.781963 -27.165568 10.987780 29.314005 -1.542019 1.186583 0.038035 -0.005066 -235328.000000 0 0 1
-0.613037 -27.331228 10.866480 29.418569 1.548370 1.192460 0.025168 0.003154 -43535.200000 0 0 1
-1.243937 -27.439218 12.245280 30.073326 1.525493 1.151431 0.026010 -0.001644 -182650.000000 0 0 1
-0.711137 -28.526688 12.906580 31.318644 1.545873 1.146033 0.020249 -0.004406 -69427.400000 0 0 1
-1.199637 -28.538958 14.239780 31.916807 1.528786 1.108334 0.020276 -0.009990 -373052.000000 0 0 1
-0.538237 -29.683758 15.068980 33.293984 1.552666 1.101113 0.014884 0.000381 90983.600000 0 0 1
-0.954137 -29.619368 16.407380 33.873580 1.538594 1.065152 0.019624 -0.000520 -206262.000000 0 0 1
-0.496737 -30.689768 17.108180 35.139699 1.554612 1.062303 0.016821 -0.000065 -172848.000000 0 0 1
-0.763637 -30.540888 18.653680 35.795094 1.545798 1.022629 0.030952 -0.004239 -38709.600000 0 0 1
-2.125337 -30.709958 18.949880 36.148534 1.501700 1.018994 0.015543 -0.003829 -317407.000000 0 0 1
-2.431037 -30.603068 20.314180 36.812004 1.491525 0.986232 0.034217 -0.008262 -1186300.000000 0 0 1
-3.900837 -30.683468 20.614780 37.170699 1.444343 0.982917 0.050759 -0.019183 -1104780.000000 0 0 1
-4.627537 -29.615918 19.990480 36.029654 1.415798 0.982633 0.029917 -0.020407 26734.600000 0 0 1
-5.940037 -29.507038 20.492380 36.412731 1.372142 0.973050 0.040199 -0.028392 79549.000000 0 0 1
-6.081837 -28.315908 21.400780 36.010731 1.359226 0.934415 0.065435 -0.031671 128916.000000 0 0 1
-5.196037 -28.471358 22.534480 36.679965 1.390282 0.909229 0.066403 -0.031490 463874.000000 0 0 1
-5.261637 -27.436058 23.480080 36.492962 1.381319 0.871847 0.075682 -0.032626 -371565.000000 0 0 1
-4.269137 -27.662638 24.682880 37.318784 1.417676 0.848104 0.088442 -0.036292 238114.000000 0 0 1
-4.440137 -28.858908 25.458780 38.738880 1.418137 0.853713 0.083876 -0.029565 68889.500000 0 0 1
-3.979937 -30.056758 24.845580 39.198870 1.439148 0.884296 0.078677 -0.031115 -152450.000000 0 0 1
-4.257337 -31.340818 25.684380 40.743824 1.435783 0.888745 0.076686 -0.030932 -98155.500000 0 0 1
-3.514337 -31.343868 26.885780 41.444346 1.459141 0.864895 0.080888 -0.026699 154032.000000 0 0 1
-3.746837 -32.486218 27.661380 42.831590 1.455967 0.868703 0.081163 -0.023610 -69737.300000 0 0 1
-3.320337 -32.319448 29.133180 43.638441 1.468421 0.839811 0.090547 -0.021631 545876.000000 0 0 1
-1.907337 -32.343428 29.348980 43.716106 1.511893 0.834762 0.084432 -0.027598 749494.000000 0 0 1
-1.464237 -32.197348 30.722880 44.527616 1.525351 0.809344 0.078073 -0.026946 115187.000000 0 0 1
-28.022987 3.241102 -10.496420 30.099293 -0.115147 1.927008 0.083759 -0.026928 455481.000000 0 0 1
-29.028337 2.902302 -11.475720 31.349001 -0.099651 1.945572 0.080839 -0.041634 668170.000000 0 0 1
-29.696607 4.077602 -11.900520 32.251166 -0.136455 1.948724 0.061971 -0.032946 -271827.000000 0 0 1
-30.485197 3.835302 -13.192920 33.438151 -0.125151 1.976371 0.071066 -0.026629 -221596.000000 0 0 1
-31.554987 2.931802 -13.065420 34.278534 -0.092645 1.961841 0.087252 -0.030629 -337588.000000 0 0 1
-32.321177 2.870102 -14.195120 35.417474 -0.088567 1.983180 0.095447 -0.028849 -453261.000000 0 0 1
-33.599507 2.059002 -13.902620 36.420451 -0.061204 1.962459 0.088206 -0.026697 -175177.000000 0 0 1
-33.294297 0.697202 -13.880720 36.078674 -0.020938 1.965717 0.083097 -0.021728 -46545.600000 0 0 1
-34.277969 -0.067998 -13.253120 36.750905 0.001984 1.939729 0.078134 -0.027526 -388872.000000 0 0 1
-33.665387 -1.375298 -12.817520 36.049114 0.040829 1.934306 0.065127 -0.028921 -934.429000 0 0 1
-33.511067 -2.341198 -13.798620 36.316316 0.069750 1.960546 0.063187 -0.025084 115820.000000 0 0 1
-33.203567 -3.565298 -13.117020 35.878189 0.106967 1.945072 0.069929 -0.024917 96363.800000 0 0 1
-33.406607 -4.804298 -13.981720 36.531784 0.142833 1.963543 0.062301 -0.024160 77400.000000 0 0 1
-33.287627 -6.008898 -13.264420 36.333426 0.178591 1.944510 0.060399 -0.020736 16132.800000 0 0 1
-33.832957 -7.155998 -13.898420 37.269873 0.208438 1.952943 0.059225 -0.024689 -335051.000000 0 0 1
-33.581287 -8.525598 -13.120420 37.047728 0.248627 1.932800 0.067060 -0.026500 1407740.000000 0 0 1
-32.220077 -9.065298 -13.169220 35.968617 0.274265 1.945644 0.065669 -0.022731 1651980.000000 0 0 1
-31.813317 -9.537798 -14.450420 36.219765 0.291278 1.981184 0.055034 -0.020611 83255.700000 0 0 1
-30.446967 -10.281798 -14.357720 35.197689 0.325671 1.990967 0.055963 -0.020024 276518.000000 0 0 1
-30.685797 -11.574098 -13.849820 35.600498 0.360681 1.970380 0.053291 -0.017573 1125820.000000 0 0 1
-29.471847 -12.330598 -13.599920 34.721626 0.396255 1.973258 0.063243 -0.020735 685879.000000 0 0 1
-29.529047 -13.818898 -14.028020 35.492421 0.437702 1.977125 0.064884 -0.020438 -199318.000000 0 0 1
-29.452847 -13.906698 -15.447020 36.048258 0.441135 2.013639 0.056436 -0.021206 32819.000000 0 0 1
-29.501097 -15.275698 -15.877620 36.820654 0.477787 2.016635 0.059283 -0.024669 488002.000000 0 0 1
-28.316087 -16.283898 -15.568520 36.184872 0.521891 2.015565 0.037214 -0.015626 909941.000000 0 0 1
-27.123957 -15.958798 -16.276620 35.430505 0.531821 2.048111 0.043788 -0.022370 -69641.100000 0 0 1
-26.177027 -16.995998 -16.249520 35.187322 0.575863 2.050820 0.045368 -0.024676 897918.000000 0 0 1
-24.822337 -16.662398 -16.997320 34.390302 0.591180 2.087765 0.036885 -0.028842 1059610.000000 0 0 1
-25.039317 -16.569998 -18.412420 35.221435 0.584597 2.120884 0.056733 -0.032343 900914.000000 0 0 1
-23.764737 -16.313298 -19.038620 34.544978 0.601574 2.154509 0.033796 -0.022996 227451.000000 0 0 1
-23.980537 -15.686998 -20.440020 35.198615 0.579291 2.190391 0.055089 -0.029635 -277397.000000 0 0 1
-24.560937 -16.464998 -21.379520 36.488624 0.590564 2.196815 0.062524 -0.036569 -538770.000000 0 0 1
-25.952427 -16.562698 -21.271920 37.421198 0.568031 2.175412 0.074633 -0.039397 -921684.000000 0 0 1
-26.588677 -17.721498 -22.042420 38.818521 0.587891 2.174667 0.079610 -0.038123 -349764.000000 0 0 1
-26.328247 -17.647698 -23.425620 39.412911 0.590510 2.207271 0.079665 -0.025946 -94221.800000 0 0 1
-26.914697 -18.658098 -24.189220 40.714174 0.606168 2.206971 0.062739 -0.017777 96105.500000 0 0 1
-26.061117 -19.013598 -25.486400 41.112715 0.630302 2.239431 0.069255 -0.014761 943391.000000 0 0 1
-24.759937 -19.571398 -25.383490 40.502046 0.668888 2.248135 0.079355 -0.019764 263174.000000 0 0 1
-24.683237 -20.944098 -24.996120 40.898942 0.703631 2.228332 0.060020 -0.013082 659965.000000 0 0 1
-23.176137 -21.329498 -24.737420 40.050229 0.743930 2.236560 0.049947 -0.006347 1330480.000000 0 0 1
-22.387837 -21.369598 -25.928930 40.375542 0.762132 2.268153 0.043679 -0.012819 -953699.000000 0 0 1
-21.055537 -21.592198 -25.644850 39.588092 0.797981 2.275479 0.036450 -0.015264 -554127.000000 0 0 1
-20.117737 -21.179098 -26.820960 39.656544 0.811093 2.313567 0.024983 -0.018457 -157793.000000 0 0 1
-20.065437 -22.170698 -27.838970 40.855476 0.835202 2.320472 0.028061 -0.008280 261041.000000 0 0 1
-20.842937 -21.840498 -29.008430 41.867940 0.808765 2.336238 0.040336 -0.009026 -35675.000000 0 0 1
-20.041837 -22.110798 -30.271550 42.507992 0.834441 2.363335 0.038614 -0.016023 1661.820000 0 0 1
-20.000137 -23.490598 -30.690020 43.516561 0.865484 2.353571 0.037339 -0.021067 -22323.200000 0 0 1
-19.623837 -23.619898 -32.055030 44.390535 0.877544 2.377650 0.033628 -0.019501 199809.000000 0 0 1
-19.008537 -25.002198 -32.524070 45.213378 0.920752 2.373657 0.037036 -0.013515 402563.000000 0 0 1
-18.346737 -24.974098 -33.786870 45.846057 0.937204 2.399363 0.038560 -0.012095 660455.000000 0 0 1
-19.285937 -24.820398 33.777651 46.140321 0.910226 0.749450 0.036409 -0.006422 612396.000000 0 0 1
-18.509837 -24.841298 32.425102 44.845194 0.930423 0.762596 0.036901 -0.003555 270490.000000 0 0 1
-17.750737 -23.672098 32.172732 43.709742 0.927385 0.743574 0.031313 -0.006677 -31956.600000 0 0 1
-17.058837 -23.646598 30.940742 42.514645 0.945847 0.755736 0.037514 0.000184 26204.200000 0 0 1
-16.342437 -22.323998 30.645842 41.286847 0.938878 0.734350 0.032838 0.003999 -75710.100000 0 0 1
-17.171037 -21.208398 30.315212 40.787899 0.890209 0.732896 0.030028 -0.004405 222530.000000 0 0 1
-16.439837 -19.977898 30.072822 39.670635 0.882246 0.710459 0.026277 -0.004790 188464.000000 0 0 1
-15.812437 -19.257298 31.354972 40.050106 0.883313 0.671493 0.028852 -0.004943 284351.000000 0 0 1
-14.954937 -18.196998 31.008592 38.939872 0.882882 0.649610 0.032356 -0.012274 38722.300000 0 0 1
-14.471837 -17.448098 32.101552 39.298598 0.878371 0.614846 0.029453 -0.011800 -39792.800000 0 0 1
-13.851237 -16.078198 31.732372 38.174712 0.859668 0.589461 0.035966 -0.013166 -537247.000000 0 0 1
-12.681337 -16.074198 30.968042 37.124329 0.902845 0.584168 0.046703 -0.017191 -218266.000000 0 0 1
-12.429837 -14.752498 30.454372 36.050046 0.870639 0.564642 0.039902 -0.018313 -711036.000000 0 0 1
-10.988037 -14.651098 29.993862 35.142900 0.927308 0.548164 0.045381 -0.020043 -675578.000000 0 0 1
-10.665137 -13.307498 30.011012 34.518046 0.895179 0.516750 0.055272 -0.019169 -152823.000000 0 0 1
-9.271037 -13.190698 30.223222 34.254778 0.958162 0.490055 0.052494 -0.019761 125180.000000 0 0 1
-8.815137 -11.703498 30.206172 33.572181 0.925247 0.451627 0.052962 -0.017884 -264109.000000 0 0 1
-9.380837 -10.935298 31.231412 34.394504 0.861763 0.432227 0.052371 -0.010956 73265.400000 0 0 1
-9.076737 -9.525198 31.134822 33.800794 0.809502 0.399831 0.041156 -0.003903 -190347.000000 0 0 1
-9.796537 -8.709598 32.211142 34.776240 0.726732 0.386484 0.023022 -0.004724 11369.900000 0 0 1
-11.139337 -8.468898 31.828492 34.768664 0.650041 0.414206 0.030879 -0.011449 93851.700000 0 0 1
-12.032637 -7.959398 32.795157 35.828183 0.584406 0.414432 0.019862 -0.010936 64098.400000 0 0 1
-11.888437 -6.508798 33.292669 35.945809 0.500914 0.386615 0.016338 0.002338 -381401.000000 0 0 1
-11.889537 -5.490798 32.332402 34.884010 0.432638 0.384851 0.021711 -0.003345 246575.000000 0 0 1
-12.218837 -4.267098 32.913801 35.367024 0.335982 0.374651 0.014585 -0.009337 -186048.000000 0 0 1
-11.784937 -3.047698 32.017072 34.252972 0.253065 0.363315 0.011988 0.004782 766489.000000 0 0 1
-10.367837 -2.825598 31.953062 33.711633 0.266073 0.324423 0.012711 -0.000108 744931.000000 0 0 1
-10.183837 -1.653598 31.218052 32.878742 0.160970 0.319188 0.005564 -0.000725 -1196420.000000 0 0 1
-8.786137 -1.136598 31.049692 32.288875 0.128648 0.277943 0.017593 0.001056 -968541.000000 0 0 1
-8.318637 -0.808698 32.350722 33.412915 0.096911 0.252823 0.017862 -0.012186 -290605.000000 0 0 1
-6.986837 -0.354098 32.342972 33.090922 0.050637 0.213019 0.031526 -0.014816 -237564.000000 0 0 1
-6.536937 0.252202 33.688014 34.317305 -0.038562 0.191801 0.044258 -0.025116 -362899.000000 0 0 1
-7.007337 1.592102 33.967460 34.719244 -0.223412 0.208479 0.053328 -0.018501 -264879.000000 0 0 1
-6.447937 2.665202 33.236248 33.960674 -0.391955 0.206918 0.064079 -0.020211 -190827.000000 0 0 1
-7.183637 4.023802 33.417329 34.416762 -0.510591 0.241581 0.069104 -0.020138 43386.200000 0 0 1
-8.413237 4.115702 32.747737 34.060767 -0.454965 0.278567 0.040604 -0.012127 -483111.000000 0 0 1
-9.146337 5.231902 33.095114 34.732043 -0.519593 0.308237 0.038285 -0.003621 -329020.000000 0 0 1
-10.485437 5.337502 32.356952 34.429720 -0.470853 0.348760 0.026078 0.002783 -37631.000000 0 0 1
-11.304437 6.433202 32.734907 35.224289 -0.517379 0.378208 0.030636 -0.004908 -54578.300000 0 0 1
-12.382237 6.591002 31.859402 34.810668 -0.489149 0.414744 0.012705 -0.000010 -16794.800000 0 0 1
-13.387137 7.731402 32.178392 35.699285 -0.523730 0.447865 0.029125 -0.009514 143930.000000 0 0 1
-14.220137 7.506602 33.301093 36.980051 -0.485706 0.449844 0.037069 -0.013761 -145246.000000 0 0 1
-15.099937 8.601902 33.341416 37.598548 -0.517815 0.480478 0.041072 -0.012438 -393614.000000 0 0 1
-15.613837 8.739002 -33.839900 38.279249 -0.510257 2.655205 0.033733 -0.012021 -497823.000000 0 0 1
-14.726537 9.244802 -32.901900 37.213873 -0.560585 2.655425 0.031077 -0.014161 -806763.000000 0 0 1
-15.401737 9.819502 -31.820750 36.690548 -0.567579 2.620496 0.031977 -0.013295 -1002180.000000 0 0 1
-14.552437 10.180402 -30.563730 35.349054 -0.610435 2.615203 0.041257 -0.018129 79943.800000 0 0 1
-13.629937 11.212902 -30.577280 35.305445 -0.688410 2.618100 0.047064 -0.017703 -898650.000000 0 0 1
-12.610837 11.185502 -31.508470 35.734191 -0.725572 2.650347 0.045594 -0.023657 -543910.000000 0 0 1
-11.617537 12.396802 -31.353630 35.660875 -0.817837 2.645012 0.040404 -0.016102 649044.000000 0 0 1
-12.271437 13.533202 -31.941160 36.796378 -0.834256 2.622061 0.038358 -0.021060 763350.000000 0 0 1
-11.364137 14.613602 -32.203900 37.145554 -0.909838 2.619876 0.030337 -0.017387 20687.400000 0 0 1
-11.305837 15.809202 -31.263380 36.812386 -0.949980 2.585383 0.039412 -0.013968 -765013.000000 0 0 1
-12.569937 16.346302 -31.426020 37.587227 -0.915260 2.560899 0.040356 -0.015184 -595991.000000 0 0 1
-12.804037 17.264902 -30.446290 37.269248 -0.932678 2.526861 0.032415 -0.010543 716200.000000 0 0 1
-14.286037 17.788602 -30.573900 38.148245 -0.894168 2.500512 0.022695 -0.015591 530323.000000 0 0 1
-14.586137 18.462402 -31.756030 39.522919 -0.902155 2.503921 0.021445 -0.015553 1196160.000000 0 0 1
-15.989137 18.828302 -31.887230 40.335505 -0.866762 2.482503 0.025125 -0.017639 1598850.000000 0 0 1
-16.478437 20.057202 -31.134660 40.536370 -0.883039 2.446614 0.015430 -0.020687 -376265.000000 0 0 1
-15.854737 21.240202 -31.614330 41.255118 -0.929571 2.443879 0.018930 -0.018048 131817.000000 0 0 1
-16.292137 22.439502 -30.981000 41.578689 -0.942802 2.411507 0.009445 -0.014843 498267.000000 0 0 1
-17.636537 23.078802 -31.476430 42.830412 -0.918277 2.396328 0.030638 -0.019504 1606720.000000 0 0 1
-18.829037 22.483802 -30.903020 42.603411 -0.873634 2.382361 0.034757 -0.025604 1157440.000000 0 0 1
-19.839037 22.127502 -31.854860 43.565421 -0.839875 2.390870 0.049811 -0.027350 524058.000000 0 0 1
-21.158337 21.623502 -31.155720 43.427295 -0.796271 2.370892 0.048129 -0.033929 838874.000000 0 0 1
-22.033837 22.631102 -30.569310 43.956109 -0.798769 2.339843 0.058425 -0.032586 949318.000000 0 0 1
-22.822337 23.393902 -31.491690 45.385684 -0.797765 2.337644 0.068640 -0.028663 145821.000000 0 0 1
-24.078737 22.728302 -32.124340 46.133876 -0.756555 2.341066 0.072142 -0.032842 -173352.000000 0 0 1
-23.788337 21.788002 -33.127620 46.238958 -0.741537 2.369488 0.084952 -0.029773 653330.000000 0 0 1
-24.998737 21.466002 -33.827400 47.223078 -0.709514 2.369327 0.095513 -0.027893 533400.000000 0 0 1
-24.793437 20.453902 33.717907 46.582978 -0.689784 0.761467 0.087483 -0.022993 -65908.000000 0 0 1
-24.532737 19.173502 34.249091 46.286916 -0.663388 0.737830 0.085171 -0.028655 110989.000000 0 0 1
-24.244937 18.352102 33.140740 44.976941 -0.647932 0.742414 0.070162 -0.030114 -283962.000000 0 0 1
-24.065037 16.877802 33.492099 44.561272 -0.611626 0.720317 0.059845 -0.018735 109464.000000 0 0 1
-25.243497 16.110402 33.765447 45.131858 -0.568035 0.725525 0.063042 -0.013878 576051.000000 0 0 1
-25.519657 15.387102 32.618282 44.181083 -0.542586 0.740270 0.063501 -0.014237 -704471.000000 0 0 1
-26.385627 14.146502 32.745641 44.368929 -0.492143 0.740649 0.047172 -0.009532 12725.700000 0 0 1
-27.639087 14.511102 33.328184 45.664637 -0.483463 0.752699 0.049224 -0.005169 322872.000000 0 0 1
-28.572857 13.427502 33.387553 45.950350 -0.439311 0.757435 0.038846 0.002132 303822.000000 0 0 1
-28.468567 12.340402 -34.097492 46.101885 -0.409027 2.403290 0.023533 0.004623 125190.000000 0 0 1
-27.357787 11.450402 -34.251176 45.306769 -0.396389 2.427952 0.027971 -0.014505 66562.600000 0 0 1
-27.719477 10.058702 34.289027 45.224819 -0.348098 0.710263 0.035608 -0.006931 -613734.000000 0 0 1
-26.527647 9.063002 -34.276313 44.280015 -0.329211 2.456058 0.027257 -0.016964 479874.000000 0 0 1
-25.614147 8.954902 33.271534 42.933318 -0.336325 0.684147 0.018306 -0.015642 69660.400000 0 0 1
-24.759137 10.054802 33.169629 42.595049 -0.385758 0.678173 0.013101 -0.016133 -1127810.000000 0 0 1
-23.476137 9.641802 32.415912 41.168977 -0.389702 0.664238 0.029784 -0.014914 -585758.000000 0 0 1
-23.611437 9.435502 31.010752 40.102312 -0.380175 0.686781 0.032201 -0.018979 -37682.600000 0 0 1
-22.400337 9.133602 30.355532 38.815668 -0.387164 0.672859 0.031160 -0.014323 163825.000000 0 0 1
-22.576337 9.111602 28.799862 37.711329 -0.383598 0.701783 0.046709 -0.017314 45203.900000 0 0 1
-22.817737 10.360202 28.218542 37.739489 -0.426210 0.726176 0.037596 -0.016231 171062.000000 0 0 1
-22.890937 10.295002 26.821752 36.734023 -0.422639 0.752239 0.031368 -0.009075 -921194.000000 0 0 1
-23.052437 11.745002 26.253142 36.859021 -0.471211 0.778086 0.022243 -0.006059 -534963.000000 0 0 1
-24.316537 12.276202 26.461952 37.976756 -0.467520 0.799879 0.031495 -0.007121 -199653.000000 0 0 1
-25.276067 11.761402 25.506712 37.786274 -0.435519 0.829797 0.028395 -0.002242 -634926.000000 0 0 1
-26.658467 12.371102 25.675272 39.024833 -0.434484 0.852741 0.028925 -0.001191 -597884.000000 0 0 1
-26.734657 13.733302 25.306192 39.290569 -0.474539 0.870979 0.029121 -0.006442 437258.000000 0 0 1
-27.990927 14.260202 25.757202 40.623624 -0.471185 0.884024 0.031423 -0.011928 633417.000000 0 0 1
-28.117787 15.694502 25.355442 40.985678 -0.509094 0.903784 0.025625 -0.016502 291463.000000 0 0 1
-27.190427 16.579402 26.038952 41.136637 -0.547559 0.885391 0.030865 -0.019485 424808.000000 0 0 1
-27.104827 17.795202 25.309122 41.132621 -0.580954 0.908023 0.018211 -0.020896 -412563.000000 0 0 1
-22.326937 -9.926798 32.071002 40.318515 0.418363 0.651061 0.017674 0.000741 22484.800000 0 0 1
-21.522937 -9.169698 31.133952 38.944103 0.402754 0.644413 0.010881 0.001232 336663.000000 0 0 1
-22.030137 -9.241598 29.782572 38.180305 0.397201 0.676050 0.016236 0.002846 230057.000000 0 0 1
-21.037237 -8.845298 28.622732 36.606904 0.398018 0.673098 0.025046 0.000292 -282398.000000 0 0 1
-20.637837 -7.490698 28.532932 36.002209 0.348173 0.655845 0.027735 -0.003008 -770601.000000 0 0 1
-19.509337 -7.165298 29.245282 35.878158 0.351981 0.617847 0.021448 -0.002759 -1177260.000000 0 0 1
-18.143037 -7.437398 28.568832 34.650582 0.389038 0.601508 0.030633 -0.005610 -650691.000000 0 0 1
-17.688437 -8.781298 28.517132 34.687445 0.460798 0.605677 0.025541 -0.005684 -42391.000000 0 0 1
-17.370337 -9.349998 29.723872 35.674356 0.493796 0.585927 0.028935 -0.010635 -1349070.000000 0 0 1
-15.967237 -9.063598 30.247672 35.383939 0.516283 0.545550 0.028707 -0.015019 -162748.000000 0 0 1
-14.935337 -9.779398 29.556432 34.529460 0.579730 0.543358 0.026778 -0.015182 409183.000000 0 0 1
-13.620237 -9.390898 29.922092 34.191101 0.603631 0.505066 0.034272 -0.017157 735449.000000 0 0 1
-12.461437 -10.056798 29.123212 33.235344 0.679015 0.502726 0.040207 -0.010925 294502.000000 0 0 1
-12.143537 -9.530798 27.838812 31.832390 0.665432 0.506303 0.053190 -0.017282 27435.300000 0 0 1
-11.041037 -10.219898 27.285312 31.158290 0.746795 0.503913 0.064343 -0.011848 74301.600000 0 0 1
-10.743937 -9.960198 25.763872 29.638064 0.747562 0.517046 0.055673 -0.009581 -456652.000000 0 0 1
-11.693137 -10.488898 24.914252 29.452782 0.731162 0.562537 0.045730 -0.011261 -670752.000000 0 0 1
-11.404037 -10.257998 23.533772 28.091227 0.732542 0.577624 0.050571 -0.018358 -373037.000000 0 0 1
-12.472437 -10.707098 22.560972 27.914174 0.709386 0.629662 0.057527 -0.018240 -1021700.000000 0 0 1
-12.498337 -12.119698 22.548672 28.487508 0.770019 0.657490 0.060887 -0.015956 483363.000000 0 0 1
-13.718237 -12.716498 22.121572 28.970041 0.747521 0.701923 0.048188 -0.011028 1392450.000000 0 0 1
-15.033337 -12.496098 22.983172 30.172502 0.693493 0.704824 0.028495 -0.010813 968348.000000 0 0 1
-16.206837 -13.170298 22.521072 30.713466 0.682400 0.747687 0.013044 -0.000491 -241528.000000 0 0 1
-17.296137 -12.897498 23.326872 31.774908 0.640735 0.746414 0.007603 0.002414 -539554.000000 0 0 1
-18.471537 -13.812798 22.916372 32.513861 0.642084 0.788629 0.020682 -0.004840 -535643.000000 0 0 1
-18.137037 -15.198098 22.967672 32.976480 0.697462 0.800307 0.015012 -0.002770 377913.000000 0 0 1
-19.223937 -16.127698 22.871772 33.952619 0.698037 0.831676 0.018680 -0.003180 484436.000000 0 0 1
-20.116537 -16.229398 24.195152 35.404432 0.678855 0.818396 0.011530 -0.004481 118881.000000 0 0 1
-19.516037 -16.894298 25.296442 36.141430 0.713517 0.795498 0.014118 -0.000668 -500762.000000 0 0 1
-20.359737 -16.949798 26.400932 37.400852 0.694255 0.787116 0.009383 -0.002392 -765149.000000 0 0 1
-19.908237 -17.730498 27.646902 38.406505 0.727604 0.767211 0.016086 -0.001670 -239114.000000 0 0 1
-20.012337 -19.113498 27.329182 38.893491 0.762429 0.791657 0.024351 -0.002366 192811.000000 0 0 1
-19.544837 -19.848298 28.422802 39.797126 0.793101 0.775327 0.028932 -0.003425 -519047.000000 0 0 1
-19.497737 -21.342498 28.015342 40.255725 0.830538 0.801076 0.030959 -0.002557 -416861.000000 0 0 1
-20.753237 -21.958398 27.932572 41.147256 0.813607 0.824609 0.025691 -0.004644 -94720.900000 0 0 1
-20.543137 -23.336398 27.665912 41.617432 0.848970 0.843614 0.032096 0.002701 201384.000000 0 0 1
-21.797837 -24.016898 27.093872 42.261507 0.833796 0.874865 0.031086 0.000638 98580.100000 0 0 1
-22.870537 -24.183398 27.995712 43.493196 0.813292 0.871499 0.024459 0.006792 517897.000000 0 0 1
-24.066937 -24.624798 27.326452 43.958311 0.796855 0.899956 0.015876 0.008435 694415.000000 0 0 1
-25.007937 -25.422338 28.248872 45.493856 0.793615 0.900857 -0.002150 0.013301 -413521.000000 0 0 1
-25.635437 -24.794498 29.328832 46.174919 0.768724 0.882570 -0.003366 0.018381 -51401.300000 0 0 1
-26.085717 -25.739098 30.237812 47.510958 0.778710 0.880924 -0.009022 0.017192 716038.000000 0 0 1
-27.258067 -25.261528 31.211172 48.531271 0.747401 0.872238 -0.005434 0.017865 1482670.000000 0 0 1
-28.533027 -25.077868 30.573702 48.762530 0.721038 0.893111 0.002707 0.019055 555203.000000 0 0 1
-29.247027 -24.140398 31.342062 49.198295 0.690036 0.880124 0.004735 0.008874 -511297.000000 0 0 1
-30.623197 -23.819398 30.729192 49.491688 0.661071 0.900911 0.008183 0.005043 -235587.000000 0 0 1
-31.519817 -24.919298 30.772892 50.610682 0.668978 0.917218 0.009870 0.001364 -163570.000000 0 0 1
-32.504397 -24.821998 29.780452 50.591924 0.652180 0.941420 0.008503 -0.005136 222963.000000 0 0 1
-33.673927 -25.834078 30.016992 51.984159 0.654408 0.955224 0.021234 -0.010197 356070.000000 0 0 1
-33.296967 -27.151498 29.817082 52.296752 0.684082 0.964106 0.021970 -0.008683 -329261.000000 0 0 1
-34.228513 -27.938638 30.476502 53.674722 0.684564 0.966966 0.027642 -0.014596 -6908.420000 0 0 1
-33.649987 -29.369038 30.809972 54.259713 0.717571 0.966936 0.031828 -0.016009 367188.000000 0 0 1
-32.841077 -29.367788 31.979512 54.439806 0.729623 0.942918 0.042890 -0.012469 3246.060000 0 0 1
-32.503417 -30.685118 32.394282 55.203606 0.756630 0.943677 0.034660 -0.016431 127085.000000 0 0 1
-31.560867 -30.795668 33.625887 55.454141 0.773127 0.919305 0.030418 -0.015310 90801.200000 0 0 1
-32.136747 -30.347598 -33.807260 55.647804 0.756772 2.223733 0.029741 -0.007615 -191489.000000 0 0 1
-31.262567 -30.508888 -32.712820 54.573519 0.773198 2.213581 0.025749 -0.009369 -228060.000000 0 0 1
-31.889017 -29.980078 -31.413260 53.874924 0.754553 2.193308 0.030809 -0.010868 59356.000000 0 0 1
-32.113457 -28.612558 -31.230380 53.153450 0.727811 2.198826 0.035435 -0.009819 32398.000000 0 0 1
-30.920257 -27.840108 -31.167560 51.986063 0.733027 2.213719 0.035080 -0.006904 221049.000000 0 0 1
-31.097867 -26.305988 -31.088610 51.240453 0.702115 2.222724 0.035817 -0.000041 -133269.000000 0 0 1
-31.633647 -25.864598 -29.848560 50.602388 0.685398 2.201688 0.034005 -0.001186 15291.800000 0 0 1
-31.568677 -24.475698 -29.674670 49.761705 0.659507 2.209725 0.040127 -0.001197 473938.000000 0 0 1
-30.192487 -23.887698 -29.198570 48.319405 0.669340 2.219661 0.047328 -0.000509 -26900.900000 0 0 1
-30.160997 -22.497698 -29.245570 47.656433 0.640885 2.231503 0.045226 0.002483 -272507.000000 0 0 1
-29.001917 -22.057798 -28.612480 46.328519 0.650228 2.236483 0.052841 -0.002597 -498763.000000 0 0 1
-28.750767 -20.593798 -28.725200 45.561478 0.621573 2.252956 0.061545 -0.013336 -116729.000000 0 0 1
-28.353147 -20.221098 -30.020560 45.978558 0.619522 2.282236 0.068413 -0.002355 229474.000000 0 0 1
-28.452957 -18.804198 -30.092800 45.483462 0.583991 2.293774 0.074349 -0.011338 -436159.000000 0 0 1
-27.903267 -18.239398 -31.422050 45.810624 0.578948 2.326652 0.083063 -0.009675 241432.000000 0 0 1
-28.808707 -18.018698 -32.507060 47.024718 0.558930 2.334050 0.070807 -0.016205 811753.000000 0 0 1
-29.811367 -17.001398 -32.263180 47.102845 0.518294 2.325334 0.053016 -0.012953 152901.000000 0 0 1
-30.735837 -16.676298 -33.404080 48.359314 0.497120 2.333319 0.041484 -0.022612 -3107.800000 0 0 1
-31.656587 -17.642998 -33.880040 49.611209 0.508449 2.322537 0.045482 -0.025534 1076940.000000 0 0 1
-33.048747 -17.285998 -33.840700 50.360882 0.481914 2.307654 0.051316 -0.022144 837622.000000 0 0 1
-33.705797 -17.883998 33.541076 50.802775 0.487820 0.849683 0.039673 -0.021067 -519325.000000 0 0 1
-33.940107 -19.280498 33.708839 51.574745 0.516614 0.858476 0.017212 -0.014924 435108.000000 0 0 1
-34.850972 -19.791798 32.726905 51.743172 0.516481 0.886036 0.023514 -0.010662 -191254.000000 0 0 1
-35.098856 -21.304398 32.912742 52.621817 0.545538 0.895078 0.010721 -0.006526 -491400.000000 0 0 1
-33.958377 -22.106198 32.917450 52.205497 0.577063 0.888553 0.023706 -0.006576 -592638.000000 0 0 1
-34.217336 -23.378998 33.517856 53.299628 0.599396 0.890714 0.025364 -0.007964 -773113.000000 0 0 1
-33.000237 -24.346798 33.718393 53.091546 0.635632 0.882660 0.027526 -0.005754 432427.000000 0 0 1
-32.140067 -23.982698 -33.845980 52.475748 0.641060 2.271798 0.016616 -0.006560 320732.000000 0 0 1
-31.299557 -22.878798 -34.182563 51.687033 0.631205 2.293397 0.024882 -0.007930 -1254030.000000 0 0 1
-29.991507 -22.806598 -33.391710 50.345186 0.650146 2.295956 0.036285 -0.003496 -1038480.000000 0 0 1
-29.090617 -23.831498 -33.688340 50.488698 0.686349 2.301300 0.030322 0.001322 -503884.000000 0 0 1
-27.797967 -23.625698 -33.208470 49.332577 0.704440 2.309263 0.038762 -0.001790 -219483.000000 0 0 1
-27.608967 -23.810798 -31.665140 48.289650 0.711666 2.285950 0.034695 0.010687 -1063750.000000 0 0 1
-27.720927 -25.184868 -31.377510 48.859754 0.737499 2.268155 0.038245 0.008366 -59235.500000 0 0 1
-27.287807 -25.556678 -30.097890 47.996367 0.752651 2.248604 0.038111 0.001793 -508476.000000 0 0 1
-26.616787 -26.945958 -30.038380 48.340897 0.791544 2.241307 0.038488 -0.004981 -261907.000000 0 0 1
-27.484727 -28.021328 -30.211560 49.531237 0.795065 2.226793 0.033874 -0.008015 -151105.000000 0 0 1
-26.996777 -29.185308 -29.603500 49.567887 0.824333 2.210841 0.023982 -0.021084 -310576.000000 0 0 1
-27.795647 -30.446178 -29.982450 50.975633 0.830876 2.199593 0.020532 -0.009551 -131686.000000 0 0 1
-27.667857 -30.851218 -31.285350 51.923801 0.839743 2.217457 0.032565 -0.019088 200821.000000 0 0 1
-28.235497 -32.108808 -31.496220 53.105845 0.849497 2.205680 0.038209 -0.011507 -492996.000000 0 0 1
-27.864827 -32.572778 -32.903560 54.037753 0.863139 2.225469 0.027595 -0.012056 637949.000000 0 0 1
-26.458807 -32.708138 -33.139260 53.554658 0.890630 2.238002 0.013640 -0.013276 397327.000000 0 0 1
-26.130467 -33.503198 -34.269618 54.586375 0.908408 2.249527 0.014960 -0.012334 807973.000000 0 0 1
-24.600137 -33.403198 34.016698 53.647704 0.936017 0.883984 0.019811 -0.016052 953422.000000 0 0 1
-24.310637 -34.159571 32.830601 53.251589 0.952275 0.906483 0.026524 -0.009848 -431728.000000 0 0 1
-23.405137 33.561160 33.025405 52.581644 -0.961826 0.891715 0.032576 -0.003013 -827418.000000 0 0 1
-23.369637 32.648317 31.793132 51.213824 -0.949545 0.901044 0.049905 -0.011352 229202.000000 0 0 1
-24.677137 32.117757 31.607912 51.376761 -0.915665 0.908134 0.048285 -0.026617 278442.000000 0 0 1
-24.690437 31.506027 30.337432 50.225563 -0.906090 0.922256 0.047430 -0.017578 -140096.000000 0 0 1
-26.135827 31.235627 29.890812 50.519368 -0.874056 0.937667 0.041599 -0.022658 263534.000000 0 0 1
-26.819587 30.239017 30.703372 50.758107 -0.845255 0.921161 0.055796 -0.021171 659067.000000 0 0 1
-28.055997 29.767107 30.182012 50.834767 -0.814982 0.935113 0.055040 -0.023768 805051.000000 0 0 1
-28.658437 28.535927 30.935632 50.917762 -0.783256 0.917810 0.066141 -0.023535 148841.000000 0 0 1
-27.691957 27.516157 30.829052 49.743480 -0.782214 0.902359 0.056893 -0.015627 66948.500000 0 0 1
-27.975257 26.259067 31.461592 49.618398 -0.753765 0.883990 0.046038 -0.012835 451229.000000 0 0 1
-28.903717 25.280977 30.700612 49.163810 -0.718638 0.896362 0.036307 -0.009147 635006.000000 0 0 1
-28.146637 24.793227 29.606002 47.785486 -0.722139 0.902614 0.027094 -0.001240 -277289.000000 0 0 1
-28.921427 24.087577 28.696982 47.330509 -0.694460 0.919384 0.030951 0.001011 -72446.600000 0 0 1
-28.125427 23.828447 27.403642 45.932496 -0.702878 0.931530 0.035024 -0.005904 -33565.100000 0 0 1
-27.116987 22.844387 27.526892 44.887936 -0.700088 0.910646 0.056528 -0.012166 334397.000000 0 0 1
-26.413597 22.659187 26.255422 43.594312 -0.709040 0.924458 0.042339 -0.007516 865043.000000 0 0 1
-25.097157 21.799287 26.355682 42.422850 -0.715191 0.900445 0.022296 -0.006406 309305.000000 0 0 1
-25.227947 20.555687 26.993552 42.280462 -0.683699 0.878326 0.052200 -0.021895 -399510.000000 0 0 1
-23.987437 20.054687 27.366162 41.551106 -0.696339 0.851820 0.028306 -0.011404 -481813.000000 0 0 1
-24.154237 18.810987 28.205122 41.627026 -0.661671 0.826346 0.054251 -0.020095 537775.000000 0 0 1
-22.901237 18.207987 28.508322 40.849992 -0.671725 0.798366 0.038957 -0.018927 745344.000000 0 0 1
-23.256237 17.068887 29.301772 41.119257 -0.633149 0.777593 0.044326 -0.016399 93623.800000 0 0 1
-22.164937 15.962587 29.311342 40.065489 -0.624137 0.750151 0.052548 -0.018809 -180622.000000 0 0 1
-21.176537 16.322087 30.248012 40.370763 -0.656657 0.723859 0.066512 -0.007052 -519681.000000 0 0 1
-19.975137 15.641787 29.975602 39.270960 -0.664328 0.702387 0.054667 -0.008886 151729.000000 0 0 1
-18.777837 16.336487 30.680412 39.506653 -0.715984 0.681564 0.048593 -0.011233 203095.000000 0 0 1
-19.058537 16.256887 32.089942 40.709687 -0.706232 0.662815 0.044929 -0.011296 492860.000000 0 0 1
-17.901837 16.646687 32.810430 40.915917 -0.749084 0.640330 0.042081 -0.014474 -340176.000000 0 0 1
-17.924337 16.450987 -34.291223 42.045272 -0.742564 2.524525 0.038784 -0.022978 591490.000000 0 0 1
-18.940337 17.234287 -33.587350 42.235851 -0.738272 2.490188 0.049328 -0.022313 1730230.000000 0 0 1
-20.247037 16.611487 -33.648230 42.639037 -0.687081 2.480206 0.057255 -0.019095 618458.000000 0 0 1
-21.321137 17.410887 -32.858620 42.865124 -0.684783 2.444261 0.066569 -0.028304 -73075.200000 0 0 1
-21.218637 17.311087 -31.459690 41.708709 -0.684327 2.425340 0.057229 -0.022440 -201776.000000 0 0 1
-22.224737 18.057987 -30.846370 42.089529 -0.682327 2.393335 0.041309 -0.021470 -713314.000000 0 0 1
-22.425937 17.831387 -29.330230 41.001749 -0.671760 2.367908 0.044571 -0.029186 150939.000000 0 0 1
-23.096137 16.704787 -28.832950 40.544056 -0.626175 2.361931 0.036009 -0.023830 157926.000000 0 0 1
-24.461637 16.494787 -29.176210 41.493385 -0.593277 2.350619 0.056294 -0.026822 253320.000000 0 0 1
-25.212177 15.502987 -28.301880 40.951104 -0.551304 2.333826 0.057669 -0.021770 37763.000000 0 0 1
-24.931337 14.141987 -28.679480 40.547256 -0.515981 2.356482 0.021872 -0.011754 207055.000000 0 0 1
-25.721997 13.290087 -27.840700 40.166555 -0.476904 2.336621 0.002440 -0.003215 276919.000000 0 0 1
-25.465417 11.751587 -28.013410 39.640112 -0.432353 2.355610 0.012603 -0.007787 502989.000000 0 0 1
-24.179237 11.396287 -27.509690 38.357450 -0.440446 2.370562 0.014157 -0.005061 179583.000000 0 0 1
-23.719037 10.182087 -28.021140 38.097926 -0.405490 2.397205 0.008166 0.001286 309507.000000 0 0 1
-22.560837 9.565087 -27.166380 36.585441 -0.400997 2.407660 0.043844 -0.004902 418238.000000 0 0 1
-23.028937 8.751387 -26.074550 35.872007 -0.363162 2.384560 0.036358 -0.002373 212734.000000 0 0 1
-21.987137 8.258187 -25.233370 34.472523 -0.359289 2.392027 0.063735 0.002108 -95683.600000 0 0 1
-22.409737 7.205487 -24.221120 33.775406 -0.311094 2.370462 0.058754 0.011671 -9041.470000 0 0 1
-22.761037 5.960887 -24.851820 34.222945 -0.256138 2.383537 0.053659 -0.003558 407814.000000 0 0 1
-23.245237 5.025187 -23.859120 33.687553 -0.212905 2.357809 0.046834 0.009974 -167586.000000 0 0 1
34.805941 24.433502 -10.680220 43.846513 0.612062 1.816854 -0.026599 0.004076 64301.300000 0 0 1
35.421651 23.745802 -9.606520 43.713176 0.590566 1.792367 -0.002409 -0.004629 -791883.000000 0 0 1
-35.358079 22.960202 -10.049920 43.340115 -0.575927 1.804811 0.012577 -0.003520 -729178.000000 0 0 1
-34.521688 22.449702 -8.871320 42.124060 -0.576591 1.782985 0.024568 -0.004640 -846153.000000 0 0 1
-35.092677 21.344102 -8.173720 41.879307 -0.546442 1.767230 0.012127 -0.012880 -28905.500000 0 0 1
-34.280469 20.961102 -7.073920 40.799004 -0.548803 1.745062 0.025409 -0.016223 -339076.000000 0 0 1
-34.853112 19.995002 -6.014220 40.628935 -0.520852 1.719370 0.009370 -0.018493 -510397.000000 0 0 1
-35.192667 18.730002 -6.461320 40.386699 -0.489085 1.731473 0.008138 -0.018996 210419.000000 0 0 1
-35.555659 17.922102 -5.401220 40.181835 -0.466888 1.705624 0.023292 -0.031926 -519739.000000 0 0 1
35.347071 16.712802 -5.753120 39.520015 0.441668 1.716890 0.028523 -0.021455 486791.000000 0 0 1
34.087011 17.202702 -6.231320 38.687035 0.467377 1.732571 0.046717 -0.026731 323953.000000 0 0 1
33.450741 16.163802 -6.963420 37.798278 0.450127 1.756081 0.067310 -0.029677 180006.000000 0 0 1
32.564951 16.633002 -8.138920 37.461645 0.472222 1.789803 0.055235 -0.028332 -1512.990000 0 0 1
31.958941 15.573302 -8.861220 36.639090 0.453429 1.815070 0.067082 -0.031080 20907.900000 0 0 1
31.634041 16.003302 -10.143120 36.874125 0.468347 1.849463 0.056563 -0.027271 -501705.000000 0 0 1
30.939851 14.888002 -10.972720 36.046187 0.448488 1.880112 0.036847 -0.019950 1170560.000000 0 0 1
29.642121 14.323202 -10.647420 34.600246 0.450121 1.883599 0.029470 -0.012434 1385710.000000 0 0 1
29.426151 13.886802 -9.290820 33.838750 0.440933 1.848930 0.051696 -0.015791 -780878.000000 0 0 1
28.452681 12.703202 -9.298220 32.517431 0.419913 1.860790 0.022537 -0.002143 -324612.000000 0 0 1
29.052971 11.567302 -9.797520 32.769941 0.378906 1.874419 0.025403 0.000776 113555.000000 0 0 1
28.115871 10.491402 -9.861720 31.588372 0.357147 1.888299 0.027063 0.001859 -476347.000000 0 0 1
28.539761 9.142102 -10.357020 31.707473 0.310001 1.903546 0.018520 0.001547 -133274.000000 0 0 1
29.504931 8.601902 -9.418720 32.144144 0.283678 1.868175 0.032699 -0.004236 741064.000000 0 0 1
29.538871 7.175102 -9.347920 31.802683 0.238289 1.869137 0.040042 -0.006027 -954591.000000 0 0 1
30.783781 6.733402 -8.616320 32.668347 0.215341 1.837706 0.066988 -0.013383 -1164840.000000 0 0 1
31.978921 7.061702 -9.249120 34.030358 0.217336 1.846049 0.073528 -0.020036 -849024.000000 0 0 1
33.017191 6.689502 -8.390520 34.717217 0.199901 1.814895 0.094847 -0.029019 -1627690.000000 0 0 1
34.362961 6.957502 -8.969720 36.189444 0.199770 1.821261 0.090737 -0.028315 -1341540.000000 0 0 1
34.747941 6.198802 -10.068920 36.704601 0.176536 1.848682 0.084767 -0.028214 348190.000000 0 0 1
-35.666994 6.273602 -10.245420 37.635903 -0.174113 1.846501 0.083749 -0.027817 -554419.000000 0 0 1
-35.180631 5.594902 -11.534020 37.443469 -0.157713 1.883927 0.082535 -0.029376 308535.000000 0 0 1
-33.759427 5.541102 -11.636620 36.136044 -0.162684 1.898661 0.082850 -0.025257 1086580.000000 0 0 1
-33.059737 6.613502 -12.280420 35.881658 -0.197441 1.920105 0.061775 -0.020969 -285783.000000 0 0 1
-32.467067 7.696602 -11.393220 35.258384 -0.232762 1.899837 0.052504 -0.011767 -1174170.000000 0 0 1
-33.385997 8.453302 -10.657120 36.050761 -0.247987 1.870895 0.054244 -0.017367 -203813.000000 0 0 1
-33.392617 9.833702 -10.993920 36.505272 -0.286392 1.876705 0.064368 -0.013844 -69841.700000 0 0 1
-34.330332 10.737302 -10.141220 37.372526 -0.303126 1.845597 0.082360 -0.012322 159362.000000 0 0 1
-33.918157 10.877802 -8.811520 36.693472 -0.310344 1.813305 0.050570 -0.010714 328769.000000 0 0 1
-34.752381 11.846702 -8.151020 37.609992 -0.328535 1.789255 0.064022 -0.013978 -108189.000000 0 0 1
-33.957547 12.803802 -7.294720 37.017095 -0.360570 1.769158 0.072363 -0.017671 -158853.000000 0 0 1
-33.099437 13.603802 -8.099120 36.691033 -0.389951 1.793368 0.047866 -0.016789 -40719.600000 0 0 1
-32.452817 14.565102 -7.300620 36.312899 -0.421863 1.773224 0.044889 -0.021432 -255882.000000 0 0 1
-31.518527 15.468402 -8.076920 36.026736 -0.456238 1.796911 0.020611 -0.013217 106025.000000 0 0 1
-32.246937 16.550302 -8.709720 37.277831 -0.474181 1.806619 0.013103 -0.009405 237253.000000 0 0 1
-31.415277 17.656902 -8.948220 37.131610 -0.512046 1.814179 0.020113 -0.006698 40543.000000 0 0 1
-32.114897 18.711102 -9.779720 38.433253 -0.527550 1.828085 0.002790 -0.008868 44103.100000 0 0 1
-31.964927 18.412402 -11.135920 38.532867 -0.522600 1.863976 0.005538 -0.008784 -307650.000000 0 0 1
-32.953027 19.013602 -11.938220 39.874054 -0.523329 1.874858 0.001383 -0.015000 -267425.000000 0 0 1
-32.650247 19.093102 -13.435820 40.138591 -0.529151 1.912121 0.001765 -0.006787 -688474.000000 0 0 1
-31.840427 20.157102 -13.801020 40.132153 -0.564379 1.921852 0.013048 -0.011772 -204784.000000 0 0 1
-31.774137 20.328102 -15.214520 40.673200 -0.569149 1.954187 -0.001770 -0.008275 -437695.000000 0 0 1
-30.851237 21.525702 -15.599420 40.724644 -0.609198 1.963888 0.027215 -0.018573 547167.000000 0 0 1
-29.507607 21.474602 -15.104620 39.496924 -0.629118 1.963216 0.029121 -0.017211 753468.000000 0 0 1
-28.880117 22.719902 -14.941820 39.667532 -0.666577 1.957002 0.033797 -0.022644 549403.000000 0 0 1
-28.065327 23.248602 -16.220720 39.890749 -0.691805 1.989557 0.027960 -0.020031 133574.000000 0 0 1
-28.964877 23.846502 -17.143620 41.249527 -0.688782 1.999407 0.032954 -0.007878 348135.000000 0 0 1
-28.295487 24.507802 -18.204620 41.625415 -0.713789 2.023439 0.012439 -0.003719 10922.300000 0 0 1
-27.452267 25.777902 -17.877220 41.685996 -0.753953 2.014021 0.016255 -0.006886 148018.000000 0 0 1
-28.201607 26.795702 -17.243620 42.552118 -0.759841 1.988033 0.023250 -0.007237 -199123.000000 0 0 1
-27.587437 28.045802 -17.358820 42.999562 -0.793637 1.986351 0.018540 -0.004047 -101977.000000 0 0 1
-28.284627 29.260602 -16.662920 43.975628 -0.802357 1.959417 0.024068 -0.004122 -321150.000000 0 0 1
-28.402917 29.299402 -15.223420 43.553797 -0.800933 1.927867 0.030099 -0.003004 232972.000000 0 0 1
-27.218827 29.634802 -14.518220 42.776919 -0.827867 1.917069 0.023380 -0.004327 -120.873000 0 0 1
-27.529737 30.193002 -13.120620 42.914502 -0.831504 1.881510 0.028973 -0.004477 -94536.300000 0 0 1
-27.470217 31.596602 -13.240420 43.912035 -0.855144 1.877084 0.032051 -0.001855 157588.000000 0 0 1
-28.026547 32.321902 -12.173820 44.479148 -0.856454 1.848031 0.013710 -0.001018 -47804.900000 0 0 1
-27.535487 33.765602 -12.237920 45.255780 -0.886682 1.844622 -0.005730 0.000330 149116.000000 0 0 1
-27.920167 -34.205684 -13.418820 46.147907 0.886229 1.865837 -0.014421 -0.010217 -75161.100000 0 0 1
-27.285627 -32.967184 -13.467920 44.863410 0.879415 1.875697 0.020305 -0.006868 -107792.000000 0 0 1
-27.496927 -32.309484 -14.870320 44.956759 0.865694 1.907915 0.015390 -0.011434 141753.000000 0 0 1
-26.833967 -32.947184 -15.990220 45.401166 0.887304 1.930715 0.017728 -0.014441 267722.000000 0 0 1
-27.226027 -32.427784 -17.252820 45.721740 0.872377 1.957723 0.031521 -0.005592 -297590.000000 0 0 1
-26.282697 -32.820584 -18.414420 45.902743 0.895568 1.983581 0.017695 -0.000529 -430732.000000 0 0 1
-26.380657 -34.138884 -18.912920 47.107335 0.912897 1.983935 0.019840 0.008177 95150.700000 0 0 1
-25.985397 33.519202 -18.056420 46.095684 -0.911337 1.973292 0.006200 -0.005427 -837090.000000 0 0 1
-26.051847 32.170002 -18.787220 45.459514 -0.890097 1.996843 0.009427 -0.007707 1208460.000000 0 0 1
-27.366387 31.631802 -19.104420 45.983355 -0.857570 1.999249 0.010014 0.003678 1008440.000000 0 0 1
-28.081387 32.332402 -20.103520 47.308562 -0.855647 2.009697 0.014856 0.003291 108621.000000 0 0 1
-29.603447 31.999102 -20.026520 47.972577 -0.824267 2.001442 0.019534 -0.001741 460960.000000 0 0 1
-29.940347 30.632802 -20.414320 47.450368 -0.796829 2.015538 0.015562 -0.007284 119309.000000 0 0 1
-31.331837 30.575102 -20.639420 48.399448 -0.773175 2.011349 0.033614 -0.009789 -228240.000000 0 0 1
-31.714707 29.159402 -21.111520 47.976970 -0.743446 2.026433 0.030343 -0.010314 145421.000000 0 0 1
-33.063487 28.839902 -21.453320 48.838295 -0.717275 2.025585 0.038699 -0.014910 632981.000000 0 0 1
-33.049647 27.627902 -22.173520 48.448376 -0.696281 2.046173 0.029578 -0.011443 239302.000000 0 0 1
-34.443691 26.957802 -22.365120 49.125244 -0.664080 2.043469 0.035171 -0.008807 330585.000000 0 0 1
-35.218062 27.638602 -23.317020 50.476605 -0.665394 2.050974 0.021769 -0.008714 29376.900000 0 0 1
35.473991 26.837902 -23.692820 50.398678 0.647681 2.060209 0.033691 -0.004892 661285.000000 0 0 1
34.538521 27.341502 -24.780720 50.542569 0.669612 2.083223 0.043826 -0.013665 367366.000000 0 0 1
35.265731 27.292102 -26.029560 51.633987 0.658622 2.099155 0.055508 -0.021907 170962.000000 0 0 1
34.426771 27.851002 -27.000170 51.864150 0.680200 2.118343 0.062312 -0.018879 59451.100000 0 0 1
35.119251 28.052602 -28.380550 53.157934 0.673997 2.133992 0.058793 -0.022787 180068.000000 0 0 1
35.541611 26.800502 -28.926910 53.087091 0.646094 2.147061 0.049810 -0.018590 10763.800000 0 0 1
-35.518807 26.882702 -30.119760 53.772347 -0.647876 2.165345 0.036295 -0.012066 -1447170.000000 0 0 1
-34.979647 25.532702 -30.527910 52.985356 -0.630532 2.184816 0.030415 -0.010796 519630.000000 0 0 1
-33.862047 25.088602 -29.731770 51.575715 -0.637656 2.185196 0.041105 -0.010204 1129100.000000 0 0 1
-32.656837 25.832202 -30.034390 51.340396 -0.669241 2.195683 0.026507 -0.004762 -483144.000000 0 0 1
-31.395347 25.220502 -29.417300 49.871025 -0.676762 2.201691 0.023006 -0.005206 -429273.000000 0 0 1
-31.061777 23.928502 -29.765100 49.227720 -0.656400 2.220111 0.045782 -0.005468 37490.000000 0 0 1
-31.578367 22.999302 -28.844690 48.561068 -0.629484 2.206803 0.049654 -0.007003 -265686.000000 0 0 1
-31.449387 21.509302 -29.289410 48.058127 -0.599862 2.226173 0.042007 -0.013325 -596836.000000 0 0 1
-30.132827 21.063602 -29.233540 46.970869 -0.610071 2.242571 0.059918 -0.009341 -571668.000000 0 0 1
-30.009477 19.865202 -29.972560 46.835343 -0.584740 2.265237 0.051529 -0.012270 561128.000000 0 0 1
-28.531477 19.365402 -30.046730 45.736965 -0.596313 2.287558 0.073372 -0.016342 44094.000000 0 0 1
-27.678877 20.018102 -30.945810 46.092167 -0.626145 2.306879 0.081313 -0.024515 74698.700000 0 0 1
-26.440797 19.337702 -31.133360 45.192351 -0.631463 2.330777 0.079543 -0.025852 307507.000000 0 0 1
-26.492737 18.089502 -32.066380 45.357998 -0.599096 2.355990 0.062797 -0.016690 -631044.000000 0 0 1
-26.973727 17.033302 -31.305310 44.696060 -0.563244 2.346760 0.038609 -0.011465 -28339.000000 0 0 1
-27.047917 15.842002 -31.995980 44.791758 -0.529839 2.366459 0.022161 -0.002955 -34446.200000 0 0 1
-27.440677 14.607902 -31.126530 43.991391 -0.489187 2.356835 0.024165 -0.000639 185290.000000 0 0 1
-28.732187 14.621102 -30.525670 44.397430 -0.470723 2.328913 0.019667 0.004023 280455.000000 0 0 1
-29.430287 13.399002 -30.751780 44.624512 -0.427236 2.331075 0.014479 -0.002125 65465.900000 0 0 1
-29.144667 12.253502 -29.719840 43.391576 -0.398000 2.325293 -0.002252 -0.009032 -16319.500000 0 0 1
-29.738677 12.660702 -28.474230 43.075098 -0.402490 2.292996 -0.007443 -0.008199 419740.000000 0 0 1
-29.643567 11.616002 -27.565030 42.112985 -0.373466 2.284383 -0.001574 -0.010411 -31019.700000 0 0 1
-29.644567 12.086302 -26.110050 41.311183 -0.387133 2.254971 -0.008318 -0.004919 126187.000000 0 0 1
-28.384447 12.590302 -25.717500 40.318512 -0.417488 2.262511 -0.007143 -0.008653 123481.000000 0 0 1
-28.528827 13.417602 -24.579020 39.975671 -0.439621 2.232991 -0.002896 -0.007357 297023.000000 0 0 1
-27.136467 13.670102 -23.953020 38.691171 -0.466646 2.238370 0.004047 0.000090 151396.000000 0 0 1
-26.268307 14.525902 -24.693120 38.868702 -0.505130 2.259188 0.018333 -0.004450 1024160.000000 0 0 1
-24.869537 14.470402 -24.363320 37.702225 -0.526969 2.273396 0.027000 -0.005923 1188770.000000 0 0 1
-24.512937 15.233502 -23.034820 36.926232 -0.556041 2.244400 0.033899 -0.001645 -874148.000000 0 0 1
-24.583037 16.650302 -23.214120 37.688906 -0.595334 2.234375 0.051493 -0.007946 -83474.900000 0 0 1
-24.852637 17.410202 -22.062320 37.516859 -0.611087 2.199460 0.044297 -0.005993 238801.000000 0 0 1
-26.294827 17.433002 -21.478620 38.166198 -0.585447 2.168524 0.042822 -0.000717 184763.000000 0 0 1
-26.925037 16.193602 -21.285720 37.950919 -0.541472 2.166239 0.037367 0.004653 -154070.000000 0 0 1
-28.092627 16.308402 -20.498920 38.410486 -0.525975 2.133743 0.028796 0.009803 -875947.000000 0 0 1
-28.967157 15.043202 -20.682720 38.641546 -0.478983 2.135595 0.011695 0.003251 9902.790000 0 0 1
-29.724177 14.999802 -21.883120 39.842085 -0.467347 2.152258 -0.003648 0.008189 732921.000000 0 0 1
-30.807787 15.928602 -21.999720 41.071010 -0.477180 2.136075 -0.008416 0.008829 -182480.000000 0 0 1
-31.482007 16.080002 -23.377920 42.381723 -0.472225 2.155082 -0.012268 0.012100 300004.000000 0 0 1
-32.314117 15.002502 -23.883420 42.891666 -0.434658 2.161362 0.002442 0.001385 521491.000000 0 0 1
-32.758097 15.356802 -25.192920 44.086365 -0.438373 2.179062 0.017599 -0.012431 267327.000000 0 0 1
-34.041227 14.557102 -25.605380 45.014996 -0.404097 2.175865 0.010811 -0.012295 196391.000000 0 0 1
-34.043858 13.162702 -25.872640 44.739631 -0.368936 2.187432 0.014727 -0.015035 -89354.300000 0 0 1
-33.740137 12.357702 -24.691620 43.598002 -0.351087 2.172864 0.002632 -0.007523 -355480.000000 0 0 1
-33.702367 10.888102 -25.006220 43.355639 -0.312482 2.185565 0.010784 -0.010955 744965.000000 0 0 1
-34.896269 10.429902 -25.690700 44.570669 -0.290432 2.185117 0.024873 -0.018662 869797.000000 0 0 1
-34.665670 9.129602 -26.153030 44.373859 -0.257514 2.201087 0.016686 -0.008105 469962.000000 0 0 1
-35.893542 8.490902 -26.905060 45.654398 -0.232288 2.201014 0.029287 -0.007043 545506.000000 0 0 1
35.016921 7.936602 -25.968740 44.311961 0.222885 2.196964 0.012898 0.003307 -560325.000000 0 0 1
33.864701 7.409602 -26.551810 43.665992 0.215406 2.224419 0.019291 0.001563 -606963.000000 0 0 1
33.051371 6.730602 -25.447450 42.252419 0.200894 2.217141 0.023183 0.000240 -471637.000000 0 0 1
33.657551 5.554002 -24.955020 42.266189 0.163541 2.202382 0.025427 -0.006021 -583666.000000 0 0 1
32.818011 4.583702 -24.451520 41.181416 0.138773 2.206509 0.023285 0.000721 -381925.000000 0 0 1
33.553771 3.590502 -23.482320 41.111636 0.106602 2.178744 0.031455 -0.000392 611438.000000 0 0 1
34.516541 2.697602 -24.064820 42.163779 0.077995 2.178211 0.032942 -0.009510 552707.000000 0 0 1
35.066261 1.918802 -23.023420 41.992885 0.054665 2.151090 0.046478 -0.014187 -262025.000000 0 0 1
-35.829092 0.753302 -23.396320 42.798121 -0.021022 2.149175 0.061426 -0.016755 -181716.000000 0 0 1
35.401401 -0.293998 -24.093120 42.823172 -0.008305 2.168346 0.040056 -0.018979 -1530.460000 0 0 1
-35.403966 -1.228298 -24.353220 42.988707 0.034680 2.173052 0.054497 -0.025933 226104.000000 0 0 1
-23.365137 30.035902 27.224712 46.789635 -0.909673 0.949791 0.046025 -0.016107 151444.000000 0 0 1
-24.608837 30.350902 26.583382 47.259373 -0.889498 0.973390 0.027714 -0.016652 930573.000000 0 0 1
-24.877937 29.562502 25.401142 46.239283 -0.871236 0.989221 0.019126 -0.003872 -243536.000000 0 0 1
-24.811637 27.978602 25.359322 45.183124 -0.845318 0.974893 0.034739 -0.003947 90507.000000 0 0 1
-25.984547 27.369002 25.906482 45.775591 -0.811341 0.969217 0.034897 -0.007338 491961.000000 0 0 1
-26.097897 27.389302 27.294252 46.650298 -0.809538 0.945815 0.041036 -0.010568 -596076.000000 0 0 1
-25.384907 26.214602 28.060892 46.032733 -0.801476 0.915259 0.041405 -0.003822 -1395920.000000 0 0 1
-24.096937 26.337002 28.447352 45.645940 -0.829785 0.897946 0.052334 -0.005178 -1816950.000000 0 0 1
-23.836637 27.111602 29.568882 46.664151 -0.849590 0.884530 0.053114 -0.009398 174233.000000 0 0 1
-22.483937 26.739102 30.229362 46.198716 -0.871630 0.857496 0.058262 -0.001426 216784.000000 0 0 1
-21.284537 27.286202 29.673202 45.585823 -0.908340 0.861987 0.063792 -0.003334 695601.000000 0 0 1
-20.115837 26.834302 30.347002 45.229052 -0.927531 0.835290 0.085741 -0.010239 242352.000000 0 0 1
-19.630737 25.431702 29.953202 43.924157 -0.913426 0.820398 0.076987 0.000771 -898834.000000 0 0 1
-19.217437 25.505702 28.598002 42.868362 -0.925087 0.840471 0.062404 0.000798 -185011.000000 0 0 1
-19.580337 24.406002 27.716592 41.800144 -0.894669 0.845878 0.061597 -0.001284 67977.900000 0 0 1
-19.040737 22.957002 28.065122 40.953934 -0.878379 0.815801 0.045055 0.010915 389540.000000 0 0 1
-19.798137 22.345002 29.104502 41.693373 -0.845758 0.798111 0.047275 0.006427 267270.000000 0 0 1
-19.525137 20.942202 29.051112 40.789385 -0.820401 0.778137 0.051676 0.003564 168760.000000 0 0 1
-19.970437 20.204502 30.304512 41.537979 -0.791224 0.753116 0.060514 0.000111 -100242.000000 0 0 1
-19.131037 20.545302 31.360622 42.090315 -0.821028 0.730143 0.058313 -0.007644 -25894.100000 0 0 1
-19.540937 19.938702 32.584369 42.908521 -0.795473 0.708419 0.062522 -0.004127 -41616.900000 0 0 1
-18.646937 20.542702 33.675622 43.632080 -0.833735 0.689115 0.074430 -0.006192 -247614.000000 0 0 1
-18.772437 21.924802 33.902908 44.525369 -0.862703 0.705282 0.045125 -0.003468 27621.000000 0 0 1
-18.033437 22.744702 32.995152 43.945493 -0.900422 0.721494 0.057575 0.001877 499058.000000 0 0 1
-16.550737 23.008702 33.421347 43.821384 -0.947218 0.703362 0.051481 0.000322 638861.000000 0 0 1
-15.792937 21.818702 33.333567 42.855563 -0.944258 0.679620 0.067876 -0.006417 -48275.400000 0 0 1
-14.401837 22.003802 33.597112 42.665515 -0.991253 0.664130 0.036303 -0.009870 -26075.800000 0 0 1
-13.577937 20.739002 33.338068 41.543873 -0.991120 0.639359 0.018165 -0.013871 -388207.000000 0 0 1
-12.315237 20.613102 33.941968 41.576703 -1.032256 0.615699 0.004326 -0.007925 -183792.000000 0 0 1
-12.300037 20.558302 -33.310030 41.030389 -1.031628 2.518090 0.013012 -0.008986 -724898.000000 0 0 1
-10.856537 20.485802 -32.806700 40.172280 -1.083473 2.526379 0.000414 -0.010927 -241092.000000 0 0 1
-10.132237 21.670502 -33.076220 40.820451 -1.133437 2.515435 0.007775 -0.015088 -604971.000000 0 0 1
-8.820337 21.367702 -32.661780 40.014609 -1.179314 2.525680 0.003552 -0.011712 65715.900000 0 0 1
-7.849837 22.615402 -32.713170 40.536747 -1.236706 2.509851 0.001008 -0.014474 273850.000000 0 0 1
-8.022737 23.568102 -31.726640 40.328643 -1.242693 2.476245 0.009846 -0.012319 267515.000000 0 0 1
-7.305937 23.298302 -30.498300 39.068324 -1.266926 2.466486 0.008094 -0.014763 102515.000000 0 0 1
-7.047337 24.487202 -29.483510 38.968775 -1.290572 2.428884 0.014735 -0.013747 484652.000000 0 0 1
-6.029437 25.368202 -29.980230 39.733034 -1.337449 2.425752 0.005268 -0.010065 269417.000000 0 0 1
-5.733137 26.466102 -29.157920 39.793313 -1.357470 2.393127 0.011895 -0.004566 -23066.200000 0 0 1
-4.381037 27.081402 -29.603550 40.360451 -1.410413 2.394223 -0.000006 -0.004634 -357130.000000 0 0 1
-3.340437 26.120902 -29.413520 39.479301 -1.443603 2.411386 0.010766 -0.001853 243373.000000 0 0 1
-2.120737 26.381402 -30.080530 40.066372 -1.490581 2.420020 0.018525 0.002272 452040.000000 0 0 1
-1.290437 27.596802 -29.603940 40.492493 -1.524070 2.390725 0.020606 -0.010494 -956486.000000 0 0 1
-0.877737 27.635602 -28.278910 39.549889 -1.539046 2.367447 0.033632 -0.023421 281315.000000 0 0 1
-0.370337 28.957902 -27.983060 40.270944 -1.558008 2.339035 0.030034 -0.020790 -693026.000000 0 0 1
0.068963 29.220502 -26.524050 39.463499 1.568436 2.307859 0.047633 -0.034604 533143.000000 0 0 1
1.307863 28.743902 -26.030140 38.800652 1.525327 2.306176 0.074235 -0.042156 1047610.000000 0 0 1
2.512963 29.071502 -26.772200 39.600731 1.484570 2.313189 0.085856 -0.037670 623631.000000 0 0 1
3.733163 29.014302 -25.798690 39.004341 1.442833 2.293522 0.088763 -0.044623 67186.200000 0 0 1
4.012263 27.688802 -25.383630 37.776933 1.426892 2.307614 0.106407 -0.035384 1194110.000000 0 0 1
5.236963 27.718302 -24.585220 37.418753 1.384062 2.287668 0.073858 -0.025524 1177810.000000 0 0 1
5.809463 26.331602 -24.169220 36.211246 1.353648 2.301576 0.078077 -0.023586 -197621.000000 0 0 1
7.022663 26.573002 -23.495120 36.158856 1.312425 2.278085 0.063428 -0.020738 -496222.000000 0 0 1
7.578563 25.334002 -23.045320 35.076104 1.280123 2.287641 0.065223 -0.008325 594748.000000 0 0 1
9.059263 25.419302 -22.579020 35.185555 1.228438 2.267526 0.046322 0.011468 -168847.000000 0 0 1
9.293963 26.337602 -21.498320 35.245209 1.231560 2.226812 0.047951 0.007583 63461.100000 0 0 1
10.624863 26.433602 -21.029520 35.409938 1.188614 2.206679 0.044781 0.001945 194419.000000 0 0 1
11.270163 25.245302 -20.304320 34.301709 1.150918 2.204252 0.013208 0.006247 -364834.000000 0 0 1
11.448763 24.117402 -21.136820 34.051262 1.127585 2.240477 0.010311 0.006475 -83689.400000 0 0 1
12.035563 23.033302 -20.454620 33.072334 1.089289 2.237605 0.014817 0.012085 -158481.000000 0 0 1
12.353763 21.935702 -21.503220 33.108593 1.057890 2.277691 0.013290 0.005710 -1117280.000000 0 0 1
11.147263 21.514402 -21.997420 32.726403 1.092750 2.307920 0.024299 -0.003818 -902222.000000 0 0 1
11.215263 20.622302 -23.101120 32.935136 1.072694 2.348174 0.029935 -0.002475 -633376.000000 0 0 1
10.493063 21.048802 -24.331520 33.840498 1.108341 2.373167 0.039010 -0.005801 -50690.300000 0 0 1
9.084563 21.014202 -24.150820 33.277441 1.162754 2.382908 0.032485 -0.008889 291319.000000 0 0 1
8.415563 20.815502 -25.367760 33.876689 1.186595 2.417086 0.033761 -0.016523 -728672.000000 0 0 1
7.038563 20.155002 -25.391330 33.173561 1.234815 2.442472 0.037622 -0.024641 428638.000000 0 0 1
5.890363 20.937302 -25.017420 33.150238 1.296552 2.425944 0.062124 -0.015708 578179.000000 0 0 1
5.846763 21.435502 -23.681520 32.472754 1.304513 2.388056 0.056702 -0.016335 -650746.000000 0 0 1
4.491863 22.106102 -23.345220 32.463147 1.370330 2.373346 0.075976 -0.022822 150514.000000 0 0 1
4.177063 23.401802 -23.841320 33.667503 1.394163 2.357657 0.077548 -0.022929 222954.000000 0 0 1
2.767063 23.551802 -23.731820 33.549118 1.453844 2.356574 0.075495 -0.016323 239827.000000 0 0 1
2.245363 24.709202 -24.597320 34.937294 1.480174 2.351870 0.069669 -0.010486 -659151.000000 0 0 1
0.851963 24.651202 -24.720120 34.921225 1.536249 2.357292 0.075315 -0.033986 -614168.000000 0 0 1
0.514663 25.331202 -25.918280 36.244888 1.550482 2.367546 0.062185 -0.029274 1018140.000000 0 0 1
-1.037337 25.246502 -26.189400 36.391573 -1.529731 2.374103 0.066923 -0.026866 825467.000000 0 0 1
-1.443037 23.995202 -26.499750 35.778329 -1.510730 2.404856 0.083168 -0.032862 -720044.000000 0 0 1
-2.634337 23.980402 -27.234590 36.382995 -1.461381 2.416673 0.077449 -0.025770 -34223.600000 0 0 1
-3.169937 22.565202 -27.633050 35.816509 -1.431231 2.452019 0.066505 -0.029242 -426666.000000 0 0 1
-2.428137 22.037802 -28.683090 36.253003 -1.461058 2.483552 0.083765 -0.034287 -285553.000000 0 0 1
-2.838137 20.761702 -29.131860 35.885493 -1.434938 2.518025 0.072753 -0.034184 122020.000000 0 0 1
-4.176237 20.714602 -29.942930 36.648530 -1.371855 2.527037 0.053557 -0.026546 132514.000000 0 0 1
-4.122837 21.028602 -31.333450 37.960308 -1.377193 2.541754 0.053799 -0.021891 -146666.000000 0 0 1
-3.809937 22.421502 -31.518470 38.867124 -1.402481 2.516534 0.063725 -0.023910 -277641.000000 0 0 1
-3.329937 22.579202 -32.996660 40.120923 -1.424374 2.536466 0.043082 -0.012797 144803.000000 0 0 1
-2.098637 21.915202 -33.219610 39.852514 -1.475326 2.556324 0.040988 -0.007270 157846.000000 0 0 1
-1.810537 22.012302 34.041912 40.579197 -1.488730 0.575536 0.040775 0.006555 533343.000000 0 0 1
-0.696937 20.997902 33.575607 39.607057 -1.537618 0.559128 0.054777 0.011350 640295.000000 0 0 1
-1.142437 19.665802 33.396353 38.773255 -1.512769 0.532925 0.041139 0.017439 -358439.000000 0 0 1
-0.095437 18.897802 32.886289 37.929461 -1.565746 0.521570 0.052105 0.011079 -197797.000000 0 0 1
-0.413737 17.449902 32.471432 36.865487 -1.547091 0.493229 0.039099 0.015599 -40576.500000 0 0 1
-1.171237 17.380902 31.294642 35.816507 -1.503512 0.507938 0.022689 0.009072 -86778.100000 0 0 1
-1.649637 16.044302 31.068322 35.005450 -1.468339 0.478844 0.018412 0.005249 235895.000000 0 0 1
-2.632637 16.050002 29.844012 33.988209 -1.408217 0.498983 0.022434 0.001067 -31849.600000 0 0 1
-3.902437 16.595002 30.081382 34.576186 -1.339835 0.515588 0.009771 -0.006014 -328570.000000 0 0 1
-4.041737 17.860002 29.420772 34.653962 -1.348244 0.556731 0.010940 -0.002824 -1055220.000000 0 0 1
-5.390237 18.504002 29.556592 35.285193 -1.287339 0.577832 -0.001388 -0.010951 -1635070.000000 0 0 1
-6.286837 17.898602 28.758122 34.451616 -1.233011 0.583137 -0.003666 -0.005532 -501852.000000 0 0 1
-7.638037 18.234902 29.122782 35.199257 -1.174130 0.596389 -0.002874 -0.008595 850490.000000 0 0 1
-8.733037 17.493102 28.302292 34.399045 -1.107767 0.604540 0.003744 -0.004397 99781.200000 0 0 1
-9.105037 16.130302 28.527242 34.013113 -1.056913 0.575881 0.024659 -0.010359 172721.000000 0 0 1
-9.901737 15.989702 29.712992 35.164995 -1.016337 0.564307 0.023811 -0.011064 -386829.000000 0 0 1
-10.415537 14.562402 29.911382 34.860260 -0.949919 0.539362 0.037508 -0.014952 -94291.500000 0 0 1
-9.402737 13.583402 30.045312 34.287622 -0.965309 0.502725 0.035454 -0.009117 294540.000000 0 0 1
-8.580837 13.555502 31.194392 35.078091 -1.006454 0.475019 0.024910 -0.010102 -182116.000000 0 0 1
-9.287737 13.123102 32.524592 36.281220 -0.954895 0.459086 0.046211 -0.021640 -262413.000000 0 0 1
-9.614237 11.740602 32.512202 35.879222 -0.884644 0.436689 0.046645 -0.019638 288755.000000 0 0 1
-10.058637 11.344102 33.765753 37.013388 -0.845387 0.422034 0.049131 -0.015723 -404772.000000 0 0 1
-10.584137 9.937002 33.935599 36.910606 -0.753874 0.404245 0.056816 -0.013574 -641925.000000 0 0 1
-9.579937 8.960902 33.902291 36.351593 -0.752023 0.369185 0.057080 -0.007726 4213.410000 0 0 1
-9.213437 8.380102 -33.526280 35.764857 -0.738068 2.785909 0.073853 -0.026237 47459.100000 0 0 1
-8.322537 9.157602 -32.509820 34.785266 -0.833134 2.777890 0.067286 -0.027543 131496.000000 0 0 1
-9.017237 10.145602 -31.691160 34.475694 -0.844213 2.736922 0.053802 -0.021168 544861.000000 0 0 1
-8.143837 10.865002 -30.831020 33.688606 -0.927585 2.726742 0.054947 -0.011174 325042.000000 0 0 1
-7.242437 11.948402 -31.475670 34.437407 -1.025872 2.723824 0.031658 -0.008767 -292161.000000 0 0 1
-7.953537 13.097602 -31.765880 35.268642 -1.025062 2.692136 0.027086 -0.013534 -134120.000000 0 0 1
-7.124337 14.167902 -32.243090 35.931915 -1.104871 2.684498 0.009978 -0.014395 11714.800000 0 0 1
-7.768437 15.496102 -32.703190 37.013193 -1.106097 2.654196 0.005396 -0.009436 -498409.000000 0 0 1
-8.260637 15.574302 -34.017810 38.314598 -1.083124 2.663459 0.013596 -0.016938 -91653.700000 0 0 1
-8.725137 16.917502 -34.191430 39.132899 -1.094631 2.633607 0.025117 -0.015689 -1393290.000000 0 0 1
-9.228337 17.105302 32.986600 38.286673 -1.076049 0.532444 0.009493 -0.012700 814557.000000 0 0 1
-10.460337 16.459102 32.634235 38.017285 -1.004657 0.538644 0.014685 -0.013088 1149780.000000 0 0 1
-11.578137 16.888202 33.440273 39.211178 -0.969817 0.549425 0.017013 -0.021081 -750210.000000 0 0 1
-12.890437 16.159902 33.127056 39.047505 -0.897471 0.557882 0.030362 -0.029732 -199661.000000 0 0 1
-12.709037 14.777202 33.273640 38.561904 -0.860500 0.529889 0.030277 -0.028825 -310307.000000 0 0 1
-13.895537 14.212502 33.718928 39.141375 -0.796674 0.532649 0.032738 -0.024784 -599823.000000 0 0 1
-14.042237 12.687402 33.493702 38.470543 -0.734755 0.514310 0.032174 -0.024244 107027.000000 0 0 1
-14.366437 12.303802 32.169442 37.318240 -0.708213 0.531535 0.025013 -0.019569 754892.000000 0 0 1
-13.119537 12.037402 31.517192 36.198822 -0.742409 0.514236 0.034040 -0.005186 561285.000000 0 0 1
-13.260937 11.552902 30.052782 34.820851 -0.716673 0.529483 0.030135 0.004670 -109788.000000 0 0 1
-13.871137 10.274502 29.925712 34.547389 -0.637529 0.523205 0.024950 0.005566 83903.700000 0 0 1
-14.207437 9.990302 28.574562 33.438944 -0.612853 0.546152 0.017943 0.009279 -229110.000000 0 0 1
-14.842037 8.693002 28.207602 33.038207 -0.529839 0.547579 0.023427 0.003305 -62036.700000 0 0 1
-14.051637 7.600702 28.609332 32.767561 -0.495839 0.509273 0.000134 0.002714 -383601.000000 0 0 1
-14.722537 6.413102 28.379592 32.608008 -0.410813 0.514933 0.016963 0.006325 292141.000000 0 0 1
-13.843937 5.081102 28.464382 32.057655 -0.351763 0.478010 0.012457 0.007257 750287.000000 0 0 1
-12.936237 4.732802 27.406032 30.673054 -0.350730 0.465741 0.006832 -0.000194 40180.800000 0 0 1
-13.546637 4.624602 26.143082 29.805353 -0.328978 0.500949 0.020263 0.002585 -81135.900000 0 0 1
-12.617637 4.341802 24.899332 28.249473 -0.331414 0.491960 0.011488 0.004994 -57787.800000 0 0 1
-11.902637 3.140902 25.043642 27.905591 -0.258002 0.456861 0.000991 -0.000840 -236245.000000 0 0 1
-11.386737 2.704902 23.841732 26.559414 -0.233226 0.456331 0.007177 -0.009211 -518048.000000 0 0 1
-10.376237 1.556002 23.940152 26.138445 -0.148849 0.413057 0.004340 -0.008113 230182.000000 0 0 1
-9.069637 2.013402 24.263582 25.981407 -0.218451 0.365675 0.004498 -0.018319 260959.000000 0 0 1
-8.199537 1.022702 24.816212 26.155739 -0.124086 0.321424 -0.000888 -0.002338 -31773.500000 0 0 1
-6.763437 1.423302 24.473502 25.430733 -0.207414 0.275243 0.015154 -0.013213 -1901030.000000 0 0 1
-6.467637 1.373302 23.077672 24.006150 -0.209227 0.279029 0.027431 -0.012933 540235.000000 0 1 0
-5.132537 1.810002 22.774972 23.416199 -0.339036 0.234563 0.025224 -0.015706 673544.000000 0 1 0
-4.647837 3.135802 23.364172 24.027488 -0.593530 0.235519 0.043061 -0.017287 -1308520.000000 0 1 0
-4.170937 2.947902 24.689332 25.212099 -0.615256 0.203994 0.038721 -0.018341 -317524.000000 0 0 1
-3.836837 4.196602 25.202522 25.836019 -0.830152 0.221904 0.037783 -0.019031 -7787.040000 0 0 1
3.916163 -23.188698 13.064380 26.902232 -1.403493 1.063719 0.062720 -0.011350 323151.000000 0 0 1
3.998563 -24.427498 13.635480 28.259821 -1.408544 1.067285 0.053297 -0.010026 1705230.000000 0 0 1
2.682263 -25.042998 13.327280 28.494959 -1.464097 1.084102 0.056579 -0.005403 2155910.000000 0 0 1
2.450963 -26.387258 13.985780 29.964924 -1.478178 1.085197 0.043535 -0.004485 -39983.100000 0 0 1
2.257963 -26.237098 15.372180 30.492419 -1.484948 1.042421 0.041678 -0.003947 20313.200000 0 0 1
2.165063 -27.526438 15.926480 31.875462 -1.492304 1.047605 0.039777 -0.002370 -274587.000000 0 0 1
2.119063 -27.460978 17.522980 32.644304 -1.493783 1.004174 0.023774 0.003121 228004.000000 0 0 1
3.316363 -26.870538 18.005780 32.515107 -1.447997 0.983915 0.039242 -0.001238 399731.000000 0 0 1
3.575263 -27.389928 19.308380 33.701694 -1.440998 0.960732 0.028537 0.005165 -90012.000000 0 0 1
4.115263 -26.347768 20.316980 33.524915 -1.415858 0.919741 0.036012 0.003997 -856796.000000 0 0 1
3.174563 -25.460668 20.765980 33.008323 -1.446752 0.890384 0.039911 0.007532 -544728.000000 0 0 1
3.652063 -24.555798 21.759380 33.012049 -1.423153 0.851129 0.050996 0.004967 1260980.000000 0 0 1
2.446463 -23.724198 22.457480 32.759138 -1.468039 0.815460 0.063723 -0.003197 1273850.000000 0 0 1
1.972063 -22.563898 21.805480 31.440380 -1.483619 0.804391 0.060998 -0.005225 -70511.100000 0 0 1
2.988863 -21.594098 21.552980 30.655657 -1.433259 0.791095 0.049464 0.000890 -12946.200000 0 0 1
2.747263 -20.432598 20.571980 29.124644 -1.437143 0.786478 0.043553 0.005621 -498238.000000 0 0 1
1.982663 -19.420498 21.098980 28.744628 -1.469058 0.746582 0.027350 -0.000341 -346354.000000 0 0 1
1.636463 -18.497898 20.038780 27.320376 -1.482559 0.747378 0.012612 -0.003045 155529.000000 0 0 1
1.261963 -17.090498 20.679180 26.857143 -1.497090 0.692003 0.021253 -0.005784 -440779.000000 0 0 1
2.294663 -16.196498 20.824480 26.481144 -1.430057 0.665855 -0.000875 0.008017 -690653.000000 0 0 1
1.716863 -14.963398 21.213580 26.016665 -1.456558 0.617404 0.005454 0.008945 210701.000000 0 0 1
2.595663 -13.736298 21.004580 25.231245 -1.384035 0.587222 -0.010746 0.006232 -547792.000000 0 0 1
2.967463 -13.235798 19.726280 23.939889 -1.350244 0.602375 -0.020726 0.006169 501999.000000 0 1 0
1.865663 -12.806698 18.892480 22.900175 -1.426135 0.600607 -0.008256 0.012275 652773.000000 0 1 0
1.059063 -11.615998 19.410280 22.645352 -1.479875 0.541101 -0.008648 0.011496 -595588.000000 0 1 0
1.623363 -10.348698 19.105880 21.789114 -1.415198 0.501517 -0.003426 0.006897 -157665.000000 0 1 0
1.272763 -9.410498 20.165780 22.289820 -1.436363 0.440102 0.001292 -0.000364 73164.600000 0 1 0
-0.145737 -8.827598 20.093380 21.947474 1.554289 0.413994 0.013781 -0.010909 -27616.000000 0 1 0
-0.585937 -8.155498 21.295880 22.811619 1.499074 0.366593 0.016449 -0.015166 -1138790.000000 0 1 0
-1.865037 -7.658098 21.218580 22.635215 1.331909 0.355667 0.020023 -0.018721 -940846.000000 0 1 0
-2.224237 -6.942898 22.523480 23.673998 1.260765 0.313041 0.018153 -0.014580 -228629.000000 0 1 0
-2.314537 -7.884798 23.565280 24.956953 1.285273 0.335527 0.020464 -0.011121 25286.000000 0 1 0
-2.302737 -7.200598 24.766880 25.894971 1.261277 0.296257 0.033573 -0.004128 -95113.800000 0 0 1
-2.309737 -8.203598 25.895480 27.261874 1.296349 0.317948 0.035639 -0.004327 -280952.000000 0 0 1
-1.112037 -8.889398 26.104880 27.599325 1.446346 0.330587 0.038947 -0.007274 -501375.000000 0 0 1
-1.207737 -9.937598 27.070780 28.862460 1.449857 0.354202 0.043727 -0.012008 -67201.700000 0 0 1
0.055063 -10.821898 27.209780 29.282907 -1.565708 0.378545 0.046870 -0.014580 738214.000000 0 0 1
1.081463 -10.239098 28.045180 29.875421 -1.465566 0.351848 0.036096 -0.010807 735844.000000 0 0 1
2.166163 -11.151198 28.250580 30.448920 -1.378932 0.382318 0.042848 -0.016636 535214.000000 0 0 1
3.126663 -10.631998 29.344180 31.367121 -1.284779 0.361103 0.046508 -0.013563 142143.000000 0 0 1
2.583463 -10.850398 30.602080 32.571348 -1.337050 0.349512 0.039918 -0.017534 -11931.800000 0 0 1
3.350663 -10.069798 31.468380 33.209738 -1.249576 0.325269 0.038057 -0.007733 -329668.000000 0 0 1
2.770263 -9.995298 32.901280 34.497457 -1.300426 0.305387 0.028930 -0.008538 -129024.000000 0 0 1
2.789063 -11.227598 33.571080 35.508523 -1.327313 0.331862 0.032819 -0.016554 69692.900000 0 0 1
2.364363 -11.289798 -33.745113 35.662058 -1.364355 2.812225 0.029363 -0.013702 -154021.000000 0 0 1
3.316163 -10.617198 -32.716713 34.555826 -1.268058 2.813872 0.019449 -0.001659 -66323.100000 0 0 1
3.138363 -9.232098 -32.767113 34.187200 -1.243111 2.852354 0.012895 -0.005562 268413.000000 0 0 1
3.964663 -8.623398 -31.789313 33.175924 -1.139859 2.851454 0.013096 -0.008524 -409546.000000 0 0 1
3.617263 -7.149398 -31.436913 32.441917 -1.102397 2.892034 0.009626 -0.003299 -136575.000000 0 0 1
3.721663 -6.210998 -32.457813 33.255629 -1.030961 2.922107 0.018401 -0.005194 152530.000000 0 0 1
3.346063 -4.910298 -31.953913 32.501688 -0.972637 2.957738 0.015922 -0.001639 181220.000000 0 0 1
3.503363 -3.815798 -33.037213 33.440862 -0.828060 2.986062 0.018221 0.000385 765856.000000 0 0 1
2.419363 -3.778598 -34.007613 34.302315 -1.001284 3.010416 0.019297 0.000831 793279.000000 0 0 1
2.631463 -2.751698 33.678180 33.892716 -0.807730 0.112575 0.033387 0.001104 -58153.900000 0 0 1
1.927963 -3.143198 32.325580 32.535209 -1.020599 0.113579 0.047965 -0.001881 451552.000000 0 0 1
0.583663 -2.738098 32.185680 32.307210 -1.360776 0.086765 0.054445 -0.011367 -366422.000000 0 0 1
-0.008537 -3.459398 31.119080 31.310775 1.568328 0.110712 0.054881 -0.009334 838403.000000 0 0 1
-1.554037 -3.612698 30.989080 31.237632 1.164563 0.126233 0.046946 -0.012677 964334.000000 0 0 1
-2.317737 -2.407398 30.834180 31.014740 0.804371 0.107958 0.039625 -0.015599 604943.000000 0 0 1
-3.708437 -2.692398 30.672780 31.013238 0.627976 0.148310 0.028150 -0.011818 891012.000000 0 0 1
-4.538937 -1.530998 30.038580 30.418122 0.325319 0.158136 0.030562 -0.011935 -85590.800000 0 0 1
-4.376837 -1.513698 28.636180 29.008253 0.332967 0.160337 0.030418 -0.010566 65643.200000 0 0 1
-5.370737 -0.817698 27.885280 28.409545 0.151090 0.192410 0.020694 -0.013668 245806.000000 0 0 1
-5.589337 0.695702 28.125380 28.683822 -0.123833 0.197648 0.028491 -0.013131 107052.000000 0 0 1
-6.758037 0.900802 28.902180 29.695429 -0.132512 0.231658 0.018733 -0.015213 -209321.000000 0 0 1
-7.042937 2.239802 29.120380 30.043571 -0.307907 0.248544 0.024056 -0.017033 330228.000000 0 0 1
-8.479337 2.542802 29.657180 30.950175 -0.291349 0.290072 0.016882 -0.014753 623418.000000 0 0 1
-9.473037 2.341502 28.660480 30.276132 -0.242318 0.328163 0.002439 -0.007444 146345.000000 0 0 1
-10.758237 2.775402 29.105880 31.154370 -0.252474 0.364654 -0.002991 0.000240 -158386.000000 0 0 1
-11.802437 1.945802 28.371180 30.789731 -0.163395 0.399001 -0.004950 0.002603 -688006.000000 0 0 1
-11.776437 0.567302 28.749480 31.073122 -0.048135 0.389181 -0.004798 0.003009 46404.500000 0 0 1
-12.148837 -0.158698 27.566380 30.125151 0.013062 0.415135 -0.005665 0.010001 -720985.000000 0 0 1
-12.218637 -1.726498 27.702980 30.327067 0.140371 0.419055 -0.004365 0.010324 903013.000000 0 0 1
-10.965537 -2.326298 28.120880 30.272736 0.209047 0.379317 0.000534 0.002895 1329010.000000 0 0 1
-9.793837 -2.177298 27.327080 29.110637 0.218756 0.351864 -0.005439 0.005376 -96950.500000 0 0 1
-9.800237 -2.782798 25.906880 27.838014 0.276670 0.374667 -0.002255 0.003810 -716294.000000 0 0 1
-10.609937 -2.117198 24.958480 27.202555 0.196961 0.409035 -0.010572 0.001270 98418.500000 0 0 1
-10.500937 -2.597098 23.629280 25.987641 0.242455 0.429316 0.001059 -0.000045 -540602.000000 0 0 1
-9.467237 -2.005698 22.655280 24.635606 0.208770 0.403696 0.009519 -0.009074 -693705.000000 0 1 0
-8.195037 -2.189098 23.178880 24.682205 0.261030 0.350816 0.005366 -0.007367 -1194910.000000 0 1 0
-7.265637 -2.242898 22.112780 23.383650 0.299419 0.331205 0.008471 -0.007568 -705622.000000 0 1 0
-5.873737 -2.440098 22.700580 23.574800 0.393733 0.273182 0.014191 -0.005640 -856735.000000 0 1 0
-5.440337 -3.768298 22.745680 23.688885 0.605782 0.283138 0.019003 -0.004544 -157175.000000 0 1 0
-6.031837 -4.668398 23.681780 24.879785 0.658660 0.311587 0.021544 -0.001918 -37579.200000 0 1 0
-5.763337 -6.154198 23.282380 24.762056 0.818184 0.347450 0.029416 -0.004361 -60864.400000 0 1 0
-6.576237 -6.560398 22.180180 24.046748 0.784192 0.396606 0.033061 -0.013996 177712.000000 0 1 0
-6.170437 -6.050598 20.929280 22.643294 0.775592 0.391589 0.025152 -0.016784 -334587.000000 0 1 0
-7.324237 -6.056598 19.895280 22.048786 0.690945 0.445652 0.027413 -0.016440 -337630.000000 0 1 0
-8.112937 -4.951298 20.080580 22.216318 0.547956 0.442074 0.024203 -0.014162 -1367210.000000 0 1 0
-9.174737 -4.886998 19.214580 21.846250 0.489431 0.495909 0.031968 -0.010073 -221776.000000 0 1 0
-9.944737 -3.545298 19.301780 22.000583 0.342454 0.500526 0.028483 -0.011226 400009.000000 0 1 0
-9.057937 -2.518298 18.866880 21.079545 0.271173 0.462292 0.030043 -0.012894 670073.000000 0 1 0
-9.669737 -1.204598 18.884080 21.250020 0.123936 0.476378 0.023656 -0.006324 166544.000000 0 1 0
-8.705437 -0.118198 18.297980 20.263629 0.013577 0.444104 0.026708 -0.008619 643923.000000 0 1 0
-7.480437 0.180002 18.945780 20.369877 -0.024058 0.376144 0.024989 -0.007105 621890.000000 0 1 0
-7.773237 0.830102 20.189080 21.649740 -0.106387 0.369433 0.033999 -0.006452 -339556.000000 0 1 0
-7.787437 2.372802 20.132780 21.716427 -0.295760 0.384260 0.034614 -0.011764 266018.000000 0 1 0
-8.933237 2.979802 19.534780 21.686161 -0.321958 0.449200 0.025478 -0.007626 357652.000000 0 1 0
-8.620037 4.238902 18.990380 21.281632 -0.457026 0.468301 0.021533 -0.014150 -157811.000000 0 1 0
-9.484237 4.657302 17.819680 20.716713 -0.456468 0.535214 0.018718 -0.011017 -206246.000000 0 1 0
-10.832937 4.959902 18.135280 21.698883 -0.429366 0.581262 0.022607 -0.003026 -252897.000000 0 1 0
-11.542237 5.308202 17.025180 21.242810 -0.431051 0.641070 0.027299 0.003089 -533820.000000 0 1 0
-11.850537 6.789302 16.938780 21.758955 -0.520263 0.678565 0.039118 -0.001322 -508216.000000 0 1 0
-10.643037 7.493602 16.683480 21.160501 -0.613462 0.662551 0.032528 -0.004099 609344.000000 0 1 0
-10.884137 8.873202 16.764280 21.868681 -0.683966 0.697285 0.043592 -0.010759 -241923.000000 0 1 0
-9.591637 9.680602 16.849080 21.670372 -0.790014 0.680089 0.033934 -0.009963 -292294.000000 0 1 0
-8.966437 9.788402 18.140680 22.478747 -0.829197 0.631717 0.048543 0.002358 -467654.000000 0 1 0
-7.792737 10.514902 18.166280 22.389811 -0.933007 0.624315 0.048231 -0.011769 -530414.000000 0 1 0
-7.943737 12.074302 18.002780 23.086615 -0.988884 0.676461 0.036006 -0.009311 -524551.000000 0 1 0
-8.080537 12.483002 16.669880 22.338427 -0.996305 0.728397 0.033084 -0.018151 3319.000000 0 1 0
-8.484337 13.788502 16.620980 23.202666 -1.019188 0.772255 0.029382 -0.019055 -355035.000000 0 1 0
-8.601137 14.379702 15.164080 22.598777 -1.031742 0.835222 0.033410 -0.017412 1697800.000000 0 1 0
-7.322337 15.000902 14.796280 22.306357 -1.116693 0.845548 0.037723 -0.009569 1446820.000000 0 1 0
-7.111937 15.086702 13.419480 21.407257 -1.130286 0.893272 0.028145 -0.026362 -614559.000000 0 1 0
-6.311937 16.317702 12.944980 21.764201 -1.201707 0.933800 0.002448 -0.018681 -997416.000000 0 1 0
-4.981337 16.196402 13.266880 21.520856 -1.272420 0.906550 -0.004436 -0.012428 -1480010.000000 0 1 0
-4.439837 17.530502 13.518480 22.578307 -1.322748 0.928872 -0.000270 -0.008195 75950.200000 0 1 0
-2.918837 17.478002 13.811280 22.466678 -1.405323 0.908734 0.000147 -0.000447 67171.600000 0 1 0
-2.545837 16.700902 14.983180 22.580901 -1.419524 0.845265 0.002184 -0.004523 -77228.100000 0 1 0
-2.385337 15.367502 14.612280 21.339369 -1.416806 0.816526 0.002231 -0.009730 -934410.000000 0 1 0
-1.584437 14.597902 15.672080 21.476109 -1.462681 0.752848 -0.015964 -0.006481 -805866.000000 0 1 0
-0.241537 14.648002 15.326980 21.202325 -1.554308 0.762818 -0.021249 -0.002256 -1008380.000000 0 1 0
0.569563 13.844902 16.176080 21.299560 1.529681 0.708320 -0.020744 -0.003245 945522.000000 0 1 0
1.705363 14.684602 16.919680 22.468230 1.455182 0.718112 -0.019042 0.000553 522600.000000 0 1 0
1.126863 15.566602 17.872880 23.728227 1.498533 0.717833 -0.021561 0.003632 -21282.700000 0 1 0
1.991363 16.548802 18.444580 24.860227 1.451039 0.734850 -0.004114 -0.000319 73336.500000 0 1 0
1.128863 17.638602 19.228980 26.117968 1.506884 0.743306 0.004850 0.000747 562024.000000 0 0 1
0.595863 18.652902 18.429180 26.228238 1.538862 0.791686 0.001070 0.004845 223920.000000 0 0 1
-0.612537 18.247002 17.779180 25.483868 -1.537240 0.798665 0.002210 0.008085 -384990.000000 0 0 1
-1.144037 19.304502 16.856880 25.653986 -1.511603 0.853850 0.000868 0.007609 -314954.000000 0 0 1
-1.695437 20.440602 17.554380 26.997203 -1.488041 0.862910 0.003038 0.005774 142486.000000 0 0 1
-2.297537 21.280602 16.582980 27.076519 -1.463249 0.911642 0.014253 -0.001523 -26999.800000 0 0 1
-3.237837 22.375302 17.172680 28.390820 -1.427088 0.921197 0.016770 0.006591 -251506.000000 0 0 1
-4.369937 21.943402 17.869280 28.634252 -1.374222 0.896878 0.030102 0.003673 -258845.000000 0 0 1
-4.873537 23.052602 18.634580 30.040329 -1.362455 0.901647 0.041829 -0.002155 423712.000000 0 0 1
-6.088337 22.660602 19.522480 30.523727 -1.308320 0.876840 0.040696 -0.002004 117167.000000 0 0 1
-7.372637 22.602402 18.956380 30.406721 -1.255490 0.897678 0.029003 -0.006637 -686823.000000 0 0 1
-8.203837 22.002802 19.908780 30.786129 -1.213908 0.867572 0.006740 -0.004536 -118084.000000 0 0 1
-9.687237 22.282102 19.572380 31.199562 -1.160693 0.892678 0.010738 -0.012249 -51843.900000 0 0 1
-10.170937 23.617602 19.538380 32.295315 -1.164149 0.921042 0.013323 -0.009728 -52902.700000 0 0 1
-11.515137 23.580902 19.110880 32.463565 -1.116532 0.941363 0.000036 -0.007121 -204995.000000 0 0 1
-12.020937 25.039002 19.017980 33.662117 -1.123204 0.970403 0.004165 -0.004514 -301268.000000 0 0 1
-12.456637 25.540202 20.246580 34.891170 -1.117016 0.951726 0.007101 -0.005980 -124062.000000 0 0 1
-13.039837 26.775602 20.056780 35.906053 -1.117599 0.978111 0.008216 -0.005771 -596725.000000 0 0 1
-13.753737 27.203902 21.391980 37.240225 -1.102695 0.958886 0.028497 -0.002308 -686260.000000 0 0 1
-15.001037 26.605002 21.546980 37.378197 -1.057387 0.956408 0.022648 -0.007511 -670613.000000 0 0 1
-15.486437 26.661702 22.870580 38.389315 -1.044577 0.932592 0.015719 -0.002057 -497030.000000 0 0 1
-16.987537 26.415402 22.866880 38.848991 -0.999293 0.941459 0.030742 0.000409 -449608.000000 0 0 1
-17.422737 25.064302 22.647780 38.009116 -0.963352 0.932471 0.038075 -0.000145 -160756.000000 0 0 1
-18.828137 24.981902 22.720880 38.663064 -0.924950 0.942628 0.054464 0.005517 -11995.400000 0 0 1
27.150263 24.337102 23.515872 43.386951 0.730815 0.997977 0.026528 -0.002634 30060.500000 0 0 1
27.287463 23.664002 24.716862 43.766584 0.714402 0.970675 0.033222 -0.018724 228966.000000 0 0 1
27.233863 22.256402 24.567862 42.902337 0.685161 0.961066 0.030747 -0.013354 -714450.000000 0 0 1
26.989263 21.582702 25.963482 43.224249 0.674544 0.926458 0.062257 -0.023680 497267.000000 0 0 1
25.681063 21.763802 26.509932 42.848063 0.703021 0.903714 0.055422 -0.018929 571193.000000 0 0 1
25.379163 21.112902 27.770672 43.140083 0.693891 0.871431 0.059913 -0.024067 958895.000000 0 0 1
23.927163 21.488302 28.261672 42.813296 0.731749 0.849825 0.054300 -0.024171 776045.000000 0 0 1
23.786363 22.771702 28.745052 43.710633 0.763608 0.853139 0.055640 -0.028786 56532.000000 0 0 1
22.547163 22.776802 29.432982 43.513879 0.790465 0.827926 0.064301 -0.027736 -202827.000000 0 0 1
22.248763 24.089902 30.120782 44.526310 0.825110 0.827835 0.058951 -0.031411 -426005.000000 0 0 1
21.814163 25.146302 29.314392 44.356823 0.856236 0.848810 0.060194 -0.034839 -19569.000000 0 0 1
21.380663 26.271402 30.040822 45.274389 0.887674 0.845272 0.050142 -0.031614 989762.000000 0 0 1
19.929363 26.288602 30.677612 45.048706 0.922132 0.821686 0.062247 -0.026063 501408.000000 0 0 1
18.919063 26.802002 29.784402 44.310143 0.956133 0.833647 0.064214 -0.031549 1189160.000000 0 0 1
17.745963 27.288702 30.463492 44.582696 0.994207 0.818519 0.048817 -0.032156 1096260.000000 0 0 1
16.732463 26.281702 31.080182 44.007736 1.003857 0.786618 0.052364 -0.011019 -208467.000000 0 0 1
17.322563 25.625802 32.174722 44.631442 0.976373 0.765699 0.038032 -0.020476 311927.000000 0 0 1
16.326463 24.878102 32.859357 44.330697 0.990034 0.735892 0.037949 -0.014732 391534.000000 0 0 1
16.835863 24.349502 34.259007 45.277191 0.965848 0.712622 0.037049 -0.015142 137016.000000 0 0 1
17.147063 25.469302 -33.515050 45.452895 0.978254 2.399947 0.027898 -0.015746 112314.000000 0 0 1
17.573463 25.006402 -32.252730 44.434056 0.958221 2.383075 0.011881 -0.001068 -200421.000000 0 0 1
17.828263 26.249502 -31.376830 44.624979 0.974177 2.350576 0.001289 0.004353 -319468.000000 0 0 1
16.735863 27.005002 -30.933240 44.342131 1.015994 2.342844 0.004656 -0.005943 -85060.900000 0 0 1
17.288963 28.183802 -30.367040 44.893118 1.020556 2.313701 0.013408 -0.006903 540900.000000 0 0 1
16.510463 28.643302 -29.090240 44.037214 1.047898 2.292392 0.011827 -0.002091 76208.500000 0 0 1
16.918463 27.761602 -28.072940 42.953823 1.023479 2.283076 -0.011726 0.005273 -129150.000000 0 0 1
16.345563 28.125002 -26.899440 42.211053 1.044333 2.261735 -0.013535 0.010321 -610730.000000 0 0 1
16.897763 27.336302 -25.675240 41.134241 1.017143 2.244880 -0.018282 0.010927 -502169.000000 0 0 1
18.302063 27.411702 -25.640450 41.758826 0.982097 2.231931 0.001423 0.008172 -704771.000000 0 0 1
18.770663 27.144702 -24.328820 41.000782 0.965795 2.206041 0.005284 0.010090 -265628.000000 0 0 1
20.266963 26.830602 -24.499120 41.603340 0.923869 2.200461 0.005020 0.007794 -202178.000000 0 0 1
20.956663 26.615702 -23.305720 41.118535 0.903798 2.173405 0.023755 0.010266 -1335030.000000 0 0 1
22.283063 26.350202 -23.539720 41.773035 0.868833 2.169431 0.024079 0.011863 -928371.000000 0 0 1
23.251863 26.263502 -22.353120 41.594262 0.846146 2.138158 0.037353 0.013438 88559.700000 0 0 1
23.172963 25.029202 -21.752420 40.455098 0.823889 2.138495 0.043584 0.010831 166181.000000 0 0 1
23.950763 25.019202 -20.561120 40.278520 0.807213 2.106532 0.044820 0.011725 -186771.000000 0 0 1
23.529163 24.064102 -19.440320 38.866805 0.796638 2.094601 0.038239 0.005487 -1203110.000000 0 0 1
23.759763 22.726902 -19.812420 38.387112 0.763183 2.113113 0.032574 0.009299 510078.000000 0 0 1
23.263363 21.878502 -18.722420 37.018670 0.754730 2.101055 0.030234 0.007012 -421290.000000 0 0 1
23.319663 20.326202 -18.825720 36.212828 0.716920 2.117487 0.031443 0.003999 393973.000000 0 0 1
22.492063 19.657502 -19.790020 35.832320 0.718249 2.155911 0.020761 0.001615 412528.000000 0 0 1
21.095863 19.854502 -19.691420 35.028398 0.755094 2.167787 0.019328 -0.004182 -498353.000000 0 0 1
20.360763 19.759802 -21.034120 35.319182 0.770420 2.208739 0.008067 -0.000116 -198927.000000 0 0 1
20.709963 20.610002 -22.121520 36.647461 0.782979 2.218843 0.008679 -0.001183 -122784.000000 0 0 1
20.450763 21.995502 -21.878820 37.158022 0.821775 2.200376 0.009470 0.002761 -38033.300000 0 0 1
20.028163 22.785402 -23.110920 38.136813 0.849710 2.221819 0.008752 0.001063 259710.000000 0 0 1
18.655163 22.607502 -23.394620 37.502300 0.880892 2.244415 0.018392 0.005585 -267288.000000 0 0 1
18.163563 23.235002 -24.540720 38.367008 0.907294 2.264814 0.013289 0.003985 -978146.000000 0 0 1
16.668463 23.161602 -24.713320 37.749777 0.946998 2.284531 0.002419 0.005609 -1107690.000000 0 0 1
16.026163 24.060202 -23.875120 37.493367 0.983196 2.261114 -0.001584 0.000149 -1704140.000000 0 0 1
14.698563 24.129002 -24.195120 37.197585 1.023665 2.278971 -0.001374 0.001056 -1165410.000000 0 0 1
13.995563 25.363002 -23.529820 37.320371 1.066564 2.252970 0.001756 0.003357 55251.100000 0 0 1
14.304763 26.595102 -24.114420 38.644934 1.077312 2.244647 -0.011058 0.007177 -444271.000000 0 0 1
13.432663 27.591902 -23.675920 38.759498 1.117737 2.227920 0.011773 0.005273 -271001.000000 0 0 1
13.621263 28.924502 -24.436520 40.240640 1.130678 2.223403 0.006346 -0.001510 13298.300000 0 0 1
13.301363 28.830402 -25.871650 40.956814 1.138531 2.254516 0.007661 -0.013323 176659.000000 0 0 1
12.581563 29.985402 -26.353680 41.856141 1.173517 2.251867 0.037162 -0.022641 -107171.000000 0 0 1
13.384863 31.292702 -26.459350 43.110149 1.166615 2.231613 0.038023 -0.024443 -291085.000000 0 0 1
14.427063 31.203502 -27.384810 43.951411 1.137716 2.243458 0.018893 -0.002474 -457589.000000 0 0 1
15.134263 32.426602 -27.495150 45.127749 1.134122 2.225941 0.020068 -0.012973 585062.000000 0 0 1
16.588563 32.258502 -28.060180 45.860278 1.095823 2.229209 0.008015 0.005265 1151620.000000 0 0 1
17.424263 31.586902 -27.066460 45.099119 1.066703 2.214491 -0.018539 0.012059 -486813.000000 0 0 1
18.693263 31.269302 -27.516870 45.655070 1.031985 2.217692 0.008224 0.005006 -1434520.000000 0 0 1
19.489763 30.667802 -26.367250 44.895399 1.004673 2.198520 -0.001250 0.017528 -743157.000000 0 0 1
19.837963 31.615002 -25.381150 45.135971 1.010412 2.167993 0.002471 0.014425 410891.000000 0 0 1
20.813063 32.632402 -25.620940 46.416482 1.003043 2.155532 0.011392 0.001934 1221830.000000 0 0 1
22.332063 32.215302 -25.802060 46.928595 0.964640 2.152939 0.001039 0.006717 940420.000000 0 0 1
22.490863 31.466802 -27.038620 47.192007 0.950240 2.180896 0.002637 0.010968 150183.000000 0 0 1
23.763963 31.765702 -27.589630 48.321563 0.928511 2.178470 0.004089 0.014858 -416497.000000 0 0 1
23.953063 31.021102 -28.956740 48.729363 0.913267 2.207112 0.001110 0.010476 600411.000000 0 0 1
22.962563 31.283602 -29.985050 49.041271 0.937606 2.228656 0.000492 0.006868 205407.000000 0 0 1
21.647563 30.883202 -29.799240 48.066452 0.959433 2.239487 -0.001795 0.001430 -172676.000000 0 0 1
20.554363 31.596902 -30.704060 48.616719 0.994057 2.254352 -0.012808 0.000708 280073.000000 0 0 1
20.174763 32.950702 -30.347490 49.129828 1.021403 2.236611 -0.001291 -0.002006 13930.900000 0 0 1
19.428163 33.574902 -31.364850 49.884681 1.046222 2.250737 0.004110 -0.009802 457089.000000 0 0 1
17.869663 33.415302 -31.210010 49.091466 1.079717 2.259779 0.006731 -0.014535 581636.000000 0 0 1
17.260863 32.174702 -31.573050 48.270139 1.078398 2.283776 0.014326 -0.017762 138876.000000 0 0 1
17.551363 31.705402 -32.916330 48.956794 1.065211 2.308182 0.019497 -0.029316 -667155.000000 0 0 1
17.004663 32.463702 -34.179516 50.112771 1.088286 2.321361 0.036894 -0.038831 -483142.000000 0 0 1
17.604363 33.695502 34.175745 51.120269 1.089347 0.838558 0.022006 -0.023280 -203231.000000 0 0 1
17.275163 34.223702 32.934029 50.540511 1.103338 0.861057 0.019153 -0.027147 -458307.000000 0 0 1
15.848963 -34.045584 32.601546 49.730797 -1.135110 0.855872 0.038322 -0.032649 -1829960.000000 0 0 1
14.968563 33.636002 32.599576 49.174900 1.152095 0.846069 0.053807 -0.037691 -899473.000000 0 0 1
13.630063 34.055902 32.442282 48.970243 1.190095 0.846659 0.048803 -0.036834 180339.000000 0 0 1
13.099863 -34.017884 31.150592 47.949788 -1.203211 0.863672 0.033169 -0.027825 -1402780.000000 0 0 1
13.741963 -32.797384 30.931942 47.130616 -1.174022 0.854889 0.042158 -0.022374 24007.500000 0 0 1
13.130263 -32.105484 29.866342 45.772964 -1.182579 0.859932 0.035988 -0.021201 11785.700000 0 0 1
13.639463 -30.660184 29.615672 44.756785 -1.152226 0.847709 0.032213 -0.020623 -27760.800000 0 0 1
13.309263 -29.842384 30.660892 44.808421 -1.151286 0.817199 0.026881 -0.014453 136086.000000 0 0 1
13.824063 -28.562784 30.427972 43.963607 -1.120040 0.806378 0.039210 -0.018373 -355326.000000 0 0 1
13.404863 -27.526384 31.517452 43.940208 -1.117617 0.770905 0.045944 -0.013955 1399330.000000 0 0 1
11.993163 -27.185284 31.397372 43.228122 -1.155315 0.757846 0.040721 -0.015929 1355170.000000 0 0 1
11.515363 -26.192984 30.466712 41.795891 -1.156595 0.754024 0.028407 -0.015825 106554.000000 0 0 1
11.958063 -24.688184 30.712552 41.179637 -1.119736 0.729033 0.036749 -0.014409 204803.000000 0 0 1
11.208363 -24.322984 31.882112 41.637771 -1.138986 0.698665 0.036636 -0.017467 297957.000000 0 0 1
11.509263 -23.075884 32.435912 41.437277 -1.108143 0.671690 0.038716 -0.016588 153372.000000 0 0 1
10.535363 -22.678184 33.617085 41.897521 -1.135901 0.639550 0.048548 -0.016462 27159.400000 0 0 1
10.476363 -23.490784 -33.828580 42.496399 -1.151292 2.491510 0.065852 -0.009983 503359.000000 0 0 1
11.689463 -23.621884 -33.068820 42.286922 -1.111271 2.468682 0.051457 -0.006091 721684.000000 0 0 1
12.145163 -22.307084 -32.361530 41.138542 -1.072222 2.476156 0.057326 -0.013057 -28446.800000 0 0 1
12.771363 -21.376184 -33.232070 41.526130 -1.032248 2.498540 0.035046 -0.007925 284141.000000 0 0 1
13.586663 -20.393884 -32.602840 40.785452 -0.983108 2.497049 0.037708 -0.016932 -32777.900000 0 0 1
13.915763 -19.221284 -33.531540 41.078831 -0.944159 2.525726 0.024600 -0.016207 -471052.000000 0 0 1
14.730363 -19.542984 33.991735 41.884959 -0.924905 0.623996 0.033966 -0.006432 355959.000000 0 0 1
14.412563 -18.797484 32.827235 40.480794 -0.916675 0.625051 0.010736 -0.001842 -340212.000000 0 0 1
15.081463 -17.410584 32.729725 40.022666 -0.856959 0.613254 0.029903 -0.005709 -486911.000000 0 0 1
14.768063 -16.450184 33.753071 40.348160 -0.839229 0.579849 0.012336 -0.001989 499634.000000 0 0 1
15.372263 -15.169884 33.518729 39.874014 -0.778772 0.572377 0.044637 -0.007772 1239870.000000 0 0 1
16.884363 -14.947184 33.977980 40.779935 -0.724616 0.585921 0.052170 -0.005230 1614980.000000 0 0 1
17.833363 -15.616584 33.138506 40.743921 -0.719223 0.620933 0.048564 -0.001334 751799.000000 0 0 1
19.143063 -15.144484 33.448740 41.408096 -0.669304 0.630416 0.059485 -0.004215 1117570.000000 0 0 1
20.352863 -15.673084 32.575103 41.485201 -0.656221 0.667741 0.060023 -0.004843 470127.000000 0 0 1
20.401063 -15.278184 31.227132 40.308312 -0.642791 0.684545 0.046377 -0.001786 -43928.400000 0 0 1
21.356063 -15.961684 30.481512 40.496658 -0.641840 0.718655 0.036434 -0.001151 -643000.000000 0 0 1
21.802363 -15.323484 29.123822 39.475931 -0.612627 0.741048 0.037591 0.005409 -171383.000000 0 0 1
22.415463 -14.090984 29.463522 39.611967 -0.561204 0.732053 0.030721 -0.006954 255231.000000 0 0 1
22.766663 -13.465084 28.215842 38.675097 -0.534101 0.753117 0.032689 -0.005233 56358.500000 0 0 1
23.324663 -12.043084 28.450842 38.710801 -0.476621 0.745190 0.025860 0.006794 6579.020000 0 0 1
22.296863 -11.104484 28.686562 37.991821 -0.462070 0.715032 0.024579 0.000176 117906.000000 0 0 1
22.759663 -9.814984 28.748972 37.958392 -0.407148 0.711503 0.042329 -0.005921 -812190.000000 0 0 1
21.587363 -8.879084 28.678742 36.977325 -0.390218 0.683169 0.048272 -0.002383 -762757.000000 0 0 1
20.889563 -8.643184 29.851602 37.445915 -0.392309 0.648166 0.048640 -0.003133 -554372.000000 0 0 1
19.869563 -7.701584 29.590632 36.465318 -0.369777 0.624128 0.042874 -0.011283 -329437.000000 0 0 1
18.808163 -7.703884 30.716562 36.832105 -0.388757 0.584548 0.035927 0.003388 -410005.000000 0 0 1
19.105463 -7.215584 31.993602 37.956210 -0.361111 0.568131 0.043720 0.001041 -88803.900000 0 0 1
19.592463 -8.254884 32.798428 39.086373 -0.398758 0.575120 0.049110 -0.012974 -757010.000000 0 0 1
19.715063 -7.915184 34.306705 40.351999 -0.381781 0.554458 0.053293 -0.014019 -945484.000000 0 0 1
18.530663 -7.665584 -33.678630 39.196897 -0.392235 2.604533 0.041162 -0.019070 -597060.000000 0 0 1
18.763263 -7.173484 -32.358410 38.086554 -0.365169 2.586026 0.045100 -0.029168 -355588.000000 0 0 1
17.443763 -7.042084 -31.611350 36.785232 -0.383694 2.604792 0.039139 -0.027618 -326971.000000 0 0 1
17.548663 -6.120384 -30.569450 35.775773 -0.335575 2.595333 0.036792 -0.025455 765982.000000 0 0 1
16.301663 -5.980784 -29.865270 34.546322 -0.351634 2.614950 0.040185 -0.019075 576255.000000 0 0 1
16.137963 -4.734884 -28.922540 33.456932 -0.285391 2.614893 0.027075 -0.017449 -98697.100000 0 0 1
16.911363 -4.728584 -27.724410 32.817627 -0.272647 2.576992 0.022844 -0.010553 117361.000000 0 0 1
16.743363 -5.823684 -26.758940 32.098230 -0.334732 2.556494 0.039558 -0.015858 -59017.400000 0 0 1
15.380663 -5.825284 -26.024560 30.785978 -0.362046 2.577994 0.034845 -0.015005 240120.000000 0 0 1
15.277963 -4.689884 -25.211230 29.849913 -0.297839 2.576614 0.025287 -0.009065 400854.000000 0 0 1
13.944163 -4.518184 -24.710420 28.730794 -0.313345 2.606198 0.021917 -0.008703 535229.000000 0 0 1
13.794763 -3.286784 -23.746720 27.658726 -0.233902 2.603254 0.027666 -0.003076 -12707.000000 0 0 1
14.110863 -2.034784 -24.331020 28.200272 -0.143213 2.611566 0.025363 -0.006850 115918.000000 0 0 1
13.827763 -0.974784 -23.425720 27.219875 -0.070378 2.607264 0.035005 -0.006038 76444.500000 0 0 1
14.183363 0.376216 -24.133420 27.995201 0.026519 2.610108 0.019981 -0.007930 -592379.000000 0 0 1
13.211363 0.782216 -25.057820 28.338072 0.059139 2.655673 0.037379 -0.011762 -427323.000000 0 0 1
13.618563 1.874216 -25.834650 29.264434 0.136763 2.652587 0.034501 -0.004569 355060.000000 0 0 1
12.603363 2.460216 -26.900930 29.808681 0.192779 2.696226 0.041967 -0.002463 -87894.900000 0 0 1
11.461263 3.111216 -26.492900 29.032981 0.265067 2.720176 0.042233 -0.008533 -277724.000000 0 0 1
10.757263 3.727216 -27.581100 29.838364 0.333539 2.750126 0.041083 -0.005089 996440.000000 0 0 1
9.476363 4.600216 -27.285280 29.248076 0.451933 2.773156 0.034256 -0.003422 693475.000000 0 0 1
9.681763 5.845216 -26.655530 28.955490 0.543161 2.740332 0.034931 -0.016579 571534.000000 0 0 1
8.469763 6.617216 -26.686450 28.769621 0.663219 2.758709 0.049692 -0.017015 709549.000000 0 0 1
7.979763 5.560502 -30.519930 32.032202 0.608592 2.833089 0.031027 -0.000714 -175636.000000 0 0 1
7.651663 4.296202 -30.043450 31.298789 0.511609 2.857412 0.036845 -0.000520 324969.000000 0 0 1
8.058363 3.286102 -30.948670 32.148964 0.387202 2.867476 0.028245 0.003148 79614.500000 0 0 1
7.647563 1.889302 -30.424020 31.427308 0.242197 2.888234 0.028293 -0.000286 -729719.000000 0 0 1
8.545963 1.497902 -29.476320 30.726709 0.173513 2.855331 0.044977 -0.008454 -367537.000000 0 0 1
8.177763 0.324902 -28.815360 29.955072 0.039709 2.864858 0.046596 -0.016923 -417029.000000 0 0 1
9.058263 -0.056298 -27.610340 29.058324 -0.006215 2.824576 0.042012 -0.013571 138146.000000 0 0 1
10.333163 -0.508198 -28.025440 29.874033 -0.049142 2.787959 0.052434 -0.009626 -275657.000000 0 0 1
11.125063 -0.928998 -26.971450 29.190567 -0.083312 2.749152 0.047987 -0.010067 -324073.000000 0 0 1
11.979063 -2.116498 -27.460550 30.034303 -0.174878 2.724588 0.045524 -0.006200 -384533.000000 0 0 1
11.273663 -3.282598 -27.722810 30.106895 -0.283340 2.740955 0.051808 -0.009334 -210892.000000 0 0 1
12.131663 -4.308598 -28.192990 30.993321 -0.341258 2.713230 0.057961 -0.012951 64116.600000 0 0 1
11.681663 -5.714398 -27.764720 30.659343 -0.454952 2.703559 0.048385 -0.004129 -20220.300000 0 0 1
11.693263 -5.882598 -26.332790 29.406686 -0.466105 2.680281 0.041855 -0.006982 -199840.000000 0 0 1
11.189863 -7.129098 -25.916880 29.115662 -0.567255 2.668438 0.041571 -0.010981 -256274.000000 0 0 1
10.789263 -7.072398 -24.467220 27.659933 -0.580234 2.656373 0.047335 -0.013565 -65729.400000 0 0 1
11.832863 -6.811098 -23.529220 27.203527 -0.522292 2.615813 0.023443 -0.004368 -57601.300000 0 0 1
11.475563 -7.092098 -22.135620 25.922424 -0.553562 2.594264 0.036911 -0.011878 -53538.200000 0 0 1
12.558763 -6.888798 -21.057420 25.467489 -0.501710 2.544254 0.029755 -0.010683 113805.000000 0 0 1
13.097763 -5.620798 -20.738620 25.164164 -0.405374 2.539466 0.017116 -0.013017 -483280.000000 0 0 1
14.207963 -5.756698 -19.907320 25.125827 -0.384959 2.485374 0.011937 -0.016274 -142130.000000 0 0 1
14.694363 -4.378898 -19.353320 24.691093 -0.289620 2.471587 0.020043 -0.015010 -154584.000000 0 1 0
15.312963 -3.601898 -20.322820 25.699757 -0.231019 2.482876 0.017341 -0.009509 -241901.000000 0 0 1
15.847263 -2.451498 -19.817220 25.492505 -0.153479 2.461277 0.020284 -0.008148 123131.000000 0 0 1
16.900463 -1.761598 -20.754620 26.823183 -0.103859 2.455547 0.017270 -0.006916 688959.000000 0 0 1
18.158663 -2.402698 -20.789520 27.707655 -0.131553 2.419338 0.022619 -0.010671 745153.000000 0 0 1
19.229763 -1.653698 -21.405320 28.821975 -0.085786 2.407850 0.029184 -0.008204 756379.000000 0 0 1
20.487163 -2.483798 -21.672820 29.926647 -0.120648 2.380667 0.031525 -0.011763 -1558530.000000 0 0 1
21.362263 -2.652898 -20.580820 29.781778 -0.123554 2.333743 0.039230 -0.013852 1097980.000000 0 0 1
22.679063 -3.126398 -20.941720 31.026922 -0.136991 2.311698 0.037687 -0.017056 1259100.000000 0 0 1
23.574863 -2.281198 -21.881520 32.245603 -0.096464 2.316637 0.038288 -0.016809 -1425650.000000 0 0 1
23.021663 -2.338398 -23.169420 32.745795 -0.101227 2.356827 0.039851 -0.016932 188391.000000 0 0 1
23.826463 -1.723898 -24.175120 33.986888 -0.072226 2.362153 0.035907 -0.015685 1522540.000000 0 0 1
25.177363 -2.482198 -24.595120 35.284286 -0.098271 2.342080 0.034395 -0.019775 752021.000000 0 0 1
26.216063 -2.446498 -23.605020 35.361904 -0.093051 2.301679 0.037857 -0.015753 979553.000000 0 0 1
27.396563 -3.083998 -24.147820 36.649692 -0.112097 2.290128 0.033211 -0.009654 956483.000000 0 0 1
28.384663 -2.185098 -24.935420 37.844932 -0.076830 2.290131 0.040590 -0.021295 -189741.000000 0 0 1
27.804263 -1.841098 -26.252610 38.284020 -0.066120 2.326406 0.034202 -0.019735 712469.000000 0 0 1
28.626963 -0.890598 -26.891400 39.286684 -0.031100 2.324702 0.038116 -0.018567 -260909.000000 0 0 1
28.060063 -0.514098 -28.327920 39.876089 -0.018319 2.360861 0.041113 -0.021604 821216.000000 0 0 1
26.689163 -0.115098 -28.424440 38.990684 -0.004313 2.387665 0.035285 -0.015803 599848.000000 0 0 1
26.346063 1.151302 -27.922330 38.406992 0.043671 2.384756 0.028486 -0.012554 307329.000000 0 0 1
24.851863 1.571902 -28.188430 37.612146 0.063167 2.418028 0.016126 -0.012750 423608.000000 0 0 1
23.999763 1.044502 -27.241640 36.320608 0.043494 2.418908 0.020116 -0.013532 347112.000000 0 0 1
22.638063 1.447802 -27.428010 35.593170 0.063867 2.450575 0.012337 -0.005700 667163.000000 0 0 1
21.662263 1.190302 -26.277330 34.075923 0.054893 2.451427 0.016223 -0.005695 -129305.000000 0 0 1
21.975463 1.971802 -25.173730 33.474254 0.089488 2.421937 0.016991 -0.002029 496269.000000 0 0 1
21.042163 1.629802 -24.147120 32.070427 0.077300 2.423315 0.017379 -0.005365 114273.000000 0 0 1
21.341963 2.272402 -22.742120 31.270549 0.106076 2.385132 0.032046 -0.010051 -309792.000000 0 0 1
21.215463 3.684802 -22.627920 31.236139 0.171969 2.380981 0.036939 -0.009201 356782.000000 0 0 1
21.311463 4.090602 -21.312120 30.415751 0.189637 2.347165 0.036604 -0.007944 -48883.800000 0 0 1
21.017863 5.590402 -21.007820 30.237918 0.259964 2.338870 0.048922 -0.007849 623852.000000 0 0 1
22.155963 6.409202 -21.359520 31.435548 0.281590 2.317837 0.040630 -0.005574 947861.000000 0 0 1
22.001263 7.794302 -21.064620 31.440816 0.340470 2.304974 0.025863 -0.003625 -371766.000000 0 0 1
22.352363 8.195202 -19.584520 30.827632 0.351419 2.259182 0.033705 -0.006933 -1092860.000000 0 0 1
23.694063 8.114202 -19.261220 31.594991 0.329939 2.226389 0.026706 -0.001047 -613454.000000 0 0 1
24.035663 8.421402 -17.908720 31.134472 0.337005 2.183652 0.040399 -0.010467 -68513.100000 0 0 1
23.850163 9.803202 -17.326520 31.066724 0.389981 2.162432 0.034800 -0.014269 -882988.000000 0 0 1
22.486563 10.051202 -17.207520 30.046146 0.420346 2.180596 0.043935 -0.022561 -603530.000000 0 0 1
22.228263 11.422202 -16.902420 30.170419 0.474674 2.165462 0.043645 -0.020442 -786094.000000 0 0 1
20.747663 11.719902 -16.700820 29.098780 0.514194 2.182100 0.034951 -0.019168 -270956.000000 0 0 1
19.900363 11.560702 -17.830920 29.113845 0.526279 2.229959 0.041581 -0.022642 268023.000000 0 0 1
19.350463 10.242102 -17.859520 28.254266 0.486808 2.255057 0.047158 -0.019786 -548363.000000 0 0 1
18.420763 9.980702 -19.025320 28.300207 0.496540 2.308064 0.056036 -0.009989 -180459.000000 0 0 1
19.170663 10.024802 -20.198620 29.597216 0.481818 2.321906 0.055031 -0.009817 705501.000000 0 0 1
18.306163 9.688002 -21.304820 29.713100 0.486750 2.370311 0.048792 -0.016699 456825.000000 0 0 1
18.956663 9.951302 -22.703020 31.205939 0.483408 2.385500 0.053528 -0.020275 -33339.800000 0 0 1
19.230463 11.296302 -23.041720 32.067710 0.531116 2.372488 0.044356 -0.028136 310995.000000 0 0 1
19.716963 11.464702 -24.352820 33.365519 0.526678 2.388943 0.053452 -0.024366 -101353.000000 0 0 1
19.970763 12.939402 -24.675520 34.280326 0.574910 2.374333 0.041017 -0.016722 245906.000000 0 0 1
20.795963 13.071902 -25.841290 35.652755 0.561169 2.381547 0.025671 -0.014518 431848.000000 0 0 1
21.131863 14.433302 -26.087910 36.543876 0.599233 2.365818 0.021960 -0.014313 246298.000000 0 0 1
20.012163 15.199902 -26.860990 36.783644 0.649574 2.389474 0.029900 -0.016909 652566.000000 0 0 1
18.814863 15.346202 -26.117450 35.659868 0.684207 2.392643 0.034608 -0.013909 377921.000000 0 0 1
17.720163 15.790002 -26.926830 35.894046 0.727862 2.419124 0.027683 -0.019606 680660.000000 0 0 1
16.302763 15.440102 -26.436230 34.685027 0.758228 2.437470 0.033591 -0.022986 -115441.000000 0 0 1
16.090463 14.023702 -26.372060 33.927169 0.716875 2.461181 0.029321 -0.017101 49886.000000 0 0 1
14.709363 13.819402 -26.149500 33.032372 0.754213 2.484273 0.034298 -0.021042 12084.300000 0 0 1
14.388163 12.317802 -26.078390 32.230884 0.708029 2.513436 0.034074 -0.022861 -249285.000000 0 0 1
13.048163 11.946002 -25.907980 31.371722 0.741330 2.542484 0.031930 -0.025717 -314346.000000 0 0 1
13.146463 10.599002 -25.470040 30.559635 0.678525 2.556125 0.039846 -0.020223 194901.000000 0 0 1
11.796763 9.845502 -25.411240 29.695600 0.695482 2.597745 0.054261 -0.025419 125097.000000 0 0 1
10.959463 10.275102 -24.369320 28.627807 0.753181 2.589152 0.059217 -0.030380 -204961.000000 0 0 1
9.886563 9.409602 -24.125220 27.718423 0.760685 2.626745 0.047925 -0.026654 -188974.000000 0 0 1
8.893063 9.799502 -23.008220 26.542325 0.833852 2.619646 0.041967 -0.029842 489421.000000 0 0 1
8.085763 10.950602 -23.450020 27.114548 0.934770 2.615648 0.042333 -0.031652 279028.000000 0 0 1
7.352363 11.640802 -22.446120 26.332372 1.007463 2.591384 0.042850 -0.023408 344108.000000 0 0 1
8.187063 12.684502 -21.640720 26.386462 0.997635 2.532460 0.058190 -0.027647 99984.400000 0 0 1
9.081863 12.050002 -20.766320 25.669492 0.924943 2.513225 0.064223 -0.031911 -653637.000000 0 0 1
9.892663 13.009602 -20.131420 25.930457 0.920665 2.459669 0.071151 -0.028333 -596236.000000 0 0 1
11.023863 12.367402 -19.324520 25.454180 0.842773 2.432862 0.082912 -0.025175 379645.000000 0 0 1
12.077163 11.710102 -20.053820 26.175180 0.769968 2.443608 0.082928 -0.028718 686439.000000 0 0 1
11.670563 10.450702 -20.533520 25.827208 0.730310 2.489861 0.073073 -0.037810 -1074350.000000 0 0 1
12.651463 9.812802 -21.473620 26.785574 0.659701 2.500907 0.060867 -0.037411 -592858.000000 0 0 1
13.484663 8.882102 -20.842720 26.365638 0.582454 2.482464 0.081343 -0.041334 -30812.300000 0 0 1
14.444563 8.391802 -21.748620 27.423899 0.526306 2.486602 0.078044 -0.030721 111889.000000 0 0 1
15.192263 7.080402 -21.310720 27.112428 0.436123 2.475129 0.084061 -0.028339 442182.000000 0 0 1
15.964763 7.181302 -20.108720 26.660934 0.422706 2.425291 0.077737 -0.029757 122404.000000 0 0 1
16.345863 5.940702 -19.718720 26.292719 0.348595 2.418811 0.081410 -0.030333 80266.600000 0 0 1
17.238963 5.977902 -18.427520 25.932425 0.333792 2.361144 0.068005 -0.033169 -213089.000000 0 0 1
18.508763 6.576802 -18.653620 27.088488 0.341419 2.330378 0.062498 -0.037721 307708.000000 0 0 1
19.265963 6.615802 -17.444420 26.818910 0.330777 2.278976 0.065455 -0.029818 169863.000000 0 0 1
19.928963 5.296602 -16.976120 26.709665 0.259769 2.259555 0.067050 -0.025650 -713734.000000 0 0 1
21.250463 5.090402 -17.417020 27.943639 0.235113 2.243741 0.046882 -0.021838 157952.000000 0 0 1
21.936663 4.176902 -16.574020 27.809384 0.188155 2.209290 0.054312 -0.023258 730396.000000 0 0 1
23.351963 3.787802 -17.168420 29.230400 0.160804 2.198575 0.030968 -0.003751 601659.000000 0 0 1
23.896463 2.777902 -16.380920 29.104849 0.115728 2.168595 0.022027 -0.010354 -519783.000000 0 0 1
25.184663 2.477102 -16.820020 30.386121 0.098042 2.157409 0.010841 -0.009907 -624800.000000 0 0 1
25.814363 1.358202 -16.034320 30.419163 0.052566 2.125995 0.020395 -0.026238 -265109.000000 0 0 1
25.356263 0.017602 -16.367520 30.180061 0.000694 2.144003 0.032122 -0.024345 420748.000000 0 0 1
26.403563 -0.945798 -16.204520 30.994018 -0.035806 2.120961 0.029233 -0.019685 -141344.000000 0 0 1
25.925163 -2.379498 -16.345520 30.740073 -0.091527 2.131442 0.027710 -0.026776 -325267.000000 0 0 1
25.378963 -2.945498 -15.161620 29.709299 -0.115544 2.106368 0.035771 -0.025209 366142.000000 0 0 1
25.146363 -4.328298 -15.359620 29.782405 -0.170454 2.112653 0.035829 -0.017415 -1111820.000000 0 0 1
24.521863 -4.981998 -14.116120 28.729896 -0.200438 2.084423 0.036443 -0.016597 494781.000000 0 0 1
23.153863 -4.768798 -13.767820 27.356821 -0.203121 2.098173 0.039922 -0.011491 664559.000000 0 0 1
22.260763 -5.345698 -14.713620 27.214126 -0.235677 2.142019 0.045167 -0.006084 292453.000000 0 0 1
20.819163 -5.493398 -14.075620 25.724270 -0.257983 2.149779 0.057277 -0.009720 650803.000000 0 0 1
20.721963 -6.562798 -13.122120 25.390157 -0.306713 2.113928 0.058085 -0.005567 414806.000000 0 0 1
20.785163 -6.111298 -11.813420 24.676463 -0.285964 2.070007 0.066215 -0.004376 -343043.000000 0 1 0
20.373863 -7.244598 -10.801320 24.171202 -0.341640 2.034057 0.056283 -0.004096 -71793.700000 0 1 0
19.069363 -7.784398 -10.835120 23.273102 -0.387568 2.055068 0.053207 -0.001394 622716.000000 0 1 0
18.931763 -8.796198 -11.847820 24.003241 -0.434951 2.087012 0.050959 -0.009825 191970.000000 0 1 0
17.507263 -9.458998 -11.955820 23.214619 -0.495358 2.111819 0.064451 -0.005054 825986.000000 0 1 0
16.553063 -8.467498 -12.329720 22.309738 -0.472834 2.156350 0.055836 -0.003532 385751.000000 0 1 0
15.249863 -9.033798 -12.486620 21.681409 -0.534802 2.184518 0.055757 -0.005253 999953.000000 0 1 0
14.135663 -7.929698 -12.637220 20.552285 -0.511227 2.233032 0.039075 -0.011618 124421.000000 0 1 0
14.167063 -7.084598 -13.784620 20.997927 -0.463708 2.286933 0.033943 -0.014136 772911.000000 0 1 0
15.250763 -6.129398 -13.878720 21.512186 -0.382150 2.272024 0.030688 -0.008451 529480.000000 0 1 0
14.851663 -4.991098 -14.815320 21.563317 -0.324205 2.328233 0.013436 -0.015163 199918.000000 0 1 0
13.979563 -3.981798 -14.265220 20.366134 -0.277482 2.346808 0.028934 -0.021316 428875.000000 0 1 0
13.630063 -2.910098 -15.143920 20.581195 -0.210348 2.397663 0.016690 -0.026062 -553122.000000 0 1 0
14.677963 -1.825398 -15.439120 21.380858 -0.123728 2.377630 0.032370 -0.024591 -736060.000000 0 1 0
15.745563 -2.290098 -16.258420 22.748704 -0.144431 2.366987 0.028732 -0.019619 303069.000000 0 1 0
16.877463 -1.429898 -16.112220 23.377275 -0.084521 2.331216 0.041750 -0.019712 148850.000000 0 1 0
17.891263 -2.052098 -15.155120 23.536908 -0.114199 2.270365 0.041975 -0.017504 -1037470.000000 0 1 0
17.482863 -2.000998 -13.808420 22.367989 -0.113959 2.236140 0.034834 -0.011175 125021.000000 0 1 0
18.528263 -2.495398 -12.996720 22.769239 -0.133875 2.178278 0.033461 -0.006497 13678.700000 0 1 0
18.168463 -2.686598 -11.520220 21.680090 -0.146808 2.131017 0.032118 -0.002434 -401235.000000 0 1 0
18.133363 -1.508398 -10.709920 21.113893 -0.082993 2.102782 0.040815 -0.004343 725387.000000 0 1 0
17.646263 -1.873898 -9.420020 20.090766 -0.105796 2.058811 0.040923 -0.003986 -1034250.000000 0 1 0
17.505963 -0.631498 -8.566520 19.499815 -0.036058 2.025630 0.030762 -0.002559 1091950.000000 0 1 0
18.760363 -0.084198 -8.018420 20.402288 -0.004488 1.974705 0.025442 -0.000235 2555550.000000 0 1 0
19.760263 0.416202 -8.917320 21.683169 0.021059 1.994627 0.019434 0.005866 -192028.000000 0 1 0
19.353263 1.702202 -9.630720 21.684027 0.087728 2.031009 0.017168 0.007168 -960422.000000 0 1 0
19.128863 2.727702 -8.655720 21.172511 0.141641 1.991956 0.006757 0.007971 727010.000000 0 1 0
18.597263 3.898702 -9.325520 21.166563 0.206646 2.027039 0.012171 0.001758 -387002.000000 0 1 0
18.640163 5.248802 -8.650420 21.209322 0.274478 1.990905 0.024081 0.004562 -471293.000000 0 1 0
18.021763 6.272502 -9.476220 21.305562 0.334938 2.031721 0.034164 0.001335 807949.000000 0 1 0
18.463463 7.573702 -9.131020 21.946206 0.389268 1.999909 0.053892 0.004006 -276768.000000 0 1 0
-26.243717 -30.050438 6.064880 40.355227 0.852917 1.419937 0.059228 -0.025665 114550.000000 0 0 1
-26.388907 -28.750428 6.527480 39.567279 0.828200 1.405067 0.030249 -0.015082 -233545.000000 0 0 1
-25.252597 -27.949978 6.284980 38.188950 0.836055 1.405468 0.059394 -0.014699 -386065.000000 0 0 1
-25.200277 -26.666138 7.169280 37.383626 0.813653 1.377825 0.036037 0.001103 444393.000000 0 0 1
-26.244527 -25.664258 7.119680 37.391432 0.774220 1.379217 0.028781 -0.008471 577130.000000 0 0 1
-27.531517 -25.963608 7.620880 38.602736 0.756097 1.372073 0.030032 -0.004288 204126.000000 0 0 1
-27.748277 -26.023908 9.152680 39.127768 0.753341 1.334691 0.029514 0.000515 -570902.000000 0 0 1
-26.958667 -27.027468 9.696380 39.386210 0.786673 1.322052 0.026569 -0.001433 -179603.000000 0 0 1
-27.278857 -27.308108 11.097180 40.162373 0.785934 1.290846 0.033670 -0.003314 -63392.300000 0 0 1
-26.131367 -28.135118 11.734380 40.151325 0.822306 1.274214 0.023084 -0.005504 1206730.000000 0 0 1
-24.951437 -27.432918 12.172780 39.029678 0.832733 1.253620 0.036031 -0.006115 480200.000000 0 0 1
-25.123767 -26.759968 13.392580 39.072507 0.816924 1.220941 0.041417 -0.000830 -1583630.000000 0 0 1
-23.893837 -26.174028 13.980080 38.097741 0.830909 1.195065 0.040061 0.000460 -719625.000000 0 0 1
-22.974237 -27.233308 14.300280 38.392273 0.870025 1.189119 0.050425 -0.002053 5374.930000 0 0 1
-22.056037 -26.853858 15.292880 37.966705 0.883180 1.156226 0.059425 -0.004578 105974.000000 0 0 1
-21.307037 -28.022868 15.987480 38.663555 0.920707 1.144499 0.067372 -0.018587 -145665.000000 0 0 1
-22.131437 -28.618608 16.917780 39.937908 0.912535 1.133378 0.078746 -0.015287 215036.000000 0 0 1
-21.474137 -29.815628 17.378080 40.646130 0.946621 1.129020 0.079624 -0.009286 -60331.600000 0 0 1
-22.292937 -30.657768 18.353480 42.115603 0.942077 1.119883 0.097334 -0.029504 -1038950.000000 0 0 1
-23.397337 -31.165978 17.707080 42.805306 0.926826 1.144320 0.073224 -0.019611 -676638.000000 0 0 1
-23.979437 -32.196648 18.483680 44.195973 0.930644 1.139311 0.069504 -0.023709 -223617.000000 0 0 1
-25.063047 -33.024248 17.774380 45.107493 0.921605 1.165768 0.056164 -0.025516 -229499.000000 0 0 1
-24.531737 -33.823208 16.773680 45.024126 0.943296 1.189042 0.057687 -0.026361 100013.000000 0 0 1
-25.484327 33.973767 16.309480 45.493592 -0.927220 1.204135 0.047306 -0.023122 -870075.000000 0 0 1
-25.272227 33.555346 14.819380 44.545042 -0.925282 1.231649 0.038775 -0.025042 10146.800000 0 0 1
-24.096037 32.809133 14.615780 43.251350 -0.937334 1.226083 0.029624 -0.013710 453526.000000 0 0 1
-22.896837 33.567343 14.500480 43.142735 -0.972174 1.228018 0.039372 -0.017606 -298098.000000 0 0 1
-21.587437 32.765413 14.567380 41.854490 -0.988226 1.215308 0.066894 -0.024717 -31211.000000 0 0 1
-21.415837 31.892467 13.483780 40.713387 -0.979454 1.233234 0.061673 -0.019942 136640.000000 0 0 1
-20.391037 30.921577 13.714780 39.497260 -0.987811 1.216177 0.055775 -0.016751 352570.000000 0 0 1
-20.162537 30.020937 12.486180 38.258192 -0.979375 1.238340 0.049466 -0.018544 430297.000000 0 0 1
-19.440037 30.663847 11.430880 38.063783 -1.005771 1.265780 0.039672 -0.015713 184483.000000 0 0 1
-19.757337 29.923247 10.274680 37.300431 -0.987237 1.291731 0.037674 -0.014648 225517.000000 0 0 1
-19.358437 30.617647 8.952380 37.313999 -1.006990 1.328513 0.024314 -0.012132 410624.000000 0 0 1
-17.949937 30.563827 8.730480 36.504370 -1.039772 1.329293 0.016474 -0.023637 277120.000000 0 0 1
-17.563437 31.255117 7.558380 36.639948 -1.058834 1.363017 0.014726 -0.020564 -145942.000000 0 0 1
-17.036037 30.417297 6.422580 35.449797 -1.060249 1.388616 0.004643 -0.017464 -247384.000000 0 0 1
-17.989937 29.474117 5.933180 35.036610 -1.022791 1.400634 0.001971 -0.011352 287306.000000 0 0 1
-17.921337 28.276707 6.647880 34.131229 -1.005905 1.374769 -0.007191 -0.009119 -826867.000000 0 0 1
-18.960937 27.312127 6.181080 33.818267 -0.963952 1.386990 0.003251 -0.003638 -906389.000000 0 0 1
-18.589237 26.688547 4.942180 32.897773 -0.962406 1.419997 0.005485 -0.014809 410891.000000 0 0 1
-19.626437 26.000147 4.251780 32.852433 -0.924193 1.441012 0.027674 -0.018655 -735635.000000 0 0 1
-19.159237 25.220997 3.010880 31.815727 -0.921145 1.476020 0.039545 -0.024490 -954375.000000 0 0 1
-18.551637 25.971717 1.956480 31.976885 -0.950536 1.509574 0.046121 -0.029065 1369380.000000 0 0 1
-17.235237 26.527737 2.128680 31.706553 -0.994628 1.503609 0.035637 -0.028004 438919.000000 0 0 1
-16.039737 25.570287 2.440880 30.283175 -1.010559 1.490107 0.019685 -0.025117 -419332.000000 0 0 1
-15.752937 24.538237 1.547080 29.200575 -1.000083 1.517790 0.033692 -0.030369 183151.000000 0 0 1
-15.455537 24.927417 0.223180 29.330864 -1.015785 1.563187 0.043869 -0.026476 -241988.000000 0 0 1
-15.190237 23.700697 -0.687420 28.159171 -1.000831 1.595211 0.041460 -0.025147 416081.000000 0 0 1
-16.426937 23.013487 -0.894820 28.288966 -0.950871 1.602433 0.055956 -0.032745 674921.000000 0 0 1
-16.370837 21.767187 -1.649720 27.286193 -0.925960 1.631293 0.053966 -0.021943 -464337.000000 0 0 1
-15.614337 20.476887 -1.187820 25.778312 -0.919321 1.616891 0.043135 -0.023038 -191692.000000 0 0 1
-16.135137 19.563287 -0.265520 25.360114 -0.881135 1.581267 0.063280 -0.027797 331071.000000 0 0 1
-15.111237 18.656387 0.155380 24.009049 -0.890002 1.564325 0.084837 -0.036870 456380.000000 0 1 0
-15.699337 17.437687 1.004280 23.485117 -0.837810 1.528021 0.072776 -0.039333 -31682.600000 0 1 0
-16.431437 16.576287 0.222280 23.341269 -0.789786 1.561273 0.069249 -0.028206 -89383.200000 0 1 0
-17.121637 15.726487 1.119180 23.274996 -0.742951 1.522693 0.076845 -0.043354 -144870.000000 0 1 0
-17.660337 14.492187 0.352780 22.848095 -0.687180 1.555355 0.079383 -0.035094 -745722.000000 0 1 0
-18.710837 14.819087 -0.479120 23.873214 -0.669847 1.590867 0.089437 -0.035702 -236594.000000 0 1 0
-19.580937 13.754987 -0.779120 23.942009 -0.612381 1.603344 0.090467 -0.026720 -190914.000000 0 1 0
-20.726337 14.055787 -1.769020 25.105291 -0.595918 1.641319 0.099795 -0.017972 -271522.000000 0 0 1
-21.643337 13.011887 -2.078420 25.338964 -0.541298 1.652913 0.093757 -0.019048 1306030.000000 0 0 1
-22.669137 12.753387 -1.097820 26.033515 -0.512456 1.612978 0.086528 -0.015831 840454.000000 0 0 1
-23.861937 13.799187 -1.004020 27.582924 -0.524305 1.607204 0.065671 -0.015759 5916.360000 0 0 1
-23.459337 14.963987 -0.353020 27.827793 -0.567800 1.583483 0.062927 -0.021251 1012490.000000 0 0 1
-24.587937 15.824387 -0.056520 29.240060 -0.571851 1.572729 0.060211 -0.016143 471829.000000 0 0 1
-24.203037 17.030387 0.814180 29.605472 -0.613169 1.543292 0.057739 -0.020746 -78159.000000 0 0 1
-23.659737 16.767987 2.072380 29.073069 -0.616550 1.499454 0.055363 -0.029250 256093.000000 0 0 1
-23.235837 17.885787 2.856080 29.461207 -0.656022 1.473700 0.045593 -0.025143 394739.000000 0 0 1
-24.373837 18.836087 3.374180 30.988179 -0.657934 1.461694 0.049198 -0.030519 -72293.800000 0 0 1
-25.264617 18.266887 4.368780 31.481206 -0.626011 1.431573 0.050372 -0.029085 1072970.000000 0 0 1
-26.575337 18.804187 4.427280 32.854936 -0.615795 1.435633 0.050260 -0.037619 289004.000000 0 0 1
-27.467997 18.724487 3.193980 33.396090 -0.598327 1.475011 0.054871 -0.035357 -1553900.000000 0 0 1
-28.661207 19.457087 3.258180 34.794522 -0.596400 1.477018 0.058792 -0.030232 -65076.200000 0 0 1
-29.357667 19.186287 2.057780 35.131478 -0.578857 1.512189 0.061937 -0.027269 -104974.000000 0 0 1
-30.748167 19.807487 1.826280 36.621328 -0.572276 1.520906 0.073890 -0.036644 641108.000000 0 0 1
-31.881737 19.082387 2.325780 37.228913 -0.539343 1.508283 0.086414 -0.026676 459409.000000 0 0 1
-33.053257 19.809787 2.526180 38.617704 -0.539926 1.505335 0.081884 -0.029260 -293416.000000 0 0 1
-33.350797 20.286087 3.987880 39.239065 -0.546474 1.468990 0.067391 -0.023374 -623461.000000 0 0 1
-32.485987 21.326387 4.413780 39.110556 -0.580917 1.457701 0.077669 -0.028421 452677.000000 0 0 1
-32.834317 21.943787 5.682280 39.898753 -0.589145 1.427893 0.064821 -0.021821 257176.000000 0 0 1
-31.758807 23.060887 6.028880 39.708611 -0.628046 1.418379 0.068647 -0.022435 496651.000000 0 0 1
-31.740597 24.206257 5.198280 40.254572 -0.651534 1.441300 0.063462 -0.017589 459353.000000 0 0 1
-30.648547 25.019827 5.586480 39.956651 -0.684629 1.430523 0.057502 -0.020637 70844.100000 0 0 1
-31.007537 26.495817 5.392580 41.140924 -0.707098 1.439342 0.045381 -0.014580 -120018.000000 0 0 1
-32.010857 26.834527 6.335180 42.248330 -0.697659 1.420278 0.039494 -0.005342 -15626.400000 0 0 1
-32.456017 28.098267 6.072480 43.356438 -0.713558 1.430275 0.036254 -0.007780 -122036.000000 0 0 1
-33.591927 28.550867 7.029580 44.642856 -0.704455 1.412676 0.037121 -0.003945 -295521.000000 0 0 1
-33.116747 28.812527 8.349880 44.683343 -0.716008 1.382823 0.034953 0.001410 110079.000000 0 0 1
-33.937117 29.531967 9.260380 45.930596 -0.716103 1.367788 0.045427 0.000063 -192293.000000 0 0 1
-35.132209 28.817817 9.928580 46.511455 -0.686978 1.355676 0.043666 0.005334 -241001.000000 0 0 1
-34.741543 27.649127 10.574980 45.642954 -0.672207 1.336983 0.039974 0.005004 -296472.000000 0 0 1
-35.639418 27.076547 11.494580 46.210745 -0.649703 1.319415 0.046449 0.006795 -546160.000000 0 0 1
-35.079880 25.816567 12.240080 45.242819 -0.634440 1.296840 0.029466 0.010204 -152126.000000 0 0 1
-34.004797 26.172747 13.101680 44.866390 -0.655977 1.274463 0.026574 -0.002750 195084.000000 0 0 1
-33.879547 25.063357 13.914580 44.380301 -0.636927 1.251888 0.039379 0.003234 -460988.000000 0 0 1
-32.757237 25.250427 14.904080 43.963078 -0.656703 1.224928 0.046539 0.002387 -572313.000000 0 0 1
-33.096257 26.283107 15.785280 45.114732 -0.671158 1.213341 0.050153 -0.011164 592627.000000 0 0 1
-31.960747 26.656377 16.564280 44.793160 -0.695152 1.192008 0.075193 -0.012323 197649.000000 0 0 1
-32.170467 27.922627 17.370080 46.003606 -0.714828 1.183614 0.078254 -0.028089 -196844.000000 0 0 1
-32.230367 29.079887 16.593680 46.473505 -0.734057 1.205681 0.092624 -0.026789 91558.400000 0 0 1
-32.582037 30.156837 17.413480 47.689132 -0.746762 1.197007 0.083927 -0.025126 -183300.000000 0 0 1
-32.061467 31.523747 16.922080 48.042076 -0.776942 1.210839 0.065946 -0.017691 584933.000000 0 0 1
-30.647387 31.544077 16.718880 47.051165 -0.799815 1.207525 0.052680 -0.011696 149578.000000 0 0 1
-30.222417 32.764754 16.233280 47.438834 -0.825739 1.221546 0.055989 -0.003902 -659796.000000 0 0 1
-28.784747 32.703845 15.690680 46.306594 -0.849049 1.225109 0.068085 -0.012977 -651066.000000 0 0 1
-28.603547 31.846557 14.549280 45.211145 -0.838994 1.243159 0.051732 -0.005525 96041.700000 0 0 1
-28.473807 30.491457 14.884980 44.295026 -0.819602 1.228085 0.045177 -0.011440 -613753.000000 0 0 1
-29.607047 29.611017 14.348480 44.263625 -0.785465 1.240673 0.056282 -0.009478 -142781.000000 0 0 1
-29.667497 29.490887 12.960580 43.793258 -0.782413 1.270347 0.054789 -0.010971 -217330.000000 0 0 1
-30.642387 28.530177 12.598680 43.722462 -0.749718 1.278501 0.057033 -0.002261 215650.000000 0 0 1
-30.698647 28.339127 11.061180 43.218778 -0.745453 1.311982 0.054403 0.001746 16231.600000 0 0 1
-29.678377 27.554747 10.488080 41.833838 -0.748310 1.317385 0.037977 0.003759 -227066.000000 0 0 1
-29.765627 27.623647 9.083280 41.612071 -0.748092 1.350740 0.038107 -0.004781 385904.000000 0 0 1
-28.518527 26.956147 8.437080 40.138817 -0.757242 1.359019 0.036303 -0.005821 419408.000000 0 0 1
-28.336257 27.259767 7.047580 39.946299 -0.766038 1.393442 0.038901 -0.010097 -249584.000000 0 0 1
-27.081957 26.779277 6.596480 38.653275 -0.779779 1.399299 0.048377 -0.012392 -37284.100000 0 0 1
-26.689417 27.127957 5.164080 38.404671 -0.793547 1.435923 0.049982 -0.017302 -313887.000000 0 0 1
-25.994697 28.337907 4.953180 38.772352 -0.828499 1.442696 0.036743 -0.013745 162098.000000 0 0 1
-25.796107 28.620437 3.564480 38.694626 -0.837254 1.478547 0.032477 -0.020467 147798.000000 0 0 1
-24.739237 29.722467 3.191980 38.802624 -0.876644 1.488441 0.033485 -0.019978 -556941.000000 0 0 1
-23.426237 29.274627 3.190280 37.629381 -0.895919 1.485913 0.038655 -0.017923 -1017400.000000 0 0 1
-22.593837 30.399297 3.027680 37.996916 -0.931639 1.491030 0.036355 -0.016738 1216450.000000 0 0 1
-21.070537 29.958087 2.971380 36.746206 -0.957836 1.489846 0.022792 -0.017036 1131840.000000 0 0 1
-20.101337 30.945037 2.832780 37.009239 -0.994715 1.494179 0.025456 -0.023385 -813641.000000 0 0 1
-18.805137 30.409257 2.857180 35.868086 -1.016956 1.491054 0.028070 -0.023249 -285768.000000 0 0 1
-17.761637 31.378687 2.333380 36.132291 -1.055721 1.506173 0.024893 -0.023679 -309569.000000 0 0 1
-17.194737 32.290437 3.277580 36.729741 -1.081486 1.481442 0.046207 -0.028890 -433924.000000 0 0 1
-16.120037 32.924699 2.676880 36.756729 -1.115501 1.497905 0.046876 -0.017876 -586274.000000 0 0 1
-15.820637 34.215546 3.449780 37.853628 -1.137694 1.479535 0.046458 -0.029430 -675114.000000 0 0 1
-16.846537 -33.592128 3.469680 37.739576 1.105947 1.478729 0.049030 -0.040124 -521639.000000 0 0 1
-16.672437 -32.643188 4.478980 36.927079 1.098587 1.449204 0.049362 -0.042148 -232425.000000 0 0 1
-17.789937 -31.598528 4.608980 36.553954 1.058028 1.444373 0.052397 -0.038472 -227405.000000 0 0 1
-17.791737 -30.510418 3.717480 35.514099 1.042869 1.465928 0.065479 -0.031378 179895.000000 0 0 1
-18.862337 -29.640248 4.016480 35.361903 1.004058 1.456969 0.067595 -0.030910 -111467.000000 0 0 1
-19.502737 -28.742328 2.911480 34.856203 0.974621 1.487171 0.053650 -0.039555 -57659.500000 0 0 1
-18.739837 -27.600558 2.551980 33.458705 0.974327 1.494450 0.052164 -0.029007 -29634.300000 0 0 1
-19.380837 -26.725538 1.629480 33.053388 0.943370 1.521478 0.053683 -0.023216 474076.000000 0 0 1
-18.447837 -25.474758 1.371980 31.482826 0.944038 1.527204 0.041744 -0.016668 734433.000000 0 0 1
-17.151237 -25.832178 0.946080 31.021951 0.984678 1.540294 0.048065 -0.020202 -295837.000000 0 0 1
-16.225937 -24.765498 1.199780 29.631916 0.990786 1.530296 0.041680 -0.018465 -208212.000000 0 0 1
-14.858437 -25.071858 0.607780 29.150311 1.035811 1.549945 0.045608 -0.019810 -775925.000000 0 0 1
-14.787137 -24.998298 -0.823820 29.056033 1.036631 1.599153 0.043605 -0.015654 -85016.900000 0 0 1
-14.927837 -23.684998 -1.342920 28.028965 1.008420 1.618727 0.052347 -0.019416 -273703.000000 0 0 1
-15.066337 -23.764698 -2.861720 28.283296 1.005766 1.672150 0.039157 -0.008485 855978.000000 0 0 1
-13.829437 -24.143898 -3.509120 28.044520 1.050623 1.696252 0.048778 -0.004491 750769.000000 0 0 1
-13.972637 -23.922598 -4.883720 28.131406 1.042167 1.745284 0.054995 0.001401 355221.000000 0 0 1
-12.784837 -24.344998 -5.798820 28.102621 1.087230 1.778634 0.052024 -0.006310 273614.000000 0 0 1
-12.679237 -25.721068 -5.937720 29.284688 1.112803 1.774970 0.031565 -0.006167 -115714.000000 0 0 1
-11.640537 -26.142728 -6.805020 29.415177 1.151884 1.804255 0.037373 -0.009643 154350.000000 0 0 1
23.375063 13.432402 28.535872 39.257088 0.521569 0.757003 0.011340 0.005922 -508970.000000 0 0 1
24.000363 12.190902 28.372852 39.110794 0.469985 0.759111 0.004670 0.007210 -189711.000000 0 0 1
23.348363 11.107602 28.954902 38.818954 0.444047 0.728917 0.006914 -0.000533 -518858.000000 0 0 1
23.447663 11.046602 30.498622 40.024820 0.440276 0.704412 0.019246 0.005202 -73907.400000 0 0 1
22.644663 12.036902 31.129232 40.332330 0.488572 0.689100 0.018908 0.002596 140117.000000 0 0 1
22.898263 12.316702 32.455242 41.585746 0.493497 0.675425 0.012749 -0.001970 -316964.000000 0 0 1
22.119263 13.517102 33.074996 42.022960 0.548542 0.664752 0.013967 0.007001 -415456.000000 0 0 1
20.832863 13.056502 33.393524 41.468154 0.559840 0.634647 0.028391 0.004725 -49862.200000 0 0 1
19.982563 14.157302 33.801907 41.740878 0.616396 0.626979 0.020954 0.003036 256085.000000 0 0 1
18.886863 13.694602 -33.847550 41.108544 0.627365 2.538121 0.023718 0.011478 -539454.000000 0 0 1
17.864063 13.053002 34.135035 40.678080 0.631024 0.575077 0.025390 0.008159 -881974.000000 0 0 1
16.859663 12.508502 -33.706320 39.709279 0.638309 2.584559 0.019399 0.002845 -291.403000 0 0 1
15.526763 12.277202 34.179593 39.497526 0.669052 0.524927 0.013684 0.005600 266927.000000 0 0 1
15.569163 11.271602 33.197565 38.360476 0.626633 0.524827 0.010731 0.013768 -428812.000000 0 0 1
14.258263 11.011902 32.772982 37.398240 0.657632 0.502619 0.020261 0.013919 -65682.000000 0 0 1
14.183563 9.838702 31.756582 36.144903 0.606465 0.497893 0.022928 0.016539 -41074.800000 0 0 1
14.497463 8.568402 32.244902 36.377570 0.533796 0.481297 0.010613 0.009402 -19021.600000 0 0 1
15.210663 7.824602 31.261312 35.635071 0.475113 0.500667 0.006792 -0.001919 175689.000000 0 0 1
15.565863 6.371602 31.757092 35.936141 0.388525 0.487068 0.014558 -0.006560 448299.000000 0 0 1
14.423963 5.565002 32.025732 35.562163 0.368220 0.449749 0.008591 -0.009104 347236.000000 0 0 1
14.904263 4.282702 32.446282 35.961643 0.279809 0.445844 0.012737 -0.015772 532993.000000 0 0 1
13.749063 3.252802 32.507142 35.444770 0.232312 0.410000 -0.001249 -0.010681 197144.000000 0 0 1
14.149463 2.057102 33.066109 36.025082 0.144372 0.408133 0.012811 -0.017024 203142.000000 0 0 1
12.991463 1.332902 33.490782 35.947006 0.102241 0.371811 0.019297 -0.019669 451046.000000 0 0 1
13.359663 -0.078898 33.965590 36.498604 -0.005906 0.374749 0.003289 -0.020271 31743.700000 0 0 1
13.575663 -1.032698 32.952087 35.653963 -0.075924 0.391810 -0.014193 -0.002852 -52259.200000 0 0 1
13.976963 -2.293298 33.438480 36.314551 -0.162628 0.400667 0.028924 -0.011665 -430982.000000 0 0 1
13.889463 -3.499998 32.453012 35.473443 -0.246850 0.415651 0.027433 -0.010011 -459401.000000 0 0 1
14.459263 -4.684198 32.986059 36.319307 -0.313289 0.431776 0.035733 -0.015540 1549140.000000 0 0 1
15.860163 -4.812098 33.351273 37.242562 -0.294580 0.461209 0.014596 -0.007625 1549910.000000 0 0 1
17.000263 -4.449598 32.365642 36.828557 -0.255994 0.497415 0.028704 -0.016070 -220516.000000 0 0 1
17.242563 -3.027998 32.296562 36.736122 -0.173839 0.496721 0.035932 -0.017879 -155132.000000 0 0 1
18.393763 -2.769198 31.553092 36.627811 -0.149429 0.532675 0.066719 -0.024502 -387550.000000 0 0 1
18.504863 -1.216698 31.371432 36.442791 -0.065656 0.533877 0.065939 -0.027806 -550380.000000 0 0 1
18.848963 -0.629498 32.611749 37.672348 -0.033385 0.524313 0.058028 -0.023583 61721.000000 0 0 1
18.726563 0.789602 32.574531 37.582013 0.042140 0.522131 0.050087 -0.013552 -315816.000000 0 0 1
19.782863 1.574502 31.801812 37.485943 0.079422 0.557905 0.063299 -0.016879 -434080.000000 0 0 1
19.619963 1.525502 30.397922 36.211928 0.077596 0.574535 0.054023 -0.012746 108141.000000 0 0 1
20.537863 2.443302 29.797502 36.272092 0.118409 0.606761 0.052081 -0.008414 156772.000000 0 0 1
20.181763 3.950902 29.739722 36.157492 0.193321 0.604995 0.048199 -0.005268 -283490.000000 0 0 1
20.257363 4.464302 31.065142 37.354167 0.216912 0.588746 0.052253 -0.005288 242804.000000 0 0 1
19.776463 5.749202 31.172202 37.361316 0.282912 0.583854 0.037502 -0.006530 -478856.000000 0 0 1
19.644963 6.059202 32.684383 38.612269 0.299178 0.561464 0.031787 -0.001468 123280.000000 0 0 1
18.628663 5.337502 33.381135 38.598137 0.279045 0.525969 0.029830 -0.008693 307229.000000 0 0 1
18.303863 5.812402 -33.981640 39.032900 0.307479 2.627196 0.025378 -0.002744 287017.000000 0 0 1
17.150663 5.060202 -33.236830 37.741724 0.286904 2.648005 0.028922 -0.006062 171904.000000 0 0 1
17.291863 3.639802 -33.214430 37.622534 0.207464 2.652657 0.027502 -0.009027 24047.400000 0 0 1
16.209163 3.048902 -32.497920 36.443759 0.185925 2.671945 0.028598 -0.009944 207058.000000 0 0 1
16.105863 1.536702 -32.758310 36.535834 0.095125 2.682845 0.030452 -0.019474 735655.000000 0 0 1
17.311763 0.810502 -32.397030 36.741279 0.046784 2.650379 0.019797 -0.019688 935999.000000 0 0 1
17.261063 -0.549198 -32.688720 36.970236 -0.031806 2.655554 0.033200 -0.023024 -798201.000000 0 0 1
18.385563 -1.297198 -32.029760 36.954258 -0.070439 2.619426 0.040130 -0.027029 -1007220.000000 0 0 1
18.354563 -1.357798 -30.596740 35.705659 -0.073842 2.600052 0.037944 -0.028537 231073.000000 0 0 1
18.509363 -0.244198 -29.777780 35.062406 -0.013192 2.585415 0.034271 -0.022905 -409924.000000 0 0 1
18.028463 -0.467598 -28.327120 33.580796 -0.025931 2.574658 0.017652 -0.014120 1379580.000000 0 0 1
16.630563 -0.823798 -28.085540 32.650449 -0.049495 2.606435 0.023985 -0.018720 1571850.000000 0 0 1
16.285463 -0.997198 -26.717270 31.305323 -0.061156 2.593350 0.024464 -0.011737 -234010.000000 0 0 1
17.058663 -2.068098 -25.913740 31.093358 -0.120646 2.556059 0.024984 -0.006271 245521.000000 0 0 1
18.299763 -1.504998 -25.401160 31.342707 -0.082057 2.515687 0.030421 -0.007066 873652.000000 0 0 1
19.279663 -2.494198 -25.148610 31.786460 -0.128655 2.483522 0.022108 -0.008341 404936.000000 0 0 1
20.093163 -3.068998 -26.336170 33.267819 -0.151567 2.484287 0.023680 -0.015183 -292083.000000 0 0 1
21.155563 -2.216098 -26.738990 34.167858 -0.104372 2.469591 0.025904 -0.013107 -82143.900000 0 0 1
21.505163 -2.546998 -28.061870 35.446125 -0.117887 2.484345 0.025765 -0.013635 -528605.000000 0 0 1
22.930963 -2.151398 -28.445700 36.600757 -0.093547 2.460982 0.023580 -0.019377 -238316.000000 0 0 1
23.846663 -3.176598 -28.047390 36.951457 -0.132430 2.432623 0.029960 -0.021038 -561449.000000 0 0 1
25.120363 -2.813198 -28.495090 38.090903 -0.111524 2.415962 0.027675 -0.021544 -544464.000000 0 0 1
26.185363 -3.871598 -28.082160 38.591064 -0.146790 2.385738 0.049776 -0.018894 -295169.000000 0 0 1
26.272963 -5.045398 -28.886190 39.371774 -0.189728 2.394515 0.054989 -0.024773 343674.000000 0 0 1
27.440663 -5.807098 -28.647600 40.092360 -0.208547 2.366763 0.059397 -0.023727 -112442.000000 0 0 1
27.330763 -6.816398 -27.496810 39.363796 -0.244418 2.344138 0.046010 -0.016016 -218484.000000 0 0 1
27.318363 -6.310498 -26.165910 38.350622 -0.227016 2.321675 0.039670 -0.009856 331311.000000 0 0 1
27.079463 -7.335998 -25.245510 37.741886 -0.264556 2.303523 0.029242 -0.006105 -154500.000000 0 0 1
27.251763 -6.865698 -23.727920 36.780573 -0.246800 2.271978 0.021998 0.001610 495644.000000 0 0 1
28.609963 -6.675698 -23.318720 37.508101 -0.229233 2.241705 0.018070 0.004671 706202.000000 0 0 1
28.763563 -6.235298 -21.989020 36.738787 -0.213475 2.212453 0.022656 -0.005118 658947.000000 0 0 1
30.167163 -5.640898 -21.571920 37.513000 -0.184853 2.183464 0.035909 -0.008778 655669.000000 0 0 1
30.460063 -4.460298 -22.265720 37.993052 -0.145398 2.196968 0.031091 -0.007126 1677530.000000 0 0 1
31.841763 -4.045798 -22.007220 38.917658 -0.126382 2.171813 0.025847 -0.004216 1728410.000000 0 0 1
32.238963 -2.715698 -22.680320 39.511045 -0.084038 2.182209 0.045276 -0.018162 -20163.100000 0 0 1
31.408963 -1.680498 -22.218720 38.509980 -0.053453 2.185798 0.043142 -0.022109 211938.000000 0 0 1
31.727263 -0.440198 -22.865420 39.110618 -0.013874 2.195226 0.034350 -0.019460 -268383.000000 0 0 1
30.622763 0.601002 -22.653520 38.095889 0.019623 2.207620 0.033972 -0.016068 -227080.000000 0 0 1
29.521663 0.322702 -23.503520 37.736563 0.010931 2.243153 0.031298 -0.013786 105074.000000 0 0 1
28.450963 1.171602 -23.133120 36.687480 0.041156 2.253052 0.023254 -0.000437 142605.000000 0 0 1
27.220063 1.194402 -24.084820 36.365327 0.043851 2.294683 0.025518 -0.003273 261380.000000 0 0 1
26.365863 2.297902 -23.757120 35.564587 0.086935 2.302313 0.016232 0.006619 -132674.000000 0 0 1
25.466563 2.519002 -24.793220 35.631376 0.098593 2.340365 0.019885 -0.001224 -444006.000000 0 0 1
24.509063 3.690902 -24.435020 34.804987 0.149470 2.349076 0.025981 0.002588 -348329.000000 0 0 1
25.110363 4.942402 -24.433520 35.382970 0.194343 2.333038 0.015300 0.009994 648331.000000 0 0 1
24.103563 5.926702 -24.113620 34.605985 0.241102 2.341730 0.028657 -0.001613 385768.000000 0 0 1
24.623263 7.190502 -23.389520 34.714234 0.284120 2.310100 0.026521 -0.004261 -331451.000000 0 0 1
25.426863 8.020002 -24.194620 36.003131 0.305538 2.307722 0.025169 -0.002011 133481.000000 0 0 1
25.509863 9.271002 -23.567520 35.946246 0.348587 2.285816 0.026416 -0.004760 -273123.000000 0 0 1
26.230163 10.401902 -24.369920 37.284233 0.377540 2.283161 0.039082 -0.003804 -117972.000000 0 0 1
25.763463 10.762402 -25.653010 37.916517 0.395704 2.313885 0.041039 -0.017999 824291.000000 0 0 1
24.384663 11.175002 -25.652590 37.115331 0.429718 2.333888 0.034707 -0.022582 699134.000000 0 0 1
23.905963 11.561702 -27.069310 37.919857 0.450468 2.365785 0.024197 -0.028015 -115969.000000 0 0 1
23.543463 10.503402 -27.960050 38.031309 0.419629 2.396736 0.021685 -0.016579 1274850.000000 0 0 1
24.677263 9.650502 -28.354420 38.808152 0.372783 2.390041 0.030070 -0.027002 1129830.000000 0 0 1
25.641763 10.150402 -29.441990 40.340568 0.376927 2.388878 0.026648 -0.023815 -1067880.000000 0 0 1
26.554463 11.147602 -29.014580 40.880978 0.397459 2.359915 0.029114 -0.017351 833864.000000 0 0 1
27.566963 11.566202 -29.931530 42.303794 0.397260 2.356804 0.026858 -0.006175 545550.000000 0 0 1
28.536363 10.515802 -30.499800 43.071381 0.353065 2.357632 0.026674 -0.009700 -933229.000000 0 0 1
27.891263 9.595002 -31.339200 43.036404 0.331333 2.386491 0.017418 -0.012180 368616.000000 0 0 1
28.875363 8.693602 -31.830290 43.846695 0.292441 2.383204 0.020041 -0.013679 468927.000000 0 0 1
28.245263 7.715402 -32.901990 44.043879 0.266652 2.414376 0.027554 -0.009142 783226.000000 0 0 1
27.215263 6.840602 -32.394200 42.858471 0.246250 2.427734 0.041263 -0.012116 483055.000000 0 0 1
26.539663 6.202402 -33.430940 43.132949 0.229583 2.457618 0.057198 -0.008845 -22503.900000 0 0 1
25.216363 5.486002 -33.037480 41.921788 0.214219 2.478471 0.049792 -0.010335 364438.000000 0 0 1
24.020863 6.206202 -32.844720 41.161808 0.252838 2.494669 0.053426 -0.011735 101462.000000 0 0 1
23.855563 6.911702 -31.643440 40.226444 0.282009 2.476133 0.044507 -0.010661 -387770.000000 0 0 1
22.401763 7.308302 -31.323680 39.197235 0.315351 2.496643 0.037464 -0.007001 43457.700000 0 0 1
21.890163 8.288402 -32.220660 39.825215 0.361955 2.513333 0.035757 -0.008046 724605.000000 0 0 1
20.492463 8.566302 -32.047180 38.991593 0.395945 2.535534 0.033385 -0.002215 570392.000000 0 0 1
20.116263 9.640902 -33.108000 39.921807 0.446918 2.548688 0.024540 -0.002506 -319360.000000 0 0 1
19.817763 9.205302 34.242951 40.620942 0.434844 0.567983 0.022540 -0.000723 42962.500000 0 0 1
19.412863 10.245302 33.392098 39.960701 0.485607 0.581530 0.025367 0.005851 -253724.000000 0 0 1
18.464763 9.828502 32.244062 38.434703 0.489140 0.575480 0.018690 0.009114 -295439.000000 0 0 1
18.900863 8.904102 31.269662 37.607411 0.440257 0.589037 0.017591 0.002016 401568.000000 0 0 1
19.949063 9.298002 30.356612 37.495891 0.436151 0.627329 0.026844 0.001417 -77099.600000 0 0 1
19.538763 10.123602 29.123052 36.502092 0.478045 0.647082 0.030708 -0.004614 -632100.000000 0 0 1
18.616263 9.467302 28.313132 35.182786 0.470464 0.635552 0.023811 -0.002010 170817.000000 0 0 1
17.312563 9.981602 28.570542 34.865930 0.523000 0.610363 0.032601 -0.006274 -827528.000000 0 0 1
16.199463 9.231702 27.912752 33.567374 0.517976 0.588915 0.041289 -0.005762 -1039490.000000 0 0 1
16.052263 9.500202 26.540062 32.439233 0.534390 0.612615 0.048431 -0.008531 501806.000000 0 0 1
14.872663 9.047802 25.869522 31.181581 0.546537 0.592332 0.055955 -0.009964 413011.000000 0 0 1
14.962663 7.588802 25.258532 30.322675 0.469377 0.586304 0.040035 -0.002006 -85827.900000 0 0 1
14.804763 6.703902 26.327882 30.939952 0.425197 0.553034 0.028039 0.000082 -14245.400000 0 0 1
14.222763 5.495402 25.889662 30.045981 0.368711 0.532249 0.032241 -0.003004 18134.200000 0 0 1
14.123063 4.440402 27.074312 30.857680 0.304622 0.500395 0.034238 -0.007724 -100754.000000 0 0 1
15.352563 3.809402 27.374432 31.616012 0.243216 0.523968 0.016143 -0.004314 247793.000000 0 0 1
15.547663 3.808302 28.762712 32.916965 0.240214 0.507842 0.008529 -0.002288 267768.000000 0 0 1
16.533963 2.664502 29.148482 33.617041 0.159780 0.521497 0.026946 -0.005260 257452.000000 0 0 1
15.992963 1.335102 29.007752 33.151275 0.083287 0.505336 0.010989 -0.006775 47983.100000 0 0 1
15.333563 0.813502 30.122182 33.810143 0.053004 0.471426 0.004175 -0.006038 -64711.500000 0 0 1
15.187163 -0.739898 30.018642 33.649907 -0.048680 0.468854 0.009311 -0.003973 -512748.000000 0 0 1
14.339363 -1.279898 29.031102 32.404634 -0.089022 0.460358 -0.001013 0.001725 -186706.000000 0 0 1
14.758063 -1.189298 27.639232 31.355095 -0.080413 0.491786 0.002865 0.000562 117311.000000 0 0 1
15.958263 -2.184398 27.310252 31.706271 -0.136037 0.532872 0.012627 0.000646 1842200.000000 0 0 1
17.294063 -1.885498 27.765892 32.765599 -0.108597 0.559709 0.030997 -0.007769 1264990.000000 0 0 1
17.910563 -0.689598 27.245552 32.612634 -0.038483 0.581883 0.036490 -0.006675 688883.000000 0 0 1
19.465563 -0.513198 27.454042 33.658519 -0.026358 0.616920 0.077131 -0.012957 970692.000000 0 0 1
20.274263 -1.451998 26.812302 33.646003 -0.071496 0.648660 0.065252 -0.016811 -486336.000000 0 0 1
21.620963 -1.202198 27.151162 34.728906 -0.055546 0.673244 0.067463 -0.014658 -122601.000000 0 0 1
22.596563 -2.049398 26.332242 34.759051 -0.090448 0.711222 0.068758 -0.009758 -417697.000000 0 0 1
22.787963 -1.653198 24.998502 33.866641 -0.072420 0.740479 0.069324 0.001893 723358.000000 0 0 1
21.824063 -2.200598 24.064242 32.561021 -0.100494 0.739136 0.069011 0.004149 285649.000000 0 0 1
21.847963 -1.567398 22.692372 31.539403 -0.071618 0.767725 0.062907 -0.016055 -245906.000000 0 0 1
21.517563 -0.245898 22.983672 31.485157 -0.011427 0.752497 0.058390 -0.007203 110578.000000 0 0 1
21.471463 0.539002 21.787272 30.594108 0.025098 0.778255 0.046348 -0.005991 -278483.000000 0 0 1
-30.501467 -27.353584 -10.182420 42.216581 0.731042 1.814393 -0.005717 0.026276 -61099.600000 0 0 1
-30.203787 -26.268784 -9.367120 41.110348 0.715831 1.800669 0.006887 0.023217 -8734.180000 0 0 1
-30.597557 -26.484084 -8.032920 41.257060 0.713460 1.766752 0.018430 0.020707 -319323.000000 0 0 1
-30.715357 -25.186784 -7.225820 40.373503 0.686821 1.750740 0.045777 0.008467 -293584.000000 0 0 1
-29.474207 -24.609684 -6.940120 39.019619 0.695695 1.749610 0.042591 -0.000774 -398180.000000 0 0 1
-28.810837 -25.209484 -5.777520 38.716433 0.718830 1.720582 0.033889 0.005476 704650.000000 0 0 1
-27.499447 -24.464484 -5.368820 37.196167 0.727059 1.715640 0.024921 0.000051 -14022.700000 0 0 1
-27.673217 -23.275984 -4.651820 36.458440 0.699305 1.698738 0.042609 -0.011729 -185350.000000 0 0 1
-28.450777 -22.221684 -5.177920 36.469999 0.663083 1.713255 0.061231 -0.014781 -256812.000000 0 0 1
-28.518277 -20.872984 -4.383620 35.611652 0.631827 1.694204 0.059408 -0.017294 -663363.000000 0 0 1
-27.318277 -20.188984 -4.253920 34.234181 0.636442 1.695378 0.065807 -0.024692 -375874.000000 0 0 1
-27.399087 -19.215084 -3.231820 33.621037 0.611600 1.667070 0.076675 -0.019169 -514690.000000 0 0 1
-26.211007 -18.269084 -3.251320 32.114598 0.608710 1.672211 0.070416 -0.014064 -465825.000000 0 0 1
-26.241007 -17.331784 -4.290320 31.739377 0.583711 1.706385 0.073398 -0.021281 -119256.000000 0 0 1
-25.316477 -16.327884 -3.992520 30.388551 0.572818 1.702560 0.071523 -0.021362 -217846.000000 0 0 1
-25.460517 -15.192084 -5.045520 30.074817 0.537983 1.739359 0.061741 -0.032302 -114970.000000 0 0 1
-26.765067 -14.670384 -5.091020 30.943618 0.501396 1.736073 0.070491 -0.032342 -151986.000000 0 0 1
-26.895167 -13.546284 -5.949520 30.696069 0.466579 1.765851 0.081225 -0.041319 203684.000000 0 0 1
-28.325957 -12.933884 -5.962020 31.704746 0.428336 1.759971 0.079331 -0.034926 -249066.000000 0 0 1
-29.177577 -13.646384 -6.791320 32.919247 0.437476 1.778591 0.079875 -0.030458 -98642.100000 0 0 1
-30.471977 -13.067384 -6.573220 33.800964 0.405113 1.766512 0.070005 -0.029192 -40844.200000 0 0 1
-31.518247 -13.745184 -7.451620 35.183187 0.411237 1.784208 0.055299 -0.027089 -595258.000000 0 0 1
-32.169437 -14.865984 -6.909120 36.105486 0.432883 1.763343 0.054889 -0.027247 60438.000000 0 0 1
-32.540117 -15.736484 -7.963220 37.012282 0.450444 1.787643 0.055183 -0.019729 -1362800.000000 0 0 1
-33.426977 -16.895984 -7.575220 38.212839 0.468006 1.770356 0.044988 -0.021766 -168857.000000 0 0 1
-34.801415 -16.585184 -7.442520 39.263188 0.444726 1.761505 0.039791 -0.027571 111524.000000 0 0 1
-35.101033 -15.880284 -6.265420 39.032313 0.424862 1.732013 0.034630 -0.027144 -820099.000000 0 0 1
35.201561 -15.835684 -5.980420 39.060008 -0.422735 1.724509 0.055840 -0.025735 -185364.000000 0 0 1
34.467201 -14.968084 -6.833320 38.193269 -0.409696 1.750679 0.047575 -0.032385 1154590.000000 0 0 1
33.037391 -15.135084 -6.791820 36.968484 -0.429586 1.755565 0.052940 -0.026426 1198340.000000 0 0 1
32.257891 -14.461484 -5.618320 35.794854 -0.421446 1.728407 0.077690 -0.028736 -314009.000000 0 0 1
32.446021 -15.220784 -4.441720 36.112954 -0.438632 1.694104 0.062830 -0.027554 456449.000000 0 0 1
31.636841 -14.609984 -3.453120 35.018072 -0.432626 1.669567 0.084758 -0.026454 -806135.000000 0 0 1
31.604841 -15.174384 -1.996220 35.115706 -0.447624 1.627674 0.087325 -0.019463 -23793.900000 0 0 1
32.775521 -15.368684 -1.188920 36.219398 -0.438466 1.603628 0.099536 -0.014117 529286.000000 0 0 1
33.856951 -16.135184 -1.688720 37.543163 -0.444728 1.615792 0.076722 -0.014643 -448162.000000 0 0 1
33.563701 -17.581184 -2.099520 37.947702 -0.482518 1.626151 0.065391 -0.010499 -1031740.000000 0 0 1
33.591491 -18.638384 -1.130820 38.432491 -0.506562 1.600224 0.064464 -0.006954 356123.000000 0 0 1
33.301321 -19.938684 -1.656520 38.849365 -0.539489 1.613449 0.042217 -0.003374 -450620.000000 0 0 1
34.337411 -20.484484 -2.625320 40.069492 -0.537890 1.636362 0.033349 -0.003861 -326122.000000 0 0 1
34.380631 -19.768084 -3.838920 39.843974 -0.521817 1.667295 0.021376 -0.010198 -101826.000000 0 0 1
35.193331 -20.410784 -4.787320 40.964486 -0.525555 1.687929 0.034109 -0.015707 -441794.000000 0 0 1
35.115911 -19.724784 -6.138720 40.741603 -0.511785 1.722047 0.039298 -0.024982 213967.000000 0 0 1
33.938621 -19.839584 -6.938120 39.919627 -0.528998 1.745486 0.035171 -0.025504 554531.000000 0 0 1
33.947081 -18.964184 -8.040620 39.707634 -0.509452 1.774702 0.036296 -0.034944 -261144.000000 0 0 1
32.939211 -19.436684 -9.080920 39.309534 -0.533092 1.803913 0.041103 -0.041161 -441460.000000 0 0 1
33.345421 -20.611084 -9.730120 40.390706 -0.553628 1.814089 0.032833 -0.036235 -416873.000000 0 0 1
32.383441 -21.100784 -10.580320 40.073352 -0.577493 1.837988 0.037220 -0.041516 -851702.000000 0 0 1
32.493001 -22.592484 -10.920320 41.054462 -0.607567 1.840033 0.025260 -0.033347 -524349.000000 0 0 1
31.767111 -23.277584 -9.964020 40.623601 -0.632374 1.818601 0.017679 -0.026395 -339024.000000 0 0 1
31.801441 -24.653484 -10.152420 41.499368 -0.659455 1.817945 -0.000738 -0.009820 -574136.000000 0 0 1
30.912771 -25.439084 -9.193420 41.076336 -0.688568 1.796521 -0.003297 -0.019530 -109358.000000 0 0 1
29.573391 -25.041284 -9.415720 39.878655 -0.702605 1.809156 0.009059 -0.027711 -224301.000000 0 0 1
28.656111 -25.802384 -8.648520 39.518763 -0.733044 1.791428 -0.003996 -0.023570 688999.000000 0 0 1
27.211771 -25.210484 -8.673720 38.095701 -0.747240 1.800493 0.028148 -0.038520 678580.000000 0 0 1
26.577611 -25.239984 -9.975820 37.986092 -0.759590 1.836530 0.034728 -0.036379 917616.000000 0 0 1
25.381911 -24.434084 -10.007820 36.625433 -0.766374 1.847564 0.058123 -0.045543 442295.000000 0 0 1
24.757711 -24.239484 -11.386420 36.471186 -0.774822 1.888308 0.092666 -0.053726 22794.600000 0 0 1
24.051911 -25.415884 -11.825720 36.936557 -0.812964 1.896698 0.084020 -0.045816 507039.000000 0 0 1
23.399811 -25.228684 -13.076220 36.810667 -0.822990 1.933955 0.091583 -0.030724 -14021.900000 0 0 1
22.583411 -26.508784 -13.384120 37.307650 -0.865188 1.937725 0.096470 -0.027907 -21010.600000 0 0 1
23.387111 -27.411184 -14.102420 38.693775 -0.864450 1.943852 0.077639 -0.022774 347218.000000 0 0 1
22.890311 -28.761784 -13.967420 39.322963 -0.898586 1.933922 0.104484 -0.025720 92163.000000 0 0 1
23.607311 -29.915684 -14.764620 40.868659 -0.902720 1.940426 0.087642 -0.021850 -191945.000000 0 0 1
23.644011 -29.675284 -16.162920 41.241990 -0.898036 1.973497 0.072953 -0.021363 339306.000000 0 0 1
24.047711 -30.916784 -16.744420 42.597131 -0.909726 1.974784 0.064110 -0.025233 -422341.000000 0 0 1
24.078511 -30.797584 -18.265120 43.149513 -0.907233 2.007879 0.049933 -0.015899 -266122.000000 0 0 1
22.806611 -30.601984 -18.828420 42.557400 -0.930332 2.029096 0.059971 -0.016076 -125725.000000 0 0 1
22.769911 -30.797784 -20.205720 43.304082 -0.934155 2.056240 0.044297 -0.011558 -86512.700000 0 0 1
21.352111 -30.440884 -20.699620 42.556249 -0.959112 2.078768 0.028873 -0.002432 127814.000000 0 0 1
21.249111 -30.551884 -22.112820 43.288788 -0.963091 2.106936 0.016445 -0.000481 156327.000000 0 0 1
19.883111 -30.344384 -22.414620 42.644284 -0.990740 2.124238 0.021898 0.002935 -236724.000000 0 0 1
19.760311 -30.345184 -23.957420 43.419559 -0.993589 2.155276 0.011493 0.003362 -326961.000000 0 0 1
20.265511 -29.232484 -24.690820 43.299719 -0.964613 2.177583 0.015779 0.003247 435408.000000 0 0 1
20.257211 -29.577984 -26.037860 44.307809 -0.970294 2.198958 0.012342 -0.008388 -523399.000000 0 0 1
20.778211 -28.421784 -26.971550 44.350833 -0.939523 2.224513 0.007013 -0.012712 -247346.000000 0 0 1
20.019511 -27.238484 -27.101860 43.326974 -0.936983 2.246593 0.022630 -0.021832 103522.000000 0 0 1
18.784511 -27.399384 -27.794350 43.314086 -0.969813 2.267500 0.040328 -0.023660 -201268.000000 0 0 1
18.129111 -26.056784 -28.097460 42.392074 -0.962926 2.295348 0.053045 -0.021727 -826440.000000 0 0 1
17.474111 -25.584984 -26.971140 41.077711 -0.971583 2.287083 0.048301 -0.011534 -524049.000000 0 0 1
16.827711 -24.424184 -27.393050 40.374396 -0.967506 2.316482 0.051003 -0.004775 -169712.000000 0 0 1
15.626011 -24.022484 -26.490550 39.025648 -0.994088 2.316921 0.054027 -0.011003 -142505.000000 0 0 1
14.443711 -24.768784 -26.686640 39.170017 -1.042865 2.320337 0.070302 -0.022325 312548.000000 0 0 1
13.328811 -24.323084 -25.885110 37.938220 -1.069497 2.321695 0.072482 -0.017914 830871.000000 0 0 1
13.344411 -24.580884 -24.328420 37.069734 -1.073438 2.286685 0.057879 -0.006753 -86261.000000 0 0 1
14.374111 -23.834384 -23.661420 36.531572 -1.028113 2.275355 0.039295 -0.009769 260491.000000 0 0 1
14.505411 -24.247284 -22.319620 36.006988 -1.031681 2.239372 0.043016 -0.013764 -207816.000000 0 0 1
15.646011 -23.610584 -21.552820 35.591873 -0.985566 2.221259 0.031834 -0.016693 -165755.000000 0 0 1
15.367411 -22.231584 -21.237820 34.372164 -0.965972 2.236838 0.025875 -0.016158 536342.000000 0 0 1
16.590111 -21.612784 -20.858720 34.313706 -0.916122 2.224188 0.034385 -0.015224 252203.000000 0 0 1
16.328311 -20.213484 -20.295120 32.971057 -0.891322 2.233872 0.046587 -0.012757 -145190.000000 0 0 1
15.685611 -20.129284 -19.054920 31.848335 -0.908841 2.212177 0.056135 -0.023618 71332.700000 0 0 1
14.329511 -19.788084 -19.261220 31.111055 -0.944046 2.238407 0.055385 -0.028238 -232513.000000 0 0 1
13.393211 -19.680784 -18.057020 29.879213 -0.973263 2.219726 0.059878 -0.022457 59366.000000 0 0 1
13.733411 -18.565084 -17.279820 28.842003 -0.933891 2.213198 0.074304 -0.031328 -290.811000 0 0 1
13.116011 -18.761284 -16.056120 27.960946 -0.960675 2.182464 0.063859 -0.026509 -315463.000000 0 0 1
13.044811 -17.561284 -15.136020 26.601972 -0.931909 2.176063 0.064385 -0.015789 -64370.300000 0 0 1
11.870511 -16.756184 -15.203820 25.550634 -0.954438 2.208120 0.052784 -0.026178 372765.000000 0 0 1
12.010811 -15.636584 -14.363220 24.393943 -0.915797 2.200373 0.041706 -0.020932 -421484.000000 0 1 0
10.706511 -14.875684 -14.169220 23.166401 -0.946950 2.228913 0.044981 -0.017210 -584055.000000 0 1 0
10.052411 -14.335784 -15.275220 23.235706 -0.959258 2.288163 0.059157 -0.012487 -693265.000000 0 1 0
8.975111 -13.574484 -14.858620 22.036284 -0.986605 2.310785 0.049798 -0.018664 -319867.000000 0 1 0
8.102311 -12.993684 -16.020120 22.161397 -1.013235 2.378763 0.037730 -0.013261 265000.000000 0 1 0
8.682211 -11.890184 -16.768920 22.314882 -0.940088 2.421081 0.038608 -0.003452 343959.000000 0 1 0
9.753311 -12.218684 -17.652920 23.580689 -0.897136 2.416771 0.051506 -0.006412 334624.000000 0 1 0
10.109611 -10.967084 -18.557520 23.808879 -0.826059 2.464563 0.050206 -0.005507 -761024.000000 0 1 0
9.128211 -10.641384 -19.460320 23.984732 -0.861790 2.517276 0.046209 -0.002443 -572357.000000 0 1 0
9.388311 -9.565684 -20.279220 24.308218 -0.794756 2.557574 0.044934 -0.011649 -126202.000000 0 1 0
8.919411 -9.850884 -21.704620 25.449683 -0.834982 2.592205 0.043057 -0.010186 -239158.000000 0 0 1
9.873011 -10.661184 -22.347520 26.656122 -0.823763 2.565070 0.040816 -0.002489 -295802.000000 0 0 1
9.736911 -10.770284 -23.732620 27.821641 -0.835746 2.592555 0.035876 -0.003572 -131354.000000 0 0 1
10.916211 -11.484884 -24.405720 29.098203 -0.810779 2.565755 0.052137 -0.002986 -251477.000000 0 0 1
10.885211 -12.880684 -24.210420 29.504988 -0.869165 2.533175 0.045715 -0.007571 -21969.200000 0 0 1
12.052011 -13.510384 -24.708220 30.631317 -0.842388 2.509229 0.034762 -0.014544 94424.100000 0 0 1
11.902811 -15.046484 -24.567720 31.171244 -0.901525 2.478599 0.032721 -0.018897 -51605.300000 0 0 1
10.968311 -15.683584 -25.400290 31.803355 -0.960507 2.495873 0.042319 -0.018165 -272304.000000 0 0 1
10.969211 -17.054284 -25.127230 32.288541 -0.999221 2.462605 0.044394 -0.023505 -292099.000000 0 0 1
9.737011 -17.687184 -25.742420 32.715716 -1.067560 2.476487 0.052384 -0.021108 -359596.000000 0 0 1
10.006511 -18.469584 -26.882790 34.116568 -1.074283 2.478299 0.059357 -0.032025 67015.000000 0 0 1
8.789111 -19.030284 -27.330210 34.443295 -1.138133 2.487309 0.056738 -0.022536 -112546.000000 0 0 1
8.966811 -19.877984 -28.626820 35.986564 -1.147034 2.490606 0.062156 -0.018432 -196140.000000 0 0 1
9.744411 -21.043884 -28.269220 36.564292 -1.137142 2.454569 0.067469 -0.021407 103814.000000 0 0 1
9.406611 -22.208184 -28.972410 37.697325 -1.170142 2.447373 0.075491 -0.010759 -129897.000000 0 0 1
10.302111 -23.457684 -28.829760 38.568789 -1.156978 2.415071 0.084331 -0.014444 -242844.000000 0 0 1
9.731811 -24.631184 -29.445570 39.603598 -1.194520 2.409096 0.088299 -0.012178 -74655.800000 0 0 1
10.431311 -25.857584 -29.280170 40.432107 -1.187350 2.380643 0.090806 -0.011050 161745.000000 0 0 1
9.972211 -26.755784 -28.104810 40.064914 -1.214033 2.348271 0.102218 -0.011209 423554.000000 0 0 1
10.593111 -26.339884 -26.847780 39.074375 -1.188421 2.328279 0.095726 -0.010326 -82314.100000 0 0 1
9.789411 -26.407884 -25.667980 38.105828 -1.215801 2.309861 0.093963 -0.011174 465820.000000 0 0 1
8.955911 -25.120384 -25.391940 36.823806 -1.228325 2.331667 0.079669 -0.009743 688575.000000 0 0 1
9.814411 -24.055784 -25.001520 36.056614 -1.183425 2.336988 0.085998 -0.013720 330590.000000 0 0 1
9.049911 -22.868284 -25.057220 35.110164 -1.193967 2.365526 0.069170 -0.006130 211820.000000 0 0 1
9.964211 -21.652484 -24.857420 34.438451 -1.139502 2.377185 0.076548 -0.014172 248222.000000 0 0 1
10.528211 -21.523984 -23.558220 33.602304 -1.115876 2.347720 0.071909 -0.018562 -248633.000000 0 0 1
11.577211 -20.615284 -23.514120 33.345698 -1.059103 2.353448 0.067200 -0.020495 -477084.000000 0 0 1
12.050611 -20.441584 -22.014020 32.368081 -1.038122 2.318716 0.051098 -0.023979 10131.400000 0 0 1
11.173311 -19.755284 -21.115320 30.999530 -1.056066 2.320128 0.053100 -0.017471 89703.000000 0 0 1
10.872211 -18.366884 -21.383320 30.212477 -1.036320 2.357125 0.065811 -0.022502 45126.500000 0 0 1
12.047311 -17.350384 -21.283020 29.985671 -0.963870 2.359972 0.059611 -0.022463 140798.000000 0 0 1
12.988011 -17.513584 -22.314220 31.198373 -0.932695 2.367759 0.055076 -0.017926 -995793.000000 0 0 1
14.232511 -17.071484 -21.849820 31.167525 -0.875841 2.347657 0.065283 -0.019888 -550588.000000 0 0 1
15.293511 -17.420084 -22.934720 32.609082 -0.850313 2.350858 0.049048 -0.012059 535356.000000 0 0 1
16.576511 -17.748784 -22.356120 33.009032 -0.819537 2.314846 0.055265 -0.007680 1167000.000000 0 0 1
17.587411 -17.532084 -23.354620 34.090017 -0.783823 2.325519 0.048870 -0.009634 188247.000000 0 0 1
18.991111 -17.759084 -22.761320 34.556115 -0.751886 2.289856 0.045913 -0.003218 -184061.000000 0 0 1
19.394011 -19.079484 -22.519220 35.316705 -0.777223 2.262223 0.044088 -0.000803 441465.000000 0 0 1
20.798111 -19.199284 -22.322920 36.048394 -0.745446 2.238582 0.045455 -0.003584 442732.000000 0 0 1
21.326811 -20.570284 -21.882920 36.835196 -0.767343 2.206913 0.039609 0.002215 -76334.700000 0 0 1
21.026711 -20.930484 -20.488520 36.055335 -0.783105 2.175176 0.051857 0.001540 358845.000000 0 0 1
21.265611 -22.320084 -20.322020 36.924204 -0.809587 2.153605 0.044263 0.010725 -273948.000000 0 0 1
-16.387337 12.952602 28.584962 35.403598 -0.668862 0.631060 0.028537 -0.010190 236805.000000 0 0 1
-17.676037 13.532402 28.390452 36.077499 -0.653397 0.664979 0.026206 -0.011946 354333.000000 0 0 1
-17.969937 13.613202 27.018072 35.188267 -0.648318 0.695373 0.030649 -0.006967 501695.000000 0 0 1
-19.278637 14.370002 26.602272 35.858663 -0.640541 0.734950 0.035234 -0.005772 619674.000000 0 0 1
-19.110237 15.773402 26.765802 36.474779 -0.690032 0.746873 0.042248 -0.003476 203632.000000 0 0 1
-20.058437 16.480502 25.965932 36.717536 -0.687788 0.785294 0.041097 -0.005927 -505908.000000 0 0 1
-20.106037 18.001002 26.215352 37.623576 -0.730214 0.799898 0.047001 -0.001223 45813.900000 0 0 1
-19.030237 18.772702 25.746392 37.113892 -0.778586 0.804165 0.040743 -0.001837 527279.000000 0 0 1
-17.761237 18.561502 26.374492 36.818538 -0.807427 0.772258 0.039555 0.004785 351093.000000 0 0 1
-16.575937 19.404302 25.865892 36.336387 -0.863846 0.778674 0.040353 0.001182 23731.300000 0 0 1
-16.629037 20.775102 26.215912 37.355104 -0.895793 0.792871 0.049097 0.004085 143503.000000 0 0 1
-15.614737 21.542502 25.554932 36.891109 -0.943597 0.805553 0.050163 -0.002481 327511.000000 0 0 1
-15.945937 23.003802 25.419722 37.810185 -0.964657 0.833487 0.042833 0.004394 30194.600000 0 0 1
-15.700237 23.704802 26.615252 38.945946 -0.985807 0.818401 0.045089 0.007789 -25284.100000 0 0 1
-15.808137 25.108802 26.323542 39.664568 -1.008906 0.845104 0.042758 0.005138 78461.900000 0 0 1
-15.176437 25.975402 27.473642 40.741217 -1.042029 0.830719 0.037209 0.001682 606415.000000 0 0 1
-13.751237 25.934702 27.486002 40.214246 -1.083262 0.818264 0.033584 -0.001310 234904.000000 0 0 1
-13.282137 26.880702 28.443912 41.328482 -1.111868 0.811736 0.049757 -0.001842 869437.000000 0 0 1
-11.714337 26.945102 28.508622 40.939049 -1.160698 0.800473 0.062077 -0.003923 997510.000000 0 0 1
-11.098537 27.659802 27.467882 40.530565 -1.189212 0.826155 0.048038 0.001765 -1015410.000000 0 0 1
-9.726337 27.684602 27.652722 40.320117 -1.232940 0.815054 0.039043 0.002152 -747207.000000 0 0 1
-8.973137 28.225802 26.375222 39.659367 -1.262994 0.843244 0.044477 -0.004598 84440.800000 0 0 1
-7.590237 27.961102 26.494702 39.260720 -1.305727 0.830049 0.047975 -0.010231 -142556.000000 0 0 1
-6.871737 28.356602 25.390322 38.677979 -1.333047 0.854688 0.063764 -0.013602 617574.000000 0 0 1
-5.350137 27.988402 25.464012 38.215056 -1.381919 0.841514 0.051125 -0.025143 134880.000000 0 0 1
-4.566837 28.668202 26.386332 39.229585 -1.412824 0.833062 0.072199 -0.022703 737779.000000 0 0 1
-3.157937 28.517102 26.123682 38.802634 -1.460507 0.832208 0.070575 -0.018213 1161260.000000 0 0 1
-2.453237 29.338402 25.010622 38.630188 -1.487372 0.866579 0.061542 -0.020021 -554864.000000 0 0 1
-2.763537 28.966002 23.642152 37.491569 -1.475678 0.888471 0.047514 -0.015632 -81094.200000 0 0 1
-2.540537 30.036802 22.802172 37.796863 -1.486416 0.923186 0.040700 -0.017710 -403531.000000 0 0 1
-3.068337 29.896002 21.315872 36.844973 -1.468521 0.953873 0.036284 -0.005462 1254290.000000 0 0 1
-4.493737 29.756102 21.185272 36.802650 -1.420910 0.957403 0.031069 0.002345 564833.000000 0 0 1
-4.990637 28.488602 21.480372 36.026563 -1.397376 0.931991 0.041667 0.002607 -1162890.000000 0 0 1
-6.499037 28.375102 21.339772 36.093902 -1.345640 0.938214 0.034756 -0.003244 -685515.000000 0 0 1
-6.897937 28.539002 19.982472 35.515565 -1.333643 0.973221 0.028071 -0.000424 102990.000000 0 0 1
-7.576237 27.446902 19.369172 34.436850 -1.301470 0.973445 0.016418 0.001980 -130644.000000 0 0 1
-6.701137 26.166602 18.994672 33.021112 -1.320089 0.957913 0.007229 0.002229 1006130.000000 0 0 1
-5.715137 26.393102 17.966572 32.435418 -1.357550 0.983733 0.008262 0.001205 921269.000000 0 0 1
-4.407137 26.764102 18.429972 32.793351 -1.407595 0.973991 0.031523 -0.001089 239161.000000 0 0 1
-3.470537 26.970802 17.243972 32.199741 -1.442822 1.005659 0.030345 0.001155 -421278.000000 0 0 1
-2.907237 25.773802 16.768372 30.885582 -1.458473 0.996887 0.027335 -0.006015 5191.670000 0 0 1
-2.221137 26.167602 15.557072 30.523750 -1.486118 1.035994 0.034051 -0.012726 -60681.400000 0 0 1
-1.634037 24.959802 14.809272 29.068476 -1.505423 1.036237 0.040403 -0.010128 -564649.000000 0 0 1
-0.476037 24.555702 15.468472 29.025553 -1.551413 1.008742 0.027838 -0.005320 -518948.000000 0 0 1
0.134463 23.464102 14.828172 27.757104 1.565066 1.007221 0.015714 -0.015708 -426744.000000 0 0 1
1.474663 22.973602 15.382772 27.687374 1.506695 0.981726 0.016416 -0.012664 -43393.800000 0 0 1
2.473863 23.986302 15.397072 28.610007 1.468023 1.002531 0.022029 -0.018349 387704.000000 0 0 1
3.652663 23.445802 15.989072 28.612899 1.416247 0.977850 0.037955 -0.024275 422021.000000 0 0 1
4.925963 24.330902 15.885872 29.472340 1.371039 1.001536 0.043893 -0.020409 521884.000000 0 0 1
6.097263 23.555702 16.132272 29.194141 1.317511 0.985333 0.040324 -0.019407 480995.000000 0 0 1
7.239163 24.399502 15.973172 30.048018 1.282376 1.010322 0.041341 -0.026511 274591.000000 0 0 1
8.666263 23.815902 15.993672 29.968297 1.221805 1.007843 0.036858 -0.023926 108096.000000 0 0 1
9.010463 23.077502 14.841672 28.879660 1.198555 1.031055 0.039147 -0.018831 149624.000000 0 0 1
9.603963 23.874302 13.800172 29.200396 1.188333 1.078555 0.036687 -0.019212 -129216.000000 0 0 1
9.973063 22.970602 12.624372 28.044345 1.161187 1.103855 0.033901 -0.017528 -353075.000000 0 0 1
11.089663 22.132802 12.802872 27.870326 1.106308 1.093507 0.032754 -0.015621 -106298.000000 0 0 1
11.361863 21.310602 11.707572 26.838422 1.080978 1.119398 0.039293 -0.020206 44864.400000 0 0 1
12.655963 20.499902 11.924872 26.881628 1.017705 1.111177 0.023145 -0.014927 66931.600000 0 0 1
12.525463 19.584002 12.967372 26.619036 1.001784 1.061977 0.029108 -0.017979 741381.000000 0 0 1
13.705063 18.749402 13.010072 26.620120 0.939593 1.060162 0.030335 -0.019869 563132.000000 0 0 1
13.901563 18.295902 14.489272 27.164912 0.921041 1.008203 0.034427 -0.021334 -980912.000000 0 0 1
15.108363 17.631002 14.624172 27.440504 0.862298 1.008724 0.038871 -0.014552 -555164.000000 0 0 1
15.362263 17.372602 15.961572 28.152765 0.846734 0.967982 0.038882 -0.013605 -435097.000000 0 0 1
16.811863 16.911002 16.098372 28.771136 0.788338 0.976975 0.027172 -0.009477 -621392.000000 0 0 1
17.249963 16.877202 17.386672 29.743865 0.774476 0.946475 0.030767 -0.015146 -470788.000000 0 0 1
18.435663 16.138002 17.464972 30.088769 0.719039 0.951517 0.036831 -0.012932 -214094.000000 0 0 1
18.890263 15.771602 18.937772 31.051967 0.695666 0.914895 0.037380 -0.013624 -108732.000000 0 0 1
19.401663 16.942202 19.625772 32.382613 0.717829 0.919700 0.039040 -0.006007 295157.000000 0 0 1
18.458263 17.914702 20.021472 32.596063 0.770455 0.909387 0.038615 -0.001409 -52797.400000 0 0 1
19.061963 18.985702 20.999572 34.129127 0.783394 0.908033 0.031866 -0.003444 -13162.800000 0 0 1
18.107063 19.951702 21.339372 34.370116 0.833828 0.900944 0.045987 -0.024593 239780.000000 0 0 1
18.773463 20.959502 22.072172 35.762052 0.840361 0.905623 0.047412 -0.010990 72256.400000 0 0 1
17.773163 21.966302 22.647772 36.212226 0.890525 0.895129 0.064915 -0.023843 -178375.000000 0 0 1
16.859563 21.449402 23.562172 36.048545 0.904641 0.858434 0.068590 -0.032850 -420350.000000 0 0 1
16.047363 22.430402 24.108272 36.631264 0.949790 0.852459 0.072727 -0.039356 -214480.000000 0 0 1
15.346963 21.934902 25.372622 36.884131 0.960299 0.812204 0.078444 -0.034849 339308.000000 0 0 1
14.344663 20.936202 25.208682 35.771099 0.970099 0.788765 0.072200 -0.036228 331299.000000 0 0 1
13.604963 20.640102 26.402912 36.169359 0.988014 0.752504 0.067521 -0.030322 -62562.700000 0 0 1
12.641863 19.443602 26.352352 35.104370 0.994294 0.721697 0.064353 -0.023650 -206456.000000 0 0 1
13.187963 18.143902 26.293862 34.561405 0.942274 0.706272 0.069727 -0.027859 -138478.000000 0 0 1
13.899363 17.827702 25.123882 33.796874 0.908588 0.732688 0.076242 -0.032366 -13641.700000 0 0 1
12.987363 17.668402 23.858182 32.404581 0.936925 0.743270 0.082381 -0.034734 -349879.000000 0 0 1
12.732963 18.780202 23.012072 32.316865 0.974989 0.778345 0.078869 -0.033055 222235.000000 0 0 1
13.857663 19.236902 22.252972 32.515965 0.946530 0.817056 0.082129 -0.035443 394828.000000 0 0 1
14.420163 18.156302 21.266272 31.461829 0.899588 0.828558 0.077532 -0.026179 -659055.000000 0 0 1
13.451463 17.747402 20.354572 30.169864 0.922233 0.830285 0.064155 -0.026222 -298249.000000 0 0 1
13.883863 16.611802 19.629872 29.224056 0.874614 0.834292 0.038381 -0.023897 -189731.000000 0 0 1
12.720463 16.019802 18.834972 27.806481 0.899696 0.826630 0.048212 -0.013972 -382943.000000 0 0 1
12.363863 16.786802 17.735872 27.371937 0.935977 0.865896 0.052620 -0.016459 -181975.000000 0 0 1
11.361663 16.167902 16.973972 26.050032 0.958241 0.861116 0.053550 -0.018392 -205569.000000 0 0 1
10.937663 16.713202 15.625272 25.359667 0.991311 0.906955 0.044635 -0.019669 -136307.000000 0 0 1
10.233263 17.955802 15.802272 26.016193 1.052793 0.918011 0.048973 -0.027739 295121.000000 0 0 1
9.823163 18.416102 14.530772 25.432079 1.080787 0.962639 0.038954 -0.020879 -469055.000000 0 0 1
8.858863 19.592802 14.299972 25.823372 1.146157 0.983922 0.039745 -0.021834 887759.000000 0 0 1
7.512763 19.241902 14.686672 25.345428 1.198560 0.952730 0.033182 -0.022254 893282.000000 0 0 1
6.692463 20.432002 14.690072 26.039469 1.254262 0.971397 0.037298 -0.023048 1069000.000000 0 0 1
5.280563 20.198702 15.323272 25.897385 1.315089 0.937640 0.032362 -0.022495 744195.000000 0 0 1
4.323463 19.414902 14.630572 24.691788 1.351684 0.936603 0.025765 -0.024974 207500.000000 0 1 0
3.261263 19.046202 15.518272 24.783268 1.401212 0.894179 0.015150 -0.013743 80076.600000 0 1 0
2.047663 18.551202 14.743872 23.784906 1.460862 0.902202 0.002018 -0.010797 -125837.000000 0 1 0
1.314463 19.623902 14.086572 24.192082 1.503914 0.949266 0.010465 -0.014621 234891.000000 0 1 0
0.273463 19.084002 13.301172 23.263600 1.556468 0.962148 0.004316 -0.017115 -296058.000000 0 1 0
-0.448437 20.114502 12.403872 23.635785 -1.548506 1.018326 0.013377 -0.019600 -68774.600000 0 1 0
-1.424637 20.863302 13.090372 24.671133 -1.502618 1.011494 0.021243 -0.009388 -177641.000000 0 1 0
-2.435737 21.293302 12.196572 24.659560 -1.456902 1.053424 0.024935 -0.012126 -246017.000000 0 1 0
-3.653737 21.857202 12.898172 25.640786 -1.405164 1.043691 0.023075 -0.015245 -319992.000000 0 0 1
-4.442437 20.905402 13.587872 25.325902 -1.361409 1.004488 0.030008 -0.017522 274697.000000 0 0 1
-5.425637 21.512102 14.435672 26.468787 -1.323736 0.993948 0.037508 -0.011657 424505.000000 0 0 1
-6.181337 20.501602 15.399472 26.375525 -1.277959 0.947328 0.024499 -0.014708 -423840.000000 0 0 1
-6.974637 19.591902 14.677372 25.454144 -1.228790 0.956211 0.030982 -0.018797 198379.000000 0 0 1
-7.679337 18.657702 15.493472 25.438745 -1.180338 0.915934 0.027779 -0.013150 74531.000000 0 0 1
-8.680637 19.045702 16.597372 26.712637 -1.143147 0.900357 0.027350 -0.003633 414831.000000 0 0 1
-9.920137 19.570602 16.081472 27.203517 -1.101652 0.938307 0.020200 -0.012520 450037.000000 0 0 1
-11.033337 19.197302 16.846972 27.822498 -1.049162 0.920382 0.013344 -0.007216 -325289.000000 0 0 1
-12.342537 19.207702 16.066672 27.917951 -0.999653 0.957586 0.020597 -0.012658 -560700.000000 0 0 1
-12.900437 20.467002 15.685772 28.833364 -1.008392 0.995582 0.006672 -0.004695 272747.000000 0 0 1
-13.895537 20.229802 14.704472 28.610354 -0.968927 1.031006 0.006916 -0.012242 -578893.000000 0 0 1
-14.784437 21.388502 14.369772 29.707540 -0.965979 1.065910 0.000821 -0.022312 -823764.000000 0 0 1
-15.956537 21.449602 15.126372 30.716504 -0.931205 1.055893 -0.006707 -0.019922 -321653.000000 0 0 1
-16.860637 22.417502 14.665172 31.652689 -0.925940 1.089064 0.020794 -0.024020 52576.800000 0 0 1
-18.227537 22.449002 15.385372 32.755312 -0.888809 1.081838 0.084717 -0.029921 -985445.000000 0 0 1
-19.016037 21.269002 15.185572 32.319989 -0.841266 1.081675 0.073196 -0.026105 -94643.000000 0 0 1
-20.226837 21.316202 15.874272 33.399071 -0.811615 1.075502 0.085811 -0.025369 -67306.200000 0 0 1
-21.267237 22.443702 15.690572 34.672888 -0.812306 1.101194 0.086130 -0.030021 -1127190.000000 0 0 1
-22.166037 22.283302 14.595572 34.654141 -0.788036 1.136052 0.096235 -0.022987 -121862.000000 0 0 1
-23.113437 23.259902 14.507672 35.857029 -0.788557 1.154257 0.088247 -0.027259 -766116.000000 0 0 1
-22.675537 24.503602 13.695072 36.085475 -0.824126 1.181522 0.084607 -0.027297 -277753.000000 0 0 1
-21.586037 25.110502 14.364472 36.094769 -0.860731 1.161498 0.070098 -0.033494 317337.000000 0 0 1
-21.103437 26.318302 13.734372 36.423084 -0.894926 1.184156 0.057629 -0.026276 497330.000000 0 0 1
-19.659237 26.786602 14.131772 36.106989 -0.937666 1.168659 0.055373 -0.026648 1086370.000000 0 0 1
-18.668637 26.044502 13.411472 34.737612 -0.948886 1.174419 0.039571 -0.018436 134344.000000 0 0 1
-17.338637 26.457602 13.613872 34.437923 -0.990679 1.164384 0.017771 -0.016016 -111065.000000 0 0 1
-16.347637 25.840802 12.593472 33.069439 -1.006730 1.180114 0.013010 -0.013362 -491540.000000 0 0 1
-15.078337 26.393202 12.765072 32.968233 -1.051750 1.173211 0.004103 -0.012248 -561963.000000 0 0 1
-14.172037 25.970302 11.757372 31.836127 -1.071259 1.192531 0.003798 -0.010217 -631625.000000 0 0 1
-12.779337 26.512302 12.060072 31.806586 -1.121640 1.181898 0.009995 -0.004376 -902146.000000 0 0 1
-11.879237 25.928902 11.128072 30.614673 -1.141188 1.198787 0.016982 -0.004850 1279960.000000 0 0 1
-10.465137 26.107302 11.363772 30.335550 -1.189557 1.186828 0.032830 -0.007876 1078580.000000 0 0 1
-9.856637 27.415002 10.875372 31.096774 -1.225653 1.213517 0.027878 -0.014897 458086.000000 0 0 1
-8.558037 27.758702 11.411972 31.209272 -1.271741 1.196455 0.051437 -0.014212 1054150.000000 0 0 1
-8.247337 29.090002 11.102272 32.210359 -1.294535 1.218898 0.047799 -0.021655 8653.350000 0 0 1
-6.943037 29.676502 11.741672 32.661405 -1.340973 1.203068 0.040968 -0.016683 860740.000000 0 0 1
-5.810637 29.111002 11.081372 31.686128 -1.373783 1.213521 0.059878 -0.016386 -93612.000000 0 0 1
-4.590837 29.538302 11.617672 32.071130 -1.416610 1.200119 0.048454 -0.011721 192741.000000 0 0 1
-3.315937 29.116502 10.832772 31.242840 -1.457400 1.216716 0.046802 -0.018147 285758.000000 0 0 1
-3.078037 29.820802 9.615272 31.483456 -1.467943 1.260430 0.066020 -0.030857 229408.000000 0 0 1
-1.769037 29.670402 9.092372 31.082687 -1.511244 1.273933 0.049432 -0.032004 393814.000000 0 0 1
-1.598337 30.603002 7.884672 31.642795 -1.518616 1.318965 0.048302 -0.034615 282540.000000 0 0 1
-2.423537 30.181302 6.789872 31.030418 -1.490669 1.350198 0.062767 -0.039750 329172.000000 0 0 1
-2.613537 31.165402 5.790572 31.806345 -1.487132 1.387718 0.061532 -0.034495 80043.400000 0 0 1
11.031463 -34.340984 -26.731670 44.895195 -1.259975 2.208589 0.097274 -0.029928 -258391.000000 0 0 1
11.829363 34.247402 -25.590990 44.358958 1.238217 2.185733 0.086802 -0.030844 85941.400000 0 0 1
13.008763 -33.707184 -25.772310 44.380335 -1.202474 2.190403 0.084783 -0.022618 271027.000000 0 0 1
13.729863 -33.543584 -24.400220 43.692698 -1.182286 2.163313 0.070608 -0.007185 -460520.000000 0 0 1
13.076563 -32.627184 -23.495520 42.279653 -1.189611 2.160021 0.074707 -0.006621 371704.000000 0 0 1
13.648263 -32.460284 -22.178020 41.615017 -1.172777 2.132860 0.055688 -0.004803 -748696.000000 0 0 1
15.108663 -32.056784 -22.111320 41.771037 -1.130364 2.128626 0.025598 0.008200 -767483.000000 0 0 1
15.975563 -33.146584 -22.360020 43.056766 -1.121679 2.116845 0.028684 0.004346 1783.010000 0 0 1
17.314863 -32.823584 -22.031920 43.157822 -1.085381 2.106559 0.018246 0.002926 615167.000000 0 0 1
18.398463 -33.960284 -22.076020 44.487695 -1.074298 2.090045 0.007174 0.009078 407760.000000 0 0 1
19.724863 -33.638984 -21.719920 44.636379 -1.040460 2.078986 0.007163 0.010419 362566.000000 0 0 1
20.433063 33.855802 -21.648620 45.082016 1.027784 2.071685 0.014758 0.016028 -510650.000000 0 0 1
21.937463 33.897002 -21.446520 45.718839 0.996406 2.059063 0.026040 0.014679 -782125.000000 0 0 1
22.704563 34.286002 -22.542820 46.895691 0.985885 2.072251 0.017496 0.014602 340369.000000 0 0 1
24.090463 34.203502 -22.197620 47.359944 0.957172 2.058615 0.014805 0.011693 1035210.000000 0 0 1
25.053063 -33.845784 -23.251920 48.102441 -0.933589 2.075312 0.024200 0.000304 262288.000000 0 0 1
24.970063 -32.450784 -23.390220 47.155697 -0.914947 2.089807 0.022464 -0.005149 78940.800000 0 0 1
23.798463 -31.916584 -23.998820 46.486326 -0.930088 2.113269 0.014989 -0.001626 113052.000000 0 0 1
23.671263 -30.373984 -24.064820 45.409505 -0.908789 2.129339 0.013477 -0.011428 2220.700000 0 0 1
24.551663 -29.756184 -25.008520 45.974348 -0.880940 2.145954 0.017459 -0.006807 370434.000000 0 0 1
24.400963 -28.367184 -24.666020 44.816477 -0.860420 2.153614 0.015674 -0.004271 -4427.890000 0 0 1
24.865663 -27.420084 -25.773750 45.104860 -0.834214 2.179030 0.001498 -0.000477 157105.000000 0 0 1
24.129863 -27.274984 -26.987170 45.326398 -0.846505 2.208555 0.001818 -0.003351 -468570.000000 0 0 1
24.932363 -26.551084 -27.866420 45.859788 -0.816829 2.223887 -0.000030 -0.002066 -528740.000000 0 0 1
24.192263 -25.933284 -29.077890 45.862016 -0.820117 2.257550 0.001292 -0.002141 539163.000000 0 0 1
23.387863 -24.776584 -28.785150 44.603319 -0.814223 2.272289 0.009072 -0.006152 -244584.000000 0 0 1
22.037563 -25.061884 -28.512630 43.894445 -0.849522 2.277819 0.004290 -0.011723 -646664.000000 0 0 1
21.334263 -23.794484 -28.073180 42.537415 -0.839860 2.291568 0.012178 -0.001693 -346666.000000 0 0 1
21.003963 -22.969384 -29.190210 42.671154 -0.830064 2.324129 0.029943 -0.003557 -45828.000000 0 0 1
20.391263 -21.819584 -28.663400 41.394303 -0.819223 2.335673 0.026862 0.004648 -741887.000000 0 0 1
19.369163 -21.232384 -29.603910 41.259788 -0.831256 2.371003 0.057118 -0.006073 -493782.000000 0 0 1
18.282663 -22.100584 -29.812820 41.370229 -0.879660 2.375514 0.058375 -0.009292 -558912.000000 0 0 1
17.218363 -21.527984 -30.492710 41.106344 -0.896169 2.406548 0.042787 -0.014840 -1187780.000000 0 0 1
15.976763 -22.359584 -30.318780 40.919877 -0.950380 2.405251 0.045189 -0.017681 -1117690.000000 0 0 1
16.148663 -23.695184 -30.826380 42.101149 -0.972583 2.392340 0.048381 -0.008843 -329773.000000 0 0 1
15.141663 -24.598484 -30.494990 42.003569 -1.019019 2.383298 0.069043 -0.015559 -349209.000000 0 0 1
15.462763 -25.964584 -31.102380 43.366055 -1.033668 2.370580 0.071551 -0.011008 52320.200000 0 0 1
14.504563 -26.914384 -30.731470 43.349621 -1.076504 2.358764 0.090094 -0.012938 -304514.000000 0 0 1
14.887363 -28.185584 -31.108560 44.539906 -1.084851 2.344015 0.104967 -0.018399 393841.000000 0 0 1
14.205863 -29.352484 -30.253870 44.482261 -1.120051 2.318741 0.098510 -0.024112 358313.000000 0 0 1
14.578163 -29.482084 -28.886480 43.773792 -1.111578 2.291487 0.104286 -0.026413 79027.100000 0 0 1
14.136663 -28.382684 -28.079450 42.354191 -1.108691 2.295572 0.099347 -0.019372 279776.000000 0 0 1
15.213463 -28.069084 -26.991680 41.807580 -1.074115 2.272627 0.064341 -0.013390 -29492.600000 0 0 1
15.367863 -29.057184 -26.000820 41.911022 -1.084310 2.240025 0.062653 -0.023531 363392.000000 0 0 1
16.386063 -28.670884 -25.066620 41.459113 -1.051579 2.220073 0.072749 -0.021622 -383992.000000 0 0 1
15.856763 -27.775484 -23.912220 39.933804 -1.052056 2.212794 0.071101 -0.017701 418295.000000 0 0 1
14.825763 -28.204784 -23.035520 39.318548 -1.086842 2.196748 0.060753 -0.013008 -120143.000000 0 0 1
13.588963 -28.431384 -23.653720 39.401802 -1.124939 2.214698 0.074713 -0.006597 -1277380.000000 0 0 1
12.421963 -28.355984 -22.673520 38.372588 -1.157906 2.202943 0.070972 -0.002190 -497133.000000 0 0 1
12.041463 -27.052184 -22.429920 37.147258 -1.152008 2.219070 0.053959 -0.002494 -672240.000000 0 0 1
10.808463 -26.918884 -21.810520 36.292533 -1.188981 2.215503 0.054316 -0.006034 -715762.000000 0 0 1
10.355263 -25.452484 -21.686220 35.005036 -1.184401 2.238924 0.061816 -0.011935 13545.800000 0 0 1
11.083563 -24.722084 -20.714520 34.104518 -1.149335 2.223559 0.036527 -0.001732 262582.000000 0 0 1
10.448463 -23.470384 -20.475520 32.852340 -1.151961 2.243700 0.041798 -0.016309 -303955.000000 0 0 1
10.828063 -22.617084 -19.244820 31.609216 -1.124288 2.225388 0.034351 -0.011362 -219576.000000 0 0 1
10.407363 -23.153584 -18.021120 31.131373 -1.148365 2.188143 0.030883 -0.012562 45846.300000 0 0 1
10.567363 -22.270784 -16.926820 29.902746 -1.127761 2.172518 0.020354 -0.012294 259744.000000 0 0 1
9.531163 -22.565184 -15.761420 29.128216 -1.171144 2.142547 0.011123 -0.007583 743192.000000 0 0 1
9.939063 -23.820084 -15.231520 29.969661 -1.175504 2.103926 0.009078 0.001138 244714.000000 0 0 1
9.095863 -24.150284 -14.142320 29.427473 -1.210592 2.072115 0.005874 0.002092 -69732.300000 0 0 1
9.020163 -25.645884 -13.670220 30.429420 -1.232590 2.036715 0.008082 0.006401 -370517.000000 0 0 1
10.253863 -26.010784 -13.113120 30.881329 -1.195286 2.009349 -0.000597 0.006569 -216669.000000 0 0 1
10.376863 -27.390084 -13.123720 32.095607 -1.208650 1.992039 -0.001676 0.001289 16705.000000 0 0 1
11.724663 -27.926284 -12.519820 32.773327 -1.173302 1.962769 0.015210 0.001135 1147420.000000 0 0 1
12.965663 -27.683284 -13.206520 33.299922 -1.132782 1.978599 0.025769 0.000259 589402.000000 0 0 1
13.045863 -28.053884 -14.576320 34.200644 -1.135515 2.011085 0.030755 -0.002896 -252359.000000 0 0 1
14.417763 -27.738084 -15.262620 34.788227 -1.091448 2.024981 0.019774 -0.007778 139166.000000 0 0 1
15.528263 -28.493484 -14.872920 35.696069 -1.071819 2.000558 0.078045 -0.010942 -707005.000000 0 0 1
16.572663 -28.001284 -15.662620 36.111531 -1.036388 2.019424 0.096521 -0.018352 245798.000000 0 0 1
17.994463 -28.541684 -15.292320 37.044344 -1.008279 1.996335 0.086255 -0.021727 609756.000000 0 0 1
18.147563 -29.836884 -15.826920 38.341427 -1.024350 1.996310 0.076684 -0.011769 -311732.000000 0 0 1
19.512963 -30.153884 -15.897920 39.277936 -0.996453 1.987507 0.087151 -0.008926 -79005.900000 0 0 1
19.796663 -31.211284 -16.973620 40.671315 -1.005552 2.001309 0.067060 -0.011881 -80667.300000 0 0 1
19.480763 -32.555684 -16.667320 41.438777 -1.031567 1.984732 0.056599 0.000051 320012.000000 0 0 1
20.070863 -33.486384 -17.620620 42.832974 -1.030837 1.994764 0.047781 -0.002054 274791.000000 0 0 1
19.885263 33.730002 -17.313020 42.812117 1.038102 1.987114 0.027002 0.012371 -412679.000000 0 0 1
20.596963 33.310902 -16.200520 42.382873 1.017011 1.963018 0.043657 0.002540 -111118.000000 0 0 1
20.274863 32.014202 -15.888420 41.090401 1.006245 1.967814 0.032189 0.002430 -654166.000000 0 0 1
21.213763 31.510302 -14.802320 40.768021 0.978262 1.942375 0.035462 -0.002279 27706.600000 0 0 1
22.519163 31.236902 -15.336320 41.449481 0.946171 1.949806 0.037841 -0.000234 1310480.000000 0 0 1
23.543263 31.025702 -14.332720 41.500678 0.921667 1.923420 0.042334 -0.004945 769898.000000 0 0 1
23.390163 29.714202 -13.488020 40.149224 0.903927 1.913407 0.037884 0.001382 -1138010.000000 0 0 1
23.425063 28.514402 -14.192720 39.537804 0.883072 1.937956 0.041193 0.006764 194126.000000 0 0 1
23.147063 27.364302 -13.349020 38.246410 0.868696 1.927329 0.013576 0.012327 -106052.000000 0 0 1
21.678463 27.095402 -12.959520 37.041405 0.896007 1.928224 0.012158 0.003314 -729106.000000 0 0 1
20.971663 26.564202 -14.074520 36.654598 0.902509 1.964896 0.020331 -0.002978 -77870.100000 0 0 1
19.575263 26.551702 -13.922920 35.805467 0.935505 1.970178 0.026050 -0.009905 138168.000000 0 0 1
18.725763 27.910502 -13.838020 36.347505 0.979854 1.961365 0.025044 -0.011449 -144092.000000 0 0 1
18.752563 28.726002 -14.974020 37.430777 0.992450 1.982363 0.024103 -0.007582 49351.700000 0 0 1
18.054963 28.131402 -16.040220 37.076220 1.000201 2.018202 0.008885 0.000231 -438853.000000 0 0 1
18.192663 29.018502 -17.320320 38.380202 1.010808 2.038999 0.008835 0.005006 417591.000000 0 0 1
17.256463 30.098002 -17.386420 38.806737 1.050209 2.035352 0.015693 -0.000510 293779.000000 0 0 1
17.501463 30.714702 -18.617520 39.953800 1.052873 2.055534 -0.004448 0.008982 -543312.000000 0 0 1
16.662163 31.900402 -18.989020 40.692090 1.089454 2.056297 -0.000373 0.012910 -496373.000000 0 0 1
16.861863 33.115002 -18.241920 41.396780 1.099823 2.027131 0.021454 -0.006389 156590.000000 0 0 1
16.008163 34.140102 -18.737820 42.105982 1.132340 2.031988 0.026752 -0.004882 232146.000000 0 0 1
15.802163 -33.330084 -17.770220 40.943663 -1.128074 2.019743 0.029495 0.001298 -148712.000000 0 0 1
14.756363 -32.489784 -18.149920 40.034434 -1.144468 2.041325 0.023709 0.003907 -437454.000000 0 0 1
14.246463 -31.906784 -16.984120 38.851832 -1.150855 2.023225 0.030317 0.004467 525706.000000 0 0 1
13.019263 -30.933084 -17.175720 37.700958 -1.172417 2.043818 0.026599 0.001150 810630.000000 0 0 1
11.850063 -31.544784 -17.691220 38.058858 -1.211449 2.054248 0.026776 -0.000946 184351.000000 0 0 1
10.793263 -30.587984 -17.698220 36.950592 -1.231576 2.070277 0.015404 0.009949 1550880.000000 0 0 1
9.366363 -31.152384 -18.130920 37.241509 -1.278732 2.079273 0.036473 -0.002349 342970.000000 0 0 1
8.683563 -31.898584 -17.102120 37.221048 -1.305013 2.048200 0.040309 -0.005841 905379.000000 0 0 1
7.472663 -32.565884 -17.498220 37.716908 -1.345238 2.053229 0.050405 -0.005364 852996.000000 0 0 1
6.308763 -31.696784 -18.049820 37.017328 -1.374329 2.080140 0.048212 0.000328 -1043660.000000 0 0 1
6.415863 -31.159184 -19.367720 37.244686 -1.367728 2.117662 0.053595 0.006900 -131976.000000 0 0 1
6.329663 -32.119584 -20.382720 38.564071 -1.376224 2.127678 0.061165 -0.008882 -1541680.000000 0 0 1
6.808763 -31.555884 -21.702020 38.898724 -1.358286 2.162663 0.061439 0.001487 -316796.000000 0 0 1
8.166663 -31.172984 -21.840620 38.928935 -1.314576 2.166436 0.073661 -0.007092 -46722.800000 0 0 1
9.127863 -32.166584 -21.738220 39.881790 -1.294297 2.147265 0.075266 -0.018260 -1030060.000000 0 0 1
9.125863 -33.246184 -22.896120 41.386259 -1.302901 2.157033 0.082047 -0.020930 -550124.000000 0 0 1
8.000163 -34.106584 -22.885820 41.845220 -1.340398 2.149472 0.087164 -0.034462 -63037.600000 0 0 1
8.023763 33.622302 -23.831420 41.985433 1.336534 2.174398 0.088654 -0.043878 118846.000000 0 0 1
6.966563 32.521202 -23.446620 40.692820 1.359770 2.184850 0.087405 -0.046638 967977.000000 0 0 1
5.595463 32.853202 -23.585520 40.827917 1.402098 2.186681 0.081519 -0.042770 640061.000000 0 0 1
5.002763 33.729502 -22.576320 40.894953 1.423550 2.155625 0.056333 -0.035539 325183.000000 0 0 1
3.709363 -34.228984 -23.019120 41.415729 -1.462849 2.160129 0.043018 -0.026158 711098.000000 0 0 1
2.569363 33.685102 -22.963420 40.848579 1.494668 2.167791 0.034737 -0.030713 154440.000000 0 0 1
1.349663 34.321502 -23.286920 41.497804 1.531492 2.166583 0.030398 -0.019103 -81494.300000 0 0 1
0.078763 33.572802 -22.920120 40.650598 1.568450 2.169815 0.021785 -0.022042 -628352.000000 0 0 1
-0.152237 33.728002 -21.536820 40.017945 -1.566283 2.139071 0.010779 -0.017122 -411468.000000 0 0 1
-1.385637 33.169102 -21.182020 39.380037 -1.529046 2.138725 0.006387 -0.011731 -148424.000000 0 0 1
-1.757037 33.283302 -19.713320 38.723124 -1.518055 2.104916 0.010835 -0.008509 174334.000000 0 0 1
-0.869937 32.504802 -18.930920 37.625771 -1.544039 2.098021 0.009043 -0.021477 -161432.000000 0 0 1
-1.178137 32.547402 -17.569920 37.005722 -1.534615 2.065521 -0.009662 -0.010448 -93189.500000 0 0 1
-0.350237 31.557002 -16.737720 35.722798 -1.559698 2.058439 -0.032733 -0.006522 86849.900000 0 0 1
0.871963 32.082902 -16.267020 35.981785 1.543625 2.039904 -0.018610 -0.007520 -668017.000000 0 0 1
1.377963 31.093702 -15.439820 34.743418 1.526509 2.031296 0.007412 -0.005895 -169746.000000 0 0 1
2.128963 31.837702 -14.294620 34.964381 1.504027 1.991972 0.017570 -0.005798 51387.100000 0 0 1
3.257263 32.511102 -14.829220 35.881573 1.470940 1.996852 0.024431 -0.012622 -572281.000000 0 0 1
4.077963 32.914902 -13.797620 35.922067 1.447530 1.965028 0.033189 -0.014728 -914496.000000 0 0 1
5.420063 33.453902 -14.299320 36.783300 1.410176 1.970065 0.049377 -0.028755 -643816.000000 0 0 1
6.103363 32.343502 -14.742920 36.065314 1.384285 1.991917 0.051605 -0.020368 -940963.000000 0 0 1
7.194563 32.639302 -15.586120 36.878353 1.353839 2.007148 0.044408 -0.000926 193341.000000 0 0 1
8.258263 31.490502 -15.612820 36.105550 1.314326 2.017973 0.038672 -0.015864 -115779.000000 0 0 1
8.987363 31.460202 -14.433320 35.760841 1.292534 1.986252 0.028990 -0.017572 -231160.000000 0 0 1
10.018063 30.471702 -14.393120 35.157476 1.253162 1.992582 0.036647 -0.019139 511025.000000 0 0 1
9.555563 28.980902 -14.121720 33.624759 1.252302 2.004219 0.050858 -0.019649 -332731.000000 0 0 1
8.997463 28.382602 -15.253020 33.454163 1.263811 2.044222 0.060794 -0.028455 -14039.100000 0 0 1
8.541463 27.104002 -14.812020 32.046520 1.265511 2.051275 0.047242 -0.017194 -151430.000000 0 0 1
7.683763 26.287502 -15.818320 31.627397 1.286421 2.094564 0.051886 -0.012891 613486.000000 0 0 1
8.508763 25.707802 -16.826220 31.881214 1.251165 2.126779 0.051153 -0.005829 367677.000000 0 0 1
7.761263 24.615402 -17.331020 31.088896 1.265362 2.162127 0.042337 -0.000704 82313.300000 0 0 1
8.547563 23.777402 -18.309520 31.203593 1.225699 2.197868 0.042280 0.004626 -871347.000000 0 0 1
7.820663 22.863602 -19.020020 30.751719 1.241215 2.237632 0.066833 -0.005742 -686996.000000 0 0 1
8.647463 21.994402 -19.788820 30.824174 1.196195 2.267888 0.048337 -0.000788 -565476.000000 0 0 1
7.902663 21.040902 -20.695320 30.552707 1.211512 2.314971 0.050013 -0.013415 -272872.000000 0 0 1
7.306663 20.010702 -19.901820 29.153009 1.220700 2.322204 0.053124 -0.015489 -66248.200000 0 0 1
6.477063 19.255502 -20.751320 29.040385 1.246311 2.366802 0.041938 -0.022401 -80814.600000 0 0 1
24.668063 -12.554598 -9.925320 29.404816 -0.470775 1.915099 0.079478 -0.016973 -366369.000000 0 0 1
25.143763 -11.856098 -8.833220 29.168504 -0.440615 1.878461 0.089387 -0.021660 229762.000000 0 0 1
24.495863 -12.135798 -7.616920 28.378555 -0.459979 1.842532 0.077070 -0.011544 -562521.000000 0 0 1
25.230363 -11.568098 -6.390720 28.482159 -0.429899 1.797099 0.065037 -0.015967 -414667.000000 0 0 1
25.202563 -10.188698 -6.106020 27.861483 -0.384184 1.791746 0.060976 -0.015472 500134.000000 0 0 1
26.148363 -9.434798 -6.844720 28.628700 -0.346279 1.812221 0.057495 -0.019360 -1249750.000000 0 0 1
26.291863 -7.962498 -6.462120 28.220957 -0.294070 1.801829 0.073815 -0.016273 -383035.000000 0 0 1
26.868563 -7.799798 -5.175420 28.452442 -0.282529 1.753712 0.076177 -0.027408 744343.000000 0 0 1
28.235463 -8.189998 -5.115620 29.841029 -0.282313 1.743076 0.080681 -0.030253 -486563.000000 0 0 1
28.904163 -8.278998 -3.733920 30.297435 -0.278961 1.694353 0.086945 -0.032982 -227318.000000 0 0 1
29.029563 -6.975098 -3.206020 30.027422 -0.235806 1.677770 0.084332 -0.024462 178515.000000 0 0 1
29.915663 -6.936298 -2.129120 30.782986 -0.227836 1.640017 0.089481 -0.022703 -334319.000000 0 0 1
30.175363 -5.491498 -1.634820 30.714519 -0.180016 1.624048 0.085986 -0.025325 -350339.000000 0 0 1
29.017563 -4.993898 -1.030020 29.462160 -0.170430 1.605764 0.090145 -0.015866 37763.000000 0 0 1
29.269263 -3.684198 -0.609620 29.506519 -0.125214 1.591458 0.093337 -0.009713 -135073.000000 0 0 1
29.879063 -3.527598 0.812880 30.097560 -0.117519 1.543785 0.089110 -0.012048 -5996.540000 0 0 1
28.956463 -3.461498 1.909880 29.225098 -0.118977 1.505399 0.092172 -0.017025 636811.000000 0 0 1
29.612763 -2.999198 3.101280 29.925388 -0.100936 1.466976 0.084697 -0.012492 -11082.200000 0 0 1
29.192063 -3.789398 4.348180 29.756390 -0.129087 1.424145 0.093372 -0.018966 -232584.000000 0 0 1
29.637363 -5.117998 4.330880 30.386242 -0.171001 1.427782 0.091408 -0.025060 139078.000000 0 0 1
29.616263 -5.696698 5.658280 30.685363 -0.190029 1.385338 0.087187 -0.024424 -161910.000000 0 0 1
30.259263 -7.125498 5.656980 31.597423 -0.231268 1.390793 0.063439 -0.018032 626475.000000 0 0 1
31.675363 -7.110498 5.508480 32.927665 -0.220820 1.402716 0.060497 -0.024028 155594.000000 0 0 1
32.170363 -8.399098 5.393780 33.683378 -0.255381 1.409972 0.062861 -0.015510 1084130.000000 0 0 1
33.746863 -8.450398 5.298880 35.190028 -0.245360 1.419642 0.066585 -0.013359 1110990.000000 0 0 1
34.339863 -7.944998 4.124980 35.487528 -0.227363 1.454296 0.067357 -0.012988 133929.000000 0 0 1
35.740163 -7.817998 4.325680 36.840084 -0.215353 1.453107 0.073862 -0.008891 616274.000000 0 0 1
-35.270286 -7.520098 3.017880 36.189122 0.210068 1.487307 0.070442 -0.007173 13319.100000 0 0 1
-35.156286 -8.598398 2.077180 36.252056 0.239868 1.513467 0.093601 -0.018206 251403.000000 0 0 1
-34.060186 -8.448798 1.195280 35.112778 0.243147 1.536749 0.123546 -0.030072 -108620.000000 0 0 1
-33.861086 -9.711598 0.341880 35.227903 0.279310 1.561091 0.122205 -0.028858 -107015.000000 0 0 1
-33.266086 -10.673498 1.180980 34.956412 0.310476 1.537006 0.115652 -0.024320 131961.000000 0 0 1
-33.039786 -11.950098 0.622180 35.139998 0.347049 1.553090 0.110173 -0.033913 -672239.000000 0 0 1
-32.668786 -12.985698 1.692880 35.195792 0.378346 1.522679 0.089972 -0.037105 737585.000000 0 0 1
-31.367986 -12.859198 2.280980 33.978117 0.389051 1.503615 0.088611 -0.035551 1346780.000000 0 0 1
-30.304986 -13.423998 1.465780 33.177469 0.416987 1.526602 0.096647 -0.025178 205125.000000 0 0 1
-28.977386 -13.550698 2.227380 32.066674 0.437418 1.501279 0.087791 -0.024624 -440779.000000 0 0 1
-28.381686 -12.346798 2.654580 31.064615 0.410333 1.485238 0.075338 -0.027913 -393544.000000 0 0 1
-27.138686 -12.746898 3.137180 30.146867 0.439111 1.466544 0.064152 -0.014898 -978891.000000 0 0 1
-26.293286 -11.709098 3.875280 29.042343 0.418961 1.436962 0.054408 -0.011326 -312123.000000 0 0 1
-25.187586 -12.345898 4.496380 28.408681 0.455743 1.411853 0.044914 -0.000219 262762.000000 0 0 1
-24.350986 -11.414598 5.145380 27.381353 0.438339 1.381757 0.038778 0.003267 -373731.000000 0 0 1
-22.990986 -11.938298 5.605880 26.505364 0.478937 1.357687 0.032027 0.014687 -257044.000000 0 0 1
-23.100086 -12.801698 6.688980 27.244080 0.506050 1.322740 0.037136 0.006099 839547.000000 0 0 1
-21.762986 -13.214898 7.034080 26.414757 0.545711 1.301251 0.023601 0.012890 889811.000000 0 0 1
-21.486986 -12.789498 8.462680 26.398462 0.536898 1.244460 0.038091 0.003779 -387970.000000 0 0 1
-21.094486 -11.409998 8.598880 25.477561 0.495829 1.226528 0.031100 -0.000101 820940.000000 0 0 1
-22.122986 -10.449998 8.934980 26.047319 0.441292 1.220657 0.042442 0.000455 -222477.000000 0 0 1
-22.544986 -10.386298 10.429380 26.924404 0.431710 1.173032 0.060267 0.000703 -150130.000000 0 0 1
-23.350786 -11.487898 10.811780 28.180234 0.457203 1.177034 0.057484 -0.011839 1231220.000000 0 0 1
-24.771886 -11.418898 10.561080 29.250196 0.431932 1.201392 0.068887 -0.013115 738381.000000 0 0 1
-25.496086 -11.120398 11.882180 30.247312 0.411286 1.167085 0.068928 -0.015756 -431363.000000 0 0 1
-25.562786 -12.130598 12.841880 31.072839 0.443074 1.144740 0.063647 -0.011066 -281788.000000 0 0 1
-26.646286 -11.938598 13.691180 32.249079 0.421223 1.132337 0.049527 -0.014827 -329626.000000 0 0 1
-26.858386 -12.968498 14.832080 33.309840 0.449831 1.109314 0.046324 -0.010217 630.133000 0 0 1
-27.338286 -14.236998 14.433580 34.035309 0.480126 1.132854 0.037840 -0.002567 512957.000000 0 0 1
-26.597786 -15.162098 15.238180 34.198444 0.518107 1.108973 0.004618 0.018949 136964.000000 0 0 1
-26.834686 -16.664198 14.879480 34.916970 0.555714 1.130576 0.021853 0.001862 222788.000000 0 0 1
-27.935986 -17.329298 15.493480 36.342424 0.555228 1.130376 0.010082 0.011207 216570.000000 0 0 1
-27.681086 -18.741798 15.471880 36.835806 0.595165 1.137326 0.002118 0.020929 584743.000000 0 0 1
-28.707786 -19.610198 16.324580 38.408186 0.599291 1.131803 -0.012390 0.023562 371849.000000 0 0 1
-28.635586 -19.305798 17.689180 38.802290 0.593192 1.097436 -0.001496 0.024074 -176892.000000 0 0 1
-29.198286 -20.249898 18.574180 40.094868 0.606371 1.089131 -0.003299 0.020413 68034.700000 0 0 1
-28.423386 -21.601398 18.685780 40.294760 0.649862 1.088599 -0.005208 0.019439 -306018.000000 0 0 1
-27.125486 -21.498998 19.161780 39.562264 0.670197 1.065182 0.003033 0.020739 -191726.000000 0 0 1
-26.399386 -22.754798 19.289780 39.834709 0.711388 1.065296 0.010038 0.018574 689909.000000 0 0 1
-24.999686 -22.579698 19.945480 39.149064 0.734580 1.036221 0.011303 0.011377 274568.000000 0 0 1
-24.102686 -21.894298 19.099080 37.750161 0.737423 1.040332 0.015023 0.008211 -771935.000000 0 0 1
-22.877986 -21.732898 19.734080 37.217671 0.759735 1.011920 0.023936 0.010244 -333796.000000 0 0 1
-21.687786 -21.492998 18.777580 35.845593 0.780887 1.019436 0.026766 0.003498 -16355.400000 0 0 1
-21.296786 -22.578598 17.957780 35.858445 0.814605 1.046278 0.028414 0.002114 791419.000000 0 0 1
-20.120386 -22.259198 17.192680 34.581644 0.835823 1.050471 0.030256 0.002491 639681.000000 0 0 1
-19.764586 -23.259498 16.090280 34.504206 0.866452 1.085661 0.030470 0.002980 -260351.000000 0 0 1
-19.733186 -24.648298 16.428880 35.592771 0.895696 1.091022 0.048798 -0.000964 449079.000000 0 0 1
-18.657186 -25.079318 17.263080 35.708216 0.931193 1.066207 0.046568 0.002025 -28570.600000 0 0 1
-17.266186 -25.286038 16.660780 34.858091 0.971684 1.072465 0.030347 0.008558 -168996.000000 0 0 1
-16.610986 -24.032498 16.487980 33.546077 0.966009 1.056982 0.033458 0.005642 148645.000000 0 0 1
-15.391586 -24.113198 15.759980 32.660744 1.002686 1.067249 0.037176 -0.002244 -6074.340000 0 0 1
-14.615886 -22.839798 15.680580 31.323491 1.001532 1.046503 0.044377 0.000107 -239147.000000 0 0 1
-15.303686 -21.828398 14.936180 30.557671 0.959339 1.060098 0.032104 0.003183 57333.800000 0 0 1
-16.267086 -21.061698 15.643580 30.869642 0.913141 1.039371 0.036466 0.004838 -9604.130000 0 0 1
-15.748386 -19.876398 16.477880 30.242410 0.900758 0.994574 0.036501 -0.006077 -177223.000000 0 0 1
-15.245086 -18.795098 15.672280 28.832078 0.889311 0.996111 0.031529 -0.008198 33072.700000 0 0 1
-15.344086 -17.603398 16.454480 28.566948 0.853864 0.956973 0.019525 -0.007674 -407312.000000 0 0 1
-14.760886 -16.303098 15.870780 27.121143 0.835004 0.945693 0.024580 -0.005473 25161.700000 0 0 1
-15.398486 -15.677898 14.756280 26.469939 0.794389 0.979457 0.012932 -0.007046 19433.700000 0 0 1
-15.399986 -16.476198 13.594680 26.333249 0.819148 1.028324 0.026252 -0.007201 19700.200000 0 0 1
-16.198586 -15.730298 12.487180 25.802444 0.770733 1.065630 0.015456 -0.001649 -286180.000000 0 0 1
-17.590086 -15.873598 12.601380 26.836114 0.734149 1.081995 0.008099 -0.000213 -648690.000000 0 0 1
-18.239886 -14.738498 12.110880 26.392995 0.679622 1.094077 0.013984 -0.002727 -1226990.000000 0 0 1
-19.738586 -14.841398 12.334780 27.604813 0.644715 1.107573 0.020570 -0.004497 -597978.000000 0 0 1
-20.357586 -15.939598 11.655780 28.361229 0.664277 1.147272 0.037249 -0.006587 -14449.100000 0 0 1
-20.587586 -15.795398 10.256980 27.902490 0.654437 1.194368 0.037766 -0.000379 -601274.000000 0 0 1
-21.383486 -17.014598 9.734680 29.008861 0.672107 1.228580 0.036990 0.005443 -60077.700000 0 0 1
-20.783186 -18.248398 9.880380 29.369487 0.720547 1.227687 0.034355 0.014675 -565131.000000 0 0 1
-21.454686 -19.120398 9.027380 30.122861 0.727931 1.266434 0.032430 0.004756 3097.510000 0 0 1
-21.050786 -20.577198 9.208480 30.844007 0.774022 1.267623 0.040485 0.008671 1137950.000000 0 0 1
-19.730286 -20.852298 8.688280 29.993145 0.813039 1.276909 0.045964 0.007305 582252.000000 0 0 1
-19.458686 -22.221698 8.495980 30.734769 0.851592 1.290720 0.036018 -0.004519 -463546.000000 0 0 1
-18.165386 -22.476998 7.749280 29.920696 0.891089 1.308816 0.043926 -0.002830 -123198.000000 0 0 1
-17.023786 -21.957798 8.423780 29.032986 0.911302 1.276418 0.032162 -0.005457 -93742.700000 0 0 1
-15.828186 -22.398498 7.847580 28.527333 0.955613 1.292113 0.046582 0.004350 -713020.000000 0 0 1
-14.531886 -21.998598 8.501580 27.701821 0.987018 1.258866 -0.006436 0.010672 135885.000000 0 0 1
-13.371386 -22.410098 7.784980 27.232561 1.032831 1.280882 0.015346 0.015352 740108.000000 0 0 1
-12.092586 -22.036298 8.265580 26.460327 1.068907 1.253103 0.016645 0.014710 623572.000000 0 0 1
-10.863086 -22.591198 7.553880 26.180718 1.122582 1.278107 0.016661 0.016856 -9490.350000 0 0 1
-10.784586 -23.960598 7.771480 27.400976 1.147862 1.283229 0.015916 0.015906 -357492.000000 0 0 1
-9.565386 -24.532698 7.362480 27.341470 1.199024 1.298152 0.030976 0.015027 -86389.100000 0 0 1
-9.524686 -26.099328 7.293580 28.724395 1.220875 1.314070 0.010999 0.014120 -163104.000000 0 0 1
-10.151786 -26.635268 6.130680 29.156157 1.206653 1.358945 0.015916 0.009434 -88652.900000 0 0 1
-10.170186 -28.072328 6.168980 30.488434 1.223219 1.367051 0.032951 0.002462 205283.000000 0 0 1
-8.960586 -28.744258 5.449180 30.597680 1.268609 1.391750 0.036333 -0.003338 -212225.000000 0 0 1
-7.764086 -28.343818 6.063380 30.006960 1.303430 1.367330 0.028677 0.000242 -309306.000000 0 0 1
-6.547486 -29.013128 5.773480 30.297925 1.348841 1.379067 0.026198 0.008522 753340.000000 0 0 1
-6.564486 -30.491278 6.313880 31.822564 1.358742 1.371062 0.026875 -0.001274 -565895.000000 0 0 1
-6.793486 -30.561268 7.731180 32.247693 1.352062 1.328695 0.029193 -0.000673 63550.400000 0 0 1
-6.670486 -31.854498 8.126580 33.544683 1.364374 1.326100 0.040082 -0.005279 -61208.700000 0 0 1
-6.813486 -31.940428 9.669080 34.060324 1.360628 1.282957 0.028159 -0.004864 123361.000000 0 0 1
-5.734486 -31.404778 10.424180 33.582852 1.390187 1.255181 0.018278 0.003429 306504.000000 0 0 1
-5.968486 -31.634908 11.785580 34.282505 1.384321 1.219859 0.003721 0.002856 -276213.000000 0 0 1
-5.234486 -30.687348 12.761980 33.644930 1.401848 1.181742 0.010021 -0.005644 52604.200000 0 0 1
-5.565486 -29.277458 12.779680 32.426292 1.382943 1.165692 0.014256 -0.000968 337535.000000 0 0 1
-4.614486 -28.535308 13.539580 31.919861 1.410473 1.132747 0.006385 -0.009482 -327337.000000 0 0 1
-5.210486 -28.079288 14.876080 32.200828 1.387320 1.090572 0.009767 -0.007111 44003.300000 0 0 1
-5.709486 -29.062918 15.853080 33.594219 1.376814 1.079353 0.022631 -0.014689 843732.000000 0 0 1
-4.782486 -30.094888 16.321280 34.568174 1.413201 1.079071 0.010989 -0.019487 481564.000000 0 0 1
-5.455486 -31.331488 16.989680 36.056535 1.398403 1.080151 0.001378 -0.009759 57101.500000 0 0 1
-6.248486 -32.030678 16.039580 36.363114 1.378138 1.113978 -0.008870 -0.002903 115488.000000 0 0 1
-6.704486 -33.262788 16.545480 37.750710 1.371900 1.117109 -0.001756 -0.003397 -272544.000000 0 0 1
-6.036486 34.244359 15.850280 38.214482 -1.396312 1.143105 -0.000104 -0.002484 -199411.000000 0 0 1
-6.336486 34.025744 14.449880 37.506018 -1.386679 1.175298 -0.005762 -0.003124 249235.000000 0 0 1
-5.581486 32.966233 13.869780 36.198015 -1.403078 1.177577 0.008456 -0.006141 -104254.000000 0 0 1
-4.359486 33.410637 13.057280 36.135417 -1.441047 1.201089 0.021307 -0.009946 -96727.200000 0 0 1
-4.704486 33.838114 11.775680 36.136087 -1.432653 1.238864 0.015503 -0.010311 71498.400000 0 0 1
-3.526486 34.089938 11.047180 36.008335 -1.467716 1.258972 0.028939 -0.015349 -668903.000000 0 0 1
-3.753486 -34.192594 9.568080 35.703926 1.461459 1.299496 0.027414 -0.014562 -442459.000000 0 0 1
-4.038486 33.601058 8.515980 34.897885 -1.451181 1.324281 0.039263 -0.029480 260694.000000 0 0 1
-4.921486 32.493927 8.687080 33.993259 -1.420480 1.312377 0.050319 -0.030859 103907.000000 0 0 1
-6.390486 32.711436 9.096780 34.548919 -1.377867 1.304354 0.043886 -0.019110 -389761.000000 0 0 1
-7.176486 33.241781 8.077480 34.953736 -1.358172 1.337598 0.049191 -0.026219 24316.500000 0 0 1
-8.533286 33.422251 8.512180 35.529158 -1.320819 1.328860 0.039994 -0.023598 361769.000000 0 0 1
-9.452586 33.737392 7.374180 35.804211 -1.297620 1.363353 0.049690 -0.030913 -643817.000000 0 0 1
-9.168186 -33.749578 6.763980 35.620796 1.305544 1.379748 0.037988 -0.020807 280227.000000 0 0 1
-9.890986 -33.695298 5.532380 35.550133 1.285275 1.414539 0.032572 -0.013822 -555126.000000 0 0 1
-9.723186 -32.351038 4.804080 34.120510 1.278833 1.429530 0.028138 -0.009534 609788.000000 0 0 1
-10.695486 -31.354208 5.158180 33.527401 1.242056 1.416333 0.041314 -0.023324 525750.000000 0 0 1
-12.053786 -31.620808 4.852680 34.186514 1.206603 1.428368 0.033841 -0.023390 -585179.000000 0 0 1
-13.013686 -30.589268 5.416780 33.680868 1.168559 1.409268 0.036404 -0.032207 -386126.000000 0 0 1
-13.420186 -30.824058 6.725580 34.284944 1.160166 1.373349 0.030632 -0.022546 489605.000000 0 0 1
-14.486086 -29.911528 7.063180 33.976973 1.119789 1.361388 0.028860 -0.019608 537099.000000 0 0 1
33.324151 -12.987098 -12.948120 38.037056 -0.371613 1.918147 0.022588 -0.028344 544619.000000 0 0 1
32.228001 -13.344998 -12.068720 36.910528 -0.392586 1.903894 0.046680 -0.025847 822283.000000 0 0 1
31.974421 -14.698798 -11.779620 37.110346 -0.430895 1.893805 0.054074 -0.040739 -368220.000000 0 0 1
32.925661 -15.337798 -10.762320 37.883701 -0.435941 1.858852 0.041584 -0.036887 282083.000000 0 0 1
34.250241 -15.468498 -11.257420 39.231148 -0.424210 1.861839 0.040694 -0.037465 73408.500000 0 0 1
35.217361 -15.594098 -10.241720 39.853874 -0.416847 1.830694 0.027870 -0.032934 -62282.300000 0 0 1
-35.135759 -15.574398 -10.680020 39.889175 0.417238 1.841845 0.020859 -0.032990 -312767.000000 0 0 1
-34.679770 -14.313498 -11.104320 39.126316 0.391435 1.858558 0.030128 -0.033845 -341487.000000 0 0 1
-33.285897 -14.342098 -11.294120 37.963191 0.406837 1.872871 0.037181 -0.032921 213435.000000 0 0 1
-32.629177 -12.904498 -11.401320 36.894165 0.376612 1.884967 0.049794 -0.038522 42530.600000 0 0 1
-32.815077 -12.202298 -10.201220 36.466290 0.356006 1.854324 0.062919 -0.033628 215324.000000 0 0 1
-32.312017 -10.916498 -10.381420 35.651231 0.325807 1.866271 0.066890 -0.023582 -313466.000000 0 0 1
-32.690537 -9.847398 -9.372520 35.404613 0.292586 1.838716 0.065909 -0.029062 -50912.700000 0 0 1
-31.966707 -9.852598 -8.145420 34.428069 0.298976 1.809654 0.079229 -0.025594 307108.000000 0 0 1
-32.428837 -8.838498 -7.324620 34.400561 0.266088 1.785360 0.091563 -0.033172 -70223.900000 0 0 1
-31.833407 -8.982198 -5.906620 33.599611 0.275013 1.747509 0.089663 -0.025667 12079.400000 0 0 1
-30.478627 -8.558298 -5.842620 32.192040 0.273747 1.753300 0.097894 -0.043688 260387.000000 0 0 1
-29.979067 -8.457098 -4.499420 31.472397 0.274955 1.714252 0.107251 -0.042463 -383105.000000 0 0 1
-29.171547 -9.665998 -4.019020 30.992954 0.319965 1.700838 0.096738 -0.035111 -655447.000000 0 0 1
-29.830437 -10.884298 -3.758420 31.975751 0.349862 1.688608 0.124958 -0.036482 412215.000000 0 0 1
-30.748757 -10.873698 -2.653620 32.722547 0.339905 1.651980 0.099086 -0.035836 221438.000000 0 0 1
-31.531467 -12.177398 -2.529320 33.895721 0.368552 1.645486 0.095059 -0.030707 124544.000000 0 0 1
-32.883817 -12.275898 -2.966420 35.225598 0.357289 1.655108 0.090272 -0.037815 457924.000000 0 0 1
-33.394577 -13.565198 -2.653420 36.142123 0.385848 1.644279 0.093028 -0.033630 -761812.000000 0 0 1
-34.908330 -13.570398 -2.553620 37.540221 0.370765 1.638872 0.077708 -0.026278 -887734.000000 0 0 1
-35.316851 -12.918598 -1.394120 37.631287 0.350673 1.607852 0.095303 -0.024911 -523757.000000 0 0 1
35.109031 -12.891398 -1.318120 37.424186 -0.351899 1.606025 0.104126 -0.027785 -529260.000000 0 0 1
34.504561 -11.937998 -0.257820 36.512286 -0.333092 1.577858 0.095546 -0.028653 -55849.600000 0 0 1
34.716961 -12.394898 1.056680 36.878415 -0.342921 1.542139 0.110954 -0.021430 97291.200000 0 0 1
34.618371 -11.324398 1.995580 36.478157 -0.316149 1.516063 0.097789 -0.019221 37657.800000 0 0 1
35.001531 -11.761998 3.436080 37.084477 -0.324187 1.478008 0.095401 -0.023698 -53633.700000 0 0 1
33.887851 -12.087698 4.199180 36.223363 -0.342629 1.454610 0.097519 -0.021778 -322782.000000 0 0 1
34.395951 -12.515198 5.418580 37.000982 -0.348966 1.423824 0.103103 -0.023706 677775.000000 0 0 1
33.412411 -12.439998 6.666480 36.270990 -0.356416 1.385949 0.092344 -0.026275 675726.000000 0 0 1
32.926791 -11.107798 7.022680 35.452430 -0.325360 1.371390 0.085239 -0.019539 207861.000000 0 0 1
32.598931 -11.032398 8.402080 35.425966 -0.326329 1.331342 0.064949 -0.003961 -214846.000000 0 0 1
31.788971 -9.743898 8.787780 34.390512 -0.297426 1.312401 0.062735 -0.026850 183655.000000 0 0 1
30.431551 -9.856498 8.370680 33.065059 -0.313228 1.314853 0.064313 -0.017591 -17178.200000 0 0 1
29.731181 -8.903698 9.081180 32.337081 -0.290974 1.286139 0.066879 -0.010314 127072.000000 0 0 1
28.175021 -9.020898 9.207580 30.983672 -0.309860 1.269063 0.053790 -0.012179 780381.000000 0 0 1
27.494401 -8.716898 8.007580 29.934057 -0.307018 1.299991 0.077656 -0.014792 112720.000000 0 0 1
27.145211 -9.890398 7.246380 29.785777 -0.349402 1.325047 0.077623 -0.025706 -412652.000000 0 0 1
26.134011 -9.526098 6.136380 28.484878 -0.349542 1.353668 0.090663 -0.026377 359795.000000 0 0 1
24.804611 -9.247898 6.580680 27.278154 -0.356867 1.327149 0.083058 -0.020680 714621.000000 0 0 1
24.013011 -8.428498 5.728180 26.085941 -0.337563 1.349403 0.086415 -0.022052 -86603.400000 0 0 1
24.450611 -6.927298 5.411780 25.982825 -0.276083 1.360977 0.087579 -0.017983 -490791.000000 0 0 1
25.331911 -6.977898 4.297680 26.624553 -0.268793 1.408669 0.085963 -0.020125 301108.000000 0 0 1
25.542911 -5.703298 3.787680 26.444554 -0.219680 1.427071 0.083102 -0.027532 510526.000000 0 0 1
26.317911 -5.768798 2.350680 27.045095 -0.215784 1.483769 0.088686 -0.029402 662487.000000 0 0 1
25.512211 -6.236198 1.266780 26.293874 -0.239739 1.522600 0.081920 -0.025872 259471.000000 0 0 1
26.106611 -6.027298 -0.004920 26.793348 -0.226897 1.570980 0.074753 -0.027835 -132700.000000 0 0 1
25.181611 -6.428998 -1.185020 26.016338 -0.249966 1.616361 0.073431 -0.032010 227422.000000 0 0 1
24.071111 -5.553798 -1.323220 24.738916 -0.226756 1.624309 0.062593 -0.025627 203214.000000 0 1 0
23.452311 -5.726298 -2.602420 24.281145 -0.239482 1.678181 0.049250 -0.019758 -123386.000000 0 1 0
22.352911 -4.650898 -2.849820 23.008802 -0.205140 1.694973 0.030628 -0.015568 -274458.000000 0 1 0
22.633011 -3.235998 -2.817720 23.036155 -0.142014 1.693421 0.025067 -0.013463 194388.000000 0 1 0
23.483411 -2.829898 -3.870220 23.967844 -0.119928 1.732982 0.042016 -0.011818 -189419.000000 0 1 0
22.761111 -2.031398 -4.967520 23.385274 -0.089013 1.784848 0.042117 -0.000771 49084.100000 0 1 0
22.261511 -0.758998 -4.505020 22.725452 -0.034081 1.770355 0.031327 0.008061 407876.000000 0 1 0
21.308511 -0.157498 -5.324420 21.964219 -0.007391 1.815649 0.030065 0.010851 -508950.000000 0 1 0
20.750111 1.143002 -4.726420 21.312265 0.055029 1.794426 0.013587 0.018491 -405138.000000 0 1 0
21.715311 2.207802 -4.620320 22.310905 0.101322 1.779394 0.014403 0.015601 748655.000000 0 1 0
22.547311 2.111602 -3.491120 22.913490 0.093380 1.723753 0.049127 0.003263 -193257.000000 0 1 0
23.669611 3.182402 -3.519920 24.140589 0.133649 1.717127 0.038312 0.005650 213961.000000 0 1 0
23.202111 4.539302 -3.337720 23.876424 0.193201 1.711047 0.026531 0.009134 731688.000000 0 1 0
24.306611 5.304402 -2.903320 25.047501 0.214860 1.686970 0.029609 0.007769 20046.100000 0 0 1
24.105511 6.815202 -2.954820 25.224068 0.275533 1.688209 0.038192 0.004627 34203.900000 0 0 1
23.193911 7.244702 -1.939220 24.376296 0.302751 1.650434 0.052369 -0.001074 684762.000000 0 1 0
22.806411 8.553402 -2.210820 24.457735 0.358809 1.661313 0.043961 0.001394 -445803.000000 0 1 0
21.768011 9.138602 -1.242820 23.641171 0.397473 1.623391 0.043796 0.004917 -3064.820000 0 1 0
22.284311 9.417602 0.059280 24.192670 0.399846 1.568346 0.041902 -0.007698 551829.000000 0 1 0
21.173411 9.719702 0.839180 23.312876 0.430356 1.534792 0.037893 -0.012320 -279408.000000 0 1 0
21.647711 10.008702 2.296480 23.959786 0.433072 1.474802 0.056367 -0.015659 -234909.000000 0 1 0
22.403011 11.226702 2.367380 25.170185 0.464547 1.476602 0.056079 -0.022279 508096.000000 0 0 1
21.861411 12.475602 1.930180 25.244555 0.518572 1.494262 0.051378 -0.011765 -742852.000000 0 0 1
20.776311 13.195402 2.717780 24.762069 0.565842 1.460819 0.037987 -0.001951 1675190.000000 0 1 0
19.403211 12.607302 2.609180 23.285972 0.576202 1.458511 0.070580 -0.012977 2391510.000000 0 1 0
18.438911 13.439602 3.164380 23.035400 0.629841 1.432990 0.052747 -0.012144 -570167.000000 0 1 0
18.332411 13.511402 4.697680 23.253032 0.635144 1.367372 0.026639 -0.000754 -868888.000000 0 1 0
18.029611 12.293102 5.236280 22.441164 0.598426 1.335292 0.034081 -0.000617 522572.000000 0 1 0
18.277311 12.215502 6.664880 22.971705 0.589162 1.276429 0.034057 -0.010841 -302758.000000 0 1 0
18.330511 10.775102 7.194680 22.447135 0.531418 1.244522 0.023397 -0.018473 -349440.000000 0 1 0
19.459911 10.078802 6.748980 22.930746 0.477886 1.272052 0.016224 -0.023140 203881.000000 0 1 0
19.614211 8.828902 7.368280 22.736718 0.422960 1.240768 0.035754 -0.019995 328164.000000 0 1 0
20.573411 7.883702 6.556780 22.987157 0.365939 1.281543 0.047999 -0.021736 204023.000000 0 1 0
19.990511 7.525502 5.315480 22.011543 0.360045 1.326899 0.026613 -0.027376 398358.000000 0 1 0
20.779211 6.653302 4.569180 22.291690 0.309876 1.364361 0.028793 -0.033321 -333227.000000 0 1 0
20.321611 6.518102 3.117180 21.567808 0.310381 1.425759 0.026498 -0.022734 -241430.000000 0 1 0
21.244511 5.610502 2.515180 22.116354 0.258197 1.456825 0.019370 -0.026057 732295.000000 0 1 0
21.161911 5.658302 1.068480 21.931359 0.261270 1.522058 0.037324 -0.013325 -69000.200000 0 1 0
22.249011 4.840702 0.316280 22.771713 0.214231 1.556907 0.043269 -0.006833 42298.000000 0 1 0
22.098111 3.499402 0.639580 22.382614 0.157053 1.542218 0.041129 -0.008853 -94157.900000 0 1 0
23.201511 2.804202 0.199880 23.371214 0.120279 1.562244 0.048664 -0.010724 -664837.000000 0 1 0
23.038211 1.289802 0.221480 23.075351 0.055927 1.561198 0.060565 -0.015244 -331373.000000 0 1 0
22.021511 0.842902 -0.634720 22.046776 0.038258 1.599590 0.025142 -0.012791 649637.000000 0 1 0
22.249911 -0.509598 -1.054520 22.280715 -0.022899 1.618143 0.034821 -0.012269 -1157740.000000 0 1 0
21.976911 -1.685098 -0.086020 22.041588 -0.076526 1.574699 0.052210 -0.014257 515508.000000 0 1 0
22.906211 -1.947998 1.019580 23.011492 -0.084838 1.526474 0.056782 -0.012332 1180650.000000 0 1 0
24.221311 -2.294798 0.616780 24.337593 -0.094461 1.545451 0.069997 -0.016938 -215117.000000 0 1 0
25.281311 -2.084898 1.712080 25.424845 -0.082282 1.503406 0.087266 -0.015098 -201339.000000 0 0 1
25.365811 -0.740898 2.100180 25.463387 -0.029200 1.488224 0.089357 -0.018238 336215.000000 0 0 1
26.277211 -0.486298 3.150680 26.469890 -0.018504 1.451485 0.094109 -0.014925 -290092.000000 0 0 1
26.154811 0.901602 3.805780 26.445623 0.034458 1.426385 0.094510 -0.015413 -169602.000000 0 0 1
26.443311 1.955102 2.890780 26.672603 0.073801 1.462203 0.107184 -0.015338 1590060.000000 0 0 1
27.846351 2.147202 2.533980 28.043730 0.076957 1.480315 0.127862 -0.024589 1346290.000000 0 0 1
28.098911 3.172402 1.458480 28.315016 0.112425 1.519264 0.132677 -0.028181 -110478.000000 0 0 1
27.523321 2.742202 0.220080 27.660465 0.099304 1.562840 0.128193 -0.020395 214449.000000 0 0 1
27.684531 3.603402 -0.901920 27.932620 0.129432 1.603091 0.111576 -0.011889 -293937.000000 0 0 1
29.053381 3.614702 -1.606620 29.321430 0.123780 1.625617 0.104760 -0.007470 534096.000000 0 0 1
30.158491 4.068202 -0.795620 30.442041 0.134085 1.596935 0.122924 -0.020926 476419.000000 0 0 1
31.401641 3.787702 -1.371920 31.658994 0.120041 1.614144 0.098924 -0.019407 615585.000000 0 0 1
32.653591 4.195202 -0.481620 32.925502 0.127776 1.585424 0.055794 -0.015476 741595.000000 0 0 1
32.821881 3.337702 0.616080 32.996904 0.101343 1.552124 0.050649 -0.016630 323895.000000 0 0 1
32.434241 4.009902 1.811480 32.731342 0.123008 1.515424 0.061186 -0.002686 -65644.300000 0 0 1
32.429921 2.979802 2.932380 32.698285 0.091627 1.480996 0.058858 -0.002897 -672441.000000 0 0 1
31.436281 2.017702 2.966680 31.640355 0.064096 1.476896 0.076007 -0.011666 -332028.000000 0 0 1
31.551531 1.076002 4.029280 31.825964 0.034090 1.443852 0.068676 -0.011863 -374976.000000 0 0 1
32.641611 -0.008398 3.913680 32.875397 -0.000257 1.451467 0.057758 -0.009617 226999.000000 0 0 1
33.922181 0.548302 4.218680 34.187897 0.016162 1.447084 0.047625 -0.015663 -465771.000000 0 0 1
34.900531 -0.315498 3.800880 35.108308 -0.009040 1.462322 0.037346 -0.010069 -1165680.000000 0 0 1
-35.508492 0.245902 4.111180 35.746543 -0.006925 1.455532 0.039791 -0.020546 18093.000000 0 0 1
-35.202094 1.428902 3.315880 35.386781 -0.040569 1.476955 0.032843 -0.018773 287417.000000 0 0 1
-34.912772 1.139502 1.941980 34.985303 -0.032627 1.515259 0.053510 -0.018636 -959737.000000 0 0 1
-34.939306 2.476002 1.149680 35.045791 -0.070748 1.537985 0.048146 -0.017753 72009.100000 0 0 1
-33.997277 3.498902 1.437480 34.207069 -0.102556 1.528761 0.063252 -0.019182 1338180.000000 0 0 1
-32.691857 3.192602 0.869880 32.858894 -0.097349 1.544320 0.078957 -0.011358 571769.000000 0 0 1
-31.533077 4.063602 1.372980 31.823465 -0.128162 1.527639 0.079081 -0.013635 -266263.000000 0 0 1
-30.950097 3.517102 2.517280 31.250844 -0.113152 1.490158 0.080566 -0.020282 300642.000000 0 0 1
-30.001237 4.340502 3.193780 30.481378 -0.143680 1.465826 0.081523 -0.015987 -15734.100000 0 0 1
-30.214077 4.260902 4.718180 30.875670 -0.140100 1.417383 0.078999 -0.022953 -402157.000000 0 0 1
-31.452857 4.758102 5.163280 32.227026 -0.150139 1.409887 0.067634 -0.011671 229707.000000 0 0 1
-32.520667 3.819402 5.265480 33.164845 -0.116910 1.411355 0.064034 -0.013845 -159166.000000 0 0 1
-32.486277 2.835502 6.459180 33.243335 -0.087062 1.375253 0.051719 -0.018684 -778612.000000 0 0 1
-32.815647 3.458402 7.699380 33.883738 -0.105001 1.341565 0.045258 -0.007137 208098.000000 0 0 1
-32.744437 2.592102 8.851780 34.018689 -0.078997 1.307563 0.040303 -0.007283 -796471.000000 0 0 1
-33.952557 1.711602 9.082180 35.187949 -0.050369 1.309736 0.032732 -0.001673 -819859.000000 0 0 1
-33.931737 0.655602 8.173180 34.908358 -0.019319 1.334470 0.040244 -0.012562 634447.000000 0 0 1
-34.957155 -0.331598 8.420980 35.958665 0.009486 1.334416 0.042966 -0.012446 322603.000000 0 0 1
-34.740021 -1.264598 9.663080 36.081067 0.036386 1.299671 0.050210 0.000316 -814666.000000 0 0 1
-33.604807 -2.046998 9.562080 34.998666 0.060839 1.294065 0.046494 -0.011426 -441573.000000 0 0 1
-33.427807 -2.860898 10.697880 35.214311 0.085376 1.262124 0.037563 0.001935 -363450.000000 0 0 1
-32.138597 -3.670698 10.598880 34.039679 0.113722 1.254164 0.043781 0.002190 -451170.000000 0 0 1
-32.216657 -4.637098 9.609780 33.937642 0.142953 1.283709 0.053242 -0.003284 173246.000000 0 0 1
-30.963637 -5.270898 9.435080 32.795578 0.168612 1.278979 0.054952 -0.015208 209786.000000 0 0 1
-31.000227 -6.388298 8.328180 32.728933 0.203228 1.313508 0.067417 -0.006157 133540.000000 0 0 1
-31.782307 -7.515898 8.649180 33.784791 0.232215 1.311906 0.066540 -0.006709 -69612.800000 0 0 1
-32.138277 -8.284498 7.494680 34.024580 0.252284 1.348702 0.079514 -0.015268 671458.000000 0 0 1
-33.221577 -9.411298 7.778180 35.394150 0.276056 1.349229 0.082466 -0.017142 139154.000000 0 0 1
-34.446760 -8.906498 8.164180 36.504231 0.253017 1.345238 0.076509 -0.018313 -863316.000000 0 0 1
-35.336485 -9.906998 8.601980 37.693632 0.273344 1.340560 0.082234 -0.021227 79098.700000 0 0 1
7.457663 -23.552398 10.935080 27.016812 -1.264143 1.154090 0.061992 -0.016326 -175424.000000 0 0 1
6.867163 -24.179398 9.840580 26.993300 -1.294074 1.197640 0.056779 -0.008427 -218853.000000 0 0 1
5.763563 -25.010298 10.157180 27.602572 -1.344303 1.193961 0.051436 -0.011515 350265.000000 0 0 1
5.409163 -26.052158 9.081880 28.115023 -1.366077 1.241871 0.050027 -0.004133 -156412.000000 0 0 1
4.833563 -25.488838 7.928180 27.127481 -1.383387 1.274211 0.051125 -0.003599 -461907.000000 0 0 1
4.902363 -26.408608 6.811080 27.709900 -1.387251 1.322452 0.044343 -0.000280 -357311.000000 0 0 1
4.238563 -25.940718 5.487380 26.851399 -1.408833 1.364985 0.039009 -0.005173 717289.000000 0 0 1
2.817763 -25.907988 5.451780 26.624904 -1.462462 1.364575 0.036502 -0.010186 -49401.900000 0 0 1
2.212963 -27.136908 5.185980 27.716482 -1.489428 1.382579 0.033294 -0.004695 1179170.000000 0 0 1
0.625463 -27.018388 5.048880 27.493193 -1.547651 1.386107 0.052124 -0.011921 1383890.000000 0 0 1
-0.041237 -26.664058 6.229980 27.382227 1.569250 1.341267 0.048426 -0.009082 379991.000000 0 0 1
-1.480337 -26.706238 6.248680 27.467445 1.515423 1.341293 0.030327 -0.006481 1137410.000000 0 0 1
-2.078237 -28.102448 6.482880 28.915297 1.496979 1.344672 0.025210 0.003081 -507438.000000 0 0 1
-1.953837 -28.661908 7.754280 29.756534 1.502733 1.307162 0.025486 -0.000629 -61611.500000 0 0 1
-2.552637 -29.936238 7.753080 31.029092 1.485733 1.318256 0.018593 0.004454 120483.000000 0 0 1
-2.577237 -30.545638 9.183180 32.000140 1.486622 1.279731 0.016901 0.000586 1720740.000000 0 0 1
-1.188537 -30.720528 9.599280 32.207292 1.532127 1.268151 0.022124 -0.002457 1190690.000000 0 0 1
-1.090037 -31.270188 10.886380 33.128932 1.535952 1.235969 0.018508 0.003791 -87449.500000 0 0 1
0.303163 -31.603978 11.426180 33.607453 -1.561204 1.223891 0.021884 0.004981 -187950.000000 0 0 1
0.924763 -32.740618 10.852480 34.504776 -1.542559 1.250844 0.019238 0.000142 -184823.000000 0 0 1
2.287463 -32.945278 11.120280 34.846585 -1.501475 1.245994 0.047792 -0.001020 155604.000000 0 0 1
2.780963 -33.515358 12.504680 35.880078 -1.488010 1.214812 0.044993 -0.001111 -507544.000000 0 0 1
2.484863 -32.785618 13.677380 35.610982 -1.495150 1.176588 0.040401 0.000327 54645.000000 0 0 1
3.199763 -33.267428 14.780480 36.543438 -1.474908 1.154404 0.044719 -0.002517 -765015.000000 0 0 1
2.940563 -32.389968 16.022780 36.255847 -1.480258 1.113040 0.044590 -0.003898 -76173.400000 0 0 1
3.555763 -31.110728 16.077080 35.199337 -1.456996 1.096465 0.037194 -0.007568 81809.000000 0 0 1
4.961363 -31.088348 16.119480 35.368604 -1.412542 1.097574 0.040889 -0.005220 -143195.000000 0 0 1
5.673463 -29.852338 15.480580 34.102766 -1.382985 1.099615 0.048234 -0.008429 15995.200000 0 0 1
5.758563 -29.904998 14.007880 33.521495 -1.380563 1.139688 0.046869 -0.008618 543355.000000 0 0 1
4.496663 -29.773218 13.331880 32.930283 -1.420899 1.153980 0.035562 0.001639 241487.000000 0 0 1
4.621063 -29.764318 11.780880 32.342820 -1.416771 1.197969 0.033405 0.000457 139876.000000 0 0 1
5.068663 -30.920078 11.121380 33.247972 -1.408314 1.229724 0.038632 0.004163 130554.000000 0 0 1
6.387563 -31.348398 11.412380 33.967123 -1.369788 1.228148 0.047619 0.001253 -228630.000000 0 0 1
6.842163 -32.653508 10.743180 35.049717 -1.364246 1.259269 0.042309 0.004110 -78569.800000 0 0 1
6.354263 -33.787028 11.443980 36.234025 -1.384900 1.249460 0.035100 -0.006441 56324.800000 0 0 1
6.810563 33.734008 10.927080 36.107729 1.371584 1.263351 0.046585 -0.005952 -131167.000000 0 0 1
6.380263 32.539997 11.823680 35.204525 1.377178 1.228282 0.046769 -0.013886 -875867.000000 0 0 1
5.038363 32.320907 12.019580 34.849626 1.416155 1.218666 0.049040 -0.009561 -1116470.000000 0 0 1
4.845063 31.179477 12.851580 34.070479 1.416637 1.184019 0.050546 0.000216 864061.000000 0 0 1
3.588063 31.187847 13.801680 34.293474 1.456253 1.156596 0.055691 -0.005222 791968.000000 0 0 1
3.883863 32.093827 14.887480 35.591223 1.450366 1.139234 0.077583 -0.015260 380529.000000 0 0 1
2.955563 31.882767 15.937580 35.766641 1.478360 1.108953 0.057528 -0.009308 102357.000000 0 0 1
3.552563 32.124787 17.337680 36.677211 1.460658 1.078433 0.062291 -0.005813 -48763.000000 0 0 1
3.709563 33.463654 17.682480 38.029556 1.460394 1.087199 0.067091 -0.004178 76219.800000 0 0 1
4.368463 33.486240 18.923780 38.710737 1.441073 1.060024 0.064536 -0.005664 19716.700000 0 0 1
4.595863 -33.898858 19.629680 39.440827 -1.436042 1.049852 0.054211 -0.007404 -153196.000000 0 0 1
3.374463 -33.360058 20.027880 39.056324 -1.469986 1.032359 0.042340 -0.007825 -353033.000000 0 0 1
3.615263 -32.455888 21.113780 38.887614 -1.459864 0.996858 0.037098 -0.005835 1096880.000000 0 0 1
2.251863 -31.794828 21.550880 38.476258 -1.500090 0.976280 0.036284 -0.006892 1398390.000000 0 0 1
1.200263 -32.639408 22.015180 39.388320 -1.534039 0.977706 0.051206 -0.006804 114674.000000 0 0 1
0.192263 -31.940258 22.697980 39.184376 -1.564777 0.952975 0.043216 -0.005898 -410848.000000 0 0 1
-0.799437 -32.926978 23.326280 40.360133 1.546522 0.954578 0.050780 -0.013096 -799488.000000 0 0 1
-1.546937 -33.532248 22.278380 40.288098 1.524696 0.984864 0.044915 -0.013529 -155509.000000 0 0 1
-2.371237 34.154083 22.721580 41.090076 -1.501480 0.984872 0.046539 -0.016920 179579.000000 0 0 1
-3.770237 -34.203848 23.240680 41.524055 1.461011 0.976782 0.059186 -0.013857 -62172.000000 0 0 1
-4.746537 -33.825498 22.295280 40.789379 1.431382 0.992503 0.038074 -0.019621 -1050360.000000 0 0 1
-5.856037 -33.269968 22.872580 40.796309 1.396565 0.975622 0.042334 -0.005926 -816130.000000 0 0 1
-6.988437 -32.825098 21.938580 40.095219 1.361029 0.991826 0.016700 -0.005028 30763.800000 0 0 1
-7.591137 -33.878358 21.230380 40.695178 1.350367 1.021962 -0.000868 0.004683 -153298.000000 0 0 1
-8.702537 -33.467928 20.478880 40.189811 1.316404 1.036130 0.000802 -0.002687 -472698.000000 0 0 1
-9.950137 -34.319897 20.633780 41.262737 1.288610 1.047130 0.015770 0.001174 -195010.000000 0 0 1
-10.430737 34.304753 21.952180 42.041819 -1.275618 1.021425 0.033021 -0.003648 -584682.000000 0 0 1
-11.768537 33.921643 22.023480 42.121372 -1.236856 1.020596 0.019069 0.003457 -431343.000000 0 0 1
-12.302637 33.703756 23.468280 42.872581 -1.220801 0.991547 0.029479 0.002292 -62591.600000 0 0 1
-12.608237 -33.895268 24.292480 43.565829 1.214679 0.979300 0.024358 0.002311 194006.000000 0 0 1
-11.499737 -33.124838 24.772580 42.932267 1.236651 0.955727 0.018730 0.001706 -112013.000000 0 0 1
-11.813737 -31.809888 25.480880 42.434757 1.215198 0.926705 0.014227 -0.000372 -242744.000000 0 0 1
-12.271737 -31.976498 26.821380 43.502625 1.204356 0.906448 0.017033 0.002063 127040.000000 0 0 1
-12.835437 -30.757298 27.229080 43.036991 1.175454 0.885774 0.024673 -0.005762 -461409.000000 0 0 1
-13.549737 -30.820378 28.522080 44.124824 1.156595 0.867946 0.031131 -0.008580 -248004.000000 0 0 1
-12.710837 -30.378718 29.559980 44.251828 1.174518 0.839286 0.013375 0.001763 818590.000000 0 0 1
-13.560337 -30.180718 30.703480 45.138256 1.148521 0.822748 0.023611 0.001960 246937.000000 0 0 1
-12.789337 -29.689418 31.928380 45.436220 1.164048 0.791600 0.025306 0.002945 -348823.000000 0 0 1
-13.659937 -29.218148 32.963080 46.117878 1.133472 0.774520 0.030664 0.000244 515539.000000 0 0 1
-13.151237 -28.966588 34.290480 46.774515 1.144609 0.747925 0.031416 0.002084 -832600.000000 0 0 1
-12.379337 -30.053138 -33.597113 46.746177 1.180061 2.372747 0.032508 0.003947 103442.000000 0 0 1
-11.160337 -30.474278 -34.184613 47.136212 1.219744 2.382165 0.028834 -0.002324 -61412.100000 0 0 1
-10.608837 -31.571208 -33.499213 47.238606 1.246622 2.359087 0.032883 -0.002936 675878.000000 0 0 1
-9.076637 -31.760518 -33.775213 47.242786 1.292433 2.367318 0.041982 -0.016889 666353.000000 0 0 1
-8.257537 -30.706798 -33.343313 46.074623 1.308095 2.379917 0.054677 -0.017868 276732.000000 0 0 1
-6.908037 -31.180318 -33.217013 46.079314 1.352767 2.375847 0.060875 -0.021659 779911.000000 0 0 1
-6.159437 -30.328148 -32.111313 44.596767 1.370428 2.374652 0.056509 -0.012651 126909.000000 0 0 1
-6.515437 -30.629098 -30.798313 43.921847 1.361200 2.347886 0.059768 -0.021484 55257.900000 0 0 1
-5.988737 -29.549368 -30.019313 42.546319 1.370836 2.354020 0.049139 -0.015844 284266.000000 0 0 1
-6.326037 -29.746048 -28.492913 41.673639 1.361250 2.323638 0.049095 -0.020458 -125222.000000 0 0 1
-5.738237 -30.867278 -27.938213 42.026896 1.386994 2.297982 0.037547 -0.014130 -428991.000000 0 0 1
-6.531737 -31.475578 -26.931213 41.936450 1.366183 2.268150 0.043280 -0.017465 79829.100000 0 0 1
-5.982337 -32.752088 -26.288613 42.421443 1.390133 2.239158 0.031158 -0.015223 100584.000000 0 0 1
-5.132537 -32.504248 -25.191213 41.442325 1.414186 2.224162 0.006483 -0.014170 -145262.000000 0 0 1
-4.813837 -33.679458 -24.447313 41.894511 1.428827 2.193883 0.023809 -0.015942 69171.800000 0 0 1
-4.071837 -33.402878 -23.085513 40.807757 1.449494 2.172095 0.024291 -0.024054 441344.000000 0 0 1
-4.795537 -32.596898 -22.127913 39.688783 1.424728 2.162211 0.033987 -0.017698 108489.000000 0 0 1
-4.860737 -31.266538 -22.517913 38.836575 1.416570 2.189294 0.015998 -0.009221 -153233.000000 0 0 1
-5.568637 -30.427448 -21.429813 37.630788 1.389786 2.176664 0.045455 -0.019535 -1462750.000000 0 0 1
-6.914537 -30.608338 -21.267713 37.907741 1.348622 2.166436 0.063268 -0.022289 -1223670.000000 0 0 1
-7.598937 -29.653738 -20.463213 36.821612 1.319939 2.160048 0.066261 -0.026340 162582.000000 0 0 1
-7.861837 -28.296608 -21.222913 36.234218 1.299795 2.196558 0.080064 -0.043097 -701761.000000 0 0 1
-6.752837 -27.477708 -21.552313 35.568630 1.329815 2.221738 0.066740 -0.030287 -309248.000000 0 0 1
-6.948037 -26.739328 -22.731913 35.777182 1.316575 2.259290 0.086209 -0.050079 -543491.000000 0 0 1
-6.142337 -27.323608 -23.982113 36.870715 1.349673 2.278957 0.069235 -0.039873 1771440.000000 0 0 1
-4.730737 -27.016938 -24.087213 36.503269 1.397451 2.291435 0.068906 -0.031412 1255980.000000 0 0 1
-3.919237 -27.411808 -22.997913 35.995439 1.428783 2.263879 0.040208 -0.022537 -540364.000000 0 0 1
-2.395637 -27.130808 -23.177713 35.763476 1.482725 2.275861 0.034881 -0.021707 626902.000000 0 0 1
-1.833337 -25.809098 -23.271913 34.800181 1.499881 2.303295 0.044264 -0.026928 227676.000000 0 0 1
-2.152037 -24.923298 -22.223913 33.461984 1.484664 2.297158 0.054969 -0.030288 -1215330.000000 0 0 1
-2.046937 -23.422198 -22.646313 32.644215 1.483625 2.337453 0.061323 -0.025588 286916.000000 0 0 1
-3.038837 -22.950098 -23.577113 33.042727 1.439151 2.365326 0.054699 -0.037169 1861980.000000 0 0 1
-4.414237 -23.137698 -23.109113 32.998025 1.382281 2.346639 0.056717 -0.037413 214105.000000 0 0 1
-5.407137 -23.175798 -24.254313 33.979795 1.341587 2.365686 0.050122 -0.036053 -596607.000000 0 0 1
-5.538237 -21.967998 -24.970113 33.716043 1.323838 2.404760 0.061910 -0.036087 84698.900000 0 0 1
-5.817937 -22.266998 -26.300313 34.948162 1.315229 2.422725 0.064791 -0.039054 -78357.600000 0 0 1
-6.048137 -20.999898 -27.220713 34.907634 1.290377 2.465131 0.072731 -0.027307 -16880.200000 0 0 1
-6.068237 -21.254698 -28.622213 36.163749 1.292694 2.483993 0.067158 -0.025810 1028420.000000 0 0 1
-4.789137 -21.622898 -29.196813 36.646138 1.352830 2.492649 0.058991 -0.030988 1130760.000000 0 0 1
-5.119137 -21.958098 -30.647413 38.047701 1.341755 2.507315 0.060425 -0.033495 120024.000000 0 0 1
-5.423637 -20.939198 -31.562913 38.263342 1.317348 2.540798 0.083240 -0.034727 -219637.000000 0 0 1
-6.306837 -21.542998 -32.476613 39.479201 1.285999 2.536810 0.074631 -0.031762 717.674000 0 0 1
-6.568537 -20.709398 -33.709213 40.104063 1.263657 2.569082 0.060924 -0.017480 999958.000000 0 0 1
-5.467437 -20.834598 33.985480 40.236627 1.314162 0.564903 0.069630 -0.020320 767189.000000 0 0 1
-5.731737 -20.265898 32.734580 38.924441 1.295168 0.571709 0.064155 -0.011784 -26657.100000 0 0 1
-4.437137 -20.316198 31.923380 38.099059 1.355769 0.577363 0.055844 -0.010060 -684846.000000 0 0 1
-4.284037 -21.615698 31.443680 38.396567 1.375141 0.611271 0.067444 -0.005793 399590.000000 0 0 1
-3.280537 -21.970498 30.478780 37.714993 1.422576 0.629819 0.051451 -0.010745 1028830.000000 0 0 1
-1.786237 -21.951698 30.947480 37.984394 1.489604 0.618512 0.041838 -0.015381 199619.000000 0 0 1
-1.240337 -20.679298 31.026180 37.306777 1.510888 0.588724 0.041566 -0.018636 70621.000000 0 0 1
-0.271437 -20.483898 32.056880 38.043492 1.557546 0.568633 0.046193 -0.014783 359820.000000 0 0 1
-0.894037 -20.122898 33.440180 39.038134 1.526397 0.542147 0.035890 -0.008994 104784.000000 0 0 1
-1.602537 -18.880098 33.461180 38.453566 1.486120 0.515247 0.038385 -0.016903 -81583.200000 0 0 1
-1.975437 -18.578898 -33.853213 38.666753 1.464867 2.637291 0.046600 -0.019360 -113638.000000 0 0 1
-3.073737 -17.517198 -33.821813 38.212761 1.397095 2.657488 0.058633 -0.025292 -63460.300000 0 0 1
-2.644137 -16.235298 -34.256813 38.001389 1.409350 2.693932 0.063652 -0.024524 275105.000000 0 0 1
-3.643337 -15.272098 -33.940513 37.396113 1.336612 2.708315 0.063702 -0.023275 354494.000000 0 0 1
-3.218137 -13.882598 34.225280 37.073612 1.343009 0.394547 0.067987 -0.024707 328826.000000 0 0 1
-2.106037 -13.389598 -33.647613 36.275041 1.414785 2.758650 0.073984 -0.019382 519058.000000 0 0 1
-1.868537 -11.973998 -33.795413 35.902618 1.415995 2.797280 0.074503 -0.016083 11427.000000 0 0 1
-1.345337 -11.430698 33.536080 35.456162 1.453640 0.330604 0.069372 -0.017364 -550609.000000 0 0 1
-2.323537 -11.449998 32.530380 34.564821 1.370586 0.344805 0.060056 -0.017278 174109.000000 0 0 1
-1.793437 -11.085898 31.208480 33.167495 1.410409 0.345413 0.051227 -0.012776 250579.000000 0 0 1
-0.813337 -12.142298 30.633880 32.962577 1.503912 0.378139 0.036365 -0.022119 235079.000000 0 0 1
-1.454737 -13.331198 30.294280 33.129752 1.462104 0.416741 0.050266 -0.031123 9330.090000 0 0 1
-0.521337 -14.372998 30.512280 33.732093 1.534540 0.440479 0.039537 -0.029527 -250372.000000 0 0 1
-1.087437 -15.739398 30.758780 34.568970 1.501816 0.473933 0.039122 -0.035372 93331.500000 0 0 1
-1.788637 -16.371098 29.654180 33.920237 1.461972 0.506943 0.051122 -0.034127 467279.000000 0 0 1
-2.056437 -17.699598 30.043080 34.929806 1.455129 0.535333 0.059346 -0.022822 -270153.000000 0 0 1
-2.807437 -18.529998 28.954180 34.490391 1.420432 0.574461 0.058471 -0.023370 1689480.000000 0 0 1
-4.254237 -18.288498 28.789380 34.371443 1.342243 0.577929 0.057198 -0.021268 1835630.000000 0 0 1
-4.830737 -19.299798 27.969680 34.323770 1.325535 0.618278 0.056751 -0.013677 -187860.000000 0 0 1
-4.466737 -19.349198 26.495480 33.111232 1.343922 0.643174 0.054237 -0.018496 -683105.000000 0 0 1
-5.146137 -20.230598 25.618580 33.046504 1.321705 0.683720 0.076635 -0.013888 -503352.000000 0 0 1
-4.867437 -21.584598 25.941580 34.096222 1.349001 0.706198 0.073692 -0.023496 190065.000000 0 0 1
-28.920737 -33.949284 -0.469120 44.600258 0.865211 1.581315 0.002527 0.001316 -413541.000000 0 0 1
-28.261187 -32.771284 -0.224420 43.274728 0.859161 1.575982 0.005761 -0.000593 -167055.000000 0 0 1
-28.577797 -32.372684 1.130880 43.196760 0.847580 1.544614 0.010999 0.001636 -87065.500000 0 0 1
-27.890827 -31.073184 1.549280 41.783265 0.839317 1.533709 0.026804 -0.005049 -157793.000000 0 0 1
-26.509417 -31.273184 1.752080 41.034510 0.867655 1.528086 0.031026 -0.003773 -497710.000000 0 0 1
-25.934007 -30.005784 2.111780 39.716236 0.858059 1.517600 0.046736 -0.018739 608365.000000 0 0 1
-24.407837 -30.256284 2.329480 38.943699 0.891981 1.510944 0.048927 -0.020616 299789.000000 0 0 1
-24.041037 -30.809484 3.570380 39.242112 0.908176 1.479687 0.045534 -0.021324 449508.000000 0 0 1
-22.621937 -30.820684 3.735880 38.413844 0.937623 1.473389 0.043710 -0.021116 475464.000000 0 0 1
-22.344337 -31.357284 5.136680 38.845001 0.951682 1.438173 0.043735 -0.018122 -66709.800000 0 0 1
-22.509237 -30.328284 6.078580 38.254669 0.932315 1.411222 0.036392 -0.017731 55578.200000 0 0 1
-22.295937 -30.935984 7.379980 38.840803 0.946304 1.379628 0.033486 -0.013480 -69706.300000 0 0 1
-22.744637 -30.057384 8.563080 38.653476 0.923016 1.347409 0.038537 -0.021273 -529820.000000 0 0 1
-21.901137 -29.008684 8.931080 37.428969 0.924112 1.329858 0.037481 -0.014378 -260904.000000 0 0 1
-22.491437 -28.181784 9.902580 37.391694 0.897225 1.302765 0.030767 -0.003492 52828.600000 0 0 1
-21.482437 -27.175784 10.476780 36.190900 0.901875 1.277106 0.031230 -0.011784 236329.000000 0 0 1
-20.308737 -27.705184 11.057280 36.087192 0.938245 1.259383 0.013371 -0.011105 -152151.000000 0 0 1
-19.877237 -26.936784 12.147580 35.612618 0.935070 1.222706 0.027712 -0.009746 603049.000000 0 0 1
-18.586037 -27.429584 12.900480 35.556226 0.975269 1.199505 0.042340 -0.007649 633706.000000 0 0 1
-18.718337 -28.491384 13.814780 36.782920 0.989528 1.185778 0.056314 -0.017087 96728.100000 0 0 1
-17.449337 -28.762984 14.405180 36.596418 1.025495 1.166227 0.065157 -0.011091 310425.000000 0 0 1
-17.536237 -29.966584 15.376780 37.973163 1.041335 1.153885 0.075671 -0.024118 93279.600000 0 0 1
-17.548837 -31.225484 14.745680 38.735353 1.058784 1.180267 0.086211 -0.025201 -7043.150000 0 0 1
-17.109737 -32.274884 15.587780 39.716371 1.083340 1.167473 0.110011 -0.024137 110395.000000 0 0 1
-17.240437 -33.576084 14.785680 40.536433 1.096428 1.197432 0.094684 -0.028092 80528.100000 0 0 1
-17.046137 34.045702 15.645580 41.163877 -1.106602 1.180913 0.109452 -0.012087 18137.100000 0 0 1
-17.054437 32.854702 14.987680 39.936397 -1.091996 1.186088 0.073998 -0.015347 -42493.600000 0 0 1
-16.941037 31.609002 15.896880 39.228032 -1.078799 1.153552 0.078481 -0.015699 257397.000000 0 0 1
-18.058437 31.603102 16.772280 40.077083 -1.051662 1.139003 0.090716 -0.019349 407452.000000 0 0 1
-17.994737 30.541902 17.683280 39.614602 -1.038369 1.108077 0.066496 -0.013842 -45532.200000 0 0 1
-18.933037 30.802802 18.882680 40.790049 -1.019672 1.089506 0.063516 -0.007915 -211752.000000 0 0 1
-18.411737 31.640102 19.833780 41.634924 -1.043783 1.074271 0.061036 0.001959 -368179.000000 0 0 1
-19.157537 31.708502 21.002580 42.585780 -1.027311 1.055052 0.058476 0.004821 -335937.000000 0 0 1
-18.738237 32.923302 21.858980 43.736487 -1.053371 1.047442 0.045403 0.005899 440609.000000 0 0 1
-17.468137 32.814602 22.493780 43.450018 -1.081622 1.026644 0.033042 0.006412 -27648.100000 0 0 1
-17.272437 33.504902 23.670480 44.510753 -1.094810 1.010081 0.027528 0.001193 -70468.400000 0 0 1
-18.136337 33.119102 24.902480 45.232014 -1.069790 0.987774 0.021344 -0.008622 633019.000000 0 0 1
-19.534537 33.402702 24.777180 45.948311 -1.041614 1.001262 0.025051 -0.010421 340464.000000 0 0 1
-20.241237 32.549402 25.640080 46.114910 -1.014457 0.981226 0.037040 -0.011191 -1578690.000000 0 0 1
-21.711037 32.724002 25.470380 46.807795 -0.985018 0.995423 0.061740 -0.018338 -1612430.000000 0 0 1
-22.080037 32.364802 24.165480 46.032367 -0.972101 1.018120 0.062688 -0.011809 97550.000000 0 0 1
-23.434837 32.603602 23.845580 46.699016 -0.947577 1.034887 0.049978 -0.012425 -96838.300000 0 0 1
-23.758937 32.169402 22.429480 45.852362 -0.934659 1.059661 0.034405 -0.015451 -239134.000000 0 0 1
-23.360937 33.013802 21.397680 45.754838 -0.954980 1.084155 0.046634 -0.019559 -19693.700000 0 0 1
-23.238937 32.338002 20.192980 44.649199 -0.947679 1.101500 0.030231 -0.006093 -48609.500000 0 0 1
-22.678937 33.129102 19.004180 44.418807 -0.970506 1.128694 0.046182 -0.009293 -46748.000000 0 0 1
-21.424537 33.739802 19.241980 44.358075 -1.005043 1.122104 0.061574 -0.005708 -71244.300000 0 0 1
-20.942137 34.318902 18.078880 44.081811 -1.022895 1.148210 0.080752 -0.007243 -794229.000000 0 0 1
-19.653637 -33.658084 18.245280 43.035129 1.042284 1.132980 0.095872 -0.016741 -665381.000000 0 0 1
-19.830137 -32.584484 19.111680 42.664262 1.024095 1.106319 0.096045 -0.030124 -372432.000000 0 0 1
-18.585037 -32.222084 19.610780 42.050553 1.047626 1.085623 0.076651 -0.027208 -703343.000000 0 0 1
-18.562237 -31.277284 20.776280 41.886500 1.035190 1.051794 0.081043 -0.023468 -189437.000000 0 0 1
-19.050137 -29.994784 20.488180 41.016585 1.004956 1.047764 0.102601 -0.022310 429007.000000 0 0 1
-19.698937 -29.385684 21.637280 41.469729 0.980242 1.021883 0.088033 -0.020995 206952.000000 0 0 1
-20.692837 -28.258084 21.224980 40.953786 0.938733 1.025973 0.066417 -0.019756 -204771.000000 0 0 1
-20.097037 -27.165584 20.494480 39.520672 0.933857 1.025611 0.062094 -0.015129 366923.000000 0 0 1
-20.809237 -25.925484 20.517380 39.065559 0.894438 1.017842 0.045152 -0.003369 296355.000000 0 0 1
-21.940737 -25.779584 19.412580 39.023469 0.865670 1.050129 0.037632 -0.002464 602564.000000 0 0 1
-23.253137 -26.151384 19.795680 40.205375 0.843995 1.055993 0.040377 -0.003945 85451.800000 0 0 1
-23.935037 -26.381584 18.593480 40.181979 0.833983 1.089722 0.035617 -0.002684 431682.000000 0 0 1
-25.505087 -26.451584 18.622780 41.194705 0.803613 1.101715 0.018089 0.002188 1009320.000000 0 0 1
-26.122907 -27.590884 19.190580 42.566906 0.812721 1.103098 0.022359 -0.006756 -24460.300000 0 0 1
-26.183267 -28.687384 18.305880 42.937567 0.831003 1.130357 0.033312 -0.009775 -127032.000000 0 0 1
-27.052717 -29.936784 18.751680 44.493663 0.835962 1.135757 0.039473 -0.021433 479661.000000 0 0 1
-28.447307 -29.707284 18.756880 45.206112 0.807061 1.142942 0.024876 -0.017890 99037.100000 0 0 1
-29.122977 -30.148884 17.579180 45.454709 0.802705 1.173702 0.029657 -0.008344 -36750.400000 0 0 1
-30.628777 -29.814884 17.724680 46.273249 0.771934 1.177707 0.037161 -0.009459 170269.000000 0 0 1
-30.880367 -28.382984 17.703880 45.526017 0.743283 1.171387 0.042782 -0.009921 216244.000000 0 0 1
-32.255447 -28.108184 17.947780 46.396192 0.716801 1.173597 0.021886 0.002988 95067.200000 0 0 1
-32.689747 -26.735984 17.356280 45.658218 0.685543 1.180854 0.004367 0.001478 -245513.000000 0 0 1
-32.942257 -26.636984 15.984080 45.279267 0.679961 1.210009 0.031082 -0.011352 295625.000000 0 0 1
-33.532507 -25.412684 15.585680 44.868106 0.648508 1.216035 0.027952 -0.007670 -370841.000000 0 0 1
-32.580567 -24.368384 15.022380 43.370305 0.642183 1.217092 0.016802 -0.007251 -176928.000000 0 0 1
-31.689037 -23.737284 15.930080 42.678111 0.642905 1.188275 0.006157 -0.001118 106126.000000 0 0 1
-31.366637 -22.410684 15.555580 41.570191 0.620375 1.187262 -0.001768 0.006450 -547512.000000 0 0 1
-32.449727 -21.354884 15.836480 41.950089 0.582042 1.183693 -0.005939 0.002435 -190861.000000 0 0 1
-32.796227 -21.157984 17.164980 42.636713 0.572947 1.156455 -0.001249 0.000043 129584.000000 0 0 1
-33.727067 -20.102584 17.326980 42.916817 0.537501 1.155202 0.006599 -0.007468 -628238.000000 0 0 1
-33.938467 -19.703784 18.830780 43.527657 0.526013 1.123404 0.000014 0.003213 -507820.000000 0 0 1
-34.671364 -20.657984 19.562880 44.850441 0.537342 1.119447 0.012632 -0.000355 192290.000000 0 0 1
-35.104162 -20.047284 20.773980 45.450566 0.518883 1.096101 0.005125 0.012208 -896072.000000 0 0 1
35.252391 -20.241984 21.145580 45.821442 -0.521234 1.091136 0.019036 0.007250 -763969.000000 0 0 1
34.940641 -21.615084 21.461680 46.353683 -0.554000 1.089421 0.029350 -0.003667 -72037.300000 0 0 1
35.605151 -22.217684 22.539480 47.638014 -0.557881 1.077944 0.012319 0.013737 -334530.000000 0 0 1
34.800411 -23.471084 22.968280 47.848744 -0.593371 1.070121 0.021855 0.014156 -438778.000000 0 0 1
33.720271 -23.204684 23.775280 47.336856 -0.602730 1.044589 0.042611 -0.005491 -717243.000000 0 0 1
33.467811 -24.388084 24.436180 48.083260 -0.629731 1.037696 0.043818 -0.013829 -268209.000000 0 0 1
32.525481 -24.168484 25.641180 47.953025 -0.639047 1.006626 0.054215 -0.019346 -618869.000000 0 0 1
31.177361 -24.019984 25.362580 46.821447 -0.656449 0.998353 0.062032 -0.020298 -897864.000000 0 0 1
30.424001 -23.897784 26.564680 46.929800 -0.665831 0.969088 0.050102 -0.019522 93497.700000 0 0 1
29.130921 -24.736884 26.382980 46.439053 -0.704008 0.966576 0.046329 -0.019958 -80322.600000 0 0 1
28.174031 -24.034384 25.613980 45.027809 -0.706273 0.965692 0.057130 -0.020189 473610.000000 0 0 1
26.909531 -24.726984 25.517780 44.572454 -0.743156 0.961243 0.051937 -0.010938 1391280.000000 0 0 1
25.767111 -23.791584 24.988780 43.063007 -0.745557 0.951719 0.044310 -0.011207 122219.000000 0 0 1
25.874111 -23.375984 23.627480 42.120827 -0.734718 0.975269 0.049798 -0.013880 136529.000000 0 0 1
26.753211 -22.280784 23.414280 41.957075 -0.694439 0.978758 0.058898 -0.012604 144328.000000 0 0 1
26.541911 -21.681284 21.955180 40.701118 -0.684943 1.001043 0.065717 -0.019051 40215.400000 0 0 1
25.719111 -20.557484 21.984480 39.590405 -0.674319 0.982075 0.057640 -0.018713 -157410.000000 0 0 1
25.718211 -19.929184 20.694180 38.559666 -0.659251 1.004299 0.056879 -0.018443 132310.000000 0 0 1
24.923311 -18.568584 20.582180 37.277203 -0.640312 0.985869 0.047205 -0.006723 180802.000000 0 0 1
25.399711 -17.430784 21.313180 37.459701 -0.601444 0.965552 0.050686 -0.021265 58792.100000 0 0 1
25.209111 -17.473284 22.706580 38.162857 -0.606103 0.933541 0.048338 -0.005638 -178550.000000 0 0 1
25.202911 -16.108584 23.382380 37.965891 -0.568714 0.907296 0.058017 0.001366 -624642.000000 0 0 1
24.073811 -15.349484 23.111880 36.733010 -0.567609 0.890291 0.030174 0.002608 -573738.000000 0 0 1
24.097511 -14.175884 23.874780 36.764804 -0.531751 0.864011 0.026791 0.008053 728315.000000 0 0 1
22.697011 -13.468784 23.812280 35.546971 -0.535565 0.836746 0.016214 0.002652 366964.000000 0 0 1
21.684011 -14.213584 24.420180 35.616955 -0.580223 0.815323 0.030866 0.006416 -862001.000000 0 0 1
20.508511 -13.466084 24.384980 34.591353 -0.581008 0.788452 0.033367 0.000121 158885.000000 0 0 1
19.240411 -14.247884 24.894980 34.539190 -0.637405 0.765877 0.024367 0.010279 433289.000000 0 0 1
18.781811 -15.236584 24.044980 34.103826 -0.681558 0.788299 0.027137 0.013348 93454.400000 0 0 1
17.608611 -15.887084 24.502980 34.100713 -0.734048 0.769085 0.017946 0.023609 182295.000000 0 0 1
17.200111 -17.153484 23.667580 33.915191 -0.784041 0.798411 0.014598 0.007815 127635.000000 0 0 1
18.088011 -18.259684 23.902680 35.098865 -0.790121 0.821655 0.005627 0.007401 431243.000000 0 0 1
17.890611 -19.220684 22.942980 34.869599 -0.821223 0.852683 0.018462 -0.002030 -251056.000000 0 0 1
18.168911 -20.677784 23.304380 36.066247 -0.849893 0.868261 0.005868 -0.004718 -145810.000000 0 0 1
17.138011 -21.286384 24.098680 36.435805 -0.892944 0.848111 0.002792 -0.011207 632754.000000 0 0 1
17.460111 -22.638684 24.347280 37.552037 -0.913833 0.865367 0.019134 -0.013101 -135663.000000 0 0 1
17.134211 -23.668184 23.221980 37.323243 -0.944187 0.899265 0.003598 -0.004164 47102.700000 0 0 1
18.057011 -23.598884 22.155580 37.065249 -0.917661 0.930111 0.014471 -0.000233 656819.000000 0 0 1
19.149411 -24.554484 22.316580 38.309951 -0.908448 0.948962 0.028477 -0.006553 698121.000000 0 0 1
19.999711 -24.673784 21.017380 38.085618 -0.889646 0.986221 0.034183 0.001431 -310758.000000 0 0 1
19.314811 -25.330784 19.939880 37.580704 -0.919341 1.011502 0.045205 -0.005125 336188.000000 0 0 1
20.165011 -25.720384 18.877780 37.743031 -0.905882 1.047006 0.043685 0.005174 -20983.100000 0 0 1
19.405811 -26.478984 17.799580 37.343636 -0.938345 1.073964 0.033980 -0.002594 39531.600000 0 0 1
18.897311 -27.715484 18.225680 38.176325 -0.972368 1.073094 0.054653 -0.013198 421151.000000 0 0 1
17.846911 -28.197184 17.388180 37.629007 -1.006513 1.090440 0.061560 -0.012246 241122.000000 0 0 1
17.186811 -29.498584 17.933480 38.563747 -1.043246 1.087123 0.058917 -0.009152 -196681.000000 0 0 1
16.386211 -29.281384 19.048380 38.584299 -1.060603 1.054478 0.053774 -0.013461 5204.030000 0 0 1
15.523811 -30.388084 19.338280 39.222358 -1.098505 1.055213 0.063050 -0.018532 265689.000000 0 0 1
14.299011 -30.038084 20.209080 38.924993 -1.126508 1.024905 0.051865 -0.010731 -392367.000000 0 0 1
13.376811 -29.287884 19.491880 37.638445 -1.142355 1.026435 0.048529 -0.005572 -351965.000000 0 0 1
12.272611 -28.872984 20.294780 37.365014 -1.168879 0.996613 0.012554 -0.001842 324393.000000 0 0 1
11.201511 -28.144584 19.462880 36.005487 -1.192016 0.999702 0.017404 -0.005105 -163910.000000 0 0 1
10.769511 -28.982684 18.422480 35.991194 -1.215024 1.033447 0.030272 -0.008283 -44890.400000 0 0 1
10.486311 -28.248884 17.239980 34.715689 -1.215351 1.051114 0.027363 -0.002890 -37261.200000 0 0 1
10.501811 -29.187184 15.974480 34.890740 -1.225410 1.095229 0.048713 -0.008586 5257.700000 0 0 1
9.486911 -30.167884 15.879980 35.387518 -1.266117 1.105436 0.052227 -0.005380 8003.450000 0 0 1
9.620811 -30.992984 14.675980 35.616140 -1.269808 1.146083 0.052031 -0.007269 -323560.000000 0 0 1
8.481811 -31.956284 14.318180 36.029924 -1.311359 1.162118 0.050167 -0.007519 -521714.000000 0 0 1
8.395611 -33.014484 15.311080 37.347980 -1.321774 1.148389 0.047029 -0.009167 389233.000000 0 0 1
7.442811 -34.012084 14.909880 37.875081 -1.355364 1.166187 0.042525 -0.012333 317482.000000 0 0 1
7.211011 33.670502 15.942380 37.945498 1.359819 1.137198 0.061405 -0.018797 404802.000000 0 0 1
8.392911 32.896802 16.083180 37.567395 1.320997 1.128390 0.054164 -0.019671 -59177.200000 0 0 1
8.116411 31.728002 16.817780 36.815485 1.320355 1.096387 0.061616 -0.022437 91005.900000 0 0 1
9.255811 30.784402 17.326580 36.517938 1.278729 1.076437 0.050758 -0.019963 92225.400000 0 0 1
9.904811 30.170902 16.208280 35.652446 1.253591 1.098852 0.052582 -0.022164 -270749.000000 0 0 1
10.915111 29.301402 16.630780 35.416022 1.214209 1.081977 0.042502 -0.019510 -512639.000000 0 0 1
11.656411 28.585002 15.538680 34.560452 1.183601 1.104469 0.035294 -0.009691 120425.000000 0 0 1
10.807511 27.751002 14.720480 33.220670 1.199421 1.111729 0.037814 -0.014973 734221.000000 0 0 1
11.594411 27.178702 13.645380 32.547021 1.167572 1.138176 0.030676 -0.007493 364845.000000 0 0 1
-9.420037 -9.237698 19.212772 23.306711 0.775626 0.601752 0.045327 -0.017089 -32064.100000 0 1 0
-9.848637 -9.225498 17.853672 22.379881 0.752740 0.647233 0.050077 -0.021472 281331.000000 0 1 0
-9.616037 -10.562898 17.458572 22.557587 0.832287 0.685732 0.047751 -0.025101 34178.800000 0 1 0
-9.982837 -10.762698 15.942672 21.671675 0.822972 0.744177 0.051939 -0.022934 -1167470.000000 0 1 0
-11.339637 -10.752198 15.722272 22.167250 0.758814 0.782353 0.045977 -0.012868 -1003810.000000 0 1 0
-11.710037 -11.285398 14.462672 21.763595 0.766934 0.843925 0.046079 -0.015320 3974.670000 0 1 0
-11.695937 -12.829498 14.298972 22.491144 0.831585 0.881803 0.030563 -0.017979 -589828.000000 0 1 0
-10.434937 -13.322698 13.908872 21.905226 0.906356 0.882844 0.034085 -0.016947 -32454.800000 0 1 0
-10.221637 -14.710198 14.134672 22.817992 0.963523 0.902751 0.033160 -0.016720 -335847.000000 0 1 0
-10.044337 -15.161098 15.576872 23.945491 0.985679 0.862536 0.051590 -0.018891 -54708.900000 0 1 0
-11.217137 -15.279898 16.359972 25.038932 0.937542 0.858754 0.054073 -0.009859 -124272.000000 0 0 1
-10.815437 -15.449298 17.695972 25.861205 0.960030 0.817198 0.077687 -0.009712 -318145.000000 0 0 1
-11.864137 -15.120998 18.768472 26.863691 0.905508 0.797279 0.054613 -0.011640 -666645.000000 0 0 1
-12.127837 -13.741798 18.909272 26.334047 0.847706 0.769794 0.056067 -0.015013 76744.800000 0 0 1
-13.181537 -13.316598 18.065072 26.027515 0.790495 0.803661 0.053630 -0.016542 44290.600000 0 0 1
-14.623537 -13.537898 18.590772 27.253244 0.746867 0.820099 0.022818 -0.008694 -183888.000000 0 0 1
-15.161037 -14.826598 18.731772 28.294246 0.774246 0.847266 0.031563 -0.004434 43970.100000 0 0 1
-16.189937 -14.851398 19.712272 29.516974 0.742304 0.839509 0.030369 -0.005406 136599.000000 0 0 1
-16.676937 -16.269498 20.161972 30.811068 0.773032 0.857441 0.027474 -0.005004 383272.000000 0 0 1
-17.785037 -16.839698 19.451372 31.276810 0.758103 0.899616 0.014084 0.001959 327831.000000 0 0 1
-17.915137 -18.163998 19.739572 32.257304 0.792296 0.912284 0.022343 -0.005720 -745565.000000 0 0 1
-19.087937 -18.894698 19.125272 32.971730 0.780311 0.952006 0.021772 0.003618 -688155.000000 0 0 1
-19.144137 -18.931998 17.687272 32.214254 0.779827 0.989568 0.024500 -0.001824 76131.400000 0 0 1
-19.520037 -17.743198 17.053372 31.411311 0.737751 0.996903 0.014615 -0.002416 -561578.000000 0 0 1
-19.040637 -17.706598 15.549072 30.295926 0.749111 1.031841 0.021478 -0.008127 -188595.000000 0 0 1
-19.684837 -18.673298 14.731272 30.873860 0.759033 1.073394 0.025659 -0.010567 -111425.000000 0 0 1
-19.199637 -18.692998 13.432772 29.974883 0.772029 1.106119 0.028766 -0.014038 -193227.000000 0 0 1
-19.426137 -19.881498 12.535372 30.492365 0.796982 1.147137 0.033145 -0.006375 -407424.000000 0 0 1
-18.628637 -20.942298 12.964772 30.881893 0.843800 1.137552 0.026695 -0.002988 -143463.000000 0 0 1
-18.604037 -22.087198 12.087172 31.305818 0.870790 1.174396 0.016936 -0.002804 -403725.000000 0 0 1
-17.719337 -23.208298 12.658572 31.825139 0.918716 1.161729 0.023078 -0.005671 -58524.600000 0 0 1
-17.562437 -24.417898 11.968772 32.371661 0.947271 1.192078 0.032550 -0.010889 196001.000000 0 0 1
-16.789137 -24.370898 10.760772 31.489840 0.967558 1.222048 0.026960 -0.009141 -87043.200000 0 0 1
-17.130637 -25.523598 9.791472 32.261211 0.979683 1.262426 0.037163 -0.011737 1085980.000000 0 0 1
-18.342937 -25.429478 8.992372 32.618775 0.945901 1.291498 0.033982 -0.012004 768821.000000 0 0 1
-18.376037 -26.585258 8.211272 33.344860 0.965993 1.321984 0.047892 -0.016163 50345.900000 0 0 1
-19.587637 -26.656788 7.268872 33.868812 0.937089 1.354495 0.046015 -0.023437 16568.600000 0 0 1
-19.500837 -25.552428 6.368472 32.768379 0.918920 1.375204 0.052411 -0.022027 -254170.000000 0 0 1
-20.627937 -25.471978 5.544472 33.242663 0.890091 1.403225 0.056521 -0.021417 -197435.000000 0 0 1
-20.661337 -24.106398 4.826272 32.113894 0.862201 1.419939 0.053692 -0.017294 327035.000000 0 0 1
-21.529537 -24.020898 3.679872 32.466382 0.840038 1.457208 0.053621 -0.011436 322768.000000 0 0 1
-21.531037 -22.782498 3.037572 31.493724 0.813632 1.474196 0.049648 -0.005096 87014.400000 0 0 1
-22.088937 -22.939298 1.570172 31.884134 0.804281 1.521530 0.039575 0.001587 195967.000000 0 0 1
-21.306537 -23.686798 0.644672 31.866103 0.838251 1.550564 0.036287 -0.009025 -60904.600000 0 0 1
-21.633237 -23.391298 -0.682628 31.868727 0.824425 1.592218 0.031739 -0.007097 -253265.000000 0 0 1
-21.067037 -24.343598 -1.781828 32.242918 0.857427 1.626087 0.047370 -0.014941 165171.000000 0 0 1
-19.663137 -24.138198 -1.924928 31.192899 0.887212 1.632546 0.048696 -0.015512 221791.000000 0 0 1
-19.107337 -24.710998 -3.097328 31.389763 0.912592 1.669630 0.048221 -0.007827 176712.000000 0 0 1
-18.847937 -26.239318 -3.135028 32.458820 0.947888 1.667532 0.061466 -0.013790 -167562.000000 0 0 1
-19.968237 -27.052318 -3.440528 33.799344 0.934933 1.672766 0.079327 -0.011438 126872.000000 0 0 1
-19.506737 -28.372178 -3.808428 34.640979 0.968488 1.680959 0.082760 0.001550 885684.000000 0 0 1
-20.755437 -29.193728 -4.291728 36.076043 0.952756 1.690042 0.083269 0.003901 830275.000000 0 0 1
-21.271437 -28.479868 -5.424328 35.958313 0.929286 1.722225 0.068666 0.006307 -233682.000000 0 0 1
-22.272937 -29.078428 -6.198228 37.149115 0.917158 1.738428 0.059128 -0.002556 -157764.000000 0 0 1
-22.617237 -28.116408 -7.377628 36.830711 0.893370 1.772473 0.054280 0.010231 653175.000000 0 0 1
-21.557437 -28.083678 -8.370428 36.379667 0.916117 1.802962 0.085421 0.010044 914799.000000 0 0 1
-22.058737 -28.036738 -9.678828 36.963851 0.904169 1.835731 0.080906 0.006613 131114.000000 0 0 1
-22.818037 -26.818678 -10.281528 36.682614 0.865823 1.854886 0.063850 0.015835 -29387.300000 0 0 1
-22.027937 -25.677058 -10.529728 35.431857 0.861743 1.872537 0.061469 0.015067 112434.000000 0 0 1
-21.746937 -24.858698 -9.361728 34.329668 0.852067 1.846995 0.044697 0.012963 54083.800000 0 0 1
-21.445237 -23.408898 -9.773628 33.217443 0.829149 1.869448 0.045956 0.001641 397812.000000 0 0 1
-22.575137 -22.739098 -10.320828 33.663376 0.789016 1.882404 0.040708 0.003880 320619.000000 0 0 1
-22.285637 -21.345198 -10.461628 32.583935 0.763847 1.897652 0.036874 0.003939 473112.000000 0 0 1
-23.543737 -20.456298 -10.700728 32.973827 0.715344 1.901303 0.032947 0.006202 613988.000000 0 0 1
-24.292137 -20.816798 -11.913428 34.137616 0.708507 1.927281 0.010279 0.010341 1655070.000000 0 0 1
-25.582287 -20.213798 -12.168428 34.801174 0.668705 1.928000 0.019318 0.003264 912758.000000 0 0 1
-25.636457 -18.648598 -12.308428 34.007287 0.628896 1.941139 0.026085 -0.004704 -1040250.000000 0 0 1
-24.950237 -18.068198 -13.378728 33.585183 0.626764 1.980516 0.019731 0.005001 397435.000000 0 0 1
-24.485537 -16.687898 -13.205228 32.440801 0.598230 1.990025 0.028143 -0.008862 161593.000000 0 0 1
-23.390337 -16.306098 -12.170528 31.001911 0.608797 1.974224 0.002910 -0.002583 -470881.000000 0 0 1
-23.797837 -16.408998 -10.839228 30.872013 0.603655 1.929544 0.018762 -0.005608 -60836.900000 0 0 1
-22.744637 -16.287498 -9.947828 29.691083 0.621452 1.912449 0.012567 -0.004379 -188122.000000 0 0 1
-23.292937 -16.710698 -8.546628 29.914097 0.622318 1.860539 0.008100 -0.012888 473011.000000 0 0 1
-23.775637 -18.040298 -8.362428 30.994572 0.649092 1.843985 0.010631 -0.006641 158297.000000 0 0 1
-24.754137 -18.156898 -7.366328 31.570604 0.632850 1.806296 0.031206 -0.005014 53709.400000 0 0 1
-25.118377 -19.555498 -6.949628 32.582936 0.661514 1.785738 0.048448 -0.003246 35984.600000 0 0 1
-25.477787 -20.363998 -8.051328 33.595148 0.674304 1.812809 0.029494 -0.017329 37597.000000 0 0 1
-25.782207 -21.646698 -7.613428 34.514722 0.698424 1.793210 0.029398 -0.002784 -75309.700000 0 0 1
-25.633177 -22.830898 -8.553028 35.376037 0.727641 1.814991 0.013589 0.012726 91632.400000 0 0 1
-26.071037 -24.021898 -7.980228 36.337785 0.744514 1.792213 0.017061 0.014094 -332831.000000 0 0 1
-25.820137 -25.033098 -8.933128 37.055854 0.769923 1.814267 0.007023 0.028722 -16677.400000 0 0 1
-26.408097 -26.361448 -8.465328 38.261931 0.784514 1.793889 0.012056 0.024641 28385.800000 0 0 1
-25.949427 -26.779558 -7.178928 37.974393 0.801140 1.760987 0.023159 0.010197 248281.000000 0 0 1
-26.565547 -28.034958 -6.887628 39.231704 0.812304 1.747274 0.004998 0.011605 -85375.400000 0 0 1
-26.151497 -28.685858 -5.563228 39.213885 0.831581 1.713145 0.009689 0.006003 -244168.000000 0 0 1
-26.624217 -27.913058 -4.478428 38.833543 0.809026 1.686377 -0.004391 0.004475 133234.000000 0 0 1
-25.890347 -27.978648 -3.264128 38.259239 0.824145 1.656216 0.002894 -0.005288 -20584.800000 0 0 1
-26.164097 -29.296588 -2.425628 39.353955 0.841820 1.632472 -0.002697 0.006380 -493326.000000 0 0 1
-25.834357 -30.547808 -3.004928 40.119973 0.868802 1.645765 0.011560 0.004130 -192814.000000 0 0 1
-25.911107 -31.643418 -2.107828 40.952831 0.884669 1.622289 0.013829 0.001274 -462596.000000 0 0 1
-24.756637 -31.731068 -1.124928 40.261859 0.908245 1.598740 0.033590 -0.011439 -1116810.000000 0 0 1
-23.543337 -32.034148 -1.753628 39.793851 0.937000 1.614878 0.041314 -0.016754 -267196.000000 0 0 1
-22.482237 -32.270128 -0.825428 39.338194 0.962296 1.591781 0.054129 -0.013791 529610.000000 0 0 1
-21.535537 -31.078318 -0.519928 37.814171 0.964822 1.584546 0.074443 -0.016724 -64643.300000 0 0 1
-22.195337 -29.944498 0.055472 37.273436 0.932941 1.569308 0.071213 -0.021923 -47993.800000 0 0 1
-22.201137 -28.877528 -0.871928 36.435730 0.915369 1.594729 0.068983 -0.026999 -189273.000000 0 0 1
-22.886737 -27.656758 -0.280228 35.899548 0.879494 1.578602 0.045871 -0.017355 1760670.000000 0 0 1
-24.321037 -27.846628 0.008072 36.972255 0.852877 1.570578 0.040827 -0.016643 2105090.000000 0 0 1
-25.151657 -26.707358 0.199272 36.686899 0.815388 1.565365 0.043714 -0.022691 437106.000000 0 0 1
-24.691437 -25.732078 1.303872 35.686230 0.806033 1.534251 0.049512 -0.015862 -561119.000000 0 0 1
-24.907637 -26.269008 2.612872 36.294329 0.811993 1.498743 0.038416 -0.013261 -180890.000000 0 0 1
-24.627937 -25.414378 3.710272 35.583592 0.801112 1.466337 0.047702 -0.018423 19768.300000 0 0 1
-25.565367 -24.188598 3.962872 35.417237 0.757734 1.458670 0.051022 -0.010251 -128098.000000 0 0 1
-25.560327 -23.256498 2.884972 34.677343 0.738240 1.487505 0.055709 -0.004224 -22703.500000 0 0 1
-26.450187 -22.187698 3.114572 34.664202 0.697984 1.480825 0.033105 -0.004630 -357316.000000 0 0 1
-26.291367 -21.011298 2.105172 33.721542 0.674235 1.508328 0.030378 0.000007 -309270.000000 0 0 1
-25.061817 -20.390098 2.295972 32.390157 0.682974 1.499852 0.027272 0.004916 -601039.000000 0 0 1
-24.727837 -19.462898 1.324872 31.496438 0.666816 1.528720 0.021510 -0.001412 -541892.000000 0 0 1
-23.447937 -18.675698 1.532172 30.015580 0.672588 1.519728 0.044609 0.001798 -1107830.000000 0 0 1
-22.311837 -19.464598 1.420772 29.642997 0.717349 1.522849 0.041319 0.000509 -1603260.000000 0 0 1
-21.204237 -18.674398 1.626572 28.301918 0.722045 1.513293 0.037120 0.005421 -1177700.000000 0 0 1
-19.943137 -19.463398 1.262572 27.895281 0.773225 1.525520 0.028914 0.004077 -661496.000000 0 0 1
-19.714237 -19.628598 -0.151128 27.820062 0.783221 1.576229 0.012721 0.001514 402852.000000 0 0 1
-18.760337 -20.676098 -0.361628 27.920997 0.833938 1.583749 0.030672 0.005180 271758.000000 0 0 1
-18.442637 -21.120098 -1.828128 28.098603 0.852971 1.635903 0.039421 -0.001751 86070.100000 0 0 1
-17.723237 -20.075198 -2.474728 26.893326 0.847542 1.662947 0.028256 0.001662 2653.380000 0 0 1
-17.537437 -20.296398 -3.865028 27.100626 0.858192 1.713902 0.042568 -0.001122 -344154.000000 0 0 1
-16.751137 -19.369198 -4.704828 26.036548 0.857753 1.752495 0.042258 0.000789 -1485340.000000 0 0 1
-15.418837 -19.206098 -4.437728 25.026150 0.894345 1.749063 0.046521 -0.001214 -1189000.000000 0 0 1
-14.737137 -18.696498 -5.547228 24.444100 0.903274 1.799726 0.051437 0.002096 386089.000000 0 1 0
-13.213037 -18.438798 -5.306828 23.296696 0.949023 1.800607 0.060736 -0.009668 846416.000000 0 1 0
-12.419037 -19.655498 -5.308728 23.848558 1.007297 1.795279 0.056112 -0.013563 544180.000000 0 1 0
-11.133837 -19.335498 -5.837228 23.062894 1.048343 1.826680 0.048800 -0.017112 797786.000000 0 1 0
-10.171637 -20.573298 -5.964328 23.712782 1.111631 1.825051 0.040479 -0.013659 661958.000000 0 1 0
-10.653037 -21.535498 -6.904928 24.998858 1.111419 1.850645 0.048064 -0.015618 275070.000000 0 1 0
-9.535137 -22.328798 -7.309328 25.355874 1.167205 1.863216 0.047503 -0.008119 562660.000000 0 0 1
-9.918737 -23.486698 -8.282728 26.806901 1.171204 1.884914 0.042749 -0.007154 -84262.400000 0 0 1
-10.427537 -23.016798 -9.535228 27.007908 1.145417 1.931629 0.048465 -0.009048 -112361.000000 0 0 1
-10.461237 -24.015498 -10.493228 28.218602 1.159979 1.951803 0.061054 -0.011433 -84709.200000 0 0 1
-11.159937 -23.508498 -11.781828 28.565804 1.127577 1.995933 0.093429 -0.024716 -68146.800000 0 0 1
-10.482837 -22.583998 -12.636028 27.921248 1.136220 2.040430 0.082521 -0.020075 -326801.000000 0 0 1
-11.368637 -22.122898 -13.671128 28.382535 1.096102 2.073360 0.085329 -0.026965 145009.000000 0 0 1
-10.865037 -20.834398 -14.392128 27.554574 1.090101 2.120358 0.075575 -0.023002 -167851.000000 0 0 1
-10.577037 -19.821998 -13.494728 26.208644 1.080631 2.111683 0.084595 -0.027858 -265039.000000 0 0 1
-10.248837 -18.601898 -14.107728 25.497005 1.067219 2.157128 0.079537 -0.018862 -14643.400000 0 0 1
-9.830837 -17.600298 -12.975828 23.974736 1.061404 2.142695 0.067931 -0.017761 -406431.000000 0 1 0
-10.912837 -17.315398 -12.126328 23.789932 1.008439 2.105662 0.066017 -0.022140 -160068.000000 0 1 0
-10.789037 -16.140198 -11.351528 22.489253 0.981555 2.099893 0.061395 -0.026749 -63004.800000 0 1 0
-10.695237 -14.750398 -12.070928 21.855655 0.943435 2.155920 0.068800 -0.013652 -320290.000000 0 1 0
-11.859737 -14.413198 -12.764328 22.612424 0.882284 2.170603 0.062313 0.006257 -174414.000000 0 1 0
-11.591337 -13.936698 -14.070528 22.947122 0.877015 2.230866 0.063521 -0.013710 -249000.000000 0 1 0
-12.853737 -13.288198 -14.637728 23.580879 0.802016 2.240490 0.057902 -0.006132 -360426.000000 0 1 0
-13.152937 -12.003798 -14.185428 22.766583 0.739751 2.243472 0.044519 0.005738 -401680.000000 0 1 0
-14.167637 -11.407398 -14.934728 23.535012 0.677887 2.258255 0.020218 0.017889 -570834.000000 0 1 0
-14.412337 -9.974898 -14.466928 22.726770 0.605410 2.260825 0.013856 0.007466 -39198.700000 0 1 0
-13.310137 -9.092398 -14.581528 21.735971 0.599306 2.306148 0.018662 0.012997 240690.000000 0 1 0
-13.292937 -8.298998 -15.730028 22.203814 0.558108 2.358079 0.019512 0.006455 -514006.000000 0 1 0
-12.261637 -7.160398 -15.736928 21.195989 0.528548 2.407514 0.018673 0.011090 -18421.200000 0 1 0
-10.999237 -7.736098 -16.049528 20.938429 0.612958 2.444187 0.016812 0.014571 -665016.000000 0 1 0
-10.023937 -6.780898 -15.929528 20.005244 0.594759 2.491897 0.011633 0.018138 -549706.000000 0 1 0
11.745063 21.669002 16.157572 29.471329 1.074099 0.990529 0.042060 -0.013161 -16026.000000 0 0 1
12.453363 21.812502 17.404072 30.557703 1.052028 0.964841 0.055632 -0.027960 -347929.000000 0 0 1
13.134963 20.644202 17.671672 30.182748 1.004145 0.945313 0.052850 -0.026138 -4357.450000 0 0 1
14.341963 20.815702 18.645272 31.410691 0.967493 0.935276 0.064340 -0.031616 338826.000000 0 0 1
15.471463 21.408602 18.048272 31.991163 0.945014 0.971376 0.046656 -0.025553 86670.800000 0 0 1
16.622763 21.247202 18.865772 32.919252 0.906910 0.960522 0.042372 -0.025223 1046040.000000 0 0 1
17.956463 21.881702 18.305472 33.709549 0.883611 0.996749 0.028889 -0.022232 -384017.000000 0 0 1
18.280663 23.233302 18.641772 34.949744 0.904138 1.008196 0.025229 -0.013171 845910.000000 0 0 1
19.495363 23.770102 18.046872 35.647952 0.883881 1.039962 0.027445 -0.009910 947440.000000 0 0 1
20.800763 23.149202 18.585972 36.249077 0.838782 1.032435 0.046872 -0.019398 -845756.000000 0 0 1
20.940563 21.795402 18.236772 35.300518 0.805398 1.027904 0.036232 -0.011659 -256272.000000 0 0 1
22.037263 21.283702 18.962272 36.030607 0.768005 1.016574 0.043695 -0.012427 -162337.000000 0 0 1
22.153763 19.716502 18.904272 35.169605 0.727254 1.003306 0.040086 -0.003741 -308567.000000 0 0 1
22.353963 19.185702 17.599172 34.315035 0.709275 1.032271 0.022926 0.004208 107771.000000 0 0 1
22.280363 17.797802 17.636972 33.529675 0.674016 1.016893 0.019532 -0.003032 -914717.000000 0 0 1
23.434063 17.056402 18.269672 34.261597 0.629172 1.008370 0.013970 0.004325 -1193970.000000 0 0 1
24.569263 17.162702 17.459972 34.685121 0.609748 1.043284 0.033240 -0.003039 -432056.000000 0 0 1
25.449663 16.110002 17.777772 34.975229 0.564342 1.037591 0.025152 -0.005148 -301598.000000 0 0 1
26.658363 15.875902 16.841072 35.303459 0.537128 1.073516 0.055120 -0.007870 -775983.000000 0 0 1
27.654963 16.909802 16.899272 36.555762 0.548801 1.090223 0.045676 -0.007812 615454.000000 0 0 1
28.943163 16.515102 17.313372 37.552737 0.518525 1.091628 0.058089 -0.010801 289817.000000 0 0 1
29.608563 15.452802 16.331672 37.177676 0.481016 1.115991 0.049362 -0.016693 -1258300.000000 0 0 1
29.829563 15.987202 14.961072 37.003069 0.491994 1.154561 0.072068 -0.017661 15253.100000 0 0 1
30.183763 15.056102 14.007872 36.523502 0.462699 1.177180 0.089432 -0.026271 -293726.000000 0 0 1
29.495163 15.245002 12.651772 35.530860 0.477048 1.206728 0.075883 -0.013352 -330055.000000 0 0 1
29.940063 16.382402 11.900572 36.144350 0.500670 1.235286 0.084706 -0.015651 -175822.000000 0 0 1
29.380963 16.486102 10.616172 35.323301 0.511337 1.265534 0.075301 -0.002125 1138510.000000 0 0 1
27.863263 16.967302 10.514172 34.275334 0.546974 1.259013 0.067368 0.002185 993947.000000 0 0 1
27.597263 18.319802 10.845972 34.854830 0.586034 1.254367 0.070567 0.005415 132213.000000 0 0 1
28.098963 18.832202 12.065772 35.913596 0.590452 1.228165 0.064621 -0.001108 -559446.000000 0 0 1
27.388063 18.391502 13.403272 35.609002 0.591352 1.184888 0.057545 -0.010581 106058.000000 0 0 1
26.239263 19.180202 13.618672 35.239853 0.631212 1.174010 0.065106 -0.002330 503805.000000 0 0 1
25.470663 19.057102 14.820772 35.093918 0.642347 1.134796 0.062023 -0.008860 292130.000000 0 0 1
26.057563 19.922602 15.960472 36.477984 0.652755 1.117938 0.046578 -0.001396 45577.700000 0 0 1
26.034463 21.286202 15.583072 37.063833 0.685391 1.136867 0.031878 0.000675 967843.000000 0 0 1
24.956363 21.973502 16.274972 37.020663 0.721924 1.115622 0.039064 -0.003050 595309.000000 0 0 1
24.901863 23.518002 16.059972 37.830171 0.756826 1.132356 0.027394 -0.003234 38760.500000 0 0 1
24.448063 23.783102 14.726372 37.151174 0.771612 1.163214 0.035396 -0.007687 239152.000000 0 0 1
24.722463 25.172502 14.395872 38.106379 0.794418 1.183398 0.041561 -0.005905 -55417.100000 0 0 1
24.220563 25.553302 12.980172 37.524549 0.812168 1.217586 0.043133 -0.013509 -867450.000000 0 0 1
22.903063 25.978402 12.813572 36.927161 0.848230 1.216430 0.037494 -0.001251 -405256.000000 0 0 1
22.536263 25.993502 11.421572 36.249104 0.856518 1.250249 0.026354 -0.016355 -281876.000000 0 0 1
22.077163 24.587502 10.956672 34.813719 0.839142 1.250632 0.036793 -0.015799 -1914340.000000 0 0 1
20.748563 24.384602 11.280972 33.946605 0.865787 1.232039 0.036356 -0.013021 -951291.000000 0 0 1
20.297663 23.054302 11.125672 32.669198 0.848900 1.223289 0.041725 -0.009471 -201368.000000 0 0 1
20.227063 22.472702 9.683572 31.747881 0.837941 1.260842 0.027547 -0.003676 -1002930.000000 0 0 1
19.093663 22.951202 9.022572 31.188658 0.876890 1.277311 0.008675 0.003724 -177455.000000 0 0 1
19.340463 22.947002 7.614172 30.961169 0.870479 1.322321 0.007293 -0.013896 -353752.000000 0 0 1
18.256663 23.492402 6.694572 30.496163 0.910157 1.349472 0.007009 -0.008301 -1195350.000000 0 0 1
17.337063 22.548402 6.201372 29.111186 0.915320 1.356128 0.022599 0.003762 774896.000000 0 0 1
16.464163 22.997002 5.126072 28.743823 0.949461 1.391501 0.042589 -0.005875 671724.000000 0 0 1
15.543563 24.261802 5.350472 29.306397 1.001015 1.387196 0.028371 0.002056 -315152.000000 0 0 1
16.069863 25.617302 5.336172 30.707676 1.010541 1.396136 0.029319 -0.003283 -209441.000000 0 0 1
15.248663 26.367702 6.152172 31.074533 1.046479 1.371498 0.017809 -0.010418 -265994.000000 0 0 1
14.743663 27.681702 5.495772 31.841101 1.081399 1.397328 0.027840 -0.011005 192177.000000 0 0 1
13.845063 27.463102 4.400472 31.068825 1.103848 1.428682 0.035392 0.008854 524175.000000 0 0 1
13.573363 28.642802 3.707772 31.912283 1.128259 1.454347 0.035935 0.003809 -42163.800000 0 0 1
13.011263 28.409602 2.266272 31.329450 1.141319 1.498396 0.043855 0.007936 34061.500000 0 0 1
13.934063 27.817602 1.389272 31.143332 1.106422 1.526173 0.067795 0.000447 -208910.000000 0 0 1
13.254563 27.112602 0.369772 30.181341 1.116092 1.558544 0.051046 0.011262 -88115.300000 0 0 1
14.139963 26.396702 -0.690128 29.953308 1.079020 1.593839 0.041639 0.005206 -204688.000000 0 0 1
14.564463 27.278402 -1.617528 30.965322 1.080383 1.623057 0.057760 0.005132 76658.800000 0 0 1
15.693163 26.754602 -2.332128 31.105030 1.040318 1.645843 0.061354 0.001470 490730.000000 0 0 1
15.867363 27.388402 -3.708028 31.869221 1.045702 1.687412 0.063038 -0.010537 158979.000000 0 0 1
14.892263 26.835102 -4.610628 31.034820 1.064157 1.719911 0.088859 -0.015984 187459.000000 0 0 1
15.041663 27.246102 -5.950428 31.686105 1.066368 1.759711 0.086140 -0.014962 357185.000000 0 0 1
13.712663 27.157102 -6.748728 31.162327 1.103206 1.789093 0.107251 -0.034469 531063.000000 0 0 1
13.229663 25.825402 -7.008928 29.851305 1.097378 1.807804 0.095275 -0.032796 -1041930.000000 0 0 1
12.037663 25.929102 -7.689528 29.603251 1.136153 1.833563 0.069145 -0.035665 -636984.000000 0 0 1
11.575563 24.489202 -8.184428 28.296634 1.129242 1.864226 0.071071 -0.017683 19844.300000 0 0 1
12.198063 24.058502 -9.374528 28.556716 1.101551 1.905276 0.057543 -0.017357 121471.000000 0 0 1
11.816563 22.678602 -9.593928 27.312883 1.090455 1.929713 0.059831 -0.007201 45840.700000 0 0 1
12.333363 22.035402 -10.880828 27.496603 1.060531 1.977643 0.051399 -0.004665 -60704.000000 0 0 1
11.864463 20.711302 -11.032428 26.295208 1.050580 2.003757 0.051546 -0.006806 -179612.000000 0 0 1
12.086563 20.199802 -12.364428 26.589398 1.031591 2.054446 0.045690 -0.005491 141668.000000 0 0 1
13.464863 19.684902 -12.863628 27.097432 0.970876 2.065439 0.029363 0.011566 865948.000000 0 0 1
14.440263 20.722802 -13.103628 28.454539 0.962201 2.049367 0.028003 0.003828 72108.900000 0 0 1
15.661263 20.201702 -13.556628 28.933822 0.911333 2.058433 0.019717 0.013113 -183085.000000 0 0 1
16.836263 21.178202 -13.468828 30.222265 0.899123 2.032707 0.029612 0.009538 -404569.000000 0 0 1
16.948463 22.272802 -14.384828 31.468260 0.920325 2.045553 0.034634 -0.000035 89804.000000 0 0 1
16.006563 23.356102 -14.287328 31.715064 0.969986 2.038111 0.032027 -0.000394 363061.000000 0 0 1
16.531963 24.649502 -15.003828 33.256858 0.980019 2.038850 0.039735 -0.003287 116294.000000 0 0 1
16.757963 24.624302 -16.404128 34.004132 0.973247 2.074207 0.027007 -0.001199 120840.000000 0 0 1
15.588763 25.036002 -17.105128 34.093934 1.013886 2.096366 0.025792 0.004961 117449.000000 0 0 1
15.665263 24.849602 -18.628828 34.784140 1.008321 2.135961 0.015465 0.002759 144798.000000 0 0 1
15.802863 23.491602 -19.059828 34.130088 0.978627 2.163308 0.023646 0.008836 -212550.000000 0 0 1
16.008763 23.439302 -20.419728 34.966365 0.971579 2.194422 0.012076 0.016388 -213789.000000 0 0 1
16.397863 22.059402 -20.964228 34.568858 0.931565 2.222383 0.017314 0.014917 87061.800000 0 0 1
15.399963 21.057102 -20.935428 33.449253 0.939343 2.247064 0.025796 0.015158 198397.000000 0 0 1
15.979463 19.922802 -21.590528 33.442670 0.894795 2.272603 0.022812 0.009751 151836.000000 0 0 1
14.983563 18.772802 -21.680228 32.356723 0.897183 2.305056 0.025369 0.003137 -876637.000000 0 0 1
14.724563 18.112302 -20.467628 31.045000 0.888203 2.290669 0.027170 0.001415 31499.500000 0 0 1
14.071463 16.851502 -20.628228 30.124790 0.875059 2.325070 0.034752 -0.007630 47000.100000 0 0 1
12.586163 16.932702 -21.050728 29.803708 0.931594 2.355072 0.057322 -0.012671 -831851.000000 0 0 1
11.742063 17.176402 -19.980728 28.846738 0.971151 2.335955 0.040478 -0.004356 238909.000000 0 0 1
10.406763 17.554002 -20.320128 28.798460 1.035656 2.354063 0.055861 -0.010260 884331.000000 0 0 1
9.324263 17.243402 -19.265628 27.485291 1.075087 2.347515 0.057146 -0.015796 -163489.000000 0 0 1
9.105663 15.847102 -19.036728 26.390164 1.049267 2.376556 0.060953 -0.027474 259656.000000 0 0 1
7.808763 15.524202 -18.548428 25.416959 1.104747 2.388776 0.068996 -0.022293 527819.000000 0 0 1
7.438863 15.725402 -17.082528 24.381093 1.128942 2.347100 0.066778 -0.019675 35365.200000 0 1 0
7.347663 17.030702 -16.716128 24.969219 1.163487 2.304291 0.073869 -0.021555 -231831.000000 0 1 0
6.653063 17.040702 -15.478728 23.963301 1.198574 2.273043 0.063700 -0.025628 -220761.000000 0 1 0
6.275763 18.471902 -15.018128 24.619921 1.243285 2.226856 0.064210 -0.029584 -34029.200000 0 1 0
7.309863 19.430602 -14.760928 25.472875 1.210971 2.188882 0.055802 -0.021893 -13723.600000 0 0 1
7.940563 19.898902 -15.944428 26.706621 1.191113 2.210580 0.065751 -0.018166 864883.000000 0 0 1
9.260363 20.759002 -15.696828 27.623919 1.151200 2.175153 0.045875 -0.004435 942194.000000 0 0 1
9.116063 22.025302 -15.054128 28.192965 1.178373 2.134082 0.051787 -0.014732 -138278.000000 0 0 1
8.837763 21.885202 -13.675028 27.277729 1.186998 2.095927 0.044638 -0.016281 -262835.000000 0 0 1
8.483763 23.182902 -12.938928 27.871796 1.219984 2.053562 0.058617 -0.019923 -1314710.000000 0 0 1
7.378263 23.735202 -13.542328 28.305357 1.269409 2.069670 0.053076 -0.018278 -131930.000000 0 0 1
6.543163 24.604402 -12.719428 28.460032 1.310877 2.034118 0.032466 -0.021537 998773.000000 0 0 1
5.742063 23.938802 -11.536828 27.187054 1.335380 2.009040 0.020982 -0.011609 -13143.600000 0 0 1
6.592163 23.805902 -10.396328 26.800396 1.300653 1.969167 0.011442 -0.011328 481947.000000 0 0 1
5.863063 23.122602 -9.392728 25.636957 1.322466 1.945906 0.016883 -0.011195 747643.000000 0 0 1
6.734063 22.912102 -8.095228 25.215962 1.284937 1.897619 -0.000051 -0.012494 440565.000000 0 0 1
7.073563 24.104902 -7.440828 26.200143 1.285360 1.858759 0.004988 -0.009713 384620.000000 0 0 1
8.124063 23.970902 -6.474928 26.125260 1.244032 1.821248 0.022806 -0.004788 335157.000000 0 0 1
8.266963 25.200402 -5.574328 27.101219 1.253809 1.777960 0.023161 -0.008588 183027.000000 0 0 1
8.810363 26.336202 -6.311328 28.478955 1.247965 1.794265 0.051714 -0.019349 334859.000000 0 0 1
9.091763 27.498102 -5.481828 29.476367 1.251479 1.757859 0.033970 -0.013062 208448.000000 0 0 1
9.356163 28.740202 -6.395328 30.893967 1.256074 1.779313 0.044779 -0.014906 34410.600000 0 0 1
10.645963 28.781102 -6.944128 31.462823 1.216509 1.793338 0.063466 -0.022836 -442409.000000 0 0 1
10.728863 29.917602 -7.766628 32.718373 1.226469 1.810462 0.061123 -0.014444 507788.000000 0 0 1
12.035763 30.088902 -8.620828 33.533868 1.190284 1.830794 0.063896 -0.011059 1548180.000000 0 0 1
13.204163 30.235502 -7.778828 33.897576 1.159049 1.802340 0.060148 -0.012023 1068340.000000 0 0 1
14.280463 30.935802 -8.439728 35.102485 1.138325 1.813606 0.049549 -0.012849 465112.000000 0 0 1
15.482663 31.323602 -7.585728 35.755058 1.111734 1.784579 0.038641 -0.010768 -306324.000000 0 0 1
16.338963 30.232502 -7.329128 35.138042 1.075320 1.780920 0.046763 -0.009991 -876287.000000 0 0 1
17.452463 30.741502 -6.667128 35.973309 1.054453 1.757210 0.039739 -0.000124 -963740.000000 0 0 1
18.521063 29.713702 -6.422528 35.597510 1.013408 1.752210 0.040059 -0.004724 -806122.000000 0 0 1
18.193563 28.651302 -5.507228 34.383606 1.005039 1.731659 0.051546 -0.006548 -557922.000000 0 0 1
19.242763 27.782602 -5.205328 34.194332 0.965041 1.723618 0.039622 -0.001021 -582156.000000 0 0 1
19.439663 26.652702 -6.195628 33.565649 0.940630 1.756443 0.038829 -0.000873 -141901.000000 0 0 1
20.026663 27.047302 -7.423428 34.463474 0.933448 1.787898 0.023931 0.004612 258375.000000 0 0 1
19.964663 26.032702 -8.446228 33.876660 0.916562 1.822777 0.023730 -0.005319 -1342510.000000 0 0 1
20.614363 26.427102 -9.747128 34.904873 0.908341 1.853808 0.020225 -0.002996 2458360.000000 0 0 1
22.098663 26.493502 -9.787228 35.861489 0.875596 1.847221 0.002930 0.001481 2445660.000000 0 0 1
22.776863 25.304902 -9.536428 35.356286 0.837928 1.843902 0.017378 -0.000150 -548531.000000 0 0 1
24.329463 25.395302 -9.556728 36.444137 0.806830 1.836128 0.002898 0.003274 459714.000000 0 0 1
24.802663 25.684802 -10.854928 37.319038 0.802869 1.865931 0.015790 0.003561 80385.800000 0 0 1
26.215763 25.754602 -10.805928 38.305793 0.776525 1.856775 0.016075 0.013495 228570.000000 0 0 1
27.039563 25.968602 -12.080828 39.388484 0.765197 1.882530 0.014812 0.008640 107185.000000 0 0 1
26.878563 27.293102 -12.617528 40.330789 0.793050 1.888990 0.019433 0.016625 -71963.700000 0 0 1
27.511863 27.410602 -13.878928 41.241585 0.783554 1.914023 0.010049 0.019250 53251.800000 0 0 1
27.152263 28.619802 -14.782128 42.128965 0.811705 1.929305 0.006811 0.008825 -124234.000000 0 0 1
27.763863 29.795802 -14.286028 43.159153 0.820685 1.908168 0.020919 -0.000980 183819.000000 0 0 1
27.597663 30.841702 -15.274428 44.115187 0.840852 1.924356 0.027756 0.006823 -8448.110000 0 0 1
28.029663 32.247702 -14.783528 45.212044 0.855261 1.903905 0.029888 -0.007656 -14947.800000 0 0 1
29.366663 32.470702 -14.393028 46.085861 0.835553 1.888419 0.020828 -0.007252 114227.000000 0 0 1
29.783563 33.812902 -14.413028 47.308649 0.848672 1.880377 0.021170 -0.022346 -48028.700000 0 0 1
15.503363 -32.568184 -29.134810 46.366777 -1.126510 2.250234 0.052330 -0.026722 -213427.000000 0 0 1
16.599863 -33.065984 -28.426690 46.658241 -1.105532 2.225915 0.024447 -0.017561 -118440.000000 0 0 1
16.710863 -32.366984 -27.204150 45.463616 -1.094199 2.212264 0.034836 -0.018948 -13113.300000 0 0 1
17.771563 -33.094484 -26.277530 45.843013 -1.077993 2.181210 0.009052 -0.006034 1421900.000000 0 0 1
19.170863 -32.969384 -26.536030 46.461416 -1.044110 2.178692 0.007553 -0.011455 941148.000000 0 0 1
19.710363 -33.240084 -27.802510 47.606524 -1.035562 2.194452 0.013471 -0.013930 -1355940.000000 0 0 1
21.212163 -33.102984 -27.977570 48.254614 -1.000921 2.189268 0.018089 -0.008490 -569627.000000 0 0 1
21.638563 -31.843084 -28.422300 47.854326 -0.973936 2.206736 0.016994 -0.017817 -315713.000000 0 0 1
22.855263 -31.467284 -27.834410 47.825802 -0.942625 2.191977 -0.002217 -0.009902 -528756.000000 0 0 1
23.432663 -30.174284 -28.388910 47.597346 -0.910502 2.209854 -0.012632 0.000415 -494475.000000 0 0 1
23.844363 -30.501884 -29.699350 48.795184 -0.907293 2.225159 -0.017289 -0.003227 -81084.200000 0 0 1
24.234663 -29.374084 -30.445510 48.755356 -0.880975 2.245229 -0.015620 -0.008386 133272.000000 0 0 1
24.341863 -29.542484 -31.973550 49.875771 -0.881615 2.266680 -0.010070 -0.009437 741426.000000 0 0 1
25.487563 -30.329284 -32.343020 51.142470 -0.871925 2.255457 -0.002700 -0.014599 420848.000000 0 0 1
25.381363 -30.754684 -33.663110 52.184951 -0.880827 2.271915 0.000074 -0.019026 939049.000000 0 0 1
26.749963 -31.343484 -34.166208 53.528537 -0.864305 2.263059 -0.001793 -0.025118 1442580.000000 0 0 1
27.878763 -30.481584 -34.247748 53.658742 -0.829968 2.263021 0.019162 -0.030450 -418929.000000 0 0 1
29.046263 -31.057884 33.954110 54.416533 -0.818855 0.896988 0.029792 -0.021736 -308903.000000 0 0 1
30.323363 -30.200684 34.105139 54.724292 -0.783371 0.897946 0.044798 -0.027604 61604.400000 0 0 1
30.371663 -29.088684 33.231221 53.599472 -0.763824 0.902064 0.041400 -0.028315 524287.000000 0 0 1
31.704363 -28.908584 32.727607 53.962664 -0.739306 0.919163 0.051237 -0.027079 674449.000000 0 0 1
31.782863 -27.661084 31.821092 52.800263 -0.716170 0.923955 0.040098 -0.031488 554195.000000 0 0 1
32.993363 -27.567084 31.053232 53.035924 -0.696036 0.945283 0.040006 -0.028609 598512.000000 0 0 1
33.137663 -26.381484 30.349872 52.107601 -0.672369 0.949062 0.045352 -0.025220 18652.100000 0 0 1
33.895363 -26.641584 29.009142 51.963448 -0.666143 0.978509 0.043283 -0.013423 -117303.000000 0 0 1
33.306163 -27.649884 28.270362 51.701353 -0.692870 0.992257 0.040216 -0.025252 380335.000000 0 0 1
32.076863 -27.304084 27.635812 50.380315 -0.705195 0.990175 0.039627 -0.028656 309210.000000 0 0 1
31.397463 -28.372684 26.727212 50.051510 -0.734834 1.007479 0.028530 -0.023095 376837.000000 0 0 1
30.082663 -27.979684 26.371482 48.818893 -0.749195 1.000133 0.027317 -0.013804 592836.000000 0 0 1
29.484963 -28.892484 25.364352 48.450892 -0.775249 1.019835 0.017344 0.001045 1306440.000000 0 0 1
28.144463 -28.486384 24.620342 47.007936 -0.791436 1.019551 0.020665 0.006089 1176400.000000 0 0 1
27.056163 -28.500084 25.527832 46.861081 -0.811383 0.994699 0.037054 -0.000825 -184915.000000 0 0 1
25.821763 -28.214484 24.903402 45.639894 -0.829649 0.993632 0.045889 0.010518 -66500.700000 0 0 1
24.655763 -28.264984 25.873212 45.565766 -0.853493 0.966940 0.047953 0.005008 -380483.000000 0 0 1
24.724963 -27.228284 26.837132 45.529494 -0.833545 0.940425 0.041608 -0.004764 -1476.920000 0 0 1
23.537163 -27.141084 27.592962 45.299095 -0.856392 0.915835 0.034704 -0.008980 -86669.600000 0 0 1
23.498563 -25.839584 28.439932 45.041051 -0.832811 0.887410 0.029244 -0.004033 88952.600000 0 0 1
22.306263 -25.661384 29.204412 44.821575 -0.855230 0.861144 0.032687 0.000041 372401.000000 0 0 1
22.270163 -24.466484 29.945852 44.624242 -0.832357 0.835149 0.028417 0.003977 -257307.000000 0 0 1
21.845063 -23.150684 29.213062 43.203749 -0.814407 0.828245 0.035183 -0.005943 -243554.000000 0 0 1
22.875063 -22.555684 28.449212 42.911362 -0.778368 0.846009 0.041739 -0.006373 217751.000000 0 0 1
22.511163 -21.225684 28.098972 41.795147 -0.756015 0.833482 0.046913 0.000316 -40462.800000 0 0 1
23.135963 -20.191484 29.067672 42.283547 -0.717544 0.812829 0.040032 0.001869 -268718.000000 0 0 1
22.561063 -19.989584 30.353682 42.777693 -0.725038 0.781911 0.044563 0.005244 186552.000000 0 0 1
23.434763 -19.220984 31.170222 43.476626 -0.686932 0.771390 0.035430 0.001421 -87143.500000 0 0 1
22.859663 -18.917184 32.554492 44.047916 -0.691307 0.739108 0.055182 -0.003340 -42377.300000 0 0 1
23.123963 -19.966884 33.484496 45.327757 -0.712263 0.739628 0.038202 -0.001491 357971.000000 0 0 1
22.416363 -19.730984 -33.943980 45.210605 -0.721770 2.420064 0.048122 -0.005479 -66973.100000 0 0 1
22.396563 -21.018984 -33.081650 45.141990 -0.753679 2.393276 0.029360 0.001121 29487.200000 0 0 1
23.584363 -21.200084 -32.330990 45.287511 -0.732209 2.365856 0.022590 0.003250 -60086.600000 0 0 1
23.471163 -22.243784 -31.362260 45.047450 -0.758556 2.340894 0.014618 0.002027 548268.000000 0 0 1
24.730463 -22.477884 -30.460650 45.218384 -0.737719 2.309911 0.006954 0.004314 1614190.000000 0 0 1
25.883863 -23.141384 -31.040400 46.572572 -0.729516 2.300294 0.005647 0.005831 538327.000000 0 0 1
26.897863 -23.419184 -30.101790 46.669808 -0.716373 2.271813 0.007003 -0.000573 -219139.000000 0 0 1
27.936563 -24.370984 -30.682040 48.122593 -0.717338 2.262150 -0.007339 0.003686 -665303.000000 0 0 1
28.892263 -23.791784 -31.543700 48.947082 -0.688886 2.271094 0.001845 0.000952 -263328.000000 0 0 1
28.534063 -23.546084 -32.894410 49.504071 -0.689914 2.297593 0.005143 0.003378 -424066.000000 0 0 1
28.573963 -24.878984 -33.754030 50.742189 -0.716382 2.298567 0.011214 -0.002589 -90557.300000 0 0 1
27.679063 -25.907384 -33.371260 50.507069 -0.752348 2.292580 0.014655 -0.009277 -220281.000000 0 0 1
27.892063 -27.208984 -33.991340 51.707902 -0.773002 2.288123 0.022515 -0.013110 63170.300000 0 0 1
27.524563 -27.350184 33.121653 51.016448 -0.782220 0.864218 0.017034 -0.011883 400269.000000 0 0 1
28.245363 -26.428784 32.275132 50.378222 -0.752185 0.875443 0.018129 -0.013779 122763.000000 0 0 1
27.655163 -26.449584 31.014232 49.257193 -0.763120 0.889708 0.011876 -0.014482 -486950.000000 0 0 1
28.632963 -25.981484 29.924072 48.891043 -0.736887 0.912138 0.017226 -0.020957 -73431.600000 0 0 1
28.899963 -24.588984 29.785972 48.239300 -0.704976 0.905283 0.005076 -0.019121 65315.400000 0 0 1
29.384963 -23.882184 30.897292 48.872051 -0.682458 0.886397 0.006434 -0.009089 -2077720.000000 0 0 1
29.878863 -22.482884 30.590672 48.311652 -0.645079 0.885123 0.002512 -0.001103 -18371.500000 0 0 1
31.191263 -22.324284 30.118252 48.768613 -0.621200 0.905141 0.017478 -0.004098 259847.000000 0 0 1
32.205863 -22.766484 31.039702 50.189575 -0.615345 0.904029 0.020280 -0.008975 -1276240.000000 0 0 1
33.596163 -22.363484 30.578252 50.634544 -0.587303 0.922410 0.025125 -0.012578 -509279.000000 0 0 1
34.167163 -22.970284 29.396982 50.588650 -0.591886 0.950719 0.035594 -0.019807 325081.000000 0 0 1
35.350663 -22.287284 29.052722 50.896493 -0.562518 0.963292 0.018004 -0.014247 -134203.000000 0 0 1
-35.854186 -22.587984 27.708822 50.631201 0.562184 0.991700 0.022867 -0.013280 -101204.000000 0 0 1
-35.327886 -23.908484 27.584582 50.799452 0.594957 0.996780 0.016977 -0.012835 318187.000000 0 0 1
-34.938586 -24.218584 26.260122 49.968376 0.606131 1.017453 0.007001 -0.002570 -522728.000000 0 0 1
-34.891186 -25.767284 26.056932 50.599521 0.636103 1.029831 0.012522 -0.008517 118031.000000 0 0 1
35.665463 -26.383684 26.295892 51.571290 -0.636912 1.035735 0.022390 -0.007100 233238.000000 0 0 1
35.599363 -27.743384 26.062662 52.117869 -0.662005 1.047115 0.015003 -0.008074 -197576.000000 0 0 1
-35.291386 -28.704684 26.843172 52.820419 0.682836 1.037706 0.026220 -0.016861 -900801.000000 0 0 1
-35.238886 -30.036284 26.264542 53.233294 0.705864 1.054818 0.032764 -0.021262 937847.000000 0 0 1
-34.110086 -30.894484 26.606982 53.159182 0.735971 1.046602 0.032918 -0.024586 1913730.000000 0 0 1
-32.676286 -30.273884 26.375872 51.768082 0.747253 1.036192 0.041632 -0.018965 -251416.000000 0 0 1
-32.361986 -30.043284 25.036312 50.761343 0.748260 1.055013 0.035110 -0.016921 -357603.000000 0 0 1
-31.078086 -29.490884 24.936322 49.571966 0.759199 1.043692 0.022041 -0.014645 -255790.000000 0 0 1
-30.536986 -29.438984 23.483472 48.483345 0.767093 1.065163 0.022760 -0.007833 -339262.000000 0 0 1
-30.372886 -30.726984 22.969472 48.931139 0.791193 1.082158 0.034037 -0.009402 414496.000000 0 0 1
-30.076086 -30.688784 21.596172 48.091237 0.795481 1.105076 0.027701 -0.013357 -1062840.000000 0 0 1
-30.055086 -32.063784 20.944872 48.683489 0.817723 1.126054 0.039706 -0.016748 -79720.600000 0 0 1
-29.057786 -33.018184 21.239072 48.843153 0.849111 1.120933 0.048457 -0.024783 -197496.000000 0 0 1
-27.739186 -32.598084 20.978072 47.667358 0.865754 1.115094 0.058103 -0.020239 -596518.000000 0 0 1
-26.810286 -33.842684 21.084272 48.048571 0.900828 1.116521 0.050746 -0.014413 -196105.000000 0 0 1
-27.003286 33.884102 20.055972 47.744652 -0.897930 1.137277 0.043034 -0.017690 1024660.000000 0 0 1
-28.160986 32.997902 20.220372 47.861948 -0.864322 1.134624 0.050628 -0.022654 1045100.000000 0 0 1
-28.140186 31.921802 21.338172 47.604507 -0.848277 1.106003 0.054893 -0.014218 -170949.000000 0 0 1
-27.317486 30.823602 21.009572 46.235718 -0.845629 1.099096 0.041520 -0.014046 -19898.600000 0 0 1
-27.236986 29.863002 22.039772 46.036983 -0.831356 1.071577 0.045571 -0.016729 178947.000000 0 0 1
-26.322686 28.631402 21.691172 44.532549 -0.827385 1.062046 0.046948 -0.012220 29042.500000 0 0 1
-24.933486 28.937802 21.722872 43.942670 -0.859593 1.053714 0.047992 -0.005368 205386.000000 0 0 1
-24.179886 27.855602 21.230172 42.559625 -0.855920 1.048544 0.046334 -0.007485 -640802.000000 0 0 1
-22.688386 28.098402 21.395672 41.976872 -0.891522 1.035959 0.032599 0.005047 -606490.000000 0 0 1
-22.251386 28.294602 22.758072 42.586835 -0.904392 1.007008 0.031984 0.002947 252003.000000 0 0 1
-20.970186 28.863502 22.891672 42.389611 -0.942486 1.000323 0.042959 0.003979 -165457.000000 0 0 1
-20.555686 28.928502 24.408052 43.071423 -0.953012 0.968316 0.038130 0.005470 -549597.000000 0 0 1
-20.193486 27.692602 24.937512 42.385570 -0.940740 0.941781 0.043764 -0.000793 450420.000000 0 0 1
-19.815386 27.729202 26.348592 43.079072 -0.950336 0.912673 0.048566 -0.003857 -218274.000000 0 0 1
-18.399086 28.243102 26.628502 42.956679 -0.993400 0.902191 0.056189 -0.003367 -887362.000000 0 0 1
-18.220886 29.662702 26.605192 43.814527 -1.019951 0.918235 0.035254 -0.003486 410906.000000 0 0 1
-16.974086 30.147802 27.108602 43.953223 -1.058005 0.906176 0.038134 -0.005010 463863.000000 0 0 1
-16.627686 30.020802 28.620892 44.686507 -1.064985 0.875671 0.032942 0.000877 -316928.000000 0 0 1
-16.399886 28.726202 29.149652 44.089150 -1.052046 0.848442 0.044025 -0.000887 282473.000000 0 0 1
-16.667486 28.913602 30.548022 45.243597 -1.047867 0.829574 0.037745 -0.000723 -89067.000000 0 0 1
-16.463886 27.679602 31.402502 44.981519 -1.034208 0.798028 0.041017 -0.005922 1700920.000000 0 0 1
-15.031586 27.413802 31.639512 44.480600 -1.069242 0.779436 0.048217 0.000438 1955590.000000 0 0 1
-14.658086 26.509902 32.646144 44.535436 -1.065707 0.748019 0.053654 0.005405 -500834.000000 0 0 1
-15.224186 26.783602 34.032017 45.905504 -1.053925 0.735718 0.065634 0.000140 -636044.000000 0 0 1
-16.585986 26.472802 34.159306 46.289981 -1.011098 0.740781 0.068077 -0.010278 -619000.000000 0 0 1
-17.040686 27.005502 -33.251920 46.101761 -1.007888 2.376434 0.078071 -0.012667 -519606.000000 0 0 1
-18.330586 26.291402 -32.888320 45.922650 -0.961946 2.369092 0.055417 -0.014648 500092.000000 0 0 1
-19.435986 26.701802 -33.772480 47.236895 -0.941596 2.367363 0.046473 -0.015031 1557760.000000 0 0 1
-20.664686 26.120802 -33.275260 47.080447 -0.901494 2.355725 0.059592 -0.016910 1278990.000000 0 0 1
-21.851386 26.197302 34.314852 48.386886 -0.875601 0.782467 0.060616 -0.023824 188495.000000 0 0 1
-21.886586 25.450302 33.133988 47.165683 -0.860541 0.791889 0.070895 -0.021536 -54495.900000 0 0 1
-22.083986 24.028602 33.343445 46.656848 -0.827544 0.774669 0.062979 -0.017038 -192171.000000 0 0 1
-22.421786 23.199802 32.099562 45.512077 -0.802450 0.787953 0.059984 -0.008929 373481.000000 0 0 1
-23.786586 23.229002 31.707592 45.943004 -0.773539 0.809099 0.057165 -0.008230 8156.940000 0 0 1
-23.921486 22.761902 30.363562 44.858528 -0.760564 0.827289 0.065537 -0.003093 -50014.200000 0 0 1
-25.420686 22.589602 30.098432 45.413841 -0.726498 0.846299 0.055867 -0.008388 -302968.000000 0 0 1
-25.817186 21.377602 30.686382 45.444284 -0.691605 0.829489 0.060008 -0.016398 221674.000000 0 0 1
-27.183986 21.054002 30.451132 45.929419 -0.658998 0.845979 0.054399 -0.015961 320572.000000 0 0 1
-27.491786 19.587602 30.843732 45.725357 -0.619059 0.830450 0.069436 -0.025682 -545801.000000 0 0 1
-28.110586 19.585902 32.116532 46.960454 -0.608538 0.817693 0.061854 -0.022210 -49098.200000 0 0 1
-28.237986 18.341602 32.738518 46.963909 -0.576049 0.799452 0.062344 -0.015588 -11313.200000 0 0 1
-29.106686 17.315602 31.984032 46.583340 -0.536662 0.813997 0.039301 -0.013906 -430065.000000 0 0 1
-30.494386 17.532702 31.969172 47.532422 -0.521796 0.833112 0.037470 -0.014842 -304811.000000 0 0 1
-31.188786 16.329102 31.752882 47.409128 -0.482315 0.836907 0.026918 -0.003968 474276.000000 0 0 1
-32.733586 16.452102 31.559672 48.354650 -0.465730 0.859692 0.004986 0.010627 412314.000000 0 0 1
-33.269586 16.737302 32.832070 49.648237 -0.466109 0.848254 0.016943 0.011072 -1092360.000000 0 0 1
-34.639286 16.606002 32.865601 50.554794 -0.447031 0.863082 0.021353 0.011432 -1118810.000000 0 0 1
-35.178586 16.960302 34.314497 51.987205 -0.449242 0.849902 0.032722 0.008118 -85897.000000 0 0 1
35.336063 17.503902 34.278572 52.249827 0.459925 0.855221 0.022205 0.008446 -182865.000000 0 0 1
34.956663 18.069802 -33.117830 51.432253 0.477092 2.270396 0.023987 0.002574 -383562.000000 0 0 1
33.438263 18.125802 -32.977570 50.340662 0.496733 2.285096 0.019741 -0.001296 -296492.000000 0 0 1
32.879663 16.801902 -33.021700 49.535935 0.472418 2.300463 0.024678 0.007995 -351983.000000 0 0 1
31.648063 16.760902 -32.357370 48.265175 0.487048 2.305555 0.018065 0.004448 -288529.000000 0 0 1
30.973863 15.374802 -32.492670 47.450377 0.460747 2.325087 0.016377 0.006103 -142103.000000 0 0 1
30.248463 15.192402 -33.689350 47.757208 0.465449 2.353825 0.029435 -0.001624 -130916.000000 0 0 1
29.490063 13.994502 -33.650900 46.881691 0.443081 2.371410 0.024063 -0.002213 -155010.000000 0 0 1
30.273663 12.656102 -33.788580 47.099254 0.395975 2.370846 0.025129 0.001725 144658.000000 0 0 1
30.857463 12.233202 -32.522540 46.470957 0.377436 2.345979 0.029732 0.005846 162929.000000 0 0 1
31.811663 11.274002 -32.917950 47.145270 0.340588 2.343710 0.032756 0.001140 -488723.000000 0 0 1
17.753763 -21.389998 9.872580 29.499084 -0.878027 1.229537 0.036718 -0.019172 109900.000000 0 0 1
17.416663 -22.647898 10.360380 30.390869 -0.915234 1.222918 0.028731 -0.020165 161784.000000 0 0 1
18.513563 -23.229298 11.037380 31.688737 -0.897892 1.215033 0.028801 -0.017485 -157269.000000 0 0 1
18.083663 -24.464598 11.907280 32.669844 -0.934258 1.197729 0.025235 -0.022586 -438709.000000 0 0 1
17.517263 -25.514708 11.175580 32.905142 -0.969151 1.224273 0.031910 -0.019113 760603.000000 0 0 1
16.091163 -25.458518 11.376980 32.194679 -1.007140 1.209614 0.043762 -0.018505 434016.000000 0 0 1
15.325163 -26.445148 10.511880 32.321913 -1.045581 1.239547 0.063604 -0.013465 -297949.000000 0 0 1
15.153463 -25.859818 9.241780 31.365078 -1.040746 1.271705 0.061452 -0.016367 32801.900000 0 0 1
14.416963 -26.766298 8.432480 31.549806 -1.076729 1.300232 0.070815 -0.007824 -118015.000000 0 0 1
14.104063 -26.172048 7.000780 30.543602 -1.076517 1.339534 0.069858 -0.011606 173210.000000 0 0 1
13.004463 -25.260998 7.108180 29.287545 -1.095376 1.325645 0.068170 -0.016579 399476.000000 0 0 1
12.677163 -24.654598 5.865380 28.336590 -1.095861 1.362299 0.066494 -0.006239 241389.000000 0 0 1
11.866163 -23.334198 5.980980 26.852611 -1.100347 1.346179 0.062362 -0.002425 -200019.000000 0 0 1
11.513063 -22.665798 4.832380 25.877421 -1.100810 1.382952 0.069017 -0.005115 -180284.000000 0 0 1
10.844963 -21.478498 5.120180 24.599905 -1.103219 1.361125 0.063016 -0.004431 -178832.000000 0 1 0
10.104463 -20.856098 3.943380 23.508025 -1.119638 1.402253 0.045121 -0.006877 -565798.000000 0 1 0
10.941563 -20.203098 3.066880 23.179489 -1.074442 1.438097 0.045821 -0.000666 -453385.000000 0 1 0
10.226863 -19.612398 1.992980 22.208261 -1.090137 1.480935 0.031428 0.005552 518338.000000 0 1 0
11.100563 -19.445098 0.681580 22.400868 -1.052074 1.540365 0.036953 0.011202 858354.000000 0 1 0
11.986863 -18.341698 0.721080 21.923109 -0.991943 1.537899 0.038944 0.011881 392200.000000 0 1 0
12.753563 -18.046598 -0.475120 22.103366 -0.955587 1.592293 0.054660 0.003177 447415.000000 0 1 0
13.899663 -17.026198 -0.285120 21.981204 -0.886154 1.583768 0.049446 0.010378 220396.000000 0 1 0
15.020763 -17.473398 0.456080 23.046713 -0.860735 1.551006 0.057192 0.003406 -507023.000000 0 1 0
16.113263 -16.696898 0.073480 23.204074 -0.803185 1.567630 0.048986 -0.003685 -565446.000000 0 1 0
17.421263 -17.165898 0.727680 24.468305 -0.778015 1.541052 0.053132 -0.002203 -248384.000000 0 1 0
17.744963 -18.448298 0.259580 25.598648 -0.804828 1.560656 0.037377 -0.001143 317549.000000 0 0 1
19.005763 -18.901298 0.772280 26.815564 -0.782642 1.541993 0.024970 0.007536 691640.000000 0 0 1
19.354763 -20.371198 0.331780 28.101648 -0.810979 1.558990 0.020460 0.008386 -203018.000000 0 0 1
18.567563 -21.397398 0.881380 28.343956 -0.856088 1.539695 0.031342 0.004517 -25228.900000 0 0 1
18.780663 -22.682098 0.324880 29.449897 -0.879217 1.559764 0.032180 0.002646 52097.100000 0 0 1
17.615363 -23.658598 0.670580 29.503897 -0.930783 1.548066 0.032004 -0.001231 58710.700000 0 0 1
17.763663 -24.190798 1.987580 30.078113 -0.937410 1.504668 0.021274 0.000255 265078.000000 0 0 1
16.646663 -25.014698 2.274980 30.133404 -0.983619 1.495227 0.021435 0.001791 -323354.000000 0 0 1
16.686763 -25.862768 3.587480 30.987108 -0.997800 1.454763 0.035750 -0.005495 -15702.900000 0 0 1
17.584663 -26.930248 3.475780 32.350265 -0.992336 1.463146 0.017276 -0.002491 -212826.000000 0 0 1
18.916663 -26.616488 3.784680 32.872502 -0.952917 1.455408 0.021850 -0.001371 -52749.500000 0 0 1
19.952063 -27.817688 3.791780 34.442505 -0.948591 1.460483 0.033522 -0.001651 478474.000000 0 0 1
20.199063 -28.405088 2.565080 34.948974 -0.952655 1.497335 0.020012 0.004329 -125041.000000 0 0 1
21.045063 -29.543788 2.489280 36.358308 -0.951840 1.502278 0.038717 0.006132 -82610.400000 0 0 1
20.578363 -30.909828 3.054480 37.258775 -0.983425 1.488724 0.039197 0.003028 -335975.000000 0 0 1
20.452563 -30.998818 4.427580 37.401036 -0.987573 1.452137 0.064064 -0.003933 -38839.500000 0 0 1
19.719463 -32.176788 4.724680 38.033216 -1.020984 1.446249 0.058908 -0.019148 -17586.500000 0 0 1
19.651063 -32.558178 6.255480 38.539982 -1.027758 1.407764 0.074528 -0.027329 417827.000000 0 0 1
20.887763 -33.086308 6.719880 39.700871 -1.007671 1.400715 0.054905 -0.037670 639513.000000 0 0 1
20.562463 -33.914628 7.853180 40.431291 -1.025757 1.375319 0.043290 -0.030363 -214582.000000 0 0 1
21.741463 33.972883 8.284180 41.176154 1.001508 1.368225 0.048748 -0.036922 -468004.000000 0 0 1
22.686463 -34.051570 9.032980 41.902025 -0.983090 1.353517 0.055774 -0.036765 -540939.000000 0 0 1
23.757563 33.863159 9.417080 42.424247 0.959014 1.346958 0.072240 -0.042902 -360622.000000 0 0 1
24.639863 -33.975718 10.339380 43.224704 -0.943344 1.329254 0.070974 -0.034312 -909813.000000 0 0 1
25.269163 -32.948918 9.647780 42.629115 -0.916554 1.342499 0.054242 -0.027982 -47140.700000 0 0 1
26.110063 -32.242878 10.565280 42.813125 -0.890112 1.321444 0.043395 -0.020474 -88270.500000 0 0 1
26.774963 -31.134278 9.753980 42.206421 -0.860535 1.337586 0.046445 -0.021300 -770542.000000 0 0 1
25.900663 -30.169098 9.261180 40.826318 -0.861379 1.341961 0.037037 -0.019835 -174384.000000 0 0 1
26.444263 -29.389058 8.186080 40.373601 -0.838092 1.366622 0.041088 -0.019106 55957.800000 0 0 1
25.886963 -27.938498 8.096080 38.938940 -0.823494 1.361351 0.043412 -0.017709 -15983.700000 0 0 1
26.459263 -27.200468 9.136180 39.031113 -0.799210 1.334530 0.038711 -0.017087 26481.400000 0 0 1
26.176763 -25.851758 9.019880 37.880002 -0.779152 1.330370 0.045159 -0.007284 -173235.000000 0 0 1
26.955863 -25.067168 10.071280 38.162968 -0.749109 1.303731 0.061918 -0.015371 -97154.400000 0 0 1
28.321563 -24.980598 9.773380 39.008462 -0.722800 1.317553 0.043735 -0.005018 -672108.000000 0 0 1
29.107663 -24.235398 10.668880 39.350166 -0.694313 1.296233 0.053819 -0.012677 626542.000000 0 0 1
30.502063 -23.957098 10.018480 40.058561 -0.665791 1.318017 0.058942 -0.016750 596547.000000 0 0 1
30.321563 -23.110598 8.968880 39.165517 -0.651253 1.339747 0.054865 -0.019676 -370925.000000 0 0 1
31.546363 -22.668498 8.447880 39.754251 -0.623085 1.356661 0.046761 -0.024185 -248576.000000 0 0 1
31.392863 -21.814798 7.143680 38.889965 -0.607293 1.386058 0.054465 -0.007582 -353322.000000 0 0 1
31.017563 -20.508998 7.437980 37.921389 -0.584213 1.373374 0.068047 -0.002331 -154635.000000 0 0 1
30.995763 -19.685798 6.302080 37.255659 -0.565838 1.400821 0.051260 -0.002004 -213005.000000 0 0 1
30.610663 -18.228998 6.606080 36.234643 -0.537113 1.387457 0.067150 -0.000748 -285956.000000 0 0 1
31.478463 -17.519998 7.433280 36.784475 -0.507874 1.367319 0.080222 -0.001893 -271575.000000 0 0 1
30.942063 -16.260698 7.727780 35.798605 -0.483855 1.353215 0.081106 -0.001849 -194256.000000 0 0 1
31.555863 -15.653898 8.973180 36.350171 -0.460498 1.321364 0.075087 -0.015463 984068.000000 0 0 1
32.990963 -15.560798 8.841180 37.532766 -0.440727 1.333003 0.074635 -0.019813 735424.000000 0 0 1
33.657963 -15.076298 9.944880 38.197563 -0.421128 1.307408 0.069815 -0.028218 -346718.000000 0 0 1
35.180963 -15.002998 9.814180 39.485544 -0.403100 1.319612 0.071301 -0.035713 -538013.000000 0 0 1
35.713763 -14.000598 8.987280 39.398741 -0.373610 1.340659 0.082427 -0.021365 -1178520.000000 0 0 1
-34.864686 -14.521798 8.690880 38.755133 0.394665 1.344622 0.071278 -0.029982 -939156.000000 0 0 1
-33.925986 -13.572198 7.927180 37.390069 0.380552 1.357162 0.072375 -0.030364 -398963.000000 0 0 1
-34.214186 -13.451898 6.566180 37.345399 0.374602 1.394055 0.090024 -0.032549 -422550.000000 0 0 1
-33.213986 -12.802798 5.847780 36.073218 0.367913 1.407969 0.078902 -0.025013 -52390.900000 0 0 1
-32.143886 -13.823498 5.323580 35.392923 0.406141 1.419810 0.051644 -0.022624 48425.600000 0 0 1
-31.303686 -14.300298 6.377580 35.001326 0.428515 1.387563 0.063454 -0.021409 -47648.300000 0 0 1
-30.380286 -15.214498 5.844880 34.476156 0.464289 1.400440 0.052443 -0.011232 -4761.010000 0 0 1
-29.607486 -16.026498 6.904780 34.367541 0.496138 1.368510 0.021432 -0.021153 243496.000000 0 0 1
-30.512586 -16.940098 7.563480 35.709818 0.506814 1.357376 0.043275 -0.026953 549539.000000 0 0 1
-30.563086 -16.589598 8.958480 35.910602 0.497297 1.318667 0.012510 -0.017543 153301.000000 0 0 1
-31.577786 -17.526998 9.689580 37.393050 0.506706 1.308677 -0.006598 -0.014484 565268.000000 0 0 1
-32.940686 -17.104898 9.463180 38.304283 0.478939 1.321159 0.026620 -0.022974 1524890.000000 0 0 1
-33.948086 -17.689598 10.332980 39.650535 0.480367 1.307151 0.045089 -0.027618 742744.000000 0 0 1
-34.237186 -19.171398 10.031180 40.501259 0.510457 1.320516 0.046605 -0.031285 -524852.000000 0 0 1
-33.201186 -20.132498 10.348480 40.183669 0.545097 1.310332 0.041334 -0.020325 63757.600000 0 0 1
-32.890786 -20.438298 11.714180 40.456765 0.556006 1.277042 0.012407 -0.025750 86219.600000 0 0 1
-33.990386 -21.152898 12.636980 41.981957 0.556670 1.265045 0.034060 -0.033534 577888.000000 0 0 1
-34.309586 -22.482998 12.287580 42.820760 0.580091 1.279751 0.027789 -0.033690 140069.000000 0 0 1
-35.276386 -22.640598 11.250880 43.400489 0.570593 1.308567 0.038866 -0.029901 -45499.700000 0 0 1
-35.733686 -24.116698 11.151380 44.529369 0.593682 1.317675 0.026935 -0.020546 -358072.000000 0 0 1
35.609763 -24.523998 12.391280 44.978056 -0.603093 1.291691 0.061372 -0.017783 24683.800000 0 0 1
35.060863 -25.838958 12.380980 45.279184 -0.635112 1.293832 0.031737 -0.003960 -59151.100000 0 0 1
34.155963 -26.084908 13.626280 45.085782 -0.652212 1.263765 0.040078 -0.017533 -818028.000000 0 0 1
33.113763 -25.205608 13.523280 43.757548 -0.650619 1.256602 0.033718 -0.012600 -1258190.000000 0 0 1
32.290863 -25.240368 14.665480 43.529901 -0.663455 1.227168 0.039624 -0.002276 -481478.000000 0 0 1
32.125763 -23.845098 15.360380 42.855508 -0.638518 1.204219 0.058518 -0.016472 -281268.000000 0 0 1
33.321963 -23.215598 15.752180 43.559710 -0.608512 1.200789 0.064087 -0.022818 -318958.000000 0 0 1
34.043063 -22.604798 14.719480 43.434665 -0.586158 1.225062 0.061961 -0.023784 297202.000000 0 0 1
35.397963 -21.954398 15.173680 44.331162 -0.555152 1.221454 0.054423 -0.025512 217940.000000 0 0 1
35.392163 -20.753098 15.952780 44.020307 -0.530341 1.199959 0.051218 -0.020396 144045.000000 0 0 1
34.563663 -20.824698 17.137380 43.840673 -0.542258 1.169186 0.043367 -0.021183 -111791.000000 0 0 1
34.387063 -19.428798 17.815680 43.328359 -0.514289 1.147050 0.039979 -0.013842 -615186.000000 0 0 1
33.689263 -18.472598 17.035180 42.028569 -0.501555 1.153463 0.057788 -0.022923 102822.000000 0 0 1
33.643763 -17.111298 17.433480 41.576742 -0.470506 1.138113 0.055088 -0.020234 321048.000000 0 0 1
34.954263 -16.353598 17.859880 42.523122 -0.437604 1.137347 0.031097 -0.017277 500695.000000 0 0 1
35.456763 -16.827398 19.121180 43.657334 -0.443113 1.117442 0.017299 0.004356 335567.000000 0 0 1
-35.371586 -15.921398 19.585380 43.453735 0.422952 1.103227 0.000260 0.005305 25692.700000 0 0 1
-34.969986 -15.941398 21.045380 43.817076 0.427716 1.069799 -0.006603 0.016946 -409634.000000 0 0 1
-34.363086 -17.110598 21.471380 43.984252 0.461995 1.060815 -0.005051 0.020425 49276.000000 0 0 1
-34.061886 -16.972898 22.860080 44.394534 0.462283 1.029870 -0.004626 0.023476 97515.300000 0 0 1
-33.037786 -18.004998 23.417880 44.317856 0.498982 1.014073 -0.006029 0.022293 -652343.000000 0 0 1
-33.537286 -19.346298 23.479880 45.280609 0.523231 1.025652 -0.008831 0.017587 446663.000000 0 0 1
-32.644586 -20.198198 24.173680 45.365218 0.554078 1.008810 -0.012150 0.017780 -794814.000000 0 0 1
-31.518486 -20.788998 23.349680 44.393749 0.583081 1.016944 -0.016816 0.023195 -1071190.000000 0 0 1
-30.499486 -19.857998 23.228480 43.175468 0.577143 1.002732 -0.010274 0.027988 -1049170.000000 0 0 1
-29.343486 -20.497998 22.761080 42.417860 0.609755 1.004403 -0.010645 0.019543 -75115.400000 0 0 1
-28.132686 -19.550398 22.499680 40.986604 0.607319 0.989686 0.002306 0.023414 149887.000000 0 0 1
-27.595986 -19.264498 23.772480 41.204249 0.609443 0.955816 0.006629 0.013116 497145.000000 0 0 1
-26.605286 -18.225798 23.754880 40.053905 0.600618 0.935926 0.025981 0.000377 177339.000000 0 0 1
-26.242986 -17.738298 25.159480 40.451711 0.594385 0.899549 0.030400 -0.007520 -518120.000000 0 0 1
-25.133586 -16.846498 25.172680 39.359439 0.590499 0.876872 0.028421 -0.007272 320304.000000 0 0 1
-24.671386 -16.541098 26.466280 39.783780 0.590622 0.842964 0.024912 -0.011545 -320255.000000 0 0 1
-23.793286 -17.617498 27.117880 40.148177 0.637355 0.829229 0.015401 -0.012027 -1334370.000000 0 0 1
-24.303886 -18.898498 27.380880 41.201270 0.660927 0.843886 0.024626 -0.009984 -1166510.000000 0 0 1
-23.482686 -19.554198 28.204580 41.584871 0.694369 0.825430 0.017171 -0.006058 -849112.000000 0 0 1
-24.183486 -20.794498 28.834980 42.996607 0.710193 0.835733 0.019761 -0.000210 244603.000000 0 0 1
-25.143686 -20.400598 29.817680 44.016853 0.681630 0.826553 0.024041 -0.007102 283115.000000 0 0 1
-25.717886 -21.567598 30.353880 45.254049 0.697852 0.835585 0.018804 -0.002785 -216870.000000 0 0 1
-26.743386 -21.358098 31.512880 46.523528 0.673906 0.826637 0.032638 -0.002011 -723767.000000 0 0 1
-26.277786 -20.761698 32.664480 46.781817 0.668666 0.797874 0.044294 -0.007416 762795.000000 0 0 1
-27.288786 -20.523798 33.696480 47.972460 0.644841 0.792014 0.044931 -0.011846 1208210.000000 0 0 1
-28.470786 -19.524898 33.373980 48.016974 0.601123 0.802313 0.039828 -0.018467 802314.000000 0 0 1
-29.357586 -20.001798 32.349480 48.046109 0.598076 0.832132 0.040259 -0.013807 -801151.000000 0 0 1
-30.675886 -19.674598 32.560880 48.870346 0.570285 0.841600 0.033345 -0.018053 -606444.000000 0 0 1
-31.607986 -20.293798 31.414780 48.967248 0.570764 0.874283 0.026805 0.007377 -163767.000000 0 0 1
-31.811486 -19.486998 30.209480 48.003400 0.549616 0.890119 0.015136 -0.006085 482182.000000 0 0 1
-32.714586 -20.177298 29.355880 48.364607 0.552658 0.918554 0.009673 -0.002671 43832.400000 0 0 1
-33.131586 -19.171198 28.199280 47.544045 0.524564 0.935869 0.007734 0.004395 -69877.100000 0 0 1
-34.120486 -19.676998 27.317280 47.933554 0.523105 0.964414 -0.008463 0.006544 495134.000000 0 0 1
-34.876286 -18.648998 26.691680 47.713585 0.491035 0.977117 0.003711 0.012276 -149057.000000 0 0 1
35.842963 -19.226298 25.772480 48.151731 -0.492345 1.006011 -0.009413 0.013214 -777456.000000 0 0 1
34.722863 -19.626898 26.491480 47.882051 -0.514472 0.984517 0.012690 0.006954 -900926.000000 0 0 1
33.711663 -19.989598 25.598680 46.811885 -0.535225 0.992209 0.051000 -0.005650 -376949.000000 0 0 1
32.491463 -20.503698 26.384980 46.607552 -0.562937 0.969018 0.046726 -0.010160 -176393.000000 0 0 1
31.808163 -19.574098 27.205880 46.206757 -0.551651 0.941241 0.042701 -0.002740 -243951.000000 0 0 1
30.628563 -20.118498 27.682680 45.925957 -0.581179 0.923831 0.032735 -0.004202 -558222.000000 0 0 1
-29.536417 -5.431998 33.693810 45.135124 0.181876 0.727995 0.010837 0.015395 -300127.000000 0 0 1
-30.552177 -5.271998 32.765363 45.108741 0.170874 0.757780 0.012947 0.011519 -41135.300000 0 0 1
-30.308957 -4.143598 32.019712 44.283905 0.135870 0.762581 0.032100 0.006504 99533.900000 0 0 1
-31.129957 -4.300598 30.695882 43.929564 0.137281 0.797145 0.033686 -0.003824 196085.000000 0 0 1
-30.768317 -5.385198 29.781102 43.157893 0.173269 0.809238 0.010281 -0.006373 -114657.000000 0 0 1
-29.469457 -5.204398 29.248462 41.845038 0.174801 0.796839 0.018871 -0.008136 69084.800000 0 0 1
-29.039117 -6.272198 28.144702 40.923527 0.212724 0.812427 0.020317 -0.016349 15650.300000 0 0 1
-29.677127 -6.054798 26.906052 40.513308 0.201260 0.844469 0.010833 -0.023036 -384785.000000 0 0 1
-29.163407 -6.846998 25.844322 39.564058 0.230604 0.858957 0.032865 -0.020400 -119067.000000 0 0 1
-29.964057 -6.682198 24.529262 39.296071 0.219417 0.896668 0.032431 -0.019618 -87178.200000 0 0 1
-29.410957 -5.598198 23.790422 38.240403 0.188094 0.899339 0.036773 -0.016710 5105.710000 0 0 1
-30.034417 -5.350998 22.570872 37.949225 0.176312 0.933823 0.036740 -0.011687 -8503.190000 0 0 1
-29.563767 -3.942298 22.106872 37.125084 0.132567 0.932946 0.030405 -0.009748 1231970.000000 0 0 1
-28.164367 -3.900198 21.771072 35.810930 0.137605 0.917327 0.029820 -0.007554 742727.000000 0 0 1
-27.805827 -2.626398 21.182672 35.053781 0.094176 0.921921 0.031752 0.002400 -80597.600000 0 0 1
-26.427557 -2.675498 20.525972 33.569176 0.100895 0.912901 0.037284 0.002803 -511365.000000 0 0 1
-26.385707 -3.394598 19.334072 32.886702 0.127950 0.942337 0.049041 0.001490 431984.000000 0 0 1
-25.182157 -3.198898 18.581672 31.458743 0.126354 0.938910 0.056396 0.001130 224276.000000 0 0 1
-25.145497 -4.201898 17.392272 30.861677 0.165574 0.972113 0.063290 0.005233 301565.000000 0 0 1
-26.177157 -3.961498 16.425972 31.156855 0.150194 1.015491 0.049671 0.006346 369585.000000 0 0 1
-25.893897 -4.480998 15.154172 30.335164 0.171355 1.047708 0.063696 -0.002955 370814.000000 0 0 1
-27.125717 -4.492198 14.173272 30.933251 0.164117 1.094840 0.072900 -0.013124 591133.000000 0 0 1
-27.532057 -3.208198 13.732072 30.933421 0.116003 1.110824 0.062739 -0.013241 20668.600000 0 0 1
-28.596777 -3.324398 12.808072 31.509903 0.115731 1.152201 0.058063 -0.017362 -83491.300000 0 0 1
-28.928137 -2.037798 12.035472 31.398126 0.070327 1.177410 0.054229 -0.003678 303846.000000 0 0 1
-27.971487 -1.767798 10.975072 30.099525 0.063116 1.197565 0.073765 -0.010274 562803.000000 0 0 1
-28.108977 -0.525198 10.365772 29.963973 0.018682 1.217555 0.072749 -0.002762 -515758.000000 0 0 1
-29.411697 -0.364998 9.576872 30.933762 0.012409 1.256032 0.066630 0.001449 -182227.000000 0 0 1
-29.485437 -1.108398 8.381372 30.673555 0.037574 1.294032 0.072960 -0.008491 797640.000000 0 0 1
-30.842877 -1.234898 7.913072 31.865730 0.040017 1.319845 0.066562 -0.014594 742395.000000 0 0 1
-31.087417 -2.052198 6.581572 31.842678 0.065918 1.362605 0.083809 -0.020902 -419489.000000 0 0 1
-30.727357 -1.491498 5.373272 31.229267 0.048502 1.397877 0.102103 -0.023239 667446.000000 0 0 1
-31.569347 -0.382398 5.064972 31.975363 0.012112 1.411724 0.070256 -0.016681 149825.000000 0 0 1
-31.129587 0.114302 3.686472 31.347318 -0.003672 1.452923 0.077809 -0.011303 41167.700000 0 0 1
-31.514847 -0.799298 2.691472 31.639667 0.025357 1.485627 0.073391 -0.018311 270548.000000 0 0 1
-31.058417 -0.386498 1.426472 31.093560 0.012444 1.524903 0.082601 -0.023183 -283425.000000 0 0 1
-31.689207 -1.057998 0.189672 31.707431 0.033374 1.564814 0.082954 -0.019439 137389.000000 0 0 1
-33.072677 -0.809698 -0.006928 33.082588 0.024478 1.571006 0.077144 -0.018927 201177.000000 0 0 1
-33.531967 -1.138798 -1.250828 33.574608 0.033949 1.608060 0.076371 -0.016361 194186.000000 0 0 1
-35.073329 -0.885898 -1.307628 35.108875 0.025253 1.608050 0.059561 -0.013546 579558.000000 0 0 1
-35.795382 -1.826298 -0.465328 35.844962 0.050976 1.583778 0.062340 -0.010385 319855.000000 0 0 1
34.652121 -1.483298 -0.456028 34.686851 -0.042779 1.583944 0.070768 -0.014138 54756.100000 0 0 1
33.752151 -2.605998 0.079772 33.852700 -0.077057 1.568440 0.071947 -0.020349 -253724.000000 0 0 1
34.125461 -2.951598 1.412672 34.281988 -0.086278 1.529577 0.060968 -0.015173 164529.000000 0 0 1
33.406961 -4.071198 1.842772 33.704533 -0.121269 1.516095 0.063603 -0.009042 -426711.000000 0 0 1
33.657731 -4.418298 3.341472 34.110551 -0.130525 1.472679 0.052797 -0.002504 -121878.000000 0 0 1
33.086091 -3.540298 4.226872 33.542355 -0.106597 1.444444 0.062211 -0.009698 -84934.000000 0 0 1
33.121661 -3.930598 5.609072 33.822415 -0.118119 1.404188 0.062769 -0.015319 -138084.000000 0 0 1
32.626781 -2.765198 6.483972 33.379561 -0.084550 1.375304 0.070004 -0.013841 114497.000000 0 0 1
31.237811 -2.519098 6.389472 31.983934 -0.080468 1.369672 0.093951 -0.016440 86701.900000 0 0 1
30.809581 -1.425898 7.182572 31.667852 -0.046248 1.341996 0.089968 -0.013637 -428334.000000 0 0 1
29.385001 -1.475598 7.726272 30.419582 -0.050174 1.313993 0.087722 -0.014551 -546892.000000 0 0 1
28.389771 -0.969998 6.853172 29.221327 -0.034154 1.334065 0.088396 -0.012367 -73447.100000 0 0 1
27.067371 -0.990098 7.284672 28.047983 -0.036563 1.308062 0.082321 -0.002551 -368237.000000 0 0 1
26.301211 -2.354198 7.254972 27.384860 -0.089271 1.302669 0.090771 -0.014611 -445478.000000 0 0 1
26.713611 -3.337298 8.252872 28.157849 -0.124285 1.273336 0.082637 -0.021167 816495.000000 0 0 1
26.160111 -4.607498 7.867572 27.703414 -0.174339 1.282840 0.084683 -0.027044 15344.200000 0 0 1
26.406111 -5.629698 8.989272 28.456690 -0.210052 1.249399 0.064817 -0.015042 -263885.000000 0 0 1
25.512011 -5.538698 10.060272 27.977651 -0.213784 1.202976 0.076809 -0.006445 582762.000000 0 0 1
26.089211 -6.241598 11.171472 29.058670 -0.234827 1.176189 0.063332 -0.011082 440466.000000 0 0 1
25.097911 -6.397598 12.385672 28.709568 -0.249590 1.124738 0.053308 -0.009110 633431.000000 0 0 1
24.098711 -7.372198 12.097872 27.954529 -0.296876 1.123234 0.062231 -0.015831 737177.000000 0 0 1
22.899911 -7.109198 12.854472 27.206324 -0.301013 1.078693 0.061101 -0.012515 1195740.000000 0 0 1
21.900611 -8.316898 12.742872 26.668115 -0.362934 1.072612 0.061234 -0.010616 443679.000000 0 0 1
22.408611 -9.342298 13.537972 27.797501 -0.394996 1.062120 0.054848 -0.019954 579139.000000 0 0 1
21.408911 -10.372198 13.560472 27.382666 -0.451155 1.052707 0.074556 -0.030715 139701.000000 0 0 1
21.665111 -11.501498 14.584672 28.537242 -0.488043 1.034361 0.058477 -0.028826 -292439.000000 0 0 1
21.580111 -11.055098 15.936972 29.015573 -0.473425 0.989323 0.053823 -0.028448 266857.000000 0 0 1
21.649111 -12.098098 16.874872 29.996821 -0.509595 0.973323 0.045284 -0.029535 -244056.000000 0 0 1
21.382211 -11.691098 18.346072 30.503427 -0.500358 0.925490 0.055861 -0.024154 569506.000000 0 0 1
19.981011 -11.567098 18.626072 29.664274 -0.524764 0.891950 0.049328 -0.027719 449827.000000 0 0 1
19.638711 -11.727898 19.990172 30.378110 -0.538345 0.852577 0.041888 -0.018682 215381.000000 0 0 1
20.323311 -10.770798 21.034072 31.168562 -0.487337 0.830036 0.055046 -0.015271 -375278.000000 0 0 1
19.698511 -9.571898 21.350372 30.585797 -0.452320 0.798128 0.049126 -0.010517 -338948.000000 0 0 1
19.701711 -8.561298 20.337372 29.581446 -0.409928 0.812750 0.055146 -0.014536 -1157270.000000 0 0 1
20.732611 -7.459898 20.770772 30.280624 -0.345392 0.814898 0.062128 -0.009940 142669.000000 0 0 1
22.039211 -7.915498 20.969672 31.434202 -0.344808 0.840491 0.079945 -0.016715 -277197.000000 0 0 1
22.689011 -8.214598 19.723872 31.165718 -0.347371 0.885541 0.079044 -0.020932 -1518180.000000 0 0 1
24.074611 -8.817698 19.944772 32.482805 -0.351091 0.909665 0.083184 -0.020466 -544264.000000 0 0 1
24.154311 -10.137398 20.484072 33.253493 -0.397367 0.907145 0.064824 -0.016892 -384469.000000 0 0 1
25.306411 -10.824898 20.082672 34.072079 -0.404200 0.940459 0.067106 -0.021347 -176431.000000 0 0 1
25.258911 -12.338598 20.303172 34.676684 -0.454393 0.945301 0.051417 -0.018562 453098.000000 0 0 1
24.232311 -12.952698 19.507072 33.697228 -0.490882 0.953427 0.069896 -0.023977 541483.000000 0 0 1
24.204511 -14.370298 19.723172 34.371025 -0.535777 0.959620 0.060912 -0.018091 31195.400000 0 0 1
23.210211 -15.178298 18.859272 33.537543 -0.579146 0.973592 0.054577 -0.011197 -257747.000000 0 0 1
23.591211 -15.214898 17.503272 33.081761 -0.572809 1.013267 0.050539 -0.015594 533352.000000 0 0 1
22.628011 -15.791298 16.614872 32.209408 -0.609292 1.028810 0.031418 -0.012063 201651.000000 0 0 1
22.290311 -17.310798 16.650772 32.768429 -0.660313 1.037779 0.032025 -0.012525 639731.000000 0 0 1
23.431011 -18.115798 16.294972 33.804150 -0.658156 1.067814 0.062302 -0.013169 690467.000000 0 0 1
23.105611 -19.460998 16.538672 34.440200 -0.699985 1.069897 0.061052 -0.007677 -34919.700000 0 0 1
24.268311 -20.461898 16.352472 35.707752 -0.700506 1.095105 0.062873 -0.008679 -155214.000000 0 0 1
24.704111 -20.561398 15.048272 35.489642 -0.694132 1.132918 0.061426 -0.018012 58503.500000 0 0 1
25.637311 -21.620398 14.906472 36.700358 -0.700602 1.152541 0.058955 -0.024130 -86601.000000 0 0 1
26.196211 -21.762798 13.461772 36.620761 -0.693218 1.194370 0.053177 -0.030496 60325.400000 0 0 1
25.221611 -21.935998 12.452472 35.670460 -0.715838 1.214188 0.044210 -0.018162 37476.500000 0 0 1
25.847811 -21.792798 11.193772 35.613704 -0.700486 1.251066 0.043550 -0.014007 -719902.000000 0 0 1
24.995111 -21.622898 9.958172 34.517684 -0.713187 1.278142 0.029128 -0.011415 -1787.410000 0 0 1
24.211111 -22.724798 9.462472 34.527275 -0.753742 1.293186 0.029312 -0.011062 8490.230000 0 0 1
22.962711 -22.897398 10.087172 33.960683 -0.783974 1.269221 0.015486 0.001552 -737142.000000 0 0 1
22.063011 -23.752298 9.222272 33.704576 -0.822253 1.293641 0.017650 -0.003009 -746293.000000 0 0 1
22.534911 -25.082668 9.101872 34.925729 -0.838852 1.307146 0.011800 -0.001445 106170.000000 0 0 1
22.139311 -25.757028 7.878672 34.866131 -0.860787 1.342858 0.019181 0.002320 -40127.300000 0 0 1
20.687711 -26.273688 7.884572 34.357744 -0.903790 1.339248 0.025664 0.006049 -33052.200000 0 0 1
19.736211 -25.235688 7.776772 32.967198 -0.907081 1.332658 0.024225 0.007204 -1337320.000000 0 0 1
18.460711 -25.769158 7.761572 32.635707 -0.949156 1.330671 0.040881 -0.006455 -861660.000000 0 0 1
17.399511 -24.667598 7.564272 31.119955 -0.956483 1.325269 0.042079 -0.015919 -742625.000000 0 0 1
17.287011 -24.144598 6.254672 30.346718 -0.949427 1.363201 0.053586 -0.013408 181467.000000 0 0 1
16.639211 -22.888198 6.364672 29.004172 -0.942193 1.349556 0.068340 -0.005600 -33018.500000 0 0 1
16.224111 -22.271198 5.026372 28.008793 -0.941211 1.390362 0.064936 -0.000538 -107484.000000 0 0 1
15.540811 -21.047398 5.255672 26.685799 -0.934779 1.372554 0.088409 -0.001944 29871.000000 0 0 1
15.141011 -20.501498 4.007272 25.799610 -0.934675 1.414842 0.076357 -0.000121 97212.300000 0 0 1
14.165311 -19.322298 4.133972 24.312486 -0.938195 1.399931 0.068951 0.007994 -111660.000000 0 1 0
14.818111 -18.198398 4.633072 23.921193 -0.887424 1.375884 0.047865 0.003051 204869.000000 0 1 0
14.214411 -16.998598 4.150672 22.543955 -0.874362 1.385625 0.022533 0.006493 799659.000000 0 1 0
15.281811 -15.839098 4.268572 22.419445 -0.803303 1.379231 0.019158 0.005788 -157424.000000 0 1 0
15.497511 -15.322898 5.577872 22.496149 -0.779733 1.320235 0.020812 -0.009721 -334882.000000 0 1 0
16.549011 -14.423098 5.632972 22.663316 -0.716866 1.319613 0.020992 -0.015280 -1008640.000000 0 1 0
17.962711 -14.973298 5.518972 24.027437 -0.694882 1.339032 0.019503 -0.013028 -1833170.000000 0 1 0
18.921611 -13.988798 5.468972 24.158301 -0.636620 1.342436 0.037333 -0.013043 -970993.000000 0 1 0
20.161411 -14.620598 5.414872 25.486570 -0.627424 1.356705 0.051522 -0.012265 -37774.900000 0 0 1
21.454411 -13.743398 5.348972 26.034290 -0.569729 1.363864 0.052593 -0.019303 -51022.600000 0 0 1
21.664011 -13.076898 6.555872 26.140277 -0.543079 1.317294 0.063133 -0.025050 193914.000000 0 0 1
22.732911 -12.156898 6.490272 26.583812 -0.491076 1.324160 0.071470 -0.021805 -141088.000000 0 0 1
22.918711 -11.535498 7.928272 26.855028 -0.466302 1.271105 0.068069 -0.022599 -60786.000000 0 0 1
23.353211 -12.267698 9.078772 27.897903 -0.483691 1.239332 0.058593 -0.020242 364190.000000 0 0 1
23.423511 -11.585998 10.264772 28.076000 -0.459343 1.196512 0.058082 -0.028005 -36385.500000 0 0 1
23.826311 -12.560898 11.438772 29.262857 -0.485159 1.169190 0.049263 -0.024247 815524.000000 0 0 1
22.765611 -13.503998 11.770372 28.968477 -0.535386 1.152377 0.057442 -0.023070 1366510.000000 0 0 1
23.348311 -14.528598 12.539672 30.223619 -0.556623 1.142967 0.052298 -0.027153 276155.000000 0 0 1
22.260411 -15.535698 13.016472 30.105022 -0.609320 1.123678 0.051772 -0.027765 438373.000000 0 0 1
21.177811 -14.854498 13.611372 29.230553 -0.611677 1.086421 0.047365 -0.029761 -286176.000000 0 0 1
19.981411 -15.588398 13.528472 28.727591 -0.662516 1.080460 0.043220 -0.026768 -441804.000000 0 0 1
18.752211 -14.840598 14.009972 27.715846 -0.669478 1.040851 0.041454 -0.030706 -715908.000000 0 0 1
18.611611 -14.600298 15.359372 28.204097 -0.665201 0.994909 0.038180 -0.030012 -46992.000000 0 0 1
18.254611 -13.262398 15.673272 27.473141 -0.628306 0.963689 0.051586 -0.039503 -137835.000000 0 0 1
16.739511 -13.020898 15.825372 26.461244 -0.661091 0.929720 0.046857 -0.038384 -375018.000000 0 0 1
16.054511 -13.175198 14.551672 25.359107 -0.687209 0.959628 0.044689 -0.044852 1400290.000000 0 0 1
14.614411 -13.040598 14.705672 24.492754 -0.728551 0.926784 0.049813 -0.037894 1301050.000000 0 1 0
14.214711 -11.589498 14.464072 23.357737 -0.684011 0.903020 0.045764 -0.033760 -660721.000000 0 1 0
14.702111 -10.629898 15.362172 23.772739 -0.626008 0.868189 0.038329 -0.024354 -88306.800000 0 1 0
14.444211 -9.350998 14.839972 22.722262 -0.574536 0.859122 0.030435 -0.023016 -691479.000000 0 1 0
15.030211 -8.230798 15.739572 23.267733 -0.501012 0.827858 0.033293 -0.017125 -236071.000000 0 1 0
16.418211 -8.244198 15.911772 24.304505 -0.465356 0.857032 0.022620 -0.025430 -317695.000000 0 1 0
16.908511 -9.136398 16.884372 25.582290 -0.495399 0.849974 0.031879 -0.018965 -386635.000000 0 0 1
18.442311 -9.354498 16.820872 26.656467 -0.469415 0.887924 0.040878 -0.016851 550173.000000 0 0 1
19.100711 -8.052898 16.939572 26.770047 -0.398989 0.885657 0.039734 -0.026276 582030.000000 0 0 1
20.075211 -7.684198 15.963772 26.775045 -0.365566 0.932014 0.029989 -0.013338 36077.800000 0 0 1
20.611811 -6.300698 16.171572 26.945599 -0.296663 0.927100 0.028386 -0.001521 -726995.000000 0 0 1
21.473211 -6.263698 17.272472 28.260768 -0.283823 0.913243 0.063718 -0.008216 91656.700000 0 0 1
21.719911 -4.938398 17.795772 28.510205 -0.223567 0.896703 0.074826 -0.014977 70411.700000 0 0 1
-5.671737 -33.311784 -6.760920 34.460899 1.402151 1.768268 0.002124 -0.006549 11348.200000 0 0 1
-6.427837 -32.102384 -6.742120 33.426581 1.373180 1.773889 0.006165 -0.008425 335992.000000 0 0 1
-5.865537 -31.155484 -5.803620 32.229656 1.384708 1.751855 0.013377 -0.013336 -167521.000000 0 0 1
-6.512037 -29.670684 -5.921420 30.948656 1.354745 1.763314 0.024384 -0.017304 268013.000000 0 0 1
-7.841037 -29.581384 -5.494320 31.092245 1.311688 1.748439 0.023670 -0.014037 -129352.000000 0 0 1
-8.762437 -30.068684 -6.466620 31.980044 1.287235 1.774408 0.023702 -0.007471 334542.000000 0 0 1
-10.264637 -30.123584 -6.000520 32.385171 1.242385 1.757159 0.018223 -0.003103 814288.000000 0 0 1
-11.121237 -30.641184 -6.974720 33.334828 1.222631 1.781586 0.026191 -0.002886 -771542.000000 0 0 1
-12.468237 -30.379484 -6.687320 33.512538 1.181343 1.771692 0.035982 0.000523 106417.000000 0 0 1
-13.403337 -31.094384 -7.716620 34.728322 1.163810 1.794866 0.058552 -0.012136 173592.000000 0 0 1
-13.443937 -30.423884 -8.983420 34.453650 1.154709 1.834584 0.075539 -0.020561 308418.000000 0 0 1
-14.533937 -30.964384 -9.717720 35.559281 1.131947 1.847600 0.081136 -0.015084 384330.000000 0 0 1
-14.612237 -30.103384 -11.037920 35.235875 1.118895 1.889418 0.080587 -0.007813 -183200.000000 0 0 1
-14.999837 -28.719984 -10.942420 34.198964 1.089485 1.896487 0.087210 -0.017871 261036.000000 0 0 1
-13.959537 -27.862884 -10.507520 32.887945 1.106342 1.895992 0.085543 -0.018957 -328619.000000 0 0 1
-14.438037 -26.490584 -9.992820 31.781510 1.071781 1.890645 0.080749 -0.006225 -41378.900000 0 0 1
-14.896237 -25.576084 -10.940620 31.555207 1.043397 1.924861 0.091912 -0.017950 237491.000000 0 0 1
-15.282937 -24.355584 -10.314520 30.547536 1.010407 1.915221 0.081704 -0.008722 -223831.000000 0 0 1
-15.787837 -23.314584 -11.382620 30.370869 0.975560 1.954964 0.091174 -0.014573 1326620.000000 0 0 1
-17.168237 -23.670484 -11.688320 31.490586 0.943291 1.951064 0.099354 -0.016539 1165300.000000 0 0 1
-17.715737 -22.971884 -12.794920 31.705911 0.913870 1.986190 0.103634 -0.021800 -224005.000000 0 0 1
-19.124737 -23.417384 -13.237520 33.005475 0.885961 1.983481 0.088164 -0.013028 -10155.800000 0 0 1
-19.317037 -24.751884 -13.657820 34.239447 0.908105 1.981104 0.100274 -0.014163 -78057.800000 0 0 1
-19.444337 -25.585884 -12.545120 34.497822 0.920949 1.942979 0.116290 -0.019777 -1454050.000000 0 0 1
-19.532537 -27.160984 -12.862020 35.842302 0.947340 1.937832 0.103246 -0.018609 214760.000000 0 0 1
-18.547037 -27.762184 -13.686820 36.084075 0.981824 1.959840 0.095218 -0.027095 227779.000000 0 0 1
-17.194237 -27.375984 -13.535420 35.047024 1.009987 1.967313 0.100731 -0.026870 -354045.000000 0 0 1
-16.232737 -28.518884 -13.941520 35.653814 1.053337 1.972541 0.084066 -0.028771 -253979.000000 0 0 1
-16.272937 -28.821984 -15.317720 36.471191 1.056812 2.004236 0.079715 -0.041059 119042.000000 0 0 1
-15.486237 -29.934884 -15.754220 37.203713 1.093380 2.008056 0.096232 -0.038624 286594.000000 0 0 1
-16.124037 -31.360784 -15.481520 38.511827 1.095896 1.984490 0.084742 -0.045752 137576.000000 0 0 1
-16.120037 -31.706384 -14.122120 38.269892 1.100438 1.948744 0.088163 -0.043216 94093.800000 0 0 1
-16.459037 -33.068384 -13.988820 39.498165 1.108969 1.932816 0.064872 -0.038061 -781224.000000 0 0 1
-17.029837 -33.363684 -12.589320 39.517613 1.098839 1.895022 0.081457 -0.033463 1044270.000000 0 0 1
-18.441037 -33.122284 -12.376720 39.879077 1.062781 1.886364 0.098056 -0.025871 1267960.000000 0 0 1
-19.015737 -31.825084 -12.442320 39.105569 1.032211 1.894598 0.103083 -0.026265 -423923.000000 0 0 1
-18.523937 -30.734384 -11.492120 37.680332 1.028386 1.880724 0.123028 -0.023856 -373346.000000 0 0 1
-18.816637 -31.064584 -10.104220 37.698401 1.026177 1.842142 0.117840 -0.018087 260048.000000 0 0 1
-18.474337 -29.965984 -9.300220 36.410924 1.018325 1.829082 0.124531 -0.012554 -94477.500000 0 0 1
-18.779837 -30.323284 -7.822320 36.515374 1.016291 1.786689 0.114599 -0.006622 316706.000000 0 0 1
-17.890737 -31.253384 -7.186020 36.721810 1.050887 1.767755 0.134016 -0.014533 210102.000000 0 0 1
-18.194037 -31.430484 -5.830220 36.781650 1.046062 1.729977 0.115781 -0.015630 -555662.000000 0 0 1
-17.288937 -32.394284 -5.093620 37.070769 1.080551 1.708635 0.120322 -0.016393 -748997.000000 0 0 1
-15.992137 -31.936084 -4.901720 36.051196 1.106545 1.707184 0.105621 -0.015948 -527832.000000 0 0 1
-15.726837 -31.850684 -3.489120 35.692764 1.112147 1.668707 0.084698 -0.013615 173182.000000 0 0 1
-14.396537 -31.101084 -3.190720 34.419738 1.137271 1.663630 0.067051 -0.013382 740532.000000 0 0 1
-13.225137 -31.870384 -3.455020 34.677987 1.177455 1.670593 0.031108 -0.007912 587662.000000 0 0 1
-12.057337 -31.152284 -3.030020 33.541395 1.201508 1.661256 0.019274 -0.001594 215291.000000 0 0 1
-10.776037 -31.965084 -2.956620 33.861943 1.245643 1.658222 0.022432 -0.003107 -805426.000000 0 0 1
-10.822537 -32.984884 -1.964220 34.770505 1.253758 1.627317 0.015909 0.004238 -225090.000000 0 0 1
-9.597637 -33.681484 -1.885520 35.072955 1.293201 1.624582 0.010856 0.007945 454574.000000 0 0 1
-8.517037 -32.923484 -1.007520 34.022210 1.317654 1.600414 0.006524 0.006251 -224505.000000 0 0 1
-8.936637 -32.752884 0.321480 33.951704 1.304430 1.561327 0.012463 0.004070 -315771.000000 0 0 1
-7.937837 -32.346884 1.224980 33.329127 1.330154 1.534034 0.014980 -0.001070 342121.000000 0 0 1
-6.989737 -33.499484 1.660780 34.261203 1.365095 1.522303 0.021684 -0.004389 492559.000000 0 0 1
-7.757137 34.344102 2.473780 35.296035 -1.348659 1.500652 0.031494 -0.015760 748379.000000 0 0 1
-6.863937 33.315602 2.896380 34.138424 -1.367612 1.485852 0.040440 -0.019529 -29042.000000 0 0 1
-6.167337 33.566102 4.238780 34.390209 -1.389086 1.447227 0.046816 -0.028161 159760.000000 0 0 1
-5.004437 -34.357084 4.107680 34.961788 1.426154 1.453034 0.043706 -0.019516 138095.000000 0 0 1
-4.497737 -34.018084 5.396780 34.735931 1.439343 1.414798 0.029890 -0.016578 379742.000000 0 0 1
-3.269237 -33.048584 5.371680 33.641518 1.472195 1.410436 0.036081 -0.007297 250225.000000 0 0 1
-3.501537 -31.744784 4.893580 32.310048 1.460938 1.418754 0.027511 -0.001615 28789.900000 0 0 1
-3.307737 -31.840484 3.511980 32.203905 1.467283 1.461525 0.039117 -0.016609 -432179.000000 0 0 1
-3.780437 -30.553284 2.781880 30.911708 1.447689 1.480680 0.023849 -0.015792 21752.900000 0 0 1
-3.057337 -29.422384 3.202080 29.753610 1.467256 1.462968 0.029974 -0.011306 -21919.500000 0 0 1
-3.216037 -28.381784 2.284080 28.654591 1.457964 1.491001 0.028739 -0.016827 321750.000000 0 0 1
-2.693137 -27.014984 2.847680 27.297832 1.471434 1.466287 0.039329 -0.019854 157821.000000 0 0 1
-3.083437 -25.951984 1.990180 26.210186 1.452538 1.494792 0.048090 -0.022482 -284892.000000 0 0 1
-3.005937 -24.637884 2.564980 24.952757 1.449392 1.467821 0.045689 -0.017748 112379.000000 0 1 0
-4.181837 -24.202784 3.475880 24.806133 1.399702 1.430212 0.040491 -0.006011 -43896.900000 0 1 0
-4.147337 -24.861884 4.719780 25.643517 1.405503 1.385687 0.046008 -0.008760 -188628.000000 0 0 1
-5.066337 -24.277084 5.602480 25.425034 1.365061 1.348620 0.033531 -0.001709 12052.400000 0 0 1
-5.826437 -25.251284 6.526780 26.724026 1.344027 1.324072 0.029997 0.000913 -217610.000000 0 0 1
-5.080137 -25.727684 7.631180 27.312202 1.375846 1.287621 0.036320 -0.007038 -210064.000000 0 0 1
-5.769737 -26.685484 8.420880 28.571246 1.357861 1.271621 0.030553 -0.003831 102954.000000 0 0 1
-5.014837 -27.180684 9.682780 29.286420 1.388348 1.233832 0.018602 -0.000072 -3827.480000 0 0 1
-4.658637 -26.178584 10.649580 28.643231 1.394684 1.189848 0.018659 -0.004751 510532.000000 0 0 1
-5.703237 -25.606784 11.494180 28.641761 1.351650 1.157851 0.017697 -0.007574 742142.000000 0 0 1
-5.051437 -24.533284 12.396780 27.947794 1.367733 1.111219 0.020384 -0.009312 77834.800000 0 0 1
-4.220637 -25.130684 13.332980 28.759927 1.404402 1.088747 0.019785 -0.005534 -1021780.000000 0 0 1
-3.365737 -24.227684 13.926280 28.146938 1.432759 1.053225 0.020533 -0.008848 -530762.000000 0 0 1
-2.423537 -24.956784 14.898980 29.166662 1.473990 1.034655 0.045990 -0.013765 -231286.000000 0 0 1
-3.003937 -25.346384 16.078780 30.166040 1.452831 1.008643 0.029405 -0.011154 -52305.200000 0 0 1
-2.081637 -26.187384 16.794680 31.179698 1.491473 1.001972 0.028605 -0.003216 414508.000000 0 0 1
-2.636037 -26.841584 18.062980 32.460600 1.472903 0.980679 0.039031 -0.007792 -279132.000000 0 0 1
-2.764637 -25.869484 19.096180 32.272860 1.464332 0.937618 0.043109 -0.010025 -180922.000000 0 0 1
-2.690437 -26.452384 20.396080 33.510702 1.469436 0.916446 0.053902 -0.010436 43127.900000 0 0 1
-2.902737 -25.328184 21.441780 33.312050 1.456689 0.871520 0.060143 -0.022390 -36990.200000 0 0 1
-2.567037 -25.538084 22.822880 34.346284 1.470615 0.843981 0.058852 -0.028114 121515.000000 0 0 1
-2.901637 -24.449384 23.726880 34.192933 1.452669 0.803889 0.070030 -0.026846 258203.000000 0 0 1
-1.858337 -23.303284 23.613380 33.227822 1.491219 0.780373 0.075202 -0.022251 412231.000000 0 0 1
-2.222337 -22.442884 22.579280 31.913096 1.472096 0.784808 0.074112 -0.013162 -181368.000000 0 0 1
-1.120937 -21.606984 22.298380 31.069856 1.518964 0.770324 0.080281 -0.014737 -765231.000000 0 0 1
-1.488937 -20.413584 21.409780 29.619419 1.497987 0.762909 0.066737 0.008801 154424.000000 0 0 1
-2.227937 -19.431684 22.168080 29.563115 1.456640 0.722952 0.054011 -0.001805 1737690.000000 0 0 1
-3.594237 -19.823684 22.543280 30.234028 1.391435 0.729322 0.077628 -0.003320 1201400.000000 0 0 1
-4.735837 -19.604084 21.494780 29.474969 1.333764 0.753563 0.064878 0.000229 183401.000000 0 0 1
-4.827337 -20.482484 20.404280 29.311601 1.339339 0.800823 0.057431 0.004011 -178520.000000 0 0 1
-5.489537 -21.727584 20.636680 30.464659 1.323322 0.826578 0.055403 -0.001089 49756.800000 0 0 1
-5.294137 -22.604184 19.409280 30.260488 1.340733 0.874466 0.035920 0.008994 -70757.700000 0 0 1
-5.918337 -23.874584 19.433680 31.347892 1.327802 0.902135 0.030574 -0.000653 -128338.000000 0 0 1
-5.697137 -24.519384 18.169580 31.044986 1.342495 0.945588 0.032129 -0.003526 -97448.100000 0 0 1
-6.305837 -25.908384 18.163580 32.263347 1.332049 0.972811 0.013490 -0.011076 -17383.000000 0 0 1
-7.709037 -25.858384 18.077580 32.478980 1.281060 0.980517 0.025744 -0.013643 -619268.000000 0 0 1
-8.345337 -27.088284 17.909080 33.528419 1.271944 1.007299 0.037540 -0.021976 131338.000000 0 0 1
-9.880037 -27.022984 17.960680 33.918178 1.220278 1.012750 0.042637 -0.020238 -328099.000000 0 0 1
-10.509237 -26.233884 16.946580 32.952197 1.189775 1.030631 0.057903 -0.020863 -470237.000000 0 0 1
-11.902137 -26.187184 17.036380 33.431537 1.144205 1.036088 0.061693 -0.022102 -18712.000000 0 0 1
-12.551937 -25.313284 18.150280 33.581931 1.110463 0.999792 0.057469 -0.017232 -433874.000000 0 0 1
-12.262237 -23.951084 17.887480 32.310661 1.097619 0.984104 0.048920 -0.013591 -54312.200000 0 0 1
-12.630337 -23.147884 19.006480 32.505326 1.071309 0.946263 0.055238 -0.011533 3082.100000 0 0 1
-11.491137 -22.523384 19.875680 32.161960 1.099032 0.904616 0.050967 -0.016899 272367.000000 0 0 1
-10.841037 -23.574784 20.579680 33.118299 1.139775 0.900269 0.051245 -0.012619 3415.880000 0 0 1
-9.433437 -23.475284 20.450980 32.531850 1.188700 0.890987 0.061269 -0.020782 437041.000000 0 0 1
-8.684137 -24.567784 21.295480 33.652454 1.231028 0.885624 0.061797 -0.021043 193049.000000 0 0 1
-8.752837 -24.284684 22.671080 34.356017 1.224863 0.850128 0.066598 -0.019555 177423.000000 0 0 1
-7.929737 -25.149684 23.434380 35.278286 1.265361 0.844277 0.056607 -0.022042 -105187.000000 0 0 1
-7.763337 -24.703684 24.887780 35.915776 1.266310 0.805226 0.066210 -0.026937 -730998.000000 0 0 1
-6.678637 -25.297884 25.472580 36.516290 1.312685 0.798799 0.078353 -0.030168 -885495.000000 0 0 1
-6.617337 -24.995984 26.867780 37.288952 1.311997 0.766231 0.078045 -0.023195 -828756.000000 0 0 1
-5.310037 -25.329384 27.554380 37.802355 1.364150 0.754073 0.083912 -0.021763 -1045470.000000 0 0 1
-4.211737 -24.590884 27.135980 36.862063 1.401170 0.743433 0.086203 -0.023152 -1150690.000000 0 0 1
-3.164337 -24.727884 28.036080 37.516703 1.443522 0.726813 0.077814 -0.019423 -325458.000000 0 0 1
-1.860837 -24.132584 27.451080 36.597897 1.493840 0.722624 0.064404 -0.018263 -548995.000000 0 0 1
-1.873537 -22.708684 27.268280 35.535243 1.488480 0.696085 0.066018 -0.015657 -477140.000000 0 0 1
-0.713737 -22.104084 26.788980 34.738298 1.538518 0.690126 0.067276 -0.023973 -581316.000000 0 0 1
0.384663 -21.795184 27.798980 35.326495 -1.553149 0.665001 0.059423 -0.015819 -382122.000000 0 0 1
0.977563 -22.965384 28.338380 36.488741 -1.528255 0.681492 0.065925 -0.018836 -429273.000000 0 0 1
1.859963 -22.652884 29.351280 37.122907 -1.488873 0.658924 0.067311 -0.030627 -395060.000000 0 0 1
2.512863 -23.947284 29.953180 38.431495 -1.466246 0.677102 0.066084 -0.036143 157827.000000 0 0 1
3.483363 -24.592284 29.091880 38.252473 -1.430088 0.706678 0.061880 -0.042031 889550.000000 0 0 1
4.065563 -25.783884 29.698880 39.539359 -1.414405 0.721036 0.049417 -0.027976 -495861.000000 0 0 1
5.225763 -25.498284 30.660680 40.218756 -1.368650 0.703863 0.040339 -0.029316 -114772.000000 0 0 1
6.423763 -24.954384 30.128380 39.644738 -1.318846 0.707546 0.044848 -0.028981 608313.000000 0 0 1
7.237563 -25.799484 29.318280 39.718474 -1.297295 0.740469 0.036559 -0.016548 -784885.000000 0 0 1
8.386963 -25.069484 28.660580 38.990370 -1.247952 0.745029 0.022638 -0.008605 -763415.000000 0 0 1
8.051563 -24.313784 27.517680 37.592691 -1.251010 0.749550 0.035467 -0.015236 178741.000000 0 0 1
9.186363 -23.807284 26.824880 37.023643 -1.202536 0.760439 0.018905 -0.002425 79842.100000 0 0 1
8.865663 -22.532584 25.944180 35.488276 -1.195941 0.750917 0.034350 -0.004536 53401.000000 0 0 1
8.234763 -22.691284 24.680680 34.523059 -1.222672 0.774309 0.030816 0.002590 37601.700000 0 0 1
8.127163 -21.490184 23.899180 33.151916 -1.209240 0.765698 0.031525 0.016976 -196248.000000 0 0 1
7.414463 -21.857884 22.580280 32.289477 -1.243764 0.796368 0.029839 0.023454 -310927.000000 0 0 1
8.101263 -22.653084 21.624280 32.348139 -1.227347 0.838625 0.017511 0.034619 -283832.000000 0 0 1
7.522863 -22.827184 20.342380 31.487874 -1.252448 0.868413 0.029212 0.029733 -357705.000000 0 0 1
8.121163 -23.984184 19.508480 31.965217 -1.244309 0.914353 0.039838 0.011064 506443.000000 0 0 1
9.329063 -23.452984 18.950880 31.562790 -1.192208 0.926772 0.028981 0.006332 303545.000000 0 0 1
10.028163 -24.415484 18.117980 32.014701 -1.181075 0.969239 0.038028 0.003386 71411.900000 0 0 1
11.260663 -23.760284 17.514880 31.593110 -1.128223 0.983167 0.026244 -0.004515 -309680.000000 0 0 1
10.884263 -22.656584 16.728580 30.193266 -1.122950 0.983575 0.035923 -0.003784 -321379.000000 0 0 1
12.018063 -22.151684 16.094280 29.902454 -1.073703 1.002465 0.034589 -0.015854 -310506.000000 0 0 1
-12.698937 22.604802 11.252180 28.263963 -1.058954 1.161340 0.030009 -0.018165 78925.400000 0 0 1
-13.672137 21.571702 11.103380 27.848711 -1.005894 1.160694 0.003010 -0.021064 259284.000000 0 0 1
-13.122637 20.327202 10.655180 26.437315 -0.997541 1.155965 0.040238 -0.026265 -1253.180000 0 0 1
-13.987637 19.583802 9.612080 25.914694 -0.950574 1.190805 0.028710 -0.019005 -701100.000000 0 0 1
-14.146637 20.484002 8.505880 26.307255 -0.966394 1.241552 0.030321 -0.022299 -222653.000000 0 0 1
-14.770237 19.960502 7.402580 25.910996 -0.933743 1.281067 0.027161 -0.018392 -218146.000000 0 0 1
-16.320837 19.999402 7.478080 26.875035 -0.886335 1.288821 0.013516 -0.008529 -274338.000000 0 0 1
-16.733037 19.039102 8.405880 26.704695 -0.849774 1.250580 0.012026 -0.010522 -928541.000000 0 0 1
-18.037337 19.255902 8.817480 27.818757 -0.818062 1.248272 0.017557 -0.003846 -824113.000000 0 0 1
-18.617037 18.184302 9.753180 27.791859 -0.773640 1.212225 0.020687 -0.005724 -232340.000000 0 0 1
-18.735837 16.943402 9.021780 26.823553 -0.735203 1.227771 0.018158 -0.004735 212739.000000 0 0 1
-19.244337 15.923702 9.873680 26.858860 -0.691255 1.194355 0.034223 -0.012381 -598859.000000 0 0 1
-18.212237 15.203702 10.734480 26.039723 -0.695607 1.145891 0.036002 -0.013341 -369592.000000 0 0 1
-17.335837 14.354702 10.025780 24.639500 -0.691604 1.151740 0.017119 -0.010286 474778.000000 0 1 0
-16.494937 13.568602 10.915380 23.986151 -0.688365 1.098345 0.022753 -0.015228 303750.000000 0 1 0
-17.215837 12.515302 11.760280 24.317114 -0.628595 1.066009 0.022906 -0.013396 -283170.000000 0 1 0
-17.887337 11.531902 10.959380 23.938454 -0.572638 1.095261 0.003375 -0.015787 319.929000 0 1 0
-18.736437 10.796102 11.804480 24.636470 -0.522742 1.071114 0.016832 -0.014687 -234898.000000 0 1 0
-19.859937 10.025702 11.055380 24.842569 -0.467496 1.109602 0.016272 -0.016708 -419136.000000 0 1 0
-19.552937 8.896102 10.203580 23.781737 -0.426984 1.127354 0.020405 -0.018653 113426.000000 0 1 0
-18.878037 9.197902 9.018680 22.854284 -0.453378 1.165146 0.019910 -0.016721 -544665.000000 0 1 0
-19.832537 9.634902 7.894380 23.419695 -0.452234 1.226980 0.028747 -0.019003 -168209.000000 0 1 0
-20.346337 8.565902 7.171480 23.211597 -0.398482 1.256696 0.015976 -0.027292 287220.000000 0 1 0
-21.347137 9.035002 6.292180 24.019223 -0.400381 1.305739 0.041267 -0.015879 -122522.000000 0 1 0
-21.653637 7.938202 5.312480 23.666802 -0.351385 1.344398 0.055359 -0.016846 -403028.000000 0 1 0
-22.330237 6.866002 5.954280 24.108814 -0.298301 1.321239 0.048418 -0.017076 566068.000000 0 1 0
-21.802737 5.555802 5.598380 23.185516 -0.249511 1.326926 0.032949 -0.007973 229286.000000 0 1 0
-22.874337 4.443402 5.876980 24.031605 -0.191863 1.323739 0.052501 -0.005475 860237.000000 0 1 0
-23.944037 4.439502 4.916580 24.843487 -0.183330 1.371579 0.066898 -0.010524 553098.000000 0 1 0
-24.519937 3.181502 4.720180 25.171996 -0.129031 1.382163 0.078599 -0.014223 -438703.000000 0 0 1
-25.614597 3.204602 3.653080 26.071480 -0.124462 1.430216 0.085467 -0.019274 3701.910000 0 0 1
-25.081027 3.446702 2.332680 25.423986 -0.136567 1.478916 0.086716 -0.010405 319800.000000 0 0 1
-26.075927 3.055602 1.435980 26.293587 -0.116649 1.516156 0.087114 -0.013458 -377858.000000 0 0 1
-25.793397 3.052002 -0.053220 25.973388 -0.117777 1.572845 0.100034 -0.010621 -344909.000000 0 0 1
-25.559957 4.354002 -0.608720 25.935291 -0.168725 1.594269 0.096881 -0.009897 395628.000000 0 0 1
-25.664177 4.427302 -2.044020 26.123343 -0.170828 1.649121 0.109592 -0.010318 -48608.600000 0 0 1
-27.026297 4.961802 -2.567620 27.597697 -0.181570 1.663969 0.105136 -0.019658 475929.000000 0 0 1
-28.027687 3.949802 -2.460120 28.411343 -0.140003 1.657494 0.092066 -0.015474 577089.000000 0 0 1
-29.339807 4.476802 -2.600720 29.793117 -0.151417 1.658200 0.075300 -0.002299 683580.000000 0 0 1
-30.466477 3.387602 -2.597220 30.764064 -0.110736 1.655321 0.068596 0.000079 127774.000000 0 0 1
-30.404787 2.655602 -3.837320 30.760825 -0.087120 1.695869 0.065217 -0.005720 393019.000000 0 0 1
-31.351067 1.610102 -3.871120 31.630166 -0.051312 1.693491 0.076654 -0.014754 -89015.900000 0 0 1
-31.523997 0.984602 -5.243920 31.972341 -0.031223 1.735555 0.076133 -0.017414 -179817.000000 0 0 1
-30.366097 0.277502 -5.680520 30.894096 -0.009138 1.755719 0.088628 -0.022194 476117.000000 0 0 1
-30.447477 -0.470398 -6.920320 31.227568 0.015448 1.794261 0.090966 -0.016519 -337625.000000 0 0 1
-30.809507 0.296402 -8.216020 31.887562 -0.009620 1.831392 0.082743 -0.023203 -438090.000000 0 0 1
-32.127497 0.767602 -8.316620 33.195353 -0.023888 1.824030 0.075540 -0.025442 -114252.000000 0 0 1
-32.345797 1.535702 -9.506420 33.748793 -0.047442 1.856343 0.092556 -0.028405 -26527.500000 0 0 1
-33.822977 1.954402 -9.676420 35.234168 -0.057719 1.849003 0.116833 -0.029645 119302.000000 0 0 1
-34.242826 2.763402 -8.595120 35.413043 -0.080526 1.815955 0.090091 -0.025706 1883960.000000 0 0 1
-35.691688 2.910802 -8.426220 36.788185 -0.081374 1.801895 0.097561 -0.025448 1662610.000000 0 0 1
35.705881 3.641202 -7.118020 36.590088 0.101626 1.766579 0.109295 -0.021911 -59104.800000 0 0 1
34.297711 3.729902 -7.018920 35.206681 0.108325 1.771504 0.111832 -0.031004 278119.000000 0 0 1
33.946521 4.298102 -5.792320 34.704336 0.125944 1.738486 0.111433 -0.031617 -372547.000000 0 0 1
32.505801 4.127102 -5.302820 33.193071 0.126289 1.731241 0.113109 -0.032497 -266463.000000 0 0 1
32.335701 2.860202 -4.803920 32.815484 0.088224 1.717716 0.117514 -0.029617 567971.000000 0 0 1
31.015131 2.344202 -4.983720 31.500335 0.075439 1.729676 0.126269 -0.031252 369605.000000 0 0 1
30.779551 1.054002 -4.154420 31.076533 0.034230 1.704881 0.129212 -0.012653 107388.000000 0 0 1
31.714891 0.011302 -4.489020 32.031013 0.000356 1.711405 0.107059 -0.022491 778385.000000 0 0 1
31.671051 -1.077498 -3.597920 31.892970 -0.034008 1.683849 0.101884 -0.020023 212371.000000 0 0 1
32.803151 -2.060298 -4.025520 33.113387 -0.062726 1.692666 0.093848 -0.029242 276505.000000 0 0 1
32.702861 -3.372398 -3.602520 33.073076 -0.102759 1.679939 0.074933 -0.023042 -249199.000000 0 0 1
33.930621 -4.037298 -3.721020 34.371977 -0.118430 1.679266 0.095734 -0.027878 -205039.000000 0 0 1
33.965541 -5.469098 -3.274520 34.558523 -0.159649 1.665692 0.084321 -0.022924 -77190.500000 0 0 1
33.669741 -5.643398 -1.913520 34.192996 -0.166067 1.626788 0.082329 -0.015441 -17151.600000 0 0 1
33.785961 -7.029498 -1.549120 34.544244 -0.205133 1.615656 0.092546 -0.023406 -361356.000000 0 0 1
33.386161 -7.354498 -0.111020 34.186792 -0.216823 1.574044 0.074079 -0.016480 48164.400000 0 0 1
32.008771 -7.152598 0.188980 32.798732 -0.219846 1.565034 0.067374 -0.023804 103076.000000 0 0 1
31.703861 -7.442698 1.556580 32.602937 -0.230582 1.523035 0.056077 -0.014845 -479544.000000 0 0 1
31.458241 -8.955898 1.863080 32.761260 -0.277354 1.513897 0.073942 -0.017658 -61072.700000 0 0 1
30.403621 -9.595698 1.159680 31.903017 -0.305716 1.534438 0.080976 -0.028129 593182.000000 0 0 1
29.132311 -9.296798 1.721880 30.628204 -0.308907 1.514548 0.069120 -0.033099 -10472.800000 0 0 1
28.019141 -10.398298 1.661480 29.932547 -0.355360 1.515260 0.072545 -0.027989 967850.000000 0 0 1
26.686911 -10.262198 2.174780 28.674616 -0.367109 1.494880 0.090601 -0.033443 1402100.000000 0 0 1
25.838111 -9.241198 1.684280 27.492627 -0.343480 1.509495 0.089091 -0.030899 -127865.000000 0 0 1
25.150411 -9.598698 0.341480 26.922013 -0.364590 1.558112 0.073268 -0.024682 -914755.000000 0 0 1
26.096111 -9.619698 -0.690020 27.821246 -0.353171 1.595601 0.074653 -0.031942 292741.000000 0 0 1
25.616711 -9.912798 -2.027320 27.542503 -0.369220 1.644470 0.073345 -0.023097 -150138.000000 0 0 1
24.950911 -11.305298 -2.288520 27.488090 -0.425430 1.654148 0.070870 -0.012961 235697.000000 0 0 1
23.601211 -11.434398 -1.887920 26.293096 -0.451158 1.642661 0.050230 0.001226 -23777.200000 0 0 1
23.118411 -12.683698 -2.161120 26.457656 -0.501799 1.652570 0.039999 0.007826 151194.000000 0 0 1
21.616811 -12.768098 -1.723420 25.165076 -0.533521 1.639335 0.036965 0.007334 540140.000000 0 0 1
20.756011 -12.277198 -2.743620 24.270745 -0.534147 1.684081 0.037775 0.003674 758037.000000 0 1 0
19.384811 -12.469798 -2.399820 23.173820 -0.571634 1.674540 0.046761 -0.003758 606168.000000 0 1 0
18.366411 -12.027798 -3.474120 22.227517 -0.579798 1.727738 0.036223 0.006249 36446.500000 0 1 0
18.443511 -12.831398 -4.634320 22.940898 -0.607843 1.774207 0.040077 -0.000027 265104.000000 0 1 0
17.532411 -12.353498 -5.578620 22.161123 -0.613813 1.825264 0.035089 0.003712 -446967.000000 0 1 0
17.696311 -13.138798 -6.906920 23.097467 -0.638658 1.874476 0.036155 0.001192 138639.000000 0 1 0
16.899611 -14.355698 -6.953720 23.238700 -0.704186 1.874682 0.029659 -0.001304 689317.000000 0 1 0
16.999511 -14.892898 -8.279120 24.069184 -0.719440 1.921940 0.033046 -0.006104 -326445.000000 0 1 0
16.043511 -16.062798 -8.552620 24.260154 -0.785999 1.931078 0.037474 -0.010614 -103723.000000 0 1 0
14.679011 -15.662698 -8.496520 23.086454 -0.817807 1.947686 0.040082 -0.007709 636119.000000 0 1 0
13.754011 -16.436898 -9.247020 23.342062 -0.874029 1.978119 0.038601 -0.009480 127168.000000 0 1 0
13.853911 -16.248798 -10.788420 23.923719 -0.864788 2.038627 0.046989 -0.016882 -755141.000000 0 1 0
13.152511 -15.175098 -11.424020 23.103688 -0.856677 2.088018 0.042888 -0.010192 216773.000000 0 1 0
13.412811 -13.827398 -11.069720 22.217992 -0.800617 2.092355 0.033552 -0.001864 -135661.000000 0 1 0
13.349211 -12.757198 -12.197920 22.129998 -0.762725 2.154591 0.046774 -0.005564 -44320.500000 0 1 0
14.499011 -12.898898 -13.005120 23.360994 -0.727062 2.161207 0.055038 -0.010156 177065.000000 0 1 0
14.297611 -12.359798 -14.308820 23.705034 -0.712833 2.218830 0.071628 -0.007497 -471199.000000 0 1 0
15.597011 -11.933698 -15.023620 24.726283 -0.653112 2.223828 0.069225 -0.020362 -560096.000000 0 1 0
16.303811 -13.100098 -15.226320 25.870208 -0.676871 2.200080 0.074291 -0.022178 -57328.700000 0 0 1
17.476611 -12.782898 -15.988020 26.915632 -0.631509 2.206825 0.080245 -0.023094 -304326.000000 0 0 1
18.390811 -13.922798 -16.241120 28.210641 -0.647999 2.184267 0.071304 -0.022330 -514718.000000 0 0 1
19.255111 -14.233598 -15.119120 28.318588 -0.636561 2.133995 0.060207 -0.029530 239873.000000 0 0 1
20.324711 -15.064798 -15.477820 29.658135 -0.637849 2.119843 0.053104 -0.019707 -720828.000000 0 0 1
21.384211 -14.931698 -14.393520 29.789487 -0.609556 2.075073 0.041897 -0.022210 -506811.000000 0 0 1
21.959911 -13.628698 -14.341720 29.557809 -0.555441 2.077399 0.036792 -0.019546 141321.000000 0 0 1
22.854411 -13.442198 -13.256120 29.643575 -0.531673 2.034410 0.042383 -0.016092 180505.000000 0 0 1
23.606611 -12.094598 -13.420920 29.726630 -0.473470 2.039217 0.065791 -0.022174 -132063.000000 0 0 1
22.800411 -10.941698 -13.128820 28.494656 -0.447431 2.049633 0.047560 -0.008113 885288.000000 0 0 1
23.521011 -9.681798 -13.167720 28.641998 -0.390486 2.048493 0.064597 -0.011976 447714.000000 0 0 1
24.484911 -9.281998 -12.016220 28.810691 -0.362352 2.001021 0.070812 -0.015257 783649.000000 0 0 1
25.683711 -10.055498 -11.961420 30.063959 -0.373168 1.979986 0.065197 -0.014177 270304.000000 0 0 1
26.645911 -9.603698 -11.067420 30.409265 -0.345927 1.943300 0.057798 -0.016013 -1046310.000000 0 0 1
27.956331 -10.342698 -11.241620 31.857525 -0.354344 1.931435 0.062422 -0.017530 -332962.000000 0 0 1
28.675221 -9.978098 -12.444420 32.813021 -0.334865 1.959785 0.045651 -0.017849 -155161.000000 0 0 1
29.945271 -10.551598 -12.509020 34.125227 -0.338778 1.946108 0.040593 -0.017912 -467482.000000 0 0 1
30.663401 -10.065298 -13.788320 35.095188 -0.317170 1.974561 0.022330 -0.017087 -432448.000000 0 0 1
30.380511 -10.820498 -14.922420 35.535015 -0.342157 2.004171 0.031247 -0.018916 215219.000000 0 0 1
31.002851 -10.239898 -16.044820 36.379508 -0.319008 2.027554 0.018132 -0.018257 -258199.000000 0 0 1
30.753241 -10.950198 -17.389220 36.987210 -0.342069 2.060247 0.000290 -0.001935 -9128.920000 0 0 1
29.511351 -10.652798 -17.997820 36.170755 -0.346417 2.091602 0.015627 -0.003567 347156.000000 0 0 1
29.546261 -9.477398 -18.764120 36.261479 -0.310396 2.114685 0.017984 0.001935 -399729.000000 0 0 1
28.124521 -9.202798 -19.281020 35.319088 -0.316235 2.148270 -0.011691 -0.005442 -280518.000000 0 0 1
27.721341 -9.994798 -20.332920 35.802184 -0.346038 2.174778 -0.012271 0.010916 30368.600000 0 0 1
26.325111 -9.797198 -20.451720 34.745783 -0.356280 2.200135 0.038398 0.013295 137359.000000 0 0 1
25.795011 -10.001998 -21.912820 35.292978 -0.369901 2.240665 0.059982 -0.005471 6778.490000 0 0 1
25.712711 -11.333698 -22.306920 35.877499 -0.415162 2.241774 0.048293 -0.006133 -12479.200000 0 0 1
25.038011 -11.445898 -23.521920 36.210376 -0.428776 2.277842 0.060249 -0.014839 -1091390.000000 0 0 1
25.012811 -12.877998 -24.068620 37.024074 -0.475462 2.278486 0.048965 -0.004363 256366.000000 0 0 1
26.146111 -13.454098 -24.689920 38.395626 -0.475238 2.269257 0.041860 -0.000806 236559.000000 0 0 1
27.346391 -13.356898 -23.935420 38.718680 -0.454352 2.237232 0.018961 0.006447 -333998.000000 0 0 1
28.646971 -13.926198 -24.549620 40.215318 -0.452491 2.227431 0.007844 0.015597 48717.700000 0 0 1
29.049001 -13.309098 -25.712610 41.013594 -0.429619 2.248401 0.006787 0.005546 151610.000000 0 0 1
30.427641 -13.627298 -25.856950 42.191545 -0.421072 2.230454 -0.015425 0.011410 194891.000000 0 0 1
30.977261 -13.036698 -27.154290 43.207658 -0.398348 2.250368 -0.001495 0.008035 -33618.100000 0 0 1
30.651621 -13.783098 -28.335120 43.958784 -0.422579 2.271275 0.001813 -0.001035 60294.800000 0 0 1
31.594841 -13.486598 -29.312820 45.159315 -0.403446 2.277194 -0.005000 -0.002527 -297118.000000 0 0 1
31.386151 -14.228198 -30.639040 46.111635 -0.425617 2.297559 0.002565 -0.011387 -77734.500000 0 0 1
31.730761 -15.574498 -30.405230 46.624932 -0.456287 2.281179 0.004055 -0.006004 31000.400000 0 0 1
31.838651 -16.379598 -31.548200 47.720854 -0.475146 2.293079 -0.013671 -0.002120 835366.000000 0 0 1
30.490411 -16.912998 -32.187410 47.452546 -0.506444 2.316253 -0.006816 0.000468 847959.000000 0 0 1
29.894471 -16.098398 -33.172610 47.468515 -0.493977 2.344562 0.006203 -0.014035 122999.000000 0 0 1
28.742471 -16.703598 -33.728270 47.357535 -0.526442 2.363431 0.008510 -0.008677 -154743.000000 0 0 1
27.975071 -15.815598 33.915320 46.722443 -0.514549 0.758470 0.019407 -0.010571 -346404.000000 0 0 1
27.375691 -14.683898 -34.146287 46.162910 -0.492330 2.403407 0.033102 -0.024642 209726.000000 0 0 1
28.238391 -13.555898 -33.982220 46.216452 -0.447562 2.396882 0.036827 -0.024675 -207110.000000 0 0 1
27.561381 -12.323598 -33.303540 44.951381 -0.420467 2.405175 0.046418 -0.022280 -548821.000000 0 0 1
26.578611 -11.854698 -34.138377 44.859617 -0.419543 2.435657 0.070385 -0.025756 -641438.000000 0 0 1
25.935211 -10.723598 -33.541130 43.733719 -0.392070 2.444855 0.054740 -0.026223 56242.500000 0 0 1
20.819463 -29.835984 9.190480 37.524670 -0.961550 1.323361 0.044900 -0.020699 59574.700000 0 0 1
21.291763 -29.338984 7.953580 37.112997 -0.943019 1.354814 0.047975 -0.021666 268233.000000 0 0 1
22.381263 -30.068284 7.425380 38.212025 -0.930922 1.375232 0.054311 -0.024225 316826.000000 0 0 1
22.900063 -29.631784 5.955780 37.920005 -0.912849 1.413082 0.046816 -0.019666 -37632.700000 0 0 1
23.446363 -28.356684 5.887980 37.262605 -0.879904 1.412118 0.041249 -0.009635 74534.800000 0 0 1
23.994063 -28.199884 4.595680 37.310437 -0.865805 1.447309 0.031851 -0.000657 -109358.000000 0 0 1
24.028163 -26.696784 4.253080 36.168488 -0.837959 1.452933 0.031373 -0.005616 7587.780000 0 0 1
24.985963 -25.946484 4.968080 36.362070 -0.804255 1.433740 0.037684 -0.009036 158414.000000 0 0 1
24.694763 -24.531684 4.902480 35.152085 -0.782085 1.430875 0.035640 -0.006194 -47749.800000 0 0 1
25.503963 -23.603584 5.845180 35.238436 -0.746719 1.404151 0.031687 -0.003812 70078.200000 0 0 1
26.826663 -23.406184 5.371780 36.005212 -0.717411 1.421043 0.030336 -0.009102 -67868.800000 0 0 1
27.718863 -22.756784 6.213880 36.398061 -0.687407 1.399236 0.033506 -0.008002 -71397.600000 0 0 1
27.409063 -21.243884 6.436980 35.270299 -0.659352 1.387263 0.031653 0.001473 -502645.000000 0 0 1
27.582063 -20.474984 5.284380 34.755141 -0.638574 1.418158 0.028392 0.018748 180922.000000 0 0 1
26.991563 -19.159584 5.305080 33.522798 -0.617297 1.411875 0.044374 0.016484 30980.700000 0 0 1
27.087163 -18.545384 3.908480 33.059368 -0.600353 1.452293 0.045654 0.019603 37323.700000 0 0 1
28.367263 -17.993284 3.684280 33.793990 -0.565257 1.461557 0.061176 0.019296 127979.000000 0 0 1
28.379863 -17.246484 2.491780 33.302654 -0.546063 1.495904 0.052499 0.028582 181512.000000 0 0 1
29.432463 -16.116584 2.638280 33.659689 -0.500982 1.492335 0.066823 0.012473 109191.000000 0 0 1
29.088163 -14.994084 3.425180 32.904036 -0.475947 1.466511 0.066755 0.001898 123953.000000 0 0 1
30.173263 -14.094684 3.593680 33.496275 -0.437003 1.463303 0.087049 -0.008712 334273.000000 0 0 1
29.780863 -12.991184 4.557680 32.809192 -0.411341 1.431431 0.091264 -0.010999 236470.000000 0 0 1
29.577363 -13.562284 5.870180 33.063801 -0.429930 1.392309 0.076239 -0.009015 3932.170000 0 0 1
29.449763 -12.565284 6.844380 32.741723 -0.403283 1.360202 0.063409 -0.018440 -516416.000000 0 0 1
29.000963 -13.001484 8.273980 32.841333 -0.421449 1.316114 0.062218 -0.003681 -351871.000000 0 0 1
27.620163 -13.275684 8.266480 31.740382 -0.448050 1.307318 0.042711 0.003906 -440288.000000 0 0 1
26.969463 -13.401484 9.472580 31.570262 -0.461175 1.266054 0.046346 0.002001 -127646.000000 0 0 1
27.285763 -14.677284 10.314880 32.654743 -0.493514 1.249416 0.045396 -0.004505 -186540.000000 0 0 1
28.365863 -14.496484 11.210480 33.770476 -0.472452 1.232415 0.051006 -0.002285 149153.000000 0 0 1
28.584763 -15.689484 12.039680 34.759206 -0.501980 1.217093 0.044127 -0.000405 83579.200000 0 0 1
29.476363 -15.395284 13.288780 35.811484 -0.481322 1.190629 0.051412 -0.005359 265331.000000 0 0 1
30.855363 -15.246084 12.988080 36.785686 -0.458928 1.209941 0.060405 -0.005737 99193.200000 0 0 1
31.579063 -15.343984 14.198180 37.871669 -0.452297 1.186505 0.072076 -0.011171 963459.000000 0 0 1
33.143863 -15.304584 13.999880 39.099137 -0.432592 1.204606 0.058892 -0.015588 924699.000000 0 0 1
33.683163 -14.009384 14.035080 39.087104 -0.394152 1.203523 0.059212 -0.013454 -237909.000000 0 0 1
35.011163 -13.985584 13.578480 40.071850 -0.380041 1.225098 0.058806 -0.019311 -394499.000000 0 0 1
35.563863 -12.560584 13.694980 40.126164 -0.339508 1.222499 0.049129 -0.019960 -546625.000000 0 0 1
-35.219186 -12.393284 12.748080 39.452479 0.338358 1.241767 0.066557 -0.023723 -49888.900000 0 0 1
-34.653286 -11.062384 12.827180 38.571532 0.309005 1.231784 0.066742 -0.021243 -88573.900000 0 0 1
-33.466886 -11.026184 11.821680 37.166669 0.318265 1.247101 0.067254 -0.020164 -25559.000000 0 0 1
-32.329986 -11.720884 12.242980 36.503393 0.347802 1.228774 0.042311 -0.019088 -184325.000000 0 0 1
-32.365586 -13.021184 11.671480 36.787305 0.382501 1.247948 0.034338 -0.021006 -810579.000000 0 0 1
-31.227086 -13.933984 12.120980 36.279539 0.419702 1.230147 0.020997 -0.012344 -1003510.000000 0 0 1
-30.092086 -13.703584 11.371680 34.966226 0.427326 1.239553 0.035923 -0.012011 -293313.000000 0 0 1
-29.126086 -14.758184 11.658580 34.670670 0.468993 1.227847 0.028012 -0.008252 -99773.600000 0 0 1
-27.740186 -14.484084 11.108380 33.206968 0.481197 1.229701 0.046872 -0.016048 -678262.000000 0 0 1
-27.652086 -14.754284 9.735880 32.819417 0.490140 1.269614 0.026014 -0.005550 1137850.000000 0 0 1
-26.273086 -14.550784 9.343680 31.453215 0.505778 1.269178 0.027466 -0.000898 992506.000000 0 0 1
-26.067986 -14.265884 7.855580 30.737037 0.500735 1.312355 0.047538 0.003997 -150053.000000 0 0 1
-26.171386 -15.439684 7.040980 31.191356 0.532993 1.343099 0.043981 0.001183 199082.000000 0 0 1
-26.254386 -15.047684 5.685880 30.790499 0.520442 1.385067 0.047625 0.003864 -423156.000000 0 0 1
-26.362086 -16.127784 4.613080 31.246528 0.549036 1.422620 0.036276 -0.000962 -576604.000000 0 0 1
-27.615386 -16.798684 4.649180 32.656090 0.546507 1.427943 0.026754 -0.006023 232394.000000 0 0 1
-27.901586 -17.680184 3.545480 33.221346 0.564804 1.463870 0.028087 -0.004597 302647.000000 0 0 1
-29.355086 -18.217384 3.539980 34.729319 0.555420 1.468688 0.036438 -0.011525 677160.000000 0 0 1
-30.394586 -17.278884 3.230680 35.111650 0.516925 1.478654 0.044772 -0.018448 328890.000000 0 0 1
-31.671586 -17.850584 3.341780 36.508906 0.513236 1.479135 0.058632 -0.018678 -293593.000000 0 0 1
-32.799986 -16.924184 2.873480 37.020589 0.476351 1.493100 0.068759 -0.030104 -102064.000000 0 0 1
-32.903386 -16.819084 1.476380 36.982348 0.472540 1.530865 0.071813 -0.020500 -936876.000000 0 0 1
-34.064786 -16.182884 1.104080 37.729489 0.443499 1.541529 0.084972 -0.025052 -893768.000000 0 0 1
-34.663386 -16.759184 -0.177220 38.502623 0.450348 1.575399 0.072288 -0.017399 -98514.000000 0 0 1
-33.779286 -16.810284 -1.305320 37.753539 0.461766 1.605378 0.083136 -0.013140 619711.000000 0 0 1
-34.332186 -17.724284 -2.230620 38.701743 0.476570 1.628464 0.078599 -0.008790 -86477.400000 0 0 1
-33.225386 -18.217384 -3.160320 38.023506 0.501535 1.654007 0.063195 -0.011640 -169393.000000 0 0 1
-33.680286 -19.131984 -4.102720 38.951596 0.516593 1.676321 0.059992 -0.013957 -492272.000000 0 0 1
-32.620786 -19.769084 -4.746220 38.437728 0.544839 1.694590 0.056959 -0.012570 -501798.000000 0 0 1
-32.993186 -20.869884 -5.761120 39.462550 0.564011 1.717310 0.065775 -0.011886 -316023.000000 0 0 1
-33.468786 -22.079384 -5.192020 40.430384 0.583165 1.699571 0.081698 -0.016238 39452.900000 0 0 1
-33.713986 -22.956184 -6.245920 41.262947 0.597799 1.722749 0.058647 -0.013501 8144.480000 0 0 1
-34.267986 -24.301284 -5.672320 42.391302 0.616843 1.705007 0.050907 -0.011901 468973.000000 0 0 1
-33.242286 -25.135884 -5.108720 41.987632 0.647420 1.692771 0.056771 -0.009775 50399.500000 0 0 1
-33.749286 -26.409584 -4.807620 43.123006 0.663993 1.682515 0.043439 -0.000931 170207.000000 0 0 1
-32.693286 -27.374684 -4.241020 42.851027 0.697085 1.669930 0.035877 -0.004281 -806539.000000 0 0 1
-31.689986 -27.800384 -5.115720 42.465129 0.720109 1.691558 0.040203 -0.002596 63339.200000 0 0 1
-30.921586 -28.932784 -4.681920 42.604822 0.752183 1.680911 0.016932 0.005123 937523.000000 0 0 1
-29.889386 -28.621484 -3.505020 41.531312 0.763732 1.655291 0.011650 0.004546 -102533.000000 0 0 1
-30.574486 -28.409784 -2.295120 41.799313 0.748715 1.625732 0.010944 0.005284 -132559.000000 0 0 1
-29.674686 -28.459284 -1.213720 41.133818 0.764494 1.600307 0.011194 -0.001253 -436478.000000 0 0 1
-30.322886 -28.430684 0.150280 41.566859 0.753204 1.567181 0.020431 0.001849 -205078.000000 0 0 1
-30.794686 -29.658984 0.653380 42.759735 0.766614 1.555515 0.012918 0.007114 -105205.000000 0 0 1
-31.597286 -29.404584 1.779280 43.199350 0.749469 1.529597 0.023199 0.009093 -102705.000000 0 0 1
-32.170386 -30.725384 2.393180 44.550087 0.762428 1.517052 0.016470 0.012416 -661978.000000 0 0 1
-33.018686 -30.550484 3.484280 45.118798 0.746591 1.493495 0.022817 0.014296 229088.000000 0 0 1
-33.664986 -31.779584 3.898980 46.459394 0.756597 1.486775 0.013615 0.016643 320923.000000 0 0 1
-34.872686 -32.336584 3.116180 47.659936 0.747682 1.505366 0.007032 0.019504 130275.000000 0 0 1
-35.756886 -33.288384 3.736780 48.996275 0.749661 1.494456 0.023712 0.011822 167723.000000 0 0 1
35.241763 -33.772784 2.705580 48.886633 -0.764116 1.515424 0.020290 0.014507 -1306740.000000 0 0 1
34.057963 34.107702 3.172880 48.304734 0.786128 1.505064 0.030439 0.010133 119889.000000 0 0 1
33.062863 -33.996784 4.041780 47.594854 -0.799324 1.485773 0.035098 0.007733 1303420.000000 0 0 1
32.364463 -32.831684 3.558880 46.238983 -0.792564 1.493753 0.026819 0.015285 -272045.000000 0 0 1
31.619363 -32.956384 2.186680 45.724051 -0.806100 1.522955 0.033250 0.004301 -871430.000000 0 0 1
32.403163 -33.155584 0.995480 46.370774 -0.796875 1.549327 0.037333 0.009600 -608262.000000 0 0 1
31.738063 -33.053384 -0.195220 45.824326 -0.805696 1.575057 0.041252 0.010789 -1312020.000000 0 0 1
32.311263 -34.058584 -1.163320 46.961241 -0.811719 1.595571 0.041691 -0.001045 448493.000000 0 0 1
33.436063 -33.794384 -1.981820 47.581070 -0.790728 1.612460 0.030851 0.006801 377420.000000 0 0 1
34.627763 -33.441984 -1.277120 48.156819 -0.767980 1.597319 0.032991 0.013920 -1080260.000000 0 0 1
35.823463 -33.175484 -2.145820 48.872669 -0.747040 1.614717 0.019811 0.003780 -899433.000000 0 0 1
-35.631686 34.304502 -2.730720 49.536580 -0.766423 1.625950 0.009263 0.003173 216238.000000 0 0 1
-34.930186 -34.182284 -3.948720 49.032018 0.774577 1.651417 0.014591 0.008786 -310248.000000 0 0 1
-34.297186 33.296002 -4.538920 48.015857 -0.770587 1.665467 0.017399 -0.000031 -416625.000000 0 0 1
-33.202786 32.837602 -3.782620 46.851268 -0.779869 1.651621 0.024529 0.002181 -146297.000000 0 0 1
-32.596186 31.822802 -4.576620 45.783704 -0.773393 1.670925 0.037328 -0.007080 -415560.000000 0 0 1
-31.397286 31.110402 -3.950820 44.376296 -0.780809 1.659944 0.041344 -0.013232 191470.000000 0 0 1
-30.226486 31.947702 -3.836220 44.147624 -0.813075 1.657801 0.017345 -0.010874 558815.000000 0 0 1
-29.100186 31.281102 -3.300020 42.851118 -0.821502 1.647884 0.021993 -0.027677 299722.000000 0 0 1
-29.050186 31.132202 -1.743320 42.616505 -0.819979 1.611715 0.020867 -0.017062 -96260.500000 0 0 1
-30.074786 30.281402 -1.250420 42.696834 -0.788821 1.600087 0.025515 -0.013175 -2538.150000 0 0 1
-29.999486 30.252602 0.151980 42.605307 -0.789599 1.567229 0.021457 -0.006960 396541.000000 0 0 1
-31.196586 29.521302 0.871880 42.959218 -0.757814 1.550499 0.029344 -0.008685 275278.000000 0 0 1
-31.347086 28.160502 0.396080 42.140367 -0.731900 1.561397 0.043217 -0.022532 479707.000000 0 0 1
-32.463786 28.076002 -0.519520 42.923527 -0.713047 1.582900 0.051195 -0.019568 472239.000000 0 0 1
-32.683786 26.636202 -1.048620 42.176021 -0.683801 1.595662 0.048080 -0.019174 99478.300000 0 0 1
-33.341086 25.827002 -0.081720 42.174266 -0.659079 1.572734 0.054857 -0.019894 161433.000000 0 0 1
-33.750786 24.576502 -0.736120 41.757178 -0.629387 1.588426 0.063279 -0.017673 -75363.600000 0 0 1
-33.831686 23.383202 0.183980 41.126524 -0.604770 1.566323 0.079731 -0.023465 96391.200000 0 0 1
-32.584686 22.886502 0.631480 39.824019 -0.612315 1.554939 0.084326 -0.033685 89124.300000 0 0 1
-32.140286 23.587802 1.815480 39.908375 -0.633118 1.525289 0.074219 -0.032558 367055.000000 0 0 1
-30.600886 23.421102 2.070780 38.590807 -0.653268 1.517111 0.071217 -0.039884 1144820.000000 0 0 1
-29.644386 24.223902 1.363480 38.307260 -0.685111 1.535196 0.081723 -0.032575 499451.000000 0 0 1
-29.490886 25.581202 1.793880 39.081047 -0.714525 1.524879 0.045242 -0.028517 -596377.000000 0 0 1
-28.773786 26.457402 0.837380 39.097648 -0.743483 1.549377 0.042537 -0.030946 247877.000000 0 0 1
-27.391186 26.167402 0.647880 37.887066 -0.762553 1.553695 0.047603 -0.033751 515060.000000 0 0 1
-26.731786 27.126702 -0.214520 38.085330 -0.792730 1.576429 0.052550 -0.032047 719665.000000 0 0 1
-25.475586 26.640602 -0.960220 36.873421 -0.807749 1.596840 0.056873 -0.033422 -229401.000000 0 0 1
-25.889686 25.713402 -1.988520 36.543250 -0.781982 1.625239 0.074639 -0.041598 739423.000000 0 0 1
-24.847286 25.100002 -2.803520 35.429613 -0.790458 1.650008 0.062028 -0.038153 1436230.000000 0 0 1
-23.774886 24.167602 -2.129620 33.968419 -0.793589 1.633532 0.051688 -0.036578 866190.000000 0 0 1
-24.396486 22.985102 -1.613120 33.557497 -0.755619 1.618885 0.041530 -0.036438 387043.000000 0 0 1
-23.371286 22.144602 -1.085020 32.214557 -0.758454 1.604484 0.047603 -0.039788 -445287.000000 0 0 1
-23.847686 20.743702 -0.585320 31.612591 -0.715901 1.589313 0.038516 -0.028130 -1117330.000000 0 0 1
-24.714586 20.647402 0.497280 32.208279 -0.695977 1.555356 0.038572 -0.033256 155168.000000 0 0 1
-26.021186 21.197702 0.447280 33.565529 -0.683600 1.557470 0.027047 -0.028592 206284.000000 0 0 1
-26.924686 20.678702 -0.708220 33.956575 -0.654935 1.591654 0.030153 -0.037431 -1198020.000000 0 0 1
-27.336786 19.344102 -0.577620 33.493698 -0.615823 1.588043 0.021906 -0.028952 412214.000000 0 0 1
-28.095786 18.968002 -1.753420 33.944555 -0.593831 1.622475 0.047977 -0.025974 140941.000000 0 0 1
-28.480186 17.487102 -1.722320 33.464700 -0.550657 1.622286 0.012461 -0.010642 238917.000000 0 0 1
-29.558886 17.292702 -0.796320 34.254918 -0.529336 1.594045 0.032530 -0.009147 666271.000000 0 0 1
-29.914086 15.935602 -0.663720 33.900391 -0.489474 1.590376 0.034860 -0.017196 -525935.000000 0 0 1
-28.909386 14.987302 0.010380 32.563353 -0.478277 1.570478 0.052422 -0.014936 -559860.000000 0 0 1
-28.798686 14.984302 1.449880 32.496089 -0.479765 1.526164 0.056767 -0.015637 99098.400000 0 0 1
-27.457686 14.816002 1.849580 31.254750 -0.494819 1.511584 0.070103 -0.018055 -342494.000000 0 0 1
-26.906286 13.410002 1.956380 30.126464 -0.462364 1.505812 0.079588 -0.018236 -395572.000000 0 0 1
-26.689386 12.785502 0.681680 29.601640 -0.446746 1.547766 0.071336 -0.021399 294268.000000 0 0 1
-26.245686 11.460502 0.861180 28.651715 -0.411707 1.540735 0.094230 -0.019061 -171061.000000 0 0 1
-26.045886 10.600802 -0.399920 28.123391 -0.386530 1.585017 0.086870 -0.014734 932570.000000 0 0 1
-27.331586 10.269502 -0.984020 29.213808 -0.359417 1.604486 0.077390 -0.012476 1358320.000000 0 0 1
-27.157286 9.302202 -2.000720 28.775893 -0.330005 1.640380 0.078325 -0.015673 269853.000000 0 0 1
-28.500986 8.948802 -2.686720 29.993428 -0.304235 1.660494 0.077642 -0.016393 174626.000000 0 0 1
-28.250986 8.270002 -3.893020 29.692874 -0.284777 1.702284 0.075987 -0.015247 919156.000000 0 0 1
-29.513286 8.021902 -4.518320 30.916018 -0.265395 1.717470 0.071280 -0.016630 470266.000000 0 0 1
-11.157737 17.721702 -19.496320 28.612241 -1.008890 2.320467 0.081114 -0.018391 101361.000000 0 0 1
-11.510237 16.994802 -20.626720 29.099320 -0.975482 2.358647 0.068522 -0.017389 -421797.000000 0 0 1
-10.540937 17.129102 -21.646720 29.548232 -1.019143 2.392915 0.068050 -0.012305 19703.400000 0 0 1
-10.643937 16.122202 -22.792120 29.878078 -0.987281 2.438487 0.064797 -0.007472 -195894.000000 0 0 1
-9.926437 14.901002 -22.583420 28.819870 -0.983145 2.471245 0.067053 -0.013301 133966.000000 0 0 1
-10.238937 13.908102 -23.525220 29.184022 -0.936196 2.508327 0.043532 -0.011215 -196834.000000 0 0 1
-9.636237 12.510702 -23.312820 28.157811 -0.914467 2.546211 0.033911 -0.006431 1622540.000000 0 0 1
-8.180537 12.491002 -23.434820 27.787356 -0.990974 2.574307 0.039727 -0.010756 1525340.000000 0 0 1
-7.640637 11.291402 -22.897020 26.648614 -0.975895 2.604539 0.035062 -0.008093 1123160.000000 0 0 1
-6.078437 11.336102 -22.694120 26.085968 -1.078608 2.625946 0.035309 -0.008559 861616.000000 0 0 1
-5.364937 11.394802 -23.889220 27.005905 -1.130761 2.656416 0.032043 -0.014183 6711.630000 0 0 1
-3.968337 11.429502 -23.591420 26.512946 -1.236617 2.667720 0.032854 -0.007555 397277.000000 0 0 1
-3.009937 11.186602 -24.726720 27.305869 -1.307955 2.703461 0.048431 -0.021278 -392727.000000 0 0 1
-2.909237 9.788402 -24.955520 26.963948 -1.281899 2.753188 0.043561 -0.023130 33156.500000 0 0 1
-2.217737 9.499602 -26.179960 27.938345 -1.341448 2.784915 0.043754 -0.026193 -366965.000000 0 0 1
-1.859837 7.966902 -26.286430 27.530110 -1.341458 2.839866 0.036999 -0.022058 39652.700000 0 0 1
-0.711137 7.677502 -25.502390 26.642479 -1.478434 2.847991 0.035727 -0.014779 97013.100000 0 0 1
-0.760137 6.329202 -25.053820 25.852089 -1.451269 2.892440 0.038486 -0.015342 -134289.000000 0 0 1
0.605963 5.792902 -24.588420 25.268861 1.466571 2.909000 0.018437 -0.005906 -108679.000000 0 0 1
0.968463 6.317002 -23.328720 24.188254 1.418670 2.874207 0.017324 -0.016904 -180070.000000 0 1 0
2.036663 5.559302 -22.818220 23.573821 1.219629 2.887722 0.028788 -0.011182 -143226.000000 0 1 0
2.604863 5.825502 -21.427620 22.357654 1.150317 2.852146 0.037109 -0.016016 158002.000000 0 1 0
3.226863 7.106902 -21.325020 22.708527 1.144583 2.790727 0.039399 -0.023394 -534812.000000 0 1 0
2.516363 8.093002 -20.616920 22.290944 1.269342 2.751572 0.020172 -0.020487 -311305.000000 0 1 0
3.124363 9.504702 -20.575820 22.879366 1.253206 2.689003 0.015838 -0.022513 -735687.000000 0 1 0
2.522563 10.297102 -19.566220 22.253777 1.330550 2.645043 0.019175 -0.023606 181187.000000 0 1 0
3.056563 11.630402 -19.550220 22.952558 1.313800 2.590144 0.018692 -0.020283 1046600.000000 0 1 0
4.409163 11.836202 -18.739520 22.598806 1.214206 2.548518 0.024822 -0.019121 708403.000000 0 1 0
5.456663 11.063802 -19.236720 22.852446 1.112604 2.571368 0.027839 -0.016939 -982277.000000 0 1 0
6.484163 10.993902 -18.261320 22.279723 1.037913 2.531576 0.034125 -0.013723 981384.000000 0 1 0
7.681563 10.069102 -18.754720 22.630350 0.919100 2.547652 0.052742 -0.020572 673240.000000 0 1 0
7.258963 8.736002 -18.857320 22.013832 0.877481 2.599464 0.035300 -0.015518 187499.000000 0 1 0
6.693363 8.427502 -20.107920 22.806849 0.899584 2.650168 0.021343 -0.008696 -231220.000000 0 1 0
6.391963 6.903902 -20.342620 22.413015 0.823883 2.708388 0.026092 -0.010611 -879710.000000 0 1 0
7.512963 6.122302 -20.465620 22.644399 0.683760 2.699324 0.028570 -0.010488 -780897.000000 0 1 0
7.220163 4.740302 -20.687020 22.417717 0.580957 2.746077 0.025397 -0.005027 -36571.400000 0 1 0
7.219563 4.293502 -22.176620 23.714104 0.536516 2.779523 0.028953 -0.007092 -121049.000000 0 1 0
6.029063 4.678702 -22.817720 24.060096 0.659950 2.818833 0.023336 -0.010253 -205056.000000 0 1 0
6.045763 4.412702 -24.187620 25.319245 0.630502 2.841489 0.020560 -0.008436 21049.000000 0 0 1
5.022263 5.223202 -25.013520 26.041912 0.805008 2.859626 0.022384 -0.006465 -154147.000000 0 0 1
5.276363 6.612202 -25.209920 26.591376 0.897292 2.817841 0.025832 -0.007946 82921.100000 0 0 1
5.094563 7.477402 -24.083920 25.727443 0.972712 2.782221 0.024053 -0.018341 -959804.000000 0 0 1
4.986063 8.980902 -24.459420 26.528865 1.063981 2.743992 0.021477 -0.018170 138371.000000 0 0 1
3.857063 9.476502 -25.146570 27.148315 1.184259 2.755178 0.025664 -0.019291 -337369.000000 0 0 1
2.645363 9.379302 -24.441220 26.312402 1.295895 2.762190 0.022229 -0.024967 -1413550.000000 0 0 1
1.506463 9.832702 -25.294230 27.179948 1.418769 2.766902 0.029039 -0.015371 -1421740.000000 0 0 1
1.479663 11.198202 -25.668080 28.043528 1.439423 2.727034 0.040599 -0.025464 -762142.000000 0 0 1
0.483563 11.553902 -26.533640 28.944094 1.528968 2.730589 0.058851 -0.027118 -1198440.000000 0 0 1
0.245163 13.064502 -26.690200 29.717135 1.552033 2.686321 0.052606 -0.032249 -262546.000000 0 0 1
-0.037537 13.765302 -25.515530 28.991848 -1.568069 2.646855 0.044936 -0.030470 55774.400000 0 0 1
-0.241537 15.162502 -25.705200 29.844884 -1.554868 2.608606 0.045110 -0.040045 -219389.000000 0 0 1
-0.785137 15.862202 -24.450320 29.155515 -1.521339 2.565536 0.048808 -0.028257 -316641.000000 0 0 1
-2.116137 15.481402 -24.209320 28.813938 -1.434949 2.568439 0.044833 -0.024400 -751936.000000 0 0 1
-2.339537 15.787402 -22.851720 27.873224 -1.423677 2.531936 0.045278 -0.029734 -556950.000000 0 0 1
-3.666937 15.183002 -22.386320 27.296837 -1.333818 2.532394 0.041922 -0.023370 313876.000000 0 0 1
-4.906137 15.597802 -22.956020 28.184047 -1.266054 2.522670 0.048040 -0.021194 278702.000000 0 0 1
-5.111437 15.212202 -24.279420 29.103748 -1.246640 2.557544 0.043283 -0.018773 -301009.000000 0 0 1
-6.597737 15.350502 -24.743320 29.856322 -1.164862 2.547660 0.041142 -0.016793 600267.000000 0 0 1
-7.033137 16.658502 -25.078820 30.917923 -1.171304 2.516898 0.038029 -0.016628 -1566620.000000 0 0 1
-8.380437 16.549002 -25.249610 31.331199 -1.102041 2.507979 0.035330 -0.007362 -1832770.000000 0 0 1
-9.168737 17.791202 -25.715250 32.586296 -1.094942 2.480209 0.034180 -0.006953 69046.000000 0 0 1
-9.384337 18.728302 -24.658420 32.355104 -1.106287 2.437375 0.042112 -0.011832 703990.000000 0 0 1
-10.422237 19.597202 -25.197120 33.579283 -1.082016 2.419429 0.047215 -0.007551 966741.000000 0 0 1
-10.981637 20.696302 -24.248520 33.718304 -1.082963 2.373375 0.046147 -0.008020 -337347.000000 0 0 1
-10.086637 21.737202 -23.994720 33.911544 -1.136339 2.356847 0.056014 -0.002257 -259195.000000 0 0 1
-10.454837 23.056602 -24.392220 35.155240 -1.145084 2.337608 0.060694 -0.009089 -187679.000000 0 0 1
-10.127537 23.444602 -25.877340 36.357298 -1.163031 2.362784 0.044920 -0.007739 -89550.900000 0 0 1
-10.879937 22.763602 -26.877170 36.863761 -1.124941 2.387795 0.038187 -0.001812 -50130.000000 0 0 1
-10.633337 23.233302 -28.179760 38.038836 -1.141577 2.405080 0.044257 -0.006911 -453605.000000 0 0 1
-11.325837 22.485102 -29.305640 38.635152 -1.104190 2.431839 0.038302 -0.010047 -204472.000000 0 0 1
-10.735637 21.269802 -29.786400 38.142995 -1.103367 2.466924 0.022938 -0.006556 -116867.000000 0 0 1
-10.590737 20.134402 -28.885170 36.768341 -1.086564 2.474460 0.020577 -0.001630 -719373.000000 0 0 1
-9.596437 19.178902 -29.440230 36.423194 -1.106857 2.512026 0.016570 -0.009884 -917820.000000 0 0 1
-8.285337 19.703102 -29.533470 36.456617 -1.172735 2.515117 0.013379 -0.008699 639612.000000 0 0 1
-7.220637 18.788602 -29.898580 36.042673 -1.203889 2.549067 0.021678 -0.008644 750547.000000 0 0 1
-6.942737 17.496102 -29.169420 34.715562 -1.193038 2.568523 0.033590 -0.019577 -1111240.000000 0 0 1
-7.935937 16.526702 -29.286000 34.551133 -1.123123 2.582267 0.018722 -0.015945 -204001.000000 0 0 1
-7.562537 15.357002 -28.568060 33.304107 -1.113208 2.601758 0.008740 -0.008547 32188.900000 0 0 1
-8.731437 14.363502 -28.560020 33.139447 -1.024595 2.609630 0.020316 0.002086 771942.000000 0 0 1
-9.823837 14.669502 -27.662440 32.816348 -0.980712 2.573534 0.031397 -0.004687 441838.000000 0 0 1
-10.973137 13.886202 -27.889920 33.031561 -0.902048 2.576131 0.053224 -0.005899 116909.000000 0 0 1
-12.150437 14.421002 -27.051100 32.975149 -0.870642 2.532816 0.049279 -0.004659 19380.500000 0 0 1
-12.569337 15.747802 -27.306140 33.935333 -0.897176 2.505886 0.043771 -0.003278 -78562.100000 0 0 1
-13.671637 16.105702 -26.482400 33.876612 -0.866959 2.468233 0.037939 -0.006559 435427.000000 0 0 1
-14.428437 17.430102 -26.786110 35.063998 -0.879339 2.440163 0.022816 -0.004844 -27722.300000 0 0 1
-13.708437 18.642802 -26.695910 35.329123 -0.936756 2.427419 0.026190 -0.005105 -424214.000000 0 0 1
-14.526737 19.779402 -26.829290 36.360166 -0.937330 2.400714 0.018760 -0.002363 -500996.000000 0 0 1
-13.841037 21.139102 -26.808910 36.839566 -0.991082 2.385789 0.019893 0.000544 -874262.000000 0 0 1
-14.741837 22.146802 -27.162380 38.021014 -0.983504 2.366569 0.020105 -0.013386 -445988.000000 0 0 1
-14.358837 23.504402 -27.298250 38.779216 -1.022401 2.351726 0.028350 -0.007996 -401412.000000 0 0 1
-14.075237 24.338102 -26.000680 38.294789 -1.046470 2.317143 0.015331 0.004343 71851.800000 0 0 1
-13.841037 25.668602 -26.395150 39.333896 -1.076267 2.306425 0.038290 -0.012932 38728.700000 0 0 1
-13.522637 26.551302 -25.312780 39.096933 -1.099735 2.275012 0.060150 -0.021610 -203185.000000 0 0 1
-13.373837 28.010202 -25.725030 40.313870 -1.125340 2.262849 0.082666 -0.033007 134592.000000 0 0 1
-14.597837 28.570302 -26.153960 41.393099 -1.098432 2.254726 0.090847 -0.032321 -99656.000000 0 0 1
-15.329037 29.180302 -25.142070 41.455918 -1.087097 2.222419 0.081137 -0.026697 786495.000000 0 0 1
-16.873137 29.458602 -25.319950 42.351055 -1.050636 2.211624 0.078559 -0.021965 1382380.000000 0 0 1
-17.645537 28.248802 -25.223060 41.779930 -1.012451 2.218946 0.061725 -0.017520 16999.300000 0 0 1
-18.907237 28.484002 -25.829040 42.848119 -0.984792 2.217808 0.045317 -0.011065 -327523.000000 0 0 1
-19.955437 27.445102 -25.525380 42.461726 -0.942111 2.215721 0.011888 -0.007116 -617308.000000 0 0 1
-20.284937 27.483902 -24.154420 41.836343 -0.934977 2.186282 0.021903 -0.003242 28668.700000 0 0 1
-21.267337 26.493802 -23.839520 41.503541 -0.894394 2.182664 0.034662 -0.006706 260193.000000 0 0 1
-21.776337 26.712102 -22.399020 41.103058 -0.886841 2.147123 0.020517 0.000272 118930.000000 0 0 1
-22.892037 27.563702 -22.217420 42.159421 -0.877724 2.125846 0.013189 0.008780 24873.600000 0 0 1
-23.289437 27.807302 -20.851920 41.838338 -0.873587 2.092540 0.006423 0.011538 -511732.000000 0 0 1
-24.489137 28.718302 -20.670720 43.031818 -0.864716 2.071860 0.000351 0.016670 -68957.100000 0 0 1
-25.663157 28.039602 -21.067920 43.458879 -0.829621 2.076906 -0.011851 0.009852 -374580.000000 0 0 1
-26.878697 28.719802 -20.883320 44.535429 -0.818500 2.058858 0.005473 0.009180 187639.000000 0 0 1
-28.049557 27.955602 -21.535320 45.078414 -0.783721 2.068866 0.000385 0.005426 -130266.000000 0 0 1
-27.945947 27.825602 -22.915620 45.611027 -0.783240 2.097185 -0.003698 0.009293 -932198.000000 0 0 1
-29.159887 27.480702 -23.474420 46.438523 -0.755761 2.100751 -0.000825 0.004076 -619174.000000 0 0 1
-29.027247 26.878902 -24.879220 46.733629 -0.746989 2.132185 0.006189 0.015450 -24877.800000 0 0 1
-28.625817 25.548202 -24.957320 45.771343 -0.728649 2.147497 0.012467 0.016063 -286530.000000 0 0 1
-28.566387 25.207902 -26.364570 46.331063 -0.723024 2.176143 0.043848 0.002634 -375171.000000 0 0 1
-28.708187 23.681302 -26.791970 45.856011 -0.689739 2.194768 0.047420 -0.000146 23781.800000 0 0 1
-27.588877 22.853502 -26.493480 44.557078 -0.691796 2.207560 0.030865 -0.001792 91932.700000 0 0 1
-27.802567 21.556702 -26.952390 44.318230 -0.659528 2.224532 0.056031 -0.014678 503813.000000 0 0 1
-26.618497 20.522702 -26.756360 42.960779 -0.656802 2.243124 0.053640 -0.015255 659681.000000 0 0 1
-26.216817 20.219502 -25.412100 41.736370 -0.656958 2.225434 0.064293 -0.003779 -125411.000000 0 0 1
-25.818187 18.873102 -25.297930 40.776930 -0.631230 2.240047 0.038820 -0.008203 -154912.000000 0 0 1
-26.927807 17.788802 -25.250680 40.977374 -0.583798 2.234718 0.043137 -0.000700 -40698.000000 0 0 1
-27.700297 17.665802 -26.434200 42.168163 -0.567714 2.248333 0.050193 -0.007427 -365856.000000 0 0 1
-28.539467 16.556402 -26.273520 42.177168 -0.525676 2.243282 0.033513 -0.014551 -193641.000000 0 0 1
-29.374157 16.134102 -27.478640 43.338505 -0.502276 2.257572 0.024030 -0.014576 431218.000000 0 0 1
-30.563877 16.857602 -27.786780 44.614286 -0.504035 2.243142 0.026768 -0.012800 500549.000000 0 0 1
-31.243917 16.221202 -28.885350 45.537602 -0.478873 2.257923 0.033822 -0.005821 772940.000000 0 0 1
-32.536597 16.933802 -29.402880 47.009714 -0.479877 2.246522 0.038748 -0.004449 1160130.000000 0 0 1
-33.676417 16.728202 -28.561060 47.219360 -0.461031 2.220385 0.027467 -0.004438 829601.000000 0 0 1
-34.923774 17.148802 -29.110130 48.591677 -0.456450 2.213144 0.022962 -0.002199 399807.000000 0 0 1
35.712541 16.800102 -28.204940 48.509254 0.439710 2.191287 0.027974 -0.003206 -350878.000000 0 0 1
35.430011 17.697602 -27.167110 48.026479 0.463255 2.172041 0.027421 -0.007975 -373948.000000 0 0 1
34.323691 17.174202 -26.495110 46.637537 0.463936 2.175000 0.036667 -0.011069 -391311.000000 0 0 1
33.707941 18.169502 -25.511280 46.012841 0.494380 2.158484 0.036027 -0.007949 -163012.000000 0 0 1
33.149031 19.235202 -26.215060 46.433616 0.525782 2.170709 0.043971 -0.019938 -133872.000000 0 0 1
32.671381 20.265502 -25.383900 46.070078 0.555200 2.154340 0.051959 -0.016451 -370820.000000 0 0 1
32.244531 21.534302 -26.183830 46.787059 0.588817 2.164746 0.062241 -0.023011 977828.000000 0 0 1
30.898011 21.529102 -26.693010 46.159573 0.608561 2.187411 0.050141 -0.021711 614800.000000 0 0 1
29.893791 21.978302 -25.791930 45.187478 0.633970 2.178247 0.048312 -0.008529 848378.000000 0 0 1
28.467301 21.654202 -26.390120 44.449186 0.650295 2.206463 0.010097 -0.012406 859892.000000 0 0 1
28.205571 20.255902 -26.528910 43.699415 0.622805 2.223173 0.012247 -0.021446 368476.000000 0 0 1
26.819021 20.047902 -26.803240 42.890465 0.641916 2.245829 0.008125 -0.019722 690470.000000 0 0 1
26.296011 18.608402 -26.516800 41.724016 0.615843 2.259489 0.025037 -0.011327 119431.000000 0 0 1
26.909941 17.701402 -27.458860 42.325803 0.581840 2.276737 0.033053 -0.017945 518071.000000 0 0 1
27.983561 16.944502 -26.921590 42.367061 0.544466 2.259370 0.031836 -0.015299 7255.560000 0 0 1
28.603431 15.938802 -27.964180 43.060389 0.508380 2.277615 0.019880 -0.008730 247504.000000 0 0 1
27.824141 14.768302 -28.316640 42.357027 0.487962 2.303017 0.029846 -0.008233 435968.000000 0 0 1
27.277931 14.005002 -27.231430 41.009467 0.474325 2.296989 0.049888 -0.015272 10978.700000 0 0 1
28.281911 13.160902 -26.354770 40.836868 0.435543 2.272300 0.053182 -0.016032 453129.000000 0 0 1
29.063641 14.084702 -25.572690 41.195104 0.451265 2.240521 0.048948 -0.018157 266221.000000 0 0 1
30.040511 13.457502 -24.752520 41.185239 0.421172 2.215554 0.040883 -0.014107 132348.000000 0 0 1
-14.405237 -31.620084 -24.004920 42.232414 1.143318 2.175357 0.073341 -0.008159 252962.000000 0 0 1
-13.636437 -30.584284 -24.573920 41.535869 1.151387 2.203877 0.062915 -0.010411 434112.000000 0 0 1
-14.331137 -30.150184 -25.731890 42.149084 1.127083 2.227484 0.050182 -0.004767 119433.000000 0 0 1
-13.520837 -29.027584 -26.408620 41.506974 1.134887 2.260418 0.049402 -0.011480 -37476.500000 0 0 1
-13.851237 -27.771484 -25.923090 40.436601 1.108143 2.266701 0.046021 -0.005486 21391.100000 0 0 1
-13.198537 -26.734684 -26.638230 39.981746 1.112213 2.299978 0.037710 -0.008107 -255951.000000 0 0 1
-13.607337 -25.312884 -26.237830 38.914335 1.077550 2.310739 0.016261 -0.001183 -131437.000000 0 0 1
-13.225437 -24.977584 -24.936120 37.690874 1.083834 2.293741 0.011068 -0.015777 135065.000000 0 0 1
-13.853437 -23.761784 -24.590020 36.894569 1.042961 2.300293 0.006691 -0.011266 -409074.000000 0 0 1
-13.393637 -23.058984 -23.288420 35.404192 1.044582 2.288673 0.014067 -0.002791 -29020.300000 0 0 1
-12.067237 -22.571784 -23.355920 34.649714 1.079841 2.310485 0.011133 -0.018353 110465.000000 0 0 1
-11.677837 -22.027584 -22.101520 33.317616 1.083324 2.296094 0.008222 -0.014230 332859.000000 0 0 1
-10.199137 -21.632384 -21.868020 32.406677 1.130228 2.311490 0.015918 -0.017909 97999.500000 0 0 1
-9.696337 -20.572184 -22.625220 32.080123 1.130345 2.353603 0.022375 -0.016466 -133363.000000 0 0 1
-8.291337 -20.545684 -22.473520 31.558367 1.187228 2.363318 0.043528 -0.016796 -24297.500000 0 0 1
-7.617037 -19.626684 -23.519020 31.565334 1.200594 2.411466 0.042063 -0.007598 -87837.400000 0 0 1
-7.728737 -18.284384 -23.039320 30.411550 1.170879 2.430401 0.034116 -0.004222 -37836.000000 0 0 1
-8.201637 -17.321484 -24.005720 30.717670 1.128577 2.467856 0.017595 -0.008140 -650006.000000 0 0 1
-7.229137 -16.692184 -24.955120 30.881183 1.162097 2.511718 0.040266 -0.014938 -550040.000000 0 0 1
-6.788537 -17.582184 -26.003900 32.115732 1.202327 2.514426 0.023388 -0.020277 565488.000000 0 0 1
-5.785037 -16.891184 -26.774310 32.181399 1.240829 2.553465 0.031411 -0.012251 380792.000000 0 0 1
-5.567737 -17.527384 -28.148800 33.623858 1.263218 2.562880 0.045545 -0.011615 -638264.000000 0 0 1
-6.620937 -17.311184 -29.031600 34.443399 1.205496 2.573407 0.048096 -0.011468 -280326.000000 0 0 1
-6.599837 -18.105284 -30.227250 35.847536 1.221240 2.574036 0.052845 -0.019631 -429506.000000 0 0 1
-7.730337 -17.665584 -31.146150 36.632140 1.158308 2.587239 0.059948 -0.018773 -209179.000000 0 0 1
-7.463037 -16.543284 -31.995220 36.784117 1.147010 2.625615 0.055239 -0.013290 -107566.000000 0 0 1
-7.196137 -15.331584 -31.345740 35.628602 1.131954 2.646220 0.042131 -0.012535 -18423.800000 0 0 1
-7.590437 -14.099784 -32.165180 35.930732 1.076951 2.679675 0.033988 -0.010328 -117935.000000 0 0 1
-6.780337 -14.030284 -33.362310 36.822080 1.120627 2.704629 0.057177 -0.018746 262010.000000 0 0 1
-7.258037 -13.221284 34.230302 37.405815 1.068747 0.415025 0.056047 -0.013594 -432068.000000 0 0 1
-7.575137 -11.680084 -34.139301 36.868672 0.995440 2.754394 0.042081 -0.007538 163470.000000 0 0 1
-6.489737 -10.785484 -34.149596 36.395581 1.029120 2.788448 0.034832 -0.009591 -280601.000000 0 0 1
-5.846937 -10.583084 33.255976 35.385707 1.066051 0.348711 0.040363 -0.010421 397586.000000 0 0 1
-4.815637 -9.402084 33.227426 34.866192 1.097446 0.307813 0.037481 -0.012342 284279.000000 0 0 1
-4.580037 -8.898584 31.958592 33.489000 1.095464 0.303484 0.037213 -0.006013 -234186.000000 0 0 1
-3.624337 -7.873384 32.007172 33.159991 1.139387 0.264457 0.037424 -0.014157 -732840.000000 0 0 1
-3.772837 -6.859184 30.889462 31.865994 1.067921 0.248205 0.036602 -0.012022 780880.000000 0 0 1
-4.944837 -6.030184 30.996432 31.962373 0.883970 0.246474 0.025634 -0.005840 341422.000000 0 0 1
-6.121737 -6.632484 30.502832 31.810191 0.825422 0.287692 0.026320 -0.004977 -421772.000000 0 0 1
-7.320137 -5.647384 30.560432 31.928316 0.657111 0.293775 0.014981 0.002107 29988.200000 0 0 1
-8.394337 -6.137784 29.799912 31.562193 0.631348 0.335746 0.019382 0.006282 -272688.000000 0 0 1
-9.535737 -5.266784 29.880222 31.804040 0.504623 0.349599 0.013944 0.003841 1263380.000000 0 0 1
-10.692737 -5.890684 28.977772 31.444332 0.503538 0.398722 0.022722 0.002109 676036.000000 0 0 1
-10.363837 -5.782684 27.596702 30.040415 0.508940 0.406140 0.009430 0.004019 787874.000000 0 0 1
-11.450337 -6.354884 26.863012 29.885049 0.506670 0.453594 0.015508 -0.001408 432313.000000 0 0 1
-11.279237 -6.165384 25.362872 28.434282 0.500240 0.469085 0.011805 -0.006181 503438.000000 0 0 1
-10.235037 -6.977284 24.789782 27.712303 0.598342 0.463394 0.017227 -0.003898 611317.000000 0 0 1
-9.686937 -6.522784 23.541172 26.278703 0.592621 0.460508 0.017617 -0.010451 -371896.000000 0 0 1
-10.528837 -6.733584 22.289072 25.553870 0.568985 0.511035 0.028210 -0.018656 -531254.000000 0 0 1
-11.654337 -5.911384 22.330372 25.873027 0.469412 0.529469 0.015170 -0.010632 -489907.000000 0 0 1
-12.481637 -6.002684 21.182872 25.308843 0.448268 0.579064 0.018176 -0.014489 -102042.000000 0 0 1
-13.570137 -4.934184 21.291172 25.725645 0.348744 0.595934 0.018531 -0.008889 9769.310000 0 0 1
-13.062037 -3.627784 20.941872 24.946736 0.270907 0.574501 0.007182 -0.003899 -420151.000000 0 1 0
-14.109737 -2.746784 20.809872 25.291901 0.192268 0.604497 0.009957 -0.003672 -396207.000000 0 0 1
-13.666137 -1.410784 20.270572 24.487746 0.102868 0.595649 0.005827 -0.003219 37287.300000 0 1 0
-12.885037 -0.543784 21.090572 24.721086 0.042178 0.548819 0.007559 -0.003751 44806.100000 0 1 0
-13.064737 0.862216 20.841472 24.612959 -0.065900 0.560916 0.016277 -0.013468 -616192.000000 0 1 0
-12.815337 1.328216 19.366572 23.260721 -0.103274 0.587034 0.036865 -0.023001 -272610.000000 0 1 0
-13.691237 0.918216 18.348772 22.912235 -0.066966 0.642119 0.045893 -0.014730 -608446.000000 0 1 0
-14.950137 1.534216 18.507472 23.840867 -0.102264 0.682034 0.035739 -0.006577 -384352.000000 0 1 0
-15.972537 0.839216 17.538272 23.736411 -0.052493 0.739395 0.050652 -0.002911 -170257.000000 0 1 0
-16.160937 -0.429784 18.158672 24.312507 0.026588 0.727430 0.017168 0.000413 418046.000000 0 1 0
-16.970137 -1.220784 17.263072 24.238183 0.071813 0.778132 0.018067 0.003196 233558.000000 0 1 0
-16.980137 -2.765784 17.545272 24.572570 0.161465 0.775575 0.013894 0.007681 -123329.000000 0 1 0
-17.647437 -3.204784 18.706572 25.915990 0.179643 0.764374 0.021262 0.008869 124434.000000 0 0 1
-17.307837 -4.541584 19.013072 26.109081 0.256615 0.755080 0.018692 0.007059 -43886.900000 0 0 1
-18.044837 -4.989084 20.311272 27.623448 0.269744 0.744700 0.016155 0.008915 180228.000000 0 0 1
-17.336337 -4.446284 21.455472 27.940209 0.251061 0.695230 0.015045 0.003384 514889.000000 0 0 1
-18.078037 -4.439984 22.665272 29.329907 0.240834 0.687602 0.019042 0.000240 -281236.000000 0 0 1
-18.230337 -5.764184 23.424772 30.237244 0.306240 0.684557 0.027917 0.005602 -710876.000000 0 0 1
-17.043437 -6.278484 23.903732 30.021434 0.352955 0.649771 -0.006642 -0.006954 -574492.000000 0 0 1
-16.325837 -7.091784 22.963772 29.054452 0.409797 0.659383 0.010118 -0.006989 -393621.000000 0 0 1
-15.124737 -7.697784 23.656292 29.114149 0.470784 0.622307 0.023112 -0.007829 -323491.000000 0 0 1
-15.629337 -8.884884 24.307282 30.233447 0.516917 0.636827 0.014318 -0.014237 354020.000000 0 0 1
-14.951437 -9.164384 25.516162 30.961362 0.549882 0.602133 0.023185 -0.007061 75243.200000 0 0 1
-15.635437 -10.177984 26.480392 32.392428 0.577047 0.613762 0.025217 -0.008613 -421916.000000 0 0 1
-15.514637 -11.569384 26.148782 32.531729 0.640748 0.637152 0.020609 -0.010238 -282024.000000 0 0 1
-14.577237 -12.242584 26.922982 32.973075 0.698567 0.615449 0.034413 -0.007689 -304776.000000 0 0 1
-14.698137 -13.782784 26.663112 33.420381 0.753270 0.647142 0.022535 -0.007348 792514.000000 0 0 1
-15.916137 -14.327084 27.221422 34.635164 0.732904 0.666569 0.009003 -0.004050 729016.000000 0 0 1
-16.075637 -15.701184 27.040372 35.158711 0.773615 0.693373 0.019175 0.004135 -248990.000000 0 0 1
-15.118837 -16.672184 27.736982 35.719478 0.834220 0.681668 0.024850 0.001674 -857081.000000 0 0 1
-13.853237 -16.753384 27.181272 34.805310 0.879872 0.674608 0.042995 -0.005314 -518848.000000 0 0 1
-13.033637 -17.633984 27.945432 35.521546 0.934295 0.665322 0.051090 -0.004520 -536130.000000 0 0 1
-11.576937 -17.721184 27.526072 34.723918 0.992117 0.655551 0.055806 -0.010773 -933043.000000 0 0 1
-10.843437 -18.565484 28.352552 35.582643 1.042177 0.648802 0.058445 -0.016614 -561104.000000 0 0 1
-9.605037 -18.757484 27.716612 34.818250 1.097544 0.650077 0.071445 -0.017716 -327037.000000 0 0 1
-8.572837 -19.483684 28.609242 35.659447 1.156289 0.639674 0.083204 -0.022880 -216488.000000 0 0 1
-8.922437 -20.821084 28.922362 36.737316 1.165940 0.664420 0.075722 -0.015983 -2610.930000 0 0 1
-8.010637 -21.391584 29.834312 37.574677 1.212485 0.653435 0.082795 -0.018426 -12159.400000 0 0 1
-8.437237 -22.761484 30.379792 38.887065 1.215818 0.674161 0.076378 -0.009847 -73785.300000 0 0 1
-8.304937 -23.832184 29.493832 38.817922 1.235480 0.707792 0.081111 -0.011727 -16198.100000 0 0 1
-8.732037 -24.972884 30.155842 40.115685 1.234424 0.720127 0.066962 -0.007400 -358976.000000 0 0 1
-8.945137 -26.176484 29.154742 40.189834 1.241513 0.759144 0.057590 -0.007155 -1041010.000000 0 0 1
-10.144437 -26.135884 28.465932 39.953764 1.200554 0.777782 0.054492 -0.007203 -568976.000000 0 0 1
-10.271137 -27.348184 27.751762 40.293668 1.211527 0.811050 0.046981 -0.008642 -71664.000000 0 0 1
-11.643137 -27.473984 27.043752 40.270919 1.169953 0.834504 0.030470 -0.009216 -111969.000000 0 0 1
-11.753337 -26.864784 25.773442 39.040080 1.158386 0.849739 0.040282 -0.014285 298333.000000 0 0 1
-11.789737 -25.456984 25.725712 38.064001 1.137082 0.828673 0.039965 -0.001040 -538878.000000 0 0 1
-11.998237 -24.946584 24.325272 36.851168 1.122499 0.849851 0.057947 -0.026221 440906.000000 0 0 1
-13.310437 -25.157184 23.794382 37.097496 1.084148 0.874473 0.044626 -0.016233 689020.000000 0 0 1
-13.390737 -24.742884 22.424172 35.977293 1.074738 0.897858 0.052936 -0.024635 341626.000000 0 0 1
-14.757537 -25.102584 21.768372 36.356384 1.039329 0.928857 0.039374 -0.020248 228989.000000 0 0 1
-14.841137 -26.380784 21.246472 36.981315 1.058351 0.958780 0.057943 -0.020504 567315.000000 0 0 1
-16.044737 -26.589484 20.501172 37.211991 1.027863 0.987319 0.058013 -0.017603 499516.000000 0 0 1
-16.111637 -28.014584 19.933772 37.970476 1.048875 1.018104 0.063118 -0.023741 213695.000000 0 0 1
-15.136237 -28.187484 18.914072 37.166948 1.078001 1.036896 0.050307 -0.014389 202347.000000 0 0 1
-15.010537 -29.527284 18.474472 37.927336 1.100482 1.062028 0.068239 -0.004754 -123664.000000 0 0 1
-13.874037 -29.701784 17.474272 37.148823 1.133804 1.081069 0.047299 -0.014276 -245723.000000 0 0 1
-14.263637 -29.228684 16.197672 36.333619 1.116794 1.108724 0.059514 -0.023384 10805.800000 0 0 1
-13.262037 -29.469784 15.246172 35.732276 1.147924 1.129980 0.043697 -0.019679 -704329.000000 0 0 1
-13.849937 -29.210584 13.869972 35.177480 1.128049 1.165506 0.029071 -0.016436 -255678.000000 0 0 1
-14.034737 -27.795584 13.714872 34.024492 1.103215 1.155907 0.023457 -0.002440 -429112.000000 0 0 1
-14.354137 -27.417984 12.401772 33.340531 1.088502 1.189663 0.023069 -0.003611 -600874.000000 0 0 1
-13.380937 -27.471484 11.247672 32.561358 1.117534 1.218099 0.013361 0.009921 -467914.000000 0 0 1
-13.921437 -26.964084 10.032672 31.961269 1.094197 1.251497 0.002601 0.001385 1154.930000 0 0 1
-12.971737 -26.907484 8.994272 31.195762 1.121582 1.278327 0.013956 -0.008042 29421.300000 0 0 1
-13.553737 -26.110984 7.779472 30.430370 1.092000 1.312278 0.029460 -0.006067 831608.000000 0 0 1
-14.651937 -26.805784 7.152872 31.375036 1.070570 1.340794 0.017067 -0.011690 659978.000000 0 0 1
-15.312937 -25.969584 6.183572 30.775670 1.038023 1.368495 0.039622 -0.012236 89678.600000 0 0 1
-15.949337 -26.824484 5.090872 31.620425 1.034371 1.409093 0.036339 -0.022952 -156081.000000 0 0 1
-14.998537 -27.399284 4.254472 31.524235 1.069947 1.435424 0.049903 -0.025385 -701114.000000 0 0 1
-15.636937 -27.928884 3.173172 32.165282 1.060396 1.471984 0.048778 -0.020951 -938199.000000 0 0 1
-14.907837 -29.042484 2.450972 32.737085 1.096556 1.495858 0.052184 -0.025894 -1407220.000000 0 0 1
-13.704937 -28.623784 1.925672 31.793938 1.124256 1.510192 0.033659 -0.017118 -1400160.000000 0 0 1
-13.170537 -29.733884 1.362372 32.548778 1.153823 1.528928 0.028199 -0.019706 -350111.000000 0 0 1
-11.850537 -29.574384 0.566872 31.865353 1.189684 1.553006 0.025287 -0.012974 -150200.000000 0 0 1
-11.762837 -28.741084 -0.592028 31.060662 1.182325 1.589858 0.029955 -0.011569 -223382.000000 0 0 1
-12.023137 -27.361284 -0.390428 29.888930 1.156774 1.583859 0.035474 -0.018969 -326425.000000 0 0 1
-11.734737 -26.477484 -1.654528 29.008596 1.153614 1.627863 0.038902 -0.016277 462361.000000 0 0 1
-10.372137 -26.460084 -2.063728 28.495197 1.197213 1.643284 0.041283 -0.019484 -126692.000000 0 0 1
-10.097137 -25.845984 -3.297628 27.943540 1.198363 1.689082 0.047667 -0.021283 -22806.000000 0 0 1
-8.696937 -26.354884 -3.662728 27.993431 1.252055 1.702015 0.045138 -0.021706 -131866.000000 0 0 1
-8.221737 -25.746884 -4.847928 27.459086 1.261702 1.748278 0.045238 -0.020168 56983.000000 0 0 1
-6.906837 -26.239484 -5.136628 27.615211 1.313412 1.757893 0.045134 -0.014161 784361.000000 0 0 1
-6.110537 -25.195084 -5.964328 26.602709 1.332861 1.796918 0.038740 -0.011772 -421378.000000 0 0 1
-6.481037 -25.053084 -7.312928 26.891258 1.317654 1.846209 0.040496 -0.003857 102055.000000 0 0 1
-5.910037 -23.785284 -7.793128 25.717720 1.327254 1.878662 0.018970 -0.005088 21876.300000 0 0 1
-6.091037 -23.561384 -9.310528 26.056198 1.317817 1.936198 0.030193 -0.009992 300205.000000 0 0 1
-5.288937 -24.499084 -10.055828 27.005511 1.358176 1.952349 0.016224 -0.009971 156941.000000 0 0 1
-5.518737 -24.564984 -11.425328 27.648382 1.349807 1.996802 0.009434 -0.001924 222537.000000 0 0 1
-6.711637 -25.437084 -11.941328 28.890944 1.312823 1.996898 0.019996 -0.002165 495376.000000 0 0 1
-7.038937 -25.256984 -13.291028 29.395804 1.299000 2.039960 0.029859 -0.000334 -261372.000000 0 0 1
-8.181037 -25.965384 -13.679328 30.467270 1.265567 2.036425 0.054023 -0.007910 -506336.000000 0 0 1
-8.403637 -25.630884 -15.208928 30.965704 1.253969 2.084210 0.056291 -0.014282 720728.000000 0 0 1
-7.528237 -26.332784 -16.142528 31.791053 1.292336 2.103390 0.043629 -0.016909 635296.000000 0 0 1
-6.173337 -25.943784 -16.179728 31.192525 1.337190 2.116132 0.041117 -0.011451 -35913.600000 0 0 1
-5.280937 -26.937184 -16.990628 32.282838 1.377205 2.125046 0.033379 -0.007045 -9528.410000 0 0 1
-5.505937 -26.892484 -18.395828 33.044327 1.368848 2.161206 0.066583 -0.010487 348590.000000 0 0 1
-4.398637 -27.443184 -19.105328 33.726694 1.411867 2.173018 0.054603 -0.013657 273257.000000 0 0 1
-24.185537 14.787702 -6.438720 29.070147 -0.548780 1.794138 0.025320 -0.003663 4710.860000 0 0 1
-24.700037 13.745302 -5.645020 28.825187 -0.507812 1.767907 0.019742 -0.006064 312275.000000 0 0 1
-23.556437 13.140802 -5.109720 27.453518 -0.508845 1.758011 0.035320 -0.011884 -411325.000000 0 0 1
-23.771337 11.761602 -4.341220 26.874857 -0.459464 1.733042 0.047216 -0.017288 -263590.000000 0 0 1
-24.313537 10.728702 -5.129920 27.066016 -0.415566 1.761483 0.043766 -0.004582 1185860.000000 0 0 1
-25.751447 10.727202 -5.236620 28.383659 -0.394706 1.756354 0.048288 -0.002359 722077.000000 0 0 1
-26.248707 9.996002 -6.524920 28.835556 -0.363862 1.799054 0.062098 -0.003699 -227242.000000 0 0 1
-25.970447 10.598102 -7.785120 29.109998 -0.387455 1.841530 0.079049 -0.009450 7353.180000 0 0 1
-26.420697 9.774802 -8.875620 29.536023 -0.354351 1.876015 0.083497 -0.015153 -363856.000000 0 0 1
-26.779667 10.563602 -10.170620 30.531652 -0.375724 1.910404 0.046945 -0.016135 427642.000000 0 0 1
-25.733737 11.382302 -10.741820 30.119242 -0.416441 1.935469 0.058793 -0.012294 746213.000000 0 0 1
-26.214967 12.002402 -11.901020 31.191609 -0.429359 1.962264 0.047757 -0.014913 -388406.000000 0 0 1
-25.123597 12.818302 -12.564420 30.876669 -0.471782 1.989879 0.045154 -0.017493 -517143.000000 0 0 1
-24.803137 13.984202 -11.876420 30.851303 -0.513382 1.965957 0.037449 -0.023354 603926.000000 0 0 1
-23.869937 14.838402 -12.567620 30.787939 -0.556176 1.991277 0.031505 -0.027094 317968.000000 0 0 1
-23.852837 16.304102 -12.092920 31.321244 -0.599586 1.967189 0.027094 -0.020794 -159654.000000 0 0 1
-23.194637 16.635502 -10.890220 30.550418 -0.622185 1.935280 0.030562 -0.012492 -17370.800000 0 0 1
-23.344237 17.961402 -10.508120 31.272767 -0.655811 1.913479 0.022964 -0.009034 -80161.600000 0 0 1
-22.575337 18.484402 -9.227820 30.601824 -0.686092 1.877109 0.029336 -0.008869 99466.500000 0 0 1
-22.976337 17.876202 -7.985520 30.186739 -0.661198 1.838520 0.042610 -0.009885 431517.000000 0 0 1
-23.578237 18.752802 -7.053720 30.941167 -0.671895 1.800791 0.026741 -0.008128 -51281.200000 0 0 1
-23.993337 18.221302 -5.680620 30.658857 -0.649510 1.757158 0.017425 -0.002931 -380374.000000 0 0 1
-22.933237 18.024902 -4.822120 29.564900 -0.666129 1.734631 0.043514 -0.011797 -282471.000000 0 0 1
-23.439437 17.911802 -3.523920 29.709559 -0.652511 1.689689 0.034804 -0.008547 46042.000000 0 0 1
-22.318337 17.683402 -2.499020 28.584191 -0.670044 1.658335 0.049513 -0.018527 -312173.000000 0 0 1
-21.572137 18.793202 -2.078820 28.685589 -0.716662 1.643329 0.061291 -0.023455 35725.900000 0 0 1
-20.563437 18.334602 -1.197720 27.576206 -0.728161 1.614243 0.084834 -0.028862 -475272.000000 0 0 1
-19.751337 19.496102 -0.706120 27.761699 -0.778895 1.596234 0.079916 -0.035390 -559866.000000 0 0 1
-20.478337 20.399402 0.085280 28.905106 -0.783467 1.567846 0.064030 -0.026891 78360.900000 0 0 1
-19.789137 21.619602 0.199980 29.309676 -0.829574 1.563973 0.068595 -0.036083 -190931.000000 0 0 1
-20.514737 22.553102 1.175980 30.510323 -0.832692 1.532243 0.051795 -0.028307 -201240.000000 0 0 1
-20.440337 22.161102 2.539780 30.255120 -0.825768 1.486752 0.047654 -0.023263 -36761.800000 0 0 1
-21.684137 21.938402 3.160180 31.007774 -0.791227 1.468703 0.035487 -0.027494 -143592.000000 0 0 1
-21.437837 21.660502 4.659680 30.829707 -0.790565 1.419072 0.038641 -0.017412 361928.000000 0 0 1
-20.759637 22.760602 5.323480 31.262549 -0.831344 1.399680 0.033260 -0.024596 381458.000000 0 0 1
-20.236437 22.512902 6.582580 30.978614 -0.838599 1.356676 0.031671 -0.012461 -203084.000000 0 0 1
-21.297337 22.522102 7.744480 31.949939 -0.813341 1.325963 0.020235 0.003320 466115.000000 0 0 1
-22.223537 21.408602 7.720180 31.809040 -0.766723 1.325644 0.035470 -0.005242 833371.000000 0 0 1
-22.512137 20.818602 9.001880 31.956914 -0.746334 1.285243 0.057017 -0.014753 -124214.000000 0 0 1
-23.104437 21.665102 10.142480 33.257504 -0.753259 1.260891 0.072579 -0.015581 -575228.000000 0 0 1
-24.449237 22.045702 9.963080 34.395365 -0.733750 1.276921 0.084686 -0.015969 284096.000000 0 0 1
-24.917237 22.704902 11.102880 35.491622 -0.738976 1.252624 0.094843 -0.013566 -497794.000000 0 0 1
-26.156577 23.547202 10.830880 36.823161 -0.732948 1.272249 0.083831 -0.018336 -341931.000000 0 0 1
-26.745547 24.027802 12.037580 37.915207 -0.731922 1.247718 0.068797 -0.014112 512422.000000 0 0 1
-27.454267 25.286502 11.963980 39.195418 -0.744319 1.260607 0.060882 -0.012050 270984.000000 0 0 1
-27.933197 25.596802 13.381380 40.181104 -0.741779 1.231285 0.056701 -0.007134 -2285.000000 0 0 1
-26.827137 26.051102 14.128780 39.974712 -0.770723 1.209547 0.050559 -0.014918 242493.000000 0 0 1
-27.221627 26.371202 15.428380 40.920559 -0.769531 1.184206 0.040468 -0.016390 66567.600000 0 0 1
-26.047097 26.404802 16.434080 40.567768 -0.792218 1.153706 0.045324 -0.022845 -57067.800000 0 0 1
-25.593627 25.181802 16.900980 39.683750 -0.777288 1.130849 0.058048 -0.028262 338238.000000 0 0 1
-24.620337 25.417902 17.934380 39.672065 -0.801336 1.101716 0.064059 -0.026764 119511.000000 0 0 1
-24.087937 24.086002 18.432780 38.731532 -0.785358 1.074796 0.071735 -0.020924 -426956.000000 0 0 1
-23.091137 24.256102 19.411580 38.708765 -0.809998 1.045491 0.059022 -0.026070 -424.169000 0 0 1
-22.560637 23.045102 19.746580 37.815162 -0.796021 1.021383 0.068680 -0.026026 -600425.000000 0 0 1
-21.064437 23.035602 20.079080 37.114942 -0.830066 0.999174 0.068811 -0.025160 -759310.000000 0 0 1
-20.219737 23.104402 18.949280 36.079445 -0.851883 1.017835 0.073019 -0.033377 -141826.000000 0 0 1
-18.899937 22.665602 19.100580 35.153510 -0.875747 0.996377 0.057736 -0.033808 -536954.000000 0 0 1
-18.666537 21.138402 19.290280 34.167039 -0.847418 0.970863 0.064490 -0.026465 -698486.000000 0 0 1
-19.104637 20.554302 20.503780 34.754445 -0.821935 0.939785 0.069978 -0.026642 189824.000000 0 0 1
-18.246037 20.913302 21.562580 35.145824 -0.853406 0.910289 0.058809 -0.013725 -116680.000000 0 0 1
-18.990237 20.785302 22.892280 36.286559 -0.830497 0.888116 0.041639 -0.005795 124504.000000 0 0 1
-20.060537 21.680902 23.152080 37.530061 -0.824198 0.906006 0.042957 -0.012402 271672.000000 0 0 1
-20.509537 21.381002 24.495980 38.442703 -0.806199 0.879927 0.048183 -0.001637 -452948.000000 0 0 1
-21.665637 22.275402 24.854080 39.790937 -0.799274 0.896156 0.040334 -0.005177 -845471.000000 0 0 1
-21.183137 23.636302 24.909380 40.346961 -0.840078 0.905389 0.043575 -0.005280 611373.000000 0 0 1
-22.163137 24.662102 25.106580 41.590435 -0.838715 0.922709 0.031605 -0.003906 -3807.110000 0 0 1
-23.055037 25.058202 23.904780 41.603927 -0.827009 0.958706 0.035601 -0.012777 -57082.700000 0 0 1
-24.104637 24.130702 23.786080 41.582471 -0.785939 0.961828 0.028136 -0.017154 -147061.000000 0 0 1
-24.907637 24.378602 22.639780 41.560393 -0.774665 0.994712 0.035810 -0.019873 354416.000000 0 0 1
-25.939817 23.296902 22.206180 41.336838 -0.731772 1.003682 0.029039 -0.013662 502558.000000 0 0 1
-27.252557 23.571702 22.667380 42.569204 -0.713101 1.009265 0.020451 -0.020501 185431.000000 0 0 1
-28.163927 22.579002 22.231080 42.393856 -0.675776 1.018793 0.031205 -0.022502 995037.000000 0 0 1
-29.633477 22.759302 22.778380 43.760523 -0.654939 1.023332 0.041904 -0.014659 236662.000000 0 0 1
-30.325917 23.831802 22.189480 44.497068 -0.666057 1.048729 0.041859 -0.017683 2678.930000 0 0 1
-31.722677 23.823402 22.400480 45.559458 -0.644134 1.056783 0.043675 -0.021762 114250.000000 0 0 1
-32.534277 22.861102 21.522980 45.214465 -0.612521 1.074673 0.046632 -0.033124 -1248220.000000 0 0 1
-32.430717 21.455302 21.758280 44.558996 -0.584468 1.060653 0.039047 -0.025168 350836.000000 0 0 1
-32.997547 20.614102 20.713680 44.077612 -0.558395 1.081577 0.019561 -0.020586 144345.000000 0 0 1
-34.528553 20.473202 20.889080 45.251814 -0.535209 1.090977 0.021040 -0.027785 -174085.000000 0 0 1
-35.041476 19.635402 19.896880 44.825660 -0.510753 1.110881 0.020050 -0.011278 15964.500000 0 0 1
35.368901 19.735402 19.807180 45.086247 0.508955 1.115957 0.036640 -0.017579 388186.000000 0 0 1
34.734051 19.007602 18.573380 43.734582 0.500716 1.132183 0.048498 -0.019814 -118696.000000 0 0 1
35.120861 17.646202 18.615880 43.490393 0.465599 1.128467 0.049284 -0.018489 248608.000000 0 0 1
34.371011 16.857702 17.747080 42.196059 0.455989 1.136705 0.060481 -0.026751 -156191.000000 0 0 1
34.891931 15.415302 17.597380 42.008882 0.416015 1.138566 0.067342 -0.028552 118798.000000 0 0 1
33.991021 14.648302 16.804080 40.648977 0.406896 1.144617 0.082250 -0.031498 200668.000000 0 0 1
34.510971 13.414902 16.489180 40.532207 0.370739 1.151830 0.079844 -0.030784 283047.000000 0 0 1
33.570101 12.529402 15.566280 39.067207 0.357219 1.160971 0.074268 -0.030296 374554.000000 0 0 1
33.519761 13.014302 14.281780 38.689995 0.370343 1.192720 0.067565 -0.025205 245349.000000 0 0 1
32.657041 12.272602 13.452380 37.390716 0.359474 1.202766 0.077486 -0.020851 -308607.000000 0 0 1
32.869801 12.622702 11.941180 37.179944 0.366656 1.243829 0.098817 -0.022098 -408185.000000 0 0 1
34.158011 12.254502 11.544480 38.081722 0.344457 1.262800 0.099131 -0.020452 -253491.000000 0 0 1
34.246671 12.475202 10.180680 37.843248 0.349335 1.298419 0.089033 -0.011763 -40012.800000 0 0 1
35.672421 12.447502 9.575880 38.976396 0.335729 1.322571 0.073449 -0.008217 -266989.000000 0 0 1
-35.447710 11.250502 9.666580 38.425990 -0.307327 1.316501 0.085837 -0.009104 520889.000000 0 0 1
-34.133516 11.418802 9.111680 37.128273 -0.322830 1.322853 0.064415 -0.002852 304989.000000 0 0 1
-33.892027 10.991802 7.634080 36.438557 -0.313615 1.359727 0.066585 -0.012023 -485410.000000 0 0 1
-34.260103 11.996002 6.686480 36.910266 -0.336804 1.388636 0.053876 -0.008352 179182.000000 0 0 1
-33.818047 11.726102 5.381080 36.195550 -0.333768 1.421576 0.049530 -0.018213 -614486.000000 0 0 1
-34.586567 12.563602 4.387580 37.058408 -0.348431 1.452122 0.077419 -0.014178 -21687.300000 0 0 1
35.882722 12.111202 4.344480 38.119883 0.325515 1.456579 0.083958 -0.021436 373288.000000 0 0 1
34.885821 13.123502 4.431680 37.535138 0.359809 1.452453 0.055545 -0.015623 411626.000000 0 0 1
34.503941 13.620702 5.877080 37.557763 0.375979 1.413669 0.079730 -0.015632 -760878.000000 0 0 1
33.638901 14.762102 5.876980 37.202610 0.413535 1.412160 0.085811 -0.010438 798122.000000 0 0 1
32.872941 14.979302 7.074280 36.811074 0.427561 1.377415 0.059778 -0.009607 629353.000000 0 0 1
31.669491 14.034302 7.326180 35.406090 0.417142 1.362372 0.094985 -0.031243 -310710.000000 0 0 1
32.130781 12.738702 7.744780 35.420944 0.377454 1.350366 0.116819 -0.015324 839869.000000 0 0 1
31.164731 11.680502 7.505480 34.117544 0.358594 1.348993 0.115530 0.002508 411683.000000 0 0 1
31.340751 11.001502 6.106680 33.772286 0.337591 1.388977 0.122434 -0.009654 -103661.000000 0 0 1
30.817381 11.739602 5.014580 33.356787 0.363969 1.419893 0.123212 -0.015777 222991.000000 0 0 1
31.078521 11.088102 3.793880 33.214666 0.342699 1.456323 0.134502 -0.022507 -309775.000000 0 0 1
30.153521 11.580602 2.679380 32.411792 0.366685 1.488035 0.102717 -0.035623 19376.500000 0 0 1
28.824281 11.099802 2.761280 31.010796 0.367583 1.481636 0.090810 -0.027760 -66230.800000 0 0 1
28.089961 11.595902 1.697080 30.436671 0.391503 1.515010 0.085763 -0.025372 54923.000000 0 0 1
26.668511 10.943302 1.647280 28.873498 0.389393 1.513714 0.105710 -0.012799 497187.000000 0 0 1
26.724511 9.549402 1.374880 28.412689 0.343188 1.522388 0.068948 -0.021221 341718.000000 0 0 1
25.395511 9.063402 1.454380 27.003564 0.342800 1.516911 0.068256 -0.021663 -150847.000000 0 0 1
25.379111 7.541702 1.263880 26.506112 0.288851 1.523096 0.078938 -0.023686 -3679.710000 0 0 1
25.929111 6.688002 2.228380 26.870316 0.252432 1.487770 0.086691 -0.016037 432421.000000 0 0 1
27.348051 6.694502 2.272680 28.247077 0.240068 1.490252 0.120381 -0.033568 -291631.000000 0 0 1
27.789961 6.125302 3.662480 28.691724 0.216945 1.442798 0.115036 -0.037033 -104242.000000 0 0 1
29.182191 6.151902 3.920080 30.080113 0.207768 1.440103 0.142826 -0.037207 381324.000000 0 0 1
29.558561 5.358902 4.973280 30.449300 0.179350 1.406731 0.118123 -0.024787 183631.000000 0 0 1
31.040491 5.450502 5.429180 31.979619 0.173821 1.400200 0.121359 -0.026009 271220.000000 0 0 1
31.333821 6.658502 6.048280 32.599474 0.209387 1.384182 0.126076 -0.030254 195311.000000 0 0 1
32.691461 6.631702 6.474780 33.979904 0.200141 1.379077 0.091438 -0.021203 536271.000000 0 0 1
33.162971 7.881002 7.243680 34.847722 0.233317 1.361403 0.097272 -0.027412 410018.000000 0 0 1
32.374581 7.969602 8.444880 34.393954 0.241369 1.322726 0.119224 -0.025170 684353.000000 0 0 1
32.926611 8.925602 9.330680 35.367919 0.264714 1.303818 0.105818 -0.021277 -95464.400000 0 0 1
32.145961 8.970602 10.656880 35.034320 0.272135 1.261715 0.106991 -0.016070 973803.000000 0 0 1
30.828851 9.576502 10.692580 34.006745 0.301184 1.250945 0.102091 -0.016857 893285.000000 0 0 1
30.115561 9.187102 11.779280 33.616979 0.296094 1.212802 0.081762 -0.018870 338677.000000 0 0 1
28.665931 9.800702 11.895080 32.546617 0.329435 1.196650 0.081957 -0.021299 561882.000000 0 0 1
28.598611 11.172302 12.149780 33.019964 0.372428 1.193990 0.079657 -0.021812 160474.000000 0 0 1
28.683481 12.008002 11.013880 32.988479 0.396470 1.230390 0.097581 -0.029425 179789.000000 0 0 1
27.420461 12.027902 10.081080 31.593991 0.413373 1.246035 0.080411 -0.025873 233298.000000 0 0 1
27.337121 13.135602 9.250880 31.708690 0.447930 1.274745 0.073922 -0.012630 115396.000000 0 0 1
26.294511 12.946702 8.315380 30.465783 0.457527 1.294347 0.061094 -0.007175 74181.700000 0 0 1
25.939811 14.073802 7.288380 30.398457 0.497110 1.328676 0.050455 -0.008228 -105688.000000 0 0 1
25.600711 15.256002 7.962680 30.847144 0.537415 1.309707 0.052901 -0.000123 406482.000000 0 0 1
25.839811 16.381602 7.126080 31.413910 0.565022 1.341960 0.040011 0.006740 -811510.000000 0 0 1
25.608511 17.763502 7.773580 32.121121 0.606456 1.326361 0.065278 -0.001007 659231.000000 0 0 1
24.265811 18.275902 7.837480 31.372986 0.645517 1.318306 0.060666 -0.006198 1057520.000000 0 0 1
23.441511 17.531202 8.778980 30.560072 0.642136 1.279421 0.054355 -0.008896 497159.000000 0 0 1
22.072211 18.288902 9.008280 30.046889 0.691935 1.266306 0.038313 -0.006864 588430.000000 0 0 1
21.309811 18.265002 7.807980 29.132163 0.708611 1.299460 0.030350 -0.004286 -282658.000000 0 0 1
20.186011 19.082302 7.949880 28.893077 0.757299 1.292052 0.023663 -0.006121 -591312.000000 0 0 1
19.621011 19.446902 6.553380 28.392127 0.780942 1.337879 0.018295 -0.005039 360952.000000 0 0 1
20.461511 20.339102 5.772180 29.422280 0.782398 1.373332 0.019034 0.004150 831351.000000 0 0 1
19.741211 20.815602 4.624980 29.058478 0.811883 1.410955 0.012064 -0.003751 97889.500000 0 0 1
18.413163 17.344502 32.382072 41.091056 0.755521 0.663151 0.030214 -0.011786 -403733.000000 0 0 1
17.521063 18.187702 31.732952 40.555645 0.804065 0.672198 0.045148 -0.014277 163793.000000 0 0 1
16.571963 17.432602 30.961642 39.206489 0.810702 0.660465 0.056178 -0.014678 768784.000000 0 0 1
15.987763 18.135202 29.697252 38.293875 0.848248 0.683275 0.065559 -0.017122 434879.000000 0 0 1
17.088263 18.435602 28.844082 38.260439 0.823308 0.716837 0.070567 -0.017771 173595.000000 0 0 1
16.658163 18.926902 27.614792 37.393833 0.849067 0.739975 0.085361 -0.031230 -923900.000000 0 0 1
17.690063 19.115402 26.538432 37.183669 0.824105 0.776013 0.074348 -0.023520 -655101.000000 0 0 1
18.540463 20.226502 26.818732 38.368014 0.828862 0.796817 0.078714 -0.019950 83390.700000 0 0 1
19.509263 20.366402 25.791662 38.217947 0.806890 0.830025 0.059250 -0.020225 -222614.000000 0 0 1
20.451863 21.510502 26.222142 39.605316 0.810621 0.847197 0.062559 -0.019078 -294680.000000 0 0 1
19.902663 22.831702 25.958462 39.890404 0.853832 0.862232 0.083276 -0.023428 257402.000000 0 0 1
20.619663 23.914002 26.484882 41.212849 0.859238 0.872862 0.083825 -0.024944 -304416.000000 0 0 1
19.704463 25.137302 26.437692 41.462047 0.905966 0.879371 0.088410 -0.031259 79166.200000 0 0 1
19.446663 25.472702 25.120982 40.719712 0.918754 0.905968 0.091879 -0.033354 222433.000000 0 0 1
18.296363 26.284802 25.021122 40.641164 0.962705 0.907574 0.086572 -0.033200 -72094.900000 0 0 1
18.284963 27.176202 23.763492 40.467139 0.978539 0.943165 0.068929 -0.035722 219134.000000 0 0 1
19.251563 28.247202 23.703212 41.597708 0.972568 0.964509 0.074115 -0.037318 399900.000000 0 0 1
18.943563 29.197402 22.770872 41.591579 0.995258 0.991437 0.070029 -0.030925 -124728.000000 0 0 1
20.160963 30.100002 22.473272 42.632411 0.980628 1.015564 0.068504 -0.026503 -42878.800000 0 0 1
21.085363 29.484902 21.612272 42.202396 0.949992 1.033157 0.052951 -0.032946 -918093.000000 0 0 1
22.273463 30.191702 21.564572 43.274435 0.935191 1.049135 0.040280 -0.028066 -255846.000000 0 0 1
23.006463 30.258302 20.189772 43.040551 0.920713 1.082539 0.030969 -0.023583 226412.000000 0 0 1
22.327263 31.158902 19.331972 42.931445 0.949042 1.103697 0.035913 -0.023187 270442.000000 0 0 1
22.648663 31.034402 17.960572 42.410826 0.940354 1.133502 0.037670 -0.008245 -102198.000000 0 0 1
21.925163 32.113802 17.130572 42.490770 0.971753 1.155829 0.037274 -0.023691 -390805.000000 0 0 1
22.525563 33.388102 17.320372 43.842463 0.977281 1.164664 0.042947 -0.017043 296553.000000 0 0 1
22.564063 34.259302 16.187572 44.100727 0.988381 1.194951 0.038495 -0.018601 -117960.000000 0 0 1
23.532463 33.869402 15.026772 43.894385 0.963569 1.221391 0.018279 -0.017746 -11289.700000 0 0 1
23.090363 32.752502 14.200472 42.515228 0.956726 1.230243 0.039049 -0.025196 34687.900000 0 0 1
22.051063 33.231002 13.373372 42.064188 0.984941 1.247253 0.023413 -0.029153 -399014.000000 0 0 1
21.581963 32.171102 12.363172 40.664590 0.979904 1.261878 0.028622 -0.025510 -269089.000000 0 0 1
22.521163 31.748802 11.369472 40.551869 0.953820 1.286618 0.047049 -0.043319 74941.200000 0 0 1
22.144863 30.569602 10.674572 39.228076 0.943876 1.295205 0.032450 -0.041327 31608.800000 0 0 1
23.331263 29.999902 9.801872 39.248167 0.909795 1.318384 0.036028 -0.035985 962400.000000 0 0 1
24.446563 29.297102 10.308772 39.524997 0.875408 1.306928 0.045764 -0.028091 674628.000000 0 0 1
25.289763 30.147202 11.116172 40.890037 0.872796 1.295476 0.034322 -0.032346 -139456.000000 0 0 1
26.719263 29.645402 11.442872 41.517564 0.837266 1.291567 0.043470 -0.029315 314088.000000 0 0 1
26.748963 28.527702 12.335672 41.006165 0.817566 1.265239 0.048085 -0.018302 39836.400000 0 0 1
28.053363 28.336602 12.862172 41.897370 0.790421 1.258765 0.041492 0.003187 195420.000000 0 0 1
28.228363 27.031302 13.633372 41.393243 0.763739 1.235168 0.023382 -0.010986 -126918.000000 0 0 1
29.267563 27.063802 14.577272 42.444510 0.746297 1.220216 0.001987 -0.007293 -109096.000000 0 0 1
29.464763 25.831802 15.262672 42.052388 0.719793 1.199371 0.013993 -0.006737 -218369.000000 0 0 1
30.441863 25.960702 16.420672 43.247006 0.706115 1.181330 0.014050 -0.008338 -144516.000000 0 0 1
31.781063 26.235702 16.066472 44.232109 0.690106 1.199063 0.030122 -0.005443 -442757.000000 0 0 1
32.604563 26.356502 17.161872 45.301794 0.679823 1.182260 0.009338 -0.005784 21622.500000 0 0 1
34.070863 26.610702 16.712872 46.349468 0.663072 1.201903 0.032871 -0.021051 140794.000000 0 0 1
34.385863 27.896002 16.251972 47.166737 0.681571 1.219022 0.051931 -0.018035 -468011.000000 0 0 1
35.760063 28.177002 16.270272 48.347153 0.667348 1.227567 0.066663 -0.014604 -257148.000000 0 0 1
-35.681286 29.196002 15.210472 48.548112 -0.685767 1.252123 0.059328 -0.014368 -68777.200000 0 0 1
35.640263 30.521402 15.412672 49.389622 0.708183 1.253433 0.061094 -0.016445 37153.300000 0 0 1
35.603263 31.298302 14.233372 49.495099 0.721139 1.279106 0.039557 0.005169 355488.000000 0 0 1
34.714563 32.572002 14.424272 49.740283 0.753567 1.276578 0.014242 0.003524 -83802.500000 0 0 1
34.355863 33.278102 13.212572 49.621864 0.769464 1.301280 -0.006199 0.007984 237292.000000 0 0 1
33.284963 34.193802 13.310772 49.540705 0.798866 1.298770 -0.014211 0.015448 1224920.000000 0 0 1
31.835663 33.571602 13.154672 48.099971 0.811932 1.293781 0.001839 0.014221 699402.000000 0 0 1
31.597263 32.611702 14.192072 47.574415 0.801196 1.267872 0.005685 -0.007769 268899.000000 0 0 1
30.636863 31.664202 13.668172 46.130878 0.801887 1.269989 0.020795 -0.004740 204517.000000 0 0 1
30.035063 30.778702 14.776272 45.472757 0.797626 1.239840 0.029568 -0.004112 -505912.000000 0 0 1
29.114163 31.366202 15.619372 45.556974 0.822617 1.220843 0.007378 -0.000904 -320473.000000 0 0 1
28.897363 30.544502 16.731372 45.254425 0.813101 1.192091 0.007754 0.002029 -65347.400000 0 0 1
27.884863 31.125802 17.752472 45.404090 0.840264 1.169091 -0.000753 0.007079 -126313.000000 0 0 1
27.796263 30.123302 18.772372 45.082674 0.825554 1.141316 -0.015352 0.009216 -126954.000000 0 0 1
28.691963 30.290302 19.846672 46.201964 0.812490 1.126787 -0.018931 0.005283 -230056.000000 0 0 1
28.599863 29.236902 20.993372 45.972494 0.796412 1.096570 -0.007814 0.003754 -438282.000000 0 0 1
27.427263 29.285102 21.754072 45.641117 0.818145 1.073975 0.004556 -0.007288 -315336.000000 0 0 1
27.304163 28.263402 22.725172 45.395711 0.802659 1.046503 0.000681 -0.004359 -797826.000000 0 0 1
25.980363 28.178002 23.453172 44.933621 0.825954 1.021659 0.015134 -0.012313 -1174620.000000 0 0 1
24.980563 27.518602 22.716972 43.558728 0.833705 1.022159 0.046595 -0.016928 1106960.000000 0 0 1
23.733363 27.432102 23.490172 43.215517 0.857562 0.996125 0.058618 -0.026214 1348980.000000 0 0 1
23.714963 26.273702 24.564522 43.082741 0.836540 0.964083 0.045650 -0.024840 -594921.000000 0 0 1
24.526163 26.492502 25.695082 44.312781 0.823921 0.952243 0.030983 -0.020573 -39155.000000 0 0 1
24.284963 25.474702 26.662382 44.154303 0.809303 0.922479 0.041667 -0.023646 -136037.000000 0 0 1
25.492963 25.209502 27.620382 45.258100 0.779808 0.914375 0.039339 -0.023579 266975.000000 0 0 1
25.909263 26.303602 28.421582 46.593515 0.792951 0.914748 0.029070 -0.019862 244212.000000 0 0 1
26.720363 27.232402 27.733322 47.166923 0.794888 0.942234 0.011761 -0.005720 -864222.000000 0 0 1
26.990663 28.530002 28.529852 48.542861 0.813117 0.942552 -0.000469 -0.011544 -427296.000000 0 0 1
27.616663 28.189302 29.791742 49.445573 0.795659 0.924147 0.003119 -0.004586 390306.000000 0 0 1
28.056963 29.401802 30.416372 50.762336 0.808799 0.928305 0.002869 -0.013761 168157.000000 0 0 1
29.557763 29.724802 30.264542 51.702685 0.788216 0.945476 0.001411 -0.011998 -150113.000000 0 0 1
29.925563 30.092502 28.966042 51.382191 0.788180 0.971893 -0.021337 -0.008500 -672914.000000 0 0 1
31.319763 30.143102 28.894702 52.196148 0.766256 0.984140 0.005791 -0.013010 -104319.000000 0 0 1
31.997263 30.662402 27.576732 52.196588 0.764098 1.014170 -0.011712 -0.008146 -197609.000000 0 0 1
31.736663 32.014802 27.617342 52.866633 0.789761 1.021137 -0.016308 -0.009532 298283.000000 0 0 1
32.105463 32.440202 26.348052 52.700543 0.790584 1.047246 -0.009719 -0.010391 -269902.000000 0 0 1
31.727763 33.892402 25.963192 53.192416 0.818374 1.060885 -0.004392 -0.009836 -261056.000000 0 0 1
32.620763 -34.036784 26.698922 54.179786 -0.806638 1.055510 0.014266 -0.014053 209406.000000 0 0 1
32.416663 -32.659784 26.403402 53.053191 -0.789134 1.049877 0.011139 -0.012883 -127904.000000 0 0 1
33.509163 -31.714384 26.953862 53.433854 -0.757888 1.042070 0.028772 -0.020493 24594.400000 0 0 1
33.367663 -31.606684 28.349852 54.000902 -0.758302 1.018095 0.035725 -0.024129 325496.000000 0 0 1
34.421463 -30.842084 28.911502 54.515559 -0.730608 1.011801 0.041527 -0.028013 -328952.000000 0 0 1
34.186563 -30.404084 30.372462 54.914623 -0.726904 0.984734 0.046008 -0.023678 -294452.000000 0 0 1
34.349563 -31.455484 31.321102 56.127990 -0.741447 0.978786 0.057622 -0.028823 13219.500000 0 0 1
33.243463 -32.311984 31.380982 55.981766 -0.771190 0.975738 0.050463 -0.034657 -744012.000000 0 0 1
33.103963 -33.178784 32.634162 57.111229 -0.786527 0.962568 0.067488 -0.032432 -424151.000000 0 0 1
32.757863 -32.517884 33.829074 57.226712 -0.781722 0.938323 0.060282 -0.037621 124901.000000 0 0 1
33.030263 -33.254084 -33.567600 57.650812 -0.788775 2.192299 0.061374 -0.040197 145067.000000 0 0 1
32.143263 34.238902 -33.316360 57.580132 0.816957 2.187818 0.045191 -0.033412 -21712.200000 0 0 1
32.418863 33.255902 -34.295600 57.733230 0.798143 2.206863 0.055802 -0.031178 650398.000000 0 0 1
31.530363 32.118002 -34.070330 56.449245 0.794630 2.218751 0.053936 -0.023669 766881.000000 0 0 1
31.618063 31.075502 33.403380 55.508328 0.776744 0.925078 0.038071 -0.019490 -99481.100000 0 0 1
32.792463 30.320602 33.496088 55.827165 0.746253 0.927300 0.043897 -0.023338 -432423.000000 0 0 1
32.825463 29.414302 32.429642 54.721055 0.730646 0.936469 0.036016 -0.025258 125778.000000 0 0 1
34.189763 28.711002 32.213332 55.054157 0.698516 0.945767 0.028175 -0.020043 65515.400000 0 0 1
34.485963 27.701802 33.162777 55.285090 0.676736 0.927482 0.020987 -0.013790 -11460.900000 0 0 1
35.873563 27.450802 33.157149 56.034414 0.653165 0.937595 0.014763 -0.012756 156980.000000 0 0 1
-35.575786 26.277702 34.103477 55.849810 -0.636191 0.913943 0.022467 -0.016209 86514.200000 0 0 1
-35.845686 25.058802 33.410361 55.037342 -0.610104 0.918455 0.011710 -0.013040 -62674.900000 0 0 1
-35.897086 23.985302 -34.290550 55.133813 -0.589042 2.242029 0.021965 -0.016668 -7768.210000 0 0 1
35.532063 22.669302 33.722933 53.978337 0.567890 0.895986 0.014147 -0.018964 -160193.000000 0 0 1
-35.252286 22.076602 32.980447 53.083047 -0.559495 0.900397 0.020426 -0.012953 -76578.600000 0 0 1
-35.748786 20.908002 32.337382 52.543568 -0.529212 0.907853 0.020637 -0.010294 -44797.600000 0 0 1
-34.730786 20.171102 31.465702 51.021478 -0.526171 0.906234 0.004659 -0.009537 -88817.900000 0 0 1
-34.242986 20.981502 30.404532 50.371034 -0.549723 0.922773 0.002398 -0.012805 -424415.000000 0 0 1
-33.186286 20.381902 29.715702 48.987493 -0.550771 0.919022 0.009094 -0.011862 -409376.000000 0 0 1
-33.544086 19.418002 28.544672 48.135879 -0.524745 0.936014 0.018191 -0.012512 96242.000000 0 0 1
-34.296486 18.232702 28.946072 48.441258 -0.488623 0.930354 0.008482 -0.007255 495065.000000 0 0 1
-34.571386 17.379102 27.851262 47.675011 -0.465807 0.946915 0.014497 -0.022196 -185987.000000 0 0 1
-35.329586 16.078702 28.239642 48.001892 -0.427092 0.941838 0.024923 -0.022298 -15832.900000 0 0 1
-34.603886 15.046402 28.908142 47.534238 -0.410157 0.917063 0.025615 -0.013171 -41642.600000 0 0 1
-35.427886 13.955102 29.172672 47.967956 -0.375238 0.917043 0.019062 -0.002529 10350.200000 0 0 1
-34.599286 12.765702 29.727832 47.368953 -0.353464 0.892355 0.015839 0.008209 127766.000000 0 0 1
-34.102086 13.017202 31.047292 47.920081 -0.364643 0.865976 0.013836 0.012253 453159.000000 0 0 1
-33.137786 12.072602 31.474662 47.270656 -0.349370 0.842178 0.033184 0.009505 1397930.000000 0 0 1
-31.612286 12.464502 31.311882 46.207514 -0.375577 0.826253 0.027708 0.007193 667481.000000 0 0 1
-31.090786 12.375002 29.972312 44.923459 -0.378805 0.840371 0.038798 -0.002242 468653.000000 0 0 1
-29.694586 12.556602 29.847312 43.935165 -0.400055 0.823921 0.041191 0.002213 1045960.000000 0 0 1
-28.646886 11.441202 30.276952 43.223130 -0.379978 0.794726 0.035350 0.003641 542377.000000 0 0 1
-28.510786 10.369002 29.355182 42.215019 -0.348816 0.801858 0.026643 0.000037 1207000.000000 0 0 1
-27.286786 9.619302 29.687862 41.454418 -0.338923 0.772516 0.028980 -0.008595 1296880.000000 0 0 1
-26.866386 8.589902 28.567022 40.145533 -0.309455 0.779043 0.031220 -0.013812 107393.000000 0 0 1
-27.592486 7.402002 28.450212 40.318104 -0.262091 0.787465 0.039891 -0.017617 -298667.000000 0 0 1
-28.950886 7.557102 28.091702 41.041532 -0.255334 0.816920 0.045743 -0.005705 376719.000000 0 0 1
-29.850886 6.253702 28.226222 41.556032 -0.206511 0.824079 0.047172 -0.007662 174752.000000 0 0 1
-30.202786 5.937302 29.560432 42.676445 -0.194106 0.805620 0.047970 -0.009514 -20985.000000 0 0 1
-30.768386 4.642302 29.622982 42.962374 -0.149749 0.809984 0.048822 -0.008652 -171713.000000 0 0 1
-31.489186 4.517902 30.968272 44.396105 -0.142502 0.798831 0.039528 -0.011630 1516590.000000 0 0 1
-32.681586 5.356902 31.213392 45.508882 -0.162467 0.814991 0.043252 -0.010060 1161800.000000 0 0 1
-33.588686 4.828202 32.115662 46.721805 -0.142767 0.812920 0.045598 -0.014522 948023.000000 0 0 1
-34.998986 5.526702 32.249062 47.911120 -0.156617 0.832401 0.040300 -0.005761 990766.000000 0 0 1
-34.888086 6.864002 32.695967 48.304444 -0.194262 0.827290 0.039843 -0.013900 -103844.000000 0 0 1
35.667263 7.496202 32.739492 48.992050 0.207155 0.838927 0.027458 -0.010246 -163649.000000 0 0 1
35.593963 8.893002 33.361142 49.588118 0.244834 0.832857 0.016464 0.007693 -351436.000000 0 0 1
35.680663 8.941702 -33.872490 50.004093 0.245547 2.315011 0.022913 0.003624 216081.000000 0 0 1
35.430063 10.200402 -33.410770 49.755574 0.280322 2.307025 0.026948 0.004752 -327105.000000 0 0 1
35.379863 10.298602 -31.882970 48.726991 0.283259 2.284077 0.034433 -0.008857 482563.000000 0 0 1
34.134963 9.738502 -31.421370 47.406082 0.277911 2.295366 0.033133 -0.011541 621777.000000 0 0 1
34.090063 9.614302 -30.040340 46.443398 0.274887 2.274199 0.036797 -0.006909 -966651.000000 0 0 1
32.781663 9.020202 -29.647050 45.110409 0.268515 2.287909 0.031123 -0.009390 -1061230.000000 0 0 1
32.850763 7.577902 -29.501090 44.798566 0.226711 2.289657 0.021074 -0.013727 694520.000000 0 0 1
31.555263 7.026902 -29.231910 43.584591 0.219110 2.305940 0.026315 -0.010558 321945.000000 0 0 1
34.931151 5.877802 -19.045020 40.217492 0.166707 2.064114 0.018630 -0.007214 -424136.000000 0 0 1
34.658141 7.088702 -18.425620 39.886588 0.201750 2.050989 0.011715 0.013924 164112.000000 0 0 1
34.982671 8.244602 -19.125920 40.713162 0.231453 2.059829 -0.000664 0.006681 -466270.000000 0 0 1
-35.361190 8.686102 -19.011920 41.076943 -0.240870 2.051989 0.014109 0.006539 -595757.000000 0 0 1
-34.425814 7.866502 -19.569420 40.373020 -0.224649 2.076834 0.020750 -0.002972 -495377.000000 0 0 1
-34.090714 8.297202 -20.845720 40.811327 -0.238744 2.106891 0.011530 -0.000546 -435754.000000 0 0 1
-33.373167 7.271302 -21.783520 40.511256 -0.214526 2.138521 0.010409 0.006899 -31466.000000 0 0 1
-34.168862 6.202002 -22.235220 41.235676 -0.179555 2.140310 0.016067 0.008580 526354.000000 0 0 1
-34.953408 6.477302 -23.422020 42.570967 -0.183234 2.153385 0.018285 0.000484 378525.000000 0 0 1
-34.781003 5.356302 -24.398920 42.821904 -0.152800 2.177030 0.033255 0.002449 785725.000000 0 0 1
-33.504897 5.409402 -25.067820 42.192836 -0.160070 2.206974 0.037523 0.000820 672476.000000 0 0 1
-33.303117 4.154802 -25.643380 42.236749 -0.124116 2.223245 0.056277 -0.004537 -368368.000000 0 0 1
-32.031157 4.186002 -26.486110 41.773577 -0.129949 2.257563 0.072996 -0.009861 -327835.000000 0 0 1
-30.859497 4.464902 -25.750650 40.439336 -0.143688 2.261101 0.063050 -0.005534 -195631.000000 0 0 1
-29.747977 4.048002 -26.531070 40.065274 -0.135246 2.294542 0.069076 -0.004887 -200685.000000 0 0 1
-28.406787 4.421302 -25.910720 38.702182 -0.154404 2.304318 0.052310 0.002930 -370525.000000 0 0 1
-27.975047 5.778202 -25.948200 38.591450 -0.203684 2.308219 0.027829 0.007623 1119170.000000 0 0 1
-26.664077 5.963902 -25.348570 37.270513 -0.220046 2.318728 0.031704 0.016147 1038340.000000 0 0 1
-26.188207 7.400002 -25.350300 37.191665 -0.275390 2.320760 0.020144 0.009721 -111793.000000 0 0 1
-26.980417 8.308602 -24.585820 37.435790 -0.298734 2.287292 0.018324 0.010221 48075.200000 0 0 1
-26.681567 9.714302 -24.898420 37.765130 -0.349165 2.290679 -0.000398 -0.002476 -274489.000000 0 0 1
-25.383837 10.271602 -24.314020 36.619893 -0.384510 2.296894 0.034761 -0.003582 -229580.000000 0 0 1
-25.461557 10.353702 -22.958520 35.813178 -0.386218 2.266679 0.017217 0.003192 -221348.000000 0 0 1
-24.182037 10.582102 -22.452920 34.653794 -0.412496 2.275648 0.060881 -0.001486 -658616.000000 0 0 1
-24.230637 11.021402 -20.999220 33.905196 -0.426883 2.238712 0.079764 -0.013317 -870814.000000 0 0 1
-24.715237 12.300002 -20.589220 34.439062 -0.461781 2.211606 0.061969 -0.011438 1618810.000000 0 0 1
-26.146927 12.543002 -20.677420 35.616631 -0.447286 2.190207 0.061550 0.000816 1226240.000000 0 0 1
-26.968137 11.648602 -19.683220 35.360989 -0.407734 2.161128 0.040915 0.006801 -881301.000000 0 0 1
-26.799567 12.061502 -18.325520 34.634107 -0.422907 2.128357 0.056446 -0.006498 105806.000000 0 0 1
-27.546647 11.286402 -17.413220 34.487982 -0.388857 2.100070 0.030046 -0.003845 -801316.000000 0 0 1
-26.928057 11.091002 -16.037520 33.246544 -0.390702 2.074168 0.047766 -0.005307 126458.000000 0 0 1
-25.962747 10.036402 -16.038420 32.125139 -0.368875 2.093527 0.061696 -0.012131 219519.000000 0 0 1
-24.643137 10.465802 -16.239220 31.313408 -0.401612 2.116012 0.069212 -0.012724 -677151.000000 0 0 1
-23.680237 9.237002 -16.213720 30.148973 -0.371919 2.138606 0.061536 -0.012152 -877218.000000 0 0 1
-22.322337 9.483702 -16.177220 29.153556 -0.401746 2.159035 0.066905 -0.013597 -537543.000000 0 0 1
-21.630837 8.290702 -15.853920 28.070904 -0.366011 2.170964 0.066652 -0.012698 1051910.000000 0 0 1
-20.057637 8.416302 -15.835820 26.905690 -0.397293 2.200082 0.075571 -0.014456 1079250.000000 0 0 1
-19.393637 8.455102 -17.102120 27.204493 -0.411128 2.250613 0.083336 -0.025724 988727.000000 0 0 1
-17.972837 8.402502 -16.904320 26.064938 -0.437320 2.276469 0.061909 -0.020219 144716.000000 0 0 1
-17.201537 9.008202 -18.071620 26.525913 -0.482416 2.320309 0.055672 -0.017656 -420185.000000 0 0 1
-17.067837 8.153902 -19.199420 26.952086 -0.445677 2.363643 0.074768 -0.025188 236915.000000 0 0 1
-16.037937 7.173102 -19.145820 25.985212 -0.420572 2.399117 0.070393 -0.027676 -397597.000000 0 0 1
-15.646837 6.656202 -20.524020 26.652654 -0.402211 2.449724 0.064422 -0.034518 6564.490000 0 0 1
-16.621737 5.869502 -21.197120 27.569025 -0.339453 2.447875 0.056136 -0.029887 538440.000000 0 0 1
-17.740637 6.611202 -21.702420 28.799883 -0.356716 2.424256 0.068882 -0.031245 -16086.900000 0 0 1
-18.903237 5.792802 -22.249020 29.764204 -0.297359 2.415101 0.072064 -0.024493 -366393.000000 0 0 1
-19.425337 4.853502 -21.359620 29.276844 -0.244841 2.388495 0.091521 -0.022333 527903.000000 0 0 1
-20.251537 3.829002 -21.957420 30.115018 -0.186866 2.387830 0.056839 -0.006114 269758.000000 0 0 1
-21.021737 2.977802 -20.905820 29.796545 -0.140717 2.348463 0.070459 -0.004843 18447.400000 0 0 1
-21.643837 1.803502 -21.397020 30.488372 -0.083134 2.348730 0.071946 0.002553 171338.000000 0 0 1
-22.434237 1.199602 -20.407320 30.351158 -0.053421 2.308207 0.065167 0.001746 -121699.000000 0 0 1
-23.068937 -0.117998 -20.938720 31.154772 0.005115 2.307820 0.060432 0.010025 -228590.000000 0 0 1
-22.133937 -1.145298 -21.038820 30.559039 0.051698 2.330166 0.050357 0.000285 -261715.000000 0 0 1
-22.693637 -2.413498 -21.389120 31.278117 0.105953 2.323804 0.066378 -0.010431 -419098.000000 0 0 1
-23.172837 -2.569998 -22.818320 32.623014 0.110454 2.345431 0.070918 -0.020198 -342688.000000 0 0 1
-22.183537 -2.582798 -23.779820 32.622999 0.115907 2.387551 0.051324 -0.016008 -517437.000000 0 0 1
-21.260837 -3.665598 -23.744120 32.081818 0.170732 2.404032 0.038884 -0.024858 212792.000000 0 0 1
-20.191937 -3.450798 -24.849520 32.204363 0.169265 2.452180 0.046986 -0.023652 330842.000000 0 0 1
-20.826337 -3.548798 -26.131970 33.603723 0.168778 2.461717 0.042159 -0.023940 669685.000000 0 0 1
-19.874437 -3.793898 -27.138470 33.850901 0.188624 2.500940 0.041880 -0.027127 298691.000000 0 0 1
-20.698337 -3.929398 -28.441390 35.394548 0.187609 2.504037 0.040320 -0.031481 504505.000000 0 0 1
-21.565037 -5.064698 -28.485250 36.084782 0.230676 2.480624 0.048599 -0.023858 167249.000000 0 0 1
-22.196937 -5.005598 -29.736180 37.443297 0.221798 2.488430 0.026752 -0.020075 -549152.000000 0 0 1
-21.960837 -6.235798 -30.644270 38.213020 0.276669 2.501320 0.029496 -0.017356 664951.000000 0 0 1
-20.617337 -6.314398 -31.159800 37.892999 0.297196 2.536255 0.015946 -0.018975 679386.000000 0 0 1
-20.335537 -7.624198 -31.510850 38.270043 0.358700 2.538141 0.004715 -0.016582 -712552.000000 0 0 1
-18.960437 -7.740498 -32.157610 38.125128 0.387594 2.574517 0.011525 -0.016472 -727943.000000 0 0 1
-18.807037 -7.042698 -33.371750 38.948402 0.358307 2.599866 0.020101 -0.016094 233889.000000 0 0 1
-19.427637 -7.728998 34.212766 40.095933 0.378639 0.548567 0.013051 -0.013602 -537950.000000 0 0 1
-19.175737 -7.016898 32.885423 38.709131 0.350792 0.555661 0.018748 -0.013433 477993.000000 0 0 1
-17.828637 -7.032398 32.422042 37.663029 0.375708 0.533868 0.019671 -0.011855 537116.000000 0 0 1
-17.051837 -5.930598 32.858024 37.491157 0.334712 0.502418 0.019003 -0.010743 891248.000000 0 0 1
-15.738637 -5.750298 31.961202 36.087242 0.350294 0.482872 0.019480 -0.013516 1018310.000000 0 0 1
-15.990037 -5.152998 30.680632 34.979077 0.311754 0.500977 0.016943 -0.008849 448110.000000 0 0 1
-14.779237 -4.976298 29.958022 33.773843 0.324785 0.479949 0.020278 -0.007714 211779.000000 0 0 1
-14.924237 -4.988998 28.443612 32.506338 0.322610 0.505325 0.014441 -0.003261 -51105.400000 0 0 1
-15.924437 -4.071498 28.076982 32.534316 0.250314 0.529626 0.007716 -0.007989 -80000.100000 0 0 1
-16.407837 -4.211698 26.730492 31.646085 0.251263 0.564848 0.015194 -0.008952 10744.400000 0 0 1
-15.386937 -3.937098 25.591792 30.119734 0.250498 0.555440 0.022451 -0.009114 17135.700000 0 0 1
-15.012037 -2.605598 25.463202 29.673642 0.171855 0.539222 0.020778 0.001346 -254317.000000 0 0 1
-14.201437 -2.342898 24.349962 28.285873 0.163503 0.533854 0.019389 0.000367 -141575.000000 0 0 1
-13.950137 -0.802898 24.219012 27.960893 0.057491 0.523301 0.020737 -0.008963 56064.400000 0 0 1
-15.119037 -0.035398 23.995332 28.361285 0.002341 0.562247 0.019658 -0.011759 17431.600000 0 0 1
-14.933837 1.275402 24.390492 28.627648 -0.085197 0.551020 0.012551 -0.003588 -283843.000000 0 0 1
-15.886337 2.299802 23.791062 28.699816 -0.143767 0.593547 0.022541 -0.007720 -808146.000000 0 0 1
-15.394237 2.694402 22.572972 27.455080 -0.173272 0.605569 0.018324 -0.007911 -246348.000000 0 0 1
-16.089137 3.696502 21.907972 27.431436 -0.225832 0.645757 0.018029 -0.001687 -230046.000000 0 0 1
-15.270837 4.398002 20.763672 26.147102 -0.280412 0.653255 0.023792 -0.000924 -131098.000000 0 0 1
-14.366137 5.315802 21.289872 26.227892 -0.354400 0.623694 0.027969 -0.005979 -28579.100000 0 0 1
-13.395337 5.578202 20.272272 24.930231 -0.394588 0.621235 0.031596 -0.008000 212477.000000 0 1 0
-12.320137 6.631702 20.566772 24.874834 -0.493802 0.597383 0.027486 -0.009406 60199.600000 0 1 0
-12.758337 7.949902 20.370672 25.316800 -0.557242 0.635743 0.040422 -0.011921 192392.000000 0 0 1
-11.645637 8.806002 20.509372 25.175402 -0.647434 0.618655 0.040799 -0.013365 29734.900000 0 0 1
-11.941337 10.297302 20.460572 25.831472 -0.711605 0.656589 0.041017 -0.011049 -177622.000000 0 0 1
-12.139737 10.836402 19.147472 25.128201 -0.728733 0.704414 0.039481 -0.010034 131200.000000 0 0 1
-12.815437 12.078002 19.288572 26.118242 -0.755783 0.739939 0.025332 0.000361 -103911.000000 0 0 1
-13.407137 12.535302 17.924572 25.654929 -0.751804 0.797246 0.039408 -0.011376 -159393.000000 0 0 1
-12.487537 13.184502 17.058972 24.915421 -0.812540 0.816638 0.042545 -0.014629 370051.000000 0 1 0
-12.011337 14.486102 17.449572 25.663338 -0.878524 0.823113 0.041776 -0.025467 -703605.000000 0 0 1
-12.997637 15.659002 17.275372 26.694220 -0.878003 0.866946 0.041934 -0.007221 -219957.000000 0 0 1
-13.140437 16.169902 15.945172 26.237098 -0.888391 0.917592 0.033587 -0.020890 252087.000000 0 0 1
-13.642237 15.234202 14.975172 25.346544 -0.840473 0.938725 0.042921 -0.030556 -503064.000000 0 0 1
-14.104437 15.793502 13.655072 25.195850 -0.841833 0.998032 0.029929 -0.031031 256007.000000 0 0 1
-15.126637 16.786302 13.822172 26.488630 -0.837357 1.021819 0.027899 -0.021820 167963.000000 0 0 1
-15.521037 17.322302 12.602372 26.453441 -0.840187 1.074243 0.016741 -0.017399 -554658.000000 0 0 1
-16.707137 18.232802 12.883372 27.884490 -0.829036 1.090518 0.027361 -0.014168 -1483550.000000 0 0 1
-17.875637 17.561902 13.106772 28.279786 -0.776545 1.088892 0.040156 -0.012020 -1294870.000000 0 0 1
-18.940737 18.430002 13.341872 29.604426 -0.771732 1.103279 0.050103 -0.012370 232693.000000 0 0 1
-20.340337 17.786602 13.561872 30.232712 -0.718518 1.105617 0.067532 -0.007094 515423.000000 0 0 1
-20.894237 17.267302 12.379872 29.799163 -0.690641 1.142366 0.062981 -0.006478 343769.000000 0 0 1
-22.188337 16.702702 12.610372 30.501214 -0.645271 1.144569 0.077458 -0.012322 284159.000000 0 0 1
-22.902537 16.145702 11.399972 30.251765 -0.614057 1.184418 0.064253 -0.010512 -61910.100000 0 0 1
-22.189237 15.060202 10.787172 28.905623 -0.596298 1.188356 0.048555 -0.005259 318709.000000 0 0 1
-22.917637 14.502502 9.717472 28.809199 -0.564196 1.226744 0.046474 -0.009992 114131.000000 0 0 1
-22.150037 13.295602 9.088972 27.386248 -0.540605 1.232500 0.061072 -0.012824 -248965.000000 0 0 1
-22.120137 11.961302 9.690372 26.949518 -0.495708 1.202984 0.046148 -0.015580 215948.000000 0 0 1
-23.358937 11.315302 9.956772 27.799520 -0.451098 1.204496 0.053688 -0.011318 365840.000000 0 0 1
-24.066737 10.716602 8.665172 27.733348 -0.418928 1.253030 0.060760 -0.013924 -13613.900000 0 0 1
-24.496137 11.723202 7.806972 28.256734 -0.446360 1.290868 0.066804 -0.012183 -3503.610000 0 0 1
-25.738537 11.427402 7.201772 29.067565 -0.417837 1.320429 0.082516 -0.014946 -97281.100000 0 0 1
-26.282087 12.651002 6.367972 29.855436 -0.448620 1.355851 0.068169 -0.007099 246946.000000 0 0 1
-25.464037 12.875802 5.181972 29.000971 -0.468155 1.391149 0.071766 -0.018146 480935.000000 0 0 1
-24.188337 13.419202 5.329272 28.170051 -0.506506 1.380467 0.069858 -0.023281 -805726.000000 0 0 1
-24.079337 14.949102 5.608672 28.891994 -0.555593 1.375430 0.063529 -0.015539 -426003.000000 0 0 1
-22.750937 15.353102 5.894972 28.072648 -0.593635 1.359232 0.055342 -0.014167 444597.000000 0 0 1
-22.630737 16.718102 6.368272 28.847878 -0.636252 1.348209 0.052820 -0.009506 479607.000000 0 0 1
-21.192537 17.335702 6.512672 28.143651 -0.685626 1.337271 0.039465 -0.005785 766071.000000 0 0 1
-20.702437 17.824702 5.263272 27.821088 -0.710843 1.380466 0.043845 -0.018036 617008.000000 0 0 1
-19.292037 18.014102 5.264972 26.914875 -0.751156 1.373911 0.035495 -0.018259 164279.000000 0 0 1
-18.839437 18.934902 4.179572 27.035601 -0.787925 1.415579 0.047311 -0.021407 -633216.000000 0 0 1
-17.456637 19.183602 4.168972 26.270232 -0.832496 1.411427 0.026437 -0.024150 -19016.900000 0 0 1
-17.025637 20.196402 3.272172 26.617177 -0.870378 1.447550 0.041458 -0.024724 135222.000000 0 0 1
-17.339037 21.693202 3.661672 28.011517 -0.896492 1.439701 0.035378 -0.026180 -47667.500000 0 0 1
-16.608937 22.121802 4.794772 28.075269 -0.926787 1.399172 0.025844 -0.024629 74761.400000 0 0 1
-17.156237 23.329702 5.227972 29.426912 -0.936717 1.392189 0.018902 -0.024273 -853970.000000 0 0 1
-16.569737 24.020202 6.441572 29.883443 -0.966932 1.353535 -0.004720 -0.009428 -433545.000000 0 0 1
-16.845337 23.265102 7.574672 29.705320 -0.944104 1.312955 -0.002268 -0.000689 582106.000000 0 0 1
-15.964637 23.638402 8.626772 29.800417 -0.976793 1.277108 -0.000158 -0.012181 283753.000000 0 0 1
-16.478237 23.001702 9.967172 29.999252 -0.949153 1.232111 -0.000563 -0.001411 -414383.000000 0 0 1
-17.616037 23.614002 10.454572 31.260901 -0.929860 1.229796 0.005606 -0.009833 -828580.000000 0 0 1
-18.467437 22.709902 11.130572 31.315739 -0.888065 1.207422 0.015752 -0.010016 265844.000000 0 0 1
-19.709537 23.431102 11.724272 32.786292 -0.871451 1.205103 0.031600 -0.015400 -125318.000000 0 0 1
-20.658137 23.982702 10.839572 33.457808 -0.859735 1.240866 0.050524 -0.001733 262672.000000 0 0 1
-20.275537 25.191802 10.180772 33.902395 -0.893107 1.265793 0.017605 -0.006462 -835140.000000 0 0 1
-21.503837 25.978002 9.770172 35.110224 -0.879350 1.288802 0.029331 -0.011392 -298405.000000 0 0 1
-22.243937 26.449102 10.888872 36.234173 -0.871545 1.265565 0.051162 -0.025123 -353325.000000 0 0 1
-23.446737 27.027902 10.486072 37.285583 -0.856229 1.285714 0.049811 -0.013582 -320944.000000 0 0 1
-24.307737 27.404102 11.753172 38.470611 -0.845204 1.260322 0.051469 -0.030652 -74363.500000 0 0 1
-23.838037 28.477102 12.571472 39.207643 -0.873842 1.244393 0.038261 -0.017153 378729.000000 0 0 1
-24.839737 28.889002 13.477872 40.413364 -0.860621 1.230782 0.033114 -0.010929 137735.000000 0 0 1
8.728963 -32.851684 28.372312 44.276585 -1.311089 0.875260 0.028247 -0.017186 69057.400000 0 0 1
10.108863 -33.040884 28.132392 44.556936 -1.273890 0.887464 0.011755 -0.018571 220430.000000 0 0 1
10.326763 -32.838384 26.732482 43.584711 -1.266116 0.910507 0.017852 -0.012838 -1573740.000000 0 0 1
11.727663 -32.965184 26.282782 43.761010 -1.229000 0.926547 -0.004603 -0.002258 -1426430.000000 0 0 1
12.238763 -34.302784 26.276812 44.910345 -1.228089 0.945799 0.000742 -0.022604 -30880.500000 0 0 1
13.631663 -34.241984 26.069942 45.143964 -1.191931 0.955152 0.010838 -0.017416 42783.100000 0 0 1
14.372663 33.127902 25.846982 44.408307 1.161450 0.949573 0.030843 -0.017400 60880.800000 0 0 1
14.278763 32.609002 24.500072 43.214391 1.158069 0.968007 0.026053 -0.021690 712676.000000 0 0 1
15.287763 31.604802 24.247702 42.667672 1.120260 0.966368 0.029022 -0.024486 3238.600000 0 0 1
15.471063 31.170702 22.726672 41.562820 1.110086 0.992255 0.035442 -0.030279 268022.000000 0 0 1
14.453463 30.294002 22.183272 40.233402 1.125631 0.986797 0.032981 -0.018869 202014.000000 0 0 1
14.624663 28.909202 22.377672 39.374902 1.102454 0.966330 0.038599 -0.019696 -99836.400000 0 0 1
14.309063 28.316902 23.778132 39.648402 1.102903 0.927639 0.039549 -0.024594 -29882.400000 0 0 1
15.221463 28.735402 24.773412 40.879557 1.083663 0.919762 0.053172 -0.027772 147135.000000 0 0 1
14.857863 28.153702 26.031952 41.122372 1.085203 0.885327 0.047587 -0.024689 -193894.000000 0 0 1
15.719463 28.589702 27.216162 42.487551 1.068084 0.875559 0.059747 -0.034814 -150110.000000 0 0 1
15.699863 29.958602 27.529562 43.610552 1.088093 0.887621 0.047413 -0.030495 4161.450000 0 0 1
16.062663 30.275302 28.863872 44.807657 1.083006 0.870855 0.053293 -0.035585 -193303.000000 0 0 1
15.897663 31.725902 29.364442 46.060167 1.106274 0.879517 0.058923 -0.039620 128144.000000 0 0 1
16.759763 32.640402 28.683332 46.572728 1.096433 0.907291 0.045906 -0.033003 178601.000000 0 0 1
16.547963 33.972102 29.162822 47.732682 1.117518 0.913522 0.043145 -0.018055 135596.000000 0 0 1
17.193463 -33.599484 28.329892 47.192406 -1.097818 0.926912 0.035713 -0.021535 -404789.000000 0 0 1
16.814763 -33.606284 26.982362 46.261932 -1.106872 0.948070 0.042871 -0.017969 -210691.000000 0 0 1
16.877563 -32.362284 26.294522 44.984124 -1.090082 0.946497 0.031406 -0.016872 1155480.000000 0 0 1
18.328063 -31.717984 26.053362 44.952486 -1.046827 0.952589 0.042748 -0.008743 1767620.000000 0 0 1
18.993663 -31.177284 27.215932 45.535581 -1.023629 0.930186 0.035958 -0.005815 629430.000000 0 0 1
20.086763 -30.293384 26.918922 45.230471 -0.985285 0.933344 0.038254 -0.000883 459554.000000 0 0 1
20.355363 -29.396784 28.121332 45.489790 -0.965166 0.904358 0.025745 -0.003014 -172904.000000 0 0 1
19.339863 -28.469084 28.445142 44.650253 -0.974079 0.880111 0.038961 -0.012566 16534.600000 0 0 1
19.690363 -27.608384 29.497812 44.945012 -0.951265 0.854880 0.046155 -0.008836 -219631.000000 0 0 1
18.437663 -26.978084 30.112542 44.435679 -0.971277 0.826212 0.038937 -0.010104 183217.000000 0 0 1
17.729563 -26.062784 29.252512 43.003669 -0.973439 0.822716 0.045237 -0.010523 301483.000000 0 0 1
16.389063 -25.949784 29.684262 42.698338 -1.007488 0.802086 0.032674 -0.007607 -17827.700000 0 0 1
15.548463 -25.089584 28.676532 41.153194 -1.016004 0.799837 0.025460 -0.013751 -740050.000000 0 0 1
15.186463 -25.776284 27.519922 40.649619 -1.038382 0.827113 0.021162 -0.012281 250786.000000 0 0 1
14.514163 -24.987584 26.529752 39.228408 -1.044573 0.828083 0.013582 -0.010577 163915.000000 0 0 1
13.028463 -24.635684 26.898582 38.732305 -1.084340 0.803108 0.000011 -0.008092 512153.000000 0 0 1
12.160763 -25.723684 27.311162 39.439721 -1.129189 0.805877 0.006003 -0.002730 592884.000000 0 0 1
11.830063 -26.536484 26.188252 39.114701 -1.151438 0.837228 -0.003687 0.000652 -898496.000000 0 0 1
11.114763 -27.858284 26.433612 39.979467 -1.191174 0.848406 -0.000949 -0.004553 -190586.000000 0 0 1
9.763063 -27.787284 26.823672 39.836665 -1.232919 0.832077 -0.001194 -0.006999 -358610.000000 0 0 1
9.270163 -29.062184 27.078762 40.789775 -1.262022 0.844826 0.011192 -0.011180 671257.000000 0 0 1
7.734663 -28.977184 27.439182 40.649857 -1.309955 0.829814 0.007581 -0.003059 1439740.000000 0 0 1
6.783563 -28.634484 26.398032 39.532347 -1.338183 0.839604 0.012114 -0.002929 677003.000000 0 0 1
6.812763 -27.320884 25.903312 38.259979 -1.326419 0.827071 0.033088 -0.010793 -808425.000000 0 0 1
5.563763 -27.066384 25.029862 37.283221 -1.368060 0.834776 0.029529 -0.014261 -740577.000000 0 0 1
5.420063 -27.761884 23.816592 36.977416 -1.377988 0.870970 0.021040 -0.006321 -387700.000000 0 0 1
4.867263 -29.041284 23.935702 37.947387 -1.404742 0.888264 0.022413 -0.000208 -621562.000000 0 0 1
3.355763 -29.003584 24.236662 37.945814 -1.455607 0.877966 0.048504 -0.007729 -1324370.000000 0 0 1
2.646863 -28.635484 23.088672 36.879311 -1.478625 0.894306 0.050362 -0.004416 -107451.000000 0 0 1
1.301863 -28.274184 23.345972 36.690035 -1.524785 0.881100 0.063939 -0.014014 269675.000000 0 0 1
1.057363 -26.826084 23.810032 35.884180 -1.531401 0.845276 0.068104 -0.018937 -297201.000000 0 0 1
1.464563 -26.606784 25.178502 36.660917 -1.515807 0.813727 0.062020 -0.020442 82385.800000 0 0 1
1.372063 -25.217484 25.469822 35.868034 -1.516441 0.781159 0.069811 -0.021472 592329.000000 0 0 1
2.649963 -24.661684 26.202502 36.080355 -1.463754 0.757980 0.071175 -0.019672 797122.000000 0 0 1
3.767663 -24.295984 25.392082 35.344701 -1.416948 0.769279 0.054596 -0.012224 712877.000000 0 0 1
4.824863 -23.622984 26.101592 35.533333 -1.369323 0.745769 0.055080 -0.014541 628575.000000 0 0 1
4.613963 -22.091784 26.539262 34.837738 -1.364902 0.704715 0.053933 -0.006295 -422006.000000 0 0 1
4.436063 -21.184284 25.471052 33.424946 -1.364376 0.704343 0.050170 -0.000198 117193.000000 0 0 1
3.934563 -19.954384 25.931232 32.955834 -1.376116 0.665111 0.067493 -0.016316 -283474.000000 0 0 1
3.654063 -19.005284 24.746332 31.415504 -1.380849 0.663712 0.065731 -0.013014 964553.000000 0 0 1
4.809563 -18.219084 24.346922 30.787002 -1.312699 0.658652 0.062624 -0.005479 661166.000000 0 0 1
4.707163 -17.847784 22.932172 29.437820 -1.312929 0.677721 0.070469 -0.001309 -624704.000000 0 0 1
5.995063 -17.177084 22.538872 28.965388 -1.234999 0.679111 0.064811 -0.002541 -817165.000000 0 0 1
7.133563 -17.971084 22.703872 29.821357 -1.192925 0.705436 0.056501 -0.004844 -784092.000000 0 0 1
8.258663 -17.228784 22.310772 29.373577 -1.123803 0.708172 0.032229 -0.001000 -606828.000000 0 0 1
9.533563 -17.607384 23.033972 30.520036 -1.074539 0.715575 0.038080 0.001933 -566516.000000 0 0 1
9.556363 -17.115884 24.335052 31.248556 -1.061578 0.678113 0.048028 -0.006201 289378.000000 0 0 1
10.806463 -17.282084 25.000732 32.256575 -1.011982 0.683989 0.041129 0.003885 384528.000000 0 0 1
10.895163 -16.417084 26.248292 32.820695 -0.984887 0.643921 0.052334 -0.004525 -113272.000000 0 0 1
10.870363 -14.991984 26.013862 31.931886 -0.943437 0.618641 0.066544 -0.004453 187787.000000 0 0 1
10.834763 -14.218584 27.180192 32.531877 -0.919650 0.581765 0.054831 -0.011850 -158755.000000 0 0 1
11.034163 -12.687884 27.081092 31.876648 -0.854998 0.555648 0.048599 -0.003925 -105704.000000 0 0 1
10.031263 -12.089384 26.303792 30.637704 -0.878172 0.538375 0.053091 -0.004577 -76054.200000 0 0 1
10.442163 -10.794984 25.959712 29.991283 -0.802010 0.524498 0.046318 0.006026 -366273.000000 0 0 1
9.432563 -10.041984 25.116852 28.647354 -0.816681 0.501713 0.042111 0.002795 -850212.000000 0 0 1
8.325463 -9.661284 25.868112 28.841167 -0.859529 0.458051 0.043585 -0.005018 -419314.000000 0 0 1
7.249663 -9.411284 24.974472 27.655996 -0.914419 0.444001 0.052555 -0.000458 275810.000000 0 0 1
5.817663 -9.289784 25.539252 27.792061 -1.011304 0.405411 0.043315 -0.004910 -286365.000000 0 0 1
5.497663 -8.064684 26.156622 27.918314 -0.972461 0.357146 0.052796 -0.005918 262409.000000 0 0 1
4.202963 -7.939284 26.733542 28.202471 -1.083916 0.324172 0.046304 -0.005346 1211540.000000 0 0 1
2.936363 -7.920184 25.805812 27.153111 -1.215762 0.316337 0.037088 -0.004119 294739.000000 0 0 1
2.795363 -6.716584 25.147732 26.178903 -1.176413 0.281605 0.052383 -0.009496 -111754.000000 0 0 1
1.675063 -6.673384 24.279222 25.235302 -1.324871 0.276146 0.054435 -0.018227 323226.000000 0 0 1
1.449363 -5.358384 23.493472 24.140343 -1.306632 0.232021 0.042521 -0.022460 -129836.000000 0 1 0
1.320863 -4.229384 24.361732 24.761388 -1.268088 0.179911 0.048504 -0.010028 21886.200000 0 1 0
1.680563 -2.979784 23.708232 23.953782 -1.057277 0.143308 0.043949 -0.009406 -646620.000000 0 1 0
0.764163 -2.443784 22.539372 22.684340 -1.267732 0.113115 0.027599 -0.020747 504038.000000 0 1 0
-0.342537 -1.671784 22.968372 23.031680 1.368700 0.074162 0.025829 -0.018872 -772978.000000 0 1 0
-1.398137 -2.371784 23.495672 23.656431 1.038142 0.116647 0.034778 -0.018253 -1709700.000000 0 1 0
-2.381937 -1.404784 24.112532 24.270584 0.532860 0.114185 0.029400 -0.016691 -318610.000000 0 1 0
-1.864937 -0.795784 25.329022 25.410049 0.403316 0.079881 0.038158 -0.018234 560099.000000 0 0 1
-2.622137 0.380216 25.678102 25.814435 -0.143999 0.102820 0.035774 -0.015034 -72511.300000 0 0 1
-1.872337 1.276216 26.716072 26.811991 -0.598281 0.084612 0.058087 -0.019792 -42311.200000 0 0 1
-1.796837 0.786216 28.068802 28.137242 -0.412457 0.069762 0.060738 -0.017661 150887.000000 0 0 1
-1.071037 -0.429784 28.306992 28.330507 0.381607 0.040747 0.068493 -0.021062 68898.700000 0 0 1
0.386363 -0.153784 28.823172 28.826171 -0.378806 0.014426 0.075353 -0.022905 628267.000000 0 0 1
1.319763 0.383216 27.870802 27.904663 0.282597 0.049269 0.072376 -0.022992 324681.000000 0 0 1
1.745263 -0.531784 26.842102 26.904036 -0.295764 0.067867 0.061537 -0.023884 -205333.000000 0 0 1
2.922363 -1.437784 27.312982 27.506479 -0.457222 0.118683 0.068464 -0.026713 -349158.000000 0 0 1
2.589263 -2.606784 28.179462 28.417981 -0.788770 0.129654 0.080563 -0.024865 215533.000000 0 0 1
3.714663 -3.381784 28.600852 29.038662 -0.738525 0.173867 0.064836 -0.011138 460915.000000 0 0 1
4.420863 -4.172684 27.502702 28.166539 -0.756527 0.217538 0.070308 -0.015262 449735.000000 0 0 1
5.326463 -3.476784 26.613582 27.363150 -0.578297 0.234603 0.060903 -0.013961 273405.000000 0 0 1
5.746563 -4.234584 25.504622 26.484720 -0.635058 0.272898 0.056850 -0.013808 -1255820.000000 0 0 1
6.989263 -3.694784 24.827182 26.055521 -0.486294 0.308280 0.065357 -0.014928 -203136.000000 0 0 1
8.177163 -3.763784 25.641112 27.175332 -0.431370 0.337626 0.063715 -0.013015 368754.000000 0 0 1
8.772963 -5.013384 25.800552 27.708615 -0.519169 0.373274 0.040757 -0.008137 -416852.000000 0 0 1
9.540363 -5.620884 24.573592 26.953186 -0.532417 0.423360 0.027957 -0.013264 -184227.000000 0 0 1
8.652363 -6.008284 23.536672 25.786387 -0.606964 0.420817 0.032283 -0.010334 -45879.700000 0 0 1
9.249763 -6.012284 22.259472 24.843304 -0.576371 0.460130 0.036614 -0.013971 -79416.200000 0 1 0
9.240063 -4.578984 21.588872 23.925410 -0.460087 0.445627 0.038201 -0.021959 365802.000000 0 1 0
7.955263 -4.027584 21.341172 23.129056 -0.468658 0.395771 0.039566 -0.022609 50094.700000 0 1 0
8.070863 -2.911784 20.483172 22.207603 -0.346243 0.396678 0.039030 -0.024767 1188860.000000 0 1 0
6.693863 -2.136784 20.371872 21.549636 -0.308991 0.332141 0.037096 -0.018801 1048890.000000 0 1 0
6.414863 -1.331784 21.460172 22.437983 -0.204701 0.296306 0.041925 -0.022505 715447.000000 0 1 0
5.036263 -0.922784 21.356372 21.961559 -0.181218 0.235305 0.036497 -0.014691 630850.000000 0 1 0
4.480263 -0.273784 22.596072 23.037582 -0.061033 0.196093 0.038351 -0.022913 -581176.000000 0 1 0
3.232963 0.307216 22.341672 22.576464 0.094742 0.144346 0.037736 -0.026412 -538640.000000 0 1 0
2.708463 0.790216 23.550172 23.718575 0.283879 0.119235 0.044718 -0.023712 135922.000000 0 1 0
1.259363 1.347216 23.478872 23.551187 0.819090 0.078385 0.046340 -0.025504 247527.000000 0 1 0
1.070963 2.637216 22.930772 23.106756 1.185046 0.123498 0.042483 -0.024547 -1077440.000000 0 1 0
-0.284637 2.835216 22.823972 23.001156 -1.470738 0.124203 0.027836 -0.023383 -949538.000000 0 1 0
-0.628837 4.260216 22.321472 22.733081 -1.424248 0.190584 0.018837 -0.014644 -204364.000000 0 1 0
-0.373237 5.235216 23.283172 23.867402 -1.499623 0.221715 0.035130 -0.010612 -593755.000000 0 1 0
-1.346837 6.219216 23.271272 24.125603 -1.357529 0.266919 0.029530 -0.008981 -534245.000000 0 1 0
-1.118737 7.494216 24.140882 25.302115 -1.422610 0.304139 0.038856 -0.007024 -555223.000000 0 0 1
-0.082537 8.317216 23.759752 25.173572 -1.560873 0.336739 0.026651 -0.002759 -598231.000000 0 0 1
-0.208937 9.530216 24.334212 26.134700 -1.548876 0.373359 0.025517 0.000303 -1068450.000000 0 0 1
0.470363 10.646216 23.551672 25.850424 1.526644 0.424912 0.018768 -0.008973 1259830.000000 0 0 1
1.923163 10.567216 23.535172 25.870232 1.390773 0.428140 0.018816 -0.007929 1520060.000000 0 0 1
2.591063 10.806216 24.794712 27.171044 1.335464 0.421340 0.028450 -0.010660 -451639.000000 0 0 1
3.927063 11.584216 24.667582 27.533715 1.243953 0.460333 0.025298 -0.016197 654778.000000 0 0 1
5.175963 10.989216 24.360372 27.220969 1.130614 0.462562 0.025656 -0.009199 319258.000000 0 0 1
5.240463 10.304216 23.146072 25.872378 1.100313 0.463206 0.021678 -0.010387 -1050550.000000 0 0 1
6.670963 10.012216 22.697772 25.689201 0.983060 0.487401 0.019510 -0.004370 -44310.400000 0 0 1
7.344263 11.233216 22.273272 26.004268 0.991755 0.542300 0.024298 -0.004558 396465.000000 0 0 1
8.586263 10.851216 21.682472 25.721633 0.901400 0.568023 0.024427 -0.000297 294022.000000 0 0 1
9.228763 12.115216 21.018072 25.955883 0.919818 0.627051 0.024490 -0.019300 -644741.000000 0 0 1
8.636363 12.590216 19.820772 25.019259 0.969557 0.656357 0.025551 -0.011925 52628.300000 0 0 1
9.416763 13.491216 19.069172 25.185743 0.961419 0.711870 0.041003 -0.013000 -289092.000000 0 0 1
10.733163 12.971216 18.475372 24.995852 0.879534 0.739007 0.040797 -0.018654 -84467.600000 0 1 0
11.775963 12.829216 19.425672 26.088672 0.828178 0.730858 0.037425 -0.023259 -262779.000000 0 0 1
12.983363 12.375216 18.871172 26.035261 0.761421 0.760007 0.029924 -0.023756 179457.000000 0 0 1
14.035163 12.067216 19.989272 27.242879 0.710147 0.746982 0.043968 -0.015434 61662.900000 0 0 1
14.665263 13.249216 20.442372 28.434173 0.734714 0.768525 0.046275 -0.016648 -658548.000000 0 0 1
15.722563 12.875216 21.247672 29.401254 0.686160 0.763126 0.048361 -0.013221 -847941.000000 0 0 1
16.545563 14.049216 21.765672 30.738910 0.703985 0.784018 0.047648 -0.006939 -606320.000000 0 0 1
16.017763 14.900216 22.734972 31.550976 0.749268 0.766159 0.057948 -0.011941 -236029.000000 0 0 1
16.981363 15.813216 23.160372 32.784559 0.749793 0.786339 0.052499 -0.007894 -397828.000000 0 0 1
-20.948237 12.640902 -25.146330 35.085025 -0.542941 2.369892 0.044846 -0.005085 243619.000000 0 0 1
-20.627237 12.519502 -26.540230 35.869272 -0.545507 2.403741 0.045622 -0.018330 527247.000000 0 0 1
-21.596437 13.263502 -27.300170 37.250851 -0.550761 2.393333 0.035916 -0.016832 403801.000000 0 0 1
-21.175337 13.359202 -28.771050 38.139698 -0.562820 2.425475 0.040462 -0.016487 705342.000000 0 0 1
-19.986737 14.146502 -28.945610 37.913606 -0.615938 2.439453 0.050104 -0.013207 243809.000000 0 0 1
-19.825837 14.315202 -30.334960 38.964069 -0.625370 2.463127 0.052189 -0.026077 723647.000000 0 0 1
-18.385437 14.838902 -30.674090 38.718434 -0.679056 2.485259 0.050648 -0.025962 1049840.000000 0 0 1
-17.392337 13.802602 -30.814270 37.980580 -0.670828 2.517197 0.049658 -0.028370 263990.000000 0 0 1
-16.071537 14.289902 -30.965060 37.700538 -0.726785 2.534557 0.036530 -0.014333 657850.000000 0 0 1
-15.241037 14.062002 -29.665600 36.194985 -0.745184 2.531518 0.052097 -0.008874 247116.000000 0 0 1
-15.958137 14.531202 -28.463930 35.721329 -0.738631 2.492831 0.052121 -0.008543 352600.000000 0 0 1
-16.521437 13.424102 -27.758740 34.981596 -0.682332 2.487375 0.069004 -0.004526 -127621.000000 0 0 1
-17.256637 13.824302 -26.467780 34.488350 -0.675412 2.445637 0.063778 -0.015302 -146209.000000 0 0 1
-16.434737 14.356002 -25.427770 33.507714 -0.717989 2.432362 0.075629 -0.014935 85244.900000 0 0 1
-17.081937 14.489002 -24.176720 32.958118 -0.703452 2.394340 0.060288 -0.012574 -188419.000000 0 0 1
-16.141037 15.009902 -23.078820 31.913354 -0.749103 2.379179 0.062328 -0.008780 83000.200000 0 0 1
-15.670237 16.294702 -23.450320 32.572860 -0.804932 2.374504 0.048265 -0.011379 -546620.000000 0 0 1
-14.824737 16.957702 -22.591120 31.901336 -0.852409 2.357679 0.047713 -0.011682 -786819.000000 0 0 1
-14.713837 18.426302 -23.041420 32.968662 -0.896956 2.344639 0.046719 -0.009000 633961.000000 0 0 1
-15.861237 19.283002 -22.974120 33.929681 -0.882456 2.314624 0.024004 -0.004659 802761.000000 0 0 1
-16.955637 18.990302 -23.849320 34.884313 -0.841941 2.323575 0.012690 -0.002982 272232.000000 0 0 1
-18.126137 20.001302 -23.761220 35.961153 -0.834540 2.292610 0.011131 -0.010931 57494.700000 0 0 1
-17.805237 21.350902 -24.074320 36.775813 -0.875704 2.284481 0.011009 -0.007870 -39110.200000 0 0 1
-18.984737 22.125702 -24.066820 37.804481 -0.861653 2.260895 0.027129 -0.023158 92729.100000 0 0 1
-18.688737 23.595602 -24.438420 38.771868 -0.900926 2.252753 0.023515 -0.020796 -56105.500000 0 0 1
-18.000737 24.174002 -23.367820 38.137435 -0.930740 2.230302 0.027679 -0.013043 -536575.000000 0 0 1
-17.240337 25.277302 -23.826820 38.780003 -0.972220 2.232434 0.029828 -0.009404 -232380.000000 0 0 1
-16.116737 25.657002 -22.819520 37.931009 -1.009927 2.216306 0.025663 -0.014674 -266777.000000 0 0 1
-15.089337 24.724902 -22.631720 36.758722 -1.022846 2.234049 0.042750 -0.024950 -222207.000000 0 0 1
-15.454037 23.438702 -22.121720 35.743119 -0.987884 2.238149 0.035753 -0.005844 -1200860.000000 0 0 1
-14.229837 22.515402 -21.989620 34.539470 -1.007176 2.260945 0.062521 -0.004731 104649.000000 0 0 1
-13.637837 22.763302 -20.731020 33.673932 -1.031028 2.233994 0.067649 -0.007795 713346.000000 0 0 1
-12.562537 21.854302 -20.337520 32.388927 -1.049089 2.249669 0.060321 -0.004498 1131920.000000 0 0 1
-11.882837 22.248102 -18.958620 31.553275 -1.080238 2.215354 0.058621 -0.007208 393433.000000 0 0 1
-12.641037 21.940102 -17.784720 30.942853 -1.048090 2.183107 0.064511 -0.007269 -34596.700000 0 0 1
-13.573037 22.941902 -17.470520 31.871261 -1.036557 2.150958 0.059199 -0.013854 -308951.000000 0 0 1
-14.145037 22.894502 -16.031020 31.324653 -1.017366 2.108040 0.071026 -0.015025 26657.100000 0 0 1
-13.312837 23.419102 -15.024420 30.845084 -1.053890 2.079554 0.075889 -0.028574 -106969.000000 0 0 1
-13.987737 23.462002 -13.790420 30.598987 -1.033185 2.038326 0.075590 -0.021847 173673.000000 0 0 1
-13.026637 23.934402 -12.666020 30.049575 -1.072367 2.005900 0.083465 -0.020739 130323.000000 0 0 1
-12.608137 25.297202 -12.794020 31.025804 -1.108429 1.995847 0.083950 -0.023652 391233.000000 0 0 1
-11.656337 25.617302 -11.784720 30.512227 -1.143777 1.967337 0.065383 -0.017193 193714.000000 0 0 1
-11.191637 27.094602 -11.825920 31.610482 -1.179084 1.954237 0.088067 -0.017416 -240843.000000 0 0 1
-10.345237 27.315402 -12.895520 31.928820 -1.208757 1.986554 0.090331 -0.023541 -360524.000000 0 0 1
-10.591037 28.598602 -13.447020 33.329753 -1.216123 1.986085 0.074582 -0.008511 -820204.000000 0 0 1
-9.867137 28.784602 -14.822820 33.847152 -1.240557 2.024096 0.101235 -0.028318 862189.000000 0 0 1
-8.460837 28.997302 -14.912520 33.686979 -1.286898 2.029381 0.065986 -0.025906 185783.000000 0 0 1
-7.718737 27.936702 -14.372020 32.351093 -1.301228 2.031135 0.066988 -0.023539 -166669.000000 0 0 1
-6.264737 27.798202 -14.985420 32.195493 -1.349135 2.054940 0.053363 -0.020073 1337640.000000 0 0 1
-5.440737 28.885102 -14.582020 32.811371 -1.384620 2.031323 0.034257 -0.016552 -767337.000000 0 0 1
-4.110737 28.628302 -14.937720 32.551702 -1.428181 2.047544 0.042225 -0.021572 -213902.000000 0 0 1
-3.084937 29.637802 -14.363220 33.078970 -1.467082 2.019957 0.007946 -0.020501 -201729.000000 0 0 1
-3.166437 31.058602 -14.613920 34.470708 -1.469197 2.008601 0.002792 -0.014283 123134.000000 0 0 1
-4.178837 31.749002 -13.875320 34.899661 -1.439928 1.979672 -0.005921 -0.013427 403449.000000 0 0 1
-4.206137 33.282802 -14.162720 36.414546 -1.445087 1.970267 0.004934 -0.010369 94308.900000 0 0 1
-3.233537 33.991202 -13.465720 36.703994 -1.475953 1.946442 -0.030529 -0.005611 -125596.000000 0 0 1
-3.602237 -33.381884 -13.696220 36.261725 1.463302 1.958112 -0.015905 -0.004483 356379.000000 0 0 1
-2.863437 -32.324684 -12.843920 34.900584 1.482443 1.947669 -0.009889 0.001221 -127876.000000 0 0 1
-3.281637 -32.217184 -11.475320 34.356936 1.469287 1.911344 -0.008106 -0.000714 -187588.000000 0 0 1
-2.259937 -31.720284 -10.668320 33.542462 1.499671 1.894473 -0.017914 0.002884 -515949.000000 0 0 1
-2.536737 -31.834484 -9.159420 33.222949 1.491279 1.850110 -0.020459 -0.000100 -91498.500000 0 0 1
-1.575337 -31.134584 -8.400420 32.286391 1.520242 1.834010 -0.008797 -0.006109 -100140.000000 0 0 1
-1.843937 -31.361784 -7.043520 32.195850 1.512068 1.791351 -0.019254 -0.009840 -626542.000000 0 0 1
-0.828937 -30.827884 -6.094720 31.435508 1.543914 1.765912 0.006382 -0.014527 -653867.000000 0 0 1
-1.142137 -30.975584 -4.721320 31.354140 1.533941 1.721952 0.014465 -0.017075 470030.000000 0 0 1
-0.092237 -30.332084 -3.972520 30.591252 1.567755 1.701022 0.027948 -0.019901 605169.000000 0 0 1
-0.126237 -30.446084 -2.436220 30.543659 1.566650 1.650643 0.034917 -0.014576 -315412.000000 0 0 1
-0.139437 -31.785284 -1.818220 31.837551 1.566409 1.627937 0.032340 -0.015774 878146.000000 0 0 1
0.954163 -32.665084 -2.199620 32.752961 -1.541594 1.638005 0.026115 -0.018727 576196.000000 0 0 1
2.384263 -32.371484 -1.739620 32.505752 -1.497276 1.624339 0.050920 -0.022099 -1093000.000000 0 0 1
2.527563 -32.615684 -0.325320 32.715092 -1.493456 1.580741 0.047837 -0.021753 639043.000000 0 0 1
3.890363 -32.444984 0.098180 32.677538 -1.451460 1.567792 0.060772 -0.020213 854846.000000 0 0 1
4.363763 -30.986284 0.279980 31.293299 -1.430888 1.561849 0.050798 -0.025114 -540945.000000 0 0 1
4.657863 -30.261484 -0.901020 30.631110 -1.418074 1.600216 0.054459 -0.033258 104686.000000 0 0 1
4.619563 -28.857284 -0.714120 29.233425 -1.412060 1.595227 0.050037 -0.022374 -384240.000000 0 0 1
4.196863 -28.116484 -1.926120 28.493161 -1.422623 1.638447 0.041293 -0.017398 1389240.000000 0 0 1
2.769963 -28.255184 -2.236620 28.478598 -1.473075 1.649414 0.038995 -0.017444 1583620.000000 0 0 1
2.242063 -27.203984 -3.007120 27.461361 -1.488565 1.680520 0.030305 -0.013507 -1018.660000 0 0 1
2.691963 -27.086984 -4.509320 27.591399 -1.471739 1.734965 0.025666 -0.010583 -74007.000000 0 0 1
2.260063 -28.181284 -5.331720 28.770121 -1.490770 1.757195 0.020989 -0.009736 58064.400000 0 0 1
2.802563 -28.021584 -6.625020 28.930164 -1.471113 1.801847 0.032792 -0.004947 187698.000000 0 0 1
1.994463 -28.814084 -7.688320 29.888787 -1.501688 1.830952 0.022403 -0.006209 -92450.500000 0 0 1
0.769863 -28.279084 -8.100220 29.426397 -1.543579 1.849667 0.015823 -0.005012 -640905.000000 0 0 1
0.570763 -28.340284 -9.479620 29.889139 -1.550659 1.893529 0.013297 -0.000234 1000780.000000 0 0 1
-0.921437 -27.908984 -9.755220 29.579127 1.537793 1.906889 -0.003328 -0.001492 597493.000000 0 0 1
-1.204137 -26.599784 -9.257920 28.190557 1.525559 1.905411 0.005498 -0.001940 15139.200000 0 0 1
-2.591637 -26.297284 -9.192620 27.977991 1.472562 1.905581 0.020835 -0.012931 678307.000000 0 0 1
-3.319437 -26.915084 -7.946420 28.259264 1.448086 1.855838 0.028148 -0.009230 -358787.000000 0 0 1
-2.905537 -26.391184 -6.704720 27.384119 1.461143 1.818151 0.036200 -0.018464 509170.000000 0 0 1
-1.752237 -27.059184 -6.139820 27.802287 1.506131 1.793471 0.018667 -0.018984 898629.000000 0 0 1
-1.308637 -26.632984 -4.732120 27.081752 1.521700 1.746433 0.033296 -0.020822 12731.600000 0 0 1
-2.307037 -26.862784 -3.764120 27.223155 1.485124 1.709510 0.038657 -0.025756 216632.000000 0 0 1
-1.801237 -26.513384 -2.465820 26.688654 1.502964 1.663320 0.041619 -0.026431 -260919.000000 0 0 1
-2.860037 -26.842484 -1.402820 27.030846 1.464648 1.622717 0.030851 -0.016623 42615.100000 0 0 1
-3.943937 -25.960084 -1.668020 26.310889 1.420026 1.634235 0.031864 -0.018584 -914875.000000 0 0 1
-4.963837 -26.269184 -0.770120 26.745145 1.384038 1.599595 0.045359 -0.019338 -300583.000000 0 0 1
-6.127437 -25.244384 -0.893420 25.992741 1.332677 1.605175 0.044427 -0.010662 -266210.000000 0 0 1
-5.717437 -23.980284 -0.483220 24.657181 1.336744 1.590395 0.034534 -0.007167 -673456.000000 0 1 0
-6.539337 -23.246584 0.388380 24.151965 1.296580 1.554715 0.044615 -0.001853 -403589.000000 0 1 0
-6.005037 -21.911084 0.766180 22.731984 1.303301 1.537085 0.032842 -0.002088 180582.000000 0 1 0
-4.898737 -21.847184 1.653480 22.450636 1.350217 1.497080 0.031339 -0.007314 -148096.000000 0 1 0
-4.477437 -20.506984 1.712280 21.059813 1.355833 1.489401 0.016464 -0.005473 5248.800000 0 1 0
-3.377537 -20.295284 2.767080 20.759649 1.405888 1.437107 0.016516 -0.003034 -134481.000000 0 1 0
-3.874537 -20.387684 4.050080 21.144097 1.382993 1.378059 0.015836 0.009693 -149886.000000 0 1 0
-2.924137 -20.086684 5.061680 20.919991 1.426236 1.326417 0.030908 -0.002494 231518.000000 0 1 0
-2.056137 -21.285284 5.549480 22.092707 1.474496 1.316886 0.030504 -0.012528 518042.000000 0 1 0
-1.158837 -21.745284 4.536380 22.243628 1.517555 1.365415 0.039349 -0.012559 160696.000000 0 1 0
-0.363837 -22.831684 5.011480 23.378047 1.554862 1.354753 0.048580 -0.017083 -971558.000000 0 1 0
0.539263 -23.395484 3.908280 23.725811 -1.547751 1.405315 0.048305 -0.020392 340344.000000 0 1 0
1.619863 -22.530784 3.533580 22.863647 -1.499024 1.415624 0.035149 -0.021474 -74861.600000 0 1 0
2.683363 -22.777584 4.436980 23.360341 -1.453530 1.379699 0.044089 -0.022583 -1309570.000000 0 1 0
3.818763 -21.783084 4.519380 22.572339 -1.397251 1.369216 0.040971 -0.027885 -457870.000000 0 1 0
4.615463 -21.690784 3.370780 22.431111 -1.361139 1.419952 0.020991 -0.015660 -1119910.000000 0 1 0
5.753963 -20.944884 3.621280 22.020670 -1.302691 1.405597 0.032780 -0.011914 -135247.000000 0 1 0
6.515863 -20.704284 2.262680 21.823005 -1.265899 1.466926 0.038782 -0.008290 139567.000000 0 1 0
7.088463 -21.898284 1.750180 23.083419 -1.257741 1.494904 0.034771 -0.000130 -300325.000000 0 1 0
6.940463 -22.012384 0.387280 23.083870 -1.265364 1.554018 0.031243 -0.003779 59362.600000 0 1 0
8.007963 -22.844484 -0.387720 24.210498 -1.233638 1.586812 0.037749 0.003317 -521123.000000 0 1 0
9.198663 -22.156384 -0.500920 23.995242 -1.177281 1.591674 0.042405 0.004843 -1373570.000000 0 1 0
10.074163 -22.930084 -1.272420 25.077810 -1.156840 1.621557 0.039805 0.002244 -176452.000000 0 0 1
11.416063 -22.340684 -1.715820 25.147101 -1.098388 1.639081 0.046322 -0.000145 -289853.000000 0 0 1
11.312863 -21.263084 -2.661120 24.231821 -1.081845 1.680838 0.049174 0.003649 -963031.000000 0 1 0
12.461163 -21.054384 -3.396620 24.700297 -1.036387 1.708747 0.050191 0.000980 -750575.000000 0 1 0
12.359363 -19.852384 -4.395120 23.794707 -1.013951 1.756573 0.044775 -0.010658 -163423.000000 0 1 0
12.599963 -18.625284 -3.704820 22.790040 -0.976018 1.734084 0.056676 -0.009959 21825.400000 0 1 0
12.734063 -17.549684 -4.625820 22.170836 -0.943095 1.780985 0.050076 -0.013340 -1461110.000000 0 1 0
13.192463 -16.195884 -3.975620 21.263896 -0.887242 1.758869 0.063257 -0.013373 1333210.000000 0 1 0
14.566163 -16.226284 -3.518020 22.087142 -0.839259 1.730757 0.057209 -0.007142 1587980.000000 0 1 0
15.530463 -16.445384 -4.553920 23.073450 -0.814003 1.769467 0.047390 -0.002910 -106419.000000 0 1 0
17.003963 -15.943284 -4.315120 23.705343 -0.753216 1.753848 0.043566 0.001077 895731.000000 0 1 0
17.704963 -16.801384 -3.454720 24.651314 -0.759218 1.711403 0.052289 -0.006814 825322.000000 0 1 0
19.097563 -16.461784 -3.387220 25.439742 -0.711410 1.704340 0.030826 0.005802 424570.000000 0 0 1
19.963363 -17.408284 -2.589020 26.613666 -0.717135 1.668232 0.041477 -0.004933 -641246.000000 0 0 1
21.322763 -17.070584 -2.591520 27.436855 -0.675095 1.665391 0.022598 0.004155 -238406.000000 0 0 1
21.986863 -17.794184 -1.581320 28.329414 -0.680392 1.626644 0.018824 0.008892 -425999.000000 0 0 1
23.506663 -17.594084 -1.580720 29.404313 -0.642523 1.624580 0.026972 0.003570 -332255.000000 0 0 1
23.834863 -16.222284 -1.424020 28.866780 -0.597595 1.620147 0.023990 -0.004634 820451.000000 0 0 1
25.222463 -16.120484 -1.069220 29.953061 -0.568697 1.606500 0.050960 0.005856 885447.000000 0 0 1
25.691663 -14.813884 -0.355820 29.658713 -0.523038 1.582794 0.046431 0.010519 222442.000000 0 0 1
25.091363 -14.643884 0.960480 29.067892 -0.528290 1.537748 0.035257 0.013734 225946.000000 0 0 1
25.658463 -13.585784 1.651880 29.080215 -0.486957 1.513961 0.022728 0.004850 139984.000000 0 0 1
24.701963 -12.954984 2.725380 28.025814 -0.483017 1.473397 0.028544 -0.005850 93728.900000 0 0 1
24.292163 -13.754184 3.784480 28.171067 -0.515194 1.436050 0.045350 -0.002370 -932742.000000 0 0 1
25.305563 -14.269384 4.559780 29.407115 -0.513440 1.415111 0.061898 0.007446 -733004.000000 0 0 1
24.908163 -15.021584 5.914880 29.682492 -0.542680 1.370182 0.055560 0.008400 -246198.000000 0 0 1
24.350163 -16.250284 5.606980 29.806717 -0.588481 1.381558 0.056209 0.003427 68842.600000 0 0 1
23.569063 -16.717284 6.729380 29.669055 -0.616933 1.341990 0.054033 -0.000026 303594.000000 0 0 1
23.089963 -18.216984 6.590380 30.140305 -0.667971 1.350359 0.043405 0.000973 325086.000000 0 0 1
24.084263 -19.217884 6.763580 31.545598 -0.673486 1.354712 0.042396 0.002754 232951.000000 0 0 1
23.425663 -20.500984 6.871680 31.879021 -0.718915 1.353536 0.026879 0.006043 356281.000000 0 0 1
1.730863 23.153202 -2.764820 23.381849 1.496178 1.689320 0.005590 -0.008951 332461.000000 0 1 0
2.435463 24.370502 -2.520120 24.621207 1.471192 1.673332 0.012138 -0.001894 119350.000000 0 1 0
3.085563 24.984902 -3.600020 25.430811 1.447921 1.712835 0.025024 -0.001883 134062.000000 0 0 1
4.131763 26.076102 -3.241320 26.599637 1.413653 1.692956 0.013751 0.005564 -532221.000000 0 0 1
5.213563 25.558102 -2.556620 26.209428 1.369568 1.668498 0.005089 0.004888 -933560.000000 0 0 1
5.988063 26.553502 -1.944220 27.289656 1.348997 1.642101 0.006070 0.003032 -17159.600000 0 0 1
7.147663 25.870302 -1.162020 26.864696 1.301233 1.614064 -0.009313 -0.008805 290991.000000 0 0 1
8.163763 25.416902 -2.052320 26.774576 1.260010 1.647523 0.002487 -0.009976 -286566.000000 0 0 1
9.015863 24.476202 -1.469420 26.125264 1.217867 1.627071 -0.002505 -0.001021 -766721.000000 0 0 1
10.158063 24.128202 -2.420420 26.290964 1.172315 1.662990 0.031514 -0.001330 -971527.000000 0 0 1
11.118363 25.192202 -2.322820 27.634408 1.155166 1.654951 0.041628 0.002271 -103443.000000 0 0 1
12.017063 25.258902 -3.398820 28.177542 1.126732 1.691712 0.061089 -0.007273 405008.000000 0 0 1
13.193363 24.226102 -3.394220 27.793696 1.072114 1.693224 0.062770 -0.005900 -376168.000000 0 0 1
12.777863 22.865902 -3.659120 26.448297 1.061209 1.709591 0.067390 -0.009979 36379.900000 0 0 1
12.357463 22.672902 -5.018620 26.305017 1.071775 1.762759 0.072200 -0.017382 -152931.000000 0 0 1
11.509663 21.410002 -5.226320 24.863124 1.077536 1.782580 0.062808 -0.015978 1475800.000000 0 1 0
10.097963 21.597402 -4.890720 24.337949 1.133440 1.773124 0.037587 -0.012130 1018420.000000 0 1 0
9.468163 20.375902 -4.991520 23.016054 1.135806 1.789405 0.013757 -0.005191 -647278.000000 0 1 0
7.957563 20.529002 -4.789520 22.532249 1.201003 1.784993 0.001601 -0.007399 -260847.000000 0 1 0
7.564563 21.072902 -3.514620 22.663679 1.226152 1.726502 -0.000615 -0.005486 995109.000000 0 1 0
6.200963 21.546602 -3.518120 22.695488 1.290576 1.726438 -0.001265 0.004816 976924.000000 0 1 0
5.745463 22.247902 -2.219620 23.084761 1.318071 1.667096 0.002039 0.001314 30037.000000 0 1 0
5.278163 21.321502 -1.262620 22.001356 1.328124 1.628216 -0.002878 -0.007682 -115451.000000 0 1 0
4.771663 22.031102 -0.161120 22.542497 1.357503 1.577944 0.009582 -0.000398 236022.000000 0 1 0
4.371863 21.105702 1.042880 21.578958 1.366544 1.522449 0.005726 -0.006618 36172.500000 0 1 0
3.687363 21.840502 2.041380 22.243457 1.403542 1.478893 0.017757 0.000990 230422.000000 0 1 0
2.988463 20.965602 2.923080 21.378301 1.429209 1.433636 0.015411 -0.003924 -3563.760000 0 1 0
2.139563 21.556302 4.061680 22.039717 1.471866 1.385448 0.019144 -0.003499 17639.400000 0 1 0
0.853663 21.898302 3.574980 22.204613 1.531833 1.409091 0.016993 0.002922 -198350.000000 0 1 0
-0.018337 22.076702 4.678380 22.566974 -1.569966 1.361971 0.022022 -0.012392 -249279.000000 0 1 0
-1.450337 22.334502 4.219380 22.775790 -1.505950 1.384463 0.018410 -0.007013 17129.900000 0 1 0
-2.430337 22.456002 5.268180 23.193367 -1.462989 1.341655 0.036403 -0.016237 1339170.000000 0 1 0
-3.713837 22.706402 4.630680 23.469479 -1.408673 1.372187 0.043343 -0.019119 1220130.000000 0 1 0
-4.861537 23.098802 5.587880 24.257238 -1.363357 1.338349 0.061827 -0.025992 15752.200000 0 1 0
-5.028337 24.462302 5.853180 25.650499 -1.368066 1.340578 0.077935 -0.028287 167541.000000 0 0 1
-6.255837 24.551702 6.559780 26.171593 -1.321303 1.317450 0.094898 -0.034449 313516.000000 0 0 1
-6.613537 26.050102 6.884780 27.744312 -1.322171 1.320025 0.098272 -0.037424 -342816.000000 0 0 1
-5.762837 26.652202 7.827480 28.369342 -1.357851 1.291257 0.080006 -0.039217 -259042.000000 0 0 1
-6.104837 27.925402 8.379980 29.787937 -1.355570 1.285626 0.090235 -0.034839 -170179.000000 0 0 1
-6.127937 29.157202 7.482980 30.719522 -1.363642 1.324730 0.085946 -0.042027 732252.000000 0 0 1
-7.319337 29.155502 6.684680 30.794495 -1.324835 1.351980 0.090152 -0.045314 -71125.200000 0 0 1
-7.395637 30.299402 5.832080 31.729519 -1.331392 1.385939 0.085920 -0.044150 53153.600000 0 0 1
-8.872437 30.526902 5.393080 32.244336 -1.287946 1.402750 0.067706 -0.040769 1069450.000000 0 0 1
-9.745337 30.858902 6.507480 33.008949 -1.264905 1.372354 0.060050 -0.035309 30545.000000 0 0 1
-10.346237 29.765502 7.144180 32.312057 -1.236269 1.347855 0.046106 -0.028354 -806383.000000 0 0 1
-11.347637 30.199702 8.198480 33.286723 -1.211365 1.321937 0.022959 -0.023001 -221238.000000 0 0 1
-10.717637 30.809002 9.304480 33.921021 -1.236017 1.292936 0.030565 -0.019559 276386.000000 0 0 1
-11.715537 30.976602 10.291280 34.680169 -1.209218 1.269511 0.032292 -0.008739 -89009.600000 0 0 1
-11.109037 31.534402 11.555380 35.374511 -1.232089 1.238031 0.023371 -0.010059 -807454.000000 0 0 1
-10.573537 32.830902 11.376380 36.319276 -1.259225 1.252201 0.008425 -0.010975 613910.000000 0 0 1
-9.567637 33.159902 12.343880 36.653651 -1.289895 1.227311 0.002897 -0.012842 309626.000000 0 0 1
-9.110337 -34.116984 12.508780 37.462466 1.309853 1.230357 -0.008027 -0.013300 -11341.400000 0 0 1
-9.983737 -33.204384 13.150880 37.083038 1.278720 1.208274 -0.001107 -0.002839 -180320.000000 0 0 1
-9.461737 -31.902284 13.238380 35.812496 1.282476 1.192155 0.003814 -0.002087 24422.200000 0 0 1
-10.365037 -30.924284 14.045080 35.510697 1.247389 1.164166 0.001600 -0.003334 -271357.000000 0 0 1
-10.592337 -31.183884 15.454980 36.379783 1.243351 1.132030 0.002347 -0.010365 -10857.500000 0 0 1
-9.469737 -30.746584 16.187880 36.014938 1.272023 1.104617 0.009418 -0.015390 47124.700000 0 0 1
-9.520537 -31.025984 17.727180 36.979794 1.273061 1.070854 0.007555 -0.017632 119581.000000 0 0 1
-10.613537 -30.313384 18.291780 36.961299 1.234008 1.053088 0.028734 -0.016870 227744.000000 0 0 1
-10.960637 -30.871284 19.538080 38.143260 1.229636 1.033018 0.015671 -0.015045 -108075.000000 0 0 1
-11.343737 -29.859084 20.651080 38.035672 1.207729 0.996862 0.027744 -0.024999 489739.000000 0 0 1
-10.181037 -29.497584 21.400680 37.838473 1.238450 0.969660 0.021696 -0.023177 618553.000000 0 0 1
-10.487137 -28.697884 22.546180 37.972079 1.220440 0.935077 0.016135 -0.019324 655206.000000 0 0 1
-9.375237 -28.684084 23.676880 38.357090 1.254897 0.905522 0.041130 -0.026151 715500.000000 0 0 1
-9.305737 -29.855484 24.458480 39.700930 1.268647 0.907055 0.041107 -0.015204 -601247.000000 0 0 1
-8.045637 -29.959484 25.023980 39.856022 1.308436 0.891996 0.053557 -0.014548 -576993.000000 0 0 1
-7.991937 -31.145184 25.969980 41.331990 1.319613 0.891396 0.055152 -0.015465 -287190.000000 0 0 1
-8.009537 -32.414584 25.326080 41.907854 1.328552 0.921874 0.062082 -0.006361 278690.000000 0 0 1
-8.241237 -33.426584 26.262280 43.300829 1.329070 0.919136 0.078043 -0.005450 -524628.000000 0 0 1
-8.008437 33.888302 25.741180 43.303122 -1.338735 0.934225 0.073422 -0.007401 35472.300000 0 0 1
-6.655037 33.533802 25.493180 42.646308 -1.374884 0.930065 0.067266 -0.004825 232895.000000 0 0 1
-6.495137 32.239002 24.936280 41.271759 -1.371989 0.922038 0.066654 -0.006827 -101289.000000 0 0 1
-7.110737 31.886302 23.541280 40.267737 -1.351384 0.946386 0.057125 -0.003981 752674.000000 0 0 1
-8.466337 31.439402 23.689480 40.265448 -1.307746 0.941801 0.051742 -0.002159 539284.000000 0 0 1
-9.160937 31.270502 22.494680 39.595172 -1.285813 0.966581 0.031401 0.003645 180185.000000 0 0 1
-10.199837 30.115902 22.583280 39.000112 -1.244236 0.953225 0.036877 -0.008359 247375.000000 0 0 1
-9.554837 28.835402 22.758680 37.956986 -1.250825 0.927806 0.035459 -0.011053 -419723.000000 0 0 1
-10.337137 27.725202 22.927280 37.432651 -1.213918 0.911584 0.022489 -0.006274 -685580.000000 0 0 1
-9.631337 26.406402 22.447680 35.971642 -1.221055 0.896896 0.016246 -0.011811 -182569.000000 0 0 1
-8.576037 25.953202 23.235780 35.875041 -1.251650 0.866252 0.022947 -0.015073 -143772.000000 0 0 1
-8.069237 24.693502 22.863080 34.606387 -1.254959 0.849098 0.034389 -0.014625 383275.000000 0 0 1
-6.671937 24.359402 23.463380 34.473546 -1.303457 0.822188 0.045241 -0.011518 1140630.000000 0 0 1
-5.570937 25.124702 22.929580 34.468124 -1.352595 0.842981 0.031366 -0.009679 354819.000000 0 0 1
-4.350737 24.680702 23.465980 34.332465 -1.396308 0.818260 0.065088 0.000624 1249880.000000 0 0 1
-3.019037 25.380902 22.929080 34.337260 -1.452403 0.839600 0.052207 0.000327 1211110.000000 0 0 1
-2.652837 24.884702 21.639480 33.084029 -1.464592 0.857835 0.049044 -0.002736 256688.000000 0 0 1
-1.542237 25.527902 21.021080 33.104955 -1.510456 0.882810 0.052137 -0.001825 450565.000000 0 0 1
-0.937637 24.721002 19.825380 31.702567 -1.532886 0.895209 0.045102 -0.005274 -67766.200000 0 0 1
-0.136337 23.641202 20.289180 31.154066 -1.565029 0.861562 0.043298 -0.004449 4039.540000 0 0 1
0.103363 22.658302 19.262580 29.739810 1.566235 0.866230 0.025456 0.000169 416038.000000 0 0 1
1.308463 21.690402 19.575780 29.247167 1.510545 0.837500 0.022844 0.000671 1527940.000000 0 0 1
2.591763 22.347102 19.527180 29.789611 1.455335 0.855948 0.030185 -0.009351 49968.400000 0 0 1
3.636663 21.442302 19.648680 29.309866 1.402793 0.836079 0.035437 -0.006671 -357298.000000 0 0 1
4.996363 22.022902 19.229580 29.660556 1.347702 0.865418 0.031863 -0.010317 235438.000000 0 0 1
5.906163 20.967102 18.916780 28.850419 1.296224 0.855707 0.039147 -0.011892 13107.100000 0 0 1
7.168863 21.357402 18.421480 29.101239 1.246952 0.885356 0.045050 -0.020959 -391024.000000 0 0 1
8.121263 20.236502 18.180380 28.390088 1.189155 0.875806 0.052236 -0.022263 -586992.000000 0 0 1
8.722763 19.759402 19.372280 29.013889 1.155076 0.839695 0.050257 -0.026066 640811.000000 0 0 1
9.777463 18.813602 19.047180 28.501674 1.091512 0.838898 0.049947 -0.027165 742421.000000 0 0 1
10.274563 18.120602 20.330280 29.107441 1.054987 0.797558 0.059867 -0.027638 43611.700000 0 0 1
9.289663 17.234202 20.896880 28.635557 1.076418 0.752836 0.053204 -0.027167 550582.000000 0 0 1
9.788563 16.575502 22.066080 29.282676 1.037359 0.717344 0.051502 -0.032750 80691.100000 0 0 1
8.800463 15.473302 22.490280 28.682467 1.053671 0.669532 0.038136 -0.028932 150225.000000 0 0 1
7.675563 15.953502 23.192780 29.177620 1.122366 0.651982 0.034311 -0.019143 370665.000000 0 0 1
6.629163 15.019302 23.498280 28.665212 1.155137 0.609824 0.033184 -0.009455 689171.000000 0 0 1
6.932763 13.839402 24.546080 29.018998 1.106394 0.562616 0.034821 -0.008085 -466415.000000 0 0 1
7.279263 14.299102 25.821280 30.400501 1.099918 0.556005 0.041741 -0.019407 -341440.000000 0 0 1
7.542263 13.243902 26.721580 30.762469 1.053113 0.518341 0.044817 -0.020421 -621541.000000 0 0 1
8.480563 13.791502 27.834080 32.200333 1.019484 0.526834 0.024482 -0.011566 497455.000000 0 0 1
9.782863 14.079602 27.312680 32.247822 0.963552 0.560552 0.054699 -0.011854 415498.000000 0 0 1
9.987163 15.271202 26.642980 32.292435 0.991624 0.600500 0.047678 -0.011603 426026.000000 0 0 1
11.347163 15.252202 25.779780 32.030997 0.931166 0.635393 0.070565 -0.019867 1290480.000000 0 0 1
11.240763 14.310302 24.700080 30.679528 0.904959 0.634953 0.059202 -0.020852 -64447.500000 0 0 1
12.509463 14.067902 24.144080 30.615831 0.843969 0.662244 0.079106 -0.018377 -166678.000000 0 0 1
12.441563 12.687502 23.340680 29.335175 0.795185 0.650708 0.055977 -0.023864 19898.400000 0 0 1
12.285963 11.526902 24.126080 29.425874 0.753533 0.609572 0.051287 -0.015273 122755.000000 0 0 1
10.988763 11.411502 24.678580 29.325886 0.804268 0.570689 0.053027 -0.010101 -220066.000000 0 0 1
10.714363 10.111002 25.393480 29.357431 0.756434 0.525693 0.032773 0.003641 -160107.000000 0 0 1
10.610863 9.054302 24.458880 28.156839 0.706410 0.518294 0.037150 -0.000415 295562.000000 0 0 1
10.240263 7.767802 25.022480 28.130521 0.648954 0.474517 0.037321 0.001207 128026.000000 0 0 1
10.208763 6.621202 23.974180 26.885320 0.575377 0.469665 0.043022 -0.000343 262410.000000 0 0 1
11.520563 6.276902 23.541880 26.950750 0.498876 0.508420 0.036578 -0.005016 463690.000000 0 0 1
11.536163 5.221102 22.592480 25.899094 0.425002 0.510855 0.043383 -0.013424 23181.800000 0 0 1
11.405563 3.787302 23.237880 26.161605 0.320602 0.477289 0.047075 -0.009978 -59421.700000 0 0 1
12.631263 3.423302 23.823080 27.181003 0.264661 0.502335 0.041618 -0.004420 3781.830000 0 0 1
12.554263 2.086802 24.283680 27.416443 0.164717 0.482723 0.028048 -0.010179 332306.000000 0 0 1
13.923563 1.648402 24.883080 28.561346 0.117841 0.513124 0.010978 -0.006875 657676.000000 0 0 1
14.924263 1.422802 23.914980 28.225595 0.095048 0.559953 0.022315 -0.009572 -96957.400000 0 0 1
16.229663 1.348402 24.442480 29.370988 0.082892 0.587736 0.028658 -0.010017 197123.000000 0 0 1
17.213263 0.484702 23.606180 29.219566 0.028151 0.630234 0.033095 -0.015513 87394.400000 0 0 1
17.126363 -0.864498 23.954480 29.459748 -0.050435 0.621294 0.026731 -0.014054 835634.000000 0 0 1
18.128763 -1.664698 23.262880 29.539547 -0.091570 0.664028 0.034719 -0.004546 266692.000000 0 0 1
18.125763 -3.218398 23.424780 29.792980 -0.175728 0.666077 0.033406 0.002552 -103649.000000 0 0 1
17.097563 -4.022498 22.853380 28.823326 -0.231065 0.655279 0.014138 0.007120 243013.000000 0 0 1
17.343263 -5.407998 23.114880 29.399538 -0.302266 0.666108 0.031264 0.001484 409503.000000 0 0 1
16.218563 -6.362198 22.600280 28.535802 -0.373832 0.656723 0.022180 -0.001120 204097.000000 0 0 1
16.266863 -6.482998 21.182180 27.483173 -0.379247 0.690806 0.015868 -0.003053 311104.000000 0 0 1
15.554663 -7.639098 20.667680 26.971398 -0.456513 0.697763 0.029591 -0.013099 11005.300000 0 0 1
16.091863 -9.074698 20.977180 27.952464 -0.513476 0.722040 0.028616 -0.011963 -246974.000000 0 0 1
15.979063 -9.413198 22.338280 29.033386 -0.532363 0.692895 0.020520 -0.002175 -282599.000000 0 0 1
16.561763 -10.650098 22.505880 29.903699 -0.571476 0.718777 0.014897 -0.001242 -247185.000000 0 0 1
16.133963 -11.422598 23.794980 30.935118 -0.616065 0.693224 0.026378 -0.003122 810413.000000 0 0 1
14.891163 -12.128598 23.618480 30.441455 -0.683510 0.682710 0.022471 -0.001948 644657.000000 0 0 1
14.737163 -13.164498 24.570180 31.530647 -0.729093 0.677332 0.045235 0.003941 198555.000000 0 0 1
13.716963 -14.258098 24.195580 31.254992 -0.804739 0.685449 0.046338 -0.002477 183757.000000 0 0 1
14.214263 -15.016298 23.059980 30.972522 -0.812830 0.730965 0.041296 -0.004689 413646.000000 0 0 1
13.241963 -15.925898 22.614580 30.665991 -0.877157 0.741512 0.051554 0.006585 -235708.000000 0 0 1
13.720563 -16.825198 21.452880 30.521585 -0.886689 0.791364 0.017792 -0.003223 -286803.000000 0 0 1
14.767363 -17.703898 21.727380 31.679363 -0.875588 0.815021 0.030130 -0.004733 -173062.000000 0 0 1
15.290463 -18.372298 20.578880 31.540924 -0.876694 0.859983 0.015538 -0.004851 31834.500000 0 0 1
-23.743137 -32.189984 26.958902 48.236024 0.935282 0.977743 0.045850 -0.022853 -570231.000000 0 0 1
-24.001237 -33.568284 27.263032 49.458689 0.950076 0.986961 0.050700 -0.025660 366682.000000 0 0 1
-25.209757 -33.979484 26.620842 49.988063 0.932492 1.009193 0.046645 -0.028113 546920.000000 0 0 1
-26.190387 34.024402 27.590242 51.037415 -0.914773 0.999660 0.043017 -0.024586 -230189.000000 0 0 1
-26.784687 -33.804584 28.460422 51.673639 0.900744 0.987507 0.051978 -0.023590 149526.000000 0 0 1
-26.057777 -33.556384 29.705562 51.840708 0.910527 0.960615 0.032983 -0.016225 124573.000000 0 0 1
-26.908377 -32.866984 30.790722 52.463015 0.884753 0.943567 0.013188 -0.021369 3975.420000 0 0 1
-27.262037 -31.533084 30.440022 51.615395 0.857914 0.940051 0.009571 -0.017736 576441.000000 0 0 1
-28.187617 -30.982684 31.390362 52.343321 0.832601 0.927668 0.004235 -0.000404 287629.000000 0 0 1
-28.502377 -29.479184 31.064042 51.443002 0.802243 0.922469 0.005066 -0.002892 265133.000000 0 0 1
-29.085017 -29.253684 29.754762 50.863170 0.788289 0.945921 0.008173 -0.005803 252667.000000 0 0 1
-29.862337 -28.108984 29.644022 50.602788 0.755162 0.944907 0.008453 0.006085 -303390.000000 0 0 1
-30.414697 -27.840784 28.192182 49.949596 0.741244 0.971075 0.012563 -0.007354 -201902.000000 0 0 1
-29.541507 -27.621484 27.096002 48.681006 0.751822 0.980505 0.001771 -0.005846 -50823.000000 0 0 1
-29.059567 -26.292184 27.025532 47.603747 0.735443 0.967064 -0.009997 0.001448 166616.000000 0 0 1
-27.901637 -25.993684 26.026872 46.168940 0.750012 0.971900 0.000368 0.003018 56393.200000 0 0 1
-28.350637 -26.111084 24.673972 45.764093 0.744300 1.001362 -0.006508 0.004709 574198.000000 0 0 1
-27.278037 -26.068184 23.731842 44.574004 0.762723 1.009346 -0.000961 0.009695 -88605.900000 0 0 1
-27.802827 -26.396984 22.278672 44.341145 0.759466 1.044380 0.000395 0.009085 80521.600000 0 0 1
-28.537647 -25.340584 21.688372 43.896788 0.726129 1.054024 -0.008704 0.007673 -41684.300000 0 0 1
-29.211257 -25.960284 20.643572 44.197183 0.726541 1.084812 -0.009762 0.009243 -388075.000000 0 0 1
-29.854007 -24.969884 19.636972 43.593205 0.696545 1.103516 -0.009621 0.012413 383457.000000 0 0 1
-31.131207 -24.536884 20.117672 44.451451 0.667490 1.101144 0.002194 0.005612 293437.000000 0 0 1
-31.710647 -23.657884 19.179772 43.967309 0.640971 1.119394 0.003703 0.007255 -507587.000000 0 0 1
-33.204147 -23.448484 19.392072 45.037753 0.614869 1.125668 0.008876 0.009619 -724805.000000 0 0 1
-34.122901 -24.396584 18.927772 46.019846 0.620697 1.146921 0.004452 0.008286 -423525.000000 0 0 1
-35.383552 -23.770384 18.909172 46.632432 0.591542 1.153277 0.011754 0.005521 13241.600000 0 0 1
35.384931 -24.648084 18.149272 46.786937 -0.608420 1.172430 0.031974 -0.003388 166728.000000 0 0 1
35.069681 -25.765584 18.958772 47.467703 -0.633635 1.159930 0.025692 -0.005646 -168373.000000 0 0 1
34.220321 -26.663784 18.293572 47.081233 -0.661916 1.171735 0.029079 0.002418 37978.200000 0 0 1
33.844821 -27.973884 19.013972 47.849151 -0.690712 1.162144 0.018900 0.011127 30021.600000 0 0 1
32.903571 -27.951984 20.088272 47.618243 -0.704211 1.135300 0.021979 0.004129 262541.000000 0 0 1
33.349851 -27.308584 21.304072 48.081543 -0.686131 1.111763 0.028482 -0.004812 -333911.000000 0 0 1
32.155851 -27.047384 22.236872 47.539859 -0.699324 1.084050 0.028483 -0.007730 -494733.000000 0 0 1
31.317061 -26.166384 21.582572 46.165413 -0.696034 1.084330 0.030756 -0.003364 -216810.000000 0 0 1
30.135781 -25.955684 22.388472 45.641062 -0.711013 1.058094 0.048744 -0.011311 712981.000000 0 0 1
29.187221 -24.906484 21.708872 44.085167 -0.706427 1.055916 0.064667 -0.011058 33301.500000 0 0 1
29.757761 -23.684184 21.318372 43.599746 -0.672236 1.059903 0.063211 -0.006808 -387170.000000 0 0 1
30.482971 -22.940584 22.264772 44.172412 -0.645144 1.042523 0.076958 -0.016372 -219559.000000 0 0 1
31.326771 -21.845384 21.589672 43.871418 -0.608938 1.056282 0.065240 -0.016770 -383760.000000 0 0 1
30.645301 -20.818484 20.910672 42.541744 -0.596723 1.056947 0.071807 -0.020383 -347505.000000 0 0 1
31.497021 -19.806984 20.412772 42.438900 -0.561365 1.069010 0.062081 -0.021476 -663505.000000 0 0 1
30.790371 -18.454684 20.129372 41.155971 -0.539953 1.059739 0.065221 -0.009022 -23887.900000 0 0 1
30.365691 -17.813084 21.305072 41.149572 -0.530522 1.026581 0.051201 -0.001338 486759.000000 0 0 1
29.160981 -18.270384 21.926472 40.803675 -0.559703 1.003487 0.072342 -0.017676 -146344.000000 0 0 1
29.165151 -18.157684 23.490072 41.618397 -0.556858 0.971071 0.051757 -0.008182 -13236.700000 0 0 1
28.984661 -16.820884 24.010372 41.225607 -0.525836 0.949101 0.048979 -0.000000 223475.000000 0 0 1
29.000471 -16.807984 25.403482 42.057966 -0.525267 0.922272 0.040298 0.000502 -134146.000000 0 0 1
28.930691 -15.414384 26.027262 41.856976 -0.489545 0.899739 0.040047 -0.000190 590950.000000 0 0 1
27.595791 -14.864484 25.925142 40.676695 -0.494088 0.879747 0.048266 -0.003835 1136940.000000 0 0 1
27.424551 -13.552284 26.494422 40.468813 -0.458970 0.857027 0.038094 -0.006042 -69872.100000 0 0 1
28.016321 -12.347084 25.747582 40.003784 -0.415102 0.871566 0.050954 -0.019777 -433544.000000 0 0 1
27.236121 -11.896584 24.677262 38.630328 -0.411818 0.877852 0.044673 -0.003280 133470.000000 0 0 1
27.920851 -10.954784 23.818112 38.299917 -0.373895 0.899650 0.044390 -0.001518 -312815.000000 0 0 1
28.941811 -11.540484 22.851972 38.639666 -0.379426 0.937987 0.046752 -0.014045 -658098.000000 0 0 1
28.472021 -12.502084 21.912172 38.040786 -0.413753 0.956948 0.054383 -0.016490 -51211.200000 0 0 1
28.512931 -13.794584 22.445772 38.821263 -0.450605 0.954297 0.056808 -0.019910 -30382.200000 0 0 1
27.972651 -14.839884 21.419972 38.229655 -0.487760 0.976052 0.070672 -0.017635 -158230.000000 0 0 1
28.635771 -14.830784 20.176072 38.039892 -0.477874 1.011733 0.064013 -0.013269 -259705.000000 0 0 1
28.091921 -15.849284 19.360172 37.618773 -0.513675 1.030207 0.067478 -0.023503 -371382.000000 0 0 1
28.781181 -16.045784 18.010472 37.552639 -0.508590 1.070591 0.069479 -0.025211 -339309.000000 0 0 1
28.323001 -17.088884 17.151972 37.261407 -0.542884 1.092447 0.062530 -0.028252 -241997.000000 0 0 1
26.958061 -17.135184 16.825172 36.103158 -0.566202 1.085997 0.064076 -0.026137 -404232.000000 0 0 1
26.418811 -16.210384 15.699872 34.745015 -0.550354 1.101947 0.044942 -0.018177 -361549.000000 0 0 1
26.562111 -16.614884 14.386072 34.475487 -0.558966 1.140342 0.048897 -0.022524 -243568.000000 0 0 1
25.789111 -17.711384 14.017372 34.282037 -0.601797 1.149566 0.039218 -0.015879 -515600.000000 0 0 1
25.790111 -18.187584 12.510772 33.947569 -0.614218 1.193367 0.049657 -0.005360 -135947.000000 0 0 1
25.330711 -17.305084 11.466372 32.750397 -0.599338 1.213104 0.041152 -0.011860 -82892.500000 0 0 1
25.246311 -17.817184 10.174272 32.532201 -0.614564 1.252715 0.048287 -0.016635 956069.000000 0 0 1
26.640911 -17.972384 9.430372 33.491441 -0.593486 1.285361 0.049528 -0.005040 1385070.000000 0 0 1
27.477921 -18.975284 10.018572 34.863582 -0.604365 1.279322 0.045490 0.002501 -783146.000000 0 0 1
28.815781 -18.779184 9.686872 35.732933 -0.577568 1.296270 0.053360 0.010575 -776184.000000 0 0 1
29.729311 -19.501984 10.675272 37.123049 -0.580571 1.279113 0.073959 -0.009267 -356772.000000 0 0 1
29.678151 -18.988284 12.003272 37.221313 -0.569176 1.242444 0.079691 -0.021801 345086.000000 0 0 1
30.270321 -19.973884 12.877272 38.484705 -0.583269 1.229608 0.050412 -0.022364 132788.000000 0 0 1
30.043961 -19.635684 14.350372 38.654015 -0.578877 1.190440 0.072790 -0.019901 46688.300000 0 0 1
29.507111 -20.652584 15.121072 39.062074 -0.610672 1.173308 0.076207 -0.025821 41547.700000 0 0 1
29.153971 -20.122284 16.387972 39.031090 -0.604123 1.137495 0.088824 -0.033426 -33389.300000 0 0 1
28.991831 -21.141984 17.538672 39.938888 -0.630081 1.116158 0.070987 -0.029917 648109.000000 0 0 1
27.713971 -21.793384 17.541172 39.379036 -0.666373 1.109126 0.056056 -0.022528 470698.000000 0 0 1
27.541181 -22.746384 18.574072 40.260536 -0.690338 1.091284 0.065310 -0.023060 -858589.000000 0 0 1
26.138811 -23.253684 18.512072 39.581158 -0.727052 1.084111 0.066107 -0.009199 -1443130.000000 0 0 1
25.078811 -22.511284 19.013572 38.693935 -0.731500 1.057118 0.076497 -0.018263 260109.000000 0 0 1
23.880511 -23.244284 18.694572 38.210765 -0.771898 1.059568 0.068594 -0.005966 897279.000000 0 0 1
22.557811 -22.776684 19.375972 37.457449 -0.790226 1.027127 0.043947 -0.000210 11370.900000 0 0 1
22.258411 -21.470484 18.923972 36.256520 -0.767382 1.021665 0.038350 -0.006810 -93450.500000 0 0 1
21.075011 -20.901484 19.446372 35.485060 -0.781264 0.990806 0.024451 -0.001747 144079.000000 0 0 1
21.092211 -20.502384 20.944772 36.109730 -0.771219 0.952029 0.017364 -0.000663 -286224.000000 0 0 1
21.220711 -21.628684 21.795372 37.325015 -0.794919 0.947229 0.026465 -0.003591 -126772.000000 0 0 1
21.727911 -21.119584 23.043072 38.067336 -0.771202 0.920623 0.030703 -0.000567 -252279.000000 0 0 1
22.044711 -22.225384 24.092712 39.501845 -0.789479 0.914845 0.036642 -0.006710 -259703.000000 0 0 1
20.994411 -23.023984 24.536732 39.660060 -0.831473 0.903740 0.026781 -0.004516 -312454.000000 0 0 1
21.505111 -23.930284 25.458872 41.027825 -0.838724 0.901382 0.030547 -0.002975 450929.000000 0 0 1
20.289011 -24.692684 26.061992 41.238332 -0.882986 0.886685 0.048592 -0.010067 538783.000000 0 0 1
19.718711 -25.657684 25.173012 40.997864 -0.915541 0.909668 0.042679 -0.006285 863941.000000 0 0 1
18.740611 -26.515084 25.842122 41.497897 -0.955527 0.898565 0.033315 -0.002081 500703.000000 0 0 1
18.053311 -27.492284 24.897032 41.250575 -0.989748 0.922843 0.041405 -0.008085 -783833.000000 0 0 1
17.019711 -26.856684 24.237242 39.979944 -1.005949 0.919478 0.044556 -0.011805 -250201.000000 0 0 1
16.537811 -27.651984 23.152372 39.675732 -1.031797 0.947715 0.048090 -0.010509 279423.000000 0 0 1
15.490211 -26.902984 22.224672 38.179225 -1.048376 0.949470 0.041798 -0.009004 540249.000000 0 0 1
14.240811 -26.743084 22.876272 37.964681 -1.081485 0.924082 0.019218 -0.014269 -201284.000000 0 0 1
13.459311 -25.874484 22.110472 36.599384 -1.091138 0.922133 -0.009023 -0.004449 -575685.000000 0 0 1
12.097211 -25.529984 22.706372 36.245026 -1.128292 0.893782 0.003594 -0.000068 -590422.000000 0 0 1
11.167911 -26.587284 22.760172 36.737329 -1.173128 0.902642 -0.004954 -0.003595 -1021310.000000 0 0 1
9.957911 -25.927084 22.593572 35.802837 -1.204094 0.887883 -0.003171 0.009413 -896218.000000 0 0 1
8.693411 -26.790784 22.712172 36.182375 -1.257023 0.892184 0.002081 0.005404 -185284.000000 0 0 1
8.550711 -27.591684 21.566172 36.048792 -1.270280 0.929482 0.010110 0.006614 -36912.800000 0 0 1
7.271311 -28.154984 21.400572 36.104841 -1.318059 0.936347 0.013219 0.005298 -383071.000000 0 0 1
7.113811 -28.936184 20.045672 35.912922 -1.329732 0.978612 0.026865 0.002963 45675.500000 0 0 1
7.906711 -30.119184 20.046772 37.034502 -1.314075 0.998814 0.025214 -0.004280 310445.000000 0 0 1
7.842411 -30.730584 18.749272 36.843010 -1.320931 1.036894 0.026677 -0.009675 -158334.000000 0 0 1
8.697111 -32.013584 18.674272 38.068855 -1.305529 1.058088 0.024975 -0.011894 -463817.000000 0 0 1
8.140111 -33.103484 19.434772 39.240443 -1.329681 1.052646 0.037050 -0.008772 490640.000000 0 0 1
8.953511 -34.279484 19.607672 40.493322 -1.315312 1.065325 0.037457 -0.016887 -116308.000000 0 0 1
8.381311 33.422602 20.649972 40.171358 1.325095 1.030900 0.048936 -0.020769 474698.000000 0 0 1
7.315611 32.574802 20.218172 39.030890 1.349883 1.026280 0.056423 -0.024575 157650.000000 0 0 1
7.213111 31.447302 21.087672 38.544152 1.345325 0.991895 0.048747 -0.025447 -127660.000000 0 0 1
6.212511 30.369102 20.676272 37.261050 1.369013 0.982550 0.045080 -0.023687 -318173.000000 0 0 1
4.884911 30.599002 21.058872 37.465148 1.412489 0.973883 0.059344 -0.023565 -797775.000000 0 0 1
4.054711 29.588102 20.611672 36.286877 1.434606 0.966698 0.070295 -0.023161 75725.700000 0 0 1
2.632211 29.556602 21.219072 36.479724 1.481974 0.950019 0.062501 -0.016582 56749.300000 0 0 1
2.656011 29.297502 22.643572 37.123165 1.480387 0.914789 0.057671 -0.020250 -88840.900000 0 0 1
1.367311 28.996602 23.126372 37.114708 1.523677 0.898090 0.051497 -0.016955 -42849.300000 0 0 1
1.431211 28.435502 24.558292 37.599678 1.520507 0.859057 0.059869 -0.015490 -311635.000000 0 0 1
1.579211 29.318002 25.667732 38.998354 1.516983 0.852405 0.060421 -0.017692 135970.000000 0 0 1
1.568311 28.758602 26.970352 39.457783 1.516317 0.818216 0.051020 -0.013822 -888003.000000 0 0 1
2.766911 27.999902 27.488042 39.335007 1.472298 0.797052 0.032961 -0.011223 -885721.000000 0 0 1
3.114311 26.841902 26.742802 38.017944 1.455289 0.790590 0.042557 -0.014046 -472149.000000 0 0 1
4.053311 26.123802 27.437452 38.101130 1.416866 0.766819 0.013916 0.001803 -526105.000000 0 0 1
4.477511 24.676302 26.932472 36.801169 1.391299 0.749782 0.013220 0.007059 315472.000000 0 0 1
3.353411 23.772102 26.860292 36.025456 1.430656 0.729374 0.036320 0.006882 449495.000000 0 0 1
3.665511 22.539502 26.253712 34.795438 1.409582 0.715880 0.024457 0.010628 61618.900000 0 0 1
2.675011 21.346702 26.510872 34.141817 1.446134 0.681716 0.030904 0.016025 60070.300000 0 0 1
3.185811 20.050702 26.532152 33.408608 1.413226 0.653154 0.031670 0.015015 -284538.000000 0 0 1
3.727011 19.531002 25.343922 32.212808 1.382238 0.665245 0.026393 0.013722 -477238.000000 0 0 1
4.121911 18.077702 25.615702 31.622107 1.346618 0.626547 0.027465 0.002572 -412450.000000 0 0 1
5.241211 18.043002 26.459372 32.451788 1.288092 0.617473 0.025251 0.001671 499988.000000 0 0 1
6.471611 17.873102 25.714602 31.977653 1.223395 0.636564 0.032363 -0.001594 394782.000000 0 0 1
7.738711 17.885302 26.638562 33.005827 1.162434 0.631595 0.022027 -0.009131 66718.300000 0 0 1
8.150611 19.029702 27.300452 34.261884 1.166125 0.648787 0.010110 -0.003757 58759.200000 0 0 1
8.478511 20.119702 26.491072 34.328770 1.171976 0.689307 0.003713 -0.009388 -556578.000000 0 0 1
9.038111 21.334402 27.214352 35.741644 1.170078 0.705298 -0.010075 -0.005119 -144022.000000 0 0 1
10.166911 21.074002 28.028342 36.511198 1.121296 0.695608 0.011617 -0.024086 -27493.600000 0 0 1
10.473411 22.227702 28.753392 37.822224 1.130463 0.707137 0.021196 -0.021375 163640.000000 0 0 1
11.574511 22.109802 29.870692 38.923911 1.088525 0.696001 0.045070 -0.020470 502602.000000 0 0 1
12.881411 21.944802 29.370062 38.860077 1.039997 0.713936 0.054359 -0.030171 -537582.000000 0 0 1
13.808511 21.996402 30.430792 40.006871 1.010213 0.706499 0.059380 -0.023313 -259236.000000 0 0 1
15.220111 21.626602 29.964742 39.965578 0.957546 0.723091 0.057007 -0.025752 -85977.200000 0 0 1
15.777211 22.658402 29.161422 40.158587 0.962553 0.758081 0.052716 -0.027588 -291290.000000 0 0 1
17.157811 22.563402 28.932442 40.504120 0.920656 0.775161 0.085478 -0.025384 -218694.000000 0 0 1
-8.551837 16.802802 4.425180 19.366215 -1.100012 1.340260 0.016449 -0.013375 -208392.000000 0 1 0
-8.338037 18.204302 4.508480 20.524275 -1.141288 1.349325 0.019230 -0.014624 831564.000000 0 1 0
-7.178637 18.543002 5.295580 20.577145 -1.201430 1.310515 0.017154 -0.005101 536116.000000 0 1 0
-7.259437 20.012502 5.884880 22.086907 -1.222813 1.301097 0.024368 -0.004292 -52523.800000 0 1 0
-7.314637 21.088202 4.943980 22.861739 -1.236922 1.352819 0.028638 -0.012148 588017.000000 0 1 0
-8.619137 21.498202 4.505580 23.595814 -1.189494 1.378668 0.029018 -0.012259 670991.000000 0 1 0
-8.539237 22.597502 3.436180 24.400266 -1.209499 1.429501 0.038435 -0.023112 429000.000000 0 1 0
-7.849237 22.398102 2.175080 23.833096 -1.233728 1.479406 0.013811 -0.022827 184164.000000 0 1 0
-8.356437 21.262602 1.467080 22.892807 -1.196329 1.506668 0.026987 -0.019977 -919229.000000 0 1 0
-7.892537 21.165702 -0.048120 22.589409 -1.213874 1.572927 0.021110 -0.004481 207342.000000 0 1 0
-6.585537 20.742802 -0.365220 21.766178 -1.263376 1.587576 0.006499 -0.001172 -263122.000000 0 1 0
-5.627437 21.659102 0.101780 22.378452 -1.316598 1.566248 0.015134 -0.004841 -1246430.000000 0 1 0
-4.203837 21.520102 -0.437420 21.931219 -1.377881 1.590743 0.018025 -0.000003 -421486.000000 0 1 0
-4.069437 21.830602 -1.812320 22.280485 -1.386502 1.652227 0.018363 0.000828 39857.400000 0 1 0
-2.758237 21.597502 -2.288320 21.892838 -1.443773 1.675511 0.017693 0.000008 72154.400000 0 1 0
-2.670737 21.703002 -3.807320 22.195694 -1.448353 1.743183 0.026655 -0.005168 -45108.500000 0 1 0
-1.382737 22.122302 -4.181520 22.556447 -1.508373 1.757255 0.027471 -0.000084 -79452.600000 0 1 0
-1.358837 22.432702 -5.591420 23.158941 -1.510296 1.814643 0.028946 -0.005804 -638827.000000 0 1 0
-0.069037 23.097202 -6.024620 23.870097 -1.567807 1.825948 0.015025 -0.008065 -573908.000000 0 1 0
1.024963 22.240402 -5.868420 23.024430 1.524743 1.828518 0.015604 0.000202 -204011.000000 0 1 0
2.237163 22.716602 -6.422620 23.712844 1.472631 1.845072 0.016078 0.000007 642168.000000 0 1 0
3.360363 21.650202 -6.609420 22.884661 1.416813 1.863785 0.025818 -0.000187 270032.000000 0 1 0
3.153263 20.946902 -7.814820 22.578467 1.421382 1.924227 0.029087 0.000464 240675.000000 0 1 0
3.898863 19.750102 -7.874420 21.616525 1.375893 1.943654 0.023467 -0.003083 309821.000000 0 1 0
3.416663 19.026902 -9.150420 21.387538 1.393120 2.012897 0.018607 0.001256 -90022.200000 0 1 0
3.848863 19.603402 -10.315320 22.483615 1.376926 2.047432 0.032950 -0.005380 -129243.000000 0 1 0
3.048263 19.223702 -11.401220 22.557270 1.413538 2.100682 0.035832 -0.006105 28944.900000 0 1 0
3.580063 19.812602 -12.741620 23.826559 1.392029 2.135026 0.041175 -0.001063 169594.000000 0 1 0
3.586863 21.198202 -12.948620 25.097731 1.403178 2.112887 0.068684 -0.009506 -133072.000000 0 0 1
4.049963 21.449102 -14.268620 26.077954 1.384176 2.149755 0.085769 -0.021936 95221.100000 0 0 1
4.169163 22.916002 -14.703520 27.544846 1.390832 2.133888 0.077096 -0.025680 337788.000000 0 0 1
2.968763 23.674402 -14.516720 27.928946 1.446048 2.117382 0.083147 -0.028233 185004.000000 0 0 1
3.170663 25.014902 -15.003020 29.340911 1.444718 2.107533 0.079849 -0.027024 -74413.200000 0 0 1
1.906263 25.796202 -15.433820 30.121100 1.497033 2.108765 0.079365 -0.016393 67198.000000 0 0 1
1.132763 26.154102 -14.295020 29.827300 1.527512 2.070607 0.074513 -0.026640 -707660.000000 0 0 1
1.042763 27.556902 -14.127420 30.984741 1.532974 2.044233 0.046589 -0.017596 -1003560.000000 0 0 1
0.220963 27.951302 -12.846920 30.763086 1.562891 2.001608 0.042136 -0.018523 989573.000000 0 0 1
-1.164637 27.584102 -13.030220 30.529096 -1.528600 2.011762 0.023663 -0.024331 699644.000000 0 0 1
-1.591437 26.247302 -13.290120 29.463211 -1.510238 2.038766 0.020064 -0.019427 -1370550.000000 0 0 1
-1.370037 25.283402 -12.100920 28.063494 -1.516662 2.016616 0.039232 -0.023101 -189532.000000 0 0 1
-2.367837 25.452602 -11.098020 27.867681 -1.478034 1.980393 0.031259 -0.016036 125101.000000 0 0 1
-2.481337 24.175702 -10.467620 26.461154 -1.468517 1.977500 0.053222 -0.018257 -429304.000000 0 0 1
-3.466237 24.345302 -9.324220 26.299232 -1.429369 1.933222 0.038412 -0.007494 -514101.000000 0 0 1
-3.050637 24.674602 -7.991920 26.115382 -1.447786 1.881810 0.040798 -0.009723 -353070.000000 0 0 1
-2.748937 26.004502 -7.819720 27.293567 -1.465477 1.861372 0.027675 -0.012781 -177468.000000 0 0 1
-2.430037 26.454002 -6.380720 27.320924 -1.479194 1.806520 0.022475 -0.012058 88723.700000 0 0 1
-1.240237 25.900902 -5.861720 26.584858 -1.522949 1.793114 0.023890 -0.012875 -205321.000000 0 0 1
-0.944337 26.347002 -4.527920 26.749922 -1.534969 1.740884 0.029796 -0.015136 -237796.000000 0 0 1
-1.848937 25.785502 -3.378320 26.071512 -1.499214 1.700741 0.038122 -0.015450 3732.960000 0 0 1
-3.091337 26.503902 -3.401920 26.899558 -1.454684 1.697603 0.025776 -0.011639 165810.000000 0 0 1
-3.783537 26.044502 -2.248320 26.413750 -1.426533 1.656019 0.019188 -0.002938 -75623.100000 0 0 1
-4.929637 25.038302 -2.549620 25.646022 -1.376399 1.670377 0.020375 -0.002899 284836.000000 0 0 1
-6.090837 25.596702 -3.198920 26.505142 -1.337187 1.691782 0.017002 -0.004886 431033.000000 0 0 1
-6.989937 24.590902 -3.612920 25.819080 -1.293852 1.711189 -0.002787 -0.001482 -948383.000000 0 0 1
-8.313837 25.196802 -3.979320 26.829717 -1.252088 1.719663 0.002496 0.003824 -1242140.000000 0 0 1
-8.987937 25.667402 -2.868220 27.346393 -1.233971 1.675874 0.007365 -0.002870 -452773.000000 0 0 1
-10.186637 26.331402 -3.262520 28.421019 -1.201666 1.685842 0.019642 -0.002768 509456.000000 0 0 1
-11.082137 26.659702 -2.020220 28.941920 -1.176839 1.640656 0.015894 -0.000703 -78547.500000 0 0 1
-11.628637 25.589602 -1.276120 28.136834 -1.144266 1.616166 0.010679 -0.000415 383130.000000 0 0 1
-10.676737 25.100802 -0.348920 27.279383 -1.168626 1.583587 0.026697 -0.012493 -39959.100000 0 0 1
-10.987437 23.660202 0.060580 26.087020 -1.136045 1.568474 0.027327 -0.013937 -343640.000000 0 0 1
-11.911037 23.435702 1.073080 26.310766 -1.100576 1.530000 0.035318 -0.023892 -253980.000000 0 0 1
-12.285537 22.048202 1.062580 25.262358 -1.062432 1.528722 0.044751 -0.024316 -223771.000000 0 0 1
-13.386637 21.731002 2.097380 25.609325 -1.018684 1.488805 0.050467 -0.029179 -192975.000000 0 0 1
-13.045137 21.731802 3.486080 25.585144 -1.030172 1.434117 0.053014 -0.034418 -13036.200000 0 0 1
-13.017637 23.068902 4.048980 26.796032 -1.057045 1.419112 0.040156 -0.031832 -109829.000000 0 0 1
-12.898937 23.011102 5.590580 26.965681 -1.059887 1.361960 0.037142 -0.034465 -340144.000000 0 0 1
-11.630737 22.679702 6.092780 26.206199 -1.096941 1.336155 0.037722 -0.029917 -104940.000000 0 0 1
-11.694637 22.180902 7.439180 26.155274 -1.085596 1.282391 0.038404 -0.031355 -348048.000000 0 0 1
-10.349137 21.768702 8.065680 25.417242 -1.127011 1.247883 0.044596 -0.027147 -1786.780000 0 0 1
-9.551037 22.904202 8.420080 26.205391 -1.175722 1.243683 0.063509 -0.030288 509856.000000 0 0 1
-8.325937 22.641002 9.081980 25.776318 -1.218408 1.210728 0.072521 -0.030773 150429.000000 0 0 1
-8.508937 22.465002 10.621580 26.265877 -1.208730 1.154488 0.051106 -0.025331 -565638.000000 0 0 1
-9.221837 21.366902 11.021180 25.749819 -1.163353 1.128507 0.055125 -0.028712 -279583.000000 0 0 1
-8.995737 21.053602 12.381680 26.028512 -1.166998 1.075040 0.047480 -0.025457 -333174.000000 0 0 1
-9.953737 19.969002 12.841580 25.743817 -1.108382 1.048557 0.046945 -0.023535 -434169.000000 0 0 1
-9.947737 18.767102 12.097080 24.443832 -1.083389 1.053085 0.054530 -0.028070 -228627.000000 0 1 0
-10.398237 17.604902 12.706780 24.073183 -1.037284 1.014741 0.046072 -0.026479 -155095.000000 0 1 0
-10.683837 16.487102 11.684580 22.858222 -0.995820 1.034244 0.040900 -0.034648 -156059.000000 0 1 0
-10.771037 15.214202 12.207880 22.282718 -0.954748 0.990989 0.039498 -0.034735 117214.000000 0 1 0
-11.132037 14.278702 11.223880 21.302090 -0.908603 1.015858 0.033279 -0.030703 -51683.700000 0 1 0
-11.591437 12.935702 11.837480 21.019508 -0.840151 0.972584 0.022058 -0.031965 -49210.000000 0 1 0
-12.671637 12.909802 12.728580 22.118999 -0.794708 0.957631 0.027340 -0.029005 -7331.210000 0 1 0
-12.927637 11.628702 13.272980 21.875157 -0.732551 0.918818 0.026721 -0.018390 45668.300000 0 1 0
-13.914437 11.671702 14.481980 23.228601 -0.697967 0.897643 0.040385 -0.019576 496860.000000 0 1 0
-15.213337 12.189102 14.273480 24.160961 -0.675479 0.938788 0.051184 -0.024596 68238.100000 0 1 0
-16.026237 11.962702 15.382580 25.230344 -0.641222 0.915132 0.043718 -0.024406 -213274.000000 0 0 1
-17.092337 13.059102 15.651980 26.602117 -0.652422 0.941751 0.052042 -0.022075 -384993.000000 0 0 1
-18.153737 12.929702 14.751580 26.727223 -0.618889 0.986118 0.047149 -0.020199 -258265.000000 0 0 1
-18.960737 14.107502 14.902880 27.939703 -0.639674 1.008188 0.061536 -0.018902 192894.000000 0 0 1
-20.234137 14.000102 14.018080 28.318364 -0.605272 1.052942 0.050047 -0.012300 -111292.000000 0 0 1
-21.147837 13.037402 14.427780 28.729179 -0.552455 1.044656 0.038834 -0.005774 29118.200000 0 0 1
-22.256637 12.797302 13.567380 29.037952 -0.521825 1.084642 0.019498 -0.004216 437813.000000 0 0 1
-23.239237 11.840502 14.311180 29.750118 -0.471222 1.068949 0.015634 -0.002942 -217520.000000 0 0 1
-23.915737 12.459502 15.367280 31.037960 -0.480286 1.052832 0.023117 -0.003213 60741.400000 0 0 1
-24.800437 11.620102 16.055080 31.746717 -0.438168 1.040575 0.014363 -0.003670 -241653.000000 0 0 1
-25.410917 12.336902 17.303080 33.125676 -0.451977 1.021196 0.018543 -0.007270 -472165.000000 0 0 1
-26.460487 13.203102 17.022580 34.121071 -0.462827 1.048482 0.020015 0.001608 -77982.800000 0 0 1
-26.984547 13.773502 18.247580 35.367348 -0.471950 1.028687 0.003188 0.005019 -193589.000000 0 0 1
-28.205357 14.650902 17.969780 36.511698 -0.479076 1.056221 0.003123 0.004126 -322855.000000 0 0 1
-27.945927 15.898902 17.406680 36.561488 -0.517250 1.074589 0.015095 0.008913 -436242.000000 0 0 1
-29.128617 16.613302 17.277980 37.722761 -0.518327 1.095024 0.017522 0.004500 -524235.000000 0 0 1
-28.732457 18.140502 17.135580 38.056011 -0.563159 1.103726 0.036581 -0.000294 -21414.100000 0 0 1
-28.186217 18.738902 18.305280 38.479768 -0.586727 1.075023 0.030691 -0.002289 -891200.000000 0 0 1
-29.039627 19.087402 19.287180 39.744486 -0.581482 1.064114 0.018754 -0.008785 -1804360.000000 0 0 1
-28.356807 19.505602 20.599280 40.111187 -0.602534 1.031474 0.016803 -0.016341 161135.000000 0 0 1
-27.682887 18.606602 21.422680 39.641886 -0.591778 0.999878 0.023698 -0.015632 528934.000000 0 0 1
-26.654807 17.815002 20.776380 38.203547 -0.589174 0.995798 0.041742 -0.009436 -149572.000000 0 0 1
-26.150527 16.494402 21.453180 37.631826 -0.562722 0.964192 0.028112 -0.004836 -247792.000000 0 0 1
-27.110827 15.502902 21.410980 37.865116 -0.519452 0.969813 -0.001012 -0.000198 -112895.000000 0 0 1
-26.526627 14.266502 21.800980 37.181686 -0.493442 0.944267 -0.006947 0.010674 -259675.000000 0 0 1
-27.521587 13.121802 22.042680 37.623120 -0.444901 0.944829 0.013836 0.001196 -362940.000000 0 0 1
-28.277927 12.862102 20.868880 37.424390 -0.426877 0.979271 0.024888 -0.009190 -426606.000000 0 0 1
-29.328937 12.046602 21.278380 38.184770 -0.389732 0.979729 0.054534 -0.012137 -827714.000000 0 0 1
-30.326407 11.607902 20.202780 38.243780 -0.365561 1.014243 0.062125 -0.012314 -484135.000000 0 0 1
-29.807917 11.058202 18.994980 37.035186 -0.355243 1.032248 0.075064 -0.018551 157711.000000 0 0 1
-29.222107 9.766002 19.064680 36.232145 -0.322530 1.016693 0.085121 -0.022123 -7978.040000 0 0 1
-28.466277 9.316102 17.788280 34.835924 -0.316282 1.034879 0.084825 -0.024643 77883.600000 0 0 1
-29.290217 9.059502 16.638780 34.883240 -0.299968 1.073575 0.080509 -0.017528 557102.000000 0 0 1
-29.790877 10.222002 15.950080 35.304260 -0.330537 1.102027 0.073462 -0.014715 13999.300000 0 0 1
-28.775527 11.138802 15.191780 34.393227 -0.369330 1.113294 0.069217 -0.011634 -177805.000000 0 0 1
-28.278117 10.652702 13.974580 33.292955 -0.360271 1.137631 0.064398 -0.013199 299084.000000 0 0 1
-27.342957 11.599602 13.479080 32.617076 -0.401215 1.144774 0.035778 -0.005562 -125711.000000 0 0 1
-27.043097 11.460602 11.956880 31.711851 -0.400846 1.184190 0.051954 -0.005803 -538335.000000 0 0 1
-26.412887 10.329002 11.495080 30.601728 -0.372775 1.185714 0.055497 -0.002479 160934.000000 0 0 1
-27.220577 9.177302 11.336580 30.882046 -0.325178 1.194915 0.055526 0.001013 -466935.000000 0 0 1
-26.508217 8.049202 10.634980 29.674535 -0.294801 1.204256 0.055676 -0.008180 -459626.000000 0 0 1
-26.210357 8.262802 9.296280 29.011679 -0.305388 1.244610 0.059822 -0.009777 338471.000000 0 0 1
-25.983597 7.039902 8.563680 28.249675 -0.264584 1.262808 0.075254 -0.019722 -377373.000000 0 0 1
-25.304597 7.376202 7.245280 27.335418 -0.283637 1.302540 0.077314 -0.013667 346655.000000 0 0 1
-26.209767 7.945602 6.248780 28.091489 -0.294348 1.346476 0.079758 -0.015492 913827.000000 0 0 1
-25.474147 8.272302 5.077580 27.260686 -0.313991 1.383442 0.084753 -0.017702 54378.700000 0 0 1
-26.367077 8.755102 3.893380 28.054108 -0.320592 1.431566 0.067194 -0.015409 -572582.000000 0 0 1
-27.036267 7.703402 3.229980 28.297260 -0.277573 1.456402 0.084872 -0.012376 -121796.000000 0 0 1
-26.381717 6.609102 2.584780 27.319523 -0.245466 1.476042 0.088292 -0.015242 -596673.000000 0 0 1
-25.514587 6.939002 1.357280 26.476143 -0.265540 1.519510 0.102959 -0.012736 -357535.000000 0 0 1
-24.493637 7.836702 1.695080 25.772572 -0.309656 1.504978 0.097228 -0.014107 -219372.000000 0 0 1
-23.473237 7.784402 0.712380 24.740600 -0.320216 1.541998 0.096224 -0.007183 -767147.000000 0 1 0
-22.249737 8.482102 1.295380 23.846905 -0.364215 1.516449 0.079641 -0.013015 -685457.000000 0 1 0
-22.402537 9.872602 1.386580 24.520696 -0.415086 1.514219 0.065620 -0.016298 517275.000000 0 1 0
-21.274437 10.381202 2.066680 23.762201 -0.453974 1.483713 0.071415 -0.020133 -49343.100000 0 1 0
-21.548937 11.850702 2.448180 24.714154 -0.502800 1.471574 0.062587 -0.023130 518085.000000 0 1 0
-20.393737 12.661802 2.673880 24.153165 -0.555622 1.459864 0.063967 -0.025002 884754.000000 0 1 0
-20.852037 13.732702 3.456180 25.205947 -0.582382 1.433245 0.064234 -0.033249 -232168.000000 0 0 1
-19.728637 14.446002 4.223680 24.814221 -0.632034 1.399751 0.033799 -0.023044 55637.000000 0 1 0
-19.161337 13.518602 5.175580 24.014497 -0.614417 1.353573 0.026853 -0.030397 120039.000000 0 1 0
-18.526937 14.042902 6.297680 24.085499 -0.648584 1.306250 0.029726 -0.027016 -148260.000000 0 1 0
-18.097237 12.910302 7.267480 23.388077 -0.619653 1.254831 0.020623 -0.036815 -317219.000000 0 1 0
-17.007437 12.184702 6.772380 21.990566 -0.621670 1.257740 0.019384 -0.028906 10609.700000 0 1 0
-16.367137 11.550902 7.913280 21.538953 -0.614566 1.194591 0.009559 -0.021439 -238585.000000 0 1 0
9.823163 -33.441184 -14.148020 37.616137 -1.285088 1.956397 0.025804 0.001898 -37185.700000 0 0 1
10.990463 -33.217384 -13.366120 37.454479 -1.251269 1.935704 0.023990 -0.001669 283828.000000 0 0 1
11.529563 -31.946084 -13.753220 36.641972 -1.224438 1.955561 0.026530 -0.008849 -283060.000000 0 0 1
12.841263 -31.656384 -12.993620 36.549402 -1.185433 1.934254 0.022435 -0.007696 -502159.000000 0 0 1
13.953863 -32.195484 -13.626820 37.642392 -1.161823 1.941217 0.043905 -0.011161 -646038.000000 0 0 1
15.136463 -31.574884 -13.165820 37.408884 -1.123778 1.930443 0.037712 -0.014802 538610.000000 0 0 1
16.431063 -32.176884 -13.814420 38.680355 -1.098667 1.936004 0.058819 -0.010589 365673.000000 0 0 1
16.624863 -33.490184 -13.300520 39.684787 -1.110025 1.912565 0.061550 -0.016985 -116647.000000 0 0 1
17.622563 -34.169284 -14.041020 40.929756 -1.094634 1.920960 0.058571 -0.002075 132050.000000 0 0 1
17.855063 33.125702 -13.583320 40.007774 1.076430 1.917200 0.047637 -0.004047 -337435.000000 0 0 1
18.480963 33.002202 -12.341420 39.786957 1.060314 1.886187 0.039687 -0.008508 -163366.000000 0 0 1
18.370263 31.684902 -11.822020 38.485838 1.045377 1.883023 0.026789 -0.006535 63307.000000 0 0 1
19.132963 31.332802 -10.520720 38.190317 1.022592 1.849887 0.020890 -0.010351 565915.000000 0 0 1
20.477163 30.885702 -10.659920 38.560014 0.985338 1.850895 0.024802 -0.013620 134750.000000 0 0 1
21.077963 30.731502 -9.417020 38.436779 0.969613 1.818316 0.023154 -0.008226 -185762.000000 0 0 1
22.318863 29.829802 -9.507320 38.449159 0.928444 1.820658 0.022189 0.005944 -562759.000000 0 0 1
23.352863 30.352202 -10.261720 39.647386 0.914997 1.832602 0.032036 -0.007633 -114224.000000 0 0 1
24.507263 29.518502 -10.179220 39.693380 0.877890 1.830140 0.025306 0.005855 880236.000000 0 0 1
25.756563 29.957402 -11.017020 41.014890 0.860656 1.842746 0.012422 0.004147 251967.000000 0 0 1
26.291063 31.200302 -10.550820 42.142599 0.870582 1.823848 0.025909 -0.008161 -544568.000000 0 0 1
27.399363 31.487202 -11.328820 43.249406 0.854706 1.835830 0.028861 -0.004617 -517327.000000 0 0 1
28.015763 32.850702 -11.045820 44.565252 0.864667 1.821264 0.030375 -0.017136 -398738.000000 0 0 1
27.310363 33.888502 -11.677920 45.062848 0.892475 1.832936 0.038816 -0.017287 77554.900000 0 0 1
27.871463 -33.543684 -11.376620 45.071328 -0.877496 1.825970 0.052509 -0.023721 -335474.000000 0 0 1
26.943463 -32.378084 -11.650520 43.703834 -0.876756 1.840638 0.051563 -0.021192 11066.600000 0 0 1
25.689963 -32.500284 -10.969220 42.855179 -0.901904 1.829637 0.060767 -0.023894 585431.000000 0 0 1
24.666763 -31.587684 -11.364520 41.657931 -0.907812 1.847104 0.067953 -0.025268 392362.000000 0 0 1
24.873463 -30.072584 -11.024120 40.553430 -0.879740 1.846103 0.054138 -0.026399 84896.000000 0 0 1
26.006363 -29.575184 -11.762020 41.101916 -0.849519 1.861021 0.041692 -0.016627 414649.000000 0 0 1
26.503863 -28.411984 -11.122020 40.415280 -0.820130 1.849587 0.043518 -0.019025 -77409.800000 0 0 1
27.303463 -27.493084 -12.073420 40.584679 -0.788859 1.872856 0.015954 -0.003538 299314.000000 0 0 1
28.507863 -28.069284 -12.563520 41.933578 -0.777646 1.875075 0.005555 -0.009722 217069.000000 0 0 1
28.336663 -28.927584 -13.648520 42.732349 -0.795717 1.895888 0.006510 -0.018528 -194319.000000 0 0 1
29.702763 -29.552884 -14.033720 44.187921 -0.782869 1.893985 0.010400 -0.015398 377104.000000 0 0 1
30.230663 -30.463584 -13.083420 44.867569 -0.789236 1.866696 0.017986 -0.025266 225583.000000 0 0 1
31.322163 -31.223484 -13.565020 46.260065 -0.783820 1.868404 0.016375 -0.024707 243044.000000 0 0 1
32.131463 -32.049684 -12.516520 47.077345 -0.784124 1.839904 0.006432 -0.018884 327419.000000 0 0 1
33.263963 -32.771384 -12.950120 48.457821 -0.777939 1.841329 0.006329 -0.021212 61278.900000 0 0 1
33.882263 -33.643984 -12.034120 49.241704 -0.781869 1.817686 0.016053 -0.016271 -482731.000000 0 0 1
33.122263 33.872502 -11.598420 48.774522 0.796596 1.810893 0.023074 -0.018135 -396277.000000 0 0 1
32.372563 34.129602 -10.427720 48.182464 0.811813 1.788944 0.034999 -0.022914 -71024.600000 0 0 1
31.747063 32.936602 -9.944820 46.814476 0.803786 1.784858 0.039926 -0.014621 -211434.000000 0 0 1
30.949763 33.179102 -8.644020 46.189389 0.820148 1.759049 0.031828 -0.016979 -259042.000000 0 0 1
30.008163 34.211902 -8.901720 46.370084 0.850763 1.763967 0.028688 -0.015707 -246790.000000 0 0 1
29.298863 -34.311984 -7.672020 45.766751 -0.864045 1.739225 0.034869 -0.020017 271063.000000 0 0 1
28.343763 -33.089784 -7.674720 44.240298 -0.862500 1.745156 0.031390 -0.022151 -471962.000000 0 0 1
28.953163 -31.833484 -7.753820 43.723884 -0.832747 1.749075 0.014781 -0.024996 -59458.800000 0 0 1
28.141363 -30.750484 -8.219120 42.486262 -0.829673 1.765477 0.027025 -0.021983 308661.000000 0 0 1
27.008063 -30.232184 -7.296720 41.190563 -0.841665 1.748882 0.031445 -0.018499 766000.000000 0 0 1
26.150363 -29.254284 -7.928920 40.031517 -0.841362 1.770182 0.037794 -0.031155 218658.000000 0 0 1
25.214763 -28.653084 -7.079720 38.818886 -0.849141 1.754201 0.045084 -0.032449 -43167.500000 0 0 1
24.232763 -27.722984 -7.840520 37.646572 -0.852474 1.780599 0.080561 -0.038047 -982228.000000 0 0 1
23.309063 -28.380584 -8.570520 37.712382 -0.883200 1.800060 0.092557 -0.034365 -638487.000000 0 0 1
22.457863 -27.495784 -9.278120 36.694103 -0.885910 1.826422 0.105245 -0.039579 499034.000000 0 0 1
21.135963 -28.177884 -9.771720 36.554187 -0.927237 1.841409 0.101621 -0.031891 123642.000000 0 0 1
21.312263 -29.092584 -10.839720 37.657542 -0.938546 1.862777 0.112715 -0.032815 -38833.400000 0 0 1
20.219763 -29.946184 -11.109720 37.802627 -0.976907 1.869088 0.107053 -0.032165 145479.000000 0 0 1
19.866363 -31.115884 -10.104320 38.274899 -1.002574 1.837956 0.100382 -0.038040 144782.000000 0 0 1
20.977463 -31.984784 -9.942520 39.521311 -0.990314 1.825102 0.083483 -0.027233 59131.600000 0 0 1
20.647763 -33.364784 -9.829520 40.449454 -1.016632 1.816261 0.061522 -0.024888 -512910.000000 0 0 1
21.798663 -34.321784 -10.081920 41.890472 -1.004948 1.813856 0.057480 -0.016892 -547645.000000 0 0 1
22.765263 -34.277084 -9.063620 42.134604 -0.984535 1.787602 0.061460 -0.013034 510906.000000 0 0 1
23.964963 33.824702 -9.561120 42.542272 0.954385 1.797477 0.049819 -0.014180 322041.000000 0 0 1
25.249163 34.128802 -8.780720 43.352005 0.933842 1.774752 0.046190 -0.012142 -723387.000000 0 0 1
25.301663 33.676802 -7.443920 42.775145 0.926458 1.745711 0.036663 -0.016719 101311.000000 0 0 1
25.455163 32.310002 -7.207620 41.759446 0.903513 1.744264 0.027645 -0.006303 -412283.000000 0 0 1
25.401663 31.927902 -5.761420 41.204725 0.898747 1.711080 0.023122 -0.001689 273391.000000 0 0 1
26.527763 32.355102 -4.963620 42.133269 0.884042 1.688878 0.019716 -0.004181 898325.000000 0 0 1
27.586863 31.453902 -4.665020 42.096857 0.850803 1.681841 0.035305 -0.008393 262472.000000 0 0 1
27.255163 30.317902 -3.620920 40.928353 0.838545 1.659382 0.034824 0.003053 -450715.000000 0 0 1
26.959663 30.778102 -2.273120 40.979044 0.851436 1.626295 0.035091 -0.007892 48752.900000 0 0 1
26.640363 29.763302 -1.370020 39.967987 0.840709 1.605081 0.021878 -0.003614 393188.000000 0 0 1
25.264863 29.008802 -1.512220 38.498191 0.854272 1.610087 0.013497 0.002358 1119630.000000 0 0 1
24.146763 29.704602 -0.949920 38.292713 0.888241 1.595606 0.011939 -0.002021 -389220.000000 0 0 1
22.939163 29.063002 -1.100620 37.041526 0.902620 1.600514 0.020937 0.006500 -675014.000000 0 0 1
21.664563 29.729902 -0.586320 36.790815 0.941059 1.586734 0.032564 0.002559 -25387.900000 0 0 1
21.529263 29.581002 0.829480 36.595530 0.941651 1.548128 0.040644 -0.007341 -307373.000000 0 0 1
20.373463 30.289702 1.170280 36.522781 0.978683 1.538748 0.035038 -0.009965 -196814.000000 0 0 1
19.573663 29.561202 2.331480 35.530673 0.985934 1.505130 0.022796 -0.020210 -38552.400000 0 0 1
19.039163 28.321802 1.853580 34.176745 0.978942 1.516535 0.032961 -0.006933 217866.000000 0 0 1
18.497763 27.530802 2.894780 33.294024 0.979184 1.483740 0.039682 -0.006367 -14031.800000 0 0 1
17.952363 26.179402 2.341780 31.829740 0.969702 1.497158 0.045728 0.006868 190603.000000 0 0 1
18.935963 25.224002 1.997180 31.603950 0.926840 1.507560 0.041966 -0.002248 143608.000000 0 0 1
19.470763 24.436902 3.075080 31.396320 0.898024 1.472695 0.036205 -0.002371 163844.000000 0 0 1
20.728563 23.650402 2.625280 31.557993 0.851142 1.487511 0.029529 -0.000008 -84800.200000 0 0 1
20.336663 22.723002 1.652180 30.539226 0.840761 1.516670 0.034094 0.003701 184407.000000 0 0 1
21.438863 22.005602 1.162280 30.744467 0.798443 1.532983 0.008158 -0.000770 -308742.000000 0 0 1
21.094663 20.994202 0.013780 29.761409 0.783011 1.570333 0.040479 -0.010494 -359473.000000 0 0 1
20.987363 21.638002 -1.231320 30.169333 0.800661 1.611621 0.017407 -0.002651 409634.000000 0 0 1
21.213663 20.722602 -2.315420 29.745703 0.773689 1.648716 0.054921 -0.013091 -30417.400000 0 0 1
21.008463 21.408902 -3.678820 30.219700 0.794838 1.692835 0.037325 -0.009255 -293986.000000 0 0 1
21.995563 22.375602 -3.924320 31.620762 0.793963 1.695223 0.030546 -0.004403 193967.000000 0 0 1
21.710263 23.015602 -5.139020 32.054063 0.814575 1.731815 0.025376 -0.000532 -656427.000000 0 0 1
22.732263 24.062502 -5.556920 33.565445 0.813818 1.737117 0.013950 0.014741 -507077.000000 0 0 1
22.805063 25.248002 -4.741620 34.351353 0.836193 1.709271 0.012495 0.018165 71697.800000 0 0 1
23.331963 25.164402 -3.410720 34.485658 0.823165 1.669861 0.019398 0.006874 -486652.000000 0 0 1
22.310963 24.867002 -2.312920 33.488751 0.839524 1.639917 0.014088 0.002184 -2137420.000000 0 0 1
21.348563 25.902802 -2.131820 33.634222 0.881485 1.634221 0.026118 0.007586 -408010.000000 0 0 1
20.312263 25.422302 -1.385920 32.569959 0.896669 1.613361 0.037419 0.013106 -904236.000000 0 0 1
19.424563 24.310802 -1.956420 31.179421 0.896660 1.633585 0.063035 -0.002462 -2101420.000000 0 0 1
18.734563 24.580002 -3.150020 31.065784 0.919541 1.672369 0.047660 -0.002376 134872.000000 0 0 1
17.850363 23.586802 -3.578320 29.795588 0.922961 1.691183 0.063234 -0.011329 -132908.000000 0 0 1
17.475863 23.913502 -5.022320 30.041389 0.939700 1.738765 0.064218 -0.013633 -101332.000000 0 0 1
16.587163 23.016902 -5.652820 28.928638 0.946344 1.767467 0.067426 -0.019142 4777.610000 0 0 1
16.291563 23.476802 -6.936720 29.405668 0.964147 1.808938 0.068928 -0.017133 41292.100000 0 0 1
15.398963 22.471902 -7.686020 28.305288 0.970036 1.845789 0.082718 -0.025641 -156469.000000 0 0 1
16.039163 21.218102 -7.938220 27.757484 0.923518 1.860830 0.060550 -0.018894 163598.000000 0 0 1
15.287963 20.324902 -8.723520 26.887232 0.925902 1.901225 0.055772 -0.010950 -61449.000000 0 0 1
16.077463 19.020902 -9.083220 26.510081 0.869065 1.920514 0.051302 -0.006947 -188994.000000 0 0 1
16.992063 19.175502 -10.126020 27.549344 0.845695 1.947180 0.057822 -0.004129 164197.000000 0 0 1
17.686263 17.910602 -10.320520 27.204902 0.791700 1.959904 0.048897 -0.005276 362483.000000 0 0 1
19.171263 18.123102 -10.702720 28.469850 0.757300 1.956198 0.040352 -0.005349 -20765.300000 0 0 1
19.260063 18.564002 -12.049720 29.338847 0.766998 1.994028 0.039779 -0.001689 536589.000000 0 0 1
20.551863 19.089402 -12.351920 30.648887 0.748523 1.985604 0.032152 0.001765 361944.000000 0 0 1
20.657363 19.319102 -13.903620 31.516107 0.751934 2.027686 0.031325 -0.000623 -24563.800000 0 0 1
20.950963 18.110002 -14.650020 31.329508 0.712795 2.057382 0.029168 0.003237 333856.000000 0 0 1
21.193463 18.485602 -16.009420 32.360190 0.717260 2.088316 0.026130 0.000090 49741.200000 0 0 1
21.136663 17.358902 -17.005820 32.206954 0.687576 2.127060 0.020585 -0.001494 180469.000000 0 0 1
22.159563 16.353902 -16.815020 32.268270 0.635781 2.118936 0.026292 -0.002887 555896.000000 0 0 1
22.246463 15.487302 -17.957120 32.514916 0.608150 2.155885 0.028998 -0.013929 101803.000000 0 0 1
23.132163 16.013602 -19.148720 34.032424 0.605516 2.168398 0.029662 -0.008019 79081.000000 0 0 1
24.501063 16.220502 -18.857820 34.914526 0.584788 2.141369 0.038683 -0.009096 368914.000000 0 0 1
25.177363 16.912202 -19.892320 36.271567 0.591495 2.151279 0.055804 -0.016009 565259.000000 0 0 1
26.672363 17.204102 -19.547520 37.276019 0.572864 2.122806 0.043834 -0.012572 448959.000000 0 0 1
26.848163 18.278202 -18.646120 37.451226 0.597723 2.091946 0.038461 -0.006214 -357107.000000 0 0 1
28.176463 18.416902 -18.221120 38.276684 0.578921 2.066939 0.031530 -0.014010 -323859.000000 0 0 1
28.307863 19.551502 -17.164720 38.447678 0.604439 2.033583 0.036099 -0.012814 445250.000000 0 0 1
27.591863 19.274202 -15.914020 37.229851 0.609750 2.012470 0.029554 -0.015486 302840.000000 0 0 1
26.278863 19.766102 -15.898320 36.524430 0.644887 2.021145 0.028356 -0.008821 -661367.000000 0 0 1
25.359763 19.179502 -14.859320 35.096585 0.647519 2.007973 0.028360 -0.008949 -292408.000000 0 0 1
25.720463 19.607702 -13.537820 35.061043 0.651351 1.967220 0.028683 -0.013219 332794.000000 0 0 1
24.652963 19.357702 -12.649820 33.800993 0.665656 1.954378 0.037066 -0.019810 51167.300000 0 0 1
25.054163 19.742002 -11.238720 33.819618 0.667364 1.909552 0.040843 -0.019841 -115234.000000 0 0 1
24.950063 21.142902 -11.089720 34.532735 0.702988 1.897726 0.034354 -0.012380 424356.000000 0 0 1
25.657163 21.635502 -9.919820 34.996968 0.700565 1.858184 0.031517 -0.009611 288786.000000 0 0 1
24.898863 21.546302 -8.590020 34.029178 0.713340 1.825988 0.039762 -0.009514 -565592.000000 0 0 1
24.990463 20.232402 -8.009920 33.136568 0.680570 1.814939 0.050994 -0.018486 360082.000000 0 0 1
24.188163 20.115802 -6.840020 32.194698 0.693737 1.784886 0.047171 -0.013740 1632570.000000 0 0 1
22.632463 19.808302 -7.074720 30.897392 0.718953 1.801821 0.046339 -0.016714 1361530.000000 0 0 1
21.923863 20.981102 -7.464920 31.250399 0.763428 1.812003 0.039444 -0.015273 -153159.000000 0 0 1
20.767363 20.612202 -8.171620 30.379625 0.781648 1.843134 0.028996 -0.014977 5974.930000 0 0 1
19.712663 21.750402 -8.320620 30.510683 0.834505 1.847007 0.039990 -0.017843 -158978.000000 0 0 1
20.179163 22.828502 -9.123720 31.805367 0.846922 1.861745 0.038265 -0.015230 133150.000000 0 0 1
19.760263 22.721202 -10.471920 31.880748 0.854985 1.905481 0.044847 -0.000709 36387.000000 0 0 1
18.248963 22.989802 -10.691020 31.238655 0.899856 1.920093 0.039868 -0.012203 -235238.000000 0 0 1
17.932163 24.313102 -10.306220 31.920331 0.935310 1.899560 0.039892 -0.021893 -3526.060000 0 0 1
16.676663 24.720402 -10.815720 31.720485 0.977314 1.918744 0.049066 -0.022179 160191.000000 0 0 1
16.266063 26.054402 -10.107020 32.335252 1.012692 1.888693 0.052340 -0.020529 -111303.000000 0 0 1
17.132163 27.096002 -10.455820 33.719853 1.006982 1.886073 0.081074 -0.010722 -40861.600000 0 0 1
16.952763 28.200002 -9.578020 34.269151 1.029523 1.854063 0.084241 -0.027345 46208.000000 0 0 1
19.775363 29.018802 33.941556 48.838356 0.972617 0.802408 0.001650 0.001906 200502.000000 0 0 1
18.511263 29.354902 33.411038 48.173380 1.008179 0.804380 0.012855 -0.013603 -76349.000000 0 0 1
17.493263 28.427802 33.769262 47.481756 1.019161 0.779586 0.016850 -0.008329 337033.000000 0 0 1
16.086863 29.057102 33.668857 47.293702 1.065171 0.778582 0.042683 -0.025383 -55343.500000 0 0 1
15.598763 29.226902 32.335742 46.293989 1.080544 0.797515 0.048573 -0.029509 558084.000000 0 0 1
14.266563 29.760402 32.550452 46.354592 1.123780 0.792306 0.039679 -0.032080 657471.000000 0 0 1
13.459163 29.778202 31.238832 45.207908 1.146297 0.807920 0.032612 -0.034926 -489521.000000 0 0 1
13.109563 28.485402 30.689192 43.876021 1.139476 0.796165 0.029506 -0.030603 206015.000000 0 0 1
11.782763 28.113802 31.007272 43.481838 1.173926 0.776874 0.029046 -0.021126 -277030.000000 0 0 1
11.631463 26.588902 31.050192 42.501471 1.158423 0.751644 0.014412 -0.018305 -85148.800000 0 0 1
11.690063 25.801602 29.818732 41.128299 1.145388 0.759737 0.012943 -0.013906 1683110.000000 0 0 1
13.058063 25.758902 29.306842 41.145170 1.101617 0.778056 0.026012 -0.020598 1314210.000000 0 0 1
13.045163 24.934402 28.011972 39.706060 1.088778 0.787691 0.045917 -0.021029 -8607.250000 0 0 1
12.363863 25.580002 26.912292 39.134039 1.120565 0.812487 0.042084 -0.019833 425892.000000 0 0 1
12.436663 24.792102 25.734862 37.836517 1.105839 0.822816 0.051577 -0.024391 67495.900000 0 0 1
11.556263 23.504202 25.585072 36.614077 1.113837 0.797110 0.043519 -0.020197 -472539.000000 0 0 1
11.602863 23.138802 24.261582 35.477527 1.105992 0.817759 0.055398 -0.036166 -89424.000000 0 0 1
10.988463 21.926602 23.969102 34.293440 1.106231 0.796880 0.047883 -0.037614 -215695.000000 0 0 1
11.130463 21.655802 22.467972 33.131114 1.096034 0.825550 0.064716 -0.037370 -331075.000000 0 0 1
10.516363 22.556002 21.625772 32.970306 1.134525 0.855400 0.054101 -0.041963 -31623.400000 0 0 1
10.978563 22.368002 20.256272 32.111881 1.114523 0.888209 0.053934 -0.027297 -311496.000000 0 0 1
10.539863 23.551402 19.264872 32.200815 1.150002 0.929452 0.044435 -0.025967 508866.000000 0 0 1
9.140763 23.762202 19.124472 31.842443 1.203569 0.926549 0.048219 -0.029958 132206.000000 0 0 1
8.589863 24.480502 20.215572 32.889969 1.233333 0.908864 0.043704 -0.024683 732200.000000 0 0 1
7.250963 25.299302 19.858272 32.969411 1.291671 0.924387 0.047202 -0.022563 1241290.000000 0 0 1
7.366363 26.247402 18.844672 33.140776 1.297184 0.965963 0.049999 -0.028111 -143639.000000 0 0 1
6.124863 26.835202 18.526572 33.179449 1.346400 0.978371 0.047349 -0.028201 -81069.100000 0 0 1
6.337463 27.994402 17.496572 33.615175 1.348166 1.023364 0.060609 -0.026718 130765.000000 0 0 1
6.408763 27.592802 16.193772 32.629330 1.342581 1.051471 0.052748 -0.024736 24936.800000 0 0 1
7.125063 28.500802 15.355972 33.149179 1.325822 1.089151 0.055510 -0.017273 276332.000000 0 0 1
7.537263 27.677202 14.111172 31.968156 1.304916 1.113623 0.046751 -0.013834 84895.100000 0 0 1
6.464463 27.697002 13.196472 31.353788 1.341502 1.136371 0.037847 -0.015489 76602.500000 0 0 1
6.330863 26.435302 12.470672 29.906900 1.335738 1.140673 0.019689 -0.019892 4597.880000 0 0 1
5.668563 26.701202 11.057272 29.450807 1.361606 1.185915 0.018756 -0.017534 -93782.300000 0 0 1
6.374963 27.406802 10.063972 29.884050 1.342255 1.227315 0.017397 -0.013830 -101954.000000 0 0 1
6.435863 28.749502 10.309572 31.212841 1.350567 1.234176 0.022390 -0.012841 -25987.200000 0 0 1
6.978063 29.597702 9.098072 31.741018 1.339261 1.280084 0.025041 -0.007168 -588468.000000 0 0 1
6.157463 29.663502 7.963972 31.325110 1.366126 1.313739 0.021251 -0.014677 -187133.000000 0 0 1
6.145063 28.566702 7.114672 30.073856 1.358912 1.331959 0.013077 -0.002381 -56378.000000 0 0 1
4.656263 28.246302 6.903572 29.448152 1.407421 1.334163 0.004126 -0.003717 105485.000000 0 0 1
3.977063 29.205502 6.135272 30.106809 1.435454 1.365575 0.004630 -0.007868 427773.000000 0 0 1
2.556063 29.105902 5.984672 29.824541 1.483202 1.368762 0.041080 -0.018840 991463.000000 0 0 1
1.914463 30.046502 4.955172 30.512476 1.507166 1.407676 0.059288 -0.031173 -326903.000000 0 0 1
2.148263 29.817802 3.610172 30.112284 1.498874 1.450617 0.046039 -0.027664 35353.600000 0 0 1
1.363863 30.709402 2.850172 30.871523 1.526414 1.478341 0.044579 -0.034765 356211.000000 0 0 1
-0.049837 30.205302 2.461672 30.305487 -1.569146 1.489478 0.066891 -0.032651 -160997.000000 0 0 1
0.032563 29.257302 1.453072 29.293381 1.569683 1.521172 0.059998 -0.025640 -190697.000000 0 0 1
-1.112337 28.441102 1.433272 28.498909 -1.531706 1.520483 0.057193 -0.024177 140129.000000 0 0 1
-1.733737 28.087002 0.070272 28.140548 -1.509147 1.568299 0.051925 -0.021388 -13603.200000 0 0 1
-2.424337 29.103102 -0.630328 29.210705 -1.487687 1.592377 0.048566 -0.026187 213773.000000 0 0 1
-1.630337 29.849802 -1.559528 29.934943 -1.516233 1.622917 0.039335 -0.020050 116876.000000 0 0 1
-2.460837 31.039802 -2.220928 31.216302 -1.491682 1.642003 0.035884 -0.015828 872601.000000 0 0 1
-3.650437 30.651102 -2.939528 31.007363 -1.452258 1.665740 0.018658 -0.010596 615756.000000 0 0 1
-3.527037 29.709302 -4.014528 30.186074 -1.452631 1.704184 0.007877 -0.007859 -951700.000000 0 0 1
-4.895437 29.322402 -4.562028 30.076247 -1.405370 1.723066 0.007534 0.003258 -295425.000000 0 0 1
-5.461937 30.360302 -5.352828 31.308680 -1.392796 1.742610 0.005715 -0.002454 -461038.000000 0 0 1
-6.375937 29.842802 -6.252928 31.150353 -1.360310 1.772903 0.005212 -0.002031 -291796.000000 0 0 1
-7.017237 30.952502 -7.161528 32.535926 -1.347855 1.792725 0.015471 0.001388 670010.000000 0 0 1
-8.095037 31.750602 -6.628428 33.430023 -1.321158 1.770397 0.004264 0.006152 561197.000000 0 0 1
-8.305937 32.957102 -7.368428 34.777189 -1.323915 1.784290 0.017779 -0.003297 56445.700000 0 0 1
-9.311037 34.012702 -6.774228 35.908905 -1.303591 1.760584 0.019266 -0.001806 81090.800000 0 0 1
-10.612137 33.492002 -6.874028 35.799217 -1.263948 1.764012 0.030382 -0.000776 -160761.000000 0 0 1
-11.522937 -34.342884 -6.182728 36.748304 1.247073 1.739846 0.037969 -0.005553 -931501.000000 0 0 1
-12.963737 34.062702 -6.262528 36.980338 -1.207139 1.740964 0.061035 -0.009059 -1295770.000000 0 0 1
-13.444237 34.090302 -7.633628 37.432185 -1.195152 1.776169 0.075442 -0.015574 24165.000000 0 0 1
-14.830537 33.842802 -7.681828 37.739774 -1.157783 1.775776 0.089670 -0.021392 -510985.000000 0 0 1
-15.439637 33.740302 -9.077828 38.199442 -1.141638 1.810735 0.097283 -0.025114 942480.000000 0 0 1
-16.860637 33.632802 -9.226928 38.737355 -1.106097 1.811300 0.113551 -0.025002 804241.000000 0 0 1
-17.646537 -33.948984 -8.933128 39.290388 1.091438 1.800164 0.125161 -0.021724 550480.000000 0 0 1
-19.152137 -34.331084 -9.315428 40.400555 1.061934 1.803467 0.109860 -0.023216 1347300.000000 0 0 1
-19.721137 33.447802 -8.379028 39.722624 -1.038052 1.783331 0.083077 -0.016020 333761.000000 0 0 1
-20.162937 34.020202 -7.126528 40.183399 -1.035780 1.749089 0.068095 -0.003025 -218557.000000 0 0 1
-20.721037 32.965502 -6.149928 39.419631 -1.009636 1.727448 0.054754 -0.007821 -612325.000000 0 0 1
-20.555737 33.241802 -4.752428 39.371834 -1.016979 1.691798 0.073460 -0.018024 503245.000000 0 0 1
-21.644737 32.843402 -3.909528 39.528067 -0.988100 1.669863 0.064898 -0.015984 788626.000000 0 0 1
-22.865737 33.825902 -3.897528 41.014928 -0.976372 1.665967 0.048530 -0.004938 237671.000000 0 0 1
-23.385637 34.039002 -5.204228 41.624820 -0.968832 1.696151 0.032171 -0.011093 -49488.100000 0 0 1
-24.250537 -33.570784 -5.325828 41.754647 0.945214 1.698695 0.025581 -0.003994 339645.000000 0 0 1
-24.857537 -33.501684 -6.769128 42.262052 0.932449 1.731660 0.054069 0.012806 418465.000000 0 0 1
-23.882137 -32.953684 -7.678328 41.415679 0.943673 1.757272 0.087243 0.007949 627007.000000 0 0 1
-24.154237 -33.341784 -9.008028 42.145537 0.943853 1.786194 0.031119 0.014234 -265426.000000 0 0 1
-25.092007 -32.426084 -9.816528 42.159506 0.912223 1.805796 0.032431 0.018012 -891039.000000 0 0 1
-26.379847 -32.621384 -9.315328 42.974718 0.890793 1.789294 0.039487 0.020729 -1242330.000000 0 0 1
-27.390247 -31.975184 -10.020428 43.278713 0.862478 1.804449 -0.009594 0.027652 -320714.000000 0 0 1
-27.547587 -30.398084 -10.025728 42.230656 0.834551 1.810489 -0.018058 0.030254 -392550.000000 0 0 1
-26.524427 -29.633284 -10.682728 41.180061 0.840701 1.833213 0.006503 0.039369 179714.000000 0 0 1
-26.658057 -29.510084 -12.073328 41.560346 0.836131 1.865547 0.008857 0.031613 -565052.000000 0 0 1
-25.600267 -28.648784 -12.782128 40.490855 0.841534 1.891969 0.032028 0.018904 85979.900000 0 0 1
-24.400937 -29.420684 -12.734128 40.288217 0.878395 1.892387 0.041426 0.012948 312103.000000 0 0 1
-23.330237 -28.855784 -13.497928 39.486077 0.890887 1.919671 0.051477 0.007289 910340.000000 0 0 1
-22.068337 -29.799684 -13.535428 39.474555 0.933367 1.920788 0.068291 -0.012129 236634.000000 0 0 1
-22.046437 -31.011484 -14.248128 40.629628 0.952784 1.929097 0.069053 -0.014511 -241079.000000 0 0 1
-22.920637 -31.976384 -13.722228 41.667065 0.948885 1.906391 0.055806 -0.010059 -169497.000000 0 0 1
-23.044537 -33.230984 -14.605028 42.995998 0.964469 1.917377 0.041644 -0.016496 60263.100000 0 0 1
-23.616237 -34.294884 -13.842428 43.880275 0.967747 1.891737 0.035783 -0.024187 138789.000000 0 0 1
-23.520737 33.235602 -14.579828 43.248141 -0.954923 1.914653 0.035285 -0.029038 -237210.000000 0 0 1
-24.002637 32.029902 -13.736528 42.317058 -0.927691 1.901395 0.019074 -0.022398 380029.000000 0 0 1
-23.110737 31.505102 -12.715528 41.089686 -0.937903 1.885419 0.016491 -0.021440 591574.000000 0 0 1
-22.753437 32.423402 -11.689228 41.299322 -0.958890 1.857755 0.027294 -0.018722 -188982.000000 0 0 1
-21.992937 31.821402 -10.496128 40.080664 -0.966044 1.835761 0.026120 -0.010282 68246.600000 0 0 1
-22.762737 30.891702 -9.738628 39.588892 -0.935761 1.819341 0.015706 -0.012956 188035.000000 0 0 1
-22.016737 30.402702 -8.646228 38.520362 -0.944032 1.797184 0.020866 -0.003979 -243570.000000 0 0 1
-22.808037 29.495202 -7.673328 38.066435 -0.912562 1.773764 0.019459 -0.013152 -210795.000000 0 0 1
-23.108537 28.260302 -8.319628 37.441493 -0.885354 1.794870 0.025437 -0.004155 351757.000000 0 0 1
-23.694037 27.224402 -7.479728 36.858131 -0.854621 1.775149 0.046142 -0.018816 -443307.000000 0 0 1
-22.761137 26.602302 -6.473928 35.604264 -0.863056 1.753644 0.052852 -0.016793 -546816.000000 0 0 1
-22.551537 27.385202 -5.332828 35.874227 -0.881893 1.720003 0.046596 -0.013681 184797.000000 0 0 1
-21.503237 26.866602 -4.481428 34.702834 -0.895829 1.700295 0.039630 -0.011472 546837.000000 0 0 1
-20.285837 27.856902 -4.610528 34.767501 -0.941383 1.703798 0.037266 -0.012527 22271.400000 0 0 1
-19.580337 27.678602 -5.799528 34.396644 -0.955109 1.740213 0.035945 -0.009318 -1163920.000000 0 0 1
-18.392137 28.357902 -5.773528 34.289575 -0.995426 1.739978 0.032230 -0.004195 -332952.000000 0 0 1
-17.441937 28.163302 -7.036228 33.865931 -1.016296 1.780088 0.042983 -0.002667 409147.000000 0 0 1
-17.966537 28.604602 -8.287228 34.780711 -1.009971 1.811381 0.051893 -0.001373 224724.000000 0 0 1
-17.887537 30.051902 -8.329228 35.950756 -1.033898 1.804605 0.062748 -0.007475 -41782.200000 0 0 1
-18.092537 30.611002 -9.742228 36.868474 -1.036986 1.838215 0.066513 -0.010026 -155080.000000 0 0 1
-16.941937 30.279402 -10.487528 36.247202 -1.060673 1.864327 0.065472 -0.011737 34576.100000 0 0 1
-16.878737 31.117702 -11.608228 37.255256 -1.073794 1.887658 0.063447 -0.018397 244327.000000 0 0 1
-15.469937 31.027502 -12.269128 36.777117 -1.108279 1.910924 0.073132 -0.022481 478793.000000 0 0 1
-15.283937 31.895502 -13.415128 37.827073 -1.123937 1.933329 0.076678 -0.021979 121843.000000 0 0 1
-15.798537 31.246702 -14.584928 37.929807 -1.102674 1.965489 0.067338 -0.023268 -121016.000000 0 0 1
-15.315837 32.003702 -15.839028 38.854686 -1.124444 1.990673 0.108139 -0.029605 876959.000000 0 0 1
-13.940437 31.687702 -16.101728 38.179993 -1.156346 2.006151 0.104524 -0.033905 599036.000000 0 0 1
-13.557737 32.174202 -17.433728 39.024689 -1.171991 2.033910 0.072984 -0.038440 700269.000000 0 0 1
-12.028237 32.165202 -17.767328 38.664669 -1.212945 2.048255 0.097368 -0.037089 567685.000000 0 0 1
-11.441037 30.856602 -17.762428 37.396939 -1.215730 2.065726 0.107090 -0.044816 316105.000000 0 0 1
-10.116837 30.796302 -18.284328 37.216653 -1.253395 2.084371 0.097806 -0.038981 522638.000000 0 0 1
-9.892537 30.979702 -19.827128 38.088308 -1.261707 2.118299 0.107197 -0.043589 -587289.000000 0 0 1
-10.467237 29.903902 -20.522328 37.748806 -1.234096 2.145582 0.096598 -0.043377 116854.000000 0 0 1
-10.161537 29.985002 -21.910628 38.502374 -1.244056 2.176173 0.093956 -0.048403 -934838.000000 0 0 1
-11.332437 29.449302 -22.773028 38.913961 -1.203451 2.195941 0.098127 -0.042320 54043.800000 0 0 1
-12.387637 30.328202 -22.989328 40.022026 -1.183024 2.182688 0.101609 -0.043323 -44450.200000 0 0 1
-13.208937 30.657602 -21.861628 39.903576 -1.163978 2.150602 0.102311 -0.040754 -1026830.000000 0 0 1
-14.042937 31.894402 -22.111428 41.271930 -1.156043 2.136192 0.122081 -0.046798 -578893.000000 0 0 1
-15.068737 31.690102 -23.033728 41.974779 -1.126938 2.151667 0.097651 -0.043273 -251246.000000 0 0 1
-15.745637 32.958002 -23.211228 43.277201 -1.125108 2.136889 0.083007 -0.034935 378665.000000 0 0 1
-16.027437 33.128302 -24.697528 44.320774 -1.120193 2.161860 0.061310 -0.023779 585899.000000 0 0 1
-14.793737 33.307802 -25.406928 44.427203 -1.152816 2.179589 0.081648 -0.026025 491837.000000 0 0 1
-14.930237 33.281602 -26.863828 45.301681 -1.149104 2.205574 0.084436 -0.014384 61812.600000 0 0 1
-15.286837 -34.086784 -27.537328 46.410135 1.149217 2.206007 0.065648 -0.008493 402300.000000 0 0 1
-16.621837 -33.745884 -27.206028 46.424542 1.113119 2.196943 0.059114 0.001682 49501.700000 0 0 1
-17.117937 -32.549684 -27.810628 46.107881 1.086643 2.218259 0.047247 0.006759 -402268.000000 0 0 1
-18.523037 -32.143684 -27.410628 46.126585 1.048018 2.207127 0.046825 -0.003923 187300.000000 0 0 1
-19.537237 -33.080184 -27.852228 47.452595 1.037315 2.198081 0.031292 -0.000252 -582.839000 0 0 1
-20.826937 -32.587484 -27.543728 47.480126 1.002116 2.189661 0.030326 -0.005852 519221.000000 0 0 1
-21.970437 -33.602384 -27.821728 48.845357 0.991729 2.176801 0.012621 0.001533 264851.000000 0 0 1
-21.941937 33.998002 -27.015228 48.653215 -0.997669 2.159473 0.037215 -0.002285 -608483.000000 0 0 1
-23.206437 33.400402 -26.987228 48.810205 -0.963572 2.156639 0.019178 0.004176 -430287.000000 0 0 1
-23.158137 31.865002 -27.091128 47.808021 -0.942337 2.173249 0.028374 0.008222 -201391.000000 0 0 1
-22.522337 31.271402 -26.031928 46.506102 -0.946627 2.164884 0.025795 0.002660 -538921.000000 0 0 1
-22.633137 29.849302 -26.081928 45.645446 -0.922038 2.179010 0.010762 -0.000858 -63189.500000 0 0 1
30.126541 10.034402 -26.559560 41.396956 0.321518 2.267356 0.035355 -0.014624 231261.000000 0 0 1
30.158341 8.599302 -26.605470 41.125717 0.277767 2.274348 0.020556 -0.005545 -207312.000000 0 0 1
28.842531 8.132202 -26.510030 40.010074 0.274818 2.295060 0.032329 -0.010622 -164515.000000 0 0 1
28.798341 6.641402 -26.095680 39.426352 0.226655 2.294126 0.017847 -0.005412 161225.000000 0 0 1
29.292641 6.431602 -24.781320 38.904218 0.216134 2.261374 0.014741 0.007453 189182.000000 0 0 1
28.819441 5.176602 -24.382620 38.103406 0.177727 2.265173 0.021503 0.004572 84931.300000 0 0 1
28.824381 5.028002 -22.863220 37.132905 0.172698 2.234087 0.012340 0.011506 325939.000000 0 0 1
30.155761 4.868502 -22.389520 37.872983 0.160064 2.203310 0.014200 0.008956 383008.000000 0 0 1
30.156941 4.652502 -20.975920 37.028045 0.153070 2.173033 0.001740 0.004461 1012230.000000 0 0 1
31.487641 4.204902 -20.189920 37.640213 0.132756 2.136953 0.003740 0.001588 1075380.000000 0 0 1
31.867581 2.876202 -20.438020 37.967459 0.090011 2.139219 0.022232 -0.002043 -144224.000000 0 0 1
32.906131 2.494102 -19.591120 38.377676 0.075650 2.106542 0.029819 -0.011371 -238597.000000 0 0 1
33.340261 0.971902 -19.647320 38.710913 0.029143 2.103123 0.049742 -0.011274 -148445.000000 0 0 1
32.366541 0.213902 -18.978220 37.520816 0.006609 2.101111 0.055655 -0.021291 -172448.000000 0 0 1
32.571601 -1.189898 -19.014820 37.734447 -0.036516 2.098918 0.056267 -0.018875 525585.000000 0 0 1
31.275481 -1.928298 -18.537420 36.407554 -0.061577 2.105010 0.041270 -0.017769 578325.000000 0 0 1
31.216381 -2.051098 -17.119420 35.661520 -0.065612 2.071511 0.046744 -0.023215 303037.000000 0 0 1
29.935261 -1.696998 -16.608420 34.275929 -0.056628 2.076646 0.038196 -0.026831 -69627.500000 0 0 1
29.844071 -2.027898 -15.145820 33.528746 -0.067845 2.039496 0.037796 -0.027573 -273999.000000 0 0 1
29.749621 -3.416698 -14.986220 33.485827 -0.114347 2.034808 0.030898 -0.023486 616339.000000 0 0 1
28.773341 -3.746198 -13.995720 32.215204 -0.129469 2.020218 0.027989 -0.021829 -65660.100000 0 0 1
28.733971 -5.193798 -13.475920 32.159246 -0.178824 2.003181 0.031052 -0.018827 -344728.000000 0 0 1
28.187981 -6.080298 -14.384920 32.225118 -0.212450 2.033522 0.017506 -0.014986 133326.000000 0 0 1
27.874801 -7.287098 -13.797620 31.944963 -0.255700 2.017415 0.019810 -0.018502 -272136.000000 0 0 1
27.310471 -8.320598 -14.840020 32.176395 -0.295733 2.050153 0.019609 -0.013938 -117487.000000 0 0 1
26.046811 -7.918498 -15.318120 31.237538 -0.295132 2.083317 0.045691 -0.018781 -37497.700000 0 0 1
25.605411 -8.743298 -16.411420 31.645175 -0.329049 2.116018 0.044890 -0.016922 -586763.000000 0 0 1
24.180311 -8.617798 -16.896120 30.731625 -0.342363 2.152916 0.040135 -0.017362 -949943.000000 0 0 1
23.828811 -7.282598 -17.345020 30.359483 -0.296606 2.178911 0.046982 -0.020802 1324640.000000 0 0 1
22.533011 -6.965998 -17.944620 29.635640 -0.299827 2.221201 0.079058 -0.026804 1415230.000000 0 0 1
22.269911 -7.570698 -19.373720 30.473028 -0.327695 2.259797 0.065361 -0.019673 -536255.000000 0 0 1
23.079811 -7.058998 -20.379120 31.588221 -0.296817 2.272015 0.055284 -0.015220 -106254.000000 0 0 1
22.678011 -7.353298 -21.678320 32.222861 -0.313552 2.308732 0.072511 -0.021977 -57068.000000 0 0 1
23.512211 -6.487098 -22.669420 33.298786 -0.269206 2.319634 0.065456 -0.024836 -2260.560000 0 0 1
23.299611 -6.793198 -24.060820 34.175174 -0.283694 2.351872 0.073026 -0.028257 145400.000000 0 0 1
23.385711 -5.618598 -24.888520 34.610672 -0.235789 2.373302 0.060378 -0.023016 -326843.000000 0 0 1
23.200911 -5.845998 -26.441970 35.660003 -0.246835 2.406103 0.059663 -0.023283 -514653.000000 0 0 1
21.907211 -6.153698 -26.859360 35.202545 -0.273841 2.438730 0.066305 -0.025188 -640786.000000 0 0 1
21.801011 -6.317798 -28.244570 36.234713 -0.282067 2.464646 0.055369 -0.027361 -483444.000000 0 0 1
20.481511 -6.943698 -28.646800 35.893543 -0.326862 2.494939 0.059154 -0.027380 -575289.000000 0 0 1
20.293011 -8.215398 -28.101450 35.622894 -0.384671 2.479747 0.073092 -0.030382 -216340.000000 0 0 1
19.391211 -8.972498 -28.825000 35.880433 -0.433373 2.503717 0.056157 -0.025880 -574480.000000 0 0 1
19.467611 -10.439698 -28.478830 36.041906 -0.492233 2.481864 0.072987 -0.022875 -612009.000000 0 0 1
18.581711 -10.904398 -27.522530 34.952476 -0.530683 2.477420 0.079523 -0.022768 -254383.000000 0 0 1
18.678411 -12.295598 -27.168680 35.188094 -0.582173 2.452933 0.084279 -0.021385 -270207.000000 0 0 1
18.648711 -13.390298 -28.206110 36.368382 -0.622723 2.458409 0.067269 -0.007293 -78123.500000 0 0 1
17.408711 -13.529498 -28.868340 36.324807 -0.660663 2.489356 0.060371 -0.006698 348080.000000 0 0 1
17.521311 -14.510998 -29.924000 37.590042 -0.691696 2.491556 0.040897 -0.005303 51096.400000 0 0 1
16.219011 -14.729498 -30.748810 37.755844 -0.737307 2.522511 0.033539 -0.008000 -414608.000000 0 0 1
15.249211 -15.502398 -30.164630 37.185585 -0.793631 2.516983 0.023017 -0.014563 -933953.000000 0 0 1
14.261911 -15.844498 -31.061640 37.673276 -0.837916 2.540115 0.024896 -0.019116 -1193210.000000 0 0 1
13.173411 -16.617098 -30.342090 37.017687 -0.900484 2.531622 0.038761 -0.024749 -806845.000000 0 0 1
13.517711 -17.903698 -29.968940 37.435389 -0.924088 2.499011 0.038190 -0.024072 257966.000000 0 0 1
12.500111 -18.432598 -29.131400 36.669496 -0.974884 2.488867 0.044472 -0.024419 120126.000000 0 0 1
12.951711 -19.778698 -28.456390 36.996079 -0.991032 2.448343 0.058876 -0.024404 494887.000000 0 0 1
13.996111 -19.642498 -27.485660 36.567477 -0.951702 2.421345 0.053579 -0.024798 174544.000000 0 0 1
14.008511 -20.695298 -26.513250 36.434684 -0.975747 2.385748 0.057104 -0.022904 -252335.000000 0 0 1
15.021611 -20.565198 -25.361670 35.941487 -0.939933 2.354119 0.057415 -0.018555 -209485.000000 0 0 1
16.329411 -20.905498 -25.767740 36.981968 -0.907683 2.341674 0.056379 -0.010495 -46930.300000 0 0 1
17.219911 -20.899898 -24.670020 36.632513 -0.881637 2.309657 0.048097 -0.000573 926276.000000 0 0 1
18.690711 -21.306698 -25.135610 37.882938 -0.850709 2.296293 0.032535 0.005939 1028230.000000 0 0 1
19.032211 -22.688298 -25.308970 38.955461 -0.872808 2.277973 0.023212 0.001990 346362.000000 0 0 1
18.622811 -23.540098 -24.245720 38.584975 -0.901500 2.250255 0.024338 -0.004765 -626138.000000 0 0 1
19.269311 -24.946798 -24.270720 39.783376 -0.913103 2.226948 0.016905 0.001781 -141127.000000 0 0 1
20.581911 -24.912898 -23.750420 40.104240 -0.880310 2.204604 0.019156 0.006234 40968.700000 0 0 1
21.107111 -26.195088 -23.473820 41.020885 -0.892549 2.180032 0.021565 -0.004775 -79873.100000 0 0 1
20.913111 -26.639868 -21.981920 40.376300 -0.905250 2.146501 0.030352 -0.006107 -54221.600000 0 0 1
19.579511 -26.745658 -21.508520 39.513339 -0.938874 2.146393 0.024280 -0.002398 214115.000000 0 0 1
19.513411 -26.973618 -20.074020 38.875643 -0.944521 2.113397 0.033921 -0.004680 -45879.600000 0 0 1
18.192111 -27.583118 -19.576620 38.406059 -0.987745 2.105664 0.029589 -0.006372 -562111.000000 0 0 1
18.132111 -29.017848 -19.707620 39.486697 -1.012297 2.093351 0.037010 -0.003359 1101130.000000 0 0 1
16.954311 -29.630048 -19.129020 39.131929 -1.051069 2.081549 0.036454 0.005368 1539000.000000 0 0 1
15.484111 -29.296328 -19.537420 38.467432 -1.084583 2.103536 0.042546 -0.001262 151047.000000 0 0 1
14.950511 -28.190998 -18.869520 37.071673 -1.083181 2.104820 0.047459 -0.002998 -328585.000000 0 0 1
13.846511 -27.696218 -19.584520 36.638229 -1.107195 2.134757 0.040531 0.006688 -25073.200000 0 0 1
12.983011 -26.664668 -18.790320 35.108963 -1.117684 2.135541 0.026254 0.006615 166857.000000 0 0 1
12.035111 -27.132258 -17.843320 34.632173 -1.153301 2.112065 0.014509 0.005065 -178036.000000 0 0 1
11.268211 -26.088358 -17.300620 33.269904 -1.163075 2.117657 0.014974 0.001427 471816.000000 0 0 1
9.755111 -26.281918 -17.644020 33.124204 -1.215386 2.132540 0.022662 -0.000160 143276.000000 0 0 1
9.220811 -27.439318 -16.972620 33.556063 -1.246608 2.101104 0.026629 0.012950 820890.000000 0 0 1
7.782111 -27.417838 -16.868220 33.118514 -1.294236 2.105201 0.021050 0.013467 1420330.000000 0 0 1
7.038611 -28.027348 -18.093820 34.094877 -1.324751 2.130211 0.041973 0.009166 -214873.000000 0 0 1
6.953211 -27.203488 -19.239720 34.037388 -1.320554 2.171536 0.063648 0.004740 -73176.400000 0 0 1
6.509311 -28.030248 -20.331620 35.234085 -1.342616 2.185901 0.072187 0.004768 122001.000000 0 0 1
6.544811 -27.172328 -21.631920 35.342750 -1.334435 2.229461 0.068464 -0.000601 416270.000000 0 0 1
5.457211 -26.238468 -21.694120 34.480041 -1.365735 2.251293 0.072642 -0.005036 490669.000000 0 0 1
5.488911 -25.411518 -22.815220 34.589127 -1.358064 2.291092 0.067724 -0.005071 173731.000000 0 0 1
4.103511 -24.781298 -23.204920 34.196782 -1.406696 2.316611 0.047860 0.001068 296479.000000 0 0 1
3.307411 -25.799468 -23.775520 35.239564 -1.443295 2.311331 0.038231 0.005734 -356378.000000 0 0 1
2.036711 -25.278138 -24.108220 34.990552 -1.490398 2.330894 0.040683 -0.002081 171729.000000 0 0 1
1.195511 -26.367108 -24.797520 36.215613 -1.525486 2.325014 0.022019 -0.008215 127344.000000 0 0 1
1.929411 -26.934808 -25.858370 37.387991 -1.499286 2.334529 0.018415 -0.006420 -186740.000000 0 0 1
1.042311 -27.703928 -26.617240 38.432688 -1.533191 2.335839 0.016405 -0.019239 -282913.000000 0 0 1
1.657511 -28.644258 -27.608550 39.817998 -1.512995 2.336950 0.013054 -0.015173 -642176.000000 0 0 1
2.219111 -28.038518 -28.755730 40.224060 -1.491816 2.367261 0.013612 -0.015748 31254.600000 0 0 1
2.622011 -29.060918 -29.686310 41.625580 -1.480815 2.364813 0.029953 -0.023862 384576.000000 0 0 1
4.095611 -29.560458 -29.608540 42.038796 -1.433122 2.352254 0.029722 -0.019163 127253.000000 0 0 1
4.409911 -30.319648 -28.440600 41.804260 -1.426362 2.319006 0.022055 -0.025675 895500.000000 0 0 1
5.605511 -31.138928 -28.609450 42.656245 -1.392688 2.305946 0.044500 -0.023608 1160220.000000 0 0 1
5.804011 -32.158318 -27.452190 42.678645 -1.392236 2.269506 0.057644 -0.033494 -128850.000000 0 0 1
4.870211 -33.211378 -27.518970 43.405165 -1.425191 2.257514 0.052038 -0.040043 -29597.400000 0 0 1
5.317611 -34.318477 -26.807740 43.871287 -1.417070 2.228188 0.060438 -0.042245 -461532.000000 0 0 1
4.195811 33.416812 -26.512570 42.862624 1.445890 2.237689 0.072715 -0.042179 -337212.000000 0 0 1
3.565311 33.068708 -27.702680 43.286134 1.463396 2.265281 0.055821 -0.042721 -796497.000000 0 0 1
2.190811 32.915375 -27.559970 42.985737 1.504335 2.266782 0.022085 -0.040786 -962167.000000 0 0 1
1.456611 33.174919 -28.839940 43.982259 1.526918 2.285929 0.014274 -0.032133 -496487.000000 0 0 1
1.412111 32.143947 -29.782040 43.842871 1.526894 2.317592 0.020623 -0.031144 173396.000000 0 0 1
0.364011 32.368627 -30.708840 44.619429 1.559551 2.329856 0.019582 -0.023911 368465.000000 0 0 1
0.107611 31.184117 -31.693180 44.462551 1.567346 2.364287 0.016809 -0.021653 -380279.000000 0 0 1
1.296311 30.976687 -32.394810 44.840376 1.528973 2.378132 0.025723 -0.021399 -175932.000000 0 0 1
1.105611 30.028857 -33.387990 44.918955 1.533995 2.408777 0.030253 -0.021695 152528.000000 0 0 1
2.422211 29.701067 -34.140426 45.316545 1.489423 2.423978 0.027835 -0.016898 335938.000000 0 0 1
2.874511 30.699027 33.559318 45.573248 1.477433 0.743089 0.041524 -0.019855 161227.000000 0 0 1
3.792311 30.205577 32.574251 44.585203 1.445900 0.751586 0.022987 -0.015944 -139878.000000 0 0 1
3.199711 29.253777 31.507782 43.113362 1.461852 0.751285 0.025827 -0.010534 -109121.000000 0 0 1
3.041311 27.884807 31.810222 42.411110 1.462159 0.722667 0.024719 -0.009141 504975.000000 0 0 1
4.243911 27.100367 31.785862 41.985494 1.415458 0.711983 0.033888 -0.009281 332922.000000 0 0 1
3.879111 25.559507 31.898952 41.059457 1.420178 0.681075 0.044531 -0.010489 532573.000000 0 0 1
3.073411 25.082057 30.777002 39.821844 1.448870 0.687449 0.042128 0.003259 508805.000000 0 0 1
3.049111 23.659687 30.838182 38.988092 1.442629 0.658413 0.041111 0.009121 -537377.000000 0 0 1
2.155411 22.765587 30.001192 37.722530 1.476399 0.651274 0.037178 0.015496 -753459.000000 0 0 1
0.900511 22.461687 30.540402 37.921688 1.530727 0.634523 0.035581 0.009493 -478884.000000 0 0 1
0.210811 21.666287 29.630972 36.707859 1.561067 0.631385 0.043728 0.010050 -550667.000000 0 0 1
-1.191589 21.162287 29.917062 36.664600 -1.514549 0.616398 0.034849 0.009201 -346851.000000 0 0 1
-2.182989 22.168387 30.080312 37.430308 -1.472640 0.637418 0.045733 0.003051 395284.000000 0 0 1
-3.434989 21.518787 30.283482 37.308801 -1.412504 0.623743 0.021515 -0.002180 214540.000000 0 0 1
-4.616789 22.461887 30.568842 38.213940 -1.368081 0.643602 -0.000541 -0.008825 -256523.000000 0 0 1
-4.664289 22.984987 31.867012 39.567306 -1.370587 0.634467 0.004172 -0.008227 85899.600000 0 0 1
-4.161189 24.328357 31.951492 40.374277 -1.401393 0.657729 0.025268 -0.009213 -156799.000000 0 0 1
-4.264389 25.105677 33.293021 41.915454 -1.402545 0.652958 0.026021 -0.004677 573378.000000 0 0 1
-5.604289 25.510047 33.602296 42.559193 -1.354542 0.660733 0.021725 -0.003164 630460.000000 0 0 1
-5.609289 25.987877 -33.726670 42.945572 -1.358215 2.474034 0.026743 -0.005992 -616459.000000 0 0 1
-6.979089 26.359537 -33.182180 42.948690 -1.311970 2.453723 0.024611 0.001688 -632186.000000 0 0 1
-7.407789 27.634987 -33.692150 44.201005 -1.308895 2.437576 0.047009 0.000021 428680.000000 0 0 1
-8.684689 28.038497 -33.183840 44.302917 -1.270426 2.417380 0.062165 -0.003010 606594.000000 0 0 1
-8.867689 28.469677 -31.681570 43.507245 -1.268842 2.386475 0.073592 -0.012000 -318477.000000 0 0 1
-8.398089 29.763307 -31.349000 44.035692 -1.295783 2.362996 0.067039 -0.007435 46979.000000 0 0 1
-8.372289 29.986867 -29.950400 43.201087 -1.298531 2.336825 0.074976 -0.012347 -49782.400000 0 0 1
-7.948389 31.425777 -29.539560 43.855923 -1.323066 2.309810 0.050305 -0.012888 -976895.000000 0 0 1
-6.607589 31.638637 -29.768840 43.941409 -1.364910 2.315109 0.010308 -0.006622 -1268360.000000 0 0 1
-6.212889 32.829884 -29.174830 44.357322 -1.383763 2.288588 0.015816 -0.003542 738634.000000 0 0 1
-4.678989 33.161160 -29.228110 44.450398 -1.430623 2.288351 0.016336 -0.004854 623923.000000 0 0 1
-4.409189 -34.190478 -28.863300 44.961315 1.442545 2.267846 0.017865 -0.004923 -214144.000000 0 0 1
-4.408489 -33.239308 -29.945250 44.955583 1.438937 2.299774 0.023700 -0.010882 208215.000000 0 0 1
-3.254589 -33.342498 -30.995990 45.640617 1.473494 2.317375 0.026872 -0.021612 -12817.000000 0 0 1
-3.373589 -34.293277 -31.998660 47.024719 1.472737 2.319193 0.025903 -0.008835 -229171.000000 0 0 1
-4.088889 -34.014178 -33.174380 47.688813 1.451159 2.340111 0.047624 -0.017544 -245062.000000 0 0 1
-3.505489 -32.974798 -34.116934 47.577211 1.464886 2.370408 0.043912 -0.025352 -189294.000000 0 0 1
-3.462889 -31.680738 -33.611070 46.318083 1.461923 2.382786 0.031370 -0.018207 15309.600000 0 0 1
-2.760189 -30.790978 34.207501 46.107007 1.481393 0.734874 0.018770 -0.028386 63030.900000 0 0 1
31.997391 19.539602 12.428272 39.497988 0.548223 1.250702 0.049661 0.000360 -327359.000000 0 0 1
33.039041 18.830002 13.007272 40.191247 0.518017 1.241228 0.032901 0.000750 -461575.000000 0 0 1
32.767021 17.427902 12.971072 39.314859 0.488820 1.234569 0.042364 -0.005666 -716171.000000 0 0 1
33.844131 16.462502 13.403772 39.951224 0.452726 1.228657 0.051827 -0.015045 -1743410.000000 0 0 1
35.003101 16.479902 12.710472 40.722971 0.440026 1.253372 0.041964 -0.008554 -906326.000000 0 0 1
-35.867519 15.576102 13.258772 41.290301 -0.409694 1.243894 0.040372 -0.017378 226354.000000 0 0 1
-34.868399 14.899402 12.304172 39.864647 -0.403820 1.257024 0.043875 -0.016443 220673.000000 0 0 1
-34.046023 13.869002 12.829272 38.936758 -0.386835 1.235033 0.044837 -0.014116 263748.000000 0 0 1
-34.778237 12.721002 13.166572 39.302777 -0.350658 1.229187 0.053896 -0.014029 -589247.000000 0 0 1
-33.969167 11.912302 14.103572 38.661583 -0.337280 1.197383 0.048185 -0.017447 -394252.000000 0 0 1
-34.095700 12.291102 15.478872 39.410448 -0.345988 1.167165 0.050891 -0.025079 45923.700000 0 0 1
-33.709817 11.335102 16.455472 39.186973 -0.324378 1.137437 0.056607 -0.030534 -149757.000000 0 0 1
-33.443477 12.036702 17.828372 39.764296 -0.345477 1.105876 0.064092 -0.021754 478156.000000 0 0 1
-34.637896 12.453002 18.500072 41.196041 -0.345130 1.105068 0.073873 -0.020327 353275.000000 0 0 1
-34.309994 13.161202 19.687772 41.689343 -0.366286 1.078955 0.069644 -0.030090 -543743.000000 0 0 1
-35.501990 13.624802 20.515972 43.208004 -0.366442 1.076038 0.087973 -0.034012 -756319.000000 0 0 1
35.612031 12.524802 20.972172 43.184713 0.338190 1.063703 0.076131 -0.009975 -119473.000000 0 0 1
34.655421 13.030802 21.907272 43.020095 0.359656 1.036502 0.076128 -0.015597 380361.000000 0 0 1
33.979511 11.924002 22.764772 42.603097 0.337492 1.007063 0.066441 -0.010566 31795.400000 0 0 1
34.959541 11.371002 23.617992 43.695294 0.314469 0.999746 0.056648 -0.005878 169804.000000 0 0 1
34.857111 11.790902 24.942842 44.454347 0.326181 0.975096 0.054626 -0.006522 -221091.000000 0 0 1
-35.618987 11.721302 25.752102 45.489251 -0.317913 0.969012 0.042238 -0.005994 1291980.000000 0 0 1
-34.631005 12.707502 25.383352 44.778362 -0.351686 0.968099 0.055411 -0.017870 233892.000000 0 0 1
-33.805057 12.392402 24.282692 43.428132 -0.351372 0.977440 0.050594 -0.013743 -481819.000000 0 0 1
-32.776647 13.533402 24.105102 42.877937 -0.391575 0.973777 0.054439 -0.017652 484717.000000 0 0 1
-31.791917 13.783702 25.097492 42.785518 -0.409099 0.943956 0.033249 -0.017409 455915.000000 0 0 1
-32.415007 14.483602 26.136112 44.086322 -0.420204 0.936216 0.027044 -0.018416 -679623.000000 0 0 1
-31.577347 14.720202 27.407172 44.327940 -0.436214 0.904241 0.020687 -0.011204 -105643.000000 0 0 1
-30.584067 15.717002 27.200152 43.843558 -0.474702 0.901555 0.028564 -0.023216 -296770.000000 0 0 1
-30.395067 16.508502 28.315682 44.700879 -0.497554 0.884795 0.040367 -0.024949 391354.000000 0 0 1
-29.540897 17.841002 28.080392 44.491284 -0.543313 0.887770 0.036862 -0.023946 383338.000000 0 0 1
-30.127267 18.778202 27.163462 44.700411 -0.557373 0.917663 0.039705 -0.024142 -105589.000000 0 0 1
-29.635687 20.063202 27.257572 44.986456 -0.595119 0.919892 0.034328 -0.022982 -580916.000000 0 0 1
-30.318637 21.121002 26.353442 45.385244 -0.608464 0.951256 0.035521 -0.020734 -700544.000000 0 0 1
-31.537527 21.391102 27.000592 46.703606 -0.595996 0.954366 0.030551 -0.025018 77363.200000 0 0 1
-32.423977 22.063602 26.090512 47.104476 -0.597499 0.983772 0.034301 -0.023273 18244.700000 0 0 1
-32.437217 23.649502 26.219172 47.947023 -0.629981 0.992216 0.040794 -0.017150 -28867.900000 0 0 1
-33.516197 24.189702 25.455622 48.543443 -0.625163 1.018800 0.050397 -0.020813 453100.000000 0 0 1
-33.608277 25.588202 25.511822 49.346990 -0.650736 1.027467 0.051140 -0.016137 112167.000000 0 0 1
-34.698873 26.147602 24.571912 49.914805 -0.645774 1.056093 0.052835 -0.009834 62327.300000 0 0 1
-34.442171 25.958102 23.209072 48.977007 -0.645847 1.077108 0.058354 -0.015910 -90949.100000 0 0 1
-35.414245 26.583802 22.399772 49.624763 -0.643919 1.102482 0.066091 -0.018627 -205494.000000 0 0 1
-35.148092 26.575702 20.925472 48.780444 -0.647398 1.127441 0.082982 -0.031468 -85914.200000 0 0 1
-35.156382 25.319702 20.252672 47.824986 -0.624156 1.133519 0.064531 -0.028656 85214.900000 0 0 1
-34.779409 25.491602 18.877572 47.072198 -0.632500 1.158151 0.060621 -0.037158 -79885.600000 0 0 1
-34.698636 24.118902 18.189472 46.006235 -0.607427 1.164326 0.052139 -0.024851 -328183.000000 0 0 1
35.860164 23.667302 17.815172 46.513148 0.583365 1.177740 0.045912 -0.022785 -498836.000000 0 0 1
-35.799442 22.650102 16.855572 45.593174 -0.564113 1.192116 0.034009 -0.015396 -309060.000000 0 0 1
34.768221 22.345802 16.043972 44.334784 0.571232 1.200510 0.026626 -0.007932 -465549.000000 0 0 1
33.888921 21.439902 16.645972 43.419083 0.564083 1.177344 0.032143 -0.011333 -346797.000000 0 0 1
32.899661 21.033902 15.730772 42.098336 0.568841 1.187837 0.030292 -0.003268 -1600080.000000 0 0 1
31.864001 20.100102 16.380772 41.081119 0.562766 1.160652 0.039850 0.001386 714784.000000 0 0 1
30.813661 20.711502 17.174572 40.907383 0.591791 1.137527 0.022096 0.001787 636609.000000 0 0 1
30.091181 21.741202 16.559172 40.649295 0.625675 1.151227 0.018232 0.001221 -1086950.000000 0 0 1
29.068171 22.359902 17.539472 40.651653 0.655691 1.124688 0.007649 0.002584 46471.200000 0 0 1
29.713221 23.264402 18.376872 41.974008 0.664267 1.117629 -0.021877 0.019989 432367.000000 0 0 1
28.789621 23.909702 19.284372 42.099918 0.693062 1.094983 -0.021466 0.022487 180889.000000 0 0 1
29.508911 24.630202 20.416072 43.522852 0.695527 1.082538 -0.027415 0.010485 323568.000000 0 0 1
30.372351 25.690202 19.999072 44.524477 0.702075 1.104960 -0.022605 0.010328 -14089.700000 0 0 1
31.173301 26.114002 21.050472 45.791246 0.697312 1.093133 -0.017743 0.005433 -361972.000000 0 0 1
32.003221 27.347702 20.546772 46.843066 0.707118 1.116723 0.010462 -0.003328 -15295.900000 0 0 1
32.989351 27.770302 21.455072 48.164375 0.699712 1.109114 0.016246 -0.006527 258211.000000 0 0 1
32.560761 28.878402 22.237372 48.873981 0.725535 1.098431 -0.001266 -0.001365 -408453.000000 0 0 1
33.231211 29.061702 23.585342 50.051616 0.718564 1.080122 -0.003163 -0.005389 873041.000000 0 0 1
34.545931 29.654002 23.437172 51.206271 0.709347 1.095388 0.034602 -0.006883 890590.000000 0 0 1
35.100461 29.872002 24.733242 52.307859 0.705099 1.078285 0.038990 -0.009862 342577.000000 0 0 1
-35.395163 30.676602 24.710622 52.957401 -0.714104 1.085339 0.058264 -0.011640 -246580.000000 0 0 1
-34.249844 30.081602 24.226822 51.622607 -0.720695 1.082291 0.062581 -0.013014 -392905.000000 0 0 1
-33.164167 30.997902 24.208962 51.447116 -0.751649 1.080871 0.066732 -0.012387 -438212.000000 0 0 1
-31.826097 30.418202 23.820622 50.055864 -0.762783 1.074831 0.075212 -0.017036 -990936.000000 0 0 1
-31.630027 30.110802 22.419472 49.089222 -0.760797 1.096504 0.071100 -0.015036 240829.000000 0 0 1
-31.967217 28.814702 21.904772 48.290880 -0.733579 1.099995 0.075282 -0.015521 -105679.000000 0 0 1
-31.372767 27.559002 22.685272 47.522318 -0.720773 1.073148 0.065309 -0.013829 -109038.000000 0 0 1
-29.967557 27.491302 22.515072 46.483918 -0.742329 1.065162 0.043357 -0.011755 315295.000000 0 0 1
-29.306257 26.662502 23.450472 46.039878 -0.738197 1.036366 0.041370 -0.011630 76167.400000 0 0 1
-29.116887 27.242402 24.931102 47.026603 -0.752151 1.012020 0.048384 -0.010568 -518038.000000 0 0 1
-30.281337 27.262102 25.714852 48.181274 -0.732977 1.007814 0.042671 -0.003560 -83545.800000 0 0 1
-29.921107 27.727402 27.007382 48.923207 -0.747363 0.985992 0.048943 -0.006752 -567903.000000 0 0 1
-31.092397 28.017202 27.900532 50.300501 -0.733420 0.982822 0.039069 -0.011395 -718886.000000 0 0 1
-31.820267 26.988402 28.485382 50.520493 -0.703420 0.971771 0.029032 -0.008036 -104316.000000 0 0 1
-32.731817 27.400002 29.465342 51.868472 -0.696961 0.966628 0.023881 0.001458 -309939.000000 0 0 1
-33.399347 26.307302 30.228492 52.166582 -0.667171 0.952729 0.022662 -0.001131 -619573.000000 0 0 1
-32.511107 25.580602 31.015042 51.703695 -0.666657 0.927469 0.021724 -0.009058 -181083.000000 0 0 1
-33.120797 24.333602 31.402772 51.722775 -0.633632 0.918345 0.012676 -0.013659 171556.000000 0 0 1
-32.244917 23.400502 32.297122 51.287642 -0.627774 0.889597 0.032742 -0.022054 -669860.000000 0 0 1
-31.100697 22.883302 31.658512 49.931556 -0.634339 0.884032 0.033014 -0.014657 -39616.300000 0 0 1
-30.404827 21.878902 32.424982 49.543106 -0.623751 0.857301 0.037695 -0.020697 267306.000000 0 0 1
-29.552107 22.463402 33.553964 50.037985 -0.649952 0.835820 0.037113 -0.024734 -1079230.000000 0 0 1
-30.298347 22.603802 -33.901560 50.776348 -0.640962 2.301863 0.053728 -0.027021 159753.000000 0 0 1
-29.639827 22.238802 -32.703990 49.423018 -0.643694 2.293901 0.042377 -0.017527 143081.000000 0 0 1
-28.396147 23.015902 -32.162010 48.687451 -0.681128 2.292389 0.059054 -0.021858 303043.000000 0 0 1
-28.535237 24.332502 -31.704270 49.106936 -0.706070 2.272627 0.044292 -0.017101 -332500.000000 0 0 1
-27.491887 24.556102 -30.793500 48.031715 -0.729053 2.266737 0.066946 -0.013090 -117687.000000 0 0 1
-27.640367 25.854202 -29.948280 48.263124 -0.752021 2.240203 0.036365 -0.007807 -298179.000000 0 0 1
-27.567727 27.075902 -30.650030 49.320467 -0.776398 2.241384 0.025520 -0.010256 -716575.000000 0 0 1
-28.739077 27.610402 -31.194500 50.609937 -0.765371 2.234922 0.022387 -0.008053 -714734.000000 0 0 1
-28.668907 29.081402 -31.779620 51.745323 -0.792541 2.232110 0.018488 -0.012449 -44021.600000 0 0 1
-28.981577 30.123202 -30.843080 51.948385 -0.804711 2.206477 0.011390 -0.019354 84671.200000 0 0 1
-28.781127 31.325902 -31.543120 52.958794 -0.827710 2.208829 0.025946 -0.032316 22143.300000 0 0 1
-28.905387 32.681102 -30.804560 53.408771 -0.846629 2.185565 0.030271 -0.029656 -97380.500000 0 0 1
-27.821887 32.798902 -29.910370 52.387552 -0.867315 2.178452 0.014072 -0.021578 124740.000000 0 0 1
-28.202197 33.713602 -28.911050 52.610072 -0.874179 2.152603 0.012137 -0.022029 -481355.000000 0 0 1
-27.368157 33.787602 -27.623170 51.513664 -0.889984 2.136761 0.020135 -0.021779 1317980.000000 0 0 1
-26.011117 34.303402 -27.781830 51.236039 -0.922026 2.143888 0.008953 -0.015413 1070080.000000 0 0 1
-25.918997 -33.031384 -27.902050 50.412212 0.905468 2.157331 0.021535 -0.008171 -694293.000000 0 0 1
-26.402437 -32.105684 -26.720740 49.415196 0.882569 2.142112 0.031135 -0.006422 233838.000000 0 0 1
-27.814357 -32.012984 -26.655810 50.089937 0.855462 2.131945 0.022108 -0.016217 -29535.700000 0 0 1
-28.227927 -31.084184 -25.661710 49.209407 0.833517 2.119381 0.029852 -0.011036 209576.000000 0 0 1
-29.764277 -30.927284 -25.580720 49.967813 0.804558 2.108243 0.021934 -0.013251 53611.000000 0 0 1
-30.399027 -30.248284 -26.653140 50.492073 0.782913 2.126884 0.024886 -0.015058 -1023290.000000 0 0 1
-31.739107 -30.132384 -26.374400 51.097363 0.759435 2.113157 0.027623 -0.013139 -1520360.000000 0 0 1
-32.325087 -29.150684 -27.392920 51.430008 0.733807 2.132496 0.036630 -0.012552 -682629.000000 0 0 1
-33.707117 -29.241284 -27.576340 52.456429 0.714572 2.124334 0.019545 -0.011860 -383704.000000 0 0 1
-34.165710 -28.175584 -28.409220 52.614096 0.689606 2.141179 0.038210 -0.016408 -1042970.000000 0 0 1
-35.640654 -28.242684 -28.675950 53.760725 0.670107 2.133411 0.030890 -0.018234 -995853.000000 0 0 1
35.405461 -27.727184 -27.617730 52.773880 -0.664371 2.121541 0.005069 -0.005733 446212.000000 0 0 1
34.009081 -27.876584 -27.910940 52.083991 -0.686627 2.136350 0.002379 -0.007965 720988.000000 0 0 1
33.057471 -27.352584 -26.824130 50.601326 -0.691241 2.129523 0.010042 -0.003786 -74027.900000 0 0 1
33.061671 -28.201084 -25.732400 50.502789 -0.706224 2.105428 -0.002659 0.002246 -65226.400000 0 0 1
32.095981 -27.777584 -24.807920 49.164816 -0.713398 2.099700 -0.000063 0.007788 -81467.000000 0 0 1
32.063371 -28.706984 -23.551320 49.059305 -0.730224 2.071517 -0.003642 0.007699 -27847.600000 0 0 1
31.499521 -29.974484 -23.800120 49.569499 -0.760595 2.071607 0.004485 -0.000995 -60959.800000 0 0 1
31.154671 -30.713484 -22.595820 49.239240 -0.778267 2.047552 0.011214 -0.011078 198586.000000 0 0 1
32.184131 -30.874584 -21.411220 49.472200 -0.764634 2.018385 0.002623 -0.000396 -55051.500000 0 0 1
33.451341 -31.387684 -21.783620 50.780952 -0.753582 2.014151 -0.000577 -0.004231 -170206.000000 0 0 1
34.436801 -31.172184 -20.836220 50.909198 -0.735680 1.992463 0.002334 -0.001039 -182980.000000 0 0 1
35.139891 -29.783884 -20.839820 50.558776 -0.703088 1.995653 -0.009752 -0.005251 -589016.000000 0 0 1
34.457681 -28.666884 -20.240620 49.181345 -0.693918 1.994951 -0.008878 0.001854 -256219.000000 0 0 1
34.844771 -27.433684 -20.715920 48.948079 -0.666956 2.007795 -0.012086 0.002097 -70791.100000 0 0 1
33.800611 -26.302684 -20.534520 47.497147 -0.661289 2.017873 -0.006746 0.006645 679862.000000 0 0 1
32.630941 -26.333084 -21.343720 47.050654 -0.678993 2.041634 0.002042 0.005865 338558.000000 0 0 1
31.644681 -25.371584 -20.996520 45.672278 -0.675816 2.048478 -0.001905 -0.002232 -725741.000000 0 0 1
30.539641 -25.456084 -21.998220 45.437909 -0.694862 2.076174 0.008917 -0.002444 -778854.000000 0 0 1
29.928601 -26.746484 -21.941020 45.743895 -0.729310 2.071051 0.014921 0.000461 57500.400000 0 0 1
28.643631 -26.714484 -22.535320 45.188073 -0.750564 2.092895 0.017859 0.001530 26993.600000 0 0 1
28.021641 -28.024184 -22.888820 45.765329 -0.785444 2.094550 0.020215 0.002783 -411897.000000 0 0 1
27.529821 -28.736184 -21.819720 45.384573 -0.806835 2.072333 0.026051 -0.005246 -184932.000000 0 0 1
27.258021 -30.056084 -22.267420 46.283970 -0.834179 2.072710 0.022178 -0.013557 -178400.000000 0 0 1
26.495611 -30.839284 -21.125720 45.818936 -0.861013 2.049997 0.029082 -0.012582 -197645.000000 0 0 1
27.209551 -31.155584 -19.944120 45.921651 -0.852905 2.020066 0.034507 -0.013144 303548.000000 0 0 1
28.347601 -32.007384 -20.173020 47.275891 -0.845962 2.011646 0.030843 -0.008317 253968.000000 0 0 1
29.089401 -32.191684 -18.847020 47.304418 -0.835979 1.980590 0.023946 -0.009165 -673888.000000 0 0 1
28.383551 -32.868084 -17.860120 46.956584 -0.858483 1.960975 0.032710 -0.017048 -245212.000000 0 0 1
27.749741 -31.903384 -17.031020 45.584314 -0.854916 1.953700 0.020045 -0.023893 -190097.000000 0 0 1
27.277611 -32.391984 -15.649020 45.146434 -0.870901 1.924770 0.033606 -0.020503 -495877.000000 0 0 1
26.154711 -33.212384 -15.790420 45.127250 -0.903725 1.928270 0.041953 -0.010638 -273533.000000 0 0 1
25.634011 -33.710384 -14.550020 44.779410 -0.920660 1.901730 0.056228 -0.015856 -466798.000000 0 0 1
24.175411 -34.184484 -14.677820 44.367419 -0.955252 1.907973 0.062176 -0.016013 -161707.000000 0 0 1
23.324711 -33.113984 -14.340520 42.967762 -0.957139 1.911076 0.067098 -0.013440 -376424.000000 0 0 1
21.965511 -33.448684 -14.270220 42.484554 -0.989730 1.913348 0.069680 -0.019921 -209380.000000 0 0 1
-0.823937 -7.184998 -29.078360 29.964214 1.456620 2.897828 0.045302 -0.005623 107549.000000 0 0 1
-0.284037 -8.478198 -28.964450 30.181118 1.537307 2.856686 0.051263 -0.011176 -113814.000000 0 0 1
-0.299137 -9.141298 -30.208540 31.562774 1.538084 2.847598 0.056292 -0.008172 77409.800000 0 0 1
-0.048737 -10.669598 -30.143350 31.975995 1.566228 2.801389 0.068619 -0.008739 548781.000000 0 0 1
1.268163 -10.993798 -29.704310 31.698863 -1.455951 2.784961 0.025621 -0.012429 234528.000000 0 0 1
1.496563 -12.364998 -29.523780 32.043509 -1.450350 2.742375 0.037224 -0.011293 -825140.000000 0 0 1
2.887163 -12.783398 -29.109180 31.923273 -1.348671 2.718560 0.033371 -0.013644 -1073030.000000 0 0 1
3.798463 -12.745798 -30.213660 33.011346 -1.281160 2.726926 0.040887 -0.016204 498097.000000 0 0 1
5.167163 -12.855398 -29.833420 32.893674 -1.188614 2.706819 0.040805 -0.015145 849958.000000 0 0 1
5.698163 -14.272198 -29.408830 33.181983 -1.190937 2.660066 0.045536 -0.015174 -740076.000000 0 0 1
5.191763 -14.506398 -28.126610 32.070176 -1.227106 2.640448 0.052439 -0.015712 -743.057000 0 0 1
5.886063 -15.506898 -27.377430 32.009894 -1.208019 2.596888 0.056045 -0.017701 -21402.200000 0 0 1
5.512263 -17.008198 -27.756130 33.016157 -1.257384 2.569340 0.054454 -0.014399 -186576.000000 0 0 1
5.818763 -17.375798 -29.094880 34.384421 -1.247657 2.579543 0.061140 -0.027403 262289.000000 0 0 1
5.369663 -18.717798 -29.188810 35.088116 -1.291424 2.553268 0.056962 -0.022374 -328365.000000 0 0 1
5.518063 -19.394698 -30.582120 36.631536 -1.293607 2.558671 0.060015 -0.032677 403511.000000 0 0 1
6.886363 -19.696098 -30.872130 37.261867 -1.234450 2.547252 0.046175 -0.028782 461258.000000 0 0 1
7.006463 -20.329698 -32.163550 38.689548 -1.238903 2.552282 0.056666 -0.029007 -304506.000000 0 0 1
8.465763 -20.419898 -32.619710 39.404148 -1.177781 2.546014 0.063392 -0.024676 -149674.000000 0 0 1
9.092463 -19.154798 -32.821150 39.074379 -1.127606 2.568017 0.047087 -0.028847 -163135.000000 0 0 1
10.161863 -19.182198 -33.710660 40.095247 -1.083629 2.569490 0.048568 -0.030026 -725645.000000 0 0 1
10.572163 -17.834998 -34.205294 39.998249 -1.035705 2.596675 0.033184 -0.023250 -784768.000000 0 0 1
9.648763 -17.329598 33.550721 38.975178 -1.062763 0.533912 0.044767 -0.027012 -452466.000000 0 0 1
9.752263 -15.978598 33.335276 38.231699 -1.022814 0.511671 0.037646 -0.024536 133002.000000 0 0 1
8.753963 -15.470798 32.246132 36.821060 -1.055875 0.503804 0.048142 -0.030954 48916.900000 0 0 1
9.028763 -15.927398 30.948242 35.958229 -1.055094 0.534208 0.054957 -0.029035 -428376.000000 0 0 1
8.116563 -15.473498 29.992412 34.710985 -1.087705 0.527514 0.059023 -0.026634 -608590.000000 0 0 1
8.125963 -16.333398 28.758662 34.056890 -1.109146 0.565296 0.053701 -0.022873 -350464.000000 0 0 1
7.685363 -17.665798 28.954832 34.778262 -1.160451 0.587091 0.059992 -0.024660 285852.000000 0 0 1
7.607263 -18.401798 27.775392 34.175562 -1.178794 0.621979 0.053254 -0.019214 -104426.000000 0 0 1
6.980263 -19.750998 28.016432 34.982087 -1.231084 0.642034 0.063448 -0.018223 -744811.000000 0 0 1
7.811763 -20.457998 28.869362 36.235250 -1.206039 0.648947 0.061371 -0.020161 378463.000000 0 0 1
7.113963 -21.493498 29.538532 37.216982 -1.251163 0.653955 0.058270 -0.019361 133786.000000 0 0 1
7.786163 -21.708498 30.946072 38.594593 -1.226420 0.640455 0.054046 -0.026483 90634.900000 0 0 1
7.366563 -20.848498 32.033522 38.923934 -1.231151 0.604164 0.075325 -0.032669 285889.000000 0 0 1
7.499963 -19.408898 31.819832 38.019159 -1.202052 0.579125 0.060980 -0.031163 -259285.000000 0 0 1
6.728563 -18.624398 32.893213 38.394078 -1.224111 0.541908 0.059965 -0.027281 34394.400000 0 0 1
5.327163 -18.787398 32.924864 38.280434 -1.294499 0.535338 0.073615 -0.033067 43678.800000 0 0 1
4.639263 -18.030298 33.948156 38.718105 -1.318955 0.501623 0.067465 -0.032296 146301.000000 0 0 1
3.114463 -18.274898 33.769845 38.523684 -1.401995 0.502047 0.072528 -0.029377 218587.000000 0 0 1
2.642863 -19.439998 -34.230717 39.454281 -1.435675 2.621161 0.062867 -0.031831 -29924.900000 0 0 1
2.453463 -19.288498 -32.851280 38.174236 -1.444278 2.607168 0.055061 -0.032304 -383048.000000 0 0 1
1.852363 -20.527798 -32.075930 38.127248 -1.480803 2.570455 0.050234 -0.019594 -21840.800000 0 0 1
0.521363 -20.938898 -32.359940 38.547049 -1.545902 2.567144 0.024667 -0.016889 307333.000000 0 0 1
-0.143837 -21.389598 -31.176380 37.808760 1.564072 2.540257 0.026046 -0.020763 116157.000000 0 0 1
-0.670037 -20.335898 -30.187690 36.404593 1.537860 2.548520 0.031921 -0.018698 -493475.000000 0 0 1
-1.824837 -19.724098 -30.742600 36.571540 1.478541 2.569215 0.039617 -0.018511 158500.000000 0 0 1
-2.436837 -18.650998 -29.954400 35.370383 1.440878 2.580883 0.065569 -0.015021 529230.000000 0 0 1
-1.936437 -17.232498 -30.250470 34.868320 1.458895 2.621078 0.062625 -0.015554 125150.000000 0 0 1
-2.797437 -16.369698 -29.526230 33.876112 1.401540 2.629242 0.063765 -0.009407 184161.000000 0 0 1
-2.514437 -15.031598 -29.872370 33.535501 1.405054 2.669830 0.072775 -0.008744 -65352.900000 0 0 1
-3.542637 -14.106598 -29.251810 32.668254 1.324751 2.680170 0.078205 -0.009180 -48835.100000 0 0 1
-3.346837 -13.947798 -27.869580 31.344153 1.335294 2.666276 0.059911 -0.008534 -294841.000000 0 0 1
-4.345337 -13.102198 -27.416490 30.695496 1.250562 2.675156 0.054888 -0.003653 -332298.000000 0 0 1
-4.229237 -12.996398 -25.907860 29.291809 1.256188 2.656163 0.031231 -0.010478 -389735.000000 0 0 1
-4.643237 -14.187198 -25.310800 29.384909 1.254500 2.608725 0.027125 -0.006522 146211.000000 0 0 1
-4.578037 -14.221198 -23.886420 28.173782 1.259356 2.582665 0.018772 -0.005195 179935.000000 0 0 1
-5.336337 -13.065498 -23.054620 27.031450 1.183044 2.592276 0.021124 -0.013969 333448.000000 0 0 1
-6.726937 -13.009398 -23.309420 27.528625 1.093576 2.580612 0.027108 -0.017017 81892.300000 0 0 1
-7.305837 -11.953498 -22.571720 26.565842 1.022191 2.586121 0.014974 -0.018662 47632.300000 0 0 1
-8.791737 -11.618198 -22.832720 27.085241 0.923007 2.573623 0.038130 -0.016532 420249.000000 0 0 1
-9.769637 -12.542898 -22.384120 27.455764 0.909056 2.524008 0.040937 -0.013392 438088.000000 0 0 1
-10.250137 -13.549198 -23.289920 28.828224 0.923140 2.511353 0.023373 -0.013070 -126803.000000 0 0 1
-11.062137 -14.697198 -22.709520 29.225004 0.925589 2.460774 0.028453 -0.019928 -300234.000000 0 0 1
-10.362437 -15.757098 -22.085820 29.042206 0.989072 2.434838 0.035661 -0.018152 -482757.000000 0 0 1
-11.186137 -16.666398 -21.401020 29.341135 0.979676 2.388221 0.031281 -0.006949 -124137.000000 0 0 1
-11.746537 -17.759398 -22.335320 30.858449 0.986430 2.380089 0.018038 0.001980 -320515.000000 0 0 1
-12.783137 -17.311598 -23.160520 31.615024 0.934751 2.392900 0.015810 -0.001793 -413223.000000 0 0 1
-13.300237 -18.399398 -23.904520 32.967564 0.944891 2.381964 0.008997 -0.001152 505483.000000 0 0 1
-14.464237 -18.103898 -24.901220 34.015233 0.896692 2.392139 0.005934 -0.008370 265854.000000 0 0 1
-15.717337 -17.800398 -24.353320 34.014307 0.847466 2.368813 0.022111 -0.003661 -157274.000000 0 0 1
-16.685837 -17.629998 -25.377970 35.118021 0.812905 2.378422 0.032788 -0.017299 -236909.000000 0 0 1
-17.496737 -16.390898 -25.313440 34.864991 0.752777 2.383344 0.030365 -0.013873 -584096.000000 0 0 1
-18.376937 -16.388498 -24.211920 34.532764 0.728265 2.347776 0.038853 -0.013445 -171801.000000 0 0 1
-18.823637 -15.065898 -23.936420 33.974444 0.674967 2.352574 0.041348 -0.019331 65238.500000 0 0 1
-19.598737 -14.767998 -22.627520 33.379769 0.645749 2.315673 0.038666 -0.030542 106389.000000 0 0 1
-18.798437 -15.005498 -21.468420 32.240337 0.673661 2.299478 0.040710 -0.021811 167132.000000 0 0 1
-19.457237 -15.186398 -20.213620 31.902997 0.662738 2.256989 0.031763 -0.019697 -439016.000000 0 0 1
-20.098037 -13.960398 -19.581420 31.340961 0.607103 2.245655 0.029815 -0.020475 -764869.000000 0 0 1
-21.302937 -13.539398 -20.118420 32.278186 0.566160 2.243729 0.039872 -0.029629 -569272.000000 0 0 1
-21.832537 -12.526598 -19.278920 31.705711 0.520901 2.224409 0.045662 -0.025991 -781332.000000 0 0 1
-23.294137 -12.246098 -19.537220 32.776314 0.484008 2.209403 0.057426 -0.017358 -922182.000000 0 0 1
-23.589637 -11.445298 -20.649220 33.374484 0.451724 2.237900 0.062463 -0.034555 161770.000000 0 0 1
-24.987237 -11.237898 -20.751520 34.369725 0.422642 2.219022 0.068616 -0.033136 135832.000000 0 0 1
-25.522207 -10.067598 -21.600120 34.918545 0.375725 2.237738 0.087761 -0.024006 -101712.000000 0 0 1
-25.499237 -10.493498 -22.995920 35.904554 0.390400 2.265911 0.066859 -0.028822 244956.000000 0 0 1
-26.147707 -9.465698 -23.731220 36.557802 0.347333 2.277253 0.061439 -0.024879 -266727.000000 0 0 1
-26.347407 -9.798798 -25.232580 37.774137 0.356057 2.302295 0.049708 -0.015327 -397972.000000 0 0 1
-25.207007 -9.730798 -26.031050 37.519292 0.368410 2.337555 0.032661 -0.016194 -278508.000000 0 0 1
-24.434137 -10.909898 -26.104030 37.382795 0.419941 2.343802 0.030477 -0.009832 231046.000000 0 0 1
-23.214037 -10.844698 -27.042170 37.252892 0.437033 2.383150 0.030062 -0.004133 99761.000000 0 0 1
-23.746837 -10.975598 -28.333820 38.563991 0.432946 2.396053 0.030961 0.003736 46259.000000 0 0 1
-22.808337 -11.141698 -29.372530 38.821428 0.454399 2.428903 0.022192 0.000543 -143718.000000 0 0 1
-23.418637 -11.660498 -30.705260 40.338726 0.461978 2.435936 0.017992 -0.003051 264969.000000 0 0 1
-24.237437 -10.702098 -31.381730 41.070686 0.415807 2.440427 0.014156 0.006964 53230.200000 0 0 1
-23.493937 -9.751498 -32.062200 40.927271 0.393425 2.470905 0.014675 -0.000563 -631000.000000 0 0 1
-24.381937 -8.673598 -32.747830 41.738838 0.341778 2.472829 0.015180 0.010163 -988411.000000 0 0 1
-25.157727 -9.155998 -33.841110 43.150484 0.349042 2.472296 0.032688 0.008317 1817120.000000 0 0 1
-26.485477 -9.668098 -33.512510 43.795445 0.350005 2.442157 0.027150 0.010808 932070.000000 0 0 1
-27.447797 -8.632898 -32.875030 43.688398 0.304725 2.422629 0.028973 0.023643 -729295.000000 0 0 1
-28.794547 -9.115498 -32.861370 44.632812 0.306589 2.398324 0.019567 0.021931 628403.000000 0 0 1
-29.576317 -8.599198 -31.805890 44.275495 0.282945 2.372243 0.023147 0.022134 943671.000000 0 0 1
-31.072457 -9.089498 -31.876820 45.433999 0.284586 2.348447 0.023154 0.014018 804546.000000 0 0 1
-31.257857 -10.461198 -31.616150 45.673529 0.322957 2.335358 0.022602 0.006363 -14448.600000 0 0 1
-32.593437 -10.849498 -31.807860 46.816490 0.321337 2.317762 0.005495 0.009029 -368045.000000 0 0 1
-32.693297 -12.387598 -31.548430 47.091483 0.362188 2.304923 0.006437 0.005936 50244.200000 0 0 1
-34.008867 -12.873598 -31.801690 48.308179 0.361868 2.289366 -0.020376 0.004509 375897.000000 0 0 1
-34.067581 -14.296998 -31.912420 48.820148 0.397344 2.283224 -0.012001 -0.000903 120762.000000 0 0 1
-35.349558 -14.900298 -31.307340 49.515247 0.398913 2.255285 -0.021492 -0.003880 -26708.000000 0 0 1
-35.353113 -14.833998 -29.819490 48.570486 0.397284 2.231842 -0.019016 0.001233 294995.000000 0 0 1
35.328231 -15.445398 -29.216840 48.376317 -0.412156 2.219243 -0.018077 0.006359 305328.000000 0 0 1
35.487191 -15.515298 -27.665060 47.596437 -0.412166 2.191051 -0.011851 0.011029 -530698.000000 0 0 1
-35.428182 -16.496998 -27.321140 47.683873 0.435789 2.180914 -0.008888 -0.001033 -308494.000000 0 0 1
-35.093272 -16.501098 -25.933430 46.651546 0.439530 2.160237 -0.005751 -0.002493 427997.000000 0 0 1
-33.788907 -15.796298 -25.397940 45.125034 0.437311 2.168608 0.021995 -0.010702 -896606.000000 0 0 1
-32.737307 -16.630298 -25.506940 44.709083 0.470021 2.177922 0.020685 -0.007249 -1316690.000000 0 0 1
-31.655707 -16.089798 -24.769820 43.295605 0.470246 2.179872 0.036553 0.002740 352701.000000 0 0 1
-30.273667 -16.799398 -24.759020 42.564349 0.506611 2.191594 0.055597 -0.006819 275551.000000 0 0 1
-30.133047 -18.084298 -24.152820 42.642715 0.540529 2.172927 0.066141 -0.012037 -124832.000000 0 0 1
-30.851477 -19.151898 -24.742120 43.940658 0.555557 2.168905 0.047163 -0.012170 -303846.000000 0 0 1
-30.601997 -20.463098 -23.899220 43.890698 0.589399 2.146609 0.052034 -0.016855 150351.000000 0 0 1
-29.422727 -21.124798 -24.334820 43.636424 0.622688 2.162375 0.046563 -0.016194 174713.000000 0 0 1
-29.326347 -22.344998 -23.587520 43.768764 0.651101 2.139942 0.040120 -0.011471 -242243.000000 0 0 1
-27.995157 -23.121498 -23.853620 43.443385 0.690342 2.152052 0.050961 -0.012620 821303.000000 0 0 1
-26.815547 -22.536098 -23.296820 42.067697 0.698901 2.157710 0.052748 -0.006481 213420.000000 0 0 1
-26.687377 -22.320198 -21.891320 41.105198 0.696521 2.132428 0.042115 -0.011401 -690761.000000 0 0 1
-26.576297 -23.589798 -20.964520 41.258809 0.725936 2.103800 0.037419 -0.009397 -63057.500000 0 0 1
-26.299067 -23.264898 -19.607120 40.216111 0.724257 2.080071 0.022724 -0.009724 94035.400000 0 0 1
-26.393527 -24.298298 -18.707820 40.459957 0.744089 2.051472 0.022172 0.012225 -201039.000000 0 0 1
-26.391357 -23.666198 -17.328120 39.457020 0.731011 2.025465 0.013861 0.011782 214176.000000 0 0 1
-27.515317 -22.881498 -16.907720 39.579372 0.693709 2.012174 0.016688 0.003858 169903.000000 0 0 1
-27.317147 -22.307998 -15.619220 38.572443 0.684799 1.987701 0.006877 0.003833 289059.000000 0 0 1
-28.577657 -21.764598 -14.873820 38.879439 0.650881 1.963365 0.002606 0.006437 341917.000000 0 0 1
-29.186917 -20.612798 -15.437820 38.924156 0.614898 1.978620 0.008673 0.001535 1623830.000000 0 0 1
-30.549067 -20.392898 -14.939420 39.652265 0.588611 1.957093 0.014795 0.002329 1758770.000000 0 0 1
-31.500097 -19.790598 -16.025520 40.506064 0.560948 1.977553 0.036389 -0.015247 53135.200000 0 0 1
-32.115737 -20.749898 -16.845420 41.782138 0.573627 1.985778 0.033920 -0.007455 28094.100000 0 0 1
-32.943387 -20.051698 -17.770920 42.463431 0.546771 2.002589 0.024556 -0.015729 78067.100000 0 0 1
-33.652597 -20.962398 -18.784920 43.872459 0.557092 2.013264 0.020034 -0.015929 394664.000000 0 0 1
-34.859234 -21.662998 -18.511520 45.023639 0.556037 1.994513 0.010860 -0.012062 264322.000000 0 0 1
-34.831159 -22.705398 -17.515720 45.117017 0.577689 1.969505 0.015483 -0.011837 -180911.000000 0 0 1
35.895058 -23.796698 -17.601520 46.524742 -0.585426 1.958784 0.008622 -0.000245 523712.000000 0 0 1
34.563361 -23.403498 -17.252420 45.166311 -0.595204 1.962729 0.002386 -0.006973 391935.000000 0 0 1
33.791721 -24.580098 -17.169620 45.175851 -0.628880 1.960660 -0.011069 -0.000236 -644753.000000 0 0 1
32.389691 -24.378298 -16.616620 43.812163 -0.645199 1.959803 -0.014039 -0.001347 -430414.000000 0 0 1
31.422381 -24.230998 -17.635620 43.422603 -0.656893 1.989021 -0.016613 0.004954 -679563.000000 0 0 1
30.156691 -24.626798 -17.202220 42.565498 -0.684798 1.986830 -0.008350 -0.002039 -438964.000000 0 0 1
29.083011 -24.329298 -18.256420 42.083645 -0.696632 2.019516 0.005622 0.003645 -214483.000000 0 0 1
28.739541 -22.928498 -18.244620 41.043190 -0.673400 2.031437 0.009178 0.006823 1334970.000000 0 0 1
27.390111 -22.769098 -18.763820 40.258303 -0.693531 2.055658 0.009591 0.000040 1208510.000000 0 0 1
34.004701 29.790802 -18.152220 48.716678 0.719441 1.952614 0.021344 -0.005704 -306660.000000 0 0 1
33.203811 29.754802 -19.310520 48.587421 0.730671 1.979520 0.011506 -0.008026 -71154.900000 0 0 1
33.936751 29.448102 -20.497820 49.386784 0.714700 1.998790 0.020125 -0.004778 -66120.900000 0 0 1
33.125521 29.652402 -21.795620 49.513778 0.730131 2.026610 0.021748 0.000329 -120136.000000 0 0 1
32.065831 28.706802 -21.912720 48.295604 0.730182 2.041733 0.020331 0.002022 375359.000000 0 0 1
31.245421 28.875002 -23.056920 48.390739 0.745991 2.067436 0.034829 0.007844 756205.000000 0 0 1
30.053581 29.881702 -22.906120 48.174933 0.782530 2.066304 0.035915 0.013739 -63954.300000 0 0 1
30.483851 31.218002 -22.936220 49.294006 0.797296 2.054763 0.038117 0.002740 46453.500000 0 0 1
29.403321 32.134102 -22.977120 49.245344 0.829745 2.056222 0.039991 0.007008 -332613.000000 0 0 1
29.831411 33.637602 -22.761520 50.393335 0.845296 2.039441 0.034707 0.001794 223568.000000 0 0 1
30.387411 33.851902 -21.472720 50.303317 0.839277 2.011819 0.034031 -0.002511 -161185.000000 0 0 1
31.793941 33.763902 -21.453520 51.099015 0.815438 2.004068 0.024444 -0.001711 -290025.000000 0 0 1
32.322231 33.632502 -20.019220 50.760625 0.805262 1.976195 0.022490 -0.007315 -263062.000000 0 0 1
32.017261 -34.004184 -19.185220 50.492199 -0.815484 1.960554 0.019000 -0.007728 95117.100000 0 0 1
32.249571 -34.292784 -17.827920 50.337507 -0.816094 1.932820 0.018041 -0.017722 -428101.000000 0 0 1
32.110521 -33.059584 -16.912220 49.092208 -0.799960 1.922501 0.016876 -0.017659 -418034.000000 0 0 1
33.199311 -32.178484 -16.906720 49.228917 -0.769785 1.921364 0.016781 -0.008411 -926651.000000 0 0 1
34.188091 -32.607484 -16.023220 49.888046 -0.761739 1.897775 0.021654 -0.015019 -862304.000000 0 0 1
35.416221 -31.692884 -16.207520 50.213856 -0.729973 1.899451 0.013914 -0.002561 -522542.000000 0 0 1
-35.530674 -32.176584 -17.187620 50.923233 0.735900 1.915078 0.005445 -0.008025 -60576.100000 0 0 1
-34.455552 -31.268984 -17.466620 49.699268 0.736952 1.929912 -0.002641 0.002797 491954.000000 0 0 1
-33.507467 -31.767084 -18.563020 49.764281 0.758742 1.953057 0.006440 -0.001097 -562690.000000 0 0 1
-32.968807 -33.033484 -18.111220 50.061658 0.786378 1.940971 0.003483 -0.004443 1327170.000000 0 0 1
-31.814677 -33.635784 -18.748620 49.950480 0.813215 1.955564 0.016715 0.000857 900833.000000 0 0 1
-30.554857 -32.842584 -19.088220 48.750331 0.821468 1.973112 0.007861 0.002083 -1205820.000000 0 0 1
-30.696547 -31.981384 -20.205320 48.716957 0.805894 1.998464 0.003790 -0.001219 650193.000000 0 0 1
-29.443437 -31.605984 -20.784820 47.936030 0.820806 2.019275 0.022166 -0.004601 6969.210000 0 0 1
-28.647737 -32.552084 -21.553920 48.424193 0.849109 2.032089 0.022614 0.005343 -710850.000000 0 0 1
-29.384177 -33.068984 -22.640820 49.695013 0.844331 2.043837 0.017768 0.008965 207028.000000 0 0 1
-28.607927 -34.107384 -23.296020 50.243723 0.872864 2.052918 0.010626 0.002793 278492.000000 0 0 1
-29.259037 33.836702 -24.413520 50.961099 -0.857822 2.070382 0.004993 -0.007699 -736675.000000 0 0 1
-30.415927 33.122602 -24.065820 51.003913 -0.827971 2.062176 -0.005406 -0.008624 -467592.000000 0 0 1
-31.007447 32.439102 -25.136790 51.435546 -0.807959 2.081401 0.003230 -0.010189 405421.000000 0 0 1
-31.800527 33.247302 -26.229760 52.959012 -0.807636 2.088958 0.012300 -0.021629 -159471.000000 0 0 1
-31.051057 34.255602 -26.919940 53.500445 -0.834428 2.098062 0.011399 -0.029415 -439788.000000 0 0 1
-31.883607 -33.577284 -27.578810 53.894241 0.811265 2.107983 0.009987 -0.030260 -11455.300000 0 0 1
-31.128867 -32.726984 -28.652840 53.488757 0.810420 2.136109 0.005521 -0.022827 -90430.800000 0 0 1
-31.002857 -33.351384 -29.921610 54.486647 0.821876 2.152149 0.010901 -0.023384 104381.000000 0 0 1
-32.176847 -33.592084 -30.686880 55.726674 0.806913 2.153960 0.017544 -0.025517 -89471.100000 0 0 1
-31.932507 34.151302 -31.809590 56.549505 -0.818961 2.168213 0.031243 -0.026350 -231534.000000 0 0 1
-31.240297 -34.098784 -32.936390 56.775779 0.829119 2.189664 0.034267 -0.030144 -17047.900000 0 0 1
-31.425567 33.679602 -33.942860 57.218875 -0.820006 2.205838 0.026631 -0.026227 -500335.000000 0 0 1
-30.724477 34.179802 33.477240 56.859282 -0.838585 0.941256 0.030142 -0.028894 -1214750.000000 0 0 1
-29.396697 33.874302 33.348302 55.890459 -0.856049 0.931448 0.019671 -0.022264 -1299310.000000 0 0 1
-29.176337 32.599002 32.788463 54.672085 -0.840747 0.927633 0.026887 -0.029527 -1164930.000000 0 0 1
-27.725987 32.234802 32.988955 53.815276 -0.860453 0.910940 0.030507 -0.030143 -1195540.000000 0 0 1
-27.418737 31.854802 -34.298961 54.248819 -0.860099 2.255254 0.036145 -0.030352 1059060.000000 0 0 1
-26.025877 31.508902 -34.112202 53.233444 -0.880411 2.266341 0.051448 -0.028356 870010.000000 0 0 1
-25.590357 30.122802 34.062250 52.177451 -0.866573 0.859501 0.051480 -0.025457 -549919.000000 0 0 1
-25.758487 29.102502 -33.584620 51.365183 -0.846277 2.283445 0.044011 -0.022885 74702.400000 0 0 1
-25.171547 27.891002 -33.975270 50.654060 -0.836603 2.305991 0.038791 -0.017642 -184430.000000 0 0 1
-25.221797 26.772402 -32.906880 49.353453 -0.815212 2.300648 0.050727 -0.023182 475897.000000 0 0 1
-24.199937 26.779502 -31.856660 48.141723 -0.835955 2.293916 0.054237 -0.019299 727908.000000 0 0 1
-24.440937 27.722102 -30.867250 48.152482 -0.848217 2.266638 0.045378 -0.014710 64022.500000 0 0 1
-23.153037 27.898802 -30.018480 47.069262 -0.878091 2.262372 0.040771 -0.012684 -524116.000000 0 0 1
-22.031137 28.227602 -30.760050 47.205394 -0.908070 2.280516 0.038966 -0.017826 -726317.000000 0 0 1
-20.858837 28.007302 -29.990360 46.031747 -0.930655 2.280376 0.034166 -0.015736 302224.000000 0 0 1
-20.318137 29.211402 -29.171390 46.011985 -0.963060 2.257505 0.038301 -0.006210 -273504.000000 0 0 1
-19.751237 30.347002 -29.879240 46.944871 -0.993826 2.260716 0.038792 0.000519 249983.000000 0 0 1
-19.423837 31.399402 -29.010770 46.955646 -1.016809 2.236781 0.038107 -0.002000 -102184.000000 0 0 1
-18.985237 32.633602 -29.793500 48.094115 -1.043889 2.238881 0.040130 0.002980 -610617.000000 0 0 1
-17.745937 32.591702 -30.400580 47.972207 -1.072191 2.257139 0.047636 -0.003411 -1197880.000000 0 0 1
-17.588437 33.740202 -31.160710 49.180730 -1.090262 2.256989 0.041057 0.009726 -161829.000000 0 0 1
-16.178737 34.120302 -31.624960 49.255301 -1.128027 2.267981 0.036341 0.004883 30517.500000 0 0 1
-15.281237 -34.266284 -30.559140 48.389622 1.151311 2.254312 0.050532 0.000127 953198.000000 0 0 1
-13.916637 -34.028684 -30.944510 48.053999 1.182583 2.270450 0.058799 -0.000610 1304360.000000 0 0 1
-13.004137 33.445202 -30.900380 47.355281 -1.199966 2.281705 0.075313 -0.012729 -391207.000000 0 0 1
-12.893837 32.878802 -29.624930 46.096672 -1.197065 2.268774 0.095965 -0.025916 -233681.000000 0 0 1
-12.184037 31.665002 -29.676180 45.075479 -1.203480 2.289443 0.100595 -0.026015 71294.600000 0 0 1
-12.153537 31.058102 -28.302430 43.741762 -1.197798 2.274485 0.084266 -0.036196 279951.000000 0 0 1
-11.066837 31.649002 -27.605280 43.430240 -1.234412 2.259612 0.080328 -0.026256 -87368.700000 0 0 1
-10.942237 31.198102 -26.263800 42.223706 -1.233468 2.242110 0.065347 -0.023843 213702.000000 0 0 1
-9.504937 31.423302 -25.746630 41.721178 -1.277065 2.235863 0.059506 -0.023940 376428.000000 0 0 1
-8.509037 30.592902 -26.333110 41.252419 -1.299515 2.263137 0.067937 -0.017994 -898878.000000 0 0 1
-7.285837 30.982402 -25.820280 40.983894 -1.339832 2.252363 0.061637 -0.019987 -606021.000000 0 0 1
-6.068837 30.207302 -26.379590 40.560999 -1.372529 2.278866 0.023391 -0.012101 -81579.500000 0 0 1
-5.852337 28.985302 -25.685370 39.168046 -1.371568 2.286003 0.029527 -0.021816 -974774.000000 0 0 1
-4.637537 28.447502 -26.024710 38.833654 -1.409197 2.305219 0.026468 -0.025272 -991481.000000 0 0 1
-4.185437 27.190502 -25.273300 37.357476 -1.418065 2.313831 0.037648 -0.023219 -412943.000000 0 0 1
-4.956537 26.071802 -25.569780 36.852677 -1.382927 2.337601 0.048882 -0.020369 -225294.000000 0 0 1
-4.987637 25.128202 -24.452020 35.414748 -1.374855 2.332904 0.038142 -0.032130 -118881.000000 0 0 1
-6.019237 23.947402 -24.586720 34.845604 -1.324545 2.354052 0.043246 -0.026296 133964.000000 0 0 1
-5.971737 23.104802 -25.715500 35.082481 -1.317868 2.393520 0.048511 -0.026650 -243597.000000 0 0 1
-6.666437 21.905302 -25.515650 34.283116 -1.275372 2.410227 0.038800 -0.026659 -599862.000000 0 0 1
-6.673037 21.072302 -26.797770 34.737470 -1.264114 2.451893 0.032165 -0.021037 -502472.000000 0 0 1
-5.513637 20.373002 -27.111880 34.358601 -1.306493 2.480115 0.052580 -0.029591 -848124.000000 0 0 1
-5.326537 19.271202 -26.213060 32.967799 -1.301130 2.489987 0.049553 -0.022586 490386.000000 0 0 1
-4.020737 18.403802 -26.375270 32.411744 -1.355703 2.521383 0.054683 -0.033484 829413.000000 0 0 1
-4.125537 17.702602 -27.593080 33.042098 -1.341836 2.559090 0.051874 -0.033757 -479027.000000 0 0 1
-3.145937 16.720102 -27.559760 32.388256 -1.384818 2.588527 0.051122 -0.035414 -488378.000000 0 0 1
-2.663337 16.458702 -29.011280 33.460972 -1.410368 2.619983 0.056036 -0.031434 -199894.000000 0 0 1
-2.080037 17.609802 -29.532690 34.447227 -1.453223 2.600859 0.061469 -0.039356 -264419.000000 0 0 1
-1.836637 17.400002 -30.902380 35.511835 -1.465632 2.626403 0.057995 -0.044623 -100683.000000 0 0 1
-0.999837 18.508302 -31.544090 36.586699 -1.516828 2.610341 0.070650 -0.019653 599638.000000 0 0 1
0.393463 18.566902 -31.199670 36.308458 1.549608 2.604686 0.090866 -0.029845 896647.000000 0 0 1
1.094463 19.675802 -31.802330 37.412875 1.515229 2.586852 0.093695 -0.004098 532486.000000 0 0 1
0.897363 21.038602 -31.100390 37.558785 1.528169 2.546409 0.085085 -0.010229 304161.000000 0 0 1
1.677863 21.057802 -29.887090 36.598967 1.491285 2.526310 0.093584 -0.037433 221228.000000 0 0 1
1.288963 22.182702 -29.084320 36.600975 1.512755 2.489198 0.090261 -0.032938 -349780.000000 0 0 1
2.250763 22.343502 -27.977090 35.875000 1.470400 2.465221 0.088041 -0.028237 -1259570.000000 0 0 1
3.563463 22.602502 -28.327940 36.414881 1.414426 2.462148 0.084291 -0.028001 -1121390.000000 0 0 1
4.433363 22.615202 -27.231910 35.674627 1.377217 2.439266 0.075132 -0.030784 1852.410000 0 0 1
4.972963 24.079602 -26.993420 36.513043 1.367138 2.402799 0.081883 -0.031216 112982.000000 0 0 1
5.865463 24.563302 -28.021200 37.721971 1.336396 2.408091 0.079341 -0.037427 434653.000000 0 0 1
5.861963 26.000102 -28.160590 38.773532 1.349045 2.383697 0.067827 -0.035910 -209433.000000 0 0 1
6.739463 26.511602 -29.302420 40.086372 1.321861 2.390556 0.080708 -0.032643 216729.000000 0 0 1
8.145463 26.388202 -29.138740 40.146631 1.271397 2.383004 0.073006 -0.028738 -32059.800000 0 0 1
8.825163 27.106402 -30.093100 41.451601 1.256045 2.383257 0.072982 -0.031285 101547.000000 0 0 1
10.354863 26.885402 -29.881330 41.508336 1.203158 2.374436 0.057420 -0.027831 456522.000000 0 0 1
11.180463 27.714502 -30.675980 42.826535 1.187349 2.369259 0.053548 -0.028679 -208033.000000 0 0 1
12.260763 28.197002 -29.924440 42.905353 1.160633 2.342633 0.035222 -0.029769 270903.000000 0 0 1
13.232863 29.224702 -30.602770 44.336457 1.145619 2.332616 0.048943 -0.029081 167118.000000 0 0 1
12.678963 30.536602 -30.705500 45.122809 1.177251 2.319224 0.057016 -0.032510 477005.000000 0 0 1
13.651763 31.504102 -31.071130 46.306524 1.161889 2.306337 0.088394 -0.038390 422085.000000 0 0 1
12.949463 32.889202 -31.211960 47.154795 1.195707 2.294153 0.098646 -0.045345 589032.000000 0 0 1
12.047563 33.007402 -32.313430 47.736675 1.220825 2.314353 0.081354 -0.046656 126276.000000 0 0 1
11.343863 34.219102 -32.275230 48.387195 1.250691 2.300998 0.083866 -0.037856 684337.000000 0 0 1
10.147163 34.319602 -33.315560 48.895056 1.283320 2.320427 0.058352 -0.032351 867422.000000 0 0 1
10.492763 -33.849184 34.087670 49.171481 -1.270204 0.804820 0.056707 -0.023961 259387.000000 0 0 1
9.343263 -33.711784 33.245727 48.260328 -1.300431 0.810849 0.050615 -0.028583 395129.000000 0 0 1
9.437063 -32.763884 32.009952 46.767160 -1.290355 0.816942 0.061790 -0.020217 -36741.500000 0 0 1
9.364263 -31.408984 32.315592 46.027287 -1.281047 0.792459 0.051787 -0.029526 -90516.400000 0 0 1
9.548663 -30.618884 31.173232 44.726540 -1.268499 0.799627 0.059184 -0.020953 -343495.000000 0 0 1
9.051263 -29.127884 31.342692 43.734692 -1.269514 0.771802 0.050344 -0.032167 301410.000000 0 0 1
7.639963 -29.062484 31.248502 43.352807 -1.313732 0.765847 0.042013 -0.028727 -84017.900000 0 0 1
6.951763 -29.140584 32.465882 44.176171 -1.336614 0.745250 0.046188 -0.023492 -1025110.000000 0 0 1
5.435663 -29.020784 32.337382 43.788795 -1.385639 0.739975 0.044603 -0.027886 -554558.000000 0 0 1
4.757563 -30.202784 31.868112 44.163549 -1.414559 0.764696 0.044566 -0.030393 73795.100000 0 0 1
4.953463 -30.568784 30.491572 43.459444 -1.410150 0.793142 0.041985 -0.031644 -632535.000000 0 0 1
4.472563 -29.519784 29.441652 41.931281 -1.420429 0.792397 0.023738 -0.027704 219037.000000 0 0 1
3.076163 -29.640484 29.193822 41.716906 -1.467384 0.795668 0.049829 -0.034815 424385.000000 0 0 1
2.795163 -28.886984 28.040372 40.355089 -1.474335 0.802597 0.066138 -0.035216 924956.000000 0 0 1
1.311863 -29.094384 27.509102 40.061887 -1.525737 0.813905 0.059997 -0.036107 1044580.000000 0 0 1
1.092063 -30.318384 26.811192 40.487492 -1.534792 0.847033 0.065276 -0.037474 114442.000000 0 0 1
0.774963 -31.414984 27.650722 41.857666 -1.546133 0.849193 0.093716 -0.041038 -821113.000000 0 0 1
0.968963 -32.756284 26.886432 42.388598 -1.541224 0.883714 0.099236 -0.043408 130714.000000 0 0 1
2.293563 -33.192784 26.688562 42.653261 -1.501808 0.894755 0.077909 -0.032765 8397.590000 0 0 1
3.110463 -32.509084 25.789602 41.612727 -1.475407 0.902369 0.072453 -0.030225 -615212.000000 0 0 1
4.594363 -32.908684 25.836102 42.090305 -1.432083 0.909899 0.063850 -0.021039 -228937.000000 0 0 1
5.300763 -32.275584 24.815112 41.056073 -1.408015 0.921759 0.049405 -0.017802 21767.600000 0 0 1
6.671463 -32.657584 24.870062 41.587813 -1.369284 0.929776 0.038217 -0.023886 124844.000000 0 0 1
7.459263 -32.094584 23.663932 40.567038 -1.342435 0.947975 0.030888 -0.014614 -1180600.000000 0 0 1
8.696963 -31.651484 24.055672 40.695564 -1.302641 0.938358 0.015854 -0.008594 -1097070.000000 0 0 1
9.408263 -31.245584 22.928372 39.881225 -1.278324 0.958294 0.002706 -0.001673 32017.700000 0 0 1
10.556063 -30.243784 23.230572 39.569892 -1.234984 0.943353 -0.010930 0.004879 -162248.000000 0 0 1
11.666263 -30.790584 23.876022 40.672179 -1.208619 0.943404 -0.000259 -0.005013 -687056.000000 0 0 1
12.736063 -29.901084 23.708962 40.229305 -1.168130 0.940548 0.006967 -0.003381 934453.000000 0 0 1
14.127463 -30.333584 24.368692 41.394983 -1.134933 0.941363 0.034138 -0.009707 1130660.000000 0 0 1
14.339863 -30.281084 25.770442 42.269272 -1.128525 0.915148 0.032169 -0.014726 -28668.900000 0 0 1
14.694063 -29.001184 26.243922 41.781905 -1.101826 0.891666 0.025443 -0.012602 -399986.000000 0 0 1
-10.735537 -13.727598 25.802142 31.135980 0.907103 0.594029 0.074999 -0.024115 1338150.000000 0 0 1
-9.292637 -13.800698 25.705822 30.620282 0.978184 0.574428 0.074680 -0.026594 979531.000000 0 0 1
-8.679237 -14.331998 26.881422 31.675640 1.026281 0.557375 0.079287 -0.026534 -175072.000000 0 0 1
-7.154737 -14.409198 26.712652 31.183025 1.109921 0.542073 0.082853 -0.019569 -316554.000000 0 0 1
-6.701037 -15.485798 25.880232 30.894987 1.162404 0.577768 0.082954 -0.018658 -21612.400000 0 0 1
-6.719837 -15.190998 24.513942 29.611754 1.154317 0.595541 0.086404 -0.016672 -371523.000000 0 0 1
-6.321837 -16.360998 23.527372 29.345956 1.202072 0.640621 0.088488 -0.010528 -63985.400000 0 0 1
-7.219037 -17.419898 23.363672 30.023799 1.177927 0.679047 0.088732 -0.009793 -497720.000000 0 0 1
-7.246337 -18.241098 24.516042 31.405149 1.192660 0.675111 0.093356 -0.012949 -221130.000000 0 0 1
-7.869337 -19.640598 24.323042 32.238020 1.189715 0.715930 0.087695 -0.012949 299403.000000 0 0 1
-9.273037 -19.767498 24.136052 32.546769 1.132169 0.735373 0.071237 -0.009009 1079.860000 0 0 1
-9.582137 -21.104498 23.792142 33.215707 1.144594 0.772323 0.059897 -0.017636 -1586300.000000 0 0 1
-11.051837 -21.246998 23.675272 33.676350 1.091151 0.791156 0.048843 -0.012223 -1713550.000000 0 0 1
-11.657937 -20.984098 24.898602 34.585839 1.063694 0.767127 0.049431 -0.009714 641042.000000 0 0 1
-13.099237 -21.049798 24.874412 35.120085 1.014143 0.783755 0.050736 -0.006075 942098.000000 0 0 1
-13.617537 -21.077498 26.334762 36.376063 0.997189 0.761273 0.044974 -0.014613 -491450.000000 0 0 1
-13.371137 -22.222898 27.181722 37.569809 1.029140 0.761939 0.043757 -0.006786 -473636.000000 0 0 1
-12.358537 -21.944398 28.078952 37.718929 1.057894 0.731122 0.044923 -0.002466 -379556.000000 0 0 1
-11.898337 -23.180198 28.898412 38.910284 1.096567 0.733713 0.049813 -0.001185 39425.300000 0 0 1
-12.878637 -23.580698 29.837222 40.151817 1.070912 0.733090 0.044129 0.002593 356436.000000 0 0 1
-12.482137 -24.879498 30.265502 41.119263 1.105787 0.743592 0.044897 0.003849 -471993.000000 0 0 1
-13.415337 -25.495848 31.279752 42.525668 1.086427 0.744318 0.044273 -0.008890 -236946.000000 0 0 1
-13.428037 -24.927498 32.558022 43.147620 1.076683 0.715793 0.063728 -0.008635 -324208.000000 0 0 1
-14.529837 -25.331358 33.319809 44.305796 1.050022 0.719642 0.052220 -0.013029 -380367.000000 0 0 1
-14.508737 -24.908498 -33.804030 44.425772 1.043358 2.435511 0.054945 -0.014940 -51581.900000 0 0 1
-14.624037 -23.524798 -33.508550 43.475298 1.014614 2.450812 0.064539 -0.020556 -339127.000000 0 0 1
-15.790237 -22.878298 -33.940770 43.871677 0.966689 2.455358 0.045295 -0.018326 -595497.000000 0 0 1
-15.829837 -21.347798 -33.792830 42.991483 0.932744 2.475166 0.039304 -0.021040 -97612.200000 0 0 1
-15.881137 -21.014098 -32.432730 41.781394 0.923633 2.459489 0.037134 -0.023771 159618.000000 0 0 1
-15.834037 -19.588398 -32.219260 40.896245 0.890992 2.478073 0.025523 -0.023051 -306725.000000 0 0 1
-15.889037 -19.128498 -30.751120 39.547343 0.877645 2.461600 0.034970 -0.016070 -570676.000000 0 0 1
-17.061037 -19.534498 -30.126550 39.752794 0.852885 2.430804 0.028176 -0.018782 -575881.000000 0 0 1
-17.118637 -19.338098 -28.724800 38.628020 0.846202 2.409274 0.024160 -0.014706 192708.000000 0 0 1
-16.316937 -20.375198 -27.867270 38.183451 0.895553 2.388864 0.020211 -0.010814 506751.000000 0 0 1
-14.911237 -20.182998 -27.817000 37.463101 0.934501 2.407617 0.017374 -0.011387 71898.000000 0 0 1
-14.313137 -21.244798 -27.109470 37.297865 0.977924 2.384502 0.008330 -0.015817 -431346.000000 0 0 1
-12.800037 -21.282398 -27.294290 36.902029 1.029320 2.403335 0.019828 -0.019182 -954841.000000 0 0 1
-12.112337 -20.180898 -26.708150 35.599195 1.030238 2.419230 0.012371 -0.016130 360046.000000 0 0 1
-10.713137 -20.107998 -26.920120 35.267489 1.081270 2.439222 -0.001229 -0.021793 391216.000000 0 0 1
-9.859637 -21.087398 -26.110870 34.980972 1.133435 2.413478 0.020102 -0.023747 -940014.000000 0 0 1
-9.914937 -22.457898 -26.563080 36.169883 1.155042 2.395575 0.022079 -0.030605 -10635.200000 0 0 1
-9.494737 -23.163398 -25.424230 35.680310 1.181782 2.363931 0.042529 -0.030230 -51515.900000 0 0 1
-9.573937 -24.699398 -25.645140 36.869958 1.201009 2.339991 0.046076 -0.032405 -66851.300000 0 0 1
-8.787037 -25.115328 -26.731980 37.717244 1.234240 2.358517 0.057677 -0.032887 54375.500000 0 0 1
-9.237537 -26.327108 -27.380270 39.091277 1.233342 2.346781 0.057086 -0.032986 -60125.700000 0 0 1
-8.944037 -27.677078 -26.594650 39.411824 1.258232 2.311475 0.072547 -0.031983 -366380.000000 0 0 1
-9.844937 -28.017258 -25.594260 39.204027 1.232885 2.282134 0.064468 -0.031816 -360483.000000 0 0 1
-9.481837 -29.225308 -24.955620 39.582911 1.257072 2.252948 0.090097 -0.023659 -645.776000 0 0 1
-10.494837 -29.493938 -23.813320 39.333297 1.228937 2.221095 0.087270 -0.025579 133840.000000 0 0 1
-10.555537 -28.449178 -22.810820 37.961937 1.215510 2.215406 0.077456 -0.032455 -117255.000000 0 0 1
-11.496737 -27.452008 -23.180520 37.724319 1.174194 2.232512 0.054121 -0.027686 -312510.000000 0 0 1
-11.439837 -26.198248 -22.312420 36.263786 1.159088 2.233539 0.050781 -0.020493 -66034.600000 0 0 1
-11.795237 -26.530098 -20.972720 35.816599 1.152443 2.196365 0.041150 -0.023642 268841.000000 0 0 1
-11.826637 -25.388918 -20.070720 34.457225 1.134866 2.192575 0.040858 -0.013732 -254510.000000 0 0 1
-12.373537 -25.813128 -18.674120 34.178133 1.123804 2.148828 0.062324 -0.018575 1013600.000000 0 0 1
-13.788737 -26.072578 -18.722820 34.934977 1.084328 2.136409 0.072907 -0.020062 852168.000000 0 0 1
-14.353937 -26.456558 -17.475720 34.804968 1.073693 2.096827 0.073276 -0.018361 -565291.000000 0 0 1
-15.867637 -26.579458 -17.393920 35.507717 1.032594 2.082729 0.069726 -0.024470 -1752550.000000 0 0 1
-16.505937 -25.296048 -17.328120 34.822403 0.992658 2.091642 0.060290 -0.017643 295722.000000 0 0 1
-17.869137 -25.319638 -16.934120 35.315076 0.956227 2.070899 0.075341 -0.020027 939007.000000 0 0 1
-18.932137 -26.050148 -17.851520 36.820006 0.942337 2.076968 0.054912 -0.012449 -699808.000000 0 0 1
-18.640737 -27.403128 -18.210920 37.815951 0.973455 2.073238 0.052914 -0.024163 -333320.000000 0 0 1
-18.885737 -28.384068 -17.242920 38.205297 0.983696 2.039043 0.058606 -0.035485 -1285650.000000 0 0 1
-20.300837 -28.853488 -16.948920 39.139669 0.957669 2.018656 0.052707 -0.024400 -790991.000000 0 0 1
-20.891837 -29.687928 -17.940320 40.493173 0.957581 2.029789 0.037685 -0.023221 -270261.000000 0 0 1
-22.017837 -30.263128 -17.330420 41.243006 0.941821 2.004465 0.032556 -0.010402 -561034.000000 0 0 1
-22.703537 -31.187038 -18.328620 42.708551 0.941538 2.014354 0.021388 -0.013923 -354654.000000 0 0 1
-22.093037 -32.480868 -18.490220 43.416556 0.973492 2.010730 0.027636 -0.019342 165899.000000 0 0 1
-22.730437 -33.237838 -19.483220 44.732791 0.970977 2.021442 0.017006 0.000659 -140953.000000 0 0 1
-22.204837 34.042544 -19.516820 45.087203 -0.992829 2.018469 0.009454 -0.005627 -16582.800000 0 0 1
-22.621637 33.243290 -18.451220 44.241410 -0.973287 2.001002 0.017288 -0.007563 -424869.000000 0 0 1
-21.711537 32.228867 -18.160320 42.893915 -0.977963 2.007967 0.013362 -0.009099 -525991.000000 0 0 1
-22.311737 30.841407 -18.001920 42.107899 -0.944515 2.012543 0.017802 -0.011414 -141839.000000 0 0 1
-23.201737 30.716027 -16.913520 42.045953 -0.923872 1.984783 0.011686 -0.018397 109426.000000 0 0 1
-23.772537 29.389727 -16.749520 41.345327 -0.890669 1.987899 0.019699 -0.014836 531271.000000 0 0 1
-22.766737 28.183037 -16.468420 39.797196 -0.891307 1.997430 0.015560 -0.021573 448969.000000 0 0 1
-22.163037 27.662307 -17.633220 39.589569 -0.895324 2.032418 0.012116 -0.018283 -82021.700000 0 0 1
-21.595637 26.390827 -17.367820 38.268636 -0.884995 2.041866 0.020667 -0.015187 -46906.100000 0 0 1
-21.133237 25.764807 -18.687120 38.205333 -0.883837 2.081881 0.027059 -0.015930 -1507140.000000 0 0 1
-20.759037 24.408927 -18.565320 37.032479 -0.866030 2.095926 0.030615 -0.023532 -429303.000000 0 0 1
-19.978437 23.962037 -19.607020 36.847693 -0.875810 2.131887 0.029640 -0.015161 74043.000000 0 0 1
-18.555637 24.607057 -19.685820 36.569803 -0.924690 2.139225 0.022637 -0.013891 -1377850.000000 0 0 1
-17.786537 24.164607 -18.582820 35.293206 -0.936278 2.125306 0.039030 -0.016826 867578.000000 0 0 1
-16.505837 24.852037 -18.683720 35.201532 -0.984528 2.130299 0.055925 -0.020088 893553.000000 0 0 1
-16.496837 26.102037 -17.732720 35.607743 -1.007170 2.092089 0.048613 -0.027950 -98216.700000 0 0 1
-17.354537 27.171227 -18.200020 37.022916 -1.002399 2.084709 0.029371 -0.017217 301631.000000 0 0 1
-17.226837 28.296827 -17.382920 37.411767 -1.023938 2.054022 0.035198 -0.023795 -645501.000000 0 0 1
-18.437537 29.195847 -17.660320 38.784368 -1.007528 2.043558 0.020951 -0.016257 -111834.000000 0 0 1
-18.549337 29.935827 -18.896720 39.966457 -1.016063 2.063278 0.023891 -0.020284 606.558000 0 0 1
-18.681137 29.116587 -20.064120 39.991618 -1.000350 2.096369 0.012109 -0.009737 -242951.000000 0 0 1
-18.696737 29.924267 -21.382820 41.258390 -1.012340 2.115618 0.026673 -0.009742 141521.000000 0 0 1
-19.826037 30.763097 -21.449720 42.420872 -0.998315 2.100921 0.022446 -0.001616 -58710.200000 0 0 1
-20.188237 30.956547 -22.789820 43.419450 -0.992913 2.123366 0.026640 -0.000740 519522.000000 0 0 1
-20.960637 32.250977 -23.143620 44.889877 -0.994476 2.112462 0.021803 -0.000997 92196.100000 0 0 1
-19.985137 33.256826 -23.201420 45.207611 -1.029691 2.109728 0.003231 0.001422 100501.000000 0 0 1
-20.270337 34.349775 -24.087320 46.593912 -1.037676 2.114095 0.012976 0.003290 73960.900000 0 0 1
-19.275037 -33.192588 -23.901920 45.216997 1.044687 2.127752 0.016431 0.000308 104209.000000 0 0 1
-19.360437 -32.421908 -22.757520 44.089811 1.032482 2.113161 0.018632 -0.008830 -100899.000000 0 0 1
-19.121837 -33.023518 -21.482820 43.791654 1.045933 2.083539 0.027915 -0.018410 -290999.000000 0 0 1
-18.734637 -32.054348 -20.365620 42.346504 1.041878 2.072509 0.037313 -0.027453 559652.000000 0 0 1
-17.479537 -31.380188 -20.575320 41.395583 1.062576 2.090982 0.046782 -0.027028 712844.000000 0 0 1
-17.189237 -30.647058 -19.461920 40.168127 1.059640 2.076601 0.044400 -0.027505 203379.000000 0 0 1
-16.062037 -29.572598 -19.684820 38.987431 1.073236 2.100064 0.061104 -0.031431 141484.000000 0 0 1
-14.816937 -30.140508 -19.921720 39.049543 1.113895 2.106173 0.069149 -0.037526 -285026.000000 0 0 1
-13.785937 -29.171138 -20.145020 38.037208 1.129318 2.128941 0.055626 -0.039440 -928393.000000 0 0 1
-12.441137 -29.752908 -20.533120 38.231224 1.174743 2.137765 0.101062 -0.036775 -703404.000000 0 0 1
-11.836537 -30.470598 -19.479920 38.052967 1.200280 2.108210 0.095178 -0.029137 147105.000000 0 0 1
-11.324737 -29.734018 -18.384720 36.747237 1.206891 2.094744 0.059699 -0.024572 -686487.000000 0 0 1
-10.638637 -30.574248 -17.274020 36.692738 1.235939 2.060965 0.059854 -0.012112 -301913.000000 0 0 1
-11.483237 -31.248108 -16.395820 37.109728 1.218630 2.028423 0.086614 -0.025912 -205534.000000 0 0 1
-11.666337 -32.612418 -16.629520 38.421533 1.227255 2.018412 0.098050 -0.018657 152027.000000 0 0 1
-12.548837 -33.269008 -15.527120 38.799378 1.210104 1.982520 0.103872 -0.026524 35143.500000 0 0 1
-11.891137 -33.426448 -14.290420 38.248434 1.229017 1.953706 0.103225 -0.029127 329264.000000 0 0 1
-12.690937 -34.210630 -13.402420 38.872252 1.215568 1.922802 0.103691 -0.030404 198144.000000 0 0 1
-11.976937 -34.346886 -12.045420 38.317721 1.235275 1.890575 0.092658 -0.019327 14882.400000 0 0 1
-11.835237 -33.114538 -11.372420 36.959132 1.227542 1.883574 0.071417 -0.015520 309197.000000 0 0 1
-11.352037 -33.418398 -10.000920 36.683464 1.243332 1.846919 0.080093 -0.017046 -589885.000000 0 0 1
-10.118637 -32.611758 -9.657920 35.485054 1.269939 1.846442 0.057484 -0.017161 -341392.000000 0 0 1
-8.970337 -33.223908 -10.217320 35.898310 1.307088 1.859405 0.028954 -0.015968 -568935.000000 0 0 1
-7.776037 -32.531648 -9.936620 34.892855 1.336169 1.859568 0.016192 -0.018461 -263992.000000 0 0 1
-6.574737 -33.263518 -10.525720 35.503234 1.375656 1.871793 0.008801 -0.022155 -321404.000000 0 0 1
-6.204937 34.248965 -9.932620 36.195992 -1.391569 1.848775 -0.000566 -0.006262 180299.000000 0 0 1
-5.055937 33.676891 -10.570320 35.657077 -1.421778 1.871763 -0.006051 0.001268 577671.000000 0 0 1
-4.460237 32.575037 -9.613220 34.255522 -1.434721 1.855250 -0.011077 -0.000187 94797.200000 0 0 1
-3.759037 33.195245 -8.518520 34.476367 -1.458036 1.820465 0.009237 -0.000312 113659.000000 0 0 1
-3.252737 32.190157 -7.648920 33.245940 -1.470091 1.802947 0.001799 -0.007696 -103350.000000 0 0 1
-3.025037 32.823635 -6.244420 33.548989 -1.478896 1.758017 0.008206 -0.003446 -234474.000000 0 0 1
-2.098837 33.894940 -6.161220 34.514240 -1.508953 1.750271 0.005619 -0.002594 -13743.700000 0 0 1
-1.874537 34.363754 -4.835020 34.752826 -1.516300 1.710375 0.017849 -0.006782 117264.000000 0 0 1
-0.936537 33.532472 -3.917320 33.773498 -1.542874 1.687046 0.029711 -0.019383 33317.800000 0 0 1
0.421163 33.522111 -4.336020 33.804000 1.558233 1.699420 0.031955 -0.021269 -215944.000000 0 0 1
1.237563 32.875263 -3.444520 33.078380 1.533170 1.675118 0.035599 -0.021351 -387324.000000 0 0 1
2.740563 32.856308 -3.771120 33.185374 1.487578 1.684680 0.050776 -0.022241 25153.500000 0 0 1
3.319763 34.157756 -3.517720 34.498514 1.473911 1.672941 0.053251 -0.022474 226963.000000 0 0 1
4.733263 33.998347 -3.624620 34.517087 1.432465 1.676000 0.065155 -0.015499 680416.000000 0 0 1
5.582863 -33.505778 -3.203820 34.118470 -1.405689 1.664838 0.070068 -0.017889 11195.300000 0 0 1
5.410063 -32.449348 -4.126220 33.155010 -1.405593 1.695572 0.067268 -0.014130 72009.400000 0 0 1
5.991463 -31.229548 -3.645920 32.007422 -1.381247 1.684953 0.066937 -0.020173 -64916.400000 0 0 1
5.831663 -30.000858 -4.591820 30.905414 -1.378807 1.719925 0.052256 -0.012950 -3186.510000 0 0 1
6.790263 -29.893938 -5.645920 31.171006 -1.347441 1.752929 0.068405 -0.014565 147229.000000 0 0 1
6.661763 -28.758038 -6.502720 30.227293 -1.343163 1.787619 0.051385 -0.006635 69930.000000 0 0 1
7.164063 -27.456678 -5.852420 28.973156 -1.315564 1.774190 0.057326 -0.007647 388252.000000 0 0 1
6.344763 -27.044528 -4.748520 28.181749 -1.340359 1.740100 0.055507 -0.016980 178764.000000 0 0 1
6.939663 -25.902538 -4.079620 27.124596 -1.309029 1.721772 0.049388 -0.015484 160189.000000 0 0 1
6.039163 -25.216198 -3.020220 26.104595 -1.335729 1.686753 0.043163 -0.016093 -326501.000000 0 0 1
4.871963 -24.682498 -3.544220 25.407149 -1.375916 1.710750 0.032626 -0.015449 -827831.000000 0 0 1
4.199163 -23.852198 -2.598920 24.358052 -1.396533 1.677696 0.027849 -0.020490 126431.000000 0 1 0
3.003763 -23.170098 -3.317620 23.598361 -1.441876 1.711851 0.022913 -0.018172 646257.000000 0 1 0
1.915163 -24.080198 -3.408320 24.395500 -1.491431 1.710966 0.028913 -0.012730 383004.000000 0 1 0
0.619963 -23.522898 -3.665120 23.814790 -1.544447 1.725311 0.016742 -0.013281 981305.000000 0 1 0
-15.429637 22.837702 17.898672 32.863305 -0.976620 0.994836 -0.000821 -0.014925 -459683.000000 0 0 1
-15.621437 22.416402 19.208572 33.399006 -0.962171 0.958041 0.022977 -0.017175 131607.000000 0 0 1
-15.209037 23.375502 20.132872 34.395660 -0.993971 0.945507 0.018122 -0.013201 -910778.000000 0 0 1
-15.197537 23.015202 21.664072 35.071308 -0.987196 0.904963 0.019054 -0.012347 -313730.000000 0 0 1
-14.286837 22.002902 22.104872 34.305492 -0.994902 0.870618 0.005730 -0.009317 1176890.000000 0 0 1
-12.880737 22.284002 22.119372 33.937542 -1.046691 0.860884 0.007779 -0.012051 702121.000000 0 0 1
-12.331937 23.373802 23.102972 35.102117 -1.085316 0.852418 0.023135 0.000727 -539381.000000 0 0 1
-12.228737 23.021002 24.502452 35.775392 -1.082502 0.816334 0.020448 0.001645 34655.200000 0 0 1
-11.894637 24.181602 25.189582 36.888308 -1.113659 0.819125 0.038011 0.006215 -356449.000000 0 0 1
-11.331537 23.771902 26.496222 37.357152 -1.125980 0.782337 0.032439 0.001519 614959.000000 0 0 1
-9.957737 23.356402 26.512632 36.709640 -1.167792 0.763782 0.008266 -0.005537 569473.000000 0 0 1
-9.644737 22.562502 27.654492 36.971048 -1.166837 0.725747 0.003958 -0.003726 -61533.600000 0 0 1
-8.124037 22.235202 27.821292 36.529830 -1.220497 0.705010 0.002066 -0.011817 839451.000000 0 0 1
-7.313237 23.323602 28.249162 37.356244 -1.266950 0.713295 0.013155 -0.011339 57333.400000 0 0 1
-7.023237 24.336502 27.286442 37.230916 -1.289841 0.748225 0.014155 -0.008116 -541103.000000 0 0 1
-5.979337 25.326502 27.898822 38.151388 -1.338952 0.750620 0.022120 -0.014500 463232.000000 0 0 1
-4.651137 24.855602 27.729582 37.528172 -1.385809 0.739359 0.023814 -0.016356 353447.000000 0 0 1
-3.712637 25.813302 28.301182 38.484635 -1.427949 0.744556 0.035190 -0.012286 1445030.000000 0 0 1
-2.230137 25.288202 28.300082 38.017908 -1.482835 0.731178 0.040597 -0.008153 652741.000000 0 0 1
-1.632637 25.284402 26.977162 37.009914 -1.506315 0.754057 0.041844 -0.009685 -697384.000000 0 0 1
-0.371937 24.718702 27.093202 36.676888 -1.555751 0.739657 0.054464 -0.002078 -503471.000000 0 0 1
0.318463 24.485302 25.758872 35.540834 1.557791 0.760098 0.050095 -0.012697 -185392.000000 0 0 1
-0.201537 23.334302 25.114522 34.282203 -1.562160 0.748689 0.046032 -0.007882 83403.900000 0 0 1
0.120763 23.264502 23.705982 33.214834 1.565606 0.776006 0.039817 0.002001 140187.000000 0 0 1
-0.346937 21.912302 23.081472 31.828033 -1.554965 0.759481 0.028956 0.005744 -195042.000000 0 0 1
0.409963 20.884602 23.549972 31.479133 1.551169 0.725581 0.035481 0.003711 -531861.000000 0 0 1
-0.020037 19.644002 22.926172 30.191001 -1.569776 0.708450 0.021669 0.007671 -250857.000000 0 0 1
0.899163 18.406202 22.913472 29.404489 1.521984 0.677327 0.021870 0.006467 -69538.100000 0 0 1
2.084563 18.693802 22.171572 29.075457 1.459744 0.703546 0.028466 0.005901 -10947.500000 0 0 1
3.005963 17.625402 22.316972 28.596116 1.401874 0.675460 0.011806 0.002799 -438587.000000 0 0 1
4.355563 17.972702 21.713972 28.521667 1.333037 0.705458 0.023910 -0.002766 -466460.000000 0 0 1
5.225263 18.792602 22.453772 29.742850 1.299598 0.715249 0.023495 -0.004431 -387695.000000 0 0 1
6.435763 18.981502 21.742572 29.571200 1.243906 0.744744 0.040787 -0.021179 864401.000000 0 0 1
7.566963 19.681702 22.616272 30.921256 1.203752 0.750402 0.040541 -0.025195 341883.000000 0 0 1
7.128263 20.819902 23.297472 32.047662 1.240928 0.756907 0.019251 -0.012065 -37566.700000 0 0 1
6.880263 21.994202 22.514772 32.217974 1.267618 0.797041 0.033475 -0.022426 -255323.000000 0 0 1
5.803663 22.895802 23.111872 33.046314 1.322544 0.796269 0.021162 -0.011722 -280973.000000 0 0 1
5.588163 23.992502 22.297472 33.227172 1.341963 0.835157 0.018049 -0.016085 -164506.000000 0 0 1
4.499763 24.716602 22.807672 33.931522 1.390714 0.833664 0.016128 -0.005050 -403784.000000 0 0 1
4.208863 26.101902 22.257372 34.560301 1.410925 0.871061 0.031002 -0.010830 -14225.400000 0 0 1
3.878963 26.215702 20.858072 33.724895 1.423899 0.903993 0.033648 -0.011327 474916.000000 0 0 1
2.944863 25.323902 20.220272 32.539693 1.455028 0.900264 0.041340 -0.009587 -39025.000000 0 0 1
2.492263 25.736602 18.785972 31.960863 1.474260 0.942484 0.041568 -0.018917 -395916.000000 0 0 1
1.684263 26.885302 18.895272 32.904217 1.508232 0.959108 0.046228 -0.018618 -14856.800000 0 0 1
1.273563 27.326502 17.640172 32.550504 1.524225 0.998062 0.048506 -0.013894 82428.000000 0 0 1
0.238963 28.490802 17.780272 33.584534 1.562409 1.012881 0.040748 0.001510 113007.000000 0 0 1
0.692663 29.694202 18.344772 34.910687 1.547474 1.017520 0.043462 -0.001038 343056.000000 0 0 1
-0.432537 30.519802 18.552672 35.719001 -1.556625 1.024640 0.029961 0.000809 327181.000000 0 0 1
0.090463 31.825802 19.211672 37.174967 1.567954 1.027699 0.028871 0.001003 274079.000000 0 0 1
0.413763 31.784202 20.599672 37.878136 1.557779 0.995789 0.037540 0.001803 -87879.800000 0 0 1
1.060363 32.950802 21.016472 39.096954 1.538627 1.003270 0.041985 -0.006938 80180.200000 0 0 1
1.644863 32.842402 22.468072 39.826413 1.520755 0.971393 0.053662 -0.019399 33621.300000 0 0 1
0.581663 32.666602 23.381372 40.176283 1.552992 0.949648 0.057084 -0.013137 52948.500000 0 0 1
0.901563 32.700702 24.789412 41.044654 1.543233 0.922333 0.066036 -0.022907 -1045610.000000 0 0 1
-0.090437 32.034602 25.696502 41.067434 -1.567973 0.894749 0.071177 -0.026620 -1754440.000000 0 0 1
-1.216937 32.811702 25.799272 41.757528 -1.533725 0.904810 0.070009 -0.023481 -1047420.000000 0 0 1
-2.010837 32.580102 26.930122 42.317112 -1.509155 0.880989 0.075598 -0.019749 -231152.000000 0 0 1
-1.440937 33.132602 28.236332 43.556125 -1.527334 0.865480 0.089367 -0.023599 -696567.000000 0 0 1
-0.288237 32.438002 28.630732 43.266914 -1.561911 0.847681 0.090681 -0.024514 -233783.000000 0 0 1
0.139163 33.080802 29.818142 44.536282 1.566590 0.837228 0.081572 -0.025660 189734.000000 0 0 1
1.394963 32.327702 30.431702 44.419756 1.527672 0.816064 0.056771 -0.016232 1154570.000000 0 0 1
2.655463 32.592102 29.827212 44.260130 1.489500 0.831312 0.038865 -0.017037 325325.000000 0 0 1
3.025763 31.856802 28.733032 43.006955 1.476100 0.839141 0.033731 -0.016840 -634279.000000 0 0 1
4.520163 31.633902 28.483952 42.807372 1.428867 0.842769 0.009321 -0.014099 -120991.000000 0 0 1
5.133163 30.598502 29.260432 42.647281 1.404585 0.814677 0.012785 -0.015474 -436889.000000 0 0 1
6.481163 30.491702 28.922182 42.523428 1.361358 0.822833 0.002869 -0.019925 -361251.000000 0 0 1
7.204463 29.336302 29.675762 42.345882 1.329980 0.794286 -0.010093 -0.015045 95585.400000 0 0 1
7.176063 29.571102 31.078892 43.495327 1.332727 0.774838 0.000706 -0.019090 105498.000000 0 0 1
7.723963 28.444102 31.724172 43.302998 1.305641 0.748649 -0.004470 -0.016201 -193646.000000 0 0 1
7.665163 28.557002 33.271962 44.511577 1.308561 0.726521 0.015940 -0.031487 412479.000000 0 0 1
6.301463 28.619502 33.715731 44.671409 1.354074 0.715524 0.028489 -0.026774 547458.000000 0 0 1
6.116463 28.304702 -33.500340 44.281374 1.357975 2.428792 0.049592 -0.025568 -837.683000 0 0 1
6.192263 26.793102 -33.095520 43.029384 1.343670 2.448287 0.048067 -0.019849 -800646.000000 0 0 1
7.484863 26.309002 -33.217000 43.029709 1.293621 2.452707 0.028310 -0.020823 -472108.000000 0 0 1
7.476763 24.898402 -33.096460 42.085723 1.279073 2.475765 0.042533 -0.017826 -168973.000000 0 0 1
8.844863 24.431902 -33.611450 42.483868 1.223453 2.483496 0.033520 -0.015369 -545858.000000 0 0 1
9.075063 24.423702 33.628964 42.541523 1.215038 0.659176 0.010904 -0.000469 2651380.000000 0 0 1
10.430363 23.872802 33.263877 42.251493 1.158878 0.664406 0.019463 -0.014049 2294430.000000 0 0 1
10.666063 22.361602 33.506116 41.670924 1.125733 0.636696 0.024365 -0.016673 -1047450.000000 0 0 1
9.855663 21.521802 32.757791 40.415280 1.141360 0.625740 0.011433 -0.006852 -271734.000000 0 0 1
9.672763 20.189302 33.295067 40.121462 1.124005 0.591945 0.012382 -0.007804 -159645.000000 0 0 1
8.547263 20.055202 -34.316299 40.655568 1.167921 2.575632 0.035019 -0.010634 -517669.000000 0 0 1
8.787263 20.674902 -33.056320 39.967335 1.168908 2.544695 0.045961 -0.010235 -656551.000000 0 0 1
7.652763 20.645802 -32.270420 39.066532 1.215828 2.542837 0.047857 -0.010187 -826330.000000 0 0 1
7.765563 21.190102 -30.844050 38.218841 1.219524 2.509915 0.058886 -0.026096 -272036.000000 0 0 1
8.097863 22.580202 -30.866460 39.091934 1.226457 2.480931 0.072702 -0.021777 163617.000000 0 0 1
8.241663 23.153702 -29.562570 38.444304 1.228827 2.448027 0.053212 -0.019739 433505.000000 0 0 1
9.748363 23.292302 -29.149290 38.564790 1.174425 2.427751 0.048604 -0.022568 817526.000000 0 0 1
10.220863 21.983302 -28.754510 37.610550 1.135590 2.441113 0.039054 -0.013928 -614345.000000 0 0 1
11.596763 22.067102 -28.504860 37.867783 1.086940 2.423021 0.038570 -0.014955 -278117.000000 0 0 1
12.273563 20.685202 -28.443600 37.249917 1.035281 2.439649 0.045934 -0.020156 -617339.000000 0 0 1
12.309363 19.864902 -29.631000 37.737659 1.016051 2.473789 0.036221 -0.026348 629010.000000 0 0 1
11.065163 19.381702 -30.183290 37.538237 1.052043 2.504902 0.049771 -0.017791 291619.000000 0 0 1
11.186163 18.555202 -31.481980 38.217023 1.028278 2.538823 0.047038 -0.022431 -532559.000000 0 0 1
11.474963 17.176802 -31.341770 37.536967 0.981837 2.558852 0.049206 -0.024443 154426.000000 0 0 1
11.402663 16.379002 -32.477040 38.118900 0.962642 2.590577 0.045425 -0.016854 -381935.000000 0 0 1
12.548063 16.452902 -33.512830 39.386059 0.919238 2.588455 0.036742 -0.001214 -183328.000000 0 0 1
12.602063 17.687202 -34.126570 40.450858 0.951733 2.574851 0.043792 -0.004154 -155105.000000 0 0 1
13.232763 17.701002 33.260917 39.933946 0.928851 0.586472 0.047214 -0.007250 -83701.600000 0 0 1
12.464363 17.088502 32.046212 38.397095 0.940610 0.583390 0.064055 -0.013055 -570253.000000 0 0 1
13.003163 17.481502 30.828522 37.750270 0.931260 0.615225 0.052126 -0.013456 158330.000000 0 0 1
12.205263 17.135902 29.675602 36.376488 0.951888 0.616701 0.043968 -0.011500 1108770.000000 0 0 1
10.739963 17.688502 29.516202 36.047691 1.025120 0.611462 0.021191 -0.010345 1512690.000000 0 0 1
9.785163 17.029402 30.390892 36.185028 1.049260 0.573744 0.028528 -0.005015 543843.000000 0 0 1
8.475363 17.575702 30.418272 36.138737 1.121473 0.570357 0.021975 -0.003134 624496.000000 0 0 1
7.639863 16.771902 31.477252 36.475767 1.143365 0.529691 0.028351 -0.001850 -54550.100000 0 0 1
7.961163 17.097102 32.793350 37.829813 1.135009 0.521917 0.039561 0.001571 128331.000000 0 0 1
7.675363 15.997002 33.602237 37.999021 1.123439 0.485820 0.057204 -0.005870 -86425.300000 0 0 1
7.876763 16.115902 -33.528850 38.025643 1.116183 2.650341 0.059270 -0.012475 -16326.900000 0 0 1
6.867163 16.969902 -33.012170 37.748363 1.186273 2.635267 0.058461 -0.017340 342854.000000 0 0 1
6.919463 17.004802 -31.609250 36.553891 1.184345 2.615409 0.060158 -0.024963 168259.000000 0 0 1
5.848663 17.937202 -30.949160 36.246387 1.255603 2.594143 0.066865 -0.030375 -323022.000000 0 0 1
5.795863 17.920602 -29.509040 35.007477 1.257995 2.573512 0.059340 -0.039488 -103054.000000 0 0 1
5.096963 18.958502 -28.864770 34.908148 1.308158 2.544329 0.070359 -0.040884 3042.940000 0 0 1
3.557663 18.855502 -28.911950 34.699968 1.384308 2.555663 0.087714 -0.047222 -1319140.000000 0 0 1
3.101863 17.795302 -28.072290 33.381848 1.398222 2.569823 0.090814 -0.045327 891271.000000 0 0 1
1.699563 17.464402 -28.102890 33.131047 1.473786 2.583439 0.079409 -0.044606 1056310.000000 0 0 1
0.674363 18.586202 -27.825160 33.468511 1.534529 2.552389 0.074296 -0.047266 -1103940.000000 0 0 1
0.590263 19.123302 -26.519390 32.700568 1.539940 2.516615 0.077868 -0.046903 -181535.000000 0 0 1
-0.341837 20.171802 -26.421950 33.243615 -1.553852 2.489471 0.084433 -0.045179 -289468.000000 0 0 1
-0.770637 20.664002 -25.095260 32.517179 -1.533520 2.452391 0.065953 -0.046013 -12997.800000 0 0 1
-1.449837 19.709902 -24.287120 31.312082 -1.497370 2.458536 0.060303 -0.041124 40217.700000 0 0 1
-2.072637 20.338002 -23.203820 30.924867 -1.469237 2.419356 0.072067 -0.030378 -304531.000000 0 0 1
-3.033237 19.450602 -22.422920 29.838127 -1.416097 2.421107 0.062540 -0.030336 -158586.000000 0 0 1
-4.364837 19.427802 -22.866320 30.320948 -1.349796 2.425144 0.050693 -0.018210 -460026.000000 0 0 1
-5.215037 18.612502 -22.143020 29.392775 -1.297611 2.423936 0.038544 -0.021024 250399.000000 0 0 1
-6.742537 18.778002 -22.392820 29.991892 -1.226068 2.413777 0.073218 -0.016018 1020620.000000 0 0 1
-7.523237 19.699202 -21.584420 30.175236 -1.205985 2.367853 0.044291 -0.007995 450451.000000 0 0 1
-7.248237 21.066302 -21.833220 31.193197 -1.239416 2.346103 0.038927 -0.010819 -4637.500000 0 0 1
-7.844737 22.117302 -20.840520 31.385383 -1.229951 2.296979 0.050993 -0.019957 120042.000000 0 0 1
-6.978437 22.227502 -19.753820 30.544621 -1.266586 2.274073 0.049524 -0.016206 50133.800000 0 0 1
-7.369737 23.376102 -18.985020 31.003003 -1.265392 2.229840 0.057053 -0.018339 -99298.600000 0 0 1
-6.720937 23.560902 -17.600820 30.167465 -1.292918 2.193751 0.052616 -0.020649 880152.000000 0 0 1
-5.301237 23.821102 -17.605220 30.091391 -1.351821 2.195748 0.043496 -0.019021 580189.000000 0 0 1
-4.793737 24.061302 -16.338420 29.476603 -1.374141 2.158299 0.057517 -0.014738 -254599.000000 0 0 1
-3.285137 24.317702 -16.310220 29.464657 -1.436517 2.157420 0.059603 -0.020702 -155251.000000 0 0 1
-2.931837 25.681802 -16.457320 30.643009 -1.457128 2.137751 0.036570 -0.024655 650109.000000 0 0 1
-1.677237 25.848502 -17.159920 31.071225 -1.506000 2.155889 0.031348 -0.023043 809273.000000 0 0 1
-1.274537 27.327102 -17.200620 32.314954 -1.524190 2.132088 0.018472 -0.032058 165938.000000 0 0 1
-2.222337 28.275302 -17.763820 33.466174 -1.492361 2.130340 0.026624 -0.029817 6323.650000 0 0 1
-1.929937 28.743602 -19.063720 34.544822 -1.503754 2.155383 0.030686 -0.035803 -887876.000000 0 0 1
-3.096037 29.275402 -19.906520 35.537363 -1.465432 2.165372 0.051870 -0.033274 -299614.000000 0 0 1
-3.669537 30.520202 -19.486720 36.396160 -1.451138 2.135785 0.044112 -0.019998 176111.000000 0 0 1
-4.627437 30.287602 -18.438720 35.759452 -1.419186 2.112542 0.032198 -0.018991 -108353.000000 0 0 1
-5.086337 31.627402 -17.782220 36.638378 -1.411341 2.077553 0.063569 -0.014788 447848.000000 0 0 1
-5.786437 32.581302 -18.640320 37.980069 -1.395029 2.083795 0.091125 -0.021095 431051.000000 0 0 1
-5.927137 33.766602 -17.879020 38.664890 -1.397034 2.051507 0.080432 -0.029344 42947.700000 0 0 1
-6.677937 -33.825184 -18.560020 39.156254 1.375878 2.064623 0.079258 -0.017725 98142.800000 0 0 1
-8.024337 -34.028484 -18.926120 39.755826 1.339215 2.066964 0.095685 -0.025574 15472.100000 0 0 1
-8.621737 -32.861184 -19.468220 39.156141 1.314211 2.091159 0.129540 -0.043425 95204.300000 0 0 1
29.305163 -20.560798 -26.785970 44.710482 -0.611806 2.213171 0.020128 0.002506 181663.000000 0 0 1
28.808063 -21.706898 -26.160060 44.558306 -0.645738 2.198265 0.029915 -0.005886 -424704.000000 0 0 1
27.445463 -21.904898 -26.444100 43.958713 -0.673596 2.216257 0.021698 -0.003230 -252015.000000 0 0 1
26.793363 -23.182298 -25.980870 43.935280 -0.713267 2.203521 0.021039 0.006469 -272839.000000 0 0 1
27.200863 -24.378798 -26.691900 45.240140 -0.730740 2.201861 0.015501 0.014993 -449890.000000 0 0 1
28.501063 -24.775198 -26.350390 46.048497 -0.715577 2.180020 0.009517 0.019040 -385572.000000 0 0 1
28.965263 -26.123998 -26.916000 47.391147 -0.733868 2.174814 0.008639 0.010405 49361.300000 0 0 1
28.484863 -27.286188 -26.185480 47.345568 -0.763909 2.156843 0.019560 0.001273 -82392.700000 0 0 1
28.729363 -28.509808 -26.820430 48.554309 -0.781562 2.156013 0.009499 0.004334 453735.000000 0 0 1
27.587763 -29.010088 -27.789080 48.732975 -0.810523 2.177584 0.024891 -0.004354 152501.000000 0 0 1
27.436563 -28.382458 -29.034880 49.003604 -0.802342 2.204961 0.008467 -0.006296 431994.000000 0 0 1
28.493863 -28.599758 -30.008210 50.302476 -0.787253 2.209999 -0.001220 -0.006886 293244.000000 0 0 1
28.604363 -30.010328 -30.653070 51.560063 -0.809380 2.207455 0.013064 -0.008254 -893723.000000 0 0 1
29.164363 -31.073938 -29.885510 52.050873 -0.817088 2.182374 0.022208 -0.012617 -246631.000000 0 0 1
30.505463 -31.005028 -29.465180 52.536577 -0.793520 2.166209 0.023186 -0.013903 -912370.000000 0 0 1
31.578063 -30.904448 -30.477840 53.676417 -0.774618 2.174636 0.021815 -0.008915 -1727780.000000 0 0 1
31.640263 -29.564708 -31.043860 53.281324 -0.751500 2.192770 0.020022 -0.017265 -73879.200000 0 0 1
32.879963 -29.223848 -31.664230 54.201003 -0.726595 2.194690 0.033338 -0.013257 397208.000000 0 0 1
32.750563 -27.820008 -32.370730 53.799781 -0.704175 2.216410 0.025729 -0.004556 75149.100000 0 0 1
32.636463 -26.602688 -31.664720 52.682979 -0.683894 2.215601 0.004521 0.008800 133218.000000 0 0 1
31.460463 -26.422718 -30.869680 51.389278 -0.698584 2.215176 0.011080 0.006172 242399.000000 0 0 1
31.455563 -25.058868 -30.089790 50.227431 -0.672691 2.213137 0.000241 0.005740 -116126.000000 0 0 1
32.274563 -24.876698 -28.913160 49.964671 -0.656670 2.187896 0.002936 0.011068 196361.000000 0 0 1
32.009163 -23.678598 -28.203660 48.792509 -0.636905 2.187112 -0.003090 0.008873 634977.000000 0 0 1
33.095963 -23.218198 -27.116930 48.680133 -0.611760 2.161617 -0.004115 0.012136 387534.000000 0 0 1
33.033663 -23.790498 -25.811820 48.202290 -0.624148 2.135884 -0.003266 0.011470 -147507.000000 0 0 1
31.953963 -23.231898 -25.063520 46.786289 -0.628646 2.136136 0.017936 0.003707 161606.000000 0 0 1
32.310063 -22.032798 -24.108320 45.941217 -0.598487 2.123235 0.013761 0.006531 -348966.000000 0 0 1
32.746063 -20.883698 -24.807020 46.084940 -0.567713 2.139202 0.008124 0.003123 61812.400000 0 0 1
32.838263 -19.776298 -23.970920 45.211265 -0.542060 2.129630 -0.004714 -0.001220 -76112.600000 0 0 1
33.114863 -18.621798 -24.841920 45.392582 -0.512268 2.149893 -0.015228 -0.008533 427712.000000 0 0 1
31.956663 -18.344598 -25.644990 44.893408 -0.521117 2.178814 -0.003906 -0.000655 666436.000000 0 0 1
32.100963 -17.257998 -26.457240 45.036606 -0.493286 2.198714 -0.010288 0.007531 30817.900000 0 0 1
30.919763 -17.124698 -27.450720 44.752978 -0.505789 2.231133 -0.004531 0.008433 -38038.200000 0 0 1
29.651163 -16.851898 -26.923610 43.451798 -0.516814 2.239055 0.004827 0.000994 -369459.000000 0 0 1
28.697763 -16.846698 -27.959730 43.464001 -0.530835 2.269577 0.003713 -0.008544 -908071.000000 0 0 1
27.334663 -16.404898 -27.481900 42.089896 -0.540530 2.282247 0.011816 -0.006462 -844868.000000 0 0 1
26.592663 -17.412298 -26.858630 41.614227 -0.579727 2.272369 0.020356 0.003546 -104336.000000 0 0 1
26.537063 -17.238198 -25.505210 40.643412 -0.576087 2.249181 0.023292 0.006407 60018.500000 0 0 1
25.717463 -18.347698 -24.761120 40.138996 -0.619685 2.235574 0.021152 0.012384 201009.000000 0 0 1
25.885963 -18.009298 -23.392120 39.263331 -0.607846 2.209027 0.021042 0.023112 3813.100000 0 0 1
25.069763 -18.812498 -22.577220 38.628150 -0.643761 2.195030 0.026890 0.021687 6350.760000 0 0 1
24.961863 -18.312698 -21.084420 37.456672 -0.632940 2.168689 0.019043 0.019974 -177254.000000 0 0 1
24.279863 -17.088698 -20.857020 36.284303 -0.613286 2.183183 0.026066 0.010107 -115625.000000 0 0 1
24.842363 -15.864798 -21.304420 36.369123 -0.568333 2.196642 0.033077 0.010486 -236919.000000 0 0 1
26.081063 -15.277398 -20.619320 36.589303 -0.529888 2.169454 0.025850 0.005330 -222055.000000 0 0 1
25.875663 -14.636098 -19.394920 35.495468 -0.514765 2.148863 0.029861 -0.007873 380071.000000 0 0 1
27.048263 -13.897098 -19.068120 35.893329 -0.474618 2.130865 0.021922 -0.006113 34314.900000 0 0 1
26.972363 -12.996798 -17.860720 34.863024 -0.449027 2.108670 0.040512 -0.013955 -170102.000000 0 0 1
27.115763 -13.532098 -16.610120 34.558333 -0.462887 2.072181 0.027337 -0.002354 17359.600000 0 0 1
26.716063 -12.643598 -15.631220 33.435664 -0.442026 2.057259 0.025246 -0.004421 458.387000 0 0 1
27.414263 -12.809298 -14.267220 33.454050 -0.437106 2.011385 0.037721 -0.012568 -41594.300000 0 0 1
27.021863 -14.075598 -13.775720 33.437613 -0.480225 1.995425 0.064855 -0.025800 369968.000000 0 0 1
27.469763 -14.305798 -12.418620 33.368636 -0.480136 1.952136 0.084030 -0.024882 146764.000000 0 0 1
26.827463 -15.588698 -11.897320 33.230505 -0.526386 1.936947 0.085653 -0.041938 -79936.700000 0 0 1
25.424063 -15.644498 -11.788920 32.095357 -0.551624 1.946911 0.079787 -0.044874 50792.500000 0 0 1
24.947363 -16.815498 -11.201620 32.103087 -0.593089 1.927222 0.063403 -0.036386 -1189040.000000 0 0 1
23.468863 -16.814598 -10.950220 30.877590 -0.621690 1.933318 0.066948 -0.041181 -1176570.000000 0 0 1
23.031063 -16.174798 -9.766420 29.789879 -0.612270 1.904816 0.061290 -0.031725 206426.000000 0 0 1
21.643163 -16.242498 -9.557420 28.698249 -0.643800 1.910313 0.048622 -0.028134 -462273.000000 0 0 1
21.269863 -15.895098 -8.102420 27.761672 -0.641775 1.866963 0.048786 -0.023278 -428648.000000 0 0 1
21.514463 -14.541198 -7.813120 27.117585 -0.594354 1.863059 0.060244 -0.011158 319579.000000 0 0 1
21.465763 -14.201698 -6.424220 26.528057 -0.584485 1.815395 0.041526 0.000100 -251896.000000 0 0 1
22.385363 -14.902098 -5.366920 27.422269 -0.587338 1.767782 0.044296 0.007105 -81363.600000 0 0 1
23.755663 -14.590698 -5.548920 28.425525 -0.550794 1.767267 0.064659 0.004183 345064.000000 0 0 1
24.514463 -15.113698 -4.485620 29.146244 -0.552479 1.725311 0.054527 -0.006983 -534667.000000 0 0 1
26.016763 -14.872498 -4.642920 30.325234 -0.519313 1.724505 0.073597 -0.010945 -549903.000000 0 0 1
26.468263 -13.585798 -4.338920 30.066078 -0.474220 1.715615 0.074624 -0.005795 -312569.000000 0 0 1
27.832763 -13.484798 -4.646620 31.274487 -0.451166 1.719924 0.086471 -0.017302 -402236.000000 0 0 1
28.562563 -12.306498 -3.961320 31.352224 -0.406825 1.697484 0.094753 -0.025552 -728650.000000 0 0 1
28.784863 -12.524998 -2.566720 31.496539 -0.410415 1.652379 0.097828 -0.027354 357042.000000 0 0 1
29.250263 -11.398898 -1.839120 31.446703 -0.371598 1.629313 0.092773 -0.036690 467352.000000 0 0 1
30.755263 -11.025798 -2.041720 32.735654 -0.344228 1.633207 0.086061 -0.030483 96458.100000 0 0 1
31.035063 -10.524898 -3.352120 32.942151 -0.326958 1.672731 0.089728 -0.034376 485784.000000 0 0 1
32.346663 -10.814298 -3.831520 34.321075 -0.322643 1.682667 0.097515 -0.031672 438134.000000 0 0 1
32.441363 -10.452598 -5.351120 34.501207 -0.311697 1.726525 0.099408 -0.034662 25256.500000 0 0 1
31.452663 -11.218398 -6.019220 33.931600 -0.342610 1.749133 0.081259 -0.037315 327499.000000 0 0 1
31.570463 -11.106498 -7.391020 34.273541 -0.338278 1.788152 0.072038 -0.036346 182054.000000 0 0 1
30.405263 -11.677498 -8.257220 33.600977 -0.366691 1.819083 0.095867 -0.032795 235654.000000 0 0 1
30.148063 -13.061998 -8.096520 33.838959 -0.408847 1.812406 0.076117 -0.030934 103276.000000 0 0 1
28.913363 -13.500698 -8.617220 33.053107 -0.436849 1.834552 0.079447 -0.030821 178737.000000 0 0 1
28.766463 -15.015698 -8.357620 33.508661 -0.481082 1.822874 0.084347 -0.036986 -4332.060000 0 0 1
29.294363 -15.703898 -9.451920 34.555910 -0.492087 1.847853 0.093398 -0.044564 218859.000000 0 0 1
29.191063 -17.145198 -9.343020 35.119339 -0.531062 1.840075 0.080797 -0.043641 -127167.000000 0 0 1
29.531863 -17.845298 -10.748720 36.140290 -0.543555 1.872782 0.076142 -0.045140 1424650.000000 0 0 1
30.924163 -17.759198 -11.201420 37.378667 -0.521295 1.875147 0.067522 -0.036856 1698170.000000 0 0 1
31.092863 -18.261998 -12.515620 38.169457 -0.531057 1.904872 0.045433 -0.022465 80084.500000 0 0 1
30.335163 -17.498498 -13.659920 37.590065 -0.523215 1.942702 0.040639 -0.030435 382718.000000 0 0 1
31.018963 -16.295398 -14.132320 37.781457 -0.483711 1.954173 0.039809 -0.027454 353006.000000 0 0 1
30.375763 -15.698498 -15.247520 37.438171 -0.477005 1.990261 0.039611 -0.029410 -682126.000000 0 0 1
31.113263 -14.495898 -15.855120 37.809404 -0.436003 2.003518 0.018945 -0.016822 1049660.000000 0 0 1
32.277363 -14.688798 -16.687420 39.192588 -0.427071 2.010620 -0.007373 -0.020098 802017.000000 0 0 1
33.459463 -15.119998 -16.060120 40.075896 -0.424425 1.983124 -0.000009 -0.025508 -426826.000000 0 0 1
34.517363 -15.453298 -17.150320 41.525730 -0.420937 1.996547 0.012781 -0.023523 -278313.000000 0 0 1
35.838663 -15.510998 -16.680420 42.464541 -0.408459 1.974480 0.014977 -0.023909 -399752.000000 0 0 1
-35.161086 -16.239498 -17.573420 42.530558 0.432673 1.996756 0.024795 -0.027651 -1527.320000 0 0 1
-33.685786 -16.031298 -17.131620 41.051518 0.444188 2.001291 0.034061 -0.024069 71958.400000 0 0 1
-33.210986 -16.906898 -16.087020 40.590701 0.470882 1.978305 0.039936 -0.024392 316712.000000 0 0 1
-33.739886 -16.557098 -14.798420 40.391963 0.456202 1.945902 0.031340 -0.028417 -445295.000000 0 0 1
-33.105486 -17.387998 -13.655520 39.809408 0.483627 1.920929 0.030732 -0.027281 -381907.000000 0 0 1
-31.814386 -16.894998 -13.386120 38.428952 0.488177 1.926590 0.034947 -0.022129 -96920.300000 0 0 1
-31.246286 -17.661898 -12.302220 37.942294 0.514474 1.900999 0.039803 -0.015960 -111313.000000 0 0 1
-29.733586 -17.584998 -12.075420 36.594181 0.534086 1.907081 0.056944 -0.018973 -286852.000000 0 0 1
-29.408886 -16.332298 -11.531520 35.561250 0.506943 1.901038 0.060795 -0.027445 -861563.000000 0 0 1
-28.127986 -16.224298 -11.029620 34.293789 0.523188 1.898238 0.057324 -0.021640 -839725.000000 0 0 1
-28.144786 -16.047598 -9.519820 33.768053 0.518204 1.856589 0.068538 -0.024108 -102351.000000 0 0 1
-28.442486 -17.257498 -8.915420 34.442430 0.545368 1.832628 0.065267 -0.022345 -260069.000000 0 0 1
-28.783786 -17.053098 -7.556220 34.298848 0.534853 1.792924 0.072378 -0.018449 -182674.000000 0 0 1
-29.354286 -18.382098 -7.002120 35.335610 0.559473 1.770277 0.062072 -0.019880 396306.000000 0 0 1
-30.560386 -18.974198 -7.462420 36.737517 0.555628 1.775348 0.054554 -0.017935 268845.000000 0 0 1
-30.482386 -19.415898 -8.827120 37.203105 0.567150 1.810349 0.054330 -0.016538 -213776.000000 0 0 1
-31.783586 -20.130498 -9.275820 38.748860 0.564589 1.812527 0.038975 -0.012439 -329817.000000 0 0 1
-32.849986 -19.309498 -9.573820 39.289138 0.531407 1.816951 0.039650 -0.011336 -716543.000000 0 0 1
-33.926786 -20.102998 -9.997420 40.682991 0.534917 1.819079 0.028263 -0.019090 668330.000000 0 0 1
-35.220586 -19.357998 -10.516220 41.542902 0.502553 1.826722 0.020666 -0.032849 670321.000000 0 0 1
-35.225686 -19.049498 -11.898220 41.776788 0.495740 1.859599 0.013327 -0.031023 -675520.000000 0 0 1
35.283063 -18.958298 -12.334720 41.910105 -0.493056 1.869534 0.023824 -0.034284 -771260.000000 0 0 1
35.084763 -18.580098 -13.827820 42.040091 -0.487029 1.905956 0.028104 -0.035160 -510059.000000 0 0 1
35.598663 -19.563698 -14.664220 43.186137 -0.502507 1.917244 0.023846 -0.027815 320876.000000 0 0 1
34.847963 -19.709898 -15.876120 43.068687 -0.514739 1.948324 0.018994 -0.020024 -51426.300000 0 0 1
33.656163 -20.659198 -15.846020 42.551570 -0.550527 1.952385 0.016239 -0.017100 -742885.000000 0 0 1
32.634463 -20.159598 -14.959020 41.172683 -0.553361 1.942629 0.020873 -0.023033 745509.000000 0 0 1
31.474063 -21.019898 -15.015820 40.717657 -0.588820 1.948492 0.015008 -0.019623 910572.000000 0 0 1
30.531163 -20.689298 -16.206120 40.284455 -0.595565 1.984815 0.004745 -0.008696 -713204.000000 0 0 1
29.831763 -19.450198 -16.043820 39.059550 -0.577777 1.994076 0.015594 -0.011280 -97840.100000 0 0 1
28.798663 -19.421198 -16.979720 38.663378 -0.593323 2.025469 0.011441 -0.005439 14582.100000 0 0 1
27.907263 -18.115198 -16.926920 37.329564 -0.575757 2.041424 0.018230 -0.005645 456011.000000 0 0 1
26.914263 -18.152098 -15.899720 36.147992 -0.593366 2.026229 0.040428 -0.012517 74310.900000 0 0 1
26.282863 -16.915198 -15.883920 35.060116 -0.571851 2.040978 0.028454 -0.009441 -1597040.000000 0 0 1
24.870063 -16.950498 -15.328620 33.775820 -0.598244 2.041860 0.042232 -0.016487 -486837.000000 0 0 1
23.858963 -17.371998 -16.218020 33.675816 -0.629345 2.073267 0.042705 -0.014856 315783.000000 0 0 1
23.509563 -16.465798 -17.244020 33.484000 -0.610986 2.111796 0.035348 -0.001290 -1000680.000000 0 0 1
22.571763 -17.043298 -18.302020 33.688610 -0.646739 2.145124 0.039504 -0.001819 689686.000000 0 0 1
21.214963 -17.238998 -17.870520 32.659045 -0.682369 2.149793 0.053332 -0.005087 1113170.000000 0 0 1
20.385463 -17.961798 -18.830120 33.057022 -0.722279 2.176846 0.060079 -0.012505 1111020.000000 0 0 1
18.933663 -18.220198 -18.316520 32.030519 -0.766198 2.179551 0.062055 -0.011343 431422.000000 0 0 1
18.238463 -17.010598 -18.213920 30.882825 -0.750578 2.201577 0.073345 -0.014099 270290.000000 0 0 1
16.896863 -17.233598 -17.805120 29.992052 -0.795264 2.206397 0.078416 -0.022471 625636.000000 0 0 1
15.889963 -16.106598 -17.436220 28.564579 -0.792169 2.227380 0.077620 -0.016754 43928.600000 0 0 1
15.245763 -15.578598 -18.584820 28.644747 -0.796196 2.276808 0.079748 -0.010647 96924.700000 0 0 1
14.014863 -15.000698 -18.198720 27.434116 -0.819361 2.296098 0.072068 -0.010700 286957.000000 0 0 1
13.094863 -14.551098 -19.357220 27.530199 -0.838024 2.350582 0.068553 -0.012329 100791.000000 0 0 1
13.574863 -13.400098 -20.015820 27.649097 -0.778919 2.380268 0.069946 -0.018678 154078.000000 0 0 1
12.641263 -12.890498 -20.969520 27.671054 -0.795160 2.430753 0.058691 -0.009160 217007.000000 0 0 1
12.875063 -11.489098 -21.532420 27.593690 -0.728574 2.466003 0.053242 -0.002772 -845195.000000 0 0 1
13.971063 -11.368398 -22.372320 28.721974 -0.683045 2.463749 0.048153 0.001205 -750415.000000 0 0 1
14.097863 -9.985498 -22.637520 28.476609 -0.616274 2.489724 0.030119 0.001676 -2420.880000 0 0 1
15.448563 -9.564098 -23.255920 29.512165 -0.554340 2.478368 0.030413 0.008241 47108.200000 0 0 1
15.620363 -10.048898 -24.549220 30.783767 -0.571665 2.493891 0.043297 0.005761 579555.000000 0 0 1
16.879463 -9.660198 -25.120420 31.769029 -0.519806 2.482781 0.053598 -0.006410 454137.000000 0 0 1
21.708863 4.664002 -6.925020 23.259053 0.211626 1.873115 0.032678 0.018781 -365272.000000 0 1 0
21.704363 6.104502 -7.059020 23.625708 0.274174 1.874216 0.028280 0.024007 676970.000000 0 1 0
21.177763 6.737602 -5.916920 22.997888 0.308019 1.831004 0.024390 0.020237 -344840.000000 0 1 0
21.203563 8.246702 -5.969720 23.520985 0.370927 1.827407 0.023402 0.018644 -642169.000000 0 1 0
20.252163 8.715002 -6.884520 23.097575 0.406372 1.873459 0.026025 0.014855 293908.000000 0 1 0
19.966763 10.137102 -6.900820 23.431896 0.469788 1.869734 0.030763 0.016385 -11261.300000 0 1 0
19.446363 10.829902 -5.607320 22.954081 0.508134 1.817578 0.043267 0.008764 -793233.000000 0 1 0
20.418863 11.129002 -4.662020 23.717484 0.499024 1.768649 0.045333 0.014380 -174112.000000 0 1 0
19.979863 12.109702 -3.721820 23.657805 0.544889 1.728772 0.068285 0.000662 66394.900000 0 1 0
21.032963 12.593402 -2.695020 24.662571 0.539497 1.680291 0.061692 -0.006015 196342.000000 0 1 0
22.273063 13.117402 -3.202020 26.046276 0.532244 1.694044 0.059985 -0.011369 1713050.000000 0 0 1
23.145663 13.497902 -2.067920 26.873618 0.527954 1.647822 0.064609 -0.011913 573510.000000 0 0 1
23.986063 12.367002 -1.425020 27.024149 0.476043 1.623552 0.045509 -0.010162 -115523.000000 0 0 1
25.147063 12.104202 -2.252420 27.999283 0.448606 1.651329 0.033507 -0.000771 1233250.000000 0 0 1
25.869363 10.915702 -1.859920 28.139577 0.399289 1.636941 0.049245 -0.008074 -692921.000000 0 0 1
27.259263 10.821502 -2.439720 29.429994 0.377904 1.653791 0.046962 -0.005403 -433292.000000 0 0 1
28.151563 11.845002 -1.928720 30.602851 0.398272 1.633862 0.041750 -0.014058 -679948.000000 0 0 1
29.440663 11.429602 -2.080420 31.649906 0.370315 1.636576 0.042284 -0.015523 -1006330.000000 0 0 1
30.531663 12.536802 -1.884620 33.059123 0.389625 1.627835 0.039232 -0.018756 -326313.000000 0 0 1
30.494863 13.051302 -0.569220 33.175249 0.404395 1.587955 0.055918 -0.013796 690552.000000 0 0 1
31.494863 14.012302 -0.251420 34.472223 0.418611 1.578090 0.053330 -0.019784 -76202.800000 0 0 1
32.975863 13.590502 -0.219120 35.667314 0.390923 1.576940 0.058993 -0.029358 -529296.000000 0 0 1
33.903463 14.636502 -0.070320 36.927996 0.407541 1.572701 0.058374 -0.028695 83248.700000 0 0 1
34.556163 14.987102 -1.285220 37.688107 0.409219 1.604904 0.060854 -0.030222 -159931.000000 0 0 1
33.801663 16.064202 -2.148120 37.486336 0.443651 1.628132 0.030667 -0.012809 -874904.000000 0 0 1
32.656763 15.539702 -2.686620 36.265195 0.444141 1.644947 0.037034 -0.017025 -1140160.000000 0 0 1
31.846263 16.622402 -3.123720 36.058928 0.481059 1.657533 0.025361 -0.005391 215707.000000 0 0 1
30.449963 16.151102 -3.616420 34.657421 0.487682 1.675334 0.042080 -0.018038 -431145.000000 0 0 1
30.464963 15.419502 -4.848920 34.487491 0.468547 1.711863 0.028947 -0.016818 364632.000000 0 0 1
29.287863 15.232402 -5.623820 33.487793 0.479592 1.739532 0.022485 -0.030453 1213190.000000 0 0 1
28.059063 14.410702 -4.985220 31.934805 0.474456 1.727544 0.032258 -0.017573 656192.000000 0 0 1
27.039563 14.203102 -5.916820 31.110686 0.483660 1.762148 0.037224 -0.019922 -53721.100000 0 0 1
26.091563 13.268402 -5.403220 29.766003 0.470450 1.753332 0.036871 -0.006285 719059.000000 0 0 1
24.984063 12.814802 -6.443520 28.808705 0.473929 1.796370 0.032951 -0.005859 149579.000000 0 0 1
25.511163 12.365402 -7.638620 29.361047 0.451337 1.833986 0.022012 0.002405 259934.000000 0 0 1
24.512763 11.960802 -8.585620 28.594566 0.453955 1.875755 0.028181 0.010214 165936.000000 0 0 1
24.112063 13.125502 -9.499720 29.050216 0.498498 1.903935 0.044671 0.003080 -222191.000000 0 0 1
23.368263 14.064502 -8.753920 28.644668 0.541789 1.881369 0.053144 -0.003760 -92308.000000 0 0 1
23.346163 15.395302 -9.217820 29.445319 0.582980 1.889198 0.046328 -0.013974 -789799.000000 0 0 1
22.430963 16.354402 -8.370520 28.994485 0.629990 1.863658 0.043749 -0.002328 1361730.000000 0 0 1
21.010163 16.185302 -8.526520 27.858436 0.656402 1.881854 0.061850 -0.001960 1206700.000000 0 0 1
20.464863 14.938202 -8.121820 26.606849 0.630541 1.881000 0.056339 -0.008587 -1450050.000000 0 0 1
18.946363 14.809802 -8.230520 25.417245 0.663464 1.900557 0.054208 0.001222 -476679.000000 0 0 1
18.251663 15.378702 -7.145420 24.913544 0.700177 1.861690 0.078955 -0.020260 61653.300000 0 1 0
16.857163 15.200602 -7.373320 23.866044 0.733770 1.884881 0.074611 -0.013669 132058.000000 0 1 0
16.087663 15.542702 -6.107320 23.188097 0.768171 1.837322 0.072247 -0.004232 -293276.000000 0 1 0
16.251863 14.467802 -5.217820 22.375566 0.727388 1.806156 0.054231 -0.009291 622830.000000 0 1 0
15.631163 14.802602 -3.946620 21.886664 0.758180 1.752109 0.040683 -0.003831 -190637.000000 0 1 0
15.651963 13.547402 -3.032120 20.921515 0.713447 1.716237 0.046512 -0.008515 -1028980.000000 0 1 0
16.882163 13.005402 -2.672920 21.477718 0.656407 1.695571 0.051240 -0.004459 15745.500000 0 1 0
16.759463 12.350002 -1.393020 20.864866 0.635062 1.637610 0.047046 -0.005588 -113190.000000 0 1 0
16.766863 13.179402 -0.103320 21.326861 0.666170 1.575641 0.049208 -0.008364 -636214.000000 0 1 0
15.655663 14.019102 0.052080 21.015178 0.730304 1.568318 0.044490 -0.014693 85746.200000 0 1 0
15.773663 14.957902 1.075880 21.764760 0.758860 1.521344 0.037499 -0.007329 -865031.000000 0 1 0
14.560963 15.824502 1.362180 21.547437 0.826958 1.507536 0.041250 -0.005913 -848573.000000 0 1 0
14.369363 16.907202 0.498380 22.194153 0.866363 1.548339 0.048087 -0.005572 91131.600000 0 1 0
13.633263 17.899802 1.139780 22.529267 0.919885 1.520184 0.042603 -0.007715 -359667.000000 0 1 0
13.435663 19.247702 0.365680 23.476047 0.961387 1.555219 0.034727 -0.005995 46682.100000 0 1 0
12.682463 19.123902 -0.835820 22.962297 0.985216 1.607204 0.038494 -0.013850 147216.000000 0 1 0
12.193163 20.385502 -1.269820 23.787693 1.031754 1.624203 0.035846 -0.014187 -301061.000000 0 1 0
10.665363 20.480502 -1.194520 23.122020 1.090681 1.622481 0.025792 -0.013331 -104315.000000 0 1 0
10.145063 20.543002 0.156080 22.912040 1.112085 1.563984 0.015722 -0.018458 -1005800.000000 0 1 0
8.876563 20.032702 0.241580 21.912573 1.153692 1.559771 0.014245 -0.026213 -813748.000000 0 1 0
8.306363 20.152702 1.694580 21.863180 1.179842 1.493210 0.011439 -0.013941 83904.500000 0 1 0
7.944263 21.477502 2.155780 23.000908 1.216515 1.476933 0.000028 -0.002121 -224190.000000 0 1 0
7.170263 21.487402 3.276380 22.887896 1.248719 1.427154 0.004938 -0.004225 -579905.000000 0 1 0
6.748263 22.822302 3.864680 24.110833 1.283301 1.409814 -0.000647 0.007853 321999.000000 0 1 0
7.665163 23.427402 4.791980 25.110973 1.254587 1.378787 0.006893 0.006902 384348.000000 0 0 1
7.105163 24.551202 5.452080 26.133695 1.289091 1.360630 0.002195 0.009277 -287018.000000 0 0 1
7.683163 24.742502 6.855780 26.799703 1.269712 1.312105 0.001029 0.004036 -41026.700000 0 0 1
7.155963 23.930202 7.869880 26.187733 1.280225 1.265561 0.013431 -0.017745 398481.000000 0 0 1
8.030263 24.071002 9.010880 26.927573 1.248799 1.229580 0.018718 -0.019849 304699.000000 0 0 1
7.566763 23.294602 10.204580 26.533522 1.256719 1.176031 0.019419 -0.022154 -1094900.000000 0 0 1
6.340763 23.724702 10.684480 26.781054 1.309636 1.160418 0.017969 -0.018061 -636783.000000 0 0 1
5.785763 22.653302 11.445780 26.031769 1.320737 1.115548 0.017494 -0.018279 -157674.000000 0 0 1
4.494963 23.093202 12.140080 26.474180 1.378556 1.094419 0.026492 -0.022334 -154155.000000 0 0 1
3.460063 23.556502 11.327080 26.366333 1.424956 1.126742 0.018714 -0.016336 222477.000000 0 0 1
2.177963 23.706802 11.910780 26.619967 1.479183 1.106898 0.014747 -0.018422 387963.000000 0 0 1
1.050763 23.915902 10.871980 26.292098 1.526889 1.144493 0.025131 -0.011293 -316931.000000 0 0 1
1.223363 24.946302 9.920080 26.874199 1.521796 1.192723 0.034285 -0.016805 302219.000000 0 0 1
0.322463 25.021402 8.785080 26.520787 1.557910 1.233166 0.023376 -0.019198 772180.000000 0 0 1
-1.038937 25.734402 9.032480 27.293305 -1.530447 1.233496 0.036909 -0.018608 170828.000000 0 0 1
-1.928137 24.994902 9.817280 26.922886 -1.493808 1.197545 0.039496 -0.015485 -143917.000000 0 0 1
-3.219437 25.577702 9.738180 27.557499 -1.445586 1.209618 0.058497 -0.019456 15379.000000 0 0 1
-4.329037 24.786602 10.452580 27.246516 -1.397888 1.177073 0.074299 -0.023194 -138158.000000 0 0 1
-4.425437 24.803602 11.849680 27.842738 -1.394235 1.131179 0.049667 -0.014526 -49866.200000 0 0 1
-5.601237 25.506402 12.180680 28.815262 -1.354626 1.134356 0.070849 -0.015830 -61689.900000 0 0 1
-5.980837 25.514202 13.673080 29.558383 -1.340542 1.089895 0.039928 -0.006538 94474.700000 0 0 1
-6.773137 24.419302 14.124780 29.011844 -1.300230 1.062302 0.050688 -0.014210 187326.000000 0 0 1
-7.180537 24.669202 15.469180 29.990418 -1.287549 1.028850 0.032922 0.000169 -62174.600000 0 0 1
-8.388537 23.820102 15.933380 29.860298 -1.232197 1.007948 0.032914 -0.009236 283398.000000 0 0 1
-9.586337 24.283702 15.326380 30.273651 -1.194812 1.039952 0.012549 0.000248 551994.000000 0 0 1
-10.649837 23.328002 15.427580 29.926993 -1.142529 1.029197 0.014092 -0.007051 -141040.000000 0 0 1
-12.046137 23.752302 15.051980 30.591557 -1.101440 1.056376 0.011356 -0.013382 -803652.000000 0 0 1
-12.535137 24.778102 15.880980 31.988897 -1.102443 1.051289 0.012696 -0.012940 47977.500000 0 0 1
-13.832837 25.148402 15.457980 32.599672 -1.067916 1.076769 0.008056 -0.013304 -127165.000000 0 0 1
-14.476537 26.353202 16.196080 34.152224 -1.068470 1.076705 0.021617 -0.017920 -32138.200000 0 0 1
-15.377537 25.922502 17.204880 34.705225 -1.035383 1.052106 0.013554 -0.022664 -8059.540000 0 0 1
-15.871037 26.974202 17.982780 36.095398 -1.038966 1.049273 0.033304 -0.010020 -359983.000000 0 0 1
-17.170337 26.693302 18.761380 36.869258 -0.999184 1.036934 0.034345 -0.021997 -628242.000000 0 0 1
-18.308237 26.855802 18.014980 37.161339 -0.972442 1.064688 0.037103 -0.022888 -463134.000000 0 0 1
-19.494537 26.341802 18.625480 37.693978 -0.933687 1.053970 0.026996 -0.015696 1062940.000000 0 0 1
-20.782037 26.536002 17.756380 38.096476 -0.906406 1.085930 0.046438 -0.022233 120369.000000 0 0 1
-21.447537 27.737002 17.963680 39.395836 -0.912583 1.097324 0.040607 -0.021603 -115041.000000 0 0 1
-22.049037 28.163902 16.770480 39.504612 -0.906580 1.132365 0.046567 -0.025222 -189619.000000 0 0 1
-22.865237 29.482302 16.928380 40.970663 -0.911138 1.144850 0.042652 -0.025545 924405.000000 0 0 1
-24.085837 29.294402 17.682680 41.844554 -0.882665 1.134506 0.030350 -0.022613 326119.000000 0 0 1
-25.012537 30.255302 17.373580 42.928447 -0.879976 1.154134 0.026566 -0.012276 -83558.000000 0 0 1
-26.350977 30.100602 18.165380 43.936332 -0.851723 1.144559 0.024855 -0.014377 696520.000000 0 0 1
-27.271667 29.113602 17.686680 43.636731 -0.818053 1.153471 0.037632 -0.011894 739144.000000 0 0 1
-28.507717 29.053102 18.408580 44.672682 -0.794873 1.146064 0.062226 -0.034399 594123.000000 0 0 1
-28.651617 27.921702 19.439580 44.479589 -0.772497 1.118486 0.056411 -0.031319 -772293.000000 0 0 1
-28.974277 26.667402 18.798380 43.635286 -0.743962 1.125410 0.052572 -0.020626 344451.000000 0 0 1
-28.993797 25.571302 19.741180 43.407902 -0.722757 1.098668 0.057738 -0.014082 -123166.000000 0 0 1
-29.245547 24.183602 19.075080 42.473607 -0.690939 1.105034 0.040101 -0.013219 -104396.000000 0 0 1
-30.554507 24.032402 18.573780 43.082706 -0.666481 1.125064 0.057407 -0.015318 111078.000000 0 0 1
-30.557907 23.543302 17.242980 42.253912 -0.656460 1.150446 0.052116 -0.009632 -266319.000000 0 0 1
-30.665167 22.001002 17.118780 41.442119 -0.622348 1.144966 0.034804 -0.006724 337322.000000 0 0 1
-32.020357 21.549202 17.154680 42.236885 -0.592364 1.152555 0.029719 -0.001880 513211.000000 0 0 1
-32.057947 20.177602 16.836980 41.452762 -0.561764 1.152535 0.010006 -0.001703 7336.890000 0 0 1
-33.419167 19.649502 16.344580 42.072425 -0.531528 1.171808 0.013691 -0.010772 -9601.650000 0 0 1
-33.619367 19.809402 14.935580 41.782123 -0.532460 1.205246 0.002734 -0.005020 -711374.000000 0 0 1
-34.866350 19.368702 14.539180 42.452288 -0.507066 1.221238 0.008168 -0.003138 -711554.000000 0 0 1
-35.117551 19.607902 13.060780 42.288251 -0.509232 1.256811 0.017280 0.010105 17341.800000 0 0 1
-35.491365 20.994202 12.821480 43.183143 -0.534168 1.269342 -0.001280 0.006033 106352.000000 0 0 1
-35.784915 21.349702 11.479880 43.222188 -0.537924 1.301969 0.014182 0.006583 -193781.000000 0 0 1
-34.700973 21.105902 10.406680 41.927504 -0.546443 1.319968 0.023564 0.001082 -94931.400000 0 0 1
-34.581393 19.805002 9.824780 41.044332 -0.520109 1.329079 0.037564 0.002944 742744.000000 0 0 1
-33.237727 19.658502 9.332080 39.727710 -0.534110 1.333680 0.062661 -0.006144 1088540.000000 0 0 1
-32.438867 18.500602 10.037380 38.669127 -0.518312 1.308218 0.045519 -0.012506 108282.000000 0 0 1
-32.161647 18.768202 11.394880 38.941755 -0.528242 1.273838 0.038048 -0.002979 531779.000000 0 0 1
-31.250547 17.852602 12.023880 37.945827 -0.519029 1.248369 0.043400 -0.007994 293231.000000 0 0 1
-30.928547 18.276202 13.472380 38.367950 -0.533714 1.212012 0.025688 -0.003502 365745.000000 0 0 1
-29.859677 19.225902 13.547480 38.010128 -0.572057 1.206365 0.046205 0.000929 512899.000000 0 0 1
-30.366467 20.566402 13.385480 39.041904 -0.595310 1.220848 0.050674 0.004573 1254280.000000 0 0 1
-29.196067 21.659302 13.459780 38.764692 -0.638269 1.216194 0.050199 -0.006688 1126250.000000 0 0 1
-28.650057 21.756102 14.741480 38.877564 -0.649473 1.181890 0.036202 0.003753 297536.000000 0 0 1
-27.343357 22.337802 14.749480 38.264654 -0.684983 1.175090 0.071082 -0.014143 470555.000000 0 0 1
-26.680217 22.231902 16.160980 38.304944 -0.694703 1.135253 0.061968 -0.018266 -428490.000000 0 0 1
-26.156027 20.968702 16.368280 37.306096 -0.675763 1.116582 0.088387 -0.017831 -15429.400000 0 0 1
-25.698397 20.871202 17.691280 37.536596 -0.682112 1.080024 0.079684 -0.015816 216152.000000 0 0 1
-24.783737 19.622302 18.013380 36.383378 -0.669685 1.052847 0.083493 -0.019790 202606.000000 0 0 1
-24.216537 19.692902 19.268580 36.681456 -0.682738 1.017735 0.073324 -0.020889 59121.300000 0 0 1
-23.250437 18.659902 19.441880 35.591593 -0.676301 0.992917 0.056273 -0.015302 16037.300000 0 0 1
-22.585337 18.721502 20.827280 35.977322 -0.692130 0.953417 0.044201 -0.018623 -228805.000000 0 0 1
-23.414737 18.332402 21.901580 36.932453 -0.664253 0.935995 0.039073 -0.007899 -27459.100000 0 0 1
-22.946337 18.725702 23.186080 37.613569 -0.684460 0.906597 0.064293 -0.010645 -149487.000000 0 0 1
-23.597237 17.861002 24.243080 38.256658 -0.647909 0.884475 0.036831 -0.010221 -5897.490000 0 0 1
-23.105237 16.492802 24.298880 37.367099 -0.619936 0.862850 0.041540 -0.014814 686359.000000 0 0 1
-24.108537 15.728502 24.974880 38.109736 -0.578063 0.856162 0.039940 -0.011674 316676.000000 0 0 1
20.739663 24.940702 33.951118 46.955837 0.877106 0.762598 0.018445 -0.005525 179620.000000 0 0 1
21.527163 23.999602 33.248911 46.312954 0.839652 0.769989 0.027262 -0.016441 125754.000000 0 0 1
21.149063 22.669302 33.638488 45.746343 0.820078 0.744648 0.027470 -0.021640 281792.000000 0 0 1
20.008763 21.974202 32.860516 44.306090 0.832179 0.735239 0.036800 -0.022111 94552.500000 0 0 1
20.526363 21.403302 31.660122 43.379675 0.806310 0.752712 0.033331 -0.018529 402585.000000 0 0 1
19.554563 20.643102 30.950832 42.029425 0.812471 0.743050 0.058213 -0.019278 -133133.000000 0 0 1
20.092763 20.190702 29.567982 41.056657 0.787829 0.766742 0.057103 -0.014231 -685878.000000 0 0 1
21.159163 19.315402 29.687772 41.257226 0.739876 0.767603 0.044184 -0.013479 -715691.000000 0 0 1
21.324363 18.518702 28.508702 40.129999 0.715096 0.780718 0.043363 -0.019644 -679744.000000 0 0 1
22.480363 17.567902 28.708772 40.474578 0.663344 0.782286 0.039180 -0.014900 -784150.000000 0 0 1
23.680863 18.260302 28.958092 41.626830 0.656869 0.801459 0.042723 -0.017954 -129209.000000 0 0 1
24.656863 17.310002 29.433392 42.117948 0.612091 0.797032 0.038198 -0.006779 83828.300000 0 0 1
26.009463 17.993702 29.661032 43.359454 0.605211 0.817464 0.039012 -0.014274 -17916.300000 0 0 1
26.944163 17.950902 28.559342 43.172431 0.587697 0.847955 0.042226 -0.008701 235045.000000 0 0 1
28.209663 18.281202 29.095522 44.458259 0.575001 0.857347 0.048097 -0.010331 733272.000000 0 0 1
29.375263 17.953402 28.056972 44.411984 0.548595 0.886996 0.049425 0.001729 628304.000000 0 0 1
29.325963 18.861902 26.987502 44.092048 0.571567 0.912118 0.049222 -0.011305 348005.000000 0 0 1
30.138663 18.365502 25.905732 43.780562 0.547278 0.937608 0.042009 -0.011596 196380.000000 0 0 1
30.795163 19.425902 25.040982 44.190027 0.562767 0.968343 0.045742 -0.016800 -114840.000000 0 0 1
29.779763 20.200802 24.437042 43.497996 0.596041 0.974240 0.046398 -0.021814 199465.000000 0 0 1
30.265163 21.172002 23.526372 43.791824 0.610424 1.003644 0.025543 -0.022696 -646833.000000 0 0 1
30.777763 20.619302 22.174872 43.175817 0.590266 1.031427 0.023738 -0.012289 405563.000000 0 0 1
29.719763 20.266202 21.262372 41.786022 0.598482 1.036960 0.033420 -0.010413 648935.000000 0 0 1
30.153063 19.800402 19.959372 41.226686 0.581045 1.065420 0.030317 -0.008333 -379096.000000 0 0 1
31.091763 18.564002 19.908672 41.324025 0.538263 1.068123 0.046954 -0.024874 -197309.000000 0 0 1
30.678963 17.289602 20.421072 40.708098 0.513198 1.045295 0.058786 -0.019227 396118.000000 0 0 1
31.780763 16.391502 20.570172 41.253244 0.476182 1.048777 0.051549 -0.019463 -353181.000000 0 0 1
31.307063 15.000702 20.813472 40.476584 0.446827 1.030710 0.056334 -0.019948 34280.000000 0 0 1
30.672063 14.615602 22.034372 40.495738 0.444681 0.995461 0.046552 -0.015646 734532.000000 0 0 1
29.374363 15.174902 22.206672 39.827969 0.476842 0.979347 0.052536 -0.012396 -52999.600000 0 0 1
28.565663 14.423202 23.345972 39.611365 0.467571 0.940511 0.026520 -0.010257 87578.000000 0 0 1
28.160263 13.206702 22.877672 38.610947 0.438528 0.936616 0.028227 -0.008774 -190670.000000 0 0 1
27.559763 12.426702 23.863822 38.515522 0.423602 0.902576 0.021221 0.003765 -159411.000000 0 0 1
27.066563 10.992602 23.438072 37.453696 0.385782 0.894655 0.028279 0.003392 380541.000000 0 0 1
25.841463 10.999302 22.677172 36.097368 0.402417 0.891530 0.036860 0.004263 724391.000000 0 0 1
25.545563 9.674402 22.332072 35.283016 0.362021 0.885450 0.032784 0.010837 -321049.000000 0 0 1
24.270663 9.530802 21.453772 33.766338 0.374187 0.882322 0.039935 0.003466 -498886.000000 0 0 1
23.206663 9.620702 22.380872 33.645364 0.393000 0.843036 0.030790 -0.000158 758414.000000 0 0 1
22.014663 9.324602 21.573572 32.202679 0.400653 0.836681 0.036130 0.006335 819058.000000 0 0 1
20.654663 9.363102 22.289472 31.797851 0.425609 0.794034 0.020733 -0.001153 -117494.000000 0 0 1
20.387563 8.441902 23.309672 32.097651 0.392578 0.758002 0.026777 -0.000336 509523.000000 0 0 1
19.050463 8.574802 23.776322 31.650605 0.422945 0.720900 0.038632 -0.005996 237667.000000 0 0 1
18.803763 7.726802 25.049092 32.260532 0.389883 0.681764 0.039275 -0.001049 -478292.000000 0 0 1
18.842663 6.315202 24.841302 31.812230 0.323389 0.674735 0.038047 -0.008700 233284.000000 0 0 1
18.461263 5.699902 26.037722 32.423295 0.299464 0.638390 0.037695 -0.011775 -146460.000000 0 0 1
18.529663 4.150202 25.904042 32.118405 0.220340 0.632559 0.038628 -0.011548 329993.000000 0 0 1
19.826663 3.759602 25.466082 32.492345 0.187399 0.670105 0.049533 -0.007768 247666.000000 0 0 1
20.090663 2.356002 25.467532 32.523540 0.116735 0.671243 0.048891 -0.009885 -348058.000000 0 0 1
21.601863 2.115802 25.303642 33.337537 0.097634 0.709000 0.054792 -0.006702 -440191.000000 0 0 1
22.281563 2.562402 26.454132 34.682200 0.114498 0.703229 0.062473 -0.009835 -399939.000000 0 0 1
23.622163 2.714202 26.065092 35.281191 0.114399 0.739536 0.064120 -0.007003 132409.000000 0 0 1
24.555063 3.196702 27.246742 36.817862 0.129457 0.737664 0.053587 -0.007499 -448966.000000 0 0 1
24.619463 2.385202 28.435872 37.688273 0.096581 0.715902 0.064934 -0.010250 82119.600000 0 0 1
25.573463 2.761702 29.393062 39.058687 0.107574 0.718892 0.062451 -0.001827 62605.500000 0 0 1
27.060563 2.816702 29.015272 39.775543 0.103715 0.753242 0.055817 -0.001680 -1303030.000000 0 0 1
27.492563 3.983402 28.321662 39.671463 0.143889 0.775737 0.045784 0.008803 973682.000000 0 0 1
28.896363 4.045902 28.003452 40.442087 0.139110 0.805940 0.027972 0.014003 1091930.000000 0 0 1
29.484163 2.933302 27.094052 40.149816 0.099161 0.830070 0.033578 0.008457 -814922.000000 0 0 1
28.946363 3.021102 25.776972 38.877644 0.103992 0.845940 0.026573 0.024103 211803.000000 0 0 1
29.392563 1.978502 24.855122 38.543667 0.067212 0.869961 0.039360 0.019714 -184963.000000 0 0 1
28.979963 2.256202 23.408372 37.321315 0.077697 0.892828 0.038064 0.008476 149059.000000 0 0 1
29.563563 3.379302 22.791972 37.481967 0.113812 0.917159 0.038946 0.016470 655504.000000 0 0 1
30.979563 3.262502 22.529572 38.444230 0.104925 0.944643 0.028184 0.016021 1216890.000000 0 0 1
31.647863 4.545202 21.899672 38.753602 0.142643 0.970242 0.012960 0.021032 -94205.000000 0 0 1
31.131263 4.758202 20.592172 37.627563 0.151669 0.991706 0.014288 0.013892 327137.000000 0 0 1
31.797763 5.839502 19.955972 37.992608 0.181621 1.017776 0.023046 0.012102 766047.000000 0 0 1
33.347363 5.810502 19.611772 39.120712 0.172510 1.045679 0.015738 0.003120 1037730.000000 0 0 1
34.143363 6.099502 20.774572 40.429642 0.176779 1.031135 0.017754 0.007438 208320.000000 0 0 1
34.036263 7.460702 21.319872 40.849311 0.215786 1.021702 0.024812 0.007470 -626896.000000 0 0 1
34.663763 7.432602 22.746972 42.121784 0.211222 1.000325 0.036336 0.005522 -43103.700000 0 0 1
33.868263 6.712702 23.649442 41.849918 0.195665 0.970240 0.034590 0.017055 -159029.000000 0 0 1
34.544463 6.368602 24.821362 43.011382 0.182312 0.955638 0.032875 0.012268 -337705.000000 0 0 1
33.741663 5.333002 25.579952 42.676394 0.156757 0.928053 0.038255 0.014015 -142884.000000 0 0 1
33.669263 4.036902 25.039242 42.153048 0.119329 0.934765 0.045991 0.004049 -8886.810000 0 0 1
33.329563 3.076702 25.981762 42.371898 0.092051 0.910712 0.036966 0.012134 -209502.000000 0 0 1
33.637963 1.623302 25.582632 42.292064 0.048221 0.921151 0.042167 0.009539 -112744.000000 0 0 1
32.766163 1.045302 24.625672 41.001680 0.031891 0.926543 0.045825 0.006282 29986.000000 0 0 1
33.102663 -0.325898 24.442342 41.149976 -0.009845 0.934797 0.054241 0.005720 -115527.000000 0 0 1
32.080363 -1.075798 23.555172 39.813981 -0.033522 0.937716 0.062542 0.009947 -622976.000000 0 0 1
30.826463 -1.206198 24.142832 39.173997 -0.039109 0.906764 0.061709 0.009282 -1280030.000000 0 0 1
30.093563 -1.899698 23.205572 38.049046 -0.063043 0.914880 0.061590 -0.001072 -682516.000000 0 0 1
28.640963 -2.163998 23.636492 37.197733 -0.075413 0.882233 0.065766 0.010518 -403794.000000 0 0 1
27.871363 -1.029298 23.401772 36.407626 -0.036914 0.872686 0.045700 0.008227 -695439.000000 0 0 1
26.501263 -1.337598 23.373772 35.361551 -0.050430 0.848654 0.051044 0.008851 233732.000000 0 0 1
25.540863 -0.085098 23.364972 34.615962 -0.003332 0.829863 0.053913 -0.001598 383416.000000 0 0 1
25.537363 0.679902 22.190872 33.838646 0.026618 0.855575 0.048918 -0.000836 -134753.000000 0 0 1
24.751263 1.808702 22.394172 33.427464 0.072945 0.836677 0.048758 -0.001140 -457702.000000 0 0 1
24.688863 2.833202 21.238372 32.689989 0.114256 0.863619 0.043670 0.000615 -192866.000000 0 0 1
24.143363 2.446902 19.996272 31.444239 0.101004 0.881586 0.049697 -0.002900 244692.000000 0 0 1
23.970263 3.553802 19.132472 30.874819 0.147187 0.902463 0.056756 -0.003175 339067.000000 0 0 1
23.406463 3.004102 17.758772 29.534067 0.127647 0.925672 0.059945 -0.005006 868166.000000 0 0 1
24.467863 2.291702 17.075172 29.924734 0.093389 0.963555 0.051216 -0.024620 891477.000000 0 0 1
24.611163 2.761302 15.723772 29.335492 0.111730 1.005107 0.052126 -0.016160 -205527.000000 0 0 1
23.878263 1.933302 14.601472 28.055517 0.080789 1.023419 0.051603 0.005492 -24923.700000 0 0 1
22.476163 2.058102 14.564372 26.861396 0.091314 0.997738 0.060764 0.004974 104944.000000 0 0 1
22.005163 0.934602 13.852272 26.018956 0.042446 1.009373 0.054204 0.004025 1274850.000000 0 0 1
20.441863 0.599002 13.773472 24.656380 0.029294 0.978079 0.050758 -0.012290 1834080.000000 0 1 0
19.560263 1.305702 12.901172 23.468041 0.066654 0.988751 0.064681 -0.014360 646161.000000 0 1 0
19.822863 1.158102 11.514972 22.953903 0.058356 1.045284 0.079537 -0.019984 -899165.000000 0 1 0
19.861263 -0.211998 10.781972 22.600124 -0.010674 1.073472 0.090949 -0.021541 -351778.000000 0 1 0
20.852463 -1.146398 11.122672 23.661218 -0.054921 1.081415 0.076195 -0.019254 285129.000000 0 1 0
22.066263 -0.842598 10.417772 24.416386 -0.038166 1.129987 0.089980 -0.016951 -582440.000000 0 1 0
23.176763 -1.800198 10.781972 25.625260 -0.077517 1.136518 0.093973 -0.018783 -737803.000000 0 0 1
23.570163 -1.525598 12.083772 26.531068 -0.064636 1.097910 0.082043 -0.025419 -17420.500000 0 0 1
24.271363 -2.578098 12.680072 27.505088 -0.105823 1.091665 0.065872 -0.021481 -75503.000000 0 0 1
24.557463 -2.423898 14.198172 28.469849 -0.098384 1.048688 0.073601 -0.015169 22987.000000 0 0 1
25.339163 -1.287898 14.449772 29.198078 -0.050783 1.053091 0.065143 -0.012074 -111352.000000 0 0 1
25.693763 -1.224398 15.836472 30.206993 -0.047617 1.018944 0.055302 -0.015044 27224.700000 0 0 1
26.990963 -0.443898 16.126472 31.444748 -0.016445 1.032294 0.061613 -0.011258 548197.000000 0 0 1
28.200663 -1.158998 15.832372 32.361777 -0.041075 1.059589 0.066884 -0.010220 585637.000000 0 0 1
29.311263 -0.352298 16.167972 33.476522 -0.012019 1.066759 0.056140 -0.005150 153561.000000 0 0 1
30.687663 -1.052798 16.074672 34.658853 -0.034293 1.088520 0.069384 0.000229 19877.700000 0 0 1
31.102263 -1.537398 14.860672 34.504404 -0.049390 1.125540 0.075631 0.001011 -669243.000000 0 0 1
32.493263 -1.537098 14.802772 35.739290 -0.047270 1.143746 0.057404 -0.004462 -714624.000000 0 0 1
33.052063 -2.185898 13.523572 35.778541 -0.066039 1.183183 0.061492 -0.005319 -73005.500000 0 0 1
32.819863 -1.396998 12.380672 35.105213 -0.042540 1.210370 0.065789 -0.009584 54885.900000 0 0 1
33.417063 -2.008298 11.291472 35.330308 -0.060026 1.245492 0.065102 -0.010624 -222009.000000 0 0 1
33.101563 -1.290698 9.971172 34.594849 -0.038972 1.278422 0.088211 -0.013446 -456925.000000 0 0 1
33.693263 -0.002798 9.791272 35.087105 -0.000083 1.287985 0.064575 -0.012588 203749.000000 0 0 1
32.808263 1.064902 9.545272 34.185206 0.032447 1.287812 0.070910 -0.012718 -380485.000000 0 0 1
33.574063 2.332802 9.157672 34.878684 0.069371 1.305124 0.076837 -0.012070 181153.000000 0 0 1
34.153963 2.224102 7.833972 35.111407 0.065028 1.345785 0.055076 -0.015186 335718.000000 0 0 1
34.643663 3.394202 7.285072 35.563693 0.097663 1.364490 0.052436 -0.014567 -151202.000000 0 0 1
35.384863 3.344502 5.908572 36.030340 0.094238 1.406063 0.055556 -0.014094 -70210.100000 0 0 1
35.663463 4.647602 5.433572 36.373156 0.129588 1.420851 0.053935 -0.006379 246245.000000 0 0 1
35.839563 4.520402 4.009472 36.345345 0.125466 1.460255 0.035477 -0.014808 -332335.000000 0 0 1
-35.635286 5.850802 3.328472 36.265469 -0.162734 1.478886 0.034275 -0.023222 -141221.000000 0 0 1
35.094563 6.733102 3.293872 35.886106 0.189553 1.478880 0.061862 -0.025949 62556.500000 0 0 1
35.497963 8.040302 2.908372 36.513154 0.222742 1.491059 0.052789 -0.024481 -340018.000000 0 0 1
34.327563 9.001502 3.210672 35.633089 0.256450 1.480570 0.085324 -0.029113 1194870.000000 0 0 1
33.155863 8.992802 2.359372 34.434697 0.264856 1.502225 0.092168 -0.037867 1297540.000000 0 0 1
32.258663 7.901202 2.668972 33.319269 0.240204 1.490607 0.107062 -0.036677 486451.000000 0 0 1
31.011063 7.784402 1.701472 32.018400 0.245939 1.517631 0.129484 -0.038416 605116.000000 0 0 1
31.305563 7.451102 0.366872 32.182165 0.233664 1.559396 0.124705 -0.039849 198706.000000 0 0 1
30.124763 7.580002 -0.391028 31.066230 0.246503 1.583384 0.126830 -0.031454 -235057.000000 0 0 1
30.350163 7.360702 -1.904028 31.287979 0.237932 1.631689 0.098882 -0.025246 -954042.000000 0 0 1
29.316763 6.791202 -2.614828 30.206461 0.227634 1.657470 0.092250 -0.018556 -64698.000000 0 0 1
29.614263 6.800702 -3.980228 30.644678 0.225729 1.701047 0.098708 -0.014149 -564013.000000 0 0 1
28.494563 6.253802 -4.860628 29.574919 0.216048 1.735895 0.090622 -0.006082 -687214.000000 0 0 1
28.307163 4.842102 -4.850528 29.125058 0.169416 1.738117 0.099556 -0.010625 208952.000000 0 0 1
27.276863 4.473102 -5.695128 28.221806 0.162542 1.773991 0.071375 -0.000878 -844178.000000 0 0 1
27.143963 2.907402 -5.900928 27.929709 0.106704 1.783678 0.087090 -0.008465 -356396.000000 0 0 1
26.768163 2.228102 -4.693428 27.267696 0.083046 1.743782 0.083235 -0.005580 649363.000000 0 0 1
26.870963 0.829902 -4.860328 27.319593 0.030875 1.749655 0.079502 -0.002295 -308141.000000 0 0 1
26.679463 0.022202 -3.604828 26.921906 0.000832 1.705099 0.074548 0.000679 72678.100000 0 0 1
27.774363 0.179702 -2.707928 27.906637 0.006470 1.667985 0.102748 -0.010060 739771.000000 0 0 1
27.571563 -0.452098 -1.421528 27.611885 -0.016396 1.622302 0.099830 -0.011756 -180446.000000 0 0 1
28.671763 -0.066098 -0.411528 28.674792 -0.002305 1.585148 0.101493 -0.013832 -624202.000000 0 0 1
29.956463 -0.498298 -0.733628 29.969587 -0.016633 1.595278 0.111126 -0.012945 -305417.000000 0 0 1
30.869663 0.268002 0.030072 30.870841 0.008682 1.569822 0.092404 -0.013228 -91595.200000 0 0 1
-2.157537 -21.232898 -8.279120 22.891806 1.469531 1.940847 0.007952 0.001929 203777.000000 0 1 0
-3.030237 -22.032198 -7.498520 23.469723 1.434117 1.895996 0.007613 0.009389 -130897.000000 0 1 0
-2.361137 -23.057498 -6.814120 24.158962 1.468750 1.856730 0.013510 0.001508 -191795.000000 0 1 0
-3.089037 -23.526498 -5.523020 24.362718 1.440243 1.799484 0.010200 -0.000268 -802207.000000 0 1 0
-2.974637 -22.657798 -4.400920 23.272138 1.440258 1.761049 0.009557 -0.006986 -164430.000000 0 1 0
-3.496537 -23.424098 -3.329320 23.916491 1.422619 1.710456 0.014994 -0.012889 -323198.000000 0 1 0
-3.153737 -22.734298 -1.985720 23.037740 1.432954 1.657098 0.016306 -0.019707 -442009.000000 0 1 0
-1.765737 -22.739298 -1.828320 22.880915 1.493300 1.650788 0.021899 -0.020434 -1072270.000000 0 1 0
-1.412437 -22.525898 -0.499220 22.575657 1.508175 1.592911 0.028863 -0.024760 -37319.100000 0 1 0
0.091163 -22.693098 -0.191620 22.694090 -1.566779 1.579240 0.029739 -0.023939 -219910.000000 0 1 0
0.689263 -21.525098 -0.584520 21.544062 -1.538786 1.597931 0.012447 -0.021660 -1191500.000000 0 1 0
1.968063 -21.423598 -0.027320 21.513823 -1.479189 1.572066 0.013407 -0.019817 33034.900000 0 1 0
2.841363 -20.245898 -0.570620 20.452270 -1.431364 1.598700 0.014695 -0.014892 867661.000000 0 1 0
3.494763 -20.532198 -1.842020 20.908792 -1.402203 1.659009 0.015327 -0.013050 263293.000000 0 1 0
4.572563 -19.622798 -2.106920 20.258372 -1.341859 1.674987 0.016363 -0.010639 444427.000000 0 1 0
5.491563 -20.081198 -3.274620 21.074509 -1.303855 1.726811 0.019795 -0.002929 -679386.000000 0 1 0
6.376263 -21.101898 -2.788420 22.219859 -1.277354 1.696620 0.026347 -0.008379 96935.800000 0 1 0
7.173763 -21.677598 -3.826320 23.152146 -1.251211 1.736827 0.027866 -0.005639 1391760.000000 0 1 0
8.456463 -20.922098 -4.352520 22.982393 -1.186685 1.761332 0.041185 -0.004789 703984.000000 0 1 0
7.971663 -19.785998 -5.055620 21.922418 -1.187798 1.803505 0.026387 -0.005887 107456.000000 0 1 0
9.015763 -19.323298 -5.911420 22.127330 -1.134245 1.841236 0.031206 -0.004935 161527.000000 0 1 0
8.698963 -18.105598 -6.766120 21.195873 -1.122905 1.895701 0.019994 -0.002247 162283.000000 0 1 0
9.778763 -17.827998 -7.653320 21.726367 -1.069101 1.930781 0.028218 0.001920 524002.000000 0 1 0
9.463663 -16.670798 -8.380720 20.921589 -1.054481 1.982943 0.016812 0.004038 213433.000000 0 1 0
10.065963 -16.655398 -9.829220 21.802281 -1.027172 2.038496 0.018685 0.006364 -18833.800000 0 1 0
9.415363 -17.467798 -10.806120 22.595249 -1.076428 2.069454 0.016117 0.013357 439888.000000 0 1 0
8.645163 -16.710398 -11.779120 22.197385 -1.093363 2.130168 0.004988 0.006576 274415.000000 0 1 0
8.206463 -17.518698 -13.015120 23.316178 -1.132714 2.163013 0.011911 0.005996 -750465.000000 0 1 0
7.218363 -18.399498 -12.640420 23.461170 -1.196934 2.139785 0.002386 0.015197 -553304.000000 0 1 0
6.658263 -18.896898 -13.849420 24.356348 -1.232032 2.175619 -0.004075 0.013447 17885.400000 0 1 0
5.631063 -20.041698 -13.711220 24.927417 -1.296891 2.153215 -0.006943 0.028582 -26493.700000 0 1 0
6.164263 -21.225298 -13.301620 25.796211 -1.288151 2.112554 0.008333 0.019662 439771.000000 0 0 1
5.046063 -22.098298 -13.033720 26.147187 -1.346299 2.092635 0.030702 0.011069 999988.000000 0 0 1
5.437363 -23.587798 -12.779820 27.372851 -1.344238 2.056555 0.009092 -0.001637 -278010.000000 0 0 1
5.774763 -24.353398 -13.930820 28.644435 -1.337973 2.078688 0.023401 -0.000058 -47366.200000 0 0 1
5.341863 -25.719408 -13.791520 29.668662 -1.366010 2.054263 0.023776 0.004693 281066.000000 0 0 1
3.837363 -25.998538 -14.060720 29.805255 -1.424255 2.062074 0.033815 -0.011181 35668.400000 0 0 1
2.909863 -25.287478 -13.251620 28.697200 -1.456229 2.050790 0.034502 -0.004166 -145362.000000 0 0 1
1.554963 -25.353818 -13.626820 28.825757 -1.509543 2.063183 0.029632 -0.008132 309080.000000 0 0 1
0.791363 -26.625388 -13.162020 29.711552 -1.541083 2.029731 0.027865 -0.006072 -772867.000000 0 0 1
1.170363 -27.786858 -13.894720 31.089267 -1.528702 2.034127 0.034432 -0.008465 138919.000000 0 0 1
0.617663 -29.047948 -13.445920 32.014959 -1.549536 2.004229 0.017685 0.000965 1005570.000000 0 0 1
-0.861837 -29.338008 -13.914120 32.481752 1.541429 2.013481 -0.004834 0.005478 801582.000000 0 0 1
-1.838637 -28.564598 -13.260420 31.546087 1.506517 2.004628 -0.001047 -0.003302 -358821.000000 0 0 1
-3.133937 -28.902458 -13.716120 32.145071 1.462787 2.011631 0.011086 0.008516 -260747.000000 0 0 1
-4.201937 -28.095178 -12.951620 31.220823 1.422336 1.998562 -0.001088 -0.000219 -209304.000000 0 0 1
-4.427937 -28.291538 -11.527420 30.869065 1.415545 1.953500 0.004647 -0.015885 -119704.000000 0 0 1
-5.091237 -29.478458 -11.229620 31.953162 1.399773 1.929905 -0.001789 -0.004415 -591792.000000 0 0 1
-5.562737 -29.572208 -9.727020 31.623954 1.384862 1.883449 0.001900 -0.009327 -597275.000000 0 0 1
-6.811637 -29.051818 -9.402220 31.285912 1.340491 1.876040 0.013717 -0.010181 -1045120.000000 0 0 1
-6.988537 -27.662508 -9.248820 29.993244 1.323339 1.884268 0.015777 -0.005678 332418.000000 0 0 1
-8.509037 -27.287258 -9.001820 29.967165 1.268520 1.875897 0.022455 -0.005470 1678150.000000 0 0 1
-9.510337 -27.520148 -9.991820 30.783787 1.238067 1.901365 0.030997 -0.008661 220072.000000 0 0 1
-9.557237 -28.841868 -10.479120 32.140412 1.250817 1.902910 0.038165 -0.021491 -824578.000000 0 0 1
-10.828337 -29.309058 -11.270820 33.216038 1.216897 1.916989 0.060128 -0.019969 10682.300000 0 0 1
-10.844037 -28.714618 -12.522020 33.150014 1.209706 1.958148 0.072661 -0.020574 389090.000000 0 0 1
-11.773837 -29.260248 -13.473620 34.297577 1.188237 1.974519 0.077065 -0.025134 119848.000000 0 0 1
-11.813837 -28.502728 -14.829520 34.232834 1.177869 2.018832 0.081474 -0.022895 -93265.900000 0 0 1
-12.697337 -27.400098 -14.978320 33.709611 1.136851 2.031227 0.068997 -0.035654 79003.700000 0 0 1
-12.424437 -26.318538 -14.079520 32.330558 1.129734 2.021375 0.077642 -0.026579 42003.700000 0 0 1
-13.476737 -25.173188 -14.025320 31.812285 1.079262 2.027372 0.103478 -0.027807 -33116.600000 0 0 1
-13.407837 -24.291098 -15.134920 31.605274 1.066446 2.070167 0.095042 -0.029432 438961.000000 0 0 1
-14.548737 -23.437498 -15.157920 31.476096 1.015262 2.073241 0.109158 -0.028549 114217.000000 0 0 1
-14.517937 -22.613198 -16.397320 31.480142 1.000057 2.118676 0.091293 -0.024873 -33997.100000 0 0 1
-13.622537 -21.528698 -16.251220 30.218546 1.006635 2.138609 0.079081 -0.021389 314228.000000 0 0 1
-13.551037 -20.736398 -17.374120 30.257047 0.991971 2.182444 0.063228 -0.012848 -230468.000000 0 0 1
-13.564037 -19.147998 -17.184720 29.085109 0.954469 2.202899 0.058670 -0.016470 -220614.000000 0 0 1
-12.282737 -18.553898 -17.099620 28.062605 0.986029 2.226022 0.073121 -0.012329 246732.000000 0 0 1
-12.329737 -17.150298 -17.271920 27.285058 0.947483 2.256241 0.066362 -0.013701 -97003.600000 0 0 1
-10.937637 -16.580698 -17.592320 26.533775 0.987660 2.295637 0.067713 -0.021930 -337307.000000 0 0 1
-10.139737 -16.439598 -16.467220 25.381962 1.018124 2.276772 0.071541 -0.009571 -356406.000000 0 0 1
-8.897037 -15.892398 -16.860920 24.819674 1.060438 2.317655 0.057286 -0.011637 -1109260.000000 0 1 0
-8.242237 -15.157798 -15.726220 23.345392 1.072755 2.309909 0.046706 -0.004253 -358055.000000 0 1 0
-7.749737 -15.958298 -14.695420 23.036517 1.118715 2.262589 0.051356 -0.003886 -928533.000000 0 1 0
-6.615537 -16.665798 -14.988820 23.370471 1.192919 2.267062 0.045240 -0.003415 -1600950.000000 0 1 0
-6.113537 -17.588398 -13.845320 23.203879 1.236271 2.210155 0.034966 -0.001700 -425855.000000 0 1 0
-5.572737 -16.803698 -12.726920 21.803536 1.250573 2.194086 0.026143 -0.007025 360338.000000 0 1 0
-5.341537 -17.551798 -11.535320 21.671670 1.275372 2.132084 0.018814 -0.007075 -200720.000000 0 1 0
-4.180737 -18.569798 -11.589820 22.285419 1.349352 2.117721 0.017931 -0.006564 -1365940.000000 0 1 0
-2.943437 -17.996398 -11.589020 21.606470 1.408675 2.136924 0.017141 -0.004319 -1474010.000000 0 1 0
-1.947837 -19.012498 -11.618020 22.366215 1.468702 2.116998 0.010618 0.007778 1978160.000000 0 1 0
-0.485837 -18.521198 -12.055720 22.104552 1.544571 2.147657 0.007542 0.011501 868044.000000 0 1 0
-0.399037 -18.382298 -13.448020 22.779758 1.549092 2.202288 0.014359 0.008457 -581648.000000 0 1 0
0.846763 -17.889998 -13.854420 22.643189 -1.523500 2.229204 0.016845 0.014362 -93256.100000 0 1 0
1.991763 -18.911698 -13.945120 23.581472 -1.465864 2.203540 0.014410 0.012746 -727407.000000 0 1 0
1.855763 -19.892498 -14.968820 24.964393 -1.477776 2.213806 0.026629 0.015393 403305.000000 0 1 0
1.190363 -21.088798 -14.443620 25.588524 -1.514411 2.170572 0.021288 0.010933 -303717.000000 0 0 1
1.002163 -22.118298 -15.554320 27.058461 -1.525518 2.183206 0.030307 0.000899 558528.000000 0 0 1
2.115063 -22.753398 -16.210120 28.017113 -1.478107 2.187782 0.045893 -0.005332 1597700.000000 0 0 1
3.188463 -21.882398 -16.765720 27.750586 -1.426106 2.219504 0.042016 -0.007478 1895350.000000 0 0 1
4.575163 -22.630098 -16.844220 28.579384 -1.371314 2.201092 0.039973 -0.007238 769908.000000 0 0 1
4.738363 -23.204698 -18.104020 29.810496 -1.369367 2.223458 0.054476 -0.008206 399012.000000 0 0 1
6.026363 -23.819998 -18.180320 30.565232 -1.323000 2.207818 0.053549 -0.008076 518540.000000 0 0 1
6.623963 -23.689098 -19.589720 31.445308 -1.298139 2.243340 0.066633 -0.003174 -191032.000000 0 0 1
6.992563 -22.358198 -19.884620 30.727562 -1.267682 2.274606 0.073224 -0.015410 -61334.000000 0 0 1
7.189463 -22.196598 -21.283820 31.581298 -1.257560 2.310322 0.072103 -0.009992 -223077.000000 0 0 1
7.248763 -20.751798 -21.786920 30.949177 -1.234738 2.351751 0.070386 -0.014623 207996.000000 0 0 1
6.039663 -20.036998 -21.855020 30.258895 -1.278032 2.377872 0.068432 -0.013526 -94617.100000 0 0 1
6.350263 -18.773298 -22.451520 29.947176 -1.244618 2.418411 0.072307 -0.015563 639207.000000 0 0 1
5.059963 -18.031498 -22.888920 29.574327 -1.297215 2.455845 0.057865 -0.012138 -462069.000000 0 0 1
4.295963 -18.547098 -23.946020 30.591862 -1.343186 2.469881 0.061612 -0.008966 -367265.000000 0 0 1
3.311363 -17.718698 -24.446220 30.373263 -1.386042 2.506236 0.060213 -0.003276 457577.000000 0 0 1
2.024463 -17.424098 -23.598220 29.403633 -1.455127 2.502373 0.047240 0.002261 194848.000000 0 0 1
2.308663 -16.688498 -22.450120 28.068555 -1.433330 2.497811 0.035464 0.003707 -25327.300000 0 0 1
1.152663 -15.897398 -22.215620 27.342086 -1.498417 2.519235 0.016032 -0.000139 627360.000000 0 0 1
1.344363 -15.200298 -20.868720 25.852657 -1.482583 2.510219 0.003720 0.000230 3280.630000 0 0 1
2.321463 -14.176598 -20.983820 25.430019 -1.408484 2.541281 0.007870 0.007241 -87367.900000 0 0 1
2.230763 -13.169598 -19.982520 24.035718 -1.403002 2.552361 0.005918 0.001923 -383999.000000 0 1 0
3.500363 -12.335398 -19.935620 23.703239 -1.294299 2.570018 0.011858 -0.003426 -461759.000000 0 1 0
4.613763 -12.953998 -19.310320 23.706146 -1.228640 2.522784 0.018279 -0.013490 159359.000000 0 1 0
5.784863 -12.147698 -19.318820 23.542473 -1.126361 2.533247 0.031320 -0.009505 383147.000000 0 1 0
5.879663 -11.003098 -18.283620 22.134348 -1.080037 2.542822 0.035359 -0.012300 -171674.000000 0 1 0
4.905363 -9.945998 -18.338520 21.430977 -1.112604 2.597701 0.010478 -0.000170 176661.000000 0 1 0
5.318763 -8.887298 -19.135220 21.758446 -1.031504 2.645478 0.027965 -0.010260 -171990.000000 0 1 0
4.806863 -8.851498 -20.589620 22.921331 -1.073300 2.686621 0.036667 -0.018164 626427.000000 0 1 0
3.379963 -8.791298 -20.693820 22.736431 -1.203752 2.714470 0.024830 -0.018474 394630.000000 0 1 0
2.888463 -9.110598 -21.962120 23.951638 -1.263777 2.731129 0.029514 -0.023268 605417.000000 0 1 0
1.337263 -9.030298 -22.052820 23.867581 -1.423779 2.749118 0.033083 -0.020944 641672.000000 0 1 0
0.784263 -7.704798 -21.935420 23.262452 -1.469357 2.802191 0.036752 -0.020385 -33005.900000 0 1 0
-0.625837 -7.757698 -22.077720 23.409385 1.490298 2.802672 0.031139 -0.013505 189899.000000 0 1 0
-1.167037 -6.775198 -23.116020 24.116710 1.400219 2.852512 0.036971 -0.010790 -262064.000000 0 1 0
-0.662137 -7.110398 -24.404620 25.427971 1.477942 2.856925 0.036360 -0.011907 -40198.600000 0 0 1
-1.284237 -6.367498 -25.486240 26.301003 1.371780 2.892034 0.044522 -0.020539 141682.000000 0 0 1
-0.681437 -4.972498 -25.801140 26.284766 1.434603 2.949467 0.050092 -0.017539 -173730.000000 0 0 1
-1.199837 -4.426898 -27.011310 27.397955 1.306122 2.973393 0.043245 -0.014264 -159951.000000 0 0 1
-0.916737 -3.062698 -27.419510 27.605255 1.279960 3.025523 0.040592 -0.009012 -683608.000000 0 0 1
-1.385137 -1.860798 -26.485520 26.586913 0.930903 3.054231 0.042375 -0.008373 1147850.000000 0 0 1
-2.807537 -1.697098 -26.342630 26.546122 0.543707 3.017694 0.023243 -0.006150 668278.000000 0 0 1
-3.471537 -1.219398 -27.478970 27.724219 0.337793 3.008483 0.033546 -0.005572 -1236020.000000 0 0 1
-4.976237 -1.323098 -27.329180 27.810028 0.259871 2.955364 0.020663 -0.004163 -677469.000000 0 0 1
-5.516837 -0.297098 -26.503640 27.073358 0.053801 2.936080 0.025560 -0.000844 -251570.000000 0 0 1
-6.825237 -0.612398 -26.086240 26.971297 0.089486 2.884704 0.020845 -0.016294 -53092.500000 0 0 1
-7.515437 0.652702 -25.459200 26.553318 -0.086631 2.853528 0.021291 -0.010065 -484919.000000 0 0 1
-7.812937 1.785302 -26.225020 27.422272 -0.224649 2.845008 0.041711 -0.013650 167099.000000 0 0 1
-8.630637 1.829402 -27.380260 28.766530 -0.208874 2.829880 0.032995 -0.014184 904241.000000 0 0 1
-10.093537 1.243802 -27.236730 29.073459 -0.122609 2.784235 0.024873 -0.018739 161478.000000 0 0 1
-11.037437 2.120502 -27.807630 29.993097 -0.189806 2.757488 0.025063 -0.028276 125792.000000 0 0 1
-12.339037 1.605602 -27.553750 30.233077 -0.129397 2.717415 0.000667 -0.020737 -313985.000000 0 0 1
-13.399737 2.326102 -28.373530 31.464598 -0.171880 2.694622 -0.006824 -0.016151 -224934.000000 0 0 1
-14.691937 1.810202 -28.014860 31.685364 -0.122593 2.655484 -0.000042 -0.014837 831160.000000 0 0 1
-15.794737 2.350202 -28.724090 32.864427 -0.147713 2.634207 0.008098 -0.011575 329090.000000 0 0 1
-16.373537 3.727002 -28.364710 32.962707 -0.223810 2.607065 0.011646 -0.009555 -393015.000000 0 0 1
-15.471937 4.830802 -28.546600 32.827213 -0.302639 2.625191 0.021574 -0.013361 266968.000000 0 0 1
-15.236337 5.334602 -29.892090 33.972651 -0.336785 2.646420 0.017599 -0.014688 -1091560.000000 0 0 1
-16.407637 5.828002 -30.708490 35.301382 -0.341300 2.625785 0.018315 -0.005814 -507479.000000 0 0 1
-16.984037 6.985702 -30.097640 35.257985 -0.390218 2.593731 0.019807 0.003986 -25813.300000 0 0 1
-18.107437 7.513902 -30.747140 36.465390 -0.393338 2.573980 0.017418 -0.000833 -355244.000000 0 0 1
-18.758437 8.639002 -29.884410 36.326152 -0.431584 2.536887 0.016439 -0.005761 -412848.000000 0 0 1
-17.990537 9.797902 -29.707840 36.086204 -0.498699 2.537903 0.026029 -0.003831 7272.410000 0 0 1
-18.537637 10.688102 -28.741400 35.832215 -0.523008 2.501618 0.046204 -0.002942 -166873.000000 0 0 1
-8.174637 24.545602 30.941782 40.332433 -1.249311 0.696381 0.019770 -0.003371 -350316.000000 0 0 1
-9.105737 25.607802 30.837502 41.105054 -1.229155 0.722414 0.031982 -0.008171 46918.800000 0 0 1
-8.817537 26.686202 31.701372 42.366016 -1.251674 0.725340 0.042364 -0.003252 1789480.000000 0 0 1
-7.410537 27.490102 31.544442 42.493218 -1.307484 0.734239 0.042526 -0.008809 1831330.000000 0 0 1
-7.440437 28.408102 30.460232 42.310827 -1.314638 0.767115 0.063261 -0.000453 57618.100000 0 0 1
-6.127837 28.804002 30.157702 42.151013 -1.361179 0.773503 0.064928 -0.002690 -143951.000000 0 0 1
-6.018237 29.936102 29.039112 42.138574 -1.372405 0.810503 0.083117 -0.005422 -130207.000000 0 0 1
-6.406237 31.197202 29.559182 43.451703 -1.368265 0.822656 0.084700 -0.009092 511915.000000 0 0 1
-5.985437 32.247302 28.725682 43.599068 -1.387274 0.851494 0.090650 -0.009854 -18280.900000 0 0 1
-6.506637 33.512102 29.417222 45.064068 -1.379024 0.859539 0.084091 -0.010213 104629.000000 0 0 1
-5.731237 33.858902 30.587982 45.988009 -1.403117 0.843129 0.085946 -0.016718 269801.000000 0 0 1
-6.316237 -33.847384 31.380222 46.586034 1.386309 0.831731 0.077547 -0.018580 66438.400000 0 0 1
-7.258437 34.286702 32.481042 47.783689 -1.362178 0.823372 0.053808 -0.016163 -67368.500000 0 0 1
-6.699237 33.421202 33.435609 47.747214 -1.372969 0.795030 0.064372 -0.011915 -158222.000000 0 0 1
-6.951837 32.026202 33.124565 46.596593 -1.357045 0.780048 0.073464 -0.005259 92465.600000 0 0 1
-6.577837 31.140902 -34.288807 46.784036 -1.362628 2.393396 0.059741 -0.002738 -327125.000000 0 0 1
-5.221137 31.021402 -33.967550 46.296675 -1.404051 2.394538 0.058554 -0.004873 -484932.000000 0 0 1
-5.098137 30.968902 -32.542970 45.211822 -1.407639 2.374295 0.044690 0.000298 968231.000000 0 0 1
-3.603937 30.694702 -32.073310 44.540435 -1.453919 2.374734 0.016339 0.002151 1446430.000000 0 0 1
-3.028237 29.376802 -32.242560 43.723557 -1.468077 2.400037 0.014382 0.004777 130939.000000 0 0 1
-2.808537 28.992602 -33.584430 44.456415 -1.474227 2.427131 0.023632 0.004224 -533748.000000 0 0 1
-2.201537 27.589402 -33.658050 43.576212 -1.491169 2.453400 0.022223 -0.000226 -682156.000000 0 0 1
-0.980837 27.529802 -32.941390 42.941672 -1.535183 2.445135 0.036784 0.008370 717020.000000 0 0 1
-0.068737 26.434002 -33.225450 42.458117 -1.568196 2.469542 0.037409 0.012019 892197.000000 0 0 1
0.303063 26.110302 33.896001 42.787598 1.559190 0.656404 0.042067 0.007879 -422851.000000 0 0 1
-0.825737 25.619102 33.177641 41.925840 -1.538576 0.657797 0.042111 0.008286 315063.000000 0 0 1
-0.552737 25.211802 31.807222 40.591130 -1.548876 0.670356 0.058757 0.005862 -298415.000000 0 0 1
-0.160737 26.360602 30.821562 40.557069 -1.564699 0.707552 0.048472 0.001698 -433629.000000 0 0 1
-1.137437 27.352702 30.670832 41.111604 -1.529236 0.728704 0.047763 -0.007949 -259152.000000 0 0 1
-0.729537 28.489902 29.944942 41.338920 -1.545195 0.760667 0.062118 -0.008599 -69777.100000 0 0 1
-1.753237 29.628602 30.149632 42.307543 -1.511691 0.777556 0.069267 -0.008464 203458.000000 0 0 1
-1.671637 30.222302 31.439612 43.642079 -1.515541 0.766422 0.076018 -0.012440 -546240.000000 0 0 1
-2.621037 31.194702 31.640522 44.509571 -1.486971 0.780062 0.071921 -0.010771 -372143.000000 0 0 1
-2.263037 31.979702 32.956925 45.978055 -1.500149 0.771599 0.077242 -0.011487 606430.000000 0 0 1
-1.096337 32.768102 32.737884 46.332704 -1.537351 0.786139 0.061527 -0.018435 -29072.600000 0 0 1
-0.638437 33.340002 33.941519 47.581404 -1.551649 0.776550 0.048425 -0.016287 75452.600000 0 0 1
0.790263 33.910102 33.959819 47.997800 1.547496 0.784801 0.055846 -0.022590 74337.100000 0 0 1
0.648863 -33.555084 33.370393 47.328086 -1.551462 0.788251 0.064055 -0.026158 418375.000000 0 0 1
1.871363 -32.961384 32.947782 46.642375 -1.514083 0.786409 0.052191 -0.031811 183878.000000 0 0 1
1.794163 -31.444684 32.671816 45.380995 -1.513800 0.767073 0.048468 -0.024774 -182320.000000 0 0 1
1.715263 -30.710984 33.831504 45.723925 -1.515003 0.737863 0.039567 -0.018324 66277.200000 0 0 1
2.045563 -29.356784 33.541483 44.621028 -1.501229 0.720165 0.038600 -0.035597 -366423.000000 0 0 1
1.695263 -28.314184 -34.010090 44.286038 -1.510994 2.446453 0.040865 -0.040243 1305580.000000 0 0 1
0.258163 -28.131584 -33.920610 44.068815 -1.561620 2.449197 0.025284 -0.034197 1162830.000000 0 0 1
-0.091637 -27.523884 -32.703710 42.744652 1.567467 2.441985 0.023496 -0.026450 853134.000000 0 0 1
-1.613937 -27.123184 -32.663830 42.487618 1.511362 2.447735 0.019936 -0.018920 915868.000000 0 0 1
-1.968537 -26.728184 -31.336490 41.234046 1.497279 2.434058 0.025256 -0.019909 -682401.000000 0 0 1
-3.212737 -26.124684 -31.349410 40.934170 1.448434 2.443158 0.037631 -0.027963 -814380.000000 0 0 1
-3.668337 -25.582684 -29.971560 39.575559 1.428376 2.430003 0.035263 -0.028865 -509002.000000 0 0 1
-4.013937 -26.599684 -29.026710 39.575305 1.421025 2.394187 0.033079 -0.028198 214411.000000 0 0 1
-4.524137 -26.156084 -27.755250 38.405240 1.399524 2.378489 0.039144 -0.025462 484995.000000 0 0 1
-3.436637 -25.540584 -26.821670 37.195885 1.437044 2.376174 0.040768 -0.027429 270660.000000 0 0 1
-2.899537 -24.304484 -27.234520 36.617405 1.452057 2.409473 0.046825 -0.029640 38014.200000 0 0 1
-1.806937 -23.925084 -26.421200 35.689697 1.495415 2.404318 0.048537 -0.030327 -708027.000000 0 0 1
-0.891637 -22.894484 -27.144450 35.521452 1.531870 2.440551 0.046442 -0.024118 475804.000000 0 0 1
-0.201337 -23.352184 -28.332320 36.716282 1.562175 2.452236 0.022958 -0.025853 482899.000000 0 0 1
0.544963 -24.582384 -28.225300 37.433383 -1.548631 2.424948 0.026792 -0.022601 -381072.000000 0 0 1
1.246663 -25.033384 -29.535570 38.737248 -1.521037 2.437902 0.019352 -0.023321 117720.000000 0 0 1
2.386763 -24.281884 -29.878040 38.574652 -1.472817 2.456801 0.025429 -0.018694 -401211.000000 0 0 1
2.993963 -24.972984 -30.906260 39.847342 -1.451478 2.458488 0.022523 -0.018856 268736.000000 0 0 1
4.133163 -24.099884 -31.562470 39.925893 -1.400947 2.482464 0.033852 -0.017663 542015.000000 0 0 1
5.234163 -23.613584 -30.784660 39.149625 -1.352664 2.475648 0.043164 -0.009078 1360350.000000 0 0 1
6.447563 -24.373684 -30.746170 39.761470 -1.312190 2.454771 0.053615 -0.001583 893428.000000 0 0 1
7.274763 -24.537884 -32.061400 41.023936 -1.282581 2.467909 0.074022 -0.004307 -480919.000000 0 0 1
6.657463 -25.349284 -33.036310 42.169963 -1.313967 2.470928 0.037538 -0.011725 -194065.000000 0 0 1
7.098063 -25.036184 34.297565 43.052479 -1.294534 0.649071 0.050222 -0.013603 -45014.900000 0 0 1
6.597963 -23.727984 33.668944 41.715082 -1.299581 0.631544 0.055378 -0.010839 -251370.000000 0 0 1
5.199363 -23.623484 33.728792 41.505828 -1.354157 0.622149 0.047541 -0.015005 -513954.000000 0 0 1
4.630763 -22.519684 33.078924 40.283934 -1.367992 0.607383 0.067815 -0.025780 -375640.000000 0 0 1
3.191763 -22.456984 33.617466 40.554130 -1.429614 0.593563 0.047049 -0.017487 -195051.000000 0 0 1
2.369463 -23.487484 33.075349 40.635636 -1.470255 0.619878 0.035560 -0.026742 -317489.000000 0 0 1
1.366763 -23.905084 33.960924 41.553164 -1.513684 0.614107 0.032424 -0.017026 -403463.000000 0 0 1
0.168263 -24.509284 33.232970 41.293626 -1.563931 0.635464 0.029640 -0.022313 -462513.000000 0 0 1
0.412363 -25.702084 32.492482 41.431009 -1.554754 0.669302 0.038221 -0.018117 617408.000000 0 0 1
-0.786937 -26.072084 31.777612 41.111913 1.540622 0.687313 0.040260 -0.032667 798806.000000 0 0 1
-0.718937 -27.354784 30.914172 41.285434 1.544520 0.724560 0.051770 -0.032833 43822.700000 0 0 1
-1.915037 -27.394784 30.164602 40.792704 1.501005 0.738527 0.062440 -0.033731 122636.000000 0 0 1
-2.018037 -28.589484 29.418532 41.071658 1.500327 0.772349 0.067530 -0.029509 601727.000000 0 0 1
-3.403837 -28.704184 28.681022 40.719986 1.452764 0.789293 0.080151 -0.020240 417298.000000 0 0 1
-4.487637 -28.965984 29.503592 41.588809 1.417090 0.782133 0.083480 -0.020418 -210241.000000 0 0 1
-5.637437 -29.445884 28.825122 41.590004 1.381635 0.805046 0.078004 -0.019674 936623.000000 0 0 1
-6.895037 -29.557984 29.798922 42.534594 1.341623 0.794585 0.058355 -0.010655 534113.000000 0 0 1
-7.996537 -30.217984 29.161302 42.748715 1.312098 0.820089 0.059422 -0.004316 418704.000000 0 0 1
-9.145037 -30.235384 29.992712 43.558844 1.277083 0.811300 0.047133 0.000465 -103659.000000 0 0 1
-9.126237 -31.156184 31.185922 45.017304 1.285848 0.805495 0.043978 -0.000709 -980036.000000 0 0 1
-9.213737 -32.553884 30.883572 45.808769 1.294980 0.830936 0.062564 -0.004998 848930.000000 0 0 1
-10.506337 -32.981684 30.402322 46.070335 1.262409 0.850096 0.035344 -0.000102 515830.000000 0 0 1
-10.450737 -34.329184 29.684472 46.571221 1.275283 0.879678 0.058267 0.002234 -284130.000000 0 0 1
-10.322837 33.295102 30.520472 46.331674 -1.270154 0.851655 0.058736 -0.001389 207769.000000 0 0 1
-10.099937 32.148802 29.735552 44.941709 -1.266398 0.847783 0.065179 -0.006237 -218115.000000 0 0 1
-10.556737 30.860302 30.460202 44.627646 -1.241193 0.819562 0.069911 0.006295 784159.000000 0 0 1
-11.983337 30.908602 30.632872 45.136625 -1.200936 0.824846 0.052474 0.014670 474723.000000 0 0 1
-12.465237 29.673702 31.098582 44.755251 -1.173103 0.802573 0.062650 0.005503 -45382.500000 0 0 1
-12.425137 29.469902 32.631903 45.691358 -1.171791 0.775343 0.062848 -0.009593 -130525.000000 0 0 1
-13.358637 30.324402 33.294519 46.973903 -1.155850 0.783018 0.062997 -0.007322 319112.000000 0 0 1
-13.296037 30.110602 -33.922730 47.267162 -1.154972 2.371262 0.066946 -0.015162 -212435.000000 0 0 1
-14.537337 30.602802 -33.167840 47.412776 -1.127321 2.345571 0.070154 -0.014929 -151987.000000 0 0 1
-14.701637 30.046102 -31.888590 46.214593 -1.115743 2.332301 0.070806 -0.025647 883045.000000 0 0 1
-16.077937 30.167402 -31.446910 46.448685 -1.081132 2.314509 0.070975 -0.019865 1226290.000000 0 0 1
-16.375137 29.589902 -30.051830 45.241794 -1.065344 2.297285 0.088697 -0.026671 -179633.000000 0 0 1
-16.376137 28.189102 -30.049260 44.336908 -1.044510 2.315492 0.088553 -0.031625 83944.700000 0 0 1
-16.405237 27.704502 -28.727970 43.150522 -1.036168 2.299311 0.077074 -0.022604 -170070.000000 0 0 1
-16.972037 26.272602 -28.701760 42.451039 -0.997240 2.313273 0.052188 -0.027400 11632.300000 0 0 1
-18.374037 26.238702 -28.833450 43.098058 -0.959893 2.303685 0.061659 -0.022530 -88176.100000 0 0 1
-18.887437 24.944302 -28.499770 42.322457 -0.922713 2.309589 0.033880 -0.020829 -955252.000000 0 0 1
-20.347537 24.636602 -28.644170 42.912387 -0.880457 2.301647 0.034129 -0.014760 -1388060.000000 0 0 1
-21.186537 25.137802 -27.653260 42.959065 -0.870488 2.270135 0.017655 -0.011777 -571907.000000 0 0 1
-22.435937 24.507802 -27.794700 43.319153 -0.829505 2.267413 0.016532 -0.015275 -74948.500000 0 0 1
-23.420837 24.851402 -26.666320 43.326902 -0.815025 2.233776 0.024845 -0.017507 193458.000000 0 0 1
-24.057337 26.132402 -26.596610 44.373839 -0.826719 2.213518 0.014185 0.003286 604769.000000 0 0 1
-25.233727 26.225602 -25.775800 44.597254 -0.804671 2.187033 0.015744 0.005841 288410.000000 0 0 1
-25.084317 26.136602 -24.166620 43.547336 -0.805939 2.159100 0.016518 0.013799 -602060.000000 0 0 1
-24.858637 24.815202 -23.610020 42.322325 -0.784524 2.162604 0.008532 0.001305 -47042.000000 0 0 1
-26.021987 24.029502 -23.419620 42.462212 -0.745610 2.155006 0.012255 0.005039 68374.700000 0 0 1
-26.755267 24.251402 -22.051920 42.311488 -0.736349 2.119030 0.007572 0.006410 34025.400000 0 0 1
-26.076597 23.790902 -20.903220 41.023659 -0.739595 2.105447 0.008020 0.000834 -741138.000000 0 0 1
-24.958937 24.488102 -20.516720 40.540739 -0.775876 2.101426 0.018011 0.000408 -893341.000000 0 0 1
-24.136137 23.755202 -19.437320 39.047051 -0.777444 2.091848 0.028530 -0.003637 -190256.000000 0 0 1
-24.784637 23.688702 -18.202520 38.817066 -0.762793 2.058876 0.024884 -0.008488 22616.000000 0 0 1
-23.783537 23.477002 -17.249820 37.608278 -0.778912 2.047295 0.030463 -0.013151 -130930.000000 0 0 1
-24.265437 23.600202 -15.764920 37.340510 -0.771501 2.006660 0.014457 -0.014900 -32935.800000 0 0 1
-24.742237 24.889602 -15.529620 38.377594 -0.788367 1.987396 0.021143 -0.018531 -132718.000000 0 0 1
-25.278847 24.990102 -14.249620 38.295914 -0.779654 1.952059 0.010966 -0.017826 134364.000000 0 0 1
-25.462397 26.424002 -13.637620 39.147749 -0.803929 1.926620 0.006293 -0.010277 191307.000000 0 0 1
-24.178537 26.915402 -13.298620 38.547293 -0.838912 1.923030 0.003780 -0.006248 63631.400000 0 0 1
-24.203937 27.926902 -12.320420 38.955554 -0.856693 1.892590 0.010836 -0.001407 519329.000000 0 0 1
-22.753037 28.441002 -12.052920 38.364882 -0.896050 1.890374 0.004145 -0.000566 585902.000000 0 0 1
-21.820837 27.474202 -11.676220 36.977221 -0.899584 1.892062 0.005572 -0.000313 -971525.000000 0 0 1
-20.850937 27.757902 -10.792920 36.355878 -0.926546 1.872208 0.002689 0.003756 -1011520.000000 0 0 1
-20.252837 26.541802 -10.157520 34.897276 -0.918993 1.866141 0.042876 0.001573 335584.000000 0 0 1
-19.382937 25.817302 -11.059020 34.125259 -0.926801 1.900826 0.031741 -0.002604 376535.000000 0 0 1
-18.851737 24.645902 -10.529520 32.767046 -0.917825 1.897946 0.048156 0.005299 7311.210000 0 0 1
-18.103937 23.729302 -11.542420 32.000934 -0.919067 1.939804 0.042963 -0.001779 49725.200000 0 0 1
-17.633737 22.542602 -10.959520 30.646838 -0.906979 1.936500 0.029455 0.003348 -57381.900000 0 0 1
-17.125337 21.743702 -11.977020 30.158163 -0.903662 1.979195 0.043068 0.001520 -67251.700000 0 0 1
-16.978337 20.230802 -11.574620 28.836108 -0.872587 1.983834 0.031862 0.002514 -582219.000000 0 0 1
-18.191337 19.580702 -11.433520 29.069813 -0.822164 1.975028 0.019252 0.003982 -769526.000000 0 0 1
-18.037637 18.170202 -11.088020 27.900839 -0.789059 1.979487 0.041358 -0.004787 -576375.000000 0 0 1
-19.313037 17.314602 -11.073120 28.202887 -0.730891 1.974279 0.045394 -0.012636 -79900.900000 0 0 1
-19.846637 16.894502 -12.312020 28.825320 -0.705221 2.012107 0.031539 -0.002438 130750.000000 0 0 1
-20.464837 17.872802 -13.134920 30.179012 -0.717890 2.021094 0.029015 0.005089 -648420.000000 0 0 1
-20.845737 17.234502 -14.495220 30.686874 -0.690849 2.062762 0.018922 0.001711 572394.000000 0 0 1
-19.782137 17.136402 -15.447520 30.391037 -0.713856 2.103997 0.021394 0.002509 583150.000000 0 0 1
-20.393737 16.445602 -16.486420 30.954231 -0.678634 2.132473 0.036126 0.001230 523771.000000 0 0 1
-19.358237 16.275902 -17.625220 30.826851 -0.699113 2.179432 0.038404 -0.005048 14439.900000 0 0 1
-19.163237 17.452302 -18.378420 31.773870 -0.738705 2.187578 0.026773 -0.008212 100309.000000 0 0 1
-18.138337 17.289802 -19.334720 31.650718 -0.761452 2.227965 0.029233 -0.000140 -332329.000000 0 0 1
-17.627637 18.626202 -19.887820 32.452957 -0.812935 2.230421 0.025141 -0.003141 207213.000000 0 0 1
-16.797437 19.387302 -18.978920 31.909572 -0.856850 2.207778 0.031351 0.002062 506603.000000 0 0 1
-16.357437 20.577002 -19.578320 32.776354 -0.899150 2.210965 0.040527 -0.010732 -15198.900000 0 0 1
32.724421 30.642602 2.257380 44.888223 0.752557 1.520486 0.048719 -0.012159 352372.000000 0 0 1
33.966281 30.492302 1.578280 45.672527 0.731555 1.536233 0.059691 -0.011610 392172.000000 0 0 1
34.006271 31.312202 0.431980 46.228423 0.744176 1.561452 0.052149 -0.003504 917115.000000 0 0 1
35.352101 31.154402 -0.385920 47.122359 0.722365 1.578986 0.034353 -0.003145 1316910.000000 0 0 1
-35.295381 31.745702 0.165580 47.471896 -0.732500 1.567308 0.016796 0.005182 308301.000000 0 0 1
-34.256859 31.764302 -0.770420 46.723622 -0.747662 1.587286 0.024987 0.004982 69009.500000 0 0 1
-33.061007 32.699702 -0.449820 46.502721 -0.779904 1.580469 0.003848 0.014738 238722.000000 0 0 1
-32.416787 32.438402 0.792680 45.866397 -0.785731 1.553513 0.015750 0.011934 188888.000000 0 0 1
-32.131497 33.690602 1.426180 46.578147 -0.809080 1.540172 -0.003492 0.011356 346061.000000 0 0 1
-31.246927 33.558902 2.744080 45.935828 -0.821058 1.511024 0.019425 0.005146 212669.000000 0 0 1
-30.974967 -33.961484 3.319480 46.085246 0.831357 1.498705 0.015923 0.007871 261998.000000 0 0 1
-30.251777 -34.074584 4.535780 45.791054 0.844757 1.471580 0.035180 -0.007388 -498766.000000 0 0 1
-30.236907 -32.765584 5.397580 44.910889 0.825513 1.450321 0.042207 -0.005030 -170395.000000 0 0 1
-31.385247 -32.328784 6.080680 45.466017 0.800206 1.436653 0.045924 -0.002588 -75289.500000 0 0 1
-31.943217 -33.187584 7.069280 46.602141 0.804501 1.418514 0.050265 -0.016547 -1105200.000000 0 0 1
-32.930707 -32.455784 8.049280 46.931869 0.778135 1.398434 0.067136 -0.009091 1955140.000000 0 0 1
-34.307334 -32.231184 7.620380 47.685559 0.754206 1.410303 0.039287 0.005797 1471140.000000 0 0 1
-35.002759 -33.407484 7.194680 48.918468 0.762083 1.423186 0.025619 -0.000163 -416141.000000 0 0 1
35.282851 -33.107584 7.005480 48.888326 -0.753602 1.427006 0.013870 0.011088 532195.000000 0 0 1
34.578671 -33.305484 8.173680 48.700604 -0.766645 1.402163 0.010692 0.011459 116235.000000 0 0 1
33.261921 -32.771184 8.107480 47.392374 -0.777967 1.398879 -0.012553 0.019725 348477.000000 0 0 1
32.362271 -33.186884 9.295980 47.276856 -0.797978 1.372878 -0.021840 0.014881 405712.000000 0 0 1
31.012301 -32.729084 9.190480 46.015439 -0.812325 1.369718 -0.013331 0.010160 889049.000000 0 0 1
30.311621 -32.734084 10.446680 45.819731 -0.823803 1.340778 -0.000888 0.008585 123099.000000 0 0 1
30.571881 -31.372784 11.254380 45.227785 -0.798327 1.319316 -0.013469 0.012484 -311458.000000 0 0 1
29.994191 -30.166184 10.742680 43.875452 -0.788257 1.323437 -0.011296 0.003593 387694.000000 0 0 1
30.564571 -29.705784 9.510980 43.670188 -0.771150 1.351246 0.000347 0.000325 51118.500000 0 0 1
29.938181 -28.353884 9.007280 42.206261 -0.758226 1.355731 0.013203 -0.003855 7254.040000 0 0 1
30.202381 -28.026284 7.648180 41.906456 -0.748044 1.387262 0.015498 -0.011979 -18316.200000 0 0 1
29.759761 -26.683684 7.524980 40.672936 -0.730954 1.384712 0.021547 -0.011648 -78494.400000 0 0 1
29.892651 -26.080984 6.104280 40.137894 -0.717406 1.418121 0.012454 -0.003750 780001.000000 0 0 1
31.207431 -25.627484 5.762580 40.790673 -0.687534 1.429050 0.011323 -0.008797 317183.000000 0 0 1
31.184811 -24.933684 4.505680 40.180620 -0.674464 1.458424 0.012515 -0.010806 -1045700.000000 0 0 1
32.563841 -24.529084 4.080380 40.972298 -0.645585 1.471042 0.022196 -0.013776 -717233.000000 0 0 1
33.334461 -25.658384 3.693680 42.227742 -0.656006 1.483214 0.008262 -0.002258 -729285.000000 0 0 1
34.696871 -25.360584 3.620080 43.129306 -0.631177 1.486762 0.015776 -0.007496 -581386.000000 0 0 1
35.541041 -26.605584 3.693380 44.549565 -0.642597 1.487796 0.015693 -0.003230 -586912.000000 0 0 1
35.484191 -27.321884 4.898380 45.051163 -0.656162 1.461852 0.001207 0.002909 -160944.000000 0 0 1
-35.847653 -28.617184 4.560980 46.095553 0.673704 1.471688 0.001160 0.001344 -427311.000000 0 0 1
35.606511 -29.643584 5.700380 46.680403 -0.694266 1.448376 0.001545 0.007706 1298440.000000 0 0 1
34.271911 -30.199384 5.807380 46.046632 -0.722314 1.444340 -0.015671 0.014031 957897.000000 0 0 1
33.262641 -29.272284 6.132780 44.731207 -0.721674 1.433260 -0.015978 0.011621 430598.000000 0 0 1
31.836551 -29.618484 5.567180 43.838500 -0.749321 1.443460 0.000387 0.004958 307444.000000 0 0 1
31.657841 -29.559984 4.102480 43.506803 -0.751143 1.476361 0.003447 0.001273 211716.000000 0 0 1
30.410561 -29.056884 3.662580 42.219891 -0.762639 1.483937 0.011527 -0.000430 830992.000000 0 0 1
29.095341 -29.888584 3.836980 41.887811 -0.798846 1.479066 0.017546 -0.000916 499839.000000 0 0 1
29.128321 -31.137784 3.174880 42.756292 -0.818729 1.496473 0.017848 0.000459 -85484.400000 0 0 1
27.860081 -31.716184 3.425780 42.353706 -0.850033 1.489823 0.037429 -0.001130 -63540.500000 0 0 1
27.693761 -33.151184 2.860280 43.291184 -0.874853 1.504677 0.035033 0.000161 -447449.000000 0 0 1
27.697051 -33.237784 1.442980 43.289249 -0.876078 1.537457 0.040342 -0.010166 181679.000000 0 0 1
27.717331 34.130702 1.030980 43.979747 0.888724 1.547352 0.033125 -0.005456 -76366.300000 0 0 1
27.557941 34.020502 -0.484620 43.784353 0.889964 1.581865 0.029771 -0.007929 278641.000000 0 0 1
28.711981 -34.352084 -1.228620 44.787867 -0.874595 1.598232 0.030863 -0.002646 529068.000000 0 0 1
28.230761 -34.317184 -2.553120 44.510262 -0.882401 1.628188 0.039426 -0.002115 194252.000000 0 0 1
29.221531 -33.760884 -3.610620 44.796559 -0.857347 1.651484 0.043687 -0.005497 55993.200000 0 0 1
29.331641 -32.301084 -3.599220 43.779671 -0.833541 1.653101 0.030892 -0.010336 64079.900000 0 0 1
30.316341 -31.831784 -4.488820 44.187017 -0.809778 1.672559 0.048433 -0.020653 -76498.200000 0 0 1
30.686551 -30.404884 -4.087020 43.391533 -0.780788 1.665126 0.033395 -0.020078 -262389.000000 0 0 1
29.657641 -29.488484 -4.437720 42.057576 -0.782538 1.676508 0.026715 -0.032201 354691.000000 0 0 1
30.126601 -28.117484 -4.505620 41.454862 -0.750917 1.679699 0.019455 -0.027406 176425.000000 0 0 1
30.918451 -27.666984 -5.782820 41.890973 -0.729955 1.709283 0.017819 -0.023680 -229499.000000 0 0 1
32.266201 -28.009684 -5.672420 43.102511 -0.714898 1.702782 0.021661 -0.018626 -115575.000000 0 0 1
33.163461 -27.457084 -6.674420 43.568963 -0.691542 1.724594 0.020642 -0.014007 665329.000000 0 0 1
33.425081 -28.332184 -7.954020 44.533304 -0.703118 1.750368 0.017729 -0.015186 -71660.600000 0 0 1
32.270371 -28.380284 -8.805420 43.867446 -0.721347 1.772897 0.009037 -0.019576 417743.000000 0 0 1
32.121651 -29.418184 -9.733720 44.631551 -0.741496 1.790654 0.006959 -0.008737 -19622.200000 0 0 1
31.973831 -30.851584 -9.217420 45.377384 -0.767537 1.775348 0.009698 -0.003212 -153707.000000 0 0 1
33.182111 -31.396884 -8.759720 46.513971 -0.757761 1.760252 0.017565 -0.006394 -510443.000000 0 0 1
32.893541 -32.687684 -8.240220 47.099585 -0.782259 1.746655 0.025628 -0.017478 683751.000000 0 0 1
34.149031 -33.499484 -7.721720 48.456132 -0.775797 1.730833 0.025092 -0.014885 743143.000000 0 0 1
33.883141 34.088802 -6.879320 48.553463 0.788424 1.712960 0.025833 -0.012461 -123123.000000 0 0 1
33.239471 34.360702 -5.649120 48.139722 0.801983 1.688416 0.039008 -0.010513 -16763.200000 0 0 1
32.995691 33.046502 -4.840420 46.949085 0.786168 1.674079 0.038370 -0.008464 164189.000000 0 0 1
32.184381 32.136502 -5.589420 45.823910 0.784654 1.693077 0.052298 -0.021359 195307.000000 0 0 1
32.153451 30.854802 -5.049920 44.848243 0.764790 1.683636 0.042550 -0.007508 12035.100000 0 0 1
30.920411 30.047802 -5.506720 43.465690 0.771087 1.697829 0.048096 -0.015832 -209500.000000 0 0 1
30.875171 29.681602 -6.866320 43.375339 0.765691 1.729765 0.030000 -0.006513 -1353780.000000 0 0 1
29.662491 29.365602 -7.410620 42.392443 0.780369 1.746509 0.010226 -0.003738 -1093610.000000 0 0 1
29.717701 28.963702 -8.893420 42.439730 0.772550 1.781915 0.012294 0.004669 -181182.000000 0 0 1
30.455511 27.752402 -9.080720 42.192339 0.738993 1.787715 0.012507 0.011145 154086.000000 0 0 1
30.921971 27.500102 -10.395620 42.667234 0.726893 1.816918 0.009030 0.015549 -532010.000000 0 0 1
32.007611 28.382902 -10.971620 44.163930 0.725449 1.821855 0.016066 0.006281 -1429880.000000 0 0 1
33.283341 27.960902 -10.509020 44.721721 0.698711 1.808001 0.012890 0.000795 282598.000000 0 0 1
34.351971 28.746402 -10.985920 46.120538 0.696792 1.811309 0.022523 -0.003768 -85943.000000 0 0 1
34.432571 30.144502 -10.373820 46.924504 0.719093 1.793713 0.030954 -0.015194 -868100.000000 0 0 1
35.168061 30.178502 -9.128620 47.232047 0.709191 1.765292 0.030795 -0.012961 482198.000000 0 0 1
35.124581 31.479902 -8.508820 47.928285 0.730731 1.749275 0.027305 -0.015408 -924486.000000 0 0 1
-35.740439 31.525402 -7.272520 48.209123 -0.722818 1.722228 0.025112 -0.013354 574591.000000 0 0 1
-34.369888 31.720302 -7.585720 47.381536 -0.745329 1.731587 0.034668 -0.014546 55367.600000 0 0 1
-33.723357 30.606802 -8.156620 46.266312 -0.736990 1.748020 0.043215 -0.010974 -1893330.000000 0 0 1
-32.290307 30.969102 -8.494420 45.540141 -0.764516 1.758421 0.070424 -0.013220 -1188120.000000 0 0 1
-31.493357 31.207302 -7.330420 44.938428 -0.780836 1.734650 0.053492 -0.011345 719853.000000 0 0 1
-30.099267 31.377002 -7.595420 44.138108 -0.806179 1.743740 0.047859 -0.012533 658417.000000 0 0 1
-29.546357 32.503502 -8.550920 44.750230 -0.833020 1.763060 0.010775 -0.004441 -709009.000000 0 0 1
-29.657847 33.840702 -8.060520 45.713816 -0.851176 1.748049 -0.013628 0.010397 -159505.000000 0 0 1
-28.700547 34.121302 -7.085720 45.146341 -0.871473 1.728398 -0.009493 0.010962 -588280.000000 0 0 1
-28.841237 -33.176784 -6.572020 44.448930 0.855192 1.719196 -0.022801 0.019929 359861.000000 0 0 1
-29.927687 -32.993384 -5.654220 44.902116 0.834083 1.697055 -0.020971 0.013651 297792.000000 0 0 1
-29.738207 -33.629684 -4.397420 45.107138 0.846732 1.668440 -0.026021 0.013683 -118480.000000 0 0 1
-30.986107 -33.420284 -3.514420 45.710014 0.823174 1.647757 -0.002960 0.011929 -152402.000000 0 0 1
-31.154577 -32.102384 -3.157220 44.845722 0.800380 1.641256 0.009604 0.010577 694463.000000 0 0 1
-32.181187 -32.091484 -2.125520 45.497362 0.784002 1.617531 0.003920 0.010415 637700.000000 0 0 1
-32.797507 -30.747484 -1.715420 44.989187 0.753148 1.608935 0.013738 0.010394 -135475.000000 0 0 1
-33.915457 -30.840784 -0.867620 45.849372 0.737953 1.589721 0.016997 0.015941 -384354.000000 0 0 1
-34.458387 -29.553584 -0.736620 45.401953 0.708924 1.587021 0.021065 0.010179 462601.000000 0 0 1
-35.563377 -29.519484 0.376980 46.220081 0.692799 1.562640 0.021205 0.013734 1213130.000000 0 0 1
34.986131 -30.178484 0.099880 46.203682 -0.711755 1.568635 0.013267 0.007741 765828.000000 0 0 1
34.090961 -30.109484 1.151380 45.498355 -0.723461 1.545488 0.007277 0.005361 -663919.000000 0 0 1
33.148181 -28.950384 1.124680 44.024897 -0.717902 1.545247 0.005861 0.003360 -1207440.000000 0 0 1
32.176541 -28.843584 0.107380 43.212193 -0.730832 1.568311 0.011281 -0.000818 154269.000000 0 0 1
31.649821 -27.517784 0.263280 41.940540 -0.715675 1.564519 0.013366 -0.001047 -452379.000000 0 0 1
30.417761 -27.287284 -0.670920 40.869135 -0.731202 1.587213 0.010351 -0.006008 131355.000000 0 0 1
29.181081 -27.589984 -0.063920 40.159019 -0.757379 1.572388 0.016840 -0.003596 75648.100000 0 0 1
28.807171 -28.949884 -0.045320 40.840555 -0.787869 1.571906 0.025913 -0.006747 -739483.000000 0 0 1
28.428501 -29.711584 -1.364820 41.143901 -0.807463 1.603974 0.029869 -0.012593 -110574.000000 0 0 1
27.074031 -29.496884 -1.737620 40.076036 -0.828201 1.614168 0.043151 -0.004054 298472.000000 0 0 1
26.865831 -29.727584 -3.103520 40.188729 -0.835922 1.648097 0.039428 -0.001477 203807.000000 0 0 1
25.371611 -30.006584 -3.452520 39.446592 -0.868900 1.658432 0.040055 -0.000086 407228.000000 0 0 1
24.491611 -28.916884 -3.303620 38.038653 -0.868066 1.657755 0.046213 0.004459 -465257.000000 0 0 1
23.214511 -29.442584 -3.560920 37.662440 -0.903127 1.665486 0.040853 0.002641 -492532.000000 0 0 1
22.123111 -28.352984 -3.599820 36.142530 -0.908199 1.670562 0.040999 0.001423 -199595.000000 0 0 1
21.925011 -27.747984 -4.871420 35.698564 -0.902092 1.707683 0.045285 0.002779 30976.800000 0 0 1
21.512111 -26.442884 -4.777120 34.421184 -0.887859 1.710030 0.037374 -0.008073 -175622.000000 0 0 1
20.867611 -25.852584 -6.051220 33.770261 -0.891694 1.750957 0.046782 -0.030203 620227.000000 0 0 1
19.558911 -26.335584 -6.395720 33.421837 -0.931997 1.763347 0.038581 -0.024254 463002.000000 0 0 1
19.096411 -25.776384 -7.618020 32.971641 -0.933178 1.803951 0.057647 -0.028092 -136865.000000 0 0 1
17.563911 -25.863584 -7.698520 32.197564 -0.974237 1.812238 0.046588 -0.024635 -238340.000000 0 0 1
16.928711 -25.167984 -6.673120 31.057031 -0.978677 1.787352 0.027902 -0.016831 -140247.000000 0 0 1
15.520611 -25.206784 -6.758120 30.363523 -1.018890 1.795250 0.029078 -0.015307 -55755.300000 0 0 1
14.879611 -24.400884 -5.600520 29.123389 -1.023204 1.764305 0.012954 -0.003171 -271219.000000 0 0 1
15.031211 -25.003984 -4.316120 29.491785 -1.029530 1.717674 0.004093 -0.001937 287589.000000 0 0 1
14.595211 -24.235284 -3.160520 28.466789 -1.028739 1.682051 0.017417 0.000852 -27624.100000 0 0 1
14.781711 -24.895184 -1.771520 29.007024 -1.034979 1.631906 0.017831 -0.004878 -219420.000000 0 0 1
14.245911 -26.193184 -1.753420 29.868099 -1.072665 1.629536 0.028399 -0.002047 391727.000000 0 0 1
14.709211 -27.016584 -0.654220 30.768242 -1.072223 1.592061 0.022489 -0.002857 -287294.000000 0 0 1
14.439511 -28.516884 -0.922520 31.977542 -1.102082 1.599649 0.029778 -0.007778 -11423.700000 0 0 1
13.087811 -28.837684 -0.685920 31.676068 -1.144750 1.592452 0.041562 -0.014229 -129228.000000 0 0 1
12.532011 -29.950184 -1.356720 32.494700 -1.174505 1.612561 0.049892 -0.017169 42495.700000 0 0 1
13.086511 -31.369984 -1.040020 34.006092 -1.175579 1.601384 0.035003 -0.012544 -341821.000000 0 0 1
14.268911 -31.684484 -1.715620 34.791546 -1.147657 1.620128 0.021127 -0.011781 -626928.000000 0 0 1
14.813211 -32.939584 -1.383720 36.143631 -1.148185 1.609090 0.024936 -0.005566 -1006680.000000 0 0 1
16.222011 -32.937284 -1.942920 36.766741 -1.113157 1.623665 0.018009 -0.005844 -1442410.000000 0 0 1
17.002611 -32.205384 -1.063720 36.433598 -1.085045 1.599997 0.022664 0.007911 156421.000000 0 0 1
18.222111 -31.773484 -1.698420 36.667209 -1.050090 1.617133 0.013639 0.004685 580999.000000 0 0 1
18.936211 -30.651184 -0.923320 36.040639 -1.017393 1.596418 0.011635 0.006268 53358.200000 0 0 1
18.224811 -29.451084 -1.010120 34.648671 -1.016656 1.599954 0.017386 0.007159 503844.000000 0 0 1
19.045911 -28.465684 -0.409220 34.252144 -0.981123 1.582744 0.012833 0.005737 -118464.000000 0 0 1
18.477811 -27.054584 -0.533020 32.766814 -0.971583 1.587064 0.009540 0.004209 -481102.000000 0 0 1
18.805011 -26.367084 -1.757520 32.433631 -0.951266 1.625011 0.011684 0.003575 657818.000000 0 0 1
17.873111 -26.634984 -2.822020 32.199911 -0.979773 1.658550 0.021624 0.000679 69693.100000 0 0 1
32.894761 -29.682984 13.556380 46.334871 -0.734119 1.273879 -0.001539 0.004314 -272400.000000 0 0 1
33.370051 -30.115184 14.830580 47.333188 -0.734173 1.252106 0.003143 0.012945 280228.000000 0 0 1
32.301951 -30.418684 15.741480 47.079789 -0.755381 1.229873 -0.015323 0.021579 190209.000000 0 0 1
32.892261 -30.849384 17.069380 48.217725 -0.753360 1.208945 -0.004588 0.015277 -56636.500000 0 0 1
31.968561 -31.295284 18.073680 48.249783 -0.774756 1.186846 -0.012953 0.012054 489975.000000 0 0 1
32.688931 -31.582784 19.248080 49.361189 -0.768189 1.170226 -0.012468 0.013590 464710.000000 0 0 1
33.506881 -32.970084 19.366980 50.841100 -0.777323 1.179993 -0.011660 0.011765 293224.000000 0 0 1
34.606571 -32.997884 18.473280 51.261459 -0.761607 1.202128 -0.001399 0.016061 -43837.300000 0 0 1
35.117611 -34.296884 18.505380 52.459241 -0.773575 1.210280 0.017433 -0.002118 -120959.000000 0 0 1
-35.605636 34.205302 17.423380 52.357790 -0.765342 1.231551 0.033171 -0.005021 135106.000000 0 0 1
-34.456520 -33.741584 17.657580 51.356951 0.774915 1.219814 0.036136 -0.009261 279250.000000 0 0 1
-33.548887 -33.767684 16.568180 50.401279 0.788648 1.235843 0.050611 -0.009123 -74854.800000 0 0 1
-32.204737 -33.070684 16.898480 49.156626 0.798663 1.219870 0.040931 -0.017910 -100017.000000 0 0 1
-31.201877 -33.124584 15.921380 48.210844 0.815279 1.234233 0.062570 -0.021184 10756.400000 0 0 1
-31.320077 -32.101784 14.957580 47.277912 0.797723 1.248890 0.076921 -0.012429 -569498.000000 0 0 1
-30.064017 -32.032984 14.078680 46.132054 0.817095 1.260667 0.072767 -0.015052 -457969.000000 0 0 1
-28.940587 -31.688684 14.826580 45.404380 0.830693 1.238150 0.070863 -0.022879 -426528.000000 0 0 1
-27.845037 -31.386284 13.983480 44.226492 0.845114 1.249097 0.073214 -0.022717 1351350.000000 0 0 1
-26.485337 -31.014084 14.723780 43.360537 0.863997 1.224341 0.070345 -0.029468 1306400.000000 0 0 1
-25.390147 -30.864084 13.851180 42.297830 0.882400 1.237174 0.061176 -0.021264 -1071450.000000 0 0 1
-24.264737 -30.497984 14.557680 41.603251 0.898733 1.213314 0.042841 -0.021450 -653427.000000 0 0 1
-22.986837 -30.350684 13.703280 40.464040 0.922592 1.225311 0.056392 -0.017695 -125447.000000 0 0 1
-22.391137 -31.590484 13.427680 40.983219 0.954193 1.236993 0.054322 -0.013806 47757.100000 0 0 1
-21.160237 -31.339484 12.763380 39.910183 0.976913 1.245275 0.036244 -0.017665 561149.000000 0 0 1
-20.478937 -32.676684 12.240280 40.459572 1.010965 1.263449 0.035421 -0.015299 318071.000000 0 0 1
-21.155737 -33.217584 11.099280 40.916587 1.003697 1.296088 0.041896 -0.015278 273388.000000 0 0 1
-20.772537 34.184402 10.802880 41.433970 -1.024763 1.307023 0.038905 -0.009622 191459.000000 0 0 1
-21.891437 33.550402 9.935080 41.274330 -0.992670 1.327701 0.025605 -0.003549 123475.000000 0 0 1
-21.711837 33.896002 8.594480 41.160757 -1.001098 1.360446 0.020012 -0.006944 -666362.000000 0 0 1
-22.934137 33.749202 7.954680 41.572349 -0.973930 1.378264 0.017621 -0.005250 -796040.000000 0 0 1
-22.762637 33.878502 6.399280 41.313936 -0.979186 1.415276 0.022150 -0.013334 -340390.000000 0 0 1
-22.121737 32.813902 5.686980 39.980810 -0.977626 1.428070 0.018205 -0.018061 1051220.000000 0 0 1
-20.718337 32.580902 5.907880 39.059797 -1.004394 1.418961 0.022622 -0.015063 1389250.000000 0 0 1
-19.643837 33.680902 5.467680 39.372313 -1.042796 1.431475 0.031653 -0.021179 229497.000000 0 0 1
-19.669537 -33.841684 6.186280 39.628529 1.044298 1.414049 0.034308 -0.020564 41655.800000 0 0 1
-19.027137 -33.916184 7.455380 39.596997 1.059544 1.381384 0.023794 -0.014294 -552679.000000 0 0 1
-19.100137 -32.599384 8.234780 38.669712 1.040805 1.356201 0.012851 -0.013936 -730595.000000 0 0 1
-18.267537 -31.665684 7.609080 37.340548 1.047545 1.365584 0.032902 -0.024177 -263950.000000 0 0 1
-18.119337 -30.431084 8.333380 36.384151 1.033750 1.339706 0.030937 -0.023276 51995.300000 0 0 1
-17.492637 -30.526784 9.735880 36.505674 1.050447 1.300834 0.014516 -0.019715 -502796.000000 0 0 1
-16.202137 -31.054284 9.701280 36.345462 1.089912 1.300602 0.025956 -0.028191 -624756.000000 0 0 1
-15.528937 -30.962384 10.948480 36.327487 1.105916 1.264654 0.032235 -0.020643 446064.000000 0 0 1
-14.141937 -31.682584 11.016580 36.402548 1.150971 1.263343 0.035638 -0.020119 -264227.000000 0 0 1
-13.220037 -30.844684 10.453180 35.148725 1.165880 1.268830 0.010368 -0.016162 -967373.000000 0 0 1
-12.108137 -31.574984 9.955480 35.251924 1.204618 1.284491 0.008388 -0.008227 -864900.000000 0 0 1
-11.041837 -30.681984 9.466880 33.954795 1.225347 1.288243 0.015677 -0.008155 -848402.000000 0 0 1
-10.346537 -30.097884 10.565380 33.534470 1.239689 1.250276 0.006585 -0.006494 -20422.000000 0 0 1
-9.328537 -29.195884 10.133080 32.281582 1.261533 1.251502 0.016207 -0.004639 538070.000000 0 0 1
-8.610537 -28.553384 11.359080 31.913410 1.277910 1.206883 0.016260 0.003610 115672.000000 0 0 1
-9.475237 -27.806684 12.168380 31.797189 1.242382 1.178093 0.017795 -0.007573 -324210.000000 0 0 1
-8.828437 -27.526284 13.373980 31.851231 1.260434 1.137473 0.015606 0.002845 175931.000000 0 0 1
-9.256737 -26.125184 13.859880 30.988848 1.230276 1.107104 0.015736 -0.001100 345435.000000 0 0 1
-8.797537 -24.990684 13.117980 29.563699 1.232312 1.111052 0.013968 0.001320 207469.000000 0 0 1
-9.677537 -24.733784 12.027280 29.155964 1.197840 1.145583 0.018524 -0.004036 276205.000000 0 0 1
-9.374737 -23.366384 11.340080 27.612877 1.189251 1.147596 0.007924 0.006597 -85591.200000 0 0 1
-8.217837 -23.263684 10.555780 26.835728 1.231231 1.166526 0.006734 0.000931 -383913.000000 0 0 1
-7.946237 -21.894784 10.282780 25.460946 1.222651 1.155059 0.001961 0.007059 260460.000000 0 0 1
-6.625137 -21.775384 9.465580 24.650699 1.275446 1.176684 0.010136 0.000918 390983.000000 0 1 0
-5.461437 -22.246284 10.110880 25.039056 1.330058 1.155125 0.029000 -0.005727 -1207950.000000 0 0 1
-4.493137 -22.334284 9.154180 24.552139 1.372270 1.188721 0.034559 -0.010515 -581349.000000 0 1 0
-3.214037 -23.102584 9.565680 25.210348 1.432563 1.181611 0.052664 -0.015334 140079.000000 0 0 1
-2.472337 -22.422184 10.531280 24.895273 1.460977 1.134017 0.053296 -0.017064 -1311890.000000 0 1 0
-1.316037 -23.090884 10.855480 25.549213 1.513864 1.131961 0.056778 -0.022254 -790880.000000 0 0 1
-0.335037 -22.380684 11.737980 25.274244 1.555828 1.087812 0.056341 -0.027652 -627355.000000 0 0 1
-0.854137 -22.219584 13.031080 25.773018 1.532374 1.040708 0.056695 -0.020128 145574.000000 0 0 1
0.066463 -22.106884 14.153780 26.249728 -1.567790 1.001313 0.061594 -0.012981 234448.000000 0 0 1
0.853263 -20.811784 14.316680 25.275002 -1.529820 0.968621 0.054953 -0.017361 -177970.000000 0 0 1
1.927563 -20.721884 13.411680 24.758536 -1.478043 0.998339 0.057954 -0.022525 -528521.000000 0 1 0
2.426063 -19.414084 13.280180 23.646471 -1.446477 0.974462 0.056882 -0.019796 -1011460.000000 0 1 0
3.840363 -19.336984 12.806380 23.508949 -1.374745 0.994711 0.065175 -0.018814 -1069600.000000 0 1 0
3.955763 -19.855784 11.468480 23.268567 -1.374146 1.055406 0.056462 -0.013383 855713.000000 0 1 0
5.347963 -19.973284 11.067080 23.452356 -1.309177 1.079356 0.051032 -0.014988 1374850.000000 0 1 0
5.560863 -20.952784 9.880280 23.823565 -1.311377 1.143153 0.036807 -0.016836 -642571.000000 0 1 0
5.529263 -20.372584 8.588980 22.790030 -1.305774 1.184377 0.034180 -0.019918 -395949.000000 0 1 0
5.909663 -21.281984 7.556880 23.344236 -1.299937 1.241143 0.025964 -0.018889 -902465.000000 0 1 0
7.359863 -21.763884 7.441480 24.149738 -1.244700 1.257560 0.028678 -0.005001 -602366.000000 0 1 0
8.226263 -20.757084 6.942780 23.382260 -1.193474 1.269325 0.035695 -0.015494 -257061.000000 0 1 0
8.570463 -19.663284 7.801980 22.824733 -1.159762 1.221942 0.038333 -0.009748 5857.500000 0 1 0
9.521263 -19.970484 9.032280 23.896793 -1.125907 1.183193 0.037480 -0.007914 309320.000000 0 1 0
8.790363 -20.231884 10.216680 24.310083 -1.160923 1.137059 0.039909 -0.010507 -597002.000000 0 1 0
9.515863 -19.894984 11.391880 24.822106 -1.124655 1.093994 0.036277 -0.007126 -5462.010000 0 1 0
8.776063 -19.969784 12.753380 25.267770 -1.156736 1.041728 0.047446 -0.011521 -157820.000000 0 0 1
8.732863 -21.322284 13.228480 26.568691 -1.182071 1.049624 0.036428 -0.014621 -486146.000000 0 0 1
7.952963 -21.553584 14.356580 27.090920 -1.217309 1.012266 0.049332 -0.012462 -71736.700000 0 0 1
8.019963 -22.978684 14.948580 28.562208 -1.234997 1.019996 0.041345 -0.010680 121819.000000 0 0 1
7.617563 -24.046984 14.114680 28.905170 -1.264019 1.060644 0.045491 -0.011416 -240746.000000 0 0 1
7.237663 -25.207784 14.838880 30.133179 -1.291197 1.055902 0.050265 -0.009424 304615.000000 0 0 1
7.348863 -26.419784 13.894380 30.741902 -1.299497 1.101825 0.054653 -0.018636 628892.000000 0 0 1
8.680163 -26.836384 13.595880 31.311095 -1.257969 1.121625 0.057706 -0.006174 260838.000000 0 0 1
8.662563 -27.795384 12.598680 31.723021 -1.268682 1.162391 0.064841 -0.011460 765792.000000 0 0 1
10.010963 -28.188084 11.877380 32.184772 -1.229542 1.192823 0.060477 -0.011175 1040380.000000 0 0 1
11.043063 -28.703884 12.721680 33.282177 -1.203528 1.178580 0.053843 -0.011651 677167.000000 0 0 1
12.166263 -29.110584 11.923480 33.728525 -1.174927 1.209472 0.067559 -0.008584 320041.000000 0 0 1
13.188263 -29.901784 12.740980 35.076766 -1.155408 1.199063 0.049437 -0.010105 -867422.000000 0 0 1
13.818463 -29.198484 13.767080 35.114581 -1.128769 1.167925 0.042296 -0.006071 517520.000000 0 0 1
14.778863 -29.945384 14.536780 36.420581 -1.112340 1.160222 0.030467 -0.001566 603080.000000 0 0 1
16.174063 -30.175384 13.925080 36.960275 -1.078764 1.184502 0.037639 -0.001627 -784062.000000 0 0 1
16.892263 -29.006784 13.801780 36.293679 -1.043452 1.180697 0.032370 -0.008212 -503602.000000 0 0 1
18.091463 -29.211384 13.111380 36.776544 -1.016285 1.206262 0.032415 -0.010922 -386245.000000 0 0 1
19.073663 -28.028984 13.157380 36.366814 -0.973279 1.200602 0.024113 -0.011027 120255.000000 0 0 1
20.247463 -28.220784 12.369680 36.869789 -0.948444 1.228664 0.022831 -0.016804 203666.000000 0 0 1
20.897763 -26.983384 12.204780 36.246050 -0.911819 1.227365 0.023381 -0.014365 -534469.000000 0 0 1
22.341363 -27.192184 11.739680 37.099480 -0.883017 1.248824 0.033482 -0.006819 -196380.000000 0 0 1
23.175263 -27.927884 12.619580 38.422822 -0.878132 1.236145 0.049311 -0.012139 216794.000000 0 0 1
24.315563 -28.451984 11.953180 39.289190 -0.863628 1.261660 0.039404 -0.018613 -310785.000000 0 0 1
25.362863 -29.141684 12.868580 40.719932 -0.854618 1.249258 0.039076 -0.014408 1279770.000000 0 0 1
26.412363 -28.251584 13.435480 40.942362 -0.819031 1.236446 0.031589 -0.011685 1833370.000000 0 0 1
27.450163 -27.958284 12.484480 41.122248 -0.794568 1.262334 0.007673 -0.005757 227682.000000 0 0 1
28.739063 -27.287584 13.058280 41.726066 -0.759497 1.252496 0.022486 -0.008962 253891.000000 0 0 1
28.739463 -25.902884 13.307480 40.914607 -0.733533 1.239520 0.049265 -0.011978 248957.000000 0 0 1
27.913563 -25.462684 14.394680 40.431696 -0.739513 1.206786 0.058998 -0.008776 296744.000000 0 0 1
28.689863 -25.205284 15.764880 41.315203 -0.720833 1.179296 0.053422 -0.005784 42998.600000 0 0 1
29.131463 -26.409584 16.402980 42.604764 -0.736431 1.175585 0.055475 -0.007829 542419.000000 0 0 1
29.783163 -26.163984 17.684380 43.408848 -0.720799 1.151201 0.063639 -0.001382 252411.000000 0 0 1
30.130963 -27.440384 18.498580 44.755413 -0.738697 1.144693 0.034416 0.007545 -83934.800000 0 0 1
28.988863 -28.226584 18.790680 44.611476 -0.772076 1.136020 0.030167 0.005968 200508.000000 0 0 1
29.365163 -29.295884 19.679380 45.911214 -0.784217 1.127809 0.023625 0.006434 243889.000000 0 0 1
28.193163 -30.228784 20.065480 45.948419 -0.820228 1.118874 0.017143 0.023090 393721.000000 0 0 1
27.124963 -29.563184 20.813880 45.199148 -0.828383 1.092246 0.018954 0.021381 1119220.000000 0 0 1
26.069763 -30.417484 21.199280 45.324003 -0.862215 1.084078 0.027763 0.020408 455743.000000 0 0 1
25.048963 -30.950484 20.161580 44.630396 -0.890396 1.102075 0.046194 0.017581 -660856.000000 0 0 1
25.589863 -31.920384 19.347080 45.255513 -0.895033 1.129062 0.028746 0.018564 -176871.000000 0 0 1
24.862863 -32.179384 18.176180 44.542656 -0.912967 1.150466 0.039814 0.009275 -477204.000000 0 0 1
25.327463 -31.382084 16.938880 43.740612 -0.891761 1.173141 0.046848 0.012911 102934.000000 0 0 1
26.698463 -31.540384 16.601980 44.533464 -0.868346 1.188774 0.035104 0.009325 407111.000000 0 0 1
27.117063 -30.518584 15.654580 43.723962 -0.844347 1.204637 0.038584 -0.007942 -282047.000000 0 0 1
28.577763 -30.777484 15.234280 44.676899 -0.822441 1.222829 0.032190 -0.003094 -346799.000000 0 0 1
28.767963 -31.844384 14.329380 45.243691 -0.836110 1.248532 0.058886 -0.000192 282125.000000 0 0 1
28.866963 -33.090384 14.967380 46.392860 -0.853459 1.242298 0.058849 -0.007783 184610.000000 0 0 1
27.862663 -34.131584 14.302980 46.323517 -0.886177 1.256904 0.048574 -0.016556 525779.000000 0 0 1
28.158563 -34.317884 12.985180 46.251883 -0.883667 1.286222 0.054188 -0.016686 207869.000000 0 0 1
27.322463 33.430702 12.446980 44.933908 0.885603 1.290119 0.034706 -0.022507 -246618.000000 0 0 1
27.740463 33.100902 10.976480 44.561038 0.873276 1.321910 0.038900 -0.026149 -478492.000000 0 0 1
28.925463 32.342802 10.897880 44.738160 0.841117 1.324728 0.040061 -0.021657 144110.000000 0 0 1
29.092363 31.867002 9.586780 44.201558 0.830883 1.352171 0.039143 -0.027563 -948142.000000 0 0 1
30.511163 31.401802 9.357180 44.772324 0.799783 1.360249 0.026116 -0.012260 -825417.000000 0 0 1
30.921363 30.395602 10.216680 44.546648 0.776824 1.339389 0.022495 -0.004668 -51207.700000 0 0 1
32.296063 30.106602 10.063980 45.284951 0.750327 1.346688 0.039647 -0.002523 26667.400000 0 0 1
32.890163 29.336602 11.238280 45.482941 0.728353 1.321123 0.035529 -0.013593 -307231.000000 0 0 1
32.536463 27.971702 11.350280 44.383176 0.710100 1.312190 0.025100 -0.006907 61745.800000 0 0 1
32.567463 27.577702 12.690980 44.522244 0.702626 1.281740 0.032929 -0.009083 -126420.000000 0 0 1
32.578963 26.065802 12.966580 43.691498 0.674790 1.269482 0.016830 0.004317 295739.000000 0 0 1
33.638263 25.365402 12.290980 43.886268 0.646097 1.286935 0.013807 0.018230 124992.000000 0 0 1
33.539863 23.993202 12.560680 43.108778 0.620963 1.275136 0.026271 0.012738 206124.000000 0 0 1
32.550663 23.224102 11.565980 41.625430 0.619713 1.289232 0.006915 -0.001986 285736.000000 0 0 1
31.228663 23.524802 11.944780 40.881823 0.645615 1.274293 0.046021 -0.011119 -583586.000000 0 0 1
30.344263 23.097002 10.925380 39.668749 0.650609 1.291775 0.054313 -0.014253 168588.000000 0 0 1
29.062563 22.452702 11.529680 38.492725 0.657787 1.266598 0.057905 -0.010960 224871.000000 0 0 1
28.205363 23.359802 12.203280 38.602368 0.691704 1.249151 0.047329 -0.007232 1292130.000000 0 0 1
27.109763 22.692002 12.922880 37.641294 0.696923 1.220351 0.061999 0.000755 1068090.000000 0 0 1
24.252863 9.026202 25.724022 36.488340 0.356288 0.788383 0.017137 0.001435 -129092.000000 0 0 1
23.705263 8.190202 26.711632 36.640553 0.332662 0.753910 0.012228 0.002901 -185175.000000 0 0 1
22.308063 8.096102 26.702462 35.724193 0.348141 0.726564 0.023256 -0.001442 -401249.000000 0 0 1
21.798663 6.842502 27.469592 35.729260 0.304156 0.693793 0.032861 -0.004412 -251559.000000 0 0 1
21.949163 6.824002 28.926682 36.947066 0.301427 0.671447 0.045365 -0.004337 -426603.000000 0 0 1
23.265963 6.560202 29.284462 37.972634 0.274831 0.690074 0.042452 -0.006379 -837137.000000 0 0 1
23.511463 6.438602 30.802312 39.281381 0.267296 0.669479 0.044902 -0.002538 -381673.000000 0 0 1
23.654363 7.708402 31.481432 40.125165 0.315024 0.668777 0.040593 -0.002854 317411.000000 0 0 1
23.669963 7.519702 32.868640 41.196608 0.307606 0.647079 0.043430 -0.001153 -204616.000000 0 0 1
23.506863 8.826902 33.629051 41.969034 0.359212 0.641361 0.037333 -0.005511 350541.000000 0 0 1
24.679763 9.630002 33.558831 42.755383 0.372028 0.668257 0.033981 -0.002598 194791.000000 0 0 1
25.155463 10.165702 -33.860650 43.389889 0.384049 2.466071 0.042297 -0.005806 722796.000000 0 0 1
26.531763 10.917202 -33.933520 44.436511 0.390361 2.439729 0.024175 -0.001533 427695.000000 0 0 1
26.393463 12.275602 34.188161 44.901399 0.435340 0.705318 0.023097 -0.007102 363158.000000 0 0 1
25.900263 13.207502 -33.475320 44.338006 0.471566 2.426455 0.022431 -0.003479 -538270.000000 0 0 1
25.402163 14.479402 -34.185534 44.984149 0.518074 2.434027 0.017330 -0.004626 -461046.000000 0 0 1
26.397963 15.173202 33.713606 45.427807 0.521674 0.734545 0.010317 -0.007816 136573.000000 0 0 1
26.063063 16.488002 33.493544 45.529715 0.564060 0.744183 0.022579 -0.008010 14744.700000 0 0 1
26.751163 17.547302 -34.207612 46.836879 0.580543 2.389640 0.019429 -0.013081 25862.500000 0 0 1
26.220963 17.583302 -32.884650 45.586309 0.590708 2.376577 0.011312 -0.020082 15092.200000 0 0 1
26.991263 16.756902 -32.063290 45.137308 0.555593 2.360792 0.015345 -0.015780 -357046.000000 0 0 1
26.224463 16.226502 -30.837710 43.611767 0.554095 2.356179 0.003534 -0.009114 -134638.000000 0 0 1
25.330863 15.175902 -31.128810 42.906450 0.539763 2.382563 0.009517 -0.005564 -250683.000000 0 0 1
24.711763 14.745002 -29.961680 41.542612 0.537974 2.376369 0.018801 -0.014258 -263849.000000 0 0 1
23.932063 13.420102 -30.231650 40.826406 0.511065 2.404599 0.023017 -0.015155 -850370.000000 0 0 1
22.784763 13.621302 -31.037660 40.841421 0.538819 2.434041 0.019839 -0.016180 11626.100000 0 0 1
22.305363 12.368802 -31.472660 40.509811 0.506308 2.460547 0.013213 -0.003505 -154793.000000 0 0 1
21.464263 11.665302 -30.374140 38.979254 0.497820 2.464246 0.016847 -0.008052 -1204670.000000 0 0 1
20.281263 12.333402 -30.063900 38.305098 0.546367 2.473256 0.027081 -0.001717 -32264.400000 0 0 1
19.376463 11.662002 -29.196250 36.930619 0.541789 2.482536 0.033319 0.000604 -96654.200000 0 0 1
18.187063 12.530102 -28.814430 36.304877 0.603276 2.487630 0.023453 0.001962 176880.000000 0 0 1
17.269463 12.733602 -29.918860 36.817349 0.635354 2.519446 0.015512 0.007382 -564054.000000 0 0 1
16.166463 13.453302 -29.592000 36.304715 0.694053 2.523699 0.019244 -0.004584 -1464370.000000 0 0 1
15.166963 13.553802 -30.732760 36.854374 0.729290 2.556928 0.023190 -0.009107 -46836.500000 0 0 1
14.494463 12.357302 -31.141540 36.504628 0.705975 2.592665 0.019495 -0.005846 -144314.000000 0 0 1
13.279363 12.057002 -30.508030 35.390008 0.737190 2.610101 0.028067 -0.006740 -517117.000000 0 0 1
12.162463 11.560302 -31.414380 35.615016 0.760020 2.651001 0.030217 -0.003963 -73543.900000 0 0 1
11.603763 12.516202 -32.341840 36.569075 0.823209 2.656012 0.035814 -0.004914 -405359.000000 0 0 1
10.711863 11.897402 -33.187260 36.846797 0.837786 2.692134 0.041381 0.000611 -751461.000000 0 0 1
10.227963 12.705602 34.277691 37.960553 0.893016 0.444137 0.050653 -0.005052 -225855.000000 0 0 1
11.190763 13.142602 33.358332 37.559812 0.865439 0.477517 0.039990 0.005244 -102718.000000 0 0 1
10.537063 13.582802 32.175452 36.479883 0.911008 0.490695 0.046972 -0.000142 -24606.000000 0 0 1
11.334163 13.473802 30.797472 35.475214 0.871433 0.519353 0.055673 0.000439 155382.000000 0 0 1
11.651463 12.137802 30.378402 34.726504 0.805839 0.505794 0.043362 -0.000499 92456.300000 0 0 1
11.981963 12.039002 29.057422 33.657670 0.787773 0.528980 0.046990 0.000783 -316456.000000 0 0 1
12.548863 10.668002 28.721222 33.108742 0.704562 0.520679 0.047636 0.002197 -223011.000000 0 0 1
11.654463 9.577202 28.846022 32.552147 0.687871 0.481831 0.038163 -0.000574 291061.000000 0 0 1
12.329363 8.336102 28.600782 32.241410 0.594517 0.479811 0.025155 -0.003618 -145778.000000 0 0 1
11.487863 7.074302 28.848802 31.847607 0.551961 0.437440 0.021317 -0.007892 -283164.000000 0 0 1
10.365963 6.998502 28.007162 30.673006 0.593848 0.420002 0.016690 -0.010088 -201492.000000 0 0 1
9.452363 5.964802 28.379002 30.500717 0.562930 0.375192 0.012958 -0.016548 -115650.000000 0 0 1
9.714763 4.479202 27.888362 29.869727 0.432023 0.366279 0.014030 -0.012097 -134925.000000 0 0 1
10.923763 3.982402 28.428792 30.714562 0.349589 0.388231 0.001913 -0.008212 166846.000000 0 0 1
11.076563 2.639702 27.938092 30.169442 0.233950 0.387016 -0.011235 -0.001429 -170884.000000 0 0 1
11.644963 1.596702 28.894272 31.193486 0.136266 0.386347 -0.008411 -0.000373 413961.000000 0 0 1
10.700863 1.282902 29.940032 31.820745 0.119318 0.345528 0.003716 -0.006614 351801.000000 0 0 1
10.927163 0.063802 30.533862 32.430289 0.005839 0.343674 0.000992 -0.005037 350904.000000 0 0 1
9.748363 -0.140498 31.528752 33.001704 -0.014411 0.299895 0.013875 -0.001042 417672.000000 0 0 1
9.728863 0.688302 32.659713 34.084914 0.070631 0.290200 0.010111 -0.006744 -1142070.000000 0 0 1
8.448363 1.086302 32.972232 34.054705 0.127880 0.252809 0.020296 -0.009721 -958991.000000 0 0 1
8.528463 2.195602 34.041312 35.162000 0.251972 0.253152 0.020129 -0.019966 64565.500000 0 0 1
8.745863 3.569302 33.576496 34.879953 0.387481 0.274244 0.027058 -0.021937 -265136.000000 0 0 1
9.910563 3.831802 32.848853 34.524616 0.368935 0.312845 0.009493 -0.013095 -722309.000000 0 0 1
9.919863 5.163102 32.075542 33.969128 0.479898 0.335470 0.016811 -0.012623 3686.490000 0 0 1
10.174263 6.253302 32.919699 35.018937 0.551100 0.348007 0.012718 -0.011102 -64812.700000 0 0 1
10.413563 7.417202 32.154002 34.602558 0.618909 0.378452 0.017898 -0.014659 -274159.000000 0 0 1
10.508963 8.698602 33.008920 35.716841 0.691423 0.391904 0.044620 -0.016505 511643.000000 0 0 1
9.311163 9.253702 33.580135 36.054878 0.782303 0.372661 0.047548 -0.016889 374216.000000 0 0 1
8.838863 8.473402 -33.960610 36.100514 0.764291 2.795554 0.038042 -0.017451 609512.000000 0 0 1
7.361163 8.850102 -33.572870 35.491529 0.876987 2.811278 0.038301 -0.015375 728094.000000 0 0 1
6.791563 8.126602 -32.507010 34.188780 0.874651 2.826634 0.036697 -0.007396 -260991.000000 0 0 1
5.458863 8.549402 -32.343460 33.896768 1.002542 2.837688 0.040445 -0.011858 -126163.000000 0 0 1
4.798663 7.899202 -31.144630 32.487114 1.024890 2.853109 0.035100 -0.005090 -532027.000000 0 0 1
5.432163 8.278302 -29.936300 31.531266 0.990080 2.822168 0.031027 -0.006816 98790.500000 0 0 1
5.037463 7.664502 -28.716040 30.145175 0.989344 2.832440 0.025711 -0.004273 -1417090.000000 0 0 1
3.713463 8.076002 -28.165130 29.534491 1.139811 2.835888 0.023114 -0.009133 -1089810.000000 0 0 1
2.658863 7.516602 -28.931330 30.009844 1.230801 2.872684 0.017560 -0.005068 -27126.600000 0 0 1
1.402063 8.000802 -28.469660 29.605746 1.397318 2.863665 0.031695 0.005418 239588.000000 0 0 1
0.236563 7.449502 -29.325640 30.257961 1.539052 2.892707 0.039750 -0.005838 -215354.000000 0 0 1
0.088963 8.116002 -30.566290 31.625552 1.559835 2.882045 0.045530 -0.007685 89594.800000 0 0 1
-0.302237 7.224202 -31.571690 32.389073 -1.528984 2.916456 0.059542 -0.011860 -251269.000000 0 0 1
0.056063 7.753502 -33.004800 33.903345 1.563566 2.910850 0.069509 -0.020265 1498300.000000 0 0 1
1.497963 7.678102 -33.237510 34.145706 1.378121 2.910437 0.063516 -0.016229 1686000.000000 0 0 1
1.991563 6.539702 -33.942740 34.624322 1.275185 2.942847 0.057233 -0.019507 -62821.400000 0 0 1
1.584863 6.391602 33.180305 33.827459 1.327738 0.195920 0.061127 -0.020148 868909.000000 0 0 1
0.277563 5.885102 32.821857 33.346450 1.523668 0.177612 0.068722 -0.024173 611326.000000 0 0 1
0.154963 5.707602 31.427322 31.941780 1.543653 0.179719 0.077489 -0.020103 390533.000000 0 0 1
1.068463 4.680502 30.646122 31.019889 1.346363 0.155393 0.078403 -0.015065 318452.000000 0 0 1
0.669763 4.566902 29.296502 29.657886 1.425179 0.156268 0.069895 -0.017517 3525.260000 0 0 1
1.467363 3.706302 28.491172 28.768676 1.193821 0.139008 0.064568 -0.012177 43971.300000 0 0 1
1.532463 4.008902 26.986242 27.325391 1.205672 0.157717 0.059577 -0.011888 75475.100000 0 0 1
2.393163 5.053302 26.594232 27.175655 1.128504 0.207228 0.062419 -0.009342 -92865.000000 0 0 1
2.242963 5.349402 25.188732 25.848002 1.173770 0.226340 0.053749 -0.007352 -519079.000000 0 0 1
2.810863 6.701802 24.773642 25.817599 1.173662 0.285347 0.042103 0.000445 1823260.000000 0 0 1
4.273563 6.785002 24.775912 26.041225 1.008714 0.313010 0.035415 0.009400 1566710.000000 0 0 1
4.823763 6.335902 23.535772 24.846426 0.920078 0.326253 0.027730 -0.007974 -960608.000000 0 1 0
6.345963 6.282602 23.569852 25.204766 0.780381 0.362157 0.031764 -0.010352 -454683.000000 0 0 1
6.993563 5.218102 24.313792 25.832131 0.641019 0.344564 0.032630 -0.007982 77571.000000 0 0 1
6.767763 3.809802 24.037552 25.261059 0.512719 0.312508 0.037477 -0.011277 -801665.000000 0 0 1
7.011263 3.347002 22.556572 23.857057 0.445384 0.331705 0.032694 -0.013106 208762.000000 0 1 0
6.012563 3.759402 21.651772 22.783398 0.558785 0.316498 0.023073 -0.012943 -98731.100000 0 1 0
4.692763 3.281802 21.806272 22.545637 0.610278 0.256807 0.024395 -0.021400 92222.300000 0 1 0
3.669763 3.794302 20.756172 21.416875 0.802082 0.249037 0.024692 -0.027625 189529.000000 0 1 0
3.367163 5.096802 20.991872 21.862613 0.986976 0.283179 0.024455 -0.024724 361510.000000 0 1 0
2.141663 5.454102 20.328572 21.156199 1.196625 0.280634 0.017517 -0.021071 527979.000000 0 1 0
1.701463 6.900202 20.642672 21.831804 1.329038 0.331571 0.016936 -0.007494 133722.000000 0 1 0
2.480563 7.879702 19.988372 21.628174 1.265814 0.391908 0.007143 -0.001075 -57172.200000 0 1 0
2.003363 9.133602 20.406272 22.446649 1.354876 0.429675 0.013024 0.005961 76702.300000 0 1 0
2.933263 10.261402 19.955472 22.630096 1.292368 0.491107 0.010439 -0.000258 -1195240.000000 0 1 0
2.878563 10.500402 18.568472 21.525164 1.303231 0.530330 -0.002034 0.005617 447773.000000 0 1 0
3.913263 11.408902 18.153772 21.795323 1.240370 0.586432 -0.003844 0.004261 1403090.000000 0 1 0
5.400463 10.954102 18.384272 22.071221 1.112758 0.586375 0.003036 0.000982 -273129.000000 0 1 0
5.705563 9.930702 17.492072 20.908009 1.049310 0.579712 0.007396 0.008741 378248.000000 0 1 0
7.076063 9.549102 17.597872 21.235374 0.933068 0.594005 0.012392 0.012611 539817.000000 0 1 0
7.353463 8.098702 18.070872 21.123891 0.833590 0.544337 0.021634 0.008432 -79180.600000 0 1 0
7.206863 7.862102 19.472172 22.201734 0.828853 0.501096 0.019937 0.010756 -99980.400000 0 1 0
7.156263 6.479402 19.776272 22.006719 0.735800 0.454121 0.024062 -0.006650 -337688.000000 0 1 0
8.455263 5.745102 20.070472 22.523798 0.596815 0.471080 0.036438 -0.000378 -472907.000000 0 1 0
9.331363 5.573502 18.970872 21.863948 0.538422 0.520284 0.034722 -0.001170 90699.500000 0 1 0
10.577163 4.975302 19.320172 22.580944 0.439673 0.544095 0.040049 -0.002600 469796.000000 0 1 0
10.591763 3.391802 19.326672 22.298206 0.309912 0.522175 0.051216 -0.010046 -532740.000000 0 1 0
9.841563 2.785402 20.329872 22.757823 0.275811 0.466132 0.047518 -0.013929 -121711.000000 0 1 0
10.139963 1.376302 20.411872 22.833255 0.134906 0.464705 0.050932 -0.019169 -118149.000000 0 1 0
9.103563 0.626502 21.232572 23.110376 0.068711 0.405903 0.047858 -0.025516 -354119.000000 0 1 0
9.239363 1.036902 22.560672 24.401330 0.111759 0.390898 0.043781 -0.021591 223315.000000 0 1 0
8.540463 0.127202 23.400872 24.910971 0.014893 0.349978 0.043206 -0.026011 -500270.000000 0 1 0
9.149963 0.153402 24.835402 26.467764 0.016764 0.353039 0.032150 -0.013484 -329280.000000 0 0 1
10.479763 -0.258898 24.969572 27.080841 -0.024700 0.397483 0.020239 -0.015914 -231238.000000 0 0 1
10.657363 -1.675998 24.794412 27.039808 -0.155984 0.410404 0.013374 -0.015152 -644138.000000 0 0 1
12.102963 -2.194598 24.882242 27.756511 -0.179378 0.459111 -0.004426 -0.007071 -133149.000000 0 0 1
12.157563 -3.591198 24.994192 28.025215 -0.287220 0.469385 0.002312 0.004812 -161022.000000 0 0 1
13.462363 -4.047598 25.264192 28.911894 -0.292062 0.507764 -0.002104 0.009578 -177169.000000 0 0 1
13.540963 -5.523698 25.571872 29.458268 -0.387320 0.519493 0.001036 0.004601 -225555.000000 0 0 1
13.199763 -6.254198 24.412272 28.448335 -0.442478 0.539187 0.024860 -0.007639 255774.000000 0 0 1
12.938563 -7.631098 24.596872 28.820933 -0.532882 0.548250 0.035569 -0.017333 -89956.300000 0 0 1
12.673663 -8.301098 23.279972 27.775655 -0.579874 0.576927 0.054655 -0.018698 48790.500000 0 0 1
12.265863 -9.652698 23.486672 28.200172 -0.666737 0.586549 0.059443 -0.009035 -255475.000000 0 0 1
12.131363 -10.368398 22.224872 27.360895 -0.707203 0.622735 0.045501 -0.011305 233250.000000 0 0 1
11.474063 -11.812198 22.261172 27.690105 -0.799918 0.636906 0.052275 -0.006463 -75373.300000 0 0 1
10.101863 -11.875998 22.472672 27.351562 -0.865947 0.606544 0.054338 -0.004323 -996330.000000 0 0 1
9.613163 -13.155298 22.761472 27.992130 -0.939733 0.621273 0.057897 -0.002232 605753.000000 0 0 1
8.141563 -13.144398 23.298972 27.962516 -1.016238 0.585888 0.042541 0.002155 561479.000000 0 0 1
7.264163 -12.588898 22.351672 26.661689 -1.047438 0.576558 0.040080 0.000177 180406.000000 0 0 1
5.955663 -12.417398 22.934672 26.751838 -1.123583 0.540771 0.024315 0.006778 1018740.000000 0 0 1
5.114263 -11.383598 22.181372 25.451036 -1.148553 0.512480 0.014798 0.022413 16354.900000 0 0 1
5.561563 -10.066098 22.436872 25.212507 -1.066032 0.473648 0.024686 0.011389 -296828.000000 0 0 1
4.691363 -9.130098 21.864472 24.154145 -1.096142 0.438933 0.023309 0.018752 -2474.700000 0 1 0
5.132563 -7.691298 22.171272 24.022168 -0.982341 0.395120 0.025384 -0.001597 516981.000000 0 1 0
4.317563 -6.698298 21.514372 22.942902 -0.998244 0.354744 0.009556 0.000814 292643.000000 0 1 0
4.772863 -5.445898 21.952572 23.116086 -0.851166 0.318627 0.036861 -0.016538 146217.000000 0 1 0
-7.476537 -15.579598 -20.449020 26.772839 1.123363 2.439972 0.030983 -0.008348 -507.731000 0 0 1
-7.050737 -15.023898 -19.253620 25.419133 1.132008 2.430189 0.022150 -0.016147 -194308.000000 0 0 1
-6.422337 -13.757498 -19.392020 24.628553 1.134040 2.477343 0.025637 -0.021571 -225989.000000 0 1 0
-5.698437 -13.361298 -18.137920 23.237483 1.167666 2.466335 0.016069 -0.021429 570609.000000 0 1 0
-4.652937 -14.334798 -17.815220 23.334917 1.256935 2.439446 0.011650 -0.010798 529465.000000 0 1 0
-3.939337 -13.863498 -16.690620 22.052024 1.293942 2.429314 0.012506 -0.013684 -74441.600000 0 1 0
-2.859137 -14.831098 -16.159920 22.119656 1.380353 2.389950 0.012648 0.000128 -13467.200000 0 1 0
-1.681837 -14.725198 -16.944620 22.511779 1.457074 2.422950 0.008595 -0.010146 190225.000000 0 1 0
-0.823337 -15.832698 -16.550720 22.918956 1.518841 2.377689 0.012001 0.009658 429380.000000 0 1 0
0.473163 -15.951698 -17.384320 23.598626 -1.541143 2.398924 0.004117 0.015549 94742.400000 0 1 0
0.277263 -16.741098 -18.586420 25.015920 -1.554236 2.408314 0.007275 0.006705 -41848.600000 0 0 1
0.018563 -18.171398 -18.500920 25.932299 -1.569775 2.365180 0.010584 0.012664 48260.000000 0 0 1
-0.590437 -18.882098 -19.791020 27.359948 1.539537 2.379449 0.015751 0.005398 -473589.000000 0 0 1
-1.872437 -18.440898 -20.082420 27.329039 1.469606 2.396224 0.029940 -0.005674 -898510.000000 0 0 1
-2.151537 -18.657598 -21.427620 28.493473 1.455986 2.421915 0.036326 -0.013792 148507.000000 0 0 1
-3.215737 -17.621998 -21.876720 28.274842 1.390298 2.455483 0.028401 -0.009981 204171.000000 0 0 1
-2.771137 -16.261598 -21.855520 27.382158 1.402008 2.495042 0.026676 0.001654 20207.500000 0 0 1
-3.074637 -15.689698 -20.579420 26.060172 1.377283 2.481098 0.013263 -0.002748 -48429.900000 0 0 1
-2.171637 -14.475998 -20.315620 25.039868 1.421890 2.517222 0.019895 -0.006726 -384084.000000 0 0 1
-2.303837 -13.511198 -21.276720 25.309267 1.401907 2.569314 0.015213 -0.013678 13435.800000 0 0 1
-1.302837 -12.520198 -21.369720 24.801566 1.467111 2.609265 0.000379 -0.001841 -154516.000000 0 1 0
-1.434337 -11.732298 -22.678420 25.573715 1.449145 2.661141 0.012066 0.005265 341148.000000 0 0 1
-2.412337 -10.683298 -22.689720 25.194754 1.348716 2.691883 0.012943 -0.007657 394791.000000 0 0 1
-2.636237 -10.168598 -23.989420 26.188593 1.317128 2.728854 0.022877 -0.010628 -372789.000000 0 0 1
-3.614037 -8.998598 -24.014320 25.898332 1.188892 2.757806 0.014089 -0.008791 -1090610.000000 0 0 1
-4.960737 -9.313298 -23.854620 26.084274 1.081370 2.725119 0.029597 -0.016584 -263453.000000 0 0 1
-5.726037 -8.113998 -23.925520 25.904729 0.956256 2.748155 0.022713 -0.026281 320768.000000 0 0 1
-7.275137 -8.325898 -23.805320 26.247695 0.852649 2.706780 0.014528 -0.031421 509890.000000 0 0 1
-7.949237 -8.689398 -24.955920 27.595180 0.829853 2.700669 0.022395 -0.030157 -194204.000000 0 0 1
-8.408837 -7.565098 -25.666060 28.047922 0.732627 2.726500 0.017932 -0.032432 -18665.700000 0 0 1
-9.299337 -7.961598 -26.891600 29.546961 0.708052 2.714396 0.010950 -0.030250 227464.000000 0 0 1
-9.878137 -6.901598 -27.597600 30.113738 0.609836 2.729902 0.016781 -0.034212 46954.300000 0 0 1
-10.683237 -7.420198 -28.657920 31.471691 0.607069 2.715514 0.026980 -0.027962 135653.000000 0 0 1
-11.447037 -6.331798 -29.450800 32.225393 0.505250 2.723587 0.025278 -0.026551 192710.000000 0 0 1
-10.576337 -5.498498 -30.192420 32.460355 0.479430 2.765569 -0.006554 -0.017292 -96664.200000 0 0 1
-11.291837 -4.879898 -31.214920 33.551308 0.407921 2.766200 0.017068 -0.018603 -322789.000000 0 0 1
-10.463937 -3.887998 -32.003040 33.894028 0.355753 2.805980 0.002289 -0.008905 -521043.000000 0 0 1
-9.343637 -4.361698 -32.685640 34.273591 0.436744 2.835999 -0.001979 -0.000746 -271206.000000 0 0 1
-8.934637 -3.391898 -33.646850 34.977754 0.362828 2.864848 0.006916 0.000091 304496.000000 0 0 1
-7.813137 -3.880098 34.018921 35.119613 0.460934 0.251023 0.010787 -0.000236 1133960.000000 0 0 1
-6.474337 -3.771798 -34.131557 34.944337 0.527510 2.925491 0.007671 -0.004874 -69304.400000 0 0 1
-5.545737 -4.133398 33.548401 34.253983 0.640505 0.203321 0.018337 -0.005617 -746033.000000 0 0 1
-4.116937 -3.799198 33.953968 34.413006 0.745282 0.163517 0.032068 -0.012162 -569120.000000 0 0 1
-3.985537 -2.368698 34.138341 34.451728 0.536235 0.134983 0.038150 -0.018925 167800.000000 0 0 1
-2.665837 -1.953498 -34.181292 34.340699 0.632395 3.045203 0.048458 -0.014297 237544.000000 0 0 1
-2.686037 -0.560898 -33.710350 33.821844 0.205862 3.060373 0.046107 -0.018043 -4277.250000 0 0 1
-3.200737 -0.465598 -32.383740 32.544864 0.144453 3.042045 0.037127 -0.014572 81799.000000 0 0 1
-3.941637 0.685902 -32.102980 32.351326 -0.172289 3.017606 0.044312 -0.013057 -628426.000000 0 0 1
-4.475537 0.722702 -30.695310 31.028291 -0.160096 2.994959 0.029932 -0.015285 621809.000000 0 0 1
-5.503837 -0.217998 -30.405690 30.900579 0.039588 2.962381 0.023059 -0.015680 598946.000000 0 0 1
-6.849537 0.066502 -30.758640 31.512133 -0.009709 2.922471 0.030100 -0.015072 2077.680000 0 0 1
-7.794637 -1.111898 -30.602620 31.599257 0.141693 2.889771 0.024284 -0.013384 -250199.000000 0 0 1
-8.058037 -1.447998 -29.261290 30.385059 0.177799 2.868776 0.018062 -0.014723 -45525.100000 0 0 1
-8.829237 -2.615698 -29.143770 30.563977 0.288017 2.835550 0.001239 -0.015464 -198243.000000 0 0 1
-9.128137 -3.126098 -27.724690 29.355644 0.329949 2.806688 -0.009375 -0.021066 356093.000000 0 0 1
-10.077737 -2.302398 -27.026210 28.935754 0.224609 2.776267 -0.010791 -0.022681 516482.000000 0 0 1
-10.383537 -2.885698 -25.761660 27.925047 0.271070 2.745379 -0.008355 -0.019329 568349.000000 0 0 1
-11.372737 -1.974098 -24.916020 27.459867 0.171869 2.707760 -0.008648 -0.021457 437723.000000 0 0 1
-10.750537 -0.850598 -24.406720 26.683058 0.078957 2.725536 0.004799 -0.021080 -362483.000000 0 0 1
-11.616937 -0.081198 -23.647420 26.346922 0.006990 2.684955 0.010385 -0.020843 -261283.000000 0 0 1
-10.877637 1.079502 -22.938520 25.409920 -0.098917 2.696890 0.021291 -0.025705 250358.000000 0 0 1
-10.396137 1.996902 -23.918320 26.156325 -0.189770 2.724912 0.014412 -0.025221 273136.000000 0 0 1
-9.625637 3.096502 -23.405020 25.495808 -0.311238 2.733791 0.024554 -0.021066 -108524.000000 0 0 1
-9.521837 4.288002 -24.440920 26.578392 -0.423131 2.737803 0.035905 -0.026110 148204.000000 0 0 1
-10.734837 5.027602 -24.499320 27.216359 -0.438004 2.690953 0.038455 -0.027121 407119.000000 0 0 1
-11.580737 4.499102 -25.526370 28.389276 -0.370552 2.688632 0.030296 -0.028822 151634.000000 0 0 1
-12.926637 5.217102 -25.809110 29.333024 -0.383600 2.646375 0.023989 -0.018194 314543.000000 0 0 1
-12.837437 6.565802 -26.290370 29.984882 -0.472771 2.639937 0.032183 -0.010804 365923.000000 0 0 1
-14.149737 7.030602 -26.609350 30.946760 -0.461142 2.605758 0.036865 -0.019409 396765.000000 0 0 1
-14.299137 8.531402 -26.859420 31.601877 -0.537943 2.586651 0.049317 -0.011662 -316889.000000 0 0 1
-14.232237 9.296502 -25.652910 30.774232 -0.578622 2.556361 0.062539 -0.013848 122074.000000 0 0 1
-14.475337 10.658702 -25.925000 31.547567 -0.634698 2.535315 0.057365 -0.011065 -47979.900000 0 0 1
-14.178237 11.581702 -24.707520 30.750932 -0.684940 2.503901 0.048619 -0.008001 275153.000000 0 0 1
-15.045637 11.264702 -23.619720 30.185359 -0.642670 2.469450 0.062308 -0.007994 240902.000000 0 0 1
-14.540337 11.819002 -22.417820 29.217613 -0.682523 2.445371 0.055451 -0.008186 -212676.000000 0 0 1
-15.376937 11.612202 -21.111020 28.582663 -0.646802 2.401781 0.058996 -0.006260 -517947.000000 0 0 1
-16.587537 12.290002 -21.183220 29.579036 -0.637663 2.369076 0.052254 -0.011328 -681667.000000 0 0 1
-17.154637 12.587102 -19.904520 29.136003 -0.633015 2.322876 0.050437 -0.002700 -176865.000000 0 0 1
-18.619937 13.012102 -20.070620 30.312484 -0.609938 2.294446 0.053576 -0.009143 -420838.000000 0 0 1
-18.885037 14.131502 -20.884420 31.504016 -0.642406 2.295499 0.047362 -0.007507 495924.000000 0 0 1
-20.293937 14.282802 -21.048120 32.540217 -0.613269 2.274222 0.023706 -0.003662 652668.000000 0 0 1
-20.800837 15.700302 -21.465820 33.763231 -0.646561 2.259809 0.025392 -0.005093 -170079.000000 0 0 1
-20.517137 15.856202 -22.843220 34.556979 -0.657951 2.292988 0.037141 -0.009966 173823.000000 0 0 1
-20.849437 17.174302 -23.322820 35.687668 -0.689044 2.283030 0.026966 -0.004530 29555.800000 0 0 1
-20.813737 17.350102 -24.893820 36.795924 -0.694889 2.313847 0.030324 -0.004127 819884.000000 0 0 1
-19.501037 17.403802 -25.481200 36.503073 -0.728631 2.343476 0.035208 -0.010846 578277.000000 0 0 1
-19.554437 16.874502 -26.770900 37.199542 -0.711964 2.374104 0.033543 -0.017068 -53732.500000 0 0 1
-18.441037 17.350802 -27.723680 37.546300 -0.754947 2.401471 0.017215 -0.010000 -16219.700000 0 0 1
-18.674637 18.641702 -28.284870 38.681895 -0.784516 2.390901 -0.007485 -0.021003 249861.000000 0 0 1
-18.107837 19.682502 -27.523390 38.377489 -0.827043 2.370537 -0.011683 -0.029782 -1276110.000000 0 0 1
-18.724937 21.057902 -27.864660 39.629507 -0.843974 2.350585 0.020426 -0.021504 284389.000000 0 0 1
-19.844637 21.512902 -27.142890 39.916802 -0.825714 2.318541 0.032001 -0.006568 681400.000000 0 0 1
-21.060937 20.745102 -27.244400 40.201737 -0.777844 2.315416 0.057775 -0.022217 37615.000000 0 0 1
-22.101637 21.305002 -26.251810 40.392364 -0.767047 2.278276 0.056324 -0.003204 -128404.000000 0 0 1
-22.166437 20.713102 -24.948120 39.278394 -0.751518 2.259014 0.020498 0.001363 500168.000000 0 0 1
-23.251337 21.254402 -24.163920 39.702259 -0.740559 2.225127 0.023146 -0.015088 598482.000000 0 0 1
-23.038237 20.798502 -22.692520 38.448518 -0.734350 2.202110 0.027650 -0.003285 -19655.300000 0 0 1
-22.054137 21.560202 -22.037920 37.906427 -0.774074 2.191216 0.026170 -0.006999 24434.700000 0 0 1
-21.067137 20.778802 -21.348520 36.487562 -0.778508 2.195788 0.016194 -0.002801 -19409.400000 0 0 1
-21.298137 20.181502 -19.952520 35.482485 -0.758485 2.167985 0.024528 -0.006955 -1093700.000000 0 0 1
-22.337537 19.230902 -19.990220 35.614633 -0.710801 2.166743 0.049061 -0.006544 -79490.600000 0 0 1
-22.700837 18.709802 -18.700920 34.858415 -0.689318 2.137059 0.033005 -0.004188 -425498.000000 0 0 1
-23.682637 19.656502 -18.075020 35.692461 -0.692766 2.101813 0.032065 -0.009033 -667313.000000 0 0 1
-25.013037 19.578502 -18.576220 36.797361 -0.664123 2.099975 0.035172 -0.014546 378206.000000 0 0 1
-25.887147 20.575002 -18.051320 37.673934 -0.671560 2.070478 0.031420 -0.015899 -84818.000000 0 0 1
-27.236057 20.520202 -18.860420 38.969180 -0.645687 2.075997 0.010963 0.007957 758735.000000 0 0 1
-28.061397 19.385702 -18.620120 38.858157 -0.604546 2.070519 0.017346 0.004100 363694.000000 0 0 1
-28.697437 19.367802 -17.339620 38.721016 -0.593679 2.035110 0.016451 0.000371 -904661.000000 0 0 1
-29.531967 18.067302 -17.150020 38.635317 -0.549042 2.030737 0.012378 0.003417 -208246.000000 0 0 1
-28.788047 16.877102 -16.913920 37.412150 -0.530251 2.039911 0.027119 -0.004528 -41985.100000 0 0 1
-29.560417 15.780802 -16.513020 37.356818 -0.490359 2.028662 0.016613 -0.002605 -21187.900000 0 0 1
-28.676637 14.654602 -15.901020 35.915865 -0.472432 2.029437 0.037540 -0.002993 -152883.000000 0 0 1
-28.101517 15.039402 -14.664520 35.084570 -0.491395 2.002013 0.031808 -0.005805 188585.000000 0 0 1
-28.942957 15.388502 -13.547020 35.468613 -0.488672 1.962695 0.014322 -0.003295 248609.000000 0 0 1
-28.121177 16.135902 -12.460020 34.733558 -0.520931 1.937705 0.010499 -0.005060 263005.000000 0 0 1
-27.915897 17.531002 -12.665120 35.313434 -0.560749 1.937616 0.019334 -0.003671 240847.000000 0 0 1
-29.068647 18.308302 -12.422420 36.530764 -0.562065 1.917770 0.005875 -0.005618 -189490.000000 0 0 1
-28.630197 19.806702 -12.504520 36.991305 -0.605209 1.915629 0.038807 -0.021317 309190.000000 0 0 1
-27.804577 20.242202 -11.427920 36.241394 -0.629283 1.891598 0.003333 -0.026067 140187.000000 0 0 1
-26.608957 20.857802 -11.825220 35.817878 -0.664824 1.907257 0.014486 -0.026364 -58375.400000 0 0 1
-25.766397 21.436302 -10.679720 35.177815 -0.693920 1.879257 0.030767 -0.012347 -6709.340000 0 0 1
-26.237247 22.699102 -10.252720 36.176797 -0.713223 1.858140 0.058219 -0.025897 209873.000000 0 0 1
-25.212827 23.654202 -10.043320 36.001059 -0.753514 1.853521 0.060092 -0.024491 133693.000000 0 0 1
-25.883757 24.876502 -9.386920 37.106920 -0.765557 1.826545 0.083919 -0.015063 193593.000000 0 0 1
-26.173137 24.550802 -8.054420 36.778372 -0.753425 1.791585 0.076873 -0.025766 -350802.000000 0 0 1
-27.254297 25.253102 -7.545620 37.913748 -0.747304 1.771155 0.085575 -0.027146 -342177.000000 0 0 1
-27.639567 24.808202 -6.111120 37.639585 -0.731466 1.733877 0.086318 -0.028307 -135944.000000 0 0 1
-27.796637 23.429902 -6.156120 36.871550 -0.700360 1.738543 0.082705 -0.037461 -16299.500000 0 0 1
-27.773607 22.727102 -4.962820 36.228773 -0.685799 1.708214 0.065707 -0.031615 -221591.000000 0 0 1
-27.872897 21.218102 -5.116020 35.401694 -0.650659 1.715818 0.047246 -0.026754 -331093.000000 0 0 1
-26.842137 20.621602 -5.886920 34.357046 -0.655082 1.742991 0.049514 -0.029753 204749.000000 0 0 1
-26.820827 20.717502 -7.277820 34.663213 -0.657709 1.782328 0.045552 -0.026567 -766739.000000 0 0 1
-27.821727 19.745302 -7.920020 35.023595 -0.617212 1.798903 0.025839 -0.025677 -254486.000000 0 0 1
-27.493077 18.352702 -7.783320 33.959845 -0.588606 1.802044 0.015233 -0.020022 369349.000000 0 0 1
-27.044747 17.847502 -9.065220 33.647138 -0.583321 1.843587 0.001486 -0.016547 -239330.000000 0 0 1
-26.629707 16.364902 -9.008320 32.528467 -0.551039 1.851401 0.010539 -0.007856 -272005.000000 0 0 1
-27.612587 15.464702 -8.560520 32.785584 -0.510534 1.834964 -0.007485 -0.007671 -137911.000000 0 0 1
-27.178747 14.112802 -8.611120 31.812056 -0.478936 1.844903 0.001757 -0.009214 -133135.000000 0 0 1
-27.915037 13.159702 -7.674420 31.801318 -0.440523 1.814526 0.006700 -0.011816 288591.000000 0 0 1
-29.263097 12.863302 -8.014520 32.954908 -0.414150 1.816456 0.019521 -0.009161 246782.000000 0 0 1
-29.859777 11.915702 -7.150120 32.935004 -0.379692 1.789637 0.032029 -0.012395 -13577.500000 0 0 1
-30.536997 10.709302 -7.813920 33.290460 -0.337298 1.807726 0.028445 -0.013135 -64670.200000 0 0 1
-29.627547 9.724902 -8.259720 32.258150 -0.317158 1.829731 0.036385 -0.008210 121377.000000 0 0 1
-30.296917 8.522302 -8.576420 32.620359 -0.274207 1.836840 0.025526 -0.005574 108308.000000 0 0 1
-29.295137 7.432602 -9.132220 31.572870 -0.248472 1.864232 0.051738 -0.007299 403368.000000 0 0 1
-28.806027 7.655802 -10.472820 31.592380 -0.259766 1.908688 0.051988 -0.020220 350789.000000 0 0 1
-27.745157 6.765202 -10.741020 30.511166 -0.239167 1.930541 0.066155 -0.028358 -496017.000000 0 0 1
-27.169567 6.883702 -12.123320 30.537610 -0.248139 1.979038 0.065138 -0.026640 -365153.000000 0 0 1
-26.573577 8.169802 -12.125620 30.330370 -0.298269 1.982078 0.068690 -0.029073 670280.000000 0 0 1
-25.613207 8.340002 -13.173120 29.985382 -0.314787 2.025636 0.064084 -0.019070 -106120.000000 0 0 1
-31.751317 26.438102 -33.353040 53.099385 -0.694342 2.249937 0.013354 -0.016330 18450.800000 0 0 1
-32.154557 27.710502 -33.828490 54.278488 -0.711300 2.243674 0.019851 -0.022617 180952.000000 0 0 1
-31.726427 27.891502 33.471723 53.896737 -0.721162 0.900735 0.019212 -0.024946 58545.400000 0 0 1
-32.075817 29.333902 33.050392 54.604618 -0.740778 0.920695 0.030965 -0.026528 102862.000000 0 0 1
-32.095927 29.604802 31.639762 53.922791 -0.745046 0.943744 0.042327 -0.023301 25346.900000 0 0 1
-32.502337 30.924302 31.386112 54.752191 -0.760524 0.960343 0.052021 -0.033047 23693.000000 0 0 1
-32.509547 31.371502 29.952452 54.205084 -0.767585 0.985344 0.058372 -0.033071 -350675.000000 0 0 1
-31.197687 31.496002 29.484252 53.241102 -0.790156 0.983890 0.040826 -0.024919 -241972.000000 0 0 1
-31.243377 32.211302 28.254052 53.028370 -0.800651 1.008878 0.066059 -0.026099 -482601.000000 0 0 1
-29.926757 32.274802 27.502032 51.900245 -0.823129 1.012312 0.066940 -0.023072 -768809.000000 0 0 1
-29.586317 31.061402 26.846932 50.605520 -0.809716 1.011590 0.065337 -0.022487 115726.000000 0 0 1
-28.492667 31.127102 25.952542 49.540519 -0.829557 1.019414 0.051995 -0.017033 -162136.000000 0 0 1
-28.546337 32.001802 24.666482 49.471649 -0.842406 1.048815 0.067291 -0.026569 -484422.000000 0 0 1
-28.206757 33.379002 25.057432 50.375131 -0.869186 1.050178 0.059370 -0.022825 212696.000000 0 0 1
-28.809587 -34.336584 24.321952 50.995594 0.872703 1.073624 0.060760 -0.014761 -211075.000000 0 0 1
-28.771107 -33.062284 25.091462 50.502205 0.854686 1.050844 0.065457 -0.021141 -137252.000000 0 0 1
-29.608467 -33.171884 26.216182 51.617084 0.842097 1.038054 0.058925 -0.022870 207037.000000 0 0 1
-29.624937 -32.080784 27.044592 51.363640 0.825176 1.016280 0.047419 -0.023955 -359605.000000 0 0 1
-29.968427 -32.465084 28.488912 52.570965 0.825366 0.998084 0.054002 -0.032855 248346.000000 0 0 1
-31.322227 -32.896584 28.573292 53.662838 0.809909 1.009293 0.047254 -0.030851 176164.000000 0 0 1
-31.590367 -33.216084 29.915962 54.737778 0.810479 0.992579 0.029552 -0.022745 -10444.800000 0 0 1
-33.002197 -33.776084 30.146642 56.024895 0.796987 1.002623 0.049126 -0.030800 101462.000000 0 0 1
-33.307817 -33.892984 31.562152 57.046599 0.794106 0.984512 0.051585 -0.029771 -594564.000000 0 0 1
-34.654953 -34.239184 31.690902 58.117130 0.779363 0.994057 0.063296 -0.031190 -541875.000000 0 0 1
-35.150395 34.124102 33.114354 59.131760 -0.770584 0.976399 0.054169 -0.033061 -4489.360000 0 0 1
-34.784954 32.837002 33.546365 58.426196 -0.756600 0.959211 0.028749 -0.022121 189948.000000 0 0 1
-35.498230 32.515102 -33.884500 58.868630 -0.741565 2.184128 0.048744 -0.020961 491804.000000 0 0 1
-35.090212 31.119602 -33.294940 57.517873 -0.725500 2.188129 0.025392 -0.019363 -120736.000000 0 0 1
-33.937867 31.171502 -32.519220 56.399832 -0.742936 2.185337 0.028740 -0.022597 -696175.000000 0 0 1
-33.684937 29.873502 -32.015220 55.245592 -0.725502 2.188920 0.022972 -0.020390 136359.000000 0 0 1
-32.817027 29.930202 -30.760990 54.027889 -0.739423 2.176516 0.019659 -0.014563 68145.700000 0 0 1
-33.553607 30.313102 -29.602470 54.046600 -0.734703 2.150434 0.025279 -0.023319 -60461.600000 0 0 1
-33.833117 31.707602 -29.353310 54.878672 -0.752979 2.135158 0.014851 -0.013555 -508510.000000 0 0 1
-34.883867 31.867202 -28.308820 55.079870 -0.740236 2.110591 0.009528 -0.010905 -770158.000000 0 0 1
-34.434382 31.468202 -27.015440 53.905551 -0.740420 2.095738 -0.000668 -0.019709 -154349.000000 0 0 1
-35.482534 31.173502 -26.130030 53.977550 -0.720842 2.076120 0.012071 -0.014111 -349421.000000 0 0 1
-34.930797 30.912402 -24.707920 52.784643 -0.724444 2.057924 0.020203 -0.012624 217085.000000 0 0 1
-34.366130 32.086002 -24.084520 52.826192 -0.751099 2.044202 0.020291 -0.011121 -93395.800000 0 0 1
-34.140137 31.966502 -22.663020 51.971326 -0.752529 2.022021 0.007955 -0.012176 -279178.000000 0 0 1
-35.285115 31.642202 -21.660320 52.109863 -0.731021 1.999472 0.005410 -0.007195 331090.000000 0 0 1
35.611291 32.730402 -21.377320 52.881311 0.743269 1.986956 0.008932 -0.008297 543177.000000 0 0 1
-35.685189 33.765902 -20.560720 53.257038 -0.757770 1.967159 0.012545 -0.009998 -243119.000000 0 0 1
-35.559097 33.565902 -19.008120 52.463586 -0.756571 1.941542 0.014899 -0.011229 89708.000000 0 0 1
-34.596563 32.549802 -18.793620 51.084361 -0.754926 1.947539 0.020302 -0.017082 67625.700000 0 0 1
-34.292808 32.305402 -17.450720 50.241052 -0.755565 1.925529 0.035428 -0.016569 384961.000000 0 0 1
-33.020687 31.408902 -17.269520 48.735216 -0.760387 1.933020 0.031022 -0.011688 370036.000000 0 0 1
-32.900387 30.950202 -15.913820 47.891546 -0.754865 1.909525 0.042063 -0.008385 499762.000000 0 0 1
-31.801137 30.046002 -15.714020 46.486611 -0.757027 1.915623 0.043271 -0.009163 125371.000000 0 0 1
-31.536957 29.822502 -14.194220 45.666587 -0.757464 1.886855 0.052423 -0.010061 -694347.000000 0 0 1
-32.522187 29.085802 -13.568720 45.692305 -0.729678 1.872302 0.052262 -0.009621 -342958.000000 0 0 1
-32.296997 28.856302 -12.177720 44.989766 -0.729194 1.844893 0.071421 -0.020548 -37343.500000 0 0 1
-33.420247 28.009802 -11.559620 45.111936 -0.697550 1.829930 0.064553 -0.018321 -140770.000000 0 0 1
-32.952467 27.428902 -10.373020 44.111329 -0.694174 1.808175 0.073805 -0.015141 -345800.000000 0 0 1
-33.832397 26.580002 -9.757920 44.117396 -0.665922 1.793821 0.073685 -0.012425 -879767.000000 0 0 1
-33.213897 25.979602 -8.495020 43.014742 -0.663787 1.769594 0.063303 -0.017494 183284.000000 0 0 1
-32.781207 26.782002 -7.343320 42.962862 -0.685017 1.742562 0.077852 -0.022097 -926743.000000 0 0 1
-31.596737 27.421102 -7.523720 42.507376 -0.714764 1.748732 0.072665 -0.027193 -1413840.000000 0 0 1
-30.988597 27.938002 -6.146920 42.173567 -0.733675 1.717070 0.087992 -0.027551 104876.000000 0 0 1
-30.365987 26.985502 -5.299520 40.968225 -0.726523 1.700517 0.103286 -0.037847 232662.000000 0 0 1
-30.013567 27.512002 -4.020520 40.913189 -0.741939 1.669225 0.103876 -0.036900 86060.000000 0 0 1
-29.171367 26.561302 -3.150320 39.577720 -0.738600 1.650479 0.100800 -0.033290 31302.400000 0 0 1
-29.910777 25.392002 -2.867620 39.339949 -0.703870 1.643754 0.093891 -0.027346 170182.000000 0 0 1
-29.156497 24.436302 -2.112320 38.101130 -0.697550 1.626265 0.078185 -0.029054 155474.000000 0 0 1
-29.990607 23.255202 -1.628020 37.985410 -0.659570 1.613669 0.078913 -0.030033 -54208.300000 0 0 1
-30.282257 22.298202 -2.678420 37.701444 -0.634705 1.641899 0.057846 -0.027189 -29393.200000 0 0 1
-31.253757 21.335702 -2.361120 37.915490 -0.598994 1.633110 0.051649 -0.019641 -46465.300000 0 0 1
-31.595077 20.499102 -3.627820 37.836797 -0.575536 1.666825 0.043095 -0.016469 349638.000000 0 0 1
-30.536627 19.562002 -3.803220 36.463982 -0.569744 1.675287 0.041114 -0.019302 562107.000000 0 0 1
-30.791907 18.922002 -4.992120 36.484311 -0.551022 1.708056 0.040578 -0.019361 553820.000000 0 0 1
-29.780087 17.741502 -5.381120 35.079495 -0.537289 1.724802 0.037655 -0.009374 569639.000000 0 0 1
-29.889047 16.558402 -4.557820 34.471866 -0.505906 1.703403 0.030784 -0.015334 581815.000000 0 0 1
-28.979717 15.568602 -5.053820 33.282826 -0.492982 1.723231 0.011911 -0.016106 185292.000000 0 0 1
-28.793347 14.505702 -3.946920 32.481540 -0.466672 1.692610 0.012723 -0.019806 -365174.000000 0 0 1
-29.990287 13.863202 -3.653820 33.240880 -0.432999 1.680938 0.038496 -0.018275 -22738.000000 0 0 1
-29.650697 12.623802 -3.110120 32.375872 -0.402506 1.667008 0.037309 -0.019452 -250424.000000 0 0 1
-30.805897 11.707702 -2.675420 33.064051 -0.363188 1.651801 0.053621 -0.015915 -641982.000000 0 0 1
-31.552967 11.288502 -3.778920 33.723883 -0.343574 1.683087 0.045132 -0.009943 533543.000000 0 0 1
-32.650687 10.476402 -3.359120 34.454406 -0.310486 1.668446 0.045402 -0.011457 403452.000000 0 0 1
-33.615987 10.033002 -4.504120 35.369236 -0.290043 1.698489 0.039921 -0.013573 349756.000000 0 0 1
-33.035367 9.083402 -5.455420 34.693015 -0.268329 1.728700 0.034938 -0.013761 971941.000000 0 0 1
-34.061750 8.615802 -6.332820 35.700693 -0.247750 1.749127 0.049576 -0.008918 274490.000000 0 0 1
-33.573927 7.602502 -7.375420 35.205162 -0.222685 1.781858 0.051300 -0.010861 -566227.000000 0 0 1
-33.179417 6.377302 -6.843620 34.472871 -0.189891 1.770646 0.045531 -0.004571 337096.000000 0 0 1
-32.675847 5.530602 -7.823920 34.051612 -0.167668 1.802634 0.044658 -0.010218 -15661.900000 0 0 1
-31.578867 4.522502 -7.346720 32.736099 -0.142246 1.797147 0.052461 -0.015265 1070420.000000 0 0 1
-30.220387 4.957002 -7.186120 31.456065 -0.162581 1.801281 0.051419 -0.011367 1318790.000000 0 0 1
-29.366287 3.914602 -6.723020 30.379301 -0.132521 1.793946 0.051647 -0.014734 119876.000000 0 0 1
-27.917277 4.271102 -6.344920 28.946065 -0.151814 1.791789 0.072411 -0.010254 174427.000000 0 0 1
-27.134667 4.614102 -7.492520 28.525742 -0.168433 1.836572 0.071124 -0.012952 -545545.000000 0 0 1
-25.834347 4.889902 -7.095920 27.233743 -0.187066 1.834395 0.090332 -0.023446 -798128.000000 0 0 1
-24.945137 5.317402 -8.282820 26.816781 -0.210020 1.884798 0.091194 -0.023981 -222646.000000 0 0 1
-24.869737 4.329702 -9.297020 26.901389 -0.172368 1.923670 0.086228 -0.033213 182666.000000 0 0 1
-23.989137 4.745102 -10.283520 26.528202 -0.195281 1.968872 0.085499 -0.037436 -588033.000000 0 0 1
-23.983737 3.850102 -11.547820 26.896005 -0.159172 2.014570 0.082226 -0.046220 -394083.000000 0 0 1
-25.185287 4.013102 -12.248720 28.291957 -0.158015 2.018548 0.081268 -0.018910 54772.600000 0 0 1
-25.391527 3.180702 -13.360420 28.867756 -0.124617 2.051964 0.083218 -0.020483 -106739.000000 0 0 1
-26.489447 3.786802 -14.248320 30.315760 -0.141993 2.060084 0.060413 -0.013108 -432442.000000 0 0 1
-26.054287 4.973402 -14.888620 30.417621 -0.188617 2.082282 0.051317 -0.012678 581269.000000 0 0 1
-27.037287 5.859902 -15.486420 31.704614 -0.213433 2.081120 0.084937 -0.024794 203817.000000 0 0 1
-27.608687 5.296202 -16.795420 32.747145 -0.189529 2.109335 0.040221 0.022397 -542151.000000 0 0 1
-28.939977 4.879702 -16.740920 33.787456 -0.167043 2.089181 0.041884 -0.002764 -342777.000000 0 0 1
-29.297137 4.345302 -18.032020 34.675030 -0.147245 2.117681 0.046487 0.011060 -18292.500000 0 0 1
-30.714027 3.746502 -18.104320 35.849047 -0.121381 2.100196 0.045141 -0.002866 -109460.000000 0 0 1
-30.896687 2.599502 -17.264120 35.488203 -0.083938 2.078847 0.055681 -0.017428 358924.000000 0 0 1
-30.330487 1.350502 -17.740820 35.163888 -0.044497 2.099620 0.079114 -0.019959 164147.000000 0 0 1
-30.630207 0.259902 -16.733120 34.903789 -0.008485 2.070775 0.072553 -0.012960 -78029.200000 0 0 1
-30.129077 -0.997398 -17.161820 34.688387 0.033092 2.088335 0.073732 -0.010903 414482.000000 0 0 1
-30.559207 -2.072598 -16.296820 34.695060 0.067719 2.059765 0.075117 -0.019496 163582.000000 0 0 1
-30.309157 -3.400998 -17.058820 34.945889 0.111743 2.080765 0.065363 -0.013807 541806.000000 0 0 1
-31.365367 -3.570598 -18.013220 36.345723 0.113351 2.089331 0.058930 -0.013570 547688.000000 0 0 1
-31.295267 -4.849298 -18.604920 36.729450 0.153730 2.101963 0.045675 -0.014278 -22085.700000 0 0 1
-32.127447 -5.043498 -19.865020 38.108120 0.155713 2.119147 0.049006 -0.011716 -164910.000000 0 0 1
-32.135067 -6.345998 -20.339720 38.556951 0.194970 2.126480 0.047034 -0.005483 -40039.400000 0 0 1
-33.070667 -6.605098 -21.362420 39.920538 0.197133 2.135450 0.058211 -0.004933 -312593.000000 0 0 1
-32.740527 -7.833798 -22.243420 40.349477 0.234854 2.154681 0.044465 -0.003584 356432.000000 0 0 1
-31.513477 -7.582198 -22.927320 39.702028 0.236114 2.186441 0.031202 -0.003893 264302.000000 0 0 1
-31.250527 -8.513198 -23.959420 40.288011 0.265964 2.207693 0.028272 0.007411 84426.700000 0 0 1
-29.809867 -8.222198 -24.457720 39.426043 0.269130 2.239978 0.044015 0.002166 -241558.000000 0 0 1
-29.579687 -6.998998 -25.186250 39.475196 0.232342 2.262730 0.050020 -0.004636 -101649.000000 0 0 1
-29.842727 -7.001798 -26.598360 40.584311 0.230455 2.285489 0.054582 0.006722 411997.000000 0 0 1
-31.304037 -7.002198 -27.158460 42.030412 0.220061 2.273341 0.041585 0.007893 230771.000000 0 0 1
-32.015737 -8.169898 -26.928420 42.625046 0.249852 2.254606 0.020555 0.009906 -94410.600000 0 0 1
-33.330497 -8.119898 -27.472190 43.949699 0.238963 2.246034 0.029887 0.015681 443954.000000 0 0 1
-34.076335 -9.434998 -27.239050 44.633863 0.270112 2.227207 0.021134 0.010323 -827765.000000 0 0 1
-33.612837 -10.480998 -28.088010 45.040099 0.302261 2.244164 0.015817 0.012796 219588.000000 0 0 1
-34.445380 -11.629898 -28.041990 45.913963 0.325615 2.227805 -0.004733 0.018605 1072870.000000 0 0 1
-35.851180 -11.497498 -28.782280 47.391131 0.310338 2.223498 -0.007283 0.012708 104471.000000 0 0 1
35.146411 -10.650798 -28.117840 46.252813 -0.294244 2.224230 -0.011695 0.020587 -1485410.000000 0 0 1
34.276771 -10.148898 -29.065810 46.072970 -0.287863 2.253464 -0.006288 0.007024 -613893.000000 0 0 1
33.202091 -9.144998 -28.590510 44.759660 -0.268770 2.263677 0.001795 0.013329 -200728.000000 0 0 1
32.241601 -9.754398 -27.786850 43.666671 -0.293786 2.260541 -0.006268 0.014913 -514585.000000 0 0 1
31.291391 -8.815098 -27.340210 42.477573 -0.274594 2.270040 -0.001990 0.010336 -19062.800000 0 0 1
30.329291 -9.498698 -26.339220 41.277666 -0.303509 2.262823 -0.005826 0.018219 -308306.000000 0 0 1
30.927821 -9.909498 -25.145890 41.073642 -0.310072 2.229655 -0.022594 0.033915 421082.000000 0 0 1
29.937241 -10.367698 -24.221320 39.879819 -0.333388 2.223527 -0.009544 0.024557 327674.000000 0 0 1
30.448701 -10.282098 -22.775020 39.389675 -0.325663 2.187314 -0.012937 0.018404 -326385.000000 0 0 1
31.451801 -11.162998 -22.423020 40.207216 -0.341055 2.162392 -0.029532 0.026225 -205499.000000 0 0 1
31.830411 -10.971498 -21.091120 39.728884 -0.331933 2.130431 -0.015651 0.019172 17158.400000 0 0 1
32.595771 -12.135698 -20.342820 40.293794 -0.356409 2.100019 -0.017969 0.011790 -400208.000000 0 0 1
33.942631 -12.178798 -20.703820 41.582130 -0.344498 2.091974 -0.017531 0.015822 -718094.000000 0 0 1
34.594711 -13.096498 -19.864420 41.986992 -0.361896 2.063613 -0.005388 0.007768 -230463.000000 0 0 1
-35.819445 -13.420798 -20.436920 43.368401 0.358489 2.061492 0.001155 0.005063 -80942.300000 0 0 1
-34.830730 -12.389698 -20.326620 42.188338 0.341754 2.073512 0.013309 0.001752 548431.000000 0 0 1
-34.913730 -11.297398 -21.238020 42.398742 0.312947 2.095448 -0.000240 0.022684 -633620.000000 0 0 1
-34.268011 -11.497098 -22.692320 42.678112 0.323704 2.131413 -0.004509 0.015966 595381.000000 0 0 1
-35.017772 -12.300598 -23.632520 44.000512 0.337803 2.137788 -0.010343 0.018401 1885680.000000 0 0 1
35.448561 -11.847798 -23.949120 44.390666 -0.322553 2.140649 -0.021988 0.025296 615583.000000 0 0 1
34.667391 -12.738398 -24.890620 44.538049 -0.352132 2.163809 -0.017179 0.020455 -171401.000000 0 0 1
34.455751 -14.066998 -24.388320 44.495724 -0.387609 2.150893 -0.009695 0.009084 385262.000000 0 0 1
33.598461 -14.146198 -23.268620 43.248124 -0.398509 2.138890 -0.021018 0.009830 -684914.000000 0 0 1
-29.432787 8.422402 -19.462720 36.277036 -0.278709 2.137083 0.016412 0.025302 -188169.000000 0 0 1
-28.473147 7.485802 -19.859720 35.512897 -0.257089 2.164248 0.019802 0.021879 -385510.000000 0 0 1
-27.567997 8.150202 -20.694820 35.421686 -0.287452 2.194742 0.035036 0.005375 -722689.000000 0 0 1
-26.369987 7.383202 -21.228020 34.648474 -0.272995 2.230229 0.040006 0.005509 -451163.000000 0 0 1
-25.395867 7.244002 -20.211820 33.255726 -0.277864 2.224045 0.045533 0.006811 -448823.000000 0 0 1
-24.414637 6.346202 -20.614120 32.577458 -0.254307 2.255925 0.072303 -0.008554 -544421.000000 0 0 1
-22.999537 6.621002 -20.098320 31.253142 -0.280297 2.269312 0.060122 -0.014075 358208.000000 0 0 1
-22.321237 7.781602 -20.704420 31.423940 -0.335444 2.290117 0.065984 -0.011069 216617.000000 0 0 1
-21.181837 8.207802 -20.006420 30.270367 -0.369678 2.292846 0.057042 -0.010510 -83512.900000 0 0 1
-20.427037 9.400002 -20.611020 30.503083 -0.431283 2.312714 0.065699 -0.011485 -176266.000000 0 0 1
-19.791837 9.065102 -21.805220 30.811695 -0.429505 2.357024 0.077796 -0.022609 -107708.000000 0 0 1
-19.327837 10.113502 -22.620820 31.425304 -0.482083 2.374351 0.064249 -0.017090 502805.000000 0 0 1
-18.255937 9.725702 -23.692620 31.451690 -0.489497 2.423865 0.077064 -0.015741 750052.000000 0 0 1
-18.877237 8.950202 -24.725620 32.369932 -0.442736 2.440047 0.075948 -0.018362 -204063.000000 0 0 1
-17.859637 8.351102 -25.427280 32.175365 -0.437390 2.482049 0.055391 -0.013237 -621685.000000 0 0 1
-18.309437 7.266902 -26.439190 32.970808 -0.377826 2.501260 0.041102 -0.009612 -114567.000000 0 0 1
-18.816437 6.133402 -25.760950 32.485435 -0.315100 2.486514 0.055484 -0.008331 195343.000000 0 0 1
-19.394537 5.197502 -26.653130 33.369919 -0.261836 2.495957 0.048519 -0.008992 -670759.000000 0 0 1
-19.756737 3.854702 -25.985720 32.870124 -0.192688 2.482515 0.043451 0.002237 -288766.000000 0 0 1
-18.732537 2.951002 -25.739020 31.970511 -0.156249 2.506617 0.034550 -0.002373 29093.500000 0 0 1
-17.605837 3.346402 -24.957020 30.724856 -0.187833 2.518838 0.033478 -0.011828 -552120.000000 0 0 1
-16.781737 2.132102 -24.640320 29.888425 -0.126372 2.539956 0.027433 -0.011536 -710108.000000 0 0 1
-17.256337 1.188802 -23.693720 29.335760 -0.068782 2.510992 0.024230 -0.014746 343931.000000 0 0 1
-18.511737 0.541502 -23.933520 30.262040 -0.029243 2.483035 0.025646 -0.006649 305705.000000 0 0 1
-19.013637 -0.163798 -22.666820 29.585976 0.008615 2.443600 0.051899 -0.004955 -148848.000000 0 0 1
-18.301037 -1.315598 -22.309120 28.885215 0.071763 2.453308 0.041820 0.000222 36148.000000 0 0 1
-18.849337 -1.856798 -21.118220 28.367666 0.098191 2.410502 0.053492 -0.002420 -181276.000000 0 0 1
-18.306537 -3.261498 -20.711820 27.834263 0.176310 2.410002 0.026946 -0.009151 -9597.250000 0 0 1
-18.569237 -4.234498 -21.671220 28.851159 0.224204 2.420582 0.039231 -0.016551 190174.000000 0 0 1
-18.416737 -5.575898 -21.165620 28.605076 0.293989 2.403756 0.049251 -0.007067 18292.800000 0 0 1
-18.440037 -6.679798 -22.235320 29.649016 0.347541 2.418785 0.023021 -0.007862 376502.000000 0 0 1
-17.315037 -6.534198 -23.101920 29.600760 0.360848 2.466182 0.017232 0.000340 270929.000000 0 0 1
-17.447337 -7.399398 -24.207320 30.743374 0.401107 2.477375 0.032509 -0.011106 374251.000000 0 0 1
-16.092737 -7.619798 -24.930220 30.635819 0.442218 2.521390 0.022718 -0.013420 -583713.000000 0 0 1
-16.157037 -8.506198 -26.052010 31.813716 0.484599 2.530275 0.031308 -0.031347 455288.000000 0 0 1
-14.928237 -8.656298 -26.770920 31.850682 0.525480 2.569026 0.042370 -0.033455 910347.000000 0 0 1
-13.769237 -9.484698 -26.100090 30.996228 0.603192 2.571852 0.049485 -0.034718 -32837.100000 0 0 1
-13.302037 -8.818298 -24.942220 29.611162 0.585410 2.572379 0.039519 -0.029904 -226328.000000 0 0 1
-12.725337 -9.848198 -24.152120 29.021477 0.658625 2.553888 0.021110 -0.027615 9361.450000 0 0 1
-11.793037 -9.322598 -23.042420 27.512537 0.668932 2.563533 0.032608 -0.020773 204549.000000 0 0 1
-12.527537 -8.848598 -21.933120 26.763756 0.614963 2.531349 0.029337 -0.011373 -36726.300000 0 0 1
-11.596137 -8.540998 -20.959820 25.430948 0.634830 2.539559 0.020438 -0.011521 -750656.000000 0 0 1
-12.116837 -8.240498 -19.526320 24.413127 0.597236 2.497806 0.007772 -0.003190 -120120.000000 0 1 0
-12.710637 -6.945098 -19.315920 24.143311 0.500075 2.498179 0.001478 0.011312 612826.000000 0 1 0
-14.107737 -6.898298 -19.573720 25.094727 0.454787 2.465452 0.001702 -0.002063 98806.000000 0 0 1
-14.661537 -5.463598 -19.275420 24.826466 0.356707 2.459739 0.009195 0.000451 -340615.000000 0 1 0
-14.816437 -5.179398 -17.900920 23.807476 0.336293 2.421741 0.002001 0.007379 209153.000000 0 1 0
-14.811937 -3.780598 -17.656720 23.354789 0.249904 2.428009 0.002860 0.003428 -873574.000000 0 1 0
-14.812237 -3.376098 -16.178820 22.193572 0.224098 2.387637 0.014332 -0.007522 -777623.000000 0 1 0
-15.976137 -3.537498 -15.449320 22.504052 0.217908 2.327479 0.027271 -0.006985 -332737.000000 0 1 0
-16.822437 -2.367598 -15.679220 23.117912 0.139822 2.316145 0.016201 -0.005580 507758.000000 0 1 0
-18.096737 -2.351998 -14.772020 23.478424 0.129244 2.251287 0.034770 -0.013788 217221.000000 0 1 0
-17.737137 -2.302598 -13.402320 22.350172 0.129096 2.213862 0.038269 -0.027076 449586.000000 0 1 0
-18.624637 -1.554398 -12.609220 22.545193 0.083266 2.164321 0.037439 -0.028453 -49277.100000 0 1 0
-17.917637 -0.282498 -12.012020 21.573367 0.015765 2.161323 0.020240 -0.020844 68775.800000 0 1 0
-17.457137 0.661802 -12.901120 21.717010 -0.037892 2.206888 0.030628 -0.023128 -345045.000000 0 1 0
-16.389737 1.359802 -12.407520 20.601435 -0.082777 2.217132 0.020143 -0.013937 -1205820.000000 0 1 0
-15.740237 2.359702 -13.394520 20.802318 -0.148807 2.270375 0.018441 -0.015032 233785.000000 0 1 0
-15.201837 1.777402 -14.590920 21.145921 -0.116392 2.332301 0.021475 -0.019812 -98674.800000 0 1 0
-13.996837 1.100902 -14.476620 20.166705 -0.078492 2.371502 0.028330 -0.015627 -1227750.000000 0 1 0
-13.620737 0.355902 -15.740620 20.818700 -0.026123 2.428100 0.027796 -0.007864 -106139.000000 0 1 0
-13.476037 1.296602 -16.809320 21.583281 -0.095920 2.463566 0.031133 -0.016974 300483.000000 0 1 0
-13.036337 0.536302 -17.913020 22.161002 -0.041116 2.512077 0.021385 -0.003536 -155065.000000 0 1 0
-12.305437 1.272102 -19.049320 22.713843 -0.103011 2.565625 0.021732 -0.005847 -51906.800000 0 1 0
-11.058337 1.752702 -18.561620 21.677005 -0.157188 2.598823 0.013175 -0.013254 -23857.900000 0 1 0
-10.378037 2.408802 -19.605620 22.313367 -0.228067 2.643822 -0.003985 -0.011416 598659.000000 0 1 0
-8.906337 2.854802 -19.295720 21.442891 -0.310189 2.690258 -0.005498 -0.010215 -210869.000000 0 1 0
-8.054237 1.782302 -19.645520 21.307131 -0.217778 2.744053 -0.000607 -0.000183 1082570.000000 0 1 0
-6.635237 2.040602 -19.445320 20.647298 -0.298360 2.798698 0.005800 0.003941 1726870.000000 0 1 0
-5.970237 3.179002 -20.247920 21.347788 -0.489289 2.819195 0.008102 0.001697 -1029720.000000 0 1 0
-6.106237 2.808402 -21.598620 22.620205 -0.431076 2.839909 0.002996 0.005888 161045.000000 0 1 0
-5.844137 3.925902 -22.452620 23.530551 -0.591526 2.837738 0.018747 0.001051 -344062.000000 0 1 0
-5.303237 3.389302 -23.795520 24.613787 -0.568675 2.883019 0.029674 -0.004646 187912.000000 0 1 0
-4.064937 2.697902 -23.717520 24.214111 -0.585946 2.938719 0.032564 -0.010318 -36205.100000 0 1 0
-3.780637 2.141402 -24.986120 25.361093 -0.515357 2.969419 0.039989 -0.008698 -321011.000000 0 0 1
-2.369437 1.562202 -25.062920 25.223098 -0.582895 3.028835 0.037458 -0.004744 -348308.000000 0 0 1
-1.342537 2.508302 -24.795920 24.958599 -1.079358 3.027356 0.037874 -0.008495 476014.000000 0 1 0
-0.016837 2.027602 -24.636120 24.719423 -1.562492 3.059473 0.037082 -0.006885 574219.000000 0 1 0
0.358063 1.074302 -23.456320 23.483639 1.249078 3.093353 0.036642 -0.016628 -671898.000000 0 1 0
-0.013537 -0.248498 -23.655520 23.656829 1.516373 3.131073 0.033774 -0.016281 95521.300000 0 1 0
0.678063 -1.013298 -22.671020 22.703782 -0.981067 3.087865 0.037965 -0.013756 -356009.000000 0 1 0
0.288263 -2.510698 -22.678520 22.818895 -1.456483 3.030615 0.048473 -0.021885 457531.000000 0 1 0
-0.920037 -2.918698 -22.021220 22.232845 1.265434 3.003508 0.032426 -0.018315 1038250.000000 0 1 0
-2.121837 -2.925498 -22.817220 23.101651 0.943297 2.984510 0.033993 -0.016855 1007250.000000 0 1 0
-2.895337 -1.574398 -22.902320 23.138237 0.498048 2.998671 0.030300 -0.012275 -1483450.000000 0 1 0
-3.408237 -1.162298 -21.652920 21.950307 0.328658 2.976797 0.020729 -0.010376 -143756.000000 0 1 0
-4.375237 -0.162898 -21.694120 22.131518 0.037215 2.942449 0.010824 -0.009507 -83872.500000 0 1 0
-5.701637 -0.381598 -22.434120 23.150465 0.066828 2.892178 0.008842 -0.003576 -717563.000000 0 1 0
-6.488137 -1.372498 -21.763320 22.751303 0.208466 2.845811 0.017287 -0.004662 467090.000000 0 1 0
-7.888237 -1.175398 -21.959320 23.362740 0.147918 2.793219 0.001575 0.000873 897266.000000 0 1 0
-8.690737 -2.475998 -21.522620 23.342722 0.277547 2.744081 0.002065 -0.007434 -71036.800000 0 1 0
-8.632137 -3.520198 -22.480620 24.336883 0.387214 2.748493 0.025202 -0.013604 -85946.200000 0 1 0
-9.294437 -4.663498 -21.931920 24.272287 0.465048 2.698847 0.010570 -0.009653 -577419.000000 0 1 0
-10.101337 -5.417798 -22.987020 25.686430 0.492299 2.679024 0.000759 -0.015567 -1061670.000000 0 0 1
-11.395137 -4.967198 -23.060520 26.197515 0.411071 2.647198 -0.009123 -0.010594 -1647650.000000 0 0 1
-12.215337 -5.663198 -23.893720 27.426195 0.434117 2.628439 -0.010019 -0.021827 -929028.000000 0 0 1
-13.682337 -5.275698 -23.796120 27.951649 0.368018 2.589314 -0.001017 -0.019537 -737285.000000 0 0 1
-13.934937 -4.022398 -24.318220 28.314979 0.281017 2.603810 0.003258 -0.025943 1103480.000000 0 0 1
-15.361137 -3.754198 -24.298420 28.990891 0.239697 2.564660 0.006204 -0.024860 1558050.000000 0 0 1
-15.768337 -2.305498 -24.809420 29.486660 0.145182 2.570624 0.006971 -0.026625 -291847.000000 0 0 1
-15.329037 -1.996598 -26.110920 30.343796 0.129520 2.607052 0.011874 -0.026098 -149604.000000 0 0 1
-15.735637 -0.837198 -26.756210 31.051666 0.053154 2.609343 0.005539 -0.025546 65369.800000 0 0 1
-17.193337 -0.917998 -27.331960 32.303090 0.053342 2.579440 0.022675 -0.012268 290767.000000 0 0 1
-17.440337 -1.641898 -28.529190 33.477991 0.093867 2.590929 0.023698 -0.021716 -13115.400000 0 0 1
-17.008437 -1.041098 -29.736800 34.273140 0.061134 2.621235 0.029330 -0.015732 -400232.000000 0 0 1
-17.224937 -1.880098 -30.956210 35.475628 0.108719 2.631307 0.037647 -0.018955 30167.600000 0 0 1
-18.582337 -2.163398 -31.210660 36.388032 0.115901 2.601610 0.029411 -0.018345 -118703.000000 0 0 1
-18.759237 -3.055098 -32.267790 37.449338 0.161441 2.609286 0.029731 -0.018443 -350363.000000 0 0 1
-20.231737 -3.502898 -32.440500 38.392441 0.171439 2.577307 0.017213 -0.016179 129175.000000 0 0 1
-21.200137 -2.512898 -32.721090 39.069556 0.117982 2.563504 0.018500 -0.010231 165447.000000 0 0 1
-21.676537 -1.849398 -31.580870 38.348976 0.085112 2.538372 0.010379 0.000610 -471863.000000 0 0 1
-22.827337 -0.857498 -31.941050 39.268987 0.037547 2.520755 0.010930 -0.001745 137371.000000 0 0 1
-22.466937 0.337902 -32.688560 39.666351 -0.015039 2.539386 0.006244 -0.007088 607665.000000 0 0 1
-23.609237 1.184902 -32.916630 40.525358 -0.050146 2.518792 0.001472 -0.010976 264908.000000 0 0 1
-23.435437 2.420602 -33.807970 41.207498 -0.102923 2.532963 0.007356 -0.010222 -218163.000000 0 0 1
-22.691337 3.524302 -33.284110 40.436982 -0.154084 2.537663 -0.001261 -0.004366 468775.000000 0 0 1
-23.307437 4.278702 -32.235310 40.008239 -0.181555 2.507681 -0.004332 -0.006866 -505532.000000 0 0 1
-24.374837 5.306402 -32.633610 41.076065 -0.214355 2.488927 -0.012155 -0.014805 -338197.000000 0 0 1
-25.569837 4.712502 -33.066900 42.064762 -0.182254 2.475262 0.014679 -0.028796 -139629.000000 0 0 1
-26.391917 5.497702 -33.891420 43.305732 -0.205373 2.469641 0.030462 -0.035714 180147.000000 0 0 1
-27.583947 4.686902 34.169488 44.163278 -0.168307 0.686123 0.045486 -0.033461 -52902.600000 0 0 1
-27.173347 3.662502 33.270833 43.113258 -0.133975 0.689274 0.053477 -0.035686 1518560.000000 0 0 1
-28.335087 3.020002 32.635262 43.325026 -0.106181 0.717783 0.059466 -0.034060 1095060.000000 0 0 1
-28.488617 1.461002 32.566597 43.293407 -0.051239 0.719356 0.058701 -0.012307 -262152.000000 0 0 1
-28.573797 0.735202 33.793775 44.260836 -0.025724 0.702059 0.068643 -0.011250 271001.000000 0 0 1
-28.935797 -0.574098 33.659643 44.391232 0.019838 0.710172 0.049704 -0.000791 -699535.000000 0 0 1
-28.906547 -1.439098 -33.754660 44.463880 0.049743 2.432799 0.027359 0.012376 1087950.000000 0 0 1
-27.607817 -1.838198 -33.226070 43.238204 0.066484 2.447200 0.037539 -0.001362 1466820.000000 0 0 1
-26.812177 -0.813598 -32.641960 42.249880 0.030335 2.453711 0.038567 -0.006167 -478767.000000 0 0 1
-27.056027 -0.526298 -31.163280 41.272941 0.019450 2.426532 0.054325 -0.001219 60793.600000 0 0 1
-26.152727 -1.308998 -30.346520 40.082290 0.050010 2.429667 0.039069 -0.004090 838531.000000 0 0 1
-26.258807 -0.967398 -29.003720 39.136640 0.036824 2.405487 0.048258 -0.009406 -670380.000000 0 0 1
-25.264007 -1.599498 -28.083780 37.809089 0.063227 2.408007 0.050911 -0.009562 -654068.000000 0 0 1
-25.529307 -2.952898 -27.825200 37.877525 0.115155 2.395888 0.045979 -0.014144 173806.000000 0 0 1
-24.501437 -3.563898 -27.063190 36.680214 0.144444 2.400623 0.058693 -0.014679 40480.000000 0 0 1
-24.892737 -4.902798 -26.372470 36.594986 0.194468 2.375547 0.059241 -0.025264 -156429.000000 0 0 1
-25.976927 -4.713398 -25.511180 36.712902 0.179493 2.339054 0.064858 -0.018445 -400579.000000 0 0 1
-26.107047 -5.691598 -24.470120 36.232016 0.214651 2.312266 0.060671 -0.018140 -96989.200000 0 0 1
-27.294337 -5.497298 -23.522120 36.448475 0.198749 2.272281 0.075232 -0.020084 -183942.000000 0 0 1
-27.287097 -6.438498 -22.485020 35.939061 0.231716 2.246752 0.073784 -0.024177 366376.000000 0 0 1
-28.333417 -6.203098 -21.525420 36.119312 0.215532 2.209249 0.057058 -0.014663 387626.000000 0 0 1
-28.718487 -7.450398 -20.717520 36.186677 0.253833 2.180370 0.065528 -0.025699 -774944.000000 0 0 1
-27.696427 -7.999098 -19.979720 35.075161 0.281162 2.176847 0.066056 -0.023287 -525998.000000 0 0 1
-28.124217 -8.970698 -19.009720 35.111458 0.308766 2.142910 0.072788 -0.016857 134495.000000 0 0 1
-28.944117 -8.447398 -17.790920 35.009103 0.283965 2.103866 0.067478 -0.024093 169201.000000 0 0 1
-28.199867 -7.582398 -16.953220 33.765914 0.262668 2.096800 0.077201 -0.021971 393632.000000 0 0 1
-29.009117 -7.081698 -15.909320 33.834684 0.239437 2.060322 0.078451 -0.019054 -37384.100000 0 0 1
-28.209827 -6.131698 -15.008520 32.536868 0.214031 2.050231 0.081357 -0.022469 -113820.000000 0 0 1
-27.812277 -4.970198 -15.689220 32.316827 0.176838 2.077710 0.066040 -0.019624 210259.000000 0 0 1
-27.050697 -4.116198 -14.852720 31.133368 0.151008 2.068111 0.080370 -0.023885 -14792.200000 0 0 1
-13.994437 21.295302 -5.343220 26.036209 -0.989404 1.777488 0.030816 0.002957 -172525.000000 0 0 1
-13.927437 20.687502 -6.621920 25.803025 -0.978264 1.830334 0.042699 0.006323 188896.000000 0 0 1
-14.873337 19.635802 -6.672720 25.520699 -0.922538 1.835334 0.050196 -0.001922 -318008.000000 0 0 1
-15.010737 19.041202 -8.086720 25.559434 -0.903212 1.892717 0.049989 -0.014941 -125835.000000 0 0 1
-13.882137 18.277302 -8.493420 24.472672 -0.921225 1.925228 0.059291 -0.018726 172827.000000 0 1 0
-14.144737 17.312702 -9.432720 24.264778 -0.885766 1.970061 0.055362 -0.024392 -138480.000000 0 1 0
-14.776737 15.962702 -8.973420 23.530450 -0.823960 1.962056 0.063199 -0.032043 699570.000000 0 1 0
-16.182737 16.043302 -8.720420 24.399063 -0.781071 1.936287 0.065910 -0.021141 665608.000000 0 1 0
-16.530237 15.055102 -7.724020 23.655133 -0.738729 1.903422 0.084279 -0.015838 223370.000000 0 1 0
-17.985037 15.342402 -7.260720 24.729920 -0.706271 1.868788 0.096227 -0.003992 -35265.700000 0 1 0
-18.931937 14.772002 -8.109920 25.345633 -0.662593 1.896497 0.085566 -0.011759 68446.300000 0 0 1
-20.231437 15.332802 -7.881720 26.580583 -0.648519 1.871845 0.056545 -0.006903 108750.000000 0 0 1
-21.283037 14.638202 -8.705920 27.258718 -0.602482 1.895873 0.055085 0.002981 -943569.000000 0 0 1
-21.524337 13.330802 -8.314620 26.648458 -0.554516 1.888106 0.072759 -0.001368 127209.000000 0 0 1
-22.289637 12.648002 -9.299220 27.263077 -0.516133 1.918875 0.061778 -0.003315 -140742.000000 0 0 1
-22.875237 11.359702 -8.828220 27.023264 -0.460919 1.903595 0.058876 -0.006137 -473325.000000 0 0 1
-21.984137 10.278402 -8.724920 25.788991 -0.437342 1.915927 0.071168 -0.013999 97372.500000 0 0 1
-22.481637 9.275802 -7.822120 25.547017 -0.391316 1.881980 0.076341 -0.020872 -16407.000000 0 0 1
-21.296037 8.470402 -7.283020 24.048104 -0.378561 1.878480 0.081038 -0.008933 -169606.000000 0 1 0
-20.917337 7.368802 -8.036820 23.588657 -0.338706 1.918465 0.061432 -0.012824 519114.000000 0 1 0
-19.865137 6.579202 -7.495720 22.228257 -0.319823 1.914754 0.056334 -0.006526 281123.000000 0 1 0
-19.367237 5.374502 -8.388620 21.779442 -0.270693 1.966180 0.026771 -0.019387 -264045.000000 0 1 0
-20.417237 4.442902 -8.426820 22.530297 -0.214265 1.954138 0.040449 -0.021220 597324.000000 0 1 0
-20.137737 3.458102 -9.411620 22.495900 -0.170064 2.002447 0.029370 -0.023630 -141523.000000 0 1 0
-21.149337 2.277002 -9.455920 23.278609 -0.107250 1.989095 0.033370 -0.020283 -47831.600000 0 1 0
-20.820237 1.331802 -8.454020 22.510585 -0.063880 1.955795 0.030835 -0.019139 -97831.400000 0 1 0
-21.650737 0.247602 -8.255020 23.172421 -0.011436 1.935041 0.040304 -0.019839 -887990.000000 0 1 0
-21.458637 -1.043098 -9.128220 23.342784 0.048571 1.972570 0.019888 -0.025773 -157333.000000 0 1 0
-20.264137 -1.706198 -8.798920 22.157784 0.084000 1.979154 0.003260 -0.013275 -18177.300000 0 1 0
-20.130837 -2.955098 -9.394220 22.410591 0.145754 2.003346 -0.010760 -0.008411 -139087.000000 0 1 0
-21.112937 -4.060398 -8.875420 23.259752 0.189998 1.962300 -0.006403 -0.002152 244775.000000 0 1 0
-20.824437 -4.410198 -7.549920 22.585578 0.208696 1.911638 -0.005294 -0.000111 569215.000000 0 1 0
-21.911637 -5.089898 -6.899920 23.529467 0.228244 1.868417 0.020778 -0.001466 -353570.000000 0 1 0
-21.919237 -6.632598 -7.074820 23.968676 0.293834 1.870429 0.014579 -0.010095 -643731.000000 0 1 0
-20.805437 -7.337698 -6.647320 23.041157 0.339062 1.863454 -0.006097 -0.007353 -185947.000000 0 1 0
-20.951137 -8.676198 -7.037120 23.743370 0.392616 1.871699 -0.000640 -0.003986 -307325.000000 0 1 0
-20.221937 -9.671098 -6.100320 23.230816 0.446095 1.836508 0.013368 -0.002878 -124874.000000 0 1 0
-18.816637 -9.558398 -6.140820 21.980412 0.470008 1.853941 -0.000939 -0.006972 -59049.500000 0 1 0
-18.136537 -10.539998 -5.412520 21.663816 0.526442 1.823313 0.020129 -0.002997 -245427.000000 0 1 0
-17.494837 -11.705698 -6.230620 21.952525 0.589681 1.858575 0.015629 0.002188 -74654.900000 0 1 0
-16.317837 -11.260898 -6.920620 20.999396 0.604049 1.906637 0.005952 -0.012383 644118.000000 0 1 0
-16.640937 -10.589198 -8.080120 21.315259 0.566708 1.959595 0.003575 -0.018736 -466769.000000 0 1 0
-15.688137 -10.931398 -9.245220 21.238814 0.608571 2.021166 0.015027 -0.013705 134880.000000 0 1 0
-15.750137 -12.215898 -9.716020 22.174220 0.659688 2.024355 0.017641 -0.018019 666720.000000 0 1 0
-14.855137 -12.325098 -10.863420 22.149426 0.692582 2.083415 0.025739 -0.012260 680100.000000 0 1 0
-14.874837 -13.645498 -11.606720 23.284681 0.742321 2.092630 0.039436 -0.013601 519198.000000 0 1 0
-15.983537 -13.866898 -12.503120 24.578290 0.714608 2.104477 0.035424 -0.010381 535299.000000 0 1 0
-15.952337 -15.167698 -13.132220 25.631843 0.760190 2.108704 0.026511 -0.011491 -211075.000000 0 0 1
-16.568837 -15.202998 -14.507220 26.760362 0.742436 2.143750 0.049720 -0.008252 -398535.000000 0 0 1
-16.481737 -16.374698 -15.268920 27.801409 0.782140 2.152220 0.043574 -0.003934 205933.000000 0 0 1
-16.923437 -16.235698 -16.608620 28.737552 0.764661 2.187000 0.044684 -0.004317 -420428.000000 0 0 1
-17.021737 -17.593698 -17.409420 30.039402 0.801920 2.188976 0.045185 -0.012476 -190712.000000 0 0 1
-18.128237 -18.435398 -17.113420 31.005904 0.793799 2.155486 0.017522 -0.003213 118287.000000 0 0 1
-18.994937 -18.520398 -18.230420 32.189455 0.772750 2.172864 0.018755 -0.005328 137546.000000 0 0 1
-20.455037 -18.055998 -18.033520 32.705282 0.723184 2.154831 0.008294 -0.014141 -70910.100000 0 0 1
-20.661237 -16.689598 -17.664620 31.897778 0.679463 2.157704 0.003532 -0.007645 201809.000000 0 0 1
-20.711037 -16.560198 -16.269020 31.110581 0.674487 2.121095 -0.003737 -0.004651 -450860.000000 0 0 1
-20.719437 -15.092398 -15.797020 30.110155 0.629545 2.123090 0.005370 -0.010229 -1404740.000000 0 0 1
-21.962437 -14.556998 -15.655820 30.648973 0.585330 2.106924 0.009923 -0.007028 -974760.000000 0 0 1
-21.995537 -13.185198 -15.278420 29.851018 0.540014 2.108101 0.019576 -0.004057 776383.000000 0 0 1
-23.458137 -12.740198 -14.867720 30.555621 0.497533 2.078966 0.043863 -0.016001 639005.000000 0 0 1
-23.909537 -13.242498 -13.641520 30.547026 0.505801 2.033729 0.045138 -0.014189 377631.000000 0 0 1
-24.964037 -12.435998 -13.137720 30.829481 0.462172 2.011020 0.079200 -0.020714 -287946.000000 0 0 1
-25.658127 -13.013298 -11.936820 31.147602 0.469375 1.964091 0.077325 -0.023426 -492639.000000 0 0 1
-26.527777 -12.097298 -11.321520 31.276899 0.427852 1.941184 0.072691 -0.031504 58629.800000 0 0 1
-27.077187 -12.565198 -10.109920 31.516167 0.434477 1.897355 0.062177 -0.025481 -297183.000000 0 0 1
-28.017547 -11.518798 -9.513320 31.751676 0.390063 1.875087 0.073082 -0.027251 -34222.100000 0 0 1
-27.330917 -10.457298 -8.832320 30.567041 0.365433 1.863925 0.084890 -0.033661 398629.000000 0 0 1
-28.239307 -9.639198 -8.130920 30.927084 0.328939 1.836829 0.099914 -0.036089 -101888.000000 0 0 1
-27.534037 -8.401698 -7.571320 29.766368 0.296164 1.827980 0.093504 -0.031112 286785.000000 0 0 1
-26.663117 -8.744698 -6.473720 28.797580 0.316916 1.797535 0.063443 -0.035112 63716.400000 0 0 1
-25.938577 -7.684498 -5.913020 27.691607 0.288020 1.785984 0.051770 -0.024217 -64846.300000 0 0 1
-26.661937 -6.523798 -5.081420 27.914865 0.239971 1.753850 0.071580 -0.027900 -462301.000000 0 0 1
-27.134087 -6.944898 -3.838020 28.270492 0.250568 1.706978 0.072056 -0.032167 -31479.900000 0 0 1
-26.227227 -7.019198 -2.734520 27.287620 0.261502 1.671176 0.096263 -0.029829 -54891.500000 0 0 1
-25.863897 -5.634198 -2.050720 26.549780 0.214489 1.648114 0.105775 -0.022412 373399.000000 0 0 1
-27.012497 -4.990998 -1.489020 27.510039 0.182706 1.624949 0.111608 -0.028131 315751.000000 0 0 1
-26.654607 -3.950698 -0.596220 26.952395 0.147147 1.592919 0.088507 -0.025541 -86342.000000 0 0 1
-27.782917 -2.944998 -0.139920 27.938917 0.105606 1.575804 0.099562 -0.024711 636858.000000 0 0 1
-28.765577 -3.446298 0.745080 28.980865 0.119238 1.545084 0.107067 -0.017592 358054.000000 0 0 1
-28.240267 -3.592998 2.098780 28.545179 0.126550 1.497205 0.095595 -0.012312 -478278.000000 0 0 1
-29.259697 -3.967298 3.144880 29.694437 0.134767 1.464689 0.082428 -0.010964 -499673.000000 0 0 1
-29.689917 -5.264098 2.888880 30.291047 0.175479 1.475280 0.099143 -0.012980 195203.000000 0 0 1
-30.816247 -5.579098 3.703380 31.535416 0.179104 1.453089 0.098346 -0.015203 245229.000000 0 0 1
-31.461107 -6.937298 3.416580 32.397537 0.217031 1.465142 0.099391 -0.017528 -356096.000000 0 0 1
-30.609067 -8.005498 3.718880 31.856445 0.255810 1.453791 0.093349 -0.010451 333171.000000 0 0 1
-31.287377 -9.238998 3.495880 32.809758 0.287134 1.464044 0.103829 -0.016517 -110920.000000 0 0 1
-30.575687 -10.458698 4.043880 32.567008 0.329583 1.446304 0.085966 -0.016673 -288019.000000 0 0 1
-30.436667 -10.454198 5.446380 32.639608 0.330849 1.403148 0.073653 -0.010183 706871.000000 0 0 1
-29.338827 -11.321798 5.745480 31.968116 0.368291 1.390089 0.060529 -0.003554 -112376.000000 0 0 1
-29.188577 -11.690798 7.234780 32.264374 0.380960 1.344639 0.051717 -0.019328 -232914.000000 0 0 1
-28.796977 -10.636198 8.051880 31.736846 0.353809 1.314285 0.059078 -0.019529 250463.000000 0 0 1
-28.942247 -11.099098 9.377080 32.384769 0.366194 1.277037 0.068439 -0.022157 -120992.000000 0 0 1
-29.168157 -9.878998 10.301380 32.472980 0.326565 1.247990 0.062631 -0.019924 131232.000000 0 0 1
-28.097847 -8.941198 10.262480 31.221027 0.308084 1.235865 0.071675 -0.016033 392677.000000 0 0 1
-28.197997 -7.998398 11.310180 31.416900 0.276391 1.202525 0.076323 -0.014125 -188689.000000 0 0 1
-27.187477 -6.850798 11.174280 30.182062 0.246845 1.191541 0.079026 -0.013622 -461565.000000 0 0 1
-27.442717 -5.888298 10.193780 29.861144 0.211362 1.222419 0.080119 -0.015130 384670.000000 0 0 1
-26.576387 -4.747098 10.215180 28.865017 0.176757 1.209064 0.082665 -0.014111 -354409.000000 0 0 1
-26.707847 -3.756798 8.996080 28.431533 0.139746 1.248852 0.089465 -0.015676 -68739.600000 0 0 1
-26.253737 -4.430898 7.784080 27.739565 0.167196 1.286364 0.070441 -0.011977 514462.000000 0 0 1
-26.446777 -3.543498 6.671380 27.504467 0.133193 1.325796 0.078645 -0.023599 -339923.000000 0 0 1
-25.599707 -4.046698 5.521380 26.499178 0.156779 1.360898 0.063532 -0.010493 -85395.500000 0 0 1
-24.223337 -3.736898 5.640480 25.150537 0.153062 1.344604 0.075005 -0.027041 287692.000000 0 0 1
-23.496137 -4.119798 4.505780 24.276393 0.173575 1.384110 0.068334 -0.017227 671400.000000 0 1 0
-22.010037 -3.606798 4.577180 22.768428 0.162427 1.368385 0.055319 -0.018331 655651.000000 0 1 0
-21.948737 -2.226498 4.354280 22.486977 0.101095 1.375930 0.037377 -0.014483 38408.000000 0 1 0
-20.725337 -1.739298 4.835780 21.352975 0.083725 1.342346 0.025120 -0.014466 -858556.000000 0 1 0
-20.655737 -0.216498 5.063080 21.268313 0.010481 1.330431 0.021123 -0.013220 -376862.000000 0 1 0
-20.532237 0.535902 3.853780 20.897645 -0.026095 1.385323 0.015575 -0.009849 703969.000000 0 1 0
-21.831137 0.872802 3.424980 22.115398 -0.039958 1.415302 0.025891 -0.015505 -272809.000000 0 1 0
-21.676437 1.968402 2.359880 21.893186 -0.090560 1.462796 0.030468 -0.006932 -418668.000000 0 1 0
-21.358937 3.225202 3.018580 21.810960 -0.149868 1.431953 0.027017 -0.013275 234787.000000 0 1 0
-21.331137 4.323402 2.156480 21.871434 -0.199971 1.472038 0.034057 -0.007682 103872.000000 0 1 0
-20.320337 4.398802 0.962980 20.813287 -0.213184 1.524512 0.021189 -0.003108 -634579.000000 0 1 0
-20.658237 5.129202 -0.239620 21.286825 -0.243367 1.582053 0.040831 0.006437 338995.000000 0 1 0
-21.641137 4.512302 -1.073220 22.132589 -0.205561 1.619306 0.064956 -0.011734 -8792.560000 0 1 0
-21.349037 3.226202 -1.909820 21.675728 -0.149982 1.659019 0.068852 -0.010849 -382792.000000 0 1 0
-21.105237 2.133002 -1.009020 21.236734 -0.100723 1.618327 0.035099 -0.007080 365859.000000 0 1 0
-20.719237 1.037502 -1.751220 20.818981 -0.050033 1.655012 0.030148 -0.002756 -1005670.000000 0 1 0
-19.849337 0.073602 -1.024820 19.875912 -0.003708 1.622380 0.020873 -0.000955 -847086.000000 0 1 0
-20.492137 -0.733298 0.013680 20.505258 0.035769 1.570129 0.020954 -0.003216 319288.000000 0 1 0
-19.719637 -1.516898 0.882180 19.797559 0.076772 1.526222 0.014086 -0.006595 -1111510.000000 0 1 0
-18.834737 -2.623398 0.308680 19.019065 0.138395 1.554566 -0.006961 -0.006318 45074.500000 0 1 0
-18.029837 -3.243198 1.339880 18.368142 0.177976 1.497786 -0.009734 -0.006756 638829.000000 0 1 0
-17.356537 -4.412898 0.997380 17.936494 0.248975 1.515161 -0.013692 -0.003763 -548151.000000 0 1 0
-18.278137 -5.599298 0.633380 19.127039 0.297262 1.537676 -0.019480 0.000421 -144436.000000 0 1 0
-18.978637 -6.008298 1.803580 19.988527 0.306600 1.480443 0.001973 -0.008271 -109224.000000 0 1 0
-20.044337 -6.854898 1.612280 21.245342 0.329518 1.494835 0.004227 -0.006219 -526940.000000 0 1 0
-20.791037 -7.275198 2.890080 22.215947 0.336603 1.440336 0.019537 -0.007010 -525700.000000 0 1 0
-20.006637 -8.060498 3.685880 21.882022 0.382996 1.401546 0.014152 -0.008646 441541.000000 0 1 0
-20.793637 -8.758298 4.701080 23.047414 0.398648 1.365380 0.023102 -0.009965 246678.000000 0 1 0
-20.006637 -9.656698 5.660480 22.925060 0.449692 1.321304 0.016260 0.002241 -325260.000000 0 1 0
-19.552437 -10.865898 5.058880 22.933770 0.507233 1.348381 0.017989 -0.000313 236488.000000 0 1 0
-18.501937 -11.381098 5.846680 22.495216 0.551470 1.307870 0.018180 -0.003091 -122700.000000 0 1 0
-17.895937 -12.670898 5.246780 22.546506 0.616096 1.335934 0.007057 0.000350 178112.000000 0 1 0
-18.864437 -13.728698 5.253280 23.915290 0.629112 1.349328 0.026503 0.006286 732604.000000 0 1 0
-18.322337 -14.884998 4.590780 24.048835 0.682254 1.378723 0.015162 0.013852 -101278.000000 0 1 0
-18.858437 -16.173598 5.148280 25.371849 0.708908 1.366464 0.018347 0.011385 -98042.800000 0 0 1
-18.252037 -17.377698 4.664680 25.629680 0.760863 1.387773 0.020738 0.009904 367634.000000 0 0 1
-18.889537 -18.520198 5.240780 26.968095 0.775526 1.375219 0.021947 0.008661 426644.000000 0 0 1
-17.988637 -19.788798 5.109780 27.226778 0.833014 1.382002 0.027053 0.000772 -409299.000000 0 0 1
-17.816937 -20.180198 3.747280 27.179510 0.847514 1.432484 0.027822 0.001225 200784.000000 0 0 1
-17.166437 -21.451398 3.551580 27.703119 0.895904 1.442241 0.028938 -0.001511 -147906.000000 0 0 1
-15.664137 -21.382998 3.838880 26.783107 0.938556 1.426969 0.031565 -0.000748 -808775.000000 0 0 1
-15.034837 -22.638398 3.721480 27.429780 0.984552 1.434704 0.030111 -0.004642 -307637.000000 0 0 1
-13.679137 -22.585198 4.093680 26.720183 1.026219 1.416985 0.034244 -0.000338 52292.400000 0 0 1
-12.976737 -23.973198 4.307280 27.598236 1.074656 1.414085 0.041376 -0.000263 -147912.000000 0 0 1
-12.624137 -24.547698 3.112180 27.778481 1.095798 1.458525 0.046551 -0.013438 -116575.000000 0 0 1
-12.317737 -25.898948 3.249480 28.862455 1.126852 1.457972 0.043473 -0.015359 -122075.000000 0 0 1
18.985163 19.580402 -24.736320 36.820023 0.800831 2.307456 0.030880 -0.001401 -1023400.000000 0 0 1
17.945363 19.821202 -25.588620 37.009371 0.835027 2.334234 0.017635 -0.011220 -848943.000000 0 0 1
18.280363 19.414102 -26.857910 37.847409 0.815466 2.359779 0.026747 -0.009205 -243923.000000 0 0 1
17.129263 19.467102 -27.859610 38.059658 0.849193 2.392047 0.018543 -0.007739 -181050.000000 0 0 1
16.889763 20.806502 -28.245250 38.935444 0.888929 2.382467 0.009367 0.000723 436755.000000 0 0 1
15.779963 20.891502 -29.141960 39.175451 0.923893 2.409659 0.014023 0.002399 18217.900000 0 0 1
15.574763 22.316802 -29.729070 40.304224 0.961485 2.400330 0.005413 0.002668 -170482.000000 0 0 1
14.929863 23.174602 -28.762690 39.840373 0.998485 2.377410 0.003904 -0.000437 475250.000000 0 0 1
15.029863 24.550202 -29.151490 40.968507 1.021448 2.362510 0.003125 0.003074 -25301.200000 0 0 1
14.301763 25.370402 -28.051190 40.435962 1.057482 2.337436 -0.000623 -0.003892 -589899.000000 0 0 1
12.942863 25.140202 -27.900880 39.724131 1.095357 2.349512 0.018453 -0.010029 -908505.000000 0 0 1
12.435963 25.897402 -26.875020 39.339488 1.123113 2.322872 0.020303 -0.002593 -960403.000000 0 0 1
11.123263 25.381402 -26.263980 38.180351 1.157761 2.329378 0.045457 -0.006573 2159.420000 0 0 1
10.588263 26.285802 -25.326470 38.006378 1.187867 2.300132 0.036812 -0.010436 1398.500000 0 0 1
9.897163 27.419902 -25.907470 39.000024 1.224402 2.297345 0.044847 -0.020405 -602321.000000 0 0 1
9.320763 28.358902 -24.860320 38.847644 1.253247 2.265222 0.067831 -0.023659 -222440.000000 0 0 1
10.250563 29.039702 -24.016520 39.053445 1.231465 2.233139 0.048307 -0.016459 -247818.000000 0 0 1
9.633763 29.786002 -23.040920 38.870288 1.257983 2.205283 0.069963 -0.023732 -127572.000000 0 0 1
10.584963 30.315502 -21.903920 38.869690 1.234870 2.169439 0.048542 -0.024045 -72645.900000 0 0 1
11.610663 31.144902 -22.356320 40.057677 1.213960 2.162895 0.039763 -0.028739 -131957.000000 0 0 1
12.316163 31.669802 -21.227220 40.065685 1.199902 2.129173 0.027093 -0.020998 -171824.000000 0 0 1
13.660563 32.264002 -21.642520 41.182223 1.170282 2.124135 0.013660 0.001236 -395120.000000 0 0 1
14.663763 31.408402 -22.112420 41.115359 1.133999 2.138638 0.000904 0.001623 -649415.000000 0 0 1
15.652163 32.110902 -22.786620 42.371338 1.117246 2.138603 0.006213 0.010631 -558421.000000 0 0 1
16.865763 31.290202 -23.203420 42.449139 1.076429 2.149115 -0.017004 0.012070 131916.000000 0 0 1
17.751763 30.970802 -22.119620 41.995157 1.050333 2.125532 -0.004216 0.012868 176359.000000 0 0 1
18.913263 30.357302 -22.639820 42.330116 1.013621 2.135114 0.002341 0.011796 288506.000000 0 0 1
19.898263 29.715402 -21.619220 41.789193 0.980746 2.114536 0.016634 0.014101 -5746.550000 0 0 1
20.734863 30.613002 -20.958020 42.500930 0.975453 2.086468 0.020503 0.019635 -230723.000000 0 0 1
21.362863 29.910202 -19.912720 41.803212 0.950582 2.067289 0.027946 0.010639 47592.000000 0 0 1
22.011863 30.835502 -18.859120 42.320405 0.950837 2.032671 0.035211 0.004851 541986.000000 0 0 1
23.004963 31.805202 -19.287520 43.735656 0.944598 2.027511 0.030991 0.002875 860536.000000 0 0 1
23.567063 32.496902 -18.185720 44.070120 0.943351 1.996162 0.036509 0.005913 -777879.000000 0 0 1
24.759963 33.340402 -18.525220 45.473310 0.932021 1.990387 0.037150 -0.003370 -162868.000000 0 0 1
25.886263 32.615702 -18.996620 45.768485 0.899924 1.998804 0.036327 -0.000170 -148419.000000 0 0 1
27.110663 33.237202 -18.718020 46.798119 0.886572 1.982285 0.030267 -0.010951 160322.000000 0 0 1
28.382163 32.478202 -19.172320 47.201256 0.852599 1.989069 0.027840 -0.006598 259245.000000 0 0 1
28.611463 31.305702 -18.379220 46.221840 0.830334 1.979729 0.023485 0.008062 641528.000000 0 0 1
29.776363 30.689902 -18.988420 46.787412 0.800505 1.988699 0.011954 0.010390 746846.000000 0 0 1
30.254463 29.423402 -18.249920 45.979655 0.771473 1.978947 0.004711 0.002664 -477217.000000 0 0 1
30.636163 29.784202 -16.932620 45.960709 0.771299 1.948100 0.010743 0.008069 90736.100000 0 0 1
30.870063 28.636202 -16.153620 45.099138 0.747876 1.937114 0.009005 0.005404 -314072.000000 0 0 1
31.124963 28.981602 -14.620120 44.971596 0.749754 1.901910 0.020359 0.003206 317489.000000 0 0 1
32.413163 29.507202 -14.303820 46.107346 0.738502 1.886230 0.020374 0.003612 313108.000000 0 0 1
32.442763 30.896602 -14.530020 47.098348 0.760992 1.884416 0.025575 -0.005177 -464027.000000 0 0 1
33.855163 31.456602 -14.708720 48.497797 0.748690 1.878936 0.031223 -0.013533 -582136.000000 0 0 1
34.631563 31.303902 -13.555520 48.611023 0.734972 1.853400 0.019830 -0.011718 -710514.000000 0 0 1
-35.900086 31.679702 -13.999320 49.883872 -0.723029 1.855255 0.035285 -0.018207 -223908.000000 0 0 1
-34.896986 31.791602 -12.839920 48.922072 -0.738866 1.836363 0.033013 -0.014273 -412784.000000 0 0 1
-35.121186 32.995902 -12.111420 49.688165 -0.754208 1.817025 0.036943 -0.016027 -54834.300000 0 0 1
-34.211386 33.269302 -11.089920 48.992364 -0.771438 1.799136 0.028875 -0.007412 -545615.000000 0 0 1
-34.406386 -34.083984 -10.363920 49.527045 0.780691 1.781612 0.023841 -0.003825 -578813.000000 0 0 1
-33.387186 -33.670284 -9.520120 48.363467 0.789620 1.768936 0.014609 -0.001057 -462436.000000 0 0 1
-33.286986 -34.238784 -8.244920 48.459225 0.799493 1.741769 0.017522 -0.006997 194553.000000 0 0 1
-32.700186 -33.308184 -7.146120 47.220804 0.794609 1.722714 0.031381 0.008057 -110794.000000 0 0 1
-33.638486 -32.299684 -6.847420 47.134960 0.765097 1.716585 0.038232 0.001963 -48446.600000 0 0 1
-33.265486 -31.462784 -5.796520 46.152995 0.757555 1.696722 0.029076 0.001840 -692705.000000 0 0 1
-34.461686 -30.541284 -5.618520 46.389068 0.725160 1.692212 0.023801 0.002081 -10008.800000 0 0 1
-35.578386 -31.343084 -5.252620 47.705351 0.722195 1.681125 0.022578 -0.000945 453535.000000 0 0 1
34.965963 -30.705384 -5.260820 46.830709 -0.720612 1.683371 0.014341 0.005405 704351.000000 0 0 1
34.411363 -30.090984 -3.939420 45.881676 -0.718518 1.656763 0.019047 0.011412 -230939.000000 0 0 1
34.919063 -28.782284 -3.568420 45.392669 -0.689358 1.649490 0.025233 -0.004139 127868.000000 0 0 1
34.028663 -28.155584 -2.710820 44.249693 -0.691231 1.632097 0.026978 -0.008075 -390824.000000 0 0 1
34.187363 -26.633784 -2.677620 43.420086 -0.661838 1.632503 0.046369 -0.011219 -253931.000000 0 0 1
34.047763 -25.957684 -3.934520 42.994557 -0.651384 1.662437 0.029457 -0.018486 374981.000000 0 0 1
33.827663 -24.535284 -3.766020 41.958000 -0.627506 1.660674 0.023423 -0.021682 -280661.000000 0 0 1
33.366063 -23.906284 -5.087920 41.360506 -0.621704 1.694123 0.021031 -0.027165 -507781.000000 0 0 1
34.370363 -23.818084 -6.063920 42.253924 -0.606001 1.714805 0.026437 -0.022099 264988.000000 0 0 1
33.827163 -23.237984 -7.234820 41.672814 -0.601922 1.745291 0.007535 -0.016893 192671.000000 0 0 1
34.936363 -23.071784 -8.311620 42.684185 -0.583648 1.766772 0.007638 -0.008997 -133014.000000 0 0 1
35.307963 -24.305884 -8.931720 43.785886 -0.602896 1.776224 0.022483 -0.000834 799326.000000 0 0 1
-35.360686 -24.003684 -9.762520 43.839044 0.596372 1.795369 0.016594 0.005033 777260.000000 0 0 1
-34.876986 -25.201084 -10.595420 44.314351 0.625714 1.812232 0.018039 -0.001542 -440030.000000 0 0 1
-34.141186 -26.165784 -9.872620 44.133179 0.653914 1.796406 0.025789 0.011040 317972.000000 0 0 1
-34.934886 -27.149184 -9.201020 45.190521 0.660644 1.775835 0.016278 0.000022 419521.000000 0 0 1
-34.028286 -28.338484 -8.709520 45.131471 0.694419 1.764996 0.025695 0.003027 238737.000000 0 0 1
-33.495586 -29.067384 -9.768120 45.412369 0.714736 1.787589 0.010246 0.005588 25691.900000 0 0 1
-32.739986 -30.148584 -9.236920 45.455082 0.744215 1.775431 0.003800 0.011622 39134.700000 0 0 1
-31.967086 -31.010684 -10.284620 45.709195 0.770213 1.797741 -0.001300 0.015497 -406800.000000 0 0 1
-30.858486 -30.369784 -10.846620 44.634282 0.777417 1.816265 -0.020297 0.027588 -140279.000000 0 0 1
-30.466486 -31.160984 -11.967520 45.193310 0.796667 1.838800 -0.013554 0.029336 -567328.000000 0 0 1
-30.582086 -30.507184 -13.367320 45.217668 0.784172 1.870902 -0.007298 0.022029 -632138.000000 0 0 1
-29.741386 -29.425784 -13.617720 43.998513 0.780064 1.885468 0.004877 0.029056 -268983.000000 0 0 1
-29.917986 -29.027284 -14.973120 44.292928 0.770289 1.915638 0.002826 0.022669 -430562.000000 0 0 1
-28.841886 -28.086384 -15.491120 43.135532 0.772128 1.938128 0.006744 0.016072 -1426470.000000 0 0 1
-27.641686 -28.728084 -15.623320 42.818848 0.804668 1.944290 0.015006 0.011022 -1432680.000000 0 0 1
-26.697786 -27.858184 -16.197120 41.847305 0.806665 1.968230 0.030172 0.014870 -501827.000000 0 0 1
-25.501986 -28.697184 -16.683120 41.859362 0.844283 1.980734 0.040489 0.006391 -778848.000000 0 0 1
-25.602086 -29.467484 -17.889920 42.940059 0.855474 2.000526 0.039067 0.003430 -73765.600000 0 0 1
-25.626486 -28.785284 -19.117820 43.020930 0.843387 2.031283 0.034134 0.006605 -162701.000000 0 0 1
-24.364086 -28.023984 -19.574920 41.977731 0.855146 2.055919 0.031852 0.002756 -68372.900000 0 0 1
-24.151986 -26.814684 -18.869020 40.723281 0.837595 2.052565 0.036451 0.004524 307975.000000 0 0 1
-22.841986 -26.272684 -18.999220 39.660820 0.855136 2.070360 0.028337 -0.001660 445450.000000 0 0 1
-22.575686 -25.083684 -17.972720 38.234428 0.837973 2.060162 0.030582 0.001908 -260822.000000 0 0 1
-22.732086 -25.503384 -16.649620 38.005002 0.842789 2.024269 0.039464 0.000669 253078.000000 0 0 1
-22.488686 -24.389084 -15.801720 36.745922 0.825915 2.015318 0.056797 -0.007616 -58539.800000 0 0 1
-22.997586 -24.591684 -14.342320 36.597022 0.818883 1.973491 0.037136 0.001402 686234.000000 0 0 1
-24.408486 -24.376584 -14.242420 37.320753 0.784744 1.962347 0.012228 0.016073 562809.000000 0 0 1
-24.743786 -24.094384 -12.868720 36.856455 0.772102 1.927469 0.009723 0.021151 -446308.000000 0 0 1
-26.254386 -24.015884 -12.662320 37.767576 0.740898 1.912688 0.005089 0.033738 -1071460.000000 0 0 1
-26.879286 -25.223684 -13.025720 39.094752 0.753633 1.910474 0.018005 0.029212 47749.300000 0 0 1
-28.090886 -25.546884 -12.362620 39.932137 0.738004 1.885559 0.017708 0.026195 359779.000000 0 0 1
-29.343486 -24.816384 -12.971920 40.560619 0.702004 1.896331 0.016277 0.014656 -695326.000000 0 0 1
-29.541886 -23.451484 -12.519820 39.742182 0.670973 1.891280 0.018991 0.018252 186974.000000 0 0 1
-30.082386 -23.346484 -11.198020 39.691358 0.659987 1.856807 0.028954 0.007633 -35654.000000 0 0 1
-31.629486 -23.516584 -11.182820 40.969618 0.639329 1.847259 0.037529 0.010469 -32432.100000 0 0 1
-32.407086 -22.517184 -11.831920 41.197538 0.607243 1.862098 0.030399 -0.002207 297589.000000 0 0 1
-32.656686 -22.704784 -13.217120 41.912512 0.607536 1.891622 0.025203 0.004721 -275363.000000 0 0 1
-34.134086 -22.472284 -13.630520 43.080511 0.582225 1.892725 0.012685 -0.005016 563470.000000 0 0 1
-34.986786 -23.542784 -13.203920 44.189155 0.592309 1.874236 0.010136 0.002164 93532.600000 0 0 1
35.489063 -23.357284 -13.570920 44.600517 -0.582086 1.879976 0.003408 -0.005984 -26416.900000 0 0 1
34.610963 -24.614684 -13.287820 44.501321 -0.618191 1.874015 -0.007622 0.003831 -116492.000000 0 0 1
34.643263 -25.668784 -14.202420 45.395494 -0.637681 1.888999 -0.015480 0.006511 -19158.000000 0 0 1
33.865763 -26.731284 -13.698320 45.266935 -0.668201 1.878228 -0.019445 0.003168 160644.000000 0 0 1
33.728963 -27.906084 -14.617820 46.152715 -0.691204 1.893073 -0.011807 -0.002755 365350.000000 0 0 1
32.933463 -27.718584 -15.790520 45.850555 -0.699629 1.922386 -0.011783 -0.010029 24804.300000 0 0 1
32.955163 -28.824984 -16.696120 46.858114 -0.718645 1.935114 -0.004167 -0.012258 19146.400000 0 0 1
32.105663 -28.564384 -17.945120 46.569571 -0.727095 1.966373 -0.002046 -0.011494 -237735.000000 0 0 1
30.710063 -28.617884 -17.847420 45.613831 -0.750148 1.972810 0.003963 -0.013008 -676645.000000 0 0 1
30.051063 -28.195884 -19.015720 45.383608 -0.753559 2.003140 0.014194 -0.005910 178696.000000 0 0 1
28.536963 -28.329484 -18.724320 44.356714 -0.781750 2.006590 0.015795 -0.005404 111001.000000 0 0 1
28.124163 -27.488384 -17.629720 43.097411 -0.773966 1.992227 0.009320 -0.009738 72008.600000 0 0 1
26.762863 -27.601784 -17.245320 42.136805 -0.800828 1.992450 0.028542 -0.013423 337702.000000 0 0 1
26.323663 -26.716684 -16.048620 40.795522 -0.792808 1.975114 0.033894 -0.018701 -54607.000000 0 0 1
26.432463 -25.310784 -16.326120 40.073096 -0.763724 1.990411 0.025601 -0.013978 66580.200000 0 0 1
26.213263 -24.586484 -15.122320 38.991215 -0.753386 1.969082 0.039775 -0.013181 -341067.000000 0 0 1
26.028763 -23.087084 -15.362120 38.032942 -0.725577 1.986590 0.042696 -0.020246 275860.000000 0 0 1
24.771463 -22.816084 -15.965420 37.270547 -0.744331 2.013480 0.051487 -0.017119 240320.000000 0 0 1
24.625063 -21.406484 -16.289720 36.468976 -0.715591 2.033840 0.052712 -0.024458 -207027.000000 0 0 1
23.144863 -21.034484 -16.484720 35.353644 -0.737666 2.055878 0.059352 -0.020483 -102951.000000 0 0 1
22.518263 -20.778284 -15.244820 34.223001 -0.745232 2.032479 0.071240 -0.027524 43818.300000 0 0 1
21.222963 -20.234084 -15.361420 33.102953 -0.761550 2.053358 0.059715 -0.028066 87555.500000 0 0 1
21.008263 -18.973984 -14.455520 31.785550 -0.734562 2.042925 0.054063 -0.019794 -122381.000000 0 0 1
20.529963 -19.229984 -13.168320 31.059238 -0.752714 2.008625 0.044469 -0.030206 168614.000000 0 0 1
20.029463 -18.039484 -12.546220 29.732305 -0.733173 2.006416 0.041391 -0.034504 -319742.000000 0 0 1
19.120063 -18.330984 -11.338520 28.812563 -0.764332 1.975261 0.043815 -0.020991 -584484.000000 0 0 1
19.722263 -18.905884 -10.234920 29.174538 -0.764267 1.929240 0.049111 -0.037804 161007.000000 0 0 1
18.820863 -18.824584 -9.147420 28.147204 -0.785497 1.901792 0.039088 -0.038267 84091.100000 0 0 1
19.473263 -19.571184 -7.956120 28.732195 -0.787906 1.851369 0.047705 -0.038482 -235960.000000 0 0 1
20.323063 -18.733884 -7.240620 28.572922 -0.744732 1.826998 0.045603 -0.037483 -110581.000000 0 0 1
21.079363 -19.438984 -6.258420 29.349300 -0.744935 1.785686 0.045185 -0.030615 -381146.000000 0 0 1
22.413763 -18.766384 -5.979320 29.837999 -0.697057 1.772555 0.042375 -0.025214 -1316260.000000 0 0 1
23.330163 -18.877084 -6.984020 30.812616 -0.680282 1.799444 0.036706 -0.033899 291321.000000 0 0 1
24.453363 -18.030084 -6.666620 31.104577 -0.635340 1.786801 0.056468 -0.027282 746838.000000 0 0 1
25.699463 -17.952384 -7.605320 32.258198 -0.609753 1.808801 0.064542 -0.044111 209708.000000 0 0 1
26.561763 -19.038284 -7.541920 33.538993 -0.621883 1.797606 0.072697 -0.051053 37672.800000 0 0 1
26.203163 -20.078584 -8.479820 34.083172 -0.653830 1.822235 0.073909 -0.059008 -156424.000000 0 0 1
27.235363 -21.231184 -8.397820 35.539436 -0.662143 1.809348 0.063444 -0.061001 589069.000000 0 0 1
28.534763 -20.753184 -8.714620 36.343802 -0.628811 1.812938 0.056933 -0.049521 -170432.000000 0 0 1
29.559463 -21.640684 -8.390420 37.582977 -0.631951 1.795944 0.041459 -0.044548 -318216.000000 0 0 1
-29.699737 30.160002 4.365980 42.553048 -0.793087 1.468015 0.035728 -0.013174 237813.000000 0 0 1
-29.023247 30.971002 3.435080 42.583466 -0.817852 1.490042 0.029254 -0.008846 -99120.300000 0 0 1
-27.886977 31.654202 3.902680 42.366295 -0.848585 1.478548 0.029067 -0.008214 -45676.200000 0 0 1
-27.355567 32.693102 2.874880 42.725062 -0.874052 1.503458 0.029473 -0.004789 -357917.000000 0 0 1
-26.463227 32.257902 1.851480 41.764849 -0.883761 1.526451 0.030504 -0.006127 435379.000000 0 0 1
-25.941447 33.374002 1.107280 42.284853 -0.910054 1.544607 0.024327 -0.014045 125681.000000 0 0 1
-24.823937 34.263102 1.745380 42.346598 -0.943810 1.529568 0.058582 -0.016707 -477821.000000 0 0 1
-23.573737 33.632102 1.642880 41.103995 -0.959447 1.530817 0.049702 -0.022915 -320443.000000 0 0 1
-22.561037 -34.291584 2.246080 41.109099 0.988875 1.516132 0.047258 -0.019220 261998.000000 0 0 1
-21.116437 34.036602 1.931080 40.101412 -1.015509 1.522623 0.042023 -0.025481 -66697.700000 0 0 1
-20.700337 -34.360684 0.602080 40.118862 1.028583 1.555788 0.053941 -0.022807 -610159.000000 0 0 1
-19.394237 33.945102 0.385080 39.096735 -1.051716 1.560947 0.055237 -0.023207 -1186270.000000 0 0 1
-18.678737 -34.165584 -0.814420 38.946702 1.070481 1.591709 0.063975 -0.022109 -74090.900000 0 0 1
-18.427337 -32.765784 -0.760020 37.599747 1.058486 1.591011 0.079045 -0.024444 383391.000000 0 0 1
-17.529337 -32.399784 0.279080 36.838859 1.074864 1.563221 0.068145 -0.023646 -493011.000000 0 0 1
-17.432137 -30.882284 0.509580 35.466245 1.056911 1.556428 0.064424 -0.028286 -122216.000000 0 0 1
-16.709137 -30.209584 -0.523420 34.526630 1.065571 1.585957 0.062238 -0.020281 323959.000000 0 0 1
-16.844337 -28.793184 -0.412120 33.360890 1.041471 1.583150 0.053326 -0.019028 263689.000000 0 0 1
-15.808437 -28.020484 -1.323020 32.199450 1.057136 1.611896 0.039555 -0.009643 393163.000000 0 0 1
-16.081937 -28.119084 -2.707420 32.506026 1.051278 1.654183 0.056546 -0.006907 334077.000000 0 0 1
-15.035037 -27.554084 -3.502220 31.583943 1.071295 1.681911 0.056538 0.003056 113292.000000 0 0 1
-15.402637 -27.549584 -4.949120 31.948624 1.061003 1.726331 0.074494 -0.005877 110114.000000 0 0 1
-16.526237 -26.763884 -5.292120 31.897156 1.017621 1.737479 0.087872 -0.004113 -135288.000000 0 0 1
-16.874137 -26.739284 -6.669720 32.314253 1.007850 1.778692 0.095172 -0.005957 340294.000000 0 0 1
-17.711037 -25.555384 -7.119920 31.897519 0.964753 1.795905 0.080208 -0.004196 283427.000000 0 0 1
-16.825837 -24.452784 -7.178820 30.538220 0.968105 1.808094 0.061241 0.001078 329794.000000 0 0 1
-17.454637 -23.246084 -7.534120 30.030114 0.926743 1.824391 0.042742 0.002282 494099.000000 0 0 1
-16.407337 -22.099184 -7.366220 28.492733 0.932151 1.832296 0.056322 0.000174 1426480.000000 0 0 1
-15.305937 -22.114484 -8.285920 28.142114 0.965377 1.869657 0.080840 -0.008886 787788.000000 0 0 1
-14.116037 -21.423884 -7.897320 26.844235 0.988195 1.869405 0.068224 -0.015235 1216680.000000 0 0 1
-13.078537 -21.216584 -9.033220 26.510199 1.018383 1.918506 0.051911 -0.009016 42198.000000 0 0 1
-13.575237 -20.269084 -9.964220 26.351632 0.980662 1.958567 0.081703 -0.017558 -99757.400000 0 0 1
-12.719437 -20.061284 -11.052620 26.199229 1.005731 2.006301 0.073143 -0.015352 86979.200000 0 0 1
-13.477437 -19.225284 -12.135520 26.429599 0.959382 2.047850 0.085320 -0.020633 93218.100000 0 0 1
-14.673237 -19.831084 -12.589920 27.696243 0.933783 2.042687 0.076754 -0.007217 -267217.000000 0 0 1
-15.117037 -19.014684 -13.697820 27.887512 0.899100 2.084242 0.072855 -0.021590 -183478.000000 0 0 1
-16.383037 -19.543884 -14.365120 29.269848 0.873152 2.083784 0.083690 -0.019289 -125873.000000 0 0 1
-17.562137 -19.552384 -13.572420 29.579300 0.838971 2.047495 0.082663 -0.021345 -107809.000000 0 0 1
-18.620137 -19.903384 -14.425620 30.837521 0.818697 2.057590 0.065752 -0.014785 -1043160.000000 0 0 1
-19.989037 -19.856384 -13.749520 31.351027 0.782069 2.024800 0.034270 -0.008832 -340827.000000 0 0 1
-20.963637 -20.040184 -14.753320 32.538339 0.762881 2.041388 0.027587 -0.006387 -137717.000000 0 0 1
-22.299337 -19.930484 -14.300520 33.151011 0.729363 2.016813 0.003206 -0.000769 581284.000000 0 0 1
-23.368637 -20.636884 -15.221220 34.693800 0.723400 2.024982 0.007894 -0.002641 290886.000000 0 0 1
-23.401037 -20.027484 -16.519620 34.951488 0.707873 2.063085 0.015877 -0.016605 364073.000000 0 0 1
-24.220637 -20.783284 -17.424720 36.362137 0.709167 2.070539 0.020316 -0.015577 -130048.000000 0 0 1
-24.414737 -20.238984 -18.865820 36.900068 0.692155 2.107456 0.027642 -0.013391 66686.700000 0 0 1
-23.214637 -19.973384 -19.571420 36.344132 0.710489 2.139456 0.037232 -0.018295 182366.000000 0 0 1
-23.472837 -19.593984 -20.889320 37.030555 0.695575 2.170152 0.045005 -0.026465 418149.000000 0 0 1
-22.277037 -18.866784 -21.601420 36.315882 0.702701 2.207838 0.035479 -0.021832 441094.000000 0 0 1
-21.041837 -19.494584 -21.696120 35.965530 0.747247 2.218363 0.030441 -0.018143 706844.000000 0 0 1
-20.016137 -18.842984 -22.511120 35.531033 0.755217 2.256945 0.028896 -0.022665 2143550.000000 0 0 1
-18.603837 -19.508084 -22.704020 35.244016 0.809120 2.270767 0.036323 -0.015363 937236.000000 0 0 1
-18.731537 -20.697084 -23.405020 36.428488 0.835208 2.268542 0.025209 -0.009525 1034020.000000 0 0 1
-17.411537 -21.275784 -23.527320 36.185016 0.884952 2.278638 0.006517 -0.000963 936214.000000 0 0 1
-17.404737 -22.738784 -24.000020 37.362791 0.917499 2.268358 0.011203 -0.001024 -390633.000000 0 0 1
-17.425837 -22.781184 -25.415920 38.322463 0.917813 2.295899 0.013475 -0.001987 155445.000000 0 0 1
-17.512337 -24.100984 -25.911400 39.483415 0.942425 2.286648 0.010627 -0.007123 -268650.000000 0 0 1
-17.461537 -24.149284 -27.482390 40.538562 0.944757 2.315742 0.011447 -0.002231 257123.000000 0 0 1
-16.198037 -24.112084 -28.136290 40.440324 0.979261 2.340258 0.012463 -0.004526 184385.000000 0 0 1
-16.335237 -23.747184 -29.516630 41.255305 0.968250 2.368082 0.029373 -0.010226 231271.000000 0 0 1
-14.960237 -23.453384 -30.191260 41.053406 1.002995 2.397074 0.016865 -0.012511 349906.000000 0 0 1
-14.145637 -24.602084 -29.989440 41.288353 1.048979 2.383780 0.023157 -0.015268 491685.000000 0 0 1
-12.882337 -24.444784 -30.656060 41.271008 1.085785 2.408038 0.051615 -0.018934 1026580.000000 0 0 1
-11.804937 -25.532884 -30.321180 41.360110 1.137726 2.393668 0.057157 -0.016665 -526078.000000 0 0 1
-12.143437 -26.872384 -30.763810 42.614553 1.146369 2.377353 0.047694 -0.010812 334435.000000 0 0 1
-11.200437 -27.871084 -30.391440 42.730396 1.188682 2.362053 0.044286 -0.010097 83214.200000 0 0 1
-9.820937 -27.782984 -31.085260 42.832679 1.231018 2.382901 0.059419 -0.016456 -730841.000000 0 0 1
-9.005437 -26.824284 -30.510930 41.611981 1.246900 2.393848 0.060637 -0.029068 -775620.000000 0 0 1
-7.984537 -26.496084 -31.428930 41.875685 1.278103 2.419659 0.063712 -0.023551 -543473.000000 0 0 1
-7.033537 -25.471484 -30.818350 40.596032 1.301376 2.432798 0.068425 -0.024654 -860886.000000 0 0 1
-7.541537 -24.131784 -30.703360 39.773284 1.267898 2.452714 0.079072 -0.021963 247413.000000 0 0 1
-8.476337 -23.877084 -29.663250 39.011176 1.229675 2.434692 0.072290 -0.021333 -92029.700000 0 0 1
-8.884237 -22.432084 -29.674690 38.245461 1.193699 2.458938 0.063954 -0.033659 -562334.000000 0 0 1
-9.643737 -22.015384 -30.748540 39.027574 1.157928 2.478134 0.052977 -0.031924 -241646.000000 0 0 1
-10.149537 -20.710284 -30.567630 38.292414 1.115122 2.495211 0.047231 -0.030748 218874.000000 0 0 1
-10.831237 -20.194484 -31.870120 39.253502 1.078496 2.518204 0.038776 -0.027283 530360.000000 0 0 1
-11.535737 -18.920284 -31.668640 38.651690 1.023273 2.531045 0.038708 -0.023303 533966.000000 0 0 1
-12.222337 -18.619784 -32.861640 39.698480 0.989923 2.545937 0.044339 -0.015433 -568956.000000 0 0 1
-12.991437 -17.277284 -32.843690 39.319079 0.926056 2.559496 0.040742 -0.014775 -515955.000000 0 0 1
-12.391737 -16.020684 -32.879390 38.616988 0.912434 2.589489 0.045815 -0.011836 -151894.000000 0 0 1
-11.523737 -15.530184 -31.852060 37.263077 0.932421 2.595940 0.029567 -0.005948 393539.000000 0 0 1
-11.229337 -14.001684 -31.965800 36.660027 0.894838 2.629973 0.024237 -0.006833 -247670.000000 0 0 1
-10.528337 -13.486684 -33.097830 37.258595 0.907968 2.664486 0.034815 -0.009491 14088.500000 0 0 1
-11.062937 -13.786184 34.241664 38.534906 0.894554 0.476538 0.039107 -0.014066 -263935.000000 0 0 1
-11.738937 -12.677484 33.407722 37.611130 0.823818 0.477296 0.032966 -0.013843 278341.000000 0 0 1
-12.960637 -12.263484 33.981129 38.380832 0.757767 0.483513 0.025592 -0.007048 -344305.000000 0 0 1
-13.744437 -11.452884 33.149088 37.668822 0.694703 0.494905 0.018075 -0.011164 -230359.000000 0 0 1
-14.837337 -10.705084 33.878763 38.503454 0.625008 0.495168 0.025611 -0.013044 -429274.000000 0 0 1
-14.377237 -9.754084 -33.892030 38.085651 0.596109 2.667900 0.037943 -0.012843 -593960.000000 0 0 1
-15.399037 -9.199584 -33.123520 37.668691 0.538515 2.645267 0.034146 -0.022299 -134216.000000 0 0 1
-14.837137 -8.194784 -32.086560 36.288324 0.504619 2.655600 0.036967 -0.029357 10269.900000 0 0 1
-14.493837 -6.900784 -32.593320 36.332034 0.444361 2.683949 0.026067 -0.034571 -61915.100000 0 0 1
-15.571137 -6.008084 -32.534120 36.565371 0.368247 2.667598 0.028552 -0.027360 -250681.000000 0 0 1
-15.632537 -5.281784 -31.172160 35.270059 0.325829 2.654748 0.028229 -0.034389 -108624.000000 0 0 1
-15.997037 -6.205084 -30.150490 34.690926 0.370023 2.624212 0.024098 -0.037901 -143874.000000 0 0 1
-16.287937 -5.548184 -28.932780 33.662814 0.328304 2.605063 0.030605 -0.040150 678939.000000 0 0 1
-15.098737 -4.818784 -28.166790 32.319663 0.308933 2.629062 0.018924 -0.037198 815377.000000 0 0 1
-14.555837 -3.727784 -28.877430 32.552646 0.250714 2.661819 0.023117 -0.033943 695894.000000 0 0 1
-13.363537 -3.147784 -28.293800 31.448876 0.231333 2.689823 0.012038 -0.029400 782204.000000 0 0 1
-12.998137 -1.805784 -28.945690 31.781526 0.138043 2.715944 -0.006920 -0.010999 -151043.000000 0 0 1
-12.769137 -1.965784 -30.304100 32.943189 0.152749 2.738596 -0.000879 -0.009615 205688.000000 0 0 1
-13.032137 -0.734784 -30.969090 33.607456 0.056323 2.742708 0.003885 -0.012823 -12236.500000 0 0 1
-12.997737 -0.864784 -32.503490 35.016652 0.066435 2.760421 -0.001537 -0.013647 -486162.000000 0 0 1
-14.251237 -1.222784 -33.013800 35.979216 0.085592 2.732746 0.009941 -0.016369 -114260.000000 0 0 1
-14.267737 -1.369784 34.228722 37.108625 0.095712 0.396567 0.001543 -0.007215 261047.000000 0 0 1
-15.657637 -1.774784 33.632819 37.141325 0.112868 0.438154 0.009384 -0.009830 403823.000000 0 0 1
-15.717837 -2.041784 32.258642 35.942166 0.129179 0.456694 0.005957 -0.015309 -410673.000000 0 0 1
-17.002337 -1.983784 31.713292 36.038143 0.116152 0.494950 0.013386 -0.011184 -473777.000000 0 0 1
-17.080437 -1.809784 30.170522 34.717100 0.105563 0.517539 0.018748 -0.005773 -65044.900000 0 0 1
-16.613537 -0.533784 29.713822 34.047111 0.032118 0.510037 0.015218 0.002650 116941.000000 0 0 1
-16.606437 -0.397784 28.273122 32.791789 0.023949 0.531197 0.012062 -0.007101 -60345.500000 0 0 1
-16.005837 0.950216 27.801752 32.094036 -0.059297 0.523131 0.014979 -0.004336 472494.000000 0 0 1
-16.842437 2.036216 28.226492 32.932487 -0.120314 0.541179 0.021023 -0.000714 1750120.000000 0 0 1
-18.157237 2.288216 27.647602 33.155861 -0.125361 0.584718 0.038010 -0.009209 1219300.000000 0 0 1
-18.167637 2.959216 26.229992 32.044227 -0.161466 0.611904 0.042154 -0.019429 -557016.000000 0 0 1
-17.764737 4.355216 26.247812 31.992209 -0.240419 0.608609 0.039734 -0.014692 398503.000000 0 0 1
-18.386337 5.031216 25.145522 31.554204 -0.267100 0.648651 0.045677 -0.009456 -413211.000000 0 0 1
-18.191837 6.586216 25.141712 31.724232 -0.347362 0.655886 0.039618 -0.004053 162625.000000 0 0 1
-16.931337 7.219216 24.972342 31.022655 -0.403041 0.635170 0.029821 0.006062 -94032.200000 0 0 1
-16.301837 6.932216 23.756132 29.633753 -0.402075 0.640733 0.033315 -0.002414 35733.500000 0 0 1
-14.968337 7.716216 23.562172 28.961475 -0.475973 0.620532 0.030931 -0.003532 552356.000000 0 0 1
-13.904737 7.316216 24.426112 29.043135 -0.484362 0.571614 0.026094 -0.006268 -65561.100000 0 0 1
-12.818637 8.175216 24.173542 28.557166 -0.567723 0.561426 0.034651 -0.007771 -912212.000000 0 0 1
-11.511337 7.845216 24.854912 28.492542 -0.598216 0.510848 0.033735 -0.003043 -677838.000000 0 0 1
-10.546537 8.751216 24.317222 27.913089 -0.692633 0.513203 0.034373 -0.002326 449647.000000 0 0 1
-9.340037 8.729216 25.089622 28.158918 -0.751607 0.471251 0.037088 -0.007705 343762.000000 0 0 1
-9.183137 10.007216 25.896182 29.241864 -0.828314 0.483042 0.046771 -0.011916 -445939.000000 0 0 1
-10.241637 10.175216 26.819132 30.458037 -0.782145 0.493823 0.033610 -0.011376 174835.000000 0 0 1
-10.371737 11.420216 27.489392 31.522388 -0.833474 0.511402 0.044474 -0.011181 -343544.000000 0 0 1
-10.857337 12.655216 26.626542 31.416699 -0.861714 0.559485 0.043588 -0.008959 692331.000000 0 0 1
-12.219037 12.712216 26.177502 31.562112 -0.805177 0.592770 0.039574 -0.004475 638411.000000 0 0 1
-12.534037 11.843216 25.076102 30.433119 -0.757067 0.602407 0.036636 -0.001289 -285580.000000 0 0 1
-14.010637 11.731216 24.661622 30.693892 -0.697079 0.637695 0.028379 0.003180 -337157.000000 0 0 1
-14.550937 12.945216 24.213342 31.074014 -0.727066 0.677384 0.031492 -0.004248 1183460.000000 0 0 1
-15.943037 12.907216 23.777882 31.403254 -0.680557 0.711813 0.035847 0.003731 1528300.000000 0 0 1
-16.232137 12.252216 22.407272 30.260286 -0.646574 0.737005 0.032680 0.009684 -367493.000000 0 0 1
-16.224037 10.820216 22.409872 29.706882 -0.588181 0.716108 0.030054 0.006866 115843.000000 0 0 1
-16.272437 10.426216 21.033772 28.564274 -0.569830 0.743112 0.022628 0.006509 -33038.900000 0 0 1
-16.564737 8.966216 20.669472 27.964453 -0.496126 0.739013 0.027579 -0.000619 9078.930000 0 0 1
-17.909737 8.683216 20.970172 28.912023 -0.451440 0.759312 0.025967 0.008687 -252279.000000 0 0 1
-18.294637 7.350216 20.758672 28.629389 -0.382030 0.759642 0.022239 0.007842 -285049.000000 0 0 1
-19.778937 7.066216 21.006072 29.705098 -0.343128 0.785332 0.031980 0.008413 -311048.000000 0 0 1
-19.962737 7.334216 22.410172 30.895265 -0.352087 0.759240 0.032141 0.003797 -623542.000000 0 0 1
-21.310837 7.285216 22.759172 32.018839 -0.329400 0.780153 0.017583 0.002135 -490292.000000 0 0 1
-21.657637 8.227216 24.005982 33.362067 -0.363039 0.767629 0.021982 0.005666 -509538.000000 0 0 1
-21.559537 9.671216 23.939592 33.637035 -0.421674 0.778876 0.019329 -0.000534 1209180.000000 0 0 1
-20.243937 10.232216 23.663822 32.779440 -0.467995 0.764237 0.020454 0.001640 1272790.000000 0 0 1
-19.082037 9.999216 24.636092 32.726831 -0.482672 0.718522 0.029260 -0.003266 -490994.000000 0 0 1
-19.286337 10.598216 25.884712 33.975039 -0.502474 0.704594 0.034746 -0.001635 68395.900000 0 0 1
-19.061837 9.720216 26.970682 34.427517 -0.471561 0.670671 0.034034 -0.004465 23487.900000 0 0 1
-31.230727 -14.393598 20.838172 40.208997 0.431864 1.025997 0.030665 0.009204 -25287.200000 0 0 1
-30.512857 -15.591498 21.154372 40.269551 0.472394 1.017706 0.023304 0.014944 290252.000000 0 0 1
-30.864077 -16.716898 20.323672 40.559803 0.496394 1.045951 0.004937 0.027435 109710.000000 0 0 1
-30.274577 -16.717798 18.871472 39.397554 0.504535 1.071280 0.000631 0.017609 18132.200000 0 0 1
-30.937627 -15.787598 17.988972 39.115063 0.471857 1.092915 0.013017 -0.000329 -166106.000000 0 0 1
-30.311557 -15.633598 16.775672 38.008197 0.476179 1.113672 0.018411 -0.001582 -1143590.000000 0 0 1
-30.790907 -14.401398 15.912672 37.532564 0.437488 1.132972 0.016005 -0.002224 230361.000000 0 0 1
-32.041987 -14.605598 15.263072 38.379341 0.427689 1.161799 0.031665 -0.005674 1534220.000000 0 0 1
-33.245157 -14.560498 16.093772 39.702117 0.412808 1.153420 0.032978 -0.007898 599942.000000 0 0 1
-33.753617 -13.209098 16.626472 39.877644 0.373018 1.140723 0.022973 -0.005082 -395109.000000 0 0 1
-34.923599 -13.354998 17.409472 41.244436 0.365248 1.135031 0.015243 -0.008561 70632.000000 0 0 1
-35.460258 -12.064598 17.685472 41.421738 0.327944 1.129667 0.011069 0.001198 835547.000000 0 0 1
35.159721 -12.047898 18.712772 41.611605 -0.330123 1.104366 0.006608 0.021337 716101.000000 0 0 1
35.619331 -12.510598 19.951272 42.700177 -0.337771 1.084629 0.008105 0.017115 -93196.700000 0 0 1
34.821151 -11.944298 20.939872 42.351589 -0.330442 1.053618 0.006799 0.009525 -836492.000000 0 0 1
35.139461 -12.487198 22.359072 43.481490 -0.341443 1.030698 0.004754 0.004977 33042.600000 0 0 1
-35.489172 -11.949498 22.865772 43.876137 0.324785 1.022606 0.002558 0.005247 228083.000000 0 0 1
-34.268100 -12.593598 22.502472 42.886626 0.352181 1.018438 -0.002217 0.004051 210718.000000 0 0 1
-33.015007 -11.754598 22.828672 41.824748 0.342044 0.993432 0.015037 0.000751 48179.200000 0 0 1
-32.862757 -10.683598 21.915272 40.919179 0.314320 1.005608 0.023791 0.003108 109058.000000 0 0 1
-31.582587 -10.069998 21.966872 39.766923 0.308656 0.985567 0.039770 -0.006966 -45829.900000 0 0 1
-31.529617 -8.835098 21.028872 38.915154 0.273209 0.999911 0.038367 0.000458 93479.300000 0 0 1
-31.617147 -9.026098 19.630072 38.294310 0.278084 1.032574 0.033545 0.003224 371737.000000 0 0 1
-32.949917 -9.219298 19.165272 39.217345 0.272821 1.060204 0.033263 -0.000495 208800.000000 0 0 1
-33.033077 -8.967198 17.642872 38.507996 0.265073 1.094871 0.038881 -0.006724 -1342800.000000 0 0 1
-34.342670 -9.131798 17.276672 39.513189 0.259889 1.118271 0.026648 0.002001 -1186410.000000 0 0 1
-34.668870 -8.603598 16.027972 39.151607 0.243251 1.149019 0.034667 -0.003482 -872290.000000 0 0 1
35.663571 -8.453798 15.858672 39.935629 -0.232747 1.162435 0.029925 -0.004602 -676308.000000 0 0 1
34.880561 -9.635798 16.005672 39.568721 -0.269529 1.154361 0.031520 0.005168 -256201.000000 0 0 1
33.505941 -9.334998 15.980972 38.277693 -0.271717 1.140103 0.033838 0.005028 -387219.000000 0 0 1
32.722341 -10.629498 15.831972 37.873331 -0.314086 1.139527 0.041109 0.000738 -547633.000000 0 0 1
32.494181 -11.361698 17.048872 38.413852 -0.336366 1.110938 0.036803 -0.001054 26289.100000 0 0 1
31.478891 -12.338198 16.977572 37.833711 -0.373549 1.105439 0.035203 -0.002293 227044.000000 0 0 1
30.976911 -12.863498 18.326372 38.221650 -0.393593 1.070739 0.030442 -0.003654 -198565.000000 0 0 1
31.865001 -13.825598 18.771872 39.483017 -0.409368 1.075330 0.031462 0.000647 -278540.000000 0 0 1
31.701131 -13.969498 20.150572 40.076853 -0.415062 1.043963 0.023883 0.004175 -474089.000000 0 0 1
32.535861 -15.093298 20.697172 41.409695 -0.434351 1.047412 0.011053 0.012732 -198034.000000 0 0 1
32.755681 -15.020698 22.076072 42.260016 -0.429956 1.021149 0.011706 0.008826 -415869.000000 0 0 1
33.311771 -16.182798 22.578572 43.374520 -0.452222 1.023302 0.003850 0.017020 -104491.000000 0 0 1
33.562471 -16.099898 24.093732 44.341336 -0.447276 0.996351 0.015191 0.008236 -20532.700000 0 0 1
34.677941 -15.298198 24.368242 45.060023 -0.415471 0.999414 0.007019 0.012181 -154961.000000 0 0 1
34.915561 -15.091598 25.759302 45.939029 -0.407980 0.975532 0.008792 0.013360 -344431.000000 0 0 1
-35.777515 -14.110898 26.094532 46.476582 0.375675 0.974653 0.013269 0.000972 -734463.000000 0 0 1
-34.508988 -14.614798 25.817192 45.508131 0.400605 0.967561 -0.002139 0.004656 -284131.000000 0 0 1
-33.486117 -13.725198 26.268582 44.718447 0.388992 0.942927 0.009506 -0.005788 982745.000000 0 0 1
-32.054457 -14.307698 25.972972 43.666849 0.419819 0.933781 0.010876 -0.003742 315701.000000 0 0 1
-31.753087 -14.488898 24.605752 42.703978 0.428080 0.956733 0.000830 0.006584 1173530.000000 0 0 1
-30.484177 -15.164798 24.321052 41.842200 0.461617 0.950524 0.021695 -0.006234 1260170.000000 0 0 1
-30.217067 -16.574398 24.795982 42.457303 0.501699 0.947122 0.023244 -0.002113 -883207.000000 0 0 1
-30.007347 -16.655598 26.207912 43.182224 0.506713 0.918624 0.022956 -0.009364 160624.000000 0 0 1
-29.888667 -18.013998 26.575682 43.864603 0.542405 0.919954 0.025802 -0.011671 -252484.000000 0 0 1
-29.499767 -18.122898 28.068032 44.570059 0.550897 0.889564 0.032569 -0.018653 -612206.000000 0 0 1
-28.239537 -17.579098 28.307932 43.678773 0.556799 0.865718 0.040822 -0.020320 -432456.000000 0 0 1
-27.747587 -18.024898 29.565182 44.372576 0.576096 0.841569 0.054120 -0.022583 446216.000000 0 0 1
-26.451937 -17.294198 30.024812 43.592243 0.579040 0.811012 0.042850 -0.019932 257503.000000 0 0 1
-26.636307 -15.981698 30.459312 43.504910 0.540417 0.795210 0.063165 -0.025430 587433.000000 0 0 1
-25.397197 -15.286898 30.263832 42.362795 0.541825 0.775035 0.050790 -0.021403 53160.000000 0 0 1
-25.281957 -13.923498 31.078542 42.413641 0.503402 0.748444 0.049430 -0.014756 -196685.000000 0 0 1
-24.857937 -14.046298 32.422372 43.202150 0.514334 0.722007 0.051452 -0.014280 189091.000000 0 0 1
-24.747737 -12.813998 33.113586 43.280003 0.477774 0.699598 0.042203 -0.000961 -379765.000000 0 0 1
-23.919437 -12.806498 -34.203587 43.658118 0.491566 2.470981 0.044280 -0.002707 1163500.000000 0 0 1
-22.489837 -12.949098 34.209081 42.938714 0.522417 0.648989 0.012337 0.002923 1328840.000000 0 0 1
-22.007137 -14.305398 34.183444 43.098333 0.576399 0.654832 0.018543 -0.004955 -227705.000000 0 0 1
-22.047637 -15.121598 -33.164960 42.599010 0.601173 2.463130 0.030990 -0.010222 -47576.900000 0 0 1
-21.043937 -14.706998 -32.217380 41.195906 0.609968 2.468750 0.004327 -0.003793 513490.000000 0 0 1
-21.083937 -15.519098 -31.035090 40.602360 0.634521 2.440855 0.023298 -0.010018 1207570.000000 0 0 1
-19.725037 -15.388898 -30.196430 39.213769 0.662532 2.449711 0.029697 -0.009769 1196050.000000 0 0 1
-19.621837 -14.268998 -29.326360 38.061217 0.628749 2.450429 0.016020 -0.006903 152157.000000 0 0 1
-20.271037 -14.359698 -28.061850 37.477771 0.616331 2.416985 0.027889 -0.008906 -65134.900000 0 0 1
-20.008337 -13.162998 -27.101520 36.167534 0.581892 2.417850 0.026717 -0.003690 408182.000000 0 0 1
-18.651137 -13.144398 -26.653680 35.086448 0.613907 2.433582 0.026443 -0.007908 490276.000000 0 0 1
-18.463937 -11.866798 -26.045740 34.060512 0.571227 2.441357 0.028873 -0.011711 378132.000000 0 0 1
-17.070037 -11.838798 -25.363790 32.785137 0.606379 2.455357 0.035699 -0.017009 -338397.000000 0 0 1
-17.005837 -12.470498 -24.113520 32.033946 0.632732 2.423024 0.050102 -0.018034 890120.000000 0 0 1
-15.726637 -12.642098 -23.466120 30.948483 0.677093 2.431393 0.048460 -0.022205 993292.000000 0 0 1
-14.617437 -13.501298 -24.139420 31.283640 0.745725 2.452197 0.032248 -0.017806 -285507.000000 0 0 1
-13.974537 -12.882298 -25.188330 31.554608 0.744752 2.495173 0.039628 -0.022498 -205251.000000 0 0 1
-13.341437 -13.758698 -26.126950 32.402365 0.800794 2.508714 0.034117 -0.014041 -170753.000000 0 0 1
-12.473737 -13.021098 -27.128690 32.574668 0.806864 2.554971 0.032459 -0.015853 -396785.000000 0 0 1
-13.132137 -12.125398 -27.990270 33.210443 0.745560 2.573289 0.040051 -0.018050 174647.000000 0 0 1
-12.217437 -11.672298 -28.950200 33.520478 0.762583 2.613277 0.046925 -0.025488 47598.300000 0 0 1
-12.983637 -10.623798 -29.745770 34.150414 0.685767 2.628076 0.024341 -0.018426 524692.000000 0 0 1
-12.172037 -9.748398 -30.578670 34.325571 0.675280 2.669992 0.018166 -0.011994 417245.000000 0 0 1
-11.707637 -10.347198 -31.815680 35.445321 0.723792 2.685088 0.031415 -0.006242 -343258.000000 0 0 1
-11.031637 -9.286298 -32.632330 35.676342 0.699707 2.725504 0.035509 -0.007279 303549.000000 0 0 1
-9.869537 -8.835398 -31.914800 34.554689 0.730167 2.748171 0.036366 -0.001822 79815.300000 0 0 1
-9.235137 -7.733498 -32.469920 34.632218 0.697133 2.786355 0.022673 -0.006742 -1367140.000000 0 0 1
-7.746837 -7.759798 -32.250920 34.063908 0.786234 2.813867 0.036633 -0.002211 -1152790.000000 0 0 1
-7.186137 -7.587398 -30.956300 32.672645 0.812552 2.816022 0.025403 -0.007026 -106191.000000 0 0 1
-7.442537 -6.308298 -30.319270 31.850340 0.703099 2.830270 0.010631 -0.005369 -499183.000000 0 0 1
-6.680037 -5.071698 -30.886140 32.004667 0.649383 2.876435 0.005659 -0.009272 -438110.000000 0 0 1
-5.326537 -4.998998 -30.523870 31.385803 0.753688 2.906692 0.009792 -0.007201 -400825.000000 0 0 1
-4.914137 -3.710898 -30.978210 31.584316 0.646787 2.945369 0.024012 -0.003919 167114.000000 0 0 1
-3.429637 -3.389198 -30.668470 31.045195 0.779468 2.985648 0.034693 -0.001731 50781.400000 0 0 1
-2.480537 -4.233898 -31.261850 31.644624 1.040827 2.985898 0.030896 -0.006176 705992.000000 0 0 1
-1.087237 -4.051098 -31.001240 31.283708 1.308594 3.007110 0.040324 -0.005828 1377110.000000 0 0 1
-0.316237 -2.746798 -31.435760 31.557122 1.456172 3.053863 0.029710 -0.005587 -200159.000000 0 0 1
-0.596037 -1.567798 -30.653320 30.699174 1.207497 3.086930 0.015038 -0.003338 157551.000000 0 0 1
0.268063 -0.476998 -31.014910 31.019737 -1.058803 3.123953 0.028605 0.005394 494524.000000 0 0 1
0.475463 0.561002 -29.857160 29.866215 0.867741 3.116968 0.034845 0.002177 11873.100000 0 0 1
-0.580537 1.459802 -29.635480 29.677091 -1.192289 3.088631 0.039681 0.001293 -416635.000000 0 0 1
-0.262037 2.413202 -28.687510 28.790024 -1.462635 3.057179 0.043077 -0.004278 -413948.000000 0 0 1
-1.497337 3.240702 -28.405720 28.629166 -1.137974 3.016573 0.045427 -0.000896 -1496750.000000 0 0 1
-1.585237 4.586802 -28.791100 29.197246 -1.238039 2.974603 0.031849 0.013731 -509898.000000 0 0 1
-2.891137 5.061502 -28.783950 29.368236 -1.051821 2.941785 0.059550 -0.002083 -1058630.000000 0 0 1
-3.963437 4.464802 -29.653790 30.248811 -0.844814 2.942918 0.069252 -0.013355 -1695430.000000 0 0 1
-3.711737 4.593502 -31.036570 31.593448 -0.891172 2.953559 0.073840 -0.019358 263160.000000 0 0 1
-4.838337 5.113602 -31.737040 32.508432 -0.813050 2.923311 0.082561 -0.015597 95278.800000 0 0 1
-4.410337 5.756102 -33.124880 33.909313 -0.917006 2.926079 0.079844 -0.019581 151962.000000 0 0 1
-3.906237 4.918802 -34.159083 34.731776 -0.899636 2.959744 0.088120 -0.019248 -66924.100000 0 0 1
-2.657237 4.315002 -33.971930 34.347812 -1.018830 2.993516 0.068046 -0.019388 -746665.000000 0 0 1
-2.343637 3.533402 33.348581 33.617040 -0.985141 0.126463 0.058760 -0.021265 172076.000000 0 0 1
-3.177337 2.407302 32.942284 33.182595 -0.648378 0.120423 0.051265 -0.026773 489100.000000 0 0 1
-2.708237 1.790302 31.744762 31.910337 -0.584110 0.101914 0.066762 -0.021252 -135243.000000 0 0 1
-2.682137 2.659102 30.499462 30.732423 -0.781085 0.123206 0.069560 -0.017442 -804754.000000 0 0 1
-3.836937 3.331402 30.175032 30.599883 -0.714991 0.166831 0.055186 -0.020975 -722156.000000 0 0 1
-3.608037 4.122002 29.010752 29.523424 -0.851790 0.186630 0.056014 -0.028515 -36462.400000 0 0 1
-4.782037 5.083502 28.888002 29.719127 -0.815946 0.237054 0.062785 -0.023042 -47124.900000 0 0 1
-4.618837 5.983602 27.806392 28.815492 -0.913416 0.265427 0.054227 -0.011238 404543.000000 0 0 1
-5.874137 6.638402 27.598592 28.987172 -0.846402 0.310775 0.039773 -0.008939 404190.000000 0 0 1
-5.879337 7.445502 26.314832 27.972709 -0.902399 0.346013 0.043443 -0.009528 407927.000000 0 0 1
-4.923637 8.517502 26.348462 28.125282 -1.046665 0.357356 0.042587 -0.004178 316592.000000 0 0 1
-5.078137 9.254902 25.156422 27.281610 -1.068954 0.397319 0.055177 -0.008174 363601.000000 0 0 1
-4.250737 10.589002 25.113842 27.584430 -1.189058 0.426461 0.043185 -0.009116 -472057.000000 0 0 1
-4.640937 11.494602 24.055402 27.061532 -1.187062 0.475825 0.058249 -0.014982 -38326.100000 0 0 1
-4.033137 12.750902 24.038242 27.507976 -1.264451 0.507701 0.044114 -0.009734 -1162160.000000 0 0 1
-2.505237 12.839202 23.907432 27.252277 -1.378094 0.500665 0.024954 -0.009261 -588544.000000 0 0 1
-1.759337 12.432702 25.048272 28.019337 -1.430221 0.464683 0.023257 -0.003764 -155675.000000 0 0 1
-1.981537 13.175302 26.267152 29.452985 -1.421517 0.469415 0.042612 -0.005287 -1159930.000000 0 0 1
-1.227437 12.655202 27.516242 30.311785 -1.474108 0.432851 0.042985 -0.005626 235659.000000 0 0 1
0.161263 12.910902 27.414182 30.302719 1.558307 0.440175 0.041471 -0.005229 -368339.000000 0 0 1
0.807963 12.423502 28.561942 31.157354 1.505853 0.411055 0.046348 -0.014530 672968.000000 0 0 1
2.344963 12.700902 28.622862 31.401910 1.388223 0.423878 0.041201 -0.008485 712667.000000 0 0 1
2.692663 14.051502 28.552242 31.936275 1.381463 0.464517 0.033899 -0.012010 473438.000000 0 0 1
4.081763 14.186602 28.217582 31.845759 1.290644 0.481998 0.046135 -0.014287 630775.000000 0 0 1
4.747963 15.540202 28.339942 32.667925 1.274276 0.520610 0.045138 -0.009221 -329456.000000 0 0 1
4.818663 15.940302 29.695522 34.046097 1.277236 0.511083 0.061800 -0.002503 617323.000000 0 0 1
3.829263 16.901702 30.127842 34.756548 1.347997 0.521998 0.040851 -0.001265 396357.000000 0 0 1
3.980563 18.331202 29.590052 35.034968 1.356969 0.565004 0.048784 0.000320 -22271.000000 0 0 1
5.059663 19.095302 30.083312 35.989393 1.311780 0.581037 0.072755 0.007706 33076.100000 0 0 1
5.208063 20.320302 29.363982 36.087145 1.319899 0.620313 0.050282 0.006433 -162500.000000 0 0 1
6.322963 21.226602 29.877422 37.191515 1.281286 0.637914 0.048585 0.014905 -419731.000000 0 0 1
5.987463 21.741702 31.145252 38.452282 1.302067 0.626693 0.039490 0.000044 -617495.000000 0 0 1
6.969463 22.474802 31.746962 39.516575 1.270098 0.637841 0.013620 -0.000385 -987347.000000 0 0 1
7.288463 23.925702 31.156592 39.953649 1.275098 0.676421 -0.001333 0.004554 -437225.000000 0 0 1
7.878763 23.939502 29.904272 39.108057 1.252850 0.700287 -0.017156 0.006254 84366.500000 0 0 1
8.081363 25.235802 29.413782 39.589452 1.260881 0.733299 -0.020272 0.000595 43270.600000 0 0 1
8.567363 25.262802 27.950412 38.637215 1.243838 0.762073 -0.014279 -0.005463 -224641.000000 0 0 1
7.550963 24.901502 27.036722 37.524474 1.276376 0.766260 -0.014291 -0.004911 -9762.190000 0 0 1
8.016563 24.797302 25.723052 36.617576 1.258118 0.791923 0.000562 -0.008973 -535954.000000 0 0 1
28.759111 2.149702 6.844780 29.640491 0.074610 1.337766 0.083728 -0.005810 -16816.900000 0 0 1
29.086201 3.156202 7.771780 30.271592 0.108089 1.311154 0.080481 -0.015537 173758.000000 0 0 1
28.365271 2.986302 8.974980 29.900784 0.104894 1.265937 0.064564 -0.006766 -266675.000000 0 0 1
28.690311 4.036702 10.144480 30.697547 0.139782 1.234000 0.061909 -0.006409 -2855.280000 0 0 1
28.422561 5.431002 9.934280 30.594570 0.188805 1.240094 0.068375 -0.011959 597328.000000 0 0 1
29.334141 6.013302 8.981480 31.262096 0.202192 1.279394 0.088107 -0.023037 278387.000000 0 0 1
28.959681 7.479202 8.605680 31.123292 0.252740 1.290643 0.102039 -0.024490 496907.000000 0 0 1
27.892711 7.596002 7.654280 29.904692 0.265882 1.311960 0.084536 -0.021557 377722.000000 0 0 1
27.960371 8.901102 7.070280 30.182790 0.308203 1.334351 0.097394 -0.028606 -3237.460000 0 0 1
26.894241 9.168702 5.988080 29.038292 0.328560 1.363093 0.085110 -0.027158 -786469.000000 0 0 1
25.661911 9.603702 6.453480 28.149817 0.358104 1.339484 0.068665 -0.027205 -713336.000000 0 0 1
24.894911 9.721302 5.243880 27.235245 0.372284 1.377046 0.091159 -0.031485 158410.000000 0 0 1
23.479311 10.272802 5.577780 26.228232 0.412432 1.356497 0.039782 -0.027889 25416.200000 0 0 1
23.427411 11.638302 5.906880 26.817623 0.461069 1.348714 0.039268 -0.018349 953985.000000 0 0 1
22.079311 11.977402 6.283780 25.892857 0.497045 1.325665 0.036935 -0.005457 560177.000000 0 0 1
21.898911 13.456602 6.678480 26.556441 0.551004 1.316585 0.008952 0.018978 -311369.000000 0 0 1
21.719411 14.233802 5.545780 26.553524 0.580127 1.360395 0.006232 0.012933 380790.000000 0 0 1
21.792911 15.619702 5.811080 27.434918 0.621868 1.357366 0.022983 0.007909 -161750.000000 0 0 1
21.711811 16.609002 4.625580 27.724676 0.653017 1.403173 0.035902 -0.003270 -1002290.000000 0 0 1
20.489211 16.574902 3.985780 26.653735 0.680179 1.420694 0.044073 0.001454 -413756.000000 0 0 1
20.314211 17.606102 3.036780 27.052986 0.714103 1.458306 0.039257 -0.005648 564866.000000 0 0 1
18.797111 17.676502 2.612080 25.934785 0.754684 1.469908 0.037208 0.005208 597231.000000 0 0 1
18.021211 17.945102 3.758680 25.708333 0.783282 1.424066 0.030134 -0.006010 782293.000000 0 0 1
16.617411 17.743502 3.489180 24.559002 0.818159 1.428241 0.027552 -0.018392 491092.000000 0 1 0
15.862311 18.946602 4.099880 25.047867 0.873774 1.406375 0.030392 -0.019430 -31656.300000 0 0 1
14.454711 18.820902 3.934880 24.055110 0.915866 1.406480 0.039106 -0.025451 10680.700000 0 1 0
13.779211 19.941502 4.306780 24.618662 0.966149 1.394952 0.033896 -0.020709 78404.500000 0 1 0
12.238311 19.804602 4.159680 23.649555 1.017281 1.393988 0.032844 -0.011085 527940.000000 0 1 0
11.550211 19.007702 5.126580 22.825029 1.024764 1.344260 0.026464 -0.028936 71875.500000 0 1 0
10.159511 19.053102 4.923580 22.146738 1.080927 1.346607 0.029366 -0.021215 64962.000000 0 1 0
9.270011 18.359802 5.995280 21.423324 1.103230 1.287160 0.024018 -0.027549 -622685.000000 0 1 0
9.275111 19.276602 7.107980 22.541926 1.122335 1.250000 0.035545 -0.029340 -85119.300000 0 1 0
8.819211 18.770602 8.307080 22.341028 1.131565 1.189816 0.040222 -0.023954 -490823.000000 0 1 0
7.710411 19.582602 9.008980 22.893022 1.195700 1.166333 0.033006 -0.028254 306349.000000 0 1 0
6.445211 19.731802 8.407680 22.395844 1.255081 1.185955 0.030529 -0.033011 -685.645000 0 1 0
6.355911 20.930902 7.617280 23.162971 1.275984 1.235704 0.025690 -0.023055 -746199.000000 0 1 0
5.070411 21.215002 6.798880 22.847541 1.336196 1.268644 0.015857 -0.005553 490110.000000 0 1 0
3.891311 21.438102 7.573880 23.067253 1.391237 1.236252 0.013768 -0.001533 407590.000000 0 1 0
3.814511 22.708602 8.171480 24.433669 1.404373 1.229790 0.015778 -0.013017 -652021.000000 0 1 0
3.925211 24.051102 7.320480 25.445082 1.409020 1.278975 0.011786 -0.013598 -578733.000000 0 0 1
2.864711 24.196402 6.406680 25.193610 1.452951 1.313675 0.024543 -0.014233 -18833.800000 0 0 1
3.000911 25.314802 5.510380 26.080816 1.452803 1.357911 0.039390 -0.007505 305857.000000 0 0 1
1.711711 25.472602 4.642480 25.948719 1.503699 1.390918 0.041923 -0.014846 -153691.000000 0 0 1
0.574811 25.856502 5.325480 26.405489 1.548569 1.367723 0.054146 -0.027202 -503562.000000 0 0 1
-0.447789 26.299702 4.440480 26.675695 -1.553772 1.403556 0.059267 -0.025503 233583.000000 0 0 1
-1.791689 26.630102 5.110780 27.175219 -1.503617 1.381602 0.058952 -0.033304 175585.000000 0 0 1
-2.774789 27.116702 4.212080 27.581816 -1.468824 1.417484 0.084651 -0.033972 -409804.000000 0 0 1
-3.782089 27.807902 4.867980 28.482992 -1.435618 1.399045 0.072718 -0.037090 -157323.000000 0 0 1
-4.909989 28.290502 3.897280 28.976702 -1.398952 1.435890 0.071609 -0.041091 285705.000000 0 0 1
-4.502389 29.417802 3.147580 29.926340 -1.418925 1.465424 0.066623 -0.035283 -464778.000000 0 0 1
-5.420389 29.692902 2.179880 30.262203 -1.390236 1.498701 0.064385 -0.032561 -964567.000000 0 0 1
-4.831489 30.530902 0.985380 30.926529 -1.413849 1.538929 0.057457 -0.029083 -193199.000000 0 0 1
-4.529589 31.904502 1.189480 32.246384 -1.429766 1.533901 0.055217 -0.024629 223520.000000 0 0 1
-3.234389 31.971002 1.767680 32.182774 -1.469973 1.515842 0.050566 -0.031073 -672358.000000 0 0 1
-2.730089 33.377202 1.939180 33.544767 -1.489183 1.512955 0.050027 -0.033227 -868338.000000 0 0 1
-2.022589 33.631702 0.765580 33.701162 -1.510729 1.548078 0.041224 -0.027419 -80755.500000 0 0 1
-1.274189 -33.890884 0.688080 33.921807 1.533217 1.550511 0.048569 -0.027410 180524.000000 0 0 1
0.169211 -34.042084 1.200380 34.063661 -1.565826 1.535550 0.057390 -0.022186 -687418.000000 0 0 1
0.134011 -34.241684 2.646380 34.344056 -1.566883 1.493665 0.046779 -0.025318 160517.000000 0 0 1
1.379411 34.325202 3.305680 34.511589 1.530631 1.474865 0.045394 -0.020188 143856.000000 0 0 1
1.230711 -34.341284 4.809680 34.698291 -1.534974 1.431734 0.040599 -0.019589 -53419.000000 0 0 1
0.242611 33.567002 5.359380 33.993020 1.563569 1.412475 0.046318 -0.031821 -78131.100000 0 0 1
-0.215189 33.964202 6.668080 34.613243 -1.564461 1.376939 0.039113 -0.020638 -134289.000000 0 0 1
0.773511 33.815002 7.837680 34.720050 1.547926 1.343094 0.033182 -0.013127 -70046.000000 0 0 1
1.130911 32.462902 8.090780 33.475060 1.535973 1.326683 0.034006 -0.015193 -215581.000000 0 0 1
2.153611 32.377802 9.054080 33.688818 1.504379 1.298695 0.044996 -0.012248 -192885.000000 0 0 1
2.700611 30.927802 9.122580 32.358054 1.483697 1.284995 0.034842 -0.012894 605405.000000 0 0 1
1.683111 29.979402 9.547380 31.507933 1.514713 1.262941 0.039215 -0.024061 643050.000000 0 0 1
2.280611 28.779102 9.882280 30.513888 1.491716 1.240988 0.042119 -0.016914 -25725.000000 0 0 1
1.786011 28.112202 11.214780 30.319251 1.507350 1.191906 0.023716 -0.017783 -176830.000000 0 0 1
2.532811 28.594002 12.312180 31.234946 1.482448 1.165621 0.038283 -0.013384 -41476.500000 0 0 1
2.523111 27.717602 13.447180 30.910487 1.480017 1.120718 0.036592 -0.015853 311031.000000 0 0 1
1.134211 27.249502 14.043280 30.676302 1.529197 1.095289 0.021906 -0.010889 1250770.000000 0 0 1
0.323311 28.293902 14.669680 31.872385 1.559370 1.092505 0.024978 -0.009123 586976.000000 0 0 1
-0.362189 29.182702 13.825680 32.294128 -1.558386 1.128388 0.030994 -0.009221 -797830.000000 0 0 1
-0.913889 30.350602 14.604480 33.693991 -1.540694 1.122485 0.020241 -0.003457 214543.000000 0 0 1
-2.004689 29.945002 15.438480 33.750090 -1.503950 1.095688 0.009455 0.004681 -197926.000000 0 0 1
-2.788189 31.042402 15.720580 34.907611 -1.481218 1.103641 0.003124 0.004486 -78311.800000 0 0 1
-4.195289 30.628002 16.247980 34.923800 -1.434668 1.086890 0.009078 0.011906 435438.000000 0 0 1
-5.118689 30.030702 15.354680 34.114663 -1.401970 1.103930 0.016270 0.007479 515672.000000 0 0 1
-6.243989 29.534902 16.066480 34.196924 -1.362454 1.081707 0.018849 0.008474 164143.000000 0 0 1
-7.357589 28.892102 15.179080 33.455823 -1.321439 1.099878 0.005109 0.002790 56785.300000 0 0 1
-8.474689 28.489802 15.920580 33.718749 -1.281668 1.079059 0.008432 -0.001274 -1182790.000000 0 0 1
-9.426689 27.960302 15.103780 33.147626 -1.245619 1.097692 0.021795 -0.004795 -446302.000000 0 0 1
-10.668689 27.440002 15.893080 33.456907 -1.199982 1.075797 0.020282 -0.004429 -134901.000000 0 0 1
-11.488589 28.363602 16.524080 34.778252 -1.185947 1.075688 0.009212 -0.002473 162128.000000 0 0 1
-10.937989 28.975002 17.688580 35.666177 -1.209838 1.051870 0.005019 -0.001883 -745842.000000 0 0 1
-11.842389 30.112402 18.141980 37.096231 -1.196103 1.059794 0.006141 0.002417 -166543.000000 0 0 1
-13.069589 29.655702 18.675880 37.404054 -1.155694 1.048005 0.012470 0.002116 -33567.700000 0 0 1
-13.921089 30.765902 18.854480 38.675946 -1.145878 1.061573 0.027821 0.004389 61182.400000 0 0 1
-14.905689 30.662402 20.050380 39.552246 -1.118312 1.039172 0.039323 0.001776 -133133.000000 0 0 1
-14.363189 30.793802 21.321080 40.114185 -1.134363 1.010414 0.033850 0.007670 -122902.000000 0 0 1
-15.317389 30.532902 22.344280 40.818468 -1.105815 0.991535 0.024864 0.017107 -76851.900000 0 0 1
-14.766589 30.572102 23.791080 41.457460 -1.120834 0.959576 0.018239 0.019603 188981.000000 0 0 1
-13.639589 29.674102 23.941580 40.494320 -1.139950 0.938209 0.012500 0.011515 858441.000000 0 0 1
-13.280289 29.278902 25.267080 40.890653 -1.144970 0.904704 0.031116 0.006878 176751.000000 0 0 1
-12.698189 30.408602 26.189480 42.092944 -1.175223 0.899269 0.028518 0.010117 -209361.000000 0 0 1
-13.662789 31.401802 26.466480 43.280706 -1.160406 0.912832 0.021073 0.008571 13645.500000 0 0 1
-13.132889 32.397702 27.260680 44.330898 -1.185674 0.908491 0.021574 0.008306 -634758.000000 0 0 1
-14.136289 33.472202 27.665880 45.668631 -1.171190 0.920030 0.025601 0.004126 330391.000000 0 0 1
-15.035789 33.087802 28.731780 46.329178 -1.144272 0.901842 0.005264 0.001660 788054.000000 0 0 1
-14.362789 33.158402 29.999780 46.965478 -1.162037 0.877908 0.033409 0.002462 140835.000000 0 0 1
-15.079289 32.355602 31.157080 47.381785 -1.134677 0.853201 0.024586 -0.000028 -411109.000000 0 0 1
-16.380389 32.803002 31.378980 48.259656 -1.107664 0.862934 0.025726 0.001243 -764286.000000 0 0 1
-16.796189 32.292502 32.640780 48.891084 -1.091177 0.839786 0.026182 -0.003546 -267379.000000 0 0 1
-18.161589 32.810802 33.073880 50.002735 -1.065251 0.848057 0.032964 -0.002780 -467382.000000 0 0 1
-18.310789 34.130102 33.486380 51.200454 -1.078377 0.857903 0.037186 0.000877 -323561.000000 0 0 1
-19.670689 -34.244084 33.486280 51.777642 1.049394 0.867504 0.034662 -0.000467 -36687.300000 0 0 1
-20.022889 -32.705584 33.626380 51.002987 1.021443 0.850906 0.031766 0.003973 -81840.000000 0 0 1
-19.595589 -32.098384 -33.775513 50.547785 1.022703 2.302569 0.039501 0.005456 32305.400000 0 0 1
-20.335089 -32.409484 -32.586013 50.256728 1.010443 2.276265 0.034672 0.006384 9842.620000 0 0 1
-19.886889 -31.702084 -31.324213 48.802835 1.010541 2.267708 0.041217 0.005057 112591.000000 0 0 1
-20.268289 -30.295784 -31.276813 48.029960 0.981171 2.279953 0.041339 0.004973 199091.000000 0 0 1
-19.488989 -29.633584 -30.312513 46.656386 0.989051 2.277982 0.037854 0.001165 90066.400000 0 0 1
-19.849389 -28.161284 -30.423113 45.963267 0.956825 2.294148 0.029190 -0.007397 604259.000000 0 0 1
-21.176189 -27.916984 -29.952113 46.096833 0.921851 2.278072 0.033465 -0.004423 181836.000000 0 0 1
-21.384189 -26.533984 -30.178913 45.520353 0.892458 2.295584 0.022041 -0.005670 -566612.000000 0 0 1
-22.652689 -26.153484 -29.452813 45.438059 0.857004 2.276011 0.036557 -0.008646 -651788.000000 0 0 1
-22.524489 -26.393784 -28.021513 44.600332 0.864331 2.250137 0.035396 -0.013437 176673.000000 0 0 1
-21.702189 -25.460884 -27.345013 43.208695 0.864926 2.256037 0.033368 -0.022794 -3288.360000 0 0 1
-21.556589 -25.796484 -25.808513 42.381888 0.874698 2.225534 0.036726 -0.015399 -194277.000000 0 0 1
-22.709989 -25.426484 -25.114613 42.343753 0.841772 2.205716 0.039202 -0.017596 -169874.000000 0 0 1
-22.548989 -25.832184 -23.790513 41.734244 0.853155 2.177360 0.034412 -0.009382 -169050.000000 0 0 1
-23.834789 -25.665784 -22.899813 41.847712 0.822371 2.149833 0.035249 -0.007600 1046460.000000 0 0 1
-24.973389 -26.450584 -23.269113 43.182810 0.814116 2.139869 0.052572 -0.006663 104300.000000 0 0 1
-24.839389 -27.821384 -23.241913 43.945547 0.841964 2.128076 0.038564 -0.005357 -934502.000000 0 0 1
-26.122089 -28.720784 -23.419713 45.340157 0.832747 2.113594 0.042796 -0.007955 1543830.000000 0 0 1
-27.175989 -28.579884 -22.436213 45.373205 0.810572 2.088035 0.046182 0.001873 446689.000000 0 0 1
-27.985689 -27.465384 -22.598813 45.257623 0.776015 2.093630 0.041085 0.002992 -744167.000000 0 0 1
-28.659489 -27.085284 -21.281613 44.809440 0.757166 2.065688 0.037527 -0.000569 -160170.000000 0 0 1
-29.596389 -27.988084 -20.763013 45.720693 0.757476 2.042189 0.036508 0.001461 -16758.700000 0 0 1
-30.194189 -27.411284 -19.645613 45.266076 0.737126 2.019728 0.026393 0.006341 -291470.000000 0 0 1
-31.111089 -28.331684 -18.763313 46.072183 0.738675 1.990247 0.018820 0.009037 -97264.700000 0 0 1
-32.442389 -28.581784 -19.138313 47.283210 0.722219 1.987512 0.014837 0.005537 711443.000000 0 0 1
-33.434089 -27.546884 -19.174113 47.374209 0.689155 1.987488 0.016057 0.007989 184400.000000 0 0 1
-33.861089 -27.091184 -17.765813 46.862881 0.674783 1.959622 0.016280 0.009154 -1062390.000000 0 0 1
-32.850389 -26.314384 -17.215013 45.474735 0.675373 1.959039 0.015581 0.012030 186078.000000 0 0 1
-33.259889 -25.802784 -15.900313 44.998042 0.659805 1.931952 0.010418 0.010702 51347.700000 0 0 1
-33.026289 -26.716584 -14.680313 44.944668 0.680174 1.903533 0.017067 0.014115 -409506.000000 0 0 1
-33.912589 -27.770984 -14.515713 46.173554 0.686159 1.890592 0.010993 0.011168 -131776.000000 0 0 1
-33.847189 -28.257984 -13.211413 46.029200 0.695644 1.861913 -0.003362 0.015494 -102693.000000 0 0 1
-34.446089 -29.671984 -12.989013 47.282915 0.711077 1.849083 0.001171 0.013309 75654.200000 0 0 1
-33.840689 -30.739684 -13.762513 47.744394 0.737417 1.863199 0.002071 0.005590 398752.000000 0 0 1
-34.344089 -31.963984 -13.296213 48.764761 0.749519 1.846953 0.001144 -0.000201 -313640.000000 0 0 1
-33.841489 -33.186284 -14.094713 49.449335 0.775623 1.859838 -0.004374 0.006672 -54020.600000 0 0 1
-32.469289 -33.515784 -13.997713 48.718563 0.801256 1.862222 -0.005129 0.009795 181422.000000 0 0 1
-32.160689 34.132302 -14.833913 49.187080 -0.815130 1.877147 0.008946 -0.006123 1166340.000000 0 0 1
-30.623289 34.041502 -15.219613 48.251904 -0.838210 1.891695 0.009674 0.001463 1105520.000000 0 0 1
-30.293089 33.179302 -16.218913 47.765996 -0.830839 1.917234 0.022704 -0.000943 -1266380.000000 0 0 1
-28.947289 32.921002 -16.048413 46.682860 -0.849539 1.921731 0.022015 -0.000040 -1185370.000000 0 0 1
9.274063 19.720002 -9.178620 23.646010 1.131200 1.969439 0.017061 -0.013503 860698.000000 0 1 0
7.850563 19.895102 -9.398920 23.362066 1.194956 1.984841 0.022882 -0.012754 1180810.000000 0 1 0
7.479663 19.950002 -10.774120 23.875293 1.212095 2.038980 0.035463 -0.014078 187162.000000 0 1 0
7.561663 18.608502 -11.569720 23.180024 1.184823 2.093385 0.032486 -0.007168 305936.000000 0 1 0
8.898463 18.189402 -11.892520 23.483377 1.115817 2.101828 0.042789 -0.012676 591973.000000 0 1 0
8.935263 17.054402 -12.721120 23.076361 1.088191 2.154672 0.043943 -0.019979 -222218.000000 0 1 0
10.301463 16.564502 -13.259820 23.586557 1.014429 2.167812 0.058250 -0.013630 74381.700000 0 1 0
10.197963 15.306102 -13.982820 23.103992 0.983070 2.220829 0.074099 -0.026411 -6486.700000 0 1 0
11.430463 14.911202 -14.547920 23.762184 0.916775 2.229674 0.087432 -0.031322 -226276.000000 0 1 0
11.238663 13.824502 -15.602820 23.682745 0.888207 2.290054 0.073872 -0.028744 -266396.000000 0 1 0
11.153563 12.457402 -15.165220 22.573718 0.840564 2.307444 0.081252 -0.025040 267110.000000 0 1 0
12.317563 11.983002 -14.471820 22.466603 0.771631 2.270705 0.093046 -0.021560 22142.000000 0 1 0
13.309863 11.351702 -15.473520 23.354730 0.706163 2.295006 0.107506 -0.027473 -626820.000000 0 1 0
13.999463 12.287902 -16.212720 24.694732 0.720380 2.287000 0.091513 -0.019951 -199226.000000 0 1 0
14.776563 11.656002 -17.222820 25.511463 0.667885 2.311898 0.081058 -0.019548 261848.000000 0 0 1
15.446263 12.650002 -18.210320 27.022682 0.686201 2.310258 0.058273 -0.016243 536529.000000 0 0 1
16.542363 13.409902 -17.698120 27.689325 0.681195 2.264212 0.034719 -0.009967 270847.000000 0 0 1
17.107263 14.153402 -18.790820 29.087319 0.691187 2.273147 0.026717 -0.008241 -98849.900000 0 0 1
18.325963 15.003402 -18.378220 29.978358 0.686038 2.230711 0.011459 0.004151 -553937.000000 0 0 1
18.265863 16.369802 -17.981320 30.412827 0.730710 2.203393 0.001550 0.004222 -284453.000000 0 0 1
17.774563 17.226402 -18.968720 31.184874 0.769738 2.224671 0.008061 0.010617 -271966.000000 0 0 1
17.248863 18.650802 -18.617920 31.496073 0.824430 2.203242 0.006614 0.005637 -110281.000000 0 0 1
18.237463 19.602802 -18.258520 32.407537 0.821464 2.169296 0.008778 0.010292 99671.100000 0 0 1
17.652963 20.722402 -17.573820 32.401916 0.865213 2.144052 0.002371 0.008537 -92224.000000 0 0 1
18.597363 21.923102 -17.511020 33.661850 0.867290 2.117886 0.011959 0.003658 545938.000000 0 0 1
19.713163 21.791402 -16.611820 33.755393 0.835429 2.085324 0.015078 0.004211 290118.000000 0 0 1
19.929763 22.993002 -15.885620 34.325304 0.856644 2.051943 0.015753 0.000547 -822375.000000 0 0 1
21.285863 23.144202 -15.252420 34.948224 0.827200 2.022422 0.019954 -0.002320 -1848460.000000 0 0 1
21.403363 22.484802 -13.953720 34.034931 0.810034 1.993231 0.027237 0.000501 -92169.400000 0 0 1
22.401263 23.071902 -13.152520 34.743604 0.800145 1.959036 0.025019 -0.000653 721961.000000 0 0 1
23.904163 22.929002 -13.578220 35.798271 0.764579 1.959834 0.024039 0.000324 54642.100000 0 0 1
24.197663 23.703602 -14.718520 36.932675 0.775084 1.980702 0.027093 0.005776 -1218120.000000 0 0 1
25.548363 23.561502 -14.948620 37.832849 0.744963 1.976998 0.021942 0.009925 -1104140.000000 0 0 1
25.992663 24.222102 -16.241120 39.065365 0.750153 1.999555 0.024522 0.013749 -217156.000000 0 0 1
26.508063 23.276602 -17.180820 39.238478 0.720580 2.024009 0.025390 0.002117 444709.000000 0 0 1
26.786763 23.833302 -18.448820 40.322647 0.727119 2.046012 0.026988 0.010996 -1033600.000000 0 0 1
27.092163 22.897702 -19.581720 40.518314 0.701688 2.075195 0.022188 0.004494 619096.000000 0 0 1
28.480263 22.518302 -19.637920 41.277684 0.669022 2.066615 0.019807 0.010596 625677.000000 0 0 1
28.818963 21.731102 -20.774420 41.645527 0.646092 2.093055 0.027917 0.002853 482973.000000 0 0 1
30.336563 21.864802 -21.075920 42.925179 0.624511 2.084024 0.049691 -0.010071 95158.400000 0 0 1
30.639063 23.124302 -21.645120 44.068092 0.646523 2.084234 0.036221 -0.000039 -1009210.000000 0 0 1
31.992363 23.404402 -21.552820 45.119855 0.631596 2.068808 0.051541 -0.006009 -622145.000000 0 0 1
32.346463 24.833002 -22.033520 46.351350 0.654745 2.066168 0.049193 -0.004954 -39539.600000 0 0 1
32.584963 24.959202 -23.440220 47.267171 0.653646 2.089678 0.046115 -0.005021 200698.000000 0 0 1
31.413063 24.816602 -24.230020 46.794638 0.668619 2.115068 0.050812 -0.009622 -14595.100000 0 0 1
31.551863 25.320202 -25.624760 47.888005 0.676260 2.135420 0.054767 -0.013515 -501852.000000 0 0 1
31.479763 26.767902 -25.804780 48.717376 0.704680 2.129023 0.049861 -0.015956 70892.800000 0 0 1
30.225063 27.305302 -26.218780 48.441288 0.734690 2.142718 0.053357 -0.012133 577416.000000 0 0 1
29.588863 26.973002 -27.583920 48.620122 0.739183 2.174063 0.051852 -0.011361 -16113.500000 0 0 1
29.321563 25.607102 -27.813370 47.844135 0.717878 2.191162 0.041845 -0.023426 -385.707000 0 0 1
28.834863 25.486802 -29.156310 48.281640 0.723842 2.219156 0.047861 -0.029804 -17294.300000 0 0 1
28.135563 24.096602 -29.454530 47.326794 0.708225 2.242557 0.037075 -0.028956 -199838.000000 0 0 1
26.822363 24.061902 -28.989490 46.247214 0.731201 2.248284 0.030550 -0.025553 -726726.000000 0 0 1
26.216063 22.827802 -29.248420 45.429732 0.716421 2.270272 0.027105 -0.028138 24434.500000 0 0 1
24.734563 22.786002 -28.807870 44.281981 0.744417 2.279112 0.028232 -0.019440 21760.500000 0 0 1
24.599463 22.800502 -27.416830 43.320654 0.747464 2.256065 0.022766 -0.010119 725696.000000 0 0 1
23.220063 22.791802 -27.052550 42.314040 0.776091 2.264420 0.012762 -0.013363 270603.000000 0 0 1
23.274563 22.880302 -25.498500 41.417231 0.776856 2.234006 0.030758 -0.012357 -142402.000000 0 0 1
23.594863 21.715102 -24.749020 40.506508 0.743935 2.228105 0.027385 -0.015752 231694.000000 0 0 1
24.062963 22.085302 -23.465020 40.216836 0.742570 2.193782 0.031386 -0.007604 -120207.000000 0 0 1
24.577263 20.817702 -22.698920 39.403801 0.702768 2.184696 0.028244 -0.000333 303028.000000 0 0 1
25.794563 20.317302 -23.234720 40.224426 0.667170 2.186615 0.018612 0.005835 182502.000000 0 0 1
26.133063 19.075702 -22.683220 39.513894 0.630542 2.182248 0.032627 -0.000525 -343017.000000 0 0 1
27.410763 18.527202 -23.297620 40.464629 0.594374 2.184321 0.044484 -0.010504 218470.000000 0 0 1
28.665763 18.760202 -22.653520 41.071317 0.579495 2.155036 0.068820 -0.023698 316348.000000 0 0 1
29.748463 18.441502 -23.514420 42.166195 0.554934 2.162361 0.052259 -0.013648 104054.000000 0 0 1
30.947363 18.040402 -22.628420 42.370282 0.527780 2.134196 0.046092 -0.012348 -324012.000000 0 0 1
31.462463 19.099502 -21.882820 42.819801 0.545592 2.107196 0.040550 -0.012491 -214320.000000 0 0 1
32.704863 18.756602 -21.299820 43.302431 0.520715 2.085050 0.043911 -0.009416 243965.000000 0 0 1
33.229863 19.845602 -20.341720 43.724790 0.538374 2.054681 0.028528 -0.016492 -269787.000000 0 0 1
32.667163 19.741002 -19.052020 42.659467 0.543581 2.033766 0.035216 -0.017379 161210.000000 0 0 1
32.997163 20.848102 -18.206820 43.069065 0.563485 2.007258 0.017487 -0.014107 187024.000000 0 0 1
32.116963 20.879602 -16.919520 41.877526 0.576453 1.986708 0.030124 -0.017216 312496.000000 0 0 1
32.565363 19.735502 -16.101520 41.343099 0.544840 1.970843 0.035204 -0.029398 590547.000000 0 0 1
32.224463 19.856502 -14.745120 40.621610 0.552241 1.942268 0.039158 -0.030413 -132407.000000 0 0 1
32.809963 18.678902 -13.907720 40.234559 0.517544 1.923745 0.035066 -0.029057 -94938.300000 0 0 1
34.210263 18.499902 -13.925420 41.309875 0.495730 1.914628 0.034735 -0.028269 204944.000000 0 0 1
34.741663 17.346402 -13.266120 41.034994 0.463085 1.899998 0.041433 -0.017744 159240.000000 0 0 1
34.799763 17.310802 -11.699920 40.590337 0.461598 1.863189 0.048337 -0.026985 -256738.000000 0 0 1
35.614263 18.384002 -11.236920 41.624699 0.476522 1.844146 0.028014 -0.021021 292635.000000 0 0 1
35.567663 18.470202 -9.851620 41.270588 0.478966 1.811832 0.027508 -0.026077 173802.000000 0 0 1
34.451663 19.482702 -9.429920 40.686805 0.514672 1.804692 0.030859 -0.030059 977227.000000 0 0 1
33.145263 19.096102 -9.876520 39.507154 0.522686 1.823470 0.063218 -0.037408 774300.000000 0 0 1
32.164163 20.149702 -9.811420 39.202140 0.559652 1.823763 0.044536 -0.026137 1534860.000000 0 0 1
30.669763 19.768102 -10.108220 37.862756 0.572532 1.841044 0.024990 -0.023343 841407.000000 0 0 1
30.367063 19.508802 -11.462320 37.869996 0.571037 1.878295 0.036611 -0.030348 -978264.000000 0 0 1
29.035663 19.184602 -11.619620 36.689702 0.583878 1.893044 0.032021 -0.030645 -885291.000000 0 0 1
28.719963 18.468902 -12.975720 36.528152 0.571487 1.933951 0.044767 -0.022921 24019.500000 0 0 1
29.473963 17.258802 -13.165120 36.604660 0.529735 1.938697 0.045510 -0.021670 512419.000000 0 0 1
29.111663 16.725002 -14.415520 36.537950 0.521468 1.976359 0.042575 -0.012850 -1105740.000000 0 0 1
30.327063 16.378802 -15.189720 37.665946 0.495189 1.985889 0.035528 -0.015694 -1304840.000000 0 0 1
31.110763 15.450702 -14.536320 37.655124 0.460952 1.967129 0.019879 -0.017364 127515.000000 0 0 1
32.255063 15.015502 -15.258620 38.712787 0.435688 1.975938 0.023356 -0.019940 400666.000000 0 0 1
33.106963 13.876802 -14.629720 38.764227 0.396906 1.957786 0.022985 -0.014913 611031.000000 0 0 1
33.995163 14.305702 -13.563020 39.297324 0.398321 1.923183 0.039391 -0.010897 1052900.000000 0 0 1
34.891163 13.257702 -13.130920 39.567423 0.363123 1.909073 0.043755 -0.001409 -132844.000000 0 0 1
35.701763 13.642202 -11.969420 40.049876 0.364994 1.874297 0.065389 -0.008111 21509.900000 0 0 1
-34.883086 14.310402 -12.323520 39.667196 -0.389302 1.886697 0.044801 -0.010205 629953.000000 0 0 1
-34.114886 14.690602 -11.185820 38.791260 -0.406622 1.863309 0.029258 -0.010369 -1499770.000000 0 0 1
-32.756386 15.128602 -11.737920 37.942512 -0.432666 1.885317 0.033502 -0.015429 -522060.000000 0 0 1
-31.946986 14.072602 -12.223220 36.987230 -0.414925 1.907599 0.031200 -0.011751 190477.000000 0 0 1
-31.529086 13.125502 -11.241220 35.954515 -0.394477 1.888779 0.044663 -0.006951 -1674420.000000 0 0 1
-30.361786 12.235702 -11.648420 34.745304 -0.383087 1.912669 0.056493 -0.011062 -655412.000000 0 0 1
-30.534686 11.330102 -12.761820 34.980028 -0.355309 1.944248 0.046977 -0.012679 46321.800000 0 0 1
-29.862386 10.118802 -12.591320 33.951342 -0.326705 1.950735 0.062598 -0.020996 -589274.000000 0 0 1
-29.825586 9.271302 -13.889820 34.182594 -0.301382 1.989243 0.059656 -0.021016 143998.000000 0 0 1
-31.066886 8.775802 -14.396520 35.347219 -0.275308 1.990280 0.044603 -0.018865 637476.000000 0 0 1
-30.896586 7.856602 -15.460820 35.431091 -0.249009 2.022349 0.049258 -0.014543 159593.000000 0 0 1
-32.223886 7.577302 -16.231720 36.868185 -0.230950 2.026689 0.048891 -0.012260 465414.000000 0 0 1
-33.167986 6.847302 -15.477120 37.236301 -0.203583 1.999449 0.070159 -0.026090 728757.000000 0 0 1
-34.189486 6.190102 -16.245420 38.355600 -0.179112 2.008154 0.041839 -0.025503 348863.000000 0 0 1
-35.105786 5.306402 -15.381220 38.693101 -0.150019 1.979607 0.044688 -0.024505 -130618.000000 0 0 1
35.823063 4.384502 -16.002920 39.479224 0.121788 1.988158 0.046765 -0.024846 -38793.700000 0 0 1
34.886163 4.110702 -14.989020 38.191792 0.117291 1.974109 0.058962 -0.027210 54073.200000 0 0 1
33.830863 3.047402 -15.446720 37.315079 0.089835 1.997590 0.055246 -0.028910 -122479.000000 0 0 1
34.389463 1.794602 -15.753620 37.868619 0.052137 1.999847 0.063885 -0.030280 408436.000000 0 0 1
33.474163 0.671102 -15.663020 36.963497 0.020046 2.008370 0.054699 -0.029829 436636.000000 0 0 1
32.991863 0.186902 -14.247920 35.937462 0.005665 1.978459 0.061527 -0.033419 -37571.700000 0 0 1
34.002863 -0.362398 -13.387420 36.545164 -0.010657 1.945853 0.080025 -0.033303 477629.000000 0 0 1
33.979763 -0.003898 -12.012320 36.040534 -0.000115 1.910598 0.084076 -0.024988 -389864.000000 0 0 1
33.996963 1.486602 -11.534220 35.931069 0.043700 1.897592 0.084149 -0.036664 255135.000000 0 0 1
32.745963 2.165202 -11.660820 34.827588 0.066025 1.912206 0.068924 -0.027015 780617.000000 0 0 1
32.893063 3.417002 -11.096120 34.881992 0.103511 1.894526 0.072309 -0.031430 -259530.000000 0 0 1
31.775563 4.377102 -11.499020 34.074519 0.136889 1.915021 0.064048 -0.027523 -261285.000000 0 0 1
31.910163 4.677802 -12.881220 34.728463 0.145556 1.950788 0.057297 -0.020020 103102.000000 0 0 1
30.907863 5.562102 -13.253920 34.086645 0.178052 1.970158 0.058322 -0.019820 -442358.000000 0 0 1
31.210063 6.210402 -14.651120 35.032734 0.196421 2.002273 0.018808 -0.007737 -263029.000000 0 0 1
31.079163 5.293502 -15.753620 35.243610 0.168704 2.034196 0.006075 -0.002779 82599.500000 0 0 1
31.570963 5.721502 -16.982820 36.302582 0.179281 2.057611 -0.002564 0.003876 -1193700.000000 0 0 1
30.726363 6.794802 -17.705720 36.107772 0.217637 2.083296 -0.004372 0.005860 591449.000000 0 0 1
29.565163 6.308902 -18.399920 35.390085 0.210237 2.117551 -0.004076 0.003714 487557.000000 0 0 1
28.480963 6.030702 -17.545720 33.990983 0.208663 2.113190 -0.004022 0.007279 -922331.000000 0 0 1
27.187263 5.862502 -18.402120 33.348976 0.212382 2.155323 0.004910 -0.003227 23122.800000 0 0 1
27.128263 4.687102 -19.167620 33.545629 0.171087 2.178994 0.004199 0.005823 62699.600000 0 0 1
26.076263 4.775002 -20.097920 33.267079 0.181110 2.219481 0.012953 0.010470 -99835.900000 0 0 1
25.901463 3.429702 -20.824320 33.411090 0.131648 2.243721 0.011972 0.006885 -134801.000000 0 0 1
25.168963 2.584502 -19.948420 32.219494 0.102327 2.238445 0.019509 -0.001941 171739.000000 0 0 1
24.602163 1.537602 -20.683620 32.178297 0.062417 2.268920 0.020222 -0.004090 -622652.000000 0 0 1
23.699763 0.673102 -19.803620 30.891992 0.028394 2.266675 0.019512 -0.010277 -750612.000000 0 0 1
22.455463 1.277302 -19.675120 29.882933 0.056820 2.289496 0.032663 -0.013558 -84642.000000 0 0 1
21.563963 0.517602 -18.820520 28.626638 0.023998 2.288223 0.040018 -0.016738 878887.000000 0 0 1
20.197263 1.218102 -18.529520 27.436405 0.060237 2.312253 0.043421 -0.016246 -469754.000000 0 0 1
19.373863 1.178402 -19.678620 27.640248 0.060749 2.363075 0.043242 -0.024519 161210.000000 0 0 1
18.354163 2.168502 -19.611120 26.947611 0.117603 2.385832 0.035699 -0.019835 900315.000000 0 0 1
17.112363 1.940202 -18.676920 25.405210 0.112898 2.396701 0.054552 -0.027640 -368396.000000 0 0 1
17.334263 2.112102 -17.316620 24.592742 0.121248 2.352001 0.058783 -0.027613 -423080.000000 0 1 0
16.178163 2.093902 -16.544520 23.234425 0.128712 2.363237 0.036832 -0.019236 -274175.000000 0 1 0
15.402463 3.420902 -16.315520 22.696577 0.218553 2.372948 0.057983 -0.020216 170964.000000 0 1 0
14.649063 3.772602 -17.459720 23.101286 0.252055 2.427656 0.049599 -0.017724 374693.000000 0 1 0
13.502163 4.556502 -17.219420 22.351254 0.325464 2.450266 0.047307 -0.024818 -245541.000000 0 1 0
-20.380737 -21.993198 -17.819120 34.879740 0.823433 2.106996 0.040209 -0.011354 73834.200000 0 0 1
-19.925437 -22.833098 -18.870220 35.699561 0.853296 2.127728 0.045009 -0.018500 357422.000000 0 0 1
-20.684937 -22.509498 -19.998520 36.530603 0.827614 2.150105 0.044628 -0.013140 125557.000000 0 0 1
-20.145737 -23.334298 -21.205120 37.416538 0.858601 2.173329 0.031169 -0.005964 227637.000000 0 0 1
-20.338237 -24.717698 -20.948320 38.254943 0.882294 2.150287 0.026768 -0.008408 -173137.000000 0 0 1
-19.444737 -25.383718 -21.743920 38.668192 0.917114 2.167986 0.021600 -0.013856 -800491.000000 0 0 1
-19.486437 -26.888488 -21.396520 39.503457 0.943676 2.143179 0.019373 0.004280 -239780.000000 0 0 1
-20.614837 -27.653638 -21.748720 40.776244 0.930204 2.133373 0.022801 0.015364 -94263.300000 0 0 1
-20.367037 -29.007998 -21.431720 41.419788 0.958650 2.114638 0.031063 -0.013365 -23924.300000 0 0 1
-21.602337 -29.944818 -21.580920 42.767853 0.945849 2.099722 0.029902 -0.011158 -161535.000000 0 0 1
-22.245837 -29.790228 -22.811820 43.620112 0.929379 2.121123 0.028429 -0.008939 -156809.000000 0 0 1
-21.579737 -30.290428 -23.962720 44.242593 0.951778 2.143161 0.024430 -0.013177 -764565.000000 0 0 1
-22.038537 -29.651058 -25.318660 44.787464 0.931621 2.171602 0.017444 -0.008255 158050.000000 0 0 1
-23.361337 -29.980458 -25.714970 45.889429 0.908856 2.165626 0.026851 -0.005026 448414.000000 0 0 1
-23.871437 -29.177598 -26.753240 46.226763 0.885090 2.187978 0.033066 -0.004972 -134054.000000 0 0 1
-23.409937 -29.583938 -28.246600 47.128601 0.901379 2.213487 0.033099 -0.016554 -391612.000000 0 0 1
-23.978537 -30.696108 -28.864610 48.480791 0.907650 2.208538 0.024676 -0.007179 -58434.400000 0 0 1
-23.567037 -30.736808 -30.208060 49.119075 0.916670 2.233178 0.047477 -0.004557 -5650.330000 0 0 1
-24.194737 -31.967038 -30.943660 50.643726 0.922916 2.228128 0.027963 -0.006660 244453.000000 0 0 1
-23.646537 -33.243148 -30.600270 50.996492 0.952513 2.214356 0.026352 -0.011187 73421.500000 0 0 1
-24.571237 -34.203316 -31.065700 52.332497 0.947836 2.206348 0.026484 -0.012578 -97661.700000 0 0 1
-24.186937 33.071973 -30.958390 51.353532 -0.939343 2.217863 0.031701 -0.014744 89997.600000 0 0 1
-23.199137 32.729175 -31.914000 51.263070 -0.954175 2.242798 0.039311 -0.019707 -5585.840000 0 0 1
-22.738037 31.396977 -31.754260 50.111092 -0.944005 2.257094 0.045370 -0.009558 174971.000000 0 0 1
-21.531437 31.035367 -32.654460 49.931059 -0.964263 2.283644 0.045551 -0.006392 235120.000000 0 0 1
-21.871637 30.734437 -33.956600 50.754555 -0.952306 2.303707 0.053595 -0.005322 -560081.000000 0 0 1
-20.776037 30.094017 34.143976 50.031037 -0.966562 0.819679 0.052201 -0.013207 -501248.000000 0 0 1
-20.805737 29.762927 32.665941 48.844388 -0.960709 0.838235 0.050495 -0.011010 -310781.000000 0 0 1
-20.212937 30.740177 31.899692 48.694062 -0.989138 0.856476 0.045588 -0.008202 -2719.870000 0 0 1
-20.421737 30.464957 30.529442 47.720098 -0.980258 0.876610 0.055228 -0.007517 -228359.000000 0 0 1
-19.905937 31.613847 29.671272 47.708134 -1.008854 0.899587 0.043383 -0.015167 103447.000000 0 0 1
-20.765637 32.750803 29.798802 48.905985 -1.005716 0.915609 0.043753 -0.016415 179047.000000 0 0 1
-20.374637 33.834545 29.031782 49.017820 -1.028772 0.936923 0.024051 -0.017156 -255769.000000 0 0 1
-21.328837 -33.727638 29.162202 49.425772 1.006904 0.939713 0.026065 -0.019498 -360764.000000 0 0 1
-21.410437 -33.362638 30.495202 50.014296 1.000243 0.915077 0.022774 -0.007548 -142081.000000 0 0 1
-22.332437 -32.348208 30.857192 49.973099 0.966558 0.905266 0.034703 -0.017486 -253282.000000 0 0 1
-22.068637 -30.857638 30.473322 48.660476 0.949958 0.894070 0.023435 -0.009306 -359054.000000 0 0 1
-22.071937 -30.741588 29.102402 47.740606 0.948103 0.915248 0.011860 -0.013387 10364.300000 0 0 1
-21.708337 -29.401518 28.712262 46.476824 0.934799 0.904885 0.029010 -0.016793 -20462.100000 0 0 1
-22.910737 -28.567838 28.191122 46.214312 0.894851 0.914725 0.029828 -0.015315 270600.000000 0 0 1
-24.050437 -28.308498 29.031482 47.144687 0.866544 0.907401 0.023339 -0.008091 979449.000000 0 0 1
-25.034837 -29.339898 29.026602 48.271278 0.864407 0.925641 0.021036 -0.007008 -631542.000000 0 0 1
-25.988777 -29.292898 27.836042 48.045142 0.845096 0.952838 0.008164 -0.009357 -1226210.000000 0 0 1
-25.509277 -29.585248 26.533232 47.223114 0.859245 0.974152 0.022465 -0.012317 39215.000000 0 0 1
-26.596177 -29.690968 25.636492 47.393459 0.840325 0.999255 0.021200 -0.011949 111487.000000 0 0 1
-26.113827 -30.191188 24.264442 46.714055 0.857688 1.024619 0.030777 -0.019730 -426698.000000 0 0 1
-25.601777 -29.111058 23.523972 45.346245 0.849450 1.025392 0.015045 -0.017552 131498.000000 0 0 1
-25.202697 -29.318438 22.219872 44.592258 0.860744 1.049171 0.037609 -0.018878 451733.000000 0 0 1
-23.886437 -30.150308 21.997272 44.311206 0.900802 1.051319 0.037726 -0.021563 45751.400000 0 0 1
-24.079537 -31.521778 22.284972 45.497984 0.918457 1.058935 0.045474 -0.035309 268256.000000 0 0 1
-22.910637 -32.223848 21.919972 45.207951 0.952737 1.064582 0.063537 -0.020669 -8983.080000 0 0 1
-22.173237 -32.833018 23.124372 45.873697 0.976818 1.042471 0.064460 -0.021461 -27556.000000 0 0 1
-21.306237 -31.928588 23.797782 45.163314 0.982349 1.015815 0.069986 -0.027129 10806.600000 0 0 1
-20.710337 -32.505808 24.926112 45.900509 1.003524 0.996735 0.052381 -0.031775 -404998.000000 0 0 1
-19.716837 -31.484248 25.533832 45.077579 1.011303 0.968614 0.042402 -0.016228 -1692420.000000 0 0 1
-18.519637 -31.420478 24.849732 44.133123 1.038198 0.972709 0.048794 -0.018558 -1436330.000000 0 0 1
-17.489137 -31.045458 25.663162 43.912279 1.057769 0.946633 0.056833 -0.017283 -905236.000000 0 0 1
-16.887237 -32.102568 26.666252 45.020469 1.086534 0.936869 0.031070 -0.019800 -1206700.000000 0 0 1
-17.641037 -32.405878 27.818242 46.208243 1.072280 0.924769 0.021514 -0.014802 -432260.000000 0 0 1
-16.923237 -32.742598 28.953922 46.870068 1.093754 0.904920 0.024605 -0.008203 -705419.000000 0 0 1
-17.318537 -32.129768 30.277052 47.423134 1.076423 0.878320 0.034519 -0.009261 -26051.700000 0 0 1
-16.872637 -30.755288 30.323832 46.369262 1.069021 0.857984 0.036242 -0.004967 423600.000000 0 0 1
-17.321237 -30.077538 31.512742 46.880022 1.048296 0.833620 0.039651 0.003883 -92476.900000 0 0 1
-17.186037 -28.525528 31.502632 45.841918 1.028556 0.813167 0.041763 -0.001383 -77873.100000 0 0 1
-18.051637 -27.753948 30.679152 45.137054 0.994128 0.823458 0.045138 -0.001940 112706.000000 0 0 1
-18.044037 -27.892918 29.262422 44.270662 0.996601 0.848660 0.043833 -0.002001 -225665.000000 0 0 1
-16.753337 -27.570268 28.468822 43.026362 1.024764 0.847766 0.038833 0.002423 -73283.600000 0 0 1
-16.417037 -26.214948 28.466302 42.036567 1.011301 0.826874 0.034589 0.006541 607711.000000 0 0 1
-15.307437 -25.960798 27.590182 40.859501 1.038032 0.829499 0.033111 0.009794 350492.000000 0 0 1
-15.473937 -24.584598 26.978862 39.644725 1.009028 0.822330 0.032308 0.014228 -109642.000000 0 0 1
-16.307837 -24.634898 25.814302 39.232664 0.986045 0.852663 0.046900 -0.000861 224509.000000 0 0 1
-16.399537 -23.566298 24.930022 38.023956 0.962834 0.855767 0.039245 -0.003046 -123136.000000 0 0 1
-16.948637 -22.214698 25.454352 37.797793 0.919060 0.831951 0.039806 -0.002612 -564346.000000 0 0 1
-16.800837 -21.109598 24.657712 36.549775 0.898569 0.830328 0.038794 -0.001940 -97024.200000 0 0 1
-17.335937 -19.977698 25.254602 36.571000 0.856079 0.808528 0.029531 0.001747 -237792.000000 0 0 1
-17.151237 -18.727498 24.439692 35.244612 0.829303 0.804557 0.028090 -0.005981 444853.000000 0 0 1
-15.786137 -18.319198 24.551402 34.461087 0.859534 0.777829 0.043257 -0.009370 224506.000000 0 0 1
-15.473237 -17.381198 23.555172 33.111527 0.843406 0.779324 0.037973 -0.007011 -58768.000000 0 0 1
-14.155437 -16.607298 23.776962 32.272630 0.864932 0.742541 0.061774 -0.008833 -81254.700000 0 0 1
-13.018237 -17.507598 23.666672 32.188536 0.931419 0.744759 0.048527 -0.009017 307410.000000 0 0 1
-11.788137 -16.843598 23.740112 31.404775 0.960165 0.713708 0.057435 -0.013474 -458724.000000 0 0 1
-11.450637 -16.097298 22.444472 29.899739 0.952501 0.721739 0.058288 -0.008908 -938492.000000 0 0 1
-10.950537 -16.854098 21.321472 29.301537 0.994614 0.755896 0.085355 -0.005005 62560.700000 0 0 1
-9.612737 -17.269598 21.478672 29.188646 1.062879 0.743865 0.079299 -0.001398 -718001.000000 0 0 1
-9.165437 -18.326398 20.482672 28.972434 1.107051 0.785590 0.071513 0.001872 -44830.600000 0 0 1
-8.833637 -17.856498 19.145572 27.630429 1.111396 0.805271 0.071883 0.000459 61836.800000 0 0 1
-8.406437 -18.970898 18.378572 27.718858 1.153676 0.845931 0.053507 0.004927 49674.000000 0 0 1
-8.347937 -18.564998 16.870572 26.437916 1.148225 0.878742 0.032963 0.000348 -388833.000000 0 0 1
-7.256837 -17.726398 16.612072 25.354444 1.182230 0.856357 0.048301 -0.005725 -399683.000000 0 0 1
-7.082137 -17.436198 15.318172 24.265697 1.184979 0.887609 0.063709 -0.020038 -342385.000000 0 1 0
-5.945037 -16.436898 15.234472 23.186294 1.223747 0.853902 0.040280 -0.012267 -264258.000000 0 1 0
-6.357737 -15.137098 15.538172 22.605029 1.173160 0.812925 0.047397 -0.022763 -449171.000000 0 1 0
-5.254637 -14.300998 15.655972 21.845805 1.218677 0.771798 0.033772 -0.015893 -633545.000000 0 1 0
-5.442337 -13.262298 16.768172 22.060806 1.181390 0.707347 0.017547 -0.003546 -167036.000000 0 1 0
-5.069437 -13.494298 18.155272 23.182087 1.211436 0.671066 0.027986 -0.004244 -101278.000000 0 1 0
-5.730537 -14.577498 18.849472 24.508062 1.196245 0.693344 0.053079 -0.003978 -40213.600000 0 1 0
-7.022437 -14.114598 19.549072 25.113795 1.109127 0.678652 0.093110 -0.012915 -209764.000000 0 0 1
-6.951637 -13.093198 20.531472 25.323871 1.082708 0.625354 0.079369 -0.014476 -994897.000000 0 0 1
-8.065737 -12.994598 21.340072 26.254797 1.015296 0.621842 0.080386 -0.004981 -439804.000000 0 0 1
-7.777937 -12.125098 22.580672 26.784343 1.000438 0.567858 0.069397 0.006753 -550566.000000 0 0 1
-7.596537 -10.808498 22.126572 25.770452 0.958174 0.538259 0.053473 0.002034 69571.100000 0 0 1
-7.123337 -9.841998 23.031972 26.039942 0.944295 0.485405 0.047937 -0.003882 278772.000000 0 0 1
-5.699337 -10.085398 23.600832 26.290625 1.056428 0.456298 0.055034 -0.006570 -117372.000000 0 0 1
-5.542137 -11.209798 24.452562 27.464571 1.111638 0.472724 0.067138 -0.004788 -317601.000000 0 0 1
-4.197837 -11.500998 24.775222 27.635239 1.220824 0.458972 0.052356 -0.006921 -145319.000000 0 0 1
-4.041437 -12.619998 25.829662 29.030484 1.260875 0.474015 0.055268 -0.004262 159581.000000 0 0 1
-2.658537 -12.931598 26.007232 29.166250 1.368037 0.469733 0.038910 -0.005676 552121.000000 0 0 1
-2.420737 -13.941998 26.939112 30.429509 1.398881 0.483667 0.050441 -0.016048 18995.300000 0 0 1
-2.533237 -15.362598 26.386842 30.638083 1.407371 0.533085 0.047702 -0.019866 -250021.000000 0 0 1
-1.453037 -15.540598 25.515842 29.911197 1.477568 0.548988 0.046117 -0.019824 -94501.700000 0 0 1
-1.583337 -16.868498 25.012812 30.210825 1.477207 0.595368 0.053859 -0.019796 -449183.000000 0 0 1
-0.249037 -17.640298 24.832282 30.461194 1.556680 0.617704 0.056274 -0.020698 179365.000000 0 0 1
0.232763 -18.315498 25.954932 31.767438 -1.558089 0.614556 0.065707 -0.028793 98683.900000 0 0 1
0.650463 -17.488698 27.027712 32.198989 -1.533620 0.574625 0.070594 -0.029996 -820102.000000 0 0 1
1.100363 -18.104098 28.364742 33.667904 -1.510091 0.568915 0.063938 -0.027384 -664250.000000 0 0 1
2.302863 -18.824598 28.270322 34.042323 -1.449069 0.590888 0.067299 -0.030432 -126862.000000 0 0 1
2.967263 -18.954598 29.513952 35.201630 -1.415511 0.576408 0.065157 -0.038879 347950.000000 0 0 1
4.102263 -17.928498 29.798402 35.017201 -1.345856 0.552977 0.075593 -0.036116 -356305.000000 0 0 1
3.639363 -16.593798 29.846152 34.342275 -1.354894 0.517459 0.060559 -0.037455 -393838.000000 0 0 1
4.553863 -15.677198 30.323852 34.439050 -1.288099 0.493864 0.069345 -0.044007 -833459.000000 0 0 1
3.818163 -14.518598 31.044232 34.483509 -1.313635 0.450423 0.077273 -0.037809 133975.000000 0 0 1
3.263163 -14.980998 32.244902 35.704513 -1.356326 0.443852 0.052447 -0.035833 -1014920.000000 0 0 1
2.273563 -14.134398 32.631073 35.633372 -1.411309 0.413439 0.057065 -0.023379 -1018220.000000 0 0 1
1.370263 -14.726998 33.751188 36.849759 -1.478019 0.413019 0.049316 -0.019870 93717.400000 0 0 1
2.043663 -14.795298 -33.666760 36.831076 -1.433536 2.724044 0.063875 -0.022522 -272487.000000 0 0 1
1.342663 -15.548398 -32.725040 36.255809 -1.484656 2.696603 0.072138 -0.026609 -30491.500000 0 0 1
2.202563 -15.828098 -31.487890 35.311007 -1.432529 2.671950 0.057370 -0.014318 21626.500000 0 0 1
1.526963 -16.555698 -30.487080 34.725852 -1.478825 2.642331 0.075649 -0.013722 234260.000000 0 0 1
2.099163 -16.342498 -29.159010 33.492262 -1.443048 2.627256 0.054179 -0.015222 207527.000000 0 0 1
1.588863 -17.430298 -28.199860 33.189937 -1.479892 2.586119 0.073487 -0.015090 -3205.520000 0 0 1
2.180363 -18.712598 -28.470460 34.139163 -1.454801 2.557029 0.071015 -0.013377 284856.000000 0 0 1
1.774563 -19.705598 -27.546630 33.915727 -1.480985 2.518724 0.074085 -0.007868 -737258.000000 0 0 1
2.438063 -21.086298 -27.885770 35.045575 -1.455684 2.490959 0.068732 -0.010986 853440.000000 0 0 1
3.784363 -21.230298 -27.391950 34.862098 -1.394396 2.474660 0.055337 -0.009028 697375.000000 0 0 1
4.022263 -21.245398 -26.003820 33.819288 -1.383687 2.447923 0.058459 -0.016065 923706.000000 0 0 1
5.525463 -21.706998 -25.629430 34.038099 -1.321542 2.423350 0.049886 -0.015864 1634940.000000 0 0 1
5.832063 -23.055998 -25.924950 35.180891 -1.323041 2.399276 0.061938 -0.015411 2605.480000 0 0 1
5.686463 -23.588798 -27.249130 36.486742 -1.334243 2.414068 0.049076 -0.009244 -500149.000000 0 0 1
5.015663 -24.974498 -27.267550 37.314900 -1.372602 2.390204 0.049765 -0.001346 87122.500000 0 0 1
5.778363 -25.977928 -26.600130 37.627240 -1.351926 2.355956 0.068034 0.001703 253516.000000 0 0 1
5.051563 -27.207608 -26.542540 38.344213 -1.387219 2.335354 0.056991 -0.000933 -14706.000000 0 0 1
5.673963 -28.194068 -25.529280 38.455734 -1.372202 2.296767 0.063728 -0.004227 134519.000000 0 0 1
6.989263 -28.572008 -25.888940 39.184776 -1.330888 2.292532 0.086044 -0.008148 -116676.000000 0 0 1
7.599263 -29.449218 -24.997820 39.368722 -1.318259 2.258762 0.083420 -0.012059 -150130.000000 0 0 1
9.049863 -29.868128 -25.283140 40.165187 -1.276595 2.251679 0.092961 -0.018849 -44050.600000 0 0 1
9.236863 -30.620998 -26.481900 41.524164 -1.277825 2.262366 0.093911 -0.014463 1329690.000000 0 0 1
10.645263 -30.504308 -26.849440 42.008652 -1.235034 2.264177 0.102037 -0.014723 1659210.000000 0 0 1
10.895363 -30.443658 -28.381390 43.023582 -1.227113 2.291177 0.114630 -0.026955 -8153.600000 0 0 1
10.596863 -31.623868 -29.074970 44.246090 -1.247465 2.287787 0.119823 -0.034902 24256.700000 0 0 1
10.436463 -31.395688 -30.451930 44.965865 -1.249871 2.314779 0.104976 -0.016645 72566.800000 0 0 1
-34.716690 -4.717698 -5.914720 35.531524 0.135064 1.738039 0.122945 -0.037713 -134274.000000 0 0 1
-34.369176 -4.128998 -4.652420 34.927553 0.119564 1.704395 0.125891 -0.042998 492515.000000 0 0 1
-33.398987 -3.089198 -4.701920 33.869508 0.092231 1.710071 0.115579 -0.041598 74616.700000 0 0 1
-33.883147 -1.713998 -5.260920 34.331949 0.050542 1.724639 0.128666 -0.029250 -341547.000000 0 0 1
-34.671111 -0.945298 -4.379720 34.959427 0.027258 1.696406 0.097575 -0.027170 573962.000000 0 0 1
-35.422157 0.020102 -5.126520 35.791212 -0.000567 1.714525 0.092824 -0.029145 381941.000000 0 0 1
35.484131 0.963602 -4.330320 35.760366 0.027149 1.692187 0.105463 -0.022713 506962.000000 0 0 1
-35.491476 1.945902 -3.748220 35.741860 -0.054772 1.675859 0.088374 -0.016763 596155.000000 0 0 1
35.552201 2.691502 -2.855720 35.768119 0.075561 1.650721 0.089327 -0.021185 -439514.000000 0 0 1
-35.564568 3.941402 -2.378820 35.861288 -0.110373 1.637179 0.073313 -0.024637 -336591.000000 0 0 1
-35.342642 4.952302 -3.356120 35.845379 -0.139216 1.664561 0.086490 -0.022704 1341400.000000 0 0 1
-34.045061 4.808002 -3.999420 34.614714 -0.140297 1.686596 0.057686 -0.009372 776622.000000 0 0 1
-33.101077 5.991402 -3.626720 33.833878 -0.179065 1.678195 0.033992 -0.013073 -196122.000000 0 0 1
-32.655697 5.966102 -2.244120 33.271986 -0.180704 1.638295 0.042051 -0.018728 526844.000000 0 0 1
-32.551817 7.293002 -1.729820 33.403607 -0.220403 1.622605 0.054020 -0.027628 -185044.000000 0 0 1
-31.968257 7.404702 -0.306620 32.816050 -0.227613 1.580140 0.057030 -0.024081 201031.000000 0 0 1
-30.562117 7.163902 -0.162920 31.390939 -0.230248 1.575986 0.065000 -0.016948 858423.000000 0 0 1
-30.015147 7.524302 1.066880 30.962274 -0.245622 1.536332 0.067635 -0.027246 -77607.500000 0 0 1
-29.865347 9.080102 1.259880 31.240591 -0.295154 1.530457 0.068740 -0.033543 -161190.000000 0 0 1
-31.129107 9.723602 1.391280 32.642081 -0.302761 1.528161 0.051883 -0.030046 475264.000000 0 0 1
-30.966737 11.103302 1.611280 32.936581 -0.344276 1.521856 0.053237 -0.019882 965316.000000 0 0 1
-32.316527 11.906102 1.364880 34.467029 -0.352991 1.531186 0.053226 -0.021463 288750.000000 0 0 1
-32.785877 11.768102 0.064480 34.833980 -0.344615 1.568945 0.043613 -0.012942 266165.000000 0 0 1
-33.970527 12.504702 -0.195820 36.199484 -0.352712 1.576206 0.044676 -0.012547 668925.000000 0 0 1
-35.288410 11.733902 0.162380 37.188476 -0.321013 1.566430 0.050855 -0.026242 -192045.000000 0 0 1
-35.684296 10.767702 -0.752120 37.281069 -0.293061 1.590972 0.057488 -0.020117 -188950.000000 0 0 1
34.955431 10.143602 -0.314420 36.398814 0.282430 1.579435 0.076584 -0.023722 -97481.800000 0 0 1
34.439911 9.118802 -1.337020 35.651755 0.258835 1.608307 0.068257 -0.036688 -86790.800000 0 0 1
34.016611 9.751902 -2.520320 35.476492 0.279193 1.641898 0.077384 -0.028399 275116.000000 0 0 1
33.778471 8.715602 -3.465720 35.056498 0.252515 1.669819 0.068225 -0.032347 -149630.000000 0 0 1
33.236191 9.212902 -4.818120 34.824363 0.270406 1.709596 0.071803 -0.027610 -151358.000000 0 0 1
31.879671 9.577302 -4.772320 33.627566 0.291842 1.713194 0.089530 -0.023697 231959.000000 0 0 1
31.346281 9.863902 -6.068220 33.417199 0.304865 1.753399 0.074768 -0.017610 363774.000000 0 0 1
29.940041 10.578802 -6.053620 32.325894 0.339641 1.759177 0.076747 -0.009971 1022270.000000 0 0 1
28.954971 9.515102 -5.905520 31.045172 0.317500 1.762186 0.070280 -0.002207 339857.000000 0 0 1
27.676921 10.021802 -6.164820 30.074133 0.347413 1.777247 0.046670 0.004444 -447807.000000 0 0 1
26.577611 8.916202 -6.222220 28.715573 0.323679 1.789213 0.054566 0.014279 -83426.000000 0 0 1
26.566311 8.122602 -7.420720 28.754350 0.296722 1.831823 0.049514 0.007664 302872.000000 0 0 1
25.561511 7.133202 -7.408320 27.552797 0.272137 1.843023 0.049318 0.003727 -46545.100000 0 0 1
25.663211 6.416502 -8.739020 27.859332 0.245004 1.889866 0.046775 -0.009431 106951.000000 0 0 1
26.745511 5.499702 -8.637820 28.638803 0.202804 1.877180 0.064987 -0.017652 833991.000000 0 0 1
26.571811 4.504502 -9.663020 28.630851 0.167925 1.915060 0.048596 -0.019021 -406127.000000 0 0 1
27.436101 3.252102 -9.455320 29.201351 0.117983 1.900537 0.075254 -0.021970 -1444980.000000 0 0 1
28.759651 3.466102 -9.791720 30.577920 0.119941 1.896760 0.105812 -0.018345 -280409.000000 0 0 1
29.670911 3.115202 -8.745320 31.089357 0.104609 1.855941 0.081072 -0.026092 -75146.600000 0 0 1
30.059601 1.654602 -8.583120 31.304749 0.054989 1.848533 0.096867 -0.026687 -241575.000000 0 0 1
28.958271 0.954702 -7.968120 30.049690 0.032956 1.839171 0.100071 -0.027007 986203.000000 0 0 1
29.280361 -0.284498 -7.367820 30.194458 -0.009716 1.817297 0.093346 -0.019273 -382589.000000 0 0 1
29.269081 -1.536398 -8.305820 30.463524 -0.052444 1.846941 0.079691 -0.018441 -892119.000000 0 0 1
30.315141 -1.588598 -9.191520 31.717747 -0.052355 1.864805 0.089949 -0.026989 -333437.000000 0 0 1
30.205871 -2.847698 -9.846520 31.897618 -0.093998 1.884613 0.063346 -0.025450 227136.000000 0 0 1
31.211441 -3.127998 -11.030920 33.250859 -0.099886 1.908953 0.060273 -0.022598 -1004380.000000 0 0 1
32.483391 -3.361598 -10.580420 34.328069 -0.103120 1.884112 0.082000 -0.022224 -1668870.000000 0 0 1
33.247171 -3.634998 -11.669220 35.422568 -0.108900 1.906495 0.065475 -0.030790 -653719.000000 0 0 1
34.695521 -4.057198 -11.334120 36.724683 -0.116409 1.884542 0.080758 -0.027094 -223818.000000 0 0 1
34.786011 -5.276698 -10.613820 36.750011 -0.150543 1.863781 0.068685 -0.024938 516798.000000 0 0 1
-35.693474 -5.559298 -10.240420 37.547252 0.154510 1.847030 0.080292 -0.022820 169046.000000 0 0 1
-35.560534 -6.869898 -9.446420 37.429694 0.190838 1.825933 0.080691 -0.024160 -166550.000000 0 0 1
35.828293 -6.776098 -8.099420 37.352145 -0.186919 1.789372 0.080681 -0.025526 536131.000000 0 0 1
35.369071 -7.998298 -7.541920 37.038150 -0.222398 1.775856 0.077339 -0.025032 -206339.000000 0 0 1
35.074451 -7.947798 -6.011720 36.462658 -0.222835 1.736426 0.082900 -0.023788 -51432.100000 0 0 1
-35.576663 -7.790598 -5.199420 36.788944 0.215578 1.712602 0.091848 -0.025911 869126.000000 0 0 1
-35.673425 -8.515898 -3.997920 36.893050 0.234333 1.679375 0.108236 -0.031460 -624186.000000 0 0 1
-35.171007 -9.950798 -4.091720 36.779890 0.275720 1.682276 0.110874 -0.038738 -566536.000000 0 0 1
-35.894448 -10.858298 -4.903520 37.820082 0.293755 1.700816 0.088059 -0.030466 -74175.200000 0 0 1
-35.070464 -11.618398 -5.731420 37.386813 0.319908 1.724704 0.068936 -0.025041 -293555.000000 0 0 1
-35.797249 -12.199098 -6.971720 38.456026 0.328440 1.753095 0.063305 -0.020696 -24294.000000 0 0 1
35.696661 -11.178498 -7.884320 38.227908 -0.303479 1.778532 0.074920 -0.020504 184731.000000 0 0 1
35.254421 -11.799398 -9.061220 38.264941 -0.322974 1.809869 0.065643 -0.018750 -99411.200000 0 0 1
35.417591 -11.092298 -10.407120 38.545467 -0.303510 1.844185 0.039690 -0.022369 99499.700000 0 0 1
34.390771 -10.129198 -10.620820 37.391545 -0.286433 1.858805 0.039106 -0.020281 739344.000000 0 0 1
34.693641 -9.399998 -11.767320 37.821668 -0.264591 1.887174 0.040564 -0.019129 -178223.000000 0 0 1
33.573901 -8.400798 -12.136420 36.675236 -0.245184 1.908070 0.049960 -0.020162 -384549.000000 0 0 1
33.885551 -7.627398 -13.300120 37.192755 -0.221403 1.936493 0.050938 -0.019700 394510.000000 0 0 1
32.963301 -6.629098 -13.649120 36.288051 -0.198458 1.956415 0.045467 -0.025607 -332229.000000 0 0 1
33.243601 -6.065398 -15.060120 36.996396 -0.180468 1.990040 0.037215 -0.023689 383853.000000 0 0 1
34.372381 -5.178098 -15.135020 37.912295 -0.149523 1.981453 0.035770 -0.016036 821608.000000 0 0 1
33.960611 -3.844398 -15.311520 37.450570 -0.112722 1.991986 0.053424 -0.024930 -763313.000000 0 0 1
35.073241 -2.875298 -15.539920 38.469322 -0.081797 1.986634 0.057429 -0.035741 -828332.000000 0 0 1
35.727081 -2.871098 -16.799020 39.583767 -0.080190 2.009086 0.055588 -0.030093 367079.000000 0 0 1
-34.729368 -2.481198 -16.810220 38.663534 0.071323 2.020593 0.070957 -0.022737 345900.000000 0 0 1
-34.459890 -0.973098 -16.670320 38.292696 0.028231 2.021212 0.068990 -0.020516 -459171.000000 0 0 1
-34.794833 -0.215698 -17.847920 39.105949 0.006199 2.044740 0.059086 -0.019995 195129.000000 0 0 1
-34.594865 1.166902 -17.572720 38.819671 -0.033718 2.040560 0.063038 -0.025726 -95058.400000 0 0 1
-34.949257 1.968202 -18.789220 39.728569 -0.056257 2.063421 0.044531 -0.023371 -464602.000000 0 0 1
-34.078291 1.916702 -19.882420 39.500814 -0.056185 2.098258 0.050682 -0.020719 -16140.200000 0 0 1
-34.075749 3.158802 -20.603220 39.945305 -0.092435 2.112721 0.034924 -0.013407 -224287.000000 0 0 1
-32.938547 3.165802 -21.659720 39.548877 -0.095818 2.150373 0.032617 0.006142 602361.000000 0 0 1
-31.657637 3.535802 -21.104920 38.211589 -0.111228 2.155938 0.037912 0.007793 490344.000000 0 0 1
-30.906707 4.064502 -22.133120 38.231136 -0.130758 2.188211 0.039753 0.014724 -1324000.000000 0 0 1
-29.439077 4.342202 -21.952320 36.978620 -0.146442 2.206382 0.050211 0.014699 -1057800.000000 0 0 1
-28.712497 3.268002 -21.467220 35.999012 -0.113330 2.209715 0.059914 0.017930 -825799.000000 0 0 1
-27.357277 3.567502 -21.424320 34.930634 -0.129672 2.231078 0.039387 0.027639 -852333.000000 0 0 1
-26.502917 2.526602 -20.748620 33.753424 -0.095046 2.232817 0.044047 0.019036 -393009.000000 0 0 1
-26.851787 2.349702 -19.376520 33.196222 -0.087284 2.194070 0.047077 0.016216 93976.100000 0 0 1
-25.897577 1.575002 -18.682820 31.972065 -0.060742 2.194873 0.044059 0.012659 172550.000000 0 0 1
-25.094197 2.333402 -17.579120 30.727658 -0.092719 2.179853 0.044698 0.004268 -236553.000000 0 0 1
-24.095437 3.176102 -18.052520 30.274927 -0.131058 2.209663 0.046176 0.007613 -316084.000000 0 0 1
-23.409237 3.666302 -16.893520 29.100261 -0.155356 2.190173 0.058338 -0.005427 -675226.000000 0 0 1
-22.366737 4.707002 -17.158120 28.580201 -0.207420 2.214735 0.074275 -0.016172 -903006.000000 0 0 1
-21.295837 4.124402 -17.846420 28.089466 -0.191303 2.259248 0.084593 -0.016614 -628135.000000 0 0 1
-20.162537 4.933602 -17.674220 27.262546 -0.239976 2.276142 0.069476 -0.015355 -291414.000000 0 0 1
-18.863737 4.336702 -18.256220 26.607088 -0.225970 2.326968 0.074088 -0.021347 -111309.000000 0 0 1
-18.531237 3.084602 -17.683820 25.799981 -0.164942 2.325977 0.092933 -0.027669 -234083.000000 0 0 1
-17.376937 2.498202 -18.215120 25.298015 -0.142787 2.374630 0.061117 -0.021698 -734841.000000 0 0 1
-17.183137 1.070002 -17.529220 24.569874 -0.062190 2.365197 0.059701 -0.022775 -79462.600000 0 1 0
-17.997437 0.022102 -18.003220 25.456319 -0.001228 2.356355 0.045580 -0.019282 848595.000000 0 0 1
-19.369937 0.234602 -17.611320 26.180300 -0.012111 2.308640 0.055890 -0.024988 671617.000000 0 0 1
-20.398637 -0.890298 -17.960120 27.193068 0.043617 2.292237 0.057746 -0.020120 77473.200000 0 0 1
-20.292637 -2.105398 -17.224120 26.700078 0.103382 2.271946 0.041380 -0.014513 1006560.000000 0 0 1
-21.316937 -3.064998 -17.635620 27.835609 0.142804 2.256946 0.062326 -0.005846 759468.000000 0 0 1
-21.555637 -4.203798 -16.628620 27.546841 0.192603 2.218866 0.067233 -0.010478 69201.200000 0 0 1
-22.161837 -3.662298 -15.442620 27.258650 0.163772 2.173075 0.065594 -0.018918 422164.000000 0 0 1
-22.391337 -4.622698 -14.454020 27.049215 0.203590 2.134547 0.066933 -0.025099 -20718.300000 0 0 1
-22.578537 -4.099698 -13.027320 26.387667 0.179618 2.087124 0.058777 -0.027016 -289748.000000 0 0 1
-23.708737 -3.282998 -12.946520 27.212032 0.137597 2.066629 0.062615 -0.027195 141834.000000 0 0 1
-24.036937 -2.929698 -11.615420 26.856572 0.121285 2.018058 0.072584 -0.032572 -288590.000000 0 0 1
-24.944337 -1.685198 -11.639320 27.577774 0.067456 2.006507 0.086774 -0.030129 -430894.000000 0 0 1
-25.273827 -1.239998 -10.361220 27.343351 0.049023 1.959436 0.090767 -0.037259 577704.000000 0 0 1
-25.616067 0.129202 -10.309320 27.613071 -0.005044 1.953413 0.096884 -0.039634 -187057.000000 0 0 1
-26.141767 0.579802 -8.906320 27.623373 -0.022176 1.899081 0.112434 -0.038405 134128.000000 0 0 1
-25.065407 0.795102 -7.988920 26.319759 -0.031710 1.879195 0.089916 -0.030629 820431.000000 0 0 1
-25.467997 0.921402 -6.661020 26.340787 -0.036163 1.826451 0.093113 -0.033276 -8934.030000 0 0 1
-24.298637 1.310902 -5.703920 24.993538 -0.053897 1.801041 0.052424 -0.021528 62560.900000 0 1 0
-23.990137 2.698002 -5.698420 24.804796 -0.111992 1.802597 0.070226 -0.025576 1044420.000000 0 1 0
-22.568637 2.867702 -5.641120 23.439056 -0.126388 1.813854 0.053126 -0.013254 477308.000000 0 1 0
-22.099737 4.364902 -5.504820 23.189519 -0.194999 1.810468 0.058799 -0.020610 -404001.000000 0 1 0
-22.547337 5.112002 -4.405520 23.535582 -0.222954 1.759093 0.055998 -0.020801 573757.000000 0 1 0
-22.202437 6.449502 -4.619320 23.577159 -0.282706 1.767995 0.054290 -0.020843 -425822.000000 0 1 0
-22.923537 7.463202 -3.696920 24.389653 -0.314747 1.722960 0.068472 -0.018717 -487878.000000 0 1 0
-22.485237 7.536002 -2.336220 23.829292 -0.323388 1.668994 0.074489 -0.016469 1621820.000000 0 1 0
-21.132537 7.977302 -2.036520 22.679702 -0.360951 1.660712 0.085955 -0.016820 850722.000000 0 1 0
-20.707837 9.372902 -2.455720 22.862554 -0.425035 1.678416 0.082305 -0.016837 -560052.000000 0 1 0
-20.627337 9.678402 -3.828520 23.104460 -0.438708 1.737269 0.074458 -0.016531 460670.000000 0 1 0
-19.998437 10.928202 -3.929820 23.125886 -0.500116 1.741557 0.078658 -0.009184 -355060.000000 0 1 0
-19.856737 11.487602 -5.350520 23.555957 -0.524479 1.799937 0.081613 -0.011635 39545.900000 0 1 0
-18.799337 10.915502 -6.112520 22.581545 -0.526057 1.844902 0.059549 -0.008802 330866.000000 0 1 0
-18.760137 11.488302 -7.418320 23.215411 -0.549472 1.896043 0.061859 -0.004139 120833.000000 0 1 0
-17.447937 11.086402 -8.131620 22.214006 -0.566042 1.945566 0.057239 -0.006747 70991.200000 0 1 0
-17.404037 9.708502 -8.486720 21.660562 -0.508835 1.973389 0.067950 -0.010133 596233.000000 0 1 0
-18.203537 9.217802 -9.620120 22.558443 -0.468734 2.011364 0.061687 -0.002852 268288.000000 0 1 0
-18.117737 9.801002 -11.089220 23.394077 -0.495878 2.064645 0.068622 -0.007889 175921.000000 0 1 0
-16.895537 9.539302 -11.772420 22.694655 -0.513987 2.116162 0.055324 -0.007652 362815.000000 0 1 0
-16.952437 10.219802 -13.016520 23.690912 -0.542514 2.152479 0.051747 -0.009067 352271.000000 0 1 0
-15.749637 9.934602 -13.970720 23.279356 -0.562747 2.214464 0.027281 0.000225 79715.100000 0 1 0
-15.809737 8.630902 -14.607420 23.190882 -0.499708 2.252192 0.029679 -0.009192 73085.000000 0 1 0
-15.689737 7.484302 -13.749820 22.163939 -0.445094 2.240009 0.032665 -0.005637 -322395.000000 0 1 0
-15.855937 6.160002 -14.567420 22.395672 -0.370552 2.278982 0.045227 -0.006821 -364539.000000 0 1 0
-14.753337 5.914102 -15.393320 22.126723 -0.381252 2.340175 0.049092 -0.013130 287055.000000 0 1 0
-14.947637 4.717502 -16.125020 22.487841 -0.305708 2.370364 0.050956 -0.017056 59822.400000 0 1 0
31.712711 -15.904498 28.162522 45.296542 -0.464861 0.899838 0.020417 0.008688 -385973.000000 0 0 1
30.787231 -14.885398 28.431612 44.472297 -0.450355 0.877195 0.034911 0.002811 219071.000000 0 0 1
29.932321 -15.014898 29.599572 44.693687 -0.464949 0.846944 0.040948 0.002130 474784.000000 0 0 1
30.609741 -15.026798 30.985652 46.074630 -0.456354 0.833201 0.030993 -0.010558 -274242.000000 0 0 1
31.140121 -13.787698 31.291012 46.248624 -0.416819 0.827685 0.028278 -0.019140 -134342.000000 0 0 1
31.521521 -13.700098 32.666794 47.417491 -0.409996 0.810800 0.021201 -0.025016 -246436.000000 0 0 1
31.808241 -12.255998 33.111122 47.521785 -0.367778 0.799930 0.030602 -0.025079 -68859.600000 0 0 1
31.538651 -12.117098 -34.160507 48.046341 -0.366811 2.361703 0.019165 -0.035114 263174.000000 0 0 1
31.971291 -10.861898 -33.691920 47.699998 -0.327505 2.355096 0.037691 -0.022505 -245023.000000 0 0 1
31.725181 -10.689298 -32.179060 46.435333 -0.324988 2.336420 0.029588 -0.014575 733256.000000 0 0 1
30.312851 -10.601898 -31.954030 45.302641 -0.336451 2.353707 0.068483 -0.021429 687883.000000 0 0 1
29.902601 -10.449998 -30.623490 44.058668 -0.336201 2.339302 0.041342 -0.008503 23585.800000 0 0 1
28.372601 -10.278698 -30.448040 42.868862 -0.347569 2.360664 0.054140 0.000409 216150.000000 0 0 1
27.973361 -10.037298 -29.127710 41.613457 -0.344507 2.346136 0.048611 -0.005291 731408.000000 0 0 1
26.966621 -10.963898 -28.649600 40.843669 -0.386160 2.348220 0.062731 -0.011582 -332271.000000 0 0 1
26.663311 -10.820898 -27.105210 39.531208 -0.385526 2.326315 0.072985 -0.012203 -538208.000000 0 0 1
25.821311 -9.711298 -26.784490 38.450726 -0.359731 2.341434 0.061371 -0.018892 372538.000000 0 0 1
24.533511 -9.605398 -27.336550 37.966351 -0.373176 2.374628 0.060777 -0.026872 83182.200000 0 0 1
23.497811 -10.773498 -27.122990 37.468280 -0.429891 2.380223 0.068032 -0.012236 -424728.000000 0 0 1
23.787011 -11.749898 -28.032160 38.596425 -0.458806 2.383704 0.070836 -0.018475 -117323.000000 0 0 1
23.144311 -12.911898 -27.619210 38.277892 -0.508878 2.376827 0.071148 -0.020715 -151349.000000 0 0 1
23.847811 -14.167698 -28.160260 39.527738 -0.536061 2.363734 0.063613 -0.004897 2830.740000 0 0 1
23.882411 -14.167898 -29.586290 40.576440 -0.535431 2.387875 0.064467 -0.019286 215203.000000 0 0 1
24.916611 -14.985498 -30.097360 41.847984 -0.541467 2.373457 0.055633 -0.017948 -118839.000000 0 0 1
25.040711 -14.916198 -31.643930 43.021722 -0.537235 2.397251 0.071317 -0.025058 -11174.700000 0 0 1
23.906711 -15.394998 -32.356980 43.075643 -0.572118 2.420624 0.070002 -0.018468 271685.000000 0 0 1
24.059811 -15.484698 -33.758730 44.252709 -0.571857 2.438525 0.069225 -0.010388 -216809.000000 0 0 1
24.041911 -14.207298 34.012020 44.007707 -0.533730 0.687453 0.045706 -0.019195 -729847.000000 0 0 1
22.895111 -13.443098 33.929335 43.082511 -0.530925 0.663984 0.055458 -0.015553 -652475.000000 0 0 1
23.063611 -12.355998 33.043662 42.148362 -0.491826 0.669738 0.043347 -0.014445 -1228670.000000 0 0 1
21.970911 -11.391698 33.325697 41.510165 -0.478330 0.638766 0.055841 -0.017881 -33004.400000 0 0 1
20.630711 -11.694098 32.928457 40.579076 -0.515672 0.624144 0.048960 -0.016208 755738.000000 0 0 1
20.350911 -11.847198 31.513292 39.339589 -0.527188 0.641736 0.034189 -0.004579 -1432060.000000 0 0 1
18.894411 -12.129798 31.149892 38.398523 -0.570715 0.624550 0.039654 -0.001746 30370.400000 0 0 1
17.959211 -11.096798 31.406362 37.842195 -0.553469 0.591815 0.039914 -0.004780 -65628.500000 0 0 1
17.348411 -11.178998 32.625491 38.605181 -0.572415 0.564032 0.027904 -0.000221 -545088.000000 0 0 1
16.370911 -10.021498 32.984119 38.162668 -0.549307 0.527033 0.038495 -0.001850 46196.000000 0 0 1
15.272511 -9.923198 32.067442 36.878724 -0.576194 0.516531 0.043056 0.000834 391043.000000 0 0 1
14.406911 -8.823598 32.231632 36.390838 -0.549528 0.482781 0.054766 -0.000298 510050.000000 0 0 1
13.385411 -8.908098 33.404879 37.073028 -0.587200 0.448598 0.059391 -0.000467 -535453.000000 0 0 1
12.402011 -9.919898 33.242381 36.841147 -0.674657 0.445683 0.048086 0.008004 746937.000000 0 0 1
11.249211 -9.800198 34.089585 37.211402 -0.716668 0.412539 0.041721 0.007027 1058810.000000 0 0 1
10.100911 -8.970098 33.408298 36.036168 -0.726173 0.384258 0.036780 0.006518 -86457.200000 0 0 1
10.445511 -7.566098 33.403980 35.807547 -0.626875 0.368481 0.055083 0.003547 997982.000000 0 0 1
9.374611 -6.884598 32.753559 34.757397 -0.633434 0.341218 0.032956 0.013966 476194.000000 0 0 1
9.964611 -5.508998 32.411112 34.352914 -0.505034 0.337834 0.032537 0.015471 233901.000000 0 0 1
9.994611 -4.732098 33.608847 35.381346 -0.442195 0.317871 0.025867 0.006175 215738.000000 0 0 1
10.291211 -3.364498 33.362732 35.075643 -0.315976 0.313807 0.005704 0.007236 -456460.000000 0 0 1
10.128111 -2.485798 -34.063210 35.623870 -0.240678 2.844497 0.010342 -0.005176 451033.000000 0 0 1
8.742111 -2.285098 -33.791510 34.978742 -0.255669 2.880306 0.008135 0.005816 209587.000000 0 0 1
8.529811 -1.622198 -32.551520 33.689623 -0.187936 2.880925 0.006992 0.000225 -240764.000000 0 0 1
7.055311 -1.295898 -32.340130 33.126135 -0.181652 2.923317 0.015458 0.000405 -565890.000000 0 0 1
6.578411 -0.229798 -33.059280 33.708223 -0.034918 2.945053 0.031654 0.000206 904645.000000 0 0 1
5.192811 0.049702 -32.718190 33.127749 0.009571 2.984185 0.044049 0.001485 1198410.000000 0 0 1
4.632911 1.177002 -33.563210 33.901892 0.248789 3.000124 0.043256 -0.004048 -357319.000000 0 0 1
5.283511 2.391202 -33.367130 33.867370 0.424996 2.969505 0.034274 -0.008704 -48797.000000 0 0 1
4.666611 3.392602 -34.214824 34.697856 0.628614 2.974539 0.042269 -0.009279 437744.000000 0 0 1
5.505011 4.704302 34.248427 35.005576 0.707129 0.208364 0.037934 -0.006306 119619.000000 0 0 1
5.204911 5.378202 33.072580 33.908873 0.801771 0.222553 0.054883 -0.023024 -43659.100000 0 0 1
6.162111 6.379402 32.809331 33.987065 0.802722 0.264024 0.054466 -0.024738 -320890.000000 0 0 1
5.660211 7.560902 31.996562 33.361433 0.928182 0.287032 0.066788 -0.021147 -1068470.000000 0 0 1
4.514611 8.108002 32.542502 33.839856 1.062740 0.277797 0.069214 -0.022541 -513110.000000 0 0 1
4.242011 9.405602 31.872752 33.501228 1.147104 0.313077 0.067028 -0.023699 32859.600000 0 0 1
3.876811 9.488602 30.374442 32.057292 1.182919 0.325456 0.067018 -0.022849 148688.000000 0 0 1
2.681811 8.820702 29.972522 31.358395 1.275641 0.298409 0.075933 -0.020105 110228.000000 0 0 1
2.502111 8.777702 28.558562 29.981662 1.293108 0.309341 0.062458 -0.006968 -584258.000000 0 0 1
1.157811 8.230902 28.105242 29.308580 1.431047 0.287547 0.059208 -0.007380 -1365890.000000 0 0 1
0.118911 8.950302 28.649982 30.015721 1.557511 0.302820 0.059152 -0.010295 -331555.000000 0 0 1
-1.049989 8.451202 27.946422 29.215198 -1.447188 0.295793 0.051035 -0.001003 -306100.000000 0 0 1
-2.410289 8.668302 28.499282 29.885749 -1.299590 0.305796 0.053126 -0.003573 -1180680.000000 0 0 1
-2.765489 10.018802 28.582332 30.413385 -1.301473 0.348768 0.053765 -0.006843 204598.000000 0 0 1
-4.031789 10.104002 29.241792 31.199817 -1.191127 0.356161 0.045655 -0.003929 269635.000000 0 0 1
-4.125689 11.474302 30.014782 32.397037 -1.225631 0.385882 0.040894 -0.008994 -342963.000000 0 0 1
-4.226889 12.668402 29.223422 32.130412 -1.248755 0.428656 0.027598 -0.008893 192222.000000 0 0 1
-5.478589 12.801602 28.571582 31.784135 -1.166420 0.453485 0.031025 -0.010070 125274.000000 0 0 1
-5.739389 14.234302 27.962622 31.897714 -1.187527 0.501975 0.015147 -0.011585 131647.000000 0 0 1
-4.887689 14.509302 26.868122 30.924186 -1.245870 0.517945 0.018855 -0.003750 -237962.000000 0 0 1
-5.040689 15.809902 26.384082 31.168595 -1.262154 0.561428 0.018403 -0.003994 403756.000000 0 0 1
-3.796689 16.367402 25.616662 30.635275 -1.342861 0.580512 0.024483 -0.005280 130696.000000 0 0 1
-3.518689 15.942602 24.243022 29.227929 -1.353569 0.592679 0.013693 -0.001401 -174708.000000 0 0 1
-2.626089 16.824102 23.598122 29.100139 -1.415955 0.625060 0.013042 0.002567 -3068.280000 0 0 1
-2.476589 16.543502 22.087072 27.706672 -1.422198 0.648194 0.015423 0.004213 372806.000000 0 0 1
-1.583489 15.492702 21.654772 26.673215 -1.468941 0.623475 0.008459 -0.001546 163278.000000 0 0 1
-1.743589 15.094002 20.299972 25.356613 -1.455791 0.642536 0.005963 -0.004141 105551.000000 0 0 1
-0.842289 13.944802 19.734572 24.178922 -1.510468 0.616012 0.008797 -0.007780 -56017.900000 0 1 0
-1.163689 12.634502 20.217072 23.868699 -1.478951 0.560458 0.021969 -0.009530 137332.000000 0 1 0
-0.580089 11.690102 19.319472 22.588426 -1.521215 0.544702 0.021669 -0.014151 -512500.000000 0 1 0
-1.452289 10.449002 19.039172 21.766507 -1.432693 0.505979 0.006866 -0.018367 -625495.000000 0 1 0
-1.683489 9.548102 20.142172 22.354138 -1.396273 0.448614 0.018369 -0.025720 318506.000000 0 1 0
-2.422689 10.063202 21.272372 23.656949 -1.334545 0.452855 0.029942 -0.016060 -502784.000000 0 1 0
-3.929589 10.245602 21.076972 23.762423 -1.204560 0.480016 0.035073 -0.014124 -425445.000000 0 1 0
-4.654289 9.018402 21.184572 23.489999 -1.094361 0.446752 0.043503 -0.016144 783204.000000 0 1 0
-6.071789 9.237802 21.291572 23.990303 -0.989323 0.478889 0.046636 -0.008357 667707.000000 0 1 0
-6.954089 8.017102 21.303372 23.800566 -0.856283 0.462189 0.035583 -0.010758 -364457.000000 0 1 0
-6.923889 7.132602 22.406772 24.512806 -0.800245 0.417552 0.040589 -0.016795 -124183.000000 0 1 0
-7.758689 6.015702 22.188672 24.263616 -0.659529 0.416567 0.040039 -0.018718 114338.000000 0 1 0
-7.918689 5.105002 23.420472 25.244508 -0.572625 0.382471 0.029933 -0.020749 222613.000000 0 0 1
-8.769489 5.566402 24.478822 26.591380 -0.565577 0.401298 0.015991 -0.014578 308156.000000 0 0 1
-8.680489 4.708402 25.599662 27.438342 -0.496999 0.368167 0.018224 -0.006017 -255361.000000 0 0 1
-9.547489 5.048802 26.801422 28.895694 -0.486429 0.383066 0.021723 -0.000818 -398574.000000 0 0 1
-9.037589 6.214102 27.413422 29.526069 -0.602344 0.380583 0.023175 0.001013 -118406.000000 0 0 1
-9.781089 6.528802 28.556512 30.883156 -0.588574 0.390647 0.025463 -0.005898 -40541.800000 0 0 1
-9.321689 7.857402 29.218202 31.659690 -0.700367 0.395294 0.036013 -0.007215 811001.000000 0 0 1
-8.091589 7.757002 29.956232 31.984695 -0.764290 0.358055 0.042278 -0.009613 418352.000000 0 0 1
-7.850689 8.908502 30.790912 33.001136 -0.848433 0.368064 0.047314 -0.013057 317182.000000 0 0 1
-6.857489 8.431802 31.888342 33.689565 -0.888005 0.328477 0.063537 -0.011503 1084090.000000 0 0 1
-5.558289 8.030402 31.408462 32.891844 -0.965354 0.301469 0.058854 -0.011960 193341.000000 0 0 1
-4.843889 7.437802 32.461292 33.652929 -0.993541 0.266910 0.069879 -0.009457 643408.000000 0 0 1
-3.308289 7.559202 32.154312 33.196176 -1.158260 0.251200 0.053130 -0.007541 752363.000000 0 0 1
-2.792689 8.864202 32.370762 33.678471 -1.265588 0.279582 0.048023 -0.013778 -296141.000000 0 0 1
-1.386389 8.945302 32.331752 33.575030 -1.417035 0.272986 0.052510 -0.017382 -2699.750000 0 0 1
-1.019489 10.336302 31.839182 33.490476 -1.472482 0.315332 0.047788 -0.016813 -229593.000000 0 0 1
-1.296189 11.221502 32.905004 34.789962 -1.455797 0.330689 0.052234 -0.032496 78643.600000 0 0 1
-1.764189 12.466602 32.428332 34.786854 -1.430217 0.370350 0.049856 -0.029439 -323917.000000 0 0 1
-1.832989 13.486602 33.551397 36.206968 -1.435712 0.385380 0.047357 -0.031519 -526673.000000 0 0 1
-0.507189 13.867402 33.847955 36.582046 -1.534238 0.389072 0.086544 -0.032314 -276778.000000 0 0 1
-0.495689 14.771802 -33.711050 36.808786 -1.537253 2.728397 0.079178 -0.031937 578809.000000 0 0 1
0.912211 15.122902 -33.131970 36.431604 1.510549 2.712706 0.071747 -0.027548 250513.000000 0 0 1
1.710011 15.888102 -33.989840 37.558823 1.463581 2.702120 0.079535 -0.025000 -703587.000000 0 0 1
2.951011 16.169202 -33.429090 37.251250 1.390275 2.684626 0.074300 -0.021433 -460095.000000 0 0 1
3.746911 17.064702 34.209144 38.412354 1.354655 0.472185 0.084671 -0.006441 -178729.000000 0 0 1
3.277811 18.352002 34.194393 38.946072 1.394052 0.499142 0.074693 0.001084 302311.000000 0 0 1
4.147811 19.283002 33.482020 38.859801 1.358923 0.532362 0.052884 0.019557 570156.000000 0 0 1
3.743911 20.791902 33.553423 39.650375 1.392640 0.561923 0.061661 0.007808 108104.000000 0 0 1
4.103711 21.384902 -33.848820 40.247945 1.381204 2.569939 0.068113 -0.006474 307130.000000 0 0 1
3.722511 22.780702 -33.833430 40.957520 1.408822 2.542879 0.060761 -0.003074 202363.000000 0 0 1
3.955211 23.484202 -32.487620 40.281471 1.403942 2.509030 0.074557 -0.013217 242287.000000 0 0 1
3.116511 24.620502 -32.288650 40.723933 1.444884 2.486295 0.064243 -0.018675 418177.000000 0 0 1
3.384511 25.090802 -30.993550 40.020038 1.436715 2.456643 0.071602 -0.014407 -110175.000000 0 0 1
2.806911 26.464502 -30.654600 40.594989 1.465128 2.426653 0.058180 -0.019378 -132221.000000 0 0 1
3.677911 27.552502 -30.857970 41.531695 1.438093 2.408335 0.057547 -0.022907 -2920.820000 0 0 1
3.037411 28.742302 -30.480210 42.004631 1.465510 2.382759 0.053846 -0.028943 -616652.000000 0 0 1
3.968711 29.910602 -30.299470 42.760410 1.438881 2.358290 0.057237 -0.036788 -1031850.000000 0 0 1
4.880411 29.701302 -29.300140 42.005761 1.407935 2.342736 0.073082 -0.046209 -787506.000000 0 0 1
5.539811 30.929902 -29.070390 42.806961 1.393567 2.317338 0.089750 -0.053830 363845.000000 0 0 1
6.672011 30.821302 -27.952380 42.140289 1.357612 2.296039 0.095486 -0.053311 -250488.000000 0 0 1
7.770111 30.059902 -28.355820 42.047888 1.317845 2.310907 0.090450 -0.050595 710480.000000 0 0 1
9.015411 30.817402 -28.299610 42.800208 1.286195 2.293217 0.090304 -0.054378 1133760.000000 0 0 1
9.233811 32.075302 -29.248900 44.380023 1.290496 2.290359 0.100213 -0.054669 -919121.000000 0 0 1
8.623311 33.234402 -28.671270 44.731742 1.316925 2.266545 0.101685 -0.051320 138465.000000 0 0 1
8.420411 34.305802 -29.550340 46.054468 1.330103 2.267430 0.100523 -0.045143 778757.000000 0 0 1
7.127411 34.293702 -30.477320 46.429786 1.365879 2.286856 0.072975 -0.031789 790043.000000 0 0 1
7.102911 33.226702 -31.420540 46.278671 1.360195 2.317117 0.060880 -0.029744 181931.000000 0 0 1
5.781711 33.028302 -31.890950 46.274503 1.397499 2.331138 0.042236 -0.022794 218494.000000 0 0 1
5.691311 32.384902 -33.335240 46.823190 1.396833 2.363051 0.040213 -0.037518 58184.400000 0 0 1
6.304311 33.208102 -34.301698 48.157335 1.383186 2.363543 0.045552 -0.036283 129867.000000 0 0 1
6.588011 32.458602 33.220728 46.910334 1.370550 0.783886 0.035878 -0.028460 -319639.000000 0 0 1
5.859011 33.008402 31.954522 46.313865 1.395125 0.809368 0.030012 -0.019702 141606.000000 0 0 1
6.372111 34.244102 31.506192 46.967036 1.386821 0.835489 0.034157 -0.023515 250022.000000 0 0 1
5.543311 -34.017584 30.467642 46.002190 -1.409262 0.846901 0.026278 -0.024572 186207.000000 0 0 1
18.014163 -22.202598 29.230452 40.888687 -0.889171 0.774346 0.038188 -0.003064 -188976.000000 0 0 1
17.246563 -21.147898 29.822902 40.423792 -0.886663 0.741056 0.025853 -0.006487 659430.000000 0 0 1
15.842963 -21.333398 29.688012 39.843335 -0.932024 0.730084 0.018735 -0.002082 293912.000000 0 0 1
15.197463 -21.935198 30.951482 40.866979 -0.964896 0.711518 0.032620 -0.006725 -670226.000000 0 0 1
15.541263 -23.240398 31.282422 41.955177 -0.981375 0.729339 0.059104 -0.007723 58985.600000 0 0 1
15.165363 -23.558998 32.606145 42.990409 -0.998850 0.709862 0.061921 -0.014168 -145113.000000 0 0 1
16.186263 -24.499398 33.291994 44.391130 -0.986950 0.722780 0.063544 -0.013072 67940.800000 0 0 1
16.029763 -25.812658 32.981065 44.844144 -1.015076 0.744451 0.060592 -0.019347 212968.000000 0 0 1
16.971963 -26.672348 33.662522 46.180375 -1.004103 0.754030 0.060346 -0.014570 378531.000000 0 0 1
16.763363 -28.200018 33.588998 46.951807 -1.034471 0.773610 0.048446 -0.010274 -316308.000000 0 0 1
17.263763 -28.792588 32.444902 46.687496 -1.030678 0.802463 0.035817 -0.015157 -126601.000000 0 0 1
16.878663 -30.122468 32.314482 47.291416 -1.060053 0.818516 0.037648 -0.013228 -256356.000000 0 0 1
17.540263 -30.989578 31.186352 47.335011 -1.055748 0.851516 0.043235 -0.020111 -240327.000000 0 0 1
18.849763 -31.321078 31.559782 48.294340 -1.029037 0.858613 0.017676 -0.023059 -216333.000000 0 0 1
19.455363 -32.228148 30.623402 48.527903 -1.027678 0.887894 0.009352 -0.015590 -660945.000000 0 0 1
20.892863 -32.572708 30.988542 49.576030 -1.000475 0.895574 0.014646 -0.016287 -1081570.000000 0 0 1
21.743163 -31.518888 30.898512 49.202881 -0.966918 0.891839 0.015316 -0.015367 -412405.000000 0 0 1
23.059663 -31.738668 31.376922 50.235469 -0.942474 0.896181 0.001455 -0.010835 290864.000000 0 0 1
23.957263 -30.495298 31.118062 49.721700 -0.904895 0.894582 0.004241 -0.007832 157811.000000 0 0 1
24.500263 -30.531148 29.813162 49.206082 -0.894552 0.919920 0.009370 -0.007950 128284.000000 0 0 1
25.494263 -29.530588 29.577312 48.957435 -0.858622 0.922106 0.014718 -0.013104 325824.000000 0 0 1
26.755363 -29.998578 28.852112 49.479374 -0.842481 0.948240 0.016224 -0.008193 -368466.000000 0 0 1
27.666663 -30.752088 29.572142 50.849255 -0.838165 0.950145 0.012619 -0.008246 165759.000000 0 0 1
28.884463 -30.947978 28.848412 51.228121 -0.819873 0.972620 0.017526 -0.015307 378295.000000 0 0 1
29.857463 -31.918978 29.466302 52.711974 -0.818756 0.977610 -0.007699 -0.024607 -593462.000000 0 0 1
29.375563 -33.231358 29.386322 53.205289 -0.846908 0.985652 -0.014480 -0.018940 170404.000000 0 0 1
30.184663 -34.230206 30.004112 54.617466 -0.848120 0.989210 -0.005269 -0.009787 32768.600000 0 0 1
29.238763 33.370575 30.615202 53.905390 0.851296 0.966792 -0.014130 -0.008444 363843.000000 0 0 1
28.538463 33.695705 31.768252 54.397299 0.868078 0.947144 0.000029 -0.005728 934622.000000 0 0 1
27.490663 -34.015598 31.709142 54.020988 -0.891089 0.943475 -0.016425 0.005968 678203.000000 0 0 1
26.181963 -34.259137 30.921162 53.059418 -0.918248 0.948670 -0.003126 -0.000788 -112755.000000 0 0 1
25.591863 33.230213 31.258592 52.309560 0.914531 0.930330 0.000031 -0.005075 725479.000000 0 0 1
24.323263 33.096260 30.582862 51.208349 0.937013 0.930761 -0.010895 -0.003597 980617.000000 0 0 1
23.663463 31.699787 30.455122 49.923446 0.929548 0.914690 -0.001067 -0.014098 -935205.000000 0 0 1
24.294363 30.766067 29.585492 49.112812 0.902400 0.924294 -0.002122 -0.009537 -102545.000000 0 0 1
23.671763 29.508087 29.521922 47.985658 0.894708 0.908126 0.020295 -0.028774 -299792.000000 0 0 1
23.019663 29.185647 28.139042 46.620945 0.902964 0.922824 0.027856 -0.028111 406012.000000 0 0 1
21.816663 29.893897 27.868192 46.327616 0.940347 0.925361 0.042011 -0.029723 136938.000000 0 0 1
21.084463 29.275367 26.831712 44.961566 0.946634 0.931327 0.054217 -0.025827 -123492.000000 0 0 1
19.786663 30.000927 26.458092 44.627326 0.987747 0.936181 0.070350 -0.029729 -247423.000000 0 0 1
19.887563 31.252987 25.821762 45.155595 1.004083 0.962050 0.067909 -0.037048 960442.000000 0 0 1
18.586063 31.868157 25.605662 44.907361 1.042808 0.964061 0.061274 -0.034887 596180.000000 0 0 1
18.670563 33.290800 24.972182 45.612248 1.059674 0.991436 0.056495 -0.027675 82307.100000 0 0 1
19.344663 33.338878 23.681192 45.238210 1.045030 1.019869 0.058171 -0.023492 -131635.000000 0 0 1
20.699963 33.627737 23.802752 46.107311 1.019013 1.028334 0.060120 -0.014450 -718522.000000 0 0 1
21.440663 33.623127 22.444572 45.759977 1.003134 1.058150 0.062213 -0.020323 108747.000000 0 0 1
20.864163 -34.170173 21.506772 45.447280 -1.022622 1.077849 0.059625 -0.001885 732241.000000 0 0 1
21.667863 -34.098765 20.333672 45.229197 -1.004722 1.104513 0.075369 -0.010809 176384.000000 0 0 1
21.229763 -32.931278 19.364572 43.705361 -0.998178 1.111775 0.053213 -0.002930 -156536.000000 0 0 1
21.362863 -31.634858 19.812472 43.007792 -0.976844 1.092045 0.056753 0.006266 108193.000000 0 0 1
20.827663 -30.588678 19.029272 41.612161 -0.973008 1.095839 0.062171 -0.008001 -168224.000000 0 0 1
21.605663 -30.079568 17.761672 41.073861 -0.947905 1.123608 0.054871 -0.016838 -135248.000000 0 0 1
21.425163 -30.785918 16.582072 41.009456 -0.962800 1.154531 0.046952 -0.002533 200009.000000 0 0 1
22.134763 -30.116058 15.584372 40.494411 -0.936976 1.175748 0.044183 -0.001466 -439415.000000 0 0 1
21.846963 -30.584108 14.215572 40.184076 -0.950521 1.209207 0.039184 -0.025238 -471083.000000 0 0 1
22.427663 -31.817588 13.873172 41.325826 -0.956801 1.228446 0.046216 -0.019852 87374.900000 0 0 1
22.531863 -32.041078 12.496372 41.115384 -0.957914 1.261977 0.052181 -0.025614 -74200.500000 0 0 1
21.203263 -32.141488 11.670572 40.235008 -0.987643 1.276507 0.047779 -0.017272 98917.400000 0 0 1
20.423163 -33.144798 12.251072 40.813870 -1.018565 1.265926 0.051206 -0.026881 214072.000000 0 0 1
19.075263 -33.139188 11.758372 40.004134 -1.048503 1.272462 0.056781 -0.022490 575320.000000 0 0 1
18.127463 -33.809348 12.771872 40.432631 -1.078635 1.249412 0.048110 -0.015921 -360023.000000 0 0 1
17.990563 -33.088458 13.989372 40.177219 -1.072794 1.215155 0.042758 -0.008068 484619.000000 0 0 1
18.650763 -33.725238 15.131172 41.402838 -1.065637 1.196667 0.034135 -0.010795 -197521.000000 0 0 1
18.508263 -32.836098 16.390572 41.102506 -1.057529 1.160618 0.039286 -0.011225 -34340.600000 0 0 1
17.175863 -32.608958 16.794472 40.501959 -1.086000 1.143229 0.042772 -0.014028 -18097.700000 0 0 1
16.409463 -33.630688 17.399272 41.267764 -1.116850 1.135566 0.033145 -0.009969 -354892.000000 0 0 1
16.921163 -34.271595 18.759972 42.577042 -1.112171 1.114516 0.022334 -0.019725 356744.000000 0 0 1
17.758063 33.284416 18.604472 42.063375 1.080690 1.112639 0.017688 -0.019906 408425.000000 0 0 1
18.279563 32.824696 19.834472 42.485402 1.062683 1.085067 0.019217 -0.026025 -125546.000000 0 0 1
18.936863 31.486807 19.525672 41.608601 1.029332 1.082332 0.044928 -0.022095 -509993.000000 0 0 1
18.032963 30.457817 19.276872 40.304642 1.036233 1.072102 0.037776 -0.026366 -58268.800000 0 0 1
18.752663 29.266107 18.931172 39.579750 1.000941 1.072073 0.044247 -0.029327 628781.000000 0 0 1
17.819063 27.989007 18.719872 38.096419 1.003867 1.057121 0.054834 -0.032522 338819.000000 0 0 1
17.745163 27.257497 19.940272 38.150706 0.993705 1.020815 0.061889 -0.036307 -53233.700000 0 0 1
17.057363 26.050557 19.678672 36.835245 0.991069 1.007194 0.049553 -0.039412 -532069.000000 0 0 1
16.895163 25.085947 20.886372 36.755840 0.978084 0.966423 0.050156 -0.034525 353260.000000 0 0 1
15.778563 25.270917 21.768372 36.897755 1.012646 0.939781 0.060077 -0.033395 387791.000000 0 0 1
14.673963 24.468097 21.400872 35.665253 1.030584 0.927235 0.051932 -0.026163 -610573.000000 0 0 1
13.426763 24.797687 22.210172 35.895612 1.074539 0.903654 0.052603 -0.039203 -599147.000000 0 0 1
12.711463 25.814497 21.539572 35.943326 1.113235 0.928214 0.049644 -0.038090 -410596.000000 0 0 1
11.470563 26.102667 22.136172 36.096165 1.156759 0.910621 0.030220 -0.034375 2503.910000 0 0 1
10.727663 27.138617 21.219972 36.081498 1.194356 0.942074 0.018609 -0.027471 -241995.000000 0 0 1
11.305763 28.405647 21.376972 37.305174 1.192006 0.960598 0.018674 -0.023487 19177.000000 0 0 1
10.777763 29.329627 20.439572 37.338496 1.218643 0.991527 0.023308 -0.022815 130541.000000 0 0 1
11.443263 30.799957 20.539572 38.748673 1.215067 1.012111 0.022782 -0.021736 16389.400000 0 0 1
11.071963 31.673137 21.553672 39.879026 1.234505 0.999793 0.025665 -0.019463 -174160.000000 0 0 1
11.607163 31.320497 22.834072 40.461026 1.215895 0.971154 0.004829 -0.015641 -248065.000000 0 0 1
10.980663 32.178927 23.992642 41.613762 1.241949 0.956290 -0.007923 -0.009772 671460.000000 0 0 1
9.590463 31.988647 24.236662 41.263377 1.279515 0.942997 0.007756 -0.012090 211624.000000 0 0 1
9.283263 32.519767 25.520222 42.367392 1.292727 0.924348 0.001416 -0.005759 543932.000000 0 0 1
7.871863 32.196167 26.159452 42.224120 1.331004 0.902642 0.051055 -0.018560 551918.000000 0 0 1
6.781063 33.004027 25.730362 42.394577 1.368155 0.918610 0.049459 -0.017133 391789.000000 0 0 1
6.109063 32.508337 24.581972 41.211479 1.385040 0.931683 0.046026 -0.029316 253998.000000 0 0 1
5.148863 31.285497 24.781162 40.241758 1.407682 0.907386 0.045153 -0.027099 -398873.000000 0 0 1
5.895563 30.121967 25.045692 39.615366 1.377517 0.886379 0.020370 -0.013740 -463244.000000 0 0 1
5.317963 28.866467 24.790462 38.420316 1.388613 0.869454 0.022395 -0.014013 -571282.000000 0 0 1
6.434163 27.798597 24.929282 37.889702 1.343345 0.852712 0.000879 -0.011084 -566450.000000 0 0 1
7.432463 27.729707 23.946132 37.384427 1.308919 0.875598 -0.005602 -0.008633 9648.500000 0 0 1
8.491463 28.654367 24.065282 38.370763 1.282700 0.892872 0.005444 -0.012538 -549973.000000 0 0 1
9.544063 28.309677 25.137622 39.043911 1.245632 0.871304 -0.000140 -0.020243 -1357660.000000 0 0 1
9.183863 28.434697 26.533932 39.961542 1.258392 0.844658 -0.008747 -0.014454 53049.700000 0 0 1
10.268263 28.237527 27.425752 40.681286 1.222023 0.830968 0.003684 -0.011942 -23331.900000 0 0 1
11.338363 29.322667 27.473272 41.751143 1.201829 0.852604 0.002979 -0.013642 -111818.000000 0 0 1
10.793863 30.352337 28.302042 42.880968 1.229125 0.849959 -0.000764 -0.016333 466379.000000 0 0 1
11.603563 31.507827 28.199252 43.847276 1.217934 0.872225 -0.009796 -0.007294 14222.900000 0 0 1
11.090663 32.637157 29.151712 45.144314 1.243222 0.868798 -0.002353 -0.011637 -85553.200000 0 0 1
11.289163 32.345367 30.528122 45.887190 1.234995 0.842919 0.011114 -0.030831 1152120.000000 0 0 1
10.046863 32.008737 31.216142 45.825170 1.266656 0.821395 0.017335 -0.017863 943068.000000 0 0 1
10.228163 31.680227 32.709874 46.671061 1.258505 0.794194 0.039833 -0.030385 -557832.000000 0 0 1
10.981363 30.588457 33.059894 46.359472 1.226123 0.776857 0.022947 -0.033333 -278635.000000 0 0 1
11.035263 30.500327 -34.146529 47.095992 1.223641 2.381890 0.052463 -0.031490 -117842.000000 0 0 1
10.990963 29.059667 -33.617070 45.775244 1.209205 2.395570 0.056455 -0.031807 25975.900000 0 0 1
12.156063 28.348757 -34.002790 45.908732 1.165708 2.404849 0.053387 -0.022630 291419.000000 0 0 1
12.061763 27.026107 -33.518850 44.714762 1.151023 2.418276 0.049791 -0.025098 521219.000000 0 0 1
13.355163 26.239967 -33.913910 44.911575 1.100004 2.426643 0.054040 -0.022984 475164.000000 0 0 1
13.124363 24.854097 -33.860340 44.005655 1.084956 2.448783 0.032825 -0.014184 -21269.500000 0 0 1
13.250763 24.330397 -32.527710 42.727074 1.072095 2.436097 0.027485 -0.007780 -90540.300000 0 0 1
13.177963 22.752387 -32.433120 41.752091 1.045819 2.460368 0.027508 -0.024332 556275.000000 0 0 1
14.395863 22.259787 -33.013230 42.339253 0.996730 2.465032 0.013989 -0.006756 566327.000000 0 0 1
14.461263 20.825987 -33.118920 41.709864 0.963848 2.488208 0.011551 -0.002242 -373486.000000 0 0 1
15.766963 20.268687 -33.688710 42.359721 0.909679 2.490300 0.022853 -0.007761 -1348400.000000 0 0 1
16.789663 20.427187 -32.838460 42.160731 0.882827 2.463686 0.027846 -0.015385 -910473.000000 0 0 1
18.019963 19.961187 -33.385180 42.868850 0.836464 2.463507 0.040002 -0.017553 455329.000000 0 0 1
19.265263 19.957287 -32.470410 42.705634 0.803040 2.434619 0.026558 -0.013761 -10151.600000 0 0 1
19.872663 21.224387 -32.394120 43.529029 0.818277 2.410126 0.015882 -0.014423 -66179.000000 0 0 1
20.815863 21.388087 -31.343880 43.280356 0.798956 2.380678 0.006469 -0.004872 7307.690000 0 0 1
20.233463 21.786687 -29.959370 42.209201 0.822345 2.359986 0.005918 -0.009491 3000.160000 0 0 1
19.687163 23.073787 -30.023090 42.677511 0.864432 2.351089 -0.002122 -0.001401 -151331.000000 0 0 1
18.999163 23.466987 -28.866360 41.772412 0.890222 2.333722 -0.002692 0.005805 -165885.000000 0 0 1
19.919463 24.018437 -27.753320 41.760234 0.878419 2.297738 -0.001487 0.002938 1348.940000 0 0 1
20.699263 25.181327 -28.076340 43.021385 0.882779 2.281825 0.002756 0.002344 356718.000000 0 0 1
19.949563 26.406987 -28.200000 43.480502 0.923807 2.276496 0.003919 0.006380 -153908.000000 0 0 1
20.801663 27.438027 -28.947230 44.983293 0.922111 2.269872 -0.000330 0.009781 -483292.000000 0 0 1
20.969963 27.377297 -30.411950 45.979805 0.917158 2.293506 0.001168 0.004914 50571.000000 0 0 1
21.614463 26.224137 -30.992170 45.993532 0.881460 2.310187 0.005892 -0.000485 -280528.000000 0 0 1
23.041163 25.906447 -30.541760 46.204311 0.843869 2.292967 0.015772 -0.002952 -64619.100000 0 0 1
24.026863 26.873457 -30.944480 47.508249 0.841265 2.280158 0.011360 -0.005719 1043590.000000 0 0 1
25.356063 26.564847 -30.496770 47.735459 0.808675 2.263825 0.028553 -0.021303 642797.000000 0 0 1
26.399463 27.557537 -31.048240 49.196979 0.806858 2.253768 0.034211 -0.009393 -333399.000000 0 0 1
26.428463 28.784427 -30.308450 49.453100 0.828043 2.230487 0.031413 -0.005823 97527.900000 0 0 1
27.442763 29.692277 -30.740880 50.791124 0.824750 2.220865 0.027401 -0.007122 370976.000000 0 0 1
27.570863 31.013137 -29.976520 51.191395 0.844089 2.196388 0.024883 0.004926 1523.790000 0 0 1
28.138763 30.762447 -28.690830 50.609109 0.829913 2.173547 0.042651 -0.003865 480257.000000 0 0 1
27.453263 31.490127 -27.686340 50.118292 0.853779 2.156061 0.032226 0.002714 -134238.000000 0 0 1
28.030263 31.000057 -26.305760 49.383117 0.835665 2.132569 0.051512 0.003171 1742.930000 0 0 1
27.890163 29.652107 -25.971450 48.286902 0.816009 2.138689 0.048095 0.012437 -222913.000000 0 0 1
26.608563 29.232547 -25.592400 47.090640 0.832354 2.145363 0.043131 0.011728 -518720.000000 0 0 1
26.229263 29.433887 -24.126920 46.221599 0.842906 2.119971 0.044938 0.010727 -269047.000000 0 0 1
26.130563 30.775307 -23.706320 46.817897 0.866839 2.101745 0.042426 0.013673 170361.000000 0 0 1
25.830663 30.775357 -22.315920 45.960266 0.872530 2.077786 0.042913 0.015975 7025.190000 0 0 1
3.004663 -26.480278 -19.276920 32.891227 -1.457812 2.197010 0.047054 0.002064 -82960.300000 0 0 1
2.875263 -27.681808 -18.500420 33.418785 -1.467299 2.157469 0.034433 0.002525 85620.500000 0 0 1
2.773863 -27.373768 -17.098320 32.393982 -1.469808 2.126833 0.038192 0.003056 -146843.000000 0 0 1
3.004363 -28.643888 -16.327120 33.106999 -1.466292 2.086517 0.030779 0.006792 104447.000000 0 0 1
4.327963 -29.130418 -16.216220 33.619612 -1.423303 2.074125 0.021666 -0.001297 -43873.000000 0 0 1
4.315363 -30.019458 -15.113420 33.885184 -1.428022 2.033108 0.020657 -0.000819 726628.000000 0 0 1
5.719363 -30.560048 -14.680620 34.382383 -1.385785 2.011948 0.031417 -0.004178 368579.000000 0 0 1
6.581263 -29.623668 -14.057120 33.443645 -1.352184 2.004597 0.027347 0.007424 -404153.000000 0 0 1
7.835863 -30.210408 -13.825620 34.135279 -1.317013 1.987802 0.032619 0.005997 -306888.000000 0 0 1
7.993763 -31.001488 -12.528520 34.379592 -1.318442 1.943803 0.034825 -0.001679 -1323760.000000 0 0 1
8.255963 -30.111578 -11.442520 33.253561 -1.303194 1.922075 0.027262 0.003546 2507.580000 0 0 1
8.373363 -30.741788 -10.172120 33.446117 -1.304870 1.879826 0.038597 0.008961 -134578.000000 0 0 1
9.592963 -31.679028 -10.073220 34.598490 -1.276757 1.866221 0.044721 0.005124 -223204.000000 0 0 1
10.818863 -30.985408 -9.980620 34.303879 -1.234870 1.866013 0.031510 0.004139 637084.000000 0 0 1
11.892963 -31.832368 -9.524720 35.291111 -1.213243 1.844075 0.034763 0.001077 862973.000000 0 0 1
13.033663 -31.192298 -8.677720 34.901843 -1.174998 1.822064 0.038979 -0.008004 -120364.000000 0 0 1
13.979063 -30.544858 -9.474420 34.902252 -1.141593 1.845702 0.031614 -0.011173 -139769.000000 0 0 1
15.030163 -30.101988 -8.629920 34.734867 -1.107702 1.821877 0.028875 -0.012300 -260643.000000 0 0 1
16.153363 -29.409238 -9.401920 34.845811 -1.068520 1.843997 0.047729 -0.023657 -409537.000000 0 0 1
15.955463 -28.042658 -9.781620 33.714204 -1.053505 1.865163 0.050103 -0.025280 -95580.800000 0 0 1
14.999463 -27.866668 -10.784520 33.434129 -1.077013 1.899229 0.038777 -0.017115 -555997.000000 0 0 1
14.856263 -26.358138 -11.193320 32.260663 -1.057548 1.925129 0.033704 -0.010557 -1056100.000000 0 0 1
14.173563 -25.615938 -10.230220 31.011668 -1.065415 1.906976 0.026784 -0.010773 190492.000000 0 0 1
13.798163 -24.290498 -10.540620 29.858370 -1.054203 1.931594 0.007963 0.001698 -165802.000000 0 0 1
13.043863 -24.002798 -11.849420 29.777264 -1.073011 1.980061 0.002726 0.011352 -409290.000000 0 0 1
13.799963 -23.837498 -13.052020 30.479838 -1.046022 2.013316 0.011297 0.004188 84601.000000 0 0 1
12.979063 -23.946298 -14.214620 30.723553 -1.074110 2.051792 0.013798 0.002338 855.816000 0 0 1
13.669363 -23.409398 -15.478420 31.215908 -1.042280 2.089610 0.034609 -0.003265 293522.000000 0 0 1
14.807263 -24.146498 -15.910420 32.487688 -1.020708 2.082584 0.037294 -0.008330 528807.000000 0 0 1
15.469763 -23.561998 -17.035020 32.934378 -0.989826 2.114421 0.043917 -0.015207 980982.000000 0 0 1
16.589563 -24.452498 -17.770020 34.480601 -0.974687 2.112227 0.046854 -0.015788 2177150.000000 0 0 1
17.873263 -24.657698 -17.159920 34.955950 -0.943583 2.083920 0.065757 -0.014508 647191.000000 0 0 1
18.828863 -23.641898 -17.205220 34.777651 -0.898243 2.088310 0.073918 -0.017704 -125490.000000 0 0 1
20.228663 -24.024498 -16.681420 35.561849 -0.870964 2.059047 0.067564 -0.012881 89113.900000 0 0 1
20.930363 -24.938398 -17.474120 36.950625 -0.872557 2.063381 0.079359 -0.008062 -90039.200000 0 0 1
22.166563 -25.268058 -16.852220 37.600912 -0.850690 2.035532 0.085904 -0.002213 383000.000000 0 0 1
22.937563 -26.350908 -17.658220 39.144794 -0.854540 2.038794 0.061893 -0.002629 -273630.000000 0 0 1
23.634163 -25.944118 -18.802720 39.814736 -0.831957 2.062644 0.053070 -0.000858 -164647.000000 0 0 1
23.862963 -27.051848 -19.588820 41.048330 -0.847948 2.068278 0.043609 -0.013381 148630.000000 0 0 1
24.946863 -26.737198 -20.679720 42.010410 -0.820024 2.085472 0.022891 0.000502 385657.000000 0 0 1
24.525463 -25.733918 -21.622220 41.608332 -0.809438 2.117250 0.026847 0.001365 25870.600000 0 0 1
25.189363 -24.509398 -21.336720 41.115328 -0.771717 2.116416 0.026298 0.003060 -538861.000000 0 0 1
24.482863 -23.223898 -21.658020 40.097754 -0.759015 2.141389 0.043682 0.011463 -761719.000000 0 0 1
24.614963 -22.572098 -22.922620 40.507314 -0.742132 2.172307 0.031037 0.016982 53021.600000 0 0 1
23.871963 -23.240998 -23.929420 41.019895 -0.772006 2.193657 0.019978 0.008008 -102971.000000 0 0 1
23.046363 -22.298398 -24.815220 40.548102 -0.768905 2.229377 0.022604 0.008638 -78339.300000 0 0 1
23.916863 -21.521298 -25.584830 41.106765 -0.732726 2.242601 0.016749 0.013253 4760.380000 0 0 1
23.205663 -20.649998 -26.429900 40.785596 -0.727190 2.275779 0.013722 0.014632 394871.000000 0 0 1
24.062163 -20.059298 -27.597490 41.749067 -0.694922 2.292990 0.023396 0.011209 -23118.500000 0 0 1
23.151663 -19.201198 -28.191030 41.224018 -0.692392 2.323822 0.027984 0.007525 -22761.900000 0 0 1
23.475663 -18.734198 -29.470460 42.078319 -0.673536 2.346714 0.035831 0.001445 -2785.480000 0 0 1
22.449363 -17.813798 -30.202630 41.635372 -0.670771 2.382423 0.060820 -0.001745 1617170.000000 0 0 1
21.131063 -18.306498 -30.638800 41.477533 -0.713899 2.401913 0.051939 -0.003745 1851240.000000 0 0 1
20.536563 -17.268198 -31.373080 41.282094 -0.699159 2.434061 0.061863 -0.004722 -368793.000000 0 0 1
19.295663 -17.716698 -32.151350 41.471838 -0.742764 2.457919 0.043389 0.000097 -407188.000000 0 0 1
19.495463 -18.450398 -33.306310 42.776168 -0.757864 2.463257 0.047796 0.001848 252736.000000 0 0 1
18.282863 -18.864998 -33.929380 42.911002 -0.801068 2.482735 0.043493 -0.002809 169058.000000 0 0 1
18.520963 -19.770198 33.490154 43.075251 -0.818011 0.680147 0.059336 -0.006110 -34233.100000 0 0 1
19.169263 -20.983298 33.837154 44.189506 -0.830546 0.698623 0.058596 -0.004574 165209.000000 0 0 1
19.523863 -21.746498 32.681927 43.842898 -0.839202 0.729613 0.045863 -0.008455 110882.000000 0 0 1
20.373263 -23.013198 33.034071 45.121247 -0.846170 0.749370 0.035934 -0.002199 129291.000000 0 0 1
19.780063 -23.972898 33.929424 46.012569 -0.880936 0.741591 0.042687 -0.004098 66673.400000 0 0 1
19.809363 -23.510498 -33.365390 45.369634 -0.870629 2.397071 0.046628 -0.008492 100970.000000 0 0 1
18.823463 -24.344898 -32.462560 44.730467 -0.912612 2.382902 0.051134 -0.011312 60247.100000 0 0 1
19.125663 -25.739798 -32.308660 45.521179 -0.931765 2.359940 0.039703 -0.014515 548997.000000 0 0 1
20.341063 -26.067788 -31.614180 45.746528 -0.908175 2.333769 0.023859 -0.015493 604890.000000 0 0 1
20.569563 -27.624778 -31.600620 46.742213 -0.930757 2.313201 0.013013 -0.018357 99691.200000 0 0 1
19.578863 -28.333778 -30.878400 46.255923 -0.966131 2.301717 0.004777 -0.019831 24828.100000 0 0 1
19.898163 -29.735978 -30.904550 47.278499 -0.981069 2.283221 0.005338 -0.016004 -577332.000000 0 0 1
18.785163 -30.670878 -30.393570 47.088791 -1.021254 2.272412 0.020920 -0.018898 466533.000000 0 0 1
17.628463 -30.679318 -31.239040 47.200221 -1.049260 2.294068 0.029535 -0.027457 249682.000000 0 0 1
17.739463 -31.496958 -32.375010 48.527190 -1.057866 2.301175 0.032334 -0.021962 -184637.000000 0 0 1
16.389863 -32.172038 -32.806470 48.784548 -1.099622 2.308346 0.053873 -0.027197 240987.000000 0 0 1
15.475863 -31.232918 -33.272860 48.187973 -1.110756 2.332950 0.065439 -0.023506 249476.000000 0 0 1
14.218263 -31.898558 -33.522690 48.409170 -1.151496 2.335726 0.062542 -0.024943 578316.000000 0 0 1
13.151963 -31.113698 -34.261143 48.113016 -1.170870 2.363277 0.068420 -0.014546 -164845.000000 0 0 1
12.479563 -30.114168 -33.491390 46.736237 -1.177931 2.369718 0.083091 -0.014525 -334955.000000 0 0 1
11.588363 -29.476608 34.292390 46.681137 -1.196220 0.745706 0.072001 -0.005225 242402.000000 0 0 1
10.536163 -28.556038 -33.609090 45.343456 -1.217328 2.405670 0.084766 -0.016034 909011.000000 0 0 1
9.482163 -29.246368 -32.956080 45.070663 -1.257273 2.390889 0.084595 -0.005217 -40344.200000 0 0 1
8.522063 -28.395978 -32.383650 43.905102 -1.279234 2.400280 0.067503 -0.007087 214965.000000 0 0 1
7.368463 -29.090358 -31.646130 43.612163 -1.322718 2.382740 0.045948 -0.008923 -131702.000000 0 0 1
6.388463 -29.821498 -32.329290 44.444541 -1.359763 2.385333 0.042712 -0.013541 -138946.000000 0 0 1
6.738563 -31.086478 -32.740690 45.647893 -1.357331 2.370636 0.046829 -0.010460 -341451.000000 0 0 1
5.470063 -31.843458 -33.169680 46.305023 -1.400677 2.369325 0.062566 -0.030105 483185.000000 0 0 1
4.649763 -32.069358 -32.012790 45.550881 -1.426809 2.350111 0.067692 -0.041771 226136.000000 0 0 1
3.404763 -32.659228 -32.312660 46.068705 -1.466920 2.348158 0.062622 -0.056205 -433405.000000 0 0 1
2.462663 -32.985948 -31.098530 45.401058 -1.496277 2.325364 0.053525 -0.059166 31576.100000 0 0 1
1.661363 -31.902678 -30.776760 44.359328 -1.518767 2.337557 0.025863 -0.050046 212498.000000 0 0 1
0.421063 -31.880288 -31.509850 44.826340 -1.557589 2.350307 0.009433 -0.014108 12518.200000 0 0 1
-0.469737 -30.692888 -31.113520 43.707267 1.555493 2.362941 0.000778 -0.004758 -319202.000000 0 0 1
-1.101237 -30.899358 -29.886050 43.001850 1.535172 2.339209 -0.009326 -0.012631 -458060.000000 0 0 1
-1.805837 -29.790768 -29.472390 41.944877 1.510253 2.349905 0.013433 -0.012692 -97902.000000 0 0 1
-2.422637 -29.793298 -28.032750 40.979811 1.489660 2.324114 0.021811 -0.008526 720681.000000 0 0 1
-1.474237 -29.858968 -26.929350 40.235821 1.521463 2.304046 0.011834 -0.006122 527433.000000 0 0 1
-2.191037 -30.105918 -25.711070 39.651306 1.498147 2.276316 0.022821 -0.013366 608791.000000 0 0 1
-1.227237 -30.429658 -24.522220 39.099994 1.530488 2.248707 0.009784 -0.003981 403121.000000 0 0 1
-1.802337 -30.453348 -23.213020 38.334047 1.511682 2.221248 0.029109 -0.010954 -422316.000000 0 0 1
-0.868337 -30.954958 -22.310120 38.166804 1.542752 2.195112 0.017799 -0.000123 76339.200000 0 0 1
-1.502837 -30.888158 -20.906620 37.328590 1.522181 2.165267 -0.000429 0.010310 104885.000000 0 0 1
-1.698637 -29.658638 -20.325520 35.995096 1.513586 2.170835 -0.005102 0.006843 -351713.000000 0 0 1
-0.497837 -29.057728 -19.910620 35.228287 1.553665 2.171458 0.011536 0.002432 -310843.000000 0 0 1
-0.575437 -27.655578 -19.302120 33.730313 1.549992 2.180041 0.024024 -0.006019 -338019.000000 0 0 1
-1.193137 -27.534938 -18.035220 32.937298 1.527492 2.150244 0.016889 -0.007402 28513.400000 0 0 1
-1.004337 -26.219588 -17.503620 31.541278 1.532510 2.159091 0.022235 -0.001667 -113262.000000 0 0 1
-1.746337 -26.153608 -16.187220 30.807256 1.504123 2.124023 0.018307 -0.003593 -313862.000000 0 0 1
-1.815337 -24.838698 -15.630120 29.403351 1.497841 2.131257 0.021953 -0.000715 -213879.000000 0 0 1
-2.759437 -24.819998 -14.604720 28.929996 1.460073 2.099981 0.013398 -0.001401 -361671.000000 0 0 1
-2.608037 -23.733898 -13.516420 27.437081 1.461349 2.085909 0.021360 -0.004040 -592397.000000 0 0 1
-1.409837 -23.904598 -12.826320 27.164903 1.511887 2.062542 0.022244 0.001130 -492734.000000 0 0 1
-1.251137 -22.820098 -11.922820 25.777430 1.516025 2.051642 0.022797 0.004762 -530179.000000 0 0 1
0.033363 -22.868298 -11.132120 25.433920 -1.569337 2.023822 0.018340 0.005054 -480143.000000 0 0 1
0.341063 -21.556098 -10.633020 24.038361 -1.554976 2.028997 0.010486 0.011086 -156361.000000 0 1 0
1.555863 -21.655198 -9.900220 23.861741 -1.499073 1.998628 0.002527 0.012499 417544.000000 0 1 0
2.049963 -20.182998 -9.625820 22.454669 -1.469575 2.013825 0.004595 0.015656 -738606.000000 0 1 0
2.536163 -19.485698 -10.763920 22.405056 -1.441369 2.071934 -0.004368 0.025071 538719.000000 0 1 0
3.462863 -18.390498 -10.531720 21.473681 -1.384679 2.083400 -0.006089 0.023581 2061800.000000 0 1 0
4.894163 -18.767798 -9.957620 21.802231 -1.315703 2.045106 0.004245 0.010442 759610.000000 0 1 0
4.697463 -19.115098 -8.605220 21.482620 -1.329825 1.982931 -0.001988 0.005573 -1029440.000000 0 1 0
5.659563 -19.963198 -8.139020 22.289091 -1.294545 1.944598 0.012106 0.008818 -1170830.000000 0 1 0
5.185663 -20.912998 -7.047920 22.669755 -1.327735 1.886931 0.018063 -0.000848 -71935.100000 0 1 0
4.546663 -22.011798 -7.662420 23.746665 -1.367105 1.899349 0.008491 0.000663 2583.490000 0 1 0
4.038363 -22.987298 -6.750520 24.295962 -1.396893 1.852347 0.027095 -0.005035 218065.000000 0 1 0
3.270663 -24.140698 -7.424920 25.467626 -1.436133 1.866636 0.022853 0.002301 271849.000000 0 0 1
4.103863 -24.840298 -8.333220 26.520269 -1.407065 1.890432 0.028144 -0.000103 462957.000000 0 0 1
3.293263 -25.572748 -9.293020 27.407504 -1.442721 1.916723 0.023397 0.005245 498081.000000 0 0 1
4.128863 -26.378688 -10.293820 28.615475 -1.415533 1.938774 0.008485 0.006123 -83394.300000 0 0 1
4.293163 -27.722288 -9.917420 29.754189 -1.417154 1.910610 0.029696 0.002628 -153626.000000 0 0 1
4.816463 -28.425418 -11.022220 30.865710 -1.402948 1.935960 0.047214 0.009196 112876.000000 0 0 1
4.686063 -29.953758 -10.908120 32.220706 -1.415611 1.916165 0.041203 0.002604 -535626.000000 0 0 1
3.369063 -30.365948 -11.098920 32.505806 -1.460300 1.919249 0.039070 0.002366 -458742.000000 0 0 1
3.263863 -31.796598 -10.897920 33.770418 -1.468506 1.899384 0.035621 0.004836 601149.000000 0 0 1
1.907563 -32.368768 -11.440120 34.383896 -1.511932 1.909980 0.020797 -0.000447 507538.000000 0 0 1
1.778163 -32.310348 -12.828820 34.809468 -1.515818 1.948239 0.019193 -0.004035 124208.000000 0 0 1
0.796463 -33.245068 -13.206920 35.781163 -1.546844 1.948840 0.012468 -0.003086 -225681.000000 0 0 1
0.532163 -33.366108 -14.755720 36.487144 -1.554848 1.987129 0.011990 0.002405 -24527.600000 0 0 1
-0.265037 -32.278718 -15.164420 35.664345 1.562586 2.009977 0.009015 0.004234 -113520.000000 0 0 1
-0.733537 -32.600978 -16.470720 36.532814 1.548300 2.038511 -0.010760 0.004241 -125661.000000 0 0 1
-1.733037 -31.559118 -17.021320 35.898561 1.515937 2.064795 -0.009059 0.003109 469392.000000 0 0 1
-3.005337 -31.753378 -16.402820 35.865883 1.476431 2.045795 0.003942 -0.000470 580789.000000 0 0 1
-4.024437 -31.019308 -17.103520 35.650021 1.441777 2.071180 0.008879 0.003179 201205.000000 0 0 1
-5.428037 -30.927718 -16.537920 35.489296 1.397059 2.055558 0.017526 0.000221 -644521.000000 0 0 1
-5.547237 -30.187428 -15.333520 34.309904 1.389064 2.034107 0.009694 0.001014 -314727.000000 0 0 1
-6.892437 -30.090458 -14.933620 34.292191 1.345624 2.021370 0.016061 -0.000773 31235.000000 0 0 1
-7.484237 -31.250158 -14.109820 35.095202 1.335729 1.984545 0.023932 -0.009685 -136699.000000 0 0 1
-7.741837 -32.413418 -14.833520 36.477377 1.336342 1.989580 0.038112 -0.008605 -307580.000000 0 0 1
-8.561137 -33.209348 -14.023920 37.051643 1.318497 1.958968 0.047410 -0.009218 -226618.000000 0 0 1
-8.759437 34.106145 -14.508620 38.084865 -1.319401 1.961625 0.078903 -0.011808 13868.600000 0 0 1
-7.647037 33.238590 -14.557720 37.083801 -1.344666 1.974213 0.065391 -0.011126 8209.940000 0 0 1
-8.153337 31.996047 -14.871220 36.212942 -1.321283 1.993975 0.082780 -0.025302 135654.000000 0 0 1
-7.410337 -22.511398 -3.550320 23.964159 1.252787 1.719495 0.052209 0.001461 287982.000000 0 1 0
-7.285037 -21.245198 -4.142420 22.838342 1.240458 1.753186 0.035829 -0.001149 478724.000000 0 1 0
-6.081737 -21.283398 -4.936020 22.678952 1.292463 1.790200 0.024220 0.002494 699965.000000 0 1 0
-5.942237 -20.163398 -5.916320 21.837483 1.284205 1.845150 0.014706 -0.001305 152299.000000 0 1 0
-6.739637 -20.375698 -7.064520 22.594230 1.251356 1.888798 0.017903 -0.005413 -324251.000000 0 1 0
-6.632037 -19.303298 -7.980820 21.915628 1.239861 1.943528 0.008577 -0.007121 84726.600000 0 1 0
-7.565537 -19.346098 -9.245220 22.737260 1.198018 1.989538 0.013907 -0.017954 389245.000000 0 1 0
-7.158737 -20.315798 -10.202420 23.834189 1.232009 2.013139 0.022042 -0.009157 -44392.200000 0 1 0
-8.179737 -20.616898 -11.168320 24.833364 1.193096 2.037260 0.049900 -0.013017 332512.000000 0 1 0
-7.803237 -21.472498 -12.372720 25.981588 1.222229 2.067137 0.045765 -0.014456 -317667.000000 0 0 1
-6.765537 -20.850898 -13.152920 25.564267 1.257042 2.111226 0.044209 -0.012711 123637.000000 0 0 1
-6.429137 -21.509298 -14.287020 26.610199 1.280349 2.137555 0.030494 -0.013918 223918.000000 0 0 1
-5.280837 -20.838898 -15.111120 26.277231 1.322608 2.183480 0.023691 -0.008371 27426.500000 0 0 1
-4.046837 -20.900998 -14.420820 25.713589 1.379543 2.166178 0.010165 -0.005512 960823.000000 0 0 1
-2.916037 -20.284298 -15.126420 25.470858 1.428016 2.206659 0.018414 -0.001873 1225130.000000 0 0 1
-2.897237 -18.750198 -15.232220 24.330731 1.417491 2.247272 0.022892 -0.001267 -1289040.000000 0 1 0
-3.864037 -18.153498 -16.047720 24.535884 1.361073 2.283724 0.029050 -0.002658 -338908.000000 0 1 0
-3.632537 -18.212498 -17.459120 25.489435 1.373927 2.325338 0.049487 -0.009747 -789916.000000 0 0 1
-4.936337 -18.015698 -18.232620 26.102897 1.303358 2.344082 0.040696 0.000119 -197413.000000 0 0 1
-5.865537 -19.054798 -17.971220 26.841286 1.272176 2.304381 0.021639 0.000801 -416735.000000 0 0 1
-7.105737 -18.762498 -18.577720 27.343272 1.208768 2.317776 0.019410 -0.002929 398170.000000 0 0 1
-8.240437 -19.551198 -17.812420 27.702644 1.171911 2.269187 0.056121 -0.014499 293785.000000 0 0 1
-8.066637 -20.927798 -17.875420 28.680551 1.202895 2.243700 0.049040 -0.014111 -172910.000000 0 0 1
-9.239837 -21.621498 -17.567220 29.350826 1.166941 2.212456 0.058898 -0.019886 -264475.000000 0 0 1
-9.086537 -23.135298 -17.879820 30.618543 1.196550 2.194387 0.049830 -0.019101 -483076.000000 0 0 1
-9.034537 -23.349298 -19.278720 31.598760 1.201608 2.226996 0.034527 -0.020516 -3945.130000 0 0 1
-8.294737 -24.483998 -19.618820 32.452534 1.244150 2.219983 0.056478 -0.027043 69355.100000 0 0 1
-6.749837 -24.263698 -19.649420 31.943498 1.299470 2.233348 0.059399 -0.025584 -775839.000000 0 0 1
-6.313137 -23.433098 -20.647420 31.863486 1.307633 2.275747 0.059666 -0.026541 -74310.600000 0 0 1
-5.979837 -22.129098 -20.214220 30.562561 1.306875 2.293486 0.042378 -0.025414 -698255.000000 0 0 1
-4.871137 -21.952998 -19.187920 29.560758 1.352445 2.277198 0.056148 -0.015458 274423.000000 0 0 1
-3.578437 -22.534598 -19.539620 30.040141 1.413314 2.278974 0.045602 -0.020790 1165090.000000 0 0 1
-2.719837 -22.265998 -18.425020 29.028496 1.449246 2.258445 0.017263 -0.008828 281724.000000 0 0 1
-1.277537 -22.762898 -18.682420 29.475659 1.514731 2.257285 0.038946 -0.007574 301479.000000 0 0 1
-0.461137 -22.028298 -19.612820 29.497818 1.549866 2.298144 0.052196 -0.011130 -755201.000000 0 0 1
0.812563 -22.565398 -19.609220 29.906170 -1.534803 2.285894 0.041071 -0.011827 -264402.000000 0 0 1
1.791063 -22.014398 -20.710620 30.278234 -1.489616 2.324042 0.056167 -0.010836 528746.000000 0 0 1
1.425163 -22.316598 -22.060020 31.411879 -1.507022 2.349395 0.061486 -0.020574 -526019.000000 0 0 1
0.747163 -21.306998 -22.660020 31.113067 -1.535744 2.386652 0.073843 -0.015303 -963587.000000 0 0 1
0.725863 -21.429098 -24.190520 32.325136 -1.536937 2.416368 0.076231 -0.021046 37768.000000 0 0 1
0.177463 -20.409598 -25.042020 32.306129 -1.562101 2.457745 0.060021 -0.020013 657444.000000 0 0 1
-1.215237 -20.112798 -24.797320 31.951660 1.510449 2.459236 0.063710 -0.027111 855771.000000 0 0 1
-1.650637 -18.873198 -25.632700 31.874089 1.483559 2.505101 0.060929 -0.017626 99926.300000 0 0 1
-1.142737 -17.680298 -25.078320 30.705390 1.506253 2.526535 0.064048 -0.017683 145922.000000 0 0 1
-1.688637 -16.637298 -25.867630 30.802362 1.469646 2.567700 0.061149 -0.015083 189988.000000 0 0 1
-1.180537 -15.204398 -25.472310 29.688482 1.493307 2.602133 0.052881 -0.009846 -416321.000000 0 0 1
0.158963 -15.029998 -25.833300 29.887883 -1.560220 2.614633 0.054108 -0.016506 -614630.000000 0 0 1
0.791363 -13.829498 -25.393530 28.925986 -1.513636 2.642212 0.049527 -0.013888 271538.000000 0 0 1
0.292063 -12.481598 -25.997500 28.840000 -1.547401 2.693878 0.040995 -0.009425 -256105.000000 0 0 1
0.940563 -11.310998 -25.538630 27.947182 -1.487833 2.723384 0.034183 -0.008916 1726.600000 0 0 1
0.570763 -10.256498 -26.358270 28.289220 -1.515205 2.769979 0.034656 -0.007801 -1188480.000000 0 0 1
1.451963 -9.060098 -26.096950 27.663051 -1.411889 2.803493 0.039942 -0.015087 674187.000000 0 0 1
2.858163 -9.043898 -26.371260 28.025070 -1.264697 2.796335 0.044745 -0.016349 568833.000000 0 0 1
3.162863 -9.400798 -27.737390 29.457453 -1.246247 2.798173 0.043375 -0.017380 -1620860.000000 0 0 1
4.538063 -9.013498 -28.214180 29.964598 -1.104373 2.798099 0.042862 -0.012403 -1143330.000000 0 0 1
4.718663 -7.613298 -28.336820 29.718739 -1.015951 2.835440 0.036863 -0.017063 510538.000000 0 0 1
5.972663 -7.074998 -28.789930 30.242162 -0.869683 2.830435 0.035393 -0.010249 261725.000000 0 0 1
7.184563 -7.100298 -27.816770 29.594001 -0.779499 2.793269 0.044936 -0.015843 185111.000000 0 0 1
7.745563 -8.325398 -27.357870 29.626999 -0.821462 2.747669 0.032194 -0.017288 651052.000000 0 0 1
8.375963 -9.112498 -28.405370 30.984826 -0.827489 2.730666 0.033732 -0.022282 -638820.000000 0 0 1
8.953163 -10.445698 -27.957010 31.158725 -0.862186 2.684286 0.038575 -0.017958 -89541.900000 0 0 1
7.985363 -11.442598 -27.604980 30.931117 -0.961506 2.673579 0.042767 -0.022817 312024.000000 0 0 1
8.420863 -12.582398 -26.826550 30.804082 -0.981002 2.627779 0.042653 -0.019780 -69742.100000 0 0 1
9.428063 -13.568598 -27.446040 32.035611 -0.963539 2.599703 0.048024 -0.029817 46618.100000 0 0 1
8.812863 -14.322698 -28.473500 33.068814 -1.019197 2.608103 0.056678 -0.036756 260569.000000 0 0 1
9.762363 -15.162598 -29.138480 34.267465 -0.998760 2.587399 0.037172 -0.041669 111161.000000 0 0 1
9.180763 -16.055898 -30.237510 35.445526 -1.051370 2.592637 0.043555 -0.035546 -282831.000000 0 0 1
8.489563 -15.355998 -31.234670 35.825745 -1.065768 2.629763 0.035617 -0.036223 281290.000000 0 0 1
7.698563 -16.232898 -32.028050 36.722893 -1.127955 2.630386 0.048950 -0.031590 -29702.400000 0 0 1
6.486263 -15.582098 -32.726780 36.822758 -1.176349 2.665440 0.047203 -0.025371 -150785.000000 0 0 1
6.879363 -14.551598 -33.574240 37.233107 -1.129180 2.694553 0.055790 -0.023376 -255363.000000 0 0 1
5.790263 -13.925898 -34.205702 37.382989 -1.176752 2.726322 0.033580 -0.027607 -221570.000000 0 0 1
5.993463 -12.486698 33.759696 36.490496 -1.123286 0.389329 0.058332 -0.022120 47034.000000 0 0 1
6.724563 -12.525598 32.523742 35.495128 -1.078093 0.412086 0.061073 -0.017434 256481.000000 0 0 1
6.699563 -11.236098 31.831932 34.415199 -1.033136 0.389923 0.059944 -0.017205 -354403.000000 0 0 1
7.271963 -11.487198 30.439722 33.337874 -1.006430 0.420053 0.043682 -0.011678 604848.000000 0 0 1
6.343763 -12.037398 29.475902 32.464920 -1.085779 0.432476 0.052822 -0.011460 754548.000000 0 0 1
7.071063 -12.246598 28.262012 31.602538 -1.047168 0.463942 0.039951 -0.012125 -49205.900000 0 0 1
6.267063 -12.877898 27.150272 30.696149 -1.117884 0.485408 0.039839 -0.029623 -222533.000000 0 0 1
5.851163 -14.187698 27.392572 31.398724 -1.179637 0.510684 0.044315 -0.024853 -101183.000000 0 0 1
5.592563 -14.853198 26.201972 30.633929 -1.210692 0.544618 0.021176 -0.021087 945631.000000 0 0 1
4.069963 -15.169498 25.930932 30.316522 -1.308671 0.544590 0.026692 -0.026056 1335360.000000 0 0 1
3.284063 -14.005098 25.569342 29.338014 -1.340467 0.512456 0.020260 -0.025946 725391.000000 0 0 1
1.917563 -14.365298 25.354742 29.204482 -1.438095 0.519274 0.023092 -0.020463 659033.000000 0 0 1
0.981663 -13.195598 25.022092 28.305345 -1.496540 0.486433 0.025899 -0.018217 -352493.000000 0 0 1
1.292663 -12.498898 23.803102 26.916186 -1.467741 0.485715 0.008665 -0.007217 -177899.000000 0 0 1
0.483463 -11.387398 23.483172 26.102987 -1.528366 0.451862 0.016986 0.002794 1306200.000000 0 0 1
-0.978037 -11.649198 22.921972 25.730860 1.487035 0.471615 0.020392 -0.000608 866186.000000 0 0 1
-0.925037 -12.257398 21.650772 24.896896 1.495471 0.516370 0.016951 -0.000635 -208091.000000 0 1 0
-2.201037 -12.704598 21.237872 24.845494 1.399252 0.545635 0.030277 -0.010449 193188.000000 0 1 0
-2.186337 -13.558298 19.886272 24.167568 1.410918 0.604389 0.049521 -0.007771 -123838.000000 0 1 0
-1.520337 -14.803698 19.995072 24.925164 1.468455 0.639818 0.054361 -0.005059 -71408.700000 0 1 0
-1.499837 -15.497798 18.781972 24.396592 1.474319 0.692174 0.064346 -0.003894 312976.000000 0 1 0
-2.470537 -16.744698 18.764372 25.270341 1.424312 0.733934 0.047840 -0.004803 429453.000000 0 0 1
-2.521037 -17.594698 17.628772 25.034029 1.428481 0.789511 0.035323 -0.009726 -381502.000000 0 0 1
-3.527137 -18.523298 17.928272 26.018766 1.382633 0.810617 0.043164 0.003815 63437.500000 0 0 1
-3.308837 -19.858898 17.176472 26.464229 1.405696 0.864468 0.044277 -0.005903 350754.000000 0 0 1
-2.208537 -20.567798 17.715872 27.235346 1.463828 0.862589 0.051121 -0.008330 -227531.000000 0 0 1
-2.378737 -21.980898 17.546572 28.225883 1.462997 0.899951 0.053107 -0.017757 -265608.000000 0 0 1
-1.216337 -22.815998 18.118272 29.160264 1.517536 0.900352 0.071346 -0.008905 -137840.000000 0 0 1
-0.002337 -22.593998 17.457672 28.552742 1.570693 0.912944 0.058583 -0.018832 -502319.000000 0 0 1
1.013663 -23.430198 18.021372 29.576537 -1.527560 0.915602 0.058459 -0.005081 -191441.000000 0 0 1
2.359563 -23.314698 17.350372 29.157813 -1.469935 0.933468 0.053561 -0.011766 -434358.000000 0 0 1
3.028463 -22.080598 17.599272 28.398218 -1.434492 0.902396 0.063359 -0.011129 -110489.000000 0 0 1
4.197663 -21.853298 16.844972 27.909498 -1.381024 0.922842 0.056667 -0.014019 184346.000000 0 0 1
4.961663 -20.580698 17.224272 27.292101 -1.334227 0.887815 0.053179 -0.008218 -627490.000000 0 0 1
5.642263 -20.692598 18.460972 28.298873 -1.304597 0.860106 0.044266 0.005820 164091.000000 0 0 1
6.295463 -19.506798 18.970572 27.929028 -1.258617 0.824067 0.050509 0.008298 -30786.400000 0 0 1
7.279763 -18.724898 18.136972 27.065966 -1.200004 0.836449 0.048646 -0.002714 -1092200.000000 0 0 1
6.774563 -18.104498 16.997872 25.740925 -1.212734 0.849519 0.036125 -0.006418 116672.000000 0 0 1
7.860963 -17.451698 16.366172 25.183488 -1.147576 0.863374 0.048671 -0.005199 415917.000000 0 0 1
7.329063 -16.623998 15.164272 23.664903 -1.155559 0.875267 0.034914 0.004010 137004.000000 0 1 0
6.830563 -17.362498 14.083472 23.376422 -1.195985 0.924211 0.036775 -0.000154 -148546.000000 0 1 0
6.089263 -16.508598 13.280072 22.044801 -1.217425 0.924276 0.027168 0.004437 -192539.000000 0 1 0
6.454763 -16.745598 11.792172 21.474039 -1.202887 0.989466 0.032720 -0.001639 -378506.000000 0 1 0
7.747063 -16.272698 11.589172 21.427239 -1.126469 0.999335 0.030854 0.002488 -811697.000000 0 1 0
8.171163 -16.570798 10.281472 21.143980 -1.112679 1.062992 0.026348 -0.000132 177448.000000 0 1 0
9.474463 -15.845098 9.898472 20.947848 -1.031891 1.078638 0.015469 -0.005857 -121989.000000 0 1 0
10.033363 -16.373498 8.745672 21.100867 -1.021032 1.143436 0.019593 -0.007125 -27177.400000 0 1 0
11.365263 -15.842198 8.679572 21.341963 -0.948485 1.151968 0.014945 -0.007318 1159780.000000 0 1 0
12.390863 -16.816998 7.975272 22.359559 -0.935793 1.206082 0.029411 -0.009433 334058.000000 0 1 0
12.722463 -17.956798 8.690872 23.660915 -0.954386 1.194682 0.043091 -0.014369 119064.000000 0 1 0
13.454663 -18.929898 7.932072 24.541531 -0.952884 1.241677 0.048728 -0.013909 182846.000000 0 1 0
13.682563 -20.220398 8.748672 25.934847 -0.975899 1.226714 0.046612 -0.018297 -519401.000000 0 0 1
12.605163 -21.037098 9.042772 26.138503 -1.030975 1.217539 0.051403 -0.017089 -850655.000000 0 0 1
13.069063 -22.300798 9.374372 27.495542 -1.040708 1.222878 0.032042 -0.015817 260475.000000 0 0 1
12.072863 -23.084598 10.260072 27.998603 -1.088931 1.195606 0.047206 -0.019290 212622.000000 0 0 1
12.107163 -22.511498 11.535472 28.043146 -1.077351 1.146865 0.059982 -0.022454 -317404.000000 0 0 1
11.183363 -23.039098 12.475572 28.486971 -1.118890 1.117491 0.061408 -0.022445 -323833.000000 0 0 1
11.404563 -24.478898 12.940772 29.945685 -1.134804 1.123930 0.059962 -0.016835 799097.000000 0 0 1
12.613963 -24.674098 13.703272 30.914444 -1.098211 1.111559 0.033770 -0.021773 524675.000000 0 0 1
12.687563 -26.006488 14.146172 32.209096 -1.116907 1.116091 0.032715 -0.015276 329949.000000 0 0 1
13.919263 -26.259998 15.053972 33.315994 -1.083394 1.101954 0.038676 -0.010502 251421.000000 0 0 1
13.673363 -25.794938 16.342972 33.457920 -1.083376 1.060468 0.028156 -0.007035 130370.000000 0 0 1
14.694363 -26.192258 17.219672 34.619009 -1.059532 1.050191 0.035364 -0.008449 -414926.000000 0 0 1
14.594863 -25.586268 18.676472 34.878041 -1.052413 1.005721 0.036592 -0.004556 -134196.000000 0 0 1
14.868663 -24.251598 18.850772 34.125778 -1.020800 0.985567 0.009780 -0.011394 944762.000000 0 0 1
16.212063 -24.042798 19.347972 34.860165 -0.977528 0.982413 0.010412 -0.010011 855318.000000 0 0 1
16.475963 -22.527098 19.539872 34.069548 -0.939316 0.959989 -0.007582 -0.017899 -102137.000000 0 0 1
16.414663 -21.807098 18.312872 32.868708 -0.925556 0.979844 -0.013544 -0.007653 -515075.000000 0 0 1
15.164263 -21.295498 18.002972 31.742087 -0.952004 0.967738 0.003303 -0.001849 -1389620.000000 0 0 1
15.267763 -20.173498 16.969372 30.463653 -0.922943 0.979983 0.003693 -0.005913 175988.000000 0 0 1
16.123563 -19.115898 17.373572 30.450416 -0.870109 0.963617 -0.002374 -0.005678 1136830.000000 0 0 1
17.538563 -19.329998 17.271872 31.298044 -0.833950 0.986214 -0.001866 -0.006104 728710.000000 0 0 1
18.442663 -18.080198 17.641472 31.276939 -0.775474 0.971525 0.014216 -0.004418 50811.000000 0 0 1
18.319563 -17.542498 18.940972 31.656058 -0.763733 0.929373 0.003520 0.003181 170483.000000 0 0 1
19.149063 -16.428698 19.202272 31.706718 -0.709084 0.920250 0.021938 -0.001883 -310833.000000 0 0 1
19.580663 -16.300798 20.673972 32.810539 -0.694243 0.889112 0.018735 0.003106 305636.000000 0 0 1
20.708963 -17.107698 21.005172 34.099145 -0.690455 0.907138 0.022691 0.005103 105046.000000 0 0 1
21.212163 -16.780798 22.258172 35.028235 -0.669286 0.882224 0.020263 0.013289 42008.100000 0 0 1
33.508521 -0.167398 -7.952120 34.439588 -0.004996 1.803799 0.105189 -0.032344 -143723.000000 0 0 1
34.607641 -0.272698 -8.849120 35.722124 -0.007880 1.821124 0.094953 -0.033979 229255.000000 0 0 1
35.383481 -1.374498 -8.455420 36.405688 -0.038826 1.805192 0.099490 -0.034667 66089.900000 0 0 1
-35.003116 -1.499098 -9.026420 36.179299 0.042801 1.822951 0.087411 -0.030957 -347778.000000 0 0 1
-34.302328 -2.583898 -8.547120 35.445444 0.075185 1.814331 0.098388 -0.027065 -1226000.000000 0 0 1
-33.095417 -2.521398 -9.224020 34.449190 0.076039 1.841861 0.138549 -0.029933 -1229790.000000 0 0 1
-32.221637 -3.727298 -8.942120 33.646518 0.115165 1.839795 0.137550 -0.024472 -363248.000000 0 0 1
-31.642547 -3.758298 -7.628220 32.765307 0.118220 1.805766 0.122029 -0.028520 -567506.000000 0 0 1
-30.501257 -4.518598 -7.705620 31.782401 0.147075 1.815686 0.116494 -0.035450 -927083.000000 0 0 1
-29.878157 -4.688498 -6.298420 30.892659 0.155651 1.776117 0.114021 -0.046660 -184534.000000 0 0 1
-29.441347 -3.441198 -5.810620 30.205928 0.116355 1.764370 0.111741 -0.037849 404582.000000 0 0 1
-29.048457 -3.436398 -4.457720 29.588731 0.117752 1.722028 0.115769 -0.033665 -244089.000000 0 0 1
-28.972707 -2.058098 -3.786320 29.291462 0.070917 1.700423 0.128925 -0.028963 101936.000000 0 0 1
-27.697117 -1.437398 -3.854920 28.001015 0.051851 1.708906 0.110021 -0.024699 613045.000000 0 0 1
-27.801817 -0.174098 -3.250820 27.991770 0.006262 1.687194 0.110463 -0.029585 -652141.000000 0 0 1
-26.439027 0.351902 -2.836320 26.593058 -0.013309 1.677656 0.124688 -0.015545 -390533.000000 0 0 1
-25.822047 -0.410198 -1.796420 25.887710 0.015884 1.640245 0.099458 -0.017710 981126.000000 0 0 1
-24.420837 -0.287098 -1.590820 24.474281 0.011756 1.635842 0.086397 -0.018101 436285.000000 0 1 0
-23.842037 -0.748198 -0.229920 23.854882 0.031371 1.580435 0.065061 -0.014400 -157137.000000 0 1 0
-23.919537 -2.148598 -0.095920 24.016035 0.089586 1.574790 0.059929 -0.012669 -12134.700000 0 1 0
-23.043637 -2.595098 0.869180 23.205586 0.112144 1.533332 0.034432 -0.014871 -969537.000000 0 1 0
-22.970437 -4.144398 0.894680 23.358456 0.178503 1.532485 0.024484 -0.005553 -249961.000000 0 1 0
-24.120137 -4.690898 1.497480 24.617636 0.192083 1.509929 0.040779 -0.013146 214000.000000 0 1 0
-24.247037 -6.039698 1.246780 25.019018 0.244122 1.520942 0.032864 -0.008202 670132.000000 0 0 1
-25.651997 -6.555098 1.755580 26.534437 0.250185 1.504586 0.060655 -0.008613 757123.000000 0 0 1
-25.629667 -6.764898 3.136280 26.692320 0.258062 1.453027 0.056460 -0.008623 798431.000000 0 0 1
-26.812617 -7.414398 3.659080 28.058486 0.269785 1.440015 0.066391 -0.004262 776467.000000 0 0 1
-26.919177 -7.687798 5.179680 28.470571 0.278183 1.387846 0.064838 -0.012948 -153698.000000 0 0 1
-26.073297 -8.742098 5.639080 28.072056 0.323510 1.368541 0.065256 -0.004362 19210.000000 0 0 1
-26.098317 -9.078398 7.005680 28.506474 0.334762 1.322495 0.056712 -0.011355 -263421.000000 0 0 1
-25.343367 -8.115998 7.935780 27.769269 0.309922 1.280981 0.065042 -0.012565 476287.000000 0 0 1
-23.938037 -7.980398 7.721780 26.388298 0.321790 1.273829 0.060919 -0.018299 416536.000000 0 0 1
-23.491337 -6.752198 8.234780 25.792377 0.279888 1.245835 0.057757 -0.013139 -545623.000000 0 0 1
-22.124037 -6.453498 7.623080 24.274102 0.283821 1.251349 0.035725 -0.017376 -511972.000000 0 1 0
-21.080337 -7.070098 8.341480 23.747572 0.323599 1.211884 0.032898 -0.024828 -763167.000000 0 1 0
-19.864637 -6.815398 7.700080 22.368386 0.330507 1.219368 0.024199 -0.026374 -494436.000000 0 1 0
-18.678337 -7.081898 8.649180 21.767909 0.362404 1.162184 0.019000 -0.019173 -250700.000000 0 1 0
-18.583637 -6.187498 9.728680 21.869703 0.321409 1.109793 0.012206 -0.014025 333898.000000 0 1 0
-17.466937 -6.442798 10.567680 21.407461 0.353374 1.054521 0.003241 -0.018255 -195380.000000 0 1 0
-17.305937 -5.310198 11.638580 21.520925 0.297722 0.999405 -0.003128 -0.005756 -43804.100000 0 1 0
-18.333237 -5.257998 12.617380 22.868153 0.279304 0.986342 0.019928 -0.009466 195593.000000 0 1 0
-18.569237 -3.871298 12.858580 22.916077 0.205535 0.975063 0.030730 -0.005364 504676.000000 0 1 0
-19.854237 -3.589798 13.698680 24.387112 0.178875 0.974335 0.038540 -0.014852 417349.000000 0 1 0
-19.603437 -4.106398 15.008880 25.028458 0.206488 0.927704 0.045082 -0.010146 809359.000000 0 0 1
-20.802737 -3.996598 15.782280 26.416037 0.189806 0.930478 0.049627 -0.000566 423359.000000 0 0 1
-20.642137 -4.718198 17.153980 27.251023 0.224711 0.889912 0.044502 0.008229 -103972.000000 0 0 1
-21.646237 -4.548398 18.145180 28.609353 0.207111 0.883772 0.036938 0.005014 384186.000000 0 0 1
-21.420237 -5.359998 19.265480 29.303837 0.245196 0.853382 0.037280 0.004603 -815735.000000 0 0 1
-22.341337 -5.051698 20.411580 30.680411 0.222375 0.842905 0.040545 0.002581 -543365.000000 0 0 1
-22.038137 -3.754798 20.886880 30.594767 0.168757 0.819352 0.038573 -0.003121 516754.000000 0 0 1
-22.710937 -3.446598 22.129680 31.896527 0.150610 0.804050 0.044588 -0.009085 194198.000000 0 0 1
-22.916837 -1.958098 22.543880 32.206243 0.085237 0.795420 0.039113 0.002541 -151556.000000 0 0 1
-23.928237 -1.295898 21.824980 32.412492 0.054105 0.832064 0.044705 -0.001337 -238224.000000 0 0 1
-23.887737 0.123502 22.043380 32.504613 -0.005170 0.825538 0.039574 -0.003212 -797093.000000 0 0 1
-25.141097 0.910602 21.707880 33.228542 -0.036204 0.858874 0.046889 -0.005912 -916390.000000 0 0 1
-26.071317 0.745502 22.734680 34.599639 -0.028587 0.853860 0.037385 -0.002909 -371139.000000 0 0 1
-27.319607 1.254202 22.299080 35.287150 -0.045876 0.886753 0.022095 -0.001745 194982.000000 0 0 1
-28.421277 1.322102 23.379280 36.825367 -0.046485 0.882958 0.016795 0.000469 -341042.000000 0 0 1
-28.055027 2.204902 24.391880 37.241240 -0.078431 0.856654 0.025661 -0.003989 227013.000000 0 0 1
-28.912217 2.162402 25.542980 38.639825 -0.074653 0.848575 0.030830 -0.005614 -102293.000000 0 0 1
-28.468557 3.068102 26.719280 39.163656 -0.107357 0.819965 0.046000 -0.009831 163373.000000 0 0 1
-27.368707 2.589902 27.482080 38.871821 -0.094349 0.785560 0.033740 -0.021731 351905.000000 0 0 1
-27.037867 3.505402 28.517680 39.453671 -0.128929 0.762930 0.037860 -0.018452 137729.000000 0 0 1
-25.750917 2.943102 29.193080 39.038539 -0.113797 0.726052 0.057199 -0.025517 191446.000000 0 0 1
-26.024427 1.952602 30.134780 39.864626 -0.074889 0.713726 0.056731 -0.019156 249744.000000 0 0 1
-24.827037 1.477602 30.712380 39.519810 -0.059446 0.680690 0.044734 -0.023099 -197748.000000 0 0 1
-25.008737 0.285202 31.588580 40.290900 -0.011404 0.669692 0.044356 -0.027982 -216419.000000 0 0 1
-25.390387 -0.792598 30.796180 39.921231 0.031206 0.689721 0.038512 -0.020301 -88155.300000 0 0 1
-25.837467 -1.875698 31.620880 40.877537 0.072469 0.686370 0.034009 -0.005116 -585569.000000 0 0 1
-26.556667 -2.945898 30.757080 40.742273 0.110477 0.715267 0.035540 0.004325 1237180.000000 0 0 1
-27.929747 -2.611398 30.414280 41.375338 0.093228 0.745008 0.040139 -0.002957 1115030.000000 0 0 1
-28.037827 -1.593498 29.475280 40.711806 0.056773 0.761215 0.043619 -0.006413 -1306660.000000 0 0 1
-29.469057 -1.184098 29.164780 41.477847 0.040159 0.790991 0.036386 -0.015915 -222155.000000 0 0 1
-30.171507 -0.680798 30.281680 42.752350 0.022560 0.783703 0.047334 -0.003499 11820.300000 0 0 1
-31.523257 -0.374298 29.942480 43.478822 0.011873 0.811146 0.031020 -0.005492 588297.000000 0 0 1
-32.302437 0.096902 31.208880 44.916044 -0.003000 0.802617 0.036323 0.001738 -122651.000000 0 0 1
-32.466117 -1.051498 32.043780 45.628481 0.032376 0.792207 0.040294 0.003270 -454008.000000 0 0 1
-33.143137 -0.797798 33.194280 46.914435 0.024067 0.784772 0.065088 -0.009086 -289867.000000 0 0 1
-33.168017 -1.997198 34.213280 47.693340 0.060142 0.770791 0.062235 -0.004823 57598.500000 0 0 1
-34.018647 -2.944898 33.595780 47.902163 0.086352 0.793518 0.046739 0.003795 40653.800000 0 0 1
-34.086121 -4.191698 34.231380 48.489394 0.122359 0.787024 0.036141 0.002941 -211055.000000 0 0 1
-35.191882 -5.131698 33.727780 49.013937 0.144800 0.811893 0.037405 -0.001475 543670.000000 0 0 1
35.352221 -4.768198 34.279480 49.473205 -0.134068 0.805307 0.038362 -0.007951 450376.000000 0 0 1
34.322871 -5.422598 33.550380 48.302091 -0.156693 0.802940 0.036608 -0.011992 115362.000000 0 0 1
32.854791 -5.122698 33.919580 47.499655 -0.154674 0.775456 0.051771 -0.006364 190337.000000 0 0 1
32.328081 -5.617198 -33.478113 46.876879 -0.172038 2.366236 0.060603 -0.016241 233701.000000 0 0 1
32.059351 -7.022698 -33.406013 46.830353 -0.215647 2.365050 0.056384 -0.015297 428156.000000 0 0 1
30.598541 -7.402498 -33.822313 46.206239 -0.237363 2.392028 0.053925 -0.017229 -240099.000000 0 0 1
29.570871 -7.012798 -33.009013 44.868816 -0.232851 2.397464 0.058946 -0.020578 -1019790.000000 0 0 1
28.394321 -7.666998 -33.422113 44.520309 -0.263729 2.419942 0.072203 -0.025787 -275210.000000 0 0 1
27.211701 -7.031698 -32.644013 43.076131 -0.252875 2.430764 0.070738 -0.020186 -78785.900000 0 0 1
25.951911 -7.638998 -32.854113 42.558768 -0.286267 2.452732 0.067936 -0.024009 100888.000000 0 0 1
24.954511 -6.954798 -32.124413 41.268326 -0.271802 2.462954 0.070040 -0.024775 186335.000000 0 0 1
23.505011 -7.412398 -32.493013 40.782657 -0.305483 2.492671 0.077121 -0.031555 437290.000000 0 0 1
23.293311 -8.802798 -32.368513 40.838563 -0.361320 2.485852 0.085260 -0.035988 166933.000000 0 0 1
23.086011 -9.183198 -31.013713 39.738463 -0.378593 2.466175 0.085007 -0.035833 -491289.000000 0 0 1
22.897511 -10.706598 -30.843713 39.878088 -0.437383 2.455063 0.087394 -0.026588 -477849.000000 0 0 1
21.664311 -11.185798 -31.282913 39.662137 -0.476621 2.479545 0.089478 -0.025973 -621061.000000 0 0 1
21.659211 -12.584598 -31.385513 40.156493 -0.526352 2.467991 0.077188 -0.024416 -665369.000000 0 0 1
20.569611 -13.282498 -32.267613 40.505956 -0.573370 2.492469 0.058393 -0.015276 1548980.000000 0 0 1
19.192511 -12.919798 -31.997313 39.485462 -0.592491 2.515557 0.051917 -0.016014 1025130.000000 0 0 1
18.860511 -11.600698 -32.288213 39.151293 -0.551433 2.540474 0.047757 -0.018325 -1724610.000000 0 0 1
17.439311 -11.266398 -31.870813 38.036956 -0.573583 2.564204 0.048229 -0.017467 -1019770.000000 0 0 1
16.419911 -11.752298 -32.669513 38.406081 -0.621208 2.587986 0.029978 -0.007699 -431673.000000 0 0 1
15.186511 -11.495798 -32.001113 37.240498 -0.647950 2.604714 0.036700 -0.010882 271025.000000 0 0 1
13.966311 -11.810498 -32.893113 37.636453 -0.701959 2.634108 0.036153 -0.010369 -576924.000000 0 0 1
13.703611 -13.187298 -33.038813 38.121607 -0.766200 2.619282 0.051472 -0.013708 724855.000000 0 0 1
12.436511 -13.515198 -33.607313 38.298549 -0.826939 2.641439 0.038190 -0.016420 298004.000000 0 0 1
11.180011 -13.474798 -32.744313 37.131561 -0.878207 2.650559 0.023487 -0.015950 -551703.000000 0 0 1
10.629511 -12.211398 -32.407013 36.225947 -0.854544 2.678287 0.056444 -0.016841 -237233.000000 0 0 1
9.626311 -12.407598 -31.447513 35.150539 -0.910962 2.678449 0.051134 -0.021581 -117908.000000 0 0 1
8.344211 -11.601698 -31.768013 34.834349 -0.947285 2.718866 0.029584 -0.012920 -303931.000000 0 0 1
8.462711 -10.196698 -31.618213 34.282671 -0.878060 2.744734 0.033473 -0.005335 -335489.000000 0 0 1
7.377611 -9.492298 -32.125413 34.301239 -0.910100 2.783500 0.037271 -0.002429 -798382.000000 0 0 1
7.770711 -8.048898 -32.527713 34.397977 -0.802981 2.810318 0.043965 -0.000931 -56290.600000 0 0 1
8.114811 -7.185998 -31.436113 33.252337 -0.724769 2.809556 0.032688 -0.004203 314354.000000 0 0 1
8.738611 -5.998198 -31.898213 33.613058 -0.601541 2.820790 0.026922 -0.000890 -68759.800000 0 0 1
9.013911 -5.044998 -30.722313 32.412391 -0.510252 2.817239 0.029245 -0.003965 -109597.000000 0 0 1
7.800911 -4.602798 -30.137613 31.469281 -0.533059 2.849639 0.032034 -0.003969 -8645.650000 0 0 1
7.942911 -3.592398 -29.135413 30.411633 -0.424746 2.850864 0.038127 -0.004235 569875.000000 0 0 1
6.593811 -2.994398 -28.610913 29.513202 -0.426277 2.893684 0.040699 -0.005399 261908.000000 0 0 1
5.924011 -2.158598 -29.590013 30.254294 -0.349429 2.931653 0.030791 0.003586 1144840.000000 0 0 1
4.670111 -1.614698 -29.132513 29.548612 -0.332885 2.973575 0.038322 0.001295 1074590.000000 0 0 1
3.383611 -2.465598 -29.048213 29.348367 -0.629722 2.998451 0.031239 -0.003942 -205423.000000 0 0 1
3.566911 -3.469298 -28.125313 28.562074 -0.771526 2.966488 0.043933 -0.011659 -721310.000000 0 0 1
2.646611 -4.492398 -28.187613 28.665793 -1.038407 2.958684 0.047611 -0.014495 -432805.000000 0 0 1
2.906011 -5.519498 -27.068713 27.778138 -1.086175 2.915104 0.046396 -0.023918 -108174.000000 0 0 1
2.631611 -5.013698 -25.760113 26.375101 -1.087440 2.925222 0.049671 -0.024594 -16131.000000 0 0 1
3.060711 -6.025698 -24.875613 25.777376 -1.100815 2.876306 0.050641 -0.030113 42482.500000 0 0 1
2.974811 -5.720198 -23.384813 24.257362 -1.091235 2.872564 0.057405 -0.029876 -70478.800000 0 1 0
3.869811 -4.696798 -23.034213 23.824574 -0.881636 2.883293 0.059116 -0.032263 -200306.000000 0 1 0
3.668411 -4.227098 -21.703513 22.413569 -0.856040 2.889210 0.053771 -0.026934 394160.000000 0 1 0
4.591311 -3.024198 -21.258313 21.957727 -0.582452 2.888518 0.056131 -0.028365 -41710.800000 0 1 0
5.945511 -3.262798 -21.061813 22.126792 -0.501909 2.830074 0.054155 -0.025150 -991207.000000 0 1 0
6.638311 -2.135898 -20.611313 21.759031 -0.311293 2.815350 0.055615 -0.017193 1813340.000000 0 1 0
8.179711 -2.426298 -20.280813 22.002408 -0.288357 2.743377 0.052912 -0.019538 1372450.000000 0 1 0
9.001311 -2.731298 -21.396713 23.373124 -0.294604 2.727398 0.059714 -0.026322 941743.000000 0 1 0
10.338911 -3.148498 -21.082413 23.691227 -0.295607 2.667884 0.048139 -0.026631 1710100.000000 0 1 0
11.405511 -2.310998 -20.287913 23.388583 -0.199915 2.620806 0.033259 -0.024288 -125441.000000 0 1 0
11.153011 -2.287698 -18.908113 22.071247 -0.202313 2.599605 0.034869 -0.024282 204893.000000 0 1 0
12.196411 -1.724998 -18.126913 21.916045 -0.140503 2.544737 0.024805 -0.032104 -222852.000000 0 1 0
12.452911 -0.228298 -18.166913 22.026435 -0.018331 2.540605 0.019569 -0.028953 -141308.000000 0 1 0
13.112511 0.203402 -19.332413 23.360683 0.015511 2.545547 0.033724 -0.028956 108655.000000 0 1 0
12.938411 1.605902 -19.465213 23.428101 0.123487 2.551428 0.038406 -0.037595 -37945.600000 0 1 0
13.231011 2.105402 -20.906213 24.830669 0.157803 2.571686 0.042381 -0.023329 546365.000000 0 1 0
14.610111 2.315502 -21.230113 25.875366 0.157179 2.533039 0.038641 -0.023931 709930.000000 0 0 1
14.630211 3.229502 -22.284513 26.852789 0.217258 2.549684 0.049302 -0.021912 242694.000000 0 0 1
16.007011 3.605502 -22.946013 28.208927 0.221548 2.520823 0.049411 -0.020341 672037.000000 0 0 1
16.598511 2.625802 -23.729613 29.077481 0.156895 2.525395 0.035618 -0.016809 -16732.500000 0 0 1
17.442811 1.671402 -23.128913 29.017096 0.095530 2.493239 0.021403 -0.015108 -582506.000000 0 0 1
9.430963 26.918102 3.709480 28.762606 1.233803 1.441467 -0.014336 0.019998 7157.440000 0 0 1
9.144363 27.568602 4.946580 29.463805 1.250521 1.402111 -0.013137 0.016097 28124.600000 0 0 1
10.285263 28.024602 5.658980 30.384025 1.219050 1.383454 0.003503 0.021974 -23070.500000 0 0 1
10.099463 28.477502 7.091980 31.036485 1.229988 1.340255 0.008755 0.003007 -113718.000000 0 0 1
10.097763 27.354302 8.002180 30.236692 1.217167 1.302954 0.004029 -0.007492 -54866.900000 0 0 1
10.083863 27.867502 9.360080 31.078820 1.223604 1.264875 0.023489 -0.008546 -603067.000000 0 0 1
10.170263 26.749802 10.480180 30.476553 1.207475 1.219754 0.028606 -0.004310 1005240.000000 0 0 1
11.459163 26.136402 10.719280 30.484863 1.157600 1.211489 0.022813 0.001865 829852.000000 0 0 1
11.957463 25.332802 9.679880 29.638351 1.129786 1.238092 0.021142 -0.002200 211861.000000 0 0 1
13.274463 24.614102 10.163680 29.755096 1.076203 1.222201 0.025340 -0.003046 600001.000000 0 0 1
14.364563 25.500502 10.256280 31.013022 1.057795 1.233742 0.023891 0.004885 79903.900000 0 0 1
15.554063 24.867602 10.712280 31.226262 1.011856 1.220631 0.019839 0.002648 662470.000000 0 0 1
16.678563 25.912702 10.993580 32.718517 0.998902 1.228124 0.020095 -0.002040 -1025280.000000 0 0 1
17.222463 26.537702 9.879280 33.143069 0.995138 1.268116 0.022735 -0.007528 -525900.000000 0 0 1
18.600663 26.690002 9.985280 34.030085 0.962144 1.272989 0.011100 -0.013624 -298727.000000 0 0 1
19.245463 27.482602 11.202380 35.371946 0.959884 1.248545 0.025524 -0.019701 -1236090.000000 0 0 1
19.284063 28.939402 11.145180 36.518202 0.983006 1.260653 0.032759 -0.032220 95390.800000 0 0 1
18.005463 29.530102 11.266080 36.375103 1.023251 1.255898 0.025506 -0.020383 7004.210000 0 0 1
18.099663 31.082102 11.491880 37.759213 1.043480 1.261544 0.031156 -0.018684 -663927.000000 0 0 1
18.568463 31.901702 10.459480 38.365441 1.043678 1.294673 0.045537 -0.031998 -235002.000000 0 0 1
17.731963 32.031102 9.350380 37.786818 1.065204 1.320748 0.056071 -0.036126 969329.000000 0 0 1
16.333063 32.766302 9.534980 37.832728 1.108372 1.316019 0.061722 -0.025581 749009.000000 0 0 1
16.475963 34.134502 9.818180 39.153776 1.121102 1.317332 0.058251 -0.025751 95050.300000 0 0 1
15.217163 -34.012484 10.069780 38.598077 -1.150107 1.306854 0.068740 -0.010352 310260.000000 0 0 1
15.492063 -32.498584 10.382680 37.469481 -1.125962 1.290025 0.070723 -0.003118 84116.400000 0 0 1
15.809363 -31.798184 9.207580 36.685691 -1.109409 1.317098 0.073015 -0.008328 -241765.000000 0 0 1
16.288563 -30.555884 9.405780 35.881025 -1.081041 1.305559 0.063848 -0.016351 73948.600000 0 0 1
17.075863 -30.083684 8.107480 35.529485 -1.054532 1.340578 0.060566 -0.012955 734740.000000 0 0 1
16.178563 -29.824384 7.003580 34.645200 -1.073760 1.367242 0.059883 -0.012462 595606.000000 0 0 1
16.882763 -29.277384 5.921480 34.311176 -1.047724 1.397346 0.053196 -0.011282 87740.700000 0 0 1
16.206063 -29.576884 4.549880 34.031308 -1.069544 1.436698 0.054150 -0.011679 -41815.600000 0 0 1
16.452563 -30.913584 4.120180 35.260635 -1.081713 1.453679 0.049340 -0.015131 98221.900000 0 0 1
16.465863 -30.894384 2.715280 35.113535 -1.081120 1.493390 0.039757 -0.008077 -74985.100000 0 0 1
16.589863 -32.303884 2.117780 36.376496 -1.096363 1.512545 0.034493 -0.008892 -402652.000000 0 0 1
17.841363 -32.909984 2.251080 37.502648 -1.074018 1.510736 0.038177 -0.006160 -257069.000000 0 0 1
17.843963 -34.179484 1.592680 38.589904 -1.089652 1.529513 0.046125 -0.008535 283407.000000 0 0 1
19.241963 33.857102 1.685380 38.979443 1.053990 1.527545 0.053547 -0.011937 506245.000000 0 0 1
19.702763 33.749902 3.030880 39.197461 1.042383 1.493396 0.047085 -0.033275 959435.000000 0 0 1
21.080763 33.328002 3.128680 39.559359 1.006805 1.491625 0.036541 -0.027508 953555.000000 0 0 1
21.572763 33.079102 4.549880 39.753144 0.992906 1.456092 0.040283 -0.029251 -409493.000000 0 0 1
21.004563 32.010902 5.212780 38.640168 0.990097 1.435478 0.047584 -0.037501 -272936.000000 0 0 1
21.940563 30.975702 5.455980 38.349056 0.954511 1.428040 0.029225 -0.044150 -105600.000000 0 0 1
21.471763 29.968702 6.517180 37.438393 0.949100 1.395828 0.028775 -0.039874 122335.000000 0 0 1
20.333563 29.291802 6.002980 36.159358 0.963992 1.404010 0.034615 -0.028649 -109770.000000 0 0 1
19.489663 28.717002 6.997680 35.404529 0.974523 1.371837 0.020874 -0.032612 175800.000000 0 0 1
18.019363 29.054002 6.638080 34.826664 1.015654 1.379020 0.055546 -0.022931 -361578.000000 0 0 1
17.741163 30.420402 6.708380 35.849017 1.042822 1.382558 0.051185 -0.024181 91016.500000 0 0 1
17.847163 31.093902 5.420880 36.259314 1.049732 1.420731 0.052811 -0.027087 -366739.000000 0 0 1
17.670363 32.618302 5.504280 37.503232 1.074323 1.423496 0.064004 -0.028004 877419.000000 0 0 1
16.318563 33.002202 5.817380 37.273083 1.111583 1.414081 0.075377 -0.023173 520505.000000 0 0 1
16.143263 -34.314584 5.771680 38.358935 -1.131068 1.419758 0.063459 -0.023183 145847.000000 0 0 1
14.777763 -33.563784 5.783480 37.126250 -1.156047 1.414381 0.063912 -0.016495 -276865.000000 0 0 1
13.976063 -33.813784 4.718880 36.891328 -1.178856 1.442532 0.047470 -0.008670 -725297.000000 0 0 1
12.960263 -32.832484 4.650680 35.602938 -1.194833 1.439796 0.045958 -0.002701 -126868.000000 0 0 1
12.039663 -32.935584 3.430880 35.234601 -1.220335 1.473269 0.032909 0.001052 -294594.000000 0 0 1
11.112063 -31.872384 3.468380 33.931643 -1.235332 1.468401 0.035783 -0.009758 45105.300000 0 0 1
10.402363 -31.843784 2.218980 33.573197 -1.255056 1.504654 0.038273 -0.008174 -12403.400000 0 0 1
9.611963 -30.484884 2.074780 32.031589 -1.265360 1.505978 0.048747 -0.008675 285060.000000 0 0 1
9.203763 -30.090684 0.717080 31.474953 -1.273965 1.548012 0.063256 -0.013198 739139.000000 0 0 1
8.152263 -30.907284 0.137480 31.964644 -1.312905 1.566495 0.058441 -0.014506 335893.000000 0 0 1
8.578863 -31.447484 -1.230020 32.619841 -1.304477 1.608513 0.074998 -0.028223 -906840.000000 0 0 1
9.568363 -32.384184 -1.118120 33.786671 -1.283506 1.603896 0.065764 -0.018396 -804720.000000 0 0 1
9.525463 -33.303584 -2.208420 34.709368 -1.292215 1.634465 0.069138 -0.021143 604066.000000 0 0 1
10.810363 -34.203384 -2.085620 35.931674 -1.264670 1.628873 0.046890 -0.008139 563442.000000 0 0 1
10.821863 33.669702 -0.949720 35.378857 1.259813 1.597644 0.038467 -0.003125 -71368.100000 0 0 1
12.005563 32.908202 -0.899220 35.041288 1.220981 1.596461 0.028418 0.000320 -378913.000000 0 0 1
12.060563 32.100202 0.460380 34.294199 1.211398 1.557372 0.025989 -0.001734 -499397.000000 0 0 1
12.459363 32.860002 1.614580 35.179856 1.208379 1.524885 0.021192 -0.002536 1126440.000000 0 0 1
13.819863 33.320902 1.730980 36.114642 1.177639 1.522848 0.030941 -0.000805 767000.000000 0 0 1
14.949263 32.275002 1.839580 35.616573 1.137033 1.519124 0.046995 -0.008014 -651436.000000 0 0 1
15.374163 31.715602 0.614780 35.250847 1.119422 1.553355 0.045754 -0.007305 -116482.000000 0 0 1
16.221563 30.619602 0.692080 34.658016 1.083612 1.550826 0.057774 -0.007118 26850.900000 0 0 1
16.933263 30.201502 -0.644720 34.630648 1.059793 1.589414 0.058511 -0.004727 220142.000000 0 0 1
17.906763 31.005902 -1.288120 35.828443 1.047065 1.606757 0.044620 0.001433 79276.700000 0 0 1
17.545263 32.223802 -1.858220 36.737755 1.072200 1.621399 0.051242 -0.005093 338510.000000 0 0 1
18.807563 33.011702 -2.417720 38.070228 1.052936 1.634346 0.043453 -0.003460 725371.000000 0 0 1
19.677663 33.408602 -1.379020 38.797510 1.038504 1.606348 0.032866 -0.000804 -126844.000000 0 0 1
20.663063 34.243402 -1.953720 40.042349 1.027868 1.619607 0.032881 -0.005674 -810410.000000 0 0 1
21.784663 -34.049984 -0.985320 40.434438 -1.001636 1.595167 0.032880 -0.006755 -144224.000000 0 0 1
22.778863 33.783402 -0.469320 40.748191 0.977554 1.582314 0.028632 0.000076 1200500.000000 0 0 1
23.576863 33.084202 -1.447220 40.651289 0.951643 1.606405 0.040531 0.002711 -84057.700000 0 0 1
24.367563 33.848002 -2.529820 41.783553 0.946832 1.631379 0.033167 -0.000602 -1151630.000000 0 0 1
23.549063 -34.301284 -3.513820 41.755040 -0.969164 1.655049 0.037331 -0.008514 -996.580000 0 0 1
24.309563 -33.585584 -4.504820 41.704192 -0.944269 1.679026 0.035469 -0.006560 -117423.000000 0 0 1
23.560563 -33.073184 -5.748920 41.012019 -0.951812 1.711436 0.040116 -0.014405 2211.820000 0 0 1
22.565963 -32.111384 -5.348020 39.610162 -0.958234 1.706226 0.046832 -0.012724 456091.000000 0 0 1
22.009063 -31.607584 -6.543320 39.067291 -0.962543 1.739078 0.046142 -0.018944 -211747.000000 0 0 1
21.045163 -30.426984 -6.327020 37.533071 -0.965689 1.740177 0.057879 -0.019204 -13909.700000 0 0 1
19.750163 -30.718984 -5.831520 36.982854 -0.999407 1.729139 0.049052 -0.011554 -93504.200000 0 0 1
19.081763 -29.478784 -5.867220 35.602481 -0.996318 1.736350 0.045034 -0.011530 -510800.000000 0 0 1
17.801563 -29.448084 -5.055620 34.779945 -1.027070 1.716673 0.022206 -0.003907 -254848.000000 0 0 1
16.746363 -30.312384 -5.432420 35.054136 -1.066067 1.726396 0.020694 -0.010128 -976211.000000 0 0 1
15.687463 -30.133784 -4.595820 34.282108 -1.090810 1.705260 0.003259 -0.002412 -896250.000000 0 0 1
14.464263 -31.007084 -4.921520 34.566971 -1.134320 1.713658 0.008681 -0.002533 -531620.000000 0 0 1
14.659563 -32.401884 -4.761420 35.881137 -1.145924 1.703889 0.014401 0.004558 -120785.000000 0 0 1
13.529663 -33.186084 -5.145620 36.205598 -1.183678 1.713401 0.039983 0.004802 -205527.000000 0 0 1
13.588463 34.003102 -5.139820 36.976682 1.190614 1.710250 0.035749 -0.003250 -147919.000000 0 0 1
13.853763 33.439902 -3.820220 36.397086 1.178033 1.675950 0.030514 -0.009056 -51517.400000 0 0 1
14.310963 32.095402 -3.821220 35.348553 1.151367 1.679109 0.041164 -0.012847 -346979.000000 0 0 1
13.461863 30.934202 -4.388220 34.020627 1.160337 1.700144 0.053716 -0.017957 -269007.000000 0 0 1
12.333263 30.563202 -3.655420 33.159927 1.187248 1.681257 0.042157 -0.013307 -174780.000000 0 0 1
12.674563 29.555402 -2.720820 32.273351 1.165677 1.655202 0.045203 -0.005545 -518338.000000 0 0 1
11.475063 28.795202 -2.161920 31.072731 1.191578 1.640429 0.032194 0.000954 -447111.000000 0 0 1
10.823763 29.505302 -1.136120 31.448489 1.219198 1.606931 0.016481 0.000301 -601210.000000 0 0 1
9.823563 28.720002 -0.568120 30.358914 1.241225 1.589511 0.004158 0.010702 -570972.000000 0 0 1
8.744763 29.582602 0.107780 30.848222 1.283377 1.567302 -0.006522 0.017258 -149633.000000 0 0 1
7.947963 28.819202 0.967880 29.910755 1.301699 1.538432 -0.010688 0.010505 1018530.000000 0 0 1
6.638963 29.390602 1.235180 30.156408 1.348638 1.529826 0.020700 0.009094 1689680.000000 0 0 1
5.615663 28.486402 2.027080 29.105323 1.376157 1.501094 0.020589 0.003091 732784.000000 0 0 1
5.064463 27.412502 1.225180 27.903317 1.388106 1.526874 0.023388 -0.004591 -67030.300000 0 0 1
3.885263 26.944202 1.837380 27.284817 1.427587 1.503405 0.028806 -0.009178 -285617.000000 0 0 1
3.124663 26.084702 0.835380 26.284464 1.451575 1.539009 0.029381 -0.007049 -919327.000000 0 0 1
1.933763 25.630602 1.385880 25.740782 1.495492 1.516930 0.037781 -0.009967 -619483.000000 0 0 1
1.321963 24.838702 0.374280 24.876671 1.517625 1.555750 0.022798 -0.006264 -339109.000000 0 1 0
0.083063 24.060002 0.800180 24.073447 1.567344 1.537551 0.029778 -0.006899 -227861.000000 0 1 0
-0.968537 24.880002 1.210180 24.928239 -1.531888 1.522231 0.035102 -0.010629 -766069.000000 0 1 0
-2.229537 24.351602 0.929780 24.471123 -1.479495 1.532792 0.033241 -0.005826 268527.000000 0 1 0
-3.440037 24.990702 1.708780 25.284164 -1.434003 1.503162 0.047293 -0.020918 -74557.500000 0 0 1
-4.635237 24.295602 1.451480 24.776370 -1.382277 1.512180 0.033941 -0.017321 421731.000000 0 1 0
-5.687737 24.924902 2.263580 25.665636 -1.346443 1.482487 0.033854 -0.021116 135864.000000 0 0 1
-6.758637 25.479902 1.356980 26.395946 -1.311514 1.519365 0.039079 -0.016983 -963514.000000 0 0 1
-6.405837 26.621602 0.592280 27.387867 -1.334660 1.549169 0.039620 -0.020923 859975.000000 0 0 1
-7.441937 26.789302 -0.410720 27.806794 -1.299833 1.585567 0.034042 -0.013713 287799.000000 0 0 1
-7.163637 27.986702 -1.293120 28.917907 -1.320211 1.615528 0.026611 -0.007803 -98041.700000 0 0 1
-7.594037 29.215902 -0.758320 30.196248 -1.316496 1.595912 0.032511 -0.016293 -44486.400000 0 0 1
-7.669037 30.168202 -1.812320 31.180427 -1.321860 1.628953 0.033461 -0.008115 -145287.000000 0 0 1
-7.757137 31.650502 -1.350020 32.615181 -1.330447 1.612201 0.014505 -0.008892 -485830.000000 0 0 1
-7.855237 32.635502 -2.365320 33.650787 -1.334593 1.641145 0.000576 0.007550 182094.000000 0 0 1
-6.701137 32.719602 -3.195020 33.551241 -1.368785 1.666169 0.000915 0.004465 429418.000000 0 0 1
-5.375337 33.236802 -2.598820 33.768819 -1.410456 1.647832 0.019308 -0.009985 -741366.000000 0 0 1
-5.284337 -34.074884 -2.559220 34.577038 1.416942 1.644879 0.019448 -0.002228 -72539.500000 0 0 1
-4.261737 -33.620484 -1.714720 33.932869 1.444709 1.621351 0.029690 -0.008523 -122941.000000 0 0 1
-4.010737 -32.074284 -1.894420 32.379539 1.446397 1.629336 0.033581 -0.014846 -540948.000000 0 0 1
-5.055337 -31.386784 -1.334220 31.819283 1.411102 1.612740 0.025226 -0.008125 -715354.000000 0 0 1
-5.363737 -30.177284 -2.011020 30.716157 1.394892 1.636314 0.033224 -0.003022 -491030.000000 0 0 1
-6.786037 -29.700484 -1.777220 30.517660 1.346170 1.629065 0.052748 -0.003774 -548321.000000 0 0 1
-6.966237 -29.189684 -0.483320 30.013325 1.336524 1.586901 0.041755 -0.002884 300208.000000 0 0 1
-8.273737 -28.673284 -0.223120 29.843956 1.289875 1.578273 0.027992 -0.005789 457268.000000 0 0 1
-8.274637 -27.982684 1.164580 29.203706 1.283284 1.530908 0.033807 -0.003366 -106504.000000 0 0 1
-7.324837 -26.965784 1.296580 27.972984 1.305562 1.524429 0.051840 -0.009844 -700951.000000 0 0 1
-7.153837 -26.483984 2.612180 27.557254 1.306973 1.475863 0.049414 0.002811 212092.000000 0 0 1
-8.309637 -25.666684 3.239980 27.172158 1.257694 1.451273 0.043767 0.004944 211479.000000 0 0 1
-8.087037 -24.266484 2.966980 25.750056 1.249112 1.455318 0.046768 -0.001822 -695488.000000 0 0 1
-8.997637 -23.422684 3.620380 25.351267 1.204035 1.427498 0.050981 -0.001948 -152798.000000 0 0 1
-8.578037 -21.959484 3.897880 23.895504 1.198393 1.406942 0.029091 0.012565 177645.000000 0 1 0
-7.755037 -21.873784 5.056980 23.752391 1.230087 1.356250 0.024080 0.006795 -351686.000000 0 1 0
-7.179137 -20.617184 5.226480 22.448260 1.235716 1.335816 0.016700 0.004102 -119702.000000 0 1 0
-8.113937 -19.511184 5.733980 21.895223 1.176692 1.305824 0.016546 -0.002212 -66768.200000 0 1 0
-8.393237 -19.714484 7.104480 22.573899 1.168299 1.250634 0.015897 -0.002685 -297410.000000 0 1 0
-9.293737 -18.792984 7.640680 22.314340 1.111532 1.221314 0.013087 -0.005094 -828189.000000 0 1 0
-26.677097 28.772802 -5.704420 39.649490 -0.823175 1.715169 0.079752 -0.022139 -217498.000000 0 0 1
-25.970517 29.405402 -4.697520 39.512177 -0.847347 1.689966 0.049268 -0.032948 -829431.000000 0 0 1
-25.045477 28.569902 -4.101020 38.214311 -0.851039 1.678320 0.041206 -0.031878 -672317.000000 0 0 1
-24.172237 29.406402 -3.126620 38.194362 -0.882780 1.652749 0.028945 -0.024315 -307503.000000 0 0 1
-24.763037 29.660502 -1.838820 38.682485 -0.875144 1.618351 0.020123 -0.025181 314693.000000 0 0 1
-24.311537 30.921702 -1.318120 39.356574 -0.904509 1.604294 0.023993 -0.024308 -79409.300000 0 0 1
-22.947637 30.957202 -0.607620 38.539741 -0.932906 1.586563 0.031762 -0.019679 -350606.000000 0 0 1
-21.925937 30.561402 -1.458620 37.641381 -0.948462 1.609556 0.042915 -0.028247 337937.000000 0 0 1
-20.624737 30.525702 -0.835020 36.849634 -0.976599 1.593458 0.038325 -0.030292 1178040.000000 0 0 1
-19.447437 29.941002 -1.653820 35.740755 -0.994755 1.617086 0.053080 -0.028345 -97467.000000 0 0 1
-18.197337 30.246202 -1.109320 35.315810 -1.029172 1.602213 0.050286 -0.023444 -347376.000000 0 0 1
-17.155137 29.612502 -1.837520 34.272080 -1.045721 1.624438 0.045807 -0.019148 11853.200000 0 0 1
-15.776637 29.930902 -1.224420 33.856467 -1.085703 1.606969 0.048088 -0.018542 -197507.000000 0 0 1
-15.560837 29.293902 0.039980 33.170378 -1.082504 1.569591 0.035957 -0.024130 426549.000000 0 0 1
-14.309737 29.706602 0.577880 32.978549 -1.121894 1.553273 0.028388 -0.026988 376355.000000 0 0 1
-14.018837 28.964902 1.917080 32.236137 -1.120035 1.511291 0.025399 -0.027892 -181524.000000 0 0 1
-14.921537 29.335702 2.933980 33.043062 -1.100255 1.481887 0.014011 -0.019280 -157979.000000 0 0 1
-14.707237 28.678302 4.210580 32.503489 -1.096934 1.440889 0.017136 -0.029465 294181.000000 0 0 1
-13.454437 29.043902 5.101580 32.412902 -1.136983 1.412746 0.029285 -0.025156 591715.000000 0 0 1
-13.494737 30.267302 5.732080 33.631447 -1.151397 1.399522 0.019234 -0.033336 -211710.000000 0 0 1
-13.182937 31.369702 4.874280 34.374506 -1.172961 1.428518 0.026646 -0.022904 -236141.000000 0 0 1
-12.920837 32.668302 5.685880 35.587852 -1.194161 1.410338 0.027378 -0.022663 469074.000000 0 0 1
-14.111337 33.123002 6.342080 36.557969 -1.168055 1.396434 0.020474 -0.019957 609594.000000 0 0 1
-13.811537 34.310302 7.051680 37.652112 -1.188095 1.382399 0.034571 -0.030844 -233306.000000 0 0 1
-14.887037 -33.925484 8.002780 37.902596 1.157282 1.358055 0.025641 -0.025051 -248451.000000 0 0 1
-14.989437 33.929502 9.066180 38.184944 -1.154798 1.331079 0.015027 -0.025160 772298.000000 0 0 1
-16.223637 34.243602 9.739380 39.123985 -1.128351 1.319215 0.031454 -0.023770 -148092.000000 0 0 1
-16.495137 33.477102 11.026880 38.915267 -1.112982 1.283504 0.042760 -0.021389 220479.000000 0 0 1
-15.725237 33.803502 12.200380 39.227657 -1.135378 1.254536 0.043444 -0.016439 310158.000000 0 0 1
-14.368537 33.401602 12.058580 38.308370 -1.164551 1.250575 0.030938 -0.007419 -493635.000000 0 0 1
-13.489337 33.631402 13.275680 38.591153 -1.189348 1.219614 0.038674 -0.003127 -581560.000000 0 0 1
-13.688537 32.756002 14.404780 38.312262 -1.174960 1.185338 0.042618 -0.004719 -228960.000000 0 0 1
-12.800437 31.703302 14.585780 37.171165 -1.187055 1.167562 0.014403 -0.000307 -823121.000000 0 0 1
-13.346837 30.349802 14.106180 36.030998 -1.156485 1.168534 0.013048 -0.008993 -213378.000000 0 0 1
-13.679337 30.381302 12.730180 35.667986 -1.147730 1.205841 0.013866 -0.007486 589660.000000 0 0 1
-14.985237 29.873402 12.431580 35.658402 -1.105850 1.214688 0.006654 -0.015393 413405.000000 0 0 1
-15.291137 29.807202 10.941880 35.242203 -1.096802 1.255102 0.004386 -0.013590 -84050.200000 0 0 1
-14.655937 28.690102 10.335080 33.833893 -1.098518 1.260369 0.007361 -0.010130 271650.000000 0 0 1
-14.888937 28.668802 8.917180 33.512636 -1.091794 1.301468 0.001488 -0.010938 -124811.000000 0 0 1
-14.322637 27.330202 8.350180 31.965659 -1.088087 1.306507 0.000515 -0.009599 -273163.000000 0 0 1
-12.944637 27.314502 8.121480 31.298627 -1.128237 1.308309 0.027080 -0.016501 -337254.000000 0 0 1
-12.520537 26.019002 7.865080 29.926774 -1.122295 1.304862 0.027675 -0.020710 210218.000000 0 0 1
-11.124437 25.934402 7.186080 29.120200 -1.165589 1.321447 0.055276 -0.029609 253770.000000 0 0 1
-11.249337 26.405802 5.876480 29.297559 -1.168064 1.368847 0.052906 -0.033281 216764.000000 0 0 1
-10.150837 25.982802 5.113980 28.360153 -1.198354 1.389482 0.074596 -0.029156 -272723.000000 0 0 1
-10.222137 26.465102 3.705280 28.611585 -1.202200 1.440929 0.045321 -0.022152 11635.900000 0 0 1
-9.991837 27.834202 3.521980 29.782276 -1.226147 1.452261 0.043739 -0.021364 38844.200000 0 0 1
-10.152637 28.143202 2.163880 29.996637 -1.224578 1.498596 0.031701 -0.022467 -78209.300000 0 0 1
-9.860237 29.604402 1.728480 31.251120 -1.249286 1.515459 0.044299 -0.021340 271603.000000 0 0 1
-10.717837 30.633402 2.210280 32.529413 -1.234234 1.502797 0.029206 -0.029163 1233.780000 0 0 1
-10.098637 31.879202 2.008380 33.500740 -1.264019 1.510810 0.018243 -0.022851 -6961.620000 0 0 1
-10.812937 33.100802 2.670280 34.924391 -1.255057 1.494263 0.018546 -0.015229 136941.000000 0 0 1
-12.069237 33.546602 2.198880 35.719407 -1.225440 1.509198 0.027370 -0.020767 -92603.000000 0 0 1
-11.962837 -34.208984 1.235380 36.261415 1.234390 1.536721 0.027280 -0.011754 -419905.000000 0 0 1
-13.255637 -33.799684 0.539180 36.310071 1.197047 1.555946 0.036460 -0.013845 -245637.000000 0 0 1
-14.053237 33.876602 0.070480 36.675913 -1.177566 1.568875 0.035412 -0.017022 -151421.000000 0 0 1
-14.467037 33.981602 -1.287020 36.955390 -1.168306 1.605630 0.047500 -0.009902 15016.700000 0 0 1
-13.403937 33.671602 -2.376620 36.319287 -1.191948 1.636280 0.033521 -0.005650 65117.100000 0 0 1
-13.138637 32.281702 -2.586120 34.948821 -1.184270 1.644861 0.028769 -0.005236 -99547.800000 0 0 1
-11.749537 32.040902 -2.610620 34.226983 -1.219318 1.647144 0.021516 0.003863 -91531.600000 0 0 1
-11.545137 30.509002 -2.827720 32.742715 -1.209033 1.657266 0.015219 -0.003918 -164434.000000 0 0 1
-11.595637 30.067202 -4.185420 32.496356 -1.202715 1.699952 0.016732 0.003447 -717544.000000 0 0 1
-10.363637 30.037302 -4.846420 32.142375 -1.238560 1.722153 0.014751 0.000357 -342454.000000 0 0 1
-10.445837 29.320402 -6.231420 31.743221 -1.228551 1.768387 0.025878 0.001996 -71176.000000 0 0 1
-10.820437 27.947402 -6.170020 30.597521 -1.201398 1.773840 0.014683 0.008235 22973.200000 0 0 1
-10.667937 27.203302 -7.364920 30.134143 -1.197070 1.817702 0.015014 0.011104 31583.700000 0 0 1
-11.185537 25.723402 -7.418620 29.014575 -1.160622 1.829354 0.029159 0.005029 385258.000000 0 0 1
-10.499337 24.746002 -6.616320 27.683504 -1.169532 1.812131 0.004030 0.014248 199342.000000 0 0 1
-11.208337 23.526302 -6.622720 26.888178 -1.126192 1.819663 0.013432 0.008182 -64714.700000 0 0 1
-10.609737 22.485702 -5.660020 25.499199 -1.129926 1.794629 0.022657 0.004202 -587193.000000 0 0 1
-9.315237 22.062202 -6.030520 24.695780 -1.171278 1.817483 0.036873 -0.003131 162436.000000 0 1 0
-8.833237 20.917502 -5.304420 23.317479 -1.171224 1.800292 0.043307 -0.003915 -155338.000000 0 1 0
-8.725737 20.964402 -3.682620 23.004485 -1.176389 1.731571 0.033164 -0.008980 -213217.000000 0 1 0
-9.929337 20.879302 -2.933420 23.305406 -1.126892 1.697000 0.039713 -0.007647 -73509.200000 0 1 0
-10.532437 19.647302 -2.877020 22.477232 -1.078707 1.699146 0.048362 -0.009450 -526191.000000 0 1 0
-11.804737 19.498402 -2.046120 22.885063 -1.026400 1.660324 0.044256 -0.006579 -411850.000000 0 1 0
-11.668537 19.502102 -0.630920 22.735101 -1.031612 1.598551 0.049152 -0.015028 107791.000000 0 1 0
-11.242437 18.242302 -0.128620 21.428731 -1.018489 1.576799 0.034534 -0.009622 -289535.000000 0 1 0
-10.851337 18.344202 1.334080 21.355117 -1.036620 1.508284 0.031211 -0.016470 212506.000000 0 1 0
-11.959137 18.305102 2.241280 21.980015 -0.992089 1.468650 0.045545 -0.024109 426114.000000 0 1 0
-11.648937 18.690402 3.542780 22.306505 -1.013451 1.411298 0.037973 -0.009912 604854.000000 0 1 0
-12.972937 18.644202 4.402280 23.136193 -0.962884 1.379352 0.045002 -0.015219 800402.000000 0 1 0
-13.448537 17.323102 4.440580 22.375696 -0.910652 1.371015 0.027490 -0.019232 -36742.700000 0 1 0
-14.774937 17.354702 4.918880 23.316943 -0.865519 1.358242 0.033889 -0.023046 -171194.000000 0 1 0
-15.291737 15.984802 5.320580 22.752136 -0.807554 1.334761 0.021496 -0.024624 -300929.000000 0 1 0
-14.652937 15.492502 6.507280 22.295086 -0.813241 1.274614 0.027711 -0.020088 160670.000000 0 1 0
-15.076337 16.046602 7.736280 23.337511 -0.816563 1.232908 0.020347 -0.016634 -791377.000000 0 1 0
-14.067037 15.943802 8.939280 23.065062 -0.847853 1.172804 0.016729 -0.007005 718321.000000 0 1 0
-12.913937 16.753802 8.983780 22.981905 -0.914112 1.169180 0.020972 -0.017590 418168.000000 0 1 0
-12.007137 16.569802 7.889380 21.931074 -0.943724 1.202812 0.025354 -0.017730 -465302.000000 0 1 0
-10.821237 17.576302 7.819580 22.071959 -1.018933 1.208656 0.040820 -0.016506 56229.200000 0 1 0
-9.883637 17.384002 8.839980 21.864013 -1.053825 1.154565 0.047470 -0.022903 -458134.000000 0 1 0
-9.071937 18.524702 8.865080 22.451153 -1.115406 1.164880 0.044421 -0.022376 -451320.000000 0 1 0
-7.801637 18.428102 9.724480 22.249179 -1.170319 1.118456 0.043864 -0.024835 -567102.000000 0 1 0
-6.838437 17.566202 9.115080 20.938490 -1.199552 1.120395 0.035507 -0.022318 475235.000000 0 1 0
-5.532137 17.707302 9.678580 20.924340 -1.267983 1.089926 0.024547 -0.023294 531419.000000 0 1 0
-4.692137 18.813802 9.072680 21.407681 -1.326384 1.133154 0.021440 -0.023241 -1310680.000000 0 1 0
-5.046637 20.125902 9.513480 22.826011 -1.325109 1.140894 0.037764 -0.029182 -107958.000000 0 1 0
-4.601537 21.147402 8.710580 23.329401 -1.356543 1.188153 0.044162 -0.024657 -850024.000000 0 1 0
-3.169837 21.607002 8.847880 23.562584 -1.425131 1.185854 0.043300 -0.020152 -436557.000000 0 1 0
-2.122637 20.731702 8.417180 22.475719 -1.468766 1.186938 0.026822 -0.005813 1270810.000000 0 1 0
-0.876737 21.490002 8.407780 23.092847 -1.530021 1.198145 0.022931 -0.004431 2329840.000000 0 1 0
0.471363 20.658202 8.230180 22.242287 1.547983 1.191761 0.017547 0.003233 1308080.000000 0 1 0
0.714063 19.866002 9.347180 21.966740 1.534868 1.131265 0.017267 -0.010905 -423826.000000 0 1 0
1.957763 19.199002 9.225280 21.390191 1.469175 1.124879 0.003429 -0.019158 121058.000000 0 1 0
2.544363 18.805202 10.618680 21.745477 1.436312 1.060637 -0.005082 -0.027925 -68671.100000 0 1 0
3.849563 18.270402 10.508880 21.425762 1.363134 1.058157 0.014963 -0.019034 152040.000000 0 1 0
4.447863 18.047502 11.796580 22.014883 1.329159 1.005287 0.012572 -0.020373 269018.000000 0 1 0
5.982063 18.235502 11.761680 22.509014 1.253813 1.020978 0.029125 -0.028394 -377406.000000 0 1 0
6.741263 17.278402 11.131680 21.631044 1.198805 1.030237 0.025278 -0.030645 -146997.000000 0 1 0
7.619263 16.739702 12.120180 22.026564 1.143659 0.988129 0.029728 -0.024621 -198403.000000 0 1 0
8.921563 16.058102 11.641280 21.748018 1.063679 1.005957 0.035333 -0.024750 -103383.000000 0 1 0
9.833063 16.974602 11.100780 22.540043 1.045751 1.055846 0.042067 -0.035700 -908115.000000 0 1 0
10.801863 16.321102 10.368580 22.148725 0.986147 1.083618 0.036355 -0.036137 -1246430.000000 0 1 0
11.835463 17.325802 9.958080 23.225523 0.971495 1.127681 0.037756 -0.028889 -347292.000000 0 1 0
12.934163 16.806702 9.192880 23.114213 0.914879 1.161771 0.032671 -0.024644 186180.000000 0 1 0
13.655363 17.884102 8.691480 24.121605 0.918681 1.202186 0.030190 -0.013211 34214.800000 0 1 0
14.740263 17.472502 7.636380 24.101410 0.870014 1.248396 0.026936 -0.012945 689156.000000 0 1 0
15.844863 16.760902 8.181280 24.472859 0.813485 1.229934 0.034437 -0.017573 92856.100000 0 1 0
16.857263 16.456502 7.301880 24.663763 0.773369 1.270234 0.050298 -0.011953 273127.000000 0 1 0
18.278363 16.237002 7.933380 25.703643 0.726323 1.257025 0.028726 -0.012057 390508.000000 0 0 1
18.539263 14.974702 8.536380 25.314338 0.679436 1.226839 0.036744 -0.006610 264499.000000 0 0 1
19.559563 15.189502 9.495380 26.522814 0.660294 1.204663 0.029917 0.001714 -78293.400000 0 0 1
19.841063 13.928602 10.377980 26.369986 0.612073 1.166303 0.032607 -0.000235 243314.000000 0 0 1
20.649963 12.898502 9.792880 26.242957 0.558330 1.188381 0.045847 -0.004932 516505.000000 0 0 1
20.896363 11.835902 10.694180 26.289009 0.515354 1.151856 0.057868 -0.014229 -199912.000000 0 0 1
21.741463 10.712202 10.054880 26.240104 0.457797 1.177552 0.053012 -0.010039 -93766.100000 0 0 1
23.125963 11.043902 10.075580 27.537161 0.445530 1.196207 0.044259 -0.006844 1396610.000000 0 0 1
23.999763 10.154502 9.314180 27.674112 0.400267 1.227528 0.061547 -0.014251 493344.000000 0 0 1
24.404463 8.801302 9.935680 27.780541 0.346125 1.205047 0.080626 -0.021494 -375455.000000 0 0 1
23.332263 7.850702 9.905480 26.535759 0.324575 1.188246 0.076291 -0.013655 574582.000000 0 0 1
23.513763 6.489402 10.129080 26.412263 0.269280 1.177214 0.074126 -0.019623 -117993.000000 0 0 1
24.532263 5.854102 9.103180 26.813621 0.234248 1.224413 0.076861 -0.025850 431764.000000 0 0 1
24.036163 5.821702 7.782080 25.926629 0.237630 1.265938 0.086341 -0.018007 -127770.000000 0 0 1
24.963663 5.372502 6.835380 26.434270 0.211980 1.309244 0.084277 -0.022984 -465144.000000 0 0 1
24.473863 5.184602 5.354580 25.583619 0.208756 1.359940 0.090682 -0.033715 -173030.000000 0 0 1
23.669663 3.997302 5.317080 24.586636 0.167300 1.352815 0.095115 -0.034336 346449.000000 0 1 0
23.482263 3.628702 3.966780 24.089821 0.153317 1.405377 0.097923 -0.034160 -329730.000000 0 1 0
22.434663 2.528502 3.751180 22.886213 0.112232 1.406148 0.090934 -0.025541 -198288.000000 0 1 0
22.821463 1.220102 4.287580 23.252766 0.053412 1.385345 0.085626 -0.024089 650636.000000 0 1 0
21.996863 0.180902 3.759880 22.316617 0.008224 1.401510 0.059742 -0.019178 -204173.000000 0 1 0
22.476063 -1.204798 4.214880 22.899566 -0.053552 1.385682 0.065673 -0.018599 -467388.000000 0 1 0
22.262663 -1.493898 5.608080 23.006704 -0.067003 1.324557 0.052734 -0.018938 694752.000000 0 1 0
22.461763 -2.883698 5.844080 23.388026 -0.127684 1.318245 0.048617 -0.017251 -355478.000000 0 1 0
22.065663 -3.226998 7.296680 23.463770 -0.145216 1.254576 0.052867 -0.012504 -122406.000000 0 1 0
22.243163 -4.596098 7.471580 23.910393 -0.203762 1.252991 0.051285 -0.016953 599891.000000 0 1 0
22.036263 -4.992398 8.799180 24.247607 -0.222793 1.199430 0.059120 -0.014504 -157423.000000 0 1 0
22.000663 -6.483998 9.072880 24.665533 -0.286604 1.194115 0.062910 -0.023498 -143309.000000 0 1 0
20.868463 -7.093198 8.520580 23.630626 -0.327649 1.201914 0.072758 -0.025126 81961.200000 0 1 0
20.561863 -8.315498 9.098280 23.973243 -0.384305 1.181521 0.068808 -0.020150 -221472.000000 0 1 0
-25.973437 -33.425284 4.947280 42.618595 0.910201 1.454451 0.036365 -0.025282 195782.000000 0 0 1
-26.880197 -34.209484 5.735680 43.883161 0.904803 1.439718 0.035578 -0.024318 426296.000000 0 0 1
-26.691597 -34.056284 7.121580 43.851895 0.906043 1.407673 0.034648 -0.006503 -371032.000000 0 0 1
-27.432897 33.632902 7.918780 44.118511 -0.886581 1.390330 0.036578 0.003908 -270819.000000 0 0 1
-28.815247 33.518902 7.677980 44.864091 -0.860714 1.398811 0.049023 -0.003967 -357675.000000 0 0 1
-29.280227 32.232102 7.954180 44.266343 -0.833350 1.390126 0.048416 -0.002573 204430.000000 0 0 1
-30.836887 32.138202 7.944880 45.242665 -0.806059 1.394275 0.065836 -0.004535 1001670.000000 0 0 1
-31.517837 32.293202 6.675980 45.615717 -0.797549 1.423916 0.040710 -0.009876 -92631.300000 0 0 1
-32.908097 32.216502 6.737680 46.542907 -0.774779 1.425523 0.030292 -0.005899 -493683.000000 0 0 1
-33.662547 32.371502 5.410980 47.014465 -0.765849 1.455449 0.024765 0.000914 -357973.000000 0 0 1
-33.694447 31.197102 4.649980 46.154060 -0.746932 1.469876 0.027458 0.000017 463204.000000 0 0 1
-34.629067 31.183702 3.577180 46.737477 -0.733095 1.494184 0.037251 0.002384 97886.700000 0 0 1
-34.360505 29.989402 2.697080 45.686790 -0.717575 1.511728 0.041003 -0.004431 -174562.000000 0 0 1
-34.578601 28.789302 3.369980 45.120509 -0.694291 1.496038 0.061492 -0.014333 79330.700000 0 0 1
-34.103993 27.677702 2.714380 44.005743 -0.681755 1.509075 0.057274 -0.014831 -534039.000000 0 0 1
-34.544870 26.360902 3.377180 43.584981 -0.651827 1.493234 0.066177 -0.019704 -914815.000000 0 0 1
-35.843489 25.976002 3.088480 44.373946 -0.627116 1.501139 0.072612 -0.021314 -976233.000000 0 0 1
35.578781 25.008302 4.052680 43.677100 0.612669 1.477875 0.067988 -0.008363 -530187.000000 0 0 1
34.089931 24.714302 3.938180 42.289826 0.627291 1.477538 0.072975 -0.015539 -825917.000000 0 0 1
33.571411 23.843202 2.898480 41.278797 0.617554 1.500521 0.062805 -0.028778 113685.000000 0 0 1
33.991021 22.526702 2.833280 40.876268 0.585269 1.501427 0.049360 -0.017549 -712435.000000 0 0 1
33.068461 21.703002 1.904380 39.600127 0.580795 1.522688 0.055539 -0.022636 594479.000000 0 0 1
31.729971 21.387702 2.289780 38.333640 0.593099 1.511028 0.050716 -0.029831 774823.000000 0 0 1
31.549211 20.504602 3.352280 37.776040 0.576322 1.481939 0.034526 -0.013609 -796378.000000 0 0 1
31.995441 19.032802 3.299980 37.374399 0.536631 1.482386 0.044685 -0.022398 -569673.000000 0 0 1
31.381661 18.380802 2.241380 36.437430 0.529852 1.509244 0.035498 -0.026530 201074.000000 0 0 1
31.791581 17.043202 2.042680 36.129599 0.492102 1.514229 0.032744 -0.022573 -383925.000000 0 0 1
31.157441 15.975602 2.963480 35.139553 0.473786 1.486361 0.053326 -0.022649 -23998.900000 0 0 1
29.753401 15.837002 2.908880 33.831008 0.489133 1.484707 0.056570 -0.015944 344344.000000 0 0 1
29.282111 14.964802 3.950580 33.120906 0.472453 1.451234 0.072514 -0.022339 474512.000000 0 0 1
27.723251 14.993702 4.073380 31.780217 0.495779 1.442269 0.061906 -0.012873 265779.000000 0 0 1
27.129801 14.434402 2.927180 30.869831 0.488957 1.475830 0.060748 -0.018940 -567431.000000 0 0 1
25.848711 14.982602 2.824180 30.010169 0.525304 1.476549 0.038110 -0.007854 -617025.000000 0 0 1
25.102711 14.400902 1.593080 28.983961 0.520841 1.515804 0.030500 -0.016143 -339489.000000 0 0 1
25.463111 14.942902 0.320780 29.525637 0.530691 1.559932 0.034733 -0.014913 511735.000000 0 0 1
26.727111 14.477402 -0.129420 30.396552 0.496429 1.575054 0.048806 -0.013163 -334419.000000 0 0 1
27.306601 15.319502 -1.289620 31.336891 0.511263 1.611961 0.051933 -0.010235 -64263.500000 0 0 1
27.531721 16.717202 -1.121820 32.229164 0.545695 1.605611 0.042897 -0.018348 554833.000000 0 0 1
28.273911 17.109502 0.042680 33.047707 0.544186 1.569505 0.034444 -0.016841 -416146.000000 0 0 1
29.043271 18.428602 -0.128820 34.396825 0.565417 1.574541 0.053149 -0.020990 -483941.000000 0 0 1
30.074541 18.252402 -1.073520 35.196316 0.545482 1.601302 0.037410 -0.019573 42629.100000 0 0 1
30.786021 19.503302 -1.191720 36.463380 0.564697 1.603485 0.028892 -0.014361 163387.000000 0 0 1
30.245121 20.540702 -2.223120 36.628269 0.596589 1.631528 0.029936 -0.017198 -107510.000000 0 0 1
31.054781 21.688202 -2.195620 37.942039 0.609641 1.628696 0.003846 -0.008518 -64252.700000 0 0 1
30.659241 22.571102 -3.204120 38.206153 0.634606 1.654759 0.015925 -0.009134 -95354.300000 0 0 1
31.707651 23.697702 -3.508720 39.739997 0.641823 1.659203 -0.001839 -0.004301 224743.000000 0 0 1
31.935751 24.652402 -2.470420 40.419502 0.657394 1.631954 0.009737 -0.003608 -4086.030000 0 0 1
32.625221 24.111402 -1.374620 40.591309 0.636451 1.604668 0.027460 -0.000034 -686536.000000 0 0 1
32.509791 24.952702 -0.059520 40.982038 0.654635 1.572249 0.036314 -0.018222 16747.800000 0 0 1
33.069301 26.273202 -0.156020 42.236053 0.671372 1.574490 0.047024 -0.016983 534387.000000 0 0 1
34.359661 26.380402 0.459280 43.321160 0.654779 1.560194 0.063693 -0.017780 1021640.000000 0 0 1
35.273531 27.578302 -0.039320 44.774840 0.663570 1.571675 0.049911 -0.017262 167729.000000 0 0 1
35.699131 27.444402 -1.350720 45.049391 0.655406 1.600784 0.036450 -0.017792 -335301.000000 0 0 1
34.717211 27.729502 -2.308120 44.491993 0.673963 1.622697 0.026228 -0.015607 -327992.000000 0 0 1
35.016831 27.373902 -3.777420 44.606926 0.663504 1.655580 0.032936 -0.010901 -66671.700000 0 0 1
-35.862998 28.219502 -4.414420 45.847378 -0.666683 1.667231 0.018568 -0.004644 80059.000000 0 0 1
-35.417982 27.754602 -5.691820 45.355796 -0.664679 1.696621 0.017398 -0.005796 -332005.000000 0 0 1
35.391871 27.716602 -6.857920 45.473351 0.664372 1.722186 0.006394 0.001740 -482184.000000 0 0 1
34.421101 26.780402 -6.541920 44.099874 0.661196 1.719689 0.005378 0.006258 -1089110.000000 0 0 1
33.295371 26.831402 -7.363320 43.390372 0.678304 1.741321 -0.005535 0.006738 -391016.000000 0 0 1
32.234221 25.809502 -6.892520 41.865048 0.675159 1.736186 -0.011113 0.004003 -463643.000000 0 0 1
32.398931 24.404402 -7.132120 41.184132 0.645576 1.744850 -0.014078 0.008808 -130324.000000 0 0 1
33.605651 23.868102 -6.634420 41.749750 0.617566 1.730382 -0.015288 0.006552 -51479.800000 0 0 1
33.703741 22.400902 -6.948520 41.061229 0.586599 1.740838 -0.012582 0.005279 -711730.000000 0 0 1
32.810561 21.676402 -6.193820 39.809079 0.583828 1.727019 0.010449 -0.007187 -247116.000000 0 0 1
33.052571 20.293702 -6.227620 39.282185 0.550637 1.730004 0.023221 -0.021521 -517516.000000 0 0 1
31.813631 19.511202 -5.801320 37.768366 0.550139 1.725009 0.037925 -0.019196 -660925.000000 0 0 1
30.705151 19.600602 -6.631720 37.026607 0.568141 1.750875 0.024259 -0.024847 -583965.000000 0 0 1
29.599431 18.979502 -6.011720 35.671958 0.570172 1.740132 0.065148 -0.031776 154029.000000 0 0 1
28.391401 18.864702 -6.977620 34.794192 0.586467 1.772705 0.042475 -0.036565 89490.100000 0 0 1
28.428621 17.808902 -7.825820 34.446872 0.559636 1.799983 0.034777 -0.032642 36139.100000 0 0 1
27.212791 17.712702 -8.537320 33.573228 0.577005 1.827909 0.042198 -0.032614 36791.600000 0 0 1
27.378151 16.707002 -9.695820 33.506656 0.547908 1.864365 0.031795 -0.036057 -365739.000000 0 0 1
26.328011 16.626902 -10.618220 32.899311 0.563281 1.899429 0.038335 -0.029887 -57880.100000 0 0 1
26.552611 15.490602 -11.364120 32.774123 0.528119 1.924890 0.032142 -0.017819 44406.500000 0 0 1
25.711511 15.605002 -12.687020 32.642892 0.545497 1.969974 0.032706 -0.013125 -59556.200000 0 0 1
24.360411 15.244302 -12.414820 31.304091 0.559161 1.978593 0.035572 -0.011875 99808.200000 0 0 1
23.627811 15.459502 -13.600920 31.340943 0.579387 2.019687 0.027539 -0.010891 -536094.000000 0 0 1
23.607611 14.203802 -14.561820 31.162701 0.541641 2.057012 0.025593 -0.015024 -364784.000000 0 0 1
24.856511 13.707902 -15.034720 32.121574 0.503980 2.057887 0.028636 -0.018019 397593.000000 0 0 1
25.435411 14.461302 -16.097120 33.394710 0.516973 2.073762 0.027240 -0.022656 -358537.000000 0 0 1
26.811711 13.924102 -16.519520 34.433168 0.478991 2.071173 0.039662 -0.022386 -179736.000000 0 0 1
26.786171 12.595802 -17.005620 34.137140 0.439554 2.092267 0.034312 -0.018937 -1234250.000000 0 0 1
28.010841 12.303702 -17.519520 35.255098 0.413877 2.090860 0.037422 -0.003962 -1192580.000000 0 0 1
28.186691 10.894102 -18.113220 35.231517 0.368813 2.110777 0.012579 0.003790 -354503.000000 0 0 1
27.615051 10.672502 -19.410720 35.401545 0.368792 2.151128 0.024419 -0.002874 -36685.000000 0 0 1
27.873191 9.399402 -19.898520 35.513584 0.325245 2.165553 0.009558 0.011518 452522.000000 0 0 1
29.251401 9.098802 -20.579620 36.904654 0.301568 2.162340 0.009043 0.014595 -393919.000000 0 0 1
29.313821 9.774602 -21.839320 37.839118 0.321853 2.186046 0.015967 0.004147 67365.400000 0 0 1
29.968651 9.143702 -22.890220 38.803216 0.296137 2.201738 0.017877 0.005116 -778860.000000 0 0 1
31.382101 8.615402 -22.732720 39.696826 0.267931 2.180541 0.015325 0.003735 -987889.000000 0 0 1
32.355451 9.621002 -22.603520 40.624599 0.289027 2.160843 0.013359 0.005708 617357.000000 0 0 1
33.708361 9.157402 -22.571420 41.588227 0.265264 2.144487 -0.009320 0.005826 1471740.000000 0 0 1
34.813691 10.299702 -22.595720 42.762642 0.287647 2.127510 0.012703 0.003249 414515.000000 0 0 1
34.859661 10.991202 -21.375620 42.342882 0.305432 2.099972 0.000048 0.006083 -75031.300000 0 0 1
35.639561 12.120402 -21.206320 43.206371 0.327813 2.083821 -0.005890 0.006693 -464816.000000 0 0 1
35.371651 12.755602 -19.817820 42.504177 0.346101 2.055850 -0.018779 0.004058 -166361.000000 0 0 1
35.855812 11.966402 -18.747620 42.193688 0.322114 2.031215 -0.008724 0.007738 316213.000000 0 0 1
35.688401 12.521702 -17.498220 41.673046 0.337442 2.004124 0.003809 0.001170 -158201.000000 0 0 1
-35.663287 11.587102 -16.355820 40.910193 -0.314144 1.982093 0.005515 0.000082 -240785.000000 0 0 1
35.118411 10.753002 -15.872420 40.010793 0.297128 1.978719 -0.003081 -0.002537 417523.000000 0 0 1
35.668831 9.587902 -15.265520 39.965354 0.262596 1.962722 -0.006345 -0.005064 192914.000000 0 0 1
34.652671 8.444902 -15.036020 38.706665 0.239042 1.969757 0.039681 -0.000298 313529.000000 0 0 1
33.581361 8.574402 -14.094120 37.414869 0.249991 1.957026 0.041906 -0.004113 814738.000000 0 0 1
33.931951 8.327502 -12.789720 37.206203 0.240661 1.921706 0.049087 -0.013122 -681815.000000 0 0 1
32.889901 8.917802 -11.851720 36.079580 0.264775 1.905499 0.058048 -0.012357 -376960.000000 0 0 1
32.885071 10.316502 -11.838520 36.441854 0.303990 1.901661 0.059537 -0.014788 -234197.000000 0 0 1
31.977041 10.856202 -10.945520 35.499193 0.327290 1.884235 0.043672 -0.007778 -899194.000000 0 0 1
32.174391 10.567402 -9.422820 35.151828 0.317341 1.842176 0.056370 -0.007994 -1125090.000000 0 0 1
33.345691 11.046502 -8.877920 36.232276 0.319894 1.818345 0.060548 -0.006359 -632906.000000 0 0 1
33.315941 12.410502 -8.580920 36.573278 0.356585 1.807627 0.065574 -0.017415 -443568.000000 0 0 1
33.199251 12.666702 -7.066820 36.229485 0.364488 1.767112 0.059858 -0.025940 -79366.900000 0 0 1
34.387861 12.388202 -6.337920 37.096655 0.345776 1.742487 0.069883 -0.025771 489314.000000 0 0 1
34.221061 12.706002 -4.946420 36.837353 0.355516 1.705480 0.065755 -0.020216 -393678.000000 0 0 1
35.572551 12.745302 -4.230320 38.022950 0.344041 1.682284 0.068883 -0.022462 -333793.000000 0 0 1
-35.532679 13.951902 -4.496220 38.437519 -0.374154 1.688040 0.061291 -0.026807 -221857.000000 0 0 1
-34.311599 13.856002 -3.807820 37.199115 -0.383802 1.673339 0.056260 -0.028527 21517.800000 0 0 1
-33.509427 15.197802 -3.704020 36.980734 -0.425792 1.671125 0.051233 -0.026513 388332.000000 0 0 1
-33.976767 16.055602 -2.646420 37.672359 -0.441445 1.641103 0.066523 -0.025333 659675.000000 0 0 1
-33.049707 17.134502 -2.505920 37.311579 -0.478296 1.638009 0.060705 -0.024548 215688.000000 0 0 1
-33.405457 18.117002 -1.364520 38.026468 -0.496941 1.606687 0.067467 -0.022771 566653.000000 0 0 1
-34.622429 18.853902 -1.582420 39.454864 -0.498655 1.610914 0.048703 -0.022005 585496.000000 0 0 1
-35.066530 19.464002 -0.398820 40.108203 -0.506719 1.580740 0.034814 -0.020375 -453470.000000 0 0 1
35.387841 20.103102 -0.675620 40.704920 0.516618 1.587395 0.029933 -0.018422 -337366.000000 0 0 1
35.394521 21.269802 -1.508020 41.321311 0.541107 1.607299 0.046081 -0.014707 -16385.100000 0 0 1
35.337601 21.121202 -2.910420 41.271319 0.538725 1.641374 0.010924 -0.007309 -122147.000000 0 0 1
35.667041 22.469302 -3.612420 42.309065 0.562168 1.656282 0.030123 -0.026873 -7680.860000 0 0 1
-34.780022 22.792802 -3.598020 41.738562 -0.580121 1.657107 0.043476 -0.017997 -84118.300000 0 0 1
-34.577339 23.991402 -4.291320 42.303607 -0.606585 1.672412 0.050244 -0.023041 359020.000000 0 0 1
-33.065317 24.176502 -4.604420 41.219160 -0.631343 1.682736 0.065667 -0.033940 315210.000000 0 0 1
-32.696457 23.304902 -5.568720 40.536248 -0.619242 1.708608 0.037299 -0.017788 837592.000000 0 0 1
-31.391237 23.664102 -6.103720 39.782596 -0.645957 1.724832 0.047675 -0.013459 1033950.000000 0 0 1
-30.846387 22.855302 -7.325320 39.083561 -0.637677 1.759339 0.030744 -0.030213 -39449.700000 0 0 1
-31.571697 22.993302 -8.527420 39.977255 -0.629460 1.785755 0.045781 -0.038727 -175166.000000 0 0 1
-30.714287 22.574802 -9.572620 39.301707 -0.633828 1.816839 0.026607 -0.038457 475579.000000 0 0 1
-31.452197 22.354702 -10.952520 40.111484 -0.617905 1.847360 0.030325 -0.014980 40947.600000 0 0 1
-32.157727 23.508802 -11.348920 41.419575 -0.631260 1.848345 0.043022 -0.018006 109204.000000 0 0 1
-32.530517 23.379402 -12.749920 42.040355 -0.623161 1.878927 0.028162 -0.011914 -300251.000000 0 0 1
-32.880227 24.739602 -13.380520 43.268875 -0.645045 1.885191 0.049880 -0.010792 746481.000000 0 0 1
-31.766467 25.645302 -13.327420 42.946596 -0.679181 1.886332 0.050112 -0.017001 68837.100000 0 0 1
-30.935237 25.643502 -14.436620 42.696535 -0.692141 1.915717 0.042138 -0.018787 35981.000000 0 0 1
-29.566117 26.359102 -14.187620 42.074293 -0.728116 1.914742 0.043374 -0.015002 1130590.000000 0 0 1
-28.581737 25.666502 -13.347220 40.667350 -0.731711 1.905199 0.056925 -0.020034 780930.000000 0 0 1
-28.888207 25.420302 -11.938820 40.289648 -0.721629 1.871639 0.054990 -0.019266 -509408.000000 0 0 1
-29.094917 26.655602 -11.028220 40.971417 -0.741672 1.843326 0.073422 -0.013142 57386.100000 0 0 1
-27.914367 27.364602 -10.711920 40.531205 -0.775453 1.838262 0.067308 -0.014066 -193732.000000 0 0 1
-28.055317 28.389502 -9.704720 41.076103 -0.791319 1.809313 0.058246 -0.017902 740050.000000 0 0 1
-26.737427 29.220402 -9.431520 40.714561 -0.829741 1.804570 0.054075 -0.012572 875880.000000 0 0 1
-27.020177 30.494502 -8.930020 41.710309 -0.845732 1.786563 0.025862 -0.016197 596131.000000 0 0 1
-25.815357 31.251602 -8.716520 41.461706 -0.880372 1.782607 0.025566 -0.018623 181908.000000 0 0 1
34.255221 -25.188198 33.856336 54.351789 -0.634033 0.898338 0.023861 -0.002752 -183514.000000 0 0 1
33.734481 -23.888098 33.990574 53.516498 -0.616156 0.882604 0.021107 -0.004669 501110.000000 0 0 1
32.564781 -23.876098 -33.825910 52.675661 -0.632654 2.268102 0.003198 -0.001497 654185.000000 0 0 1
32.102881 -22.433398 -33.421210 51.486208 -0.609918 2.277236 -0.000979 -0.004298 89369.900000 0 0 1
31.760611 -21.605798 34.114641 51.374660 -0.597361 0.844592 -0.001982 0.002004 47101.500000 0 0 1
31.421721 -20.291898 -34.045950 50.578775 -0.573411 2.309226 -0.007122 0.007804 138854.000000 0 0 1
31.119781 -19.452298 33.370422 49.602598 -0.558656 0.832869 0.000182 0.005287 392536.000000 0 0 1
32.313331 -19.251398 32.612233 49.782783 -0.537305 0.856494 0.010743 -0.003684 524998.000000 0 0 1
31.934761 -18.853198 31.347472 48.558584 -0.533306 0.869040 0.017109 0.006080 264221.000000 0 0 1
33.084611 -18.619198 30.287262 48.565258 -0.512598 0.897405 0.011205 0.006100 266554.000000 0 0 1
33.871721 -17.492598 30.596082 48.881538 -0.476710 0.894482 0.002701 0.002303 750634.000000 0 0 1
35.051411 -17.506898 29.770032 49.207192 -0.463218 0.921039 0.012665 -0.004147 325937.000000 0 0 1
-35.752432 -16.413298 30.130412 49.552745 0.430381 0.917198 0.009098 -0.011313 -809390.000000 0 0 1
-34.679585 -16.361598 29.237932 48.220662 0.440829 0.919351 0.018931 -0.004445 229567.000000 0 0 1
-33.704497 -15.426898 29.729772 47.516751 0.429247 0.894807 0.020451 -0.010424 568297.000000 0 0 1
-32.395827 -16.052998 30.294632 47.169409 0.460063 0.873364 0.036668 -0.014678 -131276.000000 0 0 1
-31.527517 -15.076798 30.814152 46.591911 0.446065 0.848162 0.032196 -0.013478 -203465.000000 0 0 1
-30.395787 -15.651098 31.391442 46.414258 0.475504 0.828025 0.040211 -0.018080 -353637.000000 0 0 1
-29.333507 -14.735198 31.986922 45.833873 0.465513 0.798352 0.045549 -0.019890 -213858.000000 0 0 1
-29.797537 -14.102298 33.143421 46.746705 0.442036 0.782717 0.050483 -0.021284 333910.000000 0 0 1
-28.830827 -13.211898 33.680600 46.261795 0.429698 0.755333 0.048606 -0.016566 -78296.900000 0 0 1
-29.033287 -12.675398 -33.559240 46.149974 0.411639 2.384998 0.040753 -0.005372 -271104.000000 0 0 1
-29.192537 -13.606098 -32.506890 45.760552 0.436146 2.360819 0.064298 -0.007424 329884.000000 0 0 1
-29.065447 -13.037998 -31.241060 44.618309 0.421667 2.346453 0.068884 0.001595 -452383.000000 0 0 1
-29.230967 -13.988898 -30.053880 44.196996 0.446352 2.318557 0.069513 -0.003911 896842.000000 0 0 1
-30.566317 -14.538898 -30.065330 45.272546 0.443979 2.297081 0.053626 -0.001168 906229.000000 0 0 1
-30.957397 -14.996098 -28.779120 44.849539 0.451099 2.267485 0.039080 0.004652 425129.000000 0 0 1
-32.197217 -15.920098 -28.872140 46.083737 0.459202 2.247870 0.026170 0.000656 163001.000000 0 0 1
-31.867277 -17.231198 -29.342630 46.620034 0.495689 2.251577 0.035010 0.004373 163037.000000 0 0 1
-33.017887 -18.016598 -29.575540 47.848629 0.499506 2.237128 0.017597 0.001886 -96379.300000 0 0 1
-32.693647 -19.385398 -30.295720 48.605544 0.535213 2.243749 0.023887 -0.005699 225688.000000 0 0 1
-33.807087 -20.233598 -30.599120 49.886109 0.539317 2.231129 0.000080 -0.004790 -182929.000000 0 0 1
-33.436347 -21.442598 -31.157560 50.483343 0.570232 2.235956 0.007741 -0.003466 -385643.000000 0 0 1
-34.588282 -22.357198 -31.615680 51.920563 0.573827 2.225500 0.007575 -0.002019 -51807.600000 0 0 1
-35.396912 -22.753598 -30.525180 51.985135 0.571306 2.198380 -0.001209 0.008011 247953.000000 0 0 1
35.342901 -23.670598 -30.763840 52.496017 -0.590128 2.196938 0.005501 0.007773 448033.000000 0 0 1
35.715371 -25.117858 -30.964760 53.528599 -0.612923 2.187650 0.012543 0.005309 -55235.400000 0 0 1
-35.528253 -25.393748 -32.255080 54.290786 0.620556 2.206964 0.031166 -0.001330 -103534.000000 0 0 1
-34.792655 -26.604138 -32.151390 54.332504 0.652810 2.204027 0.033197 -0.000884 88943.800000 0 0 1
-34.828026 -27.462028 -33.469590 55.564088 0.667692 2.217251 0.042095 -0.008705 1196090.000000 0 0 1
35.722751 -28.167378 -33.554870 56.528272 -0.667689 2.206314 0.052494 -0.007197 698463.000000 0 0 1
35.768171 -29.332308 34.309421 57.592384 -0.686858 0.932624 0.044782 -0.009468 203945.000000 0 0 1
-35.399194 -30.568528 -33.636340 57.610253 0.712301 2.194272 0.042090 -0.014883 127806.000000 0 0 1
35.705591 -31.025408 -32.478050 57.378471 -0.715378 2.172481 0.059691 -0.021391 135605.000000 0 0 1
-35.328999 -31.812528 -31.561570 57.064068 0.733072 2.156865 0.047353 -0.025708 -161061.000000 0 0 1
35.794170 -32.150778 -30.234240 56.824330 -0.731827 2.131834 0.030224 -0.025930 -58273.400000 0 0 1
34.852121 -33.179728 -30.479920 56.961305 -0.760821 2.135421 0.047302 -0.023847 413261.000000 0 0 1
34.300211 -33.685198 -29.211360 56.253895 -0.776352 2.116801 0.032305 -0.021243 857101.000000 0 0 1
33.099411 34.022456 -29.294470 55.778711 0.799149 2.123736 0.037160 -0.020927 1252260.000000 0 0 1
31.950631 -34.266358 -30.011200 55.639000 -0.820356 2.140511 0.047390 -0.025780 -161896.000000 0 0 1
30.791831 33.770941 -29.660680 54.482743 0.831508 2.146476 0.046767 -0.024936 -906149.000000 0 0 1
29.572511 34.265388 -30.356940 54.499487 0.858779 2.161582 0.024733 -0.020894 -1338700.000000 0 0 1
29.455791 33.852948 -31.718950 54.952321 0.854743 2.186102 0.031969 -0.026937 268216.000000 0 0 1
28.166781 34.292092 -32.154970 54.801982 0.883155 2.197834 0.031902 -0.012676 530816.000000 0 0 1
27.906461 33.681179 -33.562650 55.132965 0.878889 2.225291 0.022279 -0.016298 -1945.040000 0 0 1
27.791431 32.244717 -33.458240 54.143691 0.859439 2.236932 0.012699 -0.010784 -35217.400000 0 0 1
27.477891 31.552397 34.006123 53.916646 0.854313 0.888320 0.012616 -0.008237 -102051.000000 0 0 1
27.473871 30.035767 34.194668 53.162357 0.829916 0.872110 0.007875 -0.019903 1140510.000000 0 0 1
28.781631 29.423317 -34.295787 53.575320 0.796422 2.265479 0.020687 -0.016090 746923.000000 0 0 1
28.508591 28.114877 -33.816600 52.409432 0.778445 2.272132 0.016338 -0.020595 -104870.000000 0 0 1
29.724851 27.274157 -33.447730 52.404171 0.742429 2.263038 0.040212 -0.029459 -210451.000000 0 0 1
30.375461 27.719877 -32.257760 52.264934 0.739719 2.235972 0.046930 -0.025314 -661740.000000 0 0 1
31.411811 26.825997 -32.012780 52.260445 0.706817 2.230095 0.046528 -0.018019 -651910.000000 0 0 1
32.466661 27.196307 -30.988720 52.478796 0.697291 2.202474 0.048470 -0.019300 494833.000000 0 0 1
33.458121 28.215087 -31.402460 53.866980 0.700589 2.193167 0.043220 -0.007883 1031010.000000 0 0 1
33.050011 29.606287 -31.442140 54.382384 0.730491 2.187278 0.048049 -0.011209 -419700.000000 0 0 1
32.199391 30.166907 -30.312130 53.531938 0.752820 2.172738 0.046349 -0.005732 210530.000000 0 0 1
32.823371 30.377177 -29.043240 53.325945 0.746712 2.146752 0.057094 -0.006406 39531.200000 0 0 1
31.774111 30.454487 -28.106490 52.221114 0.764195 2.139121 0.043828 -0.007851 236112.000000 0 0 1
32.276021 30.871057 -26.704700 52.037532 0.763153 2.109684 0.045437 -0.006443 98011.600000 0 0 1
32.875571 32.159677 -26.722260 53.189541 0.774391 2.097165 0.033516 -0.013672 43439.200000 0 0 1
33.088801 32.657877 -25.446240 52.999216 0.778844 2.071593 0.018012 -0.004872 -85052.700000 0 0 1
33.399831 34.181733 -25.363000 54.103802 0.796967 2.058710 0.022174 -0.006604 -438120.000000 0 0 1
32.283201 -33.803828 -25.684250 53.334647 -0.808404 2.073239 0.025617 0.004094 -501427.000000 0 0 1
32.515671 -32.406388 -25.556280 52.541092 -0.783715 2.078767 0.012617 -0.005293 -1007990.000000 0 0 1
33.124301 -31.683118 -26.732480 53.062838 -0.763164 2.098776 0.007833 -0.007902 381621.000000 0 0 1
34.497921 -31.981248 -26.958180 54.218542 -0.747560 2.091180 0.018692 -0.014417 230836.000000 0 0 1
35.428761 -31.336548 -26.120910 54.032197 -0.724182 2.075368 0.022519 -0.015979 199559.000000 0 0 1
-34.942482 -31.960208 -26.172770 54.105877 0.740851 2.075711 0.006606 -0.017367 327737.000000 0 0 1
-34.647614 -33.286098 -25.631690 54.455533 0.765359 2.060869 0.007463 -0.011417 -172716.000000 0 0 1
-34.832057 -33.389338 -24.206420 53.982135 0.764254 2.035788 0.005123 -0.011266 119837.000000 0 0 1
-33.683097 -32.824868 -23.309020 52.491270 0.772495 2.030916 -0.000160 -0.009440 384683.000000 0 0 1
-33.641637 -31.426668 -23.435120 51.658495 0.751371 2.041658 -0.024342 -0.005263 -295774.000000 0 0 1
-32.952857 -30.865428 -22.349520 50.379227 0.752701 2.030437 0.005477 -0.008263 -449002.000000 0 0 1
-32.714757 -29.336138 -22.538820 49.384844 0.731003 2.044732 0.014565 -0.011468 270262.000000 0 0 1
-33.901817 -28.554868 -22.618220 49.762412 0.699996 2.042634 -0.000191 -0.003413 -163422.000000 0 0 1
-34.378931 -28.546628 -23.905220 50.678205 0.692976 2.062021 0.009205 -0.004047 -566054.000000 0 0 1
-35.533013 -27.566178 -24.131720 51.037527 0.659804 2.063288 0.004250 -0.000833 -331808.000000 0 0 1
-35.213184 -26.216098 -23.733620 49.905279 0.639970 2.066412 -0.003484 0.001971 -170051.000000 0 0 1
35.670481 -25.209058 -24.063720 49.869254 -0.615222 2.074344 -0.003847 0.009110 -130034.000000 0 0 1
35.887936 -24.608698 -25.465900 50.418688 -0.601070 2.100281 -0.000188 0.017155 -1079620.000000 0 0 1
-34.723842 -23.925998 -25.570370 49.315743 0.603330 2.115896 0.003294 0.002389 -664918.000000 0 0 1
-34.539414 -23.306198 -26.817330 49.551178 0.593592 2.142665 0.000739 0.001767 315339.000000 0 0 1
-33.235397 -22.457398 -26.782110 48.230777 0.594235 2.159509 0.010069 -0.005824 204908.000000 0 0 1
-33.215847 -21.276298 -25.952750 47.217779 0.569701 2.152729 0.006721 -0.004602 -287675.000000 0 0 1
-34.000157 -20.200498 -26.439300 47.572129 0.536092 2.160089 -0.004075 -0.000717 -327657.000000 0 0 1
-35.162896 -19.783698 -25.520840 47.740311 0.512488 2.134803 0.001545 -0.001393 -386733.000000 0 0 1
-34.918878 -19.458298 -24.193220 46.725425 0.508387 2.115044 0.000181 -0.009458 -275574.000000 0 0 1
-34.330493 -20.463998 -23.312020 46.268870 0.537538 2.098833 -0.001888 -0.011830 85781.600000 0 0 1
-35.198935 -21.685998 -22.835320 47.230281 0.552172 2.075432 0.001745 -0.010999 926234.000000 0 0 1
35.632631 -21.375498 -21.821720 46.933824 -0.540335 2.054371 0.002142 -0.010722 633663.000000 0 0 1
34.885501 -22.527098 -21.427820 46.729218 -0.573377 2.047162 0.002199 -0.003711 593436.000000 0 0 1
33.785701 -22.387698 -20.320520 45.338793 -0.585209 2.035539 0.006120 -0.007339 479036.000000 0 0 1
32.700881 -21.579198 -20.705020 44.313737 -0.583301 2.056959 0.015754 0.001665 -1372460.000000 0 0 1
31.632391 -21.699998 -19.852420 43.192785 -0.601272 2.048368 0.010162 0.006340 -1300610.000000 0 0 1
30.454121 -20.995098 -20.493320 42.287396 -0.603577 2.076725 0.009744 0.020378 -1095760.000000 0 0 1
29.967381 -21.835898 -21.499420 42.861118 -0.629700 2.096251 0.005029 0.016496 -626549.000000 0 0 1
28.905061 -21.499098 -22.311320 42.373445 -0.639510 2.125322 0.004375 0.019206 -440348.000000 0 0 1
29.166811 -20.240698 -23.243120 42.433847 -0.606663 2.150468 0.003789 0.010987 -428187.000000 0 0 1
29.272291 -19.079798 -22.473720 41.544841 -0.577642 2.142364 0.009278 0.017028 -115096.000000 0 0 1
29.373261 -17.882898 -23.242420 41.506585 -0.546876 2.165145 0.008955 0.013856 -43873.400000 0 0 1
30.126091 -16.760198 -22.390920 41.107651 -0.507694 2.146816 0.003211 0.003245 188243.000000 0 0 1
29.420691 -16.145598 -21.284020 39.739992 -0.501909 2.135993 -0.005157 -0.003788 -131323.000000 0 0 1
30.166821 -15.347798 -20.418120 39.528365 -0.470634 2.113606 -0.008344 -0.007361 -546443.000000 0 0 1
31.000581 -16.159398 -19.389820 39.976585 -0.480511 2.077193 0.008240 -0.011189 -344680.000000 0 0 1
32.082501 -16.797998 -19.993520 41.366659 -0.482339 2.075245 0.003279 -0.010714 -735875.000000 0 0 1
32.622221 -17.774798 -19.191320 41.814585 -0.498894 2.047623 0.006369 -0.012626 314301.000000 0 0 1
33.901901 -18.397398 -19.864520 43.386661 -0.497195 2.046370 0.001343 -0.018329 482844.000000 0 0 1
34.932021 -17.480198 -20.109720 43.934090 -0.463972 2.046231 -0.013635 -0.019853 -352018.000000 0 0 1
-35.908646 -18.069698 -20.927220 45.319901 0.466215 2.050782 -0.008868 -0.023270 -174933.000000 0 0 1
-34.990726 -17.049798 -21.619820 44.524860 0.453409 2.077808 0.000252 -0.018864 -84649.000000 0 0 1
-33.951747 -16.566798 -20.789320 43.120480 0.453962 2.073871 0.018272 -0.030561 34166.000000 0 0 1
-33.249907 -15.542498 -21.522720 42.548244 0.437266 2.101155 0.028980 -0.022333 -112838.000000 0 0 1
-31.972247 -14.943998 -20.805520 40.968492 0.437234 2.103474 0.039196 -0.015661 1447670.000000 0 0 1
-30.844317 -15.864098 -20.909620 40.500046 0.475044 2.113305 0.043289 -0.025545 806268.000000 0 0 1
-30.930927 -17.046098 -20.103020 40.637706 0.503689 2.088273 0.040816 -0.026284 -783653.000000 0 0 1
-29.734507 -18.015698 -20.160220 40.188814 0.544736 2.096287 0.035259 -0.030682 -356691.000000 0 0 1
-30.044937 -19.159298 -19.468920 40.605613 0.567671 2.070840 0.032724 -0.030451 -68430.000000 0 0 1
-29.090997 -20.204498 -19.493320 40.428918 0.607044 2.073918 0.028747 -0.025803 -165370.000000 0 0 1
-29.615167 -21.639898 -19.088520 41.348699 0.631036 2.050648 0.025590 -0.008978 -127306.000000 0 0 1
-30.507297 -22.159198 -20.055620 42.707765 0.628197 2.059635 0.031182 -0.013209 192435.000000 0 0 1
-30.963097 -23.482398 -19.775620 43.602885 0.648855 2.041529 0.031850 -0.007721 320480.000000 0 0 1
-32.041977 -24.041998 -20.749820 45.113868 0.643711 2.048728 0.024708 -0.005863 118339.000000 0 0 1
-31.448647 -24.460798 -21.974020 45.499513 0.661058 2.074818 0.029280 -0.007485 366615.000000 0 0 1
-32.158017 -25.479178 -22.686420 46.882836 0.670035 2.075898 0.026668 -0.008108 -119503.000000 0 0 1
-31.891747 -25.544118 -24.220320 47.499573 0.675328 2.105872 0.028082 -0.008097 1085190.000000 0 0 1
-30.506767 -25.842398 -24.516420 46.899331 0.702810 2.120865 0.044362 -0.008698 959067.000000 0 0 1
-30.321507 -26.152588 -25.879710 47.677155 0.711712 2.144577 0.045562 -0.007016 284426.000000 0 0 1
-28.873717 -26.651608 -26.135280 47.191659 0.745400 2.157731 0.056430 -0.013133 339523.000000 0 0 1
-27.935617 -25.622158 -26.160920 46.057437 0.742229 2.174878 0.061045 -0.013890 -811649.000000 0 0 1
-26.586537 -25.970168 -26.202100 45.473549 0.773671 2.184874 0.051279 -0.008981 -117243.000000 0 0 1
-25.679677 -24.745898 -26.399330 44.370373 0.766882 2.208033 0.052951 -0.012469 -184049.000000 0 0 1
-25.764737 -24.153998 -27.667520 44.863449 0.753142 2.235347 0.049571 -0.016033 374599.000000 0 0 1
-24.718637 -23.196698 -27.910830 43.910276 0.753646 2.259625 0.072558 -0.011189 410370.000000 0 0 1
-24.702337 -22.548698 -29.306270 44.469166 0.739851 2.290317 0.037661 -0.012217 -167699.000000 0 0 1
-23.934037 -23.276798 -30.232660 45.040662 0.771478 2.306664 0.026261 -0.001971 141237.000000 0 0 1
-23.926137 -22.695598 -31.524990 45.622092 0.759010 2.333672 0.024284 0.001006 -75616.100000 0 0 1
-23.441837 -23.668298 -32.615160 46.620347 0.790205 2.345621 0.018122 -0.003401 -64209.100000 0 0 1
-24.399037 -24.684298 -32.842010 47.783106 0.791210 2.328581 0.007033 -0.003523 270066.000000 0 0 1
-23.906637 -25.703218 -33.715910 48.671813 0.821597 2.336049 0.011737 0.001736 107421.000000 0 0 1
-19.739637 -14.688798 -12.229220 27.476679 0.639732 2.032056 0.004192 0.011014 -68719.000000 0 0 1
-19.647437 -14.103498 -10.940720 26.544864 0.622592 1.995619 0.007631 0.007369 151610.000000 0 0 1
-18.977937 -14.931998 -9.992720 26.133908 0.666645 1.963152 0.001194 -0.003865 -89699.500000 0 0 1
-19.008937 -14.398898 -8.565520 25.338432 0.648271 1.915635 0.010611 -0.007708 -1352200.000000 0 0 1
-20.252937 -14.654398 -8.080420 26.272154 0.626370 1.883430 0.036075 -0.017435 -1228370.000000 0 0 1
-20.410737 -13.946398 -6.866020 25.656236 0.599421 1.841714 0.013662 -0.021933 303527.000000 0 0 1
-21.773737 -14.343498 -6.218020 26.804764 0.582503 1.804903 0.035716 -0.024676 87039.100000 0 0 1
-21.881837 -15.630698 -5.580820 27.464142 0.620274 1.775425 0.023451 -0.018202 111308.000000 0 0 1
-21.153437 -15.825098 -4.393320 26.780644 0.642290 1.735590 0.033288 -0.018291 -305037.000000 0 0 1
-20.895737 -17.302098 -4.072820 27.433234 0.691595 1.719810 0.017164 -0.010202 415067.000000 0 0 1
-22.080837 -17.951298 -3.625720 28.687250 0.682606 1.697523 0.040021 -0.009329 674721.000000 0 0 1
-21.704337 -18.936398 -2.696820 28.929886 0.717396 1.664151 0.025651 -0.002209 655895.000000 0 0 1
-22.941637 -19.826698 -2.320420 30.410542 0.712694 1.647174 0.036933 -0.014616 510775.000000 0 0 1
-23.234037 -20.859698 -3.265120 31.394403 0.731603 1.674988 0.014728 -0.011962 428137.000000 0 0 1
-24.321837 -21.702598 -2.859020 32.721989 0.728550 1.658281 0.019407 -0.009039 283756.000000 0 0 1
-24.538537 -22.921698 -3.800220 33.793280 0.751344 1.683490 0.023522 -0.015944 -542280.000000 0 0 1
-23.706937 -24.062998 -3.633620 33.974254 0.792852 1.677953 0.027060 -0.012887 -213290.000000 0 0 1
-23.627837 -24.815298 -4.834820 34.604179 0.809906 1.710973 0.023050 -0.009398 414791.000000 0 0 1
-22.263937 -24.806598 -5.617220 33.802417 0.839364 1.737749 0.037113 -0.005676 784149.000000 0 0 1
-21.933637 -23.554998 -6.276020 32.791932 0.821026 1.763374 0.019462 -0.000823 167849.000000 0 0 1
-21.345837 -22.569798 -5.415120 31.533539 0.813262 1.743377 0.009757 -0.002851 -478546.000000 0 0 1
-21.368537 -21.117698 -5.977420 30.631701 0.779494 1.767195 0.026480 0.003035 -127975.000000 0 0 1
-20.318937 -20.884398 -6.881120 29.939391 0.799121 1.802704 0.018508 0.002389 -222913.000000 0 0 1
-20.320137 -19.546998 -7.337020 29.134601 0.766008 1.825369 0.010989 0.001374 -1011970.000000 0 0 1
-19.043037 -19.306798 -8.045820 28.286480 0.792276 1.859219 0.031235 -0.006468 -1392910.000000 0 0 1
-18.842337 -20.113898 -9.167920 29.045711 0.818027 1.891925 0.023510 -0.003787 -134043.000000 0 0 1
-17.688137 -19.882198 -9.968020 28.417133 0.843731 1.929195 0.048866 -0.002065 -20223.700000 0 0 1
-17.563237 -18.529198 -10.680820 27.674508 0.812155 1.967028 0.044900 -0.005123 -308640.000000 0 0 1
-17.173837 -17.439298 -9.852820 26.384615 0.793067 1.953501 0.043076 -0.012039 -725366.000000 0 0 1
-15.782737 -17.418798 -9.766020 25.453575 0.834635 1.964574 0.063807 -0.008193 -1037860.000000 0 0 1
-15.352237 -16.299698 -8.805820 24.060628 0.815323 1.945487 0.032775 -0.000069 -182458.000000 0 1 0
-15.873037 -16.421698 -7.489620 24.035805 0.802386 1.887676 0.011619 -0.002774 257679.000000 0 1 0
-15.832337 -15.212498 -6.765120 22.974983 0.765435 1.869682 0.005440 -0.000677 -150234.000000 0 1 0
-16.519537 -15.451898 -5.384820 23.251937 0.752017 1.804504 0.002222 -0.004986 41010.700000 0 1 0
-17.015437 -14.324398 -4.718120 22.737066 0.699742 1.779823 0.001832 0.001563 50301.400000 0 1 0
-17.523237 -14.600398 -3.459820 23.069587 0.694661 1.721338 0.006315 0.001985 -331179.000000 0 1 0
-18.217437 -13.462498 -2.673520 22.809244 0.636417 1.688279 0.002492 0.004831 1128610.000000 0 1 0
-19.515537 -13.143898 -3.239420 23.751044 0.592725 1.707613 0.021199 -0.010406 1292660.000000 0 1 0
-20.361437 -12.360398 -2.428320 23.942939 0.545587 1.672392 0.029733 -0.003729 -154405.000000 0 1 0
-21.846237 -12.411898 -2.827020 25.284488 0.516670 1.682839 0.027245 -0.000249 -120109.000000 0 0 1
-22.130437 -11.455698 -3.870620 25.218465 0.477663 1.724889 0.027126 -0.021014 135798.000000 0 0 1
-23.517137 -11.528898 -4.112120 26.511899 0.455804 1.726530 0.030973 -0.016395 -22582.600000 0 0 1
-24.004537 -10.725898 -5.343120 26.829306 0.420213 1.771289 0.032462 -0.025079 -64085.800000 0 0 1
-23.604237 -11.384598 -6.560620 27.015011 0.449397 1.816100 0.039241 -0.030448 265080.000000 0 0 1
-24.178137 -10.785298 -7.703820 27.572701 0.419586 1.853966 0.043721 -0.030252 -506088.000000 0 0 1
-23.652937 -11.260598 -9.006120 27.701493 0.444326 1.901928 0.067863 -0.035074 -460220.000000 0 0 1
-22.383537 -10.694998 -9.233520 26.470052 0.445736 1.927118 0.049766 -0.024117 -169923.000000 0 0 1
-21.644937 -11.290698 -10.251720 26.477933 0.480803 1.968367 0.033550 -0.015320 765216.000000 0 0 1
-20.185737 -10.700898 -10.359120 25.085546 0.487454 1.996489 0.018543 -0.005749 702012.000000 0 0 1
-20.255037 -9.344298 -10.773820 24.772115 0.432238 2.020743 0.026070 -0.013556 1437680.000000 0 1 0
-18.985737 -8.686698 -10.507020 23.373370 0.429105 2.037035 0.014702 -0.000097 1003490.000000 0 1 0
-18.937337 -7.199598 -10.981020 23.044300 0.363304 2.067486 -0.011637 -0.002259 -274182.000000 0 1 0
-18.767237 -7.161598 -12.367220 23.589104 0.364545 2.122662 0.019809 -0.007144 368568.000000 0 1 0
-18.789037 -5.816998 -12.872120 23.506528 0.300236 2.150287 0.034770 -0.015722 215239.000000 0 1 0
-18.008437 -5.819998 -14.234620 23.681229 0.312586 2.215664 0.028968 -0.009699 249032.000000 0 1 0
-18.800837 -6.452998 -15.192820 25.018682 0.330630 2.223402 0.040943 -0.010423 410964.000000 0 0 1
-18.198737 -6.278198 -16.457020 25.326732 0.332196 2.278103 0.034914 -0.008856 -33681.400000 0 0 1
-18.735637 -7.219698 -17.544120 26.663539 0.367810 2.288932 0.040544 -0.010136 12948.800000 0 0 1
-20.040937 -6.995498 -18.037220 27.855296 0.335838 2.275139 0.065988 -0.015749 403964.000000 0 0 1
-20.471637 -8.071098 -18.879220 28.994060 0.375546 2.279883 0.079953 -0.016686 458618.000000 0 0 1
-21.932937 -7.916098 -19.419320 30.345154 0.346372 2.265227 0.076377 -0.015683 -275304.000000 0 0 1
-22.002537 -6.889298 -20.409820 30.791798 0.303444 2.295392 0.079757 -0.017025 729407.000000 0 0 1
-23.268337 -6.689698 -21.043320 32.077857 0.279952 2.286313 0.074127 -0.026281 790393.000000 0 0 1
-24.502137 -6.349698 -20.182720 32.373069 0.253571 2.243933 0.091671 -0.027952 -481576.000000 0 0 1
-24.581837 -4.958598 -19.823320 31.965895 0.199047 2.239717 0.083375 -0.018421 170493.000000 0 0 1
-25.710677 -4.797998 -18.986720 32.319580 0.184493 2.198723 0.092989 -0.011761 -76928.100000 0 0 1
-25.783497 -3.312398 -18.507120 31.910409 0.127770 2.189490 0.067047 -0.007385 201924.000000 0 0 1
-26.131417 -2.319098 -19.536720 32.709519 0.088516 2.210901 0.074513 -0.006617 735793.000000 0 0 1
-27.471487 -2.315398 -20.042420 34.084341 0.084085 2.199410 0.082179 -0.006868 530493.000000 0 0 1
-27.781867 -1.049498 -20.854320 34.753939 0.037758 2.214368 0.081381 -0.004715 -428730.000000 0 0 1
-27.117337 -0.916698 -22.067520 34.973787 0.033792 2.253603 0.080962 -0.000837 -465773.000000 0 0 1
-27.676867 -1.667498 -23.072720 36.071318 0.060176 2.264828 0.086387 -0.006646 -584948.000000 0 0 1
-26.967837 -1.731898 -24.435120 36.432662 0.064133 2.305939 0.091299 -0.003085 -551426.000000 0 0 1
-27.178607 -0.601598 -25.272080 37.117606 0.022131 2.319739 0.077939 -0.001688 -21663.000000 0 0 1
-26.686417 0.637102 -24.911620 36.512458 -0.023869 2.321669 0.068779 0.011205 -258563.000000 0 0 1
-25.264467 0.948102 -24.371020 35.116077 -0.037509 2.337845 0.066101 0.003999 -99423.700000 0 0 1
-24.328837 0.624702 -25.376080 35.160035 -0.025672 2.377096 0.059057 0.002490 -1218420.000000 0 0 1
-23.057537 0.949002 -24.954220 33.989171 -0.041135 2.395257 0.062678 -0.001389 -1042010.000000 0 0 1
-21.903537 0.314702 -25.718250 33.783019 -0.014367 2.436077 0.043740 -0.003881 -382451.000000 0 0 1
-21.886137 0.714702 -27.095840 34.838174 -0.032644 2.461895 0.023305 0.003574 -291165.000000 0 0 1
-20.801737 0.097902 -27.710990 34.649976 -0.004706 2.497659 0.014487 -0.009096 -388947.000000 0 0 1
-20.564937 0.641802 -29.122390 35.657288 -0.031198 2.526518 0.008092 0.012477 -214200.000000 0 0 1
-20.155237 1.999702 -29.091960 35.448196 -0.098891 2.533413 0.016166 0.006280 202441.000000 0 0 1
-20.376137 2.719102 -30.287540 36.604858 -0.132662 2.545292 0.005475 0.007278 88978.500000 0 0 1
-19.614837 2.248302 -31.584830 37.247795 -0.114124 2.582931 0.004829 0.005675 -820563.000000 0 0 1
-18.240437 2.319002 -31.550080 36.517104 -0.126457 2.613919 -0.002477 0.006433 -1044670.000000 0 0 1
-17.644637 1.911802 -32.730570 37.232761 -0.107929 2.644725 0.003229 0.002508 -735468.000000 0 0 1
-16.137537 1.827902 -32.768700 36.572518 -0.112789 2.681457 0.008986 -0.005065 -193859.000000 0 0 1
-15.371037 3.070302 -32.642700 36.211068 -0.197151 2.693919 0.021080 -0.003340 475888.000000 0 0 1
-14.043237 2.911102 -33.098760 36.072357 -0.204401 2.732710 0.016884 -0.004929 389826.000000 0 0 1
-13.378537 4.374402 -33.379480 36.225825 -0.316014 2.742536 0.026125 -0.003399 38257.200000 0 0 1
-13.243937 5.192402 -32.233470 35.232932 -0.373642 2.725976 0.039391 -0.016693 112952.000000 0 0 1
-12.755137 6.426102 -32.713370 35.695279 -0.466687 2.729943 0.055905 -0.012228 -250581.000000 0 0 1
-12.342437 7.396002 -31.552600 34.678570 -0.539856 2.713740 0.056144 -0.018116 -481350.000000 0 0 1
-11.234037 7.077702 -30.757560 33.501119 -0.562203 2.734070 0.069438 -0.027180 -142024.000000 0 0 1
-11.426437 6.003602 -29.845880 32.517430 -0.483771 2.733407 0.063537 -0.023720 126179.000000 0 0 1
-10.092637 5.251102 -29.478440 31.597687 -0.479748 2.773264 0.066350 -0.025353 673352.000000 0 0 1
-9.387137 4.538202 -30.483420 32.217271 -0.450319 2.812026 0.053299 -0.020549 -47562.600000 0 0 1
-10.030037 3.399102 -30.884270 32.649559 -0.326745 2.811253 0.050270 -0.015826 -636774.000000 0 0 1
-9.468837 2.684802 -32.090650 33.566008 -0.276289 2.844003 0.050111 -0.012217 141000.000000 0 0 1
-10.344537 1.606502 -32.461020 34.107303 -0.154069 2.829627 0.039759 -0.006297 693124.000000 0 0 1
-9.896137 0.890502 -33.630920 35.068010 -0.089743 2.854319 0.032025 -0.003400 -564883.000000 0 0 1
-10.410737 1.481702 33.702880 35.305283 -0.141375 0.302439 0.038161 -0.008827 430373.000000 0 0 1
-11.811537 1.272802 33.494887 35.539273 -0.107345 0.340837 0.007626 0.001371 408162.000000 0 0 1
-12.113537 1.546002 32.154142 34.395010 -0.126940 0.362963 0.004602 0.003735 -75416.600000 0 0 1
-13.600937 1.328402 31.866562 34.673158 -0.097361 0.405119 0.010642 0.008632 432158.000000 0 0 1
-14.631137 2.233402 32.313612 35.541916 -0.151478 0.429512 0.019467 0.011020 1291760.000000 0 0 1
-15.849637 1.879602 31.641002 35.438636 -0.118038 0.467186 0.013112 0.014830 1345120.000000 0 0 1
-16.931737 3.016202 31.382222 35.785822 -0.176290 0.501327 0.031152 0.010127 821779.000000 0 0 1
-17.464137 3.678202 32.559572 37.130190 -0.207581 0.501416 0.027815 0.003735 1186980.000000 0 0 1
-16.536337 4.660502 33.098876 37.292175 -0.274709 0.478785 0.034281 0.006562 454767.000000 0 0 1
-17.183337 5.218702 -34.260929 38.682208 -0.294854 2.658801 0.027423 0.006096 -113393.000000 0 0 1
-18.279937 6.043002 34.089511 39.150590 -0.319272 0.514116 0.012584 0.001599 959121.000000 0 0 1
-19.410737 5.652102 -33.687280 39.288113 -0.283349 2.601074 0.003575 0.004966 1775830.000000 0 0 1
-20.805437 6.317202 -33.912790 40.284620 -0.294786 2.571461 -0.000194 -0.000569 301776.000000 0 0 1
-20.909837 7.698602 -33.511990 40.243549 -0.352779 2.554816 0.008019 -0.005612 203475.000000 0 0 1
-20.432737 8.627402 34.120315 40.695512 -0.399526 0.576401 0.004446 -0.010756 -290444.000000 0 0 1
-20.337437 10.060802 -34.000020 40.875818 -0.459394 2.553118 0.010001 -0.012166 -630118.000000 0 0 1
-19.308937 10.185302 -33.026770 39.589683 -0.485398 2.557525 0.016101 -0.011978 264792.000000 0 0 1
-18.916637 11.513702 -32.803920 39.579056 -0.546759 2.547792 0.037181 -0.017904 147203.000000 0 0 1
-18.138737 12.277302 -33.893220 40.354632 -0.595023 2.567866 0.023722 -0.030028 -795373.000000 0 0 1
-18.934037 12.423902 33.633304 40.546889 -0.580699 0.592600 0.027227 -0.025903 -36075.700000 0 0 1
-18.173037 12.628202 32.433032 39.263626 -0.607286 0.598765 0.028134 -0.019892 424454.000000 0 0 1
-18.925437 12.062402 31.182812 38.419285 -0.567441 0.623834 0.028711 -0.020493 98969.600000 0 0 1
-19.084237 10.639302 31.180832 38.074232 -0.508577 0.611220 0.022121 -0.014057 155420.000000 0 0 1
-17.874937 9.923302 31.010862 37.143759 -0.506790 0.582868 0.029583 -0.005326 154976.000000 0 0 1
-18.091037 8.450402 31.189802 37.033750 -0.436986 0.569447 0.031810 -0.002691 -6935.540000 0 0 1
-18.731337 7.891502 30.043292 36.273106 -0.398732 0.594814 0.034756 -0.007260 149737.000000 0 0 1
-18.900537 6.472902 30.075572 36.106354 -0.329953 0.586339 0.032014 -0.003673 16301.700000 0 0 1
-19.488837 5.904702 28.762492 35.241470 -0.294187 0.616072 0.039652 -0.010950 -395074.000000 0 0 1
-20.785237 6.299002 28.433052 35.779071 -0.294254 0.652310 0.058365 -0.019283 -771973.000000 0 0 1
-21.331837 5.282802 27.620422 35.296501 -0.242764 0.672084 0.056114 -0.016998 346940.000000 0 0 1
-22.885637 5.413302 27.555942 36.226871 -0.232268 0.706484 0.050094 -0.016398 459423.000000 0 0 1
-23.372537 6.155302 26.442872 35.824415 -0.257509 0.740510 0.043923 -0.019211 -172339.000000 0 0 1
-24.771437 6.150302 26.386132 36.710738 -0.243361 0.768782 0.047602 -0.016581 -590078.000000 0 0 1
-25.304347 6.864602 25.094612 36.292868 -0.264906 0.807306 0.041818 -0.008699 -116529.000000 0 0 1
-25.274907 6.058302 23.958232 35.348562 -0.235258 0.826069 0.036644 -0.004717 912424.000000 0 0 1
-26.430957 5.191102 23.944212 36.039816 -0.193934 0.844129 0.030017 0.001068 374278.000000 0 0 1
-26.634877 4.608902 22.534272 35.191648 -0.171343 0.875868 0.027762 0.004251 -547.360000 0 0 1
-27.241867 5.470002 21.598772 35.192999 -0.198159 0.910028 0.017189 0.007359 -28925.700000 0 0 1
-27.039087 4.942202 20.284572 34.161403 -0.180784 0.935040 0.037410 0.005478 -200836.000000 0 0 1
-27.857097 5.684802 19.210272 34.312817 -0.201306 0.976583 0.044394 -0.002809 89532.300000 0 0 1
-29.233507 5.549802 19.477372 35.563553 -0.187611 0.991210 0.047704 0.000095 243842.000000 0 0 1
-30.127787 6.131302 18.511472 35.888035 -0.200768 1.028841 0.058352 0.002685 -274331.000000 0 0 1
-31.587517 6.094602 18.895672 37.309005 -0.190601 1.039717 0.058863 0.004846 -788610.000000 0 0 1
-32.001597 7.026602 19.821572 38.293212 -0.216140 1.026722 0.064279 -0.011683 -339249.000000 0 0 1
-33.369087 6.954602 20.131772 39.587254 -0.205473 1.037306 0.059471 -0.007359 -240424.000000 0 0 1
-33.727197 8.109502 21.010072 40.555036 -0.235965 1.026211 0.063070 -0.010929 -128796.000000 0 0 1
-33.281487 7.902302 22.344272 40.857928 -0.233121 0.992167 0.050753 -0.011161 219564.000000 0 0 1
-33.525807 9.078902 23.064372 41.693782 -0.264460 0.984614 0.063849 -0.007686 139583.000000 0 0 1
-0.310137 32.726002 11.715980 34.761351 -1.561320 1.227025 0.027291 -0.001896 -383945.000000 0 0 1
-0.687937 32.931102 13.038480 35.425029 -1.549909 1.193876 0.019462 -0.000637 82914.900000 0 0 1
-0.534637 34.290202 13.403280 36.820533 -1.555206 1.198220 0.018176 -0.004881 -520566.000000 0 0 1
-0.373937 -34.083884 14.915180 37.206364 1.559826 1.158322 0.018439 0.000643 299399.000000 0 0 1
-1.594437 -34.054384 15.665180 37.518544 1.524010 1.140069 0.006590 0.007329 263424.000000 0 0 1
-1.315237 -34.026184 17.060880 38.086541 1.532162 1.106325 0.008503 -0.003872 16841.800000 0 0 1
-2.479037 -33.825984 18.067880 38.429039 1.497639 1.081322 0.015551 0.001905 21471.600000 0 0 1
-3.325737 33.764402 18.134480 38.470179 -1.472615 1.079929 0.006570 0.009017 89974.300000 0 0 1
-4.239037 33.971302 19.196480 39.249505 -1.446655 1.059752 0.006688 0.004939 62651.200000 0 0 1
-5.190037 32.813302 19.580080 38.562012 -1.413927 1.038219 0.006964 0.002315 502471.000000 0 0 1
-6.186937 32.592102 18.569180 38.017598 -1.383199 1.060499 0.000222 0.002974 148596.000000 0 0 1
-7.098337 31.612502 19.039880 37.579964 -1.349918 1.039502 0.002916 -0.008424 -340252.000000 0 0 1
-8.263137 31.494402 18.057480 37.232370 -1.314211 1.064440 -0.015784 -0.010252 -692582.000000 0 0 1
-8.930737 32.745402 17.873080 38.359697 -1.304539 1.086107 -0.010452 -0.004093 -149874.000000 0 0 1
-9.477737 32.903602 16.599980 38.053040 -1.290343 1.119389 -0.012936 0.007475 25808.400000 0 0 1
-10.429237 34.152602 16.547680 39.357273 -1.274419 1.136857 0.021868 -0.003947 745881.000000 0 0 1
-11.725437 33.971602 17.117580 39.806622 -1.238445 1.126283 0.022333 -0.003177 363293.000000 0 0 1
-12.547337 -33.631184 16.895280 39.672946 1.213704 1.130880 0.008620 -0.008543 732487.000000 0 0 1
-13.902237 -33.813584 17.676680 40.609059 1.180720 1.120437 0.054872 -0.006852 562223.000000 0 0 1
-13.845437 -33.485684 19.008680 40.918419 1.178729 1.087669 0.036664 0.002713 737594.000000 0 0 1
-15.099737 -33.696984 19.683780 41.844234 1.149521 1.081046 0.033022 -0.007443 697332.000000 0 0 1
-15.023537 -33.269184 21.156680 42.191828 1.146633 1.045534 0.034163 -0.013209 -234685.000000 0 0 1
-14.953337 -31.866284 21.306580 41.146478 1.132048 1.026492 0.052176 -0.010034 161927.000000 0 0 1
-14.844037 -31.562884 22.655780 41.591410 1.131189 0.994738 0.031181 -0.005624 68626.300000 0 0 1
-14.901337 -30.010384 23.004480 40.643315 1.109921 0.969140 0.052412 -0.017084 -214510.000000 0 0 1
-14.756637 -29.865884 24.399280 41.292302 1.111882 0.938633 0.041893 -0.021509 -126823.000000 0 0 1
-14.940937 -28.541584 24.872980 40.700353 1.088542 0.913316 0.035253 -0.008128 917379.000000 0 0 1
-16.256337 -27.712084 24.532480 40.423640 1.040277 0.918662 0.048314 -0.010137 895415.000000 0 0 1
-17.395737 -27.774684 25.389280 41.456727 1.011251 0.911667 0.053961 -0.009629 733786.000000 0 0 1
-18.355137 -26.855384 24.831380 40.923344 0.971243 0.918796 0.055897 -0.010162 -178358.000000 0 0 1
-19.597337 -26.660784 25.765080 41.936766 0.936924 0.909197 0.047129 -0.006236 815157.000000 0 0 1
-20.513537 -27.777584 25.965680 43.204350 0.934701 0.926049 0.049621 -0.010307 848070.000000 0 0 1
-21.147937 -28.242384 24.743980 43.094455 0.928063 0.959194 0.052232 -0.011543 -597113.000000 0 0 1
-22.529937 -27.590384 24.538780 43.254815 0.886023 0.967564 0.045034 -0.007655 -431893.000000 0 0 1
-22.518037 -26.237584 24.084480 42.137097 0.861540 0.962373 0.047891 -0.011734 -360484.000000 0 0 1
-23.710937 -26.023184 23.411880 42.279200 0.831857 0.983942 0.034294 -0.008701 -1042840.000000 0 0 1
-23.901337 -24.532284 23.030780 41.273765 0.798424 0.978822 0.023538 0.006380 -415151.000000 0 0 1
-24.533537 -23.828084 24.046680 41.808071 0.770812 0.957986 0.017452 0.004218 29917.000000 0 0 1
-24.902337 -22.513584 23.640180 41.059054 0.735062 0.957262 0.011642 0.008247 142670.000000 0 0 1
-25.431817 -21.731684 24.904180 41.704455 0.707105 0.930842 0.014874 0.007921 -776219.000000 0 0 1
-26.542367 -22.287284 25.474980 43.013892 0.698476 0.936948 0.006434 0.015212 -620561.000000 0 0 1
-27.072517 -21.487084 26.499580 43.552769 0.670879 0.916693 0.011579 0.005933 -1201140.000000 0 0 1
-27.976007 -22.209084 27.497180 45.077658 0.670987 0.914741 0.001995 0.005052 239746.000000 0 0 1
-29.381307 -22.195884 27.296980 45.837142 0.646975 0.932882 0.002133 0.008976 622518.000000 0 0 1
-29.888997 -22.679584 26.069580 45.687402 0.649105 0.963551 0.000059 0.013562 -149010.000000 0 0 1
-31.353057 -23.253984 26.159280 46.990104 0.638156 0.980391 -0.008610 0.011291 1008090.000000 0 0 1
-32.008467 -23.751284 24.959380 47.028035 0.638382 1.011330 -0.013562 0.015579 467419.000000 0 0 1
-31.465757 -25.002784 24.525480 47.082186 0.671441 1.022882 -0.010064 0.011946 -505648.000000 0 0 1
-31.924687 -25.461084 23.142680 46.936511 0.673237 1.055189 -0.004458 0.010090 318178.000000 0 0 1
-33.273027 -25.892684 23.014780 48.033379 0.661299 1.071120 0.001075 0.005028 324598.000000 0 0 1
-33.363987 -26.584784 21.790580 47.903400 0.672793 1.098552 0.009510 0.006125 657701.000000 0 0 1
-34.704363 -27.386384 21.598380 49.202610 0.668080 1.116346 0.012731 -0.001168 358298.000000 0 0 1
-34.985167 -28.473984 22.451380 50.386447 0.683152 1.108970 0.018197 -0.005488 465510.000000 0 0 1
-34.087586 -29.585784 22.338780 50.361724 0.714814 1.111222 0.016833 -0.001199 -229226.000000 0 0 1
-34.351747 -30.494084 21.123880 50.558382 0.725978 1.139761 0.025209 -0.002381 -102059.000000 0 0 1
-34.442703 -29.883684 19.880480 49.745028 0.714643 1.159664 0.010441 0.005330 680649.000000 0 0 1
-34.973988 -30.803084 18.899380 50.291116 0.722073 1.185537 0.013228 0.007514 -240979.000000 0 0 1
-35.413346 -30.317284 17.493180 49.792109 0.708023 1.211811 0.013541 0.011731 -423289.000000 0 0 1
-34.343725 -29.902484 16.645480 48.484245 0.716379 1.220350 0.040355 0.003824 401014.000000 0 0 1
-34.793743 -29.345584 15.408580 48.054055 0.700659 1.244380 0.041069 0.009732 -75239.400000 0 0 1
-35.476880 -30.200884 14.326780 48.743810 0.705239 1.272471 0.049733 0.011418 -999917.000000 0 0 1
-34.698490 -31.207384 13.763980 48.655248 0.732477 1.283993 0.046281 0.004315 2626.150000 0 0 1
-35.388938 -32.036884 12.798080 49.421956 0.735724 1.308856 0.040232 0.001316 195181.000000 0 0 1
-35.575028 -31.502184 11.373680 48.860319 0.724754 1.335862 0.045158 0.006923 72739.700000 0 0 1
35.271101 -30.475484 11.279480 47.958653 -0.712586 1.333380 0.031573 0.008610 268722.000000 0 0 1
35.479541 -29.673984 10.156680 47.355056 -0.696527 1.354638 0.007993 0.007081 443905.000000 0 0 1
34.407081 -28.536684 10.041680 45.815116 -0.692403 1.349824 0.033213 0.011930 590023.000000 0 0 1
34.847271 -27.587784 9.078480 45.363387 -0.669645 1.369308 0.027539 -0.024599 356046.000000 0 0 1
33.731581 -26.837184 8.656780 43.965826 -0.672058 1.372603 0.017456 -0.017791 43835.000000 0 0 1
34.038601 -25.739184 7.608580 43.347692 -0.647442 1.394358 0.010642 -0.020460 231295.000000 0 0 1
34.801181 -24.632284 8.100280 43.399149 -0.615942 1.383049 0.027309 -0.026547 237679.000000 0 0 1
34.978611 -23.687484 7.069780 42.832020 -0.595259 1.404979 0.029076 -0.037139 -344567.000000 0 0 1
35.515801 -22.311584 7.496980 42.607319 -0.560908 1.393920 0.037231 -0.043818 -226427.000000 0 0 1
34.574171 -21.481084 8.177780 41.517302 -0.555937 1.372527 0.037274 -0.036926 18025.900000 0 0 1
34.806311 -20.095884 7.868880 40.954159 -0.523608 1.377455 0.051115 -0.040028 -22942.500000 0 0 1
33.896211 -19.290684 8.788880 39.979095 -0.517397 1.349149 0.072502 -0.027604 -196968.000000 0 0 1
34.356071 -19.341184 10.133880 40.707696 -0.512741 1.319208 0.065391 -0.037992 -249889.000000 0 0 1
33.569261 -18.589784 10.999080 39.918105 -0.505736 1.291644 0.074361 -0.023405 -276614.000000 0 0 1
33.998131 -18.720984 12.525080 40.782665 -0.503340 1.258633 0.066501 -0.037239 318113.000000 0 0 1
35.153851 -17.944984 12.825780 41.500799 -0.471988 1.256603 0.035514 -0.024027 512613.000000 0 0 1
35.687561 -18.295984 14.099780 42.510573 -0.473733 1.232716 0.037942 -0.019941 -201663.000000 0 0 1
-34.830599 -17.681784 14.625380 41.709925 0.469750 1.212537 0.039886 -0.024320 -706696.000000 0 0 1
-33.667357 -18.220684 14.103580 40.797000 0.496060 1.217810 0.021407 -0.012309 -772448.000000 0 0 1
-32.514947 -17.563884 14.551580 39.717254 0.495272 1.195682 0.000682 -0.012419 -229317.000000 0 0 1
-31.350347 -17.611984 13.547480 38.426039 0.511842 1.210491 0.028178 -0.015048 -143484.000000 0 0 1
-30.727177 -18.896284 13.387580 38.476698 0.551354 1.215423 0.020981 -0.015173 981078.000000 0 0 1
-29.606727 -18.792684 12.462680 37.216148 0.565575 1.229326 -0.014624 0.002994 556273.000000 0 0 1
-28.987897 -20.153684 12.025080 37.297074 0.607527 1.242518 -0.023126 0.003261 -515852.000000 0 0 1
-29.680677 -21.053484 11.202780 38.074848 0.616962 1.272146 -0.008630 0.003453 -458197.000000 0 0 1
-28.789857 -21.884684 10.440080 37.640278 0.649967 1.289746 -0.005769 0.008806 51663.500000 0 0 1
-29.474257 -22.791284 9.368880 38.418099 0.658222 1.324446 0.003888 0.004211 206155.000000 0 0 1
-30.186607 -23.919584 9.814780 39.745536 0.670084 1.321275 0.009920 -0.000744 147230.000000 0 0 1
-31.453867 -23.704084 10.419180 40.740504 0.645810 1.312178 0.032957 -0.009783 -115756.000000 0 0 1
-32.305557 -24.992684 10.453480 42.161102 0.658456 1.320242 0.061505 -0.015136 -337953.000000 0 0 1
-32.564577 -25.494384 9.152580 42.357821 0.664219 1.353001 0.053142 -0.012409 -225194.000000 0 0 1
-33.211917 -26.719684 9.257880 43.619735 0.677492 1.356929 0.059677 -0.007122 194841.000000 0 0 1
-33.502557 -27.477784 7.939580 44.050958 0.686919 1.389570 0.054828 -0.010478 -6934.850000 0 0 1
-32.275257 -27.981784 7.506380 43.370707 0.714266 1.396846 0.052128 -0.007322 -436613.000000 0 0 1
-32.378767 -28.814384 6.341380 43.804867 0.727216 1.425522 0.038458 -0.011440 -1110190.000000 0 0 1
-31.076917 -29.131984 5.678480 42.973159 0.753106 1.438269 0.043975 -0.003657 -738974.000000 0 0 1
-30.537317 -27.989684 5.000880 41.724800 0.741896 1.450654 0.035079 0.004163 -520545.000000 0 0 1
-29.217967 -28.168884 4.572280 40.842152 0.767119 1.458611 0.039411 -0.003657 -263029.000000 0 0 1
-28.652237 -26.832284 4.039380 39.461864 0.752609 1.468255 0.026630 -0.000339 -134318.000000 0 0 1
-29.097817 -26.441884 2.748780 39.413348 0.737614 1.500997 0.033947 0.000937 -390710.000000 0 0 1
-28.509397 -25.301584 2.244480 38.183682 0.725856 1.511981 0.033586 -0.007163 -688407.000000 0 0 1
-28.926467 -24.802184 0.854280 38.113234 0.708787 1.548380 0.039505 -0.006443 -95282.300000 0 0 1
-28.412427 -25.509284 -0.298520 38.184797 0.731610 1.578614 0.035757 -0.013092 4905.980000 0 0 1
-28.397447 -24.841784 -1.568020 37.762255 0.718711 1.612332 0.047115 -0.021435 755720.000000 0 0 1
-29.794827 -24.727484 -2.289420 38.786875 0.692724 1.629856 0.061269 -0.015075 976845.000000 0 0 1
-30.616797 -23.645184 -1.871320 38.729638 0.657618 1.619133 0.050341 -0.003774 241915.000000 0 0 1
-31.931197 -23.799984 -2.395020 39.897077 0.640520 1.630862 0.066870 -0.006411 334298.000000 0 0 1
-32.798547 -22.542884 -2.199320 39.859294 0.602161 1.626001 0.065752 -0.004528 -140724.000000 0 0 1
-33.013907 -22.249284 -0.799520 39.819442 0.593019 1.590876 0.064489 -0.011686 -85912.800000 0 0 1
-33.853797 -21.158684 -0.630920 39.927028 0.558601 1.586599 0.058457 -0.000861 -469503.000000 0 0 1
-33.935167 -20.601084 0.811380 39.707160 0.545603 1.550361 0.057507 -0.011148 -319179.000000 0 0 1
-34.375135 -21.555984 1.770880 40.613377 0.560094 1.527179 0.048371 -0.015949 110983.000000 0 0 1
-34.539603 -20.940784 3.047180 40.506616 0.545027 1.495498 0.051382 -0.022119 -1206560.000000 0 0 1
-35.555073 -21.551684 4.018880 41.770680 0.544929 1.474434 0.049918 -0.006601 -361281.000000 0 0 1
34.973071 -21.557984 3.496280 41.232103 -0.552403 1.485899 0.043456 -0.006249 -708343.000000 0 0 1
34.243021 -20.372284 3.639880 40.010788 -0.536685 1.479698 0.050174 -0.016687 -1035060.000000 0 0 1
32.903461 -20.385384 2.911580 38.815962 -0.554672 1.495716 0.040312 -0.001625 -141682.000000 0 0 1
31.851871 -21.101684 3.556980 38.372840 -0.585108 1.477968 0.042232 -0.003814 26583.000000 0 0 1
30.688861 -20.872884 2.771480 37.217799 -0.597276 1.496261 0.043867 0.000745 19.142400 0 0 1
29.502231 -21.779184 3.081680 36.799609 -0.635920 1.486956 0.036111 0.011893 -267014.000000 0 0 1
29.466201 -22.953484 2.280380 37.420844 -0.661790 1.509820 0.021217 0.002104 -723759.000000 0 0 1
28.216521 -23.507384 2.480580 36.809271 -0.694605 1.503355 0.020562 0.002917 -665833.000000 0 0 1
27.868901 -24.710184 1.573580 37.279284 -0.725395 1.528573 0.018964 -0.001785 40930.100000 0 0 1
27.573611 -24.319584 0.240780 36.766890 -0.722774 1.564247 0.020662 -0.010145 128998.000000 0 0 1
26.868601 -25.247584 -0.538320 36.873459 -0.754304 1.585396 0.018911 -0.014084 -204590.000000 0 0 1
26.116911 -24.677884 -1.755920 35.974633 -0.757076 1.619626 0.028217 -0.018589 -41767.500000 0 0 1
26.936271 -24.275784 -2.848320 36.372920 -0.733494 1.649185 0.018613 -0.029443 175079.000000 0 0 1
27.345131 -25.217784 -3.778020 37.389387 -0.744948 1.672014 0.019566 -0.032423 -234220.000000 0 0 1
26.329411 -25.731884 -4.880620 37.137423 -0.773921 1.702598 0.029608 -0.034007 265298.000000 0 0 1
25.847311 -24.761784 -5.763920 36.255375 -0.763952 1.730455 0.040960 -0.048300 1211070.000000 0 0 1
24.606911 -24.115684 -5.399020 34.874284 -0.775316 1.726235 0.048861 -0.043331 438581.000000 0 0 1
23.952011 -23.136484 -6.364520 33.904319 -0.768081 1.759637 0.051736 -0.049225 -269267.000000 0 0 1
23.425711 -23.744084 -7.518220 34.191652 -0.792148 1.792493 0.062307 -0.056855 8719.050000 0 0 1
22.243811 -23.226984 -8.060120 33.154871 -0.807017 1.816362 0.060767 -0.056942 -368771.000000 0 0 1
22.321811 -21.845884 -8.748420 32.435178 -0.774623 1.843899 0.050897 -0.054893 -394033.000000 0 0 1
22.912811 -21.933384 -10.070420 33.278876 -0.763562 1.878223 0.059492 -0.054230 363536.000000 0 0 1
22.916911 -20.645284 -10.591620 32.612804 -0.733299 1.901564 0.055123 -0.046623 -282677.000000 0 0 1
23.682711 -20.510884 -11.934820 33.526215 -0.713750 1.934764 0.061041 -0.042742 -284053.000000 0 0 1
25.048711 -20.483084 -11.616120 34.379193 -0.685459 1.915462 0.070037 -0.046263 -406845.000000 0 0 1
25.857211 -20.163084 -12.751420 35.181587 -0.662293 1.941687 0.056512 -0.048272 380321.000000 0 0 1
27.331421 -20.563184 -12.498320 36.415095 -0.645012 1.921137 0.042144 -0.038894 22744.400000 0 0 1
27.457421 -21.999984 -12.653520 37.390117 -0.675497 1.916032 0.026136 -0.037589 -303927.000000 0 0 1
28.506481 -22.497684 -11.889320 38.211532 -0.668129 1.887194 0.022125 -0.032904 -529725.000000 0 0 1
28.926291 -23.926484 -12.352820 39.519604 -0.691080 1.888698 0.007237 -0.027029 -612801.000000 0 0 1
29.732451 -23.967484 -13.488720 40.501908 -0.678453 1.910321 -0.002001 -0.022213 85476.600000 0 0 1
29.981401 -25.325384 -13.780520 41.595219 -0.701411 1.908478 0.009594 -0.012112 -76366.400000 0 0 1
-4.106937 -8.928698 -27.679130 29.372144 1.139682 2.800411 0.040412 -0.007773 71456.100000 0 0 1
-3.814637 -7.664498 -27.131250 28.449969 1.108989 2.835930 0.023292 -0.010307 86483.000000 0 0 1
-4.397937 -6.600698 -27.904720 29.010076 0.983059 2.864656 0.017115 -0.009529 -18969.800000 0 0 1
-4.478037 -5.256698 -27.065670 27.932709 0.865216 2.891784 0.013425 -0.019026 189060.000000 0 0 1
-5.485137 -5.282498 -26.056400 27.146409 0.766581 2.857253 0.014589 -0.019493 460161.000000 0 0 1
-5.323737 -4.120198 -25.297650 26.178031 0.658641 2.881513 0.018628 -0.022403 161729.000000 0 0 1
-5.963337 -4.232098 -23.901820 24.995381 0.617197 2.844698 0.014861 -0.017388 -458119.000000 0 1 0
-5.278137 -5.077498 -23.035820 24.172065 0.766026 2.833763 0.020067 -0.025050 28628.000000 0 1 0
-5.707737 -4.985498 -21.690720 22.976527 0.717959 2.805463 0.020862 -0.015863 -438808.000000 0 1 0
-4.985037 -6.010598 -20.777020 22.196001 0.878399 2.782086 0.020216 -0.012103 -387060.000000 0 1 0
-5.475837 -7.283898 -20.835620 22.741219 0.926162 2.729301 0.017011 -0.011897 62341.800000 0 1 0
-4.560937 -8.228498 -20.295220 22.369763 1.064669 2.707522 0.017733 -0.014387 -1223700.000000 0 1 0
-5.129437 -9.630798 -20.329420 23.072684 1.081404 2.648987 0.021719 -0.007028 825883.000000 0 1 0
-6.246437 -9.926298 -19.448920 22.711448 1.009124 2.598953 0.025155 -0.006983 580380.000000 0 1 0
-7.409837 -9.231598 -19.824220 23.089561 0.894435 2.603289 0.019120 -0.008226 -1840140.000000 0 1 0
-8.507837 -9.217298 -18.765320 22.571644 0.825402 2.552359 0.018112 -0.004418 -763148.000000 0 1 0
-9.184537 -10.436398 -18.704520 23.305219 0.849114 2.502420 0.053518 -0.010377 -52117.200000 0 1 0
-9.708037 -10.712798 -17.401020 22.623120 0.834561 2.448337 0.027697 -0.007036 48234.600000 0 1 0
-10.460737 -12.085298 -17.384120 23.615442 0.857329 2.398136 0.050034 -0.010907 -410402.000000 0 1 0
-11.587237 -12.133798 -18.194620 24.749492 0.808435 2.396686 0.044098 -0.018378 -555546.000000 0 1 0
-11.322237 -12.391898 -19.571920 25.783954 0.830474 2.432685 0.046997 -0.016440 -1792590.000000 0 0 1
-12.527737 -12.276198 -20.510820 26.987831 0.775257 2.434113 0.034541 -0.016484 -54331.800000 0 0 1
-13.522937 -13.258398 -20.246820 27.723432 0.775521 2.389578 0.033433 -0.005372 138917.000000 0 0 1
-14.311437 -13.077198 -19.074420 27.196762 0.740365 2.348084 0.026746 -0.000925 -1192650.000000 0 0 1
-15.543237 -14.025798 -19.077320 28.324184 0.734125 2.309777 0.021711 -0.000459 -131863.000000 0 0 1
-15.264137 -15.368498 -19.252320 28.979932 0.788805 2.297397 0.041413 -0.012469 -123138.000000 0 0 1
-15.774937 -15.777298 -20.495720 30.295979 0.785473 2.313818 0.046657 -0.008403 -185612.000000 0 0 1
-15.234437 -17.139298 -20.978120 31.079337 0.844170 2.311742 0.025744 0.000184 -248497.000000 0 0 1
-15.798037 -18.236998 -20.311720 31.539373 0.856936 2.270527 0.032306 0.007897 171297.000000 0 0 1
-15.228137 -19.469698 -20.734320 32.262631 0.907037 2.268778 0.020801 0.007302 56341.300000 0 0 1
-15.989437 -20.697998 -20.099920 32.985998 0.913043 2.226033 0.029518 -0.001582 -128277.000000 0 0 1
-15.590837 -21.979498 -20.481720 33.847798 0.953832 2.220703 0.024121 0.001642 90392.900000 0 0 1
-16.344237 -23.038098 -19.882620 34.542824 0.953760 2.184126 0.031177 -0.002115 101337.000000 0 0 1
-15.884437 -24.468298 -20.283920 35.530978 0.994995 2.178373 0.023790 0.002111 -269440.000000 0 0 1
-16.079037 -24.786998 -21.647420 36.627060 0.995344 2.203122 0.010483 0.000526 144177.000000 0 0 1
-15.599037 -26.097738 -21.930420 37.488201 1.032058 2.195671 0.014070 -0.002627 -216976.000000 0 0 1
-15.789637 -26.562278 -23.427520 38.777777 1.034476 2.219493 0.016624 -0.006330 519022.000000 0 0 1
-17.010237 -27.261498 -23.758920 39.962780 1.012941 2.207473 0.023593 -0.003027 590082.000000 0 0 1
-16.983737 -28.651298 -23.568420 40.802140 1.035707 2.186615 0.025006 0.001684 -45.760900 0 0 1
-18.078337 -29.327228 -24.436020 42.237799 1.018380 2.187727 0.032163 -0.007958 -110888.000000 0 0 1
-17.680437 -29.408078 -25.794290 42.927594 1.029487 2.215397 0.028731 0.000233 154047.000000 0 0 1
-18.017637 -28.234568 -26.535500 42.731240 1.002803 2.240796 0.039337 -0.010676 -100012.000000 0 0 1
-16.898937 -27.716068 -27.458570 42.517380 1.023263 2.272893 0.045116 -0.015425 -309275.000000 0 0 1
-16.896037 -28.198218 -28.752480 43.672883 1.030974 2.289434 0.048055 -0.005022 -88985.600000 0 0 1
-15.722037 -27.760608 -29.400460 43.384570 1.055492 2.315387 0.031586 -0.004481 -127848.000000 0 0 1
-15.745637 -27.885438 -30.963220 44.544851 1.056772 2.339358 0.044595 -0.002127 -149243.000000 0 0 1
-15.596337 -29.199468 -31.510180 45.702802 1.080218 2.331537 0.031174 -0.003846 475307.000000 0 0 1
-16.239837 -29.363518 -32.793430 46.918627 1.065606 2.344714 0.031846 0.002181 -341237.000000 0 0 1
-16.424837 -30.823968 -33.321030 48.271973 1.081208 2.332668 0.034199 0.001558 149528.000000 0 0 1
-15.265437 -31.479148 -33.840180 48.673691 1.119271 2.339558 0.034905 -0.002526 -127240.000000 0 0 1
-15.501237 -32.690148 34.083631 49.705413 1.128012 0.815214 0.029704 -0.000621 -707485.000000 0 0 1
-14.334937 -33.323108 33.349705 49.275986 1.164546 0.827397 0.023552 -0.010364 -378470.000000 0 0 1
-13.472637 -34.046533 34.206286 50.107368 1.193992 0.819400 0.035538 -0.009305 -37169.200000 0 0 1
-12.449337 34.081907 33.408961 49.322622 -1.220577 0.826634 0.038283 -0.009943 418079.000000 0 0 1
-11.415537 33.244344 34.208843 49.048403 -1.240029 0.798962 0.055732 -0.013823 309788.000000 0 0 1
-10.500037 33.950746 -33.614660 48.916759 -1.270854 2.328398 0.058846 -0.010757 204975.000000 0 0 1
-9.849637 33.121711 -32.632400 47.528272 -1.281748 2.327584 0.059376 -0.018516 -22187.300000 0 0 1
-8.922737 33.998147 -31.804210 47.402501 -1.314137 2.306271 0.044508 -0.020652 -433189.000000 0 0 1
-9.676837 -33.996108 -30.914740 46.958468 1.293485 2.289411 0.053340 -0.021005 1823.470000 0 0 1
-8.958137 -32.837758 -30.429410 45.656496 1.304477 2.300281 0.046657 -0.018689 -218712.000000 0 0 1
-9.851337 -31.822538 -29.696010 44.627075 1.270582 2.298861 0.058322 -0.017235 94773.200000 0 0 1
-10.069937 -32.041728 -28.337030 43.943865 1.266295 2.271618 0.078053 -0.012503 78936.500000 0 0 1
-10.835837 -33.199268 -27.976620 44.747045 1.255310 2.246206 0.077187 -0.018752 -151844.000000 0 0 1
-10.959137 -33.299938 -26.477400 43.932235 1.252857 2.217661 0.088239 -0.022936 -558851.000000 0 0 1
-9.786137 -33.559698 -25.804730 43.450040 1.287060 2.206687 0.075407 -0.024841 -1004680.000000 0 0 1
-10.062437 -33.485098 -24.449020 42.664494 1.278876 2.181023 0.085144 -0.034530 886025.000000 0 0 1
-8.813137 -33.608048 -23.483320 41.936126 1.314338 2.165156 0.081698 -0.038256 773717.000000 0 0 1
-8.334537 33.789101 -23.457720 41.969423 -1.328960 2.163884 0.066591 -0.027167 47944.600000 0 0 1
-7.642837 33.551364 -22.217720 40.960153 -1.346823 2.144115 0.078016 -0.022321 401844.000000 0 0 1
-6.900837 32.152727 -22.052020 39.594331 -1.359377 2.161504 0.065010 -0.024264 430451.000000 0 0 1
-5.828237 32.016537 -22.981120 39.839163 -1.390730 2.185660 0.035139 -0.030472 182196.000000 0 0 1
-5.162637 30.776377 -22.777020 38.634581 -1.404597 2.201298 0.016412 -0.021464 -801946.000000 0 0 1
-3.706937 30.865867 -23.188520 38.783381 -1.451271 2.211673 0.018373 -0.027714 -806350.000000 0 0 1
-3.542637 31.075557 -24.575320 39.776713 -1.457286 2.236779 0.018284 -0.027444 -490693.000000 0 0 1
-2.476537 31.945617 -24.812920 40.525754 -1.493428 2.229732 0.008696 -0.030379 -438201.000000 0 0 1
-2.462337 32.183417 -26.340270 41.661077 -1.494436 2.255252 0.003812 -0.007913 833830.000000 0 0 1
-1.418637 33.089334 -26.812890 42.612764 -1.527950 2.251348 0.015917 -0.017984 607609.000000 0 0 1
-1.850237 -34.333170 -26.806240 43.597758 1.516958 2.232997 0.024609 -0.017002 -227240.000000 0 0 1
-0.788237 -33.287838 -27.195040 42.991531 1.547121 2.255660 -0.001171 -0.007252 -732628.000000 0 0 1
0.280263 -33.211328 -26.318870 42.376335 -1.562358 2.240910 0.020517 -0.017484 -449861.000000 0 0 1
1.138863 -32.189298 -26.859280 41.938871 -1.535431 2.265866 0.011492 -0.009243 676994.000000 0 0 1
2.427963 -31.768818 -26.095730 41.184220 -1.494519 2.257038 0.013521 -0.005908 -67221.300000 0 0 1
2.123863 -31.125278 -24.899720 39.916035 -1.502666 2.244395 0.008842 -0.001788 -15430.500000 0 0 1
3.263763 -30.595078 -24.270720 39.189014 -1.464522 2.238679 0.008495 0.002944 -361148.000000 0 0 1
2.987063 -30.003118 -22.878520 37.848862 -1.471565 2.219897 0.017458 0.001937 -185921.000000 0 0 1
2.921763 -30.994078 -21.819220 38.016417 -1.476806 2.182108 0.024638 0.001972 454228.000000 0 0 1
3.012063 -30.282888 -20.583820 36.739890 -1.471658 2.165494 0.026061 0.005588 -478120.000000 0 0 1
2.860263 -31.208948 -19.374920 36.845177 -1.479403 2.124507 0.023775 0.008970 -32876.800000 0 0 1
1.545863 -31.741538 -19.236820 37.147950 -1.522133 2.115124 0.016400 0.006365 443635.000000 0 0 1
1.474363 -33.092878 -19.665120 38.523101 -1.526274 2.106535 0.026076 0.008034 -68150.000000 0 0 1
2.127763 -34.292096 -18.831620 39.180418 -1.508828 2.072179 0.013372 -0.007713 1637870.000000 0 0 1
3.579863 -34.291201 -18.714920 39.229455 -1.466777 2.068106 0.014302 -0.001956 1367300.000000 0 0 1
4.008063 33.377822 -17.871020 38.072522 1.451287 2.059401 0.034969 -0.020909 564894.000000 0 0 1
5.226963 32.611087 -18.481520 37.846674 1.411866 2.080967 0.046711 -0.028088 660367.000000 0 0 1
6.437063 33.354182 -18.548720 38.703905 1.380149 2.070593 0.057626 -0.029196 193623.000000 0 0 1
7.409563 32.671897 -19.359820 38.693115 1.347782 2.094791 0.060794 -0.035075 143667.000000 0 0 1
8.697763 33.480645 -19.505420 39.712292 1.316630 2.084227 0.061231 -0.037403 -586688.000000 0 0 1
9.505063 33.395406 -18.389220 39.290747 1.293507 2.057856 0.050122 -0.025058 -453551.000000 0 0 1
10.746663 34.034084 -18.538820 40.218124 1.264943 2.049869 0.049873 -0.011988 140522.000000 0 0 1
11.657263 34.127932 -17.285920 39.992632 1.241646 2.017758 0.028765 -0.011477 -185901.000000 0 0 1
12.390663 32.984680 -17.006120 39.124491 1.211457 2.020465 0.033121 -0.015732 -460010.000000 0 0 1
13.116863 33.200796 -15.825820 39.048707 1.194541 1.988086 0.021932 -0.021707 269177.000000 0 0 1
14.333063 32.273137 -15.558820 38.588456 1.152845 1.985806 0.030277 -0.013957 337058.000000 0 0 1
13.987663 31.040837 -14.912620 37.169538 1.147426 1.983629 0.039672 -0.015062 -157261.000000 0 0 1
15.120563 30.203017 -14.750020 36.856706 1.106644 1.982530 0.037647 -0.012622 -176845.000000 0 0 1
15.025563 28.974507 -13.845820 35.454144 1.092396 1.972001 0.046163 -0.012786 -660459.000000 0 0 1
14.971263 29.281417 -12.451020 35.164869 1.098158 1.932722 0.045841 -0.018628 643490.000000 0 0 1
13.642163 29.396937 -11.903020 34.524925 1.136306 1.922786 0.052762 -0.018646 1049440.000000 0 0 1
12.899163 28.033237 -11.731220 33.013214 1.139544 1.934084 0.049190 -0.015746 -648218.000000 0 0 1
12.319163 27.418787 -12.873320 32.699756 1.148528 1.975430 0.037234 -0.018793 140491.000000 0 0 1
11.721763 26.160697 -12.714520 31.359860 1.149550 1.988256 0.062831 -0.024058 163371.000000 0 0 1
10.730063 25.884337 -11.556120 30.309686 1.177820 1.961964 0.069436 -0.022406 -144442.000000 0 0 1
9.476063 26.554587 -11.646420 30.505425 1.228030 1.962520 0.058465 -0.019147 392137.000000 0 0 1
8.873763 26.580387 -10.369920 29.879690 1.248584 1.925226 0.042996 -0.006898 446419.000000 0 0 1
7.689563 27.581117 -10.254820 30.413956 1.298903 1.914711 0.048363 -0.004619 484087.000000 0 0 1
8.251763 28.849917 -10.361520 31.745400 1.292211 1.903283 0.056360 -0.011069 68053.600000 0 0 1
7.252363 29.843507 -10.210220 32.364800 1.332404 1.891751 0.034165 -0.006314 203806.000000 0 0 1
7.767163 31.274667 -10.464520 33.881261 1.327368 1.884789 0.066189 -0.013976 -25905.500000 0 0 1
8.825263 31.762347 -9.643120 34.347078 1.299780 1.855377 0.059170 -0.008785 24465.500000 0 0 1
9.316663 32.981071 -10.175720 35.750476 1.295485 1.859419 0.065137 -0.012386 77343.500000 0 0 1
10.333563 32.910155 -11.335720 36.309219 1.266552 1.888304 0.037532 -0.015311 1027760.000000 0 0 1
11.712263 32.842653 -10.886820 36.528617 1.228238 1.873430 0.035140 -0.005563 1735760.000000 0 0 1
12.719863 33.420186 -11.730620 37.633910 1.207121 1.887782 0.051516 -0.010636 1688490.000000 0 0 1
14.221663 33.217659 -11.299520 37.859579 1.166273 1.873874 0.050118 -0.014549 1067920.000000 0 0 1
14.584463 33.928306 -10.110720 38.289204 1.164815 1.838028 0.050179 -0.011297 -153794.000000 0 0 1
15.980063 34.113240 -10.136920 39.010674 1.132713 1.833663 0.040068 -0.010877 -183726.000000 0 0 1
16.462063 -33.680998 -9.055820 38.567046 -1.116178 1.807817 0.052234 -0.019060 -315761.000000 0 0 1
16.568763 -34.193295 -7.732520 38.774956 -1.119575 1.771563 0.045826 -0.025451 178254.000000 0 0 1
17.038463 -33.217158 -6.848320 37.955083 -1.096849 1.752222 0.033875 -0.015853 -1452300.000000 0 0 1
17.393963 -33.783058 -5.461120 38.388394 -1.095322 1.713540 0.032210 -0.007933 545514.000000 0 0 1
18.424163 33.937150 -5.393620 38.990654 1.073428 1.709572 0.026344 -0.017421 1267230.000000 0 0 1
19.679263 34.324103 -5.981420 40.014933 1.050213 1.720838 0.035591 -0.010763 -733412.000000 0 0 1
20.418263 33.278179 -6.794820 39.629689 1.020464 1.743106 0.026957 -0.003778 23491.600000 0 0 1
20.757463 32.043097 -6.152720 38.671544 0.995970 1.730577 0.029953 0.003076 431934.000000 0 0 1
21.793063 32.143827 -5.160220 39.176410 0.974998 1.702898 0.038828 0.004410 -251288.000000 0 0 1
22.079363 30.695017 -4.629820 38.093537 0.947225 1.692636 0.017949 0.003547 -140091.000000 0 0 1
22.668163 29.931097 -5.659720 37.970365 0.922611 1.720410 0.017923 0.009437 126556.000000 0 0 1
23.023163 28.591307 -5.229720 37.079359 0.892862 1.712309 0.006918 0.015978 -182011.000000 0 0 1
23.971363 27.870077 -6.191920 37.278778 0.860461 1.737667 0.003070 0.020857 -436147.000000 0 0 1
25.245163 28.473497 -6.246120 38.562576 0.845423 1.733487 0.019996 0.013211 -109311.000000 0 0 1
26.238463 27.650047 -6.842020 38.727190 0.811587 1.748401 0.008602 0.012988 330183.000000 0 0 1
26.933763 26.561117 -5.962420 38.294529 0.778432 1.727131 0.010630 0.013733 -222574.000000 0 0 1
27.841963 27.231697 -5.087020 39.276176 0.774318 1.700680 0.012106 0.008050 -29975.000000 0 0 1
28.830263 26.364257 -4.588120 39.335848 0.740749 1.687702 0.011102 0.009684 220024.000000 0 0 1
29.802563 27.146357 -3.640420 40.476785 0.738790 1.660856 0.017144 0.002537 427695.000000 0 0 1
29.265563 27.488017 -2.359620 40.219797 0.754088 1.629498 0.020118 -0.005804 1764.030000 0 0 1
30.365463 27.828257 -1.559420 41.217775 0.741826 1.608639 0.029376 -0.007594 159893.000000 0 0 1
30.271363 29.265607 -1.064320 42.118451 0.768507 1.596069 0.052112 -0.022260 -95612.400000 0 0 1
30.617663 30.272467 -1.996320 43.102771 0.779729 1.617128 0.038690 -0.010266 -143494.000000 0 0 1
30.440663 31.575557 -1.514820 43.885583 0.803696 1.605321 0.057213 -0.013262 -90731.000000 0 0 1
32.953651 22.696202 19.552872 44.535104 0.603123 1.116262 0.032117 -0.002674 57501.900000 0 0 1
33.510331 22.556102 20.837372 45.452350 0.592449 1.094552 0.025881 -0.020335 -21512.400000 0 0 1
34.009191 23.786002 21.281372 46.640066 0.610323 1.096976 0.032239 -0.014267 -261250.000000 0 0 1
33.959751 23.777602 22.848572 47.335994 0.610840 1.067074 0.017641 -0.009040 -424874.000000 0 0 1
32.697141 24.122302 23.343772 46.860646 0.635615 1.049329 0.002626 -0.003422 -141412.000000 0 0 1
32.681941 24.025602 24.755502 47.520245 0.633919 1.022837 0.002600 -0.004187 -269104.000000 0 0 1
31.403661 24.584602 25.412512 47.290468 0.664201 1.003480 0.003628 -0.003954 58129.600000 0 0 1
31.296491 26.009902 25.451962 47.997789 0.693407 1.011873 -0.014935 -0.003944 220945.000000 0 0 1
30.033821 26.521202 25.845452 47.680100 0.723368 0.997910 -0.014840 -0.000163 83243.000000 0 0 1
29.926451 28.028902 26.072272 48.589867 0.752668 1.004419 -0.023192 -0.000524 -457490.000000 0 0 1
29.718301 28.847602 24.956872 48.355010 0.770532 1.028484 -0.021665 0.003331 429292.000000 0 0 1
29.195741 30.161102 25.277082 49.000145 0.801660 1.028788 -0.024712 0.001476 -300504.000000 0 0 1
29.250731 31.198702 24.143192 49.110671 0.817612 1.056861 -0.022048 0.002228 -508292.000000 0 0 1
30.559641 31.579502 23.828822 49.989693 0.801809 1.073928 -0.026014 -0.009431 -492712.000000 0 0 1
30.573901 32.373402 22.620572 49.944878 0.813978 1.100769 -0.025084 -0.004487 -380700.000000 0 0 1
31.961461 32.550902 22.009572 50.650937 0.794535 1.121275 -0.018217 -0.014826 -396996.000000 0 0 1
32.726301 33.413002 22.783272 52.024196 0.795780 1.117495 -0.014911 -0.002498 -114760.000000 0 0 1
34.074761 33.540502 22.362472 52.783849 0.777497 1.133313 -0.007586 0.006588 195421.000000 0 0 1
34.718191 -33.935684 23.013572 53.727162 -0.774001 1.128140 0.006940 0.009992 -489029.000000 0 0 1
34.101541 -32.729184 22.711672 52.439819 -0.764866 1.122867 -0.007811 0.007757 141758.000000 0 0 1
34.584611 -31.659684 23.510572 52.451672 -0.741273 1.106009 -0.005758 0.007047 -920677.000000 0 0 1
33.796221 -30.366684 23.328172 51.073708 -0.731999 1.096452 -0.002922 0.006835 90975.900000 0 0 1
32.458201 -30.412884 23.795002 50.444826 -0.752878 1.079575 -0.004424 0.004873 741016.000000 0 0 1
31.498711 -30.737584 22.776672 49.555470 -0.773169 1.093229 -0.004841 0.016088 -187381.000000 0 0 1
30.667011 -32.007984 22.986972 49.933731 -0.806791 1.092407 -0.005143 0.015775 -290512.000000 0 0 1
29.779601 -31.856184 24.074132 49.811695 -0.819077 1.066373 0.003854 0.010857 -55299.400000 0 0 1
29.002091 -33.025484 24.156112 50.152982 -0.850172 1.068261 -0.002823 0.005449 -364061.000000 0 0 1
28.351801 -33.287184 25.507632 50.621147 -0.865297 1.042697 -0.003267 0.002961 -183968.000000 0 0 1
27.976471 34.082802 25.708072 51.041408 0.883478 1.042954 -0.008172 -0.008097 306623.000000 0 0 1
27.394001 33.794102 26.975592 51.187451 0.889616 1.015734 -0.006966 -0.001450 -282054.000000 0 0 1
27.104601 32.287602 27.177402 50.157351 0.872445 0.998168 -0.000069 -0.007523 1591050.000000 0 0 1
26.090011 31.579102 26.345532 48.703341 0.880295 0.999243 -0.002443 -0.006368 2601200.000000 0 0 1
24.733611 32.097302 26.208212 48.258250 0.914252 0.996692 0.004281 -0.009255 1501290.000000 0 0 1
24.066411 31.394602 24.937872 46.762278 0.916769 1.008311 0.024686 -0.012936 178569.000000 0 0 1
24.311711 32.030402 23.685082 46.668930 0.921547 1.038501 0.025981 -0.019735 1445920.000000 0 0 1
25.681411 32.318502 23.259672 47.381777 0.899335 1.057675 0.005898 -0.007167 1176700.000000 0 0 1
25.728811 33.097002 21.979372 47.333667 0.910004 1.087896 0.019225 0.001782 1663950.000000 0 0 1
27.118781 33.187202 21.525672 47.960121 0.885688 1.105347 0.006157 0.008098 1837480.000000 0 0 1
27.082711 33.907902 20.306172 47.911999 0.896840 1.133135 0.012052 -0.000192 187404.000000 0 0 1
28.427371 -34.331984 19.708872 48.736436 -0.879205 1.154477 0.005892 -0.001293 311495.000000 0 0 1
29.380131 33.401602 19.401472 48.531188 0.849366 1.159527 -0.001022 -0.005452 90692.000000 0 0 1
30.437691 33.959302 18.645172 49.267937 0.840030 1.182681 -0.000309 -0.008032 -213142.000000 0 0 1
31.325271 32.922402 17.938872 48.856528 0.810252 1.194827 -0.011622 0.004589 -76139.300000 0 0 1
32.105641 32.104302 18.813172 49.146656 0.785377 1.177975 -0.009409 -0.004999 523474.000000 0 0 1
32.972141 31.214002 18.118972 48.885306 0.758014 1.191096 0.011116 -0.008088 -129010.000000 0 0 1
34.031991 30.479102 18.918672 49.447631 0.730380 1.178187 0.025137 -0.020184 -992035.000000 0 0 1
35.027861 31.320102 19.356172 50.818906 0.729573 1.180043 0.037475 -0.019392 -751157.000000 0 0 1
35.748261 30.675402 20.386372 51.327601 0.709175 1.162353 0.052460 -0.024805 -34699.400000 0 0 1
-34.970591 31.622702 20.903972 51.574350 -0.735167 1.153471 0.081679 -0.025918 -305273.000000 0 0 1
-33.970127 32.022702 19.993272 50.785371 -0.755897 1.166163 0.078607 -0.028234 213540.000000 0 0 1
-32.810037 32.585702 20.582372 50.615813 -0.781968 1.152024 0.065248 -0.025555 121072.000000 0 0 1
-32.768427 33.917002 21.382572 51.781727 -0.802620 1.145120 0.054362 -0.020916 -698720.000000 0 0 1
-33.297657 33.866302 22.667772 52.625928 -0.793864 1.125490 0.052911 -0.017315 181812.000000 0 0 1
-33.270377 -33.661584 23.328872 52.766054 0.791243 1.112837 0.036079 -0.009804 -75904.500000 0 0 1
-33.334907 -33.856784 24.842002 53.615510 0.793165 1.089040 0.044174 -0.013062 -441166.000000 0 0 1
-34.587302 34.352002 25.128992 54.843484 -0.781985 1.094833 0.034877 -0.012372 -742580.000000 0 0 1
-34.681828 33.997402 26.500252 55.325545 -0.775433 1.071295 0.038069 -0.012101 892476.000000 0 0 1
35.706811 33.791002 27.120812 56.145762 0.757839 1.066670 0.019929 -0.018850 560734.000000 0 0 1
35.806433 33.605602 28.508082 56.781580 0.753702 1.044811 0.040505 -0.019445 -61748.400000 0 0 1
34.563071 33.331602 29.125802 56.159718 0.767262 1.025555 0.053359 -0.034286 -236059.000000 0 0 1
34.675171 32.334102 30.269852 56.250561 0.750476 1.002585 0.044907 -0.020800 -325643.000000 0 0 1
34.755641 30.905502 29.992442 55.341225 0.726829 0.998035 0.025062 -0.022792 743740.000000 0 0 1
35.816288 30.433502 29.135732 55.298241 0.704326 1.015867 0.021203 -0.020484 46838.000000 0 0 1
35.675941 28.954202 28.803352 54.228698 0.681768 1.010844 0.032301 -0.017398 -113671.000000 0 0 1
34.472511 28.710402 28.080012 52.925686 0.694452 1.011541 0.020918 -0.007016 491784.000000 0 0 1
34.391241 27.394702 27.545492 51.884307 0.672640 1.011132 0.028908 -0.013817 -34096.600000 0 0 1
34.191661 26.197702 28.468342 51.631732 0.653790 0.986787 0.024608 -0.015178 710598.000000 0 0 1
35.354941 25.913502 29.310342 52.731182 0.632501 0.981418 0.027221 -0.015650 866307.000000 0 0 1
35.215581 24.584402 29.860582 52.308549 0.609457 0.963250 0.025064 -0.010420 95934.100000 0 0 1
35.688521 23.450402 28.878682 51.551626 0.581340 0.976182 0.034121 -0.016204 123380.000000 0 0 1
34.841281 23.423902 27.712972 50.305098 0.591895 0.987357 0.018680 -0.014556 475980.000000 0 0 1
35.432531 22.766602 26.555612 49.789386 0.571109 1.008230 0.019037 -0.020721 -404608.000000 0 0 1
35.342341 21.230902 26.461902 48.990453 0.540950 1.000188 0.013875 -0.021624 103176.000000 0 0 1
34.015481 20.713302 26.377172 47.768703 0.546965 0.985813 0.042120 -0.017258 465549.000000 0 0 1
33.998071 19.422202 26.973802 47.546575 0.519029 0.967557 0.051815 -0.016263 -562780.000000 0 0 1
33.785341 19.470302 28.555102 48.331519 0.522806 0.938725 0.039159 -0.012397 500781.000000 0 0 1
32.628141 20.115602 29.122472 48.138876 0.552471 0.921071 0.033741 -0.010450 693958.000000 0 0 1
32.349521 21.446002 28.796872 48.328898 0.585423 0.932470 0.030539 -0.024703 -386393.000000 0 0 1
31.381071 22.164402 29.801812 48.622838 0.614941 0.911048 0.042498 -0.031950 687744.000000 0 0 1
29.976631 21.929502 29.765702 47.597253 0.631590 0.895196 0.051636 -0.037870 908140.000000 0 0 1
29.231321 22.703902 28.779582 46.884983 0.660370 0.909889 0.037698 -0.040627 226701.000000 0 0 1
29.088401 24.286502 28.931872 47.676225 0.695674 0.918717 0.028408 -0.028442 -1187180.000000 0 0 1
30.320391 24.898502 28.823132 48.683000 0.687523 0.937187 0.018566 -0.015175 -835988.000000 0 0 1
30.367451 26.102502 29.603782 49.798661 0.710015 0.934191 0.001349 -0.009809 63964.600000 0 0 1
30.597731 25.932302 31.129462 50.771536 0.703055 0.910782 0.014028 -0.019437 -294969.000000 0 0 1
31.921491 25.515902 31.358412 51.511094 0.674334 0.916287 0.027606 -0.024152 -132703.000000 0 0 1
32.281031 25.378302 32.779071 52.541323 0.666249 0.897109 0.039115 -0.017516 36534.500000 0 0 1
31.542481 24.265302 33.534991 52.041604 0.655733 0.870573 0.047699 -0.020038 -253016.000000 0 0 1
32.031711 24.152902 -33.761960 52.433417 0.646076 2.270383 0.037168 -0.028812 391036.000000 0 0 1
31.526721 22.990802 -33.118550 51.179581 0.630087 2.274577 0.023361 -0.029756 -235278.000000 0 0 1
32.074551 22.745902 -31.698100 50.506658 0.616845 2.249266 0.015096 -0.029817 -252202.000000 0 0 1
31.743981 23.776802 -30.716100 50.164684 0.642872 2.229769 0.006029 -0.035396 437459.000000 0 0 1
32.244381 23.407802 -29.383730 49.507867 0.627930 2.206217 0.040012 -0.046579 -750587.000000 0 0 1
33.637401 23.892402 -29.080660 50.477782 0.617600 2.184756 0.044322 -0.016281 -843295.000000 0 0 1
34.176831 23.274702 -27.883860 49.872610 0.597866 2.164098 0.044813 -0.022055 -405475.000000 0 0 1
35.089141 24.212602 -27.347220 50.649466 0.604004 2.141152 0.055359 -0.014024 -345884.000000 0 0 1
35.899354 23.654902 -26.220710 50.357161 0.582622 2.118461 0.047988 -0.010155 -384351.000000 0 0 1
-35.008558 22.564502 -26.446080 49.337116 -0.572529 2.136521 0.040942 -0.014840 805471.000000 0 0 1
-35.583359 21.257002 -26.588720 49.244245 -0.538495 2.141157 0.026681 -0.002531 287630.000000 0 0 1
-34.368259 20.347502 -26.926540 48.168835 -0.534549 2.163980 0.039631 0.004280 809243.000000 0 0 1
-33.252967 20.375002 -26.033680 46.889797 -0.549725 2.159412 0.044302 0.002250 185692.000000 0 0 1
-32.310887 19.401902 -26.487610 46.065396 -0.540769 2.183401 0.026767 0.005571 662199.000000 0 0 1
-30.979157 19.576602 -25.666820 44.740778 -0.563566 2.181786 0.027801 0.001366 285514.000000 0 0 1
-31.015057 19.335002 -24.279720 43.878023 -0.557453 2.157172 0.018822 0.004441 146625.000000 0 0 1
-29.820507 19.661002 -23.571920 42.795480 -0.582893 2.154124 0.021413 0.012261 421050.000000 0 0 1
-30.170557 20.150602 -22.163920 42.515276 -0.588849 2.119189 0.015439 0.002965 271077.000000 0 0 1
-30.786997 19.104402 -21.407920 42.084634 -0.555382 2.104456 0.001436 0.005671 18335.600000 0 0 1
-31.376427 19.705802 -20.267820 42.232492 -0.560786 2.071349 0.014097 0.006400 -98612.900000 0 0 1
-32.282467 18.703102 -19.458220 42.078332 -0.525103 2.051529 0.002177 0.006321 313341.000000 0 0 1
-33.017457 19.170902 -18.348720 42.359787 -0.526055 2.018796 0.005310 -0.003089 196325.000000 0 0 1
-34.156913 19.948402 -18.666020 43.738470 -0.528588 2.011708 0.009267 0.000105 -554559.000000 0 0 1
-35.154142 19.891402 -17.514020 44.025249 -0.514918 1.979933 0.009079 -0.009589 -375099.000000 0 0 1
-34.656706 20.684602 -16.435020 43.578090 -0.538095 1.957502 0.007621 -0.015901 587878.000000 0 0 1
-35.500408 20.504902 -15.285520 43.753596 -0.523783 1.927679 0.010264 -0.011914 -377277.000000 0 0 1
-35.316707 21.608702 -14.207620 43.772849 -0.549091 1.901360 0.010069 -0.012453 -410349.000000 0 0 1
-35.795584 22.892502 -14.504920 44.897475 -0.568983 1.899765 0.023546 -0.010556 474102.000000 0 0 1
34.608681 23.008702 -14.456120 44.001598 0.586726 1.905550 0.027185 -0.006853 235092.000000 0 0 1
34.187061 24.508002 -14.885820 44.620455 0.621965 1.910926 0.034612 -0.009919 326723.000000 0 0 1
34.672961 25.513502 -13.928520 45.245516 0.634372 1.883722 0.027111 -0.006345 160946.000000 0 0 1
34.335261 26.875202 -14.263620 45.876328 0.664121 1.886952 0.016596 0.004684 286719.000000 0 0 1
35.466981 27.783502 -14.872120 47.444807 0.664513 1.889632 0.051150 0.000276 576038.000000 0 0 1
35.903103 27.367802 -16.152220 47.947092 0.651307 1.914393 0.052122 -0.003467 90225.000000 0 0 1
-34.790072 28.073702 -16.619620 47.693749 -0.678962 1.926730 0.061890 -0.011110 -671280.000000 0 0 1
-34.415602 27.694802 -18.079120 47.731440 -0.677610 1.959261 0.051052 -0.010897 -37522.700000 0 0 1
-33.925307 26.405902 -18.394920 46.760787 -0.661402 1.975105 0.043019 -0.012623 -190535.000000 0 0 1
-32.629727 26.157802 -17.921820 45.498586 -0.675750 1.975665 0.040124 -0.009045 -650131.000000 0 0 1
-32.012987 24.924102 -18.522720 44.599702 -0.661532 1.999080 0.034382 -0.007173 -360639.000000 0 0 1
-31.695737 25.127602 -19.903220 45.079422 -0.670320 2.028082 0.022814 0.001664 210899.000000 0 0 1
-31.226097 23.878102 -20.450920 44.311094 -0.652833 2.050516 0.017262 0.006741 -34905.100000 0 0 1
-30.844137 24.162002 -21.951820 44.911530 -0.664511 2.081486 0.014847 0.011244 498872.000000 0 0 1
-31.951577 24.375502 -22.834020 46.221866 -0.651699 2.087491 0.034616 0.001767 637043.000000 0 0 1
-31.557977 24.036602 -24.157320 46.446101 -0.650925 2.117782 0.042075 0.008012 712846.000000 0 0 1
-32.654667 24.565702 -25.150600 47.982848 -0.644964 2.122523 0.020107 0.005126 318864.000000 0 0 1
-32.452997 25.990902 -25.305870 48.673515 -0.675276 2.117542 0.010832 0.005472 350550.000000 0 0 1
-33.419367 26.570402 -26.183380 50.084027 -0.671721 2.120916 0.018798 -0.005754 236426.000000 0 0 1
-32.930557 28.012402 -26.529880 50.724263 -0.704872 2.121188 0.006086 -0.000535 209491.000000 0 0 1
-31.802917 28.092602 -27.361440 50.490279 -0.723531 2.143510 0.003540 0.001622 -398183.000000 0 0 1
-31.255787 29.417502 -27.361450 50.901499 -0.755109 2.138310 0.008075 -0.006467 -48869.300000 0 0 1
-29.866337 29.499202 -27.988470 50.453498 -0.779214 2.158844 0.007997 -0.003621 -2503.790000 0 0 1
-28.812177 28.859802 -27.215010 49.027406 -0.786224 2.159277 -0.015710 -0.000572 1277100.000000 0 0 1
-27.547597 28.980802 -27.911000 48.762495 -0.810746 2.180210 0.000362 0.001469 1137870.000000 0 0 1
-26.701067 30.246202 -27.616120 48.892022 -0.847571 2.171034 -0.006376 -0.001237 -401289.000000 0 0 1
-26.017327 30.318502 -26.375010 47.872268 -0.861599 2.154293 -0.008691 0.004497 -275136.000000 0 0 1
-26.878737 30.559502 -25.305490 47.924081 -0.849393 2.127079 -0.010259 0.010111 -385982.000000 0 0 1
-26.229257 31.120602 -24.034320 47.266419 -0.870482 2.104222 -0.025884 0.009934 54090.100000 0 0 1
-25.991787 32.530802 -24.114320 48.117840 -0.896672 2.095725 0.002367 0.010365 769747.000000 0 0 1
-24.771137 32.886202 -23.424420 47.368924 -0.925226 2.088068 0.008060 0.014984 788277.000000 0 0 1
-24.373837 34.338702 -23.730420 48.335942 -0.953519 2.083974 0.010947 0.019181 13560.600000 0 0 1
-25.279517 -33.460384 -23.167420 47.910131 0.923781 2.075514 -0.003109 0.004484 203166.000000 0 0 1
-24.817237 -32.132684 -23.318820 46.820637 0.913153 2.092140 0.006989 -0.001556 -130019.000000 0 0 1
16.522863 8.241802 -25.101720 31.161333 0.462697 2.507384 0.043167 -0.016567 -1092090.000000 0 0 1
15.260263 7.817502 -24.777420 30.131537 0.473422 2.536252 0.042062 -0.010909 -1015270.000000 0 0 1
14.970663 6.672402 -25.516690 30.327268 0.419271 2.570624 0.053949 -0.011103 751247.000000 0 0 1
13.472663 6.229702 -25.323720 29.353239 0.433114 2.611427 0.045646 -0.013646 694054.000000 0 0 1
13.163763 5.865602 -24.017720 28.009656 0.419178 2.601148 0.057120 -0.024107 -257232.000000 0 0 1
11.889263 5.286802 -23.962920 27.267680 0.418413 2.644144 0.051069 -0.027285 -399056.000000 0 0 1
11.078463 5.496202 -22.691720 25.842886 0.460536 2.642599 0.048704 -0.030333 -297019.000000 0 0 1
11.657063 4.849702 -21.577420 24.999836 0.394250 2.612177 0.050432 -0.029057 -119527.000000 0 1 0
11.057963 5.039102 -20.313120 23.670529 0.427583 2.602473 0.051863 -0.030725 -264889.000000 0 1 0
11.191063 6.394502 -19.707920 23.548496 0.519120 2.562405 0.049154 -0.038240 -72196.200000 0 1 0
11.144363 6.438502 -18.298020 22.371157 0.523888 2.528599 0.040126 -0.035278 -530309.000000 0 1 0
11.348463 7.764702 -17.758220 22.459577 0.600048 2.482707 0.049208 -0.036062 -826891.000000 0 1 0
12.761363 8.219302 -17.481020 23.151574 0.572200 2.426555 0.047631 -0.028837 -988610.000000 0 1 0
13.143463 7.597102 -16.318620 22.288202 0.524096 2.392290 0.055790 -0.032217 1304010.000000 0 1 0
14.550963 7.831902 -16.047520 23.034585 0.493769 2.341542 0.059827 -0.032388 1116890.000000 0 1 0
15.053563 7.472702 -14.611620 22.269945 0.460770 2.286454 0.058643 -0.028073 542281.000000 0 1 0
16.484263 7.397502 -14.551620 23.199216 0.421823 2.248809 0.063588 -0.027180 1187850.000000 0 1 0
17.094463 7.831102 -13.341920 23.055447 0.429576 2.187916 0.061487 -0.022818 58274.500000 0 1 0
17.414263 9.335302 -13.208020 23.766704 0.492087 2.160045 0.064403 -0.017806 -410150.000000 0 1 0
16.311863 10.175702 -12.920920 23.164023 0.557752 2.162531 0.061318 -0.019099 333431.000000 0 1 0
16.765763 11.488302 -12.678720 23.954578 0.600740 2.128550 0.072331 -0.024601 174446.000000 0 1 0
15.628363 12.577602 -12.659420 23.721356 0.677657 2.133733 0.072472 -0.018752 88305.800000 0 1 0
14.908563 12.617602 -11.484820 22.657674 0.702361 2.102363 0.067845 -0.011417 -85756.100000 0 1 0
15.378263 13.648302 -10.622220 23.143005 0.725869 2.047645 0.056243 -0.003070 -11176.600000 0 1 0
14.703763 15.023802 -10.877320 23.669207 0.796163 2.048291 0.038285 0.002339 -157092.000000 0 1 0
13.483263 15.242802 -10.226720 22.775583 0.846574 2.036466 0.053770 -0.011480 -13285.200000 0 1 0
13.081263 16.649802 -10.342520 23.564869 0.904854 2.025166 0.050399 -0.008153 692960.000000 0 1 0
11.991863 17.047502 -9.285620 22.817643 0.957767 1.989908 0.044249 -0.006459 545561.000000 0 1 0
12.532463 16.922102 -7.990920 22.522765 0.933340 1.933489 0.046460 -0.011423 95259.900000 0 1 0
11.504963 17.094102 -7.078220 21.787007 0.978396 1.901684 0.038845 -0.016403 -362427.000000 0 1 0
12.004763 17.088602 -5.642220 21.632598 0.958394 1.834668 0.038596 -0.005679 -24126.300000 0 1 0
12.875463 18.148002 -5.340620 22.883394 0.953743 1.806353 0.046994 -0.006718 110278.000000 0 1 0
13.347463 18.000002 -4.013720 22.765429 0.932741 1.748030 0.048037 0.004663 -158203.000000 0 1 0
14.483363 18.995002 -3.694220 24.170750 0.919354 1.724236 0.053936 -0.004601 -252861.000000 0 1 0
15.689363 18.748802 -4.379820 24.836596 0.874004 1.748069 0.058883 -0.014442 132247.000000 0 1 0
16.401963 19.945402 -4.643820 26.237540 0.882579 1.748725 0.052114 -0.016067 -223248.000000 0 0 1
17.637263 19.731702 -5.513020 27.033433 0.841387 1.776170 0.052977 -0.009491 479858.000000 0 0 1
18.877163 19.348902 -4.893720 27.471363 0.797738 1.749891 0.046156 -0.021442 738364.000000 0 0 1
19.143163 18.057202 -5.370920 26.858332 0.756214 1.772126 0.060059 -0.020108 -231637.000000 0 0 1
20.264063 17.211402 -4.746920 27.007366 0.704120 1.747478 0.068738 -0.022871 -393508.000000 0 0 1
21.578363 17.478102 -5.165420 28.245200 0.680798 1.754709 0.057997 -0.027291 78682.400000 0 0 1
22.381863 16.489802 -4.458920 28.155698 0.634966 1.729832 0.066277 -0.024322 -517086.000000 0 0 1
23.871163 16.746202 -4.586520 29.517856 0.611748 1.726810 0.065034 -0.028805 -746128.000000 0 0 1
24.339863 17.906202 -3.986220 30.478696 0.634269 1.701959 0.060336 -0.032445 -111433.000000 0 0 1
25.748563 17.981102 -3.939820 31.651709 0.609607 1.695594 0.054125 -0.029938 9242.080000 0 0 1
26.221563 19.309802 -3.339320 32.735147 0.634746 1.672984 0.057004 -0.025650 -170576.000000 0 0 1
26.267763 20.308002 -4.309320 33.481047 0.658131 1.699864 0.053681 -0.028859 157628.000000 0 0 1
26.066763 21.527502 -3.667220 34.005264 0.690312 1.678849 0.051651 -0.005854 -266482.000000 0 0 1
26.154463 22.817202 -4.536320 35.003697 0.717357 1.700757 0.033967 -0.004522 -399205.000000 0 0 1
27.335663 23.148202 -5.215120 36.197723 0.702641 1.715373 0.037518 0.003125 -121447.000000 0 0 1
27.617463 22.272702 -6.338020 36.041198 0.678675 1.747570 0.041321 -0.001446 -510658.000000 0 0 1
28.724263 22.826502 -7.208720 37.391150 0.671487 1.764803 0.033177 0.003398 -592431.000000 0 0 1
28.194363 23.854002 -8.015320 37.791280 0.702200 1.784514 0.025238 0.003047 115965.000000 0 0 1
29.096163 24.812402 -8.563920 39.186512 0.706101 1.791117 0.008930 0.008746 -164969.000000 0 0 1
30.064563 24.203402 -9.627020 39.778915 0.677811 1.815236 0.010796 -0.001684 -88709.300000 0 0 1
29.477663 23.905602 -10.841920 39.470972 0.681396 1.849054 0.012331 0.002977 257138.000000 0 0 1
30.467663 23.268402 -11.632620 40.062636 0.652217 1.865400 0.005120 -0.003757 467396.000000 0 0 1
29.796563 22.698402 -12.893720 39.614399 0.650997 1.902316 0.014348 -0.004110 158894.000000 0 0 1
29.794763 23.669202 -13.901620 40.511900 0.671322 1.921064 0.012940 0.008025 52298.100000 0 0 1
29.671363 23.082302 -15.147120 40.529220 0.661139 1.953827 0.009403 0.000894 -242701.000000 0 0 1
29.874563 23.995402 -16.387520 41.675168 0.676692 1.974928 0.004669 0.005228 -549707.000000 0 0 1
31.147063 24.499002 -16.674120 42.992638 0.666491 1.969080 0.002289 0.008047 -370681.000000 0 0 1
31.131363 25.164502 -17.950120 43.870499 0.679801 1.992331 0.009133 0.005370 365291.000000 0 0 1
32.570463 25.680302 -18.273320 45.323583 0.667661 1.985780 0.011468 0.002182 455127.000000 0 0 1
33.357063 24.536702 -18.543620 45.371899 0.634207 1.991829 0.020282 -0.001627 -1541190.000000 0 0 1
34.690463 24.853702 -18.445220 46.490438 0.621676 1.978773 0.039221 -0.006658 -1671000.000000 0 0 1
35.637563 23.650002 -18.233620 46.495412 0.585894 1.973774 0.032698 -0.010872 -61283.400000 0 0 1
35.711163 22.806802 -19.371020 46.590490 0.568352 1.999588 0.026421 -0.008452 238511.000000 0 0 1
-35.264086 23.440802 -20.324520 46.969278 -0.586655 2.018303 0.030523 0.002168 -526376.000000 0 0 1
-35.198086 22.763202 -21.706620 47.204301 -0.574064 2.048616 0.031213 -0.007325 70545.800000 0 0 1
-34.582386 21.497402 -21.660220 46.122065 -0.556171 2.059666 0.025703 -0.008290 188162.000000 0 0 1
-34.564386 20.856702 -22.959120 46.441576 -0.542927 2.087901 0.030224 -0.008516 -19425.700000 0 0 1
-34.319586 19.314502 -22.986020 45.598696 -0.512605 2.099129 0.013974 -0.005371 -382344.000000 0 0 1
-35.325586 18.485002 -22.472920 45.767068 -0.482094 2.084066 0.012506 -0.002277 -319938.000000 0 0 1
-35.034886 17.105302 -22.336020 44.932532 -0.454192 2.091051 -0.000244 -0.005763 -887429.000000 0 0 1
35.564363 16.237002 -22.057020 44.888487 0.428290 2.084463 -0.000776 -0.009477 -347967.000000 0 0 1
34.830263 16.183002 -23.287420 44.914816 0.434949 2.115868 0.039097 -0.008262 138792.000000 0 0 1
33.597963 15.502702 -23.243920 43.697102 0.432308 2.131678 0.053581 -0.000968 -157642.000000 0 0 1
33.705963 14.053702 -23.732020 43.552351 0.395033 2.147076 0.024651 -0.012973 -395835.000000 0 0 1
33.893963 13.931202 -25.128150 44.433130 0.389973 2.171869 0.037148 -0.008808 204815.000000 0 0 1
34.263163 12.624002 -25.485700 44.529211 0.353009 2.180149 0.026188 -0.004624 -323511.000000 0 0 1
34.039563 12.354602 -26.972580 45.153606 0.348163 2.210991 0.046253 -0.007481 -227488.000000 0 0 1
32.685263 12.187502 -27.330190 44.314793 0.356906 2.235376 0.042094 -0.011930 -121681.000000 0 0 1
32.178763 13.298602 -28.020010 44.692802 0.391896 2.248424 0.048346 -0.009865 -228630.000000 0 0 1
32.602863 13.576002 -29.506240 46.020351 0.394568 2.266800 0.043683 -0.008843 1620650.000000 0 0 1
34.032263 13.901802 -29.612360 47.205369 0.387803 2.248889 0.044812 -0.007619 1648550.000000 0 0 1
34.511863 13.961102 -30.935140 48.404173 0.384406 2.264125 0.036221 -0.009003 -77208.000000 0 0 1
-35.767586 14.153202 -31.010960 49.409645 -0.376793 2.249301 0.044384 -0.009384 190904.000000 0 0 1
-34.911486 13.102902 -30.651000 48.269884 -0.359049 2.258795 0.039527 -0.007494 16648.000000 0 0 1
-34.919586 12.704802 -29.280150 47.308738 -0.348942 2.238159 0.031593 -0.004100 -939645.000000 0 0 1
-33.824086 11.686802 -28.943280 46.025684 -0.332676 2.250870 0.036310 -0.010668 57585.400000 0 0 1
-34.144286 10.450702 -29.480920 46.305228 -0.297021 2.260962 0.040768 -0.020120 -218321.000000 0 0 1
-33.051786 9.612002 -29.315660 45.213041 -0.283010 2.276263 0.043373 -0.022721 -412677.000000 0 0 1
-33.383786 8.193802 -29.938680 45.584429 -0.240685 2.287329 0.053628 -0.030639 -520343.000000 0 0 1
-33.404286 8.314102 -31.374400 46.575998 -0.243937 2.309889 0.043161 -0.029125 264373.000000 0 0 1
-33.954686 7.208202 -32.086610 47.269752 -0.209183 2.316921 0.050387 -0.030661 -32280.100000 0 0 1
-35.347986 6.603702 -31.815100 48.013432 -0.184691 2.295120 0.045389 -0.016382 -404136.000000 0 0 1
-35.319486 5.832702 -30.642760 47.121813 -0.163664 2.278760 0.047327 -0.026004 -616996.000000 0 0 1
35.254863 5.424902 -30.213680 46.746138 0.152679 2.273568 0.039141 -0.014444 -1155780.000000 0 0 1
35.276463 4.543102 -28.963090 45.868608 0.128081 2.254200 0.056127 -0.021455 -104783.000000 0 0 1
-35.840186 3.337802 -29.146350 46.315976 -0.092862 2.251440 0.070780 -0.021888 293887.000000 0 0 1
35.669563 2.405902 -28.080740 45.460247 0.067348 2.236609 0.079253 -0.017145 39411.300000 0 0 1
-35.238986 1.120402 -27.965080 45.000969 -0.031784 2.241367 0.107713 -0.020284 306393.000000 0 0 1
-33.995086 1.445602 -27.342820 43.650721 -0.042498 2.247723 0.105766 -0.017484 311267.000000 0 0 1
-33.191686 0.265502 -27.344540 43.005609 -0.007999 2.259888 0.105905 -0.022660 1033290.000000 0 0 1
-31.844086 0.372302 -26.528720 41.448250 -0.011691 2.265352 0.091481 -0.019215 1087560.000000 0 0 1
-32.186086 0.406802 -25.151960 40.850101 -0.012638 2.234088 0.084548 -0.014607 1517300.000000 0 0 1
-30.960986 0.516902 -24.355620 39.396016 -0.016694 2.237279 0.091180 -0.004788 1293060.000000 0 0 1
-31.095086 0.165102 -22.848720 38.587507 -0.005310 2.204493 0.074219 0.002248 -547414.000000 0 0 1
-31.224986 -1.259998 -22.639620 38.589374 0.040330 2.197750 0.079618 -0.016725 196198.000000 0 0 1
-31.540586 -1.482598 -21.245020 38.057293 0.046971 2.163057 0.072775 -0.013213 534340.000000 0 0 1
-32.957586 -1.182398 -20.621720 38.895448 0.035861 2.129613 0.066378 -0.012576 779602.000000 0 0 1
-33.917786 -2.196598 -20.920320 39.911165 0.064672 2.122539 0.058036 -0.013465 365024.000000 0 0 1
-35.200486 -1.881498 -20.418320 40.737232 0.053400 2.095805 0.050359 -0.011765 642938.000000 0 0 1
35.703963 -3.126798 -20.044220 41.064834 -0.087353 2.080721 0.050143 -0.014772 -55497.500000 0 0 1
35.248863 -3.950798 -21.097520 41.269801 -0.111617 2.107388 0.045513 -0.008555 129532.000000 0 0 1
-35.697786 -4.351898 -22.175720 42.249657 0.121311 2.123363 0.025975 -0.005898 -487975.000000 0 0 1
35.531063 -5.204098 -23.364420 42.841979 -0.145432 2.147618 0.023838 0.003580 -884890.000000 0 0 1
35.516763 -6.608198 -23.110220 42.885790 -0.183955 2.139901 0.018963 0.009127 385753.000000 0 0 1
34.950663 -7.428298 -24.152120 43.128336 -0.209420 2.165189 0.012728 0.015877 695432.000000 0 0 1
33.430363 -7.268398 -24.465120 42.059016 -0.214087 2.191596 -0.002885 0.024430 116343.000000 0 0 1
33.140063 -6.117998 -25.233170 42.099959 -0.182555 2.213502 0.018895 0.011082 1303820.000000 0 0 1
31.702763 -5.912398 -25.286510 40.980840 -0.184377 2.235762 0.020930 0.013578 1518410.000000 0 0 1
31.134163 -4.729798 -26.116840 40.912057 -0.150764 2.263169 0.043541 -0.018708 110346.000000 0 0 1
31.376563 -4.934498 -27.491120 42.007138 -0.155989 2.284237 0.033219 -0.015373 294432.000000 0 0 1
30.785063 -3.876498 -28.188560 41.920666 -0.125262 2.308278 0.055070 -0.027005 -108918.000000 0 0 1
30.709663 -4.229898 -29.696310 42.928385 -0.136877 2.334725 0.056343 -0.022321 -120403.000000 0 0 1
30.252263 -3.189898 -30.510440 43.084357 -0.105055 2.357679 0.051864 -0.029838 -123268.000000 0 0 1
29.745463 -3.740498 -31.696060 43.628249 -0.125094 2.384016 0.061615 -0.033563 -334918.000000 0 0 1
29.148363 -2.665798 -32.638030 43.840330 -0.091202 2.410545 0.064577 -0.025505 -69220.100000 0 0 1
28.107263 -1.821398 -32.106730 42.710395 -0.064711 2.421479 0.050750 -0.023108 1449970.000000 0 0 1
26.768863 -2.353698 -32.037070 41.814899 -0.087701 2.443647 0.063091 -0.024505 908178.000000 0 0 1
26.066463 -2.570198 -33.406120 42.450386 -0.098284 2.476638 0.058047 -0.024797 -858126.000000 0 0 1
26.599863 -3.694098 -34.111000 43.413816 -0.137994 2.474652 0.070001 -0.027983 -61.597300 0 0 1
26.020663 -3.877198 33.263414 42.409459 -0.147916 0.669166 0.067492 -0.022704 -535905.000000 0 0 1
26.614663 -5.054698 32.476712 42.292163 -0.187686 0.695219 0.063048 -0.029773 650384.000000 0 0 1
27.979163 -4.961598 32.044872 42.829018 -0.175507 0.725444 0.063672 -0.023143 613469.000000 0 0 1
28.124163 -4.135198 30.913432 41.996531 -0.145988 0.743514 0.072712 -0.018577 -695522.000000 0 0 1
28.725263 -2.751898 31.127472 42.445649 -0.095509 0.747561 0.050972 -0.017724 -1035980.000000 0 0 1
30.060563 -2.816598 31.505012 43.636412 -0.093425 0.764124 0.048425 -0.016272 -791354.000000 0 0 1
30.456063 -1.519998 31.905772 44.134572 -0.049867 0.762777 0.038427 -0.008641 669127.000000 0 0 1
31.873063 -1.547598 32.582724 45.606152 -0.048517 0.774977 0.034142 -0.011224 476924.000000 0 0 1
32.916163 -1.796498 31.699122 45.733308 -0.054524 0.804974 0.040931 -0.007089 -566995.000000 0 0 1
34.202363 -1.762898 32.268532 47.054942 -0.051498 0.815145 0.043107 -0.005296 763699.000000 0 0 1
35.291863 -2.356198 31.285612 47.221359 -0.066664 0.846604 0.035235 0.002627 538175.000000 0 0 1
35.533263 -1.619898 30.106252 46.600678 -0.045557 0.868402 0.030120 0.006439 280218.000000 0 0 1
-35.174586 -2.248898 29.461382 45.937807 0.063848 0.874563 0.030209 0.004330 544499.000000 0 0 1
-34.908486 -1.599198 28.031732 44.798860 0.045779 0.894737 0.027958 0.004277 139384.000000 0 0 1
35.876063 -1.780298 27.106022 44.999975 -0.049583 0.924346 0.037500 -0.003986 -307248.000000 0 0 1
-35.462286 -1.263798 25.912312 43.938808 0.035623 0.940064 0.036325 -0.001125 110494.000000 0 0 1
-26.976267 15.219902 12.136380 33.266441 -0.513677 1.197353 0.065563 -0.003678 -335264.000000 0 0 1
-28.112667 14.524502 12.562280 34.045471 -0.476881 1.192879 0.022614 0.010052 88476.900000 0 0 1
-28.659957 15.149702 13.752180 35.214046 -0.486266 1.169588 0.030882 -0.005593 -133849.000000 0 0 1
-30.092947 14.649702 14.004980 36.281382 -0.453044 1.174494 0.039664 -0.003667 46083.200000 0 0 1
-30.815097 15.411002 14.959180 37.561234 -0.463737 1.161176 0.037913 -0.014880 -579474.000000 0 0 1
-32.067077 14.905002 15.280880 38.522225 -0.435099 1.162902 0.036664 0.000721 -790814.000000 0 0 1
-32.845377 15.706402 16.307680 39.892985 -0.446050 1.149673 0.044321 -0.008926 -272990.000000 0 0 1
-32.248297 15.795702 17.617580 39.997950 -0.455467 1.114683 0.031921 -0.002524 -100939.000000 0 0 1
-33.070077 16.391002 18.573080 41.318933 -0.460157 1.104585 0.027231 -0.013052 -9425.280000 0 0 1
-32.297787 16.697002 19.903580 41.449842 -0.477132 1.069931 0.029119 -0.011144 -6145.770000 0 0 1
-31.758597 15.600702 20.585980 40.936206 -0.456605 1.043869 0.037950 -0.014161 261991.000000 0 0 1
-30.567317 15.965602 21.285280 40.525603 -0.481336 1.017810 0.023596 -0.013202 441874.000000 0 0 1
-30.725987 16.756202 22.571280 41.645159 -0.499261 0.997992 0.041242 -0.026171 -680006.000000 0 0 1
-31.445267 17.963202 22.445380 42.606062 -0.519014 1.015951 0.031672 -0.023770 79484.000000 0 0 1
-31.666717 18.641202 23.685580 43.718212 -0.532046 0.998245 0.032575 -0.025790 -1074380.000000 0 0 1
-32.563737 17.997802 24.731080 44.675991 -0.504910 0.984157 0.026619 -0.021984 309150.000000 0 0 1
-33.911727 17.627802 24.439180 45.365385 -0.479373 1.001881 0.055262 -0.031032 433604.000000 0 0 1
-34.800076 18.599002 23.998880 46.183486 -0.490829 1.024364 0.041425 -0.034733 -738028.000000 0 0 1
35.663341 17.930302 23.640780 46.392414 0.465858 1.036096 0.021729 -0.043053 184913.000000 0 0 1
34.961961 17.346602 24.729480 46.203793 0.460568 1.006021 0.033401 -0.034295 -634485.000000 0 0 1
34.032531 16.480802 24.215480 44.902333 0.450981 1.001200 0.038008 -0.027801 -473692.000000 0 0 1
33.461721 15.513702 25.301780 44.727417 0.434127 0.969529 0.041680 -0.013863 40475.900000 0 0 1
32.685161 16.193302 26.292180 44.964669 0.459987 0.946249 0.040145 -0.019034 228149.000000 0 0 1
32.469091 15.481202 27.516880 45.288941 0.444914 0.917780 0.039511 -0.012298 201399.000000 0 0 1
31.496131 14.258202 27.678780 44.287893 0.425094 0.895698 0.034841 -0.006270 -196732.000000 0 0 1
31.935071 13.098802 27.037180 43.845598 0.389243 0.906322 0.035250 -0.004817 -372352.000000 0 0 1
31.186641 11.921402 27.137880 43.025468 0.365120 0.888290 0.028528 -0.000304 -490304.000000 0 0 1
31.917781 10.655802 26.623580 42.908110 0.322217 0.901443 0.021112 0.005291 -139641.000000 0 0 1
32.832711 10.162802 27.591980 44.074787 0.300179 0.894349 0.023728 0.008911 -64199.900000 0 0 1
33.227761 8.852202 27.314980 43.915302 0.260363 0.899512 0.024798 0.009350 249174.000000 0 0 1
34.290021 8.276202 28.326180 45.240176 0.236829 0.894218 0.015902 0.012766 1065500.000000 0 0 1
35.557791 8.941902 28.285980 46.307783 0.246367 0.913693 0.020271 0.011292 474396.000000 0 0 1
-35.237101 8.165502 28.873380 46.281754 -0.227711 0.897123 0.031842 0.007370 1129810.000000 0 0 1
-33.860567 8.954802 28.954380 45.443180 -0.258542 0.879994 0.041508 0.005437 425283.000000 0 0 1
-33.347207 9.361002 27.745980 44.379094 -0.273670 0.895404 0.041656 0.003226 134944.000000 0 0 1
-32.142537 10.061302 28.044980 43.827998 -0.303360 0.876445 0.049428 0.002283 218565.000000 0 0 1
-31.298477 10.668702 26.914180 42.635536 -0.328518 0.887617 0.042149 0.002870 -138549.000000 0 0 1
-30.783947 9.590702 26.189880 41.539653 -0.302018 0.888626 0.042425 0.001995 -462151.000000 0 0 1
-29.882707 10.135102 25.288080 40.437402 -0.326988 0.895199 0.039102 0.001354 -365239.000000 0 0 1
-29.246317 9.037002 24.373780 39.129217 -0.299690 0.898346 0.033351 -0.003771 966770.000000 0 0 1
-28.209547 9.646802 23.543780 37.988800 -0.329503 0.902365 0.030272 -0.011429 666249.000000 0 0 1
-27.541667 8.706802 22.744280 36.764849 -0.306190 0.903783 0.014704 0.000199 -511496.000000 0 0 1
-26.512717 9.370002 21.881880 35.630574 -0.339714 0.909511 0.013403 0.005303 -1195470.000000 0 0 1
-25.330727 9.870602 22.508180 35.294372 -0.371569 0.879252 0.010805 0.001197 904139.000000 0 0 1
-24.413737 10.590502 21.675080 34.321981 -0.409295 0.887282 -0.003590 0.010734 413248.000000 0 0 1
-23.833637 9.875802 20.456780 32.924969 -0.392827 0.900376 -0.012211 0.012859 -1279320.000000 0 0 1
-24.770137 9.582402 19.413580 32.897860 -0.369122 0.939593 -0.013140 0.010542 329937.000000 0 0 1
-24.185837 8.898602 18.323880 31.621265 -0.352555 0.952706 -0.007982 0.009260 -226107.000000 0 0 1
-23.983537 7.380702 18.426280 31.132180 -0.298543 0.937416 -0.000973 0.011952 -119335.000000 0 0 1
-22.902337 6.914902 19.238880 30.699632 -0.293226 0.893509 0.003107 0.007967 761482.000000 0 0 1
-23.131037 5.634402 19.864480 31.006272 -0.238933 0.875439 0.027731 0.003454 -383241.000000 0 0 1
-23.177637 4.355202 18.947980 30.252216 -0.185739 0.893955 0.019902 0.001262 65020.500000 0 0 1
-24.390037 4.234202 18.193080 30.721174 -0.171891 0.937010 0.034807 0.002684 789876.000000 0 0 1
-24.428037 3.312802 17.128980 30.018421 -0.134792 0.963541 0.049560 0.003916 -278947.000000 0 0 1
-24.417737 1.780802 17.534280 30.113919 -0.072802 0.949284 0.050430 0.009174 -217653.000000 0 0 1
-23.182937 1.188602 17.887780 29.305870 -0.051226 0.914253 0.034007 0.008440 212398.000000 0 0 1
-23.298537 -0.076898 18.465380 29.728740 0.003301 0.900614 0.051913 0.003089 71726.700000 0 0 1
-21.972637 -0.897198 18.598380 28.801067 0.040810 0.868787 0.041525 0.007222 -65148.800000 0 0 1
-21.048937 -0.313398 19.453780 28.663662 0.014888 0.824817 0.031673 0.003641 65847.100000 0 0 1
-20.118137 -1.307398 19.883280 28.315959 0.064895 0.792323 0.032703 0.005658 606089.000000 0 0 1
-18.984637 -1.128098 20.942780 28.289381 0.059352 0.737272 0.024260 0.001652 619920.000000 0 0 1
-19.384437 -1.032798 22.290980 29.558600 0.053229 0.716470 0.027276 -0.003070 -539461.000000 0 0 1
-18.282137 -0.777998 23.106880 29.474900 0.042529 0.669792 0.028294 -0.012068 -678879.000000 0 0 1
-18.570037 -0.995998 24.625880 30.858909 0.053583 0.646802 0.033385 -0.011583 383147.000000 0 0 1
-19.290737 0.041802 25.329780 31.839159 -0.002167 0.650874 0.037563 -0.014699 -456419.000000 0 0 1
-20.664137 -0.112498 25.092580 32.506258 0.005444 0.688924 0.076743 -0.025036 -614131.000000 0 0 1
-21.453437 1.022602 25.863280 33.618521 -0.047630 0.693026 0.067169 -0.030012 -192352.000000 0 0 1
-21.286237 2.283802 25.226680 33.086327 -0.106881 0.703705 0.065153 -0.025336 -587270.000000 0 0 1
-22.461737 2.687202 24.632080 33.443834 -0.119069 0.742884 0.050450 -0.017196 -1264330.000000 0 0 1
-22.185037 3.869602 23.646180 32.654119 -0.172687 0.761009 0.048084 -0.009958 633301.000000 0 0 1
-21.515537 3.557702 22.380880 31.248670 -0.163872 0.772428 0.052436 -0.007539 1070560.000000 0 0 1
-20.323837 2.768502 22.389380 30.364573 -0.135386 0.741654 0.043872 -0.009958 -263823.000000 0 0 1
-19.913337 2.385002 21.022880 29.054960 -0.119201 0.761857 0.036034 -0.006582 -34336.000000 0 0 1
-19.295937 3.354102 20.151380 28.100913 -0.172105 0.771153 0.023343 -0.000613 447416.000000 0 0 1
-19.277537 2.848902 18.793580 27.072834 -0.146722 0.803508 0.034745 -0.002509 -174229.000000 0 0 1
-18.645037 3.790702 17.768680 26.033302 -0.200575 0.819569 0.018080 0.000561 -107142.000000 0 0 1
-17.255237 4.053002 17.767080 25.096597 -0.230703 0.784208 0.028477 -0.013497 34806.600000 0 0 1
-16.900137 4.629002 16.585780 24.127378 -0.267346 0.812858 0.031321 -0.010800 1468800.000000 0 1 0
-15.332637 4.979102 16.516380 23.079688 -0.313996 0.773279 0.036959 -0.012996 1245770.000000 0 1 0
-14.991037 5.965802 17.442580 23.760589 -0.378745 0.746460 0.040840 -0.019382 27299.700000 0 1 0
-15.511637 7.325402 17.369080 24.412237 -0.441204 0.779179 0.036972 -0.025324 -620212.000000 0 1 0
-15.162137 8.091402 16.065080 23.525475 -0.490210 0.819098 0.036827 -0.026492 57977.300000 0 1 0
-15.763437 7.704502 14.803380 22.956162 -0.454613 0.869964 0.048138 -0.024482 -227288.000000 0 1 0
-17.124837 7.959402 14.637680 23.892965 -0.435083 0.911405 0.023942 -0.021459 -196374.000000 0 1 0
-17.774937 7.398602 13.295880 23.398037 -0.394426 0.966422 0.035742 -0.015885 216544.000000 0 1 0
-17.709937 6.003402 13.369980 22.987803 -0.326828 0.950088 0.042730 -0.013514 57334.100000 0 1 0
-18.081337 5.413302 12.177780 22.461899 -0.290894 0.997799 0.042642 -0.020668 57000.400000 0 1 0
-17.659337 3.930502 12.021680 21.721460 -0.219004 0.984299 0.025495 -0.016628 -46569.400000 0 1 0
-18.261637 3.207402 13.106380 22.705771 -0.173863 0.955468 0.024040 -0.012930 520139.000000 0 1 0
-17.687237 1.924102 13.357280 22.247639 -0.108359 0.926807 0.015766 -0.009904 -583101.000000 0 1 0
-18.439037 1.170202 14.396680 23.422892 -0.063378 0.908865 0.016342 -0.010505 -637888.000000 0 1 0
-19.775937 0.921402 14.096780 24.303413 -0.046558 0.952027 0.035406 -0.000017 -305457.000000 0 1 0
-20.568137 0.483402 15.189680 25.573586 -0.023498 0.934824 0.031448 -0.002872 -191208.000000 0 0 1
-21.975837 0.112602 14.727880 26.454878 -0.005124 0.980368 0.035270 -0.005839 -578996.000000 0 0 1
-21.949437 -1.036398 13.862780 25.981312 0.047182 1.007983 0.044293 -0.010885 206879.000000 0 0 1
-23.251437 -1.271198 13.375680 26.854312 0.054617 1.049410 0.076652 -0.017179 -70540.100000 0 0 1
-23.366337 -2.264598 12.258280 26.483571 0.096615 1.089573 0.083081 -0.029969 -289808.000000 0 0 1
-23.132037 -3.570798 12.783480 26.669441 0.153157 1.070904 0.070683 -0.022816 373896.000000 0 0 1
-23.306737 -4.606698 11.761480 26.509585 0.195140 1.111108 0.082162 -0.026940 -178704.000000 0 0 1
-23.071737 -6.030298 12.330680 26.846140 0.255652 1.093579 0.066077 -0.021720 343421.000000 0 0 1
-24.216537 -6.337198 13.114180 28.259202 0.255949 1.088215 0.075493 -0.024876 550007.000000 0 0 1
-24.252737 -7.693098 13.472580 28.790440 0.307166 1.083823 0.082877 -0.028967 -536384.000000 0 0 1
-25.208847 -8.016998 14.580580 30.205158 0.307909 1.067040 0.080651 -0.010599 -383795.000000 0 0 1
-26.579197 -7.919698 14.291480 31.199707 0.289590 1.094980 0.076186 -0.018712 -289515.000000 0 0 1
-27.416907 -8.298598 15.333680 32.491157 0.293915 1.079313 0.066592 -0.006140 -706839.000000 0 0 1
-28.891397 -7.910198 15.178580 33.580848 0.267242 1.101789 0.061361 -0.016827 -113007.000000 0 0 1
-29.752317 -8.426898 14.156880 34.009267 0.276006 1.141462 0.057915 -0.016375 651973.000000 0 0 1
-29.929137 -9.858898 14.129680 34.534027 0.318214 1.149271 0.059889 -0.017656 -533264.000000 0 0 1
-30.446047 -10.584398 15.389080 35.718553 0.334575 1.125370 0.055884 -0.011395 -871396.000000 0 0 1
-29.472637 -10.545698 16.375380 35.327060 0.343618 1.088814 0.059169 -0.010966 -246361.000000 0 0 1
-29.845287 -11.073198 17.629980 36.389189 0.355277 1.065023 0.058530 0.005078 80887.300000 0 0 1
-28.600957 -11.081198 18.557680 35.849619 0.369633 1.026690 0.061647 0.012334 275722.000000 0 0 1
-27.588097 -11.980298 18.237080 35.174163 0.409684 1.025725 0.063718 0.011925 -162815.000000 0 0 1
-26.540027 -11.946798 19.195480 34.864961 0.422973 0.987754 0.059205 0.005290 898280.000000 0 0 1
-25.265207 -12.799398 18.840180 34.016285 0.468915 0.983806 0.051029 0.009370 556775.000000 0 0 1
-24.626337 -12.412798 17.655080 32.745013 0.466879 1.001347 0.051175 0.016655 -214966.000000 0 0 1
-23.696837 -13.376198 17.262180 32.224922 0.513886 1.005486 0.041234 0.005022 -138001.000000 0 0 1
-23.154137 -13.226898 15.800080 30.995281 0.519015 1.035893 0.055904 0.001154 137813.000000 0 0 1
-22.229137 -12.170698 15.571680 29.744540 0.500930 1.019826 0.058930 -0.002540 203052.000000 0 0 1
-21.834137 -12.037498 14.191680 28.688581 0.503853 1.053329 0.068078 0.001218 76206.900000 0 0 1
-20.678237 -11.057498 13.990780 27.305671 0.491052 1.032847 0.042434 -0.009270 -557583.000000 0 0 1
-21.109837 -9.709598 13.889680 27.070736 0.431102 1.032017 0.038710 -0.012846 290510.000000 0 0 1
-20.088337 -8.784998 13.562380 25.780916 0.412258 1.016832 0.033230 -0.016496 348229.000000 0 0 1
-19.369337 -8.937898 12.116480 24.532964 0.432331 1.054243 0.032515 -0.007230 -204217.000000 0 1 0
-18.737037 -10.079198 11.719780 24.290328 0.493529 1.067304 0.022365 -0.017009 88080.200000 0 1 0
-18.418637 -10.066998 10.344280 23.400743 0.500203 1.112914 0.023835 -0.011273 -233957.000000 0 1 0
-17.712937 -11.375698 9.809580 23.224610 0.570890 1.134728 -0.000419 -0.010435 1726400.000000 0 1 0
-16.296137 -11.512898 10.105680 22.365949 0.615062 1.101977 0.010433 -0.009562 1499170.000000 0 1 0
-15.865137 -11.769498 11.399580 22.807325 0.638262 1.047404 0.022953 -0.004786 -1014490.000000 0 1 0
-14.373337 -12.051198 11.421080 21.960539 0.697745 1.023860 0.029036 -0.003259 -555899.000000 0 1 0
-14.290137 -13.427698 11.124280 22.544638 0.754293 1.054763 0.033115 -0.008638 -180518.000000 0 1 0
-12.961637 -13.803398 10.891980 21.844291 0.816838 1.048791 0.045959 -0.013482 -244217.000000 0 1 0
-12.805237 -15.322598 10.941180 22.769838 0.874657 1.069558 0.057765 -0.011315 -250161.000000 0 1 0
-12.862037 -15.906198 9.624580 22.606895 0.890823 1.131021 0.027976 -0.011574 29427.000000 0 1 0
-12.569437 -17.261198 9.675480 23.442581 0.941400 1.145346 0.018632 -0.005725 220455.000000 0 1 0
-13.000737 -18.067998 8.385980 23.786475 0.947073 1.210499 0.012816 -0.000882 -216255.000000 0 1 0
-12.246537 -17.687898 7.264580 22.707125 0.965211 1.245146 0.023051 -0.010693 -349683.000000 0 1 0
-12.524037 -18.446798 6.106680 23.117686 0.974353 1.303467 0.010566 0.001038 -636692.000000 0 1 0
-11.724037 -18.124498 4.872780 22.129041 0.996631 1.348778 0.019093 -0.002822 -627920.000000 0 1 0
-12.034337 -18.973698 3.836180 22.793481 1.005563 1.401690 0.032111 -0.000188 710600.000000 0 1 0
-11.113537 -18.767298 2.731280 21.981403 1.036150 1.446220 0.038224 -0.015651 625380.000000 0 1 0
-11.419637 -19.675098 1.528280 22.800291 1.044905 1.503717 0.043782 -0.010938 159585.000000 0 1 0
-11.216337 -21.050498 1.893780 23.927309 1.081231 1.491566 0.044018 -0.017380 -32912.200000 0 1 0
-11.812837 -21.924598 0.906880 24.920946 1.076597 1.534398 0.055947 -0.019127 370597.000000 0 1 0
-10.951537 -22.528798 -0.284820 25.051228 1.118320 1.582166 0.064240 -0.011413 204024.000000 0 0 1
-10.564337 -21.569198 -1.286820 24.051849 1.115352 1.624324 0.049261 -0.015663 449840.000000 0 1 0
-11.505437 -21.247098 -2.355520 24.276794 1.074498 1.667977 0.059304 -0.015593 1239200.000000 0 1 0
-12.644537 -20.198598 -2.012920 23.914839 1.011471 1.655066 0.055702 -0.014373 138478.000000 0 1 0
-13.738837 -20.736098 -1.358520 24.911584 0.985645 1.625357 0.064759 -0.002968 -780127.000000 0 1 0
-14.710937 -19.743398 -1.173220 24.649339 0.930434 1.618411 0.061163 0.009991 -189609.000000 0 1 0
26.306063 -20.083398 -4.201320 33.361698 -0.652055 1.697064 0.053704 -0.018641 -215677.000000 0 0 1
24.989763 -20.330098 -3.748820 32.432311 -0.682941 1.686644 0.050192 -0.011982 228054.000000 0 0 1
25.075963 -21.453598 -2.919520 33.129811 -0.707704 1.659034 0.039374 -0.006955 -10816.900000 0 0 1
23.790563 -21.644398 -2.085820 32.230754 -0.738197 1.635557 0.033876 -0.009481 -99975.100000 0 0 1
22.715963 -22.058198 -2.889320 31.795082 -0.770709 1.661795 0.042840 -0.018228 -737231.000000 0 0 1
21.704763 -22.660698 -2.145620 31.451672 -0.806942 1.639069 0.037442 -0.009932 -1269450.000000 0 0 1
20.644363 -23.195198 -3.014320 31.197645 -0.843518 1.667567 0.033100 -0.017715 -1226630.000000 0 0 1
19.941263 -22.315098 -3.810320 30.168462 -0.841516 1.697436 0.038061 -0.023809 -161141.000000 0 0 1
18.913963 -23.044498 -4.478520 30.147040 -0.883525 1.719904 0.037286 -0.018744 310309.000000 0 0 1
17.912763 -22.128798 -5.263120 28.952568 -0.890303 1.753597 0.024297 -0.011698 650394.000000 0 0 1
16.808563 -21.623198 -4.472620 27.750582 -0.910026 1.732675 0.023180 -0.006755 963924.000000 0 0 1
17.166163 -20.505898 -3.664920 26.992603 -0.873820 1.706992 0.024305 -0.012103 -79049.300000 0 0 1
16.052763 -20.122098 -2.651320 25.877008 -0.897418 1.673435 0.037596 -0.005598 84500.900000 0 0 1
15.810363 -21.150598 -1.696720 26.461183 -0.928888 1.634961 0.044102 -0.009302 42636.500000 0 0 1
15.267063 -20.579498 -0.521820 25.629499 -0.932527 1.591158 0.067387 -0.001964 -213609.000000 0 0 1
14.814363 -21.537598 0.599980 26.147532 -0.968280 1.547848 0.047525 -0.002210 -641105.000000 0 0 1
13.590763 -22.182098 0.461180 26.018589 -1.021098 1.553070 0.045218 -0.008646 -786303.000000 0 0 1
13.245163 -22.649998 1.713180 26.294329 -1.041647 1.505596 0.047406 -0.000233 -273977.000000 0 0 1
12.158763 -23.722098 1.706780 26.711169 -1.097159 1.506855 0.048563 -0.009681 -340051.000000 0 0 1
12.627563 -25.057168 1.683780 28.109645 -1.103994 1.510860 0.043832 -0.007388 -18164.100000 0 0 1
11.592363 -25.996718 1.567780 28.507370 -1.151344 1.515773 0.046370 -0.008758 -158931.000000 0 0 1
12.062963 -27.406318 2.033580 30.012610 -1.156162 1.502987 0.049920 -0.007485 -25049.100000 0 0 1
12.258763 -27.391468 3.423180 30.204105 -1.149990 1.457217 0.059795 -0.013960 162026.000000 0 0 1
12.394563 -28.705868 3.975280 31.519120 -1.163199 1.444337 0.059571 -0.018189 -94472.600000 0 0 1
12.526063 -28.816068 5.524180 31.902736 -1.160747 1.396762 0.077176 -0.011042 -153719.000000 0 0 1
12.102163 -30.042768 6.049680 32.948883 -1.187852 1.386141 0.054672 -0.013120 18657.800000 0 0 1
12.325163 -30.096118 7.431980 33.360460 -1.182104 1.346133 0.065429 -0.007603 132883.000000 0 0 1
11.925563 -31.450518 8.035780 34.582190 -1.208362 1.336285 0.053665 -0.009795 -104323.000000 0 0 1
11.941163 -31.585608 9.448080 35.064344 -1.209348 1.297975 0.050858 -0.002969 -195592.000000 0 0 1
11.094263 -32.615388 9.893880 35.843201 -1.242920 1.291133 0.047047 -0.002009 68318.900000 0 0 1
10.983063 -32.846248 11.420980 36.468376 -1.248106 1.252262 0.048054 -0.004634 -400217.000000 0 0 1
12.186963 -33.368408 11.908480 37.467114 -1.220623 1.247348 0.040943 -0.004617 -199984.000000 0 0 1
12.173963 -33.756438 13.321480 38.277465 -1.224673 1.215334 0.042887 -0.002983 554045.000000 0 0 1
11.074463 33.959030 13.853680 38.311668 1.255559 1.200808 0.047820 -0.010230 366378.000000 0 0 1
11.157963 32.644837 13.230480 36.949034 1.241446 1.204592 0.049521 -0.011345 -171573.000000 0 0 1
10.061563 31.817377 13.507480 36.000452 1.264518 1.186181 0.049095 -0.006134 -273141.000000 0 0 1
10.021463 30.601377 12.496580 34.540389 1.254319 1.200602 0.049624 -0.005648 80731.100000 0 0 1
9.629063 30.871727 11.119980 34.197022 1.268453 1.239601 0.034659 -0.006112 469247.000000 0 0 1
10.620863 31.580747 10.365080 34.893856 1.246371 1.269199 0.024562 -0.008333 345153.000000 0 0 1
10.141963 31.893007 8.945680 34.641716 1.262909 1.309602 0.029004 -0.007636 -387240.000000 0 0 1
9.039863 32.738271 8.950780 35.123069 1.301384 1.313114 0.034538 -0.006682 -746548.000000 0 0 1
8.454363 32.819229 7.674180 34.748685 1.318674 1.348112 0.024296 -0.002430 -352571.000000 0 0 1
8.887063 34.042225 6.753380 35.825426 1.315436 1.381154 0.021795 0.002785 -592.036000 0 0 1
8.328763 -33.448588 7.192980 35.212431 -1.326757 1.365074 0.037950 0.000314 216969.000000 0 0 1
8.870463 -32.336308 6.490880 34.153381 -1.303063 1.379582 0.046427 -0.001111 -331567.000000 0 0 1
8.112763 -31.067808 6.825080 32.826930 -1.315369 1.361358 0.042569 0.000065 -238596.000000 0 0 1
8.213063 -30.756048 8.194080 32.871444 -1.309846 1.318863 0.054633 -0.005324 -80823.800000 0 0 1
7.772763 -29.449028 8.549380 31.634680 -1.312742 1.297140 0.061217 -0.002082 -170799.000000 0 0 1
8.758163 -28.312448 8.262780 30.766437 -1.270793 1.298894 0.058011 -0.009032 -184819.000000 0 0 1
8.607563 -27.273938 9.205880 30.045067 -1.265093 1.259385 0.052372 -0.003994 252141.000000 0 0 1
9.498063 -26.182728 8.921180 29.246126 -1.222799 1.260818 0.074218 -0.011972 207808.000000 0 0 1
9.038663 -25.147238 7.869780 27.857036 -1.225746 1.284391 0.041862 -0.010687 -246764.000000 0 0 1
9.031263 -25.654438 6.531580 27.970975 -1.232310 1.335108 0.042689 -0.007058 -314541.000000 0 0 1
8.538863 -24.739098 5.632080 26.770422 -1.238443 1.358828 0.045294 -0.004814 -286429.000000 0 0 1
8.686263 -25.262368 4.164680 27.036697 -1.239618 1.416143 0.039774 -0.008392 249143.000000 0 0 1
7.861863 -26.390718 3.842180 27.803619 -1.281265 1.432163 0.056504 -0.010578 -7583.340000 0 0 1
8.110763 -27.623728 4.528680 29.143846 -1.285207 1.414773 0.056213 -0.004789 -422878.000000 0 0 1
7.185363 -28.728828 4.068580 29.891944 -1.325714 1.434263 0.045901 -0.008429 -1298510.000000 0 0 1
5.906463 -28.587588 4.580880 29.548620 -1.367054 1.415140 0.037794 -0.000010 -698766.000000 0 0 1
4.903963 -29.373358 3.931280 30.038275 -1.405369 1.439544 0.037104 -0.000239 485102.000000 0 0 1
4.883863 -30.893958 4.154580 31.552326 -1.414009 1.438740 0.046861 -0.005784 -181898.000000 0 0 1
5.738063 -31.615408 3.251580 32.296009 -1.391255 1.469945 0.052262 -0.014191 216821.000000 0 0 1
5.702763 -32.984448 3.547980 33.661305 -1.399596 1.465198 0.049338 -0.012265 259725.000000 0 0 1
7.004763 -33.674048 3.059680 34.530709 -1.365704 1.482072 0.040889 -0.004044 106802.000000 0 0 1
7.069063 -33.808928 1.669780 34.580391 -1.364677 1.522491 0.058397 -0.010291 27855.100000 0 0 1
8.020563 33.945780 1.272880 34.903662 1.338776 1.534320 0.040371 -0.005660 -492286.000000 0 0 1
7.635463 33.214848 -0.071120 34.081248 1.344841 1.572883 0.050093 -0.006748 48194.900000 0 0 1
6.563363 32.308797 -0.050920 32.968753 1.370379 1.572341 0.047071 -0.009842 224273.000000 0 0 1
5.271063 32.932924 0.000980 33.352085 1.412088 1.570767 0.056295 -0.021081 200653.000000 0 0 1
4.170163 31.898147 0.310880 32.171085 1.440800 1.561133 0.055023 -0.021947 -209415.000000 0 0 1
3.892463 30.892827 -0.665720 31.144200 1.445458 1.592173 0.064154 -0.018267 489124.000000 0 0 1
2.652563 30.271247 -0.300120 30.388724 1.483393 1.580673 0.056132 -0.024284 512917.000000 0 0 1
2.306663 29.125207 -1.269420 29.243971 1.491763 1.614218 0.047195 -0.019246 -55451.400000 0 0 1
1.910063 29.643267 -2.528220 29.812137 1.506450 1.655703 0.045860 -0.026118 -11914.300000 0 0 1
1.632963 28.649967 -3.499320 28.909037 1.513861 1.692140 0.044450 -0.020337 -210113.000000 0 0 1
1.453363 29.238457 -4.914420 29.684191 1.521130 1.737119 0.035508 -0.025838 959772.000000 0 0 1
0.188863 29.912057 -5.146820 30.352209 1.564482 1.741190 0.037191 -0.023605 896437.000000 0 0 1
0.038963 30.632297 -6.406020 31.294988 1.569524 1.776951 0.021423 -0.008950 -118439.000000 0 0 1
-0.020737 29.816197 -7.791320 30.817377 -1.570101 1.826393 0.009826 -0.006958 -128098.000000 0 0 1
-1.341937 29.377777 -8.044720 30.488885 -1.525149 1.837816 0.015370 -0.004401 129835.000000 0 0 1
-1.614637 29.011167 -9.414520 30.543217 -1.515198 1.884135 0.018359 -0.010782 131249.000000 0 0 1
-1.770437 30.054137 -10.534420 31.896075 -1.511956 1.907389 0.010511 -0.016866 -158950.000000 0 0 1
-0.490037 30.596947 -10.820120 32.457485 -1.554782 1.910665 0.004943 -0.015959 142800.000000 0 0 1
-0.403637 31.821947 -11.458520 33.824502 -1.558113 1.916399 -0.010054 -0.016860 36320.400000 0 0 1
-0.646137 32.988477 -10.484920 34.620668 -1.551212 1.878480 -0.010341 -0.001559 -211332.000000 0 0 1
0.415163 33.075377 -9.589720 34.440030 1.558245 1.852973 -0.012678 -0.009571 -318965.000000 0 0 1
0.023863 34.087798 -8.619820 35.160772 1.570096 1.818475 0.000610 0.000675 156740.000000 0 0 1
1.041063 -34.255844 -7.506420 35.084085 -1.540415 1.786418 0.021538 -0.007411 73835.100000 0 0 1
1.972263 -33.273758 -7.916820 34.259434 -1.511592 1.803988 0.037369 -0.003832 -273862.000000 0 0 1
2.761463 -32.845298 -6.836720 33.662740 -1.486919 1.775314 0.044958 -0.016515 -1162200.000000 0 0 1
4.029563 -32.100198 -7.247920 33.154071 -1.445919 1.791189 0.034204 -0.013317 166540.000000 0 0 1
4.972863 -32.906888 -7.965320 34.220447 -1.420812 1.805716 0.038971 -0.003801 330324.000000 0 0 1
5.741663 -33.766938 -7.159920 34.991960 -1.402369 1.776868 0.062785 -0.002442 -1138110.000000 0 0 1
6.210663 33.726239 -7.924920 35.197101 1.388687 1.797902 0.062097 0.001577 -262695.000000 0 0 1
5.320363 32.686687 -8.128720 34.099881 1.409443 1.811493 0.047430 0.000194 66891.100000 0 0 1
4.161363 32.888955 -8.960420 34.340784 1.444937 1.834778 0.040764 -0.005656 950574.000000 0 0 1
3.327463 31.590287 -9.252120 33.085042 1.465851 1.854222 0.022688 -0.012767 121386.000000 0 0 1
3.961163 30.700967 -10.122220 32.568383 1.442481 1.886830 0.032336 -0.010843 -118807.000000 0 0 1
3.058063 29.678867 -10.450320 31.613227 1.468120 1.907702 0.018062 -0.011568 79785.500000 0 0 1
3.688163 28.633177 -11.371220 31.028471 1.442694 1.946016 0.020724 -0.012553 -169651.000000 0 0 1
3.706463 29.110257 -12.663920 31.961224 1.444153 1.978201 0.028806 -0.016444 -148018.000000 0 0 1
4.868863 28.703997 -13.339520 32.024492 1.402772 2.000434 0.038982 -0.023185 -114535.000000 0 0 1
5.104363 29.120387 -14.782920 33.054292 1.397274 2.034464 0.045098 -0.020147 -688988.000000 0 0 1
4.147263 28.551067 -15.581220 32.789292 1.426548 2.065979 0.045091 -0.019542 -447191.000000 0 0 1
4.191963 29.075267 -16.872920 33.876823 1.427607 2.092164 0.066342 -0.017976 293272.000000 0 0 1
3.118263 28.382777 -17.738920 33.615099 1.461371 2.126695 0.052947 -0.015403 544029.000000 0 0 1
3.679263 27.144067 -18.186220 32.879720 1.436072 2.156893 0.063826 -0.009603 137185.000000 0 0 1
2.830363 26.607647 -19.173420 32.918048 1.464821 2.192547 0.071989 -0.015807 62137.500000 0 0 1
3.316963 25.380617 -19.932320 32.441877 1.440844 2.232423 0.075986 -0.009727 17540.900000 0 0 1
3.339863 24.231527 -19.104320 31.037021 1.433828 2.233859 0.081157 -0.014626 464421.000000 0 0 1
4.251563 23.221787 -19.614820 30.693132 1.389717 2.264075 0.075423 -0.013154 760162.000000 0 0 1
4.780463 22.278287 -18.520420 29.362917 1.359422 2.253305 0.078551 -0.012083 -228130.000000 0 0 1
3.840363 21.275787 -18.196720 28.258240 1.392215 2.270438 0.100755 -0.011053 -362065.000000 0 0 1
4.394763 20.073187 -17.724420 27.136725 1.355260 2.282537 0.088954 -0.013948 447052.000000 0 0 1
3.277763 18.978387 -17.556820 26.060791 1.399773 2.309983 0.072113 -0.019957 297599.000000 0 0 1
2.496563 19.075287 -16.423820 25.295084 1.440657 2.277446 0.076674 -0.024238 -1177380.000000 0 0 1
1.709963 17.948587 -16.288020 24.297641 1.475813 2.305482 0.045057 -0.012671 -338002.000000 0 1 0
2.273263 16.687987 -15.570120 22.936549 1.435408 2.316971 0.037231 -0.014452 313147.000000 0 1 0
3.365963 15.947687 -16.107920 22.915574 1.362786 2.350297 0.053241 -0.016259 159639.000000 0 1 0
3.018863 15.014287 -17.193720 23.025342 1.372376 2.413929 0.050837 -0.014181 167299.000000 0 1 0
2.780363 15.579587 -18.602520 24.423508 1.394194 2.436674 0.035502 -0.015450 198971.000000 0 1 0
4.004063 15.888187 -19.268620 25.293215 1.323922 2.436899 0.053673 -0.011212 167790.000000 0 0 1
3.782563 16.336787 -20.536520 26.513149 1.343269 2.456845 0.031053 -0.016873 -262509.000000 0 0 1
4.272063 15.313887 -21.617620 26.834440 1.298746 2.507471 0.046629 -0.030049 295770.000000 0 0 1
3.509663 14.123387 -21.878920 26.276890 1.327230 2.554635 0.038509 -0.021771 467780.000000 0 0 1
2.219063 14.431187 -22.431820 26.765089 1.418223 2.564587 0.035335 -0.021334 421963.000000 0 0 1
1.471063 13.157887 -22.873920 26.429345 1.459458 2.616893 0.034720 -0.023040 -87901.500000 0 0 1
0.814363 12.534587 -21.778020 25.140828 1.505918 2.618426 0.034584 -0.020301 -138461.000000 0 0 1
0.115463 11.423087 -22.250720 25.011893 1.560689 2.667277 0.032323 -0.016100 -417459.000000 0 0 1
-0.466337 10.550187 -21.124020 23.616692 -1.526623 2.678003 0.023088 -0.020711 -1254470.000000 0 1 0
-1.572137 11.226687 -20.621020 23.531609 -1.431665 2.638948 0.026006 -0.012668 -436032.000000 0 1 0
-2.330537 10.538287 -19.628720 22.400303 -1.353150 2.638862 0.024835 -0.007238 242795.000000 0 1 0
-3.316637 9.491287 -20.129420 22.500626 -1.234620 2.678367 0.035786 -0.007306 -768365.000000 0 1 0
-2.649137 8.374887 -20.640820 22.432123 -1.264436 2.739249 0.027499 -0.012022 -779462.000000 0 1 0
-3.564137 7.389787 -20.971620 22.519345 -1.121404 2.768683 0.027313 -0.004569 -450966.000000 0 1 0
-3.012737 6.237187 -21.820420 22.893445 -1.120818 2.834213 0.021594 -0.009714 122415.000000 0 1 0
-2.255037 5.300087 -21.047720 21.821610 -1.168526 2.874475 0.026464 -0.007498 -47299.600000 0 1 0
-2.014637 4.160487 -21.831420 22.315451 -1.119843 2.932934 0.026452 -0.007931 -615526.000000 0 1 0
-1.355337 3.017687 -21.147820 21.404992 -1.148665 2.986424 0.026439 -0.005953 135016.000000 0 1 0
0.032763 3.228687 -20.919720 21.167432 1.560649 2.988456 0.022760 -0.008329 22359.500000 0 1 0
0.638663 2.345887 -20.039720 20.186666 1.304991 3.020860 0.024119 -0.010988 99853.500000 0 1 0
2.180163 2.429087 -20.046620 20.310602 0.839351 2.980189 0.024735 -0.013850 342428.000000 0 1 0
2.866163 1.818287 -21.151720 21.422333 0.565329 2.982477 0.035752 -0.018780 -88410.800000 0 1 0
4.261363 1.969587 -21.066120 21.582862 0.432950 2.922329 0.044424 -0.017421 -152790.000000 0 1 0
4.993863 1.119787 -22.090920 22.676008 0.220584 2.913936 0.045072 -0.015880 -1215640.000000 0 1 0
6.366763 1.120787 -22.041620 22.970086 0.174252 2.856300 0.038679 -0.015466 -1162820.000000 0 1 0
6.897163 0.553687 -23.226320 24.235086 0.080106 2.852054 0.040588 -0.012022 507933.000000 0 1 0
8.448863 0.395987 -23.238620 24.730013 0.046834 2.792528 0.038989 -0.017757 640138.000000 0 1 0
9.089763 1.652087 -23.340820 25.102730 0.179790 2.764698 0.035834 -0.022057 -1112020.000000 0 0 1
10.455663 1.532287 -23.461920 25.731896 0.145515 2.718403 0.037088 -0.009763 -1143560.000000 0 0 1
13.899963 -21.082598 22.635072 33.912113 -0.987904 0.840000 0.030318 0.008062 491071.000000 0 0 1
12.880363 -22.130398 22.719672 34.232174 -1.043701 0.845051 0.018701 0.018076 1129550.000000 0 0 1
11.548163 -21.751998 22.395072 33.287366 -1.082734 0.832836 0.014670 0.014590 529925.000000 0 0 1
11.257263 -21.410498 20.923272 31.983100 -1.086736 0.857675 0.024633 0.002992 -663333.000000 0 0 1
11.523463 -20.095398 20.543772 30.962264 -1.050137 0.845296 0.021875 -0.002032 210507.000000 0 0 1
10.897963 -19.770898 19.287372 29.692705 -1.067023 0.863783 0.045648 0.000489 289503.000000 0 0 1
11.347663 -18.376198 18.791172 28.627997 -1.017594 0.854771 0.048366 -0.014498 421573.000000 0 0 1
10.525163 -17.309698 19.325372 27.997762 -1.024479 0.808966 0.059407 -0.019803 317014.000000 0 0 1
10.663163 -16.099698 18.653572 26.848819 -0.985809 0.802706 0.061059 -0.017327 513628.000000 0 0 1
9.581663 -15.099998 19.211072 26.246590 -1.005361 0.749624 0.066190 -0.015991 1487520.000000 0 0 1
8.239663 -15.324198 18.777372 25.599078 -1.077454 0.747313 0.060963 -0.013315 463827.000000 0 0 1
7.274463 -14.359598 19.142472 25.010999 -1.101889 0.699193 0.041734 -0.003935 698052.000000 0 0 1
5.844863 -14.637798 18.603672 24.382866 -1.190894 0.702884 0.007808 0.001427 188473.000000 0 1 0
5.573063 -14.600198 17.202172 23.240902 -1.206155 0.737476 -0.006433 0.003544 -95127.800000 0 1 0
4.221963 -14.850498 16.881772 22.876986 -1.293807 0.740788 -0.014737 0.005166 -210732.000000 0 1 0
3.675063 -16.259098 16.782072 23.653801 -1.348501 0.782026 -0.007198 0.003825 382144.000000 0 1 0
2.371163 -16.263798 16.172972 23.058590 -1.426022 0.793456 0.003169 -0.001305 595711.000000 0 1 0
1.735563 -17.530598 16.415172 24.078869 -1.472116 0.820678 0.012806 -0.004972 681576.000000 0 1 0
0.229563 -17.533398 16.033572 23.760223 -1.557704 0.830093 0.031989 -0.001754 249384.000000 0 1 0
-0.015337 -17.504198 14.641672 22.820511 1.569920 0.874212 0.030965 -0.000138 562001.000000 0 1 0
-1.433137 -17.587098 14.438172 22.799577 1.489488 0.885032 0.031542 0.001365 720255.000000 0 1 0
-1.952637 -18.066498 13.051572 22.373079 1.463134 0.947936 0.030870 -0.014322 508846.000000 0 1 0
-3.365837 -18.247698 13.137372 22.735388 1.388394 0.954719 0.024608 -0.017835 253885.000000 0 1 0
-3.829437 -19.397898 12.392072 23.334663 1.375888 1.010947 0.050324 -0.025241 130408.000000 0 1 0
-5.369337 -19.492798 12.397372 23.716952 1.302010 1.020756 0.041518 -0.026296 -359414.000000 0 1 0
-5.871237 -20.070398 13.597972 24.943880 1.286205 0.994237 0.027484 -0.018166 -178402.000000 0 1 0
-6.006537 -21.511798 13.516372 26.106096 1.298510 1.026580 -0.010848 -0.001277 125638.000000 0 0 1
-6.851337 -22.145598 14.708772 27.453894 1.270759 1.005386 -0.001799 0.002306 655041.000000 0 0 1
-8.236737 -21.856698 14.661272 27.577382 1.210403 1.010259 0.006601 0.008068 -33443.100000 0 0 1
-8.892237 -22.503798 15.753372 28.873198 1.194483 0.993685 0.016311 0.005194 27699.300000 0 0 1
-10.376437 -22.112898 15.793772 29.087694 1.132051 0.996825 0.038296 0.004093 -131352.000000 0 0 1
-10.493237 -20.728298 16.187272 28.316040 1.102179 0.962263 0.028825 0.005658 -1117980.000000 0 0 1
-11.809337 -20.327898 16.332872 28.625978 1.044508 0.963607 0.048430 -0.004843 -845633.000000 0 0 1
-12.033037 -19.159998 17.283572 28.471413 1.010022 0.918453 0.051615 -0.001261 -495138.000000 0 0 1
-12.310237 -19.612298 18.605072 29.704089 1.010273 0.893938 0.055764 -0.002684 -18229.400000 0 0 1
-12.889037 -18.590298 19.366872 29.779224 0.964567 0.862753 0.054890 -0.004084 -81202.000000 0 0 1
-13.541537 -19.114998 20.685672 31.251454 0.954439 0.847431 0.055285 -0.013542 -17927.300000 0 0 1
-14.703937 -19.888298 20.508472 32.130166 0.934162 0.878517 0.039751 -0.014864 -60174.600000 0 0 1
-15.197937 -20.513698 21.675272 33.490394 0.933166 0.866879 0.044848 -0.001836 264414.000000 0 0 1
-16.574937 -21.167998 21.392672 34.357810 0.906496 0.898680 0.054059 -0.008388 -811591.000000 0 0 1
-16.420437 -22.322198 20.612172 34.536545 0.936568 0.931262 0.060485 -0.005405 8557.890000 0 0 1
-17.646737 -22.783298 20.120972 35.147397 0.911769 0.961276 0.044558 0.001422 9125.060000 0 0 1
-18.695837 -23.326198 21.127672 36.606343 0.895144 0.955551 0.041924 -0.008698 -906862.000000 0 0 1
-19.298137 -22.336198 21.869872 36.737109 0.858239 0.933148 0.059154 -0.010585 -653117.000000 0 0 1
-20.261137 -22.878098 22.730372 38.086623 0.845987 0.931280 0.029745 -0.009657 -255062.000000 0 0 1
-20.585337 -22.008498 23.931842 38.481985 0.818798 0.899633 0.020184 0.004844 -554851.000000 0 0 1
-21.404137 -21.002898 23.465072 38.077138 0.775937 0.906823 0.016582 0.010023 -273150.000000 0 0 1
-21.752037 -20.007898 24.437762 38.349333 0.743657 0.879884 0.018487 -0.000633 -159470.000000 0 0 1
-22.730137 -19.054598 23.737632 37.989630 0.697660 0.895863 0.021063 -0.000802 -268264.000000 0 0 1
-22.207037 -18.350298 22.613372 36.623088 0.690590 0.905284 0.021894 -0.000049 362490.000000 0 0 1
-23.158537 -17.371498 22.161072 36.458194 0.643573 0.917448 0.021050 0.004843 348929.000000 0 0 1
-22.702037 -16.684698 20.830472 35.038125 0.633795 0.934142 0.020465 0.010494 -418833.000000 0 0 1
-21.632437 -15.809598 20.822672 33.933603 0.631118 0.910147 0.021558 0.010889 -873841.000000 0 0 1
-21.254837 -15.527398 19.507772 32.763110 0.630927 0.933009 0.026273 0.010987 203263.000000 0 0 1
-20.220337 -14.382398 19.362372 31.474067 0.618259 0.908176 0.025698 -0.000751 56385.500000 0 0 1
-19.835337 -14.343198 18.034672 30.404232 0.626070 0.935814 0.027073 -0.002702 -142148.000000 0 0 1
-18.972937 -13.299998 17.658672 29.132302 0.611396 0.919580 0.030084 -0.011396 -509683.000000 0 0 1
-18.486237 -13.311498 16.190472 27.947600 0.624073 0.952908 0.017303 -0.014535 71267.200000 0 0 1
-18.122637 -12.040798 15.647972 26.800557 0.586436 0.947312 0.013829 -0.009190 307149.000000 0 0 1
-16.878237 -11.543298 16.129872 26.044105 0.599850 0.902908 0.016481 -0.019871 -241518.000000 0 0 1
-16.354137 -10.319998 15.413172 24.729053 0.562926 0.897864 0.018677 -0.012625 4468.540000 0 1 0
-17.052337 -9.088298 15.676972 24.882661 0.489670 0.889197 0.025384 -0.010404 404536.000000 0 1 0
-16.619937 -8.038998 14.803272 23.663995 0.450520 0.894946 0.016019 -0.003911 -444425.000000 0 1 0
-16.927937 -6.628698 15.410272 23.832146 0.373230 0.867655 0.027034 0.000336 538596.000000 0 1 0
-16.245937 -6.217998 16.634572 24.068713 0.365541 0.807747 0.026475 0.002304 64066.800000 0 1 0
-14.850737 -6.125098 16.540672 23.057646 0.391188 0.770788 0.024633 -0.002574 -465062.000000 0 1 0
-14.009737 -6.137798 17.837372 23.497173 0.412922 0.708823 0.021959 0.003432 126123.000000 0 1 0
-13.771837 -7.383298 18.519872 24.231431 0.492121 0.700855 0.012488 -0.009589 69634.600000 0 1 0
-13.394137 -8.547598 17.782172 23.846802 0.568007 0.729236 0.027745 -0.004040 -386020.000000 0 1 0
-13.356037 -9.750198 18.794772 25.033848 0.630592 0.721563 0.029591 -0.010022 627903.000000 0 0 1
-14.606437 -10.318098 19.211972 26.247115 0.615013 0.749595 0.026800 -0.010291 626199.000000 0 0 1
-15.288537 -9.510798 20.228472 27.081095 0.556502 0.727320 0.011657 -0.010811 -358640.000000 0 0 1
-16.645837 -10.152898 20.674672 28.418432 0.547693 0.756112 0.000276 -0.003989 662610.000000 0 0 1
-17.703737 -10.169598 19.725572 28.389104 0.521408 0.802614 0.009013 -0.005019 513041.000000 0 0 1
-18.147537 -8.871298 19.240672 27.896890 0.454682 0.809712 0.006965 -0.007701 -538514.000000 0 0 1
-19.295637 -8.941298 18.204072 27.993868 0.433929 0.862833 0.035924 -0.011595 198089.000000 0 0 1
-20.607237 -9.184698 18.657072 29.276326 0.419274 0.879839 0.036055 -0.015070 -131251.000000 0 0 1
-21.447437 -9.323898 17.540572 29.233531 0.410085 0.927276 0.060473 -0.007162 -1325680.000000 0 0 1
-22.894537 -9.517998 17.843572 30.547425 0.393995 0.946992 0.065382 0.000663 -1385010.000000 0 0 1
-23.522537 -8.427298 18.462972 31.067836 0.344019 0.934427 0.062663 0.004849 -805254.000000 0 0 1
-24.890237 -8.629398 18.482372 32.180561 0.333730 0.959007 0.068439 0.007100 -1002710.000000 0 0 1
-25.604357 -7.551898 19.335072 32.961482 0.286814 0.943947 0.071015 0.004679 -112762.000000 0 0 1
-25.463577 -7.774698 20.756872 33.759257 0.296336 0.908601 0.064131 -0.000982 185972.000000 0 0 1
-26.070197 -6.655398 21.329272 34.334929 0.249949 0.900508 0.058145 -0.003430 -605493.000000 0 0 1
-25.991877 -6.531698 22.898472 35.250259 0.246200 0.863742 0.059381 -0.008630 508859.000000 0 0 1
-24.744237 -6.074098 23.395472 34.590751 0.240716 0.828000 0.047202 -0.013589 768292.000000 0 0 1
-23.617037 -6.964398 23.356972 33.938406 0.286761 0.811768 0.049336 -0.010734 317449.000000 0 0 1
-22.719137 -6.817098 24.616072 34.184544 0.291512 0.766859 0.045356 -0.008639 -65725.000000 0 0 1
-22.061337 -5.553898 24.644872 33.539799 0.246623 0.745432 0.035744 -0.006551 -88635.000000 0 0 1
-21.418237 -5.328698 25.843932 33.985949 0.243842 0.706821 0.035119 -0.009544 -380705.000000 0 0 1
-20.659737 -4.015398 25.814692 33.306853 0.191965 0.683992 0.038670 -0.013747 -47476.300000 0 0 1
-19.625637 -3.808298 26.765542 33.407529 0.191665 0.641527 0.031322 -0.014452 -91608.700000 0 0 1
-19.984137 -3.417598 28.115922 34.663393 0.169377 0.624744 0.041436 -0.015666 128973.000000 0 0 1
-20.768237 -2.062298 28.296682 35.160702 0.098976 0.635489 0.056344 -0.024883 -196260.000000 0 0 1
-22.116337 -2.153898 27.995902 35.742722 0.097083 0.670901 0.059247 -0.026586 -1465030.000000 0 0 1
-22.815637 -1.023898 28.381432 36.429485 0.044847 0.677602 0.060337 -0.027212 623041.000000 0 0 1
-24.241437 -0.951898 27.737902 36.850300 0.039247 0.718615 0.051915 -0.026410 318020.000000 0 0 1
-24.130337 -0.620598 26.346932 35.732606 0.025713 0.741678 0.043048 -0.026633 974535.000000 0 0 1
-25.350857 -0.098298 25.749872 36.134907 0.003877 0.777594 0.046431 -0.022070 639621.000000 0 0 1
-26.294157 -1.170398 25.207702 36.444215 0.044482 0.806985 0.040717 -0.016842 -316632.000000 0 0 1
-27.076057 -1.812898 26.225172 37.738033 0.066856 0.802478 0.033861 -0.019373 238645.000000 0 0 1
-27.583877 -3.104498 25.779042 37.882281 0.112076 0.822346 0.025280 -0.015290 -175922.000000 0 0 1
-26.566397 -4.254598 25.632242 37.160287 0.158801 0.809618 0.040517 -0.023749 -205360.000000 0 0 1
-25.968277 -4.379998 26.896292 37.642348 0.167095 0.774855 0.046061 -0.019767 41690.500000 0 0 1
-25.124527 -5.544698 26.994592 37.292004 0.217207 0.761400 0.049783 -0.023738 156723.000000 0 0 1
-24.719437 -5.850198 28.424442 38.121179 0.232388 0.729311 0.032164 -0.008665 513108.000000 0 0 1
-25.833867 -6.314398 29.179012 39.480059 0.239723 0.739089 0.041074 -0.007188 554289.000000 0 0 1
-25.306467 -6.918698 30.341662 40.111122 0.266875 0.712943 0.042192 0.000946 279552.000000 0 0 1
-26.377907 -7.422998 31.367762 41.651307 0.274315 0.718029 0.026568 0.005479 173522.000000 0 0 1
-27.147237 -8.405198 30.730662 41.856821 0.300255 0.746330 0.024554 0.001798 -679666.000000 0 0 1
-28.339627 -8.709998 31.367032 43.161201 0.298180 0.757230 0.019853 0.003296 -92599.800000 0 0 1
-29.371367 -9.462998 30.434042 43.341164 0.311683 0.792318 0.006582 -0.006977 491863.000000 0 0 1
-28.949947 -10.800798 30.070262 43.115860 0.357091 0.798992 0.023198 -0.003234 655274.000000 0 0 1
-30.007717 -11.455098 29.365542 43.520310 0.364665 0.830164 0.013332 -0.004694 164066.000000 0 0 1
-29.549727 -12.827098 28.763972 43.186652 0.409541 0.841911 0.026443 -0.007672 201709.000000 0 0 1
-28.661477 -12.517998 27.689302 41.771737 0.411784 0.846149 0.032619 -0.008355 -125964.000000 0 0 1
-27.809367 -13.585598 27.420062 41.349597 0.454426 0.845807 0.042742 -0.014881 -420431.000000 0 0 1
-26.476677 -13.140398 26.774242 39.881632 0.460684 0.834777 0.045374 -0.013992 306629.000000 0 0 1
-25.460707 -12.538498 27.619272 39.601588 0.457601 0.798993 0.041191 -0.013384 542303.000000 0 0 1
-25.707117 -11.358198 28.369712 39.933759 0.416040 0.780703 0.045772 -0.019148 -738640.000000 0 0 1
-25.985647 -10.119398 27.512182 39.173668 0.371355 0.792155 0.042465 -0.014450 490161.000000 0 0 1
-24.798037 -9.548398 26.963682 37.857030 0.367549 0.778097 0.034631 -0.009891 573001.000000 0 0 1
-24.136437 -10.196998 25.837812 36.798626 0.399728 0.792397 0.028745 -0.008623 353702.000000 0 0 1
-24.815837 -10.088398 24.416052 36.245622 0.386124 0.831690 0.043574 -0.006160 748855.000000 0 0 1
-26.136297 -10.662298 24.359622 37.285142 0.387341 0.858817 0.046085 -0.011365 449624.000000 0 0 1
-26.729757 -10.485198 23.090272 36.845352 0.373822 0.893510 0.056270 -0.006595 732397.000000 0 0 1
-28.097287 -11.295598 22.974472 38.011504 0.382244 0.921773 0.064828 -0.008266 1410860.000000 0 0 1
-29.169687 -10.661598 23.687102 39.059175 0.350418 0.919219 0.056477 -0.011517 -164991.000000 0 0 1
-29.174787 -10.811898 25.091242 39.970436 0.354899 0.892143 0.054549 -0.017617 -1934890.000000 0 0 1
-30.472737 -10.616498 25.790162 41.308960 0.335243 0.896531 0.020424 -0.011244 -1182290.000000 0 0 1
-30.988817 -9.251798 25.449322 41.153014 0.290129 0.904082 0.024937 -0.023897 -524448.000000 0 0 1
-32.361497 -8.990298 25.500892 42.170931 0.270975 0.921403 0.025276 -0.009368 -488664.000000 0 0 1
-32.962797 -8.965698 26.916592 43.490604 0.265570 0.903447 0.012273 -0.008443 -650648.000000 0 0 1
-33.172077 -10.294898 27.425522 44.255292 0.300923 0.902421 0.006933 -0.019624 1857.820000 0 0 1
-33.494197 -10.238998 28.789432 45.337950 0.296673 0.882793 0.017737 -0.018929 -1328590.000000 0 0 1
-33.874427 -11.606198 29.411332 46.337966 0.330089 0.883159 0.030231 -0.014470 85955.200000 0 0 1
-35.047470 -12.179798 28.838902 46.993137 0.334466 0.910079 0.013332 -0.007456 1360230.000000 0 0 1
35.563651 -11.510098 29.295782 47.492089 -0.313008 0.906054 0.027376 -0.011376 907564.000000 0 0 1
34.227631 -12.169698 28.765052 46.336384 -0.341612 0.901049 0.023860 -0.011807 858148.000000 0 0 1
33.846211 -11.692198 27.518442 45.161246 -0.332616 0.915572 0.020535 -0.002283 100442.000000 0 0 1
32.705711 -12.391798 27.013012 44.191889 -0.362175 0.913137 0.025223 0.010707 264752.000000 0 0 1
32.470581 -12.073698 25.556282 43.049232 -0.355993 0.935206 0.020494 0.007412 -154.496000 0 0 1
32.255531 -10.699498 25.346882 42.395318 -0.320289 0.929955 0.025207 -0.009060 -22669.800000 0 0 1
32.249081 -10.461098 23.934122 41.500362 -0.313675 0.956087 0.021233 -0.005451 -378953.000000 0 0 1
31.916151 -9.021198 23.649962 40.735039 -0.275467 0.951355 0.031202 0.011118 725502.000000 0 0 1
30.516641 -8.699598 23.704652 39.608824 -0.277711 0.929208 0.044383 0.003960 550341.000000 0 0 1
30.304361 -7.326198 23.278972 38.909356 -0.237203 0.929434 0.055197 0.007822 -208549.000000 0 0 1
28.842841 -7.056198 22.930972 37.517048 -0.239930 0.913202 0.057878 0.010673 -315386.000000 0 0 1
28.555241 -7.603898 21.666572 36.642344 -0.260248 0.938128 0.049736 0.007661 99040.800000 0 0 1
27.178891 -7.384098 21.387172 35.364221 -0.265282 0.921321 0.061696 -0.012247 -32187.600000 0 0 1
14.776463 -17.246198 26.561442 34.946894 -0.862370 0.707404 0.021521 0.004225 -616184.000000 0 0 1
14.143563 -18.389798 26.196282 34.992431 -0.915184 0.724807 0.021791 0.001325 262612.000000 0 0 1
15.031863 -19.522598 26.113982 35.903047 -0.914635 0.756348 0.008759 0.007108 -413921.000000 0 0 1
14.265563 -20.835898 26.138042 36.343337 -0.970438 0.768150 -0.000576 -0.001759 62960.500000 0 0 1
13.582763 -21.185998 27.361502 37.175123 -1.000689 0.743629 -0.001040 -0.001866 -753085.000000 0 0 1
12.376763 -20.572298 27.535012 36.531912 -1.029184 0.717085 0.009067 -0.007222 -1705050.000000 0 0 1
11.655463 -21.118898 28.802032 37.568800 -1.066498 0.697193 0.009133 -0.008721 -284837.000000 0 0 1
12.135763 -20.706398 30.067282 38.471718 -1.040669 0.673662 0.012925 -0.015421 -116346.000000 0 0 1
11.321763 -19.839098 30.846442 38.383266 -1.052215 0.637405 0.023310 -0.017720 -139527.000000 0 0 1
11.287963 -18.339698 30.308122 37.179899 -1.019062 0.617765 0.035287 -0.009700 102263.000000 0 0 1
12.444063 -17.581698 30.539972 37.371924 -0.954865 0.614277 0.026569 0.002041 -239406.000000 0 0 1
12.064863 -16.222298 30.171482 36.318620 -0.931326 0.590353 0.020810 0.006121 -23423.200000 0 0 1
13.100363 -15.121598 30.444492 36.430060 -0.856895 0.581396 0.026218 -0.000218 11053.500000 0 0 1
12.710563 -13.889198 29.846382 35.288450 -0.829679 0.562765 0.039589 0.001907 591127.000000 0 0 1
13.459063 -12.834898 30.535132 35.752975 -0.761665 0.547058 0.038388 0.007704 502163.000000 0 0 1
13.026063 -11.389998 30.108462 34.726500 -0.718490 0.521612 0.033045 0.006867 45302.300000 0 0 1
13.164863 -10.869598 28.755292 33.441420 -0.690188 0.535780 0.045937 0.005766 -930043.000000 0 0 1
14.480563 -10.530098 28.515942 33.670886 -0.628741 0.560664 0.042438 0.007702 -1171710.000000 0 0 1
14.695463 -9.692498 27.290332 32.475581 -0.583065 0.572897 0.034529 0.009689 30304.200000 0 0 1
14.757963 -8.292398 27.450102 32.250107 -0.511928 0.552599 0.026862 0.007489 172825.000000 0 0 1
16.066063 -7.876798 27.809192 33.068315 -0.455838 0.571738 0.039199 -0.000984 -2584.050000 0 0 1
16.572163 -6.414798 27.556002 32.789014 -0.369321 0.572769 0.030325 -0.000124 -405690.000000 0 0 1
17.946163 -6.176098 27.623242 33.514958 -0.331450 0.601997 0.031851 -0.008202 -574051.000000 0 0 1
18.309563 -4.929198 27.104192 33.078305 -0.262979 0.610442 0.035346 -0.008090 248415.000000 0 0 1
19.853063 -4.832098 26.944332 33.815533 -0.238751 0.648810 0.044635 -0.010890 -511552.000000 0 0 1
20.307563 -5.749198 25.992282 33.482071 -0.275887 0.682014 0.057332 -0.012549 -321770.000000 0 0 1
21.655663 -5.811598 25.628912 34.052658 -0.262186 0.718755 0.069615 -0.014618 331951.000000 0 0 1
22.743863 -6.086798 26.742652 35.630069 -0.261496 0.721881 0.065551 -0.023033 -269053.000000 0 0 1
23.018063 -4.928298 27.540162 36.229544 -0.210921 0.707241 0.077243 -0.019203 211765.000000 0 0 1
23.929263 -5.348598 28.560752 37.642179 -0.219903 0.709415 0.076078 -0.025924 336883.000000 0 0 1
24.604463 -4.144998 29.333532 38.509955 -0.166898 0.704844 0.087570 -0.022082 -191691.000000 0 0 1
25.557863 -3.461398 28.559342 38.481445 -0.134615 0.734511 0.073655 -0.011211 103376.000000 0 0 1
25.607363 -2.105598 28.941392 38.701095 -0.082042 0.726026 0.064913 -0.017394 -675264.000000 0 0 1
26.425763 -1.233398 27.981662 38.507345 -0.046640 0.757352 0.067240 -0.012955 -316081.000000 0 0 1
27.786863 -1.401198 28.321792 39.701347 -0.050384 0.776499 0.070310 -0.006460 -864290.000000 0 0 1
28.521963 -0.908598 27.262002 39.465740 -0.031845 0.808234 0.053595 0.003784 -162476.000000 0 0 1
30.032163 -0.850898 27.634392 40.820515 -0.028325 0.827154 0.029034 0.003644 294620.000000 0 0 1
30.338463 0.230002 28.562182 41.668615 0.007581 0.815561 0.011125 0.011933 -176440.000000 0 0 1
31.742063 0.269802 28.640002 42.753725 0.008500 0.836745 0.020740 0.003883 -152936.000000 0 0 1
32.281063 1.325502 29.608322 43.823243 0.041038 0.828977 0.021427 0.001715 -246829.000000 0 0 1
32.118863 2.642302 29.115192 43.431526 0.082082 0.836089 0.019204 0.003997 30803.800000 0 0 1
32.501163 3.568802 30.090252 44.435179 0.109367 0.826884 0.014706 0.007190 -264603.000000 0 0 1
32.783363 4.939202 29.449762 44.344482 0.149537 0.844489 0.017041 0.012719 40591.000000 0 0 1
32.873863 6.044002 30.370642 45.161894 0.181824 0.833237 0.007006 0.019110 684098.000000 0 0 1
31.593063 6.406802 30.892722 44.648953 0.200078 0.806676 0.006594 0.014513 467338.000000 0 0 1
31.779963 7.292602 32.124062 45.772300 0.225567 0.792843 0.004840 0.009248 46900.500000 0 0 1
32.358963 6.654302 33.235844 46.861535 0.202813 0.782384 -0.007303 0.009140 185477.000000 0 0 1
32.293263 7.538102 -34.297181 47.707174 0.229320 2.373030 -0.005653 0.004040 -437863.000000 0 0 1
32.599663 6.923302 -32.888760 46.822438 0.209264 2.349580 0.012989 -0.003647 202929.000000 0 0 1
31.581563 6.119202 -32.270020 45.565271 0.191387 2.357763 0.001514 -0.005875 432849.000000 0 0 1
31.349963 4.852302 -32.821150 45.646390 0.153560 2.373203 0.016773 -0.006170 -39327.000000 0 0 1
31.736663 3.650202 -31.902760 45.147822 0.114512 2.355519 0.013248 -0.010895 -96858.900000 0 0 1
31.613063 2.354202 -32.494390 45.396183 0.074332 2.368559 0.018231 -0.011205 96683.500000 0 0 1
32.026263 1.352702 -31.552480 44.978554 0.042212 2.348297 0.023358 -0.017298 9052.320000 0 0 1
32.013563 -0.114198 -32.104770 45.338698 -0.003567 2.357614 0.041143 -0.031611 -411704.000000 0 0 1
33.024763 -0.280498 -33.086630 46.748676 -0.008493 2.357112 0.029335 -0.024081 620272.000000 0 0 1
33.840963 -1.452598 -32.854800 47.188544 -0.042898 2.340950 0.036204 -0.021888 1370860.000000 0 0 1
34.924063 -1.491798 -31.717440 47.200759 -0.042690 2.307660 0.052475 -0.024749 270582.000000 0 0 1
34.211463 -1.737598 -30.542490 45.894304 -0.050746 2.298955 0.050021 -0.026411 379165.000000 0 0 1
35.102663 -1.786898 -29.438670 45.847849 -0.050861 2.268024 0.057708 -0.025414 -287219.000000 0 0 1
34.348363 -1.787798 -28.119180 44.426282 -0.052002 2.256141 0.061190 -0.025797 -144542.000000 0 0 1
33.795763 -0.496598 -27.864270 43.804312 -0.014693 2.260240 0.047639 -0.023506 422695.000000 0 0 1
32.654263 -0.534498 -27.018290 42.386019 -0.016367 2.261960 0.040577 -0.018255 100100.000000 0 0 1
32.279463 0.915102 -26.685020 41.891424 0.028342 2.261402 0.029360 -0.008661 -157804.000000 0 0 1
31.560463 1.482002 -27.769640 42.064380 0.046923 2.291841 0.029922 -0.018891 138016.000000 0 0 1
30.865863 2.652502 -27.351570 41.326089 0.085726 2.294077 0.016558 -0.006591 -229293.000000 0 0 1
30.090363 3.084102 -28.563520 41.603080 0.102138 2.327560 0.019470 -0.010156 -7425.180000 0 0 1
29.176063 4.169502 -28.306240 40.864050 0.141947 2.336013 0.015979 -0.006995 917529.000000 0 0 1
28.386363 4.500202 -29.473530 41.167055 0.157225 2.368779 0.025691 -0.010482 688301.000000 0 0 1
27.217963 5.507202 -29.229720 40.317779 0.199642 2.381807 0.030179 -0.013664 -77625.800000 0 0 1
26.024963 4.998002 -28.743380 39.095532 0.189736 2.396771 0.025685 -0.013208 181517.000000 0 0 1
25.031663 5.964402 -28.382670 38.311019 0.233913 2.405129 0.022864 -0.015229 552351.000000 0 0 1
23.673563 5.372702 -27.913640 36.992902 0.223169 2.425791 0.025010 -0.009390 381296.000000 0 0 1
22.909963 4.883402 -29.042400 37.311862 0.210013 2.462860 0.037746 -0.018009 917728.000000 0 0 1
21.557963 4.682002 -28.619510 36.135070 0.213861 2.484899 0.038239 -0.015112 250042.000000 0 0 1
20.552463 4.293902 -29.686680 36.361247 0.205961 2.526010 0.030001 -0.010480 -399357.000000 0 0 1
20.735263 2.922902 -30.013520 36.596528 0.140040 2.532416 0.029550 -0.013006 -100479.000000 0 0 1
20.039663 2.478602 -31.132970 37.107862 0.123060 2.566213 0.020569 -0.011895 -536214.000000 0 0 1
20.296863 3.093602 -32.538120 38.474177 0.151254 2.578697 0.017948 -0.007350 35988.100000 0 0 1
21.610863 2.782702 -33.007120 39.550510 0.128059 2.558123 0.036519 -0.011839 209691.000000 0 0 1
21.809363 3.434202 -34.294524 40.786719 0.156182 2.569603 0.040518 -0.018341 478972.000000 0 0 1
23.216763 3.141802 33.737017 41.074022 0.134508 0.606986 0.051376 -0.010203 381116.000000 0 0 1
23.401763 1.818602 33.326427 40.762734 0.077556 0.613616 0.065494 -0.017355 -29131.500000 0 0 1
24.768163 1.668002 32.993571 41.289464 0.067243 0.645033 0.067638 -0.018258 52303.500000 0 0 1
25.032363 0.139402 32.735468 41.209822 0.005569 0.652842 0.060107 -0.015807 -490954.000000 0 0 1
24.565563 -0.533598 31.531282 39.974658 -0.021718 0.661972 0.070766 -0.016031 610726.000000 0 0 1
23.171063 -0.701098 31.284102 38.936932 -0.030248 0.637719 0.073019 -0.022520 403951.000000 0 0 1
22.436463 -1.589598 32.305792 39.364779 -0.070731 0.608200 0.065144 -0.025608 -691088.000000 0 0 1
22.684463 -2.950698 32.109122 39.424449 -0.129349 0.619021 0.077681 -0.031274 -61974.100000 0 0 1
21.842163 -3.755398 32.865193 39.639677 -0.170269 0.593303 0.073420 -0.031043 -299217.000000 0 0 1
21.867963 -5.191398 32.252712 39.311523 -0.233083 0.608618 0.077572 -0.031345 86456.800000 0 0 1
23.127963 -5.839498 32.291992 40.146919 -0.247318 0.636223 0.075780 -0.026909 81287.700000 0 0 1
23.019563 -7.247298 32.071352 40.137205 -0.305008 0.645094 0.071088 -0.028140 -247497.000000 0 0 1
24.400763 -7.945198 31.952452 40.981490 -0.314786 0.676642 0.069072 -0.027396 232992.000000 0 0 1
25.031663 -7.512598 30.746242 40.352877 -0.291570 0.704502 0.077874 -0.025997 -509491.000000 0 0 1
26.233063 -8.214898 30.590242 41.126889 -0.303477 0.732056 0.067214 -0.024930 -59051.000000 0 0 1
26.744663 -8.175898 29.127652 40.379975 -0.296680 0.765063 0.057456 -0.019309 532985.000000 0 0 1
25.736063 -8.783998 28.313042 39.257252 -0.328913 0.765237 0.054288 -0.009943 340484.000000 0 0 1
26.154663 -8.631598 26.944202 38.530000 -0.318767 0.796372 0.066635 -0.008389 264975.000000 0 0 1
25.420163 -9.485298 25.863002 37.484002 -0.357140 0.809343 0.052403 -0.013946 -254169.000000 0 0 1
24.139863 -9.001198 25.530502 36.270664 -0.356908 0.789939 0.053968 -0.015557 -443478.000000 0 0 1
23.622963 -9.839298 24.542502 35.456883 -0.394661 0.806293 0.060139 -0.015633 -666787.000000 0 0 1
22.350563 -9.265198 23.935402 34.033733 -0.392978 0.790789 0.058404 -0.009574 -606831.000000 0 0 1
21.332663 -9.413498 24.875512 34.095271 -0.415572 0.753077 0.041931 -0.005943 -252029.000000 0 0 1
20.046863 -8.986198 24.455962 32.874344 -0.421406 0.731875 0.032174 -0.005247 868862.000000 0 0 1
18.962163 -8.738598 25.550232 32.996076 -0.431835 0.685123 0.023748 -0.001196 249953.000000 0 0 1
18.257763 -9.862398 26.027812 33.287532 -0.495269 0.673075 0.031320 0.000714 -86981.500000 0 0 1
19.042863 -10.687698 26.876692 34.629670 -0.511435 0.682311 0.027107 0.000613 -530752.000000 0 0 1
18.340763 -11.621298 27.842002 35.307438 -0.564783 0.662334 0.025583 0.002776 -428365.000000 0 0 1
17.462663 -12.496398 27.214622 34.666124 -0.621124 0.668020 0.024319 0.004677 -69118.700000 0 0 1
16.720763 -13.490598 27.904712 35.217227 -0.678884 0.656129 0.024981 0.007957 103964.000000 0 0 1
17.497563 -14.702998 28.564962 36.582781 -0.698829 0.674802 0.020435 0.014574 -35078.800000 0 0 1
16.714663 -15.625598 29.287182 37.165552 -0.751736 0.663211 0.014526 0.013232 415263.000000 0 0 1
17.580163 -16.487498 30.034162 38.509097 -0.753336 0.676252 0.031210 0.004259 68023.500000 0 0 1
18.014363 -17.787898 29.303662 38.725072 -0.779073 0.712530 0.027171 0.009399 -50230.700000 0 0 1
18.765763 -17.610298 28.124072 38.121383 -0.753644 0.741064 0.018404 0.009167 308869.000000 0 0 1
18.931363 -18.810198 27.508692 38.326860 -0.782188 0.770246 0.009097 0.009597 252872.000000 0 0 1
19.984263 -18.750398 26.329182 38.002289 -0.753555 0.805388 0.014449 0.006847 122687.000000 0 0 1
21.289963 -18.471698 26.773162 38.875035 -0.714638 0.811104 0.025672 0.000561 -720405.000000 0 0 1
21.968263 -17.833998 25.758082 38.264015 -0.681899 0.832313 0.023601 0.003420 -167518.000000 0 0 1
23.411763 -17.491898 26.226162 39.266890 -0.641669 0.839419 0.033397 0.005488 -381221.000000 0 0 1
24.215963 -18.584298 26.114942 40.171870 -0.654570 0.863106 0.045516 -0.008570 -332066.000000 0 0 1
25.536463 -18.367198 26.582122 41.183420 -0.623531 0.869175 0.039542 -0.004423 221457.000000 0 0 1
26.400363 -19.636898 26.661002 42.348506 -0.639529 0.889807 0.027170 -0.009618 -186605.000000 0 0 1
25.898063 -20.500298 27.606822 43.047746 -0.669584 0.874596 0.028232 0.000899 18669.100000 0 0 1
26.785663 -21.599798 27.743872 44.201193 -0.678628 0.892237 0.035065 -0.012489 210385.000000 0 0 1
26.284863 -22.745798 28.682532 45.066095 -0.713342 0.880903 0.036042 -0.007826 -18184.500000 0 0 1
26.076963 -22.365698 30.032102 45.630687 -0.708936 0.852430 0.028506 -0.005303 -38251.100000 0 0 1
25.664063 -23.492598 30.785152 46.457204 -0.741252 0.846436 0.037302 -0.009306 -580189.000000 0 0 1
25.547663 -23.291198 32.292132 47.306921 -0.739229 0.819469 0.023609 -0.001099 87989.600000 0 0 1
25.135263 -24.470298 32.959341 48.134136 -0.771994 0.816550 0.019320 -0.004513 -110556.000000 0 0 1
24.742763 -24.224898 34.261445 48.712386 -0.774823 0.790709 0.024307 0.000437 -607002.000000 0 0 1
24.284563 -25.489608 -33.530000 48.618114 -0.809604 2.331817 0.010825 -0.000447 -27089.300000 0 0 1
23.008463 -25.982068 -33.803760 48.447409 -0.846021 2.343036 0.013372 -0.004988 -895387.000000 0 0 1
22.681963 -26.346328 33.528811 48.298878 -0.859999 0.803496 0.021615 -0.007869 -371736.000000 0 0 1
21.367263 -27.154378 33.472920 48.107760 -0.904106 0.801276 0.028643 -0.013012 313876.000000 0 0 1
21.600763 -28.458458 33.959545 49.292266 -0.921542 0.810767 0.015134 -0.007209 219435.000000 0 0 1
20.448063 -29.260288 33.762842 49.134684 -0.960854 0.813239 0.029408 -0.008379 87990.700000 0 0 1
20.731463 -30.742018 34.146352 50.406731 -0.977480 0.826551 0.011739 -0.010902 -221880.000000 0 0 1
21.020663 -31.001508 -33.170140 50.032189 -0.974952 2.295583 -0.003726 -0.008476 -297502.000000 0 0 1
21.656763 -32.207488 -33.093840 51.005293 -0.978825 2.276844 -0.033709 0.001613 -355311.000000 0 0 1
22.245563 -32.640268 -31.693920 50.643428 -0.972569 2.246985 -0.025680 0.002971 -918271.000000 0 0 1
23.030063 -33.785428 -31.875910 51.845083 -0.972488 2.232967 -0.037590 0.003456 326090.000000 0 0 1
23.659063 -34.230034 -30.635730 51.671989 -0.966015 2.205437 -0.026078 -0.000178 731104.000000 0 0 1
24.970363 -33.440168 -30.323810 51.587763 -0.929399 2.199146 -0.023194 -0.003922 -405429.000000 0 0 1
25.704363 -33.832738 -29.183750 51.546675 -0.921085 2.172638 0.002046 -0.008900 -347083.000000 0 0 1
26.749063 -32.898088 -29.071700 51.409730 -0.888125 2.171824 0.008020 -0.007648 -698793.000000 0 0 1
27.271663 -32.817238 -27.646360 50.843249 -0.877427 2.145703 0.010550 -0.002964 -24342.000000 0 0 1
27.883763 -34.026838 -27.270570 51.759192 -0.884299 2.125715 0.024985 -0.000411 -470855.000000 0 0 1
28.530663 -33.900598 -26.065720 51.406916 -0.871201 2.102552 0.020451 -0.001487 101087.000000 0 0 1
-25.987627 -31.054784 9.832080 41.670447 0.873997 1.332602 0.044739 -0.016782 105281.000000 0 0 1
-25.039377 -32.073184 9.534780 41.792003 0.907938 1.340621 0.041170 -0.015594 -43937.600000 0 0 1
-24.333537 -32.620184 10.610480 42.056863 0.929882 1.315751 0.039075 -0.012715 -605041.000000 0 0 1
-25.011737 -33.752384 11.393980 43.527384 0.933057 1.305945 0.023120 -0.006985 -253782.000000 0 0 1
-25.308177 33.836002 10.621980 43.568398 -0.928598 1.324514 0.025889 -0.000472 104916.000000 0 0 1
-25.899297 32.824802 11.414080 43.341925 -0.902789 1.304304 0.013835 -0.003297 102933.000000 0 0 1
-25.876417 31.440502 10.707180 42.103893 -0.882171 1.313669 0.012989 -0.005336 465711.000000 0 0 1
-26.675957 31.400302 9.506780 42.284329 -0.866567 1.344028 0.026753 -0.008799 33603.500000 0 0 1
-26.650567 30.110102 8.840780 41.170746 -0.846272 1.354376 0.035662 -0.011438 -687049.000000 0 0 1
-25.747707 30.030302 7.631980 40.286605 -0.862027 1.380202 0.028869 -0.003776 -442771.000000 0 0 1
-24.435737 29.624502 7.919380 39.210113 -0.881086 1.367424 0.018185 -0.002927 24508.000000 0 0 1
-23.586637 29.759702 6.763580 38.570913 -0.900603 1.394531 0.012045 -0.003782 766809.000000 0 0 1
-22.268137 28.920502 6.917980 37.150018 -0.914632 1.383486 0.054502 -0.002484 290126.000000 0 0 1
-22.467937 27.514202 7.047480 36.214727 -0.886019 1.374944 0.045834 -0.010166 288458.000000 0 0 1
-22.973537 26.883702 5.834880 35.840796 -0.863665 1.407269 0.038810 -0.011625 -269177.000000 0 0 1
-23.302537 25.348602 6.041580 34.957983 -0.827429 1.397100 0.046474 -0.008573 -504366.000000 0 0 1
-24.288037 25.219602 7.056080 35.717297 -0.804213 1.371935 0.052809 -0.014660 547517.000000 0 0 1
-24.837537 23.955602 7.381880 35.288331 -0.767325 1.360052 0.059437 -0.021386 -290466.000000 0 0 1
-25.439577 23.145002 6.268280 34.959327 -0.738205 1.390519 0.047217 -0.031873 -160077.000000 0 0 1
-26.670567 23.661402 5.735380 36.111988 -0.725683 1.411299 0.053856 -0.036806 742031.000000 0 0 1
-27.120647 22.985002 4.553080 35.840903 -0.703046 1.443416 0.053359 -0.032532 98545.300000 0 0 1
-26.599067 23.599102 3.199280 35.702428 -0.725707 1.481066 0.038260 -0.031707 -24544.200000 0 0 1
-25.188737 23.673602 3.158680 34.711514 -0.754400 1.479672 0.037824 -0.034788 239210.000000 0 0 1
-24.768137 24.349202 1.950080 34.787168 -0.776869 1.514709 0.040909 -0.041781 93271.000000 0 0 1
-23.469037 25.166002 2.054980 34.472399 -0.820276 1.511149 0.048322 -0.035947 71421.600000 0 0 1
-23.052137 25.848802 0.856180 34.645269 -0.842526 1.546081 0.046805 -0.031848 -579933.000000 0 0 1
-21.862737 26.543302 1.063680 34.404325 -0.881792 1.539874 0.046806 -0.035322 -1059410.000000 0 0 1
-21.453737 27.163802 -0.301620 34.615401 -0.902311 1.579510 0.053534 -0.031974 129088.000000 0 0 1
-20.978837 26.249802 -1.310620 33.628581 -0.896543 1.609780 0.057211 -0.036303 -675615.000000 0 0 1
-19.798937 25.588102 -1.031420 32.369935 -0.912264 1.602665 0.050476 -0.043954 -1110730.000000 0 0 1
-19.374637 24.672502 -2.176320 31.445911 -0.905100 1.640060 0.060935 -0.043300 -199808.000000 0 0 1
-20.309837 23.687502 -2.587920 31.309497 -0.862018 1.653547 0.072405 -0.042750 48199.900000 0 0 1
-19.766437 22.722102 -3.448020 30.313278 -0.854850 1.684789 0.078242 -0.035165 -46124.100000 0 0 1
-20.920237 21.915302 -4.075620 30.570369 -0.808624 1.704514 0.055757 -0.026136 475150.000000 0 0 1
-21.719937 22.647002 -5.024920 31.778801 -0.806291 1.729585 0.046226 -0.021159 638035.000000 0 0 1
-22.926637 21.923002 -5.277420 32.157423 -0.763024 1.735654 0.055238 -0.021974 520194.000000 0 0 1
-23.669037 22.268002 -6.594620 33.159859 -0.754909 1.771005 0.051394 -0.003465 -214599.000000 0 0 1
-23.150037 21.771102 -7.818620 32.726685 -0.754711 1.812036 0.042348 -0.008860 196171.000000 0 0 1
-22.109537 22.629502 -8.315920 32.712085 -0.797020 1.827833 0.037448 -0.017811 403931.000000 0 0 1
-21.359837 21.961002 -9.539120 32.086182 -0.799274 1.872657 0.025263 -0.020630 -188106.000000 0 0 1
-22.086437 21.883902 -10.721320 32.888639 -0.780792 1.902854 0.028848 -0.008673 -260765.000000 0 0 1
-21.289737 21.356102 -11.741720 32.360532 -0.786954 1.942111 0.016325 -0.002623 -17562.400000 0 0 1
-22.027337 21.227002 -13.106720 33.280254 -0.766897 1.975590 0.011096 -0.005423 157331.000000 0 0 1
-22.869437 20.082702 -13.162620 33.159925 -0.720609 1.978981 0.017097 -0.009119 -580832.000000 0 0 1
-23.658037 20.205202 -14.257120 34.223068 -0.706842 2.000492 0.018074 -0.008609 -901115.000000 0 0 1
-24.682937 19.101702 -14.433320 34.386671 -0.658612 2.003951 0.029855 -0.014252 -289490.000000 0 0 1
-24.242537 18.010002 -15.257420 33.835627 -0.638947 2.038601 0.023899 -0.007964 170910.000000 0 0 1
-25.294497 17.093702 -15.523720 34.248973 -0.594290 2.041217 0.054374 -0.007023 360344.000000 0 0 1
-24.925037 16.223702 -16.754220 34.134585 -0.577008 2.083837 0.058853 -0.009332 707917.000000 0 0 1
-23.936037 15.185102 -16.619020 32.858987 -0.565333 2.101068 0.059277 -0.006550 381808.000000 0 0 1
-23.768537 14.593202 -17.880220 33.130155 -0.550629 2.140873 0.066068 -0.012350 239425.000000 0 0 1
-22.876637 13.323902 -17.800420 31.901753 -0.527396 2.162741 0.065810 -0.012217 46157.000000 0 0 1
-21.565237 13.496502 -17.342520 30.789252 -0.559207 2.169129 0.061681 -0.019080 -407791.000000 0 0 1
-20.861337 12.291002 -17.256720 29.733122 -0.532423 2.190000 0.073476 -0.014919 -177446.000000 0 0 1
-19.692337 12.317002 -16.255120 28.350055 -0.558939 2.181412 0.061905 -0.016147 -307290.000000 0 0 1
-18.778637 13.339602 -16.521020 28.346540 -0.617646 2.192995 0.045593 -0.005579 -1174380.000000 0 0 1
-17.724637 13.269102 -15.656820 27.117667 -0.642620 2.186295 0.040953 -0.006105 -1232020.000000 0 0 1
-16.754137 14.405402 -15.970220 27.262881 -0.710163 2.196646 0.030445 -0.004247 -691188.000000 0 0 1
-16.265437 14.333702 -17.264320 27.714188 -0.722351 2.243294 0.049172 -0.010813 -194155.000000 0 0 1
-15.445737 15.446502 -17.529220 28.007834 -0.785423 2.247041 0.043293 -0.005675 -200580.000000 0 0 1
-14.631837 15.363302 -18.829920 28.367016 -0.809779 2.296680 0.039336 -0.001321 -254405.000000 0 0 1
-13.680337 14.353802 -18.823720 27.340734 -0.809417 2.330196 0.033983 0.003985 -307012.000000 0 0 1
-12.895137 14.338802 -20.040320 27.811872 -0.838358 2.375416 0.052842 -0.001837 348173.000000 0 0 1
-11.753337 13.318302 -19.983920 26.737150 -0.847737 2.414969 0.041482 0.001481 -210167.000000 0 0 1
-12.216237 12.026202 -20.271720 26.548232 -0.777559 2.439637 0.044008 0.001624 -592525.000000 0 0 1
-11.331337 10.993002 -19.992420 25.474343 -0.770244 2.473180 0.030451 0.009273 -461388.000000 0 0 1
-11.626037 9.723802 -20.820620 25.752967 -0.696534 2.512352 0.039186 -0.001787 -40060.000000 0 0 1
-11.198737 9.890402 -22.124620 26.697015 -0.723439 2.547631 0.043361 -0.001277 -188593.000000 0 0 1
-11.562337 8.818402 -22.908920 27.134305 -0.651569 2.576014 0.040991 -0.000348 -39983.800000 0 0 1
-11.266237 8.975502 -24.419520 28.351379 -0.672709 2.608652 0.039815 -0.010765 958508.000000 0 0 1
-9.866637 8.831002 -24.765620 28.083324 -0.730066 2.650593 0.043549 -0.002997 950306.000000 0 0 1
-9.674137 8.140702 -26.002220 28.913240 -0.699533 2.689006 0.031970 -0.010476 -171195.000000 0 0 1
-9.367437 8.971902 -27.280990 30.207554 -0.763834 2.697773 0.053785 -0.010256 328925.000000 0 0 1
-8.067237 9.522802 -27.480940 30.182216 -0.867959 2.715291 0.048583 -0.010960 357152.000000 0 0 1
-7.856237 10.734402 -26.768830 29.891774 -0.938997 2.680406 0.036290 -0.005104 705550.000000 0 0 1
-6.375837 11.278102 -26.838190 29.801600 -1.056260 2.691857 0.032938 -0.005482 785959.000000 0 0 1
-6.026137 11.737902 -28.096620 31.040502 -1.096493 2.702552 0.033864 -0.005815 -242910.000000 0 0 1
-4.762337 12.339002 -28.118070 31.073408 -1.202453 2.701922 0.050828 -0.020009 -173037.000000 0 0 1
-4.061737 12.330602 -29.499120 32.229483 -1.252587 2.727008 0.051390 -0.023590 706934.000000 0 0 1
-2.681937 12.713402 -29.497650 32.232511 -1.362891 2.726681 0.058707 -0.035950 421467.000000 0 0 1
-2.095637 12.716102 -30.778710 33.367948 -1.407463 2.745054 0.059207 -0.034262 -366000.000000 0 0 1
-0.584837 12.904202 -30.657650 33.267882 -1.525506 2.742822 0.066946 -0.039914 -594592.000000 0 0 1
-0.002937 11.785702 -29.974290 32.208087 -1.570547 2.766968 0.046828 -0.030267 209708.000000 0 0 1
1.376063 11.513402 -30.177230 32.328273 1.451842 2.774745 0.056431 -0.032286 526667.000000 0 0 1
1.735863 10.865002 -31.560060 33.423029 1.412369 2.806139 0.063926 -0.023165 -455729.000000 0 0 1
1.751363 11.782202 -32.645430 34.750708 1.423232 2.791724 0.079471 -0.033365 151450.000000 0 0 1
1.901863 11.036402 -33.835050 35.640285 1.400146 2.821952 0.080815 -0.032554 -56543.400000 0 0 1
2.189963 11.910702 33.606090 35.721563 1.388962 0.345876 0.083555 -0.035158 207437.000000 0 0 1
3.487463 12.490902 33.653268 36.065599 1.298529 0.367822 0.081894 -0.034800 -21273.900000 0 0 1
3.631263 13.226602 32.484412 35.261396 1.302856 0.399525 0.072679 -0.025277 480128.000000 0 0 1
5.100363 13.488602 32.023642 35.120787 1.209290 0.423115 0.066809 -0.019539 361192.000000 0 0 1
5.748463 12.282102 31.626712 34.411390 1.133046 0.405065 0.067346 -0.020652 392518.000000 0 0 1
7.107663 12.623802 31.332302 34.519449 1.057999 0.433096 0.056782 -0.012466 409943.000000 0 0 1
7.847363 11.342302 30.818792 33.764283 0.965550 0.420798 0.031150 -0.006693 -75448.300000 0 0 1
7.332063 10.912702 29.586112 32.375673 0.979191 0.418160 0.033563 -0.008666 -229664.000000 0 0 1
8.135663 9.878202 29.105322 31.794459 0.881831 0.414243 0.033138 -0.004827 135147.000000 0 0 1
7.448263 8.951902 28.037032 30.359320 0.876827 0.393673 0.024087 -0.000939 -90869.700000 0 0 1
6.698263 7.941602 28.634482 30.460947 0.870123 0.348051 0.037526 -0.007856 -458032.000000 0 0 1
6.066363 7.199902 27.601002 29.162555 0.870636 0.328729 0.039340 -0.007191 96207.700000 0 0 1
5.225863 6.090502 28.374602 29.487656 0.861656 0.275631 0.057137 -0.014790 -291918.000000 0 0 1
5.970863 5.074402 28.891112 29.934881 0.704413 0.264849 0.047507 -0.013007 -559310.000000 0 0 1
5.294063 4.433602 29.946232 30.732080 0.697173 0.226630 0.050334 -0.016961 -505167.000000 0 0 1
5.964663 3.207102 30.575502 31.316513 0.493338 0.217972 0.058556 -0.014012 -83529.500000 0 0 1
5.995163 2.017702 29.817922 30.481495 0.324647 0.209041 0.060037 -0.013436 -474495.000000 0 0 1
7.108163 2.007502 28.981362 29.907781 0.275253 0.249548 0.058559 -0.013964 -674956.000000 0 0 1
7.267563 0.722202 28.148012 29.080055 0.099048 0.253865 0.051091 -0.021995 -102470.000000 0 0 1
7.704863 -0.361198 28.880772 29.893048 -0.046845 0.260983 0.026814 -0.007585 -274726.000000 0 0 1
7.937763 -1.469998 28.050162 29.188706 -0.183116 0.280223 0.044196 -0.006705 -2987.890000 0 0 1
8.759763 -2.641598 28.619652 30.046563 -0.292888 0.309421 0.024434 0.005838 -70268.600000 0 0 1
10.133763 -2.377998 28.788652 30.612652 -0.230491 0.346942 0.012241 0.002465 -417429.000000 0 0 1
10.761563 -3.637298 28.863542 31.018466 -0.325935 0.374945 0.009903 0.006055 -239437.000000 0 0 1
12.313163 -3.624398 28.846312 31.573089 -0.286267 0.418656 0.006500 0.013853 188310.000000 0 0 1
12.919163 -4.898098 28.593952 31.757050 -0.362390 0.450115 0.004639 0.014585 225424.000000 0 0 1
12.853463 -5.789198 29.693112 32.869548 -0.423186 0.443251 0.021480 0.011428 -594134.000000 0 0 1
12.269163 -7.182698 29.341012 32.603964 -0.529635 0.451207 0.024827 0.010687 257487.000000 0 0 1
10.871363 -7.153098 29.129862 31.904579 -0.581962 0.420143 0.022353 0.015919 -162371.000000 0 0 1
10.223363 -8.298798 28.710032 31.585647 -0.681864 0.430018 0.034342 0.008056 762817.000000 0 0 1
8.684663 -8.116598 28.465642 30.847938 -0.751600 0.395581 0.049143 0.000859 663623.000000 0 0 1
8.024963 -7.812798 29.666912 31.710653 -0.772003 0.360982 0.051406 0.004687 -972347.000000 0 0 1
6.694163 -7.539398 29.387732 31.069167 -0.844712 0.330498 0.045055 0.011580 -764945.000000 0 0 1
5.961663 -6.798098 30.512712 31.824222 -0.850857 0.288088 0.034381 0.005882 -102943.000000 0 0 1
6.010763 -7.533098 31.725472 33.156936 -0.897329 0.294912 0.023785 0.002791 402877.000000 0 0 1
5.330463 -7.007398 32.914534 34.071748 -0.920488 0.261373 0.017434 0.005957 258580.000000 0 0 1
5.748363 -5.607998 33.444837 34.395500 -0.773039 0.235658 0.027466 0.006642 -146196.000000 0 0 1
5.540863 -4.556998 32.581078 33.361565 -0.688272 0.216733 0.038736 0.004695 45870.900000 0 0 1
6.264063 -3.366898 32.952384 33.711038 -0.493191 0.212554 0.031535 0.008138 4099.090000 0 0 1
6.231563 -2.180798 31.958552 32.633377 -0.336639 0.203719 0.029350 0.014775 1464850.000000 0 0 1
4.862363 -1.688398 31.822272 32.235853 -0.334212 0.160358 0.046324 0.008475 914139.000000 0 0 1
4.813763 -0.486298 31.149212 31.522725 -0.100681 0.154094 0.053257 -0.008796 -555454.000000 0 0 1
3.407763 0.085302 31.106512 31.292734 0.025026 0.109150 0.053293 -0.009010 -478785.000000 0 0 1
2.864863 0.227902 32.396192 32.523416 0.079384 0.088480 0.052146 -0.014517 -26752.200000 0 0 1
1.578563 0.839002 32.367142 32.416472 0.488527 0.055175 0.057267 -0.018159 629116.000000 0 0 1
0.831563 0.983302 33.735532 33.760102 0.868813 0.038154 0.046203 -0.014001 -62489.200000 0 0 1
1.398463 1.962902 -34.147035 34.231984 0.951766 3.071129 0.038655 -0.006765 -603026.000000 0 0 1
0.559663 2.419602 -33.150680 33.243575 1.343490 3.066817 0.029591 -0.002103 -320965.000000 0 0 1
1.257263 3.421602 -32.182730 32.388520 1.218663 3.028805 0.026502 0.005549 1177.380000 0 0 1
2.235263 2.893802 -31.329040 31.541707 0.913093 3.025403 0.016495 0.011934 -278357.000000 0 0 1
2.891363 3.954502 -30.622660 31.012020 0.939464 2.982964 0.016529 0.013721 -555501.000000 0 0 1
4.021563 3.433302 -29.799200 30.264713 0.706652 2.965974 0.013795 0.015600 -566454.000000 0 0 1
3.561563 2.613702 -28.745700 29.083182 0.633094 2.989103 0.019118 0.003321 518755.000000 0 0 1
4.728963 2.099802 -28.106790 28.579082 0.417878 2.959540 0.020534 0.001782 413403.000000 0 0 1
4.425163 1.342302 -26.829320 27.224920 0.294513 2.970911 0.021264 0.000623 -150782.000000 0 0 1
3.587163 0.235702 -26.961330 27.199938 0.065613 3.009039 0.030789 0.003991 -234298.000000 0 0 1
3.302263 -0.196298 -25.664910 25.877231 -0.059374 3.013404 0.041503 0.000750 -184875.000000 0 0 1
3.797163 -1.599398 -25.201840 25.536430 -0.398655 2.979536 0.057391 -0.016845 361815.000000 0 0 1
5.197263 -1.618898 -24.956620 25.543400 -0.301965 2.926835 0.058271 -0.017781 -13965.300000 0 0 1
5.636163 -2.943998 -24.891520 25.690879 -0.481360 2.891484 0.067090 -0.026582 -712989.000000 0 0 1
7.046563 -3.058298 -24.315320 25.499844 -0.409480 2.835598 0.066693 -0.032523 -47932.600000 0 0 1
7.927063 -3.006898 -25.445270 26.820543 -0.362553 2.819968 0.050760 -0.014591 -162608.000000 0 0 1
9.196863 -3.590698 -25.177480 27.044055 -0.372226 2.767885 0.037033 -0.008723 423195.000000 0 0 1
-29.542127 -4.198998 17.639572 34.662997 0.141190 1.036904 0.058481 -0.000259 567003.000000 0 0 1
-30.960227 -4.201798 17.784772 35.951202 0.134892 1.053316 0.031658 0.009897 89987.800000 0 0 1
-31.323627 -5.324398 18.540072 36.786589 0.168371 1.042584 0.026847 0.000060 708886.000000 0 0 1
-32.784717 -5.310998 19.121572 38.323347 0.160601 1.048405 0.034338 0.007364 663787.000000 0 0 1
-33.728967 -5.372598 18.092472 38.650299 0.157960 1.083649 0.034144 0.012015 -654227.000000 0 0 1
-35.047854 -5.435598 18.526972 40.014329 0.153865 1.089410 0.030889 0.008332 -819393.000000 0 0 1
35.738311 -5.149498 17.472472 40.112735 -0.143104 1.120109 0.021622 0.007231 -1116810.000000 0 0 1
34.435101 -5.472098 17.798872 39.147412 -0.157593 1.098803 0.016010 0.010435 -998450.000000 0 0 1
33.564651 -4.938098 16.797472 37.856647 -0.146074 1.111059 0.031111 0.003155 793418.000000 0 0 1
32.087981 -5.343098 17.121972 36.760701 -0.165000 1.086294 0.046119 0.006239 591040.000000 0 0 1
31.446191 -4.603898 18.192972 36.620255 -0.145373 1.050888 0.054251 -0.000110 188953.000000 0 0 1
30.186001 -5.112898 18.521072 35.782209 -0.167787 1.026746 0.059145 -0.011635 -376622.000000 0 0 1
29.639081 -4.636698 19.854872 35.974853 -0.155181 0.986144 0.062304 -0.004443 116012.000000 0 0 1
28.734911 -3.535698 19.780472 35.063704 -0.122430 0.971418 0.070741 -0.009635 379595.000000 0 0 1
29.379911 -2.260998 19.582972 35.380561 -0.076806 0.984241 0.073481 -0.007559 159586.000000 0 0 1
28.487781 -1.028098 19.890972 34.760055 -0.036073 0.961566 0.047099 -0.006953 124324.000000 0 0 1
29.096961 0.187602 19.492472 35.023204 0.006447 0.980558 0.058560 -0.005675 99914.800000 0 0 1
28.253941 1.233502 19.887972 34.573663 0.043630 0.957905 0.052278 -0.001679 129350.000000 0 0 1
28.640231 2.593702 19.284272 34.624749 0.090315 0.980087 0.047059 0.001690 48957.400000 0 0 1
28.397861 2.575602 17.863872 33.648034 0.090450 1.011130 0.052687 -0.001470 159986.000000 0 0 1
28.482331 3.876002 17.248272 33.522671 0.135254 1.030342 0.046550 0.004990 65521.100000 0 0 1
28.093001 3.804802 15.747072 32.429362 0.134617 1.063769 0.048436 0.003785 -186848.000000 0 0 1
27.832531 5.089402 15.147872 32.093766 0.180860 1.079252 0.045552 0.005907 351736.000000 0 0 1
27.177201 4.912802 13.902772 30.919621 0.178838 1.104431 0.030380 0.007706 -17756.700000 0 0 1
26.736311 6.213902 13.201772 30.458656 0.228360 1.122498 0.041590 0.009858 211578.000000 0 0 1
25.675311 6.832402 13.919672 29.994343 0.260081 1.088204 0.032741 0.009708 -157532.000000 0 0 1
25.297311 8.132102 13.479572 29.795703 0.311028 1.101342 0.049399 -0.006131 -503084.000000 0 0 1
24.031911 8.637302 14.229472 29.233775 0.345033 1.062434 0.055987 -0.007699 482997.000000 0 0 1
22.867111 7.882302 13.885072 27.889616 0.331946 1.049669 0.068148 -0.005184 635007.000000 0 0 1
22.713411 6.625002 14.448272 27.722595 0.283805 1.022571 0.081723 -0.012260 -744643.000000 0 0 1
21.293211 6.056402 14.141472 26.269033 0.277111 1.002339 0.087895 -0.010763 209774.000000 0 0 1
21.027011 5.925102 12.730372 25.284470 0.274663 1.043168 0.095316 -0.011603 470116.000000 0 0 1
20.127911 4.864402 12.446072 24.159882 0.237128 1.029608 0.090186 -0.014575 -149514.000000 0 1 0
19.896011 4.810102 10.927372 23.203357 0.237210 1.080441 0.106444 -0.017231 406995.000000 0 1 0
20.909711 4.108102 10.155772 23.605767 0.193998 1.126055 0.107976 -0.022937 1191210.000000 0 1 0
20.699511 4.149202 8.750572 22.852968 0.197828 1.177855 0.126227 -0.026631 -288549.000000 0 1 0
21.768611 3.329302 7.999872 23.429781 0.151764 1.222347 0.107602 -0.023783 -1298090.000000 0 1 0
21.795511 1.911502 8.310672 23.404389 0.087478 1.207786 0.092904 -0.025835 434923.000000 0 1 0
22.532411 1.119402 7.382872 23.737511 0.049639 1.254529 0.074796 -0.021181 717723.000000 0 1 0
24.091711 1.372402 7.492172 25.267107 0.056904 1.269751 0.074810 -0.021343 365897.000000 0 0 1
24.814411 0.939802 8.629472 26.288895 0.037855 1.236340 0.062609 -0.001427 488393.000000 0 0 1
24.681011 1.942902 9.602572 26.554408 0.078559 1.200793 0.057949 -0.002341 -840720.000000 0 0 1
25.278011 1.576802 10.972672 27.601878 0.062298 1.161969 0.054233 0.002377 -213135.000000 0 0 1
26.677311 1.417702 10.979472 28.883172 0.053093 1.180855 0.048869 0.002999 -160276.000000 0 0 1
26.978541 0.863902 12.238172 29.637153 0.032011 1.145124 0.048770 -0.007154 397014.000000 0 0 1
28.512161 0.610602 12.372572 31.086922 0.021412 1.161461 0.073762 -0.007686 462566.000000 0 0 1
29.273841 1.739402 12.687072 31.952231 0.059349 1.162481 0.060320 -0.000771 767524.000000 0 0 1
30.682211 1.459902 12.589972 33.196940 0.047546 1.181810 0.072094 -0.003793 833609.000000 0 0 1
31.547101 2.667402 12.998872 34.224338 0.084352 1.181201 0.059547 0.000896 -438688.000000 0 0 1
31.498531 3.757802 12.125872 33.960496 0.118740 1.205680 0.067965 -0.011974 32228.900000 0 0 1
32.313131 4.837502 12.530172 34.993501 0.148603 1.204595 0.060424 -0.015407 71465.500000 0 0 1
33.713301 4.849002 11.872672 36.070207 0.142851 1.235388 0.053939 -0.007226 98800.900000 0 0 1
34.518281 3.795402 12.401772 36.874392 0.109513 1.227785 0.046542 -0.014050 80967.500000 0 0 1
35.892996 4.011802 12.192572 38.119031 0.111309 1.245220 0.046173 -0.006391 -78719.100000 0 0 1
-34.943514 3.026902 12.853072 37.355224 -0.086407 1.219541 0.052047 -0.001437 -597149.000000 0 0 1
-35.037741 1.654702 12.448072 37.220100 -0.047191 1.229780 0.051108 0.001660 292902.000000 0 0 1
35.679731 0.883902 12.894272 37.948475 0.024768 1.224109 0.056232 0.000763 2505.120000 0 0 1
35.378901 0.690202 14.423072 38.212145 0.019506 1.183758 0.063330 0.010713 -412725.000000 0 0 1
-35.518222 -0.180898 15.042372 38.572656 0.005093 1.170192 0.049317 0.014362 377837.000000 0 0 1
-35.804955 -0.357998 16.410072 39.387986 0.009998 1.141065 0.060644 0.010044 201274.000000 0 0 1
-34.763611 -1.332898 17.027772 38.732807 0.038323 1.115619 0.047575 0.011051 1135370.000000 0 0 1
-33.450847 -0.786798 17.262072 37.650463 0.023517 1.094510 0.040842 0.012398 1367420.000000 0 0 1
-32.495797 -1.563998 18.018072 37.189701 0.048092 1.065015 0.042552 0.014535 584051.000000 0 0 1
-32.506717 -1.320498 19.532872 37.946851 0.040600 1.030089 0.030044 0.009505 5744.170000 0 0 1
-33.504847 -2.010398 20.273272 39.212524 0.059931 1.027442 0.039864 -0.005316 171785.000000 0 0 1
-33.389747 -1.732698 21.650672 39.832513 0.051847 0.996144 0.028798 -0.002125 -320727.000000 0 0 1
-34.106718 -2.700598 22.487972 40.942281 0.079016 0.989317 0.038017 0.006927 -358558.000000 0 0 1
-33.600407 -4.036598 22.261872 40.507684 0.119562 0.988945 0.036922 -0.003436 297735.000000 0 0 1
-34.193440 -5.101698 23.027372 41.538880 0.148109 0.983206 0.034900 -0.008322 55663.300000 0 0 1
-34.324536 -4.959198 24.563712 42.498746 0.143487 0.954537 0.024823 -0.012447 -454356.000000 0 0 1
-33.082267 -4.917598 25.185172 41.867793 0.147567 0.925368 0.025611 -0.015807 -1085280.000000 0 0 1
-33.073077 -4.747798 26.576992 42.693167 0.142581 0.898848 0.027106 -0.026013 -265694.000000 0 0 1
-31.815667 -3.980198 26.970752 41.898689 0.124455 0.871455 0.027392 -0.019007 -765465.000000 0 0 1
-31.829877 -2.596598 26.612232 41.570354 0.081397 0.876072 0.020242 -0.007016 -107853.000000 0 0 1
-31.386757 -2.379998 25.278092 40.370470 0.075683 0.894187 0.027274 -0.002413 -333599.000000 0 0 1
-31.170077 -0.886698 25.008032 39.972010 0.028439 0.894846 0.019852 0.000129 128073.000000 0 0 1
-32.405967 -0.188098 24.974762 40.913578 0.005804 0.914196 0.036526 -0.010821 225040.000000 0 0 1
-32.300867 1.161502 24.686702 40.670977 -0.035943 0.918534 0.016740 -0.001309 568190.000000 0 0 1
-33.745327 1.822702 24.751972 41.889491 -0.053961 0.938638 0.038092 -0.000343 755627.000000 0 0 1
-34.399884 1.454902 23.582612 41.732582 -0.042269 0.970256 0.045850 0.009839 81278.900000 0 0 1
-35.550753 2.272702 23.289772 42.560953 -0.063841 0.991769 0.042409 0.013035 714135.000000 0 0 1
-35.205886 3.712102 22.688372 42.047549 -0.105052 1.000848 0.046023 0.025695 -176772.000000 0 0 1
-34.595672 3.725502 21.425872 40.863283 -0.107274 1.018867 0.037317 0.000693 -510358.000000 0 0 1
-35.438285 3.401302 20.338872 41.001349 -0.095685 1.051748 0.050865 0.001056 -478459.000000 0 0 1
-34.840941 2.650502 19.173172 39.856328 -0.075928 1.068936 0.052922 0.003239 -145644.000000 0 0 1
-33.916987 3.444402 18.444472 38.761121 -0.101207 1.074866 0.055014 -0.001513 108597.000000 0 0 1
-33.525837 2.798902 17.241272 37.803136 -0.083292 1.097210 0.060065 0.005929 -650992.000000 0 0 1
-32.586777 3.510802 16.315772 36.611859 -0.107323 1.108905 0.055263 -0.001141 -291204.000000 0 0 1
-33.077747 4.838502 15.960272 37.044281 -0.145247 1.125370 0.061765 -0.013889 435377.000000 0 0 1
-32.143717 5.461502 15.086372 35.925551 -0.168302 1.137423 0.072729 -0.010369 149138.000000 0 0 1
-32.789067 6.669602 14.413372 36.432840 -0.200672 1.164059 0.074276 -0.017724 119837.000000 0 0 1
-31.919917 7.288402 13.469672 35.403870 -0.224485 1.180505 0.088340 -0.017362 119290.000000 0 0 1
-32.344127 8.579002 13.127872 35.945554 -0.259271 1.196932 0.062793 -0.018115 -168611.000000 0 0 1
-31.456727 9.241802 12.056172 34.932619 -0.285754 1.218423 0.072663 -0.012988 -127195.000000 0 0 1
-31.573117 10.620402 11.980572 35.400407 -0.324485 1.225548 0.065486 -0.004926 -47520.300000 0 0 1
-30.876837 11.171302 10.895972 34.596232 -0.347150 1.250396 0.050820 -0.007476 -293631.000000 0 0 1
-31.079177 12.713702 10.709172 35.245423 -0.388305 1.262070 0.040677 0.002816 160670.000000 0 0 1
-30.225887 13.244402 9.697872 34.395743 -0.412982 1.284971 0.033428 -0.000666 325274.000000 0 0 1
-30.234887 14.692502 9.754972 35.002536 -0.452341 1.288363 0.038381 -0.003529 -107294.000000 0 0 1
-29.554657 15.420902 8.578972 34.422097 -0.480916 1.318913 0.043731 -0.009523 -424.045000 0 0 1
-28.156937 15.528002 8.709972 33.313594 -0.503979 1.306268 0.057169 -0.001227 -13514.600000 0 0 1
-27.521337 16.469702 7.882972 33.027509 -0.539267 1.329791 0.046971 -0.009790 -569027.000000 0 0 1
-26.065177 16.720802 8.225772 32.041255 -0.570376 1.311165 0.056799 -0.000622 -1068140.000000 0 0 1
-25.732097 17.328002 9.492872 32.442489 -0.592650 1.273845 0.054807 -0.000542 267519.000000 0 0 1
-26.350927 18.568502 9.875472 33.714768 -0.613848 1.273525 0.063492 -0.010978 -151221.000000 0 0 1
-26.407357 18.851302 11.397772 34.389378 -0.619971 1.232974 0.075917 -0.001371 141116.000000 0 0 1
-25.112247 18.919502 11.968172 33.642379 -0.645672 1.207083 0.071664 0.000522 327358.000000 0 0 1
-25.111217 19.388502 13.299372 34.400008 -0.657499 1.173844 0.075311 -0.006852 -43007.400000 0 0 1
-25.596467 18.416602 14.375872 34.655679 -0.623692 1.143051 0.073085 -0.002588 -588568.000000 0 0 1
-24.799037 17.313802 14.479372 33.532256 -0.609493 1.124304 0.072510 -0.004328 -336752.000000 0 0 1
-25.201817 16.468302 15.521772 33.871256 -0.578802 1.094762 0.062995 -0.004074 -572039.000000 0 0 1
-24.060637 15.606602 16.036572 32.858057 -0.575416 1.060935 0.061903 -0.004302 -310530.000000 0 0 1
-23.100237 16.355702 16.780372 32.904572 -0.616096 1.035645 0.063093 -0.006472 667947.000000 0 0 1
-21.932437 15.630802 17.196772 31.954385 -0.619185 1.002536 0.049596 -0.022862 363269.000000 0 0 1
-22.054137 14.505602 18.184572 32.054268 -0.581788 0.967566 0.042858 -0.004116 -573340.000000 0 0 1
-22.362937 15.016202 19.482172 33.243681 -0.591326 0.944632 0.035054 0.003718 197907.000000 0 0 1
-22.660537 14.013802 20.458772 33.592379 -0.553856 0.915959 0.013092 0.009063 -568416.000000 0 0 1
-22.358037 14.350602 21.953272 34.464007 -0.570628 0.880207 0.015144 0.010668 1623170.000000 0 0 1
-20.933237 14.472502 22.270172 33.817367 -0.604907 0.851916 0.031258 0.000635 1586110.000000 0 0 1
-20.386037 15.731002 21.933672 33.825152 -0.657217 0.865259 0.041393 0.014618 232077.000000 0 0 1
-18.853737 15.915202 22.244772 33.220279 -0.701082 0.837107 0.062112 -0.001890 998300.000000 0 0 1
-18.026637 15.125602 21.419972 31.820727 -0.698114 0.832343 0.049636 0.006234 -168284.000000 0 0 1
-17.502437 15.921102 20.369572 31.220766 -0.738121 0.860001 0.045089 -0.008703 -2191740.000000 0 0 1
-16.554637 15.065602 19.530472 29.706358 -0.738342 0.853366 0.050259 0.002444 598478.000000 0 0 1
-15.360037 14.594802 20.171572 29.254594 -0.759857 0.809973 0.055469 0.002244 934299.000000 0 0 1
-14.554137 15.586202 20.806072 29.793376 -0.819627 0.797713 0.049225 -0.007450 -1314680.000000 0 0 1
-13.534237 15.068602 21.840072 29.786357 -0.838991 0.747745 0.021151 0.003398 -374844.000000 0 0 1
-12.374237 14.482602 21.340672 28.605800 -0.863741 0.728722 0.025493 -0.000951 -312576.000000 0 0 1
-11.567637 13.943902 22.381272 28.795207 -0.878275 0.680502 0.044839 -0.002727 3102.710000 0 0 1
-10.225637 13.349202 21.939372 27.642375 -0.917127 0.653951 0.046722 -0.002899 -1573750.000000 0 0 1
-9.685637 12.567702 22.929472 27.884034 -0.914193 0.605328 0.062079 -0.003789 -625480.000000 0 0 1
-8.569437 11.882202 22.481372 26.833450 -0.945984 0.577534 0.061413 0.000203 -927363.000000 0 0 1
-7.246937 12.623402 22.455872 26.760690 -1.049648 0.575103 0.052122 -0.001809 -1740840.000000 0 0 1
-7.096737 13.506902 21.332672 26.227523 -1.087024 0.620875 0.048964 -0.002400 -98791.600000 0 0 1
-6.182937 14.574502 21.551972 26.741958 -1.169578 0.633563 0.030517 0.005784 214365.000000 0 0 1
-6.760337 15.752402 22.468372 28.260716 -1.165405 0.651724 0.034414 0.002546 56998.800000 0 0 1
-7.832537 16.460602 21.919572 28.509081 -1.126667 0.693736 0.022008 0.006070 -481763.000000 0 0 1
-7.484437 17.397002 20.942372 28.235712 -1.164517 0.735198 0.021152 0.010059 -523705.000000 0 0 1
-8.616737 17.397402 19.866272 27.777446 -1.110925 0.773894 0.032476 0.010961 1189600.000000 0 0 1
-9.736137 18.234802 20.144072 28.863194 -1.080373 0.798314 0.020080 0.012021 334183.000000 0 0 1
-10.685737 17.724002 21.062372 29.528778 -1.028250 0.776625 0.024914 0.003802 -245998.000000 0 0 1
-11.985637 18.541602 21.258572 30.649199 -0.996943 0.804309 0.012606 0.002337 666053.000000 0 0 1
-12.800237 18.648802 20.065472 30.236518 -0.969267 0.845153 0.016103 0.000386 -330472.000000 0 0 1
-14.005637 19.294702 20.310772 31.320454 -0.942912 0.865207 0.005628 -0.002884 -391300.000000 0 0 1
-14.726637 19.372302 18.918172 30.822997 -0.920805 0.909972 0.023026 -0.007617 21965.500000 0 0 1
-15.359837 18.178102 18.415872 30.091732 -0.869233 0.912221 0.040182 -0.006167 460997.000000 0 0 1
-15.907337 18.376002 17.121972 29.730166 -0.857282 0.957077 0.068186 -0.019846 -1184470.000000 0 0 1
-16.709137 17.139202 16.591772 29.124464 -0.798103 0.964674 0.067945 -0.022040 715309.000000 0 0 1
-17.902337 16.780302 17.288272 30.015938 -0.753058 0.957006 0.062201 -0.018563 2980.520000 0 0 1
-18.922637 17.716302 17.224472 31.122596 -0.752485 0.984308 0.063119 -0.017596 -1424960.000000 0 0 1
33.538991 -10.545498 11.824480 37.092988 -0.304638 1.246355 0.054934 -0.013314 -782193.000000 0 0 1
32.158771 -10.641198 11.628480 35.814009 -0.319555 1.240112 0.035656 -0.001762 -349702.000000 0 0 1
31.605731 -11.689698 12.436280 35.919804 -0.354257 1.217254 0.072876 -0.009671 -816896.000000 0 0 1
30.128721 -11.917498 12.202580 34.621808 -0.376667 1.210605 0.037995 0.001983 -1216950.000000 0 0 1
29.390521 -10.820798 12.724680 33.805471 -0.352772 1.184879 0.042474 0.001473 320134.000000 0 0 1
27.980921 -10.947798 12.782180 32.652264 -0.372949 1.168575 0.033201 0.000089 463913.000000 0 0 1
27.404431 -11.880498 13.858880 32.927460 -0.409069 1.136369 0.018386 0.001136 -953430.000000 0 0 1
27.789051 -11.517698 15.216780 33.711113 -0.392917 1.102477 0.026862 0.000833 67102.100000 0 0 1
27.038271 -12.043098 16.279080 33.780361 -0.419030 1.067964 0.034784 -0.002598 -357554.000000 0 0 1
25.597311 -11.542198 16.408780 32.522188 -0.423614 1.041946 0.048466 -0.016429 -495916.000000 0 0 1
25.468011 -10.129398 16.659380 32.074277 -0.378548 1.024648 0.051525 -0.009029 -489312.000000 0 0 1
24.732611 -9.447598 15.703680 30.782539 -0.364884 1.035438 0.058537 -0.013353 -359093.000000 0 0 1
24.636611 -7.943298 16.050980 30.458046 -0.311895 1.015745 0.073943 -0.025423 -16472.000000 0 0 1
25.877411 -7.280298 16.101080 31.335091 -0.274249 1.031147 0.067893 -0.022693 -303636.000000 0 0 1
25.752411 -5.884798 16.259080 31.018949 -0.224657 1.019061 0.076513 -0.019893 282191.000000 0 0 1
27.053251 -5.050798 16.089180 31.878687 -0.184573 1.041762 0.076903 -0.016226 319998.000000 0 0 1
27.449901 -4.772998 14.692980 31.498607 -0.172159 1.085507 0.083313 -0.015159 -127725.000000 0 0 1
28.723101 -4.203598 14.750280 32.561596 -0.145317 1.100673 0.075227 -0.009291 -508190.000000 0 0 1
29.121421 -3.499798 13.460280 32.272045 -0.119606 1.140557 0.068427 -0.007210 -222104.000000 0 0 1
29.411241 -4.456698 12.420680 32.235951 -0.150386 1.175258 0.045777 -0.004073 271900.000000 0 0 1
29.567491 -3.685698 11.227380 31.841403 -0.124014 1.210445 0.056855 -0.011103 -205939.000000 0 0 1
30.002301 -4.429998 10.001180 31.934097 -0.146596 1.252255 0.071301 -0.004821 51092.200000 0 0 1
31.340981 -4.880598 10.127980 33.296446 -0.154485 1.261723 0.072324 -0.007028 264970.000000 0 0 1
31.791701 -5.526798 8.945880 33.485617 -0.172124 1.300356 0.077272 -0.011845 -1582620.000000 0 0 1
33.127171 -6.147498 9.042680 34.885115 -0.183485 1.308589 0.070197 -0.012423 -1917260.000000 0 0 1
34.168351 -5.254598 8.773380 35.665939 -0.152590 1.322258 0.071704 -0.012903 214460.000000 0 0 1
35.377221 -6.061998 8.739280 36.941449 -0.169705 1.331961 0.066356 -0.011687 1353790.000000 0 0 1
-35.172687 -5.260898 8.282280 36.515629 0.148473 1.341990 0.062304 -0.011888 363089.000000 0 0 1
-35.229893 -4.885098 6.910780 36.232147 0.137785 1.378884 0.064301 -0.010162 859267.000000 0 0 1
-34.130010 -4.019698 6.540380 34.982741 0.117236 1.382729 0.046008 -0.002144 550365.000000 0 0 1
-34.501833 -3.270298 5.209580 35.045843 0.094504 1.421593 0.051738 -0.009522 -48690.100000 0 0 1
-33.872227 -3.802598 4.092280 34.329787 0.111795 1.451307 0.064847 -0.012987 -65791.800000 0 0 1
-34.304706 -3.154898 2.956080 34.576071 0.091709 1.485197 0.054637 -0.008514 -24786.500000 0 0 1
-33.797377 -3.833798 1.664880 34.054846 0.112952 1.521889 0.100754 -0.013742 123800.000000 0 0 1
-34.414709 -5.082098 1.349480 34.814093 0.146613 1.532024 0.090051 -0.010136 -153461.000000 0 0 1
-35.272285 -5.002598 0.239480 35.626078 0.140888 1.564074 0.071454 -0.010042 -712100.000000 0 0 1
-34.615617 -4.948398 -1.154720 34.986583 0.141991 1.603807 0.110105 -0.020415 -850416.000000 0 0 1
-34.237856 -6.248398 -1.583220 34.839344 0.180513 1.616255 0.108561 -0.029876 542553.000000 0 0 1
-33.261667 -6.310198 -2.616220 33.955879 0.187486 1.647920 0.104590 -0.030511 538876.000000 0 0 1
-31.792807 -5.888798 -2.306620 32.415753 0.183149 1.642014 0.112050 -0.037823 173536.000000 0 0 1
-31.082267 -6.913798 -1.608120 31.882503 0.218872 1.621257 0.123085 -0.036215 219175.000000 0 0 1
-29.841207 -6.444998 -1.104520 30.549233 0.212709 1.606960 0.110055 -0.042655 -61413.800000 0 0 1
-29.181437 -7.314298 -0.061720 30.084200 0.245589 1.572848 0.083035 -0.035095 -248290.000000 0 0 1
-28.632857 -8.521598 -0.580120 29.879670 0.289268 1.590213 0.077715 -0.033516 482621.000000 0 0 1
-28.078117 -9.326798 0.426680 29.589726 0.320706 1.556376 0.095625 -0.026325 -194962.000000 0 0 1
-27.688957 -10.747198 0.075680 29.701622 0.370241 1.568248 0.064852 -0.028119 728333.000000 0 0 1
-26.609807 -10.731398 -0.918720 28.706947 0.383337 1.602805 0.063869 -0.029926 1127010.000000 0 0 1
-26.213527 -12.063198 -1.282920 28.884523 0.431295 1.615226 0.047933 -0.013919 -65853.200000 0 0 1
-27.132387 -12.905498 -2.224520 30.127509 0.443978 1.644700 0.055438 -0.014001 -322648.000000 0 0 1
-28.206737 -13.525498 -1.565420 31.321074 0.447124 1.620797 0.073298 -0.023982 182060.000000 0 0 1
-28.650627 -14.568298 -2.444820 32.234623 0.470409 1.646714 0.072238 -0.020726 -252491.000000 0 0 1
-29.623287 -15.526298 -1.727720 33.490149 0.482761 1.622408 0.087240 -0.016926 64360.700000 0 0 1
-28.973127 -16.283598 -0.731720 33.243542 0.512028 1.592809 0.066584 -0.011802 134105.000000 0 0 1
-29.905177 -16.945398 0.061880 34.372518 0.515527 1.568996 0.074838 -0.008499 -168408.000000 0 0 1
-30.333537 -18.361598 -0.395220 35.460231 0.544325 1.581942 0.071047 -0.004096 81493.800000 0 0 1
-29.272907 -19.292798 -0.220020 35.059429 0.582723 1.577072 0.080506 -0.008739 497057.000000 0 0 1
-29.649067 -20.635998 -0.319720 36.124975 0.608042 1.579647 0.065875 -0.007823 -174570.000000 0 0 1
-30.408947 -21.335298 0.821880 37.156083 0.611807 1.548675 0.058299 -0.005775 -459582.000000 0 0 1
-29.660667 -21.515798 1.985380 36.696410 0.627569 1.516667 0.049829 -0.007510 -86459.100000 0 0 1
-30.567357 -21.895098 2.979680 37.717863 0.621576 1.491715 0.035515 -0.002004 235185.000000 0 0 1
-29.911657 -22.086198 4.405680 37.442188 0.636023 1.452857 0.018329 0.001920 265748.000000 0 0 1
-29.211837 -20.908198 4.841380 36.248078 0.621214 1.436834 0.012023 -0.002567 334196.000000 0 0 1
-28.446627 -21.159798 6.016280 35.960302 0.639548 1.402702 0.000225 -0.003765 289984.000000 0 0 1
-27.874477 -19.839998 6.649280 34.854339 0.618576 1.378846 0.004972 0.004585 325995.000000 0 0 1
-27.111337 -20.064898 7.832480 34.626182 0.637130 1.342620 0.005254 0.007251 12005.200000 0 0 1
-26.559237 -18.871298 8.380280 33.641464 0.617762 1.319040 0.013223 -0.001867 425044.000000 0 0 1
-25.498977 -19.052198 9.476680 33.211317 0.641691 1.281430 0.021651 0.003230 317233.000000 0 0 1
-26.184047 -19.386598 10.693480 34.289868 0.637327 1.253651 0.014670 0.001242 899507.000000 0 0 1
-25.270837 -19.977998 11.657080 34.258184 0.668955 1.223591 0.028416 0.008052 495976.000000 0 0 1
-24.643737 -19.026198 12.726380 33.634369 0.657464 1.182757 0.021623 0.002565 -341061.000000 0 0 1
-23.664937 -18.137898 12.244380 32.232553 0.653944 1.181134 0.023031 0.000224 -153399.000000 0 0 1
-23.307837 -17.054598 13.091380 31.709601 0.631693 1.145213 0.024717 -0.000159 301997.000000 0 0 1
-22.684537 -17.369198 14.488180 32.034117 0.653464 1.101484 0.029004 -0.003912 -929192.000000 0 0 1
-23.649937 -17.683698 15.420580 33.314066 0.642045 1.089549 0.023415 0.001595 -613508.000000 0 0 1
-23.084037 -18.324598 16.511180 33.782876 0.670962 1.060147 0.033251 0.005185 -55911.100000 0 0 1
-24.161837 -18.704898 17.555980 35.240318 0.658779 1.049299 0.025797 0.012724 136503.000000 0 0 1
-24.676737 -17.604598 18.271580 35.393698 0.619668 1.028344 0.033520 0.010056 -174774.000000 0 0 1
-25.804967 -18.108098 18.963280 36.788660 0.611886 1.029246 0.023679 0.023109 -323463.000000 0 0 1
-26.632397 -16.963598 19.548280 37.137360 0.567149 1.016462 0.025497 0.023551 -626992.000000 0 0 1
-26.177537 -16.429598 20.778580 37.241704 0.560483 0.978897 0.036491 0.012461 293431.000000 0 0 1
-27.042027 -15.424298 21.336180 37.741393 0.518357 0.969968 0.044405 0.007465 48976.900000 0 0 1
-26.452087 -14.733498 22.563580 37.761144 0.508193 0.930374 0.042947 0.004586 307509.000000 0 0 1
-25.239077 -14.107798 22.157680 36.428063 0.509701 0.916932 0.040618 0.004700 188820.000000 0 0 1
-24.326837 -13.881798 23.208680 36.375021 0.518549 0.878848 0.032993 -0.003163 -163564.000000 0 0 1
-23.049137 -13.227798 22.659680 34.924182 0.521004 0.864757 0.028596 0.003935 -360720.000000 0 0 1
-23.235237 -11.943298 22.228880 34.302212 0.474798 0.865801 0.046993 -0.000164 553308.000000 0 0 1
-22.125137 -11.428898 21.470380 32.880368 0.476805 0.859278 0.033840 -0.001154 188048.000000 0 0 1
-21.871737 -9.891698 21.718680 32.371587 0.424731 0.835350 0.040062 -0.002274 -11941.900000 0 0 1
-21.299237 -9.577398 22.967280 32.754847 0.422570 0.793735 0.034034 -0.004113 669538.000000 0 0 1
-19.869737 -9.652998 22.973980 31.871470 0.452235 0.765794 0.018256 0.002902 394328.000000 0 0 1
-19.338437 -9.703598 24.424380 32.629516 0.465069 0.724944 0.006216 0.000542 53072.200000 0 0 1
-19.646437 -10.919398 25.126980 33.713215 0.507282 0.729788 0.011943 0.002292 -38693.300000 0 0 1
-19.157237 -10.847998 26.437680 34.403920 0.515242 0.694382 0.014380 -0.002489 -1073510.000000 0 0 1
-19.201237 -12.172498 27.185780 35.439016 0.565005 0.696465 0.005954 -0.005978 -333116.000000 0 0 1
-20.383937 -12.524898 27.841180 36.708436 0.550976 0.709879 0.016008 -0.002248 -829541.000000 0 0 1
-21.276937 -13.085998 26.901180 36.710011 0.551399 0.748365 0.011340 -0.004836 -237100.000000 0 0 1
-22.477237 -13.832798 27.561280 38.160145 0.551676 0.763742 0.016492 -0.008192 -49930.400000 0 0 1
-22.295137 -15.046698 28.373880 39.096718 0.593672 0.758693 0.013441 -0.007537 -809057.000000 0 0 1
-21.616837 -14.830998 29.537680 39.493299 0.601326 0.725879 0.004478 -0.002293 -439779.000000 0 0 1
-21.974837 -15.698698 30.795180 40.959562 0.620321 0.719943 0.004422 -0.006036 -939245.000000 0 0 1
-21.628237 -17.019698 30.556480 41.123585 0.666714 0.733195 0.007092 -0.005032 -72401.600000 0 0 1
-21.791037 -17.977898 31.581280 42.372531 0.689808 0.729775 0.006712 -0.005742 441581.000000 0 0 1
-23.229637 -18.272598 32.152880 43.672778 0.666521 0.743325 0.036254 -0.005856 683187.000000 0 0 1
-23.819837 -17.310798 32.988680 44.218790 0.628447 0.728711 0.051965 -0.011617 -170721.000000 0 0 1
-25.056507 -17.777098 33.492280 45.448725 0.617060 0.742287 0.056170 -0.018610 -589536.000000 0 0 1
-25.788967 -16.695098 34.292380 46.040900 0.574527 0.730525 0.055264 -0.017071 -377257.000000 0 0 1
-25.299177 -16.342598 -33.096613 44.749465 0.573539 2.403269 0.064991 -0.019154 -446039.000000 0 0 1
-26.027357 -15.289998 -32.538313 44.384109 0.531147 2.393676 0.070217 -0.017625 -294443.000000 0 0 1
-25.453437 -14.755398 -31.206713 42.888905 0.525360 2.385639 0.069020 -0.007557 -263254.000000 0 0 1
-25.693117 -15.616998 -30.109213 42.551047 0.546156 2.356895 0.079685 -0.001933 139775.000000 0 0 1
-25.154727 -15.134098 -28.875113 41.177340 0.541625 2.347929 0.085925 -0.000310 160767.000000 0 0 1
-25.749437 -15.884798 -27.641113 40.980379 0.552753 2.311079 0.072070 -0.005444 1067620.000000 0 0 1
-26.931277 -15.336798 -26.975513 41.087582 0.517675 2.287015 0.077836 -0.009157 910942.000000 0 0 1
-26.889327 -14.159798 -26.158913 40.097687 0.484697 2.281516 0.076296 -0.010283 -582548.000000 0 0 1
-25.987867 -14.010098 -24.908613 38.627595 0.494437 2.271610 0.066680 -0.021701 133406.000000 0 0 1
-24.634037 -14.094398 -25.341513 38.048392 0.519691 2.299675 0.052566 -0.026283 575285.000000 0 0 1
-23.631537 -14.181898 -24.327013 36.761112 0.540512 2.293959 0.054271 -0.026947 408541.000000 0 0 1
-23.195637 -15.673398 -24.252913 37.039125 0.594234 2.284703 0.049938 -0.022161 -471575.000000 0 0 1
-22.342337 -16.016298 -25.325013 37.377241 0.621951 2.315225 0.046889 -0.012605 -214286.000000 0 0 1
-22.044137 -17.380298 -25.271513 37.771260 0.667647 2.303749 0.052818 -0.014658 274097.000000 0 0 1
-21.118237 -17.782198 -26.487313 38.259172 0.699849 2.335486 0.039051 -0.004949 316272.000000 0 0 1
-21.684537 -17.775898 -27.784413 39.473729 0.686668 2.351629 0.040932 -0.009848 43432.900000 0 0 1
-22.627337 -18.785798 -28.083813 40.664519 0.692901 2.333145 0.048606 -0.012631 -193484.000000 0 0 1
-23.398837 -18.746698 -29.385313 41.981435 0.675460 2.346137 0.049332 -0.008456 -506174.000000 0 0 1
-22.576937 -18.945398 -30.474113 42.394785 0.698160 2.372896 0.040426 -0.007476 -255402.000000 0 0 1
-23.266837 -18.733898 -31.695913 43.553824 0.677889 2.385819 0.035748 -0.007475 -279970.000000 0 0 1
-22.493337 -19.016998 -33.034013 44.258812 0.701847 2.413406 0.029267 -0.009356 -209447.000000 0 0 1
-21.232137 -18.362898 -33.060813 43.370693 0.713060 2.437632 0.021642 -0.006076 804649.000000 0 0 1
-20.072037 -19.155798 -32.783313 42.948538 0.762046 2.439227 0.014591 -0.009181 464043.000000 0 0 1
-19.700837 -20.393098 -33.694513 44.037730 0.802662 2.442037 0.016167 -0.008971 -744430.000000 0 0 1
-19.378437 -19.902398 33.666580 43.647083 0.798736 0.689858 0.011568 -0.009159 194308.000000 0 0 1
-19.222137 -20.824898 32.609880 43.203833 0.825399 0.715460 0.013957 -0.009772 354492.000000 0 0 1
-20.573537 -21.294798 31.925280 43.542650 0.802623 0.747787 0.019083 -0.001039 453787.000000 0 0 1
-21.445337 -21.950498 32.842180 44.948144 0.797038 0.751496 0.012781 -0.002903 -272324.000000 0 0 1
-22.586737 -22.439098 32.174780 45.264669 0.782119 0.780141 0.007056 0.006552 -201418.000000 0 0 1
-22.335037 -23.618398 31.190980 45.050636 0.813318 0.806050 0.015121 0.009612 -741542.000000 0 0 1
-21.881837 -24.764398 31.881680 45.918751 0.847116 0.803341 0.012906 0.013425 -70186.500000 0 0 1
-21.992137 -25.906908 31.101280 46.066382 0.866947 0.829641 0.020955 0.018503 -55141.100000 0 0 1
-21.435437 -27.178478 31.795680 47.001201 0.902989 0.827815 0.040012 0.007720 38944.300000 0 0 1
-22.047337 -27.467728 33.034280 48.288972 0.894434 0.817433 0.019528 0.009862 304012.000000 0 0 1
-21.262137 -28.479648 33.688580 48.970289 0.929492 0.812151 0.027522 0.005410 382987.000000 0 0 1
-22.130737 -29.488338 -34.089413 50.213740 0.926981 2.317041 0.020319 -0.002155 539943.000000 0 0 1
-23.102937 -30.358928 33.929280 51.054934 0.920297 0.843886 0.023622 -0.002440 1380180.000000 0 0 1
-24.257237 -29.810828 33.257880 50.825049 0.887754 0.857460 0.012110 0.003293 362341.000000 0 0 1
-25.305997 -29.258618 34.237780 51.659324 0.857711 0.846297 0.012134 0.002663 -1342770.000000 0 0 1
-26.386247 -28.566758 33.711780 51.466278 0.825057 0.856579 0.009007 0.007841 -399749.000000 0 0 1
-27.146167 -28.079498 -33.829513 51.670190 0.802297 2.284609 0.005623 0.011914 -568138.000000 0 0 1
-28.268567 -27.142788 -34.226213 52.031495 0.765084 2.288688 -0.000213 0.008804 -806623.000000 0 0 1
-29.256887 -27.878678 33.758880 52.657840 0.761281 0.874867 0.004016 0.007617 32655.100000 0 0 1
-30.447677 -27.072648 33.607780 52.815454 0.726790 0.881072 0.014777 -0.002855 754635.000000 0 0 1
